TITLE = "B00009"
VARIABLES = "x", "y", "Reynold stress XY"
ZONE T="Frame 1" I=84, J=163, F=POINT
-7.223550 49.412601 0.000000
-6.908809 49.412601 0.000000
-6.594068 49.412601 0.000000
-6.279327 49.412601 0.000000
-5.964586 49.412601 0.000000
-5.649845 49.412601 0.000000
-5.335104 49.412601 0.000000
-5.020363 49.412601 0.000000
-4.705622 49.412601 0.000000
-4.390881 49.412601 0.000000
-4.076140 49.412601 0.000000
-3.761399 49.412601 0.000000
-3.446658 49.412601 0.000000
-3.131917 49.412601 0.000000
-2.817176 49.412601 0.000000
-2.502435 49.412601 0.000000
-2.187694 49.412601 0.000000
-1.872953 49.412601 0.000000
-1.558212 49.412601 0.000000
-1.243471 49.412601 0.000000
-0.928730 49.412601 0.000000
-0.613989 49.412601 0.000000
-0.299248 49.412601 0.000000
0.015493 49.412601 0.000000
0.330234 49.412601 0.000000
0.644975 49.412601 0.000000
0.959716 49.412601 0.000000
1.274457 49.412601 0.000000
1.589198 49.412601 0.000000
1.903938 49.412601 0.000000
2.218679 49.412601 0.000000
2.533421 49.412601 0.000000
2.848162 49.412601 0.000000
3.162903 49.412601 0.000000
3.477644 49.412601 0.000000
3.792385 49.412601 0.000000
4.107125 49.412601 0.000000
4.421866 49.412601 0.000000
4.736608 49.412601 0.000000
5.051349 49.412601 0.000000
5.366090 49.412601 0.000000
5.680831 49.412601 0.000000
5.995571 49.412601 0.000000
6.310312 49.412601 0.000000
6.625053 49.412601 0.000000
6.939795 49.412601 0.000000
7.254536 49.412601 0.000000
7.569277 49.412601 0.000000
7.884017 49.412601 0.000000
8.198758 49.412601 0.000000
8.513499 49.412601 0.000000
8.828240 49.412601 0.000000
9.142982 49.412601 0.000000
9.457723 49.412601 0.000000
9.772464 49.412601 0.000000
10.087205 49.412601 0.000000
10.401946 49.412601 0.000000
10.716687 49.412601 0.000000
11.031426 49.412601 0.000000
11.346168 49.412601 0.000000
11.660909 49.412601 0.000000
11.975650 49.412601 0.000000
12.290391 49.412601 0.000000
12.605132 49.412601 0.000000
12.919873 49.412601 0.000000
13.234614 49.412601 0.000000
13.549356 49.412601 0.000000
13.864097 49.412601 0.000000
14.178838 49.412601 0.000000
14.493579 49.412601 0.000000
14.808320 49.412601 0.000000
15.123059 49.412601 0.000000
15.437800 49.412601 0.000000
15.752542 49.412601 0.000000
16.067284 49.412601 0.000000
16.382023 49.412601 0.000000
16.696766 49.412601 0.000000
17.011505 49.412601 0.000000
17.326248 49.412601 0.000000
17.640987 49.412601 0.000000
17.955730 49.412601 0.000000
18.270470 49.412601 0.000000
18.585213 49.412601 0.000000
18.899952 49.412601 0.000000
-7.223550 49.097862 0.000000
-6.908809 49.097862 0.000000
-6.594068 49.097862 0.000000
-6.279327 49.097862 0.000000
-5.964586 49.097862 0.000000
-5.649845 49.097862 0.000000
-5.335104 49.097862 0.000000
-5.020363 49.097862 0.000000
-4.705622 49.097862 0.000000
-4.390881 49.097862 0.000000
-4.076140 49.097862 0.000000
-3.761399 49.097862 0.000000
-3.446658 49.097862 0.000000
-3.131917 49.097862 0.000000
-2.817176 49.097862 0.000000
-2.502435 49.097862 0.000000
-2.187694 49.097862 0.000000
-1.872953 49.097862 0.000000
-1.558212 49.097862 0.000000
-1.243471 49.097862 0.000000
-0.928730 49.097862 0.000000
-0.613989 49.097862 0.000000
-0.299248 49.097862 0.000000
0.015493 49.097862 0.000000
0.330234 49.097862 0.000000
0.644975 49.097862 0.000000
0.959716 49.097862 0.000000
1.274457 49.097862 0.000000
1.589198 49.097862 0.000000
1.903938 49.097862 0.000000
2.218679 49.097862 0.000000
2.533421 49.097862 0.000000
2.848162 49.097862 0.000000
3.162903 49.097862 0.000000
3.477644 49.097862 0.000000
3.792385 49.097862 0.000000
4.107125 49.097862 0.000000
4.421866 49.097862 0.000000
4.736608 49.097862 0.000000
5.051349 49.097862 0.000000
5.366090 49.097862 0.000000
5.680831 49.097862 0.000000
5.995571 49.097862 0.000000
6.310312 49.097862 0.000000
6.625053 49.097862 0.000000
6.939795 49.097862 0.000000
7.254536 49.097862 0.000000
7.569277 49.097862 0.000000
7.884017 49.097862 0.000000
8.198758 49.097862 0.000000
8.513499 49.097862 0.000000
8.828240 49.097862 0.000000
9.142982 49.097862 0.000000
9.457723 49.097862 0.000000
9.772464 49.097862 0.000000
10.087205 49.097862 0.000000
10.401946 49.097862 0.000000
10.716687 49.097862 0.000000
11.031426 49.097862 0.000000
11.346168 49.097862 0.000000
11.660909 49.097862 0.000000
11.975650 49.097862 0.000000
12.290391 49.097862 0.000000
12.605132 49.097862 0.000000
12.919873 49.097862 0.000000
13.234614 49.097862 0.000000
13.549356 49.097862 0.000000
13.864097 49.097862 0.000000
14.178838 49.097862 0.000000
14.493579 49.097862 0.000000
14.808320 49.097862 0.000000
15.123059 49.097862 0.000000
15.437800 49.097862 0.000000
15.752542 49.097862 3.236679
16.067284 49.097862 -2.250462
16.382023 49.097862 0.000000
16.696766 49.097862 0.000000
17.011505 49.097862 -0.131422
17.326248 49.097862 -1.423455
17.640987 49.097862 -1.607962
17.955730 49.097862 4.801529
18.270470 49.097862 -2.449066
18.585213 49.097862 -0.850487
18.899952 49.097862 0.000000
-7.223550 48.783119 0.000000
-6.908809 48.783119 0.000000
-6.594068 48.783119 0.000000
-6.279327 48.783119 0.000000
-5.964586 48.783119 0.000000
-5.649845 48.783119 0.000000
-5.335104 48.783119 0.000000
-5.020363 48.783119 0.000000
-4.705622 48.783119 0.000000
-4.390881 48.783119 0.000000
-4.076140 48.783119 0.000000
-3.761399 48.783119 0.000000
-3.446658 48.783119 0.000000
-3.131917 48.783119 0.000000
-2.817176 48.783119 0.000000
-2.502435 48.783119 0.000000
-2.187694 48.783119 0.000000
-1.872953 48.783119 0.000000
-1.558212 48.783119 0.000000
-1.243471 48.783119 0.000000
-0.928730 48.783119 0.000000
-0.613989 48.783119 0.000000
-0.299248 48.783119 0.000000
0.015493 48.783119 0.000000
0.330234 48.783119 0.000000
0.644975 48.783119 0.000000
0.959716 48.783119 0.000000
1.274457 48.783119 0.000000
1.589198 48.783119 0.000000
1.903938 48.783119 0.000000
2.218679 48.783119 0.000000
2.533421 48.783119 0.000000
2.848162 48.783119 0.000000
3.162903 48.783119 0.000000
3.477644 48.783119 0.000000
3.792385 48.783119 0.000000
4.107125 48.783119 0.000000
4.421866 48.783119 0.000000
4.736608 48.783119 0.000000
5.051349 48.783119 0.000000
5.366090 48.783119 0.000000
5.680831 48.783119 0.000000
5.995571 48.783119 0.000000
6.310312 48.783119 0.000000
6.625053 48.783119 0.000000
6.939795 48.783119 0.000000
7.254536 48.783119 0.000000
7.569277 48.783119 0.000000
7.884017 48.783119 0.000000
8.198758 48.783119 0.000000
8.513499 48.783119 0.000000
8.828240 48.783119 0.081038
9.142982 48.783119 0.042933
9.457723 48.783119 0.108267
9.772464 48.783119 -0.371376
10.087205 48.783119 -0.067391
10.401946 48.783119 -0.472184
10.716687 48.783119 0.077177
11.031426 48.783119 0.045320
11.346168 48.783119 0.507507
11.660909 48.783119 -0.010165
11.975650 48.783119 -0.010775
12.290391 48.783119 0.326270
12.605132 48.783119 -0.082427
12.919873 48.783119 -0.041153
13.234614 48.783119 -0.093412
13.549356 48.783119 0.065445
13.864097 48.783119 0.037614
14.178838 48.783119 0.089532
14.493579 48.783119 0.078192
14.808320 48.783119 0.116228
15.123059 48.783119 0.109790
15.437800 48.783119 0.139266
15.752542 48.783119 0.034911
16.067284 48.783119 0.060562
16.382023 48.783119 0.054587
16.696766 48.783119 0.021363
17.011505 48.783119 -0.022774
17.326248 48.783119 0.034199
17.640987 48.783119 0.135957
17.955730 48.783119 -0.032677
18.270470 48.783119 -0.026862
18.585213 48.783119 -0.057589
18.899952 48.783119 0.028457
-7.223550 48.468380 0.000000
-6.908809 48.468380 0.000000
-6.594068 48.468380 0.000231
-6.279327 48.468380 0.000213
-5.964586 48.468380 0.000209
-5.649845 48.468380 0.000378
-5.335104 48.468380 0.000482
-5.020363 48.468380 0.000494
-4.705622 48.468380 0.000363
-4.390881 48.468380 0.000374
-4.076140 48.468380 0.000289
-3.761399 48.468380 0.000204
-3.446658 48.468380 0.000064
-3.131917 48.468380 0.000077
-2.817176 48.468380 0.000407
-2.502435 48.468380 0.000462
-2.187694 48.468380 0.000448
-1.872953 48.468380 0.000575
-1.558212 48.468380 0.000460
-1.243471 48.468380 0.000117
-0.928730 48.468380 -0.000127
-0.613989 48.468380 -0.000237
-0.299248 48.468380 -0.000083
0.015493 48.468380 -0.000135
0.330234 48.468380 0.000008
0.644975 48.468380 0.000324
0.959716 48.468380 0.000339
1.274457 48.468380 0.000087
1.589198 48.468380 -0.000016
1.903938 48.468380 -0.000102
2.218679 48.468380 -0.000180
2.533421 48.468380 0.000012
2.848162 48.468380 0.000069
3.162903 48.468380 -0.000005
3.477644 48.468380 0.000140
3.792385 48.468380 0.000214
4.107125 48.468380 0.000127
4.421866 48.468380 0.000029
4.736608 48.468380 0.000188
5.051349 48.468380 0.000636
5.366090 48.468380 0.000772
5.680831 48.468380 0.001256
5.995571 48.468380 0.001247
6.310312 48.468380 0.001642
6.625053 48.468380 0.002682
6.939795 48.468380 0.003722
7.254536 48.468380 0.006438
7.569277 48.468380 0.009982
7.884017 48.468380 0.018845
8.198758 48.468380 0.034940
8.513499 48.468380 0.064052
8.828240 48.468380 0.123244
9.142982 48.468380 0.186703
9.457723 48.468380 0.244943
9.772464 48.468380 0.319693
10.087205 48.468380 0.385840
10.401946 48.468380 0.481851
10.716687 48.468380 0.567732
11.031426 48.468380 0.675508
11.346168 48.468380 0.767623
11.660909 48.468380 0.849070
11.975650 48.468380 0.918841
12.290391 48.468380 0.976455
12.605132 48.468380 1.049396
12.919873 48.468380 1.095848
13.234614 48.468380 1.109042
13.549356 48.468380 1.122932
13.864097 48.468380 1.124444
14.178838 48.468380 1.129177
14.493579 48.468380 1.096443
14.808320 48.468380 1.045856
15.123059 48.468380 0.988910
15.437800 48.468380 0.864993
15.752542 48.468380 0.722555
16.067284 48.468380 0.587114
16.382023 48.468380 0.396644
16.696766 48.468380 0.199447
17.011505 48.468380 0.024586
17.326248 48.468380 -0.147302
17.640987 48.468380 -0.313912
17.955730 48.468380 -0.459654
18.270470 48.468380 -0.576604
18.585213 48.468380 -0.686649
18.899952 48.468380 -0.296048
-7.223550 48.153637 0.000000
-6.908809 48.153637 0.000000
-6.594068 48.153637 0.000210
-6.279327 48.153637 0.000231
-5.964586 48.153637 0.000236
-5.649845 48.153637 0.000413
-5.335104 48.153637 0.000524
-5.020363 48.153637 0.000556
-4.705622 48.153637 0.000417
-4.390881 48.153637 0.000317
-4.076140 48.153637 0.000217
-3.761399 48.153637 0.000181
-3.446658 48.153637 0.000089
-3.131917 48.153637 -0.000022
-2.817176 48.153637 0.000128
-2.502435 48.153637 0.000258
-2.187694 48.153637 0.000369
-1.872953 48.153637 0.000460
-1.558212 48.153637 0.000392
-1.243471 48.153637 0.000163
-0.928730 48.153637 0.000008
-0.613989 48.153637 -0.000037
-0.299248 48.153637 0.000023
0.015493 48.153637 -0.000122
0.330234 48.153637 -0.000045
0.644975 48.153637 0.000211
0.959716 48.153637 0.000252
1.274457 48.153637 0.000064
1.589198 48.153637 -0.000099
1.903938 48.153637 -0.000146
2.218679 48.153637 -0.000247
2.533421 48.153637 -0.000016
2.848162 48.153637 0.000091
3.162903 48.153637 0.000006
3.477644 48.153637 0.000086
3.792385 48.153637 0.000184
4.107125 48.153637 0.000215
4.421866 48.153637 0.000146
4.736608 48.153637 0.000189
5.051349 48.153637 0.000246
5.366090 48.153637 0.000340
5.680831 48.153637 0.000602
5.995571 48.153637 0.001119
6.310312 48.153637 0.001595
6.625053 48.153637 0.002688
6.939795 48.153637 0.003497
7.254536 48.153637 0.006174
7.569277 48.153637 0.009897
7.884017 48.153637 0.015888
8.198758 48.153637 0.028590
8.513499 48.153637 0.049202
8.828240 48.153637 0.088300
9.142982 48.153637 0.145703
9.457723 48.153637 0.214122
9.772464 48.153637 0.299723
10.087205 48.153637 0.394892
10.401946 48.153637 0.515322
10.716687 48.153637 0.624514
11.031426 48.153637 0.742504
11.346168 48.153637 0.844255
11.660909 48.153637 0.931899
11.975650 48.153637 0.996764
12.290391 48.153637 1.066180
12.605132 48.153637 1.115446
12.919873 48.153637 1.155894
13.234614 48.153637 1.164655
13.549356 48.153637 1.164581
13.864097 48.153637 1.169072
14.178838 48.153637 1.149002
14.493579 48.153637 1.118808
14.808320 48.153637 1.056450
15.123059 48.153637 0.970465
15.437800 48.153637 0.860531
15.752542 48.153637 0.725516
16.067284 48.153637 0.567801
16.382023 48.153637 0.376752
16.696766 48.153637 0.185616
17.011505 48.153637 0.012373
17.326248 48.153637 -0.165877
17.640987 48.153637 -0.316423
17.955730 48.153637 -0.503363
18.270470 48.153637 -0.676498
18.585213 48.153637 -0.796376
18.899952 48.153637 -0.323908
-7.223550 47.838898 0.000000
-6.908809 47.838898 0.000000
-6.594068 47.838898 0.000208
-6.279327 47.838898 0.000188
-5.964586 47.838898 0.000258
-5.649845 47.838898 0.000452
-5.335104 47.838898 0.000565
-5.020363 47.838898 0.000552
-4.705622 47.838898 0.000392
-4.390881 47.838898 0.000253
-4.076140 47.838898 0.000174
-3.761399 47.838898 0.000197
-3.446658 47.838898 0.000148
-3.131917 47.838898 -0.000023
-2.817176 47.838898 -0.000018
-2.502435 47.838898 0.000126
-2.187694 47.838898 0.000315
-1.872953 47.838898 0.000386
-1.558212 47.838898 0.000342
-1.243471 47.838898 0.000259
-0.928730 47.838898 0.000169
-0.613989 47.838898 0.000135
-0.299248 47.838898 0.000101
0.015493 47.838898 -0.000102
0.330234 47.838898 -0.000056
0.644975 47.838898 0.000159
0.959716 47.838898 0.000218
1.274457 47.838898 0.000034
1.589198 47.838898 -0.000109
1.903938 47.838898 -0.000211
2.218679 47.838898 -0.000250
2.533421 47.838898 -0.000031
2.848162 47.838898 0.000119
3.162903 47.838898 0.000026
3.477644 47.838898 0.000010
3.792385 47.838898 0.000098
4.107125 47.838898 0.000158
4.421866 47.838898 0.000153
4.736608 47.838898 0.000195
5.051349 47.838898 0.000198
5.366090 47.838898 0.000166
5.680831 47.838898 0.000415
5.995571 47.838898 0.000712
6.310312 47.838898 0.001089
6.625053 47.838898 0.001857
6.939795 47.838898 0.002672
7.254536 47.838898 0.004448
7.569277 47.838898 0.008195
7.884017 47.838898 0.013779
8.198758 47.838898 0.024373
8.513499 47.838898 0.044398
8.828240 47.838898 0.081370
9.142982 47.838898 0.133157
9.457723 47.838898 0.202448
9.772464 47.838898 0.292542
10.087205 47.838898 0.390917
10.401946 47.838898 0.496721
10.716687 47.838898 0.610264
11.031426 47.838898 0.724100
11.346168 47.838898 0.836336
11.660909 47.838898 0.908181
11.975650 47.838898 0.975613
12.290391 47.838898 1.047604
12.605132 47.838898 1.103956
12.919873 47.838898 1.140558
13.234614 47.838898 1.158371
13.549356 47.838898 1.153270
13.864097 47.838898 1.157066
14.178838 47.838898 1.144266
14.493579 47.838898 1.101582
14.808320 47.838898 1.038244
15.123059 47.838898 0.970130
15.437800 47.838898 0.844683
15.752542 47.838898 0.691160
16.067284 47.838898 0.543319
16.382023 47.838898 0.360410
16.696766 47.838898 0.184205
17.011505 47.838898 0.021851
17.326248 47.838898 -0.154522
17.640987 47.838898 -0.328515
17.955730 47.838898 -0.536629
18.270470 47.838898 -0.697642
18.585213 47.838898 -0.786859
18.899952 47.838898 -0.300000
-7.223550 47.524155 0.000000
-6.908809 47.524155 0.000000
-6.594068 47.524155 0.000187
-6.279327 47.524155 0.000161
-5.964586 47.524155 0.000264
-5.649845 47.524155 0.000471
-5.335104 47.524155 0.000545
-5.020363 47.524155 0.000488
-4.705622 47.524155 0.000336
-4.390881 47.524155 0.000193
-4.076140 47.524155 0.000129
-3.761399 47.524155 0.000188
-3.446658 47.524155 0.000197
-3.131917 47.524155 0.000036
-2.817176 47.524155 -0.000063
-2.502435 47.524155 0.000076
-2.187694 47.524155 0.000283
-1.872953 47.524155 0.000321
-1.558212 47.524155 0.000284
-1.243471 47.524155 0.000293
-0.928730 47.524155 0.000244
-0.613989 47.524155 0.000240
-0.299248 47.524155 0.000138
0.015493 47.524155 -0.000075
0.330234 47.524155 -0.000007
0.644975 47.524155 0.000147
0.959716 47.524155 0.000146
1.274457 47.524155 0.000044
1.589198 47.524155 -0.000059
1.903938 47.524155 -0.000191
2.218679 47.524155 -0.000226
2.533421 47.524155 -0.000017
2.848162 47.524155 0.000183
3.162903 47.524155 0.000066
3.477644 47.524155 -0.000066
3.792385 47.524155 -0.000024
4.107125 47.524155 0.000053
4.421866 47.524155 0.000087
4.736608 47.524155 0.000121
5.051349 47.524155 0.000206
5.366090 47.524155 0.000140
5.680831 47.524155 0.000281
5.995571 47.524155 0.000406
6.310312 47.524155 0.000764
6.625053 47.524155 0.001268
6.939795 47.524155 0.002320
7.254536 47.524155 0.004067
7.569277 47.524155 0.007345
7.884017 47.524155 0.011577
8.198758 47.524155 0.022800
8.513499 47.524155 0.041841
8.828240 47.524155 0.077866
9.142982 47.524155 0.128513
9.457723 47.524155 0.200572
9.772464 47.524155 0.289346
10.087205 47.524155 0.386789
10.401946 47.524155 0.493918
10.716687 47.524155 0.603072
11.031426 47.524155 0.714856
11.346168 47.524155 0.815990
11.660909 47.524155 0.896734
11.975650 47.524155 0.976000
12.290391 47.524155 1.041502
12.605132 47.524155 1.099665
12.919873 47.524155 1.133052
13.234614 47.524155 1.148743
13.549356 47.524155 1.151744
13.864097 47.524155 1.142936
14.178838 47.524155 1.130691
14.493579 47.524155 1.104277
14.808320 47.524155 1.049024
15.123059 47.524155 0.955655
15.437800 47.524155 0.843952
15.752542 47.524155 0.700765
16.067284 47.524155 0.534252
16.382023 47.524155 0.354342
16.696766 47.524155 0.184907
17.011505 47.524155 0.029672
17.326248 47.524155 -0.161750
17.640987 47.524155 -0.349925
17.955730 47.524155 -0.499320
18.270470 47.524155 -0.640354
18.585213 47.524155 -0.771158
18.899952 47.524155 -0.276343
-7.223550 47.209415 0.000000
-6.908809 47.209415 0.000000
-6.594068 47.209415 0.000168
-6.279327 47.209415 0.000154
-5.964586 47.209415 0.000241
-5.649845 47.209415 0.000421
-5.335104 47.209415 0.000482
-5.020363 47.209415 0.000391
-4.705622 47.209415 0.000252
-4.390881 47.209415 0.000140
-4.076140 47.209415 0.000116
-3.761399 47.209415 0.000181
-3.446658 47.209415 0.000237
-3.131917 47.209415 0.000126
-2.817176 47.209415 -0.000004
-2.502435 47.209415 0.000089
-2.187694 47.209415 0.000232
-1.872953 47.209415 0.000243
-1.558212 47.209415 0.000209
-1.243471 47.209415 0.000253
-0.928730 47.209415 0.000234
-0.613989 47.209415 0.000252
-0.299248 47.209415 0.000172
0.015493 47.209415 -0.000019
0.330234 47.209415 0.000032
0.644975 47.209415 0.000137
0.959716 47.209415 0.000134
1.274457 47.209415 0.000094
1.589198 47.209415 0.000049
1.903938 47.209415 -0.000090
2.218679 47.209415 -0.000142
2.533421 47.209415 0.000008
2.848162 47.209415 0.000207
3.162903 47.209415 0.000077
3.477644 47.209415 -0.000106
3.792385 47.209415 -0.000142
4.107125 47.209415 -0.000095
4.421866 47.209415 -0.000060
4.736608 47.209415 0.000014
5.051349 47.209415 0.000112
5.366090 47.209415 0.000082
5.680831 47.209415 0.000196
5.995571 47.209415 0.000283
6.310312 47.209415 0.000351
6.625053 47.209415 0.001050
6.939795 47.209415 0.001795
7.254536 47.209415 0.003608
7.569277 47.209415 0.006336
7.884017 47.209415 0.010939
8.198758 47.209415 0.021156
8.513499 47.209415 0.041350
8.828240 47.209415 0.073038
9.142982 47.209415 0.126655
9.457723 47.209415 0.193156
9.772464 47.209415 0.286965
10.087205 47.209415 0.386237
10.401946 47.209415 0.494412
10.716687 47.209415 0.604115
11.031426 47.209415 0.713812
11.346168 47.209415 0.814517
11.660909 47.209415 0.902101
11.975650 47.209415 0.971516
12.290391 47.209415 1.055296
12.605132 47.209415 1.092288
12.919873 47.209415 1.124267
13.234614 47.209415 1.151333
13.549356 47.209415 1.148953
13.864097 47.209415 1.153955
14.178838 47.209415 1.131895
14.493579 47.209415 1.111332
14.808320 47.209415 1.055476
15.123059 47.209415 0.966574
15.437800 47.209415 0.840516
15.752542 47.209415 0.697728
16.067284 47.209415 0.531845
16.382023 47.209415 0.354579
16.696766 47.209415 0.184477
17.011505 47.209415 0.018705
17.326248 47.209415 -0.146352
17.640987 47.209415 -0.325180
17.955730 47.209415 -0.461796
18.270470 47.209415 -0.597310
18.585213 47.209415 -0.735340
18.899952 47.209415 -0.284126
-7.223550 46.894672 0.000000
-6.908809 46.894672 0.000000
-6.594068 46.894672 0.000210
-6.279327 46.894672 0.000160
-5.964586 46.894672 0.000227
-5.649845 46.894672 0.000370
-5.335104 46.894672 0.000413
-5.020363 46.894672 0.000280
-4.705622 46.894672 0.000168
-4.390881 46.894672 0.000127
-4.076140 46.894672 0.000134
-3.761399 46.894672 0.000209
-3.446658 46.894672 0.000281
-3.131917 46.894672 0.000182
-2.817176 46.894672 0.000066
-2.502435 46.894672 0.000113
-2.187694 46.894672 0.000161
-1.872953 46.894672 0.000153
-1.558212 46.894672 0.000126
-1.243471 46.894672 0.000177
-0.928730 46.894672 0.000195
-0.613989 46.894672 0.000248
-0.299248 46.894672 0.000209
0.015493 46.894672 0.000029
0.330234 46.894672 0.000041
0.644975 46.894672 0.000101
0.959716 46.894672 0.000123
1.274457 46.894672 0.000135
1.589198 46.894672 0.000164
1.903938 46.894672 0.000083
2.218679 46.894672 0.000031
2.533421 46.894672 0.000094
2.848162 46.894672 0.000200
3.162903 46.894672 0.000090
3.477644 46.894672 -0.000107
3.792385 46.894672 -0.000201
4.107125 46.894672 -0.000196
4.421866 46.894672 -0.000130
4.736608 46.894672 -0.000035
5.051349 46.894672 0.000083
5.366090 46.894672 0.000182
5.680831 46.894672 0.000197
5.995571 46.894672 0.000293
6.310312 46.894672 0.000293
6.625053 46.894672 0.000975
6.939795 46.894672 0.002050
7.254536 46.894672 0.003710
7.569277 46.894672 0.006302
7.884017 46.894672 0.011940
8.198758 46.894672 0.023665
8.513499 46.894672 0.042733
8.828240 46.894672 0.075677
9.142982 46.894672 0.128383
9.457723 46.894672 0.196991
9.772464 46.894672 0.287280
10.087205 46.894672 0.388284
10.401946 46.894672 0.503294
10.716687 46.894672 0.613586
11.031426 46.894672 0.718868
11.346168 46.894672 0.815406
11.660909 46.894672 0.911847
11.975650 46.894672 0.990520
12.290391 46.894672 1.062732
12.605132 46.894672 1.107460
12.919873 46.894672 1.128976
13.234614 46.894672 1.148923
13.549356 46.894672 1.165413
13.864097 46.894672 1.163220
14.178838 46.894672 1.136378
14.493579 46.894672 1.103917
14.808320 46.894672 1.051511
15.123059 46.894672 0.969130
15.437800 46.894672 0.846921
15.752542 46.894672 0.703214
16.067284 46.894672 0.544793
16.382023 46.894672 0.365015
16.696766 46.894672 0.189691
17.011505 46.894672 0.029459
17.326248 46.894672 -0.141963
17.640987 46.894672 -0.333208
17.955730 46.894672 -0.464947
18.270470 46.894672 -0.598042
18.585213 46.894672 -0.696081
18.899952 46.894672 -0.248381
-7.223550 46.579933 0.000000
-6.908809 46.579933 0.000000
-6.594068 46.579933 0.000280
-6.279327 46.579933 0.000181
-5.964586 46.579933 0.000233
-5.649845 46.579933 0.000343
-5.335104 46.579933 0.000379
-5.020363 46.579933 0.000231
-4.705622 46.579933 0.000149
-4.390881 46.579933 0.000153
-4.076140 46.579933 0.000164
-3.761399 46.579933 0.000232
-3.446658 46.579933 0.000298
-3.131917 46.579933 0.000254
-2.817176 46.579933 0.000153
-2.502435 46.579933 0.000139
-2.187694 46.579933 0.000103
-1.872953 46.579933 0.000083
-1.558212 46.579933 0.000062
-1.243471 46.579933 0.000089
-0.928730 46.579933 0.000140
-0.613989 46.579933 0.000234
-0.299248 46.579933 0.000235
0.015493 46.579933 0.000089
0.330234 46.579933 0.000046
0.644975 46.579933 0.000068
0.959716 46.579933 0.000121
1.274457 46.579933 0.000165
1.589198 46.579933 0.000250
1.903938 46.579933 0.000250
2.218679 46.579933 0.000220
2.533421 46.579933 0.000236
2.848162 46.579933 0.000204
3.162903 46.579933 0.000052
3.477644 46.579933 -0.000128
3.792385 46.579933 -0.000244
4.107125 46.579933 -0.000277
4.421866 46.579933 -0.000182
4.736608 46.579933 0.000017
5.051349 46.579933 0.000157
5.366090 46.579933 0.000218
5.680831 46.579933 0.000351
5.995571 46.579933 0.000373
6.310312 46.579933 0.000566
6.625053 46.579933 0.000962
6.939795 46.579933 0.002204
7.254536 46.579933 0.003778
7.569277 46.579933 0.007197
7.884017 46.579933 0.012561
8.198758 46.579933 0.023890
8.513499 46.579933 0.043816
8.828240 46.579933 0.076730
9.142982 46.579933 0.128232
9.457723 46.579933 0.196771
9.772464 46.579933 0.284553
10.087205 46.579933 0.385436
10.401946 46.579933 0.499098
10.716687 46.579933 0.609424
11.031426 46.579933 0.711482
11.346168 46.579933 0.822027
11.660909 46.579933 0.913420
11.975650 46.579933 0.991646
12.290391 46.579933 1.069745
12.605132 46.579933 1.115330
12.919873 46.579933 1.134526
13.234614 46.579933 1.157954
13.549356 46.579933 1.171746
13.864097 46.579933 1.170358
14.178838 46.579933 1.140273
14.493579 46.579933 1.106504
14.808320 46.579933 1.049124
15.123059 46.579933 0.967886
15.437800 46.579933 0.851862
15.752542 46.579933 0.703354
16.067284 46.579933 0.536296
16.382023 46.579933 0.355283
16.696766 46.579933 0.187208
17.011505 46.579933 0.031681
17.326248 46.579933 -0.161604
17.640987 46.579933 -0.344259
17.955730 46.579933 -0.493880
18.270470 46.579933 -0.591851
18.585213 46.579933 -0.695449
18.899952 46.579933 -0.222866
-7.223550 46.265190 0.000000
-6.908809 46.265190 0.000000
-6.594068 46.265190 0.000408
-6.279327 46.265190 0.000238
-5.964586 46.265190 0.000273
-5.649845 46.265190 0.000342
-5.335104 46.265190 0.000366
-5.020363 46.265190 0.000257
-4.705622 46.265190 0.000214
-4.390881 46.265190 0.000225
-4.076140 46.265190 0.000206
-3.761399 46.265190 0.000266
-3.446658 46.265190 0.000328
-3.131917 46.265190 0.000308
-2.817176 46.265190 0.000240
-2.502435 46.265190 0.000190
-2.187694 46.265190 0.000101
-1.872953 46.265190 0.000051
-1.558212 46.265190 0.000032
-1.243471 46.265190 0.000031
-0.928730 46.265190 0.000099
-0.613989 46.265190 0.000214
-0.299248 46.265190 0.000243
0.015493 46.265190 0.000137
0.330234 46.265190 0.000104
0.644975 46.265190 0.000100
0.959716 46.265190 0.000094
1.274457 46.265190 0.000166
1.589198 46.265190 0.000266
1.903938 46.265190 0.000345
2.218679 46.265190 0.000375
2.533421 46.265190 0.000363
2.848162 46.265190 0.000206
3.162903 46.265190 0.000034
3.477644 46.265190 -0.000149
3.792385 46.265190 -0.000229
4.107125 46.265190 -0.000243
4.421866 46.265190 -0.000154
4.736608 46.265190 0.000001
5.051349 46.265190 0.000136
5.366090 46.265190 0.000164
5.680831 46.265190 0.000250
5.995571 46.265190 0.000233
6.310312 46.265190 0.000632
6.625053 46.265190 0.001040
6.939795 46.265190 0.002136
7.254536 46.265190 0.004454
7.569277 46.265190 0.007339
7.884017 46.265190 0.013563
8.198758 46.265190 0.023279
8.513499 46.265190 0.041084
8.828240 46.265190 0.073367
9.142982 46.265190 0.130924
9.457723 46.265190 0.199020
9.772464 46.265190 0.280410
10.087205 46.265190 0.386797
10.401946 46.265190 0.496465
10.716687 46.265190 0.598491
11.031426 46.265190 0.699179
11.346168 46.265190 0.818747
11.660909 46.265190 0.916443
11.975650 46.265190 1.000553
12.290391 46.265190 1.064795
12.605132 46.265190 1.113404
12.919873 46.265190 1.138108
13.234614 46.265190 1.169438
13.549356 46.265190 1.185554
13.864097 46.265190 1.169139
14.178838 46.265190 1.156784
14.493579 46.265190 1.108657
14.808320 46.265190 1.049816
15.123059 46.265190 0.960510
15.437800 46.265190 0.866466
15.752542 46.265190 0.714187
16.067284 46.265190 0.536057
16.382023 46.265190 0.361654
16.696766 46.265190 0.195256
17.011505 46.265190 0.017685
17.326248 46.265190 -0.175311
17.640987 46.265190 -0.365057
17.955730 46.265190 -0.484744
18.270470 46.265190 -0.619953
18.585213 46.265190 -0.722978
18.899952 46.265190 -0.219203
-7.223550 45.950451 0.000000
-6.908809 45.950451 0.000000
-6.594068 45.950451 0.000557
-6.279327 45.950451 0.000331
-5.964586 45.950451 0.000313
-5.649845 45.950451 0.000349
-5.335104 45.950451 0.000367
-5.020363 45.950451 0.000348
-4.705622 45.950451 0.000359
-4.390881 45.950451 0.000362
-4.076140 45.950451 0.000289
-3.761399 45.950451 0.000322
-3.446658 45.950451 0.000340
-3.131917 45.950451 0.000321
-2.817176 45.950451 0.000307
-2.502435 45.950451 0.000258
-2.187694 45.950451 0.000166
-1.872953 45.950451 0.000090
-1.558212 45.950451 0.000062
-1.243471 45.950451 0.000037
-0.928730 45.950451 0.000095
-0.613989 45.950451 0.000177
-0.299248 45.950451 0.000211
0.015493 45.950451 0.000161
0.330234 45.950451 0.000158
0.644975 45.950451 0.000153
0.959716 45.950451 0.000129
1.274457 45.950451 0.000183
1.589198 45.950451 0.000244
1.903938 45.950451 0.000339
2.218679 45.950451 0.000456
2.533421 45.950451 0.000445
2.848162 45.950451 0.000245
3.162903 45.950451 0.000073
3.477644 45.950451 -0.000089
3.792385 45.950451 -0.000162
4.107125 45.950451 -0.000128
4.421866 45.950451 0.000003
4.736608 45.950451 0.000038
5.051349 45.950451 -0.000032
5.366090 45.950451 0.000072
5.680831 45.950451 0.000072
5.995571 45.950451 0.000416
6.310312 45.950451 0.000874
6.625053 45.950451 0.001272
6.939795 45.950451 0.002426
7.254536 45.950451 0.004569
7.569277 45.950451 0.008104
7.884017 45.950451 0.012751
8.198758 45.950451 0.024156
8.513499 45.950451 0.041421
8.828240 45.950451 0.071621
9.142982 45.950451 0.129371
9.457723 45.950451 0.200628
9.772464 45.950451 0.282999
10.087205 45.950451 0.385623
10.401946 45.950451 0.492852
10.716687 45.950451 0.607579
11.031426 45.950451 0.712848
11.346168 45.950451 0.811621
11.660909 45.950451 0.911013
11.975650 45.950451 0.993720
12.290391 45.950451 1.058030
12.605132 45.950451 1.123805
12.919873 45.950451 1.147874
13.234614 45.950451 1.169281
13.549356 45.950451 1.197262
13.864097 45.950451 1.185570
14.178838 45.950451 1.168008
14.493579 45.950451 1.116026
14.808320 45.950451 1.051661
15.123059 45.950451 0.959652
15.437800 45.950451 0.863719
15.752542 45.950451 0.724421
16.067284 45.950451 0.555034
16.382023 45.950451 0.374675
16.696766 45.950451 0.206506
17.011505 45.950451 0.007360
17.326248 45.950451 -0.197339
17.640987 45.950451 -0.373238
17.955730 45.950451 -0.488616
18.270470 45.950451 -0.638549
18.585213 45.950451 -0.706863
18.899952 45.950451 -0.197422
-7.223550 45.635712 0.000000
-6.908809 45.635712 0.000000
-6.594068 45.635712 0.000608
-6.279327 45.635712 0.000387
-5.964586 45.635712 0.000328
-5.649845 45.635712 0.000342
-5.335104 45.635712 0.000374
-5.020363 45.635712 0.000454
-4.705622 45.635712 0.000530
-4.390881 45.635712 0.000520
-4.076140 45.635712 0.000425
-3.761399 45.635712 0.000413
-3.446658 45.635712 0.000363
-3.131917 45.635712 0.000332
-2.817176 45.635712 0.000353
-2.502435 45.635712 0.000328
-2.187694 45.635712 0.000266
-1.872953 45.635712 0.000153
-1.558212 45.635712 0.000106
-1.243471 45.635712 0.000108
-0.928730 45.635712 0.000130
-0.613989 45.635712 0.000110
-0.299248 45.635712 0.000103
0.015493 45.635712 0.000114
0.330234 45.635712 0.000153
0.644975 45.635712 0.000184
0.959716 45.635712 0.000143
1.274457 45.635712 0.000127
1.589198 45.635712 0.000178
1.903938 45.635712 0.000296
2.218679 45.635712 0.000448
2.533421 45.635712 0.000452
2.848162 45.635712 0.000270
3.162903 45.635712 0.000142
3.477644 45.635712 0.000033
3.792385 45.635712 -0.000062
4.107125 45.635712 0.000051
4.421866 45.635712 0.000144
4.736608 45.635712 0.000144
5.051349 45.635712 0.000009
5.366090 45.635712 -0.000010
5.680831 45.635712 0.000032
5.995571 45.635712 0.000302
6.310312 45.635712 0.000818
6.625053 45.635712 0.001527
6.939795 45.635712 0.002519
7.254536 45.635712 0.004180
7.569277 45.635712 0.008276
7.884017 45.635712 0.013161
8.198758 45.635712 0.024128
8.513499 45.635712 0.043499
8.828240 45.635712 0.075032
9.142982 45.635712 0.129504
9.457723 45.635712 0.199194
9.772464 45.635712 0.289359
10.087205 45.635712 0.387658
10.401946 45.635712 0.497940
10.716687 45.635712 0.609098
11.031426 45.635712 0.717226
11.346168 45.635712 0.797527
11.660909 45.635712 0.900244
11.975650 45.635712 0.987591
12.290391 45.635712 1.065695
12.605132 45.635712 1.121275
12.919873 45.635712 1.162487
13.234614 45.635712 1.190729
13.549356 45.635712 1.203478
13.864097 45.635712 1.191873
14.178838 45.635712 1.167029
14.493579 45.635712 1.129921
14.808320 45.635712 1.061676
15.123059 45.635712 0.968472
15.437800 45.635712 0.866636
15.752542 45.635712 0.746961
16.067284 45.635712 0.390292
16.382023 45.635712 0.299281
16.696766 45.635712 0.173741
17.011505 45.635712 -0.000866
17.326248 45.635712 -0.164067
17.640987 45.635712 -0.421026
17.955730 45.635712 -0.522502
18.270470 45.635712 -0.643176
18.585213 45.635712 -0.687629
18.899952 45.635712 -0.161209
-7.223550 45.320969 0.000000
-6.908809 45.320969 0.000000
-6.594068 45.320969 0.000564
-6.279327 45.320969 0.000407
-5.964586 45.320969 0.000343
-5.649845 45.320969 0.000346
-5.335104 45.320969 0.000393
-5.020363 45.320969 0.000537
-4.705622 45.320969 0.000664
-4.390881 45.320969 0.000647
-4.076140 45.320969 0.000541
-3.761399 45.320969 0.000488
-3.446658 45.320969 0.000390
-3.131917 45.320969 0.000320
-2.817176 45.320969 0.000336
-2.502435 45.320969 0.000360
-2.187694 45.320969 0.000347
-1.872953 45.320969 0.000202
-1.558212 45.320969 0.000153
-1.243471 45.320969 0.000200
-0.928730 45.320969 0.000173
-0.613989 45.320969 0.000022
-0.299248 45.320969 -0.000019
0.015493 45.320969 0.000039
0.330234 45.320969 0.000122
0.644975 45.320969 0.000187
0.959716 45.320969 0.000122
1.274457 45.320969 0.000056
1.589198 45.320969 0.000084
1.903938 45.320969 0.000243
2.218679 45.320969 0.000415
2.533421 45.320969 0.000391
2.848162 45.320969 0.000280
3.162903 45.320969 0.000231
3.477644 45.320969 0.000148
3.792385 45.320969 0.000104
4.107125 45.320969 0.000222
4.421866 45.320969 0.000261
4.736608 45.320969 0.000149
5.051349 45.320969 0.000030
5.366090 45.320969 0.000037
5.680831 45.320969 0.000063
5.995571 45.320969 0.000360
6.310312 45.320969 0.001057
6.625053 45.320969 0.001392
6.939795 45.320969 0.002435
7.254536 45.320969 0.004137
7.569277 45.320969 0.007515
7.884017 45.320969 0.014445
8.198758 45.320969 0.024364
8.513499 45.320969 0.040922
8.828240 45.320969 0.077275
9.142982 45.320969 0.130571
9.457723 45.320969 0.202865
9.772464 45.320969 0.299383
10.087205 45.320969 0.396770
10.401946 45.320969 0.493645
10.716687 45.320969 0.605191
11.031426 45.320969 0.709000
11.346168 45.320969 0.798961
11.660909 45.320969 0.893423
11.975650 45.320969 0.991828
12.290391 45.320969 1.067851
12.605132 45.320969 1.130479
12.919873 45.320969 1.161497
13.234614 45.320969 1.190546
13.549356 45.320969 1.203018
13.864097 45.320969 1.188311
14.178838 45.320969 1.170618
14.493579 45.320969 1.129848
14.808320 45.320969 1.067666
15.123059 45.320969 0.986558
15.437800 45.320969 0.875110
15.752542 45.320969 0.705637
16.067284 45.320969 0.100433
16.382023 45.320969 0.339059
16.696766 45.320969 0.046057
17.011505 45.320969 -0.212127
17.326248 45.320969 -0.458104
17.640987 45.320969 -0.482869
17.955730 45.320969 -0.511065
18.270470 45.320969 -0.616890
18.585213 45.320969 -0.713199
18.899952 45.320969 -0.142445
-7.223550 45.006226 0.000000
-6.908809 45.006226 0.000000
-6.594068 45.006226 0.000435
-6.279327 45.006226 0.000404
-5.964586 45.006226 0.000379
-5.649845 45.006226 0.000359
-5.335104 45.006226 0.000411
-5.020363 45.006226 0.000588
-4.705622 45.006226 0.000716
-4.390881 45.006226 0.000718
-4.076140 45.006226 0.000643
-3.761399 45.006226 0.000580
-3.446658 45.006226 0.000431
-3.131917 45.006226 0.000324
-2.817176 45.006226 0.000305
-2.502435 45.006226 0.000337
-2.187694 45.006226 0.000373
-1.872953 45.006226 0.000250
-1.558212 45.006226 0.000205
-1.243471 45.006226 0.000276
-0.928730 45.006226 0.000220
-0.613989 45.006226 0.000001
-0.299248 45.006226 -0.000064
0.015493 45.006226 0.000013
0.330234 45.006226 0.000083
0.644975 45.006226 0.000137
0.959716 45.006226 0.000066
1.274457 45.006226 -0.000007
1.589198 45.006226 0.000011
1.903938 45.006226 0.000194
2.218679 45.006226 0.000330
2.533421 45.006226 0.000304
2.848162 45.006226 0.000250
3.162903 45.006226 0.000302
3.477644 45.006226 0.000301
3.792385 45.006226 0.000269
4.107125 45.006226 0.000365
4.421866 45.006226 0.000389
4.736608 45.006226 0.000210
5.051349 45.006226 0.000123
5.366090 45.006226 0.000172
5.680831 45.006226 0.000213
5.995571 45.006226 0.000375
6.310312 45.006226 0.000773
6.625053 45.006226 0.001629
6.939795 45.006226 0.002540
7.254536 45.006226 0.004874
7.569277 45.006226 0.007908
7.884017 45.006226 0.014149
8.198758 45.006226 0.024331
8.513499 45.006226 0.044513
8.828240 45.006226 0.077580
9.142982 45.006226 0.132164
9.457723 45.006226 0.202429
9.772464 45.006226 0.293221
10.087205 45.006226 0.393679
10.401946 45.006226 0.494060
10.716687 45.006226 0.605235
11.031426 45.006226 0.703477
11.346168 45.006226 0.801267
11.660909 45.006226 0.897306
11.975650 45.006226 0.980257
12.290391 45.006226 1.068267
12.605132 45.006226 1.125363
12.919873 45.006226 1.166753
13.234614 45.006226 1.188266
13.549356 45.006226 1.209433
13.864097 45.006226 1.196130
14.178838 45.006226 1.180750
14.493579 45.006226 1.131511
14.808320 45.006226 1.075117
15.123059 45.006226 0.992077
15.437800 45.006226 0.887939
15.752542 45.006226 0.702808
16.067284 45.006226 0.000000
16.382023 45.006226 0.000000
16.696766 45.006226 1.422545
17.011505 45.006226 -0.144439
17.326248 45.006226 -7.005354
17.640987 45.006226 -0.473770
17.955730 45.006226 -0.508328
18.270470 45.006226 -0.615385
18.585213 45.006226 -0.693421
18.899952 45.006226 -0.151259
-7.223550 44.691486 0.000000
-6.908809 44.691486 0.000000
-6.594068 44.691486 0.000258
-6.279327 44.691486 0.000344
-5.964586 44.691486 0.000412
-5.649845 44.691486 0.000366
-5.335104 44.691486 0.000414
-5.020363 44.691486 0.000567
-4.705622 44.691486 0.000650
-4.390881 44.691486 0.000682
-4.076140 44.691486 0.000674
-3.761399 44.691486 0.000637
-3.446658 44.691486 0.000480
-3.131917 44.691486 0.000338
-2.817176 44.691486 0.000266
-2.502435 44.691486 0.000282
-2.187694 44.691486 0.000369
-1.872953 44.691486 0.000315
-1.558212 44.691486 0.000286
-1.243471 44.691486 0.000339
-0.928730 44.691486 0.000243
-0.613989 44.691486 0.000064
-0.299248 44.691486 0.000010
0.015493 44.691486 0.000040
0.330234 44.691486 0.000039
0.644975 44.691486 0.000076
0.959716 44.691486 0.000017
1.274457 44.691486 -0.000050
1.589198 44.691486 -0.000049
1.903938 44.691486 0.000099
2.218679 44.691486 0.000208
2.533421 44.691486 0.000202
2.848162 44.691486 0.000220
3.162903 44.691486 0.000325
3.477644 44.691486 0.000401
3.792385 44.691486 0.000383
4.107125 44.691486 0.000455
4.421866 44.691486 0.000451
4.736608 44.691486 0.000283
5.051349 44.691486 0.000309
5.366090 44.691486 0.000364
5.680831 44.691486 0.000402
5.995571 44.691486 0.000578
6.310312 44.691486 0.000876
6.625053 44.691486 0.001517
6.939795 44.691486 0.002760
7.254536 44.691486 0.004357
7.569277 44.691486 0.008065
7.884017 44.691486 0.014439
8.198758 44.691486 0.024835
8.513499 44.691486 0.044812
8.828240 44.691486 0.078337
9.142982 44.691486 0.135819
9.457723 44.691486 0.203691
9.772464 44.691486 0.292741
10.087205 44.691486 0.394311
10.401946 44.691486 0.496909
10.716687 44.691486 0.608508
11.031426 44.691486 0.706896
11.346168 44.691486 0.806174
11.660909 44.691486 0.894135
11.975650 44.691486 0.982321
12.290391 44.691486 1.063005
12.605132 44.691486 1.117279
12.919873 44.691486 1.168283
13.234614 44.691486 1.194904
13.549356 44.691486 1.218459
13.864097 44.691486 1.210917
14.178838 44.691486 1.187753
14.493579 44.691486 1.136765
14.808320 44.691486 1.067338
15.123059 44.691486 0.992600
15.437800 44.691486 0.898646
15.752542 44.691486 0.688677
16.067284 44.691486 0.000000
16.382023 44.691486 0.000000
16.696766 44.691486 0.000000
17.011505 44.691486 0.000000
17.326248 44.691486 -5.134211
17.640987 44.691486 -0.487757
17.955730 44.691486 -0.524636
18.270470 44.691486 -0.616504
18.585213 44.691486 -0.732513
18.899952 44.691486 -0.105181
-7.223550 44.376747 0.000000
-6.908809 44.376747 0.000000
-6.594068 44.376747 0.000078
-6.279327 44.376747 0.000265
-5.964586 44.376747 0.000406
-5.649845 44.376747 0.000361
-5.335104 44.376747 0.000416
-5.020363 44.376747 0.000514
-4.705622 44.376747 0.000527
-4.390881 44.376747 0.000581
-4.076140 44.376747 0.000626
-3.761399 44.376747 0.000637
-3.446658 44.376747 0.000510
-3.131917 44.376747 0.000361
-2.817176 44.376747 0.000244
-2.502435 44.376747 0.000247
-2.187694 44.376747 0.000360
-1.872953 44.376747 0.000377
-1.558212 44.376747 0.000346
-1.243471 44.376747 0.000350
-0.928730 44.376747 0.000272
-0.613989 44.376747 0.000162
-0.299248 44.376747 0.000113
0.015493 44.376747 0.000072
0.330234 44.376747 0.000026
0.644975 44.376747 0.000046
0.959716 44.376747 0.000008
1.274457 44.376747 -0.000042
1.589198 44.376747 -0.000077
1.903938 44.376747 -0.000021
2.218679 44.376747 0.000040
2.533421 44.376747 0.000099
2.848162 44.376747 0.000176
3.162903 44.376747 0.000269
3.477644 44.376747 0.000396
3.792385 44.376747 0.000398
4.107125 44.376747 0.000461
4.421866 44.376747 0.000497
4.736608 44.376747 0.000343
5.051349 44.376747 0.000404
5.366090 44.376747 0.000536
5.680831 44.376747 0.000546
5.995571 44.376747 0.000622
6.310312 44.376747 0.000764
6.625053 44.376747 0.001601
6.939795 44.376747 0.002883
7.254536 44.376747 0.004279
7.569277 44.376747 0.008171
7.884017 44.376747 0.013596
8.198758 44.376747 0.025505
8.513499 44.376747 0.043136
8.828240 44.376747 0.078804
9.142982 44.376747 0.133047
9.457723 44.376747 0.204565
9.772464 44.376747 0.295405
10.087205 44.376747 0.386763
10.401946 44.376747 0.499400
10.716687 44.376747 0.612671
11.031426 44.376747 0.717262
11.346168 44.376747 0.801751
11.660909 44.376747 0.892266
11.975650 44.376747 0.975644
12.290391 44.376747 1.062611
12.605132 44.376747 1.115475
12.919873 44.376747 1.170681
13.234614 44.376747 1.203936
13.549356 44.376747 1.220078
13.864097 44.376747 1.220966
14.178838 44.376747 1.202113
14.493579 44.376747 1.143775
14.808320 44.376747 1.065294
15.123059 44.376747 0.987538
15.437800 44.376747 0.909116
15.752542 44.376747 0.696191
16.067284 44.376747 -2.546441
16.382023 44.376747 0.000000
16.696766 44.376747 0.000000
17.011505 44.376747 0.000000
17.326248 44.376747 1.427222
17.640987 44.376747 -0.516554
17.955730 44.376747 -0.523652
18.270470 44.376747 -0.655305
18.585213 44.376747 -0.755290
18.899952 44.376747 -0.129740
-7.223550 44.062004 0.000000
-6.908809 44.062004 0.000000
-6.594068 44.062004 -0.000007
-6.279327 44.062004 0.000223
-5.964586 44.062004 0.000357
-5.649845 44.062004 0.000334
-5.335104 44.062004 0.000397
-5.020363 44.062004 0.000449
-4.705622 44.062004 0.000388
-4.390881 44.062004 0.000444
-4.076140 44.062004 0.000497
-3.761399 44.062004 0.000555
-3.446658 44.062004 0.000510
-3.131917 44.062004 0.000385
-2.817176 44.062004 0.000225
-2.502435 44.062004 0.000194
-2.187694 44.062004 0.000335
-1.872953 44.062004 0.000411
-1.558212 44.062004 0.000373
-1.243471 44.062004 0.000341
-0.928730 44.062004 0.000268
-0.613989 44.062004 0.000251
-0.299248 44.062004 0.000183
0.015493 44.062004 0.000107
0.330234 44.062004 0.000082
0.644975 44.062004 0.000081
0.959716 44.062004 0.000036
1.274457 44.062004 0.000003
1.589198 44.062004 -0.000037
1.903938 44.062004 -0.000081
2.218679 44.062004 -0.000067
2.533421 44.062004 0.000039
2.848162 44.062004 0.000140
3.162903 44.062004 0.000210
3.477644 44.062004 0.000322
3.792385 44.062004 0.000360
4.107125 44.062004 0.000410
4.421866 44.062004 0.000408
4.736608 44.062004 0.000398
5.051349 44.062004 0.000505
5.366090 44.062004 0.000642
5.680831 44.062004 0.000557
5.995571 44.062004 0.000584
6.310312 44.062004 0.000918
6.625053 44.062004 0.001643
6.939795 44.062004 0.002608
7.254536 44.062004 0.004231
7.569277 44.062004 0.008081
7.884017 44.062004 0.014533
8.198758 44.062004 0.023785
8.513499 44.062004 0.043974
8.828240 44.062004 0.081902
9.142982 44.062004 0.131586
9.457723 44.062004 0.207279
9.772464 44.062004 0.293010
10.087205 44.062004 0.393340
10.401946 44.062004 0.502504
10.716687 44.062004 0.617750
11.031426 44.062004 0.714668
11.346168 44.062004 0.796218
11.660909 44.062004 0.884751
11.975650 44.062004 0.974207
12.290391 44.062004 1.057658
12.605132 44.062004 1.123824
12.919873 44.062004 1.164093
13.234614 44.062004 1.199985
13.549356 44.062004 1.226025
13.864097 44.062004 1.222792
14.178838 44.062004 1.194852
14.493579 44.062004 1.144115
14.808320 44.062004 1.065629
15.123059 44.062004 0.986177
15.437800 44.062004 0.891238
15.752542 44.062004 0.281857
16.067284 44.062004 0.000000
16.382023 44.062004 0.000000
16.696766 44.062004 0.000000
17.011505 44.062004 0.000000
17.326248 44.062004 0.000000
17.640987 44.062004 -0.361510
17.955730 44.062004 -0.505726
18.270470 44.062004 -0.635114
18.585213 44.062004 -0.744628
18.899952 44.062004 -0.112987
-7.223550 43.747265 0.000000
-6.908809 43.747265 0.000000
-6.594068 43.747265 0.000067
-6.279327 43.747265 0.000221
-5.964586 43.747265 0.000305
-5.649845 43.747265 0.000300
-5.335104 43.747265 0.000363
-5.020363 43.747265 0.000380
-4.705622 43.747265 0.000290
-4.390881 43.747265 0.000322
-4.076140 43.747265 0.000358
-3.761399 43.747265 0.000458
-3.446658 43.747265 0.000485
-3.131917 43.747265 0.000368
-2.817176 43.747265 0.000197
-2.502435 43.747265 0.000138
-2.187694 43.747265 0.000306
-1.872953 43.747265 0.000403
-1.558212 43.747265 0.000386
-1.243471 43.747265 0.000346
-0.928730 43.747265 0.000276
-0.613989 43.747265 0.000283
-0.299248 43.747265 0.000226
0.015493 43.747265 0.000116
0.330234 43.747265 0.000146
0.644975 43.747265 0.000141
0.959716 43.747265 0.000109
1.274457 43.747265 0.000096
1.589198 43.747265 0.000051
1.903938 43.747265 -0.000084
2.218679 43.747265 -0.000132
2.533421 43.747265 -0.000015
2.848162 43.747265 0.000116
3.162903 43.747265 0.000187
3.477644 43.747265 0.000239
3.792385 43.747265 0.000292
4.107125 43.747265 0.000286
4.421866 43.747265 0.000296
4.736608 43.747265 0.000368
5.051349 43.747265 0.000505
5.366090 43.747265 0.000717
5.680831 43.747265 0.000739
5.995571 43.747265 0.000730
6.310312 43.747265 0.000914
6.625053 43.747265 0.001533
6.939795 43.747265 0.002824
7.254536 43.747265 0.004095
7.569277 43.747265 0.007930
7.884017 43.747265 0.013450
8.198758 43.747265 0.023628
8.513499 43.747265 0.043791
8.828240 43.747265 0.078699
9.142982 43.747265 0.134167
9.457723 43.747265 0.209441
9.772464 43.747265 0.294291
10.087205 43.747265 0.393913
10.401946 43.747265 0.507807
10.716687 43.747265 0.620465
11.031426 43.747265 0.711995
11.346168 43.747265 0.792643
11.660909 43.747265 0.893409
11.975650 43.747265 0.986474
12.290391 43.747265 1.068639
12.605132 43.747265 1.128453
12.919873 43.747265 1.167896
13.234614 43.747265 1.205749
13.549356 43.747265 1.230005
13.864097 43.747265 1.230071
14.178838 43.747265 1.190460
14.493579 43.747265 1.142787
14.808320 43.747265 1.066475
15.123059 43.747265 0.987469
15.437800 43.747265 0.902503
15.752542 43.747265 0.221413
16.067284 43.747265 0.000000
16.382023 43.747265 0.000000
16.696766 43.747265 0.000000
17.011505 43.747265 0.000000
17.326248 43.747265 0.000000
17.640987 43.747265 -0.286984
17.955730 43.747265 -0.541804
18.270470 43.747265 -0.631659
18.585213 43.747265 -0.733512
18.899952 43.747265 -0.110147
-7.223550 43.432522 0.000000
-6.908809 43.432522 0.000000
-6.594068 43.432522 0.000192
-6.279327 43.432522 0.000256
-5.964586 43.432522 0.000272
-5.649845 43.432522 0.000266
-5.335104 43.432522 0.000320
-5.020363 43.432522 0.000331
-4.705622 43.432522 0.000262
-4.390881 43.432522 0.000226
-4.076140 43.432522 0.000232
-3.761399 43.432522 0.000352
-3.446658 43.432522 0.000445
-3.131917 43.432522 0.000342
-2.817176 43.432522 0.000168
-2.502435 43.432522 0.000139
-2.187694 43.432522 0.000306
-1.872953 43.432522 0.000401
-1.558212 43.432522 0.000391
-1.243471 43.432522 0.000360
-0.928730 43.432522 0.000309
-0.613989 43.432522 0.000322
-0.299248 43.432522 0.000244
0.015493 43.432522 0.000152
0.330234 43.432522 0.000201
0.644975 43.432522 0.000186
0.959716 43.432522 0.000187
1.274457 43.432522 0.000219
1.589198 43.432522 0.000155
1.903938 43.432522 -0.000008
2.218679 43.432522 -0.000133
2.533421 43.432522 -0.000028
2.848162 43.432522 0.000093
3.162903 43.432522 0.000119
3.477644 43.432522 0.000179
3.792385 43.432522 0.000204
4.107125 43.432522 0.000165
4.421866 43.432522 0.000150
4.736608 43.432522 0.000268
5.051349 43.432522 0.000482
5.366090 43.432522 0.000664
5.680831 43.432522 0.000725
5.995571 43.432522 0.000732
6.310312 43.432522 0.001013
6.625053 43.432522 0.001489
6.939795 43.432522 0.002729
7.254536 43.432522 0.004185
7.569277 43.432522 0.007314
7.884017 43.432522 0.012430
8.198758 43.432522 0.023348
8.513499 43.432522 0.042793
8.828240 43.432522 0.073723
9.142982 43.432522 0.129285
9.457723 43.432522 0.204554
9.772464 43.432522 0.293123
10.087205 43.432522 0.395538
10.401946 43.432522 0.503770
10.716687 43.432522 0.614442
11.031426 43.432522 0.705639
11.346168 43.432522 0.798555
11.660909 43.432522 0.895929
11.975650 43.432522 0.994327
12.290391 43.432522 1.076922
12.605132 43.432522 1.131268
12.919873 43.432522 1.174889
13.234614 43.432522 1.199230
13.549356 43.432522 1.230402
13.864097 43.432522 1.234840
14.178838 43.432522 1.196507
14.493579 43.432522 1.136916
14.808320 43.432522 1.072492
15.123059 43.432522 0.997476
15.437800 43.432522 0.904111
15.752542 43.432522 0.154255
16.067284 43.432522 0.000000
16.382023 43.432522 0.000000
16.696766 43.432522 0.000000
17.011505 43.432522 0.000000
17.326248 43.432522 0.000000
17.640987 43.432522 -0.384596
17.955730 43.432522 -0.533321
18.270470 43.432522 -0.653870
18.585213 43.432522 -0.775288
18.899952 43.432522 -0.162834
-7.223550 43.117783 0.000000
-6.908809 43.117783 0.000000
-6.594068 43.117783 0.000341
-6.279327 43.117783 0.000305
-5.964586 43.117783 0.000289
-5.649845 43.117783 0.000264
-5.335104 43.117783 0.000322
-5.020363 43.117783 0.000342
-4.705622 43.117783 0.000289
-4.390881 43.117783 0.000187
-4.076140 43.117783 0.000140
-3.761399 43.117783 0.000289
-3.446658 43.117783 0.000435
-3.131917 43.117783 0.000354
-2.817176 43.117783 0.000167
-2.502435 43.117783 0.000164
-2.187694 43.117783 0.000320
-1.872953 43.117783 0.000366
-1.558212 43.117783 0.000371
-1.243471 43.117783 0.000385
-0.928730 43.117783 0.000360
-0.613989 43.117783 0.000356
-0.299248 43.117783 0.000287
0.015493 43.117783 0.000204
0.330234 43.117783 0.000250
0.644975 43.117783 0.000214
0.959716 43.117783 0.000218
1.274457 43.117783 0.000297
1.589198 43.117783 0.000277
1.903938 43.117783 0.000093
2.218679 43.117783 -0.000084
2.533421 43.117783 -0.000009
2.848162 43.117783 0.000078
3.162903 43.117783 0.000048
3.477644 43.117783 0.000080
3.792385 43.117783 0.000107
4.107125 43.117783 0.000054
4.421866 43.117783 0.000060
4.736608 43.117783 0.000186
5.051349 43.117783 0.000321
5.366090 43.117783 0.000610
5.680831 43.117783 0.000606
5.995571 43.117783 0.000716
6.310312 43.117783 0.000914
6.625053 43.117783 0.001221
6.939795 43.117783 0.002159
7.254536 43.117783 0.004473
7.569277 43.117783 0.007588
7.884017 43.117783 0.012948
8.198758 43.117783 0.023249
8.513499 43.117783 0.042280
8.828240 43.117783 0.070762
9.142982 43.117783 0.125606
9.457723 43.117783 0.198728
9.772464 43.117783 0.295080
10.087205 43.117783 0.397095
10.401946 43.117783 0.498401
10.716687 43.117783 0.608362
11.031426 43.117783 0.704430
11.346168 43.117783 0.811835
11.660909 43.117783 0.911186
11.975650 43.117783 0.999834
12.290391 43.117783 1.065967
12.605132 43.117783 1.123965
12.919873 43.117783 1.167306
13.234614 43.117783 1.199616
13.549356 43.117783 1.230482
13.864097 43.117783 1.236704
14.178838 43.117783 1.199077
14.493579 43.117783 1.142771
14.808320 43.117783 1.070197
15.123059 43.117783 1.005427
15.437800 43.117783 0.917062
15.752542 43.117783 0.238817
16.067284 43.117783 0.000000
16.382023 43.117783 0.000000
16.696766 43.117783 0.000000
17.011505 43.117783 0.000000
17.326248 43.117783 0.000000
17.640987 43.117783 -0.363246
17.955730 43.117783 -0.519945
18.270470 43.117783 -0.622025
18.585213 43.117783 -0.762469
18.899952 43.117783 -0.107961
-7.223550 42.803040 0.000000
-6.908809 42.803040 0.000000
-6.594068 42.803040 0.000489
-6.279327 42.803040 0.000364
-5.964586 42.803040 0.000348
-5.649845 42.803040 0.000316
-5.335104 42.803040 0.000362
-5.020363 42.803040 0.000394
-4.705622 42.803040 0.000350
-4.390881 42.803040 0.000206
-4.076140 42.803040 0.000092
-3.761399 42.803040 0.000247
-3.446658 42.803040 0.000439
-3.131917 42.803040 0.000387
-2.817176 42.803040 0.000195
-2.502435 42.803040 0.000211
-2.187694 42.803040 0.000326
-1.872953 42.803040 0.000320
-1.558212 42.803040 0.000323
-1.243471 42.803040 0.000396
-0.928730 42.803040 0.000392
-0.613989 42.803040 0.000364
-0.299248 42.803040 0.000344
0.015493 42.803040 0.000275
0.330234 42.803040 0.000283
0.644975 42.803040 0.000223
0.959716 42.803040 0.000226
1.274457 42.803040 0.000316
1.589198 42.803040 0.000344
1.903938 42.803040 0.000214
2.218679 42.803040 0.000018
2.533421 42.803040 0.000026
2.848162 42.803040 0.000095
3.162903 42.803040 0.000026
3.477644 42.803040 -0.000011
3.792385 42.803040 -0.000007
4.107125 42.803040 -0.000036
4.421866 42.803040 -0.000013
4.736608 42.803040 0.000065
5.051349 42.803040 0.000227
5.366090 42.803040 0.000376
5.680831 42.803040 0.000499
5.995571 42.803040 0.000771
6.310312 42.803040 0.000746
6.625053 42.803040 0.001272
6.939795 42.803040 0.002080
7.254536 42.803040 0.004358
7.569277 42.803040 0.007712
7.884017 42.803040 0.013280
8.198758 42.803040 0.023376
8.513499 42.803040 0.041097
8.828240 42.803040 0.072875
9.142982 42.803040 0.124417
9.457723 42.803040 0.202144
9.772464 42.803040 0.297285
10.087205 42.803040 0.393946
10.401946 42.803040 0.502125
10.716687 42.803040 0.605884
11.031426 42.803040 0.699953
11.346168 42.803040 0.814939
11.660909 42.803040 0.904738
11.975650 42.803040 0.991405
12.290391 42.803040 1.061978
12.605132 42.803040 1.118734
12.919873 42.803040 1.150938
13.234614 42.803040 1.192302
13.549356 42.803040 1.226358
13.864097 42.803040 1.231157
14.178838 42.803040 1.202519
14.493579 42.803040 1.145753
14.808320 42.803040 1.075983
15.123059 42.803040 1.004592
15.437800 42.803040 0.916334
15.752542 42.803040 0.215703
16.067284 42.803040 0.000000
16.382023 42.803040 0.000000
16.696766 42.803040 0.000000
17.011505 42.803040 0.000000
17.326248 42.803040 0.000000
17.640987 42.803040 -0.305195
17.955730 42.803040 -0.505954
18.270470 42.803040 -0.589827
18.585213 42.803040 -0.719680
18.899952 42.803040 -0.069500
-7.223550 42.488300 0.000000
-6.908809 42.488300 0.000000
-6.594068 42.488300 0.000604
-6.279327 42.488300 0.000423
-5.964586 42.488300 0.000394
-5.649845 42.488300 0.000376
-5.335104 42.488300 0.000435
-5.020363 42.488300 0.000454
-4.705622 42.488300 0.000415
-4.390881 42.488300 0.000297
-4.076140 42.488300 0.000132
-3.761399 42.488300 0.000268
-3.446658 42.488300 0.000443
-3.131917 42.488300 0.000415
-2.817176 42.488300 0.000290
-2.502435 42.488300 0.000276
-2.187694 42.488300 0.000293
-1.872953 42.488300 0.000243
-1.558212 42.488300 0.000253
-1.243471 42.488300 0.000342
-0.928730 42.488300 0.000377
-0.613989 42.488300 0.000366
-0.299248 42.488300 0.000376
0.015493 42.488300 0.000330
0.330234 42.488300 0.000321
0.644975 42.488300 0.000239
0.959716 42.488300 0.000236
1.274457 42.488300 0.000320
1.589198 42.488300 0.000360
1.903938 42.488300 0.000282
2.218679 42.488300 0.000111
2.533421 42.488300 0.000094
2.848162 42.488300 0.000119
3.162903 42.488300 0.000001
3.477644 42.488300 -0.000064
3.792385 42.488300 -0.000053
4.107125 42.488300 -0.000100
4.421866 42.488300 -0.000120
4.736608 42.488300 -0.000032
5.051349 42.488300 0.000023
5.366090 42.488300 0.000076
5.680831 42.488300 0.000349
5.995571 42.488300 0.000683
6.310312 42.488300 0.000888
6.625053 42.488300 0.001383
6.939795 42.488300 0.002546
7.254536 42.488300 0.004408
7.569277 42.488300 0.008114
7.884017 42.488300 0.012866
8.198758 42.488300 0.023484
8.513499 42.488300 0.040885
8.828240 42.488300 0.071889
9.142982 42.488300 0.127237
9.457723 42.488300 0.204357
9.772464 42.488300 0.300976
10.087205 42.488300 0.399792
10.401946 42.488300 0.504489
10.716687 42.488300 0.609883
11.031426 42.488300 0.711733
11.346168 42.488300 0.804774
11.660909 42.488300 0.899270
11.975650 42.488300 0.987421
12.290391 42.488300 1.068896
12.605132 42.488300 1.119372
12.919873 42.488300 1.161685
13.234614 42.488300 1.185293
13.549356 42.488300 1.222310
13.864097 42.488300 1.235972
14.178838 42.488300 1.199540
14.493579 42.488300 1.141976
14.808320 42.488300 1.065963
15.123059 42.488300 0.987572
15.437800 42.488300 0.911238
15.752542 42.488300 0.194612
16.067284 42.488300 0.000000
16.382023 42.488300 0.000000
16.696766 42.488300 0.000000
17.011505 42.488300 0.000000
17.326248 42.488300 0.000000
17.640987 42.488300 -0.352635
17.955730 42.488300 -0.489313
18.270470 42.488300 -0.577942
18.585213 42.488300 -0.680148
18.899952 42.488300 -0.003871
-7.223550 42.173557 0.000000
-6.908809 42.173557 0.000000
-6.594068 42.173557 0.000647
-6.279327 42.173557 0.000457
-5.964586 42.173557 0.000421
-5.649845 42.173557 0.000427
-5.335104 42.173557 0.000495
-5.020363 42.173557 0.000533
-4.705622 42.173557 0.000501
-4.390881 42.173557 0.000421
-4.076140 42.173557 0.000229
-3.761399 42.173557 0.000312
-3.446658 42.173557 0.000432
-3.131917 42.173557 0.000450
-2.817176 42.173557 0.000404
-2.502435 42.173557 0.000323
-2.187694 42.173557 0.000264
-1.872953 42.173557 0.000177
-1.558212 42.173557 0.000196
-1.243471 42.173557 0.000270
-0.928730 42.173557 0.000353
-0.613989 42.173557 0.000351
-0.299248 42.173557 0.000344
0.015493 42.173557 0.000331
0.330234 42.173557 0.000330
0.644975 42.173557 0.000257
0.959716 42.173557 0.000261
1.274457 42.173557 0.000295
1.589198 42.173557 0.000314
1.903938 42.173557 0.000279
2.218679 42.173557 0.000189
2.533421 42.173557 0.000184
2.848162 42.173557 0.000157
3.162903 42.173557 0.000023
3.477644 42.173557 -0.000097
3.792385 42.173557 -0.000154
4.107125 42.173557 -0.000172
4.421866 42.173557 -0.000171
4.736608 42.173557 -0.000071
5.051349 42.173557 -0.000153
5.366090 42.173557 -0.000128
5.680831 42.173557 0.000059
5.995571 42.173557 0.000465
6.310312 42.173557 0.000750
6.625053 42.173557 0.001402
6.939795 42.173557 0.002424
7.254536 42.173557 0.004294
7.569277 42.173557 0.007768
7.884017 42.173557 0.012501
8.198758 42.173557 0.021497
8.513499 42.173557 0.039973
8.828240 42.173557 0.074148
9.142982 42.173557 0.131042
9.457723 42.173557 0.206826
9.772464 42.173557 0.301585
10.087205 42.173557 0.400780
10.401946 42.173557 0.497043
10.716687 42.173557 0.615066
11.031426 42.173557 0.706854
11.346168 42.173557 0.803802
11.660909 42.173557 0.898457
11.975650 42.173557 0.984666
12.290391 42.173557 1.064745
12.605132 42.173557 1.118594
12.919873 42.173557 1.164474
13.234614 42.173557 1.179915
13.549356 42.173557 1.221929
13.864097 42.173557 1.230396
14.178838 42.173557 1.198829
14.493579 42.173557 1.126726
14.808320 42.173557 1.064201
15.123059 42.173557 1.006999
15.437800 42.173557 0.904771
15.752542 42.173557 0.106969
16.067284 42.173557 0.000000
16.382023 42.173557 0.000000
16.696766 42.173557 0.000000
17.011505 42.173557 0.000000
17.326248 42.173557 0.000000
17.640987 42.173557 -0.454646
17.955730 42.173557 -0.483059
18.270470 42.173557 -0.538564
18.585213 42.173557 -0.637881
18.899952 42.173557 0.035973
-7.223550 41.858818 0.000000
-6.908809 41.858818 0.000000
-6.594068 41.858818 0.000614
-6.279327 41.858818 0.000458
-5.964586 41.858818 0.000443
-5.649845 41.858818 0.000465
-5.335104 41.858818 0.000540
-5.020363 41.858818 0.000614
-4.705622 41.858818 0.000606
-4.390881 41.858818 0.000524
-4.076140 41.858818 0.000347
-3.761399 41.858818 0.000348
-3.446658 41.858818 0.000401
-3.131917 41.858818 0.000460
-2.817176 41.858818 0.000484
-2.502435 41.858818 0.000368
-2.187694 41.858818 0.000244
-1.872953 41.858818 0.000142
-1.558212 41.858818 0.000161
-1.243471 41.858818 0.000235
-0.928730 41.858818 0.000313
-0.613989 41.858818 0.000333
-0.299248 41.858818 0.000309
0.015493 41.858818 0.000312
0.330234 41.858818 0.000316
0.644975 41.858818 0.000261
0.959716 41.858818 0.000261
1.274457 41.858818 0.000270
1.589198 41.858818 0.000248
1.903938 41.858818 0.000238
2.218679 41.858818 0.000220
2.533421 41.858818 0.000229
2.848162 41.858818 0.000176
3.162903 41.858818 0.000098
3.477644 41.858818 -0.000085
3.792385 41.858818 -0.000176
4.107125 41.858818 -0.000239
4.421866 41.858818 -0.000238
4.736608 41.858818 -0.000201
5.051349 41.858818 -0.000238
5.366090 41.858818 -0.000301
5.680831 41.858818 0.000013
5.995571 41.858818 0.000363
6.310312 41.858818 0.000588
6.625053 41.858818 0.001472
6.939795 41.858818 0.002649
7.254536 41.858818 0.004339
7.569277 41.858818 0.007991
7.884017 41.858818 0.012779
8.198758 41.858818 0.021654
8.513499 41.858818 0.039629
8.828240 41.858818 0.072157
9.142982 41.858818 0.130193
9.457723 41.858818 0.210591
9.772464 41.858818 0.300339
10.087205 41.858818 0.397537
10.401946 41.858818 0.502499
10.716687 41.858818 0.612761
11.031426 41.858818 0.715236
11.346168 41.858818 0.806015
11.660909 41.858818 0.894293
11.975650 41.858818 0.982762
12.290391 41.858818 1.054539
12.605132 41.858818 1.105775
12.919873 41.858818 1.148969
13.234614 41.858818 1.184746
13.549356 41.858818 1.205157
13.864097 41.858818 1.223240
14.178838 41.858818 1.199618
14.493579 41.858818 1.136119
14.808320 41.858818 1.081507
15.123059 41.858818 0.990507
15.437800 41.858818 0.918339
15.752542 41.858818 0.409451
16.067284 41.858818 0.000000
16.382023 41.858818 0.000000
16.696766 41.858818 0.000000
17.011505 41.858818 0.000000
17.326248 41.858818 0.000000
17.640987 41.858818 -0.282389
17.955730 41.858818 -0.510374
18.270470 41.858818 -0.564781
18.585213 41.858818 -0.643267
18.899952 41.858818 0.000000
-7.223550 41.544075 0.000000
-6.908809 41.544075 0.000000
-6.594068 41.544075 0.000553
-6.279327 41.544075 0.000462
-5.964586 41.544075 0.000476
-5.649845 41.544075 0.000505
-5.335104 41.544075 0.000579
-5.020363 41.544075 0.000706
-4.705622 41.544075 0.000707
-4.390881 41.544075 0.000590
-4.076140 41.544075 0.000428
-3.761399 41.544075 0.000386
-3.446658 41.544075 0.000383
-3.131917 41.544075 0.000435
-2.817176 41.544075 0.000484
-2.502435 41.544075 0.000370
-2.187694 41.544075 0.000233
-1.872953 41.544075 0.000135
-1.558212 41.544075 0.000159
-1.243471 41.544075 0.000213
-0.928730 41.544075 0.000271
-0.613989 41.544075 0.000299
-0.299248 41.544075 0.000260
0.015493 41.544075 0.000269
0.330234 41.544075 0.000287
0.644975 41.544075 0.000236
0.959716 41.544075 0.000210
1.274457 41.544075 0.000205
1.589198 41.544075 0.000161
1.903938 41.544075 0.000160
2.218679 41.544075 0.000191
2.533421 41.544075 0.000211
2.848162 41.544075 0.000192
3.162903 41.544075 0.000135
3.477644 41.544075 -0.000005
3.792385 41.544075 -0.000149
4.107125 41.544075 -0.000208
4.421866 41.544075 -0.000285
4.736608 41.544075 -0.000239
5.051349 41.544075 -0.000266
5.366090 41.544075 -0.000317
5.680831 41.544075 -0.000165
5.995571 41.544075 0.000118
6.310312 41.544075 0.000753
6.625053 41.544075 0.001557
6.939795 41.544075 0.002824
7.254536 41.544075 0.004497
7.569277 41.544075 0.007716
7.884017 41.544075 0.013474
8.198758 41.544075 0.022920
8.513499 41.544075 0.040182
8.828240 41.544075 0.071058
9.142982 41.544075 0.129353
9.457723 41.544075 0.211912
9.772464 41.544075 0.301770
10.087205 41.544075 0.390351
10.401946 41.544075 0.506473
10.716687 41.544075 0.617764
11.031426 41.544075 0.708663
11.346168 41.544075 0.803444
11.660909 41.544075 0.907382
11.975650 41.544075 0.989317
12.290391 41.544075 1.066656
12.605132 41.544075 1.104553
12.919873 41.544075 1.154039
13.234614 41.544075 1.184257
13.549356 41.544075 1.202724
13.864097 41.544075 1.221875
14.178838 41.544075 1.195283
14.493579 41.544075 1.147215
14.808320 41.544075 1.075966
15.123059 41.544075 1.000264
15.437800 41.544075 0.910161
15.752542 41.544075 0.399559
16.067284 41.544075 0.000000
16.382023 41.544075 0.000000
16.696766 41.544075 0.000000
17.011505 41.544075 0.000000
17.326248 41.544075 0.000000
17.640987 41.544075 -0.230257
17.955730 41.544075 -0.502122
18.270470 41.544075 -0.577091
18.585213 41.544075 -0.655956
18.899952 41.544075 0.000000
-7.223550 41.229336 0.000000
-6.908809 41.229336 0.000000
-6.594068 41.229336 0.000569
-6.279327 41.229336 0.000508
-5.964586 41.229336 0.000525
-5.649845 41.229336 0.000535
-5.335104 41.229336 0.000590
-5.020363 41.229336 0.000734
-4.705622 41.229336 0.000731
-4.390881 41.229336 0.000589
-4.076140 41.229336 0.000463
-3.761399 41.229336 0.000402
-3.446658 41.229336 0.000382
-3.131917 41.229336 0.000387
-2.817176 41.229336 0.000428
-2.502435 41.229336 0.000350
-2.187694 41.229336 0.000257
-1.872953 41.229336 0.000182
-1.558212 41.229336 0.000187
-1.243471 41.229336 0.000219
-0.928730 41.229336 0.000232
-0.613989 41.229336 0.000260
-0.299248 41.229336 0.000258
0.015493 41.229336 0.000240
0.330234 41.229336 0.000243
0.644975 41.229336 0.000215
0.959716 41.229336 0.000183
1.274457 41.229336 0.000149
1.589198 41.229336 0.000111
1.903938 41.229336 0.000131
2.218679 41.229336 0.000131
2.533421 41.229336 0.000152
2.848162 41.229336 0.000150
3.162903 41.229336 0.000156
3.477644 41.229336 0.000059
3.792385 41.229336 -0.000039
4.107125 41.229336 -0.000082
4.421866 41.229336 -0.000212
4.736608 41.229336 -0.000294
5.051349 41.229336 -0.000255
5.366090 41.229336 -0.000155
5.680831 41.229336 0.000045
5.995571 41.229336 0.000236
6.310312 41.229336 0.000751
6.625053 41.229336 0.001635
6.939795 41.229336 0.002493
7.254536 41.229336 0.004431
7.569277 41.229336 0.008051
7.884017 41.229336 0.014305
8.198758 41.229336 0.023322
8.513499 41.229336 0.040317
8.828240 41.229336 0.076206
9.142982 41.229336 0.133204
9.457723 41.229336 0.203463
9.772464 41.229336 0.295626
10.087205 41.229336 0.395272
10.401946 41.229336 0.502830
10.716687 41.229336 0.618051
11.031426 41.229336 0.717564
11.346168 41.229336 0.804066
11.660909 41.229336 0.910527
11.975650 41.229336 1.005379
12.290391 41.229336 1.070284
12.605132 41.229336 1.117604
12.919873 41.229336 1.160527
13.234614 41.229336 1.183326
13.549356 41.229336 1.215286
13.864097 41.229336 1.221230
14.178838 41.229336 1.196025
14.493579 41.229336 1.131317
14.808320 41.229336 1.068401
15.123059 41.229336 0.991249
15.437800 41.229336 0.906324
15.752542 41.229336 0.375183
16.067284 41.229336 0.000000
16.382023 41.229336 0.000000
16.696766 41.229336 0.000000
17.011505 41.229336 0.000000
17.326248 41.229336 0.000000
17.640987 41.229336 -0.269409
17.955730 41.229336 -0.464140
18.270470 41.229336 -0.594471
18.585213 41.229336 -0.646456
18.899952 41.229336 0.000000
-7.223550 40.914597 0.000000
-6.908809 40.914597 0.000000
-6.594068 40.914597 0.000650
-6.279327 40.914597 0.000608
-5.964586 40.914597 0.000594
-5.649845 40.914597 0.000569
-5.335104 40.914597 0.000595
-5.020363 40.914597 0.000717
-4.705622 40.914597 0.000680
-4.390881 40.914597 0.000531
-4.076140 40.914597 0.000452
-3.761399 40.914597 0.000414
-3.446658 40.914597 0.000370
-3.131917 40.914597 0.000344
-2.817176 40.914597 0.000340
-2.502435 40.914597 0.000322
-2.187694 40.914597 0.000274
-1.872953 40.914597 0.000250
-1.558212 40.914597 0.000257
-1.243471 40.914597 0.000243
-0.928730 40.914597 0.000216
-0.613989 40.914597 0.000256
-0.299248 40.914597 0.000260
0.015493 40.914597 0.000236
0.330234 40.914597 0.000232
0.644975 40.914597 0.000242
0.959716 40.914597 0.000214
1.274457 40.914597 0.000134
1.589198 40.914597 0.000143
1.903938 40.914597 0.000145
2.218679 40.914597 0.000100
2.533421 40.914597 0.000085
2.848162 40.914597 0.000091
3.162903 40.914597 0.000135
3.477644 40.914597 0.000122
3.792385 40.914597 0.000112
4.107125 40.914597 0.000084
4.421866 40.914597 -0.000102
4.736608 40.914597 -0.000153
5.051349 40.914597 -0.000095
5.366090 40.914597 -0.000088
5.680831 40.914597 0.000083
5.995571 40.914597 0.000365
6.310312 40.914597 0.000897
6.625053 40.914597 0.001560
6.939795 40.914597 0.002853
7.254536 40.914597 0.004511
7.569277 40.914597 0.008013
7.884017 40.914597 0.014488
8.198758 40.914597 0.024283
8.513499 40.914597 0.040388
8.828240 40.914597 0.077410
9.142982 40.914597 0.133127
9.457723 40.914597 0.200613
9.772464 40.914597 0.295255
10.087205 40.914597 0.399900
10.401946 40.914597 0.506540
10.716687 40.914597 0.613951
11.031426 40.914597 0.720347
11.346168 40.914597 0.809333
11.660909 40.914597 0.908654
11.975650 40.914597 1.000136
12.290391 40.914597 1.070504
12.605132 40.914597 1.116754
12.919873 40.914597 1.157480
13.234614 40.914597 1.189877
13.549356 40.914597 1.208133
13.864097 40.914597 1.211071
14.178838 40.914597 1.192186
14.493579 40.914597 1.138362
14.808320 40.914597 1.077623
15.123059 40.914597 0.998095
15.437800 40.914597 0.899644
15.752542 40.914597 0.359459
16.067284 40.914597 0.000000
16.382023 40.914597 0.000000
16.696766 40.914597 0.000000
17.011505 40.914597 0.000000
17.326248 40.914597 0.000000
17.640987 40.914597 -0.291310
17.955730 40.914597 -0.494733
18.270470 40.914597 -0.590391
18.585213 40.914597 -0.662640
18.899952 40.914597 0.000000
-7.223550 40.599854 0.000000
-6.908809 40.599854 0.000000
-6.594068 40.599854 0.000725
-6.279327 40.599854 0.000694
-5.964586 40.599854 0.000652
-5.649845 40.599854 0.000600
-5.335104 40.599854 0.000623
-5.020363 40.599854 0.000688
-4.705622 40.599854 0.000592
-4.390881 40.599854 0.000447
-4.076140 40.599854 0.000396
-3.761399 40.599854 0.000397
-3.446658 40.599854 0.000357
-3.131917 40.599854 0.000283
-2.817176 40.599854 0.000262
-2.502435 40.599854 0.000312
-2.187694 40.599854 0.000333
-1.872953 40.599854 0.000334
-1.558212 40.599854 0.000327
-1.243471 40.599854 0.000255
-0.928730 40.599854 0.000221
-0.613989 40.599854 0.000267
-0.299248 40.599854 0.000282
0.015493 40.599854 0.000239
0.330234 40.599854 0.000248
0.644975 40.599854 0.000314
0.959716 40.599854 0.000275
1.274457 40.599854 0.000227
1.589198 40.599854 0.000230
1.903938 40.599854 0.000216
2.218679 40.599854 0.000111
2.533421 40.599854 0.000059
2.848162 40.599854 0.000055
3.162903 40.599854 0.000103
3.477644 40.599854 0.000149
3.792385 40.599854 0.000203
4.107125 40.599854 0.000231
4.421866 40.599854 0.000072
4.736608 40.599854 -0.000001
5.051349 40.599854 0.000045
5.366090 40.599854 0.000060
5.680831 40.599854 0.000263
5.995571 40.599854 0.000530
6.310312 40.599854 0.000908
6.625053 40.599854 0.001735
6.939795 40.599854 0.002746
7.254536 40.599854 0.004402
7.569277 40.599854 0.008144
7.884017 40.599854 0.013373
8.198758 40.599854 0.024151
8.513499 40.599854 0.042796
8.828240 40.599854 0.075421
9.142982 40.599854 0.130027
9.457723 40.599854 0.204343
9.772464 40.599854 0.296730
10.087205 40.599854 0.407930
10.401946 40.599854 0.506589
10.716687 40.599854 0.621460
11.031426 40.599854 0.730756
11.346168 40.599854 0.814861
11.660909 40.599854 0.906145
11.975650 40.599854 1.002627
12.290391 40.599854 1.073058
12.605132 40.599854 1.122804
12.919873 40.599854 1.158394
13.234614 40.599854 1.191798
13.549356 40.599854 1.221124
13.864097 40.599854 1.226413
14.178838 40.599854 1.184096
14.493579 40.599854 1.143320
14.808320 40.599854 1.084546
15.123059 40.599854 1.005525
15.437800 40.599854 0.918146
15.752542 40.599854 0.314430
16.067284 40.599854 0.000000
16.382023 40.599854 0.000000
16.696766 40.599854 0.000000
17.011505 40.599854 0.000000
17.326248 40.599854 0.000000
17.640987 40.599854 -0.300938
17.955730 40.599854 -0.503790
18.270470 40.599854 -0.587268
18.585213 40.599854 -0.636966
18.899952 40.599854 0.000000
-7.223550 40.285114 0.000000
-6.908809 40.285114 0.000000
-6.594068 40.285114 0.000832
-6.279327 40.285114 0.000728
-5.964586 40.285114 0.000682
-5.649845 40.285114 0.000624
-5.335104 40.285114 0.000634
-5.020363 40.285114 0.000625
-4.705622 40.285114 0.000494
-4.390881 40.285114 0.000385
-4.076140 40.285114 0.000359
-3.761399 40.285114 0.000366
-3.446658 40.285114 0.000294
-3.131917 40.285114 0.000234
-2.817176 40.285114 0.000243
-2.502435 40.285114 0.000336
-2.187694 40.285114 0.000402
-1.872953 40.285114 0.000427
-1.558212 40.285114 0.000375
-1.243471 40.285114 0.000239
-0.928730 40.285114 0.000230
-0.613989 40.285114 0.000295
-0.299248 40.285114 0.000285
0.015493 40.285114 0.000225
0.330234 40.285114 0.000268
0.644975 40.285114 0.000370
0.959716 40.285114 0.000363
1.274457 40.285114 0.000299
1.589198 40.285114 0.000291
1.903938 40.285114 0.000261
2.218679 40.285114 0.000149
2.533421 40.285114 0.000069
2.848162 40.285114 0.000033
3.162903 40.285114 0.000050
3.477644 40.285114 0.000154
3.792385 40.285114 0.000237
4.107125 40.285114 0.000341
4.421866 40.285114 0.000257
4.736608 40.285114 0.000184
5.051349 40.285114 0.000183
5.366090 40.285114 0.000301
5.680831 40.285114 0.000471
5.995571 40.285114 0.000674
6.310312 40.285114 0.000968
6.625053 40.285114 0.001784
6.939795 40.285114 0.002426
7.254536 40.285114 0.004463
7.569277 40.285114 0.007466
7.884017 40.285114 0.013880
8.198758 40.285114 0.022690
8.513499 40.285114 0.039188
8.828240 40.285114 0.074519
9.142982 40.285114 0.134463
9.457723 40.285114 0.211017
9.772464 40.285114 0.303390
10.087205 40.285114 0.401097
10.401946 40.285114 0.501723
10.716687 40.285114 0.628304
11.031426 40.285114 0.733060
11.346168 40.285114 0.820417
11.660909 40.285114 0.907220
11.975650 40.285114 1.001196
12.290391 40.285114 1.076853
12.605132 40.285114 1.125777
12.919873 40.285114 1.160914
13.234614 40.285114 1.192651
13.549356 40.285114 1.224609
13.864097 40.285114 1.225049
14.178838 40.285114 1.193405
14.493579 40.285114 1.135359
14.808320 40.285114 1.084746
15.123059 40.285114 1.010533
15.437800 40.285114 0.929455
15.752542 40.285114 0.283463
16.067284 40.285114 0.000000
16.382023 40.285114 0.000000
16.696766 40.285114 0.000000
17.011505 40.285114 0.000000
17.326248 40.285114 0.000000
17.640987 40.285114 -0.402258
17.955730 40.285114 -0.521516
18.270470 40.285114 -0.562110
18.585213 40.285114 -0.606969
18.899952 40.285114 0.000000
-7.223550 39.970371 0.000000
-6.908809 39.970371 0.000000
-6.594068 39.970371 0.000853
-6.279327 39.970371 0.000721
-5.964586 39.970371 0.000670
-5.649845 39.970371 0.000621
-5.335104 39.970371 0.000614
-5.020363 39.970371 0.000572
-4.705622 39.970371 0.000445
-4.390881 39.970371 0.000376
-4.076140 39.970371 0.000362
-3.761399 39.970371 0.000344
-3.446658 39.970371 0.000271
-3.131917 39.970371 0.000240
-2.817176 39.970371 0.000281
-2.502435 39.970371 0.000377
-2.187694 39.970371 0.000442
-1.872953 39.970371 0.000478
-1.558212 39.970371 0.000374
-1.243471 39.970371 0.000231
-0.928730 39.970371 0.000257
-0.613989 39.970371 0.000347
-0.299248 39.970371 0.000281
0.015493 39.970371 0.000197
0.330234 39.970371 0.000252
0.644975 39.970371 0.000398
0.959716 39.970371 0.000408
1.274457 39.970371 0.000334
1.589198 39.970371 0.000301
1.903938 39.970371 0.000238
2.218679 39.970371 0.000169
2.533421 39.970371 0.000125
2.848162 39.970371 0.000033
3.162903 39.970371 0.000014
3.477644 39.970371 0.000139
3.792385 39.970371 0.000224
4.107125 39.970371 0.000318
4.421866 39.970371 0.000313
4.736608 39.970371 0.000254
5.051349 39.970371 0.000301
5.366090 39.970371 0.000461
5.680831 39.970371 0.000567
5.995571 39.970371 0.000656
6.310312 39.970371 0.001094
6.625053 39.970371 0.001842
6.939795 39.970371 0.002705
7.254536 39.970371 0.004563
7.569277 39.970371 0.008326
7.884017 39.970371 0.013348
8.198758 39.970371 0.022646
8.513499 39.970371 0.041715
8.828240 39.970371 0.077269
9.142982 39.970371 0.138402
9.457723 39.970371 0.214035
9.772464 39.970371 0.302163
10.087205 39.970371 0.403448
10.401946 39.970371 0.499198
10.716687 39.970371 0.619377
11.031426 39.970371 0.728228
11.346168 39.970371 0.823549
11.660909 39.970371 0.918895
11.975650 39.970371 1.005717
12.290391 39.970371 1.075618
12.605132 39.970371 1.124629
12.919873 39.970371 1.167221
13.234614 39.970371 1.195223
13.549356 39.970371 1.216493
13.864097 39.970371 1.225153
14.178838 39.970371 1.191808
14.493579 39.970371 1.136083
14.808320 39.970371 1.084261
15.123059 39.970371 1.021501
15.437800 39.970371 0.929664
15.752542 39.970371 0.247331
16.067284 39.970371 0.000000
16.382023 39.970371 0.000000
16.696766 39.970371 0.000000
17.011505 39.970371 0.000000
17.326248 39.970371 0.000000
17.640987 39.970371 -0.484486
17.955730 39.970371 -0.505880
18.270470 39.970371 -0.554372
18.585213 39.970371 -0.600589
18.899952 39.970371 0.000000
-7.223550 39.655632 0.000000
-6.908809 39.655632 0.000000
-6.594068 39.655632 0.000772
-6.279327 39.655632 0.000659
-5.964586 39.655632 0.000627
-5.649845 39.655632 0.000568
-5.335104 39.655632 0.000560
-5.020363 39.655632 0.000534
-4.705622 39.655632 0.000447
-4.390881 39.655632 0.000403
-4.076140 39.655632 0.000398
-3.761399 39.655632 0.000347
-3.446658 39.655632 0.000296
-3.131917 39.655632 0.000291
-2.817176 39.655632 0.000333
-2.502435 39.655632 0.000396
-2.187694 39.655632 0.000440
-1.872953 39.655632 0.000448
-1.558212 39.655632 0.000344
-1.243471 39.655632 0.000229
-0.928730 39.655632 0.000293
-0.613989 39.655632 0.000392
-0.299248 39.655632 0.000277
0.015493 39.655632 0.000158
0.330234 39.655632 0.000209
0.644975 39.655632 0.000350
0.959716 39.655632 0.000365
1.274457 39.655632 0.000307
1.589198 39.655632 0.000257
1.903938 39.655632 0.000202
2.218679 39.655632 0.000190
2.533421 39.655632 0.000169
2.848162 39.655632 0.000067
3.162903 39.655632 0.000004
3.477644 39.655632 0.000064
3.792385 39.655632 0.000131
4.107125 39.655632 0.000236
4.421866 39.655632 0.000242
4.736608 39.655632 0.000303
5.051349 39.655632 0.000366
5.366090 39.655632 0.000465
5.680831 39.655632 0.000486
5.995571 39.655632 0.000584
6.310312 39.655632 0.000926
6.625053 39.655632 0.001769
6.939795 39.655632 0.002807
7.254536 39.655632 0.004638
7.569277 39.655632 0.008140
7.884017 39.655632 0.013672
8.198758 39.655632 0.023331
8.513499 39.655632 0.044756
8.828240 39.655632 0.077657
9.142982 39.655632 0.130755
9.457723 39.655632 0.211136
9.772464 39.655632 0.306702
10.087205 39.655632 0.402257
10.401946 39.655632 0.502825
10.716687 39.655632 0.613547
11.031426 39.655632 0.714706
11.346168 39.655632 0.827651
11.660909 39.655632 0.918562
11.975650 39.655632 1.006995
12.290391 39.655632 1.069869
12.605132 39.655632 1.125854
12.919873 39.655632 1.169796
13.234614 39.655632 1.209449
13.549356 39.655632 1.226935
13.864097 39.655632 1.227360
14.178838 39.655632 1.192003
14.493579 39.655632 1.152196
14.808320 39.655632 1.096285
15.123059 39.655632 1.008764
15.437800 39.655632 0.918121
15.752542 39.655632 0.228272
16.067284 39.655632 0.000000
16.382023 39.655632 0.000000
16.696766 39.655632 0.000000
17.011505 39.655632 0.000000
17.326248 39.655632 0.000000
17.640987 39.655632 -0.496636
17.955730 39.655632 -0.501177
18.270470 39.655632 -0.577183
18.585213 39.655632 -0.605283
18.899952 39.655632 0.000000
-7.223550 39.340889 0.000000
-6.908809 39.340889 0.000000
-6.594068 39.340889 0.000634
-6.279327 39.340889 0.000574
-5.964586 39.340889 0.000561
-5.649845 39.340889 0.000513
-5.335104 39.340889 0.000503
-5.020363 39.340889 0.000504
-4.705622 39.340889 0.000454
-4.390881 39.340889 0.000426
-4.076140 39.340889 0.000444
-3.761399 39.340889 0.000408
-3.446658 39.340889 0.000363
-3.131917 39.340889 0.000347
-2.817176 39.340889 0.000375
-2.502435 39.340889 0.000399
-2.187694 39.340889 0.000408
-1.872953 39.340889 0.000388
-1.558212 39.340889 0.000327
-1.243471 39.340889 0.000241
-0.928730 39.340889 0.000336
-0.613989 39.340889 0.000409
-0.299248 39.340889 0.000277
0.015493 39.340889 0.000156
0.330234 39.340889 0.000171
0.644975 39.340889 0.000258
0.959716 39.340889 0.000267
1.274457 39.340889 0.000249
1.589198 39.340889 0.000221
1.903938 39.340889 0.000172
2.218679 39.340889 0.000198
2.533421 39.340889 0.000230
2.848162 39.340889 0.000146
3.162903 39.340889 0.000015
3.477644 39.340889 0.000007
3.792385 39.340889 0.000056
4.107125 39.340889 0.000097
4.421866 39.340889 0.000137
4.736608 39.340889 0.000215
5.051349 39.340889 0.000268
5.366090 39.340889 0.000424
5.680831 39.340889 0.000462
5.995571 39.340889 0.000483
6.310312 39.340889 0.000753
6.625053 39.340889 0.001372
6.939795 39.340889 0.002633
7.254536 39.340889 0.004699
7.569277 39.340889 0.008254
7.884017 39.340889 0.014884
8.198758 39.340889 0.024204
8.513499 39.340889 0.042965
8.828240 39.340889 0.077662
9.142982 39.340889 0.134957
9.457723 39.340889 0.207604
9.772464 39.340889 0.307854
10.087205 39.340889 0.409868
10.401946 39.340889 0.506869
10.716687 39.340889 0.614407
11.031426 39.340889 0.720402
11.346168 39.340889 0.822755
11.660909 39.340889 0.924248
11.975650 39.340889 1.008641
12.290391 39.340889 1.082260
12.605132 39.340889 1.130131
12.919873 39.340889 1.174445
13.234614 39.340889 1.217068
13.549356 39.340889 1.243607
13.864097 39.340889 1.226944
14.178838 39.340889 1.196762
14.493579 39.340889 1.160081
14.808320 39.340889 1.098592
15.123059 39.340889 1.002209
15.437800 39.340889 0.906589
15.752542 39.340889 0.191476
16.067284 39.340889 0.000000
16.382023 39.340889 0.000000
16.696766 39.340889 0.000000
17.011505 39.340889 0.000000
17.326248 39.340889 0.000000
17.640987 39.340889 -0.650158
17.955730 39.340889 -0.634474
18.270470 39.340889 -0.620936
18.585213 39.340889 -0.624456
18.899952 39.340889 0.000000
-7.223550 39.026150 0.000000
-6.908809 39.026150 0.000000
-6.594068 39.026150 0.000519
-6.279327 39.026150 0.000462
-5.964586 39.026150 0.000512
-5.649845 39.026150 0.000482
-5.335104 39.026150 0.000485
-5.020363 39.026150 0.000491
-4.705622 39.026150 0.000453
-4.390881 39.026150 0.000428
-4.076140 39.026150 0.000484
-3.761399 39.026150 0.000489
-3.446658 39.026150 0.000442
-3.131917 39.026150 0.000415
-2.817176 39.026150 0.000410
-2.502435 39.026150 0.000384
-2.187694 39.026150 0.000336
-1.872953 39.026150 0.000309
-1.558212 39.026150 0.000317
-1.243471 39.026150 0.000286
-0.928730 39.026150 0.000400
-0.613989 39.026150 0.000427
-0.299248 39.026150 0.000306
0.015493 39.026150 0.000207
0.330234 39.026150 0.000179
0.644975 39.026150 0.000167
0.959716 39.026150 0.000191
1.274457 39.026150 0.000191
1.589198 39.026150 0.000185
1.903938 39.026150 0.000173
2.218679 39.026150 0.000225
2.533421 39.026150 0.000319
2.848162 39.026150 0.000254
3.162903 39.026150 0.000106
3.477644 39.026150 0.000038
3.792385 39.026150 0.000018
4.107125 39.026150 -0.000012
4.421866 39.026150 0.000048
4.736608 39.026150 0.000076
5.051349 39.026150 0.000112
5.366090 39.026150 0.000198
5.680831 39.026150 0.000365
5.995571 39.026150 0.000552
6.310312 39.026150 0.000758
6.625053 39.026150 0.001399
6.939795 39.026150 0.002406
7.254536 39.026150 0.004883
7.569277 39.026150 0.008377
7.884017 39.026150 0.013772
8.198758 39.026150 0.023901
8.513499 39.026150 0.044531
8.828240 39.026150 0.077167
9.142982 39.026150 0.133491
9.457723 39.026150 0.211200
9.772464 39.026150 0.309394
10.087205 39.026150 0.414219
10.401946 39.026150 0.515171
10.716687 39.026150 0.616388
11.031426 39.026150 0.725188
11.346168 39.026150 0.821672
11.660909 39.026150 0.918641
11.975650 39.026150 1.020458
12.290391 39.026150 1.084265
12.605132 39.026150 1.127966
12.919873 39.026150 1.172828
13.234614 39.026150 1.218425
13.549356 39.026150 1.243693
13.864097 39.026150 1.233758
14.178838 39.026150 1.202706
14.493579 39.026150 1.165394
14.808320 39.026150 1.096416
15.123059 39.026150 1.005080
15.437800 39.026150 0.907635
15.752542 39.026150 0.238515
16.067284 39.026150 0.000000
16.382023 39.026150 0.000000
16.696766 39.026150 0.000000
17.011505 39.026150 0.000000
17.326248 39.026150 0.000000
17.640987 39.026150 -1.221938
17.955730 39.026150 -0.699129
18.270470 39.026150 -0.662733
18.585213 39.026150 -0.695298
18.899952 39.026150 0.000000
-7.223550 38.711407 0.000000
-6.908809 38.711407 0.000000
-6.594068 38.711407 0.000440
-6.279327 38.711407 0.000391
-5.964586 38.711407 0.000469
-5.649845 38.711407 0.000480
-5.335104 38.711407 0.000470
-5.020363 38.711407 0.000517
-4.705622 38.711407 0.000484
-4.390881 38.711407 0.000439
-4.076140 38.711407 0.000534
-3.761399 38.711407 0.000564
-3.446658 38.711407 0.000524
-3.131917 38.711407 0.000455
-2.817176 38.711407 0.000442
-2.502435 38.711407 0.000370
-2.187694 38.711407 0.000257
-1.872953 38.711407 0.000246
-1.558212 38.711407 0.000281
-1.243471 38.711407 0.000315
-0.928730 38.711407 0.000430
-0.613989 38.711407 0.000439
-0.299248 38.711407 0.000362
0.015493 38.711407 0.000312
0.330234 38.711407 0.000239
0.644975 38.711407 0.000130
0.959716 38.711407 0.000172
1.274457 38.711407 0.000164
1.589198 38.711407 0.000173
1.903938 38.711407 0.000180
2.218679 38.711407 0.000259
2.533421 38.711407 0.000402
2.848162 38.711407 0.000394
3.162903 38.711407 0.000226
3.477644 38.711407 0.000078
3.792385 38.711407 -0.000017
4.107125 38.711407 0.000004
4.421866 38.711407 0.000035
4.736608 38.711407 0.000053
5.051349 38.711407 0.000077
5.366090 38.711407 0.000147
5.680831 38.711407 0.000290
5.995571 38.711407 0.000436
6.310312 38.711407 0.000732
6.625053 38.711407 0.001313
6.939795 38.711407 0.002321
7.254536 38.711407 0.004506
7.569277 38.711407 0.008780
7.884017 38.711407 0.014927
8.198758 38.711407 0.024346
8.513499 38.711407 0.042793
8.828240 38.711407 0.078658
9.142982 38.711407 0.133511
9.457723 38.711407 0.212816
9.772464 38.711407 0.308805
10.087205 38.711407 0.415016
10.401946 38.711407 0.512921
10.716687 38.711407 0.615426
11.031426 38.711407 0.726520
11.346168 38.711407 0.824426
11.660909 38.711407 0.923364
11.975650 38.711407 1.014198
12.290391 38.711407 1.088579
12.605132 38.711407 1.132754
12.919873 38.711407 1.169423
13.234614 38.711407 1.194391
13.549356 38.711407 1.226798
13.864097 38.711407 1.223089
14.178838 38.711407 1.198308
14.493579 38.711407 1.155434
14.808320 38.711407 1.093338
15.123059 38.711407 0.995728
15.437800 38.711407 0.909043
15.752542 38.711407 0.259826
16.067284 38.711407 0.000000
16.382023 38.711407 0.000000
16.696766 38.711407 0.000000
17.011505 38.711407 0.000000
17.326248 38.711407 0.000000
17.640987 38.711407 -1.333125
17.955730 38.711407 -0.817677
18.270470 38.711407 -0.773603
18.585213 38.711407 -0.775933
18.899952 38.711407 0.000000
-7.223550 38.396667 0.000000
-6.908809 38.396667 0.000000
-6.594068 38.396667 0.000454
-6.279327 38.396667 0.000373
-5.964586 38.396667 0.000479
-5.649845 38.396667 0.000496
-5.335104 38.396667 0.000481
-5.020363 38.396667 0.000524
-4.705622 38.396667 0.000518
-4.390881 38.396667 0.000463
-4.076140 38.396667 0.000535
-3.761399 38.396667 0.000579
-3.446658 38.396667 0.000560
-3.131917 38.396667 0.000499
-2.817176 38.396667 0.000458
-2.502435 38.396667 0.000337
-2.187694 38.396667 0.000199
-1.872953 38.396667 0.000189
-1.558212 38.396667 0.000223
-1.243471 38.396667 0.000293
-0.928730 38.396667 0.000394
-0.613989 38.396667 0.000430
-0.299248 38.396667 0.000417
0.015493 38.396667 0.000424
0.330234 38.396667 0.000331
0.644975 38.396667 0.000179
0.959716 38.396667 0.000182
1.274457 38.396667 0.000199
1.589198 38.396667 0.000215
1.903938 38.396667 0.000238
2.218679 38.396667 0.000329
2.533421 38.396667 0.000467
2.848162 38.396667 0.000443
3.162903 38.396667 0.000294
3.477644 38.396667 0.000104
3.792385 38.396667 0.000019
4.107125 38.396667 0.000015
4.421866 38.396667 -0.000008
4.736608 38.396667 0.000022
5.051349 38.396667 -0.000006
5.366090 38.396667 0.000028
5.680831 38.396667 0.000276
5.995571 38.396667 0.000308
6.310312 38.396667 0.000781
6.625053 38.396667 0.001620
6.939795 38.396667 0.002658
7.254536 38.396667 0.005101
7.569277 38.396667 0.008521
7.884017 38.396667 0.013542
8.198758 38.396667 0.023755
8.513499 38.396667 0.041721
8.828240 38.396667 0.075897
9.142982 38.396667 0.131758
9.457723 38.396667 0.217695
9.772464 38.396667 0.314304
10.087205 38.396667 0.410730
10.401946 38.396667 0.508831
10.716687 38.396667 0.611118
11.031426 38.396667 0.734513
11.346168 38.396667 0.828163
11.660909 38.396667 0.924613
11.975650 38.396667 1.006397
12.290391 38.396667 1.072983
12.605132 38.396667 1.130612
12.919873 38.396667 1.165573
13.234614 38.396667 1.195033
13.549356 38.396667 1.215133
13.864097 38.396667 1.207330
14.178838 38.396667 1.186727
14.493579 38.396667 1.153377
14.808320 38.396667 1.096693
15.123059 38.396667 1.016688
15.437800 38.396667 0.927515
15.752542 38.396667 0.263573
16.067284 38.396667 0.000000
16.382023 38.396667 0.000000
16.696766 38.396667 0.000000
17.011505 38.396667 0.000000
17.326248 38.396667 0.000000
17.640987 38.396667 -1.078492
17.955730 38.396667 -0.607009
18.270470 38.396667 -0.829853
18.585213 38.396667 -0.816057
18.899952 38.396667 0.000000
-7.223550 38.081924 0.000000
-6.908809 38.081924 0.000000
-6.594068 38.081924 0.000488
-6.279327 38.081924 0.000402
-5.964586 38.081924 0.000493
-5.649845 38.081924 0.000498
-5.335104 38.081924 0.000465
-5.020363 38.081924 0.000517
-4.705622 38.081924 0.000575
-4.390881 38.081924 0.000521
-4.076140 38.081924 0.000530
-3.761399 38.081924 0.000566
-3.446658 38.081924 0.000563
-3.131917 38.081924 0.000521
-2.817176 38.081924 0.000468
-2.502435 38.081924 0.000309
-2.187694 38.081924 0.000172
-1.872953 38.081924 0.000176
-1.558212 38.081924 0.000181
-1.243471 38.081924 0.000248
-0.928730 38.081924 0.000344
-0.613989 38.081924 0.000403
-0.299248 38.081924 0.000433
0.015493 38.081924 0.000469
0.330234 38.081924 0.000363
0.644975 38.081924 0.000223
0.959716 38.081924 0.000207
1.274457 38.081924 0.000224
1.589198 38.081924 0.000268
1.903938 38.081924 0.000291
2.218679 38.081924 0.000325
2.533421 38.081924 0.000421
2.848162 38.081924 0.000405
3.162903 38.081924 0.000279
3.477644 38.081924 0.000136
3.792385 38.081924 0.000037
4.107125 38.081924 0.000008
4.421866 38.081924 -0.000023
4.736608 38.081924 -0.000005
5.051349 38.081924 -0.000006
5.366090 38.081924 0.000058
5.680831 38.081924 0.000217
5.995571 38.081924 0.000421
6.310312 38.081924 0.000891
6.625053 38.081924 0.001761
6.939795 38.081924 0.003026
7.254536 38.081924 0.005185
7.569277 38.081924 0.008709
7.884017 38.081924 0.014334
8.198758 38.081924 0.024484
8.513499 38.081924 0.044223
8.828240 38.081924 0.079368
9.142982 38.081924 0.132380
9.457723 38.081924 0.214754
9.772464 38.081924 0.314145
10.087205 38.081924 0.407774
10.401946 38.081924 0.505718
10.716687 38.081924 0.615147
11.031426 38.081924 0.729632
11.346168 38.081924 0.824979
11.660909 38.081924 0.924362
11.975650 38.081924 1.001770
12.290391 38.081924 1.071969
12.605132 38.081924 1.126340
12.919873 38.081924 1.173251
13.234614 38.081924 1.197480
13.549356 38.081924 1.219558
13.864097 38.081924 1.203924
14.178838 38.081924 1.188101
14.493579 38.081924 1.157793
14.808320 38.081924 1.098595
15.123059 38.081924 1.019076
15.437800 38.081924 0.958262
15.752542 38.081924 0.216620
16.067284 38.081924 0.000000
16.382023 38.081924 0.000000
16.696766 38.081924 0.000000
17.011505 38.081924 0.000000
17.326248 38.081924 0.000000
17.640987 38.081924 -0.659839
17.955730 38.081924 -0.602152
18.270470 38.081924 -0.882411
18.585213 38.081924 -0.822603
18.899952 38.081924 0.000000
-7.223550 37.767185 0.000000
-6.908809 37.767185 0.000000
-6.594068 37.767185 0.000549
-6.279327 37.767185 0.000461
-5.964586 37.767185 0.000506
-5.649845 37.767185 0.000492
-5.335104 37.767185 0.000479
-5.020363 37.767185 0.000539
-4.705622 37.767185 0.000625
-4.390881 37.767185 0.000604
-4.076140 37.767185 0.000523
-3.761399 37.767185 0.000484
-3.446658 37.767185 0.000489
-3.131917 37.767185 0.000484
-2.817176 37.767185 0.000456
-2.502435 37.767185 0.000321
-2.187694 37.767185 0.000221
-1.872953 37.767185 0.000245
-1.558212 37.767185 0.000186
-1.243471 37.767185 0.000187
-0.928730 37.767185 0.000227
-0.613989 37.767185 0.000305
-0.299248 37.767185 0.000392
0.015493 37.767185 0.000436
0.330234 37.767185 0.000344
0.644975 37.767185 0.000210
0.959716 37.767185 0.000172
1.274457 37.767185 0.000230
1.589198 37.767185 0.000287
1.903938 37.767185 0.000290
2.218679 37.767185 0.000315
2.533421 37.767185 0.000359
2.848162 37.767185 0.000335
3.162903 37.767185 0.000247
3.477644 37.767185 0.000147
3.792385 37.767185 0.000090
4.107125 37.767185 0.000038
4.421866 37.767185 -0.000067
4.736608 37.767185 -0.000010
5.051349 37.767185 0.000046
5.366090 37.767185 0.000053
5.680831 37.767185 0.000203
5.995571 37.767185 0.000326
6.310312 37.767185 0.000802
6.625053 37.767185 0.001913
6.939795 37.767185 0.003497
7.254536 37.767185 0.005755
7.569277 37.767185 0.009045
7.884017 37.767185 0.015518
8.198758 37.767185 0.025531
8.513499 37.767185 0.043708
8.828240 37.767185 0.081038
9.142982 37.767185 0.128522
9.457723 37.767185 0.206808
9.772464 37.767185 0.309131
10.087205 37.767185 0.407940
10.401946 37.767185 0.510027
10.716687 37.767185 0.612363
11.031426 37.767185 0.722784
11.346168 37.767185 0.826099
11.660909 37.767185 0.910688
11.975650 37.767185 0.998313
12.290391 37.767185 1.070070
12.605132 37.767185 1.133214
12.919873 37.767185 1.174351
13.234614 37.767185 1.208103
13.549356 37.767185 1.208029
13.864097 37.767185 1.199583
14.178838 37.767185 1.188952
14.493579 37.767185 1.172155
14.808320 37.767185 1.098176
15.123059 37.767185 1.032634
15.437800 37.767185 0.980002
15.752542 37.767185 0.504111
16.067284 37.767185 0.000000
16.382023 37.767185 0.000000
16.696766 37.767185 0.000000
17.011505 37.767185 0.000000
17.326248 37.767185 0.000000
17.640987 37.767185 0.000000
17.955730 37.767185 0.000000
18.270470 37.767185 -0.627991
18.585213 37.767185 -0.771873
18.899952 37.767185 0.000000
-7.223550 37.452446 0.000000
-6.908809 37.452446 0.000000
-6.594068 37.452446 0.000599
-6.279327 37.452446 0.000522
-5.964586 37.452446 0.000542
-5.649845 37.452446 0.000503
-5.335104 37.452446 0.000495
-5.020363 37.452446 0.000554
-4.705622 37.452446 0.000658
-4.390881 37.452446 0.000645
-4.076140 37.452446 0.000520
-3.761399 37.452446 0.000434
-3.446658 37.452446 0.000423
-3.131917 37.452446 0.000436
-2.817176 37.452446 0.000425
-2.502435 37.452446 0.000356
-2.187694 37.452446 0.000314
-1.872953 37.452446 0.000334
-1.558212 37.452446 0.000217
-1.243471 37.452446 0.000126
-0.928730 37.452446 0.000126
-0.613989 37.452446 0.000203
-0.299248 37.452446 0.000308
0.015493 37.452446 0.000360
0.330234 37.452446 0.000287
0.644975 37.452446 0.000147
0.959716 37.452446 0.000139
1.274457 37.452446 0.000221
1.589198 37.452446 0.000267
1.903938 37.452446 0.000268
2.218679 37.452446 0.000296
2.533421 37.452446 0.000284
2.848162 37.452446 0.000258
3.162903 37.452446 0.000179
3.477644 37.452446 0.000129
3.792385 37.452446 0.000120
4.107125 37.452446 0.000089
4.421866 37.452446 -0.000058
4.736608 37.452446 -0.000045
5.051349 37.452446 0.000057
5.366090 37.452446 0.000258
5.680831 37.452446 0.000336
5.995571 37.452446 0.000436
6.310312 37.452446 0.000949
6.625053 37.452446 0.001817
6.939795 37.452446 0.003412
7.254536 37.452446 0.004989
7.569277 37.452446 0.008508
7.884017 37.452446 0.015919
8.198758 37.452446 0.025954
8.513499 37.452446 0.045164
8.828240 37.452446 0.079769
9.142982 37.452446 0.132438
9.457723 37.452446 0.207264
9.772464 37.452446 0.299584
10.087205 37.452446 0.410255
10.401946 37.452446 0.507419
10.716687 37.452446 0.609662
11.031426 37.452446 0.723496
11.346168 37.452446 0.825736
11.660909 37.452446 0.927663
11.975650 37.452446 1.007432
12.290391 37.452446 1.068002
12.605132 37.452446 1.140053
12.919873 37.452446 1.186223
13.234614 37.452446 1.212780
13.549356 37.452446 1.229879
13.864097 37.452446 1.205378
14.178838 37.452446 1.198132
14.493579 37.452446 1.169117
14.808320 37.452446 1.107274
15.123059 37.452446 1.041969
15.437800 37.452446 0.986884
15.752542 37.452446 0.501327
16.067284 37.452446 0.000000
16.382023 37.452446 0.000000
16.696766 37.452446 0.000000
17.011505 37.452446 0.000000
17.326248 37.452446 0.000000
17.640987 37.452446 0.000000
17.955730 37.452446 0.000000
18.270470 37.452446 -0.341289
18.585213 37.452446 -0.503792
18.899952 37.452446 0.000000
-7.223550 37.137703 0.000000
-6.908809 37.137703 0.000000
-6.594068 37.137703 0.000614
-6.279327 37.137703 0.000556
-5.964586 37.137703 0.000593
-5.649845 37.137703 0.000552
-5.335104 37.137703 0.000527
-5.020363 37.137703 0.000541
-4.705622 37.137703 0.000633
-4.390881 37.137703 0.000643
-4.076140 37.137703 0.000531
-3.761399 37.137703 0.000416
-3.446658 37.137703 0.000378
-3.131917 37.137703 0.000381
-2.817176 37.137703 0.000431
-2.502435 37.137703 0.000426
-2.187694 37.137703 0.000398
-1.872953 37.137703 0.000391
-1.558212 37.137703 0.000256
-1.243471 37.137703 0.000106
-0.928730 37.137703 0.000060
-0.613989 37.137703 0.000136
-0.299248 37.137703 0.000218
0.015493 37.137703 0.000278
0.330234 37.137703 0.000228
0.644975 37.137703 0.000130
0.959716 37.137703 0.000113
1.274457 37.137703 0.000179
1.589198 37.137703 0.000216
1.903938 37.137703 0.000241
2.218679 37.137703 0.000268
2.533421 37.137703 0.000226
2.848162 37.137703 0.000139
3.162903 37.137703 0.000108
3.477644 37.137703 0.000168
3.792385 37.137703 0.000219
4.107125 37.137703 0.000189
4.421866 37.137703 0.000006
4.736608 37.137703 -0.000005
5.051349 37.137703 0.000156
5.366090 37.137703 0.000287
5.680831 37.137703 0.000416
5.995571 37.137703 0.000508
6.310312 37.137703 0.000952
6.625053 37.137703 0.001852
6.939795 37.137703 0.002948
7.254536 37.137703 0.004971
7.569277 37.137703 0.008738
7.884017 37.137703 0.015494
8.198758 37.137703 0.026146
8.513499 37.137703 0.043714
8.828240 37.137703 0.083610
9.142982 37.137703 0.130831
9.457723 37.137703 0.212801
9.772464 37.137703 0.305387
10.087205 37.137703 0.419781
10.401946 37.137703 0.516737
10.716687 37.137703 0.608791
11.031426 37.137703 0.723767
11.346168 37.137703 0.830354
11.660909 37.137703 0.930909
11.975650 37.137703 1.009640
12.290391 37.137703 1.077123
12.605132 37.137703 1.141454
12.919873 37.137703 1.185705
13.234614 37.137703 1.217574
13.549356 37.137703 1.226811
13.864097 37.137703 1.221468
14.178838 37.137703 1.196700
14.493579 37.137703 1.164208
14.808320 37.137703 1.103515
15.123059 37.137703 1.032889
15.437800 37.137703 0.966119
15.752542 37.137703 0.479320
16.067284 37.137703 0.000000
16.382023 37.137703 0.000000
16.696766 37.137703 0.000000
17.011505 37.137703 0.000000
17.326248 37.137703 0.000000
17.640987 37.137703 0.000000
17.955730 37.137703 0.000000
18.270470 37.137703 0.000000
18.585213 37.137703 -6.367459
18.899952 37.137703 0.000000
-7.223550 36.822960 0.000000
-6.908809 36.822960 0.000000
-6.594068 36.822960 0.000556
-6.279327 36.822960 0.000577
-5.964586 36.822960 0.000635
-5.649845 36.822960 0.000611
-5.335104 36.822960 0.000554
-5.020363 36.822960 0.000520
-4.705622 36.822960 0.000577
-4.390881 36.822960 0.000605
-4.076140 36.822960 0.000540
-3.761399 36.822960 0.000408
-3.446658 36.822960 0.000334
-3.131917 36.822960 0.000349
-2.817176 36.822960 0.000419
-2.502435 36.822960 0.000460
-2.187694 36.822960 0.000437
-1.872953 36.822960 0.000403
-1.558212 36.822960 0.000284
-1.243471 36.822960 0.000108
-0.928730 36.822960 0.000062
-0.613989 36.822960 0.000123
-0.299248 36.822960 0.000159
0.015493 36.822960 0.000185
0.330234 36.822960 0.000157
0.644975 36.822960 0.000110
0.959716 36.822960 0.000091
1.274457 36.822960 0.000125
1.589198 36.822960 0.000172
1.903938 36.822960 0.000210
2.218679 36.822960 0.000243
2.533421 36.822960 0.000169
2.848162 36.822960 0.000015
3.162903 36.822960 0.000043
3.477644 36.822960 0.000157
3.792385 36.822960 0.000266
4.107125 36.822960 0.000254
4.421866 36.822960 0.000119
4.736608 36.822960 -0.000017
5.051349 36.822960 0.000176
5.366090 36.822960 0.000290
5.680831 36.822960 0.000357
5.995571 36.822960 0.000531
6.310312 36.822960 0.001038
6.625053 36.822960 0.001751
6.939795 36.822960 0.002753
7.254536 36.822960 0.005037
7.569277 36.822960 0.008874
7.884017 36.822960 0.015910
8.198758 36.822960 0.026870
8.513499 36.822960 0.046371
8.828240 36.822960 0.083053
9.142982 36.822960 0.129644
9.457723 36.822960 0.215164
9.772464 36.822960 0.314299
10.087205 36.822960 0.418823
10.401946 36.822960 0.512851
10.716687 36.822960 0.605762
11.031426 36.822960 0.729593
11.346168 36.822960 0.840761
11.660909 36.822960 0.940603
11.975650 36.822960 1.013678
12.290391 36.822960 1.070035
12.605132 36.822960 1.130690
12.919873 36.822960 1.187423
13.234614 36.822960 1.218873
13.549356 36.822960 1.243621
13.864097 36.822960 1.233005
14.178838 36.822960 1.196110
14.493579 36.822960 1.154603
14.808320 36.822960 1.108830
15.123059 36.822960 1.021434
15.437800 36.822960 0.946788
15.752542 36.822960 0.441336
16.067284 36.822960 0.000000
16.382023 36.822960 0.000000
16.696766 36.822960 0.000000
17.011505 36.822960 0.000000
17.326248 36.822960 0.000000
17.640987 36.822960 0.000000
17.955730 36.822960 0.000000
18.270470 36.822960 0.000000
18.585213 36.822960 0.000000
18.899952 36.822960 0.000000
-7.223550 36.508221 0.000000
-6.908809 36.508221 0.000000
-6.594068 36.508221 0.000504
-6.279327 36.508221 0.000578
-5.964586 36.508221 0.000674
-5.649845 36.508221 0.000679
-5.335104 36.508221 0.000567
-5.020363 36.508221 0.000467
-4.705622 36.508221 0.000488
-4.390881 36.508221 0.000547
-4.076140 36.508221 0.000499
-3.761399 36.508221 0.000366
-3.446658 36.508221 0.000297
-3.131917 36.508221 0.000316
-2.817176 36.508221 0.000389
-2.502435 36.508221 0.000455
-2.187694 36.508221 0.000442
-1.872953 36.508221 0.000403
-1.558212 36.508221 0.000307
-1.243471 36.508221 0.000147
-0.928730 36.508221 0.000104
-0.613989 36.508221 0.000156
-0.299248 36.508221 0.000139
0.015493 36.508221 0.000138
0.330234 36.508221 0.000130
0.644975 36.508221 0.000124
0.959716 36.508221 0.000073
1.274457 36.508221 0.000068
1.589198 36.508221 0.000111
1.903938 36.508221 0.000166
2.218679 36.508221 0.000222
2.533421 36.508221 0.000127
2.848162 36.508221 -0.000041
3.162903 36.508221 -0.000008
3.477644 36.508221 0.000172
3.792385 36.508221 0.000277
4.107125 36.508221 0.000304
4.421866 36.508221 0.000143
4.736608 36.508221 0.000080
5.051349 36.508221 0.000163
5.366090 36.508221 0.000229
5.680831 36.508221 0.000385
5.995571 36.508221 0.000550
6.310312 36.508221 0.001024
6.625053 36.508221 0.002022
6.939795 36.508221 0.002997
7.254536 36.508221 0.005315
7.569277 36.508221 0.008594
7.884017 36.508221 0.014926
8.198758 36.508221 0.025966
8.513499 36.508221 0.045228
8.828240 36.508221 0.081346
9.142982 36.508221 0.133910
9.457723 36.508221 0.216435
9.772464 36.508221 0.318160
10.087205 36.508221 0.421033
10.401946 36.508221 0.512707
10.716687 36.508221 0.615487
11.031426 36.508221 0.732374
11.346168 36.508221 0.837697
11.660909 36.508221 0.937112
11.975650 36.508221 1.015538
12.290391 36.508221 1.071301
12.605132 36.508221 1.135599
12.919873 36.508221 1.187870
13.234614 36.508221 1.228620
13.549356 36.508221 1.246192
13.864097 36.508221 1.238680
14.178838 36.508221 1.200349
14.493579 36.508221 1.159381
14.808320 36.508221 1.099226
15.123059 36.508221 1.036855
15.437800 36.508221 0.940074
15.752542 36.508221 0.392435
16.067284 36.508221 0.000000
16.382023 36.508221 0.000000
16.696766 36.508221 0.000000
17.011505 36.508221 0.000000
17.326248 36.508221 0.000000
17.640987 36.508221 0.000000
17.955730 36.508221 0.000000
18.270470 36.508221 0.000000
18.585213 36.508221 0.000000
18.899952 36.508221 0.000000
-7.223550 36.193481 0.000000
-6.908809 36.193481 0.000000
-6.594068 36.193481 0.000454
-6.279327 36.193481 0.000566
-5.964586 36.193481 0.000687
-5.649845 36.193481 0.000698
-5.335104 36.193481 0.000576
-5.020363 36.193481 0.000428
-4.705622 36.193481 0.000415
-4.390881 36.193481 0.000449
-4.076140 36.193481 0.000447
-3.761399 36.193481 0.000365
-3.446658 36.193481 0.000297
-3.131917 36.193481 0.000330
-2.817176 36.193481 0.000375
-2.502435 36.193481 0.000414
-2.187694 36.193481 0.000405
-1.872953 36.193481 0.000377
-1.558212 36.193481 0.000343
-1.243471 36.193481 0.000220
-0.928730 36.193481 0.000155
-0.613989 36.193481 0.000188
-0.299248 36.193481 0.000162
0.015493 36.193481 0.000166
0.330234 36.193481 0.000151
0.644975 36.193481 0.000153
0.959716 36.193481 0.000072
1.274457 36.193481 0.000036
1.589198 36.193481 0.000063
1.903938 36.193481 0.000124
2.218679 36.193481 0.000188
2.533421 36.193481 0.000080
2.848162 36.193481 -0.000039
3.162903 36.193481 0.000013
3.477644 36.193481 0.000167
3.792385 36.193481 0.000239
4.107125 36.193481 0.000285
4.421866 36.193481 0.000190
4.736608 36.193481 0.000117
5.051349 36.193481 0.000141
5.366090 36.193481 0.000286
5.680831 36.193481 0.000440
5.995571 36.193481 0.000725
6.310312 36.193481 0.001261
6.625053 36.193481 0.001982
6.939795 36.193481 0.003122
7.254536 36.193481 0.005503
7.569277 36.193481 0.008458
7.884017 36.193481 0.014476
8.198758 36.193481 0.025784
8.513499 36.193481 0.045646
8.828240 36.193481 0.083111
9.142982 36.193481 0.137604
9.457723 36.193481 0.217847
9.772464 36.193481 0.318723
10.087205 36.193481 0.412929
10.401946 36.193481 0.522801
10.716687 36.193481 0.624873
11.031426 36.193481 0.725326
11.346168 36.193481 0.837405
11.660909 36.193481 0.935977
11.975650 36.193481 1.023380
12.290391 36.193481 1.077300
12.605132 36.193481 1.142928
12.919873 36.193481 1.182670
13.234614 36.193481 1.230856
13.549356 36.193481 1.246814
13.864097 36.193481 1.229022
14.178838 36.193481 1.192877
14.493579 36.193481 1.158244
14.808320 36.193481 1.111495
15.123059 36.193481 1.028905
15.437800 36.193481 0.937103
15.752542 36.193481 0.366446
16.067284 36.193481 0.000000
16.382023 36.193481 0.000000
16.696766 36.193481 0.000000
17.011505 36.193481 0.000000
17.326248 36.193481 0.000000
17.640987 36.193481 0.000000
17.955730 36.193481 0.000000
18.270470 36.193481 0.000000
18.585213 36.193481 0.000000
18.899952 36.193481 0.000000
-7.223550 35.878738 0.000000
-6.908809 35.878738 0.000000
-6.594068 35.878738 0.000450
-6.279327 35.878738 0.000586
-5.964586 35.878738 0.000695
-5.649845 35.878738 0.000694
-5.335104 35.878738 0.000608
-5.020363 35.878738 0.000435
-4.705622 35.878738 0.000366
-4.390881 35.878738 0.000389
-4.076140 35.878738 0.000427
-3.761399 35.878738 0.000419
-3.446658 35.878738 0.000355
-3.131917 35.878738 0.000363
-2.817176 35.878738 0.000373
-2.502435 35.878738 0.000364
-2.187694 35.878738 0.000328
-1.872953 35.878738 0.000334
-1.558212 35.878738 0.000365
-1.243471 35.878738 0.000301
-0.928730 35.878738 0.000207
-0.613989 35.878738 0.000205
-0.299248 35.878738 0.000203
0.015493 35.878738 0.000214
0.330234 35.878738 0.000201
0.644975 35.878738 0.000178
0.959716 35.878738 0.000114
1.274457 35.878738 0.000066
1.589198 35.878738 0.000040
1.903938 35.878738 0.000065
2.218679 35.878738 0.000137
2.533421 35.878738 0.000082
2.848162 35.878738 -0.000005
3.162903 35.878738 0.000036
3.477644 35.878738 0.000135
3.792385 35.878738 0.000155
4.107125 35.878738 0.000166
4.421866 35.878738 0.000118
4.736608 35.878738 0.000088
5.051349 35.878738 0.000144
5.366090 35.878738 0.000263
5.680831 35.878738 0.000435
5.995571 35.878738 0.000806
6.310312 35.878738 0.001080
6.625053 35.878738 0.001856
6.939795 35.878738 0.003299
7.254536 35.878738 0.005552
7.569277 35.878738 0.008951
7.884017 35.878738 0.015187
8.198758 35.878738 0.024845
8.513499 35.878738 0.045368
8.828240 35.878738 0.081057
9.142982 35.878738 0.139190
9.457723 35.878738 0.218951
9.772464 35.878738 0.311869
10.087205 35.878738 0.410561
10.401946 35.878738 0.520676
10.716687 35.878738 0.624686
11.031426 35.878738 0.733833
11.346168 35.878738 0.845735
11.660909 35.878738 0.938450
11.975650 35.878738 1.025702
12.290391 35.878738 1.077478
12.605132 35.878738 1.149853
12.919873 35.878738 1.194663
13.234614 35.878738 1.242996
13.549356 35.878738 1.247816
13.864097 35.878738 1.224011
14.178838 35.878738 1.198615
14.493579 35.878738 1.158766
14.808320 35.878738 1.104012
15.123059 35.878738 1.034103
15.437800 35.878738 0.942404
15.752542 35.878738 0.361441
16.067284 35.878738 0.000000
16.382023 35.878738 0.000000
16.696766 35.878738 0.000000
17.011505 35.878738 0.000000
17.326248 35.878738 0.000000
17.640987 35.878738 0.000000
17.955730 35.878738 0.000000
18.270470 35.878738 0.000000
18.585213 35.878738 0.000000
18.899952 35.878738 0.000000
-7.223550 35.563999 0.000000
-6.908809 35.563999 0.000000
-6.594068 35.563999 0.000485
-6.279327 35.563999 0.000616
-5.964586 35.563999 0.000725
-5.649845 35.563999 0.000734
-5.335104 35.563999 0.000682
-5.020363 35.563999 0.000506
-4.705622 35.563999 0.000380
-4.390881 35.563999 0.000389
-4.076140 35.563999 0.000446
-3.761399 35.563999 0.000515
-3.446658 35.563999 0.000473
-3.131917 35.563999 0.000427
-2.817176 35.563999 0.000407
-2.502435 35.563999 0.000348
-2.187694 35.563999 0.000278
-1.872953 35.563999 0.000305
-1.558212 35.563999 0.000391
-1.243471 35.563999 0.000374
-0.928730 35.563999 0.000259
-0.613989 35.563999 0.000221
-0.299248 35.563999 0.000237
0.015493 35.563999 0.000276
0.330234 35.563999 0.000275
0.644975 35.563999 0.000224
0.959716 35.563999 0.000205
1.274457 35.563999 0.000178
1.589198 35.563999 0.000101
1.903938 35.563999 0.000033
2.218679 35.563999 0.000080
2.533421 35.563999 0.000076
2.848162 35.563999 0.000034
3.162903 35.563999 0.000037
3.477644 35.563999 0.000065
3.792385 35.563999 0.000051
4.107125 35.563999 0.000073
4.421866 35.563999 0.000071
4.736608 35.563999 0.000055
5.051349 35.563999 0.000061
5.366090 35.563999 0.000187
5.680831 35.563999 0.000417
5.995571 35.563999 0.000687
6.310312 35.563999 0.001123
6.625053 35.563999 0.001909
6.939795 35.563999 0.003240
7.254536 35.563999 0.004881
7.569277 35.563999 0.008360
7.884017 35.563999 0.015142
8.198758 35.563999 0.024704
8.513499 35.563999 0.045027
8.828240 35.563999 0.081772
9.142982 35.563999 0.140167
9.457723 35.563999 0.215070
9.772464 35.563999 0.307353
10.087205 35.563999 0.414166
10.401946 35.563999 0.519886
10.716687 35.563999 0.625081
11.031426 35.563999 0.732261
11.346168 35.563999 0.850022
11.660909 35.563999 0.945371
11.975650 35.563999 1.020589
12.290391 35.563999 1.091640
12.605132 35.563999 1.148595
12.919873 35.563999 1.204075
13.234614 35.563999 1.234101
13.549356 35.563999 1.247107
13.864097 35.563999 1.223729
14.178838 35.563999 1.196319
14.493579 35.563999 1.161488
14.808320 35.563999 1.108603
15.123059 35.563999 1.019292
15.437800 35.563999 0.950880
15.752542 35.563999 0.342506
16.067284 35.563999 0.000000
16.382023 35.563999 0.000000
16.696766 35.563999 0.000000
17.011505 35.563999 0.000000
17.326248 35.563999 0.000000
17.640987 35.563999 0.000000
17.955730 35.563999 0.000000
18.270470 35.563999 0.000000
18.585213 35.563999 0.000000
18.899952 35.563999 0.000000
-7.223550 35.249256 0.000000
-6.908809 35.249256 0.000000
-6.594068 35.249256 0.000536
-6.279327 35.249256 0.000659
-5.964586 35.249256 0.000752
-5.649845 35.249256 0.000761
-5.335104 35.249256 0.000734
-5.020363 35.249256 0.000601
-4.705622 35.249256 0.000442
-4.390881 35.249256 0.000410
-4.076140 35.249256 0.000511
-3.761399 35.249256 0.000632
-3.446658 35.249256 0.000590
-3.131917 35.249256 0.000498
-2.817176 35.249256 0.000443
-2.502435 35.249256 0.000376
-2.187694 35.249256 0.000275
-1.872953 35.249256 0.000307
-1.558212 35.249256 0.000396
-1.243471 35.249256 0.000405
-0.928730 35.249256 0.000308
-0.613989 35.249256 0.000261
-0.299248 35.249256 0.000297
0.015493 35.249256 0.000364
0.330234 35.249256 0.000336
0.644975 35.249256 0.000293
0.959716 35.249256 0.000321
1.274457 35.249256 0.000317
1.589198 35.249256 0.000170
1.903938 35.249256 0.000011
2.218679 35.249256 0.000005
2.533421 35.249256 0.000064
2.848162 35.249256 0.000036
3.162903 35.249256 0.000009
3.477644 35.249256 0.000003
3.792385 35.249256 -0.000006
4.107125 35.249256 0.000061
4.421866 35.249256 0.000046
4.736608 35.249256 0.000012
5.051349 35.249256 -0.000018
5.366090 35.249256 0.000151
5.680831 35.249256 0.000305
5.995571 35.249256 0.000676
6.310312 35.249256 0.000991
6.625053 35.249256 0.001487
6.939795 35.249256 0.003179
7.254536 35.249256 0.005171
7.569277 35.249256 0.008608
7.884017 35.249256 0.014225
8.198758 35.249256 0.025056
8.513499 35.249256 0.046067
8.828240 35.249256 0.080805
9.142982 35.249256 0.138017
9.457723 35.249256 0.217394
9.772464 35.249256 0.315409
10.087205 35.249256 0.418769
10.401946 35.249256 0.525540
10.716687 35.249256 0.626189
11.031426 35.249256 0.737647
11.346168 35.249256 0.855431
11.660909 35.249256 0.943022
11.975650 35.249256 1.015605
12.290391 35.249256 1.085921
12.605132 35.249256 1.150250
12.919873 35.249256 1.198798
13.234614 35.249256 1.233887
13.549356 35.249256 1.239730
13.864097 35.249256 1.221346
14.178838 35.249256 1.190856
14.493579 35.249256 1.178377
14.808320 35.249256 1.110811
15.123059 35.249256 1.027926
15.437800 35.249256 0.942472
15.752542 35.249256 0.322217
16.067284 35.249256 0.000000
16.382023 35.249256 0.000000
16.696766 35.249256 0.000000
17.011505 35.249256 0.000000
17.326248 35.249256 0.000000
17.640987 35.249256 0.000000
17.955730 35.249256 0.000000
18.270470 35.249256 0.000000
18.585213 35.249256 0.000000
18.899952 35.249256 0.000000
-7.223550 34.934517 0.000000
-6.908809 34.934517 0.000000
-6.594068 34.934517 0.000561
-6.279327 34.934517 0.000676
-5.964586 34.934517 0.000764
-5.649845 34.934517 0.000769
-5.335104 34.934517 0.000759
-5.020363 34.934517 0.000666
-4.705622 34.934517 0.000522
-4.390881 34.934517 0.000468
-4.076140 34.934517 0.000574
-3.761399 34.934517 0.000689
-3.446658 34.934517 0.000671
-3.131917 34.934517 0.000562
-2.817176 34.934517 0.000503
-2.502435 34.934517 0.000415
-2.187694 34.934517 0.000305
-1.872953 34.934517 0.000312
-1.558212 34.934517 0.000389
-1.243471 34.934517 0.000400
-0.928730 34.934517 0.000341
-0.613989 34.934517 0.000323
-0.299248 34.934517 0.000368
0.015493 34.934517 0.000425
0.330234 34.934517 0.000388
0.644975 34.934517 0.000360
0.959716 34.934517 0.000430
1.274457 34.934517 0.000422
1.589198 34.934517 0.000226
1.903938 34.934517 -0.000010
2.218679 34.934517 -0.000051
2.533421 34.934517 0.000051
2.848162 34.934517 0.000040
3.162903 34.934517 0.000014
3.477644 34.934517 -0.000012
3.792385 34.934517 -0.000023
4.107125 34.934517 0.000008
4.421866 34.934517 0.000005
4.736608 34.934517 -0.000082
5.051349 34.934517 -0.000004
5.366090 34.934517 0.000095
5.680831 34.934517 0.000261
5.995571 34.934517 0.000530
6.310312 34.934517 0.000778
6.625053 34.934517 0.001219
6.939795 34.934517 0.002523
7.254536 34.934517 0.005435
7.569277 34.934517 0.008430
7.884017 34.934517 0.014222
8.198758 34.934517 0.025108
8.513499 34.934517 0.044089
8.828240 34.934517 0.083073
9.142982 34.934517 0.137391
9.457723 34.934517 0.220741
9.772464 34.934517 0.318301
10.087205 34.934517 0.423842
10.401946 34.934517 0.529850
10.716687 34.934517 0.630546
11.031426 34.934517 0.747558
11.346168 34.934517 0.854601
11.660909 34.934517 0.944215
11.975650 34.934517 1.019673
12.290391 34.934517 1.086078
12.605132 34.934517 1.149079
12.919873 34.934517 1.209070
13.234614 34.934517 1.227065
13.549356 34.934517 1.245315
13.864097 34.934517 1.229663
14.178838 34.934517 1.202831
14.493579 34.934517 1.188758
14.808320 34.934517 1.118997
15.123059 34.934517 1.030573
15.437800 34.934517 0.934390
15.752542 34.934517 0.233689
16.067284 34.934517 0.000000
16.382023 34.934517 0.000000
16.696766 34.934517 0.000000
17.011505 34.934517 0.000000
17.326248 34.934517 0.000000
17.640987 34.934517 0.000000
17.955730 34.934517 0.000000
18.270470 34.934517 0.000000
18.585213 34.934517 0.000000
18.899952 34.934517 0.000000
-7.223550 34.619774 0.000000
-6.908809 34.619774 0.000000
-6.594068 34.619774 0.000583
-6.279327 34.619774 0.000663
-5.964586 34.619774 0.000773
-5.649845 34.619774 0.000754
-5.335104 34.619774 0.000747
-5.020363 34.619774 0.000699
-4.705622 34.619774 0.000596
-4.390881 34.619774 0.000522
-4.076140 34.619774 0.000606
-3.761399 34.619774 0.000720
-3.446658 34.619774 0.000721
-3.131917 34.619774 0.000600
-2.817176 34.619774 0.000519
-2.502435 34.619774 0.000434
-2.187694 34.619774 0.000328
-1.872953 34.619774 0.000309
-1.558212 34.619774 0.000356
-1.243471 34.619774 0.000381
-0.928730 34.619774 0.000366
-0.613989 34.619774 0.000389
-0.299248 34.619774 0.000429
0.015493 34.619774 0.000453
0.330234 34.619774 0.000403
0.644975 34.619774 0.000392
0.959716 34.619774 0.000482
1.274457 34.619774 0.000473
1.589198 34.619774 0.000263
1.903938 34.619774 0.000022
2.218679 34.619774 -0.000038
2.533421 34.619774 0.000052
2.848162 34.619774 0.000064
3.162903 34.619774 0.000024
3.477644 34.619774 -0.000031
3.792385 34.619774 -0.000043
4.107125 34.619774 -0.000015
4.421866 34.619774 -0.000016
4.736608 34.619774 -0.000106
5.051349 34.619774 -0.000140
5.366090 34.619774 -0.000015
5.680831 34.619774 0.000247
5.995571 34.619774 0.000481
6.310312 34.619774 0.000802
6.625053 34.619774 0.001348
6.939795 34.619774 0.002840
7.254536 34.619774 0.005310
7.569277 34.619774 0.008334
7.884017 34.619774 0.013794
8.198758 34.619774 0.024570
8.513499 34.619774 0.046066
8.828240 34.619774 0.084807
9.142982 34.619774 0.138340
9.457723 34.619774 0.217914
9.772464 34.619774 0.318969
10.087205 34.619774 0.428603
10.401946 34.619774 0.531967
10.716687 34.619774 0.634029
11.031426 34.619774 0.747923
11.346168 34.619774 0.854177
11.660909 34.619774 0.953907
11.975650 34.619774 1.026073
12.290391 34.619774 1.101712
12.605132 34.619774 1.154599
12.919873 34.619774 1.210140
13.234614 34.619774 1.236269
13.549356 34.619774 1.256301
13.864097 34.619774 1.229660
14.178838 34.619774 1.216887
14.493579 34.619774 1.185019
14.808320 34.619774 1.108443
15.123059 34.619774 1.020254
15.437800 34.619774 0.925189
15.752542 34.619774 0.333190
16.067284 34.619774 0.000000
16.382023 34.619774 0.000000
16.696766 34.619774 0.000000
17.011505 34.619774 0.000000
17.326248 34.619774 0.000000
17.640987 34.619774 0.000000
17.955730 34.619774 0.000000
18.270470 34.619774 0.000000
18.585213 34.619774 0.000000
18.899952 34.619774 0.000000
-7.223550 34.305035 0.000000
-6.908809 34.305035 0.000000
-6.594068 34.305035 0.000582
-6.279327 34.305035 0.000684
-5.964586 34.305035 0.000764
-5.649845 34.305035 0.000751
-5.335104 34.305035 0.000727
-5.020363 34.305035 0.000715
-4.705622 34.305035 0.000663
-4.390881 34.305035 0.000588
-4.076140 34.305035 0.000605
-3.761399 34.305035 0.000718
-3.446658 34.305035 0.000724
-3.131917 34.305035 0.000624
-2.817176 34.305035 0.000538
-2.502435 34.305035 0.000445
-2.187694 34.305035 0.000358
-1.872953 34.305035 0.000306
-1.558212 34.305035 0.000336
-1.243471 34.305035 0.000373
-0.928730 34.305035 0.000385
-0.613989 34.305035 0.000445
-0.299248 34.305035 0.000470
0.015493 34.305035 0.000448
0.330234 34.305035 0.000384
0.644975 34.305035 0.000397
0.959716 34.305035 0.000467
1.274457 34.305035 0.000451
1.589198 34.305035 0.000261
1.903938 34.305035 0.000065
2.218679 34.305035 0.000009
2.533421 34.305035 0.000079
2.848162 34.305035 0.000087
3.162903 34.305035 0.000043
3.477644 34.305035 -0.000054
3.792385 34.305035 -0.000074
4.107125 34.305035 -0.000032
4.421866 34.305035 -0.000040
4.736608 34.305035 -0.000151
5.051349 34.305035 -0.000167
5.366090 34.305035 -0.000008
5.680831 34.305035 0.000225
5.995571 34.305035 0.000419
6.310312 34.305035 0.000719
6.625053 34.305035 0.001614
6.939795 34.305035 0.002971
7.254536 34.305035 0.005362
7.569277 34.305035 0.008715
7.884017 34.305035 0.014623
8.198758 34.305035 0.024199
8.513499 34.305035 0.046721
8.828240 34.305035 0.085016
9.142982 34.305035 0.138335
9.457723 34.305035 0.222699
9.772464 34.305035 0.317213
10.087205 34.305035 0.427876
10.401946 34.305035 0.540677
10.716687 34.305035 0.646315
11.031426 34.305035 0.738103
11.346168 34.305035 0.841953
11.660909 34.305035 0.944250
11.975650 34.305035 1.030352
12.290391 34.305035 1.108841
12.605132 34.305035 1.164827
12.919873 34.305035 1.214585
13.234614 34.305035 1.241690
13.549356 34.305035 1.263973
13.864097 34.305035 1.243891
14.178838 34.305035 1.220506
14.493579 34.305035 1.182349
14.808320 34.305035 1.109692
15.123059 34.305035 1.000033
15.437800 34.305035 0.912799
15.752542 34.305035 0.314760
16.067284 34.305035 0.000000
16.382023 34.305035 0.000000
16.696766 34.305035 0.000000
17.011505 34.305035 0.000000
17.326248 34.305035 0.000000
17.640987 34.305035 0.000000
17.955730 34.305035 0.000000
18.270470 34.305035 0.000000
18.585213 34.305035 0.000000
18.899952 34.305035 0.000000
-7.223550 33.990295 0.000000
-6.908809 33.990295 0.000000
-6.594068 33.990295 0.000616
-6.279327 33.990295 0.000717
-5.964586 33.990295 0.000779
-5.649845 33.990295 0.000741
-5.335104 33.990295 0.000727
-5.020363 33.990295 0.000745
-4.705622 33.990295 0.000739
-4.390881 33.990295 0.000649
-4.076140 33.990295 0.000633
-3.761399 33.990295 0.000710
-3.446658 33.990295 0.000731
-3.131917 33.990295 0.000636
-2.817176 33.990295 0.000538
-2.502435 33.990295 0.000448
-2.187694 33.990295 0.000368
-1.872953 33.990295 0.000314
-1.558212 33.990295 0.000323
-1.243471 33.990295 0.000379
-0.928730 33.990295 0.000421
-0.613989 33.990295 0.000477
-0.299248 33.990295 0.000474
0.015493 33.990295 0.000409
0.330234 33.990295 0.000348
0.644975 33.990295 0.000352
0.959716 33.990295 0.000400
1.274457 33.990295 0.000390
1.589198 33.990295 0.000243
1.903938 33.990295 0.000113
2.218679 33.990295 0.000055
2.533421 33.990295 0.000108
2.848162 33.990295 0.000122
3.162903 33.990295 0.000069
3.477644 33.990295 -0.000039
3.792385 33.990295 -0.000067
4.107125 33.990295 0.000004
4.421866 33.990295 0.000001
4.736608 33.990295 -0.000053
5.051349 33.990295 -0.000110
5.366090 33.990295 0.000042
5.680831 33.990295 0.000312
5.995571 33.990295 0.000462
6.310312 33.990295 0.001013
6.625053 33.990295 0.001852
6.939795 33.990295 0.003389
7.254536 33.990295 0.005705
7.569277 33.990295 0.009013
7.884017 33.990295 0.014445
8.198758 33.990295 0.025692
8.513499 33.990295 0.048236
8.828240 33.990295 0.086139
9.142982 33.990295 0.141937
9.457723 33.990295 0.222378
9.772464 33.990295 0.316177
10.087205 33.990295 0.417927
10.401946 33.990295 0.533368
10.716687 33.990295 0.645135
11.031426 33.990295 0.736981
11.346168 33.990295 0.835443
11.660909 33.990295 0.929212
11.975650 33.990295 1.032671
12.290391 33.990295 1.121452
12.605132 33.990295 1.170604
12.919873 33.990295 1.209595
13.234614 33.990295 1.244947
13.549356 33.990295 1.261994
13.864097 33.990295 1.248566
14.178838 33.990295 1.226436
14.493579 33.990295 1.177023
14.808320 33.990295 1.092300
15.123059 33.990295 0.985676
15.437800 33.990295 0.919472
15.752542 33.990295 0.283134
16.067284 33.990295 0.000000
16.382023 33.990295 0.000000
16.696766 33.990295 0.000000
17.011505 33.990295 0.000000
17.326248 33.990295 0.000000
17.640987 33.990295 0.000000
17.955730 33.990295 0.000000
18.270470 33.990295 0.000000
18.585213 33.990295 0.000000
18.899952 33.990295 0.000000
-7.223550 33.675552 0.000000
-6.908809 33.675552 0.000000
-6.594068 33.675552 0.000724
-6.279327 33.675552 0.000763
-5.964586 33.675552 0.000804
-5.649845 33.675552 0.000763
-5.335104 33.675552 0.000738
-5.020363 33.675552 0.000755
-4.705622 33.675552 0.000804
-4.390881 33.675552 0.000729
-4.076140 33.675552 0.000682
-3.761399 33.675552 0.000721
-3.446658 33.675552 0.000726
-3.131917 33.675552 0.000638
-2.817176 33.675552 0.000552
-2.502435 33.675552 0.000439
-2.187694 33.675552 0.000333
-1.872953 33.675552 0.000276
-1.558212 33.675552 0.000327
-1.243471 33.675552 0.000404
-0.928730 33.675552 0.000441
-0.613989 33.675552 0.000483
-0.299248 33.675552 0.000441
0.015493 33.675552 0.000368
0.330234 33.675552 0.000287
0.644975 33.675552 0.000278
0.959716 33.675552 0.000327
1.274457 33.675552 0.000347
1.589198 33.675552 0.000235
1.903938 33.675552 0.000137
2.218679 33.675552 0.000094
2.533421 33.675552 0.000119
2.848162 33.675552 0.000154
3.162903 33.675552 0.000104
3.477644 33.675552 0.000025
3.792385 33.675552 0.000000
4.107125 33.675552 0.000062
4.421866 33.675552 0.000158
4.736608 33.675552 0.000089
5.051349 33.675552 0.000031
5.366090 33.675552 0.000189
5.680831 33.675552 0.000322
5.995571 33.675552 0.000617
6.310312 33.675552 0.001269
6.625053 33.675552 0.001969
6.939795 33.675552 0.003024
7.254536 33.675552 0.005615
7.569277 33.675552 0.008429
7.884017 33.675552 0.014117
8.198758 33.675552 0.026245
8.513499 33.675552 0.049606
8.828240 33.675552 0.087443
9.142982 33.675552 0.149160
9.457723 33.675552 0.226522
9.772464 33.675552 0.318861
10.087205 33.675552 0.419343
10.401946 33.675552 0.534621
10.716687 33.675552 0.638577
11.031426 33.675552 0.735710
11.346168 33.675552 0.833072
11.660909 33.675552 0.931408
11.975650 33.675552 1.030373
12.290391 33.675552 1.121476
12.605132 33.675552 1.172775
12.919873 33.675552 1.221724
13.234614 33.675552 1.253067
13.549356 33.675552 1.280698
13.864097 33.675552 1.269490
14.178838 33.675552 1.232714
14.493579 33.675552 1.169521
14.808320 33.675552 1.082147
15.123059 33.675552 0.985540
15.437800 33.675552 0.908113
15.752542 33.675552 0.442427
16.067284 33.675552 0.000000
16.382023 33.675552 0.000000
16.696766 33.675552 0.000000
17.011505 33.675552 0.000000
17.326248 33.675552 0.000000
17.640987 33.675552 0.000000
17.955730 33.675552 0.000000
18.270470 33.675552 0.000000
18.585213 33.675552 0.000000
18.899952 33.675552 0.000000
-7.223550 33.360809 0.000000
-6.908809 33.360809 0.000000
-6.594068 33.360809 0.000878
-6.279327 33.360809 0.000883
-5.964586 33.360809 0.000868
-5.649845 33.360809 0.000786
-5.335104 33.360809 0.000737
-5.020363 33.360809 0.000779
-4.705622 33.360809 0.000855
-4.390881 33.360809 0.000804
-4.076140 33.360809 0.000722
-3.761399 33.360809 0.000716
-3.446658 33.360809 0.000694
-3.131917 33.360809 0.000630
-2.817176 33.360809 0.000553
-2.502435 33.360809 0.000407
-2.187694 33.360809 0.000283
-1.872953 33.360809 0.000252
-1.558212 33.360809 0.000318
-1.243471 33.360809 0.000433
-0.928730 33.360809 0.000466
-0.613989 33.360809 0.000471
-0.299248 33.360809 0.000397
0.015493 33.360809 0.000300
0.330234 33.360809 0.000232
0.644975 33.360809 0.000229
0.959716 33.360809 0.000265
1.274457 33.360809 0.000299
1.589198 33.360809 0.000245
1.903938 33.360809 0.000167
2.218679 33.360809 0.000112
2.533421 33.360809 0.000118
2.848162 33.360809 0.000146
3.162903 33.360809 0.000113
3.477644 33.360809 0.000096
3.792385 33.360809 0.000112
4.107125 33.360809 0.000149
4.421866 33.360809 0.000247
4.736608 33.360809 0.000244
5.051349 33.360809 0.000251
5.366090 33.360809 0.000301
5.680831 33.360809 0.000399
5.995571 33.360809 0.000622
6.310312 33.360809 0.001211
6.625053 33.360809 0.001787
6.939795 33.360809 0.002898
7.254536 33.360809 0.005242
7.569277 33.360809 0.008584
7.884017 33.360809 0.013888
8.198758 33.360809 0.026333
8.513499 33.360809 0.048625
8.828240 33.360809 0.084719
9.142982 33.360809 0.148034
9.457723 33.360809 0.230928
9.772464 33.360809 0.328304
10.087205 33.360809 0.428351
10.401946 33.360809 0.542952
10.716687 33.360809 0.641793
11.031426 33.360809 0.738854
11.346168 33.360809 0.836463
11.660909 33.360809 0.935479
11.975650 33.360809 1.028436
12.290391 33.360809 1.109726
12.605132 33.360809 1.184996
12.919873 33.360809 1.230281
13.234614 33.360809 1.263095
13.549356 33.360809 1.286962
13.864097 33.360809 1.291327
14.178838 33.360809 1.226765
14.493579 33.360809 1.172360
14.808320 33.360809 1.077536
15.123059 33.360809 0.981461
15.437800 33.360809 0.903712
15.752542 33.360809 0.496587
16.067284 33.360809 0.000000
16.382023 33.360809 0.000000
16.696766 33.360809 0.000000
17.011505 33.360809 0.000000
17.326248 33.360809 0.000000
17.640987 33.360809 0.000000
17.955730 33.360809 0.000000
18.270470 33.360809 0.000000
18.585213 33.360809 0.000000
18.899952 33.360809 0.000000
-7.223550 33.046070 0.000000
-6.908809 33.046070 0.000000
-6.594068 33.046070 0.001020
-6.279327 33.046070 0.000990
-5.964586 33.046070 0.000906
-5.649845 33.046070 0.000792
-5.335104 33.046070 0.000707
-5.020363 33.046070 0.000753
-4.705622 33.046070 0.000855
-4.390881 33.046070 0.000840
-4.076140 33.046070 0.000732
-3.761399 33.046070 0.000666
-3.446658 33.046070 0.000651
-3.131917 33.046070 0.000608
-2.817176 33.046070 0.000540
-2.502435 33.046070 0.000399
-2.187694 33.046070 0.000251
-1.872953 33.046070 0.000238
-1.558212 33.046070 0.000333
-1.243471 33.046070 0.000455
-0.928730 33.046070 0.000483
-0.613989 33.046070 0.000452
-0.299248 33.046070 0.000346
0.015493 33.046070 0.000258
0.330234 33.046070 0.000219
0.644975 33.046070 0.000223
0.959716 33.046070 0.000234
1.274457 33.046070 0.000278
1.589198 33.046070 0.000271
1.903938 33.046070 0.000174
2.218679 33.046070 0.000153
2.533421 33.046070 0.000156
2.848162 33.046070 0.000188
3.162903 33.046070 0.000180
3.477644 33.046070 0.000207
3.792385 33.046070 0.000223
4.107125 33.046070 0.000248
4.421866 33.046070 0.000333
4.736608 33.046070 0.000400
5.051349 33.046070 0.000409
5.366090 33.046070 0.000338
5.680831 33.046070 0.000380
5.995571 33.046070 0.000675
6.310312 33.046070 0.001082
6.625053 33.046070 0.001530
6.939795 33.046070 0.002817
7.254536 33.046070 0.005658
7.569277 33.046070 0.009293
7.884017 33.046070 0.015591
8.198758 33.046070 0.027463
8.513499 33.046070 0.045938
8.828240 33.046070 0.085698
9.142982 33.046070 0.145828
9.457723 33.046070 0.230259
9.772464 33.046070 0.333683
10.087205 33.046070 0.436529
10.401946 33.046070 0.552850
10.716687 33.046070 0.658612
11.031426 33.046070 0.746982
11.346168 33.046070 0.847324
11.660909 33.046070 0.942737
11.975650 33.046070 1.032272
12.290391 33.046070 1.130159
12.605132 33.046070 1.192177
12.919873 33.046070 1.226676
13.234614 33.046070 1.257544
13.549356 33.046070 1.291829
13.864097 33.046070 1.283146
14.178838 33.046070 1.236973
14.493579 33.046070 1.172811
14.808320 33.046070 1.086553
15.123059 33.046070 0.977141
15.437800 33.046070 0.895145
15.752542 33.046070 0.487958
16.067284 33.046070 0.000000
16.382023 33.046070 0.000000
16.696766 33.046070 0.000000
17.011505 33.046070 0.000000
17.326248 33.046070 0.000000
17.640987 33.046070 0.000000
17.955730 33.046070 0.000000
18.270470 33.046070 0.000000
18.585213 33.046070 0.000000
18.899952 33.046070 0.000000
-7.223550 32.731331 0.000000
-6.908809 32.731331 0.000000
-6.594068 32.731331 0.001134
-6.279327 32.731331 0.001064
-5.964586 32.731331 0.000913
-5.649845 32.731331 0.000777
-5.335104 32.731331 0.000682
-5.020363 32.731331 0.000706
-4.705622 32.731331 0.000804
-4.390881 32.731331 0.000821
-4.076140 32.731331 0.000701
-3.761399 32.731331 0.000603
-3.446658 32.731331 0.000588
-3.131917 32.731331 0.000576
-2.817176 32.731331 0.000537
-2.502435 32.731331 0.000428
-2.187694 32.731331 0.000276
-1.872953 32.731331 0.000292
-1.558212 32.731331 0.000398
-1.243471 32.731331 0.000485
-0.928730 32.731331 0.000496
-0.613989 32.731331 0.000415
-0.299248 32.731331 0.000297
0.015493 32.731331 0.000232
0.330234 32.731331 0.000271
0.644975 32.731331 0.000288
0.959716 32.731331 0.000258
1.274457 32.731331 0.000277
1.589198 32.731331 0.000274
1.903938 32.731331 0.000176
2.218679 32.731331 0.000193
2.533421 32.731331 0.000224
2.848162 32.731331 0.000236
3.162903 32.731331 0.000273
3.477644 32.731331 0.000320
3.792385 32.731331 0.000299
4.107125 32.731331 0.000306
4.421866 32.731331 0.000368
4.736608 32.731331 0.000415
5.051349 32.731331 0.000469
5.366090 32.731331 0.000308
5.680831 32.731331 0.000236
5.995571 32.731331 0.000563
6.310312 32.731331 0.001101
6.625053 32.731331 0.001633
6.939795 32.731331 0.002979
7.254536 32.731331 0.005460
7.569277 32.731331 0.008668
7.884017 32.731331 0.015067
8.198758 32.731331 0.025916
8.513499 32.731331 0.048794
8.828240 32.731331 0.091034
9.142982 32.731331 0.151193
9.457723 32.731331 0.230732
9.772464 32.731331 0.335337
10.087205 32.731331 0.435254
10.401946 32.731331 0.549402
10.716687 32.731331 0.664518
11.031426 32.731331 0.761164
11.346168 32.731331 0.858071
11.660909 32.731331 0.958592
11.975650 32.731331 1.056155
12.290391 32.731331 1.140585
12.605132 32.731331 1.191978
12.919873 32.731331 1.224919
13.234614 32.731331 1.255041
13.549356 32.731331 1.290299
13.864097 32.731331 1.277294
14.178838 32.731331 1.238103
14.493579 32.731331 1.169940
14.808320 32.731331 1.083975
15.123059 32.731331 0.979156
15.437800 32.731331 0.891351
15.752542 32.731331 0.447968
16.067284 32.731331 0.000000
16.382023 32.731331 0.000000
16.696766 32.731331 0.000000
17.011505 32.731331 0.000000
17.326248 32.731331 0.000000
17.640987 32.731331 0.000000
17.955730 32.731331 0.000000
18.270470 32.731331 0.000000
18.585213 32.731331 0.000000
18.899952 32.731331 0.000000
-7.223550 32.416588 0.000000
-6.908809 32.416588 0.000000
-6.594068 32.416588 0.001219
-6.279327 32.416588 0.001116
-5.964586 32.416588 0.000928
-5.649845 32.416588 0.000796
-5.335104 32.416588 0.000715
-5.020363 32.416588 0.000681
-4.705622 32.416588 0.000727
-4.390881 32.416588 0.000747
-4.076140 32.416588 0.000654
-3.761399 32.416588 0.000558
-3.446658 32.416588 0.000536
-3.131917 32.416588 0.000551
-2.817176 32.416588 0.000514
-2.502435 32.416588 0.000421
-2.187694 32.416588 0.000322
-1.872953 32.416588 0.000381
-1.558212 32.416588 0.000490
-1.243471 32.416588 0.000528
-0.928730 32.416588 0.000474
-0.613989 32.416588 0.000357
-0.299248 32.416588 0.000259
0.015493 32.416588 0.000258
0.330234 32.416588 0.000354
0.644975 32.416588 0.000376
0.959716 32.416588 0.000304
1.274457 32.416588 0.000266
1.589198 32.416588 0.000237
1.903938 32.416588 0.000150
2.218679 32.416588 0.000180
2.533421 32.416588 0.000247
2.848162 32.416588 0.000295
3.162903 32.416588 0.000363
3.477644 32.416588 0.000398
3.792385 32.416588 0.000357
4.107125 32.416588 0.000315
4.421866 32.416588 0.000363
4.736608 32.416588 0.000454
5.051349 32.416588 0.000504
5.366090 32.416588 0.000407
5.680831 32.416588 0.000459
5.995571 32.416588 0.000686
6.310312 32.416588 0.001297
6.625053 32.416588 0.002042
6.939795 32.416588 0.003443
7.254536 32.416588 0.005617
7.569277 32.416588 0.007774
7.884017 32.416588 0.015217
8.198758 32.416588 0.027446
8.513499 32.416588 0.049798
8.828240 32.416588 0.092423
9.142982 32.416588 0.153483
9.457723 32.416588 0.236229
9.772464 32.416588 0.334411
10.087205 32.416588 0.433326
10.401946 32.416588 0.549861
10.716687 32.416588 0.656700
11.031426 32.416588 0.752242
11.346168 32.416588 0.867063
11.660909 32.416588 0.964732
11.975650 32.416588 1.054232
12.290391 32.416588 1.138894
12.605132 32.416588 1.185039
12.919873 32.416588 1.226414
13.234614 32.416588 1.261811
13.549356 32.416588 1.281664
13.864097 32.416588 1.266717
14.178838 32.416588 1.233472
14.493579 32.416588 1.162663
14.808320 32.416588 1.074358
15.123059 32.416588 0.964389
15.437800 32.416588 0.885936
15.752542 32.416588 0.411850
16.067284 32.416588 0.000000
16.382023 32.416588 0.000000
16.696766 32.416588 0.000000
17.011505 32.416588 0.000000
17.326248 32.416588 0.000000
17.640987 32.416588 0.000000
17.955730 32.416588 0.000000
18.270470 32.416588 0.000000
18.585213 32.416588 0.000000
18.899952 32.416588 0.000000
-7.223550 32.101845 0.000000
-6.908809 32.101845 0.000000
-6.594068 32.101845 0.001218
-6.279327 32.101845 0.001112
-5.964586 32.101845 0.000925
-5.649845 32.101845 0.000829
-5.335104 32.101845 0.000780
-5.020363 32.101845 0.000668
-4.705622 32.101845 0.000659
-4.390881 32.101845 0.000649
-4.076140 32.101845 0.000578
-3.761399 32.101845 0.000513
-3.446658 32.101845 0.000499
-3.131917 32.101845 0.000519
-2.817176 32.101845 0.000459
-2.502435 32.101845 0.000385
-2.187694 32.101845 0.000383
-1.872953 32.101845 0.000496
-1.558212 32.101845 0.000597
-1.243471 32.101845 0.000566
-0.928730 32.101845 0.000453
-0.613989 32.101845 0.000317
-0.299248 32.101845 0.000263
0.015493 32.101845 0.000330
0.330234 32.101845 0.000460
0.644975 32.101845 0.000466
0.959716 32.101845 0.000368
1.274457 32.101845 0.000269
1.589198 32.101845 0.000182
1.903938 32.101845 0.000114
2.218679 32.101845 0.000153
2.533421 32.101845 0.000224
2.848162 32.101845 0.000292
3.162903 32.101845 0.000393
3.477644 32.101845 0.000409
3.792385 32.101845 0.000333
4.107125 32.101845 0.000259
4.421866 32.101845 0.000308
4.736608 32.101845 0.000400
5.051349 32.101845 0.000518
5.366090 32.101845 0.000504
5.680831 32.101845 0.000562
5.995571 32.101845 0.000899
6.310312 32.101845 0.001397
6.625053 32.101845 0.002131
6.939795 32.101845 0.003563
7.254536 32.101845 0.005405
7.569277 32.101845 0.008519
7.884017 32.101845 0.015175
8.198758 32.101845 0.027425
8.513499 32.101845 0.051382
8.828240 32.101845 0.095044
9.142982 32.101845 0.157346
9.457723 32.101845 0.237119
9.772464 32.101845 0.338290
10.087205 32.101845 0.443983
10.401946 32.101845 0.541043
10.716687 32.101845 0.650088
11.031426 32.101845 0.745926
11.346168 32.101845 0.852392
11.660909 32.101845 0.961476
11.975650 32.101845 1.056271
12.290391 32.101845 1.131421
12.605132 32.101845 1.180912
12.919873 32.101845 1.226557
13.234614 32.101845 1.262650
13.549356 32.101845 1.288228
13.864097 32.101845 1.273840
14.178838 32.101845 1.219409
14.493579 32.101845 1.150120
14.808320 32.101845 1.053655
15.123059 32.101845 0.964746
15.437800 32.101845 0.878368
15.752542 32.101845 0.400645
16.067284 32.101845 0.000000
16.382023 32.101845 0.000000
16.696766 32.101845 0.000000
17.011505 32.101845 0.000000
17.326248 32.101845 0.000000
17.640987 32.101845 0.000000
17.955730 32.101845 0.000000
18.270470 32.101845 0.000000
18.585213 32.101845 0.000000
18.899952 32.101845 0.000000
-7.223550 31.787106 0.000000
-6.908809 31.787106 0.000000
-6.594068 31.787106 0.001140
-6.279327 31.787106 0.001047
-5.964586 31.787106 0.000914
-5.649845 31.787106 0.000879
-5.335104 31.787106 0.000843
-5.020363 31.787106 0.000709
-4.705622 31.787106 0.000641
-4.390881 31.787106 0.000574
-4.076140 31.787106 0.000506
-3.761399 31.787106 0.000466
-3.446658 31.787106 0.000493
-3.131917 31.787106 0.000485
-2.817176 31.787106 0.000400
-2.502435 31.787106 0.000359
-2.187694 31.787106 0.000438
-1.872953 31.787106 0.000591
-1.558212 31.787106 0.000661
-1.243471 31.787106 0.000602
-0.928730 31.787106 0.000465
-0.613989 31.787106 0.000318
-0.299248 31.787106 0.000321
0.015493 31.787106 0.000459
0.330234 31.787106 0.000565
0.644975 31.787106 0.000515
0.959716 31.787106 0.000402
1.274457 31.787106 0.000279
1.589198 31.787106 0.000132
1.903938 31.787106 0.000088
2.218679 31.787106 0.000131
2.533421 31.787106 0.000198
2.848162 31.787106 0.000272
3.162903 31.787106 0.000382
3.477644 31.787106 0.000392
3.792385 31.787106 0.000307
4.107125 31.787106 0.000210
4.421866 31.787106 0.000209
4.736608 31.787106 0.000261
5.051349 31.787106 0.000446
5.366090 31.787106 0.000638
5.680831 31.787106 0.000771
5.995571 31.787106 0.000988
6.310312 31.787106 0.001364
6.625053 31.787106 0.002022
6.939795 31.787106 0.003575
7.254536 31.787106 0.005455
7.569277 31.787106 0.008108
7.884017 31.787106 0.016036
8.198758 31.787106 0.029131
8.513499 31.787106 0.052532
8.828240 31.787106 0.093435
9.142982 31.787106 0.152747
9.457723 31.787106 0.237380
9.772464 31.787106 0.340449
10.087205 31.787106 0.452592
10.401946 31.787106 0.544713
10.716687 31.787106 0.655437
11.031426 31.787106 0.750040
11.346168 31.787106 0.861508
11.660909 31.787106 0.955038
11.975650 31.787106 1.052982
12.290391 31.787106 1.125961
12.605132 31.787106 1.183225
12.919873 31.787106 1.226772
13.234614 31.787106 1.258739
13.549356 31.787106 1.288110
13.864097 31.787106 1.273415
14.178838 31.787106 1.212185
14.493579 31.787106 1.142158
14.808320 31.787106 1.065770
15.123059 31.787106 0.968490
15.437800 31.787106 0.877412
15.752542 31.787106 0.393927
16.067284 31.787106 0.000000
16.382023 31.787106 0.000000
16.696766 31.787106 0.000000
17.011505 31.787106 0.000000
17.326248 31.787106 0.000000
17.640987 31.787106 0.000000
17.955730 31.787106 0.000000
18.270470 31.787106 0.000000
18.585213 31.787106 0.000000
18.899952 31.787106 0.000000
-7.223550 31.472364 0.000000
-6.908809 31.472364 0.000000
-6.594068 31.472364 0.001056
-6.279327 31.472364 0.000951
-5.964586 31.472364 0.000886
-5.649845 31.472364 0.000894
-5.335104 31.472364 0.000881
-5.020363 31.472364 0.000766
-4.705622 31.472364 0.000652
-4.390881 31.472364 0.000533
-4.076140 31.472364 0.000481
-3.761399 31.472364 0.000497
-3.446658 31.472364 0.000501
-3.131917 31.472364 0.000464
-2.817176 31.472364 0.000405
-2.502435 31.472364 0.000384
-2.187694 31.472364 0.000487
-1.872953 31.472364 0.000629
-1.558212 31.472364 0.000651
-1.243471 31.472364 0.000605
-0.928730 31.472364 0.000507
-0.613989 31.472364 0.000376
-0.299248 31.472364 0.000406
0.015493 31.472364 0.000587
0.330234 31.472364 0.000647
0.644975 31.472364 0.000533
0.959716 31.472364 0.000402
1.274457 31.472364 0.000270
1.589198 31.472364 0.000141
1.903938 31.472364 0.000088
2.218679 31.472364 0.000145
2.533421 31.472364 0.000201
2.848162 31.472364 0.000268
3.162903 31.472364 0.000384
3.477644 31.472364 0.000355
3.792385 31.472364 0.000256
4.107125 31.472364 0.000192
4.421866 31.472364 0.000120
4.736608 31.472364 0.000179
5.051349 31.472364 0.000332
5.366090 31.472364 0.000538
5.680831 31.472364 0.000679
5.995571 31.472364 0.000865
6.310312 31.472364 0.001147
6.625053 31.472364 0.001794
6.939795 31.472364 0.003053
7.254536 31.472364 0.005101
7.569277 31.472364 0.008467
7.884017 31.472364 0.016502
8.198758 31.472364 0.029797
8.513499 31.472364 0.051898
8.828240 31.472364 0.091180
9.142982 31.472364 0.151420
9.457723 31.472364 0.238111
9.772464 31.472364 0.342437
10.087205 31.472364 0.458834
10.401946 31.472364 0.563292
10.716687 31.472364 0.670045
11.031426 31.472364 0.764201
11.346168 31.472364 0.871170
11.660909 31.472364 0.965577
11.975650 31.472364 1.056115
12.290391 31.472364 1.121962
12.605132 31.472364 1.170568
12.919873 31.472364 1.220591
13.234614 31.472364 1.267039
13.549356 31.472364 1.288631
13.864097 31.472364 1.276528
14.178838 31.472364 1.215668
14.493579 31.472364 1.146558
14.808320 31.472364 1.068220
15.123059 31.472364 0.981828
15.437800 31.472364 0.876119
15.752542 31.472364 0.377062
16.067284 31.472364 0.000000
16.382023 31.472364 0.000000
16.696766 31.472364 0.000000
17.011505 31.472364 0.000000
17.326248 31.472364 0.000000
17.640987 31.472364 0.000000
17.955730 31.472364 0.000000
18.270470 31.472364 0.000000
18.585213 31.472364 0.000000
18.899952 31.472364 0.000000
-7.223550 31.157625 0.000000
-6.908809 31.157625 0.000000
-6.594068 31.157625 0.000997
-6.279327 31.157625 0.000840
-5.964586 31.157625 0.000839
-5.649845 31.157625 0.000879
-5.335104 31.157625 0.000899
-5.020363 31.157625 0.000824
-4.705622 31.157625 0.000676
-4.390881 31.157625 0.000522
-4.076140 31.157625 0.000505
-3.761399 31.157625 0.000565
-3.446658 31.157625 0.000532
-3.131917 31.157625 0.000484
-2.817176 31.157625 0.000477
-2.502435 31.157625 0.000474
-2.187694 31.157625 0.000563
-1.872953 31.157625 0.000637
-1.558212 31.157625 0.000606
-1.243471 31.157625 0.000589
-0.928730 31.157625 0.000565
-0.613989 31.157625 0.000484
-0.299248 31.157625 0.000502
0.015493 31.157625 0.000658
0.330234 31.157625 0.000666
0.644975 31.157625 0.000502
0.959716 31.157625 0.000378
1.274457 31.157625 0.000258
1.589198 31.157625 0.000178
1.903938 31.157625 0.000151
2.218679 31.157625 0.000176
2.533421 31.157625 0.000226
2.848162 31.157625 0.000289
3.162903 31.157625 0.000374
3.477644 31.157625 0.000301
3.792385 31.157625 0.000210
4.107125 31.157625 0.000169
4.421866 31.157625 0.000100
4.736608 31.157625 0.000003
5.051349 31.157625 0.000125
5.366090 31.157625 0.000363
5.680831 31.157625 0.000534
5.995571 31.157625 0.000623
6.310312 31.157625 0.000957
6.625053 31.157625 0.001475
6.939795 31.157625 0.003033
7.254536 31.157625 0.005862
7.569277 31.157625 0.009415
7.884017 31.157625 0.016411
8.198758 31.157625 0.028314
8.513499 31.157625 0.050138
8.828240 31.157625 0.094215
9.142982 31.157625 0.153465
9.457723 31.157625 0.235077
9.772464 31.157625 0.339996
10.087205 31.157625 0.462246
10.401946 31.157625 0.580005
10.716687 31.157625 0.679558
11.031426 31.157625 0.774214
11.346168 31.157625 0.878162
11.660909 31.157625 0.980502
11.975650 31.157625 1.070720
12.290391 31.157625 1.128823
12.605132 31.157625 1.174769
12.919873 31.157625 1.210451
13.234614 31.157625 1.277346
13.549356 31.157625 1.293796
13.864097 31.157625 1.271525
14.178838 31.157625 1.223050
14.493579 31.157625 1.160823
14.808320 31.157625 1.075823
15.123059 31.157625 0.972844
15.437800 31.157625 0.867774
15.752542 31.157625 0.345810
16.067284 31.157625 0.000000
16.382023 31.157625 0.000000
16.696766 31.157625 0.000000
17.011505 31.157625 0.000000
17.326248 31.157625 0.000000
17.640987 31.157625 0.000000
17.955730 31.157625 0.000000
18.270470 31.157625 0.000000
18.585213 31.157625 0.000000
18.899952 31.157625 0.000000
-7.223550 30.842884 0.000000
-6.908809 30.842884 0.000000
-6.594068 30.842884 0.000953
-6.279327 30.842884 0.000776
-5.964586 30.842884 0.000799
-5.649845 30.842884 0.000880
-5.335104 30.842884 0.000917
-5.020363 30.842884 0.000870
-4.705622 30.842884 0.000696
-4.390881 30.842884 0.000534
-4.076140 30.842884 0.000546
-3.761399 30.842884 0.000638
-3.446658 30.842884 0.000598
-3.131917 30.842884 0.000582
-2.817176 30.842884 0.000598
-2.502435 30.842884 0.000590
-2.187694 30.842884 0.000634
-1.872953 30.842884 0.000638
-1.558212 30.842884 0.000573
-1.243471 30.842884 0.000589
-0.928730 30.842884 0.000629
-0.613989 30.842884 0.000611
-0.299248 30.842884 0.000577
0.015493 30.842884 0.000623
0.330234 30.842884 0.000587
0.644975 30.842884 0.000464
0.959716 30.842884 0.000366
1.274457 30.842884 0.000265
1.589198 30.842884 0.000235
1.903938 30.842884 0.000240
2.218679 30.842884 0.000234
2.533421 30.842884 0.000261
2.848162 30.842884 0.000305
3.162903 30.842884 0.000322
3.477644 30.842884 0.000235
3.792385 30.842884 0.000164
4.107125 30.842884 0.000155
4.421866 30.842884 0.000063
4.736608 30.842884 -0.000048
5.051349 30.842884 -0.000003
5.366090 30.842884 0.000148
5.680831 30.842884 0.000354
5.995571 30.842884 0.000462
6.310312 30.842884 0.000985
6.625053 30.842884 0.001761
6.939795 30.842884 0.003270
7.254536 30.842884 0.005313
7.569277 30.842884 0.008900
7.884017 30.842884 0.014719
8.198758 30.842884 0.026694
8.513499 30.842884 0.052614
8.828240 30.842884 0.095612
9.142982 30.842884 0.155155
9.457723 30.842884 0.234912
9.772464 30.842884 0.337534
10.087205 30.842884 0.458180
10.401946 30.842884 0.587832
10.716687 30.842884 0.687183
11.031426 30.842884 0.786122
11.346168 30.842884 0.891503
11.660909 30.842884 0.991004
11.975650 30.842884 1.077766
12.290391 30.842884 1.146235
12.605132 30.842884 1.184315
12.919873 30.842884 1.226779
13.234614 30.842884 1.272507
13.549356 30.842884 1.289238
13.864097 30.842884 1.275821
14.178838 30.842884 1.225835
14.493579 30.842884 1.154575
14.808320 30.842884 1.077299
15.123059 30.842884 0.968552
15.437800 30.842884 0.870835
15.752542 30.842884 0.301473
16.067284 30.842884 0.000000
16.382023 30.842884 0.000000
16.696766 30.842884 0.000000
17.011505 30.842884 0.000000
17.326248 30.842884 0.000000
17.640987 30.842884 0.000000
17.955730 30.842884 0.000000
18.270470 30.842884 0.000000
18.585213 30.842884 0.000000
18.899952 30.842884 0.000000
-7.223550 30.528143 0.000000
-6.908809 30.528143 -0.001658
-6.594068 30.528143 0.000912
-6.279327 30.528143 0.000764
-5.964586 30.528143 0.000801
-5.649845 30.528143 0.000878
-5.335104 30.528143 0.000943
-5.020363 30.528143 0.000917
-4.705622 30.528143 0.000727
-4.390881 30.528143 0.000570
-4.076140 30.528143 0.000601
-3.761399 30.528143 0.000701
-3.446658 30.528143 0.000709
-3.131917 30.528143 0.000742
-2.817176 30.528143 0.000742
-2.502435 30.528143 0.000703
-2.187694 30.528143 0.000674
-1.872953 30.528143 0.000639
-1.558212 30.528143 0.000570
-1.243471 30.528143 0.000612
-0.928730 30.528143 0.000684
-0.613989 30.528143 0.000699
-0.299248 30.528143 0.000598
0.015493 30.528143 0.000515
0.330234 30.528143 0.000458
0.644975 30.528143 0.000431
0.959716 30.528143 0.000367
1.274457 30.528143 0.000295
1.589198 30.528143 0.000315
1.903938 30.528143 0.000313
2.218679 30.528143 0.000284
2.533421 30.528143 0.000292
2.848162 30.528143 0.000319
3.162903 30.528143 0.000290
3.477644 30.528143 0.000181
3.792385 30.528143 0.000150
4.107125 30.528143 0.000143
4.421866 30.528143 0.000082
4.736608 30.528143 -0.000036
5.051349 30.528143 0.000010
5.366090 30.528143 0.000126
5.680831 30.528143 0.000198
5.995571 30.528143 0.000318
6.310312 30.528143 0.000967
6.625053 30.528143 0.002383
6.939795 30.528143 0.003840
7.254536 30.528143 0.005438
7.569277 30.528143 0.008902
7.884017 30.528143 0.015948
8.198758 30.528143 0.028829
8.513499 30.528143 0.052816
8.828240 30.528143 0.097851
9.142982 30.528143 0.155207
9.457723 30.528143 0.237625
9.772464 30.528143 0.344353
10.087205 30.528143 0.457907
10.401946 30.528143 0.582553
10.716687 30.528143 0.681897
11.031426 30.528143 0.782690
11.346168 30.528143 0.881712
11.660909 30.528143 0.993930
11.975650 30.528143 1.077181
12.290391 30.528143 1.144430
12.605132 30.528143 1.191871
12.919873 30.528143 1.233703
13.234614 30.528143 1.276015
13.549356 30.528143 1.288230
13.864097 30.528143 1.272769
14.178838 30.528143 1.222868
14.493579 30.528143 1.148580
14.808320 30.528143 1.073789
15.123059 30.528143 0.964592
15.437800 30.528143 0.871763
15.752542 30.528143 0.351651
16.067284 30.528143 0.000000
16.382023 30.528143 0.000000
16.696766 30.528143 0.000000
17.011505 30.528143 0.000000
17.326248 30.528143 0.000000
17.640987 30.528143 0.000000
17.955730 30.528143 0.000000
18.270470 30.528143 0.000000
18.585213 30.528143 0.000000
18.899952 30.528143 0.000000
-7.223550 30.213402 0.000000
-6.908809 30.213402 0.000894
-6.594068 30.213402 0.000850
-6.279327 30.213402 0.000789
-5.964586 30.213402 0.000843
-5.649845 30.213402 0.000897
-5.335104 30.213402 0.000990
-5.020363 30.213402 0.000979
-4.705622 30.213402 0.000753
-4.390881 30.213402 0.000588
-4.076140 30.213402 0.000642
-3.761399 30.213402 0.000762
-3.446658 30.213402 0.000841
-3.131917 30.213402 0.000888
-2.817176 30.213402 0.000882
-2.502435 30.213402 0.000773
-2.187694 30.213402 0.000693
-1.872953 30.213402 0.000638
-1.558212 30.213402 0.000588
-1.243471 30.213402 0.000657
-0.928730 30.213402 0.000714
-0.613989 30.213402 0.000712
-0.299248 30.213402 0.000561
0.015493 30.213402 0.000394
0.330234 30.213402 0.000332
0.644975 30.213402 0.000387
0.959716 30.213402 0.000371
1.274457 30.213402 0.000349
1.589198 30.213402 0.000399
1.903938 30.213402 0.000384
2.218679 30.213402 0.000311
2.533421 30.213402 0.000287
2.848162 30.213402 0.000321
3.162903 30.213402 0.000268
3.477644 30.213402 0.000171
3.792385 30.213402 0.000152
4.107125 30.213402 0.000155
4.421866 30.213402 0.000093
4.736608 30.213402 0.000001
5.051349 30.213402 0.000073
5.366090 30.213402 0.000198
5.680831 30.213402 0.000361
5.995571 30.213402 0.000708
6.310312 30.213402 0.001247
6.625053 30.213402 0.002378
6.939795 30.213402 0.003838
7.254536 30.213402 0.005068
7.569277 30.213402 0.009089
7.884017 30.213402 0.016080
8.198758 30.213402 0.028721
8.513499 30.213402 0.052524
8.828240 30.213402 0.094790
9.142982 30.213402 0.155269
9.457723 30.213402 0.243419
9.772464 30.213402 0.350503
10.087205 30.213402 0.459390
10.401946 30.213402 0.570617
10.716687 30.213402 0.681766
11.031426 30.213402 0.785432
11.346168 30.213402 0.883888
11.660909 30.213402 0.992513
11.975650 30.213402 1.068455
12.290391 30.213402 1.148190
12.605132 30.213402 1.200305
12.919873 30.213402 1.247012
13.234614 30.213402 1.274285
13.549356 30.213402 1.297527
13.864097 30.213402 1.277234
14.178838 30.213402 1.213130
14.493579 30.213402 1.125743
14.808320 30.213402 1.057536
15.123059 30.213402 0.956625
15.437800 30.213402 0.875334
15.752542 30.213402 0.309544
16.067284 30.213402 0.000000
16.382023 30.213402 0.000000
16.696766 30.213402 0.000000
17.011505 30.213402 0.000000
17.326248 30.213402 0.000000
17.640987 30.213402 0.000000
17.955730 30.213402 0.000000
18.270470 30.213402 0.000000
18.585213 30.213402 0.000000
18.899952 30.213402 0.000000
-7.223550 29.898661 0.000000
-6.908809 29.898661 0.001130
-6.594068 29.898661 0.000837
-6.279327 29.898661 0.000848
-5.964586 29.898661 0.000917
-5.649845 29.898661 0.000937
-5.335104 29.898661 0.001030
-5.020363 29.898661 0.001004
-4.705622 29.898661 0.000767
-4.390881 29.898661 0.000591
-4.076140 29.898661 0.000673
-3.761399 29.898661 0.000836
-3.446658 29.898661 0.000944
-3.131917 29.898661 0.000970
-2.817176 29.898661 0.000918
-2.502435 29.898661 0.000795
-2.187694 29.898661 0.000686
-1.872953 29.898661 0.000671
-1.558212 29.898661 0.000663
-1.243471 29.898661 0.000710
-0.928730 29.898661 0.000717
-0.613989 29.898661 0.000662
-0.299248 29.898661 0.000493
0.015493 29.898661 0.000326
0.330234 29.898661 0.000279
0.644975 29.898661 0.000353
0.959716 29.898661 0.000376
1.274457 29.898661 0.000401
1.589198 29.898661 0.000472
1.903938 29.898661 0.000446
2.218679 29.898661 0.000338
2.533421 29.898661 0.000289
2.848162 29.898661 0.000293
3.162903 29.898661 0.000224
3.477644 29.898661 0.000176
3.792385 29.898661 0.000174
4.107125 29.898661 0.000219
4.421866 29.898661 0.000198
4.736608 29.898661 0.000106
5.051349 29.898661 0.000090
5.366090 29.898661 0.000259
5.680831 29.898661 0.000316
5.995571 29.898661 0.000727
6.310312 29.898661 0.001313
6.625053 29.898661 0.002200
6.939795 29.898661 0.003404
7.254536 29.898661 0.005154
7.569277 29.898661 0.008786
7.884017 29.898661 0.016217
8.198758 29.898661 0.029710
8.513499 29.898661 0.052279
8.828240 29.898661 0.094386
9.142982 29.898661 0.159395
9.457723 29.898661 0.237208
9.772464 29.898661 0.338425
10.087205 29.898661 0.457301
10.401946 29.898661 0.574453
10.716687 29.898661 0.681267
11.031426 29.898661 0.787848
11.346168 29.898661 0.890844
11.660909 29.898661 0.993096
11.975650 29.898661 1.070315
12.290391 29.898661 1.140004
12.605132 29.898661 1.211213
12.919873 29.898661 1.251048
13.234614 29.898661 1.275760
13.549356 29.898661 1.286039
13.864097 29.898661 1.270490
14.178838 29.898661 1.202947
14.493579 29.898661 1.122017
14.808320 29.898661 1.043066
15.123059 29.898661 0.949128
15.437800 29.898661 0.866907
15.752542 29.898661 0.306623
16.067284 29.898661 0.000000
16.382023 29.898661 0.000000
16.696766 29.898661 0.000000
17.011505 29.898661 0.000000
17.326248 29.898661 0.000000
17.640987 29.898661 0.000000
17.955730 29.898661 0.000000
18.270470 29.898661 0.000000
18.585213 29.898661 0.000000
18.899952 29.898661 0.000000
-7.223550 29.583920 0.000000
-6.908809 29.583920 0.000644
-6.594068 29.583920 0.000874
-6.279327 29.583920 0.000897
-5.964586 29.583920 0.000965
-5.649845 29.583920 0.000996
-5.335104 29.583920 0.001024
-5.020363 29.583920 0.000981
-4.705622 29.583920 0.000780
-4.390881 29.583920 0.000655
-4.076140 29.583920 0.000728
-3.761399 29.583920 0.000890
-3.446658 29.583920 0.000990
-3.131917 29.583920 0.000984
-2.817176 29.583920 0.000918
-2.502435 29.583920 0.000798
-2.187694 29.583920 0.000672
-1.872953 29.583920 0.000691
-1.558212 29.583920 0.000725
-1.243471 29.583920 0.000727
-0.928730 29.583920 0.000679
-0.613989 29.583920 0.000568
-0.299248 29.583920 0.000408
0.015493 29.583920 0.000313
0.330234 29.583920 0.000287
0.644975 29.583920 0.000344
0.959716 29.583920 0.000383
1.274457 29.583920 0.000443
1.589198 29.583920 0.000517
1.903938 29.583920 0.000510
2.218679 29.583920 0.000395
2.533421 29.583920 0.000317
2.848162 29.583920 0.000295
3.162903 29.583920 0.000251
3.477644 29.583920 0.000191
3.792385 29.583920 0.000227
4.107125 29.583920 0.000270
4.421866 29.583920 0.000281
4.736608 29.583920 0.000226
5.051349 29.583920 0.000213
5.366090 29.583920 0.000208
5.680831 29.583920 0.000312
5.995571 29.583920 0.000748
6.310312 29.583920 0.001313
6.625053 29.583920 0.001988
6.939795 29.583920 0.002950
7.254536 29.583920 0.005673
7.569277 29.583920 0.009771
7.884017 29.583920 0.016946
8.198758 29.583920 0.031656
8.513499 29.583920 0.053546
8.828240 29.583920 0.094919
9.142982 29.583920 0.156855
9.457723 29.583920 0.241928
9.772464 29.583920 0.339705
10.087205 29.583920 0.461163
10.401946 29.583920 0.582098
10.716687 29.583920 0.693141
11.031426 29.583920 0.799761
11.346168 29.583920 0.895239
11.660909 29.583920 0.999152
11.975650 29.583920 1.071268
12.290391 29.583920 1.154973
12.605132 29.583920 1.207315
12.919873 29.583920 1.255208
13.234614 29.583920 1.286901
13.549356 29.583920 1.293833
13.864097 29.583920 1.270862
14.178838 29.583920 1.202898
14.493579 29.583920 1.127143
14.808320 29.583920 1.041107
15.123059 29.583920 0.943133
15.437800 29.583920 0.867966
15.752542 29.583920 0.376900
16.067284 29.583920 0.000000
16.382023 29.583920 0.000000
16.696766 29.583920 0.000000
17.011505 29.583920 0.000000
17.326248 29.583920 0.000000
17.640987 29.583920 0.000000
17.955730 29.583920 0.000000
18.270470 29.583920 0.000000
18.585213 29.583920 0.000000
18.899952 29.583920 0.000000
-7.223550 29.269178 0.000000
-6.908809 29.269178 0.000326
-6.594068 29.269178 0.000953
-6.279327 29.269178 0.000931
-5.964586 29.269178 0.001002
-5.649845 29.269178 0.001023
-5.335104 29.269178 0.000970
-5.020363 29.269178 0.000903
-4.705622 29.269178 0.000808
-4.390881 29.269178 0.000748
-4.076140 29.269178 0.000796
-3.761399 29.269178 0.000911
-3.446658 29.269178 0.000967
-3.131917 29.269178 0.000957
-2.817176 29.269178 0.000917
-2.502435 29.269178 0.000791
-2.187694 29.269178 0.000665
-1.872953 29.269178 0.000719
-1.558212 29.269178 0.000757
-1.243471 29.269178 0.000700
-0.928730 29.269178 0.000617
-0.613989 29.269178 0.000455
-0.299248 29.269178 0.000325
0.015493 29.269178 0.000345
0.330234 29.269178 0.000369
0.644975 29.269178 0.000364
0.959716 29.269178 0.000397
1.274457 29.269178 0.000470
1.589198 29.269178 0.000548
1.903938 29.269178 0.000566
2.218679 29.269178 0.000484
2.533421 29.269178 0.000391
2.848162 29.269178 0.000356
3.162903 29.269178 0.000305
3.477644 29.269178 0.000272
3.792385 29.269178 0.000309
4.107125 29.269178 0.000339
4.421866 29.269178 0.000368
4.736608 29.269178 0.000369
5.051349 29.269178 0.000266
5.366090 29.269178 0.000224
5.680831 29.269178 0.000206
5.995571 29.269178 0.000588
6.310312 29.269178 0.001134
6.625053 29.269178 0.001860
6.939795 29.269178 0.003290
7.254536 29.269178 0.006082
7.569277 29.269178 0.010127
7.884017 29.269178 0.017114
8.198758 29.269178 0.030426
8.513499 29.269178 0.053073
8.828240 29.269178 0.099779
9.142982 29.269178 0.157895
9.457723 29.269178 0.244791
9.772464 29.269178 0.344417
10.087205 29.269178 0.464384
10.401946 29.269178 0.588460
10.716687 29.269178 0.699311
11.031426 29.269178 0.812013
11.346168 29.269178 0.908422
11.660909 29.269178 0.998230
11.975650 29.269178 1.078918
12.290391 29.269178 1.147892
12.605132 29.269178 1.213137
12.919873 29.269178 1.263237
13.234614 29.269178 1.295107
13.549356 29.269178 1.295361
13.864097 29.269178 1.268689
14.178838 29.269178 1.207594
14.493579 29.269178 1.139284
14.808320 29.269178 1.040156
15.123059 29.269178 0.954603
15.437800 29.269178 0.860046
15.752542 29.269178 0.508464
16.067284 29.269178 0.000000
16.382023 29.269178 0.000000
16.696766 29.269178 0.000000
17.011505 29.269178 0.000000
17.326248 29.269178 0.000000
17.640987 29.269178 0.000000
17.955730 29.269178 0.000000
18.270470 29.269178 0.000000
18.585213 29.269178 0.000000
18.899952 29.269178 0.000000
-7.223550 28.954437 0.000000
-6.908809 28.954437 0.000643
-6.594068 28.954437 0.001030
-6.279327 28.954437 0.000972
-5.964586 28.954437 0.001023
-5.649845 28.954437 0.001017
-5.335104 28.954437 0.000900
-5.020363 28.954437 0.000801
-4.705622 28.954437 0.000825
-4.390881 28.954437 0.000844
-4.076140 28.954437 0.000858
-3.761399 28.954437 0.000912
-3.446658 28.954437 0.000930
-3.131917 28.954437 0.000916
-2.817176 28.954437 0.000899
-2.502435 28.954437 0.000802
-2.187694 28.954437 0.000694
-1.872953 28.954437 0.000770
-1.558212 28.954437 0.000778
-1.243471 28.954437 0.000663
-0.928730 28.954437 0.000544
-0.613989 28.954437 0.000371
-0.299248 28.954437 0.000309
0.015493 28.954437 0.000406
0.330234 28.954437 0.000456
0.644975 28.954437 0.000399
0.959716 28.954437 0.000395
1.274457 28.954437 0.000462
1.589198 28.954437 0.000530
1.903938 28.954437 0.000578
2.218679 28.954437 0.000560
2.533421 28.954437 0.000479
2.848162 28.954437 0.000407
3.162903 28.954437 0.000359
3.477644 28.954437 0.000381
3.792385 28.954437 0.000406
4.107125 28.954437 0.000426
4.421866 28.954437 0.000437
4.736608 28.954437 0.000489
5.051349 28.954437 0.000480
5.366090 28.954437 0.000331
5.680831 28.954437 0.000270
5.995571 28.954437 0.000524
6.310312 28.954437 0.001259
6.625053 28.954437 0.001892
6.939795 28.954437 0.003477
7.254536 28.954437 0.006113
7.569277 28.954437 0.010387
7.884017 28.954437 0.015415
8.198758 28.954437 0.028922
8.513499 28.954437 0.059857
8.828240 28.954437 0.100807
9.142982 28.954437 0.162028
9.457723 28.954437 0.246687
9.772464 28.954437 0.350660
10.087205 28.954437 0.468791
10.401946 28.954437 0.583967
10.716687 28.954437 0.703409
11.031426 28.954437 0.812836
11.346168 28.954437 0.910318
11.660909 28.954437 0.998910
11.975650 28.954437 1.072363
12.290391 28.954437 1.144178
12.605132 28.954437 1.209673
12.919873 28.954437 1.256350
13.234614 28.954437 1.287789
13.549356 28.954437 1.290420
13.864097 28.954437 1.260434
14.178838 28.954437 1.203686
14.493579 28.954437 1.123275
14.808320 28.954437 1.023363
15.123059 28.954437 0.935967
15.437800 28.954437 0.855075
15.752542 28.954437 0.488266
16.067284 28.954437 0.000000
16.382023 28.954437 0.000000
16.696766 28.954437 0.000000
17.011505 28.954437 0.000000
17.326248 28.954437 0.000000
17.640987 28.954437 0.000000
17.955730 28.954437 0.000000
18.270470 28.954437 0.000000
18.585213 28.954437 0.000000
18.899952 28.954437 0.000000
-7.223550 28.639696 0.000000
-6.908809 28.639696 0.000984
-6.594068 28.639696 0.001066
-6.279327 28.639696 0.001010
-5.964586 28.639696 0.001044
-5.649845 28.639696 0.001032
-5.335104 28.639696 0.000862
-5.020363 28.639696 0.000738
-4.705622 28.639696 0.000852
-4.390881 28.639696 0.000921
-4.076140 28.639696 0.000900
-3.761399 28.639696 0.000868
-3.446658 28.639696 0.000865
-3.131917 28.639696 0.000860
-2.817176 28.639696 0.000867
-2.502435 28.639696 0.000805
-2.187694 28.639696 0.000729
-1.872953 28.639696 0.000800
-1.558212 28.639696 0.000769
-1.243471 28.639696 0.000629
-0.928730 28.639696 0.000508
-0.613989 28.639696 0.000357
-0.299248 28.639696 0.000363
0.015493 28.639696 0.000499
0.330234 28.639696 0.000527
0.644975 28.639696 0.000434
0.959716 28.639696 0.000368
1.274457 28.639696 0.000411
1.589198 28.639696 0.000480
1.903938 28.639696 0.000546
2.218679 28.639696 0.000588
2.533421 28.639696 0.000509
2.848162 28.639696 0.000417
3.162903 28.639696 0.000403
3.477644 28.639696 0.000477
3.792385 28.639696 0.000527
4.107125 28.639696 0.000476
4.421866 28.639696 0.000444
4.736608 28.639696 0.000575
5.051349 28.639696 0.000566
5.366090 28.639696 0.000386
5.680831 28.639696 0.000258
5.995571 28.639696 0.000576
6.310312 28.639696 0.001178
6.625053 28.639696 0.002430
6.939795 28.639696 0.004128
7.254536 28.639696 0.006134
7.569277 28.639696 0.009923
7.884017 28.639696 0.015993
8.198758 28.639696 0.029509
8.513499 28.639696 0.058842
8.828240 28.639696 0.101735
9.142982 28.639696 0.165369
9.457723 28.639696 0.249572
9.772464 28.639696 0.354518
10.087205 28.639696 0.466135
10.401946 28.639696 0.593718
10.716687 28.639696 0.707167
11.031426 28.639696 0.808111
11.346168 28.639696 0.903786
11.660909 28.639696 0.998659
11.975650 28.639696 1.069238
12.290391 28.639696 1.142298
12.605132 28.639696 1.207324
12.919873 28.639696 1.244615
13.234614 28.639696 1.275303
13.549356 28.639696 1.293041
13.864097 28.639696 1.272767
14.178838 28.639696 1.221638
14.493579 28.639696 1.134049
14.808320 28.639696 1.028672
15.123059 28.639696 0.931617
15.437800 28.639696 0.858858
15.752542 28.639696 0.458857
16.067284 28.639696 0.000000
16.382023 28.639696 0.000000
16.696766 28.639696 0.000000
17.011505 28.639696 0.000000
17.326248 28.639696 0.000000
17.640987 28.639696 0.000000
17.955730 28.639696 0.000000
18.270470 28.639696 0.000000
18.585213 28.639696 0.000000
18.899952 28.639696 0.000000
-7.223550 28.324955 0.000000
-6.908809 28.324955 0.000863
-6.594068 28.324955 0.001058
-6.279327 28.324955 0.001029
-5.964586 28.324955 0.001057
-5.649845 28.324955 0.001038
-5.335104 28.324955 0.000864
-5.020363 28.324955 0.000765
-4.705622 28.324955 0.000908
-4.390881 28.324955 0.000978
-4.076140 28.324955 0.000926
-3.761399 28.324955 0.000820
-3.446658 28.324955 0.000785
-3.131917 28.324955 0.000773
-2.817176 28.324955 0.000798
-2.502435 28.324955 0.000778
-2.187694 28.324955 0.000723
-1.872953 28.324955 0.000773
-1.558212 28.324955 0.000718
-1.243471 28.324955 0.000615
-0.928730 28.324955 0.000523
-0.613989 28.324955 0.000419
-0.299248 28.324955 0.000480
0.015493 28.324955 0.000616
0.330234 28.324955 0.000601
0.644975 28.324955 0.000470
0.959716 28.324955 0.000374
1.274457 28.324955 0.000382
1.589198 28.324955 0.000425
1.903938 28.324955 0.000501
2.218679 28.324955 0.000561
2.533421 28.324955 0.000471
2.848162 28.324955 0.000386
3.162903 28.324955 0.000451
3.477644 28.324955 0.000562
3.792385 28.324955 0.000557
4.107125 28.324955 0.000466
4.421866 28.324955 0.000473
4.736608 28.324955 0.000524
5.051349 28.324955 0.000604
5.366090 28.324955 0.000595
5.680831 28.324955 0.000470
5.995571 28.324955 0.000810
6.310312 28.324955 0.001533
6.625053 28.324955 0.002586
6.939795 28.324955 0.004115
7.254536 28.324955 0.006426
7.569277 28.324955 0.009365
7.884017 28.324955 0.016969
8.198758 28.324955 0.031098
8.513499 28.324955 0.056445
8.828240 28.324955 0.099214
9.142982 28.324955 0.164500
9.457723 28.324955 0.249170
9.772464 28.324955 0.354187
10.087205 28.324955 0.475256
10.401946 28.324955 0.599618
10.716687 28.324955 0.711508
11.031426 28.324955 0.817263
11.346168 28.324955 0.913098
11.660909 28.324955 1.013478
11.975650 28.324955 1.078048
12.290391 28.324955 1.143341
12.605132 28.324955 1.206852
12.919873 28.324955 1.258169
13.234614 28.324955 1.287609
13.549356 28.324955 1.301489
13.864097 28.324955 1.282226
14.178838 28.324955 1.232342
14.493579 28.324955 1.151597
14.808320 28.324955 1.038225
15.123059 28.324955 0.927025
15.437800 28.324955 0.832906
15.752542 28.324955 0.427859
16.067284 28.324955 0.000000
16.382023 28.324955 0.000000
16.696766 28.324955 0.000000
17.011505 28.324955 0.000000
17.326248 28.324955 0.000000
17.640987 28.324955 0.000000
17.955730 28.324955 0.000000
18.270470 28.324955 0.000000
18.585213 28.324955 0.000000
18.899952 28.324955 0.000000
-7.223550 28.010214 0.000000
-6.908809 28.010214 0.000873
-6.594068 28.010214 0.001032
-6.279327 28.010214 0.001007
-5.964586 28.010214 0.001029
-5.649845 28.010214 0.001043
-5.335104 28.010214 0.000917
-5.020363 28.010214 0.000849
-4.705622 28.010214 0.000954
-4.390881 28.010214 0.001024
-4.076140 28.010214 0.000947
-3.761399 28.010214 0.000787
-3.446658 28.010214 0.000703
-3.131917 28.010214 0.000673
-2.817176 28.010214 0.000723
-2.502435 28.010214 0.000724
-2.187694 28.010214 0.000699
-1.872953 28.010214 0.000707
-1.558212 28.010214 0.000641
-1.243471 28.010214 0.000604
-0.928730 28.010214 0.000582
-0.613989 28.010214 0.000519
-0.299248 28.010214 0.000606
0.015493 28.010214 0.000727
0.330234 28.010214 0.000650
0.644975 28.010214 0.000507
0.959716 28.010214 0.000403
1.274457 28.010214 0.000368
1.589198 28.010214 0.000379
1.903938 28.010214 0.000452
2.218679 28.010214 0.000506
2.533421 28.010214 0.000402
2.848162 28.010214 0.000347
3.162903 28.010214 0.000474
3.477644 28.010214 0.000553
3.792385 28.010214 0.000557
4.107125 28.010214 0.000438
4.421866 28.010214 0.000391
4.736608 28.010214 0.000437
5.051349 28.010214 0.000529
5.366090 28.010214 0.000594
5.680831 28.010214 0.000624
5.995571 28.010214 0.000791
6.310312 28.010214 0.001213
6.625053 28.010214 0.002302
6.939795 28.010214 0.003763
7.254536 28.010214 0.006191
7.569277 28.010214 0.010284
7.884017 28.010214 0.017861
8.198758 28.010214 0.030850
8.513499 28.010214 0.057673
8.828240 28.010214 0.100098
9.142982 28.010214 0.163000
9.457723 28.010214 0.249794
9.772464 28.010214 0.354009
10.087205 28.010214 0.467465
10.401946 28.010214 0.597889
10.716687 28.010214 0.711135
11.031426 28.010214 0.823657
11.346168 28.010214 0.918380
11.660909 28.010214 1.019485
11.975650 28.010214 1.080494
12.290391 28.010214 1.146890
12.605132 28.010214 1.219319
12.919873 28.010214 1.281212
13.234614 28.010214 1.297798
13.549356 28.010214 1.309186
13.864097 28.010214 1.290952
14.178838 28.010214 1.234930
14.493579 28.010214 1.162592
14.808320 28.010214 1.036674
15.123059 28.010214 0.922023
15.437800 28.010214 0.833150
15.752542 28.010214 0.406608
16.067284 28.010214 0.000000
16.382023 28.010214 0.000000
16.696766 28.010214 0.000000
17.011505 28.010214 0.000000
17.326248 28.010214 0.000000
17.640987 28.010214 0.000000
17.955730 28.010214 0.000000
18.270470 28.010214 0.000000
18.585213 28.010214 0.000000
18.899952 28.010214 0.000000
-7.223550 27.695473 0.000000
-6.908809 27.695473 0.000990
-6.594068 27.695473 0.001028
-6.279327 27.695473 0.000989
-5.964586 27.695473 0.000986
-5.649845 27.695473 0.001030
-5.335104 27.695473 0.000979
-5.020363 27.695473 0.000939
-4.705622 27.695473 0.001013
-4.390881 27.695473 0.001071
-4.076140 27.695473 0.000977
-3.761399 27.695473 0.000793
-3.446658 27.695473 0.000656
-3.131917 27.695473 0.000619
-2.817176 27.695473 0.000687
-2.502435 27.695473 0.000705
-2.187694 27.695473 0.000654
-1.872953 27.695473 0.000649
-1.558212 27.695473 0.000595
-1.243471 27.695473 0.000594
-0.928730 27.695473 0.000610
-0.613989 27.695473 0.000621
-0.299248 27.695473 0.000719
0.015493 27.695473 0.000795
0.330234 27.695473 0.000671
0.644975 27.695473 0.000541
0.959716 27.695473 0.000450
1.274457 27.695473 0.000380
1.589198 27.695473 0.000366
1.903938 27.695473 0.000408
2.218679 27.695473 0.000451
2.533421 27.695473 0.000356
2.848162 27.695473 0.000310
3.162903 27.695473 0.000421
3.477644 27.695473 0.000490
3.792385 27.695473 0.000468
4.107125 27.695473 0.000393
4.421866 27.695473 0.000310
4.736608 27.695473 0.000329
5.051349 27.695473 0.000481
5.366090 27.695473 0.000510
5.680831 27.695473 0.000609
5.995571 27.695473 0.000629
6.310312 27.695473 0.000935
6.625053 27.695473 0.002007
6.939795 27.695473 0.003513
7.254536 27.695473 0.006137
7.569277 27.695473 0.010791
7.884017 27.695473 0.017614
8.198758 27.695473 0.031140
8.513499 27.695473 0.055319
8.828240 27.695473 0.103302
9.142982 27.695473 0.170246
9.457723 27.695473 0.255963
9.772464 27.695473 0.355169
10.087205 27.695473 0.478175
10.401946 27.695473 0.596515
10.716687 27.695473 0.716200
11.031426 27.695473 0.825195
11.346168 27.695473 0.922765
11.660909 27.695473 1.019459
11.975650 27.695473 1.087846
12.290391 27.695473 1.164344
12.605132 27.695473 1.220373
12.919873 27.695473 1.278509
13.234614 27.695473 1.309747
13.549356 27.695473 1.303868
13.864097 27.695473 1.282340
14.178838 27.695473 1.241223
14.493579 27.695473 1.156993
14.808320 27.695473 1.044844
15.123059 27.695473 0.930767
15.437800 27.695473 0.834116
15.752542 27.695473 0.372256
16.067284 27.695473 0.000000
16.382023 27.695473 0.000000
16.696766 27.695473 0.000000
17.011505 27.695473 0.000000
17.326248 27.695473 0.000000
17.640987 27.695473 0.000000
17.955730 27.695473 0.000000
18.270470 27.695473 0.000000
18.585213 27.695473 0.000000
18.899952 27.695473 0.000000
-7.223550 27.380732 0.000000
-6.908809 27.380732 0.001066
-6.594068 27.380732 0.001035
-6.279327 27.380732 0.000973
-5.964586 27.380732 0.000951
-5.649845 27.380732 0.001014
-5.335104 27.380732 0.001040
-5.020363 27.380732 0.001024
-4.705622 27.380732 0.001064
-4.390881 27.380732 0.001089
-4.076140 27.380732 0.001001
-3.761399 27.380732 0.000800
-3.446658 27.380732 0.000638
-3.131917 27.380732 0.000620
-2.817176 27.380732 0.000701
-2.502435 27.380732 0.000704
-2.187694 27.380732 0.000640
-1.872953 27.380732 0.000641
-1.558212 27.380732 0.000612
-1.243471 27.380732 0.000615
-0.928730 27.380732 0.000638
-0.613989 27.380732 0.000690
-0.299248 27.380732 0.000774
0.015493 27.380732 0.000790
0.330234 27.380732 0.000666
0.644975 27.380732 0.000584
0.959716 27.380732 0.000519
1.274457 27.380732 0.000435
1.589198 27.380732 0.000364
1.903938 27.380732 0.000377
2.218679 27.380732 0.000434
2.533421 27.380732 0.000379
2.848162 27.380732 0.000319
3.162903 27.380732 0.000380
3.477644 27.380732 0.000391
3.792385 27.380732 0.000390
4.107125 27.380732 0.000334
4.421866 27.380732 0.000229
4.736608 27.380732 0.000166
5.051349 27.380732 0.000278
5.366090 27.380732 0.000419
5.680831 27.380732 0.000502
5.995571 27.380732 0.000562
6.310312 27.380732 0.000748
6.625053 27.380732 0.001488
6.939795 27.380732 0.003318
7.254536 27.380732 0.006353
7.569277 27.380732 0.009716
7.884017 27.380732 0.017079
8.198758 27.380732 0.031539
8.513499 27.380732 0.056820
8.828240 27.380732 0.106824
9.142982 27.380732 0.174916
9.457723 27.380732 0.261501
9.772464 27.380732 0.362650
10.087205 27.380732 0.475320
10.401946 27.380732 0.591283
10.716687 27.380732 0.717706
11.031426 27.380732 0.825184
11.346168 27.380732 0.926901
11.660909 27.380732 1.013747
11.975650 27.380732 1.090410
12.290391 27.380732 1.168338
12.605132 27.380732 1.227086
12.919873 27.380732 1.275249
13.234614 27.380732 1.311359
13.549356 27.380732 1.312631
13.864097 27.380732 1.292237
14.178838 27.380732 1.246764
14.493579 27.380732 1.162926
14.808320 27.380732 1.057344
15.123059 27.380732 0.934497
15.437800 27.380732 0.847876
15.752542 27.380732 0.346487
16.067284 27.380732 0.000000
16.382023 27.380732 0.000000
16.696766 27.380732 0.000000
17.011505 27.380732 0.000000
17.326248 27.380732 0.000000
17.640987 27.380732 0.000000
17.955730 27.380732 0.000000
18.270470 27.380732 0.000000
18.585213 27.380732 0.000000
18.899952 27.380732 0.000000
-7.223550 27.065992 0.000000
-6.908809 27.065992 0.001074
-6.594068 27.065992 0.001027
-6.279327 27.065992 0.000954
-5.964586 27.065992 0.000933
-5.649845 27.065992 0.001001
-5.335104 27.065992 0.001057
-5.020363 27.065992 0.001048
-4.705622 27.065992 0.001069
-4.390881 27.065992 0.001070
-4.076140 27.065992 0.001009
-3.761399 27.065992 0.000815
-3.446658 27.065992 0.000652
-3.131917 27.065992 0.000655
-2.817176 27.065992 0.000734
-2.502435 27.065992 0.000719
-2.187694 27.065992 0.000664
-1.872953 27.065992 0.000675
-1.558212 27.065992 0.000667
-1.243471 27.065992 0.000659
-0.928730 27.065992 0.000686
-0.613989 27.065992 0.000735
-0.299248 27.065992 0.000783
0.015493 27.065992 0.000740
0.330234 27.065992 0.000658
0.644975 27.065992 0.000629
0.959716 27.065992 0.000584
1.274457 27.065992 0.000486
1.589198 27.065992 0.000358
1.903938 27.065992 0.000350
2.218679 27.065992 0.000444
2.533421 27.065992 0.000427
2.848162 27.065992 0.000362
3.162903 27.065992 0.000336
3.477644 27.065992 0.000317
3.792385 27.065992 0.000330
4.107125 27.065992 0.000322
4.421866 27.065992 0.000206
4.736608 27.065992 0.000119
5.051349 27.065992 0.000269
5.366090 27.065992 0.000343
5.680831 27.065992 0.000461
5.995571 27.065992 0.000408
6.310312 27.065992 0.000736
6.625053 27.065992 0.001432
6.939795 27.065992 0.003130
7.254536 27.065992 0.005820
7.569277 27.065992 0.010213
7.884017 27.065992 0.017275
8.198758 27.065992 0.032471
8.513499 27.065992 0.059216
8.828240 27.065992 0.110522
9.142982 27.065992 0.178995
9.457723 27.065992 0.263893
9.772464 27.065992 0.368198
10.087205 27.065992 0.481240
10.401946 27.065992 0.588145
10.716687 27.065992 0.702949
11.031426 27.065992 0.818529
11.346168 27.065992 0.926992
11.660909 27.065992 1.015599
11.975650 27.065992 1.090286
12.290391 27.065992 1.173492
12.605132 27.065992 1.218438
12.919873 27.065992 1.283007
13.234614 27.065992 1.315074
13.549356 27.065992 1.298858
13.864097 27.065992 1.295635
14.178838 27.065992 1.266510
14.493579 27.065992 1.179252
14.808320 27.065992 1.070184
15.123059 27.065992 0.953060
15.437800 27.065992 0.836630
15.752542 27.065992 0.338933
16.067284 27.065992 0.000000
16.382023 27.065992 0.000000
16.696766 27.065992 0.000000
17.011505 27.065992 0.000000
17.326248 27.065992 0.000000
17.640987 27.065992 0.000000
17.955730 27.065992 0.000000
18.270470 27.065992 0.000000
18.585213 27.065992 0.000000
18.899952 27.065992 0.000000
-7.223550 26.751251 0.000000
-6.908809 26.751251 0.001065
-6.594068 26.751251 0.001007
-6.279327 26.751251 0.000930
-5.964586 26.751251 0.000939
-5.649845 26.751251 0.000982
-5.335104 26.751251 0.001066
-5.020363 26.751251 0.001077
-4.705622 26.751251 0.001075
-4.390881 26.751251 0.001050
-4.076140 26.751251 0.001016
-3.761399 26.751251 0.000871
-3.446658 26.751251 0.000718
-3.131917 26.751251 0.000727
-2.817176 26.751251 0.000764
-2.502435 26.751251 0.000741
-2.187694 26.751251 0.000717
-1.872953 26.751251 0.000721
-1.558212 26.751251 0.000734
-1.243471 26.751251 0.000729
-0.928730 26.751251 0.000740
-0.613989 26.751251 0.000738
-0.299248 26.751251 0.000730
0.015493 26.751251 0.000666
0.330234 26.751251 0.000637
0.644975 26.751251 0.000670
0.959716 26.751251 0.000647
1.274457 26.751251 0.000542
1.589198 26.751251 0.000374
1.903938 26.751251 0.000351
2.218679 26.751251 0.000464
2.533421 26.751251 0.000480
2.848162 26.751251 0.000410
3.162903 26.751251 0.000331
3.477644 26.751251 0.000284
3.792385 26.751251 0.000307
4.107125 26.751251 0.000360
4.421866 26.751251 0.000283
4.736608 26.751251 0.000141
5.051349 26.751251 0.000250
5.366090 26.751251 0.000313
5.680831 26.751251 0.000370
5.995571 26.751251 0.000390
6.310312 26.751251 0.000837
6.625053 26.751251 0.001901
6.939795 26.751251 0.003468
7.254536 26.751251 0.006234
7.569277 26.751251 0.010656
7.884017 26.751251 0.019058
8.198758 26.751251 0.033930
8.513499 26.751251 0.061062
8.828240 26.751251 0.109772
9.142982 26.751251 0.183485
9.457723 26.751251 0.264960
9.772464 26.751251 0.367446
10.087205 26.751251 0.476197
10.401946 26.751251 0.592616
10.716687 26.751251 0.707075
11.031426 26.751251 0.822092
11.346168 26.751251 0.922332
11.660909 26.751251 1.015040
11.975650 26.751251 1.099266
12.290391 26.751251 1.175533
12.605132 26.751251 1.228112
12.919873 26.751251 1.262092
13.234614 26.751251 1.288047
13.549356 26.751251 1.304358
13.864097 26.751251 1.304169
14.178838 26.751251 1.268612
14.493579 26.751251 1.175258
14.808320 26.751251 1.065191
15.123059 26.751251 0.938080
15.437800 26.751251 0.833785
15.752542 26.751251 0.310505
16.067284 26.751251 0.000000
16.382023 26.751251 0.000000
16.696766 26.751251 0.000000
17.011505 26.751251 0.000000
17.326248 26.751251 0.000000
17.640987 26.751251 0.000000
17.955730 26.751251 0.000000
18.270470 26.751251 0.000000
18.585213 26.751251 0.000000
18.899952 26.751251 0.000000
-7.223550 26.436510 0.000000
-6.908809 26.436510 0.001122
-6.594068 26.436510 0.001002
-6.279327 26.436510 0.000943
-5.964586 26.436510 0.000991
-5.649845 26.436510 0.001025
-5.335104 26.436510 0.001099
-5.020363 26.436510 0.001113
-4.705622 26.436510 0.001086
-4.390881 26.436510 0.001029
-4.076140 26.436510 0.001004
-3.761399 26.436510 0.000918
-3.446658 26.436510 0.000810
-3.131917 26.436510 0.000804
-2.817176 26.436510 0.000809
-2.502435 26.436510 0.000786
-2.187694 26.436510 0.000776
-1.872953 26.436510 0.000784
-1.558212 26.436510 0.000794
-1.243471 26.436510 0.000796
-0.928730 26.436510 0.000792
-0.613989 26.436510 0.000726
-0.299248 26.436510 0.000645
0.015493 26.436510 0.000570
0.330234 26.436510 0.000604
0.644975 26.436510 0.000699
0.959716 26.436510 0.000700
1.274457 26.436510 0.000601
1.589198 26.436510 0.000450
1.903938 26.436510 0.000402
2.218679 26.436510 0.000480
2.533421 26.436510 0.000526
2.848162 26.436510 0.000484
3.162903 26.436510 0.000381
3.477644 26.436510 0.000320
3.792385 26.436510 0.000335
4.107125 26.436510 0.000362
4.421866 26.436510 0.000313
4.736608 26.436510 0.000247
5.051349 26.436510 0.000244
5.366090 26.436510 0.000390
5.680831 26.436510 0.000614
5.995571 26.436510 0.000769
6.310312 26.436510 0.001199
6.625053 26.436510 0.002276
6.939795 26.436510 0.003568
7.254536 26.436510 0.005626
7.569277 26.436510 0.011249
7.884017 26.436510 0.018942
8.198758 26.436510 0.035034
8.513499 26.436510 0.060946
8.828240 26.436510 0.108407
9.142982 26.436510 0.179213
9.457723 26.436510 0.269911
9.772464 26.436510 0.366545
10.087205 26.436510 0.477372
10.401946 26.436510 0.599256
10.716687 26.436510 0.718813
11.031426 26.436510 0.834356
11.346168 26.436510 0.930632
11.660909 26.436510 1.021053
11.975650 26.436510 1.100607
12.290391 26.436510 1.181551
12.605132 26.436510 1.227928
12.919873 26.436510 1.257855
13.234614 26.436510 1.290115
13.549356 26.436510 1.305026
13.864097 26.436510 1.311997
14.178838 26.436510 1.254388
14.493579 26.436510 1.168150
14.808320 26.436510 1.052905
15.123059 26.436510 0.932357
15.437800 26.436510 0.815668
15.752542 26.436510 0.309721
16.067284 26.436510 0.000000
16.382023 26.436510 0.000000
16.696766 26.436510 0.000000
17.011505 26.436510 0.000000
17.326248 26.436510 0.000000
17.640987 26.436510 0.000000
17.955730 26.436510 0.000000
18.270470 26.436510 0.000000
18.585213 26.436510 0.000000
18.899952 26.436510 0.000000
-7.223550 26.121769 0.000000
-6.908809 26.121769 0.001157
-6.594068 26.121769 0.001062
-6.279327 26.121769 0.001017
-5.964586 26.121769 0.001081
-5.649845 26.121769 0.001139
-5.335104 26.121769 0.001161
-5.020363 26.121769 0.001157
-4.705622 26.121769 0.001090
-4.390881 26.121769 0.001020
-4.076140 26.121769 0.000997
-3.761399 26.121769 0.000966
-3.446658 26.121769 0.000873
-3.131917 26.121769 0.000848
-2.817176 26.121769 0.000863
-2.502435 26.121769 0.000849
-2.187694 26.121769 0.000844
-1.872953 26.121769 0.000850
-1.558212 26.121769 0.000841
-1.243471 26.121769 0.000827
-0.928730 26.121769 0.000793
-0.613989 26.121769 0.000688
-0.299248 26.121769 0.000560
0.015493 26.121769 0.000484
0.330234 26.121769 0.000578
0.644975 26.121769 0.000698
0.959716 26.121769 0.000733
1.274457 26.121769 0.000665
1.589198 26.121769 0.000552
1.903938 26.121769 0.000483
2.218679 26.121769 0.000512
2.533421 26.121769 0.000569
2.848162 26.121769 0.000548
3.162903 26.121769 0.000438
3.477644 26.121769 0.000360
3.792385 26.121769 0.000338
4.107125 26.121769 0.000341
4.421866 26.121769 0.000335
4.736608 26.121769 0.000316
5.051349 26.121769 0.000285
5.366090 26.121769 0.000468
5.680831 26.121769 0.000646
5.995571 26.121769 0.000904
6.310312 26.121769 0.001322
6.625053 26.121769 0.002146
6.939795 26.121769 0.003448
7.254536 26.121769 0.005656
7.569277 26.121769 0.011494
7.884017 26.121769 0.019283
8.198758 26.121769 0.034392
8.513499 26.121769 0.062022
8.828240 26.121769 0.107279
9.142982 26.121769 0.179213
9.457723 26.121769 0.265817
9.772464 26.121769 0.370660
10.087205 26.121769 0.474702
10.401946 26.121769 0.600402
10.716687 26.121769 0.726522
11.031426 26.121769 0.832934
11.346168 26.121769 0.939125
11.660909 26.121769 1.020314
11.975650 26.121769 1.098090
12.290391 26.121769 1.184122
12.605132 26.121769 1.239666
12.919873 26.121769 1.262859
13.234614 26.121769 1.299721
13.549356 26.121769 1.313951
13.864097 26.121769 1.309051
14.178838 26.121769 1.256030
14.493579 26.121769 1.159462
14.808320 26.121769 1.032403
15.123059 26.121769 0.913029
15.437800 26.121769 0.803227
15.752542 26.121769 0.301496
16.067284 26.121769 0.000000
16.382023 26.121769 0.000000
16.696766 26.121769 0.000000
17.011505 26.121769 0.000000
17.326248 26.121769 0.000000
17.640987 26.121769 0.000000
17.955730 26.121769 0.000000
18.270470 26.121769 0.000000
18.585213 26.121769 0.000000
18.899952 26.121769 0.000000
-7.223550 25.807028 0.000000
-6.908809 25.807028 0.001224
-6.594068 25.807028 0.001134
-6.279327 25.807028 0.001135
-5.964586 25.807028 0.001234
-5.649845 25.807028 0.001270
-5.335104 25.807028 0.001193
-5.020363 25.807028 0.001152
-4.705622 25.807028 0.001077
-4.390881 25.807028 0.001023
-4.076140 25.807028 0.000983
-3.761399 25.807028 0.000967
-3.446658 25.807028 0.000893
-3.131917 25.807028 0.000900
-2.817176 25.807028 0.000926
-2.502435 25.807028 0.000915
-2.187694 25.807028 0.000892
-1.872953 25.807028 0.000907
-1.558212 25.807028 0.000867
-1.243471 25.807028 0.000805
-0.928730 25.807028 0.000740
-0.613989 25.807028 0.000629
-0.299248 25.807028 0.000509
0.015493 25.807028 0.000461
0.330234 25.807028 0.000568
0.644975 25.807028 0.000687
0.959716 25.807028 0.000748
1.274457 25.807028 0.000718
1.589198 25.807028 0.000638
1.903938 25.807028 0.000566
2.218679 25.807028 0.000561
2.533421 25.807028 0.000607
2.848162 25.807028 0.000595
3.162903 25.807028 0.000519
3.477644 25.807028 0.000418
3.792385 25.807028 0.000354
4.107125 25.807028 0.000311
4.421866 25.807028 0.000350
4.736608 25.807028 0.000354
5.051349 25.807028 0.000333
5.366090 25.807028 0.000381
5.680831 25.807028 0.000673
5.995571 25.807028 0.000995
6.310312 25.807028 0.001251
6.625053 25.807028 0.002027
6.939795 25.807028 0.003443
7.254536 25.807028 0.006337
7.569277 25.807028 0.011746
7.884017 25.807028 0.018226
8.198758 25.807028 0.033396
8.513499 25.807028 0.060160
8.828240 25.807028 0.111412
9.142982 25.807028 0.185645
9.457723 25.807028 0.267805
9.772464 25.807028 0.371556
10.087205 25.807028 0.477705
10.401946 25.807028 0.602451
10.716687 25.807028 0.728080
11.031426 25.807028 0.847593
11.346168 25.807028 0.940680
11.660909 25.807028 1.023244
11.975650 25.807028 1.098684
12.290391 25.807028 1.179170
12.605132 25.807028 1.244147
12.919873 25.807028 1.287706
13.234614 25.807028 1.312705
13.549356 25.807028 1.317584
13.864097 25.807028 1.307423
14.178838 25.807028 1.251864
14.493579 25.807028 1.158476
14.808320 25.807028 1.031860
15.123059 25.807028 0.909498
15.437800 25.807028 0.779751
15.752542 25.807028 0.273107
16.067284 25.807028 0.000000
16.382023 25.807028 0.000000
16.696766 25.807028 0.000000
17.011505 25.807028 0.000000
17.326248 25.807028 0.000000
17.640987 25.807028 0.000000
17.955730 25.807028 0.000000
18.270470 25.807028 0.000000
18.585213 25.807028 0.000000
18.899952 25.807028 0.000000
-7.223550 25.492287 0.000000
-6.908809 25.492287 0.001283
-6.594068 25.492287 0.001256
-6.279327 25.492287 0.001291
-5.964586 25.492287 0.001377
-5.649845 25.492287 0.001331
-5.335104 25.492287 0.001180
-5.020363 25.492287 0.001117
-4.705622 25.492287 0.001085
-4.390881 25.492287 0.001047
-4.076140 25.492287 0.000997
-3.761399 25.492287 0.000962
-3.446658 25.492287 0.000901
-3.131917 25.492287 0.000922
-2.817176 25.492287 0.000969
-2.502435 25.492287 0.000951
-2.187694 25.492287 0.000905
-1.872953 25.492287 0.000920
-1.558212 25.492287 0.000871
-1.243471 25.492287 0.000748
-0.928730 25.492287 0.000665
-0.613989 25.492287 0.000582
-0.299248 25.492287 0.000517
0.015493 25.492287 0.000495
0.330234 25.492287 0.000566
0.644975 25.492287 0.000674
0.959716 25.492287 0.000752
1.274457 25.492287 0.000740
1.589198 25.492287 0.000697
1.903938 25.492287 0.000620
2.218679 25.492287 0.000612
2.533421 25.492287 0.000635
2.848162 25.492287 0.000614
3.162903 25.492287 0.000584
3.477644 25.492287 0.000498
3.792385 25.492287 0.000423
4.107125 25.492287 0.000373
4.421866 25.492287 0.000415
4.736608 25.492287 0.000426
5.051349 25.492287 0.000421
5.366090 25.492287 0.000511
5.680831 25.492287 0.000642
5.995571 25.492287 0.001142
6.310312 25.492287 0.001519
6.625053 25.492287 0.002130
6.939795 25.492287 0.003634
7.254536 25.492287 0.007005
7.569277 25.492287 0.010567
7.884017 25.492287 0.016485
8.198758 25.492287 0.033563
8.513499 25.492287 0.060285
8.828240 25.492287 0.114671
9.142982 25.492287 0.186086
9.457723 25.492287 0.268103
9.772464 25.492287 0.372501
10.087205 25.492287 0.482132
10.401946 25.492287 0.604818
10.716687 25.492287 0.731793
11.031426 25.492287 0.850899
11.346168 25.492287 0.940074
11.660909 25.492287 1.029687
11.975650 25.492287 1.096886
12.290391 25.492287 1.173533
12.605132 25.492287 1.247925
12.919873 25.492287 1.286886
13.234614 25.492287 1.319748
13.549356 25.492287 1.340161
13.864097 25.492287 1.309243
14.178838 25.492287 1.248057
14.493579 25.492287 1.147582
14.808320 25.492287 1.031131
15.123059 25.492287 0.895633
15.437800 25.492287 0.767836
15.752542 25.492287 0.222979
16.067284 25.492287 0.000000
16.382023 25.492287 0.000000
16.696766 25.492287 0.000000
17.011505 25.492287 0.000000
17.326248 25.492287 0.000000
17.640987 25.492287 0.000000
17.955730 25.492287 0.000000
18.270470 25.492287 0.000000
18.585213 25.492287 0.000000
18.899952 25.492287 0.000000
-7.223550 25.177546 0.000000
-6.908809 25.177546 0.001394
-6.594068 25.177546 0.001390
-6.279327 25.177546 0.001407
-5.964586 25.177546 0.001433
-5.649845 25.177546 0.001322
-5.335104 25.177546 0.001148
-5.020363 25.177546 0.001083
-4.705622 25.177546 0.001115
-4.390881 25.177546 0.001090
-4.076140 25.177546 0.001021
-3.761399 25.177546 0.000954
-3.446658 25.177546 0.000915
-3.131917 25.177546 0.000942
-2.817176 25.177546 0.000982
-2.502435 25.177546 0.000948
-2.187694 25.177546 0.000890
-1.872953 25.177546 0.000899
-1.558212 25.177546 0.000849
-1.243471 25.177546 0.000714
-0.928730 25.177546 0.000621
-0.613989 25.177546 0.000552
-0.299248 25.177546 0.000548
0.015493 25.177546 0.000567
0.330234 25.177546 0.000599
0.644975 25.177546 0.000666
0.959716 25.177546 0.000723
1.274457 25.177546 0.000737
1.589198 25.177546 0.000723
1.903938 25.177546 0.000677
2.218679 25.177546 0.000656
2.533421 25.177546 0.000641
2.848162 25.177546 0.000634
3.162903 25.177546 0.000646
3.477644 25.177546 0.000591
3.792385 25.177546 0.000532
4.107125 25.177546 0.000482
4.421866 25.177546 0.000499
4.736608 25.177546 0.000573
5.051349 25.177546 0.000606
5.366090 25.177546 0.000606
5.680831 25.177546 0.000612
5.995571 25.177546 0.001205
6.310312 25.177546 0.001647
6.625053 25.177546 0.002380
6.939795 25.177546 0.004197
7.254536 25.177546 0.006611
7.569277 25.177546 0.010359
7.884017 25.177546 0.017831
8.198758 25.177546 0.033744
8.513499 25.177546 0.063792
8.828240 25.177546 0.114506
9.142982 25.177546 0.188043
9.457723 25.177546 0.273223
9.772464 25.177546 0.376115
10.087205 25.177546 0.488219
10.401946 25.177546 0.611379
10.716687 25.177546 0.729791
11.031426 25.177546 0.835542
11.346168 25.177546 0.947578
11.660909 25.177546 1.021636
11.975650 25.177546 1.102340
12.290391 25.177546 1.183193
12.605132 25.177546 1.249996
12.919873 25.177546 1.285886
13.234614 25.177546 1.315983
13.549356 25.177546 1.339232
13.864097 25.177546 1.311016
14.178838 25.177546 1.245295
14.493579 25.177546 1.149999
14.808320 25.177546 1.017926
15.123059 25.177546 0.890765
15.437800 25.177546 0.759222
15.752542 25.177546 0.440910
16.067284 25.177546 0.000000
16.382023 25.177546 0.000000
16.696766 25.177546 0.000000
17.011505 25.177546 0.000000
17.326248 25.177546 0.000000
17.640987 25.177546 0.000000
17.955730 25.177546 0.000000
18.270470 25.177546 0.000000
18.585213 25.177546 0.000000
18.899952 25.177546 0.000000
-7.223550 24.862804 0.000000
-6.908809 24.862804 0.001527
-6.594068 24.862804 0.001488
-6.279327 24.862804 0.001450
-5.964586 24.862804 0.001403
-5.649845 24.862804 0.001252
-5.335104 24.862804 0.001104
-5.020363 24.862804 0.001064
-4.705622 24.862804 0.001136
-4.390881 24.862804 0.001119
-4.076140 24.862804 0.001039
-3.761399 24.862804 0.000970
-3.446658 24.862804 0.000947
-3.131917 24.862804 0.000958
-2.817176 24.862804 0.000976
-2.502435 24.862804 0.000936
-2.187694 24.862804 0.000865
-1.872953 24.862804 0.000844
-1.558212 24.862804 0.000813
-1.243471 24.862804 0.000721
-0.928730 24.862804 0.000607
-0.613989 24.862804 0.000557
-0.299248 24.862804 0.000613
0.015493 24.862804 0.000655
0.330234 24.862804 0.000650
0.644975 24.862804 0.000671
0.959716 24.862804 0.000675
1.274457 24.862804 0.000699
1.589198 24.862804 0.000727
1.903938 24.862804 0.000719
2.218679 24.862804 0.000687
2.533421 24.862804 0.000660
2.848162 24.862804 0.000644
3.162903 24.862804 0.000685
3.477644 24.862804 0.000680
3.792385 24.862804 0.000660
4.107125 24.862804 0.000627
4.421866 24.862804 0.000656
4.736608 24.862804 0.000682
5.051349 24.862804 0.000673
5.366090 24.862804 0.000670
5.680831 24.862804 0.000633
5.995571 24.862804 0.001009
6.310312 24.862804 0.001934
6.625053 24.862804 0.002580
6.939795 24.862804 0.003809
7.254536 24.862804 0.006647
7.569277 24.862804 0.009695
7.884017 24.862804 0.017129
8.198758 24.862804 0.034390
8.513499 24.862804 0.064421
8.828240 24.862804 0.115436
9.142982 24.862804 0.188377
9.457723 24.862804 0.276993
9.772464 24.862804 0.377626
10.087205 24.862804 0.494918
10.401946 24.862804 0.614179
10.716687 24.862804 0.739010
11.031426 24.862804 0.851040
11.346168 24.862804 0.928227
11.660909 24.862804 1.016433
11.975650 24.862804 1.093918
12.290391 24.862804 1.189309
12.605132 24.862804 1.253691
12.919873 24.862804 1.291714
13.234614 24.862804 1.317088
13.549356 24.862804 1.339374
13.864097 24.862804 1.319176
14.178838 24.862804 1.252892
14.493579 24.862804 1.146929
14.808320 24.862804 1.021899
15.123059 24.862804 0.875662
15.437800 24.862804 0.749728
15.752542 24.862804 0.419388
16.067284 24.862804 0.000000
16.382023 24.862804 0.000000
16.696766 24.862804 0.000000
17.011505 24.862804 0.000000
17.326248 24.862804 0.000000
17.640987 24.862804 0.000000
17.955730 24.862804 0.000000
18.270470 24.862804 0.000000
18.585213 24.862804 0.000000
18.899952 24.862804 0.000000
-7.223550 24.548063 0.000000
-6.908809 24.548063 0.001682
-6.594068 24.548063 0.001515
-6.279327 24.548063 0.001377
-5.964586 24.548063 0.001292
-5.649845 24.548063 0.001178
-5.335104 24.548063 0.001091
-5.020363 24.548063 0.001083
-4.705622 24.548063 0.001138
-4.390881 24.548063 0.001112
-4.076140 24.548063 0.001032
-3.761399 24.548063 0.001011
-3.446658 24.548063 0.001011
-3.131917 24.548063 0.000977
-2.817176 24.548063 0.000979
-2.502435 24.548063 0.000953
-2.187694 24.548063 0.000874
-1.872953 24.548063 0.000812
-1.558212 24.548063 0.000797
-1.243471 24.548063 0.000766
-0.928730 24.548063 0.000654
-0.613989 24.548063 0.000622
-0.299248 24.548063 0.000708
0.015493 24.548063 0.000745
0.330234 24.548063 0.000706
0.644975 24.548063 0.000674
0.959716 24.548063 0.000630
1.274457 24.548063 0.000654
1.589198 24.548063 0.000698
1.903938 24.548063 0.000720
2.218679 24.548063 0.000717
2.533421 24.548063 0.000706
2.848162 24.548063 0.000677
3.162903 24.548063 0.000698
3.477644 24.548063 0.000747
3.792385 24.548063 0.000766
4.107125 24.548063 0.000782
4.421866 24.548063 0.000748
4.736608 24.548063 0.000758
5.051349 24.548063 0.000746
5.366090 24.548063 0.000718
5.680831 24.548063 0.000801
5.995571 24.548063 0.001229
6.310312 24.548063 0.001680
6.625053 24.548063 0.002527
6.939795 24.548063 0.003784
7.254536 24.548063 0.006248
7.569277 24.548063 0.010316
7.884017 24.548063 0.019091
8.198758 24.548063 0.036360
8.513499 24.548063 0.064710
8.828240 24.548063 0.116329
9.142982 24.548063 0.188899
9.457723 24.548063 0.280965
9.772464 24.548063 0.383428
10.087205 24.548063 0.496344
10.401946 24.548063 0.618007
10.716687 24.548063 0.738862
11.031426 24.548063 0.853713
11.346168 24.548063 0.939552
11.660909 24.548063 1.013869
11.975650 24.548063 1.104424
12.290391 24.548063 1.185257
12.605132 24.548063 1.250706
12.919873 24.548063 1.285840
13.234614 24.548063 1.314327
13.549356 24.548063 1.340644
13.864097 24.548063 1.323701
14.178838 24.548063 1.254867
14.493579 24.548063 1.158596
14.808320 24.548063 1.031669
15.123059 24.548063 0.886807
15.437800 24.548063 0.729049
15.752542 24.548063 0.394075
16.067284 24.548063 0.000000
16.382023 24.548063 0.000000
16.696766 24.548063 0.000000
17.011505 24.548063 0.000000
17.326248 24.548063 0.000000
17.640987 24.548063 0.000000
17.955730 24.548063 0.000000
18.270470 24.548063 0.000000
18.585213 24.548063 0.000000
18.899952 24.548063 0.000000
-7.223550 24.233322 0.000000
-6.908809 24.233322 0.001739
-6.594068 24.233322 0.001495
-6.279327 24.233322 0.001253
-5.964586 24.233322 0.001187
-5.649845 24.233322 0.001119
-5.335104 24.233322 0.001098
-5.020363 24.233322 0.001114
-4.705622 24.233322 0.001124
-4.390881 24.233322 0.001068
-4.076140 24.233322 0.001039
-3.761399 24.233322 0.001095
-3.446658 24.233322 0.001065
-3.131917 24.233322 0.001002
-2.817176 24.233322 0.001001
-2.502435 24.233322 0.000992
-2.187694 24.233322 0.000922
-1.872953 24.233322 0.000840
-1.558212 24.233322 0.000824
-1.243471 24.233322 0.000825
-0.928730 24.233322 0.000726
-0.613989 24.233322 0.000736
-0.299248 24.233322 0.000803
0.015493 24.233322 0.000815
0.330234 24.233322 0.000759
0.644975 24.233322 0.000691
0.959716 24.233322 0.000613
1.274457 24.233322 0.000607
1.589198 24.233322 0.000648
1.903938 24.233322 0.000694
2.218679 24.233322 0.000731
2.533421 24.233322 0.000736
2.848162 24.233322 0.000721
3.162903 24.233322 0.000728
3.477644 24.233322 0.000771
3.792385 24.233322 0.000841
4.107125 24.233322 0.000791
4.421866 24.233322 0.000726
4.736608 24.233322 0.000684
5.051349 24.233322 0.000689
5.366090 24.233322 0.000776
5.680831 24.233322 0.000856
5.995571 24.233322 0.001118
6.310312 24.233322 0.001565
6.625053 24.233322 0.002181
6.939795 24.233322 0.003382
7.254536 24.233322 0.005897
7.569277 24.233322 0.010715
7.884017 24.233322 0.019592
8.198758 24.233322 0.035105
8.513499 24.233322 0.065605
8.828240 24.233322 0.115693
9.142982 24.233322 0.193940
9.457723 24.233322 0.285602
9.772464 24.233322 0.387726
10.087205 24.233322 0.499227
10.401946 24.233322 0.618769
10.716687 24.233322 0.736855
11.031426 24.233322 0.855358
11.346168 24.233322 0.941694
11.660909 24.233322 1.009466
11.975650 24.233322 1.091920
12.290391 24.233322 1.175554
12.605132 24.233322 1.240579
12.919873 24.233322 1.278878
13.234614 24.233322 1.319797
13.549356 24.233322 1.354679
13.864097 24.233322 1.331688
14.178838 24.233322 1.267833
14.493579 24.233322 1.168720
14.808320 24.233322 1.039796
15.123059 24.233322 0.902091
15.437800 24.233322 0.754882
15.752542 24.233322 0.375381
16.067284 24.233322 0.000000
16.382023 24.233322 0.000000
16.696766 24.233322 0.000000
17.011505 24.233322 0.000000
17.326248 24.233322 0.000000
17.640987 24.233322 0.000000
17.955730 24.233322 0.000000
18.270470 24.233322 0.000000
18.585213 24.233322 0.000000
18.899952 24.233322 0.000000
-7.223550 23.918581 0.000000
-6.908809 23.918581 0.001627
-6.594068 23.918581 0.001380
-6.279327 23.918581 0.001129
-5.964586 23.918581 0.001096
-5.649845 23.918581 0.001100
-5.335104 23.918581 0.001119
-5.020363 23.918581 0.001146
-4.705622 23.918581 0.001115
-4.390881 23.918581 0.001049
-4.076140 23.918581 0.001069
-3.761399 23.918581 0.001174
-3.446658 23.918581 0.001101
-3.131917 23.918581 0.000991
-2.817176 23.918581 0.001015
-2.502435 23.918581 0.001031
-2.187694 23.918581 0.000973
-1.872953 23.918581 0.000907
-1.558212 23.918581 0.000871
-1.243471 23.918581 0.000867
-0.928730 23.918581 0.000807
-0.613989 23.918581 0.000851
-0.299248 23.918581 0.000880
0.015493 23.918581 0.000854
0.330234 23.918581 0.000811
0.644975 23.918581 0.000728
0.959716 23.918581 0.000636
1.274457 23.918581 0.000595
1.589198 23.918581 0.000612
1.903938 23.918581 0.000689
2.218679 23.918581 0.000750
2.533421 23.918581 0.000779
2.848162 23.918581 0.000783
3.162903 23.918581 0.000729
3.477644 23.918581 0.000754
3.792385 23.918581 0.000778
4.107125 23.918581 0.000659
4.421866 23.918581 0.000541
4.736608 23.918581 0.000486
5.051349 23.918581 0.000572
5.366090 23.918581 0.000679
5.680831 23.918581 0.000709
5.995571 23.918581 0.000907
6.310312 23.918581 0.001160
6.625053 23.918581 0.001884
6.939795 23.918581 0.003098
7.254536 23.918581 0.006136
7.569277 23.918581 0.010403
7.884017 23.918581 0.018082
8.198758 23.918581 0.034861
8.513499 23.918581 0.066724
8.828240 23.918581 0.119963
9.142982 23.918581 0.199090
9.457723 23.918581 0.284315
9.772464 23.918581 0.381880
10.087205 23.918581 0.498061
10.401946 23.918581 0.626513
10.716687 23.918581 0.738763
11.031426 23.918581 0.856730
11.346168 23.918581 0.955136
11.660909 23.918581 1.012549
11.975650 23.918581 1.092577
12.290391 23.918581 1.165017
12.605132 23.918581 1.226741
12.919873 23.918581 1.279768
13.234614 23.918581 1.328695
13.549356 23.918581 1.366612
13.864097 23.918581 1.343602
14.178838 23.918581 1.273045
14.493579 23.918581 1.176821
14.808320 23.918581 1.048486
15.123059 23.918581 0.904718
15.437800 23.918581 0.729559
15.752542 23.918581 0.365555
16.067284 23.918581 0.000000
16.382023 23.918581 0.000000
16.696766 23.918581 0.000000
17.011505 23.918581 0.000000
17.326248 23.918581 0.000000
17.640987 23.918581 0.000000
17.955730 23.918581 0.000000
18.270470 23.918581 0.000000
18.585213 23.918581 0.000000
18.899952 23.918581 0.000000
-7.223550 23.603840 0.000000
-6.908809 23.603840 0.001383
-6.594068 23.603840 0.001226
-6.279327 23.603840 0.001059
-5.964586 23.603840 0.001055
-5.649845 23.603840 0.001115
-5.335104 23.603840 0.001149
-5.020363 23.603840 0.001164
-4.705622 23.603840 0.001098
-4.390881 23.603840 0.001049
-4.076140 23.603840 0.001120
-3.761399 23.603840 0.001226
-3.446658 23.603840 0.001118
-3.131917 23.603840 0.000957
-2.817176 23.603840 0.001008
-2.502435 23.603840 0.001047
-2.187694 23.603840 0.001019
-1.872953 23.603840 0.000967
-1.558212 23.603840 0.000891
-1.243471 23.603840 0.000874
-0.928730 23.603840 0.000879
-0.613989 23.603840 0.000949
-0.299248 23.603840 0.000958
0.015493 23.603840 0.000876
0.330234 23.603840 0.000845
0.644975 23.603840 0.000774
0.959716 23.603840 0.000679
1.274457 23.603840 0.000615
1.589198 23.603840 0.000607
1.903938 23.603840 0.000680
2.218679 23.603840 0.000751
2.533421 23.603840 0.000789
2.848162 23.603840 0.000807
3.162903 23.603840 0.000716
3.477644 23.603840 0.000662
3.792385 23.603840 0.000618
4.107125 23.603840 0.000501
4.421866 23.603840 0.000392
4.736608 23.603840 0.000330
5.051349 23.603840 0.000420
5.366090 23.603840 0.000616
5.680831 23.603840 0.000670
5.995571 23.603840 0.000808
6.310312 23.603840 0.001021
6.625053 23.603840 0.001650
6.939795 23.603840 0.003420
7.254536 23.603840 0.006533
7.569277 23.603840 0.009892
7.884017 23.603840 0.018687
8.198758 23.603840 0.035406
8.513499 23.603840 0.069732
8.828240 23.603840 0.127068
9.142982 23.603840 0.201126
9.457723 23.603840 0.284618
9.772464 23.603840 0.383073
10.087205 23.603840 0.507183
10.401946 23.603840 0.628524
10.716687 23.603840 0.742293
11.031426 23.603840 0.859019
11.346168 23.603840 0.946476
11.660909 23.603840 1.023331
11.975650 23.603840 1.103856
12.290391 23.603840 1.165846
12.605132 23.603840 1.230649
12.919873 23.603840 1.279399
13.234614 23.603840 1.328630
13.549356 23.603840 1.361270
13.864097 23.603840 1.337277
14.178838 23.603840 1.275476
14.493579 23.603840 1.166710
14.808320 23.603840 1.047822
15.123059 23.603840 0.897273
15.437800 23.603840 0.759336
15.752542 23.603840 0.364341
16.067284 23.603840 0.000000
16.382023 23.603840 0.000000
16.696766 23.603840 0.000000
17.011505 23.603840 0.000000
17.326248 23.603840 0.000000
17.640987 23.603840 0.000000
17.955730 23.603840 0.000000
18.270470 23.603840 0.000000
18.585213 23.603840 0.000000
18.899952 23.603840 0.000000
-7.223550 23.289099 0.000000
-6.908809 23.289099 0.001108
-6.594068 23.289099 0.001066
-6.279327 23.289099 0.001033
-5.964586 23.289099 0.001083
-5.649845 23.289099 0.001176
-5.335104 23.289099 0.001179
-5.020363 23.289099 0.001143
-4.705622 23.289099 0.001073
-4.390881 23.289099 0.001083
-4.076140 23.289099 0.001180
-3.761399 23.289099 0.001236
-3.446658 23.289099 0.001102
-3.131917 23.289099 0.000940
-2.817176 23.289099 0.000978
-2.502435 23.289099 0.001047
-2.187694 23.289099 0.001044
-1.872953 23.289099 0.001005
-1.558212 23.289099 0.000907
-1.243471 23.289099 0.000873
-0.928730 23.289099 0.000932
-0.613989 23.289099 0.001003
-0.299248 23.289099 0.000987
0.015493 23.289099 0.000872
0.330234 23.289099 0.000837
0.644975 23.289099 0.000801
0.959716 23.289099 0.000715
1.274457 23.289099 0.000656
1.589198 23.289099 0.000633
1.903938 23.289099 0.000670
2.218679 23.289099 0.000751
2.533421 23.289099 0.000791
2.848162 23.289099 0.000800
3.162903 23.289099 0.000648
3.477644 23.289099 0.000549
3.792385 23.289099 0.000472
4.107125 23.289099 0.000349
4.421866 23.289099 0.000284
4.736608 23.289099 0.000321
5.051349 23.289099 0.000446
5.366090 23.289099 0.000525
5.680831 23.289099 0.000591
5.995571 23.289099 0.000720
6.310312 23.289099 0.001137
6.625053 23.289099 0.002043
6.939795 23.289099 0.004071
7.254536 23.289099 0.006682
7.569277 23.289099 0.010770
7.884017 23.289099 0.019164
8.198758 23.289099 0.037824
8.513499 23.289099 0.073758
8.828240 23.289099 0.125956
9.142982 23.289099 0.200136
9.457723 23.289099 0.289424
9.772464 23.289099 0.395027
10.087205 23.289099 0.508449
10.401946 23.289099 0.638360
10.716687 23.289099 0.758252
11.031426 23.289099 0.859677
11.346168 23.289099 0.956016
11.660909 23.289099 1.021037
11.975650 23.289099 1.112079
12.290391 23.289099 1.180563
12.605132 23.289099 1.231749
12.919873 23.289099 1.280361
13.234614 23.289099 1.334798
13.549356 23.289099 1.366363
13.864097 23.289099 1.335348
14.178838 23.289099 1.275215
14.493579 23.289099 1.167051
14.808320 23.289099 1.043386
15.123059 23.289099 0.897112
15.437800 23.289099 0.753708
15.752542 23.289099 0.353166
16.067284 23.289099 0.000000
16.382023 23.289099 0.000000
16.696766 23.289099 0.000000
17.011505 23.289099 0.000000
17.326248 23.289099 0.000000
17.640987 23.289099 0.000000
17.955730 23.289099 0.000000
18.270470 23.289099 0.000000
18.585213 23.289099 0.000000
18.899952 23.289099 0.000000
-7.223550 22.974360 0.000000
-6.908809 22.974360 0.000983
-6.594068 22.974360 0.000981
-6.279327 22.974360 0.001040
-5.964586 22.974360 0.001139
-5.649845 22.974360 0.001224
-5.335104 22.974360 0.001193
-5.020363 22.974360 0.001114
-4.705622 22.974360 0.001072
-4.390881 22.974360 0.001142
-4.076140 22.974360 0.001221
-3.761399 22.974360 0.001207
-3.446658 22.974360 0.001068
-3.131917 22.974360 0.000910
-2.817176 22.974360 0.000921
-2.502435 22.974360 0.001001
-2.187694 22.974360 0.001036
-1.872953 22.974360 0.001019
-1.558212 22.974360 0.000897
-1.243471 22.974360 0.000869
-0.928730 22.974360 0.000967
-0.613989 22.974360 0.000994
-0.299248 22.974360 0.000949
0.015493 22.974360 0.000829
0.330234 22.974360 0.000818
0.644975 22.974360 0.000807
0.959716 22.974360 0.000741
1.274457 22.974360 0.000727
1.589198 22.974360 0.000692
1.903938 22.974360 0.000689
2.218679 22.974360 0.000725
2.533421 22.974360 0.000784
2.848162 22.974360 0.000785
3.162903 22.974360 0.000582
3.477644 22.974360 0.000411
3.792385 22.974360 0.000327
4.107125 22.974360 0.000276
4.421866 22.974360 0.000246
4.736608 22.974360 0.000299
5.051349 22.974360 0.000369
5.366090 22.974360 0.000481
5.680831 22.974360 0.000584
5.995571 22.974360 0.000674
6.310312 22.974360 0.001351
6.625053 22.974360 0.002215
6.939795 22.974360 0.003890
7.254536 22.974360 0.006497
7.569277 22.974360 0.010925
7.884017 22.974360 0.019813
8.198758 22.974360 0.037867
8.513499 22.974360 0.073935
8.828240 22.974360 0.127730
9.142982 22.974360 0.200946
9.457723 22.974360 0.295085
9.772464 22.974360 0.393757
10.087205 22.974360 0.515689
10.401946 22.974360 0.635850
10.716687 22.974360 0.760221
11.031426 22.974360 0.867629
11.346168 22.974360 0.954183
11.660909 22.974360 1.016090
11.975650 22.974360 1.107561
12.290391 22.974360 1.182329
12.605132 22.974360 1.245502
12.919873 22.974360 1.290531
13.234614 22.974360 1.336048
13.549356 22.974360 1.365243
13.864097 22.974360 1.347551
14.178838 22.974360 1.270771
14.493579 22.974360 1.166998
14.808320 22.974360 1.038623
15.123059 22.974360 0.881701
15.437800 22.974360 0.733842
15.752542 22.974360 0.336224
16.067284 22.974360 0.000000
16.382023 22.974360 0.000000
16.696766 22.974360 0.000000
17.011505 22.974360 0.000000
17.326248 22.974360 0.000000
17.640987 22.974360 0.000000
17.955730 22.974360 0.000000
18.270470 22.974360 0.000000
18.585213 22.974360 0.000000
18.899952 22.974360 0.000000
-7.223550 22.659618 0.000000
-6.908809 22.659618 0.001035
-6.594068 22.659618 0.000976
-6.279327 22.659618 0.001034
-5.964586 22.659618 0.001162
-5.649845 22.659618 0.001242
-5.335104 22.659618 0.001208
-5.020363 22.659618 0.001123
-4.705622 22.659618 0.001114
-4.390881 22.659618 0.001221
-4.076140 22.659618 0.001257
-3.761399 22.659618 0.001158
-3.446658 22.659618 0.001026
-3.131917 22.659618 0.000899
-2.817176 22.659618 0.000888
-2.502435 22.659618 0.000954
-2.187694 22.659618 0.001004
-1.872953 22.659618 0.001016
-1.558212 22.659618 0.000896
-1.243471 22.659618 0.000889
-0.928730 22.659618 0.000972
-0.613989 22.659618 0.000945
-0.299248 22.659618 0.000875
0.015493 22.659618 0.000786
0.330234 22.659618 0.000813
0.644975 22.659618 0.000825
0.959716 22.659618 0.000785
1.274457 22.659618 0.000820
1.589198 22.659618 0.000782
1.903938 22.659618 0.000714
2.218679 22.659618 0.000678
2.533421 22.659618 0.000749
2.848162 22.659618 0.000717
3.162903 22.659618 0.000517
3.477644 22.659618 0.000360
3.792385 22.659618 0.000316
4.107125 22.659618 0.000247
4.421866 22.659618 0.000271
4.736608 22.659618 0.000318
5.051349 22.659618 0.000439
5.366090 22.659618 0.000625
5.680831 22.659618 0.000670
5.995571 22.659618 0.000710
6.310312 22.659618 0.001432
6.625053 22.659618 0.002530
6.939795 22.659618 0.003912
7.254536 22.659618 0.006628
7.569277 22.659618 0.011168
7.884017 22.659618 0.021228
8.198758 22.659618 0.040330
8.513499 22.659618 0.072295
8.828240 22.659618 0.123714
9.142982 22.659618 0.199009
9.457723 22.659618 0.289702
9.772464 22.659618 0.394363
10.087205 22.659618 0.517311
10.401946 22.659618 0.639698
10.716687 22.659618 0.757548
11.031426 22.659618 0.877203
11.346168 22.659618 0.956240
11.660909 22.659618 1.029075
11.975650 22.659618 1.113623
12.290391 22.659618 1.189157
12.605132 22.659618 1.259858
12.919873 22.659618 1.304106
13.234614 22.659618 1.337735
13.549356 22.659618 1.379178
13.864097 22.659618 1.351895
14.178838 22.659618 1.282013
14.493579 22.659618 1.172051
14.808320 22.659618 1.034525
15.123059 22.659618 0.859711
15.437800 22.659618 0.705774
15.752542 22.659618 0.331877
16.067284 22.659618 0.000000
16.382023 22.659618 0.000000
16.696766 22.659618 0.000000
17.011505 22.659618 0.000000
17.326248 22.659618 0.000000
17.640987 22.659618 0.000000
17.955730 22.659618 0.000000
18.270470 22.659618 0.000000
18.585213 22.659618 0.000000
18.899952 22.659618 0.000000
-7.223550 22.344877 0.000000
-6.908809 22.344877 0.001120
-6.594068 22.344877 0.001040
-6.279327 22.344877 0.001046
-5.964586 22.344877 0.001178
-5.649845 22.344877 0.001239
-5.335104 22.344877 0.001232
-5.020363 22.344877 0.001169
-4.705622 22.344877 0.001173
-4.390881 22.344877 0.001281
-4.076140 22.344877 0.001267
-3.761399 22.344877 0.001111
-3.446658 22.344877 0.000995
-3.131917 22.344877 0.000933
-2.817176 22.344877 0.000920
-2.502435 22.344877 0.000924
-2.187694 22.344877 0.000957
-1.872953 22.344877 0.000999
-1.558212 22.344877 0.000920
-1.243471 22.344877 0.000910
-0.928730 22.344877 0.000954
-0.613989 22.344877 0.000882
-0.299248 22.344877 0.000784
0.015493 22.344877 0.000742
0.330234 22.344877 0.000808
0.644975 22.344877 0.000839
0.959716 22.344877 0.000833
1.274457 22.344877 0.000906
1.589198 22.344877 0.000856
1.903938 22.344877 0.000715
2.218679 22.344877 0.000654
2.533421 22.344877 0.000695
2.848162 22.344877 0.000636
3.162903 22.344877 0.000504
3.477644 22.344877 0.000426
3.792385 22.344877 0.000382
4.107125 22.344877 0.000337
4.421866 22.344877 0.000362
4.736608 22.344877 0.000412
5.051349 22.344877 0.000516
5.366090 22.344877 0.000608
5.680831 22.344877 0.000714
5.995571 22.344877 0.000892
6.310312 22.344877 0.001626
6.625053 22.344877 0.002473
6.939795 22.344877 0.003827
7.254536 22.344877 0.006764
7.569277 22.344877 0.011128
7.884017 22.344877 0.021170
8.198758 22.344877 0.040465
8.513499 22.344877 0.073881
8.828240 22.344877 0.124717
9.142982 22.344877 0.201272
9.457723 22.344877 0.288127
9.772464 22.344877 0.386020
10.087205 22.344877 0.516609
10.401946 22.344877 0.632591
10.716687 22.344877 0.753490
11.031426 22.344877 0.879588
11.346168 22.344877 0.961110
11.660909 22.344877 1.033800
11.975650 22.344877 1.113490
12.290391 22.344877 1.193542
12.605132 22.344877 1.251058
12.919873 22.344877 1.299665
13.234614 22.344877 1.332168
13.549356 22.344877 1.378758
13.864097 22.344877 1.359159
14.178838 22.344877 1.277440
14.493579 22.344877 1.180364
14.808320 22.344877 1.027052
15.123059 22.344877 0.845671
15.437800 22.344877 0.693628
15.752542 22.344877 0.309587
16.067284 22.344877 0.000000
16.382023 22.344877 0.000000
16.696766 22.344877 0.000000
17.011505 22.344877 0.000000
17.326248 22.344877 0.000000
17.640987 22.344877 0.000000
17.955730 22.344877 0.000000
18.270470 22.344877 0.000000
18.585213 22.344877 0.000000
18.899952 22.344877 0.000000
-7.223550 22.030136 0.000000
-6.908809 22.030136 0.001239
-6.594068 22.030136 0.001131
-6.279327 22.030136 0.001098
-5.964586 22.030136 0.001187
-5.649845 22.030136 0.001242
-5.335104 22.030136 0.001272
-5.020363 22.030136 0.001236
-4.705622 22.030136 0.001239
-4.390881 22.030136 0.001308
-4.076140 22.030136 0.001257
-3.761399 22.030136 0.001090
-3.446658 22.030136 0.001010
-3.131917 22.030136 0.001005
-2.817176 22.030136 0.000981
-2.502435 22.030136 0.000932
-2.187694 22.030136 0.000944
-1.872953 22.030136 0.001014
-1.558212 22.030136 0.000954
-1.243471 22.030136 0.000942
-0.928730 22.030136 0.000927
-0.613989 22.030136 0.000814
-0.299248 22.030136 0.000729
0.015493 22.030136 0.000734
0.330234 22.030136 0.000810
0.644975 22.030136 0.000854
0.959716 22.030136 0.000864
1.274457 22.030136 0.000974
1.589198 22.030136 0.000910
1.903938 22.030136 0.000709
2.218679 22.030136 0.000609
2.533421 22.030136 0.000623
2.848162 22.030136 0.000573
3.162903 22.030136 0.000540
3.477644 22.030136 0.000534
3.792385 22.030136 0.000517
4.107125 22.030136 0.000502
4.421866 22.030136 0.000559
4.736608 22.030136 0.000539
5.051349 22.030136 0.000545
5.366090 22.030136 0.000564
5.680831 22.030136 0.000643
5.995571 22.030136 0.001053
6.310312 22.030136 0.001488
6.625053 22.030136 0.002423
6.939795 22.030136 0.003511
7.254536 22.030136 0.006690
7.569277 22.030136 0.011201
7.884017 22.030136 0.020598
8.198758 22.030136 0.039175
8.513499 22.030136 0.075853
8.828240 22.030136 0.127597
9.142982 22.030136 0.205744
9.457723 22.030136 0.294928
9.772464 22.030136 0.384944
10.087205 22.030136 0.513301
10.401946 22.030136 0.631292
10.716687 22.030136 0.755137
11.031426 22.030136 0.876997
11.346168 22.030136 0.953220
11.660909 22.030136 1.037191
11.975650 22.030136 1.118800
12.290391 22.030136 1.197566
12.605132 22.030136 1.253195
12.919873 22.030136 1.302623
13.234614 22.030136 1.336512
13.549356 22.030136 1.369632
13.864097 22.030136 1.362118
14.178838 22.030136 1.289185
14.493579 22.030136 1.186270
14.808320 22.030136 1.025244
15.123059 22.030136 0.831968
15.437800 22.030136 0.683508
15.752542 22.030136 0.298477
16.067284 22.030136 0.000000
16.382023 22.030136 0.000000
16.696766 22.030136 0.000000
17.011505 22.030136 0.000000
17.326248 22.030136 0.000000
17.640987 22.030136 0.000000
17.955730 22.030136 0.000000
18.270470 22.030136 0.000000
18.585213 22.030136 0.000000
18.899952 22.030136 0.000000
-7.223550 21.715395 0.000000
-6.908809 21.715395 0.001385
-6.594068 21.715395 0.001235
-6.279327 21.715395 0.001183
-5.964586 21.715395 0.001233
-5.649845 21.715395 0.001278
-5.335104 21.715395 0.001309
-5.020363 21.715395 0.001307
-4.705622 21.715395 0.001315
-4.390881 21.715395 0.001312
-4.076140 21.715395 0.001231
-3.761399 21.715395 0.001104
-3.446658 21.715395 0.001062
-3.131917 21.715395 0.001084
-2.817176 21.715395 0.001048
-2.502435 21.715395 0.000967
-2.187694 21.715395 0.000970
-1.872953 21.715395 0.001053
-1.558212 21.715395 0.001002
-1.243471 21.715395 0.000973
-0.928730 21.715395 0.000897
-0.613989 21.715395 0.000774
-0.299248 21.715395 0.000732
0.015493 21.715395 0.000753
0.330234 21.715395 0.000802
0.644975 21.715395 0.000852
0.959716 21.715395 0.000902
1.274457 21.715395 0.001028
1.589198 21.715395 0.000966
1.903938 21.715395 0.000737
2.218679 21.715395 0.000590
2.533421 21.715395 0.000556
2.848162 21.715395 0.000548
3.162903 21.715395 0.000629
3.477644 21.715395 0.000714
3.792385 21.715395 0.000696
4.107125 21.715395 0.000687
4.421866 21.715395 0.000750
4.736608 21.715395 0.000750
5.051349 21.715395 0.000672
5.366090 21.715395 0.000612
5.680831 21.715395 0.000566
5.995571 21.715395 0.000825
6.310312 21.715395 0.001423
6.625053 21.715395 0.002187
6.939795 21.715395 0.003847
7.254536 21.715395 0.006924
7.569277 21.715395 0.010886
7.884017 21.715395 0.020740
8.198758 21.715395 0.041501
8.513499 21.715395 0.078345
8.828240 21.715395 0.133583
9.142982 21.715395 0.210136
9.457723 21.715395 0.297219
9.772464 21.715395 0.405905
10.087205 21.715395 0.519693
10.401946 21.715395 0.639186
10.716687 21.715395 0.761304
11.031426 21.715395 0.866587
11.346168 21.715395 0.956076
11.660909 21.715395 1.040612
11.975650 21.715395 1.123016
12.290391 21.715395 1.208096
12.605132 21.715395 1.245242
12.919873 21.715395 1.298975
13.234614 21.715395 1.339960
13.549356 21.715395 1.379251
13.864097 21.715395 1.349975
14.178838 21.715395 1.287234
14.493579 21.715395 1.182564
14.808320 21.715395 1.039840
15.123059 21.715395 0.845348
15.437800 21.715395 0.677022
15.752542 21.715395 0.305674
16.067284 21.715395 0.000000
16.382023 21.715395 0.000000
16.696766 21.715395 0.000000
17.011505 21.715395 0.000000
17.326248 21.715395 0.000000
17.640987 21.715395 0.000000
17.955730 21.715395 0.000000
18.270470 21.715395 0.000000
18.585213 21.715395 0.000000
18.899952 21.715395 0.000000
-7.223550 21.400654 0.000000
-6.908809 21.400654 0.001479
-6.594068 21.400654 0.001326
-6.279327 21.400654 0.001279
-5.964586 21.400654 0.001307
-5.649845 21.400654 0.001319
-5.335104 21.400654 0.001316
-5.020363 21.400654 0.001337
-4.705622 21.400654 0.001333
-4.390881 21.400654 0.001265
-4.076140 21.400654 0.001197
-3.761399 21.400654 0.001139
-3.446658 21.400654 0.001114
-3.131917 21.400654 0.001139
-2.817176 21.400654 0.001103
-2.502435 21.400654 0.001018
-2.187694 21.400654 0.001007
-1.872953 21.400654 0.001093
-1.558212 21.400654 0.001064
-1.243471 21.400654 0.001012
-0.928730 21.400654 0.000897
-0.613989 21.400654 0.000786
-0.299248 21.400654 0.000768
0.015493 21.400654 0.000787
0.330234 21.400654 0.000811
0.644975 21.400654 0.000849
0.959716 21.400654 0.000942
1.274457 21.400654 0.001043
1.589198 21.400654 0.001009
1.903938 21.400654 0.000801
2.218679 21.400654 0.000632
2.533421 21.400654 0.000552
2.848162 21.400654 0.000580
3.162903 21.400654 0.000737
3.477644 21.400654 0.000867
3.792385 21.400654 0.000842
4.107125 21.400654 0.000877
4.421866 21.400654 0.000950
4.736608 21.400654 0.000894
5.051349 21.400654 0.000758
5.366090 21.400654 0.000566
5.680831 21.400654 0.000542
5.995571 21.400654 0.000856
6.310312 21.400654 0.001389
6.625053 21.400654 0.002204
6.939795 21.400654 0.004214
7.254536 21.400654 0.006720
7.569277 21.400654 0.011394
7.884017 21.400654 0.019316
8.198758 21.400654 0.040814
8.513499 21.400654 0.079900
8.828240 21.400654 0.132439
9.142982 21.400654 0.211903
9.457723 21.400654 0.300267
9.772464 21.400654 0.409381
10.087205 21.400654 0.530844
10.401946 21.400654 0.638725
10.716687 21.400654 0.762194
11.031426 21.400654 0.865597
11.346168 21.400654 0.948428
11.660909 21.400654 1.039221
11.975650 21.400654 1.107446
12.290391 21.400654 1.200735
12.605132 21.400654 1.250354
12.919873 21.400654 1.301110
13.234614 21.400654 1.346442
13.549356 21.400654 1.377242
13.864097 21.400654 1.350032
14.178838 21.400654 1.295660
14.493579 21.400654 1.188809
14.808320 21.400654 1.036803
15.123059 21.400654 0.858454
15.437800 21.400654 0.679885
15.752542 21.400654 0.268139
16.067284 21.400654 0.000000
16.382023 21.400654 0.000000
16.696766 21.400654 0.000000
17.011505 21.400654 0.000000
17.326248 21.400654 0.000000
17.640987 21.400654 0.000000
17.955730 21.400654 0.000000
18.270470 21.400654 0.000000
18.585213 21.400654 0.000000
18.899952 21.400654 0.000000
-7.223550 21.085913 0.000000
-6.908809 21.085913 0.001531
-6.594068 21.085913 0.001371
-6.279327 21.085913 0.001335
-5.964586 21.085913 0.001363
-5.649845 21.085913 0.001347
-5.335104 21.085913 0.001294
-5.020363 21.085913 0.001307
-4.705622 21.085913 0.001289
-4.390881 21.085913 0.001195
-4.076140 21.085913 0.001160
-3.761399 21.085913 0.001178
-3.446658 21.085913 0.001167
-3.131917 21.085913 0.001177
-2.817176 21.085913 0.001134
-2.502435 21.085913 0.001044
-2.187694 21.085913 0.001040
-1.872953 21.085913 0.001109
-1.558212 21.085913 0.001100
-1.243471 21.085913 0.001037
-0.928730 21.085913 0.000909
-0.613989 21.085913 0.000836
-0.299248 21.085913 0.000818
0.015493 21.085913 0.000832
0.330234 21.085913 0.000826
0.644975 21.085913 0.000843
0.959716 21.085913 0.000940
1.274457 21.085913 0.001013
1.589198 21.085913 0.001008
1.903938 21.085913 0.000876
2.218679 21.085913 0.000754
2.533421 21.085913 0.000648
2.848162 21.085913 0.000639
3.162903 21.085913 0.000798
3.477644 21.085913 0.000935
3.792385 21.085913 0.000940
4.107125 21.085913 0.000998
4.421866 21.085913 0.000993
4.736608 21.085913 0.000853
5.051349 21.085913 0.000653
5.366090 21.085913 0.000427
5.680831 21.085913 0.000480
5.995571 21.085913 0.000824
6.310312 21.085913 0.001248
6.625053 21.085913 0.002464
6.939795 21.085913 0.004146
7.254536 21.085913 0.007148
7.569277 21.085913 0.011676
7.884017 21.085913 0.022146
8.198758 21.085913 0.042946
8.513499 21.085913 0.081619
8.828240 21.085913 0.136811
9.142982 21.085913 0.211074
9.457723 21.085913 0.311357
9.772464 21.085913 0.416567
10.087205 21.085913 0.543055
10.401946 21.085913 0.653406
10.716687 21.085913 0.769753
11.031426 21.085913 0.867570
11.346168 21.085913 0.957096
11.660909 21.085913 1.039808
11.975650 21.085913 1.113582
12.290391 21.085913 1.197670
12.605132 21.085913 1.262060
12.919873 21.085913 1.304946
13.234614 21.085913 1.356550
13.549356 21.085913 1.363373
13.864097 21.085913 1.341813
14.178838 21.085913 1.300488
14.493579 21.085913 1.190663
14.808320 21.085913 1.037816
15.123059 21.085913 0.853337
15.437800 21.085913 0.688035
15.752542 21.085913 0.454572
16.067284 21.085913 0.000000
16.382023 21.085913 0.000000
16.696766 21.085913 0.000000
17.011505 21.085913 0.000000
17.326248 21.085913 0.000000
17.640987 21.085913 0.000000
17.955730 21.085913 0.000000
18.270470 21.085913 0.000000
18.585213 21.085913 0.000000
18.899952 21.085913 0.000000
-7.223550 20.771172 0.000000
-6.908809 20.771172 0.001524
-6.594068 20.771172 0.001388
-6.279327 20.771172 0.001342
-5.964586 20.771172 0.001346
-5.649845 20.771172 0.001305
-5.335104 20.771172 0.001222
-5.020363 20.771172 0.001235
-4.705622 20.771172 0.001217
-4.390881 20.771172 0.001101
-4.076140 20.771172 0.001125
-3.761399 20.771172 0.001207
-3.446658 20.771172 0.001195
-3.131917 20.771172 0.001183
-2.817176 20.771172 0.001119
-2.502435 20.771172 0.001038
-2.187694 20.771172 0.001036
-1.872953 20.771172 0.001079
-1.558212 20.771172 0.001096
-1.243471 20.771172 0.001044
-0.928730 20.771172 0.000936
-0.613989 20.771172 0.000892
-0.299248 20.771172 0.000883
0.015493 20.771172 0.000869
0.330234 20.771172 0.000837
0.644975 20.771172 0.000823
0.959716 20.771172 0.000880
1.274457 20.771172 0.000941
1.589198 20.771172 0.000995
1.903938 20.771172 0.000954
2.218679 20.771172 0.000889
2.533421 20.771172 0.000768
2.848162 20.771172 0.000685
3.162903 20.771172 0.000794
3.477644 20.771172 0.000913
3.792385 20.771172 0.000936
4.107125 20.771172 0.000969
4.421866 20.771172 0.000916
4.736608 20.771172 0.000758
5.051349 20.771172 0.000621
5.366090 20.771172 0.000523
5.680831 20.771172 0.000504
5.995571 20.771172 0.000911
6.310312 20.771172 0.001441
6.625053 20.771172 0.002501
6.939795 20.771172 0.004193
7.254536 20.771172 0.006867
7.569277 20.771172 0.011389
7.884017 20.771172 0.023831
8.198758 20.771172 0.044187
8.513499 20.771172 0.080444
8.828240 20.771172 0.135641
9.142982 20.771172 0.216277
9.457723 20.771172 0.311610
9.772464 20.771172 0.420264
10.087205 20.771172 0.543917
10.401946 20.771172 0.659050
10.716687 20.771172 0.774993
11.031426 20.771172 0.881314
11.346168 20.771172 0.960129
11.660909 20.771172 1.043812
11.975650 20.771172 1.116155
12.290391 20.771172 1.189839
12.605132 20.771172 1.261139
12.919873 20.771172 1.306051
13.234614 20.771172 1.356321
13.549356 20.771172 1.381497
13.864097 20.771172 1.359484
14.178838 20.771172 1.289707
14.493579 20.771172 1.197268
14.808320 20.771172 1.030184
15.123059 20.771172 0.855078
15.437800 20.771172 0.701190
15.752542 20.771172 0.428648
16.067284 20.771172 0.000000
16.382023 20.771172 0.000000
16.696766 20.771172 0.000000
17.011505 20.771172 0.000000
17.326248 20.771172 0.000000
17.640987 20.771172 0.000000
17.955730 20.771172 0.000000
18.270470 20.771172 0.000000
18.585213 20.771172 0.000000
18.899952 20.771172 0.000000
-7.223550 20.456430 0.000000
-6.908809 20.456430 0.001539
-6.594068 20.456430 0.001371
-6.279327 20.456430 0.001300
-5.964586 20.456430 0.001310
-5.649845 20.456430 0.001239
-5.335104 20.456430 0.001163
-5.020363 20.456430 0.001162
-4.705622 20.456430 0.001125
-4.390881 20.456430 0.001026
-4.076140 20.456430 0.001089
-3.761399 20.456430 0.001213
-3.446658 20.456430 0.001194
-3.131917 20.456430 0.001157
-2.817176 20.456430 0.001086
-2.502435 20.456430 0.001013
-2.187694 20.456430 0.000997
-1.872953 20.456430 0.000997
-1.558212 20.456430 0.001032
-1.243471 20.456430 0.001025
-0.928730 20.456430 0.000974
-0.613989 20.456430 0.000949
-0.299248 20.456430 0.000941
0.015493 20.456430 0.000901
0.330234 20.456430 0.000876
0.644975 20.456430 0.000847
0.959716 20.456430 0.000807
1.274457 20.456430 0.000850
1.589198 20.456430 0.000959
1.903938 20.456430 0.001007
2.218679 20.456430 0.000975
2.533421 20.456430 0.000826
2.848162 20.456430 0.000696
3.162903 20.456430 0.000762
3.477644 20.456430 0.000841
3.792385 20.456430 0.000869
4.107125 20.456430 0.000920
4.421866 20.456430 0.000813
4.736608 20.456430 0.000718
5.051349 20.456430 0.000599
5.366090 20.456430 0.000479
5.680831 20.456430 0.000590
5.995571 20.456430 0.001070
6.310312 20.456430 0.001589
6.625053 20.456430 0.002270
6.939795 20.456430 0.003934
7.254536 20.456430 0.006677
7.569277 20.456430 0.011813
7.884017 20.456430 0.023010
8.198758 20.456430 0.044279
8.513499 20.456430 0.080505
8.828240 20.456430 0.141867
9.142982 20.456430 0.221609
9.457723 20.456430 0.316967
9.772464 20.456430 0.422411
10.087205 20.456430 0.550255
10.401946 20.456430 0.668999
10.716687 20.456430 0.771728
11.031426 20.456430 0.887024
11.346168 20.456430 0.974707
11.660909 20.456430 1.059340
11.975650 20.456430 1.117255
12.290391 20.456430 1.187819
12.605132 20.456430 1.254753
12.919873 20.456430 1.313419
13.234614 20.456430 1.365526
13.549356 20.456430 1.393769
13.864097 20.456430 1.350214
14.178838 20.456430 1.284237
14.493579 20.456430 1.191899
14.808320 20.456430 1.035431
15.123059 20.456430 0.885379
15.437800 20.456430 0.705395
15.752542 20.456430 0.418887
16.067284 20.456430 0.000000
16.382023 20.456430 0.000000
16.696766 20.456430 0.000000
17.011505 20.456430 0.000000
17.326248 20.456430 0.000000
17.640987 20.456430 0.000000
17.955730 20.456430 0.000000
18.270470 20.456430 0.000000
18.585213 20.456430 0.000000
18.899952 20.456430 0.000000
-7.223550 20.141689 0.000000
-6.908809 20.141689 0.001499
-6.594068 20.141689 0.001332
-6.279327 20.141689 0.001272
-5.964586 20.141689 0.001247
-5.649845 20.141689 0.001194
-5.335104 20.141689 0.001153
-5.020363 20.141689 0.001110
-4.705622 20.141689 0.001059
-4.390881 20.141689 0.000994
-4.076140 20.141689 0.001058
-3.761399 20.141689 0.001182
-3.446658 20.141689 0.001166
-3.131917 20.141689 0.001111
-2.817176 20.141689 0.001063
-2.502435 20.141689 0.001000
-2.187694 20.141689 0.000935
-1.872953 20.141689 0.000880
-1.558212 20.141689 0.000924
-1.243471 20.141689 0.000999
-0.928730 20.141689 0.001007
-0.613989 20.141689 0.001004
-0.299248 20.141689 0.000988
0.015493 20.141689 0.000955
0.330234 20.141689 0.000941
0.644975 20.141689 0.000870
0.959716 20.141689 0.000750
1.274457 20.141689 0.000754
1.589198 20.141689 0.000878
1.903938 20.141689 0.000984
2.218679 20.141689 0.000974
2.533421 20.141689 0.000814
2.848162 20.141689 0.000681
3.162903 20.141689 0.000678
3.477644 20.141689 0.000745
3.792385 20.141689 0.000777
4.107125 20.141689 0.000817
4.421866 20.141689 0.000734
4.736608 20.141689 0.000621
5.051349 20.141689 0.000542
5.366090 20.141689 0.000431
5.680831 20.141689 0.000580
5.995571 20.141689 0.000889
6.310312 20.141689 0.001378
6.625053 20.141689 0.002028
6.939795 20.141689 0.003562
7.254536 20.141689 0.006528
7.569277 20.141689 0.012525
7.884017 20.141689 0.022569
8.198758 20.141689 0.043876
8.513499 20.141689 0.087619
8.828240 20.141689 0.146852
9.142982 20.141689 0.231180
9.457723 20.141689 0.324859
9.772464 20.141689 0.430542
10.087205 20.141689 0.552107
10.401946 20.141689 0.669171
10.716687 20.141689 0.780414
11.031426 20.141689 0.884406
11.346168 20.141689 0.975905
11.660909 20.141689 1.062203
11.975650 20.141689 1.126891
12.290391 20.141689 1.188157
12.605132 20.141689 1.248386
12.919873 20.141689 1.306509
13.234614 20.141689 1.370313
13.549356 20.141689 1.395281
13.864097 20.141689 1.361641
14.178838 20.141689 1.293548
14.493579 20.141689 1.179662
14.808320 20.141689 1.043609
15.123059 20.141689 0.891666
15.437800 20.141689 0.726060
15.752542 20.141689 0.415143
16.067284 20.141689 0.000000
16.382023 20.141689 0.000000
16.696766 20.141689 0.000000
17.011505 20.141689 0.000000
17.326248 20.141689 0.000000
17.640987 20.141689 0.000000
17.955730 20.141689 0.000000
18.270470 20.141689 0.000000
18.585213 20.141689 0.000000
18.899952 20.141689 0.000000
-7.223550 19.826948 0.000000
-6.908809 19.826948 0.001466
-6.594068 19.826948 0.001312
-6.279327 19.826948 0.001266
-5.964586 19.826948 0.001249
-5.649845 19.826948 0.001200
-5.335104 19.826948 0.001172
-5.020363 19.826948 0.001099
-4.705622 19.826948 0.001044
-4.390881 19.826948 0.001027
-4.076140 19.826948 0.001073
-3.761399 19.826948 0.001153
-3.446658 19.826948 0.001131
-3.131917 19.826948 0.001068
-2.817176 19.826948 0.001038
-2.502435 19.826948 0.000995
-2.187694 19.826948 0.000907
-1.872953 19.826948 0.000825
-1.558212 19.826948 0.000873
-1.243471 19.826948 0.000996
-0.928730 19.826948 0.001044
-0.613989 19.826948 0.001029
-0.299248 19.826948 0.001009
0.015493 19.826948 0.000982
0.330234 19.826948 0.000990
0.644975 19.826948 0.000911
0.959716 19.826948 0.000756
1.274457 19.826948 0.000673
1.589198 19.826948 0.000779
1.903938 19.826948 0.000931
2.218679 19.826948 0.000942
2.533421 19.826948 0.000798
2.848162 19.826948 0.000679
3.162903 19.826948 0.000632
3.477644 19.826948 0.000649
3.792385 19.826948 0.000686
4.107125 19.826948 0.000715
4.421866 19.826948 0.000634
4.736608 19.826948 0.000559
5.051349 19.826948 0.000434
5.366090 19.826948 0.000380
5.680831 19.826948 0.000515
5.995571 19.826948 0.000771
6.310312 19.826948 0.000916
6.625053 19.826948 0.001665
6.939795 19.826948 0.003646
7.254536 19.826948 0.006503
7.569277 19.826948 0.011823
7.884017 19.826948 0.022244
8.198758 19.826948 0.043443
8.513499 19.826948 0.086285
8.828240 19.826948 0.144267
9.142982 19.826948 0.227047
9.457723 19.826948 0.323433
9.772464 19.826948 0.435102
10.087205 19.826948 0.556940
10.401946 19.826948 0.677737
10.716687 19.826948 0.778663
11.031426 19.826948 0.878600
11.346168 19.826948 0.971067
11.660909 19.826948 1.056684
11.975650 19.826948 1.129679
12.290391 19.826948 1.192371
12.605132 19.826948 1.239563
12.919873 19.826948 1.304676
13.234614 19.826948 1.364352
13.549356 19.826948 1.392491
13.864097 19.826948 1.370965
14.178838 19.826948 1.295108
14.493579 19.826948 1.179334
14.808320 19.826948 1.056226
15.123059 19.826948 0.878993
15.437800 19.826948 0.729881
15.752542 19.826948 0.424430
16.067284 19.826948 0.000000
16.382023 19.826948 0.000000
16.696766 19.826948 0.000000
17.011505 19.826948 0.000000
17.326248 19.826948 0.000000
17.640987 19.826948 0.000000
17.955730 19.826948 0.000000
18.270470 19.826948 0.000000
18.585213 19.826948 0.000000
18.899952 19.826948 0.000000
-7.223550 19.512207 0.000000
-6.908809 19.512207 0.001375
-6.594068 19.512207 0.001329
-6.279327 19.512207 0.001322
-5.964586 19.512207 0.001327
-5.649845 19.512207 0.001267
-5.335104 19.512207 0.001199
-5.020363 19.512207 0.001116
-4.705622 19.512207 0.001082
-4.390881 19.512207 0.001098
-4.076140 19.512207 0.001092
-3.761399 19.512207 0.001107
-3.446658 19.512207 0.001079
-3.131917 19.512207 0.001044
-2.817176 19.512207 0.001054
-2.502435 19.512207 0.001020
-2.187694 19.512207 0.000932
-1.872953 19.512207 0.000850
-1.558212 19.512207 0.000893
-1.243471 19.512207 0.001019
-0.928730 19.512207 0.001069
-0.613989 19.512207 0.001027
-0.299248 19.512207 0.000990
0.015493 19.512207 0.000984
0.330234 19.512207 0.000996
0.644975 19.512207 0.000924
0.959716 19.512207 0.000790
1.274457 19.512207 0.000645
1.589198 19.512207 0.000697
1.903938 19.512207 0.000868
2.218679 19.512207 0.000944
2.533421 19.512207 0.000849
2.848162 19.512207 0.000721
3.162903 19.512207 0.000635
3.477644 19.512207 0.000609
3.792385 19.512207 0.000642
4.107125 19.512207 0.000659
4.421866 19.512207 0.000615
4.736608 19.512207 0.000512
5.051349 19.512207 0.000386
5.366090 19.512207 0.000266
5.680831 19.512207 0.000359
5.995571 19.512207 0.000564
6.310312 19.512207 0.000817
6.625053 19.512207 0.001754
6.939795 19.512207 0.003662
7.254536 19.512207 0.006288
7.569277 19.512207 0.012317
7.884017 19.512207 0.022244
8.198758 19.512207 0.046411
8.513499 19.512207 0.085167
8.828240 19.512207 0.148716
9.142982 19.512207 0.224553
9.457723 19.512207 0.321069
9.772464 19.512207 0.436319
10.087205 19.512207 0.556776
10.401946 19.512207 0.681501
10.716687 19.512207 0.786807
11.031426 19.512207 0.880862
11.346168 19.512207 0.972637
11.660909 19.512207 1.062677
11.975650 19.512207 1.128752
12.290391 19.512207 1.192843
12.605132 19.512207 1.244686
12.919873 19.512207 1.309950
13.234614 19.512207 1.364007
13.549356 19.512207 1.394879
13.864097 19.512207 1.363043
14.178838 19.512207 1.298276
14.493579 19.512207 1.202071
14.808320 19.512207 1.048783
15.123059 19.512207 0.871142
15.437800 19.512207 0.723334
15.752542 19.512207 0.424139
16.067284 19.512207 0.000000
16.382023 19.512207 0.000000
16.696766 19.512207 0.000000
17.011505 19.512207 0.000000
17.326248 19.512207 0.000000
17.640987 19.512207 0.000000
17.955730 19.512207 0.000000
18.270470 19.512207 0.000000
18.585213 19.512207 0.000000
18.899952 19.512207 0.000000
-7.223550 19.197468 0.000000
-6.908809 19.197468 0.001295
-6.594068 19.197468 0.001339
-6.279327 19.197468 0.001361
-5.964586 19.197468 0.001398
-5.649845 19.197468 0.001351
-5.335104 19.197468 0.001235
-5.020363 19.197468 0.001147
-4.705622 19.197468 0.001143
-4.390881 19.197468 0.001146
-4.076140 19.197468 0.001093
-3.761399 19.197468 0.001073
-3.446658 19.197468 0.001049
-3.131917 19.197468 0.001049
-2.817176 19.197468 0.001093
-2.502435 19.197468 0.001066
-2.187694 19.197468 0.000983
-1.872953 19.197468 0.000936
-1.558212 19.197468 0.000952
-1.243471 19.197468 0.001047
-0.928730 19.197468 0.001060
-0.613989 19.197468 0.000978
-0.299248 19.197468 0.000939
0.015493 19.197468 0.000953
0.330234 19.197468 0.000976
0.644975 19.197468 0.000939
0.959716 19.197468 0.000859
1.274457 19.197468 0.000677
1.589198 19.197468 0.000686
1.903938 19.197468 0.000849
2.218679 19.197468 0.000958
2.533421 19.197468 0.000908
2.848162 19.197468 0.000787
3.162903 19.197468 0.000664
3.477644 19.197468 0.000652
3.792385 19.197468 0.000684
4.107125 19.197468 0.000616
4.421866 19.197468 0.000551
4.736608 19.197468 0.000463
5.051349 19.197468 0.000454
5.366090 19.197468 0.000299
5.680831 19.197468 0.000308
5.995571 19.197468 0.000406
6.310312 19.197468 0.001051
6.625053 19.197468 0.002057
6.939795 19.197468 0.004000
7.254536 19.197468 0.006235
7.569277 19.197468 0.012008
7.884017 19.197468 0.025076
8.198758 19.197468 0.046858
8.513499 19.197468 0.086454
8.828240 19.197468 0.147326
9.142982 19.197468 0.224135
9.457723 19.197468 0.322916
9.772464 19.197468 0.441403
10.087205 19.197468 0.556513
10.401946 19.197468 0.681904
10.716687 19.197468 0.787244
11.031426 19.197468 0.885417
11.346168 19.197468 0.975954
11.660909 19.197468 1.063790
11.975650 19.197468 1.128345
12.290391 19.197468 1.184591
12.605132 19.197468 1.241767
12.919873 19.197468 1.311920
13.234614 19.197468 1.370279
13.549356 19.197468 1.399007
13.864097 19.197468 1.372383
14.178838 19.197468 1.303325
14.493579 19.197468 1.200256
14.808320 19.197468 1.041034
15.123059 19.197468 0.876491
15.437800 19.197468 0.748843
15.752542 19.197468 0.447968
16.067284 19.197468 0.000000
16.382023 19.197468 0.000000
16.696766 19.197468 0.000000
17.011505 19.197468 0.000000
17.326248 19.197468 0.000000
17.640987 19.197468 0.000000
17.955730 19.197468 0.000000
18.270470 19.197468 0.000000
18.585213 19.197468 0.000000
18.899952 19.197468 0.000000
-7.223550 18.882727 0.000000
-6.908809 18.882727 0.001265
-6.594068 18.882727 0.001359
-6.279327 18.882727 0.001397
-5.964586 18.882727 0.001448
-5.649845 18.882727 0.001406
-5.335104 18.882727 0.001253
-5.020363 18.882727 0.001196
-4.705622 18.882727 0.001195
-4.390881 18.882727 0.001186
-4.076140 18.882727 0.001099
-3.761399 18.882727 0.001096
-3.446658 18.882727 0.001094
-3.131917 18.882727 0.001121
-2.817176 18.882727 0.001149
-2.502435 18.882727 0.001094
-2.187694 18.882727 0.001044
-1.872953 18.882727 0.001024
-1.558212 18.882727 0.001023
-1.243471 18.882727 0.001052
-0.928730 18.882727 0.000991
-0.613989 18.882727 0.000895
-0.299248 18.882727 0.000855
0.015493 18.882727 0.000902
0.330234 18.882727 0.000947
0.644975 18.882727 0.000964
0.959716 18.882727 0.000944
1.274457 18.882727 0.000755
1.589198 18.882727 0.000731
1.903938 18.882727 0.000857
2.218679 18.882727 0.000982
2.533421 18.882727 0.000960
2.848162 18.882727 0.000859
3.162903 18.882727 0.000736
3.477644 18.882727 0.000709
3.792385 18.882727 0.000689
4.107125 18.882727 0.000582
4.421866 18.882727 0.000516
4.736608 18.882727 0.000510
5.051349 18.882727 0.000511
5.366090 18.882727 0.000501
5.680831 18.882727 0.000518
5.995571 18.882727 0.000727
6.310312 18.882727 0.001432
6.625053 18.882727 0.002537
6.939795 18.882727 0.004415
7.254536 18.882727 0.007526
7.569277 18.882727 0.013574
7.884017 18.882727 0.027042
8.198758 18.882727 0.048649
8.513499 18.882727 0.088012
8.828240 18.882727 0.148639
9.142982 18.882727 0.228971
9.457723 18.882727 0.330866
9.772464 18.882727 0.442768
10.087205 18.882727 0.558140
10.401946 18.882727 0.679565
10.716687 18.882727 0.791816
11.031426 18.882727 0.891594
11.346168 18.882727 0.979902
11.660909 18.882727 1.071326
11.975650 18.882727 1.137655
12.290391 18.882727 1.193617
12.605132 18.882727 1.257833
12.919873 18.882727 1.326118
13.234614 18.882727 1.395406
13.549356 18.882727 1.410778
13.864097 18.882727 1.374024
14.178838 18.882727 1.296823
14.493579 18.882727 1.191149
14.808320 18.882727 1.050649
15.123059 18.882727 0.888816
15.437800 18.882727 0.752093
15.752542 18.882727 0.433130
16.067284 18.882727 0.000000
16.382023 18.882727 0.000000
16.696766 18.882727 0.000000
17.011505 18.882727 0.000000
17.326248 18.882727 0.000000
17.640987 18.882727 0.000000
17.955730 18.882727 0.000000
18.270470 18.882727 0.000000
18.585213 18.882727 0.000000
18.899952 18.882727 0.000000
-7.223550 18.567986 0.000000
-6.908809 18.567986 0.001271
-6.594068 18.567986 0.001383
-6.279327 18.567986 0.001430
-5.964586 18.567986 0.001465
-5.649845 18.567986 0.001429
-5.335104 18.567986 0.001291
-5.020363 18.567986 0.001257
-4.705622 18.567986 0.001264
-4.390881 18.567986 0.001243
-4.076140 18.567986 0.001153
-3.761399 18.567986 0.001173
-3.446658 18.567986 0.001193
-3.131917 18.567986 0.001205
-2.817176 18.567986 0.001198
-2.502435 18.567986 0.001129
-2.187694 18.567986 0.001085
-1.872953 18.567986 0.001109
-1.558212 18.567986 0.001102
-1.243471 18.567986 0.001064
-0.928730 18.567986 0.000937
-0.613989 18.567986 0.000820
-0.299248 18.567986 0.000788
0.015493 18.567986 0.000844
0.330234 18.567986 0.000933
0.644975 18.567986 0.001002
0.959716 18.567986 0.001023
1.274457 18.567986 0.000868
1.589198 18.567986 0.000805
1.903938 18.567986 0.000877
2.218679 18.567986 0.000989
2.533421 18.567986 0.000964
2.848162 18.567986 0.000878
3.162903 18.567986 0.000791
3.477644 18.567986 0.000762
3.792385 18.567986 0.000713
4.107125 18.567986 0.000618
4.421866 18.567986 0.000590
4.736608 18.567986 0.000635
5.051349 18.567986 0.000689
5.366090 18.567986 0.000779
5.680831 18.567986 0.000846
5.995571 18.567986 0.001084
6.310312 18.567986 0.001833
6.625053 18.567986 0.002982
6.939795 18.567986 0.004482
7.254536 18.567986 0.007980
7.569277 18.567986 0.014200
7.884017 18.567986 0.026433
8.198758 18.567986 0.048432
8.513499 18.567986 0.090369
8.828240 18.567986 0.152252
9.142982 18.567986 0.233697
9.457723 18.567986 0.332097
9.772464 18.567986 0.443667
10.087205 18.567986 0.558550
10.401946 18.567986 0.681651
10.716687 18.567986 0.791364
11.031426 18.567986 0.898020
11.346168 18.567986 0.990835
11.660909 18.567986 1.075858
11.975650 18.567986 1.139580
12.290391 18.567986 1.201212
12.605132 18.567986 1.253322
12.919873 18.567986 1.331445
13.234614 18.567986 1.399832
13.549356 18.567986 1.413089
13.864097 18.567986 1.393385
14.178838 18.567986 1.311786
14.493579 18.567986 1.203273
14.808320 18.567986 1.049031
15.123059 18.567986 0.895291
15.437800 18.567986 0.756397
15.752542 18.567986 0.418801
16.067284 18.567986 0.000000
16.382023 18.567986 0.000000
16.696766 18.567986 0.000000
17.011505 18.567986 0.000000
17.326248 18.567986 0.000000
17.640987 18.567986 0.000000
17.955730 18.567986 0.000000
18.270470 18.567986 0.000000
18.585213 18.567986 0.000000
18.899952 18.567986 0.000000
-7.223550 18.253244 0.000000
-6.908809 18.253244 0.001294
-6.594068 18.253244 0.001391
-6.279327 18.253244 0.001452
-5.964586 18.253244 0.001481
-5.649845 18.253244 0.001433
-5.335104 18.253244 0.001327
-5.020363 18.253244 0.001311
-4.705622 18.253244 0.001332
-4.390881 18.253244 0.001313
-4.076140 18.253244 0.001236
-3.761399 18.253244 0.001262
-3.446658 18.253244 0.001281
-3.131917 18.253244 0.001279
-2.817176 18.253244 0.001234
-2.502435 18.253244 0.001137
-2.187694 18.253244 0.001103
-1.872953 18.253244 0.001157
-1.558212 18.253244 0.001144
-1.243471 18.253244 0.001083
-0.928730 18.253244 0.000903
-0.613989 18.253244 0.000805
-0.299248 18.253244 0.000797
0.015493 18.253244 0.000855
0.330234 18.253244 0.000966
0.644975 18.253244 0.001049
0.959716 18.253244 0.001085
1.274457 18.253244 0.000972
1.589198 18.253244 0.000866
1.903938 18.253244 0.000846
2.218679 18.253244 0.000916
2.533421 18.253244 0.000927
2.848162 18.253244 0.000859
3.162903 18.253244 0.000829
3.477644 18.253244 0.000822
3.792385 18.253244 0.000765
4.107125 18.253244 0.000685
4.421866 18.253244 0.000678
4.736608 18.253244 0.000734
5.051349 18.253244 0.000876
5.366090 18.253244 0.000992
5.680831 18.253244 0.001011
5.995571 18.253244 0.001254
6.310312 18.253244 0.002059
6.625053 18.253244 0.002985
6.939795 18.253244 0.004383
7.254536 18.253244 0.007853
7.569277 18.253244 0.013491
7.884017 18.253244 0.024498
8.198758 18.253244 0.047801
8.513499 18.253244 0.092789
8.828240 18.253244 0.156023
9.142982 18.253244 0.241746
9.457723 18.253244 0.338057
9.772464 18.253244 0.442924
10.087205 18.253244 0.555550
10.401946 18.253244 0.683160
10.716687 18.253244 0.787931
11.031426 18.253244 0.899713
11.346168 18.253244 0.995107
11.660909 18.253244 1.076195
11.975650 18.253244 1.145728
12.290391 18.253244 1.208793
12.605132 18.253244 1.258112
12.919873 18.253244 1.335732
13.234614 18.253244 1.403082
13.549356 18.253244 1.409501
13.864097 18.253244 1.390628
14.178838 18.253244 1.329625
14.493579 18.253244 1.195282
14.808320 18.253244 1.051030
15.123059 18.253244 0.902598
15.437800 18.253244 0.759392
15.752542 18.253244 0.382802
16.067284 18.253244 0.000000
16.382023 18.253244 0.000000
16.696766 18.253244 0.000000
17.011505 18.253244 0.000000
17.326248 18.253244 0.000000
17.640987 18.253244 0.000000
17.955730 18.253244 0.000000
18.270470 18.253244 0.000000
18.585213 18.253244 0.000000
18.899952 18.253244 0.000000
-7.223550 17.938503 0.000000
-6.908809 17.938503 0.001353
-6.594068 17.938503 0.001424
-6.279327 17.938503 0.001504
-5.964586 17.938503 0.001519
-5.649845 17.938503 0.001441
-5.335104 17.938503 0.001363
-5.020363 17.938503 0.001375
-4.705622 17.938503 0.001395
-4.390881 17.938503 0.001372
-4.076140 17.938503 0.001297
-3.761399 17.938503 0.001312
-3.446658 17.938503 0.001328
-3.131917 17.938503 0.001295
-2.817176 17.938503 0.001232
-2.502435 17.938503 0.001140
-2.187694 17.938503 0.001124
-1.872953 17.938503 0.001194
-1.558212 17.938503 0.001181
-1.243471 17.938503 0.001109
-0.928730 17.938503 0.000949
-0.613989 17.938503 0.000876
-0.299248 17.938503 0.000879
0.015493 17.938503 0.000929
0.330234 17.938503 0.001014
0.644975 17.938503 0.001065
0.959716 17.938503 0.001098
1.274457 17.938503 0.001021
1.589198 17.938503 0.000892
1.903938 17.938503 0.000803
2.218679 17.938503 0.000843
2.533421 17.938503 0.000863
2.848162 17.938503 0.000816
3.162903 17.938503 0.000874
3.477644 17.938503 0.000906
3.792385 17.938503 0.000848
4.107125 17.938503 0.000777
4.421866 17.938503 0.000810
4.736608 17.938503 0.000762
5.051349 17.938503 0.000907
5.366090 17.938503 0.001071
5.680831 17.938503 0.001224
5.995571 17.938503 0.001516
6.310312 17.938503 0.001993
6.625053 17.938503 0.002704
6.939795 17.938503 0.004240
7.254536 17.938503 0.007168
7.569277 17.938503 0.013331
7.884017 17.938503 0.024958
8.198758 17.938503 0.049114
8.513499 17.938503 0.095172
8.828240 17.938503 0.163442
9.142982 17.938503 0.246659
9.457723 17.938503 0.346079
9.772464 17.938503 0.450619
10.087205 17.938503 0.565898
10.401946 17.938503 0.679153
10.716687 17.938503 0.785586
11.031426 17.938503 0.885644
11.346168 17.938503 0.986976
11.660909 17.938503 1.076014
11.975650 17.938503 1.151999
12.290391 17.938503 1.205964
12.605132 17.938503 1.270538
12.919873 17.938503 1.344479
13.234614 17.938503 1.398445
13.549356 17.938503 1.413522
13.864097 17.938503 1.390003
14.178838 17.938503 1.316529
14.493579 17.938503 1.199009
14.808320 17.938503 1.036039
15.123059 17.938503 0.891101
15.437800 17.938503 0.753763
15.752542 17.938503 0.425461
16.067284 17.938503 0.000000
16.382023 17.938503 0.000000
16.696766 17.938503 0.000000
17.011505 17.938503 0.000000
17.326248 17.938503 0.000000
17.640987 17.938503 0.000000
17.955730 17.938503 0.000000
18.270470 17.938503 0.000000
18.585213 17.938503 0.000000
18.899952 17.938503 0.000000
-7.223550 17.623762 0.000000
-6.908809 17.623762 0.001433
-6.594068 17.623762 0.001488
-6.279327 17.623762 0.001564
-5.964586 17.623762 0.001546
-5.649845 17.623762 0.001437
-5.335104 17.623762 0.001372
-5.020363 17.623762 0.001393
-4.705622 17.623762 0.001421
-4.390881 17.623762 0.001407
-4.076140 17.623762 0.001337
-3.761399 17.623762 0.001326
-3.446658 17.623762 0.001334
-3.131917 17.623762 0.001270
-2.817176 17.623762 0.001208
-2.502435 17.623762 0.001155
-2.187694 17.623762 0.001169
-1.872953 17.623762 0.001205
-1.558212 17.623762 0.001174
-1.243471 17.623762 0.001125
-0.928730 17.623762 0.001036
-0.613989 17.623762 0.001011
-0.299248 17.623762 0.000993
0.015493 17.623762 0.001009
0.330234 17.623762 0.001039
0.644975 17.623762 0.001051
0.959716 17.623762 0.001068
1.274457 17.623762 0.001039
1.589198 17.623762 0.000912
1.903938 17.623762 0.000804
2.218679 17.623762 0.000820
2.533421 17.623762 0.000851
2.848162 17.623762 0.000822
3.162903 17.623762 0.000918
3.477644 17.623762 0.000985
3.792385 17.623762 0.000897
4.107125 17.623762 0.000852
4.421866 17.623762 0.000857
4.736608 17.623762 0.000826
5.051349 17.623762 0.000888
5.366090 17.623762 0.001019
5.680831 17.623762 0.001258
5.995571 17.623762 0.001558
6.310312 17.623762 0.002034
6.625053 17.623762 0.002918
6.939795 17.623762 0.004347
7.254536 17.623762 0.006655
7.569277 17.623762 0.013762
7.884017 17.623762 0.025648
8.198758 17.623762 0.051154
8.513499 17.623762 0.094145
8.828240 17.623762 0.162483
9.142982 17.623762 0.242281
9.457723 17.623762 0.350133
9.772464 17.623762 0.460763
10.087205 17.623762 0.582481
10.401946 17.623762 0.694655
10.716687 17.623762 0.794063
11.031426 17.623762 0.888453
11.346168 17.623762 0.994763
11.660909 17.623762 1.076266
11.975650 17.623762 1.154115
12.290391 17.623762 1.211363
12.605132 17.623762 1.274587
12.919873 17.623762 1.350553
13.234614 17.623762 1.401280
13.549356 17.623762 1.418946
13.864097 17.623762 1.398797
14.178838 17.623762 1.319901
14.493579 17.623762 1.203640
14.808320 17.623762 1.050840
15.123059 17.623762 0.887580
15.437800 17.623762 0.756817
15.752542 17.623762 0.415758
16.067284 17.623762 0.000000
16.382023 17.623762 0.000000
16.696766 17.623762 0.000000
17.011505 17.623762 0.000000
17.326248 17.623762 0.000000
17.640987 17.623762 0.000000
17.955730 17.623762 0.000000
18.270470 17.623762 0.000000
18.585213 17.623762 0.000000
18.899952 17.623762 0.000000
-7.223550 17.309021 0.000000
-6.908809 17.309021 0.001497
-6.594068 17.309021 0.001541
-6.279327 17.309021 0.001595
-5.964586 17.309021 0.001548
-5.649845 17.309021 0.001422
-5.335104 17.309021 0.001387
-5.020363 17.309021 0.001401
-4.705622 17.309021 0.001417
-4.390881 17.309021 0.001412
-4.076140 17.309021 0.001379
-3.761399 17.309021 0.001348
-3.446658 17.309021 0.001307
-3.131917 17.309021 0.001229
-2.817176 17.309021 0.001202
-2.502435 17.309021 0.001196
-2.187694 17.309021 0.001239
-1.872953 17.309021 0.001252
-1.558212 17.309021 0.001201
-1.243471 17.309021 0.001125
-0.928730 17.309021 0.001131
-0.613989 17.309021 0.001126
-0.299248 17.309021 0.001098
0.015493 17.309021 0.001068
0.330234 17.309021 0.001031
0.644975 17.309021 0.000995
0.959716 17.309021 0.001029
1.274457 17.309021 0.001034
1.589198 17.309021 0.000955
1.903938 17.309021 0.000872
2.218679 17.309021 0.000889
2.533421 17.309021 0.000869
2.848162 17.309021 0.000829
3.162903 17.309021 0.000945
3.477644 17.309021 0.001016
3.792385 17.309021 0.000946
4.107125 17.309021 0.000948
4.421866 17.309021 0.000952
4.736608 17.309021 0.000793
5.051349 17.309021 0.000688
5.366090 17.309021 0.000889
5.680831 17.309021 0.001143
5.995571 17.309021 0.001511
6.310312 17.309021 0.001947
6.625053 17.309021 0.003148
6.939795 17.309021 0.004342
7.254536 17.309021 0.007627
7.569277 17.309021 0.013501
7.884017 17.309021 0.026691
8.198758 17.309021 0.052535
8.513499 17.309021 0.094475
8.828240 17.309021 0.157352
9.142982 17.309021 0.244906
9.457723 17.309021 0.353739
9.772464 17.309021 0.469345
10.087205 17.309021 0.587232
10.401946 17.309021 0.702221
10.716687 17.309021 0.803991
11.031426 17.309021 0.899370
11.346168 17.309021 0.992576
11.660909 17.309021 1.080779
11.975650 17.309021 1.154877
12.290391 17.309021 1.211545
12.605132 17.309021 1.272775
12.919873 17.309021 1.359988
13.234614 17.309021 1.406160
13.549356 17.309021 1.408178
13.864097 17.309021 1.392574
14.178838 17.309021 1.329003
14.493579 17.309021 1.196326
14.808320 17.309021 1.065424
15.123059 17.309021 0.901656
15.437800 17.309021 0.783952
15.752542 17.309021 0.378870
16.067284 17.309021 0.000000
16.382023 17.309021 0.000000
16.696766 17.309021 0.000000
17.011505 17.309021 0.000000
17.326248 17.309021 0.000000
17.640987 17.309021 0.000000
17.955730 17.309021 0.000000
18.270470 17.309021 0.000000
18.585213 17.309021 0.000000
18.899952 17.309021 0.000000
-7.223550 16.994282 0.000000
-6.908809 16.994282 0.001536
-6.594068 16.994282 0.001553
-6.279327 16.994282 0.001559
-5.964586 16.994282 0.001494
-5.649845 16.994282 0.001398
-5.335104 16.994282 0.001403
-5.020363 16.994282 0.001421
-4.705622 16.994282 0.001405
-4.390881 16.994282 0.001413
-4.076140 16.994282 0.001437
-3.761399 16.994282 0.001381
-3.446658 16.994282 0.001296
-3.131917 16.994282 0.001186
-2.817176 16.994282 0.001215
-2.502435 16.994282 0.001255
-2.187694 16.994282 0.001305
-1.872953 16.994282 0.001311
-1.558212 16.994282 0.001244
-1.243471 16.994282 0.001152
-0.928730 16.994282 0.001195
-0.613989 16.994282 0.001230
-0.299248 16.994282 0.001183
0.015493 16.994282 0.001115
0.330234 16.994282 0.001030
0.644975 16.994282 0.000968
0.959716 16.994282 0.001000
1.274457 16.994282 0.001026
1.589198 16.994282 0.001018
1.903938 16.994282 0.000994
2.218679 16.994282 0.000989
2.533421 16.994282 0.000939
2.848162 16.994282 0.000884
3.162903 16.994282 0.000965
3.477644 16.994282 0.000985
3.792385 16.994282 0.000933
4.107125 16.994282 0.000951
4.421866 16.994282 0.000931
4.736608 16.994282 0.000811
5.051349 16.994282 0.000734
5.366090 16.994282 0.000838
5.680831 16.994282 0.001003
5.995571 16.994282 0.001460
6.310312 16.994282 0.001889
6.625053 16.994282 0.002943
6.939795 16.994282 0.004620
7.254536 16.994282 0.007831
7.569277 16.994282 0.013544
7.884017 16.994282 0.030423
8.198758 16.994282 0.053104
8.513499 16.994282 0.099548
8.828240 16.994282 0.160026
9.142982 16.994282 0.247668
9.457723 16.994282 0.353806
9.772464 16.994282 0.464845
10.087205 16.994282 0.585513
10.401946 16.994282 0.699851
10.716687 16.994282 0.803220
11.031426 16.994282 0.895247
11.346168 16.994282 0.992701
11.660909 16.994282 1.079692
11.975650 16.994282 1.153987
12.290391 16.994282 1.215324
12.605132 16.994282 1.278666
12.919873 16.994282 1.361363
13.234614 16.994282 1.398879
13.549356 16.994282 1.401901
13.864097 16.994282 1.394075
14.178838 16.994282 1.321206
14.493579 16.994282 1.208182
14.808320 16.994282 1.081565
15.123059 16.994282 0.894903
15.437800 16.994282 0.778911
15.752542 16.994282 0.559455
16.067284 16.994282 0.000000
16.382023 16.994282 0.000000
16.696766 16.994282 0.000000
17.011505 16.994282 0.000000
17.326248 16.994282 0.000000
17.640987 16.994282 0.000000
17.955730 16.994282 0.000000
18.270470 16.994282 0.000000
18.585213 16.994282 0.000000
18.899952 16.994282 0.000000
-7.223550 16.679539 0.000000
-6.908809 16.679539 0.001522
-6.594068 16.679539 0.001534
-6.279327 16.679539 0.001500
-5.964586 16.679539 0.001433
-5.649845 16.679539 0.001410
-5.335104 16.679539 0.001440
-5.020363 16.679539 0.001448
-4.705622 16.679539 0.001404
-4.390881 16.679539 0.001419
-4.076140 16.679539 0.001475
-3.761399 16.679539 0.001407
-3.446658 16.679539 0.001294
-3.131917 16.679539 0.001206
-2.817176 16.679539 0.001257
-2.502435 16.679539 0.001294
-2.187694 16.679539 0.001340
-1.872953 16.679539 0.001325
-1.558212 16.679539 0.001240
-1.243471 16.679539 0.001164
-0.928730 16.679539 0.001236
-0.613989 16.679539 0.001291
-0.299248 16.679539 0.001233
0.015493 16.679539 0.001137
0.330234 16.679539 0.001045
0.644975 16.679539 0.000967
0.959716 16.679539 0.000986
1.274457 16.679539 0.001027
1.589198 16.679539 0.001081
1.903938 16.679539 0.001100
2.218679 16.679539 0.001053
2.533421 16.679539 0.000984
2.848162 16.679539 0.000933
3.162903 16.679539 0.000971
3.477644 16.679539 0.000950
3.792385 16.679539 0.000886
4.107125 16.679539 0.000898
4.421866 16.679539 0.000916
4.736608 16.679539 0.000799
5.051349 16.679539 0.000691
5.366090 16.679539 0.000873
5.680831 16.679539 0.000919
5.995571 16.679539 0.001234
6.310312 16.679539 0.001916
6.625053 16.679539 0.002882
6.939795 16.679539 0.004614
7.254536 16.679539 0.008508
7.569277 16.679539 0.015170
7.884017 16.679539 0.028026
8.198758 16.679539 0.054182
8.513499 16.679539 0.100850
8.828240 16.679539 0.164394
9.142982 16.679539 0.249328
9.457723 16.679539 0.359422
9.772464 16.679539 0.467998
10.087205 16.679539 0.586647
10.401946 16.679539 0.696488
10.716687 16.679539 0.799323
11.031426 16.679539 0.885907
11.346168 16.679539 0.986938
11.660909 16.679539 1.069559
11.975650 16.679539 1.142588
12.290391 16.679539 1.208803
12.605132 16.679539 1.280150
12.919873 16.679539 1.362095
13.234614 16.679539 1.391929
13.549356 16.679539 1.399505
13.864097 16.679539 1.390344
14.178838 16.679539 1.323523
14.493579 16.679539 1.212620
14.808320 16.679539 1.069687
15.123059 16.679539 0.909150
15.437800 16.679539 0.782247
15.752542 16.679539 0.573883
16.067284 16.679539 0.000000
16.382023 16.679539 0.000000
16.696766 16.679539 0.000000
17.011505 16.679539 0.000000
17.326248 16.679539 0.000000
17.640987 16.679539 0.000000
17.955730 16.679539 0.000000
18.270470 16.679539 0.000000
18.585213 16.679539 0.000000
18.899952 16.679539 0.000000
-7.223550 16.364799 0.000000
-6.908809 16.364799 0.001484
-6.594068 16.364799 0.001484
-6.279327 16.364799 0.001457
-5.964586 16.364799 0.001421
-5.649845 16.364799 0.001460
-5.335104 16.364799 0.001502
-5.020363 16.364799 0.001480
-4.705622 16.364799 0.001418
-4.390881 16.364799 0.001442
-4.076140 16.364799 0.001489
-3.761399 16.364799 0.001424
-3.446658 16.364799 0.001304
-3.131917 16.364799 0.001234
-2.817176 16.364799 0.001294
-2.502435 16.364799 0.001326
-2.187694 16.364799 0.001335
-1.872953 16.364799 0.001300
-1.558212 16.364799 0.001223
-1.243471 16.364799 0.001174
-0.928730 16.364799 0.001260
-0.613989 16.364799 0.001324
-0.299248 16.364799 0.001258
0.015493 16.364799 0.001175
0.330234 16.364799 0.001089
0.644975 16.364799 0.001003
0.959716 16.364799 0.000982
1.274457 16.364799 0.001019
1.589198 16.364799 0.001112
1.903938 16.364799 0.001168
2.218679 16.364799 0.001110
2.533421 16.364799 0.001015
2.848162 16.364799 0.000957
3.162903 16.364799 0.000946
3.477644 16.364799 0.000889
3.792385 16.364799 0.000827
4.107125 16.364799 0.000882
4.421866 16.364799 0.000848
4.736608 16.364799 0.000678
5.051349 16.364799 0.000573
5.366090 16.364799 0.000764
5.680831 16.364799 0.000859
5.995571 16.364799 0.001216
6.310312 16.364799 0.001456
6.625053 16.364799 0.002562
6.939795 16.364799 0.004849
7.254536 16.364799 0.008287
7.569277 16.364799 0.014433
7.884017 16.364799 0.028322
8.198758 16.364799 0.054560
8.513499 16.364799 0.103780
8.828240 16.364799 0.167014
9.142982 16.364799 0.252723
9.457723 16.364799 0.351936
9.772464 16.364799 0.470595
10.087205 16.364799 0.585900
10.401946 16.364799 0.696383
10.716687 16.364799 0.805054
11.031426 16.364799 0.887680
11.346168 16.364799 0.985503
11.660909 16.364799 1.073600
11.975650 16.364799 1.137825
12.290391 16.364799 1.220464
12.605132 16.364799 1.287901
12.919873 16.364799 1.358922
13.234614 16.364799 1.397094
13.549356 16.364799 1.390857
13.864097 16.364799 1.380575
14.178838 16.364799 1.318630
14.493579 16.364799 1.217941
14.808320 16.364799 1.084668
15.123059 16.364799 0.927869
15.437800 16.364799 0.809584
15.752542 16.364799 0.575552
16.067284 16.364799 0.000000
16.382023 16.364799 0.000000
16.696766 16.364799 0.000000
17.011505 16.364799 0.000000
17.326248 16.364799 0.000000
17.640987 16.364799 0.000000
17.955730 16.364799 0.000000
18.270470 16.364799 0.000000
18.585213 16.364799 0.000000
18.899952 16.364799 0.000000
-7.223550 16.050056 0.000000
-6.908809 16.050056 0.001459
-6.594068 16.050056 0.001434
-6.279327 16.050056 0.001436
-5.964586 16.050056 0.001467
-5.649845 16.050056 0.001522
-5.335104 16.050056 0.001557
-5.020363 16.050056 0.001509
-4.705622 16.050056 0.001442
-4.390881 16.050056 0.001444
-4.076140 16.050056 0.001474
-3.761399 16.050056 0.001416
-3.446658 16.050056 0.001306
-3.131917 16.050056 0.001254
-2.817176 16.050056 0.001316
-2.502435 16.050056 0.001339
-2.187694 16.050056 0.001299
-1.872953 16.050056 0.001253
-1.558212 16.050056 0.001215
-1.243471 16.050056 0.001202
-0.928730 16.050056 0.001279
-0.613989 16.050056 0.001312
-0.299248 16.050056 0.001256
0.015493 16.050056 0.001199
0.330234 16.050056 0.001123
0.644975 16.050056 0.001024
0.959716 16.050056 0.000974
1.274457 16.050056 0.000989
1.589198 16.050056 0.001105
1.903938 16.050056 0.001202
2.218679 16.050056 0.001138
2.533421 16.050056 0.001045
2.848162 16.050056 0.000983
3.162903 16.050056 0.000919
3.477644 16.050056 0.000858
3.792385 16.050056 0.000834
4.107125 16.050056 0.000891
4.421866 16.050056 0.000826
4.736608 16.050056 0.000618
5.051349 16.050056 0.000630
5.366090 16.050056 0.000724
5.680831 16.050056 0.000815
5.995571 16.050056 0.001111
6.310312 16.050056 0.001507
6.625053 16.050056 0.002481
6.939795 16.050056 0.004176
7.254536 16.050056 0.007425
7.569277 16.050056 0.014318
7.884017 16.050056 0.028199
8.198758 16.050056 0.057573
8.513499 16.050056 0.101609
8.828240 16.050056 0.169257
9.142982 16.050056 0.255238
9.457723 16.050056 0.358630
9.772464 16.050056 0.475371
10.087205 16.050056 0.589073
10.401946 16.050056 0.696200
10.716687 16.050056 0.802184
11.031426 16.050056 0.901716
11.346168 16.050056 0.983237
11.660909 16.050056 1.061122
11.975650 16.050056 1.147070
12.290391 16.050056 1.218243
12.605132 16.050056 1.285835
12.919873 16.050056 1.356999
13.234614 16.050056 1.393153
13.549356 16.050056 1.392629
13.864097 16.050056 1.385480
14.178838 16.050056 1.315055
14.493579 16.050056 1.229557
14.808320 16.050056 1.095618
15.123059 16.050056 0.948666
15.437800 16.050056 0.810754
15.752542 16.050056 0.561133
16.067284 16.050056 0.000000
16.382023 16.050056 0.000000
16.696766 16.050056 0.000000
17.011505 16.050056 0.000000
17.326248 16.050056 0.000000
17.640987 16.050056 0.000000
17.955730 16.050056 0.000000
18.270470 16.050056 0.000000
18.585213 16.050056 0.000000
18.899952 16.050056 0.000000
-7.223550 15.735317 0.000000
-6.908809 15.735317 0.001508
-6.594068 15.735317 0.001413
-6.279327 15.735317 0.001454
-5.964586 15.735317 0.001535
-5.649845 15.735317 0.001588
-5.335104 15.735317 0.001608
-5.020363 15.735317 0.001512
-4.705622 15.735317 0.001433
-4.390881 15.735317 0.001424
-4.076140 15.735317 0.001433
-3.761399 15.735317 0.001393
-3.446658 15.735317 0.001301
-3.131917 15.735317 0.001258
-2.817176 15.735317 0.001318
-2.502435 15.735317 0.001332
-2.187694 15.735317 0.001278
-1.872953 15.735317 0.001236
-1.558212 15.735317 0.001241
-1.243471 15.735317 0.001258
-0.928730 15.735317 0.001291
-0.613989 15.735317 0.001267
-0.299248 15.735317 0.001218
0.015493 15.735317 0.001196
0.330234 15.735317 0.001128
0.644975 15.735317 0.001036
0.959716 15.735317 0.000964
1.274457 15.735317 0.000969
1.589198 15.735317 0.001096
1.903938 15.735317 0.001183
2.218679 15.735317 0.001154
2.533421 15.735317 0.001070
2.848162 15.735317 0.000995
3.162903 15.735317 0.000905
3.477644 15.735317 0.000825
3.792385 15.735317 0.000832
4.107125 15.735317 0.000896
4.421866 15.735317 0.000801
4.736608 15.735317 0.000626
5.051349 15.735317 0.000620
5.366090 15.735317 0.000673
5.680831 15.735317 0.000786
5.995571 15.735317 0.001121
6.310312 15.735317 0.001798
6.625053 15.735317 0.002703
6.939795 15.735317 0.004518
7.254536 15.735317 0.007100
7.569277 15.735317 0.014929
7.884017 15.735317 0.029455
8.198758 15.735317 0.055419
8.513499 15.735317 0.104845
8.828240 15.735317 0.174180
9.142982 15.735317 0.260777
9.457723 15.735317 0.361986
9.772464 15.735317 0.481958
10.087205 15.735317 0.595134
10.401946 15.735317 0.710269
10.716687 15.735317 0.809245
11.031426 15.735317 0.911977
11.346168 15.735317 0.987407
11.660909 15.735317 1.062888
11.975650 15.735317 1.142452
12.290391 15.735317 1.217706
12.605132 15.735317 1.284473
12.919873 15.735317 1.355215
13.234614 15.735317 1.381702
13.549356 15.735317 1.391751
13.864097 15.735317 1.373526
14.178838 15.735317 1.327574
14.493579 15.735317 1.219413
14.808320 15.735317 1.108820
15.123059 15.735317 0.965673
15.437800 15.735317 0.825528
15.752542 15.735317 0.534040
16.067284 15.735317 0.000000
16.382023 15.735317 0.000000
16.696766 15.735317 0.000000
17.011505 15.735317 0.000000
17.326248 15.735317 0.000000
17.640987 15.735317 0.000000
17.955730 15.735317 0.000000
18.270470 15.735317 0.000000
18.585213 15.735317 0.000000
18.899952 15.735317 0.000000
-7.223550 15.420574 0.000000
-6.908809 15.420574 0.001582
-6.594068 15.420574 0.001450
-6.279327 15.420574 0.001475
-5.964586 15.420574 0.001575
-5.649845 15.420574 0.001621
-5.335104 15.420574 0.001646
-5.020363 15.420574 0.001508
-4.705622 15.420574 0.001413
-4.390881 15.420574 0.001388
-4.076140 15.420574 0.001379
-3.761399 15.420574 0.001353
-3.446658 15.420574 0.001288
-3.131917 15.420574 0.001271
-2.817176 15.420574 0.001323
-2.502435 15.420574 0.001337
-2.187694 15.420574 0.001292
-1.872953 15.420574 0.001267
-1.558212 15.420574 0.001312
-1.243471 15.420574 0.001336
-0.928730 15.420574 0.001290
-0.613989 15.420574 0.001196
-0.299248 15.420574 0.001147
0.015493 15.420574 0.001151
0.330234 15.420574 0.001105
0.644975 15.420574 0.001036
0.959716 15.420574 0.000968
1.274457 15.420574 0.000968
1.589198 15.420574 0.001078
1.903938 15.420574 0.001127
2.218679 15.420574 0.001142
2.533421 15.420574 0.001090
2.848162 15.420574 0.000994
3.162903 15.420574 0.000894
3.477644 15.420574 0.000801
3.792385 15.420574 0.000819
4.107125 15.420574 0.000822
4.421866 15.420574 0.000758
4.736608 15.420574 0.000688
5.051349 15.420574 0.000595
5.366090 15.420574 0.000667
5.680831 15.420574 0.000859
5.995571 15.420574 0.001265
6.310312 15.420574 0.002052
6.625053 15.420574 0.003364
6.939795 15.420574 0.005114
7.254536 15.420574 0.007908
7.569277 15.420574 0.015117
7.884017 15.420574 0.031921
8.198758 15.420574 0.058169
8.513499 15.420574 0.109513
8.828240 15.420574 0.176654
9.142982 15.420574 0.270321
9.457723 15.420574 0.375566
9.772464 15.420574 0.488119
10.087205 15.420574 0.608178
10.401946 15.420574 0.724872
10.716687 15.420574 0.820301
11.031426 15.420574 0.925677
11.346168 15.420574 1.000207
11.660909 15.420574 1.059835
11.975650 15.420574 1.142716
12.290391 15.420574 1.214681
12.605132 15.420574 1.293563
12.919873 15.420574 1.352928
13.234614 15.420574 1.381252
13.549356 15.420574 1.402048
13.864097 15.420574 1.393885
14.178838 15.420574 1.316324
14.493579 15.420574 1.238749
14.808320 15.420574 1.131904
15.123059 15.420574 0.993610
15.437800 15.420574 0.838844
15.752542 15.420574 0.543049
16.067284 15.420574 0.000000
16.382023 15.420574 0.000000
16.696766 15.420574 0.000000
17.011505 15.420574 0.000000
17.326248 15.420574 0.000000
17.640987 15.420574 0.000000
17.955730 15.420574 0.000000
18.270470 15.420574 0.000000
18.585213 15.420574 0.000000
18.899952 15.420574 0.000000
-7.223550 15.105835 0.000000
-6.908809 15.105835 0.001715
-6.594068 15.105835 0.001520
-6.279327 15.105835 0.001470
-5.964586 15.105835 0.001565
-5.649845 15.105835 0.001650
-5.335104 15.105835 0.001640
-5.020363 15.105835 0.001502
-4.705622 15.105835 0.001418
-4.390881 15.105835 0.001395
-4.076140 15.105835 0.001370
-3.761399 15.105835 0.001355
-3.446658 15.105835 0.001309
-3.131917 15.105835 0.001318
-2.817176 15.105835 0.001346
-2.502435 15.105835 0.001356
-2.187694 15.105835 0.001312
-1.872953 15.105835 0.001309
-1.558212 15.105835 0.001409
-1.243471 15.105835 0.001416
-0.928730 15.105835 0.001286
-0.613989 15.105835 0.001116
-0.299248 15.105835 0.001068
0.015493 15.105835 0.001082
0.330234 15.105835 0.001073
0.644975 15.105835 0.001048
0.959716 15.105835 0.001012
1.274457 15.105835 0.001007
1.589198 15.105835 0.001066
1.903938 15.105835 0.001085
2.218679 15.105835 0.001119
2.533421 15.105835 0.001084
2.848162 15.105835 0.000972
3.162903 15.105835 0.000910
3.477644 15.105835 0.000831
3.792385 15.105835 0.000791
4.107125 15.105835 0.000751
4.421866 15.105835 0.000749
4.736608 15.105835 0.000809
5.051349 15.105835 0.000840
5.366090 15.105835 0.000868
5.680831 15.105835 0.001046
5.995571 15.105835 0.001507
6.310312 15.105835 0.002084
6.625053 15.105835 0.003191
6.939795 15.105835 0.005599
7.254536 15.105835 0.009104
7.569277 15.105835 0.016818
7.884017 15.105835 0.031507
8.198758 15.105835 0.062157
8.513499 15.105835 0.113272
8.828240 15.105835 0.183472
9.142982 15.105835 0.271931
9.457723 15.105835 0.379456
9.772464 15.105835 0.493241
10.087205 15.105835 0.610578
10.401946 15.105835 0.727852
10.716687 15.105835 0.829368
11.031426 15.105835 0.925144
11.346168 15.105835 1.007230
11.660909 15.105835 1.074655
11.975650 15.105835 1.151430
12.290391 15.105835 1.212001
12.605132 15.105835 1.267825
12.919873 15.105835 1.336448
13.234614 15.105835 1.369111
13.549356 15.105835 1.405623
13.864097 15.105835 1.391616
14.178838 15.105835 1.349574
14.493579 15.105835 1.266853
14.808320 15.105835 1.142004
15.123059 15.105835 0.981974
15.437800 15.105835 0.860896
15.752542 15.105835 0.521086
16.067284 15.105835 0.000000
16.382023 15.105835 0.000000
16.696766 15.105835 0.000000
17.011505 15.105835 0.000000
17.326248 15.105835 0.000000
17.640987 15.105835 0.000000
17.955730 15.105835 0.000000
18.270470 15.105835 0.000000
18.585213 15.105835 0.000000
18.899952 15.105835 0.000000
-7.223550 14.791092 0.000000
-6.908809 14.791092 0.001851
-6.594068 14.791092 0.001568
-6.279327 14.791092 0.001472
-5.964586 14.791092 0.001542
-5.649845 14.791092 0.001621
-5.335104 14.791092 0.001601
-5.020363 14.791092 0.001480
-4.705622 14.791092 0.001465
-4.390881 14.791092 0.001442
-4.076140 14.791092 0.001415
-3.761399 14.791092 0.001406
-3.446658 14.791092 0.001379
-3.131917 14.791092 0.001389
-2.817176 14.791092 0.001391
-2.502435 14.791092 0.001377
-2.187694 14.791092 0.001364
-1.872953 14.791092 0.001342
-1.558212 14.791092 0.001473
-1.243471 14.791092 0.001449
-0.928730 14.791092 0.001270
-0.613989 14.791092 0.001057
-0.299248 14.791092 0.001012
0.015493 14.791092 0.001058
0.330234 14.791092 0.001089
0.644975 14.791092 0.001113
0.959716 14.791092 0.001107
1.274457 14.791092 0.001074
1.589198 14.791092 0.001080
1.903938 14.791092 0.001065
2.218679 14.791092 0.001109
2.533421 14.791092 0.001075
2.848162 14.791092 0.000977
3.162903 14.791092 0.000937
3.477644 14.791092 0.000848
3.792385 14.791092 0.000782
4.107125 14.791092 0.000760
4.421866 14.791092 0.000754
4.736608 14.791092 0.000822
5.051349 14.791092 0.000948
5.366090 14.791092 0.001000
5.680831 14.791092 0.001235
5.995571 14.791092 0.001505
6.310312 14.791092 0.002008
6.625053 14.791092 0.003034
6.939795 14.791092 0.005599
7.254536 14.791092 0.010185
7.569277 14.791092 0.017528
7.884017 14.791092 0.032149
8.198758 14.791092 0.061381
8.513499 14.791092 0.115950
8.828240 14.791092 0.184938
9.142982 14.791092 0.275561
9.457723 14.791092 0.385036
9.772464 14.791092 0.497869
10.087205 14.791092 0.623464
10.401946 14.791092 0.734787
10.716687 14.791092 0.831172
11.031426 14.791092 0.924036
11.346168 14.791092 1.014902
11.660909 14.791092 1.086562
11.975650 14.791092 1.149158
12.290391 14.791092 1.210967
12.605132 14.791092 1.273396
12.919873 14.791092 1.338811
13.234614 14.791092 1.364100
13.549356 14.791092 1.398465
13.864097 14.791092 1.379454
14.178838 14.791092 1.358105
14.493579 14.791092 1.267404
14.808320 14.791092 1.157641
15.123059 14.791092 0.997481
15.437800 14.791092 0.858301
15.752542 14.791092 0.504906
16.067284 14.791092 0.000000
16.382023 14.791092 0.000000
16.696766 14.791092 0.000000
17.011505 14.791092 0.000000
17.326248 14.791092 0.000000
17.640987 14.791092 0.000000
17.955730 14.791092 0.000000
18.270470 14.791092 0.000000
18.585213 14.791092 0.000000
18.899952 14.791092 0.000000
-7.223550 14.476353 0.000000
-6.908809 14.476353 0.001925
-6.594068 14.476353 0.001614
-6.279327 14.476353 0.001504
-5.964586 14.476353 0.001545
-5.649845 14.476353 0.001589
-5.335104 14.476353 0.001554
-5.020363 14.476353 0.001497
-4.705622 14.476353 0.001529
-4.390881 14.476353 0.001511
-4.076140 14.476353 0.001463
-3.761399 14.476353 0.001489
-3.446658 14.476353 0.001479
-3.131917 14.476353 0.001466
-2.817176 14.476353 0.001453
-2.502435 14.476353 0.001420
-2.187694 14.476353 0.001406
-1.872953 14.476353 0.001387
-1.558212 14.476353 0.001477
-1.243471 14.476353 0.001437
-0.928730 14.476353 0.001252
-0.613989 14.476353 0.001050
-0.299248 14.476353 0.001017
0.015493 14.476353 0.001084
0.330234 14.476353 0.001133
0.644975 14.476353 0.001200
0.959716 14.476353 0.001216
1.274457 14.476353 0.001143
1.589198 14.476353 0.001084
1.903938 14.476353 0.001052
2.218679 14.476353 0.001092
2.533421 14.476353 0.001091
2.848162 14.476353 0.001031
3.162903 14.476353 0.001008
3.477644 14.476353 0.000884
3.792385 14.476353 0.000800
4.107125 14.476353 0.000765
4.421866 14.476353 0.000822
4.736608 14.476353 0.000925
5.051349 14.476353 0.001028
5.366090 14.476353 0.001151
5.680831 14.476353 0.001298
5.995571 14.476353 0.001539
6.310312 14.476353 0.001789
6.625053 14.476353 0.002905
6.939795 14.476353 0.005030
7.254536 14.476353 0.009702
7.569277 14.476353 0.016804
7.884017 14.476353 0.032787
8.198758 14.476353 0.060737
8.513499 14.476353 0.115235
8.828240 14.476353 0.187089
9.142982 14.476353 0.281999
9.457723 14.476353 0.385694
9.772464 14.476353 0.504673
10.087205 14.476353 0.627637
10.401946 14.476353 0.738177
10.716687 14.476353 0.833380
11.031426 14.476353 0.926228
11.346168 14.476353 1.013135
11.660909 14.476353 1.079036
11.975650 14.476353 1.146916
12.290391 14.476353 1.201782
12.605132 14.476353 1.275862
12.919873 14.476353 1.325786
13.234614 14.476353 1.363021
13.549356 14.476353 1.386633
13.864097 14.476353 1.387279
14.178838 14.476353 1.375311
14.493579 14.476353 1.293404
14.808320 14.476353 1.171160
15.123059 14.476353 1.007619
15.437800 14.476353 0.882055
15.752542 14.476353 0.467346
16.067284 14.476353 0.000000
16.382023 14.476353 0.000000
16.696766 14.476353 0.000000
17.011505 14.476353 0.000000
17.326248 14.476353 0.000000
17.640987 14.476353 0.000000
17.955730 14.476353 0.000000
18.270470 14.476353 0.000000
18.585213 14.476353 0.000000
18.899952 14.476353 0.000000
-7.223550 14.161610 0.000000
-6.908809 14.161610 0.001898
-6.594068 14.161610 0.001679
-6.279327 14.161610 0.001593
-5.964586 14.161610 0.001622
-5.649845 14.161610 0.001598
-5.335104 14.161610 0.001537
-5.020363 14.161610 0.001547
-4.705622 14.161610 0.001600
-4.390881 14.161610 0.001565
-4.076140 14.161610 0.001512
-3.761399 14.161610 0.001554
-3.446658 14.161610 0.001558
-3.131917 14.161610 0.001526
-2.817176 14.161610 0.001516
-2.502435 14.161610 0.001453
-2.187694 14.161610 0.001430
-1.872953 14.161610 0.001406
-1.558212 14.161610 0.001443
-1.243471 14.161610 0.001388
-0.928730 14.161610 0.001252
-0.613989 14.161610 0.001088
-0.299248 14.161610 0.001087
0.015493 14.161610 0.001173
0.330234 14.161610 0.001198
0.644975 14.161610 0.001273
0.959716 14.161610 0.001318
1.274457 14.161610 0.001211
1.589198 14.161610 0.001090
1.903938 14.161610 0.001039
2.218679 14.161610 0.001097
2.533421 14.161610 0.001106
2.848162 14.161610 0.001134
3.162903 14.161610 0.001128
3.477644 14.161610 0.000954
3.792385 14.161610 0.000848
4.107125 14.161610 0.000870
4.421866 14.161610 0.000945
4.736608 14.161610 0.001011
5.051349 14.161610 0.001068
5.366090 14.161610 0.001193
5.680831 14.161610 0.001138
5.995571 14.161610 0.001455
6.310312 14.161610 0.001798
6.625053 14.161610 0.002706
6.939795 14.161610 0.004907
7.254536 14.161610 0.009188
7.569277 14.161610 0.017766
7.884017 14.161610 0.031705
8.198758 14.161610 0.061468
8.513499 14.161610 0.114199
8.828240 14.161610 0.193848
9.142982 14.161610 0.285384
9.457723 14.161610 0.390508
9.772464 14.161610 0.507347
10.087205 14.161610 0.628360
10.401946 14.161610 0.740942
10.716687 14.161610 0.839428
11.031426 14.161610 0.932120
11.346168 14.161610 1.018118
11.660909 14.161610 1.087843
11.975650 14.161610 1.143912
12.290391 14.161610 1.211274
12.605132 14.161610 1.270484
12.919873 14.161610 1.336154
13.234614 14.161610 1.384741
13.549356 14.161610 1.394248
13.864097 14.161610 1.399687
14.178838 14.161610 1.375471
14.493579 14.161610 1.319005
14.808320 14.161610 1.196833
15.123059 14.161610 1.032940
15.437800 14.161610 0.887982
15.752542 14.161610 0.479697
16.067284 14.161610 0.000000
16.382023 14.161610 0.000000
16.696766 14.161610 0.000000
17.011505 14.161610 0.000000
17.326248 14.161610 0.000000
17.640987 14.161610 0.000000
17.955730 14.161610 0.000000
18.270470 14.161610 0.000000
18.585213 14.161610 0.000000
18.899952 14.161610 0.000000
-7.223550 13.846870 0.000000
-6.908809 13.846870 0.001874
-6.594068 13.846870 0.001757
-6.279327 13.846870 0.001718
-5.964586 13.846870 0.001719
-5.649845 13.846870 0.001636
-5.335104 13.846870 0.001560
-5.020363 13.846870 0.001595
-4.705622 13.846870 0.001648
-4.390881 13.846870 0.001602
-4.076140 13.846870 0.001546
-3.761399 13.846870 0.001598
-3.446658 13.846870 0.001607
-3.131917 13.846870 0.001566
-2.817176 13.846870 0.001540
-2.502435 13.846870 0.001474
-2.187694 13.846870 0.001450
-1.872953 13.846870 0.001411
-1.558212 13.846870 0.001397
-1.243471 13.846870 0.001337
-0.928730 13.846870 0.001269
-0.613989 13.846870 0.001167
-0.299248 13.846870 0.001180
0.015493 13.846870 0.001267
0.330234 13.846870 0.001264
0.644975 13.846870 0.001321
0.959716 13.846870 0.001371
1.274457 13.846870 0.001262
1.589198 13.846870 0.001127
1.903938 13.846870 0.001060
2.218679 13.846870 0.001081
2.533421 13.846870 0.001144
2.848162 13.846870 0.001253
3.162903 13.846870 0.001247
3.477644 13.846870 0.001087
3.792385 13.846870 0.001006
4.107125 13.846870 0.001019
4.421866 13.846870 0.001071
4.736608 13.846870 0.001111
5.051349 13.846870 0.001077
5.366090 13.846870 0.001148
5.680831 13.846870 0.001284
5.995571 13.846870 0.001515
6.310312 13.846870 0.002492
6.625053 13.846870 0.003710
6.939795 13.846870 0.005349
7.254536 13.846870 0.009660
7.569277 13.846870 0.018620
7.884017 13.846870 0.034849
8.198758 13.846870 0.064508
8.513499 13.846870 0.117316
8.828240 13.846870 0.197707
9.142982 13.846870 0.295024
9.457723 13.846870 0.396322
9.772464 13.846870 0.516175
10.087205 13.846870 0.638518
10.401946 13.846870 0.751419
10.716687 13.846870 0.848209
11.031426 13.846870 0.934481
11.346168 13.846870 1.018125
11.660909 13.846870 1.099257
11.975650 13.846870 1.151294
12.290391 13.846870 1.212165
12.605132 13.846870 1.267347
12.919873 13.846870 1.327343
13.234614 13.846870 1.377627
13.549356 13.846870 1.385762
13.864097 13.846870 1.395730
14.178838 13.846870 1.381406
14.493579 13.846870 1.329050
14.808320 13.846870 1.208982
15.123059 13.846870 1.041930
15.437800 13.846870 0.877315
15.752542 13.846870 0.455269
16.067284 13.846870 0.000000
16.382023 13.846870 0.000000
16.696766 13.846870 0.000000
17.011505 13.846870 0.000000
17.326248 13.846870 0.000000
17.640987 13.846870 0.000000
17.955730 13.846870 0.000000
18.270470 13.846870 0.000000
18.585213 13.846870 0.000000
18.899952 13.846870 0.000000
-7.223550 13.532127 0.000000
-6.908809 13.532127 0.001895
-6.594068 13.532127 0.001862
-6.279327 13.532127 0.001848
-5.964586 13.532127 0.001811
-5.649845 13.532127 0.001671
-5.335104 13.532127 0.001633
-5.020363 13.532127 0.001643
-4.705622 13.532127 0.001682
-4.390881 13.532127 0.001650
-4.076140 13.532127 0.001588
-3.761399 13.532127 0.001621
-3.446658 13.532127 0.001628
-3.131917 13.532127 0.001586
-2.817176 13.532127 0.001546
-2.502435 13.532127 0.001499
-2.187694 13.532127 0.001471
-1.872953 13.532127 0.001425
-1.558212 13.532127 0.001378
-1.243471 13.532127 0.001322
-0.928730 13.532127 0.001286
-0.613989 13.532127 0.001235
-0.299248 13.532127 0.001260
0.015493 13.532127 0.001328
0.330234 13.532127 0.001315
0.644975 13.532127 0.001342
0.959716 13.532127 0.001365
1.274457 13.532127 0.001320
1.589198 13.532127 0.001235
1.903938 13.532127 0.001161
2.218679 13.532127 0.001137
2.533421 13.532127 0.001205
2.848162 13.532127 0.001366
3.162903 13.532127 0.001367
3.477644 13.532127 0.001233
3.792385 13.532127 0.001119
4.107125 13.532127 0.001136
4.421866 13.532127 0.001222
4.736608 13.532127 0.001078
5.051349 13.532127 0.001006
5.366090 13.532127 0.000998
5.680831 13.532127 0.001259
5.995571 13.532127 0.001783
6.310312 13.532127 0.002604
6.625053 13.532127 0.003797
6.939795 13.532127 0.006275
7.254536 13.532127 0.009477
7.569277 13.532127 0.017578
7.884017 13.532127 0.037360
8.198758 13.532127 0.068676
8.513499 13.532127 0.124119
8.828240 13.532127 0.208430
9.142982 13.532127 0.305546
9.457723 13.532127 0.414169
9.772464 13.532127 0.522876
10.087205 13.532127 0.648887
10.401946 13.532127 0.754229
10.716687 13.532127 0.848883
11.031426 13.532127 0.939134
11.346168 13.532127 1.022403
11.660909 13.532127 1.103340
11.975650 13.532127 1.163906
12.290391 13.532127 1.221632
12.605132 13.532127 1.282654
12.919873 13.532127 1.333227
13.234614 13.532127 1.357660
13.549356 13.532127 1.383880
13.864097 13.532127 1.409678
14.178838 13.532127 1.377833
14.493579 13.532127 1.334508
14.808320 13.532127 1.216593
15.123059 13.532127 1.048126
15.437800 13.532127 0.882413
15.752542 13.532127 0.483332
16.067284 13.532127 0.000000
16.382023 13.532127 0.000000
16.696766 13.532127 0.000000
17.011505 13.532127 0.000000
17.326248 13.532127 0.000000
17.640987 13.532127 0.000000
17.955730 13.532127 0.000000
18.270470 13.532127 0.000000
18.585213 13.532127 0.000000
18.899952 13.532127 0.000000
-7.223550 13.217388 0.000000
-6.908809 13.217388 0.001925
-6.594068 13.217388 0.001943
-6.279327 13.217388 0.001923
-5.964586 13.217388 0.001831
-5.649845 13.217388 0.001706
-5.335104 13.217388 0.001703
-5.020363 13.217388 0.001692
-4.705622 13.217388 0.001727
-4.390881 13.217388 0.001721
-4.076140 13.217388 0.001634
-3.761399 13.217388 0.001629
-3.446658 13.217388 0.001628
-3.131917 13.217388 0.001575
-2.817176 13.217388 0.001539
-2.502435 13.217388 0.001492
-2.187694 13.217388 0.001486
-1.872953 13.217388 0.001459
-1.558212 13.217388 0.001378
-1.243471 13.217388 0.001337
-0.928730 13.217388 0.001303
-0.613989 13.217388 0.001298
-0.299248 13.217388 0.001293
0.015493 13.217388 0.001351
0.330234 13.217388 0.001366
0.644975 13.217388 0.001340
0.959716 13.217388 0.001358
1.274457 13.217388 0.001395
1.589198 13.217388 0.001372
1.903938 13.217388 0.001297
2.218679 13.217388 0.001209
2.533421 13.217388 0.001258
2.848162 13.217388 0.001424
3.162903 13.217388 0.001423
3.477644 13.217388 0.001305
3.792385 13.217388 0.001183
4.107125 13.217388 0.001210
4.421866 13.217388 0.001283
4.736608 13.217388 0.001119
5.051349 13.217388 0.000942
5.366090 13.217388 0.000970
5.680831 13.217388 0.001208
5.995571 13.217388 0.001579
6.310312 13.217388 0.002252
6.625053 13.217388 0.003584
6.939795 13.217388 0.005932
7.254536 13.217388 0.010236
7.569277 13.217388 0.018460
7.884017 13.217388 0.036240
8.198758 13.217388 0.071033
8.513499 13.217388 0.126468
8.828240 13.217388 0.207368
9.142982 13.217388 0.311317
9.457723 13.217388 0.421365
9.772464 13.217388 0.535331
10.087205 13.217388 0.644563
10.401946 13.217388 0.758027
10.716687 13.217388 0.857979
11.031426 13.217388 0.947245
11.346168 13.217388 1.029589
11.660909 13.217388 1.101168
11.975650 13.217388 1.173379
12.290391 13.217388 1.235233
12.605132 13.217388 1.299919
12.919873 13.217388 1.337823
13.234614 13.217388 1.360660
13.549356 13.217388 1.389655
13.864097 13.217388 1.397797
14.178838 13.217388 1.390964
14.493579 13.217388 1.316083
14.808320 13.217388 1.213860
15.123059 13.217388 1.041802
15.437800 13.217388 0.888366
15.752542 13.217388 0.460105
16.067284 13.217388 0.000000
16.382023 13.217388 0.000000
16.696766 13.217388 0.000000
17.011505 13.217388 0.000000
17.326248 13.217388 0.000000
17.640987 13.217388 0.000000
17.955730 13.217388 0.000000
18.270470 13.217388 0.000000
18.585213 13.217388 0.000000
18.899952 13.217388 0.000000
-7.223550 12.902649 0.000000
-6.908809 12.902649 0.001982
-6.594068 12.902649 0.001974
-6.279327 12.902649 0.001916
-5.964586 12.902649 0.001786
-5.649845 12.902649 0.001710
-5.335104 12.902649 0.001745
-5.020363 12.902649 0.001758
-4.705622 12.902649 0.001802
-4.390881 12.902649 0.001814
-4.076140 12.902649 0.001704
-3.761399 12.902649 0.001623
-3.446658 12.902649 0.001595
-3.131917 12.902649 0.001568
-2.817176 12.902649 0.001525
-2.502435 12.902649 0.001477
-2.187694 12.902649 0.001495
-1.872953 12.902649 0.001504
-1.558212 12.902649 0.001409
-1.243471 12.902649 0.001387
-0.928730 12.902649 0.001372
-0.613989 12.902649 0.001346
-0.299248 12.902649 0.001289
0.015493 12.902649 0.001349
0.330234 12.902649 0.001386
0.644975 12.902649 0.001333
0.959716 12.902649 0.001366
1.274457 12.902649 0.001492
1.589198 12.902649 0.001517
1.903938 12.902649 0.001424
2.218679 12.902649 0.001285
2.533421 12.902649 0.001277
2.848162 12.902649 0.001417
3.162903 12.902649 0.001432
3.477644 12.902649 0.001309
3.792385 12.902649 0.001200
4.107125 12.902649 0.001210
4.421866 12.902649 0.001194
4.736608 12.902649 0.001034
5.051349 12.902649 0.000877
5.366090 12.902649 0.000878
5.680831 12.902649 0.001088
5.995571 12.902649 0.001309
6.310312 12.902649 0.001767
6.625053 12.902649 0.003137
6.939795 12.902649 0.005715
7.254536 12.902649 0.010205
7.569277 12.902649 0.018436
7.884017 12.902649 0.037669
8.198758 12.902649 0.072581
8.513499 12.902649 0.131215
8.828240 12.902649 0.211162
9.142982 12.902649 0.311245
9.457723 12.902649 0.423215
9.772464 12.902649 0.539911
10.087205 12.902649 0.650405
10.401946 12.902649 0.758857
10.716687 12.902649 0.865630
11.031426 12.902649 0.954901
11.346168 12.902649 1.044069
11.660909 12.902649 1.105709
11.975650 12.902649 1.184692
12.290391 12.902649 1.245454
12.605132 12.902649 1.303189
12.919873 12.902649 1.351871
13.234614 12.902649 1.372610
13.549356 12.902649 1.391345
13.864097 12.902649 1.386975
14.178838 12.902649 1.369867
14.493579 12.902649 1.296980
14.808320 12.902649 1.180024
15.123059 12.902649 1.005055
15.437800 12.902649 0.883076
15.752542 12.902649 0.588734
16.067284 12.902649 0.000000
16.382023 12.902649 0.000000
16.696766 12.902649 0.000000
17.011505 12.902649 0.000000
17.326248 12.902649 0.000000
17.640987 12.902649 0.000000
17.955730 12.902649 0.000000
18.270470 12.902649 0.000000
18.585213 12.902649 0.000000
18.899952 12.902649 0.000000
-7.223550 12.587906 0.000000
-6.908809 12.587906 0.002011
-6.594068 12.587906 0.001962
-6.279327 12.587906 0.001864
-5.964586 12.587906 0.001743
-5.649845 12.587906 0.001714
-5.335104 12.587906 0.001774
-5.020363 12.587906 0.001821
-4.705622 12.587906 0.001887
-4.390881 12.587906 0.001885
-4.076140 12.587906 0.001741
-3.761399 12.587906 0.001612
-3.446658 12.587906 0.001547
-3.131917 12.587906 0.001561
-2.817176 12.587906 0.001506
-2.502435 12.587906 0.001451
-2.187694 12.587906 0.001502
-1.872953 12.587906 0.001551
-1.558212 12.587906 0.001445
-1.243471 12.587906 0.001447
-0.928730 12.587906 0.001475
-0.613989 12.587906 0.001405
-0.299248 12.587906 0.001291
0.015493 12.587906 0.001350
0.330234 12.587906 0.001396
0.644975 12.587906 0.001326
0.959716 12.587906 0.001368
1.274457 12.587906 0.001535
1.589198 12.587906 0.001600
1.903938 12.587906 0.001495
2.218679 12.587906 0.001342
2.533421 12.587906 0.001270
2.848162 12.587906 0.001374
3.162903 12.587906 0.001395
3.477644 12.587906 0.001278
3.792385 12.587906 0.001172
4.107125 12.587906 0.001120
4.421866 12.587906 0.001117
4.736608 12.587906 0.000973
5.051349 12.587906 0.000864
5.366090 12.587906 0.000923
5.680831 12.587906 0.001009
5.995571 12.587906 0.001361
6.310312 12.587906 0.001739
6.625053 12.587906 0.003034
6.939795 12.587906 0.004880
7.254536 12.587906 0.010340
7.569277 12.587906 0.019612
7.884017 12.587906 0.037418
8.198758 12.587906 0.074484
8.513499 12.587906 0.134211
8.828240 12.587906 0.212930
9.142982 12.587906 0.306275
9.457723 12.587906 0.428488
9.772464 12.587906 0.544981
10.087205 12.587906 0.660373
10.401946 12.587906 0.763098
10.716687 12.587906 0.865840
11.031426 12.587906 0.960206
11.346168 12.587906 1.040772
11.660909 12.587906 1.115461
11.975650 12.587906 1.180050
12.290391 12.587906 1.234361
12.605132 12.587906 1.297451
12.919873 12.587906 1.361105
13.234614 12.587906 1.393021
13.549356 12.587906 1.406800
13.864097 12.587906 1.387203
14.178838 12.587906 1.371617
14.493579 12.587906 1.299122
14.808320 12.587906 1.176931
15.123059 12.587906 1.011143
15.437800 12.587906 0.879476
15.752542 12.587906 0.611037
16.067284 12.587906 0.000000
16.382023 12.587906 0.000000
16.696766 12.587906 0.000000
17.011505 12.587906 0.000000
17.326248 12.587906 0.000000
17.640987 12.587906 0.000000
17.955730 12.587906 0.000000
18.270470 12.587906 0.000000
18.585213 12.587906 0.000000
18.899952 12.587906 0.000000
-7.223550 12.273167 0.000000
-6.908809 12.273167 0.001972
-6.594068 12.273167 0.001893
-6.279327 12.273167 0.001808
-5.964586 12.273167 0.001730
-5.649845 12.273167 0.001724
-5.335104 12.273167 0.001786
-5.020363 12.273167 0.001852
-4.705622 12.273167 0.001904
-4.390881 12.273167 0.001891
-4.076140 12.273167 0.001742
-3.761399 12.273167 0.001595
-3.446658 12.273167 0.001514
-3.131917 12.273167 0.001538
-2.817176 12.273167 0.001500
-2.502435 12.273167 0.001413
-2.187694 12.273167 0.001498
-1.872953 12.273167 0.001581
-1.558212 12.273167 0.001492
-1.243471 12.273167 0.001505
-0.928730 12.273167 0.001561
-0.613989 12.273167 0.001465
-0.299248 12.273167 0.001323
0.015493 12.273167 0.001368
0.330234 12.273167 0.001364
0.644975 12.273167 0.001306
0.959716 12.273167 0.001357
1.274457 12.273167 0.001522
1.589198 12.273167 0.001601
1.903938 12.273167 0.001514
2.218679 12.273167 0.001353
2.533421 12.273167 0.001261
2.848162 12.273167 0.001318
3.162903 12.273167 0.001310
3.477644 12.273167 0.001221
3.792385 12.273167 0.001148
4.107125 12.273167 0.001126
4.421866 12.273167 0.001087
4.736608 12.273167 0.000954
5.051349 12.273167 0.000915
5.366090 12.273167 0.000908
5.680831 12.273167 0.001134
5.995571 12.273167 0.001409
6.310312 12.273167 0.001542
6.625053 12.273167 0.003068
6.939795 12.273167 0.005242
7.254536 12.273167 0.010379
7.569277 12.273167 0.020007
7.884017 12.273167 0.038281
8.198758 12.273167 0.075549
8.513499 12.273167 0.132957
8.828240 12.273167 0.221504
9.142982 12.273167 0.314543
9.457723 12.273167 0.433290
9.772464 12.273167 0.551750
10.087205 12.273167 0.668025
10.401946 12.273167 0.769985
10.716687 12.273167 0.869413
11.031426 12.273167 0.956670
11.346168 12.273167 1.046663
11.660909 12.273167 1.116806
11.975650 12.273167 1.181572
12.290391 12.273167 1.243613
12.605132 12.273167 1.315179
12.919873 12.273167 1.360185
13.234614 12.273167 1.387068
13.549356 12.273167 1.406555
13.864097 12.273167 1.384260
14.178838 12.273167 1.362214
14.493579 12.273167 1.295556
14.808320 12.273167 1.184721
15.123059 12.273167 1.029516
15.437800 12.273167 0.900469
15.752542 12.273167 0.594497
16.067284 12.273167 0.000000
16.382023 12.273167 0.000000
16.696766 12.273167 0.000000
17.011505 12.273167 0.000000
17.326248 12.273167 0.000000
17.640987 12.273167 0.000000
17.955730 12.273167 0.000000
18.270470 12.273167 0.000000
18.585213 12.273167 0.000000
18.899952 12.273167 0.000000
-7.223550 11.958424 0.000000
-6.908809 11.958424 0.001880
-6.594068 11.958424 0.001804
-6.279327 11.958424 0.001771
-5.964586 11.958424 0.001749
-5.649845 11.958424 0.001742
-5.335104 11.958424 0.001795
-5.020363 11.958424 0.001821
-4.705622 11.958424 0.001858
-4.390881 11.958424 0.001835
-4.076140 11.958424 0.001713
-3.761399 11.958424 0.001577
-3.446658 11.958424 0.001517
-3.131917 11.958424 0.001551
-2.817176 11.958424 0.001506
-2.502435 11.958424 0.001395
-2.187694 11.958424 0.001484
-1.872953 11.958424 0.001606
-1.558212 11.958424 0.001550
-1.243471 11.958424 0.001555
-0.928730 11.958424 0.001612
-0.613989 11.958424 0.001514
-0.299248 11.958424 0.001401
0.015493 11.958424 0.001397
0.330234 11.958424 0.001350
0.644975 11.958424 0.001283
0.959716 11.958424 0.001333
1.274457 11.958424 0.001465
1.589198 11.958424 0.001552
1.903938 11.958424 0.001480
2.218679 11.958424 0.001345
2.533421 11.958424 0.001277
2.848162 11.958424 0.001275
3.162903 11.958424 0.001231
3.477644 11.958424 0.001159
3.792385 11.958424 0.001148
4.107125 11.958424 0.001164
4.421866 11.958424 0.001115
4.736608 11.958424 0.000988
5.051349 11.958424 0.000946
5.366090 11.958424 0.000967
5.680831 11.958424 0.001268
5.995571 11.958424 0.001628
6.310312 11.958424 0.002299
6.625053 11.958424 0.003746
6.939795 11.958424 0.005693
7.254536 11.958424 0.010794
7.569277 11.958424 0.021160
7.884017 11.958424 0.040757
8.198758 11.958424 0.080208
8.513499 11.958424 0.138129
8.828240 11.958424 0.228565
9.142982 11.958424 0.327677
9.457723 11.958424 0.437879
9.772464 11.958424 0.556712
10.087205 11.958424 0.671839
10.401946 11.958424 0.774470
10.716687 11.958424 0.869722
11.031426 11.958424 0.967282
11.346168 11.958424 1.040846
11.660909 11.958424 1.118345
11.975650 11.958424 1.188383
12.290391 11.958424 1.254102
12.605132 11.958424 1.313221
12.919873 11.958424 1.357330
13.234614 11.958424 1.393610
13.549356 11.958424 1.392400
13.864097 11.958424 1.377042
14.178838 11.958424 1.336676
14.493579 11.958424 1.281104
14.808320 11.958424 1.175246
15.123059 11.958424 1.043371
15.437800 11.958424 0.913413
15.752542 11.958424 0.570666
16.067284 11.958424 0.000000
16.382023 11.958424 0.000000
16.696766 11.958424 0.000000
17.011505 11.958424 0.000000
17.326248 11.958424 0.000000
17.640987 11.958424 0.000000
17.955730 11.958424 0.000000
18.270470 11.958424 0.000000
18.585213 11.958424 0.000000
18.899952 11.958424 0.000000
-7.223550 11.643684 0.000000
-6.908809 11.643684 0.001824
-6.594068 11.643684 0.001752
-6.279327 11.643684 0.001773
-5.964586 11.643684 0.001774
-5.649845 11.643684 0.001757
-5.335104 11.643684 0.001777
-5.020363 11.643684 0.001751
-4.705622 11.643684 0.001776
-4.390881 11.643684 0.001769
-4.076140 11.643684 0.001676
-3.761399 11.643684 0.001571
-3.446658 11.643684 0.001551
-3.131917 11.643684 0.001602
-2.817176 11.643684 0.001531
-2.502435 11.643684 0.001405
-2.187694 11.643684 0.001496
-1.872953 11.643684 0.001632
-1.558212 11.643684 0.001610
-1.243471 11.643684 0.001589
-0.928730 11.643684 0.001596
-0.613989 11.643684 0.001510
-0.299248 11.643684 0.001453
0.015493 11.643684 0.001436
0.330234 11.643684 0.001352
0.644975 11.643684 0.001253
0.959716 11.643684 0.001285
1.274457 11.643684 0.001381
1.589198 11.643684 0.001474
1.903938 11.643684 0.001424
2.218679 11.643684 0.001337
2.533421 11.643684 0.001281
2.848162 11.643684 0.001243
3.162903 11.643684 0.001205
3.477644 11.643684 0.001143
3.792385 11.643684 0.001114
4.107125 11.643684 0.001151
4.421866 11.643684 0.001149
4.736608 11.643684 0.001033
5.051349 11.643684 0.001044
5.366090 11.643684 0.001047
5.680831 11.643684 0.001488
5.995571 11.643684 0.001864
6.310312 11.643684 0.002626
6.625053 11.643684 0.003916
6.939795 11.643684 0.006512
7.254536 11.643684 0.010645
7.569277 11.643684 0.021642
7.884017 11.643684 0.041063
8.198758 11.643684 0.079668
8.513499 11.643684 0.140901
8.828240 11.643684 0.227079
9.142982 11.643684 0.336971
9.457723 11.643684 0.441502
9.772464 11.643684 0.556758
10.087205 11.643684 0.678631
10.401946 11.643684 0.780137
10.716687 11.643684 0.880970
11.031426 11.643684 0.969723
11.346168 11.643684 1.042004
11.660909 11.643684 1.121730
11.975650 11.643684 1.190049
12.290391 11.643684 1.248197
12.605132 11.643684 1.293028
12.919873 11.643684 1.343894
13.234614 11.643684 1.390004
13.549356 11.643684 1.396691
13.864097 11.643684 1.369862
14.178838 11.643684 1.344060
14.493579 11.643684 1.279491
14.808320 11.643684 1.166444
15.123059 11.643684 1.046216
15.437800 11.643684 0.919023
15.752542 11.643684 0.550581
16.067284 11.643684 0.000000
16.382023 11.643684 0.000000
16.696766 11.643684 0.000000
17.011505 11.643684 0.000000
17.326248 11.643684 0.000000
17.640987 11.643684 0.000000
17.955730 11.643684 0.000000
18.270470 11.643684 0.000000
18.585213 11.643684 0.000000
18.899952 11.643684 0.000000
-7.223550 11.328941 0.000000
-6.908809 11.328941 0.001829
-6.594068 11.328941 0.001786
-6.279327 11.328941 0.001819
-5.964586 11.328941 0.001800
-5.649845 11.328941 0.001757
-5.335104 11.328941 0.001753
-5.020363 11.328941 0.001709
-4.705622 11.328941 0.001708
-4.390881 11.328941 0.001697
-4.076140 11.328941 0.001650
-3.761399 11.328941 0.001588
-3.446658 11.328941 0.001604
-3.131917 11.328941 0.001636
-2.817176 11.328941 0.001556
-2.502435 11.328941 0.001458
-2.187694 11.328941 0.001521
-1.872953 11.328941 0.001665
-1.558212 11.328941 0.001665
-1.243471 11.328941 0.001605
-0.928730 11.328941 0.001553
-0.613989 11.328941 0.001496
-0.299248 11.328941 0.001477
0.015493 11.328941 0.001441
0.330234 11.328941 0.001358
0.644975 11.328941 0.001245
0.959716 11.328941 0.001229
1.274457 11.328941 0.001297
1.589198 11.328941 0.001393
1.903938 11.328941 0.001378
2.218679 11.328941 0.001350
2.533421 11.328941 0.001308
2.848162 11.328941 0.001247
3.162903 11.328941 0.001232
3.477644 11.328941 0.001156
3.792385 11.328941 0.001133
4.107125 11.328941 0.001197
4.421866 11.328941 0.001156
4.736608 11.328941 0.001097
5.051349 11.328941 0.001187
5.366090 11.328941 0.001274
5.680831 11.328941 0.001499
5.995571 11.328941 0.001901
6.310312 11.328941 0.002771
6.625053 11.328941 0.004157
6.939795 11.328941 0.006918
7.254536 11.328941 0.011144
7.569277 11.328941 0.021966
7.884017 11.328941 0.041635
8.198758 11.328941 0.081197
8.513499 11.328941 0.144521
8.828240 11.328941 0.234371
9.142982 11.328941 0.342234
9.457723 11.328941 0.454441
9.772464 11.328941 0.571329
10.087205 11.328941 0.691937
10.401946 11.328941 0.798047
10.716687 11.328941 0.886729
11.031426 11.328941 0.972999
11.346168 11.328941 1.044099
11.660909 11.328941 1.124070
11.975650 11.328941 1.191206
12.290391 11.328941 1.246393
12.605132 11.328941 1.307970
12.919873 11.328941 1.346676
13.234614 11.328941 1.382975
13.549356 11.328941 1.390386
13.864097 11.328941 1.369346
14.178838 11.328941 1.328964
14.493579 11.328941 1.281577
14.808320 11.328941 1.165621
15.123059 11.328941 1.047043
15.437800 11.328941 0.926259
15.752542 11.328941 0.550553
16.067284 11.328941 0.000000
16.382023 11.328941 0.000000
16.696766 11.328941 0.000000
17.011505 11.328941 0.000000
17.326248 11.328941 0.000000
17.640987 11.328941 0.000000
17.955730 11.328941 0.000000
18.270470 11.328941 0.000000
18.585213 11.328941 0.000000
18.899952 11.328941 0.000000
-7.223550 11.014202 0.000000
-6.908809 11.014202 0.001874
-6.594068 11.014202 0.001842
-6.279327 11.014202 0.001873
-5.964586 11.014202 0.001837
-5.649845 11.014202 0.001771
-5.335104 11.014202 0.001752
-5.020363 11.014202 0.001718
-4.705622 11.014202 0.001653
-4.390881 11.014202 0.001639
-4.076140 11.014202 0.001650
-3.761399 11.014202 0.001648
-3.446658 11.014202 0.001661
-3.131917 11.014202 0.001663
-2.817176 11.014202 0.001599
-2.502435 11.014202 0.001520
-2.187694 11.014202 0.001553
-1.872953 11.014202 0.001662
-1.558212 11.014202 0.001695
-1.243471 11.014202 0.001625
-0.928730 11.014202 0.001527
-0.613989 11.014202 0.001490
-0.299248 11.014202 0.001468
0.015493 11.014202 0.001404
0.330234 11.014202 0.001357
0.644975 11.014202 0.001274
0.959716 11.014202 0.001233
1.274457 11.014202 0.001248
1.589198 11.014202 0.001311
1.903938 11.014202 0.001330
2.218679 11.014202 0.001374
2.533421 11.014202 0.001347
2.848162 11.014202 0.001267
3.162903 11.014202 0.001241
3.477644 11.014202 0.001192
3.792385 11.014202 0.001210
4.107125 11.014202 0.001211
4.421866 11.014202 0.001106
4.736608 11.014202 0.001124
5.051349 11.014202 0.001204
5.366090 11.014202 0.001332
5.680831 11.014202 0.001556
5.995571 11.014202 0.001962
6.310312 11.014202 0.002688
6.625053 11.014202 0.004276
6.939795 11.014202 0.006642
7.254536 11.014202 0.011486
7.569277 11.014202 0.022765
7.884017 11.014202 0.044895
8.198758 11.014202 0.088305
8.513499 11.014202 0.150350
8.828240 11.014202 0.240382
9.142982 11.014202 0.344509
9.457723 11.014202 0.460323
9.772464 11.014202 0.582557
10.087205 11.014202 0.690948
10.401946 11.014202 0.797789
10.716687 11.014202 0.896097
11.031426 11.014202 0.968743
11.346168 11.014202 1.052570
11.660909 11.014202 1.129750
11.975650 11.014202 1.191287
12.290391 11.014202 1.267567
12.605132 11.014202 1.311718
12.919873 11.014202 1.345827
13.234614 11.014202 1.385347
13.549356 11.014202 1.384727
13.864097 11.014202 1.370983
14.178838 11.014202 1.328382
14.493579 11.014202 1.279685
14.808320 11.014202 1.173951
15.123059 11.014202 1.041593
15.437800 11.014202 0.928735
15.752542 11.014202 0.543841
16.067284 11.014202 0.000000
16.382023 11.014202 0.000000
16.696766 11.014202 0.000000
17.011505 11.014202 0.000000
17.326248 11.014202 0.000000
17.640987 11.014202 0.000000
17.955730 11.014202 0.000000
18.270470 11.014202 0.000000
18.585213 11.014202 0.000000
18.899952 11.014202 0.000000
-7.223550 10.699459 0.000000
-6.908809 10.699459 0.001957
-6.594068 10.699459 0.001930
-6.279327 10.699459 0.001967
-5.964586 10.699459 0.001929
-5.649845 10.699459 0.001820
-5.335104 10.699459 0.001783
-5.020363 10.699459 0.001767
-4.705622 10.699459 0.001636
-4.390881 10.699459 0.001587
-4.076140 10.699459 0.001671
-3.761399 10.699459 0.001725
-3.446658 10.699459 0.001720
-3.131917 10.699459 0.001703
-2.817176 10.699459 0.001646
-2.502435 10.699459 0.001599
-2.187694 10.699459 0.001600
-1.872953 10.699459 0.001681
-1.558212 10.699459 0.001725
-1.243471 10.699459 0.001652
-0.928730 10.699459 0.001527
-0.613989 10.699459 0.001472
-0.299248 10.699459 0.001413
0.015493 10.699459 0.001347
0.330234 10.699459 0.001349
0.644975 10.699459 0.001340
0.959716 10.699459 0.001276
1.274457 10.699459 0.001232
1.589198 10.699459 0.001235
1.903938 10.699459 0.001280
2.218679 10.699459 0.001382
2.533421 10.699459 0.001371
2.848162 10.699459 0.001275
3.162903 10.699459 0.001253
3.477644 10.699459 0.001254
3.792385 10.699459 0.001297
4.107125 10.699459 0.001292
4.421866 10.699459 0.001227
4.736608 10.699459 0.001205
5.051349 10.699459 0.001256
5.366090 10.699459 0.001364
5.680831 10.699459 0.001612
5.995571 10.699459 0.002021
6.310312 10.699459 0.002473
6.625053 10.699459 0.003706
6.939795 10.699459 0.006559
7.254536 10.699459 0.012236
7.569277 10.699459 0.023198
7.884017 10.699459 0.045976
8.198758 10.699459 0.087345
8.513499 10.699459 0.152544
8.828240 10.699459 0.239111
9.142982 10.699459 0.343627
9.457723 10.699459 0.457537
9.772464 10.699459 0.576912
10.087205 10.699459 0.698430
10.401946 10.699459 0.795591
10.716687 10.699459 0.890052
11.031426 10.699459 0.978756
11.346168 10.699459 1.055017
11.660909 10.699459 1.124790
11.975650 10.699459 1.194945
12.290391 10.699459 1.263678
12.605132 10.699459 1.305812
12.919873 10.699459 1.361837
13.234614 10.699459 1.395299
13.549356 10.699459 1.379153
13.864097 10.699459 1.371799
14.178838 10.699459 1.321042
14.493579 10.699459 1.285795
14.808320 10.699459 1.187093
15.123059 10.699459 1.062752
15.437800 10.699459 0.932672
15.752542 10.699459 0.523004
16.067284 10.699459 0.000000
16.382023 10.699459 0.000000
16.696766 10.699459 0.000000
17.011505 10.699459 0.000000
17.326248 10.699459 0.000000
17.640987 10.699459 0.000000
17.955730 10.699459 0.000000
18.270470 10.699459 0.000000
18.585213 10.699459 0.000000
18.899952 10.699459 0.000000
-7.223550 10.384720 0.000000
-6.908809 10.384720 0.002027
-6.594068 10.384720 0.002010
-6.279327 10.384720 0.002039
-5.964586 10.384720 0.002010
-5.649845 10.384720 0.001901
-5.335104 10.384720 0.001848
-5.020363 10.384720 0.001827
-4.705622 10.384720 0.001639
-4.390881 10.384720 0.001550
-4.076140 10.384720 0.001688
-3.761399 10.384720 0.001784
-3.446658 10.384720 0.001751
-3.131917 10.384720 0.001728
-2.817176 10.384720 0.001701
-2.502435 10.384720 0.001680
-2.187694 10.384720 0.001652
-1.872953 10.384720 0.001688
-1.558212 10.384720 0.001700
-1.243471 10.384720 0.001668
-0.928730 10.384720 0.001564
-0.613989 10.384720 0.001477
-0.299248 10.384720 0.001381
0.015493 10.384720 0.001331
0.330234 10.384720 0.001382
0.644975 10.384720 0.001426
0.959716 10.384720 0.001355
1.274457 10.384720 0.001262
1.589198 10.384720 0.001169
1.903938 10.384720 0.001209
2.218679 10.384720 0.001368
2.533421 10.384720 0.001385
2.848162 10.384720 0.001283
3.162903 10.384720 0.001228
3.477644 10.384720 0.001282
3.792385 10.384720 0.001402
4.107125 10.384720 0.001386
4.421866 10.384720 0.001264
4.736608 10.384720 0.001203
5.051349 10.384720 0.001256
5.366090 10.384720 0.001267
5.680831 10.384720 0.001552
5.995571 10.384720 0.002008
6.310312 10.384720 0.002672
6.625053 10.384720 0.004165
6.939795 10.384720 0.006946
7.254536 10.384720 0.012301
7.569277 10.384720 0.025305
7.884017 10.384720 0.046872
8.198758 10.384720 0.092780
8.513499 10.384720 0.156034
8.828240 10.384720 0.250798
9.142982 10.384720 0.347906
9.457723 10.384720 0.459443
9.772464 10.384720 0.578431
10.087205 10.384720 0.693639
10.401946 10.384720 0.796561
10.716687 10.384720 0.890062
11.031426 10.384720 0.983075
11.346168 10.384720 1.067772
11.660909 10.384720 1.131516
11.975650 10.384720 1.190442
12.290391 10.384720 1.255571
12.605132 10.384720 1.309597
12.919873 10.384720 1.357041
13.234614 10.384720 1.401654
13.549356 10.384720 1.399708
13.864097 10.384720 1.375693
14.178838 10.384720 1.321454
14.493579 10.384720 1.275566
14.808320 10.384720 1.206461
15.123059 10.384720 1.082990
15.437800 10.384720 0.967096
15.752542 10.384720 0.537639
16.067284 10.384720 0.000000
16.382023 10.384720 0.000000
16.696766 10.384720 0.000000
17.011505 10.384720 0.000000
17.326248 10.384720 0.000000
17.640987 10.384720 0.000000
17.955730 10.384720 0.000000
18.270470 10.384720 0.000000
18.585213 10.384720 0.000000
18.899952 10.384720 0.000000
-7.223550 10.069977 0.000000
-6.908809 10.069977 0.002092
-6.594068 10.069977 0.002068
-6.279327 10.069977 0.002074
-5.964586 10.069977 0.002059
-5.649845 10.069977 0.001964
-5.335104 10.069977 0.001908
-5.020363 10.069977 0.001840
-4.705622 10.069977 0.001647
-4.390881 10.069977 0.001547
-4.076140 10.069977 0.001696
-3.761399 10.069977 0.001820
-3.446658 10.069977 0.001774
-3.131917 10.069977 0.001724
-2.817176 10.069977 0.001749
-2.502435 10.069977 0.001760
-2.187694 10.069977 0.001698
-1.872953 10.069977 0.001688
-1.558212 10.069977 0.001656
-1.243471 10.069977 0.001665
-0.928730 10.069977 0.001624
-0.613989 10.069977 0.001522
-0.299248 10.069977 0.001407
0.015493 10.069977 0.001376
0.330234 10.069977 0.001475
0.644975 10.069977 0.001540
0.959716 10.069977 0.001464
1.274457 10.069977 0.001341
1.589198 10.069977 0.001181
1.903938 10.069977 0.001206
2.218679 10.069977 0.001357
2.533421 10.069977 0.001411
2.848162 10.069977 0.001312
3.162903 10.069977 0.001242
3.477644 10.069977 0.001346
3.792385 10.069977 0.001475
4.107125 10.069977 0.001439
4.421866 10.069977 0.001287
4.736608 10.069977 0.001192
5.051349 10.069977 0.001219
5.366090 10.069977 0.001179
5.680831 10.069977 0.001439
5.995571 10.069977 0.002145
6.310312 10.069977 0.002856
6.625053 10.069977 0.004551
6.939795 10.069977 0.007121
7.254536 10.069977 0.013519
7.569277 10.069977 0.026621
7.884017 10.069977 0.051237
8.198758 10.069977 0.093951
8.513499 10.069977 0.162794
8.828240 10.069977 0.253749
9.142982 10.069977 0.358764
9.457723 10.069977 0.466254
9.772464 10.069977 0.585712
10.087205 10.069977 0.696900
10.401946 10.069977 0.800958
10.716687 10.069977 0.897253
11.031426 10.069977 0.987537
11.346168 10.069977 1.080053
11.660909 10.069977 1.145829
11.975650 10.069977 1.192303
12.290391 10.069977 1.258855
12.605132 10.069977 1.311771
12.919873 10.069977 1.367984
13.234614 10.069977 1.400914
13.549356 10.069977 1.391909
13.864097 10.069977 1.362772
14.178838 10.069977 1.321216
14.493579 10.069977 1.268314
14.808320 10.069977 1.203954
15.123059 10.069977 1.123080
15.437800 10.069977 1.006906
15.752542 10.069977 0.540085
16.067284 10.069977 0.000000
16.382023 10.069977 0.000000
16.696766 10.069977 0.000000
17.011505 10.069977 0.000000
17.326248 10.069977 0.000000
17.640987 10.069977 0.000000
17.955730 10.069977 0.000000
18.270470 10.069977 0.000000
18.585213 10.069977 0.000000
18.899952 10.069977 0.000000
-7.223550 9.755238 0.000000
-6.908809 9.755238 0.002128
-6.594068 9.755238 0.002085
-6.279327 9.755238 0.002079
-5.964586 9.755238 0.002046
-5.649845 9.755238 0.002011
-5.335104 9.755238 0.001967
-5.020363 9.755238 0.001853
-4.705622 9.755238 0.001690
-4.390881 9.755238 0.001615
-4.076140 9.755238 0.001728
-3.761399 9.755238 0.001847
-3.446658 9.755238 0.001802
-3.131917 9.755238 0.001721
-2.817176 9.755238 0.001777
-2.502435 9.755238 0.001829
-2.187694 9.755238 0.001742
-1.872953 9.755238 0.001662
-1.558212 9.755238 0.001590
-1.243471 9.755238 0.001659
-0.928730 9.755238 0.001702
-0.613989 9.755238 0.001624
-0.299248 9.755238 0.001513
0.015493 9.755238 0.001479
0.330234 9.755238 0.001587
0.644975 9.755238 0.001663
0.959716 9.755238 0.001603
1.274457 9.755238 0.001487
1.589198 9.755238 0.001294
1.903938 9.755238 0.001265
2.218679 9.755238 0.001401
2.533421 9.755238 0.001441
2.848162 9.755238 0.001361
3.162903 9.755238 0.001326
3.477644 9.755238 0.001445
3.792385 9.755238 0.001517
4.107125 9.755238 0.001458
4.421866 9.755238 0.001265
4.736608 9.755238 0.001141
5.051349 9.755238 0.001159
5.366090 9.755238 0.001121
5.680831 9.755238 0.001446
5.995571 9.755238 0.002109
6.310312 9.755238 0.002990
6.625053 9.755238 0.004479
6.939795 9.755238 0.007115
7.254536 9.755238 0.013746
7.569277 9.755238 0.026020
7.884017 9.755238 0.050743
8.198758 9.755238 0.096191
8.513499 9.755238 0.167625
8.828240 9.755238 0.259603
9.142982 9.755238 0.363134
9.457723 9.755238 0.476810
9.772464 9.755238 0.597585
10.087205 9.755238 0.708065
10.401946 9.755238 0.804767
10.716687 9.755238 0.902383
11.031426 9.755238 1.005324
11.346168 9.755238 1.098251
11.660909 9.755238 1.151677
11.975650 9.755238 1.200407
12.290391 9.755238 1.260191
12.605132 9.755238 1.319343
12.919873 9.755238 1.365309
13.234614 9.755238 1.404095
13.549356 9.755238 1.408030
13.864097 9.755238 1.366641
14.178838 9.755238 1.327693
14.493579 9.755238 1.257253
14.808320 9.755238 1.197649
15.123059 9.755238 1.142287
15.437800 9.755238 1.032253
15.752542 9.755238 0.540060
16.067284 9.755238 0.000000
16.382023 9.755238 0.000000
16.696766 9.755238 0.000000
17.011505 9.755238 0.000000
17.326248 9.755238 0.000000
17.640987 9.755238 0.000000
17.955730 9.755238 0.000000
18.270470 9.755238 0.000000
18.585213 9.755238 0.000000
18.899952 9.755238 0.000000
-7.223550 9.440495 0.000000
-6.908809 9.440495 0.002088
-6.594068 9.440495 0.002071
-6.279327 9.440495 0.002044
-5.964586 9.440495 0.002005
-5.649845 9.440495 0.002024
-5.335104 9.440495 0.001992
-5.020363 9.440495 0.001866
-4.705622 9.440495 0.001786
-4.390881 9.440495 0.001742
-4.076140 9.440495 0.001784
-3.761399 9.440495 0.001871
-3.446658 9.440495 0.001835
-3.131917 9.440495 0.001735
-2.817176 9.440495 0.001788
-2.502435 9.440495 0.001861
-2.187694 9.440495 0.001780
-1.872953 9.440495 0.001629
-1.558212 9.440495 0.001544
-1.243471 9.440495 0.001641
-0.928730 9.440495 0.001747
-0.613989 9.440495 0.001716
-0.299248 9.440495 0.001614
0.015493 9.440495 0.001605
0.330234 9.440495 0.001706
0.644975 9.440495 0.001773
0.959716 9.440495 0.001749
1.274457 9.440495 0.001654
1.589198 9.440495 0.001451
1.903938 9.440495 0.001386
2.218679 9.440495 0.001456
2.533421 9.440495 0.001465
2.848162 9.440495 0.001407
3.162903 9.440495 0.001441
3.477644 9.440495 0.001552
3.792385 9.440495 0.001579
4.107125 9.440495 0.001444
4.421866 9.440495 0.001292
4.736608 9.440495 0.001162
5.051349 9.440495 0.001067
5.366090 9.440495 0.001085
5.680831 9.440495 0.001296
5.995571 9.440495 0.001931
6.310312 9.440495 0.002682
6.625053 9.440495 0.004245
6.939795 9.440495 0.007366
7.254536 9.440495 0.013930
7.569277 9.440495 0.025580
7.884017 9.440495 0.050939
8.198758 9.440495 0.099742
8.513499 9.440495 0.173697
8.828240 9.440495 0.267907
9.142982 9.440495 0.368113
9.457723 9.440495 0.488629
9.772464 9.440495 0.608291
10.087205 9.440495 0.719753
10.401946 9.440495 0.808715
10.716687 9.440495 0.905839
11.031426 9.440495 1.017869
11.346168 9.440495 1.103483
11.660909 9.440495 1.165028
11.975650 9.440495 1.225945
12.290391 9.440495 1.274382
12.605132 9.440495 1.326679
12.919873 9.440495 1.373133
13.234614 9.440495 1.399999
13.549356 9.440495 1.405310
13.864097 9.440495 1.375856
14.178838 9.440495 1.320881
14.493579 9.440495 1.244412
14.808320 9.440495 1.211623
15.123059 9.440495 1.125034
15.437800 9.440495 1.050893
15.752542 9.440495 0.617018
16.067284 9.440495 0.000000
16.382023 9.440495 0.000000
16.696766 9.440495 0.000000
17.011505 9.440495 0.000000
17.326248 9.440495 0.000000
17.640987 9.440495 0.000000
17.955730 9.440495 0.000000
18.270470 9.440495 0.000000
18.585213 9.440495 0.000000
18.899952 9.440495 0.000000
-7.223550 9.125755 0.000000
-6.908809 9.125755 0.002011
-6.594068 9.125755 0.002028
-6.279327 9.125755 0.001995
-5.964586 9.125755 0.001961
-5.649845 9.125755 0.002012
-5.335104 9.125755 0.002010
-5.020363 9.125755 0.001911
-4.705622 9.125755 0.001898
-4.390881 9.125755 0.001865
-4.076140 9.125755 0.001841
-3.761399 9.125755 0.001880
-3.446658 9.125755 0.001872
-3.131917 9.125755 0.001799
-2.817176 9.125755 0.001824
-2.502435 9.125755 0.001899
-2.187694 9.125755 0.001802
-1.872953 9.125755 0.001599
-1.558212 9.125755 0.001510
-1.243471 9.125755 0.001624
-0.928730 9.125755 0.001750
-0.613989 9.125755 0.001753
-0.299248 9.125755 0.001689
0.015493 9.125755 0.001696
0.330234 9.125755 0.001775
0.644975 9.125755 0.001844
0.959716 9.125755 0.001851
1.274457 9.125755 0.001786
1.589198 9.125755 0.001640
1.903938 9.125755 0.001503
2.218679 9.125755 0.001478
2.533421 9.125755 0.001470
2.848162 9.125755 0.001475
3.162903 9.125755 0.001550
3.477644 9.125755 0.001624
3.792385 9.125755 0.001590
4.107125 9.125755 0.001419
4.421866 9.125755 0.001235
4.736608 9.125755 0.001072
5.051349 9.125755 0.001096
5.366090 9.125755 0.001215
5.680831 9.125755 0.001382
5.995571 9.125755 0.001747
6.310312 9.125755 0.002382
6.625053 9.125755 0.003913
6.939795 9.125755 0.007394
7.254536 9.125755 0.014407
7.569277 9.125755 0.026117
7.884017 9.125755 0.051392
8.198758 9.125755 0.104114
8.513499 9.125755 0.179939
8.828240 9.125755 0.273021
9.142982 9.125755 0.375989
9.457723 9.125755 0.491375
9.772464 9.125755 0.609605
10.087205 9.125755 0.720554
10.401946 9.125755 0.818422
10.716687 9.125755 0.916287
11.031426 9.125755 1.017993
11.346168 9.125755 1.108330
11.660909 9.125755 1.169575
11.975650 9.125755 1.218659
12.290391 9.125755 1.267150
12.605132 9.125755 1.320977
12.919873 9.125755 1.364599
13.234614 9.125755 1.401150
13.549356 9.125755 1.402126
13.864097 9.125755 1.371832
14.178838 9.125755 1.313484
14.493579 9.125755 1.241324
14.808320 9.125755 1.189592
15.123059 9.125755 1.132400
15.437800 9.125755 1.079081
15.752542 9.125755 0.605837
16.067284 9.125755 0.000000
16.382023 9.125755 0.000000
16.696766 9.125755 0.000000
17.011505 9.125755 0.000000
17.326248 9.125755 0.000000
17.640987 9.125755 0.000000
17.955730 9.125755 0.000000
18.270470 9.125755 0.000000
18.585213 9.125755 0.000000
18.899952 9.125755 0.000000
-7.223550 8.811016 0.000000
-6.908809 8.811016 0.001935
-6.594068 8.811016 0.001965
-6.279327 8.811016 0.001955
-5.964586 8.811016 0.001955
-5.649845 8.811016 0.001999
-5.335104 8.811016 0.001992
-5.020363 8.811016 0.001948
-4.705622 8.811016 0.001982
-4.390881 8.811016 0.001932
-4.076140 8.811016 0.001852
-3.761399 8.811016 0.001856
-3.446658 8.811016 0.001885
-3.131917 8.811016 0.001855
-2.817176 8.811016 0.001863
-2.502435 8.811016 0.001900
-2.187694 8.811016 0.001792
-1.872953 8.811016 0.001591
-1.558212 8.811016 0.001522
-1.243471 8.811016 0.001616
-0.928730 8.811016 0.001729
-0.613989 8.811016 0.001746
-0.299248 8.811016 0.001718
0.015493 8.811016 0.001707
0.330234 8.811016 0.001737
0.644975 8.811016 0.001824
0.959716 8.811016 0.001861
1.274457 8.811016 0.001862
1.589198 8.811016 0.001778
1.903938 8.811016 0.001580
2.218679 8.811016 0.001454
2.533421 8.811016 0.001476
2.848162 8.811016 0.001566
3.162903 8.811016 0.001646
3.477644 8.811016 0.001677
3.792385 8.811016 0.001551
4.107125 8.811016 0.001331
4.421866 8.811016 0.001116
4.736608 8.811016 0.001062
5.051349 8.811016 0.001084
5.366090 8.811016 0.001169
5.680831 8.811016 0.001487
5.995571 8.811016 0.001675
6.310312 8.811016 0.002322
6.625053 8.811016 0.004210
6.939795 8.811016 0.007245
7.254536 8.811016 0.015005
7.569277 8.811016 0.029227
7.884017 8.811016 0.056593
8.198758 8.811016 0.106855
8.513499 8.811016 0.185192
8.828240 8.811016 0.283867
9.142982 8.811016 0.386720
9.457723 8.811016 0.498845
9.772464 8.811016 0.609996
10.087205 8.811016 0.726189
10.401946 8.811016 0.823467
10.716687 8.811016 0.917831
11.031426 8.811016 1.022128
11.346168 8.811016 1.107201
11.660909 8.811016 1.168464
11.975650 8.811016 1.207437
12.290391 8.811016 1.256751
12.605132 8.811016 1.302390
12.919873 8.811016 1.363355
13.234614 8.811016 1.402494
13.549356 8.811016 1.418850
13.864097 8.811016 1.358037
14.178838 8.811016 1.310410
14.493579 8.811016 1.238136
14.808320 8.811016 1.186224
15.123059 8.811016 1.127988
15.437800 8.811016 1.076530
15.752542 8.811016 0.687248
16.067284 8.811016 0.000000
16.382023 8.811016 0.000000
16.696766 8.811016 0.000000
17.011505 8.811016 0.000000
17.326248 8.811016 0.000000
17.640987 8.811016 0.000000
17.955730 8.811016 0.000000
18.270470 8.811016 0.000000
18.585213 8.811016 0.000000
18.899952 8.811016 0.000000
-7.223550 8.496273 0.000000
-6.908809 8.496273 0.001899
-6.594068 8.496273 0.001924
-6.279327 8.496273 0.001956
-5.964586 8.496273 0.001972
-5.649845 8.496273 0.001976
-5.335104 8.496273 0.001946
-5.020363 8.496273 0.001975
-4.705622 8.496273 0.002036
-4.390881 8.496273 0.001963
-4.076140 8.496273 0.001821
-3.761399 8.496273 0.001805
-3.446658 8.496273 0.001874
-3.131917 8.496273 0.001890
-2.817176 8.496273 0.001889
-2.502435 8.496273 0.001879
-2.187694 8.496273 0.001781
-1.872953 8.496273 0.001620
-1.558212 8.496273 0.001565
-1.243471 8.496273 0.001607
-0.928730 8.496273 0.001685
-0.613989 8.496273 0.001710
-0.299248 8.496273 0.001718
0.015493 8.496273 0.001684
0.330234 8.496273 0.001660
0.644975 8.496273 0.001714
0.959716 8.496273 0.001788
1.274457 8.496273 0.001860
1.589198 8.496273 0.001834
1.903938 8.496273 0.001599
2.218679 8.496273 0.001433
2.533421 8.496273 0.001492
2.848162 8.496273 0.001665
3.162903 8.496273 0.001731
3.477644 8.496273 0.001643
3.792385 8.496273 0.001463
4.107125 8.496273 0.001250
4.421866 8.496273 0.001063
4.736608 8.496273 0.001109
5.051349 8.496273 0.001202
5.366090 8.496273 0.001495
5.680831 8.496273 0.001735
5.995571 8.496273 0.001939
6.310312 8.496273 0.002549
6.625053 8.496273 0.004476
6.939795 8.496273 0.007759
7.254536 8.496273 0.016609
7.569277 8.496273 0.031124
7.884017 8.496273 0.058573
8.198758 8.496273 0.109265
8.513499 8.496273 0.191507
8.828240 8.496273 0.287734
9.142982 8.496273 0.394446
9.457723 8.496273 0.507055
9.772464 8.496273 0.616989
10.087205 8.496273 0.729878
10.401946 8.496273 0.834692
10.716687 8.496273 0.936146
11.031426 8.496273 1.033141
11.346168 8.496273 1.100959
11.660909 8.496273 1.149636
11.975650 8.496273 1.196962
12.290391 8.496273 1.241719
12.605132 8.496273 1.299853
12.919873 8.496273 1.363802
13.234614 8.496273 1.398199
13.549356 8.496273 1.395664
13.864097 8.496273 1.355684
14.178838 8.496273 1.302562
14.493579 8.496273 1.214937
14.808320 8.496273 1.195303
15.123059 8.496273 1.127995
15.437800 8.496273 1.058677
15.752542 8.496273 0.773552
16.067284 8.496273 0.000000
16.382023 8.496273 0.000000
16.696766 8.496273 0.000000
17.011505 8.496273 0.000000
17.326248 8.496273 0.000000
17.640987 8.496273 0.000000
17.955730 8.496273 0.000000
18.270470 8.496273 0.000000
18.585213 8.496273 0.000000
18.899952 8.496273 0.000000
-7.223550 8.181534 0.000000
-6.908809 8.181534 0.001891
-6.594068 8.181534 0.001931
-6.279327 8.181534 0.001990
-5.964586 8.181534 0.001999
-5.649845 8.181534 0.001963
-5.335104 8.181534 0.001919
-5.020363 8.181534 0.001989
-4.705622 8.181534 0.002073
-4.390881 8.181534 0.001978
-4.076140 8.181534 0.001778
-3.761399 8.181534 0.001725
-3.446658 8.181534 0.001822
-3.131917 8.181534 0.001906
-2.817176 8.181534 0.001902
-2.502435 8.181534 0.001856
-2.187694 8.181534 0.001784
-1.872953 8.181534 0.001657
-1.558212 8.181534 0.001612
-1.243471 8.181534 0.001606
-0.928730 8.181534 0.001655
-0.613989 8.181534 0.001680
-0.299248 8.181534 0.001696
0.015493 8.181534 0.001667
0.330234 8.181534 0.001579
0.644975 8.181534 0.001575
0.959716 8.181534 0.001664
1.274457 8.181534 0.001798
1.589198 8.181534 0.001831
1.903938 8.181534 0.001610
2.218679 8.181534 0.001426
2.533421 8.181534 0.001541
2.848162 8.181534 0.001759
3.162903 8.181534 0.001784
3.477644 8.181534 0.001564
3.792385 8.181534 0.001310
4.107125 8.181534 0.001165
4.421866 8.181534 0.001140
4.736608 8.181534 0.001214
5.051349 8.181534 0.001376
5.366090 8.181534 0.001605
5.680831 8.181534 0.001945
5.995571 8.181534 0.002236
6.310312 8.181534 0.003164
6.625053 8.181534 0.005449
6.939795 8.181534 0.008789
7.254536 8.181534 0.016484
7.569277 8.181534 0.033411
7.884017 8.181534 0.061658
8.198758 8.181534 0.113388
8.513499 8.181534 0.191923
8.828240 8.181534 0.292656
9.142982 8.181534 0.400726
9.457723 8.181534 0.517378
9.772464 8.181534 0.631447
10.087205 8.181534 0.733472
10.401946 8.181534 0.838074
10.716687 8.181534 0.941868
11.031426 8.181534 1.025971
11.346168 8.181534 1.100049
11.660909 8.181534 1.153005
11.975650 8.181534 1.201987
12.290391 8.181534 1.235259
12.605132 8.181534 1.298046
12.919873 8.181534 1.366310
13.234614 8.181534 1.406086
13.549356 8.181534 1.408146
13.864097 8.181534 1.350661
14.178838 8.181534 1.282851
14.493579 8.181534 1.207315
14.808320 8.181534 1.187137
15.123059 8.181534 1.104085
15.437800 8.181534 1.052133
15.752542 8.181534 0.745753
16.067284 8.181534 0.000000
16.382023 8.181534 0.000000
16.696766 8.181534 0.000000
17.011505 8.181534 0.000000
17.326248 8.181534 0.000000
17.640987 8.181534 0.000000
17.955730 8.181534 0.000000
18.270470 8.181534 0.000000
18.585213 8.181534 0.000000
18.899952 8.181534 0.000000
-7.223550 7.866791 0.000000
-6.908809 7.866791 0.001963
-6.594068 7.866791 0.002006
-6.279327 7.866791 0.002055
-5.964586 7.866791 0.002046
-5.649845 7.866791 0.001984
-5.335104 7.866791 0.001929
-5.020363 7.866791 0.001996
-4.705622 7.866791 0.002087
-4.390881 7.866791 0.002006
-4.076140 7.866791 0.001765
-3.761399 7.866791 0.001673
-3.446658 7.866791 0.001753
-3.131917 7.866791 0.001877
-2.817176 7.866791 0.001896
-2.502435 7.866791 0.001852
-2.187694 7.866791 0.001798
-1.872953 7.866791 0.001713
-1.558212 7.866791 0.001682
-1.243471 7.866791 0.001640
-0.928730 7.866791 0.001658
-0.613989 7.866791 0.001672
-0.299248 7.866791 0.001671
0.015493 7.866791 0.001649
0.330234 7.866791 0.001541
0.644975 7.866791 0.001468
0.959716 7.866791 0.001529
1.274457 7.866791 0.001688
1.589198 7.866791 0.001782
1.903938 7.866791 0.001619
2.218679 7.866791 0.001469
2.533421 7.866791 0.001580
2.848162 7.866791 0.001792
3.162903 7.866791 0.001781
3.477644 7.866791 0.001514
3.792385 7.866791 0.001285
4.107125 7.866791 0.001168
4.421866 7.866791 0.001215
4.736608 7.866791 0.001418
5.051349 7.866791 0.001526
5.366090 7.866791 0.001777
5.680831 7.866791 0.002132
5.995571 7.866791 0.002477
6.310312 7.866791 0.003335
6.625053 7.866791 0.005617
6.939795 7.866791 0.009643
7.254536 7.866791 0.017292
7.569277 7.866791 0.034317
7.884017 7.866791 0.060978
8.198758 7.866791 0.116002
8.513499 7.866791 0.199824
8.828240 7.866791 0.292062
9.142982 7.866791 0.414244
9.457723 7.866791 0.523973
9.772464 7.866791 0.642806
10.087205 7.866791 0.741914
10.401946 7.866791 0.845057
10.716687 7.866791 0.934913
11.031426 7.866791 1.029650
11.346168 7.866791 1.098612
11.660909 7.866791 1.162242
11.975650 7.866791 1.206817
12.290391 7.866791 1.242186
12.605132 7.866791 1.312302
12.919873 7.866791 1.363303
13.234614 7.866791 1.396750
13.549356 7.866791 1.382691
13.864097 7.866791 1.332056
14.178838 7.866791 1.295734
14.493579 7.866791 1.212788
14.808320 7.866791 1.175482
15.123059 7.866791 1.122754
15.437800 7.866791 1.078018
15.752542 7.866791 0.737957
16.067284 7.866791 0.000000
16.382023 7.866791 0.000000
16.696766 7.866791 0.000000
17.011505 7.866791 0.000000
17.326248 7.866791 0.000000
17.640987 7.866791 0.000000
17.955730 7.866791 0.000000
18.270470 7.866791 0.000000
18.585213 7.866791 0.000000
18.899952 7.866791 0.000000
-7.223550 7.552052 0.000000
-6.908809 7.552052 0.002081
-6.594068 7.552052 0.002125
-6.279327 7.552052 0.002132
-5.964586 7.552052 0.002091
-5.649845 7.552052 0.002035
-5.335104 7.552052 0.001979
-5.020363 7.552052 0.002028
-4.705622 7.552052 0.002114
-4.390881 7.552052 0.002043
-4.076140 7.552052 0.001788
-3.761399 7.552052 0.001671
-3.446658 7.552052 0.001732
-3.131917 7.552052 0.001849
-2.817176 7.552052 0.001884
-2.502435 7.552052 0.001855
-2.187694 7.552052 0.001825
-1.872953 7.552052 0.001760
-1.558212 7.552052 0.001744
-1.243471 7.552052 0.001693
-0.928730 7.552052 0.001683
-0.613989 7.552052 0.001676
-0.299248 7.552052 0.001664
0.015493 7.552052 0.001649
0.330234 7.552052 0.001557
0.644975 7.552052 0.001432
0.959716 7.552052 0.001436
1.274457 7.552052 0.001579
1.589198 7.552052 0.001737
1.903938 7.552052 0.001682
2.218679 7.552052 0.001541
2.533421 7.552052 0.001602
2.848162 7.552052 0.001760
3.162903 7.552052 0.001752
3.477644 7.552052 0.001517
3.792385 7.552052 0.001288
4.107125 7.552052 0.001262
4.421866 7.552052 0.001322
4.736608 7.552052 0.001471
5.051349 7.552052 0.001701
5.366090 7.552052 0.001816
5.680831 7.552052 0.002052
5.995571 7.552052 0.002553
6.310312 7.552052 0.003165
6.625053 7.552052 0.004914
6.939795 7.552052 0.009030
7.254536 7.552052 0.018391
7.569277 7.552052 0.033476
7.884017 7.552052 0.065575
8.198758 7.552052 0.120624
8.513499 7.552052 0.205758
8.828240 7.552052 0.305089
9.142982 7.552052 0.424554
9.457723 7.552052 0.536670
9.772464 7.552052 0.652515
10.087205 7.552052 0.751431
10.401946 7.552052 0.850534
10.716687 7.552052 0.937787
11.031426 7.552052 1.031157
11.346168 7.552052 1.101577
11.660909 7.552052 1.169552
11.975650 7.552052 1.209051
12.290391 7.552052 1.255526
12.605132 7.552052 1.318730
12.919873 7.552052 1.355870
13.234614 7.552052 1.385932
13.549356 7.552052 1.381488
13.864097 7.552052 1.331577
14.178838 7.552052 1.254112
14.493579 7.552052 1.190136
14.808320 7.552052 1.151485
15.123059 7.552052 1.135668
15.437800 7.552052 1.107054
15.752542 7.552052 0.770896
16.067284 7.552052 0.000000
16.382023 7.552052 0.000000
16.696766 7.552052 0.000000
17.011505 7.552052 0.000000
17.326248 7.552052 0.000000
17.640987 7.552052 0.000000
17.955730 7.552052 0.000000
18.270470 7.552052 0.000000
18.585213 7.552052 0.000000
18.899952 7.552052 0.000000
-7.223550 7.237309 0.000000
-6.908809 7.237309 0.002227
-6.594068 7.237309 0.002217
-6.279327 7.237309 0.002174
-5.964586 7.237309 0.002115
-5.649845 7.237309 0.002086
-5.335104 7.237309 0.002045
-5.020363 7.237309 0.002038
-4.705622 7.237309 0.002103
-4.390881 7.237309 0.002049
-4.076140 7.237309 0.001851
-3.761399 7.237309 0.001719
-3.446658 7.237309 0.001734
-3.131917 7.237309 0.001825
-2.817176 7.237309 0.001877
-2.502435 7.237309 0.001873
-2.187694 7.237309 0.001849
-1.872953 7.237309 0.001814
-1.558212 7.237309 0.001778
-1.243471 7.237309 0.001735
-0.928730 7.237309 0.001697
-0.613989 7.237309 0.001681
-0.299248 7.237309 0.001664
0.015493 7.237309 0.001675
0.330234 7.237309 0.001610
0.644975 7.237309 0.001471
0.959716 7.237309 0.001388
1.274457 7.237309 0.001505
1.589198 7.237309 0.001702
1.903938 7.237309 0.001750
2.218679 7.237309 0.001629
2.533421 7.237309 0.001598
2.848162 7.237309 0.001665
3.162903 7.237309 0.001676
3.477644 7.237309 0.001563
3.792385 7.237309 0.001447
4.107125 7.237309 0.001368
4.421866 7.237309 0.001408
4.736608 7.237309 0.001575
5.051349 7.237309 0.001818
5.366090 7.237309 0.001880
5.680831 7.237309 0.002000
5.995571 7.237309 0.002304
6.310312 7.237309 0.002969
6.625053 7.237309 0.005375
6.939795 7.237309 0.009525
7.254536 7.237309 0.017877
7.569277 7.237309 0.034284
7.884017 7.237309 0.066837
8.198758 7.237309 0.126437
8.513499 7.237309 0.206585
8.828240 7.237309 0.311911
9.142982 7.237309 0.429612
9.457723 7.237309 0.548717
9.772464 7.237309 0.655819
10.087205 7.237309 0.757022
10.401946 7.237309 0.858580
10.716687 7.237309 0.942121
11.031426 7.237309 1.033016
11.346168 7.237309 1.112921
11.660909 7.237309 1.172128
11.975650 7.237309 1.217951
12.290391 7.237309 1.275212
12.605132 7.237309 1.317643
12.919873 7.237309 1.351520
13.234614 7.237309 1.380831
13.549356 7.237309 1.359855
13.864097 7.237309 1.305174
14.178838 7.237309 1.251068
14.493579 7.237309 1.190419
14.808320 7.237309 1.152737
15.123059 7.237309 1.140280
15.437800 7.237309 1.116547
15.752542 7.237309 0.770938
16.067284 7.237309 0.000000
16.382023 7.237309 0.000000
16.696766 7.237309 0.000000
17.011505 7.237309 0.000000
17.326248 7.237309 0.000000
17.640987 7.237309 0.000000
17.955730 7.237309 0.000000
18.270470 7.237309 0.000000
18.585213 7.237309 0.000000
18.899952 7.237309 0.000000
-7.223550 6.922569 0.000000
-6.908809 6.922569 0.002320
-6.594068 6.922569 0.002262
-6.279327 6.922569 0.002178
-5.964586 6.922569 0.002108
-5.649845 6.922569 0.002129
-5.335104 6.922569 0.002098
-5.020363 6.922569 0.002022
-4.705622 6.922569 0.002037
-4.390881 6.922569 0.002029
-4.076140 6.922569 0.001921
-3.761399 6.922569 0.001799
-3.446658 6.922569 0.001765
-3.131917 6.922569 0.001841
-2.817176 6.922569 0.001897
-2.502435 6.922569 0.001894
-2.187694 6.922569 0.001852
-1.872953 6.922569 0.001813
-1.558212 6.922569 0.001796
-1.243471 6.922569 0.001778
-0.928730 6.922569 0.001737
-0.613989 6.922569 0.001712
-0.299248 6.922569 0.001702
0.015493 6.922569 0.001711
0.330234 6.922569 0.001663
0.644975 6.922569 0.001530
0.959716 6.922569 0.001416
1.274457 6.922569 0.001515
1.589198 6.922569 0.001691
1.903938 6.922569 0.001796
2.218679 6.922569 0.001701
2.533421 6.922569 0.001611
2.848162 6.922569 0.001601
3.162903 6.922569 0.001645
3.477644 6.922569 0.001716
3.792385 6.922569 0.001629
4.107125 6.922569 0.001452
4.421866 6.922569 0.001452
4.736608 6.922569 0.001655
5.051349 6.922569 0.001781
5.366090 6.922569 0.001854
5.680831 6.922569 0.001860
5.995571 6.922569 0.002394
6.310312 6.922569 0.003003
6.625053 6.922569 0.005329
6.939795 6.922569 0.009769
7.254536 6.922569 0.020275
7.569277 6.922569 0.036360
7.884017 6.922569 0.072669
8.198758 6.922569 0.128688
8.513499 6.922569 0.212663
8.828240 6.922569 0.323030
9.142982 6.922569 0.442764
9.457723 6.922569 0.552367
9.772464 6.922569 0.658823
10.087205 6.922569 0.754238
10.401946 6.922569 0.859432
10.716687 6.922569 0.950374
11.031426 6.922569 1.036167
11.346168 6.922569 1.118817
11.660909 6.922569 1.187539
11.975650 6.922569 1.227031
12.290391 6.922569 1.274711
12.605132 6.922569 1.317524
12.919873 6.922569 1.352438
13.234614 6.922569 1.382961
13.549356 6.922569 1.348156
13.864097 6.922569 1.293356
14.178838 6.922569 1.230244
14.493579 6.922569 1.187906
14.808320 6.922569 1.153859
15.123059 6.922569 1.126234
15.437800 6.922569 1.116590
15.752542 6.922569 0.783463
16.067284 6.922569 0.000000
16.382023 6.922569 0.000000
16.696766 6.922569 0.000000
17.011505 6.922569 0.000000
17.326248 6.922569 0.000000
17.640987 6.922569 0.000000
17.955730 6.922569 0.000000
18.270470 6.922569 0.000000
18.585213 6.922569 0.000000
18.899952 6.922569 0.000000
-7.223550 6.607826 0.000000
-6.908809 6.607826 0.002334
-6.594068 6.607826 0.002258
-6.279327 6.607826 0.002135
-5.964586 6.607826 0.002090
-5.649845 6.607826 0.002135
-5.335104 6.607826 0.002105
-5.020363 6.607826 0.001985
-4.705622 6.607826 0.001963
-4.390881 6.607826 0.002019
-4.076140 6.607826 0.002013
-3.761399 6.607826 0.001899
-3.446658 6.607826 0.001820
-3.131917 6.607826 0.001871
-2.817176 6.607826 0.001927
-2.502435 6.607826 0.001896
-2.187694 6.607826 0.001828
-1.872953 6.607826 0.001792
-1.558212 6.607826 0.001816
-1.243471 6.607826 0.001838
-0.928730 6.607826 0.001820
-0.613989 6.607826 0.001780
-0.299248 6.607826 0.001750
0.015493 6.607826 0.001753
0.330234 6.607826 0.001699
0.644975 6.607826 0.001596
0.959716 6.607826 0.001505
1.274457 6.607826 0.001566
1.589198 6.607826 0.001692
1.903938 6.607826 0.001810
2.218679 6.607826 0.001762
2.533421 6.607826 0.001652
2.848162 6.607826 0.001585
3.162903 6.607826 0.001660
3.477644 6.607826 0.001810
3.792385 6.607826 0.001752
4.107125 6.607826 0.001519
4.421866 6.607826 0.001478
4.736608 6.607826 0.001580
5.051349 6.607826 0.001667
5.366090 6.607826 0.001683
5.680831 6.607826 0.001952
5.995571 6.607826 0.002466
6.310312 6.607826 0.003602
6.625053 6.607826 0.005858
6.939795 6.607826 0.010410
7.254536 6.607826 0.020212
7.569277 6.607826 0.037867
7.884017 6.607826 0.073840
8.198758 6.607826 0.131574
8.513499 6.607826 0.213553
8.828240 6.607826 0.328112
9.142982 6.607826 0.448960
9.457723 6.607826 0.555225
9.772464 6.607826 0.661849
10.087205 6.607826 0.761103
10.401946 6.607826 0.858343
10.716687 6.607826 0.948270
11.031426 6.607826 1.030499
11.346168 6.607826 1.112348
11.660909 6.607826 1.184289
11.975650 6.607826 1.241260
12.290391 6.607826 1.282998
12.605132 6.607826 1.324636
12.919873 6.607826 1.343589
13.234614 6.607826 1.363459
13.549356 6.607826 1.332312
13.864097 6.607826 1.280477
14.178838 6.607826 1.229715
14.493579 6.607826 1.196745
14.808320 6.607826 1.175364
15.123059 6.607826 1.147367
15.437800 6.607826 1.141729
15.752542 6.607826 0.772126
16.067284 6.607826 0.000000
16.382023 6.607826 0.000000
16.696766 6.607826 0.000000
17.011505 6.607826 0.000000
17.326248 6.607826 0.000000
17.640987 6.607826 0.000000
17.955730 6.607826 0.000000
18.270470 6.607826 0.000000
18.585213 6.607826 0.000000
18.899952 6.607826 0.000000
-7.223550 6.293087 0.000000
-6.908809 6.293087 0.002302
-6.594068 6.293087 0.002234
-6.279327 6.293087 0.002097
-5.964586 6.293087 0.002061
-5.649845 6.293087 0.002114
-5.335104 6.293087 0.002079
-5.020363 6.293087 0.001943
-4.705622 6.293087 0.001913
-4.390881 6.293087 0.002029
-4.076140 6.293087 0.002095
-3.761399 6.293087 0.001992
-3.446658 6.293087 0.001896
-3.131917 6.293087 0.001916
-2.817176 6.293087 0.001964
-2.502435 6.293087 0.001927
-2.187694 6.293087 0.001816
-1.872953 6.293087 0.001773
-1.558212 6.293087 0.001830
-1.243471 6.293087 0.001891
-0.928730 6.293087 0.001895
-0.613989 6.293087 0.001857
-0.299248 6.293087 0.001800
0.015493 6.293087 0.001812
0.330234 6.293087 0.001767
0.644975 6.293087 0.001670
0.959716 6.293087 0.001616
1.274457 6.293087 0.001613
1.589198 6.293087 0.001714
1.903938 6.293087 0.001844
2.218679 6.293087 0.001839
2.533421 6.293087 0.001723
2.848162 6.293087 0.001605
3.162903 6.293087 0.001700
3.477644 6.293087 0.001870
3.792385 6.293087 0.001850
4.107125 6.293087 0.001641
4.421866 6.293087 0.001476
4.736608 6.293087 0.001452
5.051349 6.293087 0.001493
5.366090 6.293087 0.001616
5.680831 6.293087 0.001969
5.995571 6.293087 0.002571
6.310312 6.293087 0.003731
6.625053 6.293087 0.005593
6.939795 6.293087 0.009738
7.254536 6.293087 0.021467
7.569277 6.293087 0.040207
7.884017 6.293087 0.075454
8.198758 6.293087 0.137935
8.513499 6.293087 0.227754
8.828240 6.293087 0.329287
9.142982 6.293087 0.447134
9.457723 6.293087 0.564124
9.772464 6.293087 0.672281
10.087205 6.293087 0.773023
10.401946 6.293087 0.863351
10.716687 6.293087 0.948602
11.031426 6.293087 1.027637
11.346168 6.293087 1.118113
11.660909 6.293087 1.194667
11.975650 6.293087 1.239778
12.290391 6.293087 1.282276
12.605132 6.293087 1.329313
12.919873 6.293087 1.347548
13.234614 6.293087 1.355525
13.549356 6.293087 1.329646
13.864097 6.293087 1.283093
14.178838 6.293087 1.230270
14.493579 6.293087 1.200727
14.808320 6.293087 1.170653
15.123059 6.293087 1.118865
15.437800 6.293087 1.137802
15.752542 6.293087 0.742542
16.067284 6.293087 0.000000
16.382023 6.293087 0.000000
16.696766 6.293087 0.000000
17.011505 6.293087 0.000000
17.326248 6.293087 0.000000
17.640987 6.293087 0.000000
17.955730 6.293087 0.000000
18.270470 6.293087 0.000000
18.585213 6.293087 0.000000
18.899952 6.293087 0.000000
-7.223550 5.978344 0.000000
-6.908809 5.978344 0.002329
-6.594068 5.978344 0.002189
-6.279327 5.978344 0.002059
-5.964586 5.978344 0.002043
-5.649845 5.978344 0.002099
-5.335104 5.978344 0.002040
-5.020363 5.978344 0.001920
-4.705622 5.978344 0.001905
-4.390881 5.978344 0.002046
-4.076140 5.978344 0.002128
-3.761399 5.978344 0.002045
-3.446658 5.978344 0.001958
-3.131917 5.978344 0.001958
-2.817176 5.978344 0.001990
-2.502435 5.978344 0.001977
-2.187694 5.978344 0.001868
-1.872953 5.978344 0.001792
-1.558212 5.978344 0.001862
-1.243471 5.978344 0.001934
-0.928730 5.978344 0.001954
-0.613989 5.978344 0.001921
-0.299248 5.978344 0.001837
0.015493 5.978344 0.001875
0.330234 5.978344 0.001878
0.644975 5.978344 0.001771
0.959716 5.978344 0.001706
1.274457 5.978344 0.001668
1.589198 5.978344 0.001741
1.903938 5.978344 0.001869
2.218679 5.978344 0.001868
2.533421 5.978344 0.001740
2.848162 5.978344 0.001666
3.162903 5.978344 0.001726
3.477644 5.978344 0.001880
3.792385 5.978344 0.001888
4.107125 5.978344 0.001697
4.421866 5.978344 0.001492
4.736608 5.978344 0.001396
5.051349 5.978344 0.001422
5.366090 5.978344 0.001546
5.680831 5.978344 0.001983
5.995571 5.978344 0.002751
6.310312 5.978344 0.003915
6.625053 5.978344 0.005823
6.939795 5.978344 0.009771
7.254536 5.978344 0.022190
7.569277 5.978344 0.042754
7.884017 5.978344 0.080091
8.198758 5.978344 0.140688
8.513499 5.978344 0.235408
8.828240 5.978344 0.336062
9.142982 5.978344 0.452654
9.457723 5.978344 0.569873
9.772464 5.978344 0.677906
10.087205 5.978344 0.783442
10.401946 5.978344 0.867148
10.716687 5.978344 0.950045
11.031426 5.978344 1.034206
11.346168 5.978344 1.114777
11.660909 5.978344 1.181824
11.975650 5.978344 1.253068
12.290391 5.978344 1.292976
12.605132 5.978344 1.332074
12.919873 5.978344 1.358932
13.234614 5.978344 1.350175
13.549356 5.978344 1.316996
13.864097 5.978344 1.266552
14.178838 5.978344 1.242497
14.493579 5.978344 1.210772
14.808320 5.978344 1.188754
15.123059 5.978344 1.138552
15.437800 5.978344 1.127192
15.752542 5.978344 0.688757
16.067284 5.978344 0.000000
16.382023 5.978344 0.000000
16.696766 5.978344 0.000000
17.011505 5.978344 0.000000
17.326248 5.978344 0.000000
17.640987 5.978344 0.000000
17.955730 5.978344 0.000000
18.270470 5.978344 0.000000
18.585213 5.978344 0.000000
18.899952 5.978344 0.000000
-7.223550 5.663605 0.000000
-6.908809 5.663605 0.002369
-6.594068 5.663605 0.002160
-6.279327 5.663605 0.002046
-5.964586 5.663605 0.002050
-5.649845 5.663605 0.002084
-5.335104 5.663605 0.002018
-5.020363 5.663605 0.001934
-4.705622 5.663605 0.001945
-4.390881 5.663605 0.002082
-4.076140 5.663605 0.002125
-3.761399 5.663605 0.002068
-3.446658 5.663605 0.002000
-3.131917 5.663605 0.001981
-2.817176 5.663605 0.002008
-2.502435 5.663605 0.002016
-2.187694 5.663605 0.001924
-1.872953 5.663605 0.001873
-1.558212 5.663605 0.001921
-1.243471 5.663605 0.001956
-0.928730 5.663605 0.001997
-0.613989 5.663605 0.001958
-0.299248 5.663605 0.001879
0.015493 5.663605 0.001915
0.330234 5.663605 0.001975
0.644975 5.663605 0.001873
0.959716 5.663605 0.001754
1.274457 5.663605 0.001707
1.589198 5.663605 0.001789
1.903938 5.663605 0.001870
2.218679 5.663605 0.001853
2.533421 5.663605 0.001709
2.848162 5.663605 0.001674
3.162903 5.663605 0.001717
3.477644 5.663605 0.001832
3.792385 5.663605 0.001840
4.107125 5.663605 0.001674
4.421866 5.663605 0.001496
4.736608 5.663605 0.001339
5.051349 5.663605 0.001460
5.366090 5.663605 0.001682
5.680831 5.663605 0.001886
5.995571 5.663605 0.002678
6.310312 5.663605 0.004019
6.625053 5.663605 0.005585
6.939795 5.663605 0.010295
7.254536 5.663605 0.021696
7.569277 5.663605 0.042107
7.884017 5.663605 0.083061
8.198758 5.663605 0.148614
8.513499 5.663605 0.244464
8.828240 5.663605 0.350093
9.142982 5.663605 0.470810
9.457723 5.663605 0.581136
9.772464 5.663605 0.688331
10.087205 5.663605 0.779796
10.401946 5.663605 0.860908
10.716687 5.663605 0.948263
11.031426 5.663605 1.031241
11.346168 5.663605 1.109480
11.660909 5.663605 1.186196
11.975650 5.663605 1.254397
12.290391 5.663605 1.302771
12.605132 5.663605 1.330248
12.919873 5.663605 1.363776
13.234614 5.663605 1.356754
13.549356 5.663605 1.321995
13.864097 5.663605 1.267247
14.178838 5.663605 1.227221
14.493579 5.663605 1.224359
14.808320 5.663605 1.197739
15.123059 5.663605 1.150705
15.437800 5.663605 1.173098
15.752542 5.663605 0.654289
16.067284 5.663605 0.000000
16.382023 5.663605 0.000000
16.696766 5.663605 0.000000
17.011505 5.663605 0.000000
17.326248 5.663605 0.000000
17.640987 5.663605 0.000000
17.955730 5.663605 0.000000
18.270470 5.663605 0.000000
18.585213 5.663605 0.000000
18.899952 5.663605 0.000000
-7.223550 5.348862 0.000000
-6.908809 5.348862 0.002389
-6.594068 5.348862 0.002121
-6.279327 5.348862 0.002043
-5.964586 5.348862 0.002066
-5.649845 5.348862 0.002090
-5.335104 5.348862 0.002036
-5.020363 5.348862 0.002012
-4.705622 5.348862 0.002046
-4.390881 5.348862 0.002118
-4.076140 5.348862 0.002131
-3.761399 5.348862 0.002069
-3.446658 5.348862 0.002018
-3.131917 5.348862 0.001976
-2.817176 5.348862 0.002019
-2.502435 5.348862 0.002034
-2.187694 5.348862 0.001964
-1.872953 5.348862 0.001957
-1.558212 5.348862 0.001985
-1.243471 5.348862 0.001975
-0.928730 5.348862 0.002010
-0.613989 5.348862 0.001989
-0.299248 5.348862 0.001908
0.015493 5.348862 0.001931
0.330234 5.348862 0.002032
0.644975 5.348862 0.001945
0.959716 5.348862 0.001796
1.274457 5.348862 0.001747
1.589198 5.348862 0.001823
1.903938 5.348862 0.001856
2.218679 5.348862 0.001827
2.533421 5.348862 0.001720
2.848162 5.348862 0.001679
3.162903 5.348862 0.001730
3.477644 5.348862 0.001798
3.792385 5.348862 0.001773
4.107125 5.348862 0.001712
4.421866 5.348862 0.001459
4.736608 5.348862 0.001387
5.051349 5.348862 0.001521
5.366090 5.348862 0.001694
5.680831 5.348862 0.001833
5.995571 5.348862 0.002129
6.310312 5.348862 0.003788
6.625053 5.348862 0.006007
6.939795 5.348862 0.011655
7.254536 5.348862 0.021959
7.569277 5.348862 0.044561
7.884017 5.348862 0.086185
8.198758 5.348862 0.154984
8.513499 5.348862 0.247016
8.828240 5.348862 0.363848
9.142982 5.348862 0.488304
9.457723 5.348862 0.601508
9.772464 5.348862 0.702345
10.087205 5.348862 0.791776
10.401946 5.348862 0.866534
10.716687 5.348862 0.948698
11.031426 5.348862 1.032571
11.346168 5.348862 1.111212
11.660909 5.348862 1.188005
11.975650 5.348862 1.252049
12.290391 5.348862 1.308349
12.605132 5.348862 1.352781
12.919873 5.348862 1.359645
13.234614 5.348862 1.367371
13.549356 5.348862 1.295646
13.864097 5.348862 1.243193
14.178838 5.348862 1.236136
14.493579 5.348862 1.234878
14.808320 5.348862 1.194484
15.123059 5.348862 1.153317
15.437800 5.348862 1.160539
15.752542 5.348862 0.609253
16.067284 5.348862 0.000000
16.382023 5.348862 0.000000
16.696766 5.348862 0.000000
17.011505 5.348862 0.000000
17.326248 5.348862 0.000000
17.640987 5.348862 0.000000
17.955730 5.348862 0.000000
18.270470 5.348862 0.000000
18.585213 5.348862 0.000000
18.899952 5.348862 0.000000
-7.223550 5.034122 0.000000
-6.908809 5.034122 0.002412
-6.594068 5.034122 0.002140
-6.279327 5.034122 0.002072
-5.964586 5.034122 0.002101
-5.649845 5.034122 0.002124
-5.335104 5.034122 0.002104
-5.020363 5.034122 0.002126
-4.705622 5.034122 0.002158
-4.390881 5.034122 0.002144
-4.076140 5.034122 0.002115
-3.761399 5.034122 0.002063
-3.446658 5.034122 0.002027
-3.131917 5.034122 0.001967
-2.817176 5.034122 0.001986
-2.502435 5.034122 0.001991
-2.187694 5.034122 0.001964
-1.872953 5.034122 0.002029
-1.558212 5.034122 0.002039
-1.243471 5.034122 0.001989
-0.928730 5.034122 0.001990
-0.613989 5.034122 0.001990
-0.299248 5.034122 0.001917
0.015493 5.034122 0.001908
0.330234 5.034122 0.002006
0.644975 5.034122 0.001977
0.959716 5.034122 0.001845
1.274457 5.034122 0.001809
1.589198 5.034122 0.001848
1.903938 5.034122 0.001826
2.218679 5.034122 0.001815
2.533421 5.034122 0.001790
2.848162 5.034122 0.001765
3.162903 5.034122 0.001757
3.477644 5.034122 0.001784
3.792385 5.034122 0.001784
4.107125 5.034122 0.001670
4.421866 5.034122 0.001532
4.736608 5.034122 0.001489
5.051349 5.034122 0.001653
5.366090 5.034122 0.001856
5.680831 5.034122 0.001757
5.995571 5.034122 0.002285
6.310312 5.034122 0.003322
6.625053 5.034122 0.005987
6.939795 5.034122 0.012481
7.254536 5.034122 0.024753
7.569277 5.034122 0.047605
7.884017 5.034122 0.090688
8.198758 5.034122 0.164392
8.513499 5.034122 0.257532
8.828240 5.034122 0.376991
9.142982 5.034122 0.503774
9.457723 5.034122 0.614578
9.772464 5.034122 0.717315
10.087205 5.034122 0.798396
10.401946 5.034122 0.869290
10.716687 5.034122 0.959486
11.031426 5.034122 1.032034
11.346168 5.034122 1.106457
11.660909 5.034122 1.184635
11.975650 5.034122 1.248014
12.290391 5.034122 1.295867
12.605132 5.034122 1.334252
12.919873 5.034122 1.348955
13.234614 5.034122 1.341330
13.549356 5.034122 1.301125
13.864097 5.034122 1.245270
14.178838 5.034122 1.222999
14.493579 5.034122 1.218066
14.808320 5.034122 1.176696
15.123059 5.034122 1.141661
15.437800 5.034122 1.159791
15.752542 5.034122 0.620043
16.067284 5.034122 0.000000
16.382023 5.034122 0.000000
16.696766 5.034122 0.000000
17.011505 5.034122 0.000000
17.326248 5.034122 0.000000
17.640987 5.034122 0.000000
17.955730 5.034122 0.000000
18.270470 5.034122 0.000000
18.585213 5.034122 0.000000
18.899952 5.034122 0.000000
-7.223550 4.719383 0.000000
-6.908809 4.719383 0.002449
-6.594068 4.719383 0.002203
-6.279327 4.719383 0.002140
-5.964586 4.719383 0.002163
-5.649845 4.719383 0.002170
-5.335104 4.719383 0.002184
-5.020363 4.719383 0.002239
-4.705622 4.719383 0.002252
-4.390881 4.719383 0.002193
-4.076140 4.719383 0.002129
-3.761399 4.719383 0.002101
-3.446658 4.719383 0.002052
-3.131917 4.719383 0.001972
-2.817176 4.719383 0.001956
-2.502435 4.719383 0.001945
-2.187694 4.719383 0.001950
-1.872953 4.719383 0.002060
-1.558212 4.719383 0.002079
-1.243471 4.719383 0.001996
-0.928730 4.719383 0.001971
-0.613989 4.719383 0.001957
-0.299248 4.719383 0.001906
0.015493 4.719383 0.001879
0.330234 4.719383 0.001958
0.644975 4.719383 0.002002
0.959716 4.719383 0.001919
1.274457 4.719383 0.001898
1.589198 4.719383 0.001886
1.903938 4.719383 0.001803
2.218679 4.719383 0.001834
2.533421 4.719383 0.001909
2.848162 4.719383 0.001886
3.162903 4.719383 0.001824
3.477644 4.719383 0.001770
3.792385 4.719383 0.001764
4.107125 4.719383 0.001669
4.421866 4.719383 0.001574
4.736608 4.719383 0.001642
5.051349 4.719383 0.001765
5.366090 4.719383 0.001833
5.680831 4.719383 0.001996
5.995571 4.719383 0.002226
6.310312 4.719383 0.003921
6.625053 4.719383 0.007102
6.939795 4.719383 0.011933
7.254536 4.719383 0.024458
7.569277 4.719383 0.048647
7.884017 4.719383 0.094415
8.198758 4.719383 0.170700
8.513499 4.719383 0.268432
8.828240 4.719383 0.380797
9.142982 4.719383 0.512830
9.457723 4.719383 0.627615
9.772464 4.719383 0.722437
10.087205 4.719383 0.803303
10.401946 4.719383 0.882702
10.716687 4.719383 0.967035
11.031426 4.719383 1.042716
11.346168 4.719383 1.118020
11.660909 4.719383 1.175716
11.975650 4.719383 1.233206
12.290391 4.719383 1.284146
12.605132 4.719383 1.327276
12.919873 4.719383 1.347086
13.234614 4.719383 1.333544
13.549356 4.719383 1.303933
13.864097 4.719383 1.253552
14.178838 4.719383 1.231664
14.493579 4.719383 1.203921
14.808320 4.719383 1.176991
15.123059 4.719383 1.168323
15.437800 4.719383 1.163186
15.752542 4.719383 0.688152
16.067284 4.719383 0.000000
16.382023 4.719383 0.000000
16.696766 4.719383 0.000000
17.011505 4.719383 0.000000
17.326248 4.719383 0.000000
17.640987 4.719383 0.000000
17.955730 4.719383 0.000000
18.270470 4.719383 0.000000
18.585213 4.719383 0.000000
18.899952 4.719383 0.000000
-7.223550 4.404640 0.000000
-6.908809 4.404640 0.002468
-6.594068 4.404640 0.002270
-6.279327 4.404640 0.002216
-5.964586 4.404640 0.002237
-5.649845 4.404640 0.002235
-5.335104 4.404640 0.002254
-5.020363 4.404640 0.002320
-4.705622 4.404640 0.002321
-4.390881 4.404640 0.002252
-4.076140 4.404640 0.002155
-3.761399 4.404640 0.002157
-3.446658 4.404640 0.002129
-3.131917 4.404640 0.002020
-2.817176 4.404640 0.001969
-2.502435 4.404640 0.001936
-2.187694 4.404640 0.001941
-1.872953 4.404640 0.002061
-1.558212 4.404640 0.002093
-1.243471 4.404640 0.002015
-0.928730 4.404640 0.001967
-0.613989 4.404640 0.001937
-0.299248 4.404640 0.001899
0.015493 4.404640 0.001879
0.330234 4.404640 0.001943
0.644975 4.404640 0.002054
0.959716 4.404640 0.002026
1.274457 4.404640 0.002003
1.589198 4.404640 0.001965
1.903938 4.404640 0.001815
2.218679 4.404640 0.001848
2.533421 4.404640 0.001982
2.848162 4.404640 0.001983
3.162903 4.404640 0.001906
3.477644 4.404640 0.001809
3.792385 4.404640 0.001761
4.107125 4.404640 0.001631
4.421866 4.404640 0.001607
4.736608 4.404640 0.001713
5.051349 4.404640 0.001859
5.366090 4.404640 0.001938
5.680831 4.404640 0.001966
5.995571 4.404640 0.002409
6.310312 4.404640 0.004295
6.625053 4.404640 0.007230
6.939795 4.404640 0.013462
7.254536 4.404640 0.025566
7.569277 4.404640 0.051033
7.884017 4.404640 0.098363
8.198758 4.404640 0.175978
8.513499 4.404640 0.277514
8.828240 4.404640 0.396030
9.142982 4.404640 0.517631
9.457723 4.404640 0.632179
9.772464 4.404640 0.727735
10.087205 4.404640 0.813738
10.401946 4.404640 0.893991
10.716687 4.404640 0.967089
11.031426 4.404640 1.051414
11.346168 4.404640 1.126986
11.660909 4.404640 1.177213
11.975650 4.404640 1.226491
12.290391 4.404640 1.278759
12.605132 4.404640 1.320264
12.919873 4.404640 1.322699
13.234614 4.404640 1.307029
13.549356 4.404640 1.285953
13.864097 4.404640 1.239054
14.178838 4.404640 1.205169
14.493579 4.404640 1.198720
14.808320 4.404640 1.178869
15.123059 4.404640 1.164033
15.437800 4.404640 1.202639
15.752542 4.404640 0.873390
16.067284 4.404640 0.000000
16.382023 4.404640 0.000000
16.696766 4.404640 0.000000
17.011505 4.404640 0.000000
17.326248 4.404640 0.000000
17.640987 4.404640 0.000000
17.955730 4.404640 0.000000
18.270470 4.404640 0.000000
18.585213 4.404640 0.000000
18.899952 4.404640 0.000000
-7.223550 4.089901 0.000000
-6.908809 4.089901 0.002469
-6.594068 4.089901 0.002343
-6.279327 4.089901 0.002300
-5.964586 4.089901 0.002321
-5.649845 4.089901 0.002270
-5.335104 4.089901 0.002294
-5.020363 4.089901 0.002376
-4.705622 4.089901 0.002374
-4.390881 4.089901 0.002290
-4.076140 4.089901 0.002193
-3.761399 4.089901 0.002223
-3.446658 4.089901 0.002248
-3.131917 4.089901 0.002120
-2.817176 4.089901 0.002039
-2.502435 4.089901 0.001991
-2.187694 4.089901 0.001960
-1.872953 4.089901 0.002027
-1.558212 4.089901 0.002080
-1.243471 4.089901 0.002031
-0.928730 4.089901 0.001984
-0.613989 4.089901 0.001945
-0.299248 4.089901 0.001926
0.015493 4.089901 0.001917
0.330234 4.089901 0.001950
0.644975 4.089901 0.002082
0.959716 4.089901 0.002112
1.274457 4.089901 0.002084
1.589198 4.089901 0.002049
1.903938 4.089901 0.001874
2.218679 4.089901 0.001882
2.533421 4.089901 0.002035
2.848162 4.089901 0.002040
3.162903 4.089901 0.001976
3.477644 4.089901 0.001794
3.792385 4.089901 0.001725
4.107125 4.089901 0.001645
4.421866 4.089901 0.001757
4.736608 4.089901 0.001863
5.051349 4.089901 0.001921
5.366090 4.089901 0.001931
5.680831 4.089901 0.002221
5.995571 4.089901 0.002802
6.310312 4.089901 0.004848
6.625053 4.089901 0.007796
6.939795 4.089901 0.014057
7.254536 4.089901 0.028392
7.569277 4.089901 0.054007
7.884017 4.089901 0.104178
8.198758 4.089901 0.187552
8.513499 4.089901 0.290814
8.828240 4.089901 0.408506
9.142982 4.089901 0.527921
9.457723 4.089901 0.637470
9.772464 4.089901 0.740983
10.087205 4.089901 0.818123
10.401946 4.089901 0.888498
10.716687 4.089901 0.966761
11.031426 4.089901 1.052603
11.346168 4.089901 1.122761
11.660909 4.089901 1.175856
11.975650 4.089901 1.229028
12.290391 4.089901 1.285055
12.605132 4.089901 1.313343
12.919873 4.089901 1.314323
13.234614 4.089901 1.296906
13.549356 4.089901 1.263103
13.864097 4.089901 1.224225
14.178838 4.089901 1.192186
14.493579 4.089901 1.175638
14.808320 4.089901 1.167577
15.123059 4.089901 1.198783
15.437800 4.089901 1.254645
15.752542 4.089901 0.000000
16.067284 4.089901 0.000000
16.382023 4.089901 0.000000
16.696766 4.089901 0.000000
17.011505 4.089901 0.000000
17.326248 4.089901 0.000000
17.640987 4.089901 0.000000
17.955730 4.089901 0.000000
18.270470 4.089901 0.000000
18.585213 4.089901 0.000000
18.899952 4.089901 0.000000
-7.223550 3.775158 0.000000
-6.908809 3.775158 0.002442
-6.594068 3.775158 0.002392
-6.279327 3.775158 0.002382
-5.964586 3.775158 0.002391
-5.649845 3.775158 0.002308
-5.335104 3.775158 0.002335
-5.020363 3.775158 0.002433
-4.705622 3.775158 0.002427
-4.390881 3.775158 0.002331
-4.076140 3.775158 0.002205
-3.761399 3.775158 0.002243
-3.446658 3.775158 0.002318
-3.131917 3.775158 0.002200
-2.817176 3.775158 0.002127
-2.502435 3.775158 0.002089
-2.187694 3.775158 0.002000
-1.872953 3.775158 0.001964
-1.558212 3.775158 0.002002
-1.243471 3.775158 0.002023
-0.928730 3.775158 0.002022
-0.613989 3.775158 0.002001
-0.299248 3.775158 0.001997
0.015493 3.775158 0.001973
0.330234 3.775158 0.001941
0.644975 3.775158 0.002039
0.959716 3.775158 0.002106
1.274457 3.775158 0.002121
1.589198 3.775158 0.002125
1.903938 3.775158 0.001959
2.218679 3.775158 0.001912
2.533421 3.775158 0.002056
2.848162 3.775158 0.002105
3.162903 3.775158 0.002054
3.477644 3.775158 0.001809
3.792385 3.775158 0.001615
4.107125 3.775158 0.001606
4.421866 3.775158 0.001757
4.736608 3.775158 0.001876
5.051349 3.775158 0.001965
5.366090 3.775158 0.001982
5.680831 3.775158 0.002163
5.995571 3.775158 0.003008
6.310312 3.775158 0.005030
6.625053 3.775158 0.008667
6.939795 3.775158 0.015059
7.254536 3.775158 0.030292
7.569277 3.775158 0.055741
7.884017 3.775158 0.109019
8.198758 3.775158 0.192150
8.513499 3.775158 0.294813
8.828240 3.775158 0.424657
9.142982 3.775158 0.535330
9.457723 3.775158 0.641139
9.772464 3.775158 0.738205
10.087205 3.775158 0.823150
10.401946 3.775158 0.889175
10.716687 3.775158 0.967368
11.031426 3.775158 1.041928
11.346168 3.775158 1.124322
11.660909 3.775158 1.177042
11.975650 3.775158 1.230169
12.290391 3.775158 1.280699
12.605132 3.775158 1.320099
12.919873 3.775158 1.325995
13.234614 3.775158 1.300123
13.549356 3.775158 1.250506
13.864097 3.775158 1.205541
14.178838 3.775158 1.199581
14.493579 3.775158 1.192179
14.808320 3.775158 1.179926
15.123059 3.775158 1.215863
15.437800 3.775158 1.310931
15.752542 3.775158 0.000000
16.067284 3.775158 0.000000
16.382023 3.775158 0.000000
16.696766 3.775158 0.000000
17.011505 3.775158 0.000000
17.326248 3.775158 0.000000
17.640987 3.775158 0.000000
17.955730 3.775158 0.000000
18.270470 3.775158 0.000000
18.585213 3.775158 0.000000
18.899952 3.775158 0.000000
-7.223550 3.460419 0.000000
-6.908809 3.460419 0.002372
-6.594068 3.460419 0.002413
-6.279327 3.460419 0.002411
-5.964586 3.460419 0.002406
-5.649845 3.460419 0.002345
-5.335104 3.460419 0.002343
-5.020363 3.460419 0.002422
-4.705622 3.460419 0.002422
-4.390881 3.460419 0.002341
-4.076140 3.460419 0.002232
-3.761399 3.460419 0.002240
-3.446658 3.460419 0.002293
-3.131917 3.460419 0.002204
-2.817176 3.460419 0.002203
-2.502435 3.460419 0.002184
-2.187694 3.460419 0.002044
-1.872953 3.460419 0.001919
-1.558212 3.460419 0.001920
-1.243471 3.460419 0.002003
-0.928730 3.460419 0.002054
-0.613989 3.460419 0.002065
-0.299248 3.460419 0.002071
0.015493 3.460419 0.002023
0.330234 3.460419 0.001937
0.644975 3.460419 0.001978
0.959716 3.460419 0.002032
1.274457 3.460419 0.002098
1.589198 3.460419 0.002172
1.903938 3.460419 0.002049
2.218679 3.460419 0.001960
2.533421 3.460419 0.002082
2.848162 3.460419 0.002155
3.162903 3.460419 0.002097
3.477644 3.460419 0.001836
3.792385 3.460419 0.001629
4.107125 3.460419 0.001656
4.421866 3.460419 0.001792
4.736608 3.460419 0.001896
5.051349 3.460419 0.001981
5.366090 3.460419 0.002086
5.680831 3.460419 0.002248
5.995571 3.460419 0.003187
6.310312 3.460419 0.005166
6.625053 3.460419 0.008597
6.939795 3.460419 0.016850
7.254536 3.460419 0.029662
7.569277 3.460419 0.058579
7.884017 3.460419 0.113013
8.198758 3.460419 0.200607
8.513499 3.460419 0.311551
8.828240 3.460419 0.429927
9.142982 3.460419 0.540214
9.457723 3.460419 0.645670
9.772464 3.460419 0.740014
10.087205 3.460419 0.824636
10.401946 3.460419 0.899560
10.716687 3.460419 0.972004
11.031426 3.460419 1.055297
11.346168 3.460419 1.133066
11.660909 3.460419 1.197170
11.975650 3.460419 1.241771
12.290391 3.460419 1.271583
12.605132 3.460419 1.301729
12.919873 3.460419 1.307063
13.234614 3.460419 1.291656
13.549356 3.460419 1.248118
13.864097 3.460419 1.206754
14.178838 3.460419 1.187790
14.493579 3.460419 1.171454
14.808320 3.460419 1.206053
15.123059 3.460419 1.253239
15.437800 3.460419 1.348361
15.752542 3.460419 0.000000
16.067284 3.460419 0.000000
16.382023 3.460419 0.000000
16.696766 3.460419 0.000000
17.011505 3.460419 0.000000
17.326248 3.460419 0.000000
17.640987 3.460419 0.000000
17.955730 3.460419 0.000000
18.270470 3.460419 0.000000
18.585213 3.460419 0.000000
18.899952 3.460419 0.000000
-7.223550 3.145676 0.000000
-6.908809 3.145676 0.002289
-6.594068 3.145676 0.002373
-6.279327 3.145676 0.002386
-5.964586 3.145676 0.002393
-5.649845 3.145676 0.002370
-5.335104 3.145676 0.002311
-5.020363 3.145676 0.002325
-4.705622 3.145676 0.002357
-4.390881 3.145676 0.002318
-4.076140 3.145676 0.002250
-3.761399 3.145676 0.002217
-3.446658 3.145676 0.002231
-3.131917 3.145676 0.002193
-2.817176 3.145676 0.002236
-2.502435 3.145676 0.002235
-2.187694 3.145676 0.002092
-1.872953 3.145676 0.001892
-1.558212 3.145676 0.001854
-1.243471 3.145676 0.001961
-0.928730 3.145676 0.002057
-0.613989 3.145676 0.002092
-0.299248 3.145676 0.002118
0.015493 3.145676 0.002047
0.330234 3.145676 0.001942
0.644975 3.145676 0.001923
0.959716 3.145676 0.001915
1.274457 3.145676 0.002043
1.589198 3.145676 0.002201
1.903938 3.145676 0.002145
2.218679 3.145676 0.002017
2.533421 3.145676 0.002097
2.848162 3.145676 0.002162
3.162903 3.145676 0.002122
3.477644 3.145676 0.001920
3.792385 3.145676 0.001786
4.107125 3.145676 0.001803
4.421866 3.145676 0.001863
4.736608 3.145676 0.001926
5.051349 3.145676 0.001998
5.366090 3.145676 0.002113
5.680831 3.145676 0.002269
5.995571 3.145676 0.003063
6.310312 3.145676 0.005137
6.625053 3.145676 0.008888
6.939795 3.145676 0.017407
7.254536 3.145676 0.033000
7.569277 3.145676 0.063335
7.884017 3.145676 0.121674
8.198758 3.145676 0.210165
8.513499 3.145676 0.318287
8.828240 3.145676 0.438549
9.142982 3.145676 0.557618
9.457723 3.145676 0.651322
9.772464 3.145676 0.748343
10.087205 3.145676 0.835756
10.401946 3.145676 0.913309
10.716687 3.145676 0.990486
11.031426 3.145676 1.065714
11.346168 3.145676 1.150290
11.660909 3.145676 1.210263
11.975650 3.145676 1.248705
12.290391 3.145676 1.269125
12.605132 3.145676 1.295093
12.919873 3.145676 1.312205
13.234614 3.145676 1.282722
13.549356 3.145676 1.249564
13.864097 3.145676 1.202942
14.178838 3.145676 1.175819
14.493579 3.145676 1.166550
14.808320 3.145676 1.197972
15.123059 3.145676 1.273283
15.437800 3.145676 1.388138
15.752542 3.145676 0.000000
16.067284 3.145676 0.000000
16.382023 3.145676 0.000000
16.696766 3.145676 0.000000
17.011505 3.145676 0.000000
17.326248 3.145676 0.000000
17.640987 3.145676 0.000000
17.955730 3.145676 0.000000
18.270470 3.145676 0.000000
18.585213 3.145676 0.000000
18.899952 3.145676 0.000000
-7.223550 2.830936 0.000000
-6.908809 2.830936 0.002215
-6.594068 2.830936 0.002333
-6.279327 2.830936 0.002368
-5.964586 2.830936 0.002397
-5.649845 2.830936 0.002377
-5.335104 2.830936 0.002245
-5.020363 2.830936 0.002177
-4.705622 2.830936 0.002240
-4.390881 2.830936 0.002280
-4.076140 2.830936 0.002258
-3.761399 2.830936 0.002212
-3.446658 2.830936 0.002205
-3.131917 2.830936 0.002175
-2.817176 2.830936 0.002234
-2.502435 2.830936 0.002243
-2.187694 2.830936 0.002136
-1.872953 2.830936 0.001913
-1.558212 2.830936 0.001836
-1.243471 2.830936 0.001940
-0.928730 2.830936 0.002040
-0.613989 2.830936 0.002079
-0.299248 2.830936 0.002126
0.015493 2.830936 0.002057
0.330234 2.830936 0.001932
0.644975 2.830936 0.001857
0.959716 2.830936 0.001819
1.274457 2.830936 0.001993
1.589198 2.830936 0.002198
1.903938 2.830936 0.002184
2.218679 2.830936 0.002089
2.533421 2.830936 0.002105
2.848162 2.830936 0.002165
3.162903 2.830936 0.002124
3.477644 2.830936 0.002043
3.792385 2.830936 0.002007
4.107125 2.830936 0.001992
4.421866 2.830936 0.001926
4.736608 2.830936 0.001873
5.051349 2.830936 0.001956
5.366090 2.830936 0.002304
5.680831 2.830936 0.002631
5.995571 2.830936 0.002772
6.310312 2.830936 0.005174
6.625053 2.830936 0.009095
6.939795 2.830936 0.017985
7.254536 2.830936 0.035443
7.569277 2.830936 0.069941
7.884017 2.830936 0.127205
8.198758 2.830936 0.220099
8.513499 2.830936 0.329708
8.828240 2.830936 0.449888
9.142982 2.830936 0.562161
9.457723 2.830936 0.663088
9.772464 2.830936 0.761139
10.087205 2.830936 0.846779
10.401946 2.830936 0.922199
10.716687 2.830936 0.994900
11.031426 2.830936 1.083408
11.346168 2.830936 1.147390
11.660909 2.830936 1.221102
11.975650 2.830936 1.246969
12.290391 2.830936 1.284523
12.605132 2.830936 1.281168
12.919873 2.830936 1.298026
13.234614 2.830936 1.278777
13.549356 2.830936 1.245374
13.864097 2.830936 1.202330
14.178838 2.830936 1.173554
14.493579 2.830936 1.147978
14.808320 2.830936 1.182631
15.123059 2.830936 1.297491
15.437800 2.830936 1.228753
15.752542 2.830936 0.000000
16.067284 2.830936 0.000000
16.382023 2.830936 0.000000
16.696766 2.830936 0.000000
17.011505 2.830936 0.000000
17.326248 2.830936 0.000000
17.640987 2.830936 0.000000
17.955730 2.830936 0.000000
18.270470 2.830936 0.000000
18.585213 2.830936 0.000000
18.899952 2.830936 0.000000
-7.223550 2.516193 0.000000
-6.908809 2.516193 0.002166
-6.594068 2.516193 0.002309
-6.279327 2.516193 0.002388
-5.964586 2.516193 0.002442
-5.649845 2.516193 0.002387
-5.335104 2.516193 0.002207
-5.020363 2.516193 0.002076
-4.705622 2.516193 0.002174
-4.390881 2.516193 0.002277
-4.076140 2.516193 0.002263
-3.761399 2.516193 0.002203
-3.446658 2.516193 0.002196
-3.131917 2.516193 0.002192
-2.817176 2.516193 0.002259
-2.502435 2.516193 0.002247
-2.187694 2.516193 0.002152
-1.872953 2.516193 0.001945
-1.558212 2.516193 0.001880
-1.243471 2.516193 0.001986
-0.928730 2.516193 0.002069
-0.613989 2.516193 0.002068
-0.299248 2.516193 0.002137
0.015493 2.516193 0.002110
0.330234 2.516193 0.001954
0.644975 2.516193 0.001819
0.959716 2.516193 0.001779
1.274457 2.516193 0.002007
1.589198 2.516193 0.002202
1.903938 2.516193 0.002182
2.218679 2.516193 0.002140
2.533421 2.516193 0.002121
2.848162 2.516193 0.002133
3.162903 2.516193 0.002158
3.477644 2.516193 0.002177
3.792385 2.516193 0.002210
4.107125 2.516193 0.002187
4.421866 2.516193 0.001981
4.736608 2.516193 0.001778
5.051349 2.516193 0.001862
5.366090 2.516193 0.002337
5.680831 2.516193 0.002585
5.995571 2.516193 0.002713
6.310312 2.516193 0.004962
6.625053 2.516193 0.009329
6.939795 2.516193 0.019135
7.254536 2.516193 0.038857
7.569277 2.516193 0.073123
7.884017 2.516193 0.135125
8.198758 2.516193 0.226895
8.513499 2.516193 0.344494
8.828240 2.516193 0.465081
9.142982 2.516193 0.578102
9.457723 2.516193 0.675335
9.772464 2.516193 0.766976
10.087205 2.516193 0.851243
10.401946 2.516193 0.930234
10.716687 2.516193 0.998967
11.031426 2.516193 1.066333
11.346168 2.516193 1.138732
11.660909 2.516193 1.218143
11.975650 2.516193 1.261382
12.290391 2.516193 1.271890
12.605132 2.516193 1.281737
12.919873 2.516193 1.278954
13.234614 2.516193 1.260604
13.549356 2.516193 1.234192
13.864097 2.516193 1.195966
14.178838 2.516193 1.171087
14.493579 2.516193 1.134918
14.808320 2.516193 1.185204
15.123059 2.516193 1.273042
15.437800 2.516193 0.000000
15.752542 2.516193 0.000000
16.067284 2.516193 0.000000
16.382023 2.516193 0.000000
16.696766 2.516193 0.000000
17.011505 2.516193 0.000000
17.326248 2.516193 0.000000
17.640987 2.516193 0.000000
17.955730 2.516193 0.000000
18.270470 2.516193 0.000000
18.585213 2.516193 0.000000
18.899952 2.516193 0.000000
-7.223550 2.201454 0.000000
-6.908809 2.201454 0.002129
-6.594068 2.201454 0.002324
-6.279327 2.201454 0.002417
-5.964586 2.201454 0.002461
-5.649845 2.201454 0.002380
-5.335104 2.201454 0.002196
-5.020363 2.201454 0.002053
-4.705622 2.201454 0.002189
-4.390881 2.201454 0.002315
-4.076140 2.201454 0.002275
-3.761399 2.201454 0.002214
-3.446658 2.201454 0.002224
-3.131917 2.201454 0.002232
-2.817176 2.201454 0.002279
-2.502435 2.201454 0.002243
-2.187694 2.201454 0.002136
-1.872953 2.201454 0.001978
-1.558212 2.201454 0.001953
-1.243471 2.201454 0.002099
-0.928730 2.201454 0.002150
-0.613989 2.201454 0.002126
-0.299248 2.201454 0.002188
0.015493 2.201454 0.002210
0.330234 2.201454 0.002036
0.644975 2.201454 0.001872
0.959716 2.201454 0.001853
1.274457 2.201454 0.002104
1.589198 2.201454 0.002222
1.903938 2.201454 0.002156
2.218679 2.201454 0.002165
2.533421 2.201454 0.002143
2.848162 2.201454 0.002104
3.162903 2.201454 0.002186
3.477644 2.201454 0.002235
3.792385 2.201454 0.002269
4.107125 2.201454 0.002311
4.421866 2.201454 0.002024
4.736608 2.201454 0.001767
5.051349 2.201454 0.001956
5.366090 2.201454 0.002307
5.680831 2.201454 0.002708
5.995571 2.201454 0.003067
6.310312 2.201454 0.005048
6.625053 2.201454 0.009287
6.939795 2.201454 0.019823
7.254536 2.201454 0.038964
7.569277 2.201454 0.074709
7.884017 2.201454 0.141561
8.198758 2.201454 0.233718
8.513499 2.201454 0.348108
8.828240 2.201454 0.473551
9.142982 2.201454 0.589378
9.457723 2.201454 0.686017
9.772464 2.201454 0.776887
10.087205 2.201454 0.855159
10.401946 2.201454 0.926902
10.716687 2.201454 0.998119
11.031426 2.201454 1.058051
11.346168 2.201454 1.131572
11.660909 2.201454 1.207418
11.975650 2.201454 1.252051
12.290391 2.201454 1.272423
12.605132 2.201454 1.273873
12.919873 2.201454 1.259637
13.234614 2.201454 1.259867
13.549356 2.201454 1.225512
13.864097 2.201454 1.187126
14.178838 2.201454 1.174965
14.493579 2.201454 1.153732
14.808320 2.201454 1.169913
15.123059 2.201454 1.282817
15.437800 2.201454 0.000000
15.752542 2.201454 0.000000
16.067284 2.201454 0.000000
16.382023 2.201454 0.000000
16.696766 2.201454 0.000000
17.011505 2.201454 0.000000
17.326248 2.201454 0.000000
17.640987 2.201454 0.000000
17.955730 2.201454 0.000000
18.270470 2.201454 0.000000
18.585213 2.201454 0.000000
18.899952 2.201454 0.000000
-7.223550 1.886711 0.000000
-6.908809 1.886711 0.002174
-6.594068 1.886711 0.002380
-6.279327 1.886711 0.002462
-5.964586 1.886711 0.002481
-5.649845 1.886711 0.002383
-5.335104 1.886711 0.002217
-5.020363 1.886711 0.002103
-4.705622 1.886711 0.002236
-4.390881 1.886711 0.002376
-4.076140 1.886711 0.002304
-3.761399 1.886711 0.002269
-3.446658 1.886711 0.002285
-3.131917 1.886711 0.002265
-2.817176 1.886711 0.002273
-2.502435 1.886711 0.002201
-2.187694 1.886711 0.002086
-1.872953 1.886711 0.002024
-1.558212 1.886711 0.002050
-1.243471 1.886711 0.002189
-0.928730 1.886711 0.002239
-0.613989 1.886711 0.002214
-0.299248 1.886711 0.002267
0.015493 1.886711 0.002288
0.330234 1.886711 0.002129
0.644975 1.886711 0.001998
0.959716 1.886711 0.001988
1.274457 1.886711 0.002199
1.589198 1.886711 0.002237
1.903938 1.886711 0.002139
2.218679 1.886711 0.002171
2.533421 1.886711 0.002158
2.848162 1.886711 0.002136
3.162903 1.886711 0.002214
3.477644 1.886711 0.002243
3.792385 1.886711 0.002267
4.107125 1.886711 0.002316
4.421866 1.886711 0.002011
4.736608 1.886711 0.001781
5.051349 1.886711 0.001951
5.366090 1.886711 0.002337
5.680831 1.886711 0.002658
5.995571 1.886711 0.003137
6.310312 1.886711 0.005611
6.625053 1.886711 0.010348
6.939795 1.886711 0.020251
7.254536 1.886711 0.039472
7.569277 1.886711 0.075133
7.884017 1.886711 0.143693
8.198758 1.886711 0.236072
8.513499 1.886711 0.353970
8.828240 1.886711 0.477332
9.142982 1.886711 0.591769
9.457723 1.886711 0.698932
9.772464 1.886711 0.788747
10.087205 1.886711 0.860029
10.401946 1.886711 0.938666
10.716687 1.886711 1.004200
11.031426 1.886711 1.066275
11.346168 1.886711 1.135986
11.660909 1.886711 1.202927
11.975650 1.886711 1.240427
12.290391 1.886711 1.273256
12.605132 1.886711 1.268748
12.919873 1.886711 1.261442
13.234614 1.886711 1.245691
13.549356 1.886711 1.210563
13.864097 1.886711 1.186268
14.178838 1.886711 1.151783
14.493579 1.886711 1.166186
14.808320 1.886711 1.169408
15.123059 1.886711 1.265296
15.437800 1.886711 0.000000
15.752542 1.886711 0.000000
16.067284 1.886711 0.000000
16.382023 1.886711 0.000000
16.696766 1.886711 0.000000
17.011505 1.886711 0.000000
17.326248 1.886711 0.000000
17.640987 1.886711 0.000000
17.955730 1.886711 0.000000
18.270470 1.886711 0.000000
18.585213 1.886711 0.000000
18.899952 1.886711 0.000000
-7.223550 1.571972 0.000000
-6.908809 1.571972 0.002261
-6.594068 1.571972 0.002418
-6.279327 1.571972 0.002488
-5.964586 1.571972 0.002505
-5.649845 1.571972 0.002418
-5.335104 1.571972 0.002282
-5.020363 1.571972 0.002177
-4.705622 1.571972 0.002299
-4.390881 1.571972 0.002419
-4.076140 1.571972 0.002322
-3.761399 1.571972 0.002307
-3.446658 1.571972 0.002324
-3.131917 1.571972 0.002273
-2.817176 1.571972 0.002229
-2.502435 1.571972 0.002124
-2.187694 1.571972 0.002055
-1.872953 1.571972 0.002118
-1.558212 1.571972 0.002150
-1.243471 1.571972 0.002226
-0.928730 1.571972 0.002289
-0.613989 1.571972 0.002319
-0.299248 1.571972 0.002375
0.015493 1.571972 0.002362
0.330234 1.571972 0.002234
0.644975 1.571972 0.002125
0.959716 1.571972 0.002110
1.274457 1.571972 0.002235
1.589198 1.571972 0.002218
1.903938 1.571972 0.002139
2.218679 1.571972 0.002213
2.533421 1.571972 0.002208
2.848162 1.571972 0.002153
3.162903 1.571972 0.002206
3.477644 1.571972 0.002230
3.792385 1.571972 0.002270
4.107125 1.571972 0.002281
4.421866 1.571972 0.002019
4.736608 1.571972 0.001846
5.051349 1.571972 0.002105
5.366090 1.571972 0.002452
5.680831 1.571972 0.002817
5.995571 1.571972 0.003549
6.310312 1.571972 0.005672
6.625053 1.571972 0.010678
6.939795 1.571972 0.022402
7.254536 1.571972 0.041767
7.569277 1.571972 0.080370
7.884017 1.571972 0.148915
8.198758 1.571972 0.245812
8.513499 1.571972 0.362482
8.828240 1.571972 0.486048
9.142982 1.571972 0.600263
9.457723 1.571972 0.705686
9.772464 1.571972 0.794680
10.087205 1.571972 0.869097
10.401946 1.571972 0.941508
10.716687 1.571972 1.007949
11.031426 1.571972 1.077716
11.346168 1.571972 1.140903
11.660909 1.571972 1.208733
11.975650 1.571972 1.250536
12.290391 1.571972 1.262817
12.605132 1.571972 1.270828
12.919873 1.571972 1.244753
13.234614 1.571972 1.224035
13.549356 1.571972 1.193947
13.864097 1.571972 1.162503
14.178838 1.571972 1.151903
14.493579 1.571972 1.179012
14.808320 1.571972 1.196471
15.123059 1.571972 0.714328
15.437800 1.571972 0.000000
15.752542 1.571972 0.000000
16.067284 1.571972 0.000000
16.382023 1.571972 0.000000
16.696766 1.571972 0.000000
17.011505 1.571972 0.000000
17.326248 1.571972 0.000000
17.640987 1.571972 0.000000
17.955730 1.571972 0.000000
18.270470 1.571972 0.000000
18.585213 1.571972 0.000000
18.899952 1.571972 0.000000
-7.223550 1.257229 0.000000
-6.908809 1.257229 0.002268
-6.594068 1.257229 0.002424
-6.279327 1.257229 0.002513
-5.964586 1.257229 0.002521
-5.649845 1.257229 0.002453
-5.335104 1.257229 0.002350
-5.020363 1.257229 0.002258
-4.705622 1.257229 0.002291
-4.390881 1.257229 0.002376
-4.076140 1.257229 0.002346
-3.761399 1.257229 0.002377
-3.446658 1.257229 0.002367
-3.131917 1.257229 0.002281
-2.817176 1.257229 0.002197
-2.502435 1.257229 0.002094
-2.187694 1.257229 0.002119
-1.872953 1.257229 0.002234
-1.558212 1.257229 0.002237
-1.243471 1.257229 0.002251
-0.928730 1.257229 0.002321
-0.613989 1.257229 0.002416
-0.299248 1.257229 0.002486
0.015493 1.257229 0.002429
0.330234 1.257229 0.002340
0.644975 1.257229 0.002223
0.959716 1.257229 0.002160
1.274457 1.257229 0.002203
1.589198 1.257229 0.002198
1.903938 1.257229 0.002172
2.218679 1.257229 0.002232
2.533421 1.257229 0.002199
2.848162 1.257229 0.002112
3.162903 1.257229 0.002138
3.477644 1.257229 0.002167
3.792385 1.257229 0.002216
4.107125 1.257229 0.002288
4.421866 1.257229 0.002082
4.736608 1.257229 0.001929
5.051349 1.257229 0.002074
5.366090 1.257229 0.002397
5.680831 1.257229 0.002714
5.995571 1.257229 0.003632
6.310312 1.257229 0.006666
6.625053 1.257229 0.011924
6.939795 1.257229 0.024070
7.254536 1.257229 0.045335
7.569277 1.257229 0.087529
7.884017 1.257229 0.159236
8.198758 1.257229 0.257763
8.513499 1.257229 0.377847
8.828240 1.257229 0.500882
9.142982 1.257229 0.609287
9.457723 1.257229 0.711887
9.772464 1.257229 0.800007
10.087205 1.257229 0.878484
10.401946 1.257229 0.954039
10.716687 1.257229 1.016816
11.031426 1.257229 1.087993
11.346168 1.257229 1.147141
11.660909 1.257229 1.211045
11.975650 1.257229 1.244607
12.290391 1.257229 1.254134
12.605132 1.257229 1.263523
12.919873 1.257229 1.232616
13.234614 1.257229 1.193534
13.549356 1.257229 1.167944
13.864097 1.257229 1.165213
14.178838 1.257229 1.147317
14.493579 1.257229 1.165639
14.808320 1.257229 1.229453
15.123059 1.257229 0.000000
15.437800 1.257229 0.000000
15.752542 1.257229 0.000000
16.067284 1.257229 0.000000
16.382023 1.257229 0.000000
16.696766 1.257229 0.000000
17.011505 1.257229 0.000000
17.326248 1.257229 0.000000
17.640987 1.257229 0.000000
17.955730 1.257229 0.000000
18.270470 1.257229 0.000000
18.585213 1.257229 0.000000
18.899952 1.257229 0.000000
-7.223550 0.942490 0.000000
-6.908809 0.942490 0.002306
-6.594068 0.942490 0.002454
-6.279327 0.942490 0.002545
-5.964586 0.942490 0.002512
-5.649845 0.942490 0.002425
-5.335104 0.942490 0.002380
-5.020363 0.942490 0.002301
-4.705622 0.942490 0.002254
-4.390881 0.942490 0.002304
-4.076140 0.942490 0.002382
-3.761399 0.942490 0.002456
-3.446658 0.942490 0.002424
-3.131917 0.942490 0.002307
-2.817176 0.942490 0.002207
-2.502435 0.942490 0.002130
-2.187694 0.942490 0.002260
-1.872953 0.942490 0.002346
-1.558212 0.942490 0.002303
-1.243471 0.942490 0.002258
-0.928730 0.942490 0.002340
-0.613989 0.942490 0.002476
-0.299248 0.942490 0.002538
0.015493 0.942490 0.002467
0.330234 0.942490 0.002401
0.644975 0.942490 0.002267
0.959716 0.942490 0.002176
1.274457 0.942490 0.002167
1.589198 0.942490 0.002174
1.903938 0.942490 0.002222
2.218679 0.942490 0.002257
2.533421 0.942490 0.002187
2.848162 0.942490 0.002085
3.162903 0.942490 0.002119
3.477644 0.942490 0.002106
3.792385 0.942490 0.002138
4.107125 0.942490 0.002206
4.421866 0.942490 0.002150
4.736608 0.942490 0.002010
5.051349 0.942490 0.001900
5.366090 0.942490 0.002114
5.680831 0.942490 0.002264
5.995571 0.942490 0.003464
6.310312 0.942490 0.007169
6.625053 0.942490 0.012085
6.939795 0.942490 0.025808
7.254536 0.942490 0.047934
7.569277 0.942490 0.098082
7.884017 0.942490 0.168419
8.198758 0.942490 0.266006
8.513499 0.942490 0.391737
8.828240 0.942490 0.507699
9.142982 0.942490 0.616221
9.457723 0.942490 0.717420
9.772464 0.942490 0.803841
10.087205 0.942490 0.887258
10.401946 0.942490 0.957769
10.716687 0.942490 1.016029
11.031426 0.942490 1.083991
11.346168 0.942490 1.146358
11.660909 0.942490 1.198645
11.975650 0.942490 1.248017
12.290391 0.942490 1.241496
12.605132 0.942490 1.238239
12.919873 0.942490 1.211850
13.234614 0.942490 1.183133
13.549356 0.942490 1.168193
13.864097 0.942490 1.139519
14.178838 0.942490 1.132112
14.493579 0.942490 1.157652
14.808320 0.942490 1.264326
15.123059 0.942490 0.000000
15.437800 0.942490 0.000000
15.752542 0.942490 0.000000
16.067284 0.942490 0.000000
16.382023 0.942490 0.000000
16.696766 0.942490 0.000000
17.011505 0.942490 0.000000
17.326248 0.942490 0.000000
17.640987 0.942490 0.000000
17.955730 0.942490 0.000000
18.270470 0.942490 0.000000
18.585213 0.942490 0.000000
18.899952 0.942490 0.000000
-7.223550 0.627750 0.000000
-6.908809 0.627750 0.002447
-6.594068 0.627750 0.002558
-6.279327 0.627750 0.002646
-5.964586 0.627750 0.002500
-5.649845 0.627750 0.002335
-5.335104 0.627750 0.002337
-5.020363 0.627750 0.002318
-4.705622 0.627750 0.002244
-4.390881 0.627750 0.002261
-4.076140 0.627750 0.002404
-3.761399 0.627750 0.002511
-3.446658 0.627750 0.002469
-3.131917 0.627750 0.002351
-2.817176 0.627750 0.002240
-2.502435 0.627750 0.002218
-2.187694 0.627750 0.002389
-1.872953 0.627750 0.002439
-1.558212 0.627750 0.002365
-1.243471 0.627750 0.002271
-0.928730 0.627750 0.002345
-0.613989 0.627750 0.002486
-0.299248 0.627750 0.002524
0.015493 0.627750 0.002447
0.330234 0.627750 0.002407
0.644975 0.627750 0.002283
0.959716 0.627750 0.002193
1.274457 0.627750 0.002181
1.589198 0.627750 0.002207
1.903938 0.627750 0.002300
2.218679 0.627750 0.002306
2.533421 0.627750 0.002224
2.848162 0.627750 0.002139
3.162903 0.627750 0.002165
3.477644 0.627750 0.002087
3.792385 0.627750 0.002097
4.107125 0.627750 0.002196
4.421866 0.627750 0.002139
4.736608 0.627750 0.001982
5.051349 0.627750 0.001882
5.366090 0.627750 0.001809
5.680831 0.627750 0.002212
5.995571 0.627750 0.003483
6.310312 0.627750 0.007124
6.625053 0.627750 0.012223
6.939795 0.627750 0.026358
7.254536 0.627750 0.053056
7.569277 0.627750 0.101629
7.884017 0.627750 0.179213
8.198758 0.627750 0.276473
8.513499 0.627750 0.398180
8.828240 0.627750 0.523629
9.142982 0.627750 0.633288
9.457723 0.627750 0.721110
9.772464 0.627750 0.804652
10.087205 0.627750 0.886556
10.401946 0.627750 0.964798
10.716687 0.627750 1.032754
11.031426 0.627750 1.091278
11.346168 0.627750 1.150762
11.660909 0.627750 1.193308
11.975650 0.627750 1.234558
12.290391 0.627750 1.228768
12.605132 0.627750 1.228253
12.919873 0.627750 1.202316
13.234614 0.627750 1.188823
13.549356 0.627750 1.157090
13.864097 0.627750 1.133792
14.178838 0.627750 1.126010
14.493579 0.627750 1.164923
14.808320 0.627750 1.252836
15.123059 0.627750 0.000000
15.437800 0.627750 0.000000
15.752542 0.627750 0.000000
16.067284 0.627750 0.000000
16.382023 0.627750 0.000000
16.696766 0.627750 0.000000
17.011505 0.627750 0.000000
17.326248 0.627750 0.000000
17.640987 0.627750 0.000000
17.955730 0.627750 0.000000
18.270470 0.627750 0.000000
18.585213 0.627750 0.000000
18.899952 0.627750 0.000000
-7.223550 0.313007 0.000000
-6.908809 0.313007 0.002611
-6.594068 0.313007 0.002689
-6.279327 0.313007 0.002789
-5.964586 0.313007 0.002534
-5.649845 0.313007 0.002226
-5.335104 0.313007 0.002261
-5.020363 0.313007 0.002328
-4.705622 0.313007 0.002242
-4.390881 0.313007 0.002242
-4.076140 0.313007 0.002399
-3.761399 0.313007 0.002484
-3.446658 0.313007 0.002436
-3.131917 0.313007 0.002375
-2.817176 0.313007 0.002330
-2.502435 0.313007 0.002340
-2.187694 0.313007 0.002493
-1.872953 0.313007 0.002494
-1.558212 0.313007 0.002403
-1.243471 0.313007 0.002279
-0.928730 0.313007 0.002360
-0.613989 0.313007 0.002464
-0.299248 0.313007 0.002490
0.015493 0.313007 0.002431
0.330234 0.313007 0.002414
0.644975 0.313007 0.002340
0.959716 0.313007 0.002239
1.274457 0.313007 0.002207
1.589198 0.313007 0.002276
1.903938 0.313007 0.002401
2.218679 0.313007 0.002342
2.533421 0.313007 0.002242
2.848162 0.313007 0.002242
3.162903 0.313007 0.002299
3.477644 0.313007 0.002128
3.792385 0.313007 0.002056
4.107125 0.313007 0.002088
4.421866 0.313007 0.002071
4.736608 0.313007 0.001932
5.051349 0.313007 0.001773
5.366090 0.313007 0.001626
5.680831 0.313007 0.002298
5.995571 0.313007 0.002857
6.310312 0.313007 0.006005
6.625053 0.313007 0.012993
6.939795 0.313007 0.028690
7.254536 0.313007 0.056868
7.569277 0.313007 0.106998
7.884017 0.313007 0.186510
8.198758 0.313007 0.294565
8.513499 0.313007 0.415281
8.828240 0.313007 0.544385
9.142982 0.313007 0.646043
9.457723 0.313007 0.738074
9.772464 0.313007 0.828116
10.087205 0.313007 0.906464
10.401946 0.313007 0.980251
10.716687 0.313007 1.044490
11.031426 0.313007 1.102421
11.346168 0.313007 1.153153
11.660909 0.313007 1.204119
11.975650 0.313007 1.233692
12.290391 0.313007 1.257496
12.605132 0.313007 1.221481
12.919873 0.313007 1.196500
13.234614 0.313007 1.184251
13.549356 0.313007 1.171061
13.864097 0.313007 1.137941
14.178838 0.313007 1.101057
14.493579 0.313007 1.165737
14.808320 0.313007 1.090924
15.123059 0.313007 0.000000
15.437800 0.313007 0.000000
15.752542 0.313007 0.000000
16.067284 0.313007 0.000000
16.382023 0.313007 0.000000
16.696766 0.313007 0.000000
17.011505 0.313007 0.000000
17.326248 0.313007 0.000000
17.640987 0.313007 0.000000
17.955730 0.313007 0.000000
18.270470 0.313007 0.000000
18.585213 0.313007 0.000000
18.899952 0.313007 0.000000
-7.223550 -0.001732 0.000000
-6.908809 -0.001732 0.002669
-6.594068 -0.001732 0.002759
-6.279327 -0.001732 0.002945
-5.964586 -0.001732 0.002585
-5.649845 -0.001732 0.002116
-5.335104 -0.001732 0.002184
-5.020363 -0.001732 0.002314
-4.705622 -0.001732 0.002235
-4.390881 -0.001732 0.002244
-4.076140 -0.001732 0.002351
-3.761399 -0.001732 0.002390
-3.446658 -0.001732 0.002325
-3.131917 -0.001732 0.002320
-2.817176 -0.001732 0.002401
-2.502435 -0.001732 0.002466
-2.187694 -0.001732 0.002568
-1.872953 -0.001732 0.002521
-1.558212 -0.001732 0.002453
-1.243471 -0.001732 0.002307
-0.928730 -0.001732 0.002367
-0.613989 -0.001732 0.002416
-0.299248 -0.001732 0.002455
0.015493 -0.001732 0.002406
0.330234 -0.001732 0.002380
0.644975 -0.001732 0.002375
0.959716 -0.001732 0.002280
1.274457 -0.001732 0.002223
1.589198 -0.001732 0.002318
1.903938 -0.001732 0.002395
2.218679 -0.001732 0.002297
2.533421 -0.001732 0.002218
2.848162 -0.001732 0.002368
3.162903 -0.001732 0.002444
3.477644 -0.001732 0.002172
3.792385 -0.001732 0.002063
4.107125 -0.001732 0.002025
4.421866 -0.001732 0.002051
4.736608 -0.001732 0.001829
5.051349 -0.001732 0.001748
5.366090 -0.001732 0.001639
5.680831 -0.001732 0.002224
5.995571 -0.001732 0.002788
6.310312 -0.001732 0.005669
6.625053 -0.001732 0.013267
6.939795 -0.001732 0.030217
7.254536 -0.001732 0.060288
7.569277 -0.001732 0.115374
7.884017 -0.001732 0.203638
8.198758 -0.001732 0.315977
8.513499 -0.001732 0.434395
8.828240 -0.001732 0.566401
9.142982 -0.001732 0.679060
9.457723 -0.001732 0.768269
9.772464 -0.001732 0.851813
10.087205 -0.001732 0.925119
10.401946 -0.001732 1.000775
10.716687 -0.001732 1.070280
11.031426 -0.001732 1.116819
11.346168 -0.001732 1.166332
11.660909 -0.001732 1.216639
11.975650 -0.001732 1.256362
12.290391 -0.001732 1.258656
12.605132 -0.001732 1.236483
12.919873 -0.001732 1.235302
13.234614 -0.001732 1.216724
13.549356 -0.001732 1.195837
13.864097 -0.001732 1.160953
14.178838 -0.001732 1.124995
14.493579 -0.001732 1.159885
14.808320 -0.001732 0.000000
15.123059 -0.001732 0.000000
15.437800 -0.001732 0.000000
15.752542 -0.001732 0.000000
16.067284 -0.001732 0.000000
16.382023 -0.001732 0.000000
16.696766 -0.001732 0.000000
17.011505 -0.001732 0.000000
17.326248 -0.001732 0.000000
17.640987 -0.001732 0.000000
17.955730 -0.001732 0.000000
18.270470 -0.001732 0.000000
18.585213 -0.001732 0.000000
18.899952 -0.001732 0.000000
-7.223550 -0.316475 0.000000
-6.908809 -0.316475 0.000000
-6.594068 -0.316475 0.000000
-6.279327 -0.316475 0.000000
-5.964586 -0.316475 0.000000
-5.649845 -0.316475 0.000000
-5.335104 -0.316475 0.000000
-5.020363 -0.316475 0.000000
-4.705622 -0.316475 0.000000
-4.390881 -0.316475 0.000000
-4.076140 -0.316475 0.000000
-3.761399 -0.316475 0.000000
-3.446658 -0.316475 0.000000
-3.131917 -0.316475 0.000000
-2.817176 -0.316475 0.000000
-2.502435 -0.316475 0.000000
-2.187694 -0.316475 0.000000
-1.872953 -0.316475 0.001409
-1.558212 -0.316475 0.000486
-1.243471 -0.316475 -0.000131
-0.928730 -0.316475 -0.000060
-0.613989 -0.316475 0.000184
-0.299248 -0.316475 0.000139
0.015493 -0.316475 0.000457
0.330234 -0.316475 0.000523
0.644975 -0.316475 0.000681
0.959716 -0.316475 0.000979
1.274457 -0.316475 0.001393
1.589198 -0.316475 0.001845
1.903938 -0.316475 0.002067
2.218679 -0.316475 0.002116
2.533421 -0.316475 0.002098
2.848162 -0.316475 0.002380
3.162903 -0.316475 0.002529
3.477644 -0.316475 0.002239
3.792385 -0.316475 0.002057
4.107125 -0.316475 0.002028
4.421866 -0.316475 0.002115
4.736608 -0.316475 0.001908
5.051349 -0.316475 0.001789
5.366090 -0.316475 0.001764
5.680831 -0.316475 0.002425
5.995571 -0.316475 0.002466
6.310312 -0.316475 0.005176
6.625053 -0.316475 0.014564
6.939795 -0.316475 0.031198
7.254536 -0.316475 0.068989
7.569277 -0.316475 0.127381
7.884017 -0.316475 0.226332
8.198758 -0.316475 0.343720
8.513499 -0.316475 0.468473
8.828240 -0.316475 0.593907
9.142982 -0.316475 0.701352
9.457723 -0.316475 0.806040
9.772464 -0.316475 0.879075
10.087205 -0.316475 0.960241
10.401946 -0.316475 1.026543
10.716687 -0.316475 1.089405
11.031426 -0.316475 1.149531
11.346168 -0.316475 1.204763
11.660909 -0.316475 1.235403
11.975650 -0.316475 1.280290
12.290391 -0.316475 1.296410
12.605132 -0.316475 1.294741
12.919873 -0.316475 1.268584
13.234614 -0.316475 1.237693
13.549356 -0.316475 1.236829
13.864097 -0.316475 1.180449
14.178838 -0.316475 1.141093
14.493579 -0.316475 1.226294
14.808320 -0.316475 0.000000
15.123059 -0.316475 0.000000
15.437800 -0.316475 0.000000
15.752542 -0.316475 0.000000
16.067284 -0.316475 0.000000
16.382023 -0.316475 0.000000
16.696766 -0.316475 0.000000
17.011505 -0.316475 0.000000
17.326248 -0.316475 0.000000
17.640987 -0.316475 0.000000
17.955730 -0.316475 0.000000
18.270470 -0.316475 0.000000
18.585213 -0.316475 0.000000
18.899952 -0.316475 0.000000
-7.223550 -0.631214 0.000000
-6.908809 -0.631214 0.000000
-6.594068 -0.631214 0.000000
-6.279327 -0.631214 0.000000
-5.964586 -0.631214 0.000000
-5.649845 -0.631214 0.000000
-5.335104 -0.631214 0.000000
-5.020363 -0.631214 0.000000
-4.705622 -0.631214 0.000000
-4.390881 -0.631214 0.000000
-4.076140 -0.631214 0.000000
-3.761399 -0.631214 0.000000
-3.446658 -0.631214 0.000000
-3.131917 -0.631214 0.000000
-2.817176 -0.631214 0.000000
-2.502435 -0.631214 0.000000
-2.187694 -0.631214 0.000000
-1.872953 -0.631214 0.000000
-1.558212 -0.631214 0.000000
-1.243471 -0.631214 0.000000
-0.928730 -0.631214 0.000000
-0.613989 -0.631214 0.000000
-0.299248 -0.631214 0.000000
0.015493 -0.631214 0.000000
0.330234 -0.631214 0.000000
0.644975 -0.631214 0.000000
0.959716 -0.631214 0.000000
1.274457 -0.631214 0.000000
1.589198 -0.631214 0.000000
1.903938 -0.631214 0.000000
2.218679 -0.631214 0.000000
2.533421 -0.631214 0.000000
2.848162 -0.631214 0.000000
3.162903 -0.631214 0.000000
3.477644 -0.631214 0.000000
3.792385 -0.631214 0.000000
4.107125 -0.631214 0.000000
4.421866 -0.631214 0.000000
4.736608 -0.631214 0.000000
5.051349 -0.631214 0.000000
5.366090 -0.631214 0.000000
5.680831 -0.631214 0.000000
5.995571 -0.631214 0.000000
6.310312 -0.631214 0.000000
6.625053 -0.631214 0.194503
6.939795 -0.631214 -0.421507
7.254536 -0.631214 -0.342632
7.569277 -0.631214 0.261814
7.884017 -0.631214 0.159674
8.198758 -0.631214 0.180986
8.513499 -0.631214 0.212018
8.828240 -0.631214 0.150774
9.142982 -0.631214 0.243561
9.457723 -0.631214 0.352811
9.772464 -0.631214 0.397515
10.087205 -0.631214 0.490606
10.401946 -0.631214 0.607491
10.716687 -0.631214 0.740768
11.031426 -0.631214 0.893772
11.346168 -0.631214 1.032700
11.660909 -0.631214 1.128500
11.975650 -0.631214 1.256211
12.290391 -0.631214 1.316315
12.605132 -0.631214 1.303604
12.919873 -0.631214 1.295147
13.234614 -0.631214 1.293610
13.549356 -0.631214 1.246367
13.864097 -0.631214 1.208605
14.178838 -0.631214 1.182364
14.493579 -0.631214 1.116741
14.808320 -0.631214 0.000000
15.123059 -0.631214 0.000000
15.437800 -0.631214 0.000000
15.752542 -0.631214 0.000000
16.067284 -0.631214 0.000000
16.382023 -0.631214 0.000000
16.696766 -0.631214 0.000000
17.011505 -0.631214 0.000000
17.326248 -0.631214 0.000000
17.640987 -0.631214 0.000000
17.955730 -0.631214 0.000000
18.270470 -0.631214 0.000000
18.585213 -0.631214 0.000000
18.899952 -0.631214 0.000000
-7.223550 -0.945957 0.000000
-6.908809 -0.945957 0.000000
-6.594068 -0.945957 0.000000
-6.279327 -0.945957 0.000000
-5.964586 -0.945957 0.000000
-5.649845 -0.945957 0.000000
-5.335104 -0.945957 0.000000
-5.020363 -0.945957 0.000000
-4.705622 -0.945957 0.000000
-4.390881 -0.945957 0.000000
-4.076140 -0.945957 0.000000
-3.761399 -0.945957 0.000000
-3.446658 -0.945957 0.000000
-3.131917 -0.945957 0.000000
-2.817176 -0.945957 0.000000
-2.502435 -0.945957 0.000000
-2.187694 -0.945957 0.000000
-1.872953 -0.945957 0.000000
-1.558212 -0.945957 0.000000
-1.243471 -0.945957 0.000000
-0.928730 -0.945957 0.000000
-0.613989 -0.945957 0.000000
-0.299248 -0.945957 0.000000
0.015493 -0.945957 0.000000
0.330234 -0.945957 0.000000
0.644975 -0.945957 0.000000
0.959716 -0.945957 0.000000
1.274457 -0.945957 0.000000
1.589198 -0.945957 0.000000
1.903938 -0.945957 0.000000
2.218679 -0.945957 0.000000
2.533421 -0.945957 0.000000
2.848162 -0.945957 0.000000
3.162903 -0.945957 0.000000
3.477644 -0.945957 0.000000
3.792385 -0.945957 0.000000
4.107125 -0.945957 0.000000
4.421866 -0.945957 0.000000
4.736608 -0.945957 0.000000
5.051349 -0.945957 0.000000
5.366090 -0.945957 0.000000
5.680831 -0.945957 0.000000
5.995571 -0.945957 0.000000
6.310312 -0.945957 0.000000
6.625053 -0.945957 0.000000
6.939795 -0.945957 0.000000
7.254536 -0.945957 0.000000
7.569277 -0.945957 0.000000
7.884017 -0.945957 0.000000
8.198758 -0.945957 0.000000
8.513499 -0.945957 0.000000
8.828240 -0.945957 0.000000
9.142982 -0.945957 0.000000
9.457723 -0.945957 0.000000
9.772464 -0.945957 1.381486
10.087205 -0.945957 1.151560
10.401946 -0.945957 -1.124367
10.716687 -0.945957 0.601562
11.031426 -0.945957 0.935779
11.346168 -0.945957 0.304505
11.660909 -0.945957 0.048986
11.975650 -0.945957 0.217310
12.290391 -0.945957 0.252030
12.605132 -0.945957 0.265415
12.919873 -0.945957 0.361025
13.234614 -0.945957 0.416632
13.549356 -0.945957 0.515624
13.864097 -0.945957 0.601321
14.178838 -0.945957 0.659265
14.493579 -0.945957 0.528510
14.808320 -0.945957 0.000000
15.123059 -0.945957 0.000000
15.437800 -0.945957 0.000000
15.752542 -0.945957 0.000000
16.067284 -0.945957 0.000000
16.382023 -0.945957 0.000000
16.696766 -0.945957 0.000000
17.011505 -0.945957 0.000000
17.326248 -0.945957 0.000000
17.640987 -0.945957 0.000000
17.955730 -0.945957 0.000000
18.270470 -0.945957 0.000000
18.585213 -0.945957 0.000000
18.899952 -0.945957 0.000000
-7.223550 -1.260696 0.000000
-6.908809 -1.260696 0.000000
-6.594068 -1.260696 0.000000
-6.279327 -1.260696 0.000000
-5.964586 -1.260696 0.000000
-5.649845 -1.260696 0.000000
-5.335104 -1.260696 0.000000
-5.020363 -1.260696 0.000000
-4.705622 -1.260696 0.000000
-4.390881 -1.260696 0.000000
-4.076140 -1.260696 0.000000
-3.761399 -1.260696 0.000000
-3.446658 -1.260696 0.000000
-3.131917 -1.260696 0.000000
-2.817176 -1.260696 0.000000
-2.502435 -1.260696 0.000000
-2.187694 -1.260696 0.000000
-1.872953 -1.260696 0.000000
-1.558212 -1.260696 0.000000
-1.243471 -1.260696 0.000000
-0.928730 -1.260696 0.000000
-0.613989 -1.260696 0.000000
-0.299248 -1.260696 0.000000
0.015493 -1.260696 0.000000
0.330234 -1.260696 0.000000
0.644975 -1.260696 0.000000
0.959716 -1.260696 0.000000
1.274457 -1.260696 0.000000
1.589198 -1.260696 0.000000
1.903938 -1.260696 0.000000
2.218679 -1.260696 0.000000
2.533421 -1.260696 0.000000
2.848162 -1.260696 0.000000
3.162903 -1.260696 0.000000
3.477644 -1.260696 0.000000
3.792385 -1.260696 0.000000
4.107125 -1.260696 0.000000
4.421866 -1.260696 0.000000
4.736608 -1.260696 0.000000
5.051349 -1.260696 0.000000
5.366090 -1.260696 0.000000
5.680831 -1.260696 0.000000
5.995571 -1.260696 0.000000
6.310312 -1.260696 0.000000
6.625053 -1.260696 0.000000
6.939795 -1.260696 0.000000
7.254536 -1.260696 0.000000
7.569277 -1.260696 0.000000
7.884017 -1.260696 0.000000
8.198758 -1.260696 0.000000
8.513499 -1.260696 0.000000
8.828240 -1.260696 0.000000
9.142982 -1.260696 0.000000
9.457723 -1.260696 0.000000
9.772464 -1.260696 0.000000
10.087205 -1.260696 0.000000
10.401946 -1.260696 0.000000
10.716687 -1.260696 0.000000
11.031426 -1.260696 0.000000
11.346168 -1.260696 0.000000
11.660909 -1.260696 0.000000
11.975650 -1.260696 0.000000
12.290391 -1.260696 0.000000
12.605132 -1.260696 0.000000
12.919873 -1.260696 0.000000
13.234614 -1.260696 0.000000
13.549356 -1.260696 0.328011
13.864097 -1.260696 1.037945
14.178838 -1.260696 0.937031
14.493579 -1.260696 0.000000
14.808320 -1.260696 0.000000
15.123059 -1.260696 0.000000
15.437800 -1.260696 0.000000
15.752542 -1.260696 0.000000
16.067284 -1.260696 0.000000
16.382023 -1.260696 0.000000
16.696766 -1.260696 0.000000
17.011505 -1.260696 0.000000
17.326248 -1.260696 0.000000
17.640987 -1.260696 0.000000
17.955730 -1.260696 0.000000
18.270470 -1.260696 0.000000
18.585213 -1.260696 0.000000
18.899952 -1.260696 0.000000
-7.223550 -1.575439 0.000000
-6.908809 -1.575439 0.000000
-6.594068 -1.575439 0.000000
-6.279327 -1.575439 0.000000
-5.964586 -1.575439 0.000000
-5.649845 -1.575439 0.000000
-5.335104 -1.575439 0.000000
-5.020363 -1.575439 0.000000
-4.705622 -1.575439 0.000000
-4.390881 -1.575439 0.000000
-4.076140 -1.575439 0.000000
-3.761399 -1.575439 0.000000
-3.446658 -1.575439 0.000000
-3.131917 -1.575439 0.000000
-2.817176 -1.575439 0.000000
-2.502435 -1.575439 0.000000
-2.187694 -1.575439 0.000000
-1.872953 -1.575439 0.000000
-1.558212 -1.575439 0.000000
-1.243471 -1.575439 0.000000
-0.928730 -1.575439 0.000000
-0.613989 -1.575439 0.000000
-0.299248 -1.575439 0.000000
0.015493 -1.575439 0.000000
0.330234 -1.575439 0.000000
0.644975 -1.575439 0.000000
0.959716 -1.575439 0.000000
1.274457 -1.575439 0.000000
1.589198 -1.575439 0.000000
1.903938 -1.575439 0.000000
2.218679 -1.575439 0.000000
2.533421 -1.575439 0.000000
2.848162 -1.575439 0.000000
3.162903 -1.575439 0.000000
3.477644 -1.575439 0.000000
3.792385 -1.575439 0.000000
4.107125 -1.575439 0.000000
4.421866 -1.575439 0.000000
4.736608 -1.575439 0.000000
5.051349 -1.575439 0.000000
5.366090 -1.575439 0.000000
5.680831 -1.575439 0.000000
5.995571 -1.575439 0.000000
6.310312 -1.575439 0.000000
6.625053 -1.575439 0.000000
6.939795 -1.575439 0.000000
7.254536 -1.575439 0.000000
7.569277 -1.575439 0.000000
7.884017 -1.575439 0.000000
8.198758 -1.575439 0.000000
8.513499 -1.575439 0.000000
8.828240 -1.575439 0.000000
9.142982 -1.575439 0.000000
9.457723 -1.575439 0.000000
9.772464 -1.575439 0.000000
10.087205 -1.575439 0.000000
10.401946 -1.575439 0.000000
10.716687 -1.575439 0.000000
11.031426 -1.575439 0.000000
11.346168 -1.575439 0.000000
11.660909 -1.575439 0.000000
11.975650 -1.575439 0.000000
12.290391 -1.575439 0.000000
12.605132 -1.575439 0.000000
12.919873 -1.575439 0.000000
13.234614 -1.575439 0.000000
13.549356 -1.575439 0.000000
13.864097 -1.575439 0.000000
14.178838 -1.575439 0.000000
14.493579 -1.575439 0.000000
14.808320 -1.575439 0.000000
15.123059 -1.575439 0.000000
15.437800 -1.575439 0.000000
15.752542 -1.575439 0.000000
16.067284 -1.575439 0.000000
16.382023 -1.575439 0.000000
16.696766 -1.575439 0.000000
17.011505 -1.575439 0.000000
17.326248 -1.575439 0.000000
17.640987 -1.575439 0.000000
17.955730 -1.575439 0.000000
18.270470 -1.575439 0.000000
18.585213 -1.575439 0.000000
18.899952 -1.575439 0.000000
