TITLE = "B00014"
VARIABLES = "x", "y", "Reynold stress ZZ"
ZONE T="Frame 1" I=84, J=163, F=POINT
-7.223550 49.412601 0.000000
-6.908809 49.412601 0.000000
-6.594068 49.412601 0.000000
-6.279327 49.412601 0.000000
-5.964586 49.412601 0.000000
-5.649845 49.412601 0.000000
-5.335104 49.412601 0.000000
-5.020363 49.412601 0.000000
-4.705622 49.412601 0.000000
-4.390881 49.412601 0.000000
-4.076140 49.412601 0.000000
-3.761399 49.412601 0.000000
-3.446658 49.412601 0.000000
-3.131917 49.412601 0.000000
-2.817176 49.412601 0.000000
-2.502435 49.412601 0.000000
-2.187694 49.412601 0.000000
-1.872953 49.412601 0.000000
-1.558212 49.412601 0.000000
-1.243471 49.412601 0.000000
-0.928730 49.412601 0.000000
-0.613989 49.412601 0.000000
-0.299248 49.412601 0.000000
0.015493 49.412601 0.000000
0.330234 49.412601 0.000000
0.644975 49.412601 0.000000
0.959716 49.412601 0.000000
1.274457 49.412601 0.000000
1.589198 49.412601 0.000000
1.903938 49.412601 0.000000
2.218679 49.412601 0.000000
2.533421 49.412601 0.000000
2.848162 49.412601 0.000000
3.162903 49.412601 0.000000
3.477644 49.412601 0.000000
3.792385 49.412601 0.000000
4.107125 49.412601 0.000000
4.421866 49.412601 0.000000
4.736608 49.412601 0.000000
5.051349 49.412601 0.000000
5.366090 49.412601 0.000000
5.680831 49.412601 0.000000
5.995571 49.412601 0.000000
6.310312 49.412601 0.000000
6.625053 49.412601 0.000000
6.939795 49.412601 0.000000
7.254536 49.412601 0.000000
7.569277 49.412601 0.000000
7.884017 49.412601 0.000000
8.198758 49.412601 0.000000
8.513499 49.412601 0.000000
8.828240 49.412601 0.000000
9.142982 49.412601 0.000000
9.457723 49.412601 0.000000
9.772464 49.412601 0.000000
10.087205 49.412601 0.000000
10.401946 49.412601 0.000000
10.716687 49.412601 0.000000
11.031426 49.412601 0.000000
11.346168 49.412601 0.000000
11.660909 49.412601 0.000000
11.975650 49.412601 0.000000
12.290391 49.412601 0.000000
12.605132 49.412601 0.000000
12.919873 49.412601 0.000000
13.234614 49.412601 0.000000
13.549356 49.412601 0.000000
13.864097 49.412601 0.000000
14.178838 49.412601 0.000000
14.493579 49.412601 0.000000
14.808320 49.412601 0.000000
15.123059 49.412601 0.000000
15.437800 49.412601 0.000000
15.752542 49.412601 0.000000
16.067284 49.412601 0.000000
16.382023 49.412601 0.000000
16.696766 49.412601 0.000000
17.011505 49.412601 0.000000
17.326248 49.412601 0.000000
17.640987 49.412601 0.000000
17.955730 49.412601 0.000000
18.270470 49.412601 0.000000
18.585213 49.412601 0.000000
18.899952 49.412601 0.000000
-7.223550 49.097862 0.000000
-6.908809 49.097862 0.000000
-6.594068 49.097862 0.000000
-6.279327 49.097862 0.000000
-5.964586 49.097862 0.000000
-5.649845 49.097862 0.000000
-5.335104 49.097862 0.000000
-5.020363 49.097862 0.000000
-4.705622 49.097862 0.000000
-4.390881 49.097862 0.000000
-4.076140 49.097862 0.000000
-3.761399 49.097862 0.000000
-3.446658 49.097862 0.000000
-3.131917 49.097862 0.000000
-2.817176 49.097862 0.000000
-2.502435 49.097862 0.000000
-2.187694 49.097862 0.000000
-1.872953 49.097862 0.000000
-1.558212 49.097862 0.000000
-1.243471 49.097862 0.000000
-0.928730 49.097862 0.000000
-0.613989 49.097862 0.000000
-0.299248 49.097862 0.000000
0.015493 49.097862 0.000000
0.330234 49.097862 0.000000
0.644975 49.097862 0.000000
0.959716 49.097862 0.000000
1.274457 49.097862 0.000000
1.589198 49.097862 0.000000
1.903938 49.097862 0.000000
2.218679 49.097862 0.000000
2.533421 49.097862 0.000000
2.848162 49.097862 0.000000
3.162903 49.097862 0.000000
3.477644 49.097862 0.000000
3.792385 49.097862 0.000000
4.107125 49.097862 0.000000
4.421866 49.097862 0.000000
4.736608 49.097862 0.000000
5.051349 49.097862 0.000000
5.366090 49.097862 0.000000
5.680831 49.097862 0.000000
5.995571 49.097862 0.000000
6.310312 49.097862 0.000000
6.625053 49.097862 0.000000
6.939795 49.097862 0.000000
7.254536 49.097862 0.000000
7.569277 49.097862 0.000000
7.884017 49.097862 0.000000
8.198758 49.097862 0.000000
8.513499 49.097862 0.000000
8.828240 49.097862 0.000000
9.142982 49.097862 0.000000
9.457723 49.097862 0.000000
9.772464 49.097862 0.000000
10.087205 49.097862 0.000000
10.401946 49.097862 0.000000
10.716687 49.097862 0.000000
11.031426 49.097862 0.000000
11.346168 49.097862 0.000000
11.660909 49.097862 0.000000
11.975650 49.097862 0.000000
12.290391 49.097862 0.000000
12.605132 49.097862 0.000000
12.919873 49.097862 0.000000
13.234614 49.097862 0.000000
13.549356 49.097862 0.000000
13.864097 49.097862 0.000000
14.178838 49.097862 0.000000
14.493579 49.097862 0.000000
14.808320 49.097862 0.000000
15.123059 49.097862 0.000000
15.437800 49.097862 0.000000
15.752542 49.097862 3.467558
16.067284 49.097862 60.901680
16.382023 49.097862 0.000000
16.696766 49.097862 0.000000
17.011505 49.097862 6.259216
17.326248 49.097862 4.144359
17.640987 49.097862 5.889674
17.955730 49.097862 1.135391
18.270470 49.097862 25.320118
18.585213 49.097862 15.741550
18.899952 49.097862 0.000000
-7.223550 48.783119 0.000000
-6.908809 48.783119 0.000000
-6.594068 48.783119 0.000000
-6.279327 48.783119 0.000000
-5.964586 48.783119 0.000000
-5.649845 48.783119 0.000000
-5.335104 48.783119 0.000000
-5.020363 48.783119 0.000000
-4.705622 48.783119 0.000000
-4.390881 48.783119 0.000000
-4.076140 48.783119 0.000000
-3.761399 48.783119 0.000000
-3.446658 48.783119 0.000000
-3.131917 48.783119 0.000000
-2.817176 48.783119 0.000000
-2.502435 48.783119 0.000000
-2.187694 48.783119 0.000000
-1.872953 48.783119 0.000000
-1.558212 48.783119 0.000000
-1.243471 48.783119 0.000000
-0.928730 48.783119 0.000000
-0.613989 48.783119 0.000000
-0.299248 48.783119 0.000000
0.015493 48.783119 0.000000
0.330234 48.783119 0.000000
0.644975 48.783119 0.000000
0.959716 48.783119 0.000000
1.274457 48.783119 0.000000
1.589198 48.783119 0.000000
1.903938 48.783119 0.000000
2.218679 48.783119 0.000000
2.533421 48.783119 0.000000
2.848162 48.783119 0.000000
3.162903 48.783119 0.000000
3.477644 48.783119 0.000000
3.792385 48.783119 0.000000
4.107125 48.783119 0.000000
4.421866 48.783119 0.000000
4.736608 48.783119 0.000000
5.051349 48.783119 0.000000
5.366090 48.783119 0.000000
5.680831 48.783119 0.000000
5.995571 48.783119 0.000000
6.310312 48.783119 0.000000
6.625053 48.783119 0.000000
6.939795 48.783119 0.000000
7.254536 48.783119 0.000000
7.569277 48.783119 0.000000
7.884017 48.783119 0.000000
8.198758 48.783119 0.000000
8.513499 48.783119 0.000000
8.828240 48.783119 3.119607
9.142982 48.783119 2.687247
9.457723 48.783119 3.480886
9.772464 48.783119 3.341991
10.087205 48.783119 2.071793
10.401946 48.783119 9.539182
10.716687 48.783119 7.385708
11.031426 48.783119 4.712480
11.346168 48.783119 4.605281
11.660909 48.783119 9.192616
11.975650 48.783119 7.794355
12.290391 48.783119 6.006772
12.605132 48.783119 7.349396
12.919873 48.783119 7.155960
13.234614 48.783119 6.625437
13.549356 48.783119 6.122670
13.864097 48.783119 5.906395
14.178838 48.783119 5.640694
14.493579 48.783119 4.004138
14.808320 48.783119 3.904562
15.123059 48.783119 3.668119
15.437800 48.783119 3.503151
15.752542 48.783119 3.588659
16.067284 48.783119 3.865429
16.382023 48.783119 4.241780
16.696766 48.783119 4.351534
17.011505 48.783119 5.922118
17.326248 48.783119 7.711427
17.640987 48.783119 10.577130
17.955730 48.783119 13.313429
18.270470 48.783119 16.787052
18.585213 48.783119 21.816984
18.899952 48.783119 25.059752
-7.223550 48.468380 0.000000
-6.908809 48.468380 0.000000
-6.594068 48.468380 0.016369
-6.279327 48.468380 0.015358
-5.964586 48.468380 0.020793
-5.649845 48.468380 0.020708
-5.335104 48.468380 0.021388
-5.020363 48.468380 0.022267
-4.705622 48.468380 0.022116
-4.390881 48.468380 0.021559
-4.076140 48.468380 0.021700
-3.761399 48.468380 0.021433
-3.446658 48.468380 0.020844
-3.131917 48.468380 0.020630
-2.817176 48.468380 0.020626
-2.502435 48.468380 0.020790
-2.187694 48.468380 0.021203
-1.872953 48.468380 0.021161
-1.558212 48.468380 0.021405
-1.243471 48.468380 0.021533
-0.928730 48.468380 0.021890
-0.613989 48.468380 0.022367
-0.299248 48.468380 0.022721
0.015493 48.468380 0.022695
0.330234 48.468380 0.022693
0.644975 48.468380 0.022560
0.959716 48.468380 0.022582
1.274457 48.468380 0.022479
1.589198 48.468380 0.022667
1.903938 48.468380 0.022855
2.218679 48.468380 0.022628
2.533421 48.468380 0.022610
2.848162 48.468380 0.022607
3.162903 48.468380 0.023037
3.477644 48.468380 0.023433
3.792385 48.468380 0.023306
4.107125 48.468380 0.023431
4.421866 48.468380 0.024019
4.736608 48.468380 0.024077
5.051349 48.468380 0.024687
5.366090 48.468380 0.025233
5.680831 48.468380 0.026137
5.995571 48.468380 0.027294
6.310312 48.468380 0.029161
6.625053 48.468380 0.031803
6.939795 48.468380 0.035213
7.254536 48.468380 0.040221
7.569277 48.468380 0.047985
7.884017 48.468380 0.062094
8.198758 48.468380 0.094209
8.513499 48.468380 0.147439
8.828240 48.468380 0.216716
9.142982 48.468380 0.313506
9.457723 48.468380 0.450307
9.772464 48.468380 0.572626
10.087205 48.468380 0.698026
10.401946 48.468380 0.841409
10.716687 48.468380 1.006990
11.031426 48.468380 1.172401
11.346168 48.468380 1.385945
11.660909 48.468380 1.591772
11.975650 48.468380 1.733004
12.290391 48.468380 1.939777
12.605132 48.468380 2.129300
12.919873 48.468380 2.330479
13.234614 48.468380 2.509437
13.549356 48.468380 2.606902
13.864097 48.468380 2.637268
14.178838 48.468380 2.640940
14.493579 48.468380 2.521853
14.808320 48.468380 2.404863
15.123059 48.468380 2.450931
15.437800 48.468380 2.400079
15.752542 48.468380 2.393080
16.067284 48.468380 2.421066
16.382023 48.468380 2.529878
16.696766 48.468380 2.546921
17.011505 48.468380 2.740606
17.326248 48.468380 3.189951
17.640987 48.468380 3.949998
17.955730 48.468380 5.026955
18.270470 48.468380 7.324905
18.585213 48.468380 8.401361
18.899952 48.468380 6.798275
-7.223550 48.153637 0.000000
-6.908809 48.153637 0.000000
-6.594068 48.153637 0.013101
-6.279327 48.153637 0.016369
-5.964586 48.153637 0.015539
-5.649845 48.153637 0.015358
-5.335104 48.153637 0.015480
-5.020363 48.153637 0.015688
-4.705622 48.153637 0.015565
-4.390881 48.153637 0.015318
-4.076140 48.153637 0.015608
-3.761399 48.153637 0.015500
-3.446658 48.153637 0.015044
-3.131917 48.153637 0.014841
-2.817176 48.153637 0.014960
-2.502435 48.153637 0.015142
-2.187694 48.153637 0.015402
-1.872953 48.153637 0.015296
-1.558212 48.153637 0.015324
-1.243471 48.153637 0.015606
-0.928730 48.153637 0.016018
-0.613989 48.153637 0.016259
-0.299248 48.153637 0.016731
0.015493 48.153637 0.017022
0.330234 48.153637 0.017098
0.644975 48.153637 0.017190
0.959716 48.153637 0.017371
1.274457 48.153637 0.017455
1.589198 48.153637 0.017769
1.903938 48.153637 0.017891
2.218679 48.153637 0.017654
2.533421 48.153637 0.017549
2.848162 48.153637 0.017549
3.162903 48.153637 0.017821
3.477644 48.153637 0.018156
3.792385 48.153637 0.018180
4.107125 48.153637 0.018356
4.421866 48.153637 0.018761
4.736608 48.153637 0.018944
5.051349 48.153637 0.019589
5.366090 48.153637 0.020303
5.680831 48.153637 0.020925
5.995571 48.153637 0.022117
6.310312 48.153637 0.023695
6.625053 48.153637 0.026314
6.939795 48.153637 0.029566
7.254536 48.153637 0.033342
7.569277 48.153637 0.040822
7.884017 48.153637 0.052241
8.198758 48.153637 0.071153
8.513499 48.153637 0.098987
8.828240 48.153637 0.139990
9.142982 48.153637 0.198405
9.457723 48.153637 0.285460
9.772464 48.153637 0.385491
10.087205 48.153637 0.495315
10.401946 48.153637 0.644253
10.716687 48.153637 0.804604
11.031426 48.153637 0.981811
11.346168 48.153637 1.157189
11.660909 48.153637 1.395972
11.975650 48.153637 1.544067
12.290391 48.153637 1.684600
12.605132 48.153637 1.830730
12.919873 48.153637 2.048849
13.234614 48.153637 2.202493
13.549356 48.153637 2.275521
13.864097 48.153637 2.267405
14.178838 48.153637 2.202475
14.493579 48.153637 2.068927
14.808320 48.153637 1.981271
15.123059 48.153637 1.971143
15.437800 48.153637 1.989464
15.752542 48.153637 1.940622
16.067284 48.153637 1.965758
16.382023 48.153637 2.065624
16.696766 48.153637 2.167282
17.011505 48.153637 2.359580
17.326248 48.153637 2.764214
17.640987 48.153637 3.725442
17.955730 48.153637 5.270649
18.270470 48.153637 8.274261
18.585213 48.153637 11.746307
18.899952 48.153637 9.080165
-7.223550 47.838898 0.000000
-6.908809 47.838898 0.000000
-6.594068 47.838898 0.016830
-6.279327 47.838898 0.012549
-5.964586 47.838898 0.011807
-5.649845 47.838898 0.011997
-5.335104 47.838898 0.011991
-5.020363 47.838898 0.011922
-4.705622 47.838898 0.011881
-4.390881 47.838898 0.011873
-4.076140 47.838898 0.012060
-3.761399 47.838898 0.012013
-3.446658 47.838898 0.011727
-3.131917 47.838898 0.011597
-2.817176 47.838898 0.011657
-2.502435 47.838898 0.011811
-2.187694 47.838898 0.012023
-1.872953 47.838898 0.011978
-1.558212 47.838898 0.011916
-1.243471 47.838898 0.012107
-0.928730 47.838898 0.012359
-0.613989 47.838898 0.012357
-0.299248 47.838898 0.012701
0.015493 47.838898 0.013059
0.330234 47.838898 0.013005
0.644975 47.838898 0.013031
0.959716 47.838898 0.013181
1.274457 47.838898 0.013384
1.589198 47.838898 0.013653
1.903938 47.838898 0.013848
2.218679 47.838898 0.013541
2.533421 47.838898 0.013517
2.848162 47.838898 0.013491
3.162903 47.838898 0.013663
3.477644 47.838898 0.013968
3.792385 47.838898 0.013979
4.107125 47.838898 0.014147
4.421866 47.838898 0.014560
4.736608 47.838898 0.014846
5.051349 47.838898 0.015349
5.366090 47.838898 0.015970
5.680831 47.838898 0.016574
5.995571 47.838898 0.017320
6.310312 47.838898 0.018818
6.625053 47.838898 0.020935
6.939795 47.838898 0.023910
7.254536 47.838898 0.027572
7.569277 47.838898 0.034027
7.884017 47.838898 0.042886
8.198758 47.838898 0.058275
8.513499 47.838898 0.084526
8.828240 47.838898 0.123176
9.142982 47.838898 0.169885
9.457723 47.838898 0.238815
9.772464 47.838898 0.333152
10.087205 47.838898 0.433312
10.401946 47.838898 0.559331
10.716687 47.838898 0.692306
11.031426 47.838898 0.835764
11.346168 47.838898 1.031680
11.660909 47.838898 1.180268
11.975650 47.838898 1.280694
12.290391 47.838898 1.379288
12.605132 47.838898 1.541210
12.919873 47.838898 1.689096
13.234614 47.838898 1.876313
13.549356 47.838898 1.885365
13.864097 47.838898 1.854813
14.178838 47.838898 1.810737
14.493579 47.838898 1.741571
14.808320 47.838898 1.659100
15.123059 47.838898 1.579250
15.437800 47.838898 1.592997
15.752542 47.838898 1.568052
16.067284 47.838898 1.598203
16.382023 47.838898 1.653418
16.696766 47.838898 1.736012
17.011505 47.838898 2.002519
17.326248 47.838898 2.458666
17.640987 47.838898 3.311841
17.955730 47.838898 4.946555
18.270470 47.838898 8.353089
18.585213 47.838898 13.359962
18.899952 47.838898 11.538526
-7.223550 47.524155 0.000000
-6.908809 47.524155 0.000000
-6.594068 47.524155 0.015055
-6.279327 47.524155 0.010947
-5.964586 47.524155 0.010624
-5.649845 47.524155 0.010892
-5.335104 47.524155 0.010642
-5.020363 47.524155 0.010581
-4.705622 47.524155 0.010720
-4.390881 47.524155 0.010890
-4.076140 47.524155 0.010892
-3.761399 47.524155 0.010809
-3.446658 47.524155 0.010643
-3.131917 47.524155 0.010666
-2.817176 47.524155 0.010565
-2.502435 47.524155 0.010663
-2.187694 47.524155 0.010875
-1.872953 47.524155 0.010963
-1.558212 47.524155 0.010875
-1.243471 47.524155 0.010988
-0.928730 47.524155 0.011127
-0.613989 47.524155 0.010997
-0.299248 47.524155 0.011199
0.015493 47.524155 0.011472
0.330234 47.524155 0.011423
0.644975 47.524155 0.011481
0.959716 47.524155 0.011602
1.274457 47.524155 0.011812
1.589198 47.524155 0.012077
1.903938 47.524155 0.012246
2.218679 47.524155 0.012189
2.533421 47.524155 0.012094
2.848162 47.524155 0.012073
3.162903 47.524155 0.012163
3.477644 47.524155 0.012298
3.792385 47.524155 0.012263
4.107125 47.524155 0.012429
4.421866 47.524155 0.012746
4.736608 47.524155 0.013155
5.051349 47.524155 0.013625
5.366090 47.524155 0.014275
5.680831 47.524155 0.014950
5.995571 47.524155 0.015541
6.310312 47.524155 0.016855
6.625053 47.524155 0.018849
6.939795 47.524155 0.021406
7.254536 47.524155 0.025144
7.569277 47.524155 0.030793
7.884017 47.524155 0.039459
8.198758 47.524155 0.053630
8.513499 47.524155 0.075183
8.828240 47.524155 0.112191
9.142982 47.524155 0.155927
9.457723 47.524155 0.223643
9.772464 47.524155 0.306651
10.087205 47.524155 0.399554
10.401946 47.524155 0.506788
10.716687 47.524155 0.649033
11.031426 47.524155 0.769503
11.346168 47.524155 0.931306
11.660909 47.524155 1.063379
11.975650 47.524155 1.165935
12.290391 47.524155 1.250078
12.605132 47.524155 1.379828
12.919873 47.524155 1.491402
13.234614 47.524155 1.631582
13.549356 47.524155 1.650921
13.864097 47.524155 1.603530
14.178838 47.524155 1.582214
14.493579 47.524155 1.547764
14.808320 47.524155 1.477234
15.123059 47.524155 1.417715
15.437800 47.524155 1.419186
15.752542 47.524155 1.375382
16.067284 47.524155 1.401799
16.382023 47.524155 1.457756
16.696766 47.524155 1.531411
17.011505 47.524155 1.702592
17.326248 47.524155 2.129641
17.640987 47.524155 2.998238
17.955730 47.524155 4.718893
18.270470 47.524155 8.138700
18.585213 47.524155 13.129757
18.899952 47.524155 11.645643
-7.223550 47.209415 0.000000
-6.908809 47.209415 0.000000
-6.594068 47.209415 0.014761
-6.279327 47.209415 0.010852
-5.964586 47.209415 0.010696
-5.649845 47.209415 0.010861
-5.335104 47.209415 0.010456
-5.020363 47.209415 0.010486
-4.705622 47.209415 0.010776
-4.390881 47.209415 0.010894
-4.076140 47.209415 0.010791
-3.761399 47.209415 0.010606
-3.446658 47.209415 0.010499
-3.131917 47.209415 0.010621
-2.817176 47.209415 0.010551
-2.502435 47.209415 0.010517
-2.187694 47.209415 0.010708
-1.872953 47.209415 0.010752
-1.558212 47.209415 0.010611
-1.243471 47.209415 0.010701
-0.928730 47.209415 0.010789
-0.613989 47.209415 0.010760
-0.299248 47.209415 0.010969
0.015493 47.209415 0.011113
0.330234 47.209415 0.011114
0.644975 47.209415 0.011325
0.959716 47.209415 0.011411
1.274457 47.209415 0.011525
1.589198 47.209415 0.011893
1.903938 47.209415 0.012078
2.218679 47.209415 0.012029
2.533421 47.209415 0.011983
2.848162 47.209415 0.012059
3.162903 47.209415 0.012084
3.477644 47.209415 0.011997
3.792385 47.209415 0.011884
4.107125 47.209415 0.012052
4.421866 47.209415 0.012228
4.736608 47.209415 0.012701
5.051349 47.209415 0.013251
5.366090 47.209415 0.013847
5.680831 47.209415 0.014623
5.995571 47.209415 0.015220
6.310312 47.209415 0.016518
6.625053 47.209415 0.018261
6.939795 47.209415 0.020677
7.254536 47.209415 0.024480
7.569277 47.209415 0.030154
7.884017 47.209415 0.038822
8.198758 47.209415 0.052493
8.513499 47.209415 0.071648
8.828240 47.209415 0.104347
9.142982 47.209415 0.151781
9.457723 47.209415 0.208071
9.772464 47.209415 0.290078
10.087205 47.209415 0.379726
10.401946 47.209415 0.499493
10.716687 47.209415 0.620075
11.031426 47.209415 0.745720
11.346168 47.209415 0.886247
11.660909 47.209415 1.021407
11.975650 47.209415 1.125624
12.290391 47.209415 1.224606
12.605132 47.209415 1.319684
12.919873 47.209415 1.420787
13.234614 47.209415 1.506706
13.549356 47.209415 1.526727
13.864097 47.209415 1.538794
14.178838 47.209415 1.505624
14.493579 47.209415 1.439572
14.808320 47.209415 1.397948
15.123059 47.209415 1.366821
15.437800 47.209415 1.307552
15.752542 47.209415 1.253258
16.067284 47.209415 1.294835
16.382023 47.209415 1.365794
16.696766 47.209415 1.466398
17.011505 47.209415 1.682970
17.326248 47.209415 2.170797
17.640987 47.209415 3.025413
17.955730 47.209415 4.589588
18.270470 47.209415 7.890841
18.585213 47.209415 12.582808
18.899952 47.209415 11.569077
-7.223550 46.894672 0.000000
-6.908809 46.894672 0.000000
-6.594068 46.894672 0.015029
-6.279327 46.894672 0.011061
-5.964586 46.894672 0.010876
-5.649845 46.894672 0.010879
-5.335104 46.894672 0.010549
-5.020363 46.894672 0.010664
-4.705622 46.894672 0.010913
-4.390881 46.894672 0.010945
-4.076140 46.894672 0.010857
-3.761399 46.894672 0.010735
-3.446658 46.894672 0.010612
-3.131917 46.894672 0.010753
-2.817176 46.894672 0.010644
-2.502435 46.894672 0.010464
-2.187694 46.894672 0.010652
-1.872953 46.894672 0.010715
-1.558212 46.894672 0.010562
-1.243471 46.894672 0.010537
-0.928730 46.894672 0.010674
-0.613989 46.894672 0.010729
-0.299248 46.894672 0.010933
0.015493 46.894672 0.010864
0.330234 46.894672 0.011070
0.644975 46.894672 0.011339
0.959716 46.894672 0.011332
1.274457 46.894672 0.011413
1.589198 46.894672 0.011854
1.903938 46.894672 0.012023
2.218679 46.894672 0.011935
2.533421 46.894672 0.012053
2.848162 46.894672 0.012235
3.162903 46.894672 0.012291
3.477644 46.894672 0.012045
3.792385 46.894672 0.012005
4.107125 46.894672 0.012143
4.421866 46.894672 0.012247
4.736608 46.894672 0.012623
5.051349 46.894672 0.013205
5.366090 46.894672 0.013778
5.680831 46.894672 0.014452
5.995571 46.894672 0.015010
6.310312 46.894672 0.016190
6.625053 46.894672 0.017903
6.939795 46.894672 0.020694
7.254536 46.894672 0.024274
7.569277 46.894672 0.029502
7.884017 46.894672 0.038208
8.198758 46.894672 0.051839
8.513499 46.894672 0.072601
8.828240 46.894672 0.101959
9.142982 46.894672 0.150141
9.457723 46.894672 0.209685
9.772464 46.894672 0.285744
10.087205 46.894672 0.385721
10.401946 46.894672 0.484153
10.716687 46.894672 0.613618
11.031426 46.894672 0.754697
11.346168 46.894672 0.881379
11.660909 46.894672 1.017470
11.975650 46.894672 1.108483
12.290391 46.894672 1.225756
12.605132 46.894672 1.305484
12.919873 46.894672 1.402466
13.234614 46.894672 1.436468
13.549356 46.894672 1.498192
13.864097 46.894672 1.497819
14.178838 46.894672 1.482852
14.493579 46.894672 1.440443
14.808320 46.894672 1.381538
15.123059 46.894672 1.358097
15.437800 46.894672 1.291875
15.752542 46.894672 1.240523
16.067284 46.894672 1.276638
16.382023 46.894672 1.358432
16.696766 46.894672 1.457379
17.011505 46.894672 1.685234
17.326248 46.894672 2.118327
17.640987 46.894672 3.128767
17.955730 46.894672 4.617927
18.270470 46.894672 7.162640
18.585213 46.894672 11.267086
18.899952 46.894672 10.800634
-7.223550 46.579933 0.000000
-6.908809 46.579933 0.000000
-6.594068 46.579933 0.014768
-6.279327 46.579933 0.011036
-5.964586 46.579933 0.010714
-5.649845 46.579933 0.010797
-5.335104 46.579933 0.010598
-5.020363 46.579933 0.010657
-4.705622 46.579933 0.010869
-4.390881 46.579933 0.010771
-4.076140 46.579933 0.010745
-3.761399 46.579933 0.010684
-3.446658 46.579933 0.010635
-3.131917 46.579933 0.010702
-2.817176 46.579933 0.010625
-2.502435 46.579933 0.010359
-2.187694 46.579933 0.010546
-1.872953 46.579933 0.010701
-1.558212 46.579933 0.010572
-1.243471 46.579933 0.010424
-0.928730 46.579933 0.010636
-0.613989 46.579933 0.010776
-0.299248 46.579933 0.010847
0.015493 46.579933 0.010770
0.330234 46.579933 0.011040
0.644975 46.579933 0.011182
0.959716 46.579933 0.011127
1.274457 46.579933 0.011238
1.589198 46.579933 0.011579
1.903938 46.579933 0.011620
2.218679 46.579933 0.011523
2.533421 46.579933 0.011965
2.848162 46.579933 0.012098
3.162903 46.579933 0.012147
3.477644 46.579933 0.012005
3.792385 46.579933 0.012109
4.107125 46.579933 0.012268
4.421866 46.579933 0.012487
4.736608 46.579933 0.012788
5.051349 46.579933 0.013329
5.366090 46.579933 0.013736
5.680831 46.579933 0.014181
5.995571 46.579933 0.014644
6.310312 46.579933 0.015776
6.625053 46.579933 0.017428
6.939795 46.579933 0.020423
7.254536 46.579933 0.024189
7.569277 46.579933 0.029133
7.884017 46.579933 0.037811
8.198758 46.579933 0.050358
8.513499 46.579933 0.070814
8.828240 46.579933 0.103296
9.142982 46.579933 0.151073
9.457723 46.579933 0.209714
9.772464 46.579933 0.286611
10.087205 46.579933 0.383163
10.401946 46.579933 0.486312
10.716687 46.579933 0.609919
11.031426 46.579933 0.750296
11.346168 46.579933 0.892113
11.660909 46.579933 1.035780
11.975650 46.579933 1.115565
12.290391 46.579933 1.228455
12.605132 46.579933 1.311604
12.919873 46.579933 1.386821
13.234614 46.579933 1.421020
13.549356 46.579933 1.469288
13.864097 46.579933 1.493033
14.178838 46.579933 1.432115
14.493579 46.579933 1.432424
14.808320 46.579933 1.385579
15.123059 46.579933 1.326548
15.437800 46.579933 1.251052
15.752542 46.579933 1.249038
16.067284 46.579933 1.254112
16.382023 46.579933 1.374529
16.696766 46.579933 1.553394
17.011505 46.579933 1.868035
17.326248 46.579933 2.308456
17.640987 46.579933 3.287373
17.955730 46.579933 4.722307
18.270470 46.579933 7.208454
18.585213 46.579933 10.785236
18.899952 46.579933 9.481162
-7.223550 46.265190 0.000000
-6.908809 46.265190 0.000000
-6.594068 46.265190 0.014863
-6.279327 46.265190 0.011036
-5.964586 46.265190 0.010390
-5.649845 46.265190 0.010497
-5.335104 46.265190 0.010454
-5.020363 46.265190 0.010398
-4.705622 46.265190 0.010653
-4.390881 46.265190 0.010607
-4.076140 46.265190 0.010532
-3.761399 46.265190 0.010434
-3.446658 46.265190 0.010507
-3.131917 46.265190 0.010598
-2.817176 46.265190 0.010642
-2.502435 46.265190 0.010397
-2.187694 46.265190 0.010367
-1.872953 46.265190 0.010619
-1.558212 46.265190 0.010566
-1.243471 46.265190 0.010446
-0.928730 46.265190 0.010714
-0.613989 46.265190 0.010926
-0.299248 46.265190 0.010855
0.015493 46.265190 0.010739
0.330234 46.265190 0.010993
0.644975 46.265190 0.011055
0.959716 46.265190 0.011042
1.274457 46.265190 0.011113
1.589198 46.265190 0.011277
1.903938 46.265190 0.011223
2.218679 46.265190 0.011252
2.533421 46.265190 0.011685
2.848162 46.265190 0.011805
3.162903 46.265190 0.011849
3.477644 46.265190 0.011986
3.792385 46.265190 0.012166
4.107125 46.265190 0.012442
4.421866 46.265190 0.012852
4.736608 46.265190 0.013142
5.051349 46.265190 0.013668
5.366090 46.265190 0.013920
5.680831 46.265190 0.014139
5.995571 46.265190 0.014519
6.310312 46.265190 0.015471
6.625053 46.265190 0.017342
6.939795 46.265190 0.020332
7.254536 46.265190 0.024071
7.569277 46.265190 0.028726
7.884017 46.265190 0.036542
8.198758 46.265190 0.048831
8.513499 46.265190 0.070209
8.828240 46.265190 0.104013
9.142982 46.265190 0.150337
9.457723 46.265190 0.216228
9.772464 46.265190 0.285251
10.087205 46.265190 0.389598
10.401946 46.265190 0.473726
10.716687 46.265190 0.587957
11.031426 46.265190 0.737047
11.346168 46.265190 0.883855
11.660909 46.265190 1.011837
11.975650 46.265190 1.118810
12.290391 46.265190 1.239282
12.605132 46.265190 1.312393
12.919873 46.265190 1.353142
13.234614 46.265190 1.387198
13.549356 46.265190 1.445763
13.864097 46.265190 1.484737
14.178838 46.265190 1.429741
14.493579 46.265190 1.414582
14.808320 46.265190 1.346692
15.123059 46.265190 1.306294
15.437800 46.265190 1.263413
15.752542 46.265190 1.245871
16.067284 46.265190 1.365947
16.382023 46.265190 1.492616
16.696766 46.265190 1.764629
17.011505 46.265190 2.226458
17.326248 46.265190 2.909106
17.640987 46.265190 3.611511
17.955730 46.265190 4.750323
18.270470 46.265190 7.015167
18.585213 46.265190 10.580106
18.899952 46.265190 8.122256
-7.223550 45.950451 0.000000
-6.908809 45.950451 0.000000
-6.594068 45.950451 0.014819
-6.279327 45.950451 0.010999
-5.964586 45.950451 0.010259
-5.649845 45.950451 0.010215
-5.335104 45.950451 0.010253
-5.020363 45.950451 0.010168
-4.705622 45.950451 0.010392
-4.390881 45.950451 0.010440
-4.076140 45.950451 0.010278
-3.761399 45.950451 0.010142
-3.446658 45.950451 0.010310
-3.131917 45.950451 0.010506
-2.817176 45.950451 0.010713
-2.502435 45.950451 0.010517
-2.187694 45.950451 0.010350
-1.872953 45.950451 0.010600
-1.558212 45.950451 0.010617
-1.243471 45.950451 0.010595
-0.928730 45.950451 0.010807
-0.613989 45.950451 0.010978
-0.299248 45.950451 0.010851
0.015493 45.950451 0.010781
0.330234 45.950451 0.010884
0.644975 45.950451 0.010898
0.959716 45.950451 0.010958
1.274457 45.950451 0.011022
1.589198 45.950451 0.011052
1.903938 45.950451 0.011051
2.218679 45.950451 0.011105
2.533421 45.950451 0.011417
2.848162 45.950451 0.011415
3.162903 45.950451 0.011509
3.477644 45.950451 0.011817
3.792385 45.950451 0.012117
4.107125 45.950451 0.012535
4.421866 45.950451 0.013060
4.736608 45.950451 0.013298
5.051349 45.950451 0.013841
5.366090 45.950451 0.014253
5.680831 45.950451 0.014474
5.995571 45.950451 0.014874
6.310312 45.950451 0.015658
6.625053 45.950451 0.017194
6.939795 45.950451 0.019877
7.254536 45.950451 0.023552
7.569277 45.950451 0.028516
7.884017 45.950451 0.035818
8.198758 45.950451 0.047828
8.513499 45.950451 0.069037
8.828240 45.950451 0.102203
9.142982 45.950451 0.149149
9.457723 45.950451 0.211305
9.772464 45.950451 0.288580
10.087205 45.950451 0.389125
10.401946 45.950451 0.487967
10.716687 45.950451 0.586655
11.031426 45.950451 0.707704
11.346168 45.950451 0.864205
11.660909 45.950451 0.987984
11.975650 45.950451 1.084193
12.290391 45.950451 1.214658
12.605132 45.950451 1.304194
12.919873 45.950451 1.346893
13.234614 45.950451 1.375728
13.549356 45.950451 1.445468
13.864097 45.950451 1.486211
14.178838 45.950451 1.413384
14.493579 45.950451 1.377537
14.808320 45.950451 1.304373
15.123059 45.950451 1.322108
15.437800 45.950451 1.295057
15.752542 45.950451 1.321700
16.067284 45.950451 1.449757
16.382023 45.950451 1.656826
16.696766 45.950451 2.131437
17.011505 45.950451 2.661739
17.326248 45.950451 3.641555
17.640987 45.950451 4.490389
17.955730 45.950451 5.592752
18.270470 45.950451 7.366754
18.585213 45.950451 10.467836
18.899952 45.950451 8.210049
-7.223550 45.635712 0.000000
-6.908809 45.635712 0.000000
-6.594068 45.635712 0.014559
-6.279327 45.635712 0.010852
-5.964586 45.635712 0.010155
-5.649845 45.635712 0.010099
-5.335104 45.635712 0.010053
-5.020363 45.635712 0.009996
-4.705622 45.635712 0.010229
-4.390881 45.635712 0.010216
-4.076140 45.635712 0.010106
-3.761399 45.635712 0.010000
-3.446658 45.635712 0.010113
-3.131917 45.635712 0.010333
-2.817176 45.635712 0.010627
-2.502435 45.635712 0.010669
-2.187694 45.635712 0.010466
-1.872953 45.635712 0.010661
-1.558212 45.635712 0.010746
-1.243471 45.635712 0.010904
-0.928730 45.635712 0.010972
-0.613989 45.635712 0.010968
-0.299248 45.635712 0.010772
0.015493 45.635712 0.010638
0.330234 45.635712 0.010676
0.644975 45.635712 0.010629
0.959716 45.635712 0.010851
1.274457 45.635712 0.010887
1.589198 45.635712 0.010904
1.903938 45.635712 0.010946
2.218679 45.635712 0.011038
2.533421 45.635712 0.011223
2.848162 45.635712 0.011149
3.162903 45.635712 0.011200
3.477644 45.635712 0.011597
3.792385 45.635712 0.011908
4.107125 45.635712 0.012441
4.421866 45.635712 0.012943
4.736608 45.635712 0.013174
5.051349 45.635712 0.013708
5.366090 45.635712 0.014403
5.680831 45.635712 0.014888
5.995571 45.635712 0.015376
6.310312 45.635712 0.016083
6.625053 45.635712 0.017282
6.939795 45.635712 0.019770
7.254536 45.635712 0.023234
7.569277 45.635712 0.028675
7.884017 45.635712 0.035801
8.198758 45.635712 0.047055
8.513499 45.635712 0.067381
8.828240 45.635712 0.100216
9.142982 45.635712 0.146064
9.457723 45.635712 0.209113
9.772464 45.635712 0.285970
10.087205 45.635712 0.381477
10.401946 45.635712 0.473644
10.716687 45.635712 0.584022
11.031426 45.635712 0.697408
11.346168 45.635712 0.839397
11.660909 45.635712 0.978105
11.975650 45.635712 1.090509
12.290391 45.635712 1.190117
12.605132 45.635712 1.306979
12.919873 45.635712 1.356452
13.234614 45.635712 1.383087
13.549356 45.635712 1.456910
13.864097 45.635712 1.450966
14.178838 45.635712 1.415159
14.493579 45.635712 1.331065
14.808320 45.635712 1.344308
15.123059 45.635712 1.280633
15.437800 45.635712 1.318163
15.752542 45.635712 1.411313
16.067284 45.635712 1.439494
16.382023 45.635712 1.727939
16.696766 45.635712 2.149023
17.011505 45.635712 2.963593
17.326248 45.635712 3.716815
17.640987 45.635712 5.224285
17.955730 45.635712 6.209846
18.270470 45.635712 7.802919
18.585213 45.635712 10.518271
18.899952 45.635712 8.584830
-7.223550 45.320969 0.000000
-6.908809 45.320969 0.000000
-6.594068 45.320969 0.014296
-6.279327 45.320969 0.010515
-5.964586 45.320969 0.010005
-5.649845 45.320969 0.010106
-5.335104 45.320969 0.009971
-5.020363 45.320969 0.010058
-4.705622 45.320969 0.010250
-4.390881 45.320969 0.010086
-4.076140 45.320969 0.010095
-3.761399 45.320969 0.010031
-3.446658 45.320969 0.009985
-3.131917 45.320969 0.010155
-2.817176 45.320969 0.010404
-2.502435 45.320969 0.010584
-2.187694 45.320969 0.010573
-1.872953 45.320969 0.010695
-1.558212 45.320969 0.010860
-1.243471 45.320969 0.011111
-0.928730 45.320969 0.011058
-0.613989 45.320969 0.010950
-0.299248 45.320969 0.010751
0.015493 45.320969 0.010594
0.330234 45.320969 0.010523
0.644975 45.320969 0.010549
0.959716 45.320969 0.010731
1.274457 45.320969 0.010757
1.589198 45.320969 0.010773
1.903938 45.320969 0.010978
2.218679 45.320969 0.010977
2.533421 45.320969 0.011066
2.848162 45.320969 0.011032
3.162903 45.320969 0.011012
3.477644 45.320969 0.011233
3.792385 45.320969 0.011456
4.107125 45.320969 0.012042
4.421866 45.320969 0.012491
4.736608 45.320969 0.012754
5.051349 45.320969 0.013347
5.366090 45.320969 0.014252
5.680831 45.320969 0.015152
5.995571 45.320969 0.015714
6.310312 45.320969 0.016582
6.625053 45.320969 0.017882
6.939795 45.320969 0.020012
7.254536 45.320969 0.023562
7.569277 45.320969 0.028221
7.884017 45.320969 0.036417
8.198758 45.320969 0.047314
8.513499 45.320969 0.066041
8.828240 45.320969 0.098909
9.142982 45.320969 0.142165
9.457723 45.320969 0.211200
9.772464 45.320969 0.290651
10.087205 45.320969 0.373323
10.401946 45.320969 0.473371
10.716687 45.320969 0.580978
11.031426 45.320969 0.702846
11.346168 45.320969 0.837413
11.660909 45.320969 0.986353
11.975650 45.320969 1.101535
12.290391 45.320969 1.195299
12.605132 45.320969 1.310584
12.919873 45.320969 1.366986
13.234614 45.320969 1.426677
13.549356 45.320969 1.429986
13.864097 45.320969 1.450794
14.178838 45.320969 1.412460
14.493579 45.320969 1.353253
14.808320 45.320969 1.353905
15.123059 45.320969 1.317892
15.437800 45.320969 1.379565
15.752542 45.320969 1.566588
16.067284 45.320969 29.891516
16.382023 45.320969 20.571327
16.696766 45.320969 19.460485
17.011505 45.320969 19.576509
17.326248 45.320969 20.276352
17.640987 45.320969 6.224380
17.955730 45.320969 7.132647
18.270470 45.320969 7.821763
18.585213 45.320969 10.195216
18.899952 45.320969 7.927910
-7.223550 45.006226 0.000000
-6.908809 45.006226 0.000000
-6.594068 45.006226 0.014144
-6.279327 45.006226 0.010327
-5.964586 45.006226 0.009996
-5.649845 45.006226 0.010110
-5.335104 45.006226 0.009992
-5.020363 45.006226 0.010066
-4.705622 45.006226 0.010167
-4.390881 45.006226 0.010027
-4.076140 45.006226 0.010181
-3.761399 45.006226 0.010068
-3.446658 45.006226 0.009865
-3.131917 45.006226 0.010012
-2.817176 45.006226 0.010143
-2.502435 45.006226 0.010309
-2.187694 45.006226 0.010459
-1.872953 45.006226 0.010562
-1.558212 45.006226 0.010835
-1.243471 45.006226 0.011064
-0.928730 45.006226 0.011051
-0.613989 45.006226 0.010998
-0.299248 45.006226 0.010877
0.015493 45.006226 0.010756
0.330234 45.006226 0.010587
0.644975 45.006226 0.010707
0.959716 45.006226 0.010764
1.274457 45.006226 0.010675
1.589198 45.006226 0.010727
1.903938 45.006226 0.010943
2.218679 45.006226 0.010802
2.533421 45.006226 0.010927
2.848162 45.006226 0.011010
3.162903 45.006226 0.010896
3.477644 45.006226 0.010928
3.792385 45.006226 0.011097
4.107125 45.006226 0.011608
4.421866 45.006226 0.011846
4.736608 45.006226 0.012088
5.051349 45.006226 0.012821
5.366090 45.006226 0.013686
5.680831 45.006226 0.014808
5.995571 45.006226 0.015726
6.310312 45.006226 0.016827
6.625053 45.006226 0.018441
6.939795 45.006226 0.020685
7.254536 45.006226 0.024047
7.569277 45.006226 0.028518
7.884017 45.006226 0.036430
8.198758 45.006226 0.048797
8.513499 45.006226 0.068551
8.828240 45.006226 0.099783
9.142982 45.006226 0.138772
9.457723 45.006226 0.201928
9.772464 45.006226 0.285109
10.087205 45.006226 0.368509
10.401946 45.006226 0.485359
10.716687 45.006226 0.597583
11.031426 45.006226 0.704160
11.346168 45.006226 0.849691
11.660909 45.006226 1.014913
11.975650 45.006226 1.126812
12.290391 45.006226 1.198389
12.605132 45.006226 1.287876
12.919873 45.006226 1.361686
13.234614 45.006226 1.409526
13.549356 45.006226 1.430555
13.864097 45.006226 1.433542
14.178838 45.006226 1.410085
14.493579 45.006226 1.370306
14.808320 45.006226 1.371742
15.123059 45.006226 1.376426
15.437800 45.006226 1.512990
15.752542 45.006226 1.757929
16.067284 45.006226 0.000000
16.382023 45.006226 0.000000
16.696766 45.006226 15.609989
17.011505 45.006226 12.809891
17.326248 45.006226 56.243935
17.640987 45.006226 7.178028
17.955730 45.006226 7.512393
18.270470 45.006226 7.974771
18.585213 45.006226 10.399384
18.899952 45.006226 8.902000
-7.223550 44.691486 0.000000
-6.908809 44.691486 0.000000
-6.594068 44.691486 0.014086
-6.279327 44.691486 0.010317
-5.964586 44.691486 0.010111
-5.649845 44.691486 0.010191
-5.335104 44.691486 0.010026
-5.020363 44.691486 0.009868
-4.705622 44.691486 0.009950
-4.390881 44.691486 0.009928
-4.076140 44.691486 0.010119
-3.761399 44.691486 0.010076
-3.446658 44.691486 0.009872
-3.131917 44.691486 0.010027
-2.817176 44.691486 0.010018
-2.502435 44.691486 0.010102
-2.187694 44.691486 0.010255
-1.872953 44.691486 0.010320
-1.558212 44.691486 0.010597
-1.243471 44.691486 0.010744
-0.928730 44.691486 0.010861
-0.613989 44.691486 0.010905
-0.299248 44.691486 0.010935
0.015493 44.691486 0.010928
0.330234 44.691486 0.010792
0.644975 44.691486 0.011009
0.959716 44.691486 0.011038
1.274457 44.691486 0.010746
1.589198 44.691486 0.010765
1.903938 44.691486 0.010813
2.218679 44.691486 0.010635
2.533421 44.691486 0.010759
2.848162 44.691486 0.010969
3.162903 44.691486 0.010947
3.477644 44.691486 0.010926
3.792385 44.691486 0.011036
4.107125 44.691486 0.011424
4.421866 44.691486 0.011466
4.736608 44.691486 0.011626
5.051349 44.691486 0.012344
5.366090 44.691486 0.013160
5.680831 44.691486 0.014149
5.995571 44.691486 0.015343
6.310312 44.691486 0.016805
6.625053 44.691486 0.018594
6.939795 44.691486 0.020933
7.254536 44.691486 0.024042
7.569277 44.691486 0.028668
7.884017 44.691486 0.036840
8.198758 44.691486 0.049691
8.513499 44.691486 0.069351
8.828240 44.691486 0.102292
9.142982 44.691486 0.140368
9.457723 44.691486 0.196026
9.772464 44.691486 0.281963
10.087205 44.691486 0.373676
10.401946 44.691486 0.480624
10.716687 44.691486 0.611700
11.031426 44.691486 0.722654
11.346168 44.691486 0.864398
11.660909 44.691486 0.998592
11.975650 44.691486 1.122650
12.290391 44.691486 1.188797
12.605132 44.691486 1.271512
12.919873 44.691486 1.327517
13.234614 44.691486 1.408635
13.549356 44.691486 1.438948
13.864097 44.691486 1.423251
14.178838 44.691486 1.426067
14.493579 44.691486 1.400120
14.808320 44.691486 1.419875
15.123059 44.691486 1.431513
15.437800 44.691486 1.572852
15.752542 44.691486 2.032556
16.067284 44.691486 0.000000
16.382023 44.691486 0.000000
16.696766 44.691486 0.000000
17.011505 44.691486 0.000000
17.326248 44.691486 49.572361
17.640987 44.691486 8.274687
17.955730 44.691486 8.319849
18.270470 44.691486 8.149513
18.585213 44.691486 10.195740
18.899952 44.691486 8.469480
-7.223550 44.376747 0.000000
-6.908809 44.376747 0.000000
-6.594068 44.376747 0.013956
-6.279327 44.376747 0.010378
-5.964586 44.376747 0.010251
-5.649845 44.376747 0.010294
-5.335104 44.376747 0.010098
-5.020363 44.376747 0.009729
-4.705622 44.376747 0.009778
-4.390881 44.376747 0.009862
-4.076140 44.376747 0.009989
-3.761399 44.376747 0.009982
-3.446658 44.376747 0.009873
-3.131917 44.376747 0.010091
-2.817176 44.376747 0.010129
-2.502435 44.376747 0.010031
-2.187694 44.376747 0.010004
-1.872953 44.376747 0.010083
-1.558212 44.376747 0.010289
-1.243471 44.376747 0.010374
-0.928730 44.376747 0.010583
-0.613989 44.376747 0.010838
-0.299248 44.376747 0.010919
0.015493 44.376747 0.011039
0.330234 44.376747 0.011073
0.644975 44.376747 0.011285
0.959716 44.376747 0.011258
1.274457 44.376747 0.010984
1.589198 44.376747 0.010911
1.903938 44.376747 0.010754
2.218679 44.376747 0.010523
2.533421 44.376747 0.010643
2.848162 44.376747 0.010777
3.162903 44.376747 0.010908
3.477644 44.376747 0.011012
3.792385 44.376747 0.011141
4.107125 44.376747 0.011378
4.421866 44.376747 0.011347
4.736608 44.376747 0.011524
5.051349 44.376747 0.012044
5.366090 44.376747 0.012809
5.680831 44.376747 0.013568
5.995571 44.376747 0.014872
6.310312 44.376747 0.016700
6.625053 44.376747 0.018578
6.939795 44.376747 0.021142
7.254536 44.376747 0.024340
7.569277 44.376747 0.029489
7.884017 44.376747 0.038259
8.198758 44.376747 0.050502
8.513499 44.376747 0.071749
8.828240 44.376747 0.102615
9.142982 44.376747 0.144315
9.457723 44.376747 0.197976
9.772464 44.376747 0.275169
10.087205 44.376747 0.364037
10.401946 44.376747 0.489133
10.716687 44.376747 0.601567
11.031426 44.376747 0.732557
11.346168 44.376747 0.851153
11.660909 44.376747 1.008083
11.975650 44.376747 1.101767
12.290391 44.376747 1.177033
12.605132 44.376747 1.272748
12.919873 44.376747 1.333140
13.234614 44.376747 1.375872
13.549356 44.376747 1.395887
13.864097 44.376747 1.393214
14.178838 44.376747 1.417867
14.493579 44.376747 1.448030
14.808320 44.376747 1.419177
15.123059 44.376747 1.436423
15.437800 44.376747 1.672417
15.752542 44.376747 2.192599
16.067284 44.376747 39.400665
16.382023 44.376747 0.000000
16.696766 44.376747 0.000000
17.011505 44.376747 0.000000
17.326248 44.376747 38.425800
17.640987 44.376747 9.095895
17.955730 44.376747 8.633688
18.270470 44.376747 8.649441
18.585213 44.376747 10.455062
18.899952 44.376747 7.845611
-7.223550 44.062004 0.000000
-6.908809 44.062004 0.000000
-6.594068 44.062004 0.013958
-6.279327 44.062004 0.010507
-5.964586 44.062004 0.010379
-5.649845 44.062004 0.010394
-5.335104 44.062004 0.010302
-5.020363 44.062004 0.009973
-4.705622 44.062004 0.009951
-4.390881 44.062004 0.009961
-4.076140 44.062004 0.009924
-3.761399 44.062004 0.009810
-3.446658 44.062004 0.009746
-3.131917 44.062004 0.010045
-2.817176 44.062004 0.010198
-2.502435 44.062004 0.010046
-2.187694 44.062004 0.009925
-1.872953 44.062004 0.009922
-1.558212 44.062004 0.010170
-1.243471 44.062004 0.010227
-0.928730 44.062004 0.010398
-0.613989 44.062004 0.010704
-0.299248 44.062004 0.010715
0.015493 44.062004 0.010941
0.330234 44.062004 0.011123
0.644975 44.062004 0.011305
0.959716 44.062004 0.011338
1.274457 44.062004 0.011265
1.589198 44.062004 0.011229
1.903938 44.062004 0.010995
2.218679 44.062004 0.010642
2.533421 44.062004 0.010571
2.848162 44.062004 0.010610
3.162903 44.062004 0.010638
3.477644 44.062004 0.010813
3.792385 44.062004 0.011129
4.107125 44.062004 0.011300
4.421866 44.062004 0.011334
4.736608 44.062004 0.011510
5.051349 44.062004 0.011957
5.366090 44.062004 0.012565
5.680831 44.062004 0.013261
5.995571 44.062004 0.014503
6.310312 44.062004 0.016338
6.625053 44.062004 0.018220
6.939795 44.062004 0.020831
7.254536 44.062004 0.024637
7.569277 44.062004 0.030435
7.884017 44.062004 0.038911
8.198758 44.062004 0.051490
8.513499 44.062004 0.072144
8.828240 44.062004 0.107507
9.142982 44.062004 0.146605
9.457723 44.062004 0.205218
9.772464 44.062004 0.277376
10.087205 44.062004 0.371586
10.401946 44.062004 0.488212
10.716687 44.062004 0.617931
11.031426 44.062004 0.735776
11.346168 44.062004 0.853586
11.660909 44.062004 1.005007
11.975650 44.062004 1.082039
12.290391 44.062004 1.202342
12.605132 44.062004 1.263373
12.919873 44.062004 1.339588
13.234614 44.062004 1.374716
13.549356 44.062004 1.376242
13.864097 44.062004 1.389729
14.178838 44.062004 1.420549
14.493579 44.062004 1.486192
14.808320 44.062004 1.434437
15.123059 44.062004 1.466960
15.437800 44.062004 1.745468
15.752542 44.062004 2.366224
16.067284 44.062004 0.000000
16.382023 44.062004 0.000000
16.696766 44.062004 0.000000
17.011505 44.062004 0.000000
17.326248 44.062004 0.000000
17.640987 44.062004 10.059968
17.955730 44.062004 9.538145
18.270470 44.062004 8.619967
18.585213 44.062004 11.014600
18.899952 44.062004 9.180305
-7.223550 43.747265 0.000000
-6.908809 43.747265 0.000000
-6.594068 43.747265 0.013913
-6.279327 43.747265 0.010475
-5.964586 43.747265 0.010499
-5.649845 43.747265 0.010669
-5.335104 43.747265 0.010577
-5.020363 43.747265 0.010460
-4.705622 43.747265 0.010387
-4.390881 43.747265 0.010247
-4.076140 43.747265 0.010038
-3.761399 43.747265 0.009779
-3.446658 43.747265 0.009631
-3.131917 43.747265 0.009760
-2.817176 43.747265 0.009963
-2.502435 43.747265 0.010141
-2.187694 43.747265 0.009970
-1.872953 43.747265 0.009934
-1.558212 43.747265 0.010245
-1.243471 43.747265 0.010306
-0.928730 43.747265 0.010233
-0.613989 43.747265 0.010421
-0.299248 43.747265 0.010434
0.015493 43.747265 0.010740
0.330234 43.747265 0.010906
0.644975 43.747265 0.011079
0.959716 43.747265 0.011290
1.274457 43.747265 0.011377
1.589198 43.747265 0.011471
1.903938 43.747265 0.011376
2.218679 43.747265 0.010897
2.533421 43.747265 0.010722
2.848162 43.747265 0.010605
3.162903 43.747265 0.010470
3.477644 43.747265 0.010577
3.792385 43.747265 0.010857
4.107125 43.747265 0.011180
4.421866 43.747265 0.011263
4.736608 43.747265 0.011641
5.051349 43.747265 0.012049
5.366090 43.747265 0.012518
5.680831 43.747265 0.013153
5.995571 43.747265 0.014227
6.310312 43.747265 0.015828
6.625053 43.747265 0.017628
6.939795 43.747265 0.020157
7.254536 43.747265 0.024409
7.569277 43.747265 0.030844
7.884017 43.747265 0.038809
8.198758 43.747265 0.051013
8.513499 43.747265 0.070342
8.828240 43.747265 0.103200
9.142982 43.747265 0.151673
9.457723 43.747265 0.208190
9.772464 43.747265 0.282202
10.087205 43.747265 0.385151
10.401946 43.747265 0.488931
10.716687 43.747265 0.601732
11.031426 43.747265 0.734824
11.346168 43.747265 0.854090
11.660909 43.747265 0.994837
11.975650 43.747265 1.075279
12.290391 43.747265 1.197481
12.605132 43.747265 1.318997
12.919873 43.747265 1.317345
13.234614 43.747265 1.417267
13.549356 43.747265 1.412121
13.864097 43.747265 1.423516
14.178838 43.747265 1.448192
14.493579 43.747265 1.466709
14.808320 43.747265 1.454672
15.123059 43.747265 1.509623
15.437800 43.747265 1.777368
15.752542 43.747265 2.223942
16.067284 43.747265 0.000000
16.382023 43.747265 0.000000
16.696766 43.747265 0.000000
17.011505 43.747265 0.000000
17.326248 43.747265 0.000000
17.640987 43.747265 10.099000
17.955730 43.747265 9.695877
18.270470 43.747265 8.921535
18.585213 43.747265 11.769697
18.899952 43.747265 10.654393
-7.223550 43.432522 0.000000
-6.908809 43.432522 0.000000
-6.594068 43.432522 0.013648
-6.279327 43.432522 0.010367
-5.964586 43.432522 0.010541
-5.649845 43.432522 0.010866
-5.335104 43.432522 0.010786
-5.020363 43.432522 0.010788
-4.705622 43.432522 0.010753
-4.390881 43.432522 0.010617
-4.076140 43.432522 0.010477
-3.761399 43.432522 0.010090
-3.446658 43.432522 0.009769
-3.131917 43.432522 0.009596
-2.817176 43.432522 0.009814
-2.502435 43.432522 0.010210
-2.187694 43.432522 0.010155
-1.872953 43.432522 0.010036
-1.558212 43.432522 0.010328
-1.243471 43.432522 0.010320
-0.928730 43.432522 0.010013
-0.613989 43.432522 0.010140
-0.299248 43.432522 0.010188
0.015493 43.432522 0.010410
0.330234 43.432522 0.010441
0.644975 43.432522 0.010641
0.959716 43.432522 0.010955
1.274457 43.432522 0.011255
1.589198 43.432522 0.011516
1.903938 43.432522 0.011516
2.218679 43.432522 0.011189
2.533421 43.432522 0.011096
2.848162 43.432522 0.010878
3.162903 43.432522 0.010590
3.477644 43.432522 0.010520
3.792385 43.432522 0.010600
4.107125 43.432522 0.010909
4.421866 43.432522 0.011206
4.736608 43.432522 0.011709
5.051349 43.432522 0.012158
5.366090 43.432522 0.012557
5.680831 43.432522 0.013112
5.995571 43.432522 0.014004
6.310312 43.432522 0.015491
6.625053 43.432522 0.017081
6.939795 43.432522 0.019775
7.254536 43.432522 0.023897
7.569277 43.432522 0.029897
7.884017 43.432522 0.038481
8.198758 43.432522 0.050297
8.513499 43.432522 0.068297
8.828240 43.432522 0.095667
9.142982 43.432522 0.145881
9.457723 43.432522 0.209967
9.772464 43.432522 0.294082
10.087205 43.432522 0.382011
10.401946 43.432522 0.482847
10.716687 43.432522 0.613394
11.031426 43.432522 0.717193
11.346168 43.432522 0.846375
11.660909 43.432522 1.003063
11.975650 43.432522 1.114588
12.290391 43.432522 1.220585
12.605132 43.432522 1.315334
12.919873 43.432522 1.374588
13.234614 43.432522 1.420119
13.549356 43.432522 1.446735
13.864097 43.432522 1.456033
14.178838 43.432522 1.468179
14.493579 43.432522 1.449016
14.808320 43.432522 1.429120
15.123059 43.432522 1.495410
15.437800 43.432522 1.791951
15.752542 43.432522 2.419410
16.067284 43.432522 0.000000
16.382023 43.432522 0.000000
16.696766 43.432522 0.000000
17.011505 43.432522 0.000000
17.326248 43.432522 0.000000
17.640987 43.432522 9.950271
17.955730 43.432522 10.583389
18.270470 43.432522 9.615578
18.585213 43.432522 12.272905
18.899952 43.432522 10.191429
-7.223550 43.117783 0.000000
-6.908809 43.117783 0.000000
-6.594068 43.117783 0.013293
-6.279327 43.117783 0.010237
-5.964586 43.117783 0.010550
-5.649845 43.117783 0.010804
-5.335104 43.117783 0.010706
-5.020363 43.117783 0.010791
-4.705622 43.117783 0.010879
-4.390881 43.117783 0.010977
-4.076140 43.117783 0.011050
-3.761399 43.117783 0.010588
-3.446658 43.117783 0.010148
-3.131917 43.117783 0.009851
-2.817176 43.117783 0.009921
-2.502435 43.117783 0.010286
-2.187694 43.117783 0.010256
-1.872953 43.117783 0.010136
-1.558212 43.117783 0.010295
-1.243471 43.117783 0.010247
-0.928730 43.117783 0.009941
-0.613989 43.117783 0.010090
-0.299248 43.117783 0.010161
0.015493 43.117783 0.010109
0.330234 43.117783 0.010069
0.644975 43.117783 0.010237
0.959716 43.117783 0.010586
1.274457 43.117783 0.010916
1.589198 43.117783 0.011265
1.903938 43.117783 0.011347
2.218679 43.117783 0.011330
2.533421 43.117783 0.011453
2.848162 43.117783 0.011240
3.162903 43.117783 0.010945
3.477644 43.117783 0.010724
3.792385 43.117783 0.010765
4.107125 43.117783 0.010914
4.421866 43.117783 0.011175
4.736608 43.117783 0.011717
5.051349 43.117783 0.012105
5.366090 43.117783 0.012422
5.680831 43.117783 0.012954
5.995571 43.117783 0.013871
6.310312 43.117783 0.015219
6.625053 43.117783 0.016878
6.939795 43.117783 0.019184
7.254536 43.117783 0.022999
7.569277 43.117783 0.028387
7.884017 43.117783 0.037184
8.198758 43.117783 0.049456
8.513499 43.117783 0.065621
8.828240 43.117783 0.093713
9.142982 43.117783 0.144173
9.457723 43.117783 0.212224
9.772464 43.117783 0.295564
10.087205 43.117783 0.390519
10.401946 43.117783 0.478762
10.716687 43.117783 0.602816
11.031426 43.117783 0.738644
11.346168 43.117783 0.855510
11.660909 43.117783 0.995340
11.975650 43.117783 1.141146
12.290391 43.117783 1.233477
12.605132 43.117783 1.340487
12.919873 43.117783 1.399922
13.234614 43.117783 1.405265
13.549356 43.117783 1.418970
13.864097 43.117783 1.442337
14.178838 43.117783 1.445642
14.493579 43.117783 1.432506
14.808320 43.117783 1.406025
15.123059 43.117783 1.489115
15.437800 43.117783 1.875961
15.752542 43.117783 2.227653
16.067284 43.117783 0.000000
16.382023 43.117783 0.000000
16.696766 43.117783 0.000000
17.011505 43.117783 0.000000
17.326248 43.117783 0.000000
17.640987 43.117783 11.809479
17.955730 43.117783 10.572479
18.270470 43.117783 10.234547
18.585213 43.117783 11.809010
18.899952 43.117783 11.436361
-7.223550 42.803040 0.000000
-6.908809 42.803040 0.000000
-6.594068 42.803040 0.013074
-6.279327 42.803040 0.010203
-5.964586 42.803040 0.010547
-5.649845 42.803040 0.010646
-5.335104 42.803040 0.010436
-5.020363 42.803040 0.010574
-4.705622 42.803040 0.010849
-4.390881 42.803040 0.011195
-4.076140 42.803040 0.011457
-3.761399 42.803040 0.011143
-3.446658 42.803040 0.010703
-3.131917 42.803040 0.010279
-2.817176 42.803040 0.010086
-2.502435 42.803040 0.010308
-2.187694 42.803040 0.010211
-1.872953 42.803040 0.010186
-1.558212 42.803040 0.010162
-1.243471 42.803040 0.010123
-0.928730 42.803040 0.010036
-0.613989 42.803040 0.010174
-0.299248 42.803040 0.010258
0.015493 42.803040 0.010046
0.330234 42.803040 0.009997
0.644975 42.803040 0.010066
0.959716 42.803040 0.010328
1.274457 42.803040 0.010549
1.589198 42.803040 0.010809
1.903938 42.803040 0.010971
2.218679 42.803040 0.011222
2.533421 42.803040 0.011507
2.848162 42.803040 0.011433
3.162903 42.803040 0.011430
3.477644 42.803040 0.011198
3.792385 42.803040 0.011150
4.107125 42.803040 0.011250
4.421866 42.803040 0.011412
4.736608 42.803040 0.011689
5.051349 42.803040 0.011888
5.366090 42.803040 0.012231
5.680831 42.803040 0.012791
5.995571 42.803040 0.013641
6.310312 42.803040 0.015024
6.625053 42.803040 0.016568
6.939795 42.803040 0.018850
7.254536 42.803040 0.022403
7.569277 42.803040 0.027390
7.884017 42.803040 0.035287
8.198758 42.803040 0.046586
8.513499 42.803040 0.064452
8.828240 42.803040 0.095855
9.142982 42.803040 0.144227
9.457723 42.803040 0.209437
9.772464 42.803040 0.286888
10.087205 42.803040 0.382831
10.401946 42.803040 0.490133
10.716687 42.803040 0.609216
11.031426 42.803040 0.748604
11.346168 42.803040 0.897133
11.660909 42.803040 1.020356
11.975650 42.803040 1.162801
12.290391 42.803040 1.256110
12.605132 42.803040 1.329558
12.919873 42.803040 1.379009
13.234614 42.803040 1.391671
13.549356 42.803040 1.430988
13.864097 42.803040 1.433082
14.178838 42.803040 1.464300
14.493579 42.803040 1.457476
14.808320 42.803040 1.456383
15.123059 42.803040 1.525733
15.437800 42.803040 1.923100
15.752542 42.803040 2.405063
16.067284 42.803040 0.000000
16.382023 42.803040 0.000000
16.696766 42.803040 0.000000
17.011505 42.803040 0.000000
17.326248 42.803040 0.000000
17.640987 42.803040 11.445894
17.955730 42.803040 11.174346
18.270470 42.803040 10.338278
18.585213 42.803040 12.309200
18.899952 42.803040 8.966774
-7.223550 42.488300 0.000000
-6.908809 42.488300 0.000000
-6.594068 42.488300 0.013037
-6.279327 42.488300 0.010244
-5.964586 42.488300 0.010406
-5.649845 42.488300 0.010331
-5.335104 42.488300 0.010062
-5.020363 42.488300 0.010244
-4.705622 42.488300 0.010706
-4.390881 42.488300 0.011140
-4.076140 42.488300 0.011499
-3.761399 42.488300 0.011445
-3.446658 42.488300 0.011080
-3.131917 42.488300 0.010708
-2.817176 42.488300 0.010369
-2.502435 42.488300 0.010278
-2.187694 42.488300 0.010147
-1.872953 42.488300 0.010177
-1.558212 42.488300 0.010015
-1.243471 42.488300 0.010002
-0.928730 42.488300 0.010011
-0.613989 42.488300 0.010258
-0.299248 42.488300 0.010302
0.015493 42.488300 0.010037
0.330234 42.488300 0.010037
0.644975 42.488300 0.010043
0.959716 42.488300 0.010118
1.274457 42.488300 0.010234
1.589198 42.488300 0.010383
1.903938 42.488300 0.010499
2.218679 42.488300 0.010912
2.533421 42.488300 0.011234
2.848162 42.488300 0.011415
3.162903 42.488300 0.011730
3.477644 42.488300 0.011696
3.792385 42.488300 0.011674
4.107125 42.488300 0.011763
4.421866 42.488300 0.011761
4.736608 42.488300 0.011713
5.051349 42.488300 0.011754
5.366090 42.488300 0.012072
5.680831 42.488300 0.012633
5.995571 42.488300 0.013343
6.310312 42.488300 0.014662
6.625053 42.488300 0.016248
6.939795 42.488300 0.018795
7.254536 42.488300 0.022221
7.569277 42.488300 0.026735
7.884017 42.488300 0.034113
8.198758 42.488300 0.045359
8.513499 42.488300 0.065049
8.828240 42.488300 0.095218
9.142982 42.488300 0.141821
9.457723 42.488300 0.200042
9.772464 42.488300 0.279766
10.087205 42.488300 0.371759
10.401946 42.488300 0.492732
10.716687 42.488300 0.607277
11.031426 42.488300 0.735393
11.346168 42.488300 0.873244
11.660909 42.488300 0.990199
11.975650 42.488300 1.143896
12.290391 42.488300 1.257249
12.605132 42.488300 1.342146
12.919873 42.488300 1.372199
13.234614 42.488300 1.386048
13.549356 42.488300 1.419588
13.864097 42.488300 1.426798
14.178838 42.488300 1.454902
14.493579 42.488300 1.481952
14.808320 42.488300 1.485410
15.123059 42.488300 1.561232
15.437800 42.488300 1.970818
15.752542 42.488300 2.692047
16.067284 42.488300 0.000000
16.382023 42.488300 0.000000
16.696766 42.488300 0.000000
17.011505 42.488300 0.000000
17.326248 42.488300 0.000000
17.640987 42.488300 10.734442
17.955730 42.488300 11.879675
18.270470 42.488300 10.882237
18.585213 42.488300 12.914203
18.899952 42.488300 8.886069
-7.223550 42.173557 0.000000
-6.908809 42.173557 0.000000
-6.594068 42.173557 0.013197
-6.279327 42.173557 0.010304
-5.964586 42.173557 0.010220
-5.649845 42.173557 0.009998
-5.335104 42.173557 0.009729
-5.020363 42.173557 0.009989
-4.705622 42.173557 0.010492
-4.390881 42.173557 0.010866
-4.076140 42.173557 0.011191
-3.761399 42.173557 0.011351
-3.446658 42.173557 0.011214
-3.131917 42.173557 0.010997
-2.817176 42.173557 0.010618
-2.502435 42.173557 0.010319
-2.187694 42.173557 0.010102
-1.872953 42.173557 0.010209
-1.558212 42.173557 0.010046
-1.243471 42.173557 0.009903
-0.928730 42.173557 0.009927
-0.613989 42.173557 0.010212
-0.299248 42.173557 0.010258
0.015493 42.173557 0.010024
0.330234 42.173557 0.009950
0.644975 42.173557 0.010006
0.959716 42.173557 0.010064
1.274457 42.173557 0.010023
1.589198 42.173557 0.010064
1.903938 42.173557 0.010207
2.218679 42.173557 0.010619
2.533421 42.173557 0.010853
2.848162 42.173557 0.011300
3.162903 42.173557 0.011640
3.477644 42.173557 0.011871
3.792385 42.173557 0.012016
4.107125 42.173557 0.012068
4.421866 42.173557 0.011904
4.736608 42.173557 0.011826
5.051349 42.173557 0.011792
5.366090 42.173557 0.012082
5.680831 42.173557 0.012515
5.995571 42.173557 0.013179
6.310312 42.173557 0.014345
6.625053 42.173557 0.015852
6.939795 42.173557 0.018717
7.254536 42.173557 0.022245
7.569277 42.173557 0.026480
7.884017 42.173557 0.033393
8.198758 42.173557 0.045253
8.513499 42.173557 0.063900
8.828240 42.173557 0.096389
9.142982 42.173557 0.147385
9.457723 42.173557 0.204113
9.772464 42.173557 0.276433
10.087205 42.173557 0.374174
10.401946 42.173557 0.487734
10.716687 42.173557 0.617844
11.031426 42.173557 0.726926
11.346168 42.173557 0.876996
11.660909 42.173557 1.026035
11.975650 42.173557 1.151332
12.290391 42.173557 1.256392
12.605132 42.173557 1.320633
12.919873 42.173557 1.379767
13.234614 42.173557 1.424292
13.549356 42.173557 1.404288
13.864097 42.173557 1.418536
14.178838 42.173557 1.437328
14.493579 42.173557 1.468866
14.808320 42.173557 1.489514
15.123059 42.173557 1.620358
15.437800 42.173557 1.998267
15.752542 42.173557 2.777190
16.067284 42.173557 0.000000
16.382023 42.173557 0.000000
16.696766 42.173557 0.000000
17.011505 42.173557 0.000000
17.326248 42.173557 0.000000
17.640987 42.173557 11.183430
17.955730 42.173557 12.732768
18.270470 42.173557 12.003123
18.585213 42.173557 14.063387
18.899952 42.173557 5.389554
-7.223550 41.858818 0.000000
-6.908809 41.858818 0.000000
-6.594068 41.858818 0.013206
-6.279327 41.858818 0.010295
-5.964586 41.858818 0.010146
-5.649845 41.858818 0.009895
-5.335104 41.858818 0.009641
-5.020363 41.858818 0.009951
-4.705622 41.858818 0.010380
-4.390881 41.858818 0.010518
-4.076140 41.858818 0.010689
-3.761399 41.858818 0.010844
-3.446658 41.858818 0.010956
-3.131917 41.858818 0.011023
-2.817176 41.858818 0.010817
-2.502435 41.858818 0.010524
-2.187694 41.858818 0.010231
-1.872953 41.858818 0.010330
-1.558212 41.858818 0.010234
-1.243471 41.858818 0.010059
-0.928730 41.858818 0.009922
-0.613989 41.858818 0.010122
-0.299248 41.858818 0.010160
0.015493 41.858818 0.009910
0.330234 41.858818 0.009860
0.644975 41.858818 0.010009
0.959716 41.858818 0.010172
1.274457 41.858818 0.010084
1.589198 41.858818 0.010001
1.903938 41.858818 0.010176
2.218679 41.858818 0.010501
2.533421 41.858818 0.010701
2.848162 41.858818 0.011106
3.162903 41.858818 0.011395
3.477644 41.858818 0.011637
3.792385 41.858818 0.011978
4.107125 41.858818 0.012058
4.421866 41.858818 0.011858
4.736608 41.858818 0.011928
5.051349 41.858818 0.012116
5.366090 41.858818 0.012363
5.680831 41.858818 0.012683
5.995571 41.858818 0.013258
6.310312 41.858818 0.014320
6.625053 41.858818 0.015730
6.939795 41.858818 0.018275
7.254536 41.858818 0.021988
7.569277 41.858818 0.026222
7.884017 41.858818 0.033432
8.198758 41.858818 0.044568
8.513499 41.858818 0.063350
8.828240 41.858818 0.097177
9.142982 41.858818 0.142489
9.457723 41.858818 0.205962
9.772464 41.858818 0.279454
10.087205 41.858818 0.380780
10.401946 41.858818 0.491190
10.716687 41.858818 0.619432
11.031426 41.858818 0.732404
11.346168 41.858818 0.875896
11.660909 41.858818 1.002572
11.975650 41.858818 1.145866
12.290391 41.858818 1.265078
12.605132 41.858818 1.346351
12.919873 41.858818 1.405538
13.234614 41.858818 1.406010
13.549356 41.858818 1.440604
13.864097 41.858818 1.406723
14.178838 41.858818 1.440140
14.493579 41.858818 1.428841
14.808320 41.858818 1.513015
15.123059 41.858818 1.651070
15.437800 41.858818 2.030818
15.752542 41.858818 2.639378
16.067284 41.858818 0.000000
16.382023 41.858818 0.000000
16.696766 41.858818 0.000000
17.011505 41.858818 0.000000
17.326248 41.858818 0.000000
17.640987 41.858818 14.229506
17.955730 41.858818 14.045610
18.270470 41.858818 12.379193
18.585213 41.858818 14.837567
18.899952 41.858818 0.000000
-7.223550 41.544075 0.000000
-6.908809 41.544075 0.000000
-6.594068 41.544075 0.012945
-6.279327 41.544075 0.010183
-5.964586 41.544075 0.010174
-5.649845 41.544075 0.009988
-5.335104 41.544075 0.009784
-5.020363 41.544075 0.010069
-4.705622 41.544075 0.010285
-4.390881 41.544075 0.010258
-4.076140 41.544075 0.010221
-3.761399 41.544075 0.010330
-3.446658 41.544075 0.010556
-3.131917 41.544075 0.010799
-2.817176 41.544075 0.010777
-2.502435 41.544075 0.010703
-2.187694 41.544075 0.010380
-1.872953 41.544075 0.010531
-1.558212 41.544075 0.010546
-1.243471 41.544075 0.010384
-0.928730 41.544075 0.010056
-0.613989 41.544075 0.010118
-0.299248 41.544075 0.010088
0.015493 41.544075 0.009846
0.330234 41.544075 0.009862
0.644975 41.544075 0.010074
0.959716 41.544075 0.010276
1.274457 41.544075 0.010256
1.589198 41.544075 0.010056
1.903938 41.544075 0.010151
2.218679 41.544075 0.010255
2.533421 41.544075 0.010576
2.848162 41.544075 0.010813
3.162903 41.544075 0.010996
3.477644 41.544075 0.011306
3.792385 41.544075 0.011733
4.107125 41.544075 0.011828
4.421866 41.544075 0.011798
4.736608 41.544075 0.012148
5.051349 41.544075 0.012451
5.366090 41.544075 0.012571
5.680831 41.544075 0.012835
5.995571 41.544075 0.013400
6.310312 41.544075 0.014466
6.625053 41.544075 0.015773
6.939795 41.544075 0.018132
7.254536 41.544075 0.021655
7.569277 41.544075 0.026213
7.884017 41.544075 0.033464
8.198758 41.544075 0.046092
8.513499 41.544075 0.064465
8.828240 41.544075 0.095854
9.142982 41.544075 0.139940
9.457723 41.544075 0.208146
9.772464 41.544075 0.284174
10.087205 41.544075 0.381984
10.401946 41.544075 0.506735
10.716687 41.544075 0.613034
11.031426 41.544075 0.728358
11.346168 41.544075 0.861987
11.660909 41.544075 1.005433
11.975650 41.544075 1.122808
12.290391 41.544075 1.221346
12.605132 41.544075 1.337915
12.919873 41.544075 1.407210
13.234614 41.544075 1.428849
13.549356 41.544075 1.475813
13.864097 41.544075 1.443318
14.178838 41.544075 1.422855
14.493579 41.544075 1.462860
14.808320 41.544075 1.442087
15.123059 41.544075 1.608230
15.437800 41.544075 2.118091
15.752542 41.544075 2.793562
16.067284 41.544075 0.000000
16.382023 41.544075 0.000000
16.696766 41.544075 0.000000
17.011505 41.544075 0.000000
17.326248 41.544075 0.000000
17.640987 41.544075 15.176170
17.955730 41.544075 15.058458
18.270470 41.544075 14.543066
18.585213 41.544075 16.289280
18.899952 41.544075 0.000000
-7.223550 41.229336 0.000000
-6.908809 41.229336 0.000000
-6.594068 41.229336 0.012502
-6.279327 41.229336 0.010066
-5.964586 41.229336 0.010158
-5.649845 41.229336 0.010122
-5.335104 41.229336 0.009919
-5.020363 41.229336 0.010131
-4.705622 41.229336 0.010149
-4.390881 41.229336 0.010112
-4.076140 41.229336 0.009977
-3.761399 41.229336 0.010001
-3.446658 41.229336 0.010278
-3.131917 41.229336 0.010480
-2.817176 41.229336 0.010572
-2.502435 41.229336 0.010690
-2.187694 41.229336 0.010601
-1.872953 41.229336 0.010700
-1.558212 41.229336 0.010838
-1.243471 41.229336 0.010608
-0.928730 41.229336 0.010229
-0.613989 41.229336 0.010135
-0.299248 41.229336 0.010021
0.015493 41.229336 0.009790
0.330234 41.229336 0.009908
0.644975 41.229336 0.010139
0.959716 41.229336 0.010280
1.274457 41.229336 0.010359
1.589198 41.229336 0.010103
1.903938 41.229336 0.010053
2.218679 41.229336 0.010079
2.533421 41.229336 0.010372
2.848162 41.229336 0.010585
3.162903 41.229336 0.010749
3.477644 41.229336 0.011103
3.792385 41.229336 0.011539
4.107125 41.229336 0.011588
4.421866 41.229336 0.011729
4.736608 41.229336 0.012299
5.051349 41.229336 0.012631
5.366090 41.229336 0.012759
5.680831 41.229336 0.012983
5.995571 41.229336 0.013608
6.310312 41.229336 0.014709
6.625053 41.229336 0.015865
6.939795 41.229336 0.018064
7.254536 41.229336 0.021207
7.569277 41.229336 0.026313
7.884017 41.229336 0.033756
8.198758 41.229336 0.045915
8.513499 41.229336 0.065114
8.828240 41.229336 0.102549
9.142982 41.229336 0.147942
9.457723 41.229336 0.209154
9.772464 41.229336 0.291678
10.087205 41.229336 0.391649
10.401946 41.229336 0.503712
10.716687 41.229336 0.612828
11.031426 41.229336 0.741225
11.346168 41.229336 0.852771
11.660909 41.229336 1.009057
11.975650 41.229336 1.156472
12.290391 41.229336 1.237488
12.605132 41.229336 1.312472
12.919873 41.229336 1.399921
13.234614 41.229336 1.441341
13.549356 41.229336 1.466809
13.864097 41.229336 1.457349
14.178838 41.229336 1.449957
14.493579 41.229336 1.476312
14.808320 41.229336 1.428199
15.123059 41.229336 1.598410
15.437800 41.229336 2.183722
15.752542 41.229336 2.810443
16.067284 41.229336 0.000000
16.382023 41.229336 0.000000
16.696766 41.229336 0.000000
17.011505 41.229336 0.000000
17.326248 41.229336 0.000000
17.640987 41.229336 16.135574
17.955730 41.229336 17.057844
18.270470 41.229336 16.108557
18.585213 41.229336 18.537212
18.899952 41.229336 0.000000
-7.223550 40.914597 0.000000
-6.908809 40.914597 0.000000
-6.594068 40.914597 0.012433
-6.279327 40.914597 0.010040
-5.964586 40.914597 0.010108
-5.649845 40.914597 0.010036
-5.335104 40.914597 0.009889
-5.020363 40.914597 0.010061
-4.705622 40.914597 0.010061
-4.390881 40.914597 0.010024
-4.076140 40.914597 0.009983
-3.761399 40.914597 0.009930
-3.446658 40.914597 0.010173
-3.131917 40.914597 0.010196
-2.817176 40.914597 0.010216
-2.502435 40.914597 0.010618
-2.187694 40.914597 0.010775
-1.872953 40.914597 0.010954
-1.558212 40.914597 0.011014
-1.243471 40.914597 0.010658
-0.928730 40.914597 0.010295
-0.613989 40.914597 0.010157
-0.299248 40.914597 0.010017
0.015493 40.914597 0.009723
0.330234 40.914597 0.009968
0.644975 40.914597 0.010162
0.959716 40.914597 0.010233
1.274457 40.914597 0.010199
1.589198 40.914597 0.010023
1.903938 40.914597 0.009942
2.218679 40.914597 0.010018
2.533421 40.914597 0.010199
2.848162 40.914597 0.010396
3.162903 40.914597 0.010642
3.477644 40.914597 0.011017
3.792385 40.914597 0.011419
4.107125 40.914597 0.011495
4.421866 40.914597 0.011716
4.736608 40.914597 0.012272
5.051349 40.914597 0.012607
5.366090 40.914597 0.012753
5.680831 40.914597 0.013091
5.995571 40.914597 0.013844
6.310312 40.914597 0.014846
6.625053 40.914597 0.015892
6.939795 40.914597 0.017899
7.254536 40.914597 0.021320
7.569277 40.914597 0.026455
7.884017 40.914597 0.034367
8.198758 40.914597 0.045928
8.513499 40.914597 0.067400
8.828240 40.914597 0.105192
9.142982 40.914597 0.151431
9.457723 40.914597 0.206149
9.772464 40.914597 0.293853
10.087205 40.914597 0.385242
10.401946 40.914597 0.491585
10.716687 40.914597 0.604025
11.031426 40.914597 0.761895
11.346168 40.914597 0.881004
11.660909 40.914597 1.003753
11.975650 40.914597 1.149957
12.290391 40.914597 1.240376
12.605132 40.914597 1.321000
12.919873 40.914597 1.403713
13.234614 40.914597 1.439716
13.549356 40.914597 1.477468
13.864097 40.914597 1.461343
14.178838 40.914597 1.501785
14.493579 40.914597 1.457560
14.808320 40.914597 1.497539
15.123059 40.914597 1.574946
15.437800 40.914597 2.195175
15.752542 40.914597 2.760611
16.067284 40.914597 0.000000
16.382023 40.914597 0.000000
16.696766 40.914597 0.000000
17.011505 40.914597 0.000000
17.326248 40.914597 0.000000
17.640987 40.914597 18.425488
17.955730 40.914597 18.810495
18.270470 40.914597 17.540419
18.585213 40.914597 19.702667
18.899952 40.914597 0.000000
-7.223550 40.599854 0.000000
-6.908809 40.599854 0.000000
-6.594068 40.599854 0.012690
-6.279327 40.599854 0.010163
-5.964586 40.599854 0.009966
-5.649845 40.599854 0.009824
-5.335104 40.599854 0.009724
-5.020363 40.599854 0.009951
-4.705622 40.599854 0.010096
-4.390881 40.599854 0.010122
-4.076140 40.599854 0.010098
-3.761399 40.599854 0.010041
-3.446658 40.599854 0.010193
-3.131917 40.599854 0.010020
-2.817176 40.599854 0.009968
-2.502435 40.599854 0.010497
-2.187694 40.599854 0.010888
-1.872953 40.599854 0.011107
-1.558212 40.599854 0.010927
-1.243471 40.599854 0.010580
-0.928730 40.599854 0.010348
-0.613989 40.599854 0.010294
-0.299248 40.599854 0.010074
0.015493 40.599854 0.009812
0.330234 40.599854 0.010005
0.644975 40.599854 0.010094
0.959716 40.599854 0.010071
1.274457 40.599854 0.010064
1.589198 40.599854 0.009906
1.903938 40.599854 0.009836
2.218679 40.599854 0.010006
2.533421 40.599854 0.010107
2.848162 40.599854 0.010278
3.162903 40.599854 0.010575
3.477644 40.599854 0.010823
3.792385 40.599854 0.011217
4.107125 40.599854 0.011485
4.421866 40.599854 0.011742
4.736608 40.599854 0.012131
5.051349 40.599854 0.012425
5.366090 40.599854 0.012697
5.680831 40.599854 0.013181
5.995571 40.599854 0.013983
6.310312 40.599854 0.014932
6.625053 40.599854 0.015966
6.939795 40.599854 0.017916
7.254536 40.599854 0.021472
7.569277 40.599854 0.026703
7.884017 40.599854 0.034288
8.198758 40.599854 0.046563
8.513499 40.599854 0.067131
8.828240 40.599854 0.098941
9.142982 40.599854 0.140037
9.457723 40.599854 0.203824
9.772464 40.599854 0.280991
10.087205 40.599854 0.374761
10.401946 40.599854 0.479238
10.716687 40.599854 0.608356
11.031426 40.599854 0.738926
11.346168 40.599854 0.887414
11.660909 40.599854 1.021567
11.975650 40.599854 1.141730
12.290391 40.599854 1.221713
12.605132 40.599854 1.331111
12.919873 40.599854 1.404196
13.234614 40.599854 1.425487
13.549356 40.599854 1.480155
13.864097 40.599854 1.527941
14.178838 40.599854 1.509444
14.493579 40.599854 1.493841
14.808320 40.599854 1.483246
15.123059 40.599854 1.640879
15.437800 40.599854 2.149904
15.752542 40.599854 2.764614
16.067284 40.599854 0.000000
16.382023 40.599854 0.000000
16.696766 40.599854 0.000000
17.011505 40.599854 0.000000
17.326248 40.599854 0.000000
17.640987 40.599854 20.391590
17.955730 40.599854 19.766294
18.270470 40.599854 19.260315
18.585213 40.599854 20.973501
18.899952 40.599854 0.000000
-7.223550 40.285114 0.000000
-6.908809 40.285114 0.000000
-6.594068 40.285114 0.012999
-6.279327 40.285114 0.010251
-5.964586 40.285114 0.009864
-5.649845 40.285114 0.009717
-5.335104 40.285114 0.009701
-5.020363 40.285114 0.009895
-4.705622 40.285114 0.010244
-4.390881 40.285114 0.010277
-4.076140 40.285114 0.010266
-3.761399 40.285114 0.010154
-3.446658 40.285114 0.010208
-3.131917 40.285114 0.009955
-2.817176 40.285114 0.009857
-2.502435 40.285114 0.010202
-2.187694 40.285114 0.010681
-1.872953 40.285114 0.011006
-1.558212 40.285114 0.010724
-1.243471 40.285114 0.010528
-0.928730 40.285114 0.010435
-0.613989 40.285114 0.010488
-0.299248 40.285114 0.010314
0.015493 40.285114 0.009966
0.330234 40.285114 0.009982
0.644975 40.285114 0.009975
0.959716 40.285114 0.009978
1.274457 40.285114 0.009922
1.589198 40.285114 0.009825
1.903938 40.285114 0.009809
2.218679 40.285114 0.010002
2.533421 40.285114 0.009999
2.848162 40.285114 0.010160
3.162903 40.285114 0.010341
3.477644 40.285114 0.010614
3.792385 40.285114 0.010921
4.107125 40.285114 0.011326
4.421866 40.285114 0.011672
4.736608 40.285114 0.011933
5.051349 40.285114 0.012241
5.366090 40.285114 0.012554
5.680831 40.285114 0.013135
5.995571 40.285114 0.014074
6.310312 40.285114 0.014820
6.625053 40.285114 0.015920
6.939795 40.285114 0.018205
7.254536 40.285114 0.021551
7.569277 40.285114 0.026684
7.884017 40.285114 0.034920
8.198758 40.285114 0.047728
8.513499 40.285114 0.066618
8.828240 40.285114 0.096171
9.142982 40.285114 0.139053
9.457723 40.285114 0.202086
9.772464 40.285114 0.276607
10.087205 40.285114 0.361016
10.401946 40.285114 0.474315
10.716687 40.285114 0.599829
11.031426 40.285114 0.743685
11.346168 40.285114 0.892879
11.660909 40.285114 1.010636
11.975650 40.285114 1.137979
12.290391 40.285114 1.241232
12.605132 40.285114 1.343673
12.919873 40.285114 1.410008
13.234614 40.285114 1.446352
13.549356 40.285114 1.475753
13.864097 40.285114 1.518300
14.178838 40.285114 1.507243
14.493579 40.285114 1.482312
14.808320 40.285114 1.534350
15.123059 40.285114 1.666392
15.437800 40.285114 2.156040
15.752542 40.285114 2.843686
16.067284 40.285114 0.000000
16.382023 40.285114 0.000000
16.696766 40.285114 0.000000
17.011505 40.285114 0.000000
17.326248 40.285114 0.000000
17.640987 40.285114 21.961231
17.955730 40.285114 21.506433
18.270470 40.285114 20.462555
18.585213 40.285114 22.383648
18.899952 40.285114 0.000000
-7.223550 39.970371 0.000000
-6.908809 39.970371 0.000000
-6.594068 39.970371 0.013352
-6.279327 39.970371 0.010451
-5.964586 39.970371 0.009924
-5.649845 39.970371 0.009855
-5.335104 39.970371 0.009867
-5.020363 39.970371 0.009949
-4.705622 39.970371 0.010352
-4.390881 39.970371 0.010370
-4.076140 39.970371 0.010365
-3.761399 39.970371 0.010180
-3.446658 39.970371 0.010209
-3.131917 39.970371 0.009958
-2.817176 39.970371 0.009917
-2.502435 39.970371 0.010021
-2.187694 39.970371 0.010323
-1.872953 39.970371 0.010681
-1.558212 39.970371 0.010575
-1.243471 39.970371 0.010557
-0.928730 39.970371 0.010486
-0.613989 39.970371 0.010596
-0.299248 39.970371 0.010454
0.015493 39.970371 0.010065
0.330234 39.970371 0.009851
0.644975 39.970371 0.009838
0.959716 39.970371 0.009849
1.274457 39.970371 0.009914
1.589198 39.970371 0.009890
1.903938 39.970371 0.009896
2.218679 39.970371 0.010050
2.533421 39.970371 0.009910
2.848162 39.970371 0.009897
3.162903 39.970371 0.010004
3.477644 39.970371 0.010290
3.792385 39.970371 0.010651
4.107125 39.970371 0.011131
4.421866 39.970371 0.011453
4.736608 39.970371 0.011810
5.051349 39.970371 0.012211
5.366090 39.970371 0.012554
5.680831 39.970371 0.013187
5.995571 39.970371 0.013940
6.310312 39.970371 0.014579
6.625053 39.970371 0.015696
6.939795 39.970371 0.018064
7.254536 39.970371 0.021566
7.569277 39.970371 0.027436
7.884017 39.970371 0.035601
8.198758 39.970371 0.048769
8.513499 39.970371 0.068087
8.828240 39.970371 0.095359
9.142982 39.970371 0.142295
9.457723 39.970371 0.202763
9.772464 39.970371 0.277750
10.087205 39.970371 0.369624
10.401946 39.970371 0.472131
10.716687 39.970371 0.600044
11.031426 39.970371 0.739019
11.346168 39.970371 0.889129
11.660909 39.970371 1.016341
11.975650 39.970371 1.115500
12.290391 39.970371 1.242804
12.605132 39.970371 1.368539
12.919873 39.970371 1.397045
13.234614 39.970371 1.468809
13.549356 39.970371 1.473383
13.864097 39.970371 1.481719
14.178838 39.970371 1.492995
14.493579 39.970371 1.478556
14.808320 39.970371 1.515690
15.123059 39.970371 1.729257
15.437800 39.970371 2.219711
15.752542 39.970371 2.745400
16.067284 39.970371 0.000000
16.382023 39.970371 0.000000
16.696766 39.970371 0.000000
17.011505 39.970371 0.000000
17.326248 39.970371 0.000000
17.640987 39.970371 24.782887
17.955730 39.970371 24.601067
18.270470 39.970371 22.052296
18.585213 39.970371 24.467316
18.899952 39.970371 0.000000
-7.223550 39.655632 0.000000
-6.908809 39.655632 0.000000
-6.594068 39.655632 0.013531
-6.279327 39.655632 0.010663
-5.964586 39.655632 0.010212
-5.649845 39.655632 0.010123
-5.335104 39.655632 0.010039
-5.020363 39.655632 0.010117
-4.705622 39.655632 0.010370
-4.390881 39.655632 0.010316
-4.076140 39.655632 0.010288
-3.761399 39.655632 0.010067
-3.446658 39.655632 0.010129
-3.131917 39.655632 0.010028
-2.817176 39.655632 0.010098
-2.502435 39.655632 0.010031
-2.187694 39.655632 0.009994
-1.872953 39.655632 0.010267
-1.558212 39.655632 0.010430
-1.243471 39.655632 0.010598
-0.928730 39.655632 0.010432
-0.613989 39.655632 0.010490
-0.299248 39.655632 0.010382
0.015493 39.655632 0.010117
0.330234 39.655632 0.009877
0.644975 39.655632 0.009841
0.959716 39.655632 0.009863
1.274457 39.655632 0.009987
1.589198 39.655632 0.010016
1.903938 39.655632 0.010037
2.218679 39.655632 0.010048
2.533421 39.655632 0.009877
2.848162 39.655632 0.009754
3.162903 39.655632 0.009799
3.477644 39.655632 0.010117
3.792385 39.655632 0.010402
4.107125 39.655632 0.010833
4.421866 39.655632 0.011169
4.736608 39.655632 0.011762
5.051349 39.655632 0.012291
5.366090 39.655632 0.012679
5.680831 39.655632 0.013203
5.995571 39.655632 0.013839
6.310312 39.655632 0.014406
6.625053 39.655632 0.015645
6.939795 39.655632 0.018058
7.254536 39.655632 0.021824
7.569277 39.655632 0.027982
7.884017 39.655632 0.035998
8.198758 39.655632 0.048685
8.513499 39.655632 0.068833
8.828240 39.655632 0.096542
9.142982 39.655632 0.142683
9.457723 39.655632 0.204930
9.772464 39.655632 0.284713
10.087205 39.655632 0.382524
10.401946 39.655632 0.481341
10.716687 39.655632 0.603458
11.031426 39.655632 0.741054
11.346168 39.655632 0.870720
11.660909 39.655632 1.013930
11.975650 39.655632 1.122293
12.290391 39.655632 1.243266
12.605132 39.655632 1.332401
12.919873 39.655632 1.389738
13.234614 39.655632 1.457888
13.549356 39.655632 1.470133
13.864097 39.655632 1.496618
14.178838 39.655632 1.494202
14.493579 39.655632 1.530510
14.808320 39.655632 1.545577
15.123059 39.655632 1.700383
15.437800 39.655632 2.112782
15.752542 39.655632 2.741656
16.067284 39.655632 0.000000
16.382023 39.655632 0.000000
16.696766 39.655632 0.000000
17.011505 39.655632 0.000000
17.326248 39.655632 0.000000
17.640987 39.655632 30.749582
17.955730 39.655632 28.399715
18.270470 39.655632 26.031370
18.585213 39.655632 27.911352
18.899952 39.655632 0.000000
-7.223550 39.340889 0.000000
-6.908809 39.340889 0.000000
-6.594068 39.340889 0.013544
-6.279327 39.340889 0.010851
-5.964586 39.340889 0.010485
-5.649845 39.340889 0.010378
-5.335104 39.340889 0.010158
-5.020363 39.340889 0.010176
-4.705622 39.340889 0.010290
-4.390881 39.340889 0.010247
-4.076140 39.340889 0.010255
-3.761399 39.340889 0.009979
-3.446658 39.340889 0.010037
-3.131917 39.340889 0.010059
-2.817176 39.340889 0.010114
-2.502435 39.340889 0.009995
-2.187694 39.340889 0.009819
-1.872953 39.340889 0.009977
-1.558212 39.340889 0.010249
-1.243471 39.340889 0.010452
-0.928730 39.340889 0.010280
-0.613989 39.340889 0.010301
-0.299248 39.340889 0.010254
0.015493 39.340889 0.010204
0.330234 39.340889 0.010066
0.644975 39.340889 0.010046
0.959716 39.340889 0.009878
1.274457 39.340889 0.010034
1.589198 39.340889 0.010105
1.903938 39.340889 0.010053
2.218679 39.340889 0.010123
2.533421 39.340889 0.010023
2.848162 39.340889 0.009859
3.162903 39.340889 0.009906
3.477644 39.340889 0.010097
3.792385 39.340889 0.010243
4.107125 39.340889 0.010513
4.421866 39.340889 0.011011
4.736608 39.340889 0.011691
5.051349 39.340889 0.012257
5.366090 39.340889 0.012737
5.680831 39.340889 0.013216
5.995571 39.340889 0.013796
6.310312 39.340889 0.014340
6.625053 39.340889 0.015710
6.939795 39.340889 0.017935
7.254536 39.340889 0.022366
7.569277 39.340889 0.028335
7.884017 39.340889 0.035319
8.198758 39.340889 0.048204
8.513499 39.340889 0.065713
8.828240 39.340889 0.095903
9.142982 39.340889 0.143839
9.457723 39.340889 0.209322
9.772464 39.340889 0.296829
10.087205 39.340889 0.384167
10.401946 39.340889 0.495350
10.716687 39.340889 0.613401
11.031426 39.340889 0.740812
11.346168 39.340889 0.864000
11.660909 39.340889 1.008165
11.975650 39.340889 1.142917
12.290391 39.340889 1.225401
12.605132 39.340889 1.303612
12.919873 39.340889 1.387601
13.234614 39.340889 1.470723
13.549356 39.340889 1.505518
13.864097 39.340889 1.499238
14.178838 39.340889 1.531513
14.493579 39.340889 1.564725
14.808320 39.340889 1.568908
15.123059 39.340889 1.676700
15.437800 39.340889 2.168604
15.752542 39.340889 2.966189
16.067284 39.340889 0.000000
16.382023 39.340889 0.000000
16.696766 39.340889 0.000000
17.011505 39.340889 0.000000
17.326248 39.340889 0.000000
17.640987 39.340889 35.595936
17.955730 39.340889 32.910717
18.270470 39.340889 29.914312
18.585213 39.340889 31.159222
18.899952 39.340889 0.000000
-7.223550 39.026150 0.000000
-6.908809 39.026150 0.000000
-6.594068 39.026150 0.013515
-6.279327 39.026150 0.010934
-5.964586 39.026150 0.010610
-5.649845 39.026150 0.010435
-5.335104 39.026150 0.010088
-5.020363 39.026150 0.010098
-4.705622 39.026150 0.010084
-4.390881 39.026150 0.010166
-4.076140 39.026150 0.010210
-3.761399 39.026150 0.009967
-3.446658 39.026150 0.010024
-3.131917 39.026150 0.010030
-2.817176 39.026150 0.009995
-2.502435 39.026150 0.009924
-2.187694 39.026150 0.009732
-1.872953 39.026150 0.009775
-1.558212 39.026150 0.010077
-1.243471 39.026150 0.010125
-0.928730 39.026150 0.010095
-0.613989 39.026150 0.010186
-0.299248 39.026150 0.010216
0.015493 39.026150 0.010249
0.330234 39.026150 0.010323
0.644975 39.026150 0.010283
0.959716 39.026150 0.009945
1.274457 39.026150 0.009998
1.589198 39.026150 0.010152
1.903938 39.026150 0.010029
2.218679 39.026150 0.010063
2.533421 39.026150 0.010092
2.848162 39.026150 0.009975
3.162903 39.026150 0.010069
3.477644 39.026150 0.010284
3.792385 39.026150 0.010323
4.107125 39.026150 0.010314
4.421866 39.026150 0.010832
4.736608 39.026150 0.011548
5.051349 39.026150 0.012092
5.366090 39.026150 0.012656
5.680831 39.026150 0.013121
5.995571 39.026150 0.013699
6.310312 39.026150 0.014458
6.625053 39.026150 0.015884
6.939795 39.026150 0.017897
7.254536 39.026150 0.021228
7.569277 39.026150 0.026628
7.884017 39.026150 0.035235
8.198758 39.026150 0.047854
8.513499 39.026150 0.066936
8.828240 39.026150 0.096085
9.142982 39.026150 0.144107
9.457723 39.026150 0.209174
9.772464 39.026150 0.298073
10.087205 39.026150 0.382365
10.401946 39.026150 0.497802
10.716687 39.026150 0.620380
11.031426 39.026150 0.744087
11.346168 39.026150 0.869797
11.660909 39.026150 1.009996
11.975650 39.026150 1.149095
12.290391 39.026150 1.212862
12.605132 39.026150 1.276418
12.919873 39.026150 1.392265
13.234614 39.026150 1.455488
13.549356 39.026150 1.512231
13.864097 39.026150 1.585905
14.178838 39.026150 1.545460
14.493579 39.026150 1.552208
14.808320 39.026150 1.554160
15.123059 39.026150 1.674358
15.437800 39.026150 2.167447
15.752542 39.026150 2.721845
16.067284 39.026150 0.000000
16.382023 39.026150 0.000000
16.696766 39.026150 0.000000
17.011505 39.026150 0.000000
17.326248 39.026150 0.000000
17.640987 39.026150 45.754841
17.955730 39.026150 38.402782
18.270470 39.026150 34.569523
18.585213 39.026150 35.692886
18.899952 39.026150 0.000000
-7.223550 38.711407 0.000000
-6.908809 38.711407 0.000000
-6.594068 38.711407 0.013464
-6.279327 38.711407 0.010858
-5.964586 38.711407 0.010577
-5.649845 38.711407 0.010293
-5.335104 38.711407 0.010020
-5.020363 38.711407 0.009989
-4.705622 38.711407 0.009906
-4.390881 38.711407 0.010079
-4.076140 38.711407 0.010149
-3.761399 38.711407 0.010027
-3.446658 38.711407 0.010054
-3.131917 38.711407 0.009869
-2.817176 38.711407 0.009749
-2.502435 38.711407 0.009769
-2.187694 38.711407 0.009851
-1.872953 38.711407 0.009737
-1.558212 38.711407 0.009907
-1.243471 38.711407 0.009793
-0.928730 38.711407 0.009876
-0.613989 38.711407 0.010056
-0.299248 38.711407 0.010191
0.015493 38.711407 0.010334
0.330234 38.711407 0.010477
0.644975 38.711407 0.010287
0.959716 38.711407 0.009916
1.274457 38.711407 0.009974
1.589198 38.711407 0.010116
1.903938 38.711407 0.009990
2.218679 38.711407 0.010041
2.533421 38.711407 0.010066
2.848162 38.711407 0.010014
3.162903 38.711407 0.010134
3.477644 38.711407 0.010328
3.792385 38.711407 0.010402
4.107125 38.711407 0.010356
4.421866 38.711407 0.010732
4.736608 38.711407 0.011334
5.051349 38.711407 0.011756
5.366090 38.711407 0.012231
5.680831 38.711407 0.012833
5.995571 38.711407 0.013566
6.310312 38.711407 0.014585
6.625053 38.711407 0.015895
6.939795 38.711407 0.018076
7.254536 38.711407 0.021364
7.569277 38.711407 0.026377
7.884017 38.711407 0.034466
8.198758 38.711407 0.049074
8.513499 38.711407 0.066230
8.828240 38.711407 0.096994
9.142982 38.711407 0.142964
9.457723 38.711407 0.204489
9.772464 38.711407 0.299373
10.087205 38.711407 0.380397
10.401946 38.711407 0.488418
10.716687 38.711407 0.623800
11.031426 38.711407 0.750327
11.346168 38.711407 0.878136
11.660909 38.711407 1.001514
11.975650 38.711407 1.138905
12.290391 38.711407 1.230486
12.605132 38.711407 1.267641
12.919873 38.711407 1.369367
13.234614 38.711407 1.445839
13.549356 38.711407 1.545357
13.864097 38.711407 1.569973
14.178838 38.711407 1.550668
14.493579 38.711407 1.531041
14.808320 38.711407 1.553670
15.123059 38.711407 1.703260
15.437800 38.711407 2.134499
15.752542 38.711407 2.944432
16.067284 38.711407 0.000000
16.382023 38.711407 0.000000
16.696766 38.711407 0.000000
17.011505 38.711407 0.000000
17.326248 38.711407 0.000000
17.640987 38.711407 49.823761
17.955730 38.711407 42.780033
18.270470 38.711407 37.588539
18.585213 38.711407 39.120319
18.899952 38.711407 0.000000
-7.223550 38.396667 0.000000
-6.908809 38.396667 0.000000
-6.594068 38.396667 0.013299
-6.279327 38.396667 0.010702
-5.964586 38.396667 0.010477
-5.649845 38.396667 0.010213
-5.335104 38.396667 0.010042
-5.020363 38.396667 0.010026
-4.705622 38.396667 0.009926
-4.390881 38.396667 0.010128
-4.076140 38.396667 0.010187
-3.761399 38.396667 0.010047
-3.446658 38.396667 0.010045
-3.131917 38.396667 0.009799
-2.817176 38.396667 0.009591
-2.502435 38.396667 0.009692
-2.187694 38.396667 0.009987
-1.872953 38.396667 0.009746
-1.558212 38.396667 0.009705
-1.243471 38.396667 0.009649
-0.928730 38.396667 0.009833
-0.613989 38.396667 0.010025
-0.299248 38.396667 0.010188
0.015493 38.396667 0.010378
0.330234 38.396667 0.010474
0.644975 38.396667 0.010165
0.959716 38.396667 0.009784
1.274457 38.396667 0.009921
1.589198 38.396667 0.010079
1.903938 38.396667 0.010004
2.218679 38.396667 0.010071
2.533421 38.396667 0.010026
2.848162 38.396667 0.009987
3.162903 38.396667 0.010058
3.477644 38.396667 0.010218
3.792385 38.396667 0.010356
4.107125 38.396667 0.010447
4.421866 38.396667 0.010674
4.736608 38.396667 0.011090
5.051349 38.396667 0.011549
5.366090 38.396667 0.011847
5.680831 38.396667 0.012443
5.995571 38.396667 0.013294
6.310312 38.396667 0.014429
6.625053 38.396667 0.015895
6.939795 38.396667 0.018315
7.254536 38.396667 0.021324
7.569277 38.396667 0.026058
7.884017 38.396667 0.033637
8.198758 38.396667 0.047714
8.513499 38.396667 0.067873
8.828240 38.396667 0.098560
9.142982 38.396667 0.144043
9.457723 38.396667 0.209803
9.772464 38.396667 0.285832
10.087205 38.396667 0.379402
10.401946 38.396667 0.491469
10.716687 38.396667 0.628829
11.031426 38.396667 0.743632
11.346168 38.396667 0.873728
11.660909 38.396667 1.033477
11.975650 38.396667 1.154191
12.290391 38.396667 1.263481
12.605132 38.396667 1.290149
12.919873 38.396667 1.338219
13.234614 38.396667 1.439630
13.549356 38.396667 1.535563
13.864097 38.396667 1.582291
14.178838 38.396667 1.570671
14.493579 38.396667 1.524292
14.808320 38.396667 1.571766
15.123059 38.396667 1.691543
15.437800 38.396667 2.194557
15.752542 38.396667 3.179633
16.067284 38.396667 0.000000
16.382023 38.396667 0.000000
16.696766 38.396667 0.000000
17.011505 38.396667 0.000000
17.326248 38.396667 0.000000
17.640987 38.396667 46.591053
17.955730 38.396667 41.917202
18.270470 38.396667 36.080658
18.585213 38.396667 39.236633
18.899952 38.396667 0.000000
-7.223550 38.081924 0.000000
-6.908809 38.081924 0.000000
-6.594068 38.081924 0.013204
-6.279327 38.081924 0.010709
-5.964586 38.081924 0.010576
-5.649845 38.081924 0.010379
-5.335104 38.081924 0.010226
-5.020363 38.081924 0.010137
-4.705622 38.081924 0.010116
-4.390881 38.081924 0.010259
-4.076140 38.081924 0.010239
-3.761399 38.081924 0.009974
-3.446658 38.081924 0.010038
-3.131917 38.081924 0.009876
-2.817176 38.081924 0.009672
-2.502435 38.081924 0.009745
-2.187694 38.081924 0.010043
-1.872953 38.081924 0.009775
-1.558212 38.081924 0.009664
-1.243471 38.081924 0.009787
-0.928730 38.081924 0.009987
-0.613989 38.081924 0.010052
-0.299248 38.081924 0.010133
0.015493 38.081924 0.010311
0.330234 38.081924 0.010296
0.644975 38.081924 0.010021
0.959716 38.081924 0.009696
1.274457 38.081924 0.009877
1.589198 38.081924 0.010010
1.903938 38.081924 0.009949
2.218679 38.081924 0.010082
2.533421 38.081924 0.010040
2.848162 38.081924 0.009990
3.162903 38.081924 0.009990
3.477644 38.081924 0.010084
3.792385 38.081924 0.010275
4.107125 38.081924 0.010471
4.421866 38.081924 0.010557
4.736608 38.081924 0.010985
5.051349 38.081924 0.011364
5.366090 38.081924 0.011574
5.680831 38.081924 0.012168
5.995571 38.081924 0.013021
6.310312 38.081924 0.014124
6.625053 38.081924 0.015766
6.939795 38.081924 0.018123
7.254536 38.081924 0.021229
7.569277 38.081924 0.025991
7.884017 38.081924 0.033649
8.198758 38.081924 0.047642
8.513499 38.081924 0.066549
8.828240 38.081924 0.098786
9.142982 38.081924 0.148802
9.457723 38.081924 0.210596
9.772464 38.081924 0.288209
10.087205 38.081924 0.380116
10.401946 38.081924 0.497895
10.716687 38.081924 0.616247
11.031426 38.081924 0.745242
11.346168 38.081924 0.876197
11.660909 38.081924 1.017927
11.975650 38.081924 1.139063
12.290391 38.081924 1.232368
12.605132 38.081924 1.309722
12.919873 38.081924 1.383348
13.234614 38.081924 1.470973
13.549356 38.081924 1.548963
13.864097 38.081924 1.594901
14.178838 38.081924 1.561148
14.493579 38.081924 1.573580
14.808320 38.081924 1.580440
15.123059 38.081924 1.708371
15.437800 38.081924 2.167068
15.752542 38.081924 3.307451
16.067284 38.081924 0.000000
16.382023 38.081924 0.000000
16.696766 38.081924 0.000000
17.011505 38.081924 0.000000
17.326248 38.081924 0.000000
17.640987 38.081924 78.014359
17.955730 38.081924 79.464104
18.270470 38.081924 43.200768
18.585213 38.081924 38.055779
18.899952 38.081924 0.000000
-7.223550 37.767185 0.000000
-6.908809 37.767185 0.000000
-6.594068 37.767185 0.013023
-6.279327 37.767185 0.010799
-5.964586 37.767185 0.010763
-5.649845 37.767185 0.010571
-5.335104 37.767185 0.010458
-5.020363 37.767185 0.010288
-4.705622 37.767185 0.010283
-4.390881 37.767185 0.010399
-4.076140 37.767185 0.010283
-3.761399 37.767185 0.009952
-3.446658 37.767185 0.010006
-3.131917 37.767185 0.009923
-2.817176 37.767185 0.009907
-2.502435 37.767185 0.009917
-2.187694 37.767185 0.010000
-1.872953 37.767185 0.009816
-1.558212 37.767185 0.009808
-1.243471 37.767185 0.009989
-0.928730 37.767185 0.010098
-0.613989 37.767185 0.010010
-0.299248 37.767185 0.010032
0.015493 37.767185 0.010187
0.330234 37.767185 0.010131
0.644975 37.767185 0.010010
0.959716 37.767185 0.009809
1.274457 37.767185 0.009897
1.589198 37.767185 0.010034
1.903938 37.767185 0.009891
2.218679 37.767185 0.010048
2.533421 37.767185 0.010147
2.848162 37.767185 0.010052
3.162903 37.767185 0.009953
3.477644 37.767185 0.009981
3.792385 37.767185 0.010241
4.107125 37.767185 0.010476
4.421866 37.767185 0.010459
4.736608 37.767185 0.010907
5.051349 37.767185 0.011337
5.366090 37.767185 0.011528
5.680831 37.767185 0.012034
5.995571 37.767185 0.012679
6.310312 37.767185 0.013766
6.625053 37.767185 0.015483
6.939795 37.767185 0.017811
7.254536 37.767185 0.021146
7.569277 37.767185 0.026574
7.884017 37.767185 0.035150
8.198758 37.767185 0.046812
8.513499 37.767185 0.065058
8.828240 37.767185 0.100975
9.142982 37.767185 0.145351
9.457723 37.767185 0.211616
9.772464 37.767185 0.291087
10.087205 37.767185 0.386703
10.401946 37.767185 0.493225
10.716687 37.767185 0.611337
11.031426 37.767185 0.730221
11.346168 37.767185 0.857137
11.660909 37.767185 0.997812
11.975650 37.767185 1.150393
12.290391 37.767185 1.226508
12.605132 37.767185 1.337840
12.919873 37.767185 1.425360
13.234614 37.767185 1.468172
13.549356 37.767185 1.543079
13.864097 37.767185 1.571295
14.178838 37.767185 1.524549
14.493579 37.767185 1.543703
14.808320 37.767185 1.564634
15.123059 37.767185 1.729532
15.437800 37.767185 2.225497
15.752542 37.767185 3.098877
16.067284 37.767185 0.000000
16.382023 37.767185 0.000000
16.696766 37.767185 0.000000
17.011505 37.767185 0.000000
17.326248 37.767185 0.000000
17.640987 37.767185 0.000000
17.955730 37.767185 0.000000
18.270470 37.767185 38.786789
18.585213 37.767185 34.172165
18.899952 37.767185 0.000000
-7.223550 37.452446 0.000000
-6.908809 37.452446 0.000000
-6.594068 37.452446 0.012891
-6.279327 37.452446 0.010790
-5.964586 37.452446 0.010793
-5.649845 37.452446 0.010634
-5.335104 37.452446 0.010531
-5.020363 37.452446 0.010341
-4.705622 37.452446 0.010354
-4.390881 37.452446 0.010443
-4.076140 37.452446 0.010296
-3.761399 37.452446 0.010042
-3.446658 37.452446 0.010079
-3.131917 37.452446 0.009947
-2.817176 37.452446 0.009979
-2.502435 37.452446 0.009921
-2.187694 37.452446 0.010003
-1.872953 37.452446 0.009747
-1.558212 37.452446 0.009942
-1.243471 37.452446 0.010078
-0.928730 37.452446 0.010093
-0.613989 37.452446 0.009993
-0.299248 37.452446 0.009946
0.015493 37.452446 0.010037
0.330234 37.452446 0.010016
0.644975 37.452446 0.010025
0.959716 37.452446 0.009888
1.274457 37.452446 0.009964
1.589198 37.452446 0.010108
1.903938 37.452446 0.009809
2.218679 37.452446 0.009897
2.533421 37.452446 0.010233
2.848162 37.452446 0.010159
3.162903 37.452446 0.010007
3.477644 37.452446 0.010002
3.792385 37.452446 0.010201
4.107125 37.452446 0.010493
4.421866 37.452446 0.010523
4.736608 37.452446 0.010957
5.051349 37.452446 0.011338
5.366090 37.452446 0.011592
5.680831 37.452446 0.011984
5.995571 37.452446 0.012583
6.310312 37.452446 0.013610
6.625053 37.452446 0.015278
6.939795 37.452446 0.017693
7.254536 37.452446 0.021769
7.569277 37.452446 0.027220
7.884017 37.452446 0.035359
8.198758 37.452446 0.046849
8.513499 37.452446 0.067802
8.828240 37.452446 0.100828
9.142982 37.452446 0.145032
9.457723 37.452446 0.206240
9.772464 37.452446 0.290542
10.087205 37.452446 0.377665
10.401946 37.452446 0.478253
10.716687 37.452446 0.606647
11.031426 37.452446 0.731163
11.346168 37.452446 0.850321
11.660909 37.452446 0.995933
11.975650 37.452446 1.143072
12.290391 37.452446 1.242844
12.605132 37.452446 1.325186
12.919873 37.452446 1.422947
13.234614 37.452446 1.470627
13.549356 37.452446 1.530036
13.864097 37.452446 1.540591
14.178838 37.452446 1.524558
14.493579 37.452446 1.537003
14.808320 37.452446 1.579175
15.123059 37.452446 1.731735
15.437800 37.452446 2.336571
15.752542 37.452446 3.168476
16.067284 37.452446 0.000000
16.382023 37.452446 0.000000
16.696766 37.452446 0.000000
17.011505 37.452446 0.000000
17.326248 37.452446 0.000000
17.640987 37.452446 0.000000
17.955730 37.452446 0.000000
18.270470 37.452446 36.736115
18.585213 37.452446 29.581108
18.899952 37.452446 0.000000
-7.223550 37.137703 0.000000
-6.908809 37.137703 0.000000
-6.594068 37.137703 0.012775
-6.279327 37.137703 0.010526
-5.964586 37.137703 0.010666
-5.649845 37.137703 0.010579
-5.335104 37.137703 0.010455
-5.020363 37.137703 0.010276
-4.705622 37.137703 0.010190
-4.390881 37.137703 0.010335
-4.076140 37.137703 0.010290
-3.761399 37.137703 0.010180
-3.446658 37.137703 0.010147
-3.131917 37.137703 0.009940
-2.817176 37.137703 0.009926
-2.502435 37.137703 0.009934
-2.187694 37.137703 0.009912
-1.872953 37.137703 0.009699
-1.558212 37.137703 0.010006
-1.243471 37.137703 0.010023
-0.928730 37.137703 0.009967
-0.613989 37.137703 0.009954
-0.299248 37.137703 0.009858
0.015493 37.137703 0.009960
0.330234 37.137703 0.010053
0.644975 37.137703 0.010133
0.959716 37.137703 0.009994
1.274457 37.137703 0.010011
1.589198 37.137703 0.010092
1.903938 37.137703 0.009806
2.218679 37.137703 0.009764
2.533421 37.137703 0.010139
2.848162 37.137703 0.010196
3.162903 37.137703 0.010119
3.477644 37.137703 0.010124
3.792385 37.137703 0.010193
4.107125 37.137703 0.010464
4.421866 37.137703 0.010562
4.736608 37.137703 0.010949
5.051349 37.137703 0.011263
5.366090 37.137703 0.011497
5.680831 37.137703 0.011922
5.995571 37.137703 0.012570
6.310312 37.137703 0.013613
6.625053 37.137703 0.015092
6.939795 37.137703 0.017457
7.254536 37.137703 0.020966
7.569277 37.137703 0.027339
7.884017 37.137703 0.035580
8.198758 37.137703 0.047027
8.513499 37.137703 0.067532
8.828240 37.137703 0.102826
9.142982 37.137703 0.142502
9.457723 37.137703 0.206622
9.772464 37.137703 0.285633
10.087205 37.137703 0.378609
10.401946 37.137703 0.479123
10.716687 37.137703 0.595212
11.031426 37.137703 0.719123
11.346168 37.137703 0.856778
11.660909 37.137703 0.994545
11.975650 37.137703 1.144189
12.290391 37.137703 1.256692
12.605132 37.137703 1.353653
12.919873 37.137703 1.444261
13.234614 37.137703 1.468011
13.549356 37.137703 1.491152
13.864097 37.137703 1.530871
14.178838 37.137703 1.495406
14.493579 37.137703 1.500355
14.808320 37.137703 1.520192
15.123059 37.137703 1.730268
15.437800 37.137703 2.386983
15.752542 37.137703 3.421224
16.067284 37.137703 0.000000
16.382023 37.137703 0.000000
16.696766 37.137703 0.000000
17.011505 37.137703 0.000000
17.326248 37.137703 0.000000
17.640987 37.137703 0.000000
17.955730 37.137703 0.000000
18.270470 37.137703 0.000000
18.585213 37.137703 223.083405
18.899952 37.137703 0.000000
-7.223550 36.822960 0.000000
-6.908809 36.822960 0.000000
-6.594068 36.822960 0.012744
-6.279327 36.822960 0.010397
-5.964586 36.822960 0.010530
-5.649845 36.822960 0.010593
-5.335104 36.822960 0.010355
-5.020363 36.822960 0.010113
-4.705622 36.822960 0.009997
-4.390881 36.822960 0.010221
-4.076140 36.822960 0.010308
-3.761399 36.822960 0.010326
-3.446658 36.822960 0.010123
-3.131917 36.822960 0.009845
-2.817176 36.822960 0.009841
-2.502435 36.822960 0.009947
-2.187694 36.822960 0.009788
-1.872953 36.822960 0.009696
-1.558212 36.822960 0.010003
-1.243471 36.822960 0.009930
-0.928730 36.822960 0.009863
-0.613989 36.822960 0.009851
-0.299248 36.822960 0.009734
0.015493 36.822960 0.009865
0.330234 36.822960 0.010018
0.644975 36.822960 0.010167
0.959716 36.822960 0.010026
1.274457 36.822960 0.009928
1.589198 36.822960 0.009987
1.903938 36.822960 0.009814
2.218679 36.822960 0.009736
2.533421 36.822960 0.009962
2.848162 36.822960 0.010152
3.162903 36.822960 0.010192
3.477644 36.822960 0.010189
3.792385 36.822960 0.010222
4.107125 36.822960 0.010411
4.421866 36.822960 0.010557
4.736608 36.822960 0.010922
5.051349 36.822960 0.011163
5.366090 36.822960 0.011387
5.680831 36.822960 0.011891
5.995571 36.822960 0.012688
6.310312 36.822960 0.013689
6.625053 36.822960 0.015105
6.939795 36.822960 0.017122
7.254536 36.822960 0.020882
7.569277 36.822960 0.026557
7.884017 36.822960 0.034983
8.198758 36.822960 0.047392
8.513499 36.822960 0.069528
8.828240 36.822960 0.100641
9.142982 36.822960 0.143275
9.457723 36.822960 0.206193
9.772464 36.822960 0.283461
10.087205 36.822960 0.382187
10.401946 36.822960 0.484647
10.716687 36.822960 0.608578
11.031426 36.822960 0.735857
11.346168 36.822960 0.860481
11.660909 36.822960 1.007357
11.975650 36.822960 1.146014
12.290391 36.822960 1.269952
12.605132 36.822960 1.361629
12.919873 36.822960 1.427087
13.234614 36.822960 1.497622
13.549356 36.822960 1.486381
13.864097 36.822960 1.499629
14.178838 36.822960 1.500403
14.493579 36.822960 1.503078
14.808320 36.822960 1.535779
15.123059 36.822960 1.781927
15.437800 36.822960 2.490891
15.752542 36.822960 3.273919
16.067284 36.822960 0.000000
16.382023 36.822960 0.000000
16.696766 36.822960 0.000000
17.011505 36.822960 0.000000
17.326248 36.822960 0.000000
17.640987 36.822960 0.000000
17.955730 36.822960 0.000000
18.270470 36.822960 0.000000
18.585213 36.822960 0.000000
18.899952 36.822960 0.000000
-7.223550 36.508221 0.000000
-6.908809 36.508221 0.000000
-6.594068 36.508221 0.012520
-6.279327 36.508221 0.010316
-5.964586 36.508221 0.010488
-5.649845 36.508221 0.010541
-5.335104 36.508221 0.010224
-5.020363 36.508221 0.010075
-4.705622 36.508221 0.010031
-4.390881 36.508221 0.010335
-4.076140 36.508221 0.010439
-3.761399 36.508221 0.010454
-3.446658 36.508221 0.010107
-3.131917 36.508221 0.009780
-2.817176 36.508221 0.009864
-2.502435 36.508221 0.010002
-2.187694 36.508221 0.009774
-1.872953 36.508221 0.009732
-1.558212 36.508221 0.009959
-1.243471 36.508221 0.009917
-0.928730 36.508221 0.009830
-0.613989 36.508221 0.009729
-0.299248 36.508221 0.009659
0.015493 36.508221 0.009852
0.330234 36.508221 0.009974
0.644975 36.508221 0.010018
0.959716 36.508221 0.009936
1.274457 36.508221 0.009860
1.589198 36.508221 0.009897
1.903938 36.508221 0.009818
2.218679 36.508221 0.009845
2.533421 36.508221 0.009861
2.848162 36.508221 0.010112
3.162903 36.508221 0.010193
3.477644 36.508221 0.010074
3.792385 36.508221 0.010204
4.107125 36.508221 0.010401
4.421866 36.508221 0.010656
4.736608 36.508221 0.010870
5.051349 36.508221 0.011026
5.366090 36.508221 0.011236
5.680831 36.508221 0.011848
5.995571 36.508221 0.012831
6.310312 36.508221 0.013745
6.625053 36.508221 0.014968
6.939795 36.508221 0.017208
7.254536 36.508221 0.020688
7.569277 36.508221 0.026215
7.884017 36.508221 0.034531
8.198758 36.508221 0.047967
8.513499 36.508221 0.067640
8.828240 36.508221 0.096777
9.142982 36.508221 0.144129
9.457723 36.508221 0.206706
9.772464 36.508221 0.284312
10.087205 36.508221 0.382864
10.401946 36.508221 0.503999
10.716687 36.508221 0.611028
11.031426 36.508221 0.742278
11.346168 36.508221 0.863546
11.660909 36.508221 1.002208
11.975650 36.508221 1.145216
12.290391 36.508221 1.251415
12.605132 36.508221 1.341285
12.919873 36.508221 1.431161
13.234614 36.508221 1.499008
13.549356 36.508221 1.505293
13.864097 36.508221 1.529472
14.178838 36.508221 1.543647
14.493579 36.508221 1.475418
14.808320 36.508221 1.543391
15.123059 36.508221 1.782928
15.437800 36.508221 2.435990
15.752542 36.508221 3.516321
16.067284 36.508221 0.000000
16.382023 36.508221 0.000000
16.696766 36.508221 0.000000
17.011505 36.508221 0.000000
17.326248 36.508221 0.000000
17.640987 36.508221 0.000000
17.955730 36.508221 0.000000
18.270470 36.508221 0.000000
18.585213 36.508221 0.000000
18.899952 36.508221 0.000000
-7.223550 36.193481 0.000000
-6.908809 36.193481 0.000000
-6.594068 36.193481 0.012290
-6.279327 36.193481 0.010329
-5.964586 36.193481 0.010515
-5.649845 36.193481 0.010432
-5.335104 36.193481 0.010165
-5.020363 36.193481 0.010161
-4.705622 36.193481 0.010345
-4.390881 36.193481 0.010622
-4.076140 36.193481 0.010495
-3.761399 36.193481 0.010345
-3.446658 36.193481 0.010074
-3.131917 36.193481 0.009745
-2.817176 36.193481 0.009916
-2.502435 36.193481 0.010041
-2.187694 36.193481 0.009811
-1.872953 36.193481 0.009782
-1.558212 36.193481 0.009977
-1.243471 36.193481 0.009920
-0.928730 36.193481 0.009924
-0.613989 36.193481 0.009757
-0.299248 36.193481 0.009668
0.015493 36.193481 0.009902
0.330234 36.193481 0.009828
0.644975 36.193481 0.009825
0.959716 36.193481 0.009826
1.274457 36.193481 0.009838
1.589198 36.193481 0.009845
1.903938 36.193481 0.009884
2.218679 36.193481 0.009970
2.533421 36.193481 0.009897
2.848162 36.193481 0.009976
3.162903 36.193481 0.010000
3.477644 36.193481 0.009954
3.792385 36.193481 0.010197
4.107125 36.193481 0.010417
4.421866 36.193481 0.010649
4.736608 36.193481 0.010857
5.051349 36.193481 0.010981
5.366090 36.193481 0.011166
5.680831 36.193481 0.011839
5.995571 36.193481 0.012839
6.310312 36.193481 0.013744
6.625053 36.193481 0.014971
6.939795 36.193481 0.017424
7.254536 36.193481 0.020769
7.569277 36.193481 0.026639
7.884017 36.193481 0.034406
8.198758 36.193481 0.048695
8.513499 36.193481 0.069620
8.828240 36.193481 0.099347
9.142982 36.193481 0.148510
9.457723 36.193481 0.208431
9.772464 36.193481 0.285667
10.087205 36.193481 0.392744
10.401946 36.193481 0.502453
10.716687 36.193481 0.614523
11.031426 36.193481 0.749534
11.346168 36.193481 0.875150
11.660909 36.193481 1.021725
11.975650 36.193481 1.156149
12.290391 36.193481 1.238584
12.605132 36.193481 1.337014
12.919873 36.193481 1.428810
13.234614 36.193481 1.510741
13.549356 36.193481 1.533440
13.864097 36.193481 1.541514
14.178838 36.193481 1.577303
14.493579 36.193481 1.535038
14.808320 36.193481 1.544558
15.123059 36.193481 1.697938
15.437800 36.193481 2.386632
15.752542 36.193481 3.281888
16.067284 36.193481 0.000000
16.382023 36.193481 0.000000
16.696766 36.193481 0.000000
17.011505 36.193481 0.000000
17.326248 36.193481 0.000000
17.640987 36.193481 0.000000
17.955730 36.193481 0.000000
18.270470 36.193481 0.000000
18.585213 36.193481 0.000000
18.899952 36.193481 0.000000
-7.223550 35.878738 0.000000
-6.908809 35.878738 0.000000
-6.594068 35.878738 0.012210
-6.279327 35.878738 0.010384
-5.964586 35.878738 0.010518
-5.649845 35.878738 0.010407
-5.335104 35.878738 0.010142
-5.020363 35.878738 0.010308
-4.705622 35.878738 0.010757
-4.390881 35.878738 0.010846
-4.076140 35.878738 0.010482
-3.761399 35.878738 0.010186
-3.446658 35.878738 0.010003
-3.131917 35.878738 0.009941
-2.817176 35.878738 0.010005
-2.502435 35.878738 0.010113
-2.187694 35.878738 0.009901
-1.872953 35.878738 0.009901
-1.558212 35.878738 0.010096
-1.243471 35.878738 0.010080
-0.928730 35.878738 0.009995
-0.613989 35.878738 0.009795
-0.299248 35.878738 0.009766
0.015493 35.878738 0.009915
0.330234 35.878738 0.009714
0.644975 35.878738 0.009662
0.959716 35.878738 0.009840
1.274457 35.878738 0.009855
1.589198 35.878738 0.009839
1.903938 35.878738 0.009891
2.218679 35.878738 0.010020
2.533421 35.878738 0.010063
2.848162 35.878738 0.009926
3.162903 35.878738 0.009766
3.477644 35.878738 0.009879
3.792385 35.878738 0.010265
4.107125 35.878738 0.010511
4.421866 35.878738 0.010585
4.736608 35.878738 0.010799
5.051349 35.878738 0.011001
5.366090 35.878738 0.011232
5.680831 35.878738 0.011914
5.995571 35.878738 0.012689
6.310312 35.878738 0.013584
6.625053 35.878738 0.014936
6.939795 35.878738 0.017263
7.254536 35.878738 0.020938
7.569277 35.878738 0.026567
7.884017 35.878738 0.034908
8.198758 35.878738 0.048327
8.513499 35.878738 0.067559
8.828240 35.878738 0.096574
9.142982 35.878738 0.143538
9.457723 35.878738 0.208511
9.772464 35.878738 0.290927
10.087205 35.878738 0.384954
10.401946 35.878738 0.498318
10.716687 35.878738 0.638644
11.031426 35.878738 0.770090
11.346168 35.878738 0.885320
11.660909 35.878738 1.039483
11.975650 35.878738 1.135113
12.290391 35.878738 1.216722
12.605132 35.878738 1.326455
12.919873 35.878738 1.431252
13.234614 35.878738 1.504521
13.549356 35.878738 1.535835
13.864097 35.878738 1.579699
14.178838 35.878738 1.583716
14.493579 35.878738 1.563516
14.808320 35.878738 1.556832
15.123059 35.878738 1.714396
15.437800 35.878738 2.420623
15.752542 35.878738 3.410025
16.067284 35.878738 0.000000
16.382023 35.878738 0.000000
16.696766 35.878738 0.000000
17.011505 35.878738 0.000000
17.326248 35.878738 0.000000
17.640987 35.878738 0.000000
17.955730 35.878738 0.000000
18.270470 35.878738 0.000000
18.585213 35.878738 0.000000
18.899952 35.878738 0.000000
-7.223550 35.563999 0.000000
-6.908809 35.563999 0.000000
-6.594068 35.563999 0.012198
-6.279327 35.563999 0.010519
-5.964586 35.563999 0.010591
-5.649845 35.563999 0.010423
-5.335104 35.563999 0.010187
-5.020363 35.563999 0.010377
-4.705622 35.563999 0.010957
-4.390881 35.563999 0.010884
-4.076140 35.563999 0.010457
-3.761399 35.563999 0.010100
-3.446658 35.563999 0.010050
-3.131917 35.563999 0.010127
-2.817176 35.563999 0.010215
-2.502435 35.563999 0.010247
-2.187694 35.563999 0.010066
-1.872953 35.563999 0.010085
-1.558212 35.563999 0.010274
-1.243471 35.563999 0.010232
-0.928730 35.563999 0.010068
-0.613989 35.563999 0.009812
-0.299248 35.563999 0.009807
0.015493 35.563999 0.009834
0.330234 35.563999 0.009618
0.644975 35.563999 0.009620
0.959716 35.563999 0.009870
1.274457 35.563999 0.009857
1.589198 35.563999 0.009867
1.903938 35.563999 0.009799
2.218679 35.563999 0.010092
2.533421 35.563999 0.010111
2.848162 35.563999 0.009935
3.162903 35.563999 0.009783
3.477644 35.563999 0.009968
3.792385 35.563999 0.010337
4.107125 35.563999 0.010453
4.421866 35.563999 0.010500
4.736608 35.563999 0.010774
5.051349 35.563999 0.010960
5.366090 35.563999 0.011314
5.680831 35.563999 0.012036
5.995571 35.563999 0.012529
6.310312 35.563999 0.013433
6.625053 35.563999 0.014809
6.939795 35.563999 0.017047
7.254536 35.563999 0.020741
7.569277 35.563999 0.026386
7.884017 35.563999 0.035184
8.198758 35.563999 0.047511
8.513499 35.563999 0.068279
8.828240 35.563999 0.096742
9.142982 35.563999 0.139754
9.457723 35.563999 0.211737
9.772464 35.563999 0.284105
10.087205 35.563999 0.380724
10.401946 35.563999 0.485095
10.716687 35.563999 0.618100
11.031426 35.563999 0.775403
11.346168 35.563999 0.886330
11.660909 35.563999 1.038818
11.975650 35.563999 1.145077
12.290391 35.563999 1.244675
12.605132 35.563999 1.341011
12.919873 35.563999 1.451397
13.234614 35.563999 1.532295
13.549356 35.563999 1.571595
13.864097 35.563999 1.554136
14.178838 35.563999 1.564211
14.493579 35.563999 1.596406
14.808320 35.563999 1.566765
15.123059 35.563999 1.737397
15.437800 35.563999 2.401119
15.752542 35.563999 3.398657
16.067284 35.563999 0.000000
16.382023 35.563999 0.000000
16.696766 35.563999 0.000000
17.011505 35.563999 0.000000
17.326248 35.563999 0.000000
17.640987 35.563999 0.000000
17.955730 35.563999 0.000000
18.270470 35.563999 0.000000
18.585213 35.563999 0.000000
18.899952 35.563999 0.000000
-7.223550 35.249256 0.000000
-6.908809 35.249256 0.000000
-6.594068 35.249256 0.012123
-6.279327 35.249256 0.010505
-5.964586 35.249256 0.010574
-5.649845 35.249256 0.010407
-5.335104 35.249256 0.010129
-5.020363 35.249256 0.010259
-4.705622 35.249256 0.010728
-4.390881 35.249256 0.010678
-4.076140 35.249256 0.010328
-3.761399 35.249256 0.010083
-3.446658 35.249256 0.010120
-3.131917 35.249256 0.010180
-2.817176 35.249256 0.010283
-2.502435 35.249256 0.010275
-2.187694 35.249256 0.010208
-1.872953 35.249256 0.010192
-1.558212 35.249256 0.010359
-1.243471 35.249256 0.010262
-0.928730 35.249256 0.010109
-0.613989 35.249256 0.009925
-0.299248 35.249256 0.009714
0.015493 35.249256 0.009847
0.330234 35.249256 0.009720
0.644975 35.249256 0.009729
0.959716 35.249256 0.009830
1.274457 35.249256 0.009801
1.589198 35.249256 0.009754
1.903938 35.249256 0.009640
2.218679 35.249256 0.009932
2.533421 35.249256 0.010083
2.848162 35.249256 0.010021
3.162903 35.249256 0.010082
3.477644 35.249256 0.010246
3.792385 35.249256 0.010345
4.107125 35.249256 0.010346
4.421866 35.249256 0.010464
4.736608 35.249256 0.010647
5.051349 35.249256 0.010776
5.366090 35.249256 0.011228
5.680831 35.249256 0.011907
5.995571 35.249256 0.012388
6.310312 35.249256 0.013318
6.625053 35.249256 0.014934
6.939795 35.249256 0.016977
7.254536 35.249256 0.020648
7.569277 35.249256 0.025977
7.884017 35.249256 0.035123
8.198758 35.249256 0.047446
8.513499 35.249256 0.067994
8.828240 35.249256 0.097228
9.142982 35.249256 0.146606
9.457723 35.249256 0.210943
9.772464 35.249256 0.290791
10.087205 35.249256 0.376209
10.401946 35.249256 0.487428
10.716687 35.249256 0.613198
11.031426 35.249256 0.752460
11.346168 35.249256 0.878402
11.660909 35.249256 1.024871
11.975650 35.249256 1.133241
12.290391 35.249256 1.246722
12.605132 35.249256 1.340730
12.919873 35.249256 1.416124
13.234614 35.249256 1.540769
13.549356 35.249256 1.586710
13.864097 35.249256 1.548085
14.178838 35.249256 1.565593
14.493579 35.249256 1.578581
14.808320 35.249256 1.595460
15.123059 35.249256 1.748994
15.437800 35.249256 2.308483
15.752542 35.249256 3.478447
16.067284 35.249256 0.000000
16.382023 35.249256 0.000000
16.696766 35.249256 0.000000
17.011505 35.249256 0.000000
17.326248 35.249256 0.000000
17.640987 35.249256 0.000000
17.955730 35.249256 0.000000
18.270470 35.249256 0.000000
18.585213 35.249256 0.000000
18.899952 35.249256 0.000000
-7.223550 34.934517 0.000000
-6.908809 34.934517 0.000000
-6.594068 34.934517 0.012022
-6.279327 34.934517 0.010405
-5.964586 34.934517 0.010588
-5.649845 34.934517 0.010387
-5.335104 34.934517 0.010030
-5.020363 34.934517 0.010115
-4.705622 34.934517 0.010365
-4.390881 34.934517 0.010393
-4.076140 34.934517 0.010215
-3.761399 34.934517 0.010102
-3.446658 34.934517 0.010169
-3.131917 34.934517 0.010182
-2.817176 34.934517 0.010207
-2.502435 34.934517 0.010170
-2.187694 34.934517 0.010230
-1.872953 34.934517 0.010207
-1.558212 34.934517 0.010295
-1.243471 34.934517 0.010100
-0.928730 34.934517 0.010029
-0.613989 34.934517 0.009944
-0.299248 34.934517 0.009691
0.015493 34.934517 0.009841
0.330234 34.934517 0.009870
0.644975 34.934517 0.009783
0.959716 34.934517 0.009759
1.274457 34.934517 0.009664
1.589198 34.934517 0.009613
1.903938 34.934517 0.009522
2.218679 34.934517 0.009761
2.533421 34.934517 0.010020
2.848162 34.934517 0.010185
3.162903 34.934517 0.010373
3.477644 34.934517 0.010484
3.792385 34.934517 0.010360
4.107125 34.934517 0.010311
4.421866 34.934517 0.010433
4.736608 34.934517 0.010575
5.051349 34.934517 0.010591
5.366090 34.934517 0.010983
5.680831 34.934517 0.011495
5.995571 34.934517 0.012211
6.310312 34.934517 0.013327
6.625053 34.934517 0.014896
6.939795 34.934517 0.016880
7.254536 34.934517 0.020326
7.569277 34.934517 0.026246
7.884017 34.934517 0.034348
8.198758 34.934517 0.047656
8.513499 34.934517 0.066470
8.828240 34.934517 0.098043
9.142982 34.934517 0.147640
9.457723 34.934517 0.208884
9.772464 34.934517 0.292602
10.087205 34.934517 0.379885
10.401946 34.934517 0.480828
10.716687 34.934517 0.605344
11.031426 34.934517 0.739421
11.346168 34.934517 0.885601
11.660909 34.934517 1.010067
11.975650 34.934517 1.133419
12.290391 34.934517 1.248455
12.605132 34.934517 1.346726
12.919873 34.934517 1.477479
13.234614 34.934517 1.534151
13.549356 34.934517 1.585979
13.864097 34.934517 1.560696
14.178838 34.934517 1.564278
14.493579 34.934517 1.607427
14.808320 34.934517 1.604594
15.123059 34.934517 1.778509
15.437800 34.934517 2.450181
15.752542 34.934517 3.518036
16.067284 34.934517 0.000000
16.382023 34.934517 0.000000
16.696766 34.934517 0.000000
17.011505 34.934517 0.000000
17.326248 34.934517 0.000000
17.640987 34.934517 0.000000
17.955730 34.934517 0.000000
18.270470 34.934517 0.000000
18.585213 34.934517 0.000000
18.899952 34.934517 0.000000
-7.223550 34.619774 0.000000
-6.908809 34.619774 0.000000
-6.594068 34.619774 0.011958
-6.279327 34.619774 0.010342
-5.964586 34.619774 0.010667
-5.649845 34.619774 0.010400
-5.335104 34.619774 0.010041
-5.020363 34.619774 0.010129
-4.705622 34.619774 0.010182
-4.390881 34.619774 0.010221
-4.076140 34.619774 0.010192
-3.761399 34.619774 0.010116
-3.446658 34.619774 0.010143
-3.131917 34.619774 0.010108
-2.817176 34.619774 0.010065
-2.502435 34.619774 0.009984
-2.187694 34.619774 0.010095
-1.872953 34.619774 0.010168
-1.558212 34.619774 0.010139
-1.243471 34.619774 0.009882
-0.928730 34.619774 0.009933
-0.613989 34.619774 0.009938
-0.299248 34.619774 0.009759
0.015493 34.619774 0.009879
0.330234 34.619774 0.009888
0.644975 34.619774 0.009699
0.959716 34.619774 0.009588
1.274457 34.619774 0.009564
1.589198 34.619774 0.009496
1.903938 34.619774 0.009615
2.218679 34.619774 0.009715
2.533421 34.619774 0.009999
2.848162 34.619774 0.010383
3.162903 34.619774 0.010543
3.477644 34.619774 0.010473
3.792385 34.619774 0.010427
4.107125 34.619774 0.010311
4.421866 34.619774 0.010423
4.736608 34.619774 0.010611
5.051349 34.619774 0.010565
5.366090 34.619774 0.010802
5.680831 34.619774 0.011268
5.995571 34.619774 0.012063
6.310312 34.619774 0.013204
6.625053 34.619774 0.015052
6.939795 34.619774 0.017073
7.254536 34.619774 0.020078
7.569277 34.619774 0.025994
7.884017 34.619774 0.034738
8.198758 34.619774 0.047515
8.513499 34.619774 0.065712
8.828240 34.619774 0.097240
9.142982 34.619774 0.151784
9.457723 34.619774 0.205802
9.772464 34.619774 0.295764
10.087205 34.619774 0.387841
10.401946 34.619774 0.499633
10.716687 34.619774 0.611330
11.031426 34.619774 0.730905
11.346168 34.619774 0.869257
11.660909 34.619774 1.004413
11.975650 34.619774 1.152367
12.290391 34.619774 1.255693
12.605132 34.619774 1.362670
12.919873 34.619774 1.449028
13.234614 34.619774 1.563398
13.549356 34.619774 1.577308
13.864097 34.619774 1.554963
14.178838 34.619774 1.582412
14.493579 34.619774 1.595561
14.808320 34.619774 1.602301
15.123059 34.619774 1.773701
15.437800 34.619774 2.351900
15.752542 34.619774 3.451757
16.067284 34.619774 0.000000
16.382023 34.619774 0.000000
16.696766 34.619774 0.000000
17.011505 34.619774 0.000000
17.326248 34.619774 0.000000
17.640987 34.619774 0.000000
17.955730 34.619774 0.000000
18.270470 34.619774 0.000000
18.585213 34.619774 0.000000
18.899952 34.619774 0.000000
-7.223550 34.305035 0.000000
-6.908809 34.305035 0.000000
-6.594068 34.305035 0.011845
-6.279327 34.305035 0.010303
-5.964586 34.305035 0.010669
-5.649845 34.305035 0.010518
-5.335104 34.305035 0.010165
-5.020363 34.305035 0.010257
-4.705622 34.305035 0.010214
-4.390881 34.305035 0.010261
-4.076140 34.305035 0.010230
-3.761399 34.305035 0.010181
-3.446658 34.305035 0.010125
-3.131917 34.305035 0.010074
-2.817176 34.305035 0.010035
-2.502435 34.305035 0.009953
-2.187694 34.305035 0.010114
-1.872953 34.305035 0.010154
-1.558212 34.305035 0.010030
-1.243471 34.305035 0.009820
-0.928730 34.305035 0.009972
-0.613989 34.305035 0.009999
-0.299248 34.305035 0.009938
0.015493 34.305035 0.009966
0.330234 34.305035 0.009832
0.644975 34.305035 0.009648
0.959716 34.305035 0.009520
1.274457 34.305035 0.009442
1.589198 34.305035 0.009467
1.903938 34.305035 0.009699
2.218679 34.305035 0.009752
2.533421 34.305035 0.010086
2.848162 34.305035 0.010525
3.162903 34.305035 0.010559
3.477644 34.305035 0.010430
3.792385 34.305035 0.010435
4.107125 34.305035 0.010339
4.421866 34.305035 0.010330
4.736608 34.305035 0.010597
5.051349 34.305035 0.010626
5.366090 34.305035 0.010748
5.680831 34.305035 0.011200
5.995571 34.305035 0.011906
6.310312 34.305035 0.013174
6.625053 34.305035 0.014991
6.939795 34.305035 0.017201
7.254536 34.305035 0.020483
7.569277 34.305035 0.025942
7.884017 34.305035 0.034845
8.198758 34.305035 0.048015
8.513499 34.305035 0.067882
8.828240 34.305035 0.099642
9.142982 34.305035 0.147236
9.457723 34.305035 0.212283
9.772464 34.305035 0.284348
10.087205 34.305035 0.385875
10.401946 34.305035 0.510442
10.716687 34.305035 0.623443
11.031426 34.305035 0.758410
11.346168 34.305035 0.887414
11.660909 34.305035 1.030755
11.975650 34.305035 1.165321
12.290391 34.305035 1.261083
12.605132 34.305035 1.360466
12.919873 34.305035 1.481538
13.234614 34.305035 1.545072
13.549356 34.305035 1.542670
13.864097 34.305035 1.577101
14.178838 34.305035 1.582761
14.493579 34.305035 1.596314
14.808320 34.305035 1.596434
15.123059 34.305035 1.730364
15.437800 34.305035 2.426033
15.752542 34.305035 3.556770
16.067284 34.305035 0.000000
16.382023 34.305035 0.000000
16.696766 34.305035 0.000000
17.011505 34.305035 0.000000
17.326248 34.305035 0.000000
17.640987 34.305035 0.000000
17.955730 34.305035 0.000000
18.270470 34.305035 0.000000
18.585213 34.305035 0.000000
18.899952 34.305035 0.000000
-7.223550 33.990295 0.000000
-6.908809 33.990295 0.000000
-6.594068 33.990295 0.011817
-6.279327 33.990295 0.010374
-5.964586 33.990295 0.010638
-5.649845 33.990295 0.010599
-5.335104 33.990295 0.010273
-5.020363 33.990295 0.010364
-4.705622 33.990295 0.010351
-4.390881 33.990295 0.010339
-4.076140 33.990295 0.010277
-3.761399 33.990295 0.010305
-3.446658 33.990295 0.010260
-3.131917 33.990295 0.010173
-2.817176 33.990295 0.010198
-2.502435 33.990295 0.010137
-2.187694 33.990295 0.010195
-1.872953 33.990295 0.010222
-1.558212 33.990295 0.010075
-1.243471 33.990295 0.009936
-0.928730 33.990295 0.009916
-0.613989 33.990295 0.010035
-0.299248 33.990295 0.010051
0.015493 33.990295 0.009993
0.330234 33.990295 0.009850
0.644975 33.990295 0.009742
0.959716 33.990295 0.009596
1.274457 33.990295 0.009423
1.589198 33.990295 0.009501
1.903938 33.990295 0.009762
2.218679 33.990295 0.009908
2.533421 33.990295 0.010310
2.848162 33.990295 0.010630
3.162903 33.990295 0.010551
3.477644 33.990295 0.010381
3.792385 33.990295 0.010426
4.107125 33.990295 0.010189
4.421866 33.990295 0.010178
4.736608 33.990295 0.010544
5.051349 33.990295 0.010602
5.366090 33.990295 0.010698
5.680831 33.990295 0.011167
5.995571 33.990295 0.011870
6.310312 33.990295 0.013149
6.625053 33.990295 0.014834
6.939795 33.990295 0.017327
7.254536 33.990295 0.021208
7.569277 33.990295 0.026378
7.884017 33.990295 0.035136
8.198758 33.990295 0.049150
8.513499 33.990295 0.070693
8.828240 33.990295 0.097797
9.142982 33.990295 0.145471
9.457723 33.990295 0.209857
9.772464 33.990295 0.281434
10.087205 33.990295 0.385986
10.401946 33.990295 0.512221
10.716687 33.990295 0.635457
11.031426 33.990295 0.763220
11.346168 33.990295 0.899602
11.660909 33.990295 1.010177
11.975650 33.990295 1.135494
12.290391 33.990295 1.260403
12.605132 33.990295 1.370184
12.919873 33.990295 1.476382
13.234614 33.990295 1.547286
13.549356 33.990295 1.554158
13.864097 33.990295 1.596107
14.178838 33.990295 1.579843
14.493579 33.990295 1.591830
14.808320 33.990295 1.599721
15.123059 33.990295 1.733902
15.437800 33.990295 2.447392
15.752542 33.990295 3.805351
16.067284 33.990295 0.000000
16.382023 33.990295 0.000000
16.696766 33.990295 0.000000
17.011505 33.990295 0.000000
17.326248 33.990295 0.000000
17.640987 33.990295 0.000000
17.955730 33.990295 0.000000
18.270470 33.990295 0.000000
18.585213 33.990295 0.000000
18.899952 33.990295 0.000000
-7.223550 33.675552 0.000000
-6.908809 33.675552 0.000000
-6.594068 33.675552 0.011897
-6.279327 33.675552 0.010552
-5.964586 33.675552 0.010613
-5.649845 33.675552 0.010524
-5.335104 33.675552 0.010286
-5.020363 33.675552 0.010384
-4.705622 33.675552 0.010407
-4.390881 33.675552 0.010262
-4.076140 33.675552 0.010232
-3.761399 33.675552 0.010462
-3.446658 33.675552 0.010500
-3.131917 33.675552 0.010457
-2.817176 33.675552 0.010488
-2.502435 33.675552 0.010316
-2.187694 33.675552 0.010281
-1.872953 33.675552 0.010341
-1.558212 33.675552 0.010312
-1.243471 33.675552 0.010056
-0.928730 33.675552 0.009834
-0.613989 33.675552 0.009935
-0.299248 33.675552 0.009965
0.015493 33.675552 0.009935
0.330234 33.675552 0.009873
0.644975 33.675552 0.009893
0.959716 33.675552 0.009738
1.274457 33.675552 0.009459
1.589198 33.675552 0.009522
1.903938 33.675552 0.009684
2.218679 33.675552 0.010081
2.533421 33.675552 0.010545
2.848162 33.675552 0.010764
3.162903 33.675552 0.010580
3.477644 33.675552 0.010317
3.792385 33.675552 0.010274
4.107125 33.675552 0.010070
4.421866 33.675552 0.010063
4.736608 33.675552 0.010506
5.051349 33.675552 0.010557
5.366090 33.675552 0.010622
5.680831 33.675552 0.011114
5.995571 33.675552 0.011844
6.310312 33.675552 0.012975
6.625053 33.675552 0.014784
6.939795 33.675552 0.017536
7.254536 33.675552 0.021217
7.569277 33.675552 0.026718
7.884017 33.675552 0.035747
8.198758 33.675552 0.049203
8.513499 33.675552 0.070047
8.828240 33.675552 0.100052
9.142982 33.675552 0.144128
9.457723 33.675552 0.209089
9.772464 33.675552 0.286801
10.087205 33.675552 0.387002
10.401946 33.675552 0.498151
10.716687 33.675552 0.634518
11.031426 33.675552 0.760368
11.346168 33.675552 0.893683
11.660909 33.675552 1.013165
11.975650 33.675552 1.141837
12.290391 33.675552 1.284012
12.605132 33.675552 1.363344
12.919873 33.675552 1.446824
13.234614 33.675552 1.521453
13.549356 33.675552 1.567118
13.864097 33.675552 1.541316
14.178838 33.675552 1.546391
14.493579 33.675552 1.565150
14.808320 33.675552 1.585110
15.123059 33.675552 1.776542
15.437800 33.675552 2.385430
15.752542 33.675552 3.445568
16.067284 33.675552 0.000000
16.382023 33.675552 0.000000
16.696766 33.675552 0.000000
17.011505 33.675552 0.000000
17.326248 33.675552 0.000000
17.640987 33.675552 0.000000
17.955730 33.675552 0.000000
18.270470 33.675552 0.000000
18.585213 33.675552 0.000000
18.899952 33.675552 0.000000
-7.223550 33.360809 0.000000
-6.908809 33.360809 0.000000
-6.594068 33.360809 0.011950
-6.279327 33.360809 0.010725
-5.964586 33.360809 0.010628
-5.649845 33.360809 0.010398
-5.335104 33.360809 0.010274
-5.020363 33.360809 0.010406
-4.705622 33.360809 0.010455
-4.390881 33.360809 0.010207
-4.076140 33.360809 0.010209
-3.761399 33.360809 0.010557
-3.446658 33.360809 0.010740
-3.131917 33.360809 0.010664
-2.817176 33.360809 0.010718
-2.502435 33.360809 0.010505
-2.187694 33.360809 0.010305
-1.872953 33.360809 0.010472
-1.558212 33.360809 0.010571
-1.243471 33.360809 0.010150
-0.928730 33.360809 0.009807
-0.613989 33.360809 0.009795
-0.299248 33.360809 0.009745
0.015493 33.360809 0.009908
0.330234 33.360809 0.009989
0.644975 33.360809 0.009957
0.959716 33.360809 0.009741
1.274457 33.360809 0.009518
1.589198 33.360809 0.009592
1.903938 33.360809 0.009658
2.218679 33.360809 0.010246
2.533421 33.360809 0.010760
2.848162 33.360809 0.010955
3.162903 33.360809 0.010687
3.477644 33.360809 0.010299
3.792385 33.360809 0.010082
4.107125 33.360809 0.009916
4.421866 33.360809 0.010010
4.736608 33.360809 0.010400
5.051349 33.360809 0.010466
5.366090 33.360809 0.010547
5.680831 33.360809 0.010995
5.995571 33.360809 0.011762
6.310312 33.360809 0.012929
6.625053 33.360809 0.014603
6.939795 33.360809 0.017367
7.254536 33.360809 0.021081
7.569277 33.360809 0.026792
7.884017 33.360809 0.035873
8.198758 33.360809 0.048838
8.513499 33.360809 0.068691
8.828240 33.360809 0.097692
9.142982 33.360809 0.141042
9.457723 33.360809 0.205579
9.772464 33.360809 0.291866
10.087205 33.360809 0.402063
10.401946 33.360809 0.509312
10.716687 33.360809 0.623365
11.031426 33.360809 0.750939
11.346168 33.360809 0.886983
11.660909 33.360809 1.015565
11.975650 33.360809 1.128767
12.290391 33.360809 1.295014
12.605132 33.360809 1.372035
12.919873 33.360809 1.416991
13.234614 33.360809 1.527204
13.549356 33.360809 1.532796
13.864097 33.360809 1.550692
14.178838 33.360809 1.552335
14.493579 33.360809 1.572106
14.808320 33.360809 1.574713
15.123059 33.360809 1.771990
15.437800 33.360809 2.388133
15.752542 33.360809 3.693281
16.067284 33.360809 0.000000
16.382023 33.360809 0.000000
16.696766 33.360809 0.000000
17.011505 33.360809 0.000000
17.326248 33.360809 0.000000
17.640987 33.360809 0.000000
17.955730 33.360809 0.000000
18.270470 33.360809 0.000000
18.585213 33.360809 0.000000
18.899952 33.360809 0.000000
-7.223550 33.046070 0.000000
-6.908809 33.046070 0.000000
-6.594068 33.046070 0.012097
-6.279327 33.046070 0.010762
-5.964586 33.046070 0.010749
-5.649845 33.046070 0.010351
-5.335104 33.046070 0.010247
-5.020363 33.046070 0.010419
-4.705622 33.046070 0.010491
-4.390881 33.046070 0.010305
-4.076140 33.046070 0.010266
-3.761399 33.046070 0.010619
-3.446658 33.046070 0.010852
-3.131917 33.046070 0.010782
-2.817176 33.046070 0.010862
-2.502435 33.046070 0.010638
-2.187694 33.046070 0.010383
-1.872953 33.046070 0.010452
-1.558212 33.046070 0.010534
-1.243471 33.046070 0.010035
-0.928730 33.046070 0.009780
-0.613989 33.046070 0.009836
-0.299248 33.046070 0.009664
0.015493 33.046070 0.009889
0.330234 33.046070 0.009969
0.644975 33.046070 0.009960
0.959716 33.046070 0.009728
1.274457 33.046070 0.009617
1.589198 33.046070 0.009779
1.903938 33.046070 0.009831
2.218679 33.046070 0.010346
2.533421 33.046070 0.010947
2.848162 33.046070 0.011126
3.162903 33.046070 0.010731
3.477644 33.046070 0.010291
3.792385 33.046070 0.009925
4.107125 33.046070 0.009933
4.421866 33.046070 0.010048
4.736608 33.046070 0.010193
5.051349 33.046070 0.010279
5.366090 33.046070 0.010512
5.680831 33.046070 0.010901
5.995571 33.046070 0.011705
6.310312 33.046070 0.012991
6.625053 33.046070 0.014668
6.939795 33.046070 0.017250
7.254536 33.046070 0.020905
7.569277 33.046070 0.026863
7.884017 33.046070 0.035693
8.198758 33.046070 0.049164
8.513499 33.046070 0.067594
8.828240 33.046070 0.097786
9.142982 33.046070 0.141928
9.457723 33.046070 0.207220
9.772464 33.046070 0.298982
10.087205 33.046070 0.405637
10.401946 33.046070 0.507441
10.716687 33.046070 0.614171
11.031426 33.046070 0.758569
11.346168 33.046070 0.893850
11.660909 33.046070 1.016614
11.975650 33.046070 1.097168
12.290391 33.046070 1.276021
12.605132 33.046070 1.369704
12.919873 33.046070 1.436077
13.234614 33.046070 1.505838
13.549356 33.046070 1.527923
13.864097 33.046070 1.529301
14.178838 33.046070 1.543513
14.493579 33.046070 1.536423
14.808320 33.046070 1.573597
15.123059 33.046070 1.778995
15.437800 33.046070 2.472375
15.752542 33.046070 3.693695
16.067284 33.046070 0.000000
16.382023 33.046070 0.000000
16.696766 33.046070 0.000000
17.011505 33.046070 0.000000
17.326248 33.046070 0.000000
17.640987 33.046070 0.000000
17.955730 33.046070 0.000000
18.270470 33.046070 0.000000
18.585213 33.046070 0.000000
18.899952 33.046070 0.000000
-7.223550 32.731331 0.000000
-6.908809 32.731331 0.000000
-6.594068 32.731331 0.012242
-6.279327 32.731331 0.010755
-5.964586 32.731331 0.010766
-5.649845 32.731331 0.010476
-5.335104 32.731331 0.010292
-5.020363 32.731331 0.010338
-4.705622 32.731331 0.010558
-4.390881 32.731331 0.010567
-4.076140 32.731331 0.010481
-3.761399 32.731331 0.010811
-3.446658 32.731331 0.010935
-3.131917 32.731331 0.010798
-2.817176 32.731331 0.010844
-2.502435 32.731331 0.010670
-2.187694 32.731331 0.010416
-1.872953 32.731331 0.010308
-1.558212 32.731331 0.010267
-1.243471 32.731331 0.009915
-0.928730 32.731331 0.009835
-0.613989 32.731331 0.009865
-0.299248 32.731331 0.009843
0.015493 32.731331 0.009967
0.330234 32.731331 0.009832
0.644975 32.731331 0.009873
0.959716 32.731331 0.009763
1.274457 32.731331 0.009752
1.589198 32.731331 0.009965
1.903938 32.731331 0.010130
2.218679 32.731331 0.010480
2.533421 32.731331 0.010986
2.848162 32.731331 0.011060
3.162903 32.731331 0.010567
3.477644 32.731331 0.010125
3.792385 32.731331 0.009852
4.107125 32.731331 0.009958
4.421866 32.731331 0.010067
4.736608 32.731331 0.010145
5.051349 32.731331 0.010253
5.366090 32.731331 0.010532
5.680831 32.731331 0.010920
5.995571 32.731331 0.011858
6.310312 32.731331 0.013096
6.625053 32.731331 0.014871
6.939795 32.731331 0.017475
7.254536 32.731331 0.021212
7.569277 32.731331 0.026924
7.884017 32.731331 0.035390
8.198758 32.731331 0.047346
8.513499 32.731331 0.066984
8.828240 32.731331 0.097635
9.142982 32.731331 0.145858
9.457723 32.731331 0.213647
9.772464 32.731331 0.297779
10.087205 32.731331 0.398888
10.401946 32.731331 0.506040
10.716687 32.731331 0.632245
11.031426 32.731331 0.744339
11.346168 32.731331 0.907096
11.660909 32.731331 1.029919
11.975650 32.731331 1.120533
12.290391 32.731331 1.240835
12.605132 32.731331 1.383679
12.919873 32.731331 1.453617
13.234614 32.731331 1.534095
13.549356 32.731331 1.497866
13.864097 32.731331 1.512751
14.178838 32.731331 1.555333
14.493579 32.731331 1.530857
14.808320 32.731331 1.572110
15.123059 32.731331 1.794845
15.437800 32.731331 2.445194
15.752542 32.731331 3.595739
16.067284 32.731331 0.000000
16.382023 32.731331 0.000000
16.696766 32.731331 0.000000
17.011505 32.731331 0.000000
17.326248 32.731331 0.000000
17.640987 32.731331 0.000000
17.955730 32.731331 0.000000
18.270470 32.731331 0.000000
18.585213 32.731331 0.000000
18.899952 32.731331 0.000000
-7.223550 32.416588 0.000000
-6.908809 32.416588 0.000000
-6.594068 32.416588 0.012284
-6.279327 32.416588 0.010673
-5.964586 32.416588 0.010764
-5.649845 32.416588 0.010639
-5.335104 32.416588 0.010326
-5.020363 32.416588 0.010336
-4.705622 32.416588 0.010706
-4.390881 32.416588 0.010899
-4.076140 32.416588 0.010891
-3.761399 32.416588 0.011061
-3.446658 32.416588 0.010935
-3.131917 32.416588 0.010865
-2.817176 32.416588 0.010760
-2.502435 32.416588 0.010619
-2.187694 32.416588 0.010463
-1.872953 32.416588 0.010234
-1.558212 32.416588 0.010158
-1.243471 32.416588 0.009878
-0.928730 32.416588 0.009837
-0.613989 32.416588 0.009917
-0.299248 32.416588 0.010054
0.015493 32.416588 0.009931
0.330234 32.416588 0.009696
0.644975 32.416588 0.009792
0.959716 32.416588 0.009911
1.274457 32.416588 0.009916
1.589198 32.416588 0.010148
1.903938 32.416588 0.010466
2.218679 32.416588 0.010669
2.533421 32.416588 0.010874
2.848162 32.416588 0.010694
3.162903 32.416588 0.010135
3.477644 32.416588 0.009859
3.792385 32.416588 0.009766
4.107125 32.416588 0.009876
4.421866 32.416588 0.009928
4.736608 32.416588 0.010128
5.051349 32.416588 0.010361
5.366090 32.416588 0.010629
5.680831 32.416588 0.011088
5.995571 32.416588 0.012030
6.310312 32.416588 0.013421
6.625053 32.416588 0.015395
6.939795 32.416588 0.017674
7.254536 32.416588 0.021393
7.569277 32.416588 0.026404
7.884017 32.416588 0.034526
8.198758 32.416588 0.047030
8.513499 32.416588 0.067051
8.828240 32.416588 0.098955
9.142982 32.416588 0.147042
9.457723 32.416588 0.214101
9.772464 32.416588 0.301643
10.087205 32.416588 0.404345
10.401946 32.416588 0.505105
10.716687 32.416588 0.616483
11.031426 32.416588 0.753026
11.346168 32.416588 0.895025
11.660909 32.416588 1.036236
11.975650 32.416588 1.138239
12.290391 32.416588 1.235779
12.605132 32.416588 1.383088
12.919873 32.416588 1.506462
13.234614 32.416588 1.535755
13.549356 32.416588 1.521200
13.864097 32.416588 1.536957
14.178838 32.416588 1.543953
14.493579 32.416588 1.524048
14.808320 32.416588 1.541924
15.123059 32.416588 1.783484
15.437800 32.416588 2.358450
15.752542 32.416588 3.515500
16.067284 32.416588 0.000000
16.382023 32.416588 0.000000
16.696766 32.416588 0.000000
17.011505 32.416588 0.000000
17.326248 32.416588 0.000000
17.640987 32.416588 0.000000
17.955730 32.416588 0.000000
18.270470 32.416588 0.000000
18.585213 32.416588 0.000000
18.899952 32.416588 0.000000
-7.223550 32.101845 0.000000
-6.908809 32.101845 0.000000
-6.594068 32.101845 0.012209
-6.279327 32.101845 0.010688
-5.964586 32.101845 0.010804
-5.649845 32.101845 0.010722
-5.335104 32.101845 0.010298
-5.020363 32.101845 0.010381
-4.705622 32.101845 0.010852
-4.390881 32.101845 0.011176
-4.076140 32.101845 0.011308
-3.761399 32.101845 0.011228
-3.446658 32.101845 0.011004
-3.131917 32.101845 0.011016
-2.817176 32.101845 0.010779
-2.502435 32.101845 0.010514
-2.187694 32.101845 0.010378
-1.872953 32.101845 0.010273
-1.558212 32.101845 0.010201
-1.243471 32.101845 0.010003
-0.928730 32.101845 0.009847
-0.613989 32.101845 0.009977
-0.299248 32.101845 0.010192
0.015493 32.101845 0.009934
0.330234 32.101845 0.009671
0.644975 32.101845 0.009825
0.959716 32.101845 0.010066
1.274457 32.101845 0.010204
1.589198 32.101845 0.010477
1.903938 32.101845 0.010773
2.218679 32.101845 0.010780
2.533421 32.101845 0.010593
2.848162 32.101845 0.010152
3.162903 32.101845 0.009708
3.477644 32.101845 0.009631
3.792385 32.101845 0.009721
4.107125 32.101845 0.009850
4.421866 32.101845 0.009857
4.736608 32.101845 0.010121
5.051349 32.101845 0.010452
5.366090 32.101845 0.010755
5.680831 32.101845 0.011226
5.995571 32.101845 0.012129
6.310312 32.101845 0.013637
6.625053 32.101845 0.015558
6.939795 32.101845 0.018029
7.254536 32.101845 0.021462
7.569277 32.101845 0.025846
7.884017 32.101845 0.033683
8.198758 32.101845 0.044826
8.513499 32.101845 0.065754
8.828240 32.101845 0.102144
9.142982 32.101845 0.157248
9.457723 32.101845 0.213570
9.772464 32.101845 0.301585
10.087205 32.101845 0.399439
10.401946 32.101845 0.499197
10.716687 32.101845 0.616562
11.031426 32.101845 0.772299
11.346168 32.101845 0.912585
11.660909 32.101845 1.041916
11.975650 32.101845 1.161366
12.290391 32.101845 1.268095
12.605132 32.101845 1.394611
12.919873 32.101845 1.474249
13.234614 32.101845 1.542303
13.549356 32.101845 1.534718
13.864097 32.101845 1.573295
14.178838 32.101845 1.561505
14.493579 32.101845 1.561272
14.808320 32.101845 1.586284
15.123059 32.101845 1.781909
15.437800 32.101845 2.286438
15.752542 32.101845 3.473985
16.067284 32.101845 0.000000
16.382023 32.101845 0.000000
16.696766 32.101845 0.000000
17.011505 32.101845 0.000000
17.326248 32.101845 0.000000
17.640987 32.101845 0.000000
17.955730 32.101845 0.000000
18.270470 32.101845 0.000000
18.585213 32.101845 0.000000
18.899952 32.101845 0.000000
-7.223550 31.787106 0.000000
-6.908809 31.787106 0.000000
-6.594068 31.787106 0.012124
-6.279327 31.787106 0.010715
-5.964586 31.787106 0.010783
-5.649845 31.787106 0.010698
-5.335104 31.787106 0.010338
-5.020363 31.787106 0.010561
-4.705622 31.787106 0.011054
-4.390881 31.787106 0.011361
-4.076140 31.787106 0.011548
-3.761399 31.787106 0.011348
-3.446658 31.787106 0.011131
-3.131917 31.787106 0.011121
-2.817176 31.787106 0.010874
-2.502435 31.787106 0.010517
-2.187694 31.787106 0.010314
-1.872953 31.787106 0.010334
-1.558212 31.787106 0.010319
-1.243471 31.787106 0.010027
-0.928730 31.787106 0.009840
-0.613989 31.787106 0.010017
-0.299248 31.787106 0.010237
0.015493 31.787106 0.010101
0.330234 31.787106 0.009816
0.644975 31.787106 0.009885
0.959716 31.787106 0.010185
1.274457 31.787106 0.010597
1.589198 31.787106 0.010963
1.903938 31.787106 0.010962
2.218679 31.787106 0.010719
2.533421 31.787106 0.010283
2.848162 31.787106 0.009724
3.162903 31.787106 0.009431
3.477644 31.787106 0.009478
3.792385 31.787106 0.009639
4.107125 31.787106 0.009790
4.421866 31.787106 0.009855
4.736608 31.787106 0.010103
5.051349 31.787106 0.010422
5.366090 31.787106 0.010779
5.680831 31.787106 0.011307
5.995571 31.787106 0.012209
6.310312 31.787106 0.013693
6.625053 31.787106 0.015678
6.939795 31.787106 0.018342
7.254536 31.787106 0.021231
7.569277 31.787106 0.025138
7.884017 31.787106 0.032886
8.198758 31.787106 0.045225
8.513499 31.787106 0.065921
8.828240 31.787106 0.094139
9.142982 31.787106 0.143087
9.457723 31.787106 0.207416
9.772464 31.787106 0.294107
10.087205 31.787106 0.396725
10.401946 31.787106 0.495947
10.716687 31.787106 0.617924
11.031426 31.787106 0.766275
11.346168 31.787106 0.923101
11.660909 31.787106 1.039280
11.975650 31.787106 1.174821
12.290391 31.787106 1.297111
12.605132 31.787106 1.408298
12.919873 31.787106 1.496764
13.234614 31.787106 1.552249
13.549356 31.787106 1.543358
13.864097 31.787106 1.585618
14.178838 31.787106 1.544941
14.493579 31.787106 1.526608
14.808320 31.787106 1.570749
15.123059 31.787106 1.746598
15.437800 31.787106 2.267145
15.752542 31.787106 3.495997
16.067284 31.787106 0.000000
16.382023 31.787106 0.000000
16.696766 31.787106 0.000000
17.011505 31.787106 0.000000
17.326248 31.787106 0.000000
17.640987 31.787106 0.000000
17.955730 31.787106 0.000000
18.270470 31.787106 0.000000
18.585213 31.787106 0.000000
18.899952 31.787106 0.000000
-7.223550 31.472364 0.000000
-6.908809 31.472364 0.000000
-6.594068 31.472364 0.012155
-6.279327 31.472364 0.010689
-5.964586 31.472364 0.010708
-5.649845 31.472364 0.010511
-5.335104 31.472364 0.010360
-5.020363 31.472364 0.010728
-4.705622 31.472364 0.011269
-4.390881 31.472364 0.011448
-4.076140 31.472364 0.011516
-3.761399 31.472364 0.011324
-3.446658 31.472364 0.011090
-3.131917 31.472364 0.011083
-2.817176 31.472364 0.010964
-2.502435 31.472364 0.010642
-2.187694 31.472364 0.010347
-1.872953 31.472364 0.010430
-1.558212 31.472364 0.010357
-1.243471 31.472364 0.010027
-0.928730 31.472364 0.009914
-0.613989 31.472364 0.010116
-0.299248 31.472364 0.010291
0.015493 31.472364 0.010212
0.330234 31.472364 0.009981
0.644975 31.472364 0.009902
0.959716 31.472364 0.010279
1.274457 31.472364 0.010915
1.589198 31.472364 0.011277
1.903938 31.472364 0.010962
2.218679 31.472364 0.010555
2.533421 31.472364 0.010093
2.848162 31.472364 0.009618
3.162903 31.472364 0.009403
3.477644 31.472364 0.009427
3.792385 31.472364 0.009543
4.107125 31.472364 0.009781
4.421866 31.472364 0.009803
4.736608 31.472364 0.010005
5.051349 31.472364 0.010303
5.366090 31.472364 0.010777
5.680831 31.472364 0.011455
5.995571 31.472364 0.012360
6.310312 31.472364 0.013712
6.625053 31.472364 0.015712
6.939795 31.472364 0.017970
7.254536 31.472364 0.020660
7.569277 31.472364 0.024834
7.884017 31.472364 0.032844
8.198758 31.472364 0.044312
8.513499 31.472364 0.064907
8.828240 31.472364 0.097240
9.142982 31.472364 0.145003
9.457723 31.472364 0.205678
9.772464 31.472364 0.289522
10.087205 31.472364 0.392602
10.401946 31.472364 0.496471
10.716687 31.472364 0.619815
11.031426 31.472364 0.756853
11.346168 31.472364 0.899006
11.660909 31.472364 1.030422
11.975650 31.472364 1.167262
12.290391 31.472364 1.310351
12.605132 31.472364 1.401455
12.919873 31.472364 1.463792
13.234614 31.472364 1.524843
13.549356 31.472364 1.565543
13.864097 31.472364 1.587493
14.178838 31.472364 1.558419
14.493579 31.472364 1.516249
14.808320 31.472364 1.564734
15.123059 31.472364 1.725125
15.437800 31.472364 2.321646
15.752542 31.472364 3.464915
16.067284 31.472364 0.000000
16.382023 31.472364 0.000000
16.696766 31.472364 0.000000
17.011505 31.472364 0.000000
17.326248 31.472364 0.000000
17.640987 31.472364 0.000000
17.955730 31.472364 0.000000
18.270470 31.472364 0.000000
18.585213 31.472364 0.000000
18.899952 31.472364 0.000000
-7.223550 31.157625 0.000000
-6.908809 31.157625 0.000000
-6.594068 31.157625 0.012240
-6.279327 31.157625 0.010643
-5.964586 31.157625 0.010576
-5.649845 31.157625 0.010452
-5.335104 31.157625 0.010481
-5.020363 31.157625 0.010932
-4.705622 31.157625 0.011390
-4.390881 31.157625 0.011517
-4.076140 31.157625 0.011451
-3.761399 31.157625 0.011299
-3.446658 31.157625 0.011062
-3.131917 31.157625 0.010907
-2.817176 31.157625 0.010913
-2.502435 31.157625 0.010656
-2.187694 31.157625 0.010461
-1.872953 31.157625 0.010457
-1.558212 31.157625 0.010307
-1.243471 31.157625 0.010103
-0.928730 31.157625 0.010106
-0.613989 31.157625 0.010226
-0.299248 31.157625 0.010218
0.015493 31.157625 0.010269
0.330234 31.157625 0.010068
0.644975 31.157625 0.010154
0.959716 31.157625 0.010464
1.274457 31.157625 0.011028
1.589198 31.157625 0.011270
1.903938 31.157625 0.010808
2.218679 31.157625 0.010379
2.533421 31.157625 0.010097
2.848162 31.157625 0.009779
3.162903 31.157625 0.009594
3.477644 31.157625 0.009569
3.792385 31.157625 0.009632
4.107125 31.157625 0.009802
4.421866 31.157625 0.009763
4.736608 31.157625 0.009941
5.051349 31.157625 0.010232
5.366090 31.157625 0.010874
5.680831 31.157625 0.011691
5.995571 31.157625 0.012663
6.310312 31.157625 0.013889
6.625053 31.157625 0.015598
6.939795 31.157625 0.017294
7.254536 31.157625 0.020000
7.569277 31.157625 0.024522
7.884017 31.157625 0.031865
8.198758 31.157625 0.044682
8.513499 31.157625 0.066250
8.828240 31.157625 0.100407
9.142982 31.157625 0.149945
9.457723 31.157625 0.215256
9.772464 31.157625 0.291397
10.087205 31.157625 0.392611
10.401946 31.157625 0.497051
10.716687 31.157625 0.627032
11.031426 31.157625 0.762191
11.346168 31.157625 0.909776
11.660909 31.157625 1.043932
11.975650 31.157625 1.175111
12.290391 31.157625 1.298176
12.605132 31.157625 1.403433
12.919873 31.157625 1.473433
13.234614 31.157625 1.543723
13.549356 31.157625 1.589749
13.864097 31.157625 1.573688
14.178838 31.157625 1.583536
14.493579 31.157625 1.534528
14.808320 31.157625 1.577313
15.123059 31.157625 1.674779
15.437800 31.157625 2.319813
15.752542 31.157625 3.382347
16.067284 31.157625 0.000000
16.382023 31.157625 0.000000
16.696766 31.157625 0.000000
17.011505 31.157625 0.000000
17.326248 31.157625 0.000000
17.640987 31.157625 0.000000
17.955730 31.157625 0.000000
18.270470 31.157625 0.000000
18.585213 31.157625 0.000000
18.899952 31.157625 0.000000
-7.223550 30.842884 0.000000
-6.908809 30.842884 0.000000
-6.594068 30.842884 0.012255
-6.279327 30.842884 0.010623
-5.964586 30.842884 0.010502
-5.649845 30.842884 0.010500
-5.335104 30.842884 0.010718
-5.020363 30.842884 0.011106
-4.705622 30.842884 0.011432
-4.390881 30.842884 0.011647
-4.076140 30.842884 0.011487
-3.761399 30.842884 0.011240
-3.446658 30.842884 0.010924
-3.131917 30.842884 0.010746
-2.817176 30.842884 0.010703
-2.502435 30.842884 0.010491
-2.187694 30.842884 0.010363
-1.872953 30.842884 0.010387
-1.558212 30.842884 0.010399
-1.243471 30.842884 0.010230
-0.928730 30.842884 0.010228
-0.613989 30.842884 0.010271
-0.299248 30.842884 0.010188
0.015493 30.842884 0.010312
0.330234 30.842884 0.010261
0.644975 30.842884 0.010455
0.959716 30.842884 0.010722
1.274457 30.842884 0.011020
1.589198 30.842884 0.011047
1.903938 30.842884 0.010632
2.218679 30.842884 0.010269
2.533421 30.842884 0.010113
2.848162 30.842884 0.009842
3.162903 30.842884 0.009810
3.477644 30.842884 0.009831
3.792385 30.842884 0.009817
4.107125 30.842884 0.009875
4.421866 30.842884 0.009792
4.736608 30.842884 0.009948
5.051349 30.842884 0.010423
5.366090 30.842884 0.011154
5.680831 30.842884 0.011979
5.995571 30.842884 0.012868
6.310312 30.842884 0.014009
6.625053 30.842884 0.015479
6.939795 30.842884 0.016903
7.254536 30.842884 0.019289
7.569277 30.842884 0.024529
7.884017 30.842884 0.031742
8.198758 30.842884 0.044627
8.513499 30.842884 0.067194
8.828240 30.842884 0.100448
9.142982 30.842884 0.155602
9.457723 30.842884 0.218546
9.772464 30.842884 0.292525
10.087205 30.842884 0.396768
10.401946 30.842884 0.488425
10.716687 30.842884 0.628948
11.031426 30.842884 0.783357
11.346168 30.842884 0.908808
11.660909 30.842884 1.054372
11.975650 30.842884 1.162187
12.290391 30.842884 1.285973
12.605132 30.842884 1.399339
12.919873 30.842884 1.499766
13.234614 30.842884 1.561753
13.549356 30.842884 1.573830
13.864097 30.842884 1.564961
14.178838 30.842884 1.593413
14.493579 30.842884 1.566087
14.808320 30.842884 1.605884
15.123059 30.842884 1.758174
15.437800 30.842884 2.445845
15.752542 30.842884 3.289670
16.067284 30.842884 0.000000
16.382023 30.842884 0.000000
16.696766 30.842884 0.000000
17.011505 30.842884 0.000000
17.326248 30.842884 0.000000
17.640987 30.842884 0.000000
17.955730 30.842884 0.000000
18.270470 30.842884 0.000000
18.585213 30.842884 0.000000
18.899952 30.842884 0.000000
-7.223550 30.528143 0.000000
-6.908809 30.528143 0.019533
-6.594068 30.528143 0.012197
-6.279327 30.528143 0.010656
-5.964586 30.528143 0.010638
-5.649845 30.528143 0.010736
-5.335104 30.528143 0.011017
-5.020363 30.528143 0.011318
-4.705622 30.528143 0.011571
-4.390881 30.528143 0.011762
-4.076140 30.528143 0.011605
-3.761399 30.528143 0.011148
-3.446658 30.528143 0.010672
-3.131917 30.528143 0.010636
-2.817176 30.528143 0.010474
-2.502435 30.528143 0.010371
-2.187694 30.528143 0.010230
-1.872953 30.528143 0.010300
-1.558212 30.528143 0.010390
-1.243471 30.528143 0.010292
-0.928730 30.528143 0.010204
-0.613989 30.528143 0.010225
-0.299248 30.528143 0.010305
0.015493 30.528143 0.010520
0.330234 30.528143 0.010618
0.644975 30.528143 0.010800
0.959716 30.528143 0.010893
1.274457 30.528143 0.010821
1.589198 30.528143 0.010682
1.903938 30.528143 0.010365
2.218679 30.528143 0.010202
2.533421 30.528143 0.010032
2.848162 30.528143 0.009774
3.162903 30.528143 0.009752
3.477644 30.528143 0.009889
3.792385 30.528143 0.009919
4.107125 30.528143 0.009910
4.421866 30.528143 0.009885
4.736608 30.528143 0.010198
5.051349 30.528143 0.010738
5.366090 30.528143 0.011551
5.680831 30.528143 0.012289
5.995571 30.528143 0.012905
6.310312 30.528143 0.013828
6.625053 30.528143 0.015010
6.939795 30.528143 0.016385
7.254536 30.528143 0.019172
7.569277 30.528143 0.024132
7.884017 30.528143 0.032647
8.198758 30.528143 0.045648
8.513499 30.528143 0.065280
8.828240 30.528143 0.105392
9.142982 30.528143 0.156227
9.457723 30.528143 0.221004
9.772464 30.528143 0.296765
10.087205 30.528143 0.395199
10.401946 30.528143 0.499592
10.716687 30.528143 0.627287
11.031426 30.528143 0.773732
11.346168 30.528143 0.903786
11.660909 30.528143 1.027831
11.975650 30.528143 1.151714
12.290391 30.528143 1.300487
12.605132 30.528143 1.432314
12.919873 30.528143 1.504450
13.234614 30.528143 1.572367
13.549356 30.528143 1.604264
13.864097 30.528143 1.563355
14.178838 30.528143 1.573047
14.493579 30.528143 1.611685
14.808320 30.528143 1.604040
15.123059 30.528143 1.806856
15.437800 30.528143 2.452395
15.752542 30.528143 3.465381
16.067284 30.528143 0.000000
16.382023 30.528143 0.000000
16.696766 30.528143 0.000000
17.011505 30.528143 0.000000
17.326248 30.528143 0.000000
17.640987 30.528143 0.000000
17.955730 30.528143 0.000000
18.270470 30.528143 0.000000
18.585213 30.528143 0.000000
18.899952 30.528143 0.000000
-7.223550 30.213402 0.000000
-6.908809 30.213402 0.024295
-6.594068 30.213402 0.012157
-6.279327 30.213402 0.010695
-5.964586 30.213402 0.010855
-5.649845 30.213402 0.011050
-5.335104 30.213402 0.011289
-5.020363 30.213402 0.011475
-4.705622 30.213402 0.011653
-4.390881 30.213402 0.011771
-4.076140 30.213402 0.011616
-3.761399 30.213402 0.011063
-3.446658 30.213402 0.010448
-3.131917 30.213402 0.010536
-2.817176 30.213402 0.010371
-2.502435 30.213402 0.010346
-2.187694 30.213402 0.010253
-1.872953 30.213402 0.010233
-1.558212 30.213402 0.010306
-1.243471 30.213402 0.010257
-0.928730 30.213402 0.010141
-0.613989 30.213402 0.010129
-0.299248 30.213402 0.010545
0.015493 30.213402 0.010808
0.330234 30.213402 0.010969
0.644975 30.213402 0.011050
0.959716 30.213402 0.010918
1.274457 30.213402 0.010555
1.589198 30.213402 0.010225
1.903938 30.213402 0.010079
2.218679 30.213402 0.010151
2.533421 30.213402 0.010069
2.848162 30.213402 0.009781
3.162903 30.213402 0.009687
3.477644 30.213402 0.009879
3.792385 30.213402 0.010028
4.107125 30.213402 0.009911
4.421866 30.213402 0.009998
4.736608 30.213402 0.010473
5.051349 30.213402 0.011071
5.366090 30.213402 0.011775
5.680831 30.213402 0.012376
5.995571 30.213402 0.012807
6.310312 30.213402 0.013436
6.625053 30.213402 0.014510
6.939795 30.213402 0.016223
7.254536 30.213402 0.018915
7.569277 30.213402 0.024603
7.884017 30.213402 0.033860
8.198758 30.213402 0.046171
8.513499 30.213402 0.068413
8.828240 30.213402 0.104239
9.142982 30.213402 0.153128
9.457723 30.213402 0.215378
9.772464 30.213402 0.299024
10.087205 30.213402 0.401830
10.401946 30.213402 0.513718
10.716687 30.213402 0.633930
11.031426 30.213402 0.791523
11.346168 30.213402 0.915315
11.660909 30.213402 1.046426
11.975650 30.213402 1.180761
12.290391 30.213402 1.304457
12.605132 30.213402 1.405342
12.919873 30.213402 1.492178
13.234614 30.213402 1.579403
13.549356 30.213402 1.583461
13.864097 30.213402 1.572632
14.178838 30.213402 1.559264
14.493579 30.213402 1.601914
14.808320 30.213402 1.625833
15.123059 30.213402 1.783601
15.437800 30.213402 2.470339
15.752542 30.213402 3.594372
16.067284 30.213402 0.000000
16.382023 30.213402 0.000000
16.696766 30.213402 0.000000
17.011505 30.213402 0.000000
17.326248 30.213402 0.000000
17.640987 30.213402 0.000000
17.955730 30.213402 0.000000
18.270470 30.213402 0.000000
18.585213 30.213402 0.000000
18.899952 30.213402 0.000000
-7.223550 29.898661 0.000000
-6.908809 29.898661 0.020062
-6.594068 29.898661 0.012176
-6.279327 29.898661 0.010819
-5.964586 29.898661 0.011152
-5.649845 29.898661 0.011507
-5.335104 29.898661 0.011476
-5.020363 29.898661 0.011571
-4.705622 29.898661 0.011680
-4.390881 29.898661 0.011569
-4.076140 29.898661 0.011506
-3.761399 29.898661 0.011028
-3.446658 29.898661 0.010426
-3.131917 29.898661 0.010560
-2.817176 29.898661 0.010532
-2.502435 29.898661 0.010441
-2.187694 29.898661 0.010362
-1.872953 29.898661 0.010375
-1.558212 29.898661 0.010318
-1.243471 29.898661 0.010218
-0.928730 29.898661 0.010141
-0.613989 29.898661 0.010272
-0.299248 29.898661 0.010899
0.015493 29.898661 0.011156
0.330234 29.898661 0.011257
0.644975 29.898661 0.011168
0.959716 29.898661 0.010729
1.274457 29.898661 0.010272
1.589198 29.898661 0.009958
1.903938 29.898661 0.009894
2.218679 29.898661 0.010071
2.533421 29.898661 0.010019
2.848162 29.898661 0.009763
3.162903 29.898661 0.009582
3.477644 29.898661 0.009743
3.792385 29.898661 0.009986
4.107125 29.898661 0.010002
4.421866 29.898661 0.010248
4.736608 29.898661 0.010773
5.051349 29.898661 0.011301
5.366090 29.898661 0.011787
5.680831 29.898661 0.012183
5.995571 29.898661 0.012489
6.310312 29.898661 0.013009
6.625053 29.898661 0.014290
6.939795 29.898661 0.016291
7.254536 29.898661 0.018781
7.569277 29.898661 0.024629
7.884017 29.898661 0.033423
8.198758 29.898661 0.046388
8.513499 29.898661 0.069863
8.828240 29.898661 0.104861
9.142982 29.898661 0.152373
9.457723 29.898661 0.214947
9.772464 29.898661 0.297834
10.087205 29.898661 0.392118
10.401946 29.898661 0.510810
10.716687 29.898661 0.634200
11.031426 29.898661 0.777954
11.346168 29.898661 0.918257
11.660909 29.898661 1.065492
11.975650 29.898661 1.205255
12.290391 29.898661 1.303431
12.605132 29.898661 1.406538
12.919873 29.898661 1.501065
13.234614 29.898661 1.548574
13.549356 29.898661 1.595966
13.864097 29.898661 1.596791
14.178838 29.898661 1.573308
14.493579 29.898661 1.606945
14.808320 29.898661 1.626154
15.123059 29.898661 1.849586
15.437800 29.898661 2.554517
15.752542 29.898661 3.636698
16.067284 29.898661 0.000000
16.382023 29.898661 0.000000
16.696766 29.898661 0.000000
17.011505 29.898661 0.000000
17.326248 29.898661 0.000000
17.640987 29.898661 0.000000
17.955730 29.898661 0.000000
18.270470 29.898661 0.000000
18.585213 29.898661 0.000000
18.899952 29.898661 0.000000
-7.223550 29.583920 0.000000
-6.908809 29.583920 0.017038
-6.594068 29.583920 0.012263
-6.279327 29.583920 0.011042
-5.964586 29.583920 0.011487
-5.649845 29.583920 0.011789
-5.335104 29.583920 0.011594
-5.020363 29.583920 0.011575
-4.705622 29.583920 0.011477
-4.390881 29.583920 0.011169
-4.076140 29.583920 0.011171
-3.761399 29.583920 0.010950
-3.446658 29.583920 0.010502
-3.131917 29.583920 0.010700
-2.817176 29.583920 0.010823
-2.502435 29.583920 0.010678
-2.187694 29.583920 0.010622
-1.872953 29.583920 0.010604
-1.558212 29.583920 0.010457
-1.243471 29.583920 0.010334
-0.928730 29.583920 0.010458
-0.613989 29.583920 0.010639
-0.299248 29.583920 0.011246
0.015493 29.583920 0.011444
0.330234 29.583920 0.011325
0.644975 29.583920 0.010927
0.959716 29.583920 0.010387
1.274457 29.583920 0.010074
1.589198 29.583920 0.009938
1.903938 29.583920 0.009851
2.218679 29.583920 0.009994
2.533421 29.583920 0.009972
2.848162 29.583920 0.009761
3.162903 29.583920 0.009588
3.477644 29.583920 0.009637
3.792385 29.583920 0.009882
4.107125 29.583920 0.010083
4.421866 29.583920 0.010550
4.736608 29.583920 0.011076
5.051349 29.583920 0.011318
5.366090 29.583920 0.011551
5.680831 29.583920 0.011781
5.995571 29.583920 0.012247
6.310312 29.583920 0.012823
6.625053 29.583920 0.014027
6.939795 29.583920 0.015958
7.254536 29.583920 0.018686
7.569277 29.583920 0.024292
7.884017 29.583920 0.033283
8.198758 29.583920 0.046871
8.513499 29.583920 0.070315
8.828240 29.583920 0.103480
9.142982 29.583920 0.151307
9.457723 29.583920 0.217814
9.772464 29.583920 0.300127
10.087205 29.583920 0.396272
10.401946 29.583920 0.510478
10.716687 29.583920 0.626182
11.031426 29.583920 0.767271
11.346168 29.583920 0.902695
11.660909 29.583920 1.061658
11.975650 29.583920 1.187388
12.290391 29.583920 1.306460
12.605132 29.583920 1.402092
12.919873 29.583920 1.531034
13.234614 29.583920 1.577815
13.549356 29.583920 1.550563
13.864097 29.583920 1.571952
14.178838 29.583920 1.598391
14.493579 29.583920 1.597849
14.808320 29.583920 1.630638
15.123059 29.583920 1.796921
15.437800 29.583920 2.429709
15.752542 29.583920 3.426975
16.067284 29.583920 0.000000
16.382023 29.583920 0.000000
16.696766 29.583920 0.000000
17.011505 29.583920 0.000000
17.326248 29.583920 0.000000
17.640987 29.583920 0.000000
17.955730 29.583920 0.000000
18.270470 29.583920 0.000000
18.585213 29.583920 0.000000
18.899952 29.583920 0.000000
-7.223550 29.269178 0.000000
-6.908809 29.269178 0.017058
-6.594068 29.269178 0.012461
-6.279327 29.269178 0.011373
-5.964586 29.269178 0.011773
-5.649845 29.269178 0.011900
-5.335104 29.269178 0.011615
-5.020363 29.269178 0.011519
-4.705622 29.269178 0.011229
-4.390881 29.269178 0.010770
-4.076140 29.269178 0.010857
-3.761399 29.269178 0.010884
-3.446658 29.269178 0.010686
-3.131917 29.269178 0.010912
-2.817176 29.269178 0.010961
-2.502435 29.269178 0.010795
-2.187694 29.269178 0.010766
-1.872953 29.269178 0.010827
-1.558212 29.269178 0.010655
-1.243471 29.269178 0.010646
-0.928730 29.269178 0.010992
-0.613989 29.269178 0.011091
-0.299248 29.269178 0.011382
0.015493 29.269178 0.011490
0.330234 29.269178 0.011084
0.644975 29.269178 0.010548
0.959716 29.269178 0.010109
1.274457 29.269178 0.009986
1.589198 29.269178 0.009966
1.903938 29.269178 0.009956
2.218679 29.269178 0.010029
2.533421 29.269178 0.010092
2.848162 29.269178 0.009870
3.162903 29.269178 0.009711
3.477644 29.269178 0.009619
3.792385 29.269178 0.009861
4.107125 29.269178 0.010211
4.421866 29.269178 0.010747
4.736608 29.269178 0.011150
5.051349 29.269178 0.011187
5.366090 29.269178 0.011236
5.680831 29.269178 0.011378
5.995571 29.269178 0.011967
6.310312 29.269178 0.012574
6.625053 29.269178 0.013746
6.939795 29.269178 0.015599
7.254536 29.269178 0.018531
7.569277 29.269178 0.024039
7.884017 29.269178 0.032848
8.198758 29.269178 0.047756
8.513499 29.269178 0.071770
8.828240 29.269178 0.103628
9.142982 29.269178 0.148721
9.457723 29.269178 0.217762
9.772464 29.269178 0.293514
10.087205 29.269178 0.394906
10.401946 29.269178 0.513942
10.716687 29.269178 0.631407
11.031426 29.269178 0.761940
11.346168 29.269178 0.898713
11.660909 29.269178 1.065600
11.975650 29.269178 1.171337
12.290391 29.269178 1.284231
12.605132 29.269178 1.397460
12.919873 29.269178 1.537941
13.234614 29.269178 1.619520
13.549356 29.269178 1.588493
13.864097 29.269178 1.586286
14.178838 29.269178 1.583023
14.493579 29.269178 1.624572
14.808320 29.269178 1.622973
15.123059 29.269178 1.843837
15.437800 29.269178 2.481406
15.752542 29.269178 3.646371
16.067284 29.269178 0.000000
16.382023 29.269178 0.000000
16.696766 29.269178 0.000000
17.011505 29.269178 0.000000
17.326248 29.269178 0.000000
17.640987 29.269178 0.000000
17.955730 29.269178 0.000000
18.270470 29.269178 0.000000
18.585213 29.269178 0.000000
18.899952 29.269178 0.000000
-7.223550 28.954437 0.000000
-6.908809 28.954437 0.017871
-6.594068 28.954437 0.012588
-6.279327 28.954437 0.011568
-5.964586 28.954437 0.011911
-5.649845 28.954437 0.011878
-5.335104 28.954437 0.011539
-5.020363 28.954437 0.011274
-4.705622 28.954437 0.010927
-4.390881 28.954437 0.010709
-4.076140 28.954437 0.010757
-3.761399 28.954437 0.010807
-3.446658 28.954437 0.010817
-3.131917 28.954437 0.010949
-2.817176 28.954437 0.010881
-2.502435 28.954437 0.010694
-2.187694 28.954437 0.010706
-1.872953 28.954437 0.010909
-1.558212 28.954437 0.010789
-1.243471 28.954437 0.011009
-0.928730 28.954437 0.011441
-0.613989 28.954437 0.011324
-0.299248 28.954437 0.011282
0.015493 28.954437 0.011180
0.330234 28.954437 0.010713
0.644975 28.954437 0.010340
0.959716 28.954437 0.010008
1.274457 28.954437 0.010041
1.589198 28.954437 0.010068
1.903938 28.954437 0.010113
2.218679 28.954437 0.010090
2.533421 28.954437 0.010154
2.848162 28.954437 0.010010
3.162903 28.954437 0.009923
3.477644 28.954437 0.009808
3.792385 28.954437 0.009984
4.107125 28.954437 0.010355
4.421866 28.954437 0.010814
4.736608 28.954437 0.010922
5.051349 28.954437 0.010709
5.366090 28.954437 0.010742
5.680831 28.954437 0.011016
5.995571 28.954437 0.011758
6.310312 28.954437 0.012423
6.625053 28.954437 0.013555
6.939795 28.954437 0.015313
7.254536 28.954437 0.018434
7.569277 28.954437 0.024303
7.884017 28.954437 0.033129
8.198758 28.954437 0.049531
8.513499 28.954437 0.072646
8.828240 28.954437 0.103677
9.142982 28.954437 0.149189
9.457723 28.954437 0.216383
9.772464 28.954437 0.295951
10.087205 28.954437 0.394454
10.401946 28.954437 0.504884
10.716687 28.954437 0.643561
11.031426 28.954437 0.773111
11.346168 28.954437 0.903242
11.660909 28.954437 1.056912
11.975650 28.954437 1.176460
12.290391 28.954437 1.265267
12.605132 28.954437 1.396150
12.919873 28.954437 1.512997
13.234614 28.954437 1.586011
13.549356 28.954437 1.613569
13.864097 28.954437 1.618240
14.178838 28.954437 1.609154
14.493579 28.954437 1.601901
14.808320 28.954437 1.625836
15.123059 28.954437 1.804946
15.437800 28.954437 2.449146
15.752542 28.954437 3.713193
16.067284 28.954437 0.000000
16.382023 28.954437 0.000000
16.696766 28.954437 0.000000
17.011505 28.954437 0.000000
17.326248 28.954437 0.000000
17.640987 28.954437 0.000000
17.955730 28.954437 0.000000
18.270470 28.954437 0.000000
18.585213 28.954437 0.000000
18.899952 28.954437 0.000000
-7.223550 28.639696 0.000000
-6.908809 28.639696 0.018222
-6.594068 28.639696 0.012704
-6.279327 28.639696 0.011615
-5.964586 28.639696 0.011846
-5.649845 28.639696 0.011624
-5.335104 28.639696 0.011245
-5.020363 28.639696 0.010913
-4.705622 28.639696 0.010705
-4.390881 28.639696 0.010774
-4.076140 28.639696 0.010792
-3.761399 28.639696 0.010779
-3.446658 28.639696 0.010802
-3.131917 28.639696 0.010948
-2.817176 28.639696 0.010671
-2.502435 28.639696 0.010427
-2.187694 28.639696 0.010491
-1.872953 28.639696 0.010877
-1.558212 28.639696 0.010956
-1.243471 28.639696 0.011227
-0.928730 28.639696 0.011478
-0.613989 28.639696 0.011199
-0.299248 28.639696 0.011009
0.015493 28.639696 0.010805
0.330234 28.639696 0.010417
0.644975 28.639696 0.010156
0.959716 28.639696 0.010094
1.274457 28.639696 0.010107
1.589198 28.639696 0.010133
1.903938 28.639696 0.010179
2.218679 28.639696 0.010120
2.533421 28.639696 0.010189
2.848162 28.639696 0.010076
3.162903 28.639696 0.010131
3.477644 28.639696 0.010050
3.792385 28.639696 0.010199
4.107125 28.639696 0.010465
4.421866 28.639696 0.010704
4.736608 28.639696 0.010626
5.051349 28.639696 0.010299
5.366090 28.639696 0.010405
5.680831 28.639696 0.010809
5.995571 28.639696 0.011433
6.310312 28.639696 0.012244
6.625053 28.639696 0.013403
6.939795 28.639696 0.015610
7.254536 28.639696 0.018787
7.569277 28.639696 0.024861
7.884017 28.639696 0.033869
8.198758 28.639696 0.047896
8.513499 28.639696 0.070357
8.828240 28.639696 0.106048
9.142982 28.639696 0.154574
9.457723 28.639696 0.221168
9.772464 28.639696 0.298466
10.087205 28.639696 0.395320
10.401946 28.639696 0.510328
10.716687 28.639696 0.641197
11.031426 28.639696 0.782774
11.346168 28.639696 0.891192
11.660909 28.639696 1.044948
11.975650 28.639696 1.163798
12.290391 28.639696 1.245610
12.605132 28.639696 1.349776
12.919873 28.639696 1.500731
13.234614 28.639696 1.577968
13.549356 28.639696 1.622735
13.864097 28.639696 1.634016
14.178838 28.639696 1.613959
14.493579 28.639696 1.590387
14.808320 28.639696 1.602388
15.123059 28.639696 1.840243
15.437800 28.639696 2.427986
15.752542 28.639696 3.629496
16.067284 28.639696 0.000000
16.382023 28.639696 0.000000
16.696766 28.639696 0.000000
17.011505 28.639696 0.000000
17.326248 28.639696 0.000000
17.640987 28.639696 0.000000
17.955730 28.639696 0.000000
18.270470 28.639696 0.000000
18.585213 28.639696 0.000000
18.899952 28.639696 0.000000
-7.223550 28.324955 0.000000
-6.908809 28.324955 0.018401
-6.594068 28.324955 0.012674
-6.279327 28.324955 0.011522
-5.964586 28.324955 0.011594
-5.649845 28.324955 0.011286
-5.335104 28.324955 0.010933
-5.020363 28.324955 0.010740
-4.705622 28.324955 0.010627
-4.390881 28.324955 0.010852
-4.076140 28.324955 0.010863
-3.761399 28.324955 0.010763
-3.446658 28.324955 0.010695
-3.131917 28.324955 0.010959
-2.817176 28.324955 0.010550
-2.502435 28.324955 0.010309
-2.187694 28.324955 0.010506
-1.872953 28.324955 0.010946
-1.558212 28.324955 0.011105
-1.243471 28.324955 0.011226
-0.928730 28.324955 0.011192
-0.613989 28.324955 0.010893
-0.299248 28.324955 0.010774
0.015493 28.324955 0.010496
0.330234 28.324955 0.010256
0.644975 28.324955 0.010161
0.959716 28.324955 0.010219
1.274457 28.324955 0.010145
1.589198 28.324955 0.010097
1.903938 28.324955 0.010058
2.218679 28.324955 0.010105
2.533421 28.324955 0.010115
2.848162 28.324955 0.009992
3.162903 28.324955 0.010235
3.477644 28.324955 0.010206
3.792385 28.324955 0.010330
4.107125 28.324955 0.010479
4.421866 28.324955 0.010513
4.736608 28.324955 0.010301
5.051349 28.324955 0.010068
5.366090 28.324955 0.010303
5.680831 28.324955 0.010748
5.995571 28.324955 0.011264
6.310312 28.324955 0.011952
6.625053 28.324955 0.013209
6.939795 28.324955 0.015733
7.254536 28.324955 0.019224
7.569277 28.324955 0.025353
7.884017 28.324955 0.033528
8.198758 28.324955 0.047854
8.513499 28.324955 0.067945
8.828240 28.324955 0.104135
9.142982 28.324955 0.157413
9.457723 28.324955 0.216155
9.772464 28.324955 0.295262
10.087205 28.324955 0.408719
10.401946 28.324955 0.511362
10.716687 28.324955 0.640540
11.031426 28.324955 0.778422
11.346168 28.324955 0.915466
11.660909 28.324955 1.039885
11.975650 28.324955 1.159296
12.290391 28.324955 1.278601
12.605132 28.324955 1.375367
12.919873 28.324955 1.506947
13.234614 28.324955 1.535232
13.549356 28.324955 1.623508
13.864097 28.324955 1.624781
14.178838 28.324955 1.580803
14.493579 28.324955 1.599740
14.808320 28.324955 1.668703
15.123059 28.324955 1.781043
15.437800 28.324955 2.422931
15.752542 28.324955 3.523395
16.067284 28.324955 0.000000
16.382023 28.324955 0.000000
16.696766 28.324955 0.000000
17.011505 28.324955 0.000000
17.326248 28.324955 0.000000
17.640987 28.324955 0.000000
17.955730 28.324955 0.000000
18.270470 28.324955 0.000000
18.585213 28.324955 0.000000
18.899952 28.324955 0.000000
-7.223550 28.010214 0.000000
-6.908809 28.010214 0.018178
-6.594068 28.010214 0.012487
-6.279327 28.010214 0.011255
-5.964586 28.010214 0.011146
-5.649845 28.010214 0.010987
-5.335104 28.010214 0.010843
-5.020363 28.010214 0.010843
-4.705622 28.010214 0.010923
-4.390881 28.010214 0.010955
-4.076140 28.010214 0.010932
-3.761399 28.010214 0.010811
-3.446658 28.010214 0.010707
-3.131917 28.010214 0.010964
-2.817176 28.010214 0.010612
-2.502435 28.010214 0.010421
-2.187694 28.010214 0.010738
-1.872953 28.010214 0.011253
-1.558212 28.010214 0.011335
-1.243471 28.010214 0.011157
-0.928730 28.010214 0.010823
-0.613989 28.010214 0.010541
-0.299248 28.010214 0.010619
0.015493 28.010214 0.010365
0.330234 28.010214 0.010227
0.644975 28.010214 0.010311
0.959716 28.010214 0.010275
1.274457 28.010214 0.010195
1.589198 28.010214 0.010017
1.903938 28.010214 0.009937
2.218679 28.010214 0.009966
2.533421 28.010214 0.009901
2.848162 28.010214 0.009896
3.162903 28.010214 0.010165
3.477644 28.010214 0.010209
3.792385 28.010214 0.010253
4.107125 28.010214 0.010317
4.421866 28.010214 0.010279
4.736608 28.010214 0.010075
5.051349 28.010214 0.010035
5.366090 28.010214 0.010352
5.680831 28.010214 0.010693
5.995571 28.010214 0.011125
6.310312 28.010214 0.011862
6.625053 28.010214 0.013313
6.939795 28.010214 0.015737
7.254536 28.010214 0.019348
7.569277 28.010214 0.024845
7.884017 28.010214 0.033377
8.198758 28.010214 0.047360
8.513499 28.010214 0.070084
8.828240 28.010214 0.104307
9.142982 28.010214 0.155231
9.457723 28.010214 0.222460
9.772464 28.010214 0.300610
10.087205 28.010214 0.395501
10.401946 28.010214 0.518520
10.716687 28.010214 0.639856
11.031426 28.010214 0.784480
11.346168 28.010214 0.916281
11.660909 28.010214 1.043433
11.975650 28.010214 1.163681
12.290391 28.010214 1.273994
12.605132 28.010214 1.390653
12.919873 28.010214 1.489712
13.234614 28.010214 1.522805
13.549356 28.010214 1.584934
13.864097 28.010214 1.613559
14.178838 28.010214 1.618031
14.493579 28.010214 1.587642
14.808320 28.010214 1.618473
15.123059 28.010214 1.827921
15.437800 28.010214 2.315531
15.752542 28.010214 3.422334
16.067284 28.010214 0.000000
16.382023 28.010214 0.000000
16.696766 28.010214 0.000000
17.011505 28.010214 0.000000
17.326248 28.010214 0.000000
17.640987 28.010214 0.000000
17.955730 28.010214 0.000000
18.270470 28.010214 0.000000
18.585213 28.010214 0.000000
18.899952 28.010214 0.000000
-7.223550 27.695473 0.000000
-6.908809 27.695473 0.018092
-6.594068 27.695473 0.012268
-6.279327 27.695473 0.010978
-5.964586 27.695473 0.010875
-5.649845 27.695473 0.010839
-5.335104 27.695473 0.010976
-5.020363 27.695473 0.011237
-4.705622 27.695473 0.011261
-4.390881 27.695473 0.010955
-4.076140 27.695473 0.010945
-3.761399 27.695473 0.010852
-3.446658 27.695473 0.010840
-3.131917 27.695473 0.011024
-2.817176 27.695473 0.010851
-2.502435 27.695473 0.010751
-2.187694 27.695473 0.010973
-1.872953 27.695473 0.011420
-1.558212 27.695473 0.011411
-1.243471 27.695473 0.011034
-0.928730 27.695473 0.010643
-0.613989 27.695473 0.010389
-0.299248 27.695473 0.010554
0.015493 27.695473 0.010381
0.330234 27.695473 0.010234
0.644975 27.695473 0.010341
0.959716 27.695473 0.010242
1.274457 27.695473 0.010207
1.589198 27.695473 0.009979
1.903938 27.695473 0.009891
2.218679 27.695473 0.009876
2.533421 27.695473 0.009854
2.848162 27.695473 0.009942
3.162903 27.695473 0.010040
3.477644 27.695473 0.009969
3.792385 27.695473 0.010005
4.107125 27.695473 0.010051
4.421866 27.695473 0.010061
4.736608 27.695473 0.009985
5.051349 27.695473 0.010131
5.366090 27.695473 0.010355
5.680831 27.695473 0.010602
5.995571 27.695473 0.011141
6.310312 27.695473 0.011985
6.625053 27.695473 0.013439
6.939795 27.695473 0.015567
7.254536 27.695473 0.019120
7.569277 27.695473 0.024233
7.884017 27.695473 0.032961
8.198758 27.695473 0.047640
8.513499 27.695473 0.068909
8.828240 27.695473 0.104719
9.142982 27.695473 0.158162
9.457723 27.695473 0.226149
9.772464 27.695473 0.295894
10.087205 27.695473 0.394339
10.401946 27.695473 0.524424
10.716687 27.695473 0.647729
11.031426 27.695473 0.784403
11.346168 27.695473 0.919191
11.660909 27.695473 1.059466
11.975650 27.695473 1.170271
12.290391 27.695473 1.264613
12.605132 27.695473 1.393067
12.919873 27.695473 1.476478
13.234614 27.695473 1.562052
13.549356 27.695473 1.585288
13.864097 27.695473 1.588496
14.178838 27.695473 1.634124
14.493579 27.695473 1.618616
14.808320 27.695473 1.659055
15.123059 27.695473 1.783797
15.437800 27.695473 2.370123
15.752542 27.695473 3.332162
16.067284 27.695473 0.000000
16.382023 27.695473 0.000000
16.696766 27.695473 0.000000
17.011505 27.695473 0.000000
17.326248 27.695473 0.000000
17.640987 27.695473 0.000000
17.955730 27.695473 0.000000
18.270470 27.695473 0.000000
18.585213 27.695473 0.000000
18.899952 27.695473 0.000000
-7.223550 27.380732 0.000000
-6.908809 27.380732 0.017710
-6.594068 27.380732 0.012051
-6.279327 27.380732 0.010908
-5.964586 27.380732 0.010874
-5.649845 27.380732 0.010870
-5.335104 27.380732 0.011232
-5.020363 27.380732 0.011541
-4.705622 27.380732 0.011425
-4.390881 27.380732 0.011000
-4.076140 27.380732 0.010877
-3.761399 27.380732 0.010881
-3.446658 27.380732 0.011125
-3.131917 27.380732 0.011230
-2.817176 27.380732 0.011130
-2.502435 27.380732 0.011088
-2.187694 27.380732 0.011224
-1.872953 27.380732 0.011405
-1.558212 27.380732 0.011307
-1.243471 27.380732 0.011045
-0.928730 27.380732 0.010661
-0.613989 27.380732 0.010340
-0.299248 27.380732 0.010532
0.015493 27.380732 0.010443
0.330234 27.380732 0.010191
0.644975 27.380732 0.010258
0.959716 27.380732 0.010169
1.274457 27.380732 0.010216
1.589198 27.380732 0.010097
1.903938 27.380732 0.009980
2.218679 27.380732 0.010021
2.533421 27.380732 0.010084
2.848162 27.380732 0.010064
3.162903 27.380732 0.009934
3.477644 27.380732 0.009713
3.792385 27.380732 0.009701
4.107125 27.380732 0.009829
4.421866 27.380732 0.009917
4.736608 27.380732 0.009919
5.051349 27.380732 0.010098
5.366090 27.380732 0.010285
5.680831 27.380732 0.010533
5.995571 27.380732 0.011268
6.310312 27.380732 0.012148
6.625053 27.380732 0.013533
6.939795 27.380732 0.015678
7.254536 27.380732 0.018925
7.569277 27.380732 0.024413
7.884017 27.380732 0.032991
8.198758 27.380732 0.048223
8.513499 27.380732 0.069402
8.828240 27.380732 0.104034
9.142982 27.380732 0.158811
9.457723 27.380732 0.223839
9.772464 27.380732 0.298761
10.087205 27.380732 0.400297
10.401946 27.380732 0.519201
10.716687 27.380732 0.649679
11.031426 27.380732 0.801551
11.346168 27.380732 0.920594
11.660909 27.380732 1.045618
11.975650 27.380732 1.190169
12.290391 27.380732 1.276704
12.605132 27.380732 1.392155
12.919873 27.380732 1.493001
13.234614 27.380732 1.567247
13.549356 27.380732 1.628572
13.864097 27.380732 1.659372
14.178838 27.380732 1.654239
14.493579 27.380732 1.661165
14.808320 27.380732 1.685845
15.123059 27.380732 1.856619
15.437800 27.380732 2.325195
15.752542 27.380732 3.156804
16.067284 27.380732 0.000000
16.382023 27.380732 0.000000
16.696766 27.380732 0.000000
17.011505 27.380732 0.000000
17.326248 27.380732 0.000000
17.640987 27.380732 0.000000
17.955730 27.380732 0.000000
18.270470 27.380732 0.000000
18.585213 27.380732 0.000000
18.899952 27.380732 0.000000
-7.223550 27.065992 0.000000
-6.908809 27.065992 0.017296
-6.594068 27.065992 0.011859
-6.279327 27.065992 0.010989
-5.964586 27.065992 0.010991
-5.649845 27.065992 0.010916
-5.335104 27.065992 0.011206
-5.020363 27.065992 0.011327
-4.705622 27.065992 0.011363
-4.390881 27.065992 0.011057
-4.076140 27.065992 0.010804
-3.761399 27.065992 0.010932
-3.446658 27.065992 0.011305
-3.131917 27.065992 0.011463
-2.817176 27.065992 0.011299
-2.502435 27.065992 0.011244
-2.187694 27.065992 0.011232
-1.872953 27.065992 0.011096
-1.558212 27.065992 0.010993
-1.243471 27.065992 0.010992
-0.928730 27.065992 0.010743
-0.613989 27.065992 0.010451
-0.299248 27.065992 0.010534
0.015493 27.065992 0.010373
0.330234 27.065992 0.010127
0.644975 27.065992 0.010152
0.959716 27.065992 0.010113
1.274457 27.065992 0.010275
1.589198 27.065992 0.010260
1.903938 27.065992 0.010191
2.218679 27.065992 0.010267
2.533421 27.065992 0.010317
2.848162 27.065992 0.010151
3.162903 27.065992 0.009900
3.477644 27.065992 0.009670
3.792385 27.065992 0.009552
4.107125 27.065992 0.009653
4.421866 27.065992 0.009866
4.736608 27.065992 0.009838
5.051349 27.065992 0.009965
5.366090 27.065992 0.010078
5.680831 27.065992 0.010455
5.995571 27.065992 0.011368
6.310312 27.065992 0.012363
6.625053 27.065992 0.013893
6.939795 27.065992 0.015923
7.254536 27.065992 0.018891
7.569277 27.065992 0.024396
7.884017 27.065992 0.033477
8.198758 27.065992 0.049535
8.513499 27.065992 0.072429
8.828240 27.065992 0.107143
9.142982 27.065992 0.158824
9.457723 27.065992 0.221904
9.772464 27.065992 0.306787
10.087205 27.065992 0.398943
10.401946 27.065992 0.522162
10.716687 27.065992 0.658900
11.031426 27.065992 0.785903
11.346168 27.065992 0.919336
11.660909 27.065992 1.069545
11.975650 27.065992 1.215725
12.290391 27.065992 1.318292
12.605132 27.065992 1.411892
12.919873 27.065992 1.515120
13.234614 27.065992 1.632168
13.549356 27.065992 1.655472
13.864097 27.065992 1.659059
14.178838 27.065992 1.680969
14.493579 27.065992 1.658288
14.808320 27.065992 1.719035
15.123059 27.065992 1.841664
15.437800 27.065992 2.373831
15.752542 27.065992 3.092146
16.067284 27.065992 0.000000
16.382023 27.065992 0.000000
16.696766 27.065992 0.000000
17.011505 27.065992 0.000000
17.326248 27.065992 0.000000
17.640987 27.065992 0.000000
17.955730 27.065992 0.000000
18.270470 27.065992 0.000000
18.585213 27.065992 0.000000
18.899952 27.065992 0.000000
-7.223550 26.751251 0.000000
-6.908809 26.751251 0.017007
-6.594068 26.751251 0.011758
-6.279327 26.751251 0.011024
-5.964586 26.751251 0.011108
-5.649845 26.751251 0.010912
-5.335104 26.751251 0.010840
-5.020363 26.751251 0.010916
-4.705622 26.751251 0.011082
-4.390881 26.751251 0.010962
-4.076140 26.751251 0.010916
-3.761399 26.751251 0.011072
-3.446658 26.751251 0.011381
-3.131917 26.751251 0.011489
-2.817176 26.751251 0.011283
-2.502435 26.751251 0.011067
-2.187694 26.751251 0.010892
-1.872953 26.751251 0.010770
-1.558212 26.751251 0.010660
-1.243471 26.751251 0.010764
-0.928730 26.751251 0.010755
-0.613989 26.751251 0.010619
-0.299248 26.751251 0.010639
0.015493 26.751251 0.010330
0.330234 26.751251 0.010072
0.644975 26.751251 0.010091
0.959716 26.751251 0.010204
1.274457 26.751251 0.010420
1.589198 26.751251 0.010490
1.903938 26.751251 0.010383
2.218679 26.751251 0.010390
2.533421 26.751251 0.010311
2.848162 26.751251 0.010017
3.162903 26.751251 0.009908
3.477644 26.751251 0.009690
3.792385 26.751251 0.009509
4.107125 26.751251 0.009575
4.421866 26.751251 0.009770
4.736608 26.751251 0.009720
5.051349 26.751251 0.009808
5.366090 26.751251 0.010044
5.680831 26.751251 0.010511
5.995571 26.751251 0.011477
6.310312 26.751251 0.012526
6.625053 26.751251 0.014034
6.939795 26.751251 0.015937
7.254536 26.751251 0.018872
7.569277 26.751251 0.024950
7.884017 26.751251 0.034218
8.198758 26.751251 0.049462
8.513499 26.751251 0.072170
8.828240 26.751251 0.108953
9.142982 26.751251 0.159475
9.457723 26.751251 0.226707
9.772464 26.751251 0.312140
10.087205 26.751251 0.408068
10.401946 26.751251 0.518517
10.716687 26.751251 0.659722
11.031426 26.751251 0.794721
11.346168 26.751251 0.921068
11.660909 26.751251 1.059886
11.975650 26.751251 1.206331
12.290391 26.751251 1.326994
12.605132 26.751251 1.401278
12.919873 26.751251 1.523547
13.234614 26.751251 1.603245
13.549356 26.751251 1.651234
13.864097 26.751251 1.669888
14.178838 26.751251 1.698486
14.493579 26.751251 1.693596
14.808320 26.751251 1.702711
15.123059 26.751251 1.833352
15.437800 26.751251 2.421791
15.752542 26.751251 3.082799
16.067284 26.751251 0.000000
16.382023 26.751251 0.000000
16.696766 26.751251 0.000000
17.011505 26.751251 0.000000
17.326248 26.751251 0.000000
17.640987 26.751251 0.000000
17.955730 26.751251 0.000000
18.270470 26.751251 0.000000
18.585213 26.751251 0.000000
18.899952 26.751251 0.000000
-7.223550 26.436510 0.000000
-6.908809 26.436510 0.016932
-6.594068 26.436510 0.011696
-6.279327 26.436510 0.010983
-5.964586 26.436510 0.011096
-5.649845 26.436510 0.010807
-5.335104 26.436510 0.010563
-5.020363 26.436510 0.010664
-4.705622 26.436510 0.010887
-4.390881 26.436510 0.010997
-4.076140 26.436510 0.011171
-3.761399 26.436510 0.011266
-3.446658 26.436510 0.011408
-3.131917 26.436510 0.011355
-2.817176 26.436510 0.011083
-2.502435 26.436510 0.010750
-2.187694 26.436510 0.010533
-1.872953 26.436510 0.010554
-1.558212 26.436510 0.010553
-1.243471 26.436510 0.010599
-0.928730 26.436510 0.010693
-0.613989 26.436510 0.010741
-0.299248 26.436510 0.010861
0.015493 26.436510 0.010542
0.330234 26.436510 0.010216
0.644975 26.436510 0.010138
0.959716 26.436510 0.010311
1.274457 26.436510 0.010527
1.589198 26.436510 0.010552
1.903938 26.436510 0.010395
2.218679 26.436510 0.010365
2.533421 26.436510 0.010144
2.848162 26.436510 0.009797
3.162903 26.436510 0.009790
3.477644 26.436510 0.009703
3.792385 26.436510 0.009550
4.107125 26.436510 0.009622
4.421866 26.436510 0.009769
4.736608 26.436510 0.009637
5.051349 26.436510 0.009648
5.366090 26.436510 0.010056
5.680831 26.436510 0.010630
5.995571 26.436510 0.011462
6.310312 26.436510 0.012417
6.625053 26.436510 0.013934
6.939795 26.436510 0.016008
7.254536 26.436510 0.019307
7.569277 26.436510 0.025375
7.884017 26.436510 0.034775
8.198758 26.436510 0.050786
8.513499 26.436510 0.074971
8.828240 26.436510 0.109761
9.142982 26.436510 0.157696
9.457723 26.436510 0.225806
9.772464 26.436510 0.308281
10.087205 26.436510 0.415578
10.401946 26.436510 0.533642
10.716687 26.436510 0.640920
11.031426 26.436510 0.766081
11.346168 26.436510 0.921629
11.660909 26.436510 1.069233
11.975650 26.436510 1.174367
12.290391 26.436510 1.309399
12.605132 26.436510 1.404015
12.919873 26.436510 1.518850
13.234614 26.436510 1.578905
13.549356 26.436510 1.602904
13.864097 26.436510 1.661104
14.178838 26.436510 1.721873
14.493579 26.436510 1.677188
14.808320 26.436510 1.745426
15.123059 26.436510 1.996204
15.437800 26.436510 2.360948
15.752542 26.436510 3.103189
16.067284 26.436510 0.000000
16.382023 26.436510 0.000000
16.696766 26.436510 0.000000
17.011505 26.436510 0.000000
17.326248 26.436510 0.000000
17.640987 26.436510 0.000000
17.955730 26.436510 0.000000
18.270470 26.436510 0.000000
18.585213 26.436510 0.000000
18.899952 26.436510 0.000000
-7.223550 26.121769 0.000000
-6.908809 26.121769 0.017061
-6.594068 26.121769 0.011843
-6.279327 26.121769 0.010978
-5.964586 26.121769 0.011126
-5.649845 26.121769 0.010849
-5.335104 26.121769 0.010649
-5.020363 26.121769 0.010855
-4.705622 26.121769 0.011069
-4.390881 26.121769 0.011201
-4.076140 26.121769 0.011471
-3.761399 26.121769 0.011494
-3.446658 26.121769 0.011300
-3.131917 26.121769 0.011138
-2.817176 26.121769 0.010840
-2.502435 26.121769 0.010634
-2.187694 26.121769 0.010478
-1.872953 26.121769 0.010575
-1.558212 26.121769 0.010673
-1.243471 26.121769 0.010558
-0.928730 26.121769 0.010542
-0.613989 26.121769 0.010751
-0.299248 26.121769 0.011014
0.015493 26.121769 0.010831
0.330234 26.121769 0.010475
0.644975 26.121769 0.010341
0.959716 26.121769 0.010433
1.274457 26.121769 0.010528
1.589198 26.121769 0.010397
1.903938 26.121769 0.010242
2.218679 26.121769 0.010216
2.533421 26.121769 0.009920
2.848162 26.121769 0.009681
3.162903 26.121769 0.009761
3.477644 26.121769 0.009737
3.792385 26.121769 0.009538
4.107125 26.121769 0.009652
4.421866 26.121769 0.009732
4.736608 26.121769 0.009580
5.051349 26.121769 0.009621
5.366090 26.121769 0.010004
5.680831 26.121769 0.010600
5.995571 26.121769 0.011389
6.310312 26.121769 0.012354
6.625053 26.121769 0.013775
6.939795 26.121769 0.016033
7.254536 26.121769 0.019331
7.569277 26.121769 0.025615
7.884017 26.121769 0.035905
8.198758 26.121769 0.050905
8.513499 26.121769 0.075253
8.828240 26.121769 0.108197
9.142982 26.121769 0.153980
9.457723 26.121769 0.218572
9.772464 26.121769 0.312303
10.087205 26.121769 0.405738
10.401946 26.121769 0.537565
10.716687 26.121769 0.626098
11.031426 26.121769 0.755301
11.346168 26.121769 0.916914
11.660909 26.121769 1.061129
11.975650 26.121769 1.174530
12.290391 26.121769 1.258997
12.605132 26.121769 1.390467
12.919873 26.121769 1.511213
13.234614 26.121769 1.577296
13.549356 26.121769 1.642452
13.864097 26.121769 1.638182
14.178838 26.121769 1.741060
14.493579 26.121769 1.709427
14.808320 26.121769 1.745521
15.123059 26.121769 1.883053
15.437800 26.121769 2.358390
15.752542 26.121769 3.136623
16.067284 26.121769 0.000000
16.382023 26.121769 0.000000
16.696766 26.121769 0.000000
17.011505 26.121769 0.000000
17.326248 26.121769 0.000000
17.640987 26.121769 0.000000
17.955730 26.121769 0.000000
18.270470 26.121769 0.000000
18.585213 26.121769 0.000000
18.899952 26.121769 0.000000
-7.223550 25.807028 0.000000
-6.908809 25.807028 0.017452
-6.594068 25.807028 0.012162
-6.279327 25.807028 0.011101
-5.964586 25.807028 0.011212
-5.649845 25.807028 0.011125
-5.335104 25.807028 0.011144
-5.020363 25.807028 0.011345
-4.705622 25.807028 0.011303
-4.390881 25.807028 0.011370
-4.076140 25.807028 0.011588
-3.761399 25.807028 0.011502
-3.446658 25.807028 0.011152
-3.131917 25.807028 0.010879
-2.817176 25.807028 0.010704
-2.502435 25.807028 0.010601
-2.187694 25.807028 0.010611
-1.872953 25.807028 0.010817
-1.558212 25.807028 0.010966
-1.243471 25.807028 0.010705
-0.928730 25.807028 0.010581
-0.613989 25.807028 0.010675
-0.299248 25.807028 0.011043
0.015493 25.807028 0.010851
0.330234 25.807028 0.010600
0.644975 25.807028 0.010429
0.959716 25.807028 0.010409
1.274457 25.807028 0.010339
1.589198 25.807028 0.010103
1.903938 25.807028 0.010060
2.218679 25.807028 0.010037
2.533421 25.807028 0.009813
2.848162 25.807028 0.009718
3.162903 25.807028 0.009786
3.477644 25.807028 0.009768
3.792385 25.807028 0.009454
4.107125 25.807028 0.009571
4.421866 25.807028 0.009646
4.736608 25.807028 0.009538
5.051349 25.807028 0.009625
5.366090 25.807028 0.009907
5.680831 25.807028 0.010354
5.995571 25.807028 0.011240
6.310312 25.807028 0.012252
6.625053 25.807028 0.013773
6.939795 25.807028 0.016031
7.254536 25.807028 0.019618
7.569277 25.807028 0.025850
7.884017 25.807028 0.035497
8.198758 25.807028 0.050683
8.513499 25.807028 0.073043
8.828240 25.807028 0.109459
9.142982 25.807028 0.155112
9.457723 25.807028 0.218791
9.772464 25.807028 0.306483
10.087205 25.807028 0.411066
10.401946 25.807028 0.521765
10.716687 25.807028 0.621332
11.031426 25.807028 0.765041
11.346168 25.807028 0.936081
11.660909 25.807028 1.085003
11.975650 25.807028 1.202873
12.290391 25.807028 1.304425
12.605132 25.807028 1.413586
12.919873 25.807028 1.469091
13.234614 25.807028 1.575686
13.549356 25.807028 1.649518
13.864097 25.807028 1.671621
14.178838 25.807028 1.698610
14.493579 25.807028 1.714908
14.808320 25.807028 1.744657
15.123059 25.807028 1.838474
15.437800 25.807028 2.314811
15.752542 25.807028 3.290417
16.067284 25.807028 0.000000
16.382023 25.807028 0.000000
16.696766 25.807028 0.000000
17.011505 25.807028 0.000000
17.326248 25.807028 0.000000
17.640987 25.807028 0.000000
17.955730 25.807028 0.000000
18.270470 25.807028 0.000000
18.585213 25.807028 0.000000
18.899952 25.807028 0.000000
-7.223550 25.492287 0.000000
-6.908809 25.492287 0.017745
-6.594068 25.492287 0.012538
-6.279327 25.492287 0.011428
-5.964586 25.492287 0.011376
-5.649845 25.492287 0.011437
-5.335104 25.492287 0.011626
-5.020363 25.492287 0.011676
-4.705622 25.492287 0.011412
-4.390881 25.492287 0.011296
-4.076140 25.492287 0.011371
-3.761399 25.492287 0.011250
-3.446658 25.492287 0.010928
-3.131917 25.492287 0.010769
-2.817176 25.492287 0.010800
-2.502435 25.492287 0.010772
-2.187694 25.492287 0.010776
-1.872953 25.492287 0.011021
-1.558212 25.492287 0.011189
-1.243471 25.492287 0.010939
-0.928730 25.492287 0.010669
-0.613989 25.492287 0.010644
-0.299248 25.492287 0.010975
0.015493 25.492287 0.010849
0.330234 25.492287 0.010648
0.644975 25.492287 0.010441
0.959716 25.492287 0.010273
1.274457 25.492287 0.010245
1.589198 25.492287 0.009929
1.903938 25.492287 0.009986
2.218679 25.492287 0.010019
2.533421 25.492287 0.009867
2.848162 25.492287 0.009837
3.162903 25.492287 0.009871
3.477644 25.492287 0.009647
3.792385 25.492287 0.009328
4.107125 25.492287 0.009377
4.421866 25.492287 0.009445
4.736608 25.492287 0.009457
5.051349 25.492287 0.009553
5.366090 25.492287 0.009772
5.680831 25.492287 0.010210
5.995571 25.492287 0.011186
6.310312 25.492287 0.012294
6.625053 25.492287 0.013855
6.939795 25.492287 0.016206
7.254536 25.492287 0.019784
7.569277 25.492287 0.025758
7.884017 25.492287 0.034789
8.198758 25.492287 0.050579
8.513499 25.492287 0.073045
8.828240 25.492287 0.106057
9.142982 25.492287 0.155770
9.457723 25.492287 0.220385
9.772464 25.492287 0.307267
10.087205 25.492287 0.410376
10.401946 25.492287 0.525376
10.716687 25.492287 0.641831
11.031426 25.492287 0.772973
11.346168 25.492287 0.926956
11.660909 25.492287 1.077509
11.975650 25.492287 1.232368
12.290391 25.492287 1.330946
12.605132 25.492287 1.441864
12.919873 25.492287 1.485641
13.234614 25.492287 1.589347
13.549356 25.492287 1.665404
13.864097 25.492287 1.669562
14.178838 25.492287 1.686462
14.493579 25.492287 1.676290
14.808320 25.492287 1.728026
15.123059 25.492287 1.929513
15.437800 25.492287 2.428325
15.752542 25.492287 3.285274
16.067284 25.492287 0.000000
16.382023 25.492287 0.000000
16.696766 25.492287 0.000000
17.011505 25.492287 0.000000
17.326248 25.492287 0.000000
17.640987 25.492287 0.000000
17.955730 25.492287 0.000000
18.270470 25.492287 0.000000
18.585213 25.492287 0.000000
18.899952 25.492287 0.000000
-7.223550 25.177546 0.000000
-6.908809 25.177546 0.017801
-6.594068 25.177546 0.012806
-6.279327 25.177546 0.011666
-5.964586 25.177546 0.011539
-5.649845 25.177546 0.011572
-5.335104 25.177546 0.011811
-5.020363 25.177546 0.011630
-4.705622 25.177546 0.011246
-4.390881 25.177546 0.010988
-4.076140 25.177546 0.010965
-3.761399 25.177546 0.010994
-3.446658 25.177546 0.010949
-3.131917 25.177546 0.010884
-2.817176 25.177546 0.010927
-2.502435 25.177546 0.010940
-2.187694 25.177546 0.010957
-1.872953 25.177546 0.010987
-1.558212 25.177546 0.011131
-1.243471 25.177546 0.011005
-0.928730 25.177546 0.010755
-0.613989 25.177546 0.010590
-0.299248 25.177546 0.010850
0.015493 25.177546 0.010802
0.330234 25.177546 0.010624
0.644975 25.177546 0.010363
0.959716 25.177546 0.010191
1.274457 25.177546 0.010328
1.589198 25.177546 0.010001
1.903938 25.177546 0.010062
2.218679 25.177546 0.010179
2.533421 25.177546 0.009946
2.848162 25.177546 0.009909
3.162903 25.177546 0.009956
3.477644 25.177546 0.009552
3.792385 25.177546 0.009174
4.107125 25.177546 0.009132
4.421866 25.177546 0.009315
4.736608 25.177546 0.009375
5.051349 25.177546 0.009464
5.366090 25.177546 0.009735
5.680831 25.177546 0.010246
5.995571 25.177546 0.011326
6.310312 25.177546 0.012382
6.625053 25.177546 0.013884
6.939795 25.177546 0.016122
7.254536 25.177546 0.019680
7.569277 25.177546 0.025272
7.884017 25.177546 0.035049
8.198758 25.177546 0.050117
8.513499 25.177546 0.074556
8.828240 25.177546 0.109458
9.142982 25.177546 0.159217
9.457723 25.177546 0.224308
9.772464 25.177546 0.315179
10.087205 25.177546 0.412834
10.401946 25.177546 0.531167
10.716687 25.177546 0.659491
11.031426 25.177546 0.785980
11.346168 25.177546 0.930999
11.660909 25.177546 1.075250
11.975650 25.177546 1.232452
12.290391 25.177546 1.354118
12.605132 25.177546 1.431567
12.919873 25.177546 1.491705
13.234614 25.177546 1.574248
13.549356 25.177546 1.605095
13.864097 25.177546 1.661577
14.178838 25.177546 1.629924
14.493579 25.177546 1.687462
14.808320 25.177546 1.745937
15.123059 25.177546 1.911455
15.437800 25.177546 2.445464
15.752542 25.177546 3.268708
16.067284 25.177546 0.000000
16.382023 25.177546 0.000000
16.696766 25.177546 0.000000
17.011505 25.177546 0.000000
17.326248 25.177546 0.000000
17.640987 25.177546 0.000000
17.955730 25.177546 0.000000
18.270470 25.177546 0.000000
18.585213 25.177546 0.000000
18.899952 25.177546 0.000000
-7.223550 24.862804 0.000000
-6.908809 24.862804 0.017773
-6.594068 24.862804 0.012783
-6.279327 24.862804 0.011762
-5.964586 24.862804 0.011666
-5.649845 24.862804 0.011508
-5.335104 24.862804 0.011508
-5.020363 24.862804 0.011321
-4.705622 24.862804 0.011034
-4.390881 24.862804 0.010885
-4.076140 24.862804 0.010795
-3.761399 24.862804 0.010820
-3.446658 24.862804 0.011106
-3.131917 24.862804 0.011114
-2.817176 24.862804 0.010984
-2.502435 24.862804 0.010894
-2.187694 24.862804 0.010924
-1.872953 24.862804 0.010921
-1.558212 24.862804 0.010898
-1.243471 24.862804 0.010945
-0.928730 24.862804 0.010765
-0.613989 24.862804 0.010620
-0.299248 24.862804 0.010704
0.015493 24.862804 0.010643
0.330234 24.862804 0.010497
0.644975 24.862804 0.010241
0.959716 24.862804 0.010132
1.274457 24.862804 0.010398
1.589198 24.862804 0.010168
1.903938 24.862804 0.010152
2.218679 24.862804 0.010254
2.533421 24.862804 0.009934
2.848162 24.862804 0.009813
3.162903 24.862804 0.009812
3.477644 24.862804 0.009415
3.792385 24.862804 0.009048
4.107125 24.862804 0.009043
4.421866 24.862804 0.009255
4.736608 24.862804 0.009352
5.051349 24.862804 0.009544
5.366090 24.862804 0.009851
5.680831 24.862804 0.010454
5.995571 24.862804 0.011458
6.310312 24.862804 0.012424
6.625053 24.862804 0.013795
6.939795 24.862804 0.016017
7.254536 24.862804 0.019501
7.569277 24.862804 0.024972
7.884017 24.862804 0.034258
8.198758 24.862804 0.049972
8.513499 24.862804 0.073555
8.828240 24.862804 0.110288
9.142982 24.862804 0.162608
9.457723 24.862804 0.234633
9.772464 24.862804 0.313459
10.087205 24.862804 0.417323
10.401946 24.862804 0.529365
10.716687 24.862804 0.651070
11.031426 24.862804 0.787546
11.346168 24.862804 0.929224
11.660909 24.862804 1.075705
11.975650 24.862804 1.242195
12.290391 24.862804 1.333895
12.605132 24.862804 1.412808
12.919873 24.862804 1.470161
13.234614 24.862804 1.564250
13.549356 24.862804 1.668360
13.864097 24.862804 1.634449
14.178838 24.862804 1.635587
14.493579 24.862804 1.707921
14.808320 24.862804 1.699929
15.123059 24.862804 1.880315
15.437800 24.862804 2.371688
15.752542 24.862804 3.286248
16.067284 24.862804 0.000000
16.382023 24.862804 0.000000
16.696766 24.862804 0.000000
17.011505 24.862804 0.000000
17.326248 24.862804 0.000000
17.640987 24.862804 0.000000
17.955730 24.862804 0.000000
18.270470 24.862804 0.000000
18.585213 24.862804 0.000000
18.899952 24.862804 0.000000
-7.223550 24.548063 0.000000
-6.908809 24.548063 0.017754
-6.594068 24.548063 0.012711
-6.279327 24.548063 0.011647
-5.964586 24.548063 0.011579
-5.649845 24.548063 0.011209
-5.335104 24.548063 0.011038
-5.020363 24.548063 0.011015
-4.705622 24.548063 0.010971
-4.390881 24.548063 0.010931
-4.076140 24.548063 0.010902
-3.761399 24.548063 0.010830
-3.446658 24.548063 0.011247
-3.131917 24.548063 0.011203
-2.817176 24.548063 0.010930
-2.502435 24.548063 0.010805
-2.187694 24.548063 0.010897
-1.872953 24.548063 0.010894
-1.558212 24.548063 0.010769
-1.243471 24.548063 0.010826
-0.928730 24.548063 0.010691
-0.613989 24.548063 0.010596
-0.299248 24.548063 0.010659
0.015493 24.548063 0.010523
0.330234 24.548063 0.010234
0.644975 24.548063 0.010163
0.959716 24.548063 0.010136
1.274457 24.548063 0.010372
1.589198 24.548063 0.010312
1.903938 24.548063 0.010067
2.218679 24.548063 0.010156
2.533421 24.548063 0.009839
2.848162 24.548063 0.009549
3.162903 24.548063 0.009529
3.477644 24.548063 0.009296
3.792385 24.548063 0.009053
4.107125 24.548063 0.009104
4.421866 24.548063 0.009268
4.736608 24.548063 0.009417
5.051349 24.548063 0.009659
5.366090 24.548063 0.010061
5.680831 24.548063 0.010579
5.995571 24.548063 0.011443
6.310312 24.548063 0.012271
6.625053 24.548063 0.013555
6.939795 24.548063 0.015665
7.254536 24.548063 0.019321
7.569277 24.548063 0.024489
7.884017 24.548063 0.034336
8.198758 24.548063 0.049645
8.513499 24.548063 0.073614
8.828240 24.548063 0.111283
9.142982 24.548063 0.163469
9.457723 24.548063 0.236946
9.772464 24.548063 0.319113
10.087205 24.548063 0.414239
10.401946 24.548063 0.530574
10.716687 24.548063 0.644534
11.031426 24.548063 0.785991
11.346168 24.548063 0.915856
11.660909 24.548063 1.083799
11.975650 24.548063 1.209750
12.290391 24.548063 1.317660
12.605132 24.548063 1.433696
12.919873 24.548063 1.505206
13.234614 24.548063 1.577637
13.549356 24.548063 1.630502
13.864097 24.548063 1.637281
14.178838 24.548063 1.669209
14.493579 24.548063 1.711016
14.808320 24.548063 1.761717
15.123059 24.548063 1.943340
15.437800 24.548063 2.441634
15.752542 24.548063 3.354768
16.067284 24.548063 0.000000
16.382023 24.548063 0.000000
16.696766 24.548063 0.000000
17.011505 24.548063 0.000000
17.326248 24.548063 0.000000
17.640987 24.548063 0.000000
17.955730 24.548063 0.000000
18.270470 24.548063 0.000000
18.585213 24.548063 0.000000
18.899952 24.548063 0.000000
-7.223550 24.233322 0.000000
-6.908809 24.233322 0.017810
-6.594068 24.233322 0.012700
-6.279327 24.233322 0.011459
-5.964586 24.233322 0.011299
-5.649845 24.233322 0.010944
-5.335104 24.233322 0.010778
-5.020363 24.233322 0.010997
-4.705622 24.233322 0.011082
-4.390881 24.233322 0.010986
-4.076140 24.233322 0.010979
-3.761399 24.233322 0.010887
-3.446658 24.233322 0.011281
-3.131917 24.233322 0.011286
-2.817176 24.233322 0.011017
-2.502435 24.233322 0.010935
-2.187694 24.233322 0.010872
-1.872953 24.233322 0.010863
-1.558212 24.233322 0.010810
-1.243471 24.233322 0.010589
-0.928730 24.233322 0.010389
-0.613989 24.233322 0.010511
-0.299248 24.233322 0.010623
0.015493 24.233322 0.010474
0.330234 24.233322 0.010269
0.644975 24.233322 0.010293
0.959716 24.233322 0.010284
1.274457 24.233322 0.010268
1.589198 24.233322 0.010232
1.903938 24.233322 0.009932
2.218679 24.233322 0.009875
2.533421 24.233322 0.009600
2.848162 24.233322 0.009352
3.162903 24.233322 0.009334
3.477644 24.233322 0.009244
3.792385 24.233322 0.009238
4.107125 24.233322 0.009312
4.421866 24.233322 0.009424
4.736608 24.233322 0.009574
5.051349 24.233322 0.009915
5.366090 24.233322 0.010247
5.680831 24.233322 0.010484
5.995571 24.233322 0.011127
6.310312 24.233322 0.012049
6.625053 24.233322 0.013303
6.939795 24.233322 0.015390
7.254536 24.233322 0.018882
7.569277 24.233322 0.024029
7.884017 24.233322 0.034041
8.198758 24.233322 0.049317
8.513499 24.233322 0.072958
8.828240 24.233322 0.112193
9.142982 24.233322 0.163584
9.457723 24.233322 0.240312
9.772464 24.233322 0.324892
10.087205 24.233322 0.422836
10.401946 24.233322 0.535884
10.716687 24.233322 0.634656
11.031426 24.233322 0.774142
11.346168 24.233322 0.909495
11.660909 24.233322 1.054239
11.975650 24.233322 1.167993
12.290391 24.233322 1.289748
12.605132 24.233322 1.420995
12.919873 24.233322 1.502544
13.234614 24.233322 1.589581
13.549356 24.233322 1.647642
13.864097 24.233322 1.650849
14.178838 24.233322 1.667683
14.493579 24.233322 1.713216
14.808320 24.233322 1.757413
15.123059 24.233322 1.960554
15.437800 24.233322 2.507215
15.752542 24.233322 3.330608
16.067284 24.233322 0.000000
16.382023 24.233322 0.000000
16.696766 24.233322 0.000000
17.011505 24.233322 0.000000
17.326248 24.233322 0.000000
17.640987 24.233322 0.000000
17.955730 24.233322 0.000000
18.270470 24.233322 0.000000
18.585213 24.233322 0.000000
18.899952 24.233322 0.000000
-7.223550 23.918581 0.000000
-6.908809 23.918581 0.017860
-6.594068 23.918581 0.012596
-6.279327 23.918581 0.011261
-5.964586 23.918581 0.011089
-5.649845 23.918581 0.010889
-5.335104 23.918581 0.010929
-5.020363 23.918581 0.011172
-4.705622 23.918581 0.011193
-4.390881 23.918581 0.011034
-4.076140 23.918581 0.011014
-3.761399 23.918581 0.010971
-3.446658 23.918581 0.011268
-3.131917 23.918581 0.011390
-2.817176 23.918581 0.011183
-2.502435 23.918581 0.011034
-2.187694 23.918581 0.010856
-1.872953 23.918581 0.010938
-1.558212 23.918581 0.010881
-1.243471 23.918581 0.010387
-0.928730 23.918581 0.010184
-0.613989 23.918581 0.010426
-0.299248 23.918581 0.010601
0.015493 23.918581 0.010390
0.330234 23.918581 0.010325
0.644975 23.918581 0.010338
0.959716 23.918581 0.010332
1.274457 23.918581 0.010164
1.589198 23.918581 0.010044
1.903938 23.918581 0.009681
2.218679 23.918581 0.009506
2.533421 23.918581 0.009370
2.848162 23.918581 0.009218
3.162903 23.918581 0.009225
3.477644 23.918581 0.009193
3.792385 23.918581 0.009343
4.107125 23.918581 0.009504
4.421866 23.918581 0.009579
4.736608 23.918581 0.009733
5.051349 23.918581 0.010081
5.366090 23.918581 0.010127
5.680831 23.918581 0.010095
5.995571 23.918581 0.010672
6.310312 23.918581 0.011726
6.625053 23.918581 0.013078
6.939795 23.918581 0.015190
7.254536 23.918581 0.018319
7.569277 23.918581 0.023856
7.884017 23.918581 0.034190
8.198758 23.918581 0.050564
8.513499 23.918581 0.073754
8.828240 23.918581 0.113361
9.142982 23.918581 0.168850
9.457723 23.918581 0.244466
9.772464 23.918581 0.329340
10.087205 23.918581 0.419024
10.401946 23.918581 0.531308
10.716687 23.918581 0.638608
11.031426 23.918581 0.763544
11.346168 23.918581 0.907909
11.660909 23.918581 1.039838
11.975650 23.918581 1.168758
12.290391 23.918581 1.285178
12.605132 23.918581 1.439200
12.919873 23.918581 1.489061
13.234614 23.918581 1.587408
13.549356 23.918581 1.628725
13.864097 23.918581 1.669702
14.178838 23.918581 1.655815
14.493579 23.918581 1.746871
14.808320 23.918581 1.746922
15.123059 23.918581 1.955932
15.437800 23.918581 2.470270
15.752542 23.918581 3.426197
16.067284 23.918581 0.000000
16.382023 23.918581 0.000000
16.696766 23.918581 0.000000
17.011505 23.918581 0.000000
17.326248 23.918581 0.000000
17.640987 23.918581 0.000000
17.955730 23.918581 0.000000
18.270470 23.918581 0.000000
18.585213 23.918581 0.000000
18.899952 23.918581 0.000000
-7.223550 23.603840 0.000000
-6.908809 23.603840 0.017752
-6.594068 23.603840 0.012399
-6.279327 23.603840 0.011115
-5.964586 23.603840 0.011084
-5.649845 23.603840 0.010985
-5.335104 23.603840 0.011194
-5.020363 23.603840 0.011300
-4.705622 23.603840 0.011138
-4.390881 23.603840 0.011002
-4.076140 23.603840 0.011063
-3.761399 23.603840 0.011070
-3.446658 23.603840 0.011279
-3.131917 23.603840 0.011441
-2.817176 23.603840 0.011218
-2.502435 23.603840 0.010939
-2.187694 23.603840 0.010738
-1.872953 23.603840 0.010830
-1.558212 23.603840 0.010858
-1.243471 23.603840 0.010380
-0.928730 23.603840 0.010154
-0.613989 23.603840 0.010404
-0.299248 23.603840 0.010492
0.015493 23.603840 0.010290
0.330234 23.603840 0.010284
0.644975 23.603840 0.010229
0.959716 23.603840 0.010205
1.274457 23.603840 0.010028
1.589198 23.603840 0.009867
1.903938 23.603840 0.009524
2.218679 23.603840 0.009281
2.533421 23.603840 0.009229
2.848162 23.603840 0.009240
3.162903 23.603840 0.009270
3.477644 23.603840 0.009209
3.792385 23.603840 0.009340
4.107125 23.603840 0.009540
4.421866 23.603840 0.009631
4.736608 23.603840 0.009753
5.051349 23.603840 0.009968
5.366090 23.603840 0.009785
5.680831 23.603840 0.009734
5.995571 23.603840 0.010375
6.310312 23.603840 0.011418
6.625053 23.603840 0.012975
6.939795 23.603840 0.015044
7.254536 23.603840 0.018266
7.569277 23.603840 0.024151
7.884017 23.603840 0.035098
8.198758 23.603840 0.052905
8.513499 23.603840 0.076629
8.828240 23.603840 0.117032
9.142982 23.603840 0.171389
9.457723 23.603840 0.242757
9.772464 23.603840 0.327868
10.087205 23.603840 0.422968
10.401946 23.603840 0.529815
10.716687 23.603840 0.641757
11.031426 23.603840 0.787079
11.346168 23.603840 0.912924
11.660909 23.603840 1.028437
11.975650 23.603840 1.157190
12.290391 23.603840 1.310908
12.605132 23.603840 1.437758
12.919873 23.603840 1.518793
13.234614 23.603840 1.584658
13.549356 23.603840 1.661704
13.864097 23.603840 1.688772
14.178838 23.603840 1.663378
14.493579 23.603840 1.704833
14.808320 23.603840 1.752739
15.123059 23.603840 1.921053
15.437800 23.603840 2.473714
15.752542 23.603840 3.413502
16.067284 23.603840 0.000000
16.382023 23.603840 0.000000
16.696766 23.603840 0.000000
17.011505 23.603840 0.000000
17.326248 23.603840 0.000000
17.640987 23.603840 0.000000
17.955730 23.603840 0.000000
18.270470 23.603840 0.000000
18.585213 23.603840 0.000000
18.899952 23.603840 0.000000
-7.223550 23.289099 0.000000
-6.908809 23.289099 0.017504
-6.594068 23.289099 0.012499
-6.279327 23.289099 0.011202
-5.964586 23.289099 0.011123
-5.649845 23.289099 0.011040
-5.335104 23.289099 0.011172
-5.020363 23.289099 0.011200
-4.705622 23.289099 0.010995
-4.390881 23.289099 0.010877
-4.076140 23.289099 0.011004
-3.761399 23.289099 0.011052
-3.446658 23.289099 0.011245
-3.131917 23.289099 0.011316
-2.817176 23.289099 0.011022
-2.502435 23.289099 0.010772
-2.187694 23.289099 0.010569
-1.872953 23.289099 0.010561
-1.558212 23.289099 0.010743
-1.243471 23.289099 0.010506
-0.928730 23.289099 0.010292
-0.613989 23.289099 0.010353
-0.299248 23.289099 0.010348
0.015493 23.289099 0.010158
0.330234 23.289099 0.010154
0.644975 23.289099 0.010057
0.959716 23.289099 0.009984
1.274457 23.289099 0.009936
1.589198 23.289099 0.009806
1.903938 23.289099 0.009511
2.218679 23.289099 0.009329
2.533421 23.289099 0.009320
2.848162 23.289099 0.009458
3.162903 23.289099 0.009520
3.477644 23.289099 0.009311
3.792385 23.289099 0.009277
4.107125 23.289099 0.009443
4.421866 23.289099 0.009515
4.736608 23.289099 0.009485
5.051349 23.289099 0.009534
5.366090 23.289099 0.009455
5.680831 23.289099 0.009599
5.995571 23.289099 0.010298
6.310312 23.289099 0.011367
6.625053 23.289099 0.012735
6.939795 23.289099 0.015051
7.254536 23.289099 0.018778
7.569277 23.289099 0.025379
7.884017 23.289099 0.036572
8.198758 23.289099 0.054196
8.513499 23.289099 0.080209
8.828240 23.289099 0.116561
9.142982 23.289099 0.170060
9.457723 23.289099 0.242310
9.772464 23.289099 0.327711
10.087205 23.289099 0.417611
10.401946 23.289099 0.532704
10.716687 23.289099 0.654764
11.031426 23.289099 0.779007
11.346168 23.289099 0.910009
11.660909 23.289099 1.014221
11.975650 23.289099 1.157163
12.290391 23.289099 1.328369
12.605132 23.289099 1.447999
12.919873 23.289099 1.564822
13.234614 23.289099 1.579764
13.549356 23.289099 1.632074
13.864097 23.289099 1.665298
14.178838 23.289099 1.687532
14.493579 23.289099 1.739167
14.808320 23.289099 1.793836
15.123059 23.289099 1.939077
15.437800 23.289099 2.496458
15.752542 23.289099 3.365563
16.067284 23.289099 0.000000
16.382023 23.289099 0.000000
16.696766 23.289099 0.000000
17.011505 23.289099 0.000000
17.326248 23.289099 0.000000
17.640987 23.289099 0.000000
17.955730 23.289099 0.000000
18.270470 23.289099 0.000000
18.585213 23.289099 0.000000
18.899952 23.289099 0.000000
-7.223550 22.974360 0.000000
-6.908809 22.974360 0.017380
-6.594068 22.974360 0.012495
-6.279327 22.974360 0.011280
-5.964586 22.974360 0.011225
-5.649845 22.974360 0.011026
-5.335104 22.974360 0.010963
-5.020363 22.974360 0.011026
-4.705622 22.974360 0.010926
-4.390881 22.974360 0.010819
-4.076140 22.974360 0.010885
-3.761399 22.974360 0.010958
-3.446658 22.974360 0.011062
-3.131917 22.974360 0.011099
-2.817176 22.974360 0.010789
-2.502435 22.974360 0.010564
-2.187694 22.974360 0.010557
-1.872953 22.974360 0.010479
-1.558212 22.974360 0.010646
-1.243471 22.974360 0.010561
-0.928730 22.974360 0.010371
-0.613989 22.974360 0.010219
-0.299248 22.974360 0.010227
0.015493 22.974360 0.010047
0.330234 22.974360 0.009961
0.644975 22.974360 0.009853
0.959716 22.974360 0.009874
1.274457 22.974360 0.009909
1.589198 22.974360 0.009783
1.903938 22.974360 0.009519
2.218679 22.974360 0.009509
2.533421 22.974360 0.009510
2.848162 22.974360 0.009762
3.162903 22.974360 0.009815
3.477644 22.974360 0.009374
3.792385 22.974360 0.009145
4.107125 22.974360 0.009175
4.421866 22.974360 0.009265
4.736608 22.974360 0.009079
5.051349 22.974360 0.009145
5.366090 22.974360 0.009243
5.680831 22.974360 0.009620
5.995571 22.974360 0.010272
6.310312 22.974360 0.011278
6.625053 22.974360 0.012862
6.939795 22.974360 0.015540
7.254536 22.974360 0.019691
7.569277 22.974360 0.026462
7.884017 22.974360 0.037701
8.198758 22.974360 0.054827
8.513499 22.974360 0.079708
8.828240 22.974360 0.117947
9.142982 22.974360 0.165701
9.457723 22.974360 0.238816
9.772464 22.974360 0.321938
10.087205 22.974360 0.420701
10.401946 22.974360 0.530875
10.716687 22.974360 0.659120
11.031426 22.974360 0.765209
11.346168 22.974360 0.896730
11.660909 22.974360 1.005992
11.975650 22.974360 1.171478
12.290391 22.974360 1.330558
12.605132 22.974360 1.462744
12.919873 22.974360 1.525202
13.234614 22.974360 1.573099
13.549356 22.974360 1.614467
13.864097 22.974360 1.669766
14.178838 22.974360 1.727870
14.493579 22.974360 1.745699
14.808320 22.974360 1.846407
15.123059 22.974360 1.978382
15.437800 22.974360 2.459859
15.752542 22.974360 3.199453
16.067284 22.974360 0.000000
16.382023 22.974360 0.000000
16.696766 22.974360 0.000000
17.011505 22.974360 0.000000
17.326248 22.974360 0.000000
17.640987 22.974360 0.000000
17.955730 22.974360 0.000000
18.270470 22.974360 0.000000
18.585213 22.974360 0.000000
18.899952 22.974360 0.000000
-7.223550 22.659618 0.000000
-6.908809 22.659618 0.017133
-6.594068 22.659618 0.012289
-6.279327 22.659618 0.011295
-5.964586 22.659618 0.011263
-5.649845 22.659618 0.010915
-5.335104 22.659618 0.010839
-5.020363 22.659618 0.011109
-4.705622 22.659618 0.011087
-4.390881 22.659618 0.010871
-4.076140 22.659618 0.010804
-3.761399 22.659618 0.010795
-3.446658 22.659618 0.010920
-3.131917 22.659618 0.010899
-2.817176 22.659618 0.010739
-2.502435 22.659618 0.010539
-2.187694 22.659618 0.010558
-1.872953 22.659618 0.010516
-1.558212 22.659618 0.010588
-1.243471 22.659618 0.010526
-0.928730 22.659618 0.010382
-0.613989 22.659618 0.010225
-0.299248 22.659618 0.010215
0.015493 22.659618 0.009933
0.330234 22.659618 0.009784
0.644975 22.659618 0.009595
0.959716 22.659618 0.009659
1.274457 22.659618 0.009732
1.589198 22.659618 0.009633
1.903938 22.659618 0.009481
2.218679 22.659618 0.009619
2.533421 22.659618 0.009598
2.848162 22.659618 0.009750
3.162903 22.659618 0.009786
3.477644 22.659618 0.009208
3.792385 22.659618 0.008883
4.107125 22.659618 0.008944
4.421866 22.659618 0.008985
4.736608 22.659618 0.008895
5.051349 22.659618 0.008874
5.366090 22.659618 0.009052
5.680831 22.659618 0.009533
5.995571 22.659618 0.010333
6.310312 22.659618 0.011439
6.625053 22.659618 0.013193
6.939795 22.659618 0.016195
7.254536 22.659618 0.020270
7.569277 22.659618 0.027634
7.884017 22.659618 0.039716
8.198758 22.659618 0.055038
8.513499 22.659618 0.077566
8.828240 22.659618 0.115170
9.142982 22.659618 0.163970
9.457723 22.659618 0.232792
9.772464 22.659618 0.319249
10.087205 22.659618 0.417761
10.401946 22.659618 0.533734
10.716687 22.659618 0.659291
11.031426 22.659618 0.760320
11.346168 22.659618 0.879419
11.660909 22.659618 1.033279
11.975650 22.659618 1.177377
12.290391 22.659618 1.337539
12.605132 22.659618 1.430555
12.919873 22.659618 1.501973
13.234614 22.659618 1.578966
13.549356 22.659618 1.604944
13.864097 22.659618 1.646078
14.178838 22.659618 1.739793
14.493579 22.659618 1.775465
14.808320 22.659618 1.836209
15.123059 22.659618 1.968127
15.437800 22.659618 2.609220
15.752542 22.659618 3.444667
16.067284 22.659618 0.000000
16.382023 22.659618 0.000000
16.696766 22.659618 0.000000
17.011505 22.659618 0.000000
17.326248 22.659618 0.000000
17.640987 22.659618 0.000000
17.955730 22.659618 0.000000
18.270470 22.659618 0.000000
18.585213 22.659618 0.000000
18.899952 22.659618 0.000000
-7.223550 22.344877 0.000000
-6.908809 22.344877 0.016904
-6.594068 22.344877 0.012162
-6.279327 22.344877 0.011214
-5.964586 22.344877 0.011258
-5.649845 22.344877 0.010978
-5.335104 22.344877 0.010951
-5.020363 22.344877 0.011292
-4.705622 22.344877 0.011197
-4.390881 22.344877 0.010850
-4.076140 22.344877 0.010818
-3.761399 22.344877 0.010636
-3.446658 22.344877 0.010893
-3.131917 22.344877 0.010993
-2.817176 22.344877 0.010957
-2.502435 22.344877 0.010643
-2.187694 22.344877 0.010498
-1.872953 22.344877 0.010465
-1.558212 22.344877 0.010488
-1.243471 22.344877 0.010364
-0.928730 22.344877 0.010337
-0.613989 22.344877 0.010293
-0.299248 22.344877 0.010176
0.015493 22.344877 0.009754
0.330234 22.344877 0.009580
0.644975 22.344877 0.009449
0.959716 22.344877 0.009450
1.274457 22.344877 0.009605
1.589198 22.344877 0.009537
1.903938 22.344877 0.009563
2.218679 22.344877 0.009690
2.533421 22.344877 0.009466
2.848162 22.344877 0.009358
3.162903 22.344877 0.009366
3.477644 22.344877 0.008869
3.792385 22.344877 0.008562
4.107125 22.344877 0.008725
4.421866 22.344877 0.008810
4.736608 22.344877 0.008777
5.051349 22.344877 0.008712
5.366090 22.344877 0.008950
5.680831 22.344877 0.009589
5.995571 22.344877 0.010624
6.310312 22.344877 0.011859
6.625053 22.344877 0.013731
6.939795 22.344877 0.016531
7.254536 22.344877 0.020242
7.569277 22.344877 0.027083
7.884017 22.344877 0.038576
8.198758 22.344877 0.054760
8.513499 22.344877 0.077692
8.828240 22.344877 0.117426
9.142982 22.344877 0.167046
9.457723 22.344877 0.231851
9.772464 22.344877 0.322332
10.087205 22.344877 0.422957
10.401946 22.344877 0.533411
10.716687 22.344877 0.643959
11.031426 22.344877 0.771245
11.346168 22.344877 0.882628
11.660909 22.344877 1.039613
11.975650 22.344877 1.189890
12.290391 22.344877 1.353595
12.605132 22.344877 1.424121
12.919873 22.344877 1.499756
13.234614 22.344877 1.588768
13.549356 22.344877 1.590587
13.864097 22.344877 1.618148
14.178838 22.344877 1.735691
14.493579 22.344877 1.769724
14.808320 22.344877 1.768153
15.123059 22.344877 1.891065
15.437800 22.344877 2.502110
15.752542 22.344877 3.347259
16.067284 22.344877 0.000000
16.382023 22.344877 0.000000
16.696766 22.344877 0.000000
17.011505 22.344877 0.000000
17.326248 22.344877 0.000000
17.640987 22.344877 0.000000
17.955730 22.344877 0.000000
18.270470 22.344877 0.000000
18.585213 22.344877 0.000000
18.899952 22.344877 0.000000
-7.223550 22.030136 0.000000
-6.908809 22.030136 0.016646
-6.594068 22.030136 0.012002
-6.279327 22.030136 0.011140
-5.964586 22.030136 0.011172
-5.649845 22.030136 0.010998
-5.335104 22.030136 0.011133
-5.020363 22.030136 0.011380
-4.705622 22.030136 0.011093
-4.390881 22.030136 0.010878
-4.076140 22.030136 0.010919
-3.761399 22.030136 0.010733
-3.446658 22.030136 0.010943
-3.131917 22.030136 0.011065
-2.817176 22.030136 0.011054
-2.502435 22.030136 0.010678
-2.187694 22.030136 0.010511
-1.872953 22.030136 0.010396
-1.558212 22.030136 0.010311
-1.243471 22.030136 0.010185
-0.928730 22.030136 0.010202
-0.613989 22.030136 0.010271
-0.299248 22.030136 0.010071
0.015493 22.030136 0.009643
0.330234 22.030136 0.009518
0.644975 22.030136 0.009444
0.959716 22.030136 0.009453
1.274457 22.030136 0.009610
1.589198 22.030136 0.009531
1.903938 22.030136 0.009539
2.218679 22.030136 0.009525
2.533421 22.030136 0.009144
2.848162 22.030136 0.008846
3.162903 22.030136 0.008816
3.477644 22.030136 0.008511
3.792385 22.030136 0.008418
4.107125 22.030136 0.008583
4.421866 22.030136 0.008718
4.736608 22.030136 0.008706
5.051349 22.030136 0.008663
5.366090 22.030136 0.009093
5.680831 22.030136 0.010004
5.995571 22.030136 0.011188
6.310312 22.030136 0.012313
6.625053 22.030136 0.013948
6.939795 22.030136 0.016224
7.254536 22.030136 0.019672
7.569277 22.030136 0.025326
7.884017 22.030136 0.036484
8.198758 22.030136 0.052962
8.513499 22.030136 0.078979
8.828240 22.030136 0.120126
9.142982 22.030136 0.169132
9.457723 22.030136 0.243834
9.772464 22.030136 0.325827
10.087205 22.030136 0.422742
10.401946 22.030136 0.538038
10.716687 22.030136 0.652021
11.031426 22.030136 0.761210
11.346168 22.030136 0.904002
11.660909 22.030136 1.040093
11.975650 22.030136 1.203706
12.290391 22.030136 1.348304
12.605132 22.030136 1.448634
12.919873 22.030136 1.554856
13.234614 22.030136 1.610618
13.549356 22.030136 1.619187
13.864097 22.030136 1.620653
14.178838 22.030136 1.713805
14.493579 22.030136 1.744650
14.808320 22.030136 1.780252
15.123059 22.030136 1.926420
15.437800 22.030136 2.367223
15.752542 22.030136 3.242193
16.067284 22.030136 0.000000
16.382023 22.030136 0.000000
16.696766 22.030136 0.000000
17.011505 22.030136 0.000000
17.326248 22.030136 0.000000
17.640987 22.030136 0.000000
17.955730 22.030136 0.000000
18.270470 22.030136 0.000000
18.585213 22.030136 0.000000
18.899952 22.030136 0.000000
-7.223550 21.715395 0.000000
-6.908809 21.715395 0.016439
-6.594068 21.715395 0.011957
-6.279327 21.715395 0.011052
-5.964586 21.715395 0.011108
-5.649845 21.715395 0.010996
-5.335104 21.715395 0.011181
-5.020363 21.715395 0.011303
-4.705622 21.715395 0.010919
-4.390881 21.715395 0.010951
-4.076140 21.715395 0.011104
-3.761399 21.715395 0.010943
-3.446658 21.715395 0.010992
-3.131917 21.715395 0.010990
-2.817176 21.715395 0.010865
-2.502435 21.715395 0.010512
-2.187694 21.715395 0.010455
-1.872953 21.715395 0.010404
-1.558212 21.715395 0.010187
-1.243471 21.715395 0.009986
-0.928730 21.715395 0.009953
-0.613989 21.715395 0.010023
-0.299248 21.715395 0.009843
0.015493 21.715395 0.009536
0.330234 21.715395 0.009531
0.644975 21.715395 0.009529
0.959716 21.715395 0.009506
1.274457 21.715395 0.009662
1.589198 21.715395 0.009533
1.903938 21.715395 0.009335
2.218679 21.715395 0.009091
2.533421 21.715395 0.008744
2.848162 21.715395 0.008457
3.162903 21.715395 0.008428
3.477644 21.715395 0.008369
3.792385 21.715395 0.008294
4.107125 21.715395 0.008470
4.421866 21.715395 0.008729
4.736608 21.715395 0.008846
5.051349 21.715395 0.008963
5.366090 21.715395 0.009545
5.680831 21.715395 0.010433
5.995571 21.715395 0.011362
6.310312 21.715395 0.012214
6.625053 21.715395 0.013395
6.939795 21.715395 0.015465
7.254536 21.715395 0.018664
7.569277 21.715395 0.025210
7.884017 21.715395 0.036038
8.198758 21.715395 0.054177
8.513499 21.715395 0.081157
8.828240 21.715395 0.124458
9.142982 21.715395 0.176140
9.457723 21.715395 0.250642
9.772464 21.715395 0.329929
10.087205 21.715395 0.425488
10.401946 21.715395 0.533784
10.716687 21.715395 0.657368
11.031426 21.715395 0.773764
11.346168 21.715395 0.907564
11.660909 21.715395 1.022001
11.975650 21.715395 1.189920
12.290391 21.715395 1.325312
12.605132 21.715395 1.437989
12.919873 21.715395 1.573018
13.234614 21.715395 1.608070
13.549356 21.715395 1.646950
13.864097 21.715395 1.616250
14.178838 21.715395 1.685298
14.493579 21.715395 1.688654
14.808320 21.715395 1.718617
15.123059 21.715395 1.897670
15.437800 21.715395 2.421413
15.752542 21.715395 3.271074
16.067284 21.715395 0.000000
16.382023 21.715395 0.000000
16.696766 21.715395 0.000000
17.011505 21.715395 0.000000
17.326248 21.715395 0.000000
17.640987 21.715395 0.000000
17.955730 21.715395 0.000000
18.270470 21.715395 0.000000
18.585213 21.715395 0.000000
18.899952 21.715395 0.000000
-7.223550 21.400654 0.000000
-6.908809 21.400654 0.016259
-6.594068 21.400654 0.011819
-6.279327 21.400654 0.011078
-5.964586 21.400654 0.011112
-5.649845 21.400654 0.011000
-5.335104 21.400654 0.011051
-5.020363 21.400654 0.011106
-4.705622 21.400654 0.010806
-4.390881 21.400654 0.010971
-4.076140 21.400654 0.011274
-3.761399 21.400654 0.011062
-3.446658 21.400654 0.010994
-3.131917 21.400654 0.010843
-2.817176 21.400654 0.010586
-2.502435 21.400654 0.010366
-2.187694 21.400654 0.010376
-1.872953 21.400654 0.010396
-1.558212 21.400654 0.010120
-1.243471 21.400654 0.009812
-0.928730 21.400654 0.009729
-0.613989 21.400654 0.009758
-0.299248 21.400654 0.009718
0.015493 21.400654 0.009549
0.330234 21.400654 0.009620
0.644975 21.400654 0.009583
0.959716 21.400654 0.009462
1.274457 21.400654 0.009522
1.589198 21.400654 0.009344
1.903938 21.400654 0.009056
2.218679 21.400654 0.008802
2.533421 21.400654 0.008558
2.848162 21.400654 0.008329
3.162903 21.400654 0.008253
3.477644 21.400654 0.008247
3.792385 21.400654 0.008152
4.107125 21.400654 0.008460
4.421866 21.400654 0.008968
4.736608 21.400654 0.009165
5.051349 21.400654 0.009432
5.366090 21.400654 0.009829
5.680831 21.400654 0.010398
5.995571 21.400654 0.010910
6.310312 21.400654 0.011541
6.625053 21.400654 0.012704
6.939795 21.400654 0.014992
7.254536 21.400654 0.018572
7.569277 21.400654 0.024980
7.884017 21.400654 0.036036
8.198758 21.400654 0.054769
8.513499 21.400654 0.083214
8.828240 21.400654 0.126534
9.142982 21.400654 0.179227
9.457723 21.400654 0.248575
9.772464 21.400654 0.325963
10.087205 21.400654 0.431186
10.401946 21.400654 0.533542
10.716687 21.400654 0.665008
11.031426 21.400654 0.804500
11.346168 21.400654 0.916700
11.660909 21.400654 1.068319
11.975650 21.400654 1.192177
12.290391 21.400654 1.294134
12.605132 21.400654 1.433365
12.919873 21.400654 1.558523
13.234614 21.400654 1.613377
13.549356 21.400654 1.591120
13.864097 21.400654 1.640174
14.178838 21.400654 1.652673
14.493579 21.400654 1.698279
14.808320 21.400654 1.734342
15.123059 21.400654 1.884379
15.437800 21.400654 2.381598
15.752542 21.400654 3.319860
16.067284 21.400654 0.000000
16.382023 21.400654 0.000000
16.696766 21.400654 0.000000
17.011505 21.400654 0.000000
17.326248 21.400654 0.000000
17.640987 21.400654 0.000000
17.955730 21.400654 0.000000
18.270470 21.400654 0.000000
18.585213 21.400654 0.000000
18.899952 21.400654 0.000000
-7.223550 21.085913 0.000000
-6.908809 21.085913 0.016037
-6.594068 21.085913 0.011671
-6.279327 21.085913 0.011160
-5.964586 21.085913 0.011264
-5.649845 21.085913 0.011053
-5.335104 21.085913 0.010975
-5.020363 21.085913 0.011019
-4.705622 21.085913 0.010746
-4.390881 21.085913 0.010815
-4.076140 21.085913 0.011084
-3.761399 21.085913 0.010966
-3.446658 21.085913 0.010932
-3.131917 21.085913 0.010687
-2.817176 21.085913 0.010364
-2.502435 21.085913 0.010247
-2.187694 21.085913 0.010337
-1.872953 21.085913 0.010378
-1.558212 21.085913 0.010091
-1.243471 21.085913 0.009774
-0.928730 21.085913 0.009726
-0.613989 21.085913 0.009780
-0.299248 21.085913 0.009747
0.015493 21.085913 0.009644
0.330234 21.085913 0.009564
0.644975 21.085913 0.009530
0.959716 21.085913 0.009284
1.274457 21.085913 0.009149
1.589198 21.085913 0.009006
1.903938 21.085913 0.008810
2.218679 21.085913 0.008669
2.533421 21.085913 0.008538
2.848162 21.085913 0.008269
3.162903 21.085913 0.008260
3.477644 21.085913 0.008291
3.792385 21.085913 0.008329
4.107125 21.085913 0.008780
4.421866 21.085913 0.009313
4.736608 21.085913 0.009368
5.051349 21.085913 0.009489
5.366090 21.085913 0.009587
5.680831 21.085913 0.009789
5.995571 21.085913 0.010311
6.310312 21.085913 0.011069
6.625053 21.085913 0.012493
6.939795 21.085913 0.014818
7.254536 21.085913 0.018744
7.569277 21.085913 0.025588
7.884017 21.085913 0.036895
8.198758 21.085913 0.056050
8.513499 21.085913 0.083769
8.828240 21.085913 0.129078
9.142982 21.085913 0.175707
9.457723 21.085913 0.243031
9.772464 21.085913 0.326073
10.087205 21.085913 0.430366
10.401946 21.085913 0.541959
10.716687 21.085913 0.673915
11.031426 21.085913 0.816971
11.346168 21.085913 0.920638
11.660909 21.085913 1.047790
11.975650 21.085913 1.174865
12.290391 21.085913 1.267061
12.605132 21.085913 1.408309
12.919873 21.085913 1.513455
13.234614 21.085913 1.579562
13.549356 21.085913 1.618917
13.864097 21.085913 1.661162
14.178838 21.085913 1.701715
14.493579 21.085913 1.762257
14.808320 21.085913 1.756748
15.123059 21.085913 1.891154
15.437800 21.085913 2.325474
15.752542 21.085913 3.136175
16.067284 21.085913 0.000000
16.382023 21.085913 0.000000
16.696766 21.085913 0.000000
17.011505 21.085913 0.000000
17.326248 21.085913 0.000000
17.640987 21.085913 0.000000
17.955730 21.085913 0.000000
18.270470 21.085913 0.000000
18.585213 21.085913 0.000000
18.899952 21.085913 0.000000
-7.223550 20.771172 0.000000
-6.908809 20.771172 0.015949
-6.594068 20.771172 0.011617
-6.279327 20.771172 0.011237
-5.964586 20.771172 0.011384
-5.649845 20.771172 0.011055
-5.335104 20.771172 0.010957
-5.020363 20.771172 0.011037
-4.705622 20.771172 0.010821
-4.390881 20.771172 0.010623
-4.076140 20.771172 0.010704
-3.761399 20.771172 0.010821
-3.446658 20.771172 0.010808
-3.131917 20.771172 0.010495
-2.817176 20.771172 0.010123
-2.502435 20.771172 0.010005
-2.187694 20.771172 0.010138
-1.872953 20.771172 0.010284
-1.558212 20.771172 0.010091
-1.243471 20.771172 0.009886
-0.928730 20.771172 0.009961
-0.613989 20.771172 0.009891
-0.299248 20.771172 0.009799
0.015493 20.771172 0.009589
0.330234 20.771172 0.009302
0.644975 20.771172 0.009197
0.959716 20.771172 0.009015
1.274457 20.771172 0.008886
1.589198 20.771172 0.008787
1.903938 20.771172 0.008702
2.218679 20.771172 0.008611
2.533421 20.771172 0.008472
2.848162 20.771172 0.008275
3.162903 20.771172 0.008418
3.477644 20.771172 0.008566
3.792385 20.771172 0.008704
4.107125 20.771172 0.009059
4.421866 20.771172 0.009260
4.736608 20.771172 0.009103
5.051349 20.771172 0.008985
5.366090 20.771172 0.008981
5.680831 20.771172 0.009305
5.995571 20.771172 0.010101
6.310312 20.771172 0.010873
6.625053 20.771172 0.012479
6.939795 20.771172 0.015214
7.254536 20.771172 0.019251
7.569277 20.771172 0.026100
7.884017 20.771172 0.037535
8.198758 20.771172 0.055790
8.513499 20.771172 0.085444
8.828240 20.771172 0.128604
9.142982 20.771172 0.177213
9.457723 20.771172 0.240167
9.772464 20.771172 0.328697
10.087205 20.771172 0.429277
10.401946 20.771172 0.537716
10.716687 20.771172 0.679913
11.031426 20.771172 0.810218
11.346168 20.771172 0.920335
11.660909 20.771172 1.052881
11.975650 20.771172 1.160492
12.290391 20.771172 1.265574
12.605132 20.771172 1.383595
12.919873 20.771172 1.500672
13.234614 20.771172 1.540388
13.549356 20.771172 1.625472
13.864097 20.771172 1.710074
14.178838 20.771172 1.689654
14.493579 20.771172 1.726066
14.808320 20.771172 1.749848
15.123059 20.771172 1.906710
15.437800 20.771172 2.359791
15.752542 20.771172 3.102854
16.067284 20.771172 0.000000
16.382023 20.771172 0.000000
16.696766 20.771172 0.000000
17.011505 20.771172 0.000000
17.326248 20.771172 0.000000
17.640987 20.771172 0.000000
17.955730 20.771172 0.000000
18.270470 20.771172 0.000000
18.585213 20.771172 0.000000
18.899952 20.771172 0.000000
-7.223550 20.456430 0.000000
-6.908809 20.456430 0.016034
-6.594068 20.456430 0.011585
-6.279327 20.456430 0.011300
-5.964586 20.456430 0.011282
-5.649845 20.456430 0.010991
-5.335104 20.456430 0.010971
-5.020363 20.456430 0.011150
-4.705622 20.456430 0.010994
-4.390881 20.456430 0.010608
-4.076140 20.456430 0.010446
-3.761399 20.456430 0.010618
-3.446658 20.456430 0.010668
-3.131917 20.456430 0.010273
-2.817176 20.456430 0.009951
-2.502435 20.456430 0.009890
-2.187694 20.456430 0.010034
-1.872953 20.456430 0.010215
-1.558212 20.456430 0.010109
-1.243471 20.456430 0.010022
-0.928730 20.456430 0.010058
-0.613989 20.456430 0.009838
-0.299248 20.456430 0.009610
0.015493 20.456430 0.009342
0.330234 20.456430 0.009055
0.644975 20.456430 0.008844
0.959716 20.456430 0.008704
1.274457 20.456430 0.008664
1.589198 20.456430 0.008660
1.903938 20.456430 0.008661
2.218679 20.456430 0.008585
2.533421 20.456430 0.008464
2.848162 20.456430 0.008405
3.162903 20.456430 0.008736
3.477644 20.456430 0.008811
3.792385 20.456430 0.008825
4.107125 20.456430 0.008905
4.421866 20.456430 0.008793
4.736608 20.456430 0.008522
5.051349 20.456430 0.008428
5.366090 20.456430 0.008600
5.680831 20.456430 0.009191
5.995571 20.456430 0.009986
6.310312 20.456430 0.011005
6.625053 20.456430 0.012749
6.939795 20.456430 0.015798
7.254536 20.456430 0.019909
7.569277 20.456430 0.027091
7.884017 20.456430 0.037995
8.198758 20.456430 0.056339
8.513499 20.456430 0.088608
8.828240 20.456430 0.127743
9.142982 20.456430 0.180156
9.457723 20.456430 0.247698
9.772464 20.456430 0.339373
10.087205 20.456430 0.430041
10.401946 20.456430 0.536454
10.716687 20.456430 0.673861
11.031426 20.456430 0.805589
11.346168 20.456430 0.909858
11.660909 20.456430 1.066391
11.975650 20.456430 1.177956
12.290391 20.456430 1.268582
12.605132 20.456430 1.392202
12.919873 20.456430 1.518935
13.234614 20.456430 1.554821
13.549356 20.456430 1.624916
13.864097 20.456430 1.706044
14.178838 20.456430 1.722974
14.493579 20.456430 1.697140
14.808320 20.456430 1.739552
15.123059 20.456430 1.922336
15.437800 20.456430 2.484354
15.752542 20.456430 3.353466
16.067284 20.456430 0.000000
16.382023 20.456430 0.000000
16.696766 20.456430 0.000000
17.011505 20.456430 0.000000
17.326248 20.456430 0.000000
17.640987 20.456430 0.000000
17.955730 20.456430 0.000000
18.270470 20.456430 0.000000
18.585213 20.456430 0.000000
18.899952 20.456430 0.000000
-7.223550 20.141689 0.000000
-6.908809 20.141689 0.016254
-6.594068 20.141689 0.011503
-6.279327 20.141689 0.011179
-5.964586 20.141689 0.011040
-5.649845 20.141689 0.010940
-5.335104 20.141689 0.011027
-5.020363 20.141689 0.011152
-4.705622 20.141689 0.011007
-4.390881 20.141689 0.010680
-4.076140 20.141689 0.010428
-3.761399 20.141689 0.010493
-3.446658 20.141689 0.010622
-3.131917 20.141689 0.010289
-2.817176 20.141689 0.010005
-2.502435 20.141689 0.009877
-2.187694 20.141689 0.010094
-1.872953 20.141689 0.010280
-1.558212 20.141689 0.010028
-1.243471 20.141689 0.009989
-0.928730 20.141689 0.009944
-0.613989 20.141689 0.009649
-0.299248 20.141689 0.009383
0.015493 20.141689 0.009206
0.330234 20.141689 0.008940
0.644975 20.141689 0.008627
0.959716 20.141689 0.008451
1.274457 20.141689 0.008500
1.589198 20.141689 0.008546
1.903938 20.141689 0.008630
2.218679 20.141689 0.008662
2.533421 20.141689 0.008596
2.848162 20.141689 0.008585
3.162903 20.141689 0.008745
3.477644 20.141689 0.008617
3.792385 20.141689 0.008454
4.107125 20.141689 0.008373
4.421866 20.141689 0.008346
4.736608 20.141689 0.008233
5.051349 20.141689 0.008290
5.366090 20.141689 0.008575
5.680831 20.141689 0.009253
5.995571 20.141689 0.010157
6.310312 20.141689 0.011170
6.625053 20.141689 0.013100
6.939795 20.141689 0.015791
7.254536 20.141689 0.019993
7.569277 20.141689 0.026915
7.884017 20.141689 0.037670
8.198758 20.141689 0.056678
8.513499 20.141689 0.088447
8.828240 20.141689 0.126799
9.142982 20.141689 0.186710
9.457723 20.141689 0.252881
9.772464 20.141689 0.338478
10.087205 20.141689 0.439570
10.401946 20.141689 0.548352
10.716687 20.141689 0.669613
11.031426 20.141689 0.792231
11.346168 20.141689 0.922373
11.660909 20.141689 1.045313
11.975650 20.141689 1.188108
12.290391 20.141689 1.296169
12.605132 20.141689 1.426174
12.919873 20.141689 1.500330
13.234614 20.141689 1.554390
13.549356 20.141689 1.615669
13.864097 20.141689 1.662188
14.178838 20.141689 1.686372
14.493579 20.141689 1.696907
14.808320 20.141689 1.775015
15.123059 20.141689 1.903575
15.437800 20.141689 2.398082
15.752542 20.141689 3.277754
16.067284 20.141689 0.000000
16.382023 20.141689 0.000000
16.696766 20.141689 0.000000
17.011505 20.141689 0.000000
17.326248 20.141689 0.000000
17.640987 20.141689 0.000000
17.955730 20.141689 0.000000
18.270470 20.141689 0.000000
18.585213 20.141689 0.000000
18.899952 20.141689 0.000000
-7.223550 19.826948 0.000000
-6.908809 19.826948 0.016644
-6.594068 19.826948 0.011557
-6.279327 19.826948 0.011051
-5.964586 19.826948 0.010910
-5.649845 19.826948 0.011010
-5.335104 19.826948 0.011095
-5.020363 19.826948 0.011041
-4.705622 19.826948 0.010918
-4.390881 19.826948 0.010710
-4.076140 19.826948 0.010517
-3.761399 19.826948 0.010504
-3.446658 19.826948 0.010791
-3.131917 19.826948 0.010528
-2.817176 19.826948 0.010187
-2.502435 19.826948 0.009972
-2.187694 19.826948 0.010127
-1.872953 19.826948 0.010229
-1.558212 19.826948 0.009882
-1.243471 19.826948 0.009688
-0.928730 19.826948 0.009618
-0.613989 19.826948 0.009379
-0.299248 19.826948 0.009171
0.015493 19.826948 0.009073
0.330234 19.826948 0.008841
0.644975 19.826948 0.008533
0.959716 19.826948 0.008387
1.274457 19.826948 0.008561
1.589198 19.826948 0.008642
1.903938 19.826948 0.008754
2.218679 19.826948 0.008813
2.533421 19.826948 0.008664
2.848162 19.826948 0.008473
3.162903 19.826948 0.008315
3.477644 19.826948 0.008128
3.792385 19.826948 0.008020
4.107125 19.826948 0.007998
4.421866 19.826948 0.008127
4.736608 19.826948 0.008207
5.051349 19.826948 0.008408
5.366090 19.826948 0.008801
5.680831 19.826948 0.009486
5.995571 19.826948 0.010456
6.310312 19.826948 0.011700
6.625053 19.826948 0.013422
6.939795 19.826948 0.015670
7.254536 19.826948 0.019769
7.569277 19.826948 0.026329
7.884017 19.826948 0.037548
8.198758 19.826948 0.056792
8.513499 19.826948 0.088627
8.828240 19.826948 0.126229
9.142982 19.826948 0.187046
9.457723 19.826948 0.256358
9.772464 19.826948 0.331637
10.087205 19.826948 0.442294
10.401946 19.826948 0.556944
10.716687 19.826948 0.663368
11.031426 19.826948 0.785000
11.346168 19.826948 0.909034
11.660909 19.826948 1.066249
11.975650 19.826948 1.203677
12.290391 19.826948 1.295213
12.605132 19.826948 1.390669
12.919873 19.826948 1.482737
13.234614 19.826948 1.549890
13.549356 19.826948 1.597176
13.864097 19.826948 1.658496
14.178838 19.826948 1.697093
14.493579 19.826948 1.699601
14.808320 19.826948 1.730409
15.123059 19.826948 1.870211
15.437800 19.826948 2.409129
15.752542 19.826948 3.368516
16.067284 19.826948 0.000000
16.382023 19.826948 0.000000
16.696766 19.826948 0.000000
17.011505 19.826948 0.000000
17.326248 19.826948 0.000000
17.640987 19.826948 0.000000
17.955730 19.826948 0.000000
18.270470 19.826948 0.000000
18.585213 19.826948 0.000000
18.899952 19.826948 0.000000
-7.223550 19.512207 0.000000
-6.908809 19.512207 0.016791
-6.594068 19.512207 0.011509
-6.279327 19.512207 0.010940
-5.964586 19.512207 0.010873
-5.649845 19.512207 0.011051
-5.335104 19.512207 0.011060
-5.020363 19.512207 0.010905
-4.705622 19.512207 0.010729
-4.390881 19.512207 0.010640
-4.076140 19.512207 0.010723
-3.761399 19.512207 0.010796
-3.446658 19.512207 0.011007
-3.131917 19.512207 0.010676
-2.817176 19.512207 0.010302
-2.502435 19.512207 0.010006
-2.187694 19.512207 0.009986
-1.872953 19.512207 0.009988
-1.558212 19.512207 0.009671
-1.243471 19.512207 0.009392
-0.928730 19.512207 0.009298
-0.613989 19.512207 0.009088
-0.299248 19.512207 0.009040
0.015493 19.512207 0.009001
0.330234 19.512207 0.008826
0.644975 19.512207 0.008681
0.959716 19.512207 0.008635
1.274457 19.512207 0.008874
1.589198 19.512207 0.008839
1.903938 19.512207 0.008804
2.218679 19.512207 0.008707
2.533421 19.512207 0.008445
2.848162 19.512207 0.008126
3.162903 19.512207 0.007879
3.477644 19.512207 0.007785
3.792385 19.512207 0.007819
4.107125 19.512207 0.007867
4.421866 19.512207 0.008093
4.736608 19.512207 0.008284
5.051349 19.512207 0.008638
5.366090 19.512207 0.009179
5.680831 19.512207 0.009770
5.995571 19.512207 0.010784
6.310312 19.512207 0.011908
6.625053 19.512207 0.013449
6.939795 19.512207 0.015442
7.254536 19.512207 0.019096
7.569277 19.512207 0.025985
7.884017 19.512207 0.037680
8.198758 19.512207 0.057815
8.513499 19.512207 0.087700
8.828240 19.512207 0.127361
9.142982 19.512207 0.188156
9.457723 19.512207 0.256493
9.772464 19.512207 0.338844
10.087205 19.512207 0.449393
10.401946 19.512207 0.572253
10.716687 19.512207 0.680660
11.031426 19.512207 0.799733
11.346168 19.512207 0.933235
11.660909 19.512207 1.064745
11.975650 19.512207 1.195613
12.290391 19.512207 1.296295
12.605132 19.512207 1.421288
12.919873 19.512207 1.483874
13.234614 19.512207 1.532396
13.549356 19.512207 1.598782
13.864097 19.512207 1.656622
14.178838 19.512207 1.712255
14.493579 19.512207 1.716547
14.808320 19.512207 1.752157
15.123059 19.512207 1.911355
15.437800 19.512207 2.466988
15.752542 19.512207 3.391034
16.067284 19.512207 0.000000
16.382023 19.512207 0.000000
16.696766 19.512207 0.000000
17.011505 19.512207 0.000000
17.326248 19.512207 0.000000
17.640987 19.512207 0.000000
17.955730 19.512207 0.000000
18.270470 19.512207 0.000000
18.585213 19.512207 0.000000
18.899952 19.512207 0.000000
-7.223550 19.197468 0.000000
-6.908809 19.197468 0.016517
-6.594068 19.197468 0.011244
-6.279327 19.197468 0.010757
-5.964586 19.197468 0.010749
-5.649845 19.197468 0.010926
-5.335104 19.197468 0.010929
-5.020363 19.197468 0.010827
-4.705622 19.197468 0.010541
-4.390881 19.197468 0.010588
-4.076140 19.197468 0.010785
-3.761399 19.197468 0.010847
-3.446658 19.197468 0.010953
-3.131917 19.197468 0.010517
-2.817176 19.197468 0.010178
-2.502435 19.197468 0.009998
-2.187694 19.197468 0.009730
-1.872953 19.197468 0.009677
-1.558212 19.197468 0.009556
-1.243471 19.197468 0.009180
-0.928730 19.197468 0.009136
-0.613989 19.197468 0.008927
-0.299248 19.197468 0.009010
0.015493 19.197468 0.009057
0.330234 19.197468 0.008918
0.644975 19.197468 0.008925
0.959716 19.197468 0.008865
1.274457 19.197468 0.008979
1.589198 19.197468 0.008762
1.903938 19.197468 0.008581
2.218679 19.197468 0.008355
2.533421 19.197468 0.008099
2.848162 19.197468 0.007944
3.162903 19.197468 0.007829
3.477644 19.197468 0.007736
3.792385 19.197468 0.007803
4.107125 19.197468 0.007948
4.421866 19.197468 0.008249
4.736608 19.197468 0.008484
5.051349 19.197468 0.008891
5.366090 19.197468 0.009429
5.680831 19.197468 0.009885
5.995571 19.197468 0.010625
6.310312 19.197468 0.011530
6.625053 19.197468 0.012957
6.939795 19.197468 0.015113
7.254536 19.197468 0.018999
7.569277 19.197468 0.026524
7.884017 19.197468 0.038377
8.198758 19.197468 0.057963
8.513499 19.197468 0.087636
8.828240 19.197468 0.129988
9.142982 19.197468 0.186981
9.457723 19.197468 0.259265
9.772464 19.197468 0.340874
10.087205 19.197468 0.460241
10.401946 19.197468 0.572581
10.716687 19.197468 0.692489
11.031426 19.197468 0.820592
11.346168 19.197468 0.932690
11.660909 19.197468 1.074413
11.975650 19.197468 1.189320
12.290391 19.197468 1.311017
12.605132 19.197468 1.428989
12.919873 19.197468 1.475999
13.234614 19.197468 1.523167
13.549356 19.197468 1.596208
13.864097 19.197468 1.687032
14.178838 19.197468 1.720829
14.493579 19.197468 1.763806
14.808320 19.197468 1.764191
15.123059 19.197468 1.885344
15.437800 19.197468 2.540288
15.752542 19.197468 3.412017
16.067284 19.197468 0.000000
16.382023 19.197468 0.000000
16.696766 19.197468 0.000000
17.011505 19.197468 0.000000
17.326248 19.197468 0.000000
17.640987 19.197468 0.000000
17.955730 19.197468 0.000000
18.270470 19.197468 0.000000
18.585213 19.197468 0.000000
18.899952 19.197468 0.000000
-7.223550 18.882727 0.000000
-6.908809 18.882727 0.016192
-6.594068 18.882727 0.011031
-6.279327 18.882727 0.010747
-5.964586 18.882727 0.010693
-5.649845 18.882727 0.010793
-5.335104 18.882727 0.010843
-5.020363 18.882727 0.010804
-4.705622 18.882727 0.010450
-4.390881 18.882727 0.010427
-4.076140 18.882727 0.010470
-3.761399 18.882727 0.010532
-3.446658 18.882727 0.010537
-3.131917 18.882727 0.010074
-2.817176 18.882727 0.009866
-2.502435 18.882727 0.009818
-2.187694 18.882727 0.009537
-1.872953 18.882727 0.009426
-1.558212 18.882727 0.009411
-1.243471 18.882727 0.009134
-0.928730 18.882727 0.009231
-0.613989 18.882727 0.009062
-0.299248 18.882727 0.009165
0.015493 18.882727 0.009136
0.330234 18.882727 0.008907
0.644975 18.882727 0.008851
0.959716 18.882727 0.008766
1.274457 18.882727 0.008672
1.589198 18.882727 0.008462
1.903938 18.882727 0.008246
2.218679 18.882727 0.007983
2.533421 18.882727 0.007832
2.848162 18.882727 0.007874
3.162903 18.882727 0.007881
3.477644 18.882727 0.007835
3.792385 18.882727 0.007967
4.107125 18.882727 0.008245
4.421866 18.882727 0.008634
4.736608 18.882727 0.008706
5.051349 18.882727 0.008929
5.366090 18.882727 0.009315
5.680831 18.882727 0.009569
5.995571 18.882727 0.010202
6.310312 18.882727 0.011044
6.625053 18.882727 0.012549
6.939795 18.882727 0.015019
7.254536 18.882727 0.019273
7.569277 18.882727 0.026762
7.884017 18.882727 0.039130
8.198758 18.882727 0.058888
8.513499 18.882727 0.088730
8.828240 18.882727 0.130272
9.142982 18.882727 0.193137
9.457723 18.882727 0.266963
9.772464 18.882727 0.335236
10.087205 18.882727 0.436438
10.401946 18.882727 0.558005
10.716687 18.882727 0.690068
11.031426 18.882727 0.818832
11.346168 18.882727 0.949039
11.660909 18.882727 1.104443
11.975650 18.882727 1.161916
12.290391 18.882727 1.275473
12.605132 18.882727 1.376993
12.919873 18.882727 1.471675
13.234614 18.882727 1.543368
13.549356 18.882727 1.610950
13.864097 18.882727 1.704953
14.178838 18.882727 1.715603
14.493579 18.882727 1.739670
14.808320 18.882727 1.770365
15.123059 18.882727 1.899264
15.437800 18.882727 2.530501
15.752542 18.882727 3.315567
16.067284 18.882727 0.000000
16.382023 18.882727 0.000000
16.696766 18.882727 0.000000
17.011505 18.882727 0.000000
17.326248 18.882727 0.000000
17.640987 18.882727 0.000000
17.955730 18.882727 0.000000
18.270470 18.882727 0.000000
18.585213 18.882727 0.000000
18.899952 18.882727 0.000000
-7.223550 18.567986 0.000000
-6.908809 18.567986 0.016006
-6.594068 18.567986 0.011034
-6.279327 18.567986 0.010866
-5.964586 18.567986 0.010788
-5.649845 18.567986 0.010840
-5.335104 18.567986 0.010745
-5.020363 18.567986 0.010605
-4.705622 18.567986 0.010231
-4.390881 18.567986 0.010151
-4.076140 18.567986 0.010076
-3.761399 18.567986 0.010147
-3.446658 18.567986 0.010030
-3.131917 18.567986 0.009705
-2.817176 18.567986 0.009629
-2.502435 18.567986 0.009596
-2.187694 18.567986 0.009474
-1.872953 18.567986 0.009416
-1.558212 18.567986 0.009396
-1.243471 18.567986 0.009210
-0.928730 18.567986 0.009434
-0.613989 18.567986 0.009457
-0.299248 18.567986 0.009391
0.015493 18.567986 0.008999
0.330234 18.567986 0.008582
0.644975 18.567986 0.008468
0.959716 18.567986 0.008293
1.274457 18.567986 0.008176
1.589198 18.567986 0.008225
1.903938 18.567986 0.008111
2.218679 18.567986 0.007794
2.533421 18.567986 0.007736
2.848162 18.567986 0.007800
3.162903 18.567986 0.007963
3.477644 18.567986 0.008108
3.792385 18.567986 0.008302
4.107125 18.567986 0.008549
4.421866 18.567986 0.008756
4.736608 18.567986 0.008556
5.051349 18.567986 0.008561
5.366090 18.567986 0.008888
5.680831 18.567986 0.009285
5.995571 18.567986 0.009989
6.310312 18.567986 0.010878
6.625053 18.567986 0.012513
6.939795 18.567986 0.015316
7.254536 18.567986 0.020060
7.569277 18.567986 0.027357
7.884017 18.567986 0.039423
8.198758 18.567986 0.058249
8.513499 18.567986 0.088242
8.828240 18.567986 0.130233
9.142982 18.567986 0.190812
9.457723 18.567986 0.263737
9.772464 18.567986 0.345979
10.087205 18.567986 0.442991
10.401946 18.567986 0.559179
10.716687 18.567986 0.697349
11.031426 18.567986 0.810276
11.346168 18.567986 0.956768
11.660909 18.567986 1.068157
11.975650 18.567986 1.157521
12.290391 18.567986 1.256320
12.605132 18.567986 1.392824
12.919873 18.567986 1.470356
13.234614 18.567986 1.555822
13.549356 18.567986 1.625368
13.864097 18.567986 1.709789
14.178838 18.567986 1.736790
14.493579 18.567986 1.745719
14.808320 18.567986 1.741348
15.123059 18.567986 1.920981
15.437800 18.567986 2.502340
15.752542 18.567986 3.289578
16.067284 18.567986 0.000000
16.382023 18.567986 0.000000
16.696766 18.567986 0.000000
17.011505 18.567986 0.000000
17.326248 18.567986 0.000000
17.640987 18.567986 0.000000
17.955730 18.567986 0.000000
18.270470 18.567986 0.000000
18.585213 18.567986 0.000000
18.899952 18.567986 0.000000
-7.223550 18.253244 0.000000
-6.908809 18.253244 0.016078
-6.594068 18.253244 0.011179
-6.279327 18.253244 0.010975
-5.964586 18.253244 0.010813
-5.649845 18.253244 0.010766
-5.335104 18.253244 0.010578
-5.020363 18.253244 0.010328
-4.705622 18.253244 0.010021
-4.390881 18.253244 0.009946
-4.076140 18.253244 0.009855
-3.761399 18.253244 0.009957
-3.446658 18.253244 0.009817
-3.131917 18.253244 0.009631
-2.817176 18.253244 0.009579
-2.502435 18.253244 0.009401
-2.187694 18.253244 0.009512
-1.872953 18.253244 0.009722
-1.558212 18.253244 0.009571
-1.243471 18.253244 0.009425
-0.928730 18.253244 0.009524
-0.613989 18.253244 0.009427
-0.299248 18.253244 0.009221
0.015493 18.253244 0.008732
0.330234 18.253244 0.008268
0.644975 18.253244 0.008072
0.959716 18.253244 0.007920
1.274457 18.253244 0.007867
1.589198 18.253244 0.008092
1.903938 18.253244 0.008084
2.218679 18.253244 0.007832
2.533421 18.253244 0.007899
2.848162 18.253244 0.007963
3.162903 18.253244 0.008117
3.477644 18.253244 0.008337
3.792385 18.253244 0.008376
4.107125 18.253244 0.008402
4.421866 18.253244 0.008462
4.736608 18.253244 0.008229
5.051349 18.253244 0.008230
5.366090 18.253244 0.008661
5.680831 18.253244 0.009169
5.995571 18.253244 0.010029
6.310312 18.253244 0.011122
6.625053 18.253244 0.012903
6.939795 18.253244 0.015921
7.254536 18.253244 0.020664
7.569277 18.253244 0.028208
7.884017 18.253244 0.039838
8.198758 18.253244 0.057758
8.513499 18.253244 0.088184
8.828240 18.253244 0.132631
9.142982 18.253244 0.193267
9.457723 18.253244 0.264985
9.772464 18.253244 0.348158
10.087205 18.253244 0.446197
10.401946 18.253244 0.565683
10.716687 18.253244 0.692472
11.031426 18.253244 0.814479
11.346168 18.253244 0.941421
11.660909 18.253244 1.064795
11.975650 18.253244 1.179853
12.290391 18.253244 1.279614
12.605132 18.253244 1.355282
12.919873 18.253244 1.508212
13.234614 18.253244 1.552409
13.549356 18.253244 1.605036
13.864097 18.253244 1.722689
14.178838 18.253244 1.756772
14.493579 18.253244 1.733070
14.808320 18.253244 1.745811
15.123059 18.253244 1.933136
15.437800 18.253244 2.593933
15.752542 18.253244 3.373620
16.067284 18.253244 0.000000
16.382023 18.253244 0.000000
16.696766 18.253244 0.000000
17.011505 18.253244 0.000000
17.326248 18.253244 0.000000
17.640987 18.253244 0.000000
17.955730 18.253244 0.000000
18.270470 18.253244 0.000000
18.585213 18.253244 0.000000
18.899952 18.253244 0.000000
-7.223550 17.938503 0.000000
-6.908809 17.938503 0.016238
-6.594068 17.938503 0.011252
-6.279327 17.938503 0.010900
-5.964586 17.938503 0.010704
-5.649845 17.938503 0.010615
-5.335104 17.938503 0.010439
-5.020363 17.938503 0.010193
-4.705622 17.938503 0.010048
-4.390881 17.938503 0.009976
-4.076140 17.938503 0.009842
-3.761399 17.938503 0.009981
-3.446658 17.938503 0.010006
-3.131917 17.938503 0.009872
-2.817176 17.938503 0.009676
-2.502435 17.938503 0.009507
-2.187694 17.938503 0.009792
-1.872953 17.938503 0.009899
-1.558212 17.938503 0.009606
-1.243471 17.938503 0.009375
-0.928730 17.938503 0.009168
-0.613989 17.938503 0.008945
-0.299248 17.938503 0.008846
0.015493 17.938503 0.008595
0.330234 17.938503 0.008223
0.644975 17.938503 0.008049
0.959716 17.938503 0.007763
1.274457 17.938503 0.007766
1.589198 17.938503 0.008048
1.903938 17.938503 0.008192
2.218679 17.938503 0.008135
2.533421 17.938503 0.008148
2.848162 17.938503 0.008061
3.162903 17.938503 0.008145
3.477644 17.938503 0.008200
3.792385 17.938503 0.008019
4.107125 17.938503 0.008021
4.421866 17.938503 0.008164
4.736608 17.938503 0.008082
5.051349 17.938503 0.008220
5.366090 17.938503 0.008694
5.680831 17.938503 0.009305
5.995571 17.938503 0.010298
6.310312 17.938503 0.011659
6.625053 17.938503 0.013453
6.939795 17.938503 0.016272
7.254536 17.938503 0.021387
7.569277 17.938503 0.028839
7.884017 17.938503 0.040377
8.198758 17.938503 0.058352
8.513499 17.938503 0.089197
8.828240 17.938503 0.132939
9.142982 17.938503 0.196026
9.457723 17.938503 0.269575
9.772464 17.938503 0.354349
10.087205 17.938503 0.448272
10.401946 17.938503 0.565749
10.716687 17.938503 0.698812
11.031426 17.938503 0.823284
11.346168 17.938503 0.963521
11.660909 17.938503 1.060032
11.975650 17.938503 1.170875
12.290391 17.938503 1.272728
12.605132 17.938503 1.376406
12.919873 17.938503 1.507667
13.234614 17.938503 1.536507
13.549356 17.938503 1.604947
13.864097 17.938503 1.723157
14.178838 17.938503 1.768425
14.493579 17.938503 1.755098
14.808320 17.938503 1.754087
15.123059 17.938503 1.911174
15.437800 17.938503 2.457146
15.752542 17.938503 3.449403
16.067284 17.938503 0.000000
16.382023 17.938503 0.000000
16.696766 17.938503 0.000000
17.011505 17.938503 0.000000
17.326248 17.938503 0.000000
17.640987 17.938503 0.000000
17.955730 17.938503 0.000000
18.270470 17.938503 0.000000
18.585213 17.938503 0.000000
18.899952 17.938503 0.000000
-7.223550 17.623762 0.000000
-6.908809 17.623762 0.016161
-6.594068 17.623762 0.011113
-6.279327 17.623762 0.010693
-5.964586 17.623762 0.010613
-5.649845 17.623762 0.010523
-5.335104 17.623762 0.010357
-5.020363 17.623762 0.010171
-4.705622 17.623762 0.010068
-4.390881 17.623762 0.010063
-4.076140 17.623762 0.010035
-3.761399 17.623762 0.010179
-3.446658 17.623762 0.010372
-3.131917 17.623762 0.010146
-2.817176 17.623762 0.009784
-2.502435 17.623762 0.009647
-2.187694 17.623762 0.009847
-1.872953 17.623762 0.009754
-1.558212 17.623762 0.009379
-1.243471 17.623762 0.009035
-0.928730 17.623762 0.008745
-0.613989 17.623762 0.008518
-0.299248 17.623762 0.008558
0.015493 17.623762 0.008545
0.330234 17.623762 0.008339
0.644975 17.623762 0.008171
0.959716 17.623762 0.007926
1.274457 17.623762 0.007997
1.589198 17.623762 0.008216
1.903938 17.623762 0.008382
2.218679 17.623762 0.008402
2.533421 17.623762 0.008198
2.848162 17.623762 0.007928
3.162903 17.623762 0.007960
3.477644 17.623762 0.007929
3.792385 17.623762 0.007708
4.107125 17.623762 0.007810
4.421866 17.623762 0.008103
4.736608 17.623762 0.008153
5.051349 17.623762 0.008361
5.366090 17.623762 0.008868
5.680831 17.623762 0.009501
5.995571 17.623762 0.010654
6.310312 17.623762 0.012164
6.625053 17.623762 0.014064
6.939795 17.623762 0.016510
7.254536 17.623762 0.021241
7.569277 17.623762 0.029061
7.884017 17.623762 0.040796
8.198758 17.623762 0.059904
8.513499 17.623762 0.090869
8.828240 17.623762 0.133477
9.142982 17.623762 0.190962
9.457723 17.623762 0.269054
9.772464 17.623762 0.354480
10.087205 17.623762 0.449458
10.401946 17.623762 0.571729
10.716687 17.623762 0.687417
11.031426 17.623762 0.829329
11.346168 17.623762 0.936020
11.660909 17.623762 1.059302
11.975650 17.623762 1.171913
12.290391 17.623762 1.302458
12.605132 17.623762 1.411612
12.919873 17.623762 1.490767
13.234614 17.623762 1.533656
13.549356 17.623762 1.648090
13.864097 17.623762 1.719769
14.178838 17.623762 1.762031
14.493579 17.623762 1.729424
14.808320 17.623762 1.784317
15.123059 17.623762 1.903814
15.437800 17.623762 2.492078
15.752542 17.623762 3.474533
16.067284 17.623762 0.000000
16.382023 17.623762 0.000000
16.696766 17.623762 0.000000
17.011505 17.623762 0.000000
17.326248 17.623762 0.000000
17.640987 17.623762 0.000000
17.955730 17.623762 0.000000
18.270470 17.623762 0.000000
18.585213 17.623762 0.000000
18.899952 17.623762 0.000000
-7.223550 17.309021 0.000000
-6.908809 17.309021 0.015817
-6.594068 17.309021 0.010848
-6.279327 17.309021 0.010524
-5.964586 17.309021 0.010553
-5.649845 17.309021 0.010410
-5.335104 17.309021 0.010217
-5.020363 17.309021 0.010113
-4.705622 17.309021 0.010088
-4.390881 17.309021 0.010215
-4.076140 17.309021 0.010255
-3.761399 17.309021 0.010398
-3.446658 17.309021 0.010478
-3.131917 17.309021 0.010131
-2.817176 17.309021 0.009736
-2.502435 17.309021 0.009610
-2.187694 17.309021 0.009523
-1.872953 17.309021 0.009387
-1.558212 17.309021 0.009107
-1.243471 17.309021 0.008851
-0.928730 17.309021 0.008539
-0.613989 17.309021 0.008360
-0.299248 17.309021 0.008436
0.015493 17.309021 0.008497
0.330234 17.309021 0.008443
0.644975 17.309021 0.008271
0.959716 17.309021 0.008209
1.274457 17.309021 0.008366
1.589198 17.309021 0.008377
1.903938 17.309021 0.008389
2.218679 17.309021 0.008313
2.533421 17.309021 0.008074
2.848162 17.309021 0.007798
3.162903 17.309021 0.007790
3.477644 17.309021 0.007749
3.792385 17.309021 0.007586
4.107125 17.309021 0.007761
4.421866 17.309021 0.008153
4.736608 17.309021 0.008326
5.051349 17.309021 0.008559
5.366090 17.309021 0.009070
5.680831 17.309021 0.009757
5.995571 17.309021 0.010837
6.310312 17.309021 0.012236
6.625053 17.309021 0.013958
6.939795 17.309021 0.016481
7.254536 17.309021 0.021095
7.569277 17.309021 0.029212
7.884017 17.309021 0.042103
8.198758 17.309021 0.060956
8.513499 17.309021 0.090151
8.828240 17.309021 0.136681
9.142982 17.309021 0.196649
9.457723 17.309021 0.273386
9.772464 17.309021 0.356368
10.087205 17.309021 0.449859
10.401946 17.309021 0.574609
10.716687 17.309021 0.697950
11.031426 17.309021 0.818862
11.346168 17.309021 0.938356
11.660909 17.309021 1.048198
11.975650 17.309021 1.156735
12.290391 17.309021 1.320927
12.605132 17.309021 1.401261
12.919873 17.309021 1.477650
13.234614 17.309021 1.571048
13.549356 17.309021 1.641946
13.864097 17.309021 1.728727
14.178838 17.309021 1.774887
14.493579 17.309021 1.757031
14.808320 17.309021 1.781754
15.123059 17.309021 1.966085
15.437800 17.309021 2.467931
15.752542 17.309021 3.397031
16.067284 17.309021 0.000000
16.382023 17.309021 0.000000
16.696766 17.309021 0.000000
17.011505 17.309021 0.000000
17.326248 17.309021 0.000000
17.640987 17.309021 0.000000
17.955730 17.309021 0.000000
18.270470 17.309021 0.000000
18.585213 17.309021 0.000000
18.899952 17.309021 0.000000
-7.223550 16.994282 0.000000
-6.908809 16.994282 0.015327
-6.594068 16.994282 0.010794
-6.279327 16.994282 0.010510
-5.964586 16.994282 0.010436
-5.649845 16.994282 0.010293
-5.335104 16.994282 0.010274
-5.020363 16.994282 0.010170
-4.705622 16.994282 0.010186
-4.390881 16.994282 0.010409
-4.076140 16.994282 0.010348
-3.761399 16.994282 0.010242
-3.446658 16.994282 0.010200
-3.131917 16.994282 0.009772
-2.817176 16.994282 0.009488
-2.502435 16.994282 0.009433
-2.187694 16.994282 0.009195
-1.872953 16.994282 0.009099
-1.558212 16.994282 0.008915
-1.243471 16.994282 0.008793
-0.928730 16.994282 0.008539
-0.613989 16.994282 0.008388
-0.299248 16.994282 0.008518
0.015493 16.994282 0.008506
0.330234 16.994282 0.008545
0.644975 16.994282 0.008382
0.959716 16.994282 0.008289
1.274457 16.994282 0.008366
1.589198 16.994282 0.008237
1.903938 16.994282 0.008135
2.218679 16.994282 0.007967
2.533421 16.994282 0.007918
2.848162 16.994282 0.007817
3.162903 16.994282 0.007763
3.477644 16.994282 0.007723
3.792385 16.994282 0.007657
4.107125 16.994282 0.007879
4.421866 16.994282 0.008264
4.736608 16.994282 0.008542
5.051349 16.994282 0.008758
5.366090 16.994282 0.009070
5.680831 16.994282 0.009640
5.995571 16.994282 0.010559
6.310312 16.994282 0.011777
6.625053 16.994282 0.013385
6.939795 16.994282 0.016123
7.254536 16.994282 0.020972
7.569277 16.994282 0.028752
7.884017 16.994282 0.046773
8.198758 16.994282 0.063783
8.513499 16.994282 0.093460
8.828240 16.994282 0.138349
9.142982 16.994282 0.200247
9.457723 16.994282 0.279537
9.772464 16.994282 0.361826
10.087205 16.994282 0.455759
10.401946 16.994282 0.584546
10.716687 16.994282 0.723158
11.031426 16.994282 0.834169
11.346168 16.994282 0.913647
11.660909 16.994282 1.043533
11.975650 16.994282 1.190981
12.290391 16.994282 1.335458
12.605132 16.994282 1.416053
12.919873 16.994282 1.519718
13.234614 16.994282 1.582157
13.549356 16.994282 1.663142
13.864097 16.994282 1.762645
14.178838 16.994282 1.801273
14.493579 16.994282 1.849669
14.808320 16.994282 1.824225
15.123059 16.994282 1.955540
15.437800 16.994282 2.488751
15.752542 16.994282 3.377249
16.067284 16.994282 0.000000
16.382023 16.994282 0.000000
16.696766 16.994282 0.000000
17.011505 16.994282 0.000000
17.326248 16.994282 0.000000
17.640987 16.994282 0.000000
17.955730 16.994282 0.000000
18.270470 16.994282 0.000000
18.585213 16.994282 0.000000
18.899952 16.994282 0.000000
-7.223550 16.679539 0.000000
-6.908809 16.679539 0.014989
-6.594068 16.679539 0.010832
-6.279327 16.679539 0.010612
-5.964586 16.679539 0.010467
-5.649845 16.679539 0.010492
-5.335104 16.679539 0.010490
-5.020363 16.679539 0.010243
-4.705622 16.679539 0.010224
-4.390881 16.679539 0.010307
-4.076140 16.679539 0.010015
-3.761399 16.679539 0.009804
-3.446658 16.679539 0.009585
-3.131917 16.679539 0.009254
-2.817176 16.679539 0.009234
-2.502435 16.679539 0.009277
-2.187694 16.679539 0.009172
-1.872953 16.679539 0.009137
-1.558212 16.679539 0.008892
-1.243471 16.679539 0.008747
-0.928730 16.679539 0.008710
-0.613989 16.679539 0.008577
-0.299248 16.679539 0.008625
0.015493 16.679539 0.008610
0.330234 16.679539 0.008561
0.644975 16.679539 0.008180
0.959716 16.679539 0.008014
1.274457 16.679539 0.008004
1.589198 16.679539 0.007965
1.903938 16.679539 0.007903
2.218679 16.679539 0.007697
2.533421 16.679539 0.007787
2.848162 16.679539 0.007932
3.162903 16.679539 0.007816
3.477644 16.679539 0.007859
3.792385 16.679539 0.007881
4.107125 16.679539 0.008028
4.421866 16.679539 0.008342
4.736608 16.679539 0.008551
5.051349 16.679539 0.008657
5.366090 16.679539 0.008867
5.680831 16.679539 0.009396
5.995571 16.679539 0.010291
6.310312 16.679539 0.011460
6.625053 16.679539 0.013148
6.939795 16.679539 0.015961
7.254536 16.679539 0.020630
7.569277 16.679539 0.029022
7.884017 16.679539 0.042086
8.198758 16.679539 0.062278
8.513499 16.679539 0.092797
8.828240 16.679539 0.138211
9.142982 16.679539 0.197344
9.457723 16.679539 0.280008
9.772464 16.679539 0.371145
10.087205 16.679539 0.467055
10.401946 16.679539 0.590262
10.716687 16.679539 0.717425
11.031426 16.679539 0.830275
11.346168 16.679539 0.944239
11.660909 16.679539 1.040820
11.975650 16.679539 1.196423
12.290391 16.679539 1.317991
12.605132 16.679539 1.396680
12.919873 16.679539 1.519941
13.234614 16.679539 1.610613
13.549356 16.679539 1.628289
13.864097 16.679539 1.733316
14.178838 16.679539 1.800353
14.493579 16.679539 1.844867
14.808320 16.679539 1.798887
15.123059 16.679539 1.943474
15.437800 16.679539 2.541992
15.752542 16.679539 3.550292
16.067284 16.679539 0.000000
16.382023 16.679539 0.000000
16.696766 16.679539 0.000000
17.011505 16.679539 0.000000
17.326248 16.679539 0.000000
17.640987 16.679539 0.000000
17.955730 16.679539 0.000000
18.270470 16.679539 0.000000
18.585213 16.679539 0.000000
18.899952 16.679539 0.000000
-7.223550 16.364799 0.000000
-6.908809 16.364799 0.015078
-6.594068 16.364799 0.010893
-6.279327 16.364799 0.010683
-5.964586 16.364799 0.010599
-5.649845 16.364799 0.010717
-5.335104 16.364799 0.010533
-5.020363 16.364799 0.010131
-4.705622 16.364799 0.010028
-4.390881 16.364799 0.009925
-4.076140 16.364799 0.009524
-3.761399 16.364799 0.009342
-3.446658 16.364799 0.009207
-3.131917 16.364799 0.009033
-2.817176 16.364799 0.009089
-2.502435 16.364799 0.009219
-2.187694 16.364799 0.009270
-1.872953 16.364799 0.009350
-1.558212 16.364799 0.008980
-1.243471 16.364799 0.008745
-0.928730 16.364799 0.008824
-0.613989 16.364799 0.008690
-0.299248 16.364799 0.008635
0.015493 16.364799 0.008613
0.330234 16.364799 0.008391
0.644975 16.364799 0.007920
0.959716 16.364799 0.007760
1.274457 16.364799 0.007769
1.589198 16.364799 0.007840
1.903938 16.364799 0.007819
2.218679 16.364799 0.007543
2.533421 16.364799 0.007724
2.848162 16.364799 0.008076
3.162903 16.364799 0.008065
3.477644 16.364799 0.008098
3.792385 16.364799 0.008033
4.107125 16.364799 0.008052
4.421866 16.364799 0.008282
4.736608 16.364799 0.008388
5.051349 16.364799 0.008407
5.366090 16.364799 0.008642
5.680831 16.364799 0.009177
5.995571 16.364799 0.010141
6.310312 16.364799 0.011518
6.625053 16.364799 0.013241
6.939795 16.364799 0.015860
7.254536 16.364799 0.020596
7.569277 16.364799 0.028605
7.884017 16.364799 0.042601
8.198758 16.364799 0.063508
8.513499 16.364799 0.092337
8.828240 16.364799 0.135270
9.142982 16.364799 0.200190
9.457723 16.364799 0.281762
9.772464 16.364799 0.371853
10.087205 16.364799 0.483403
10.401946 16.364799 0.595191
10.716687 16.364799 0.726235
11.031426 16.364799 0.843292
11.346168 16.364799 0.952808
11.660909 16.364799 1.058362
11.975650 16.364799 1.189633
12.290391 16.364799 1.312797
12.605132 16.364799 1.412601
12.919873 16.364799 1.505146
13.234614 16.364799 1.574089
13.549356 16.364799 1.609918
13.864097 16.364799 1.699687
14.178838 16.364799 1.795328
14.493579 16.364799 1.814808
14.808320 16.364799 1.862016
15.123059 16.364799 1.958176
15.437800 16.364799 2.517168
15.752542 16.364799 3.448248
16.067284 16.364799 0.000000
16.382023 16.364799 0.000000
16.696766 16.364799 0.000000
17.011505 16.364799 0.000000
17.326248 16.364799 0.000000
17.640987 16.364799 0.000000
17.955730 16.364799 0.000000
18.270470 16.364799 0.000000
18.585213 16.364799 0.000000
18.899952 16.364799 0.000000
-7.223550 16.050056 0.000000
-6.908809 16.050056 0.015352
-6.594068 16.050056 0.010861
-6.279327 16.050056 0.010616
-5.964586 16.050056 0.010617
-5.649845 16.050056 0.010645
-5.335104 16.050056 0.010308
-5.020363 16.050056 0.010007
-4.705622 16.050056 0.009872
-4.390881 16.050056 0.009643
-4.076140 16.050056 0.009213
-3.761399 16.050056 0.009179
-3.446658 16.050056 0.009203
-3.131917 16.050056 0.009171
-2.817176 16.050056 0.009105
-2.502435 16.050056 0.009233
-2.187694 16.050056 0.009371
-1.872953 16.050056 0.009407
-1.558212 16.050056 0.008954
-1.243471 16.050056 0.008701
-0.928730 16.050056 0.008641
-0.613989 16.050056 0.008495
-0.299248 16.050056 0.008497
0.015493 16.050056 0.008471
0.330234 16.050056 0.008286
0.644975 16.050056 0.007826
0.959716 16.050056 0.007666
1.274457 16.050056 0.007807
1.589198 16.050056 0.007864
1.903938 16.050056 0.007873
2.218679 16.050056 0.007612
2.533421 16.050056 0.007848
2.848162 16.050056 0.008238
3.162903 16.050056 0.008208
3.477644 16.050056 0.008115
3.792385 16.050056 0.007903
4.107125 16.050056 0.007898
4.421866 16.050056 0.008165
4.736608 16.050056 0.008216
5.051349 16.050056 0.008246
5.366090 16.050056 0.008515
5.680831 16.050056 0.009105
5.995571 16.050056 0.010216
6.310312 16.050056 0.011693
6.625053 16.050056 0.013441
6.939795 16.050056 0.016136
7.254536 16.050056 0.020913
7.569277 16.050056 0.029345
7.884017 16.050056 0.043459
8.198758 16.050056 0.063856
8.513499 16.050056 0.092718
8.828240 16.050056 0.135925
9.142982 16.050056 0.201936
9.457723 16.050056 0.287670
9.772464 16.050056 0.385948
10.087205 16.050056 0.482612
10.401946 16.050056 0.595887
10.716687 16.050056 0.713357
11.031426 16.050056 0.839567
11.346168 16.050056 0.930672
11.660909 16.050056 1.064467
11.975650 16.050056 1.176537
12.290391 16.050056 1.309432
12.605132 16.050056 1.426634
12.919873 16.050056 1.529062
13.234614 16.050056 1.612116
13.549356 16.050056 1.683028
13.864097 16.050056 1.733913
14.178838 16.050056 1.813230
14.493579 16.050056 1.833246
14.808320 16.050056 1.856720
15.123059 16.050056 2.024985
15.437800 16.050056 2.504201
15.752542 16.050056 3.588194
16.067284 16.050056 0.000000
16.382023 16.050056 0.000000
16.696766 16.050056 0.000000
17.011505 16.050056 0.000000
17.326248 16.050056 0.000000
17.640987 16.050056 0.000000
17.955730 16.050056 0.000000
18.270470 16.050056 0.000000
18.585213 16.050056 0.000000
18.899952 16.050056 0.000000
-7.223550 15.735317 0.000000
-6.908809 15.735317 0.015473
-6.594068 15.735317 0.010685
-6.279327 15.735317 0.010481
-5.964586 15.735317 0.010508
-5.649845 15.735317 0.010389
-5.335104 15.735317 0.010098
-5.020363 15.735317 0.010059
-4.705622 15.735317 0.009920
-4.390881 15.735317 0.009626
-4.076140 15.735317 0.009166
-3.761399 15.735317 0.009250
-3.446658 15.735317 0.009432
-3.131917 15.735317 0.009478
-2.817176 15.735317 0.009316
-2.502435 15.735317 0.009266
-2.187694 15.735317 0.009298
-1.872953 15.735317 0.009192
-1.558212 15.735317 0.008745
-1.243471 15.735317 0.008575
-0.928730 15.735317 0.008370
-0.613989 15.735317 0.008228
-0.299248 15.735317 0.008362
0.015493 15.735317 0.008324
0.330234 15.735317 0.008201
0.644975 15.735317 0.007941
0.959716 15.735317 0.007889
1.274457 15.735317 0.008026
1.589198 15.735317 0.008019
1.903938 15.735317 0.007978
2.218679 15.735317 0.007780
2.533421 15.735317 0.007895
2.848162 15.735317 0.008192
3.162903 15.735317 0.008165
3.477644 15.735317 0.007884
3.792385 15.735317 0.007619
4.107125 15.735317 0.007774
4.421866 15.735317 0.008116
4.736608 15.735317 0.008129
5.051349 15.735317 0.008195
5.366090 15.735317 0.008581
5.680831 15.735317 0.009180
5.995571 15.735317 0.010351
6.310312 15.735317 0.011794
6.625053 15.735317 0.013643
6.939795 15.735317 0.016341
7.254536 15.735317 0.021223
7.569277 15.735317 0.030199
7.884017 15.735317 0.045207
8.198758 15.735317 0.065585
8.513499 15.735317 0.098111
8.828240 15.735317 0.140739
9.142982 15.735317 0.206708
9.457723 15.735317 0.291797
9.772464 15.735317 0.390622
10.087205 15.735317 0.477150
10.401946 15.735317 0.593675
10.716687 15.735317 0.702705
11.031426 15.735317 0.824714
11.346168 15.735317 0.905835
11.660909 15.735317 1.020595
11.975650 15.735317 1.175447
12.290391 15.735317 1.277797
12.605132 15.735317 1.415356
12.919873 15.735317 1.509368
13.234614 15.735317 1.621013
13.549356 15.735317 1.722686
13.864097 15.735317 1.749958
14.178838 15.735317 1.790604
14.493579 15.735317 1.804356
14.808320 15.735317 1.892739
15.123059 15.735317 2.051078
15.437800 15.735317 2.625837
15.752542 15.735317 3.813999
16.067284 15.735317 0.000000
16.382023 15.735317 0.000000
16.696766 15.735317 0.000000
17.011505 15.735317 0.000000
17.326248 15.735317 0.000000
17.640987 15.735317 0.000000
17.955730 15.735317 0.000000
18.270470 15.735317 0.000000
18.585213 15.735317 0.000000
18.899952 15.735317 0.000000
-7.223550 15.420574 0.000000
-6.908809 15.420574 0.015201
-6.594068 15.420574 0.010425
-6.279327 15.420574 0.010250
-5.964586 15.420574 0.010341
-5.649845 15.420574 0.010136
-5.335104 15.420574 0.009889
-5.020363 15.420574 0.010050
-4.705622 15.420574 0.010044
-4.390881 15.420574 0.009727
-4.076140 15.420574 0.009398
-3.761399 15.420574 0.009457
-3.446658 15.420574 0.009593
-3.131917 15.420574 0.009522
-2.817176 15.420574 0.009383
-2.502435 15.420574 0.009217
-2.187694 15.420574 0.009074
-1.872953 15.420574 0.008802
-1.558212 15.420574 0.008512
-1.243471 15.420574 0.008504
-0.928730 15.420574 0.008300
-0.613989 15.420574 0.008116
-0.299248 15.420574 0.008220
0.015493 15.420574 0.008177
0.330234 15.420574 0.008144
0.644975 15.420574 0.008096
0.959716 15.420574 0.008163
1.274457 15.420574 0.008287
1.589198 15.420574 0.008135
1.903938 15.420574 0.007904
2.218679 15.420574 0.007752
2.533421 15.420574 0.007772
2.848162 15.420574 0.007961
3.162903 15.420574 0.007969
3.477644 15.420574 0.007669
3.792385 15.420574 0.007517
4.107125 15.420574 0.007764
4.421866 15.420574 0.008096
4.736608 15.420574 0.008099
5.051349 15.420574 0.008229
5.366090 15.420574 0.008597
5.680831 15.420574 0.009241
5.995571 15.420574 0.010375
6.310312 15.420574 0.011705
6.625053 15.420574 0.013611
6.939795 15.420574 0.016585
7.254536 15.420574 0.021947
7.569277 15.420574 0.031067
7.884017 15.420574 0.045504
8.198758 15.420574 0.067969
8.513499 15.420574 0.100998
8.828240 15.420574 0.147870
9.142982 15.420574 0.212584
9.457723 15.420574 0.295809
9.772464 15.420574 0.393915
10.087205 15.420574 0.495238
10.401946 15.420574 0.596613
10.716687 15.420574 0.709098
11.031426 15.420574 0.811032
11.346168 15.420574 0.903648
11.660909 15.420574 1.022038
11.975650 15.420574 1.174288
12.290391 15.420574 1.272901
12.605132 15.420574 1.376645
12.919873 15.420574 1.508737
13.234614 15.420574 1.623788
13.549356 15.420574 1.711824
13.864097 15.420574 1.768956
14.178838 15.420574 1.801408
14.493579 15.420574 1.851764
14.808320 15.420574 1.911596
15.123059 15.420574 2.056914
15.437800 15.420574 2.713947
15.752542 15.420574 3.845522
16.067284 15.420574 0.000000
16.382023 15.420574 0.000000
16.696766 15.420574 0.000000
17.011505 15.420574 0.000000
17.326248 15.420574 0.000000
17.640987 15.420574 0.000000
17.955730 15.420574 0.000000
18.270470 15.420574 0.000000
18.585213 15.420574 0.000000
18.899952 15.420574 0.000000
-7.223550 15.105835 0.000000
-6.908809 15.105835 0.015068
-6.594068 15.105835 0.010386
-6.279327 15.105835 0.010184
-5.964586 15.105835 0.010209
-5.649845 15.105835 0.009952
-5.335104 15.105835 0.009902
-5.020363 15.105835 0.010036
-4.705622 15.105835 0.010093
-4.390881 15.105835 0.009814
-4.076140 15.105835 0.009496
-3.761399 15.105835 0.009377
-3.446658 15.105835 0.009370
-3.131917 15.105835 0.009281
-2.817176 15.105835 0.009265
-2.502435 15.105835 0.009102
-2.187694 15.105835 0.008817
-1.872953 15.105835 0.008589
-1.558212 15.105835 0.008466
-1.243471 15.105835 0.008548
-0.928730 15.105835 0.008379
-0.613989 15.105835 0.008226
-0.299248 15.105835 0.008271
0.015493 15.105835 0.008158
0.330234 15.105835 0.008179
0.644975 15.105835 0.008229
0.959716 15.105835 0.008302
1.274457 15.105835 0.008313
1.589198 15.105835 0.008104
1.903938 15.105835 0.007717
2.218679 15.105835 0.007608
2.533421 15.105835 0.007654
2.848162 15.105835 0.007820
3.162903 15.105835 0.007864
3.477644 15.105835 0.007758
3.792385 15.105835 0.007737
4.107125 15.105835 0.007898
4.421866 15.105835 0.008073
4.736608 15.105835 0.008178
5.051349 15.105835 0.008397
5.366090 15.105835 0.008694
5.680831 15.105835 0.009318
5.995571 15.105835 0.010268
6.310312 15.105835 0.011517
6.625053 15.105835 0.013320
6.939795 15.105835 0.016674
7.254536 15.105835 0.022165
7.569277 15.105835 0.030610
7.884017 15.105835 0.046038
8.198758 15.105835 0.067297
8.513499 15.105835 0.103161
8.828240 15.105835 0.152024
9.142982 15.105835 0.215681
9.457723 15.105835 0.294687
9.772464 15.105835 0.394376
10.087205 15.105835 0.498951
10.401946 15.105835 0.615193
10.716687 15.105835 0.711828
11.031426 15.105835 0.811050
11.346168 15.105835 0.900876
11.660909 15.105835 1.030734
11.975650 15.105835 1.168515
12.290391 15.105835 1.263725
12.605132 15.105835 1.399944
12.919873 15.105835 1.542570
13.234614 15.105835 1.617092
13.549356 15.105835 1.693660
13.864097 15.105835 1.776648
14.178838 15.105835 1.819425
14.493579 15.105835 1.899610
14.808320 15.105835 1.854698
15.123059 15.105835 2.103255
15.437800 15.105835 2.773096
15.752542 15.105835 3.957248
16.067284 15.105835 0.000000
16.382023 15.105835 0.000000
16.696766 15.105835 0.000000
17.011505 15.105835 0.000000
17.326248 15.105835 0.000000
17.640987 15.105835 0.000000
17.955730 15.105835 0.000000
18.270470 15.105835 0.000000
18.585213 15.105835 0.000000
18.899952 15.105835 0.000000
-7.223550 14.791092 0.000000
-6.908809 14.791092 0.015182
-6.594068 14.791092 0.010593
-6.279327 14.791092 0.010283
-5.964586 14.791092 0.010131
-5.649845 14.791092 0.009992
-5.335104 14.791092 0.010053
-5.020363 14.791092 0.010039
-4.705622 14.791092 0.009954
-4.390881 14.791092 0.009701
-4.076140 14.791092 0.009306
-3.761399 14.791092 0.009124
-3.446658 14.791092 0.009084
-3.131917 14.791092 0.008993
-2.817176 14.791092 0.009070
-2.502435 14.791092 0.009015
-2.187694 14.791092 0.008774
-1.872953 14.791092 0.008631
-1.558212 14.791092 0.008572
-1.243471 14.791092 0.008724
-0.928730 14.791092 0.008633
-0.613989 14.791092 0.008475
-0.299248 14.791092 0.008455
0.015493 14.791092 0.008322
0.330234 14.791092 0.008183
0.644975 14.791092 0.008146
0.959716 14.791092 0.008157
1.274457 14.791092 0.008178
1.589198 14.791092 0.008014
1.903938 14.791092 0.007659
2.218679 14.791092 0.007626
2.533421 14.791092 0.007721
2.848162 14.791092 0.007895
3.162903 14.791092 0.007976
3.477644 14.791092 0.008079
3.792385 14.791092 0.008136
4.107125 14.791092 0.008047
4.421866 14.791092 0.008086
4.736608 14.791092 0.008350
5.051349 14.791092 0.008576
5.366090 14.791092 0.008804
5.680831 14.791092 0.009431
5.995571 14.791092 0.010334
6.310312 14.791092 0.011464
6.625053 14.791092 0.013330
6.939795 14.791092 0.016852
7.254536 14.791092 0.022509
7.569277 14.791092 0.030824
7.884017 14.791092 0.045622
8.198758 14.791092 0.068132
8.513499 14.791092 0.102657
8.828240 14.791092 0.156308
9.142982 14.791092 0.220705
9.457723 14.791092 0.302197
9.772464 14.791092 0.397487
10.087205 14.791092 0.506297
10.401946 14.791092 0.611934
10.716687 14.791092 0.714014
11.031426 14.791092 0.811379
11.346168 14.791092 0.912705
11.660909 14.791092 1.040831
11.975650 14.791092 1.166845
12.290391 14.791092 1.257230
12.605132 14.791092 1.404146
12.919873 14.791092 1.537284
13.234614 14.791092 1.610559
13.549356 14.791092 1.696130
13.864097 14.791092 1.782668
14.178838 14.791092 1.807758
14.493579 14.791092 1.909330
14.808320 14.791092 1.917945
15.123059 14.791092 2.104173
15.437800 14.791092 2.914670
15.752542 14.791092 4.130758
16.067284 14.791092 0.000000
16.382023 14.791092 0.000000
16.696766 14.791092 0.000000
17.011505 14.791092 0.000000
17.326248 14.791092 0.000000
17.640987 14.791092 0.000000
17.955730 14.791092 0.000000
18.270470 14.791092 0.000000
18.585213 14.791092 0.000000
18.899952 14.791092 0.000000
-7.223550 14.476353 0.000000
-6.908809 14.476353 0.015273
-6.594068 14.476353 0.010824
-6.279327 14.476353 0.010319
-5.964586 14.476353 0.010130
-5.649845 14.476353 0.010045
-5.335104 14.476353 0.009985
-5.020363 14.476353 0.009894
-4.705622 14.476353 0.009699
-4.390881 14.476353 0.009425
-4.076140 14.476353 0.009032
-3.761399 14.476353 0.009061
-3.446658 14.476353 0.009065
-3.131917 14.476353 0.008867
-2.817176 14.476353 0.008892
-2.502435 14.476353 0.008936
-2.187694 14.476353 0.008854
-1.872953 14.476353 0.008816
-1.558212 14.476353 0.008688
-1.243471 14.476353 0.008818
-0.928730 14.476353 0.008749
-0.613989 14.476353 0.008566
-0.299248 14.476353 0.008517
0.015493 14.476353 0.008372
0.330234 14.476353 0.008118
0.644975 14.476353 0.007913
0.959716 14.476353 0.007970
1.274457 14.476353 0.008151
1.589198 14.476353 0.008096
1.903938 14.476353 0.007793
2.218679 14.476353 0.007756
2.533421 14.476353 0.007839
2.848162 14.476353 0.008054
3.162903 14.476353 0.008147
3.477644 14.476353 0.008299
3.792385 14.476353 0.008318
4.107125 14.476353 0.008153
4.421866 14.476353 0.008180
4.736608 14.476353 0.008455
5.051349 14.476353 0.008672
5.366090 14.476353 0.008875
5.680831 14.476353 0.009439
5.995571 14.476353 0.010369
6.310312 14.476353 0.011444
6.625053 14.476353 0.013233
6.939795 14.476353 0.016955
7.254536 14.476353 0.022452
7.569277 14.476353 0.031844
7.884017 14.476353 0.046041
8.198758 14.476353 0.070177
8.513499 14.476353 0.104546
8.828240 14.476353 0.153540
9.142982 14.476353 0.226252
9.457723 14.476353 0.310901
9.772464 14.476353 0.399353
10.087205 14.476353 0.504004
10.401946 14.476353 0.609725
10.716687 14.476353 0.709160
11.031426 14.476353 0.801068
11.346168 14.476353 0.918699
11.660909 14.476353 1.076270
11.975650 14.476353 1.163581
12.290391 14.476353 1.278507
12.605132 14.476353 1.425500
12.919873 14.476353 1.488530
13.234614 14.476353 1.599268
13.549356 14.476353 1.694112
13.864097 14.476353 1.757912
14.178838 14.476353 1.822347
14.493579 14.476353 1.847458
14.808320 14.476353 1.950219
15.123059 14.476353 2.176716
15.437800 14.476353 3.103769
15.752542 14.476353 4.199988
16.067284 14.476353 0.000000
16.382023 14.476353 0.000000
16.696766 14.476353 0.000000
17.011505 14.476353 0.000000
17.326248 14.476353 0.000000
17.640987 14.476353 0.000000
17.955730 14.476353 0.000000
18.270470 14.476353 0.000000
18.585213 14.476353 0.000000
18.899952 14.476353 0.000000
-7.223550 14.161610 0.000000
-6.908809 14.161610 0.015336
-6.594068 14.161610 0.010750
-6.279327 14.161610 0.010147
-5.964586 14.161610 0.009922
-5.649845 14.161610 0.009803
-5.335104 14.161610 0.009685
-5.020363 14.161610 0.009689
-4.705622 14.161610 0.009604
-4.390881 14.161610 0.009224
-4.076140 14.161610 0.008909
-3.761399 14.161610 0.009047
-3.446658 14.161610 0.009121
-3.131917 14.161610 0.008880
-2.817176 14.161610 0.008773
-2.502435 14.161610 0.008812
-2.187694 14.161610 0.008874
-1.872953 14.161610 0.008920
-1.558212 14.161610 0.008755
-1.243471 14.161610 0.008669
-0.928730 14.161610 0.008514
-0.613989 14.161610 0.008412
-0.299248 14.161610 0.008400
0.015493 14.161610 0.008375
0.330234 14.161610 0.007985
0.644975 14.161610 0.007776
0.959716 14.161610 0.007971
1.274457 14.161610 0.008191
1.589198 14.161610 0.008198
1.903938 14.161610 0.007990
2.218679 14.161610 0.007843
2.533421 14.161610 0.007905
2.848162 14.161610 0.008095
3.162903 14.161610 0.008197
3.477644 14.161610 0.008213
3.792385 14.161610 0.008187
4.107125 14.161610 0.008117
4.421866 14.161610 0.008220
4.736608 14.161610 0.008475
5.051349 14.161610 0.008600
5.366090 14.161610 0.008932
5.680831 14.161610 0.009467
5.995571 14.161610 0.010412
6.310312 14.161610 0.011650
6.625053 14.161610 0.013345
6.939795 14.161610 0.017220
7.254536 14.161610 0.023000
7.569277 14.161610 0.032075
7.884017 14.161610 0.046741
8.198758 14.161610 0.072778
8.513499 14.161610 0.106200
8.828240 14.161610 0.158360
9.142982 14.161610 0.223241
9.457723 14.161610 0.311414
9.772464 14.161610 0.399046
10.087205 14.161610 0.502723
10.401946 14.161610 0.606975
10.716687 14.161610 0.708373
11.031426 14.161610 0.804884
11.346168 14.161610 0.925340
11.660909 14.161610 1.059955
11.975650 14.161610 1.172168
12.290391 14.161610 1.300197
12.605132 14.161610 1.417116
12.919873 14.161610 1.485382
13.234614 14.161610 1.636307
13.549356 14.161610 1.713608
13.864097 14.161610 1.768613
14.178838 14.161610 1.814654
14.493579 14.161610 1.869168
14.808320 14.161610 1.997339
15.123059 14.161610 2.228888
15.437800 14.161610 3.321842
15.752542 14.161610 4.493263
16.067284 14.161610 0.000000
16.382023 14.161610 0.000000
16.696766 14.161610 0.000000
17.011505 14.161610 0.000000
17.326248 14.161610 0.000000
17.640987 14.161610 0.000000
17.955730 14.161610 0.000000
18.270470 14.161610 0.000000
18.585213 14.161610 0.000000
18.899952 14.161610 0.000000
-7.223550 13.846870 0.000000
-6.908809 13.846870 0.015017
-6.594068 13.846870 0.010380
-6.279327 13.846870 0.009891
-5.964586 13.846870 0.009762
-5.649845 13.846870 0.009582
-5.335104 13.846870 0.009499
-5.020363 13.846870 0.009662
-4.705622 13.846870 0.009622
-4.390881 13.846870 0.009189
-4.076140 13.846870 0.009017
-3.761399 13.846870 0.009148
-3.446658 13.846870 0.009157
-3.131917 13.846870 0.008995
-2.817176 13.846870 0.008759
-2.502435 13.846870 0.008633
-2.187694 13.846870 0.008635
-1.872953 13.846870 0.008709
-1.558212 13.846870 0.008620
-1.243471 13.846870 0.008442
-0.928730 13.846870 0.008230
-0.613989 13.846870 0.008198
-0.299248 13.846870 0.008344
0.015493 13.846870 0.008349
0.330234 13.846870 0.007948
0.644975 13.846870 0.007818
0.959716 13.846870 0.008081
1.274457 13.846870 0.008229
1.589198 13.846870 0.008235
1.903938 13.846870 0.008030
2.218679 13.846870 0.007819
2.533421 13.846870 0.007809
2.848162 13.846870 0.007998
3.162903 13.846870 0.008063
3.477644 13.846870 0.008014
3.792385 13.846870 0.007945
4.107125 13.846870 0.008011
4.421866 13.846870 0.008286
4.736608 13.846870 0.008503
5.051349 13.846870 0.008590
5.366090 13.846870 0.008963
5.680831 13.846870 0.009526
5.995571 13.846870 0.010424
6.310312 13.846870 0.011800
6.625053 13.846870 0.013690
6.939795 13.846870 0.017395
7.254536 13.846870 0.023153
7.569277 13.846870 0.032849
7.884017 13.846870 0.049373
8.198758 13.846870 0.074860
8.513499 13.846870 0.112311
8.828240 13.846870 0.161472
9.142982 13.846870 0.227725
9.457723 13.846870 0.314956
9.772464 13.846870 0.405644
10.087205 13.846870 0.518741
10.401946 13.846870 0.619983
10.716687 13.846870 0.717501
11.031426 13.846870 0.818950
11.346168 13.846870 0.909815
11.660909 13.846870 1.040173
11.975650 13.846870 1.186462
12.290391 13.846870 1.333348
12.605132 13.846870 1.444204
12.919873 13.846870 1.557144
13.234614 13.846870 1.627531
13.549356 13.846870 1.755202
13.864097 13.846870 1.794904
14.178838 13.846870 1.854586
14.493579 13.846870 1.884495
14.808320 13.846870 1.999379
15.123059 13.846870 2.286952
15.437800 13.846870 3.281728
15.752542 13.846870 4.377883
16.067284 13.846870 0.000000
16.382023 13.846870 0.000000
16.696766 13.846870 0.000000
17.011505 13.846870 0.000000
17.326248 13.846870 0.000000
17.640987 13.846870 0.000000
17.955730 13.846870 0.000000
18.270470 13.846870 0.000000
18.585213 13.846870 0.000000
18.899952 13.846870 0.000000
-7.223550 13.532127 0.000000
-6.908809 13.532127 0.014706
-6.594068 13.532127 0.010162
-6.279327 13.532127 0.009785
-5.964586 13.532127 0.009649
-5.649845 13.532127 0.009401
-5.335104 13.532127 0.009556
-5.020363 13.532127 0.009826
-4.705622 13.532127 0.009695
-4.390881 13.532127 0.009267
-4.076140 13.532127 0.009141
-3.761399 13.532127 0.009123
-3.446658 13.532127 0.009079
-3.131917 13.532127 0.009005
-2.817176 13.532127 0.008750
-2.502435 13.532127 0.008500
-2.187694 13.532127 0.008404
-1.872953 13.532127 0.008429
-1.558212 13.532127 0.008474
-1.243471 13.532127 0.008343
-0.928730 13.532127 0.008185
-0.613989 13.532127 0.008191
-0.299248 13.532127 0.008355
0.015493 13.532127 0.008293
0.330234 13.532127 0.007977
0.644975 13.532127 0.007995
0.959716 13.532127 0.008188
1.274457 13.532127 0.008260
1.589198 13.532127 0.008219
1.903938 13.532127 0.007975
2.218679 13.532127 0.007741
2.533421 13.532127 0.007733
2.848162 13.532127 0.007960
3.162903 13.532127 0.007977
3.477644 13.532127 0.007906
3.792385 13.532127 0.007842
4.107125 13.532127 0.007910
4.421866 13.532127 0.008312
4.736608 13.532127 0.008519
5.051349 13.532127 0.008590
5.366090 13.532127 0.008985
5.680831 13.532127 0.009610
5.995571 13.532127 0.010395
6.310312 13.532127 0.012059
6.625053 13.532127 0.014162
6.939795 13.532127 0.017803
7.254536 13.532127 0.023890
7.569277 13.532127 0.034533
7.884017 13.532127 0.050857
8.198758 13.532127 0.077176
8.513499 13.532127 0.114295
8.828240 13.532127 0.169929
9.142982 13.532127 0.233725
9.457723 13.532127 0.315956
9.772464 13.532127 0.411644
10.087205 13.532127 0.522554
10.401946 13.532127 0.620628
10.716687 13.532127 0.729553
11.031426 13.532127 0.817246
11.346168 13.532127 0.913293
11.660909 13.532127 1.040004
11.975650 13.532127 1.213626
12.290391 13.532127 1.360053
12.605132 13.532127 1.468867
12.919873 13.532127 1.563250
13.234614 13.532127 1.642809
13.549356 13.532127 1.733558
13.864097 13.532127 1.818833
14.178838 13.532127 1.880045
14.493579 13.532127 1.892066
14.808320 13.532127 2.004598
15.123059 13.532127 2.285883
15.437800 13.532127 3.241389
15.752542 13.532127 4.406299
16.067284 13.532127 0.000000
16.382023 13.532127 0.000000
16.696766 13.532127 0.000000
17.011505 13.532127 0.000000
17.326248 13.532127 0.000000
17.640987 13.532127 0.000000
17.955730 13.532127 0.000000
18.270470 13.532127 0.000000
18.585213 13.532127 0.000000
18.899952 13.532127 0.000000
-7.223550 13.217388 0.000000
-6.908809 13.217388 0.014439
-6.594068 13.217388 0.010226
-6.279327 13.217388 0.009911
-5.964586 13.217388 0.009616
-5.649845 13.217388 0.009367
-5.335104 13.217388 0.009675
-5.020363 13.217388 0.009884
-4.705622 13.217388 0.009698
-4.390881 13.217388 0.009293
-4.076140 13.217388 0.009050
-3.761399 13.217388 0.008915
-3.446658 13.217388 0.008830
-3.131917 13.217388 0.008896
-2.817176 13.217388 0.008788
-2.502435 13.217388 0.008581
-2.187694 13.217388 0.008400
-1.872953 13.217388 0.008367
-1.558212 13.217388 0.008468
-1.243471 13.217388 0.008411
-0.928730 13.217388 0.008310
-0.613989 13.217388 0.008320
-0.299248 13.217388 0.008359
0.015493 13.217388 0.008187
0.330234 13.217388 0.008106
0.644975 13.217388 0.008101
0.959716 13.217388 0.008191
1.274457 13.217388 0.008225
1.589198 13.217388 0.008220
1.903938 13.217388 0.007923
2.218679 13.217388 0.007650
2.533421 13.217388 0.007747
2.848162 13.217388 0.008038
3.162903 13.217388 0.008051
3.477644 13.217388 0.007936
3.792385 13.217388 0.007830
4.107125 13.217388 0.007881
4.421866 13.217388 0.008280
4.736608 13.217388 0.008519
5.051349 13.217388 0.008535
5.366090 13.217388 0.008994
5.680831 13.217388 0.009645
5.995571 13.217388 0.010500
6.310312 13.217388 0.012213
6.625053 13.217388 0.014437
6.939795 13.217388 0.018150
7.254536 13.217388 0.023821
7.569277 13.217388 0.034494
7.884017 13.217388 0.051481
8.198758 13.217388 0.077062
8.513499 13.217388 0.115369
8.828240 13.217388 0.172152
9.142982 13.217388 0.231690
9.457723 13.217388 0.317715
9.772464 13.217388 0.399890
10.087205 13.217388 0.514803
10.401946 13.217388 0.618966
10.716687 13.217388 0.714109
11.031426 13.217388 0.821008
11.346168 13.217388 0.915867
11.660909 13.217388 1.053527
11.975650 13.217388 1.187234
12.290391 13.217388 1.351811
12.605132 13.217388 1.488190
12.919873 13.217388 1.554484
13.234614 13.217388 1.638267
13.549356 13.217388 1.710849
13.864097 13.217388 1.844617
14.178838 13.217388 1.893152
14.493579 13.217388 1.872862
14.808320 13.217388 2.005522
15.123059 13.217388 2.385761
15.437800 13.217388 3.310592
15.752542 13.217388 4.496008
16.067284 13.217388 0.000000
16.382023 13.217388 0.000000
16.696766 13.217388 0.000000
17.011505 13.217388 0.000000
17.326248 13.217388 0.000000
17.640987 13.217388 0.000000
17.955730 13.217388 0.000000
18.270470 13.217388 0.000000
18.585213 13.217388 0.000000
18.899952 13.217388 0.000000
-7.223550 12.902649 0.000000
-6.908809 12.902649 0.014255
-6.594068 12.902649 0.010224
-6.279327 12.902649 0.009937
-5.964586 12.902649 0.009583
-5.649845 12.902649 0.009360
-5.335104 12.902649 0.009597
-5.020363 12.902649 0.009655
-4.705622 12.902649 0.009479
-4.390881 12.902649 0.009113
-4.076140 12.902649 0.008804
-3.761399 12.902649 0.008698
-3.446658 12.902649 0.008660
-3.131917 12.902649 0.008740
-2.817176 12.902649 0.008846
-2.502435 12.902649 0.008735
-2.187694 12.902649 0.008437
-1.872953 12.902649 0.008425
-1.558212 12.902649 0.008448
-1.243471 12.902649 0.008473
-0.928730 12.902649 0.008408
-0.613989 12.902649 0.008437
-0.299248 12.902649 0.008402
0.015493 12.902649 0.008143
0.330234 12.902649 0.008060
0.644975 12.902649 0.007990
0.959716 12.902649 0.008086
1.274457 12.902649 0.008291
1.589198 12.902649 0.008294
1.903938 12.902649 0.007973
2.218679 12.902649 0.007662
2.533421 12.902649 0.007798
2.848162 12.902649 0.008146
3.162903 12.902649 0.008140
3.477644 12.902649 0.008051
3.792385 12.902649 0.007915
4.107125 12.902649 0.007945
4.421866 12.902649 0.008394
4.736608 12.902649 0.008592
5.051349 12.902649 0.008534
5.366090 12.902649 0.008947
5.680831 12.902649 0.009608
5.995571 12.902649 0.010500
6.310312 12.902649 0.012037
6.625053 12.902649 0.014286
6.939795 12.902649 0.018120
7.254536 12.902649 0.023754
7.569277 12.902649 0.034372
7.884017 12.902649 0.052947
8.198758 12.902649 0.077445
8.513499 12.902649 0.112518
8.828240 12.902649 0.165680
9.142982 12.902649 0.233283
9.457723 12.902649 0.312717
9.772464 12.902649 0.400969
10.087205 12.902649 0.510687
10.401946 12.902649 0.612509
10.716687 12.902649 0.706652
11.031426 12.902649 0.822784
11.346168 12.902649 0.938429
11.660909 12.902649 1.056847
11.975650 12.902649 1.180493
12.290391 12.902649 1.322683
12.605132 12.902649 1.466181
12.919873 12.902649 1.535803
13.234614 12.902649 1.667196
13.549356 12.902649 1.735098
13.864097 12.902649 1.827888
14.178838 12.902649 1.888079
14.493579 12.902649 1.922554
14.808320 12.902649 2.066907
15.123059 12.902649 2.291115
15.437800 12.902649 3.312331
15.752542 12.902649 4.627958
16.067284 12.902649 0.000000
16.382023 12.902649 0.000000
16.696766 12.902649 0.000000
17.011505 12.902649 0.000000
17.326248 12.902649 0.000000
17.640987 12.902649 0.000000
17.955730 12.902649 0.000000
18.270470 12.902649 0.000000
18.585213 12.902649 0.000000
18.899952 12.902649 0.000000
-7.223550 12.587906 0.000000
-6.908809 12.587906 0.013806
-6.594068 12.587906 0.009977
-6.279327 12.587906 0.009768
-5.964586 12.587906 0.009500
-5.649845 12.587906 0.009207
-5.335104 12.587906 0.009302
-5.020363 12.587906 0.009339
-4.705622 12.587906 0.009249
-4.390881 12.587906 0.008977
-4.076140 12.587906 0.008705
-3.761399 12.587906 0.008726
-3.446658 12.587906 0.008749
-3.131917 12.587906 0.008721
-2.817176 12.587906 0.008820
-2.502435 12.587906 0.008772
-2.187694 12.587906 0.008465
-1.872953 12.587906 0.008419
-1.558212 12.587906 0.008349
-1.243471 12.587906 0.008287
-0.928730 12.587906 0.008307
-0.613989 12.587906 0.008421
-0.299248 12.587906 0.008414
0.015493 12.587906 0.008169
0.330234 12.587906 0.007991
0.644975 12.587906 0.007818
0.959716 12.587906 0.008032
1.274457 12.587906 0.008403
1.589198 12.587906 0.008387
1.903938 12.587906 0.008057
2.218679 12.587906 0.007725
2.533421 12.587906 0.007863
2.848162 12.587906 0.008201
3.162903 12.587906 0.008225
3.477644 12.587906 0.008180
3.792385 12.587906 0.008009
4.107125 12.587906 0.008062
4.421866 12.587906 0.008521
4.736608 12.587906 0.008640
5.051349 12.587906 0.008513
5.366090 12.587906 0.008868
5.680831 12.587906 0.009584
5.995571 12.587906 0.010529
6.310312 12.587906 0.011954
6.625053 12.587906 0.014214
6.939795 12.587906 0.017963
7.254536 12.587906 0.024602
7.569277 12.587906 0.035111
7.884017 12.587906 0.053649
8.198758 12.587906 0.078249
8.513499 12.587906 0.115652
8.828240 12.587906 0.165068
9.142982 12.587906 0.233890
9.457723 12.587906 0.316715
9.772464 12.587906 0.409482
10.087205 12.587906 0.503988
10.401946 12.587906 0.612779
10.716687 12.587906 0.721616
11.031426 12.587906 0.824371
11.346168 12.587906 0.940985
11.660909 12.587906 1.038637
11.975650 12.587906 1.166471
12.290391 12.587906 1.306981
12.605132 12.587906 1.442919
12.919873 12.587906 1.508314
13.234614 12.587906 1.649188
13.549356 12.587906 1.757091
13.864097 12.587906 1.840541
14.178838 12.587906 1.903706
14.493579 12.587906 2.018436
14.808320 12.587906 2.062982
15.123059 12.587906 2.386220
15.437800 12.587906 3.523878
15.752542 12.587906 5.028547
16.067284 12.587906 0.000000
16.382023 12.587906 0.000000
16.696766 12.587906 0.000000
17.011505 12.587906 0.000000
17.326248 12.587906 0.000000
17.640987 12.587906 0.000000
17.955730 12.587906 0.000000
18.270470 12.587906 0.000000
18.585213 12.587906 0.000000
18.899952 12.587906 0.000000
-7.223550 12.273167 0.000000
-6.908809 12.273167 0.013164
-6.594068 12.273167 0.009438
-6.279327 12.273167 0.009472
-5.964586 12.273167 0.009429
-5.649845 12.273167 0.009124
-5.335104 12.273167 0.009171
-5.020363 12.273167 0.009309
-4.705622 12.273167 0.009256
-4.390881 12.273167 0.008962
-4.076140 12.273167 0.008768
-3.761399 12.273167 0.008897
-3.446658 12.273167 0.008887
-3.131917 12.273167 0.008673
-2.817176 12.273167 0.008677
-2.502435 12.273167 0.008709
-2.187694 12.273167 0.008431
-1.872953 12.273167 0.008254
-1.558212 12.273167 0.008148
-1.243471 12.273167 0.008083
-0.928730 12.273167 0.008221
-0.613989 12.273167 0.008255
-0.299248 12.273167 0.008313
0.015493 12.273167 0.008204
0.330234 12.273167 0.007919
0.644975 12.273167 0.007770
0.959716 12.273167 0.008131
1.274457 12.273167 0.008429
1.589198 12.273167 0.008329
1.903938 12.273167 0.008075
2.218679 12.273167 0.007799
2.533421 12.273167 0.007826
2.848162 12.273167 0.008139
3.162903 12.273167 0.008198
3.477644 12.273167 0.008135
3.792385 12.273167 0.007939
4.107125 12.273167 0.008079
4.421866 12.273167 0.008467
4.736608 12.273167 0.008532
5.051349 12.273167 0.008458
5.366090 12.273167 0.008848
5.680831 12.273167 0.009528
5.995571 12.273167 0.010516
6.310312 12.273167 0.011871
6.625053 12.273167 0.014153
6.939795 12.273167 0.018065
7.254536 12.273167 0.025188
7.569277 12.273167 0.035767
7.884017 12.273167 0.052848
8.198758 12.273167 0.077959
8.513499 12.273167 0.118636
8.828240 12.273167 0.174288
9.142982 12.273167 0.241465
9.457723 12.273167 0.325326
9.772464 12.273167 0.410275
10.087205 12.273167 0.503680
10.401946 12.273167 0.620014
10.716687 12.273167 0.723599
11.031426 12.273167 0.819258
11.346168 12.273167 0.940815
11.660909 12.273167 1.056582
11.975650 12.273167 1.184024
12.290391 12.273167 1.332502
12.605132 12.273167 1.443125
12.919873 12.273167 1.526200
13.234614 12.273167 1.611835
13.549356 12.273167 1.746642
13.864097 12.273167 1.868274
14.178838 12.273167 1.931070
14.493579 12.273167 1.961455
14.808320 12.273167 2.135222
15.123059 12.273167 2.438434
15.437800 12.273167 3.441802
15.752542 12.273167 4.776539
16.067284 12.273167 0.000000
16.382023 12.273167 0.000000
16.696766 12.273167 0.000000
17.011505 12.273167 0.000000
17.326248 12.273167 0.000000
17.640987 12.273167 0.000000
17.955730 12.273167 0.000000
18.270470 12.273167 0.000000
18.585213 12.273167 0.000000
18.899952 12.273167 0.000000
-7.223550 11.958424 0.000000
-6.908809 11.958424 0.012716
-6.594068 11.958424 0.009144
-6.279327 11.958424 0.009374
-5.964586 11.958424 0.009525
-5.649845 11.958424 0.009263
-5.335104 11.958424 0.009314
-5.020363 11.958424 0.009466
-4.705622 11.958424 0.009253
-4.390881 11.958424 0.008937
-4.076140 11.958424 0.008888
-3.761399 11.958424 0.008937
-3.446658 11.958424 0.008809
-3.131917 11.958424 0.008538
-2.817176 11.958424 0.008494
-2.502435 11.958424 0.008461
-2.187694 11.958424 0.008262
-1.872953 11.958424 0.008095
-1.558212 11.958424 0.008074
-1.243471 11.958424 0.007991
-0.928730 11.958424 0.008180
-0.613989 11.958424 0.008188
-0.299248 11.958424 0.008218
0.015493 11.958424 0.008209
0.330234 11.958424 0.007986
0.644975 11.958424 0.007902
0.959716 11.958424 0.008235
1.274457 11.958424 0.008309
1.589198 11.958424 0.008198
1.903938 11.958424 0.008094
2.218679 11.958424 0.007900
2.533421 11.958424 0.007862
2.848162 11.958424 0.008092
3.162903 11.958424 0.008142
3.477644 11.958424 0.007967
3.792385 11.958424 0.007750
4.107125 11.958424 0.007946
4.421866 11.958424 0.008261
4.736608 11.958424 0.008378
5.051349 11.958424 0.008448
5.366090 11.958424 0.008862
5.680831 11.958424 0.009627
5.995571 11.958424 0.010601
6.310312 11.958424 0.012128
6.625053 11.958424 0.014544
6.939795 11.958424 0.018474
7.254536 11.958424 0.025692
7.569277 11.958424 0.036267
7.884017 11.958424 0.054389
8.198758 11.958424 0.082465
8.513499 11.958424 0.122560
8.828240 11.958424 0.177745
9.142982 11.958424 0.243399
9.457723 11.958424 0.327684
9.772464 11.958424 0.422628
10.087205 11.958424 0.514651
10.401946 11.958424 0.627730
10.716687 11.958424 0.717987
11.031426 11.958424 0.827869
11.346168 11.958424 0.938438
11.660909 11.958424 1.059803
11.975650 11.958424 1.197028
12.290391 11.958424 1.336765
12.605132 11.958424 1.451344
12.919873 11.958424 1.542677
13.234614 11.958424 1.636011
13.549356 11.958424 1.724991
13.864097 11.958424 1.859499
14.178838 11.958424 1.992657
14.493579 11.958424 2.045935
14.808320 11.958424 2.208104
15.123059 11.958424 2.522148
15.437800 11.958424 3.440243
15.752542 11.958424 4.751385
16.067284 11.958424 0.000000
16.382023 11.958424 0.000000
16.696766 11.958424 0.000000
17.011505 11.958424 0.000000
17.326248 11.958424 0.000000
17.640987 11.958424 0.000000
17.955730 11.958424 0.000000
18.270470 11.958424 0.000000
18.585213 11.958424 0.000000
18.899952 11.958424 0.000000
-7.223550 11.643684 0.000000
-6.908809 11.643684 0.012762
-6.594068 11.643684 0.009241
-6.279327 11.643684 0.009547
-5.964586 11.643684 0.009581
-5.649845 11.643684 0.009416
-5.335104 11.643684 0.009469
-5.020363 11.643684 0.009507
-4.705622 11.643684 0.009161
-4.390881 11.643684 0.008785
-4.076140 11.643684 0.008784
-3.761399 11.643684 0.008766
-3.446658 11.643684 0.008622
-3.131917 11.643684 0.008432
-2.817176 11.643684 0.008336
-2.502435 11.643684 0.008296
-2.187694 11.643684 0.008154
-1.872953 11.643684 0.008080
-1.558212 11.643684 0.008208
-1.243471 11.643684 0.008112
-0.928730 11.643684 0.008252
-0.613989 11.643684 0.008236
-0.299248 11.643684 0.008292
0.015493 11.643684 0.008223
0.330234 11.643684 0.008057
0.644975 11.643684 0.008077
0.959716 11.643684 0.008311
1.274457 11.643684 0.008193
1.589198 11.643684 0.008096
1.903938 11.643684 0.008106
2.218679 11.643684 0.007948
2.533421 11.643684 0.007929
2.848162 11.643684 0.008103
3.162903 11.643684 0.008116
3.477644 11.643684 0.007887
3.792385 11.643684 0.007690
4.107125 11.643684 0.007820
4.421866 11.643684 0.008125
4.736608 11.643684 0.008291
5.051349 11.643684 0.008505
5.366090 11.643684 0.009009
5.680831 11.643684 0.009716
5.995571 11.643684 0.010649
6.310312 11.643684 0.012408
6.625053 11.643684 0.014797
6.939795 11.643684 0.018538
7.254536 11.643684 0.025687
7.569277 11.643684 0.036726
7.884017 11.643684 0.055390
8.198758 11.643684 0.083953
8.513499 11.643684 0.122156
8.828240 11.643684 0.177803
9.142982 11.643684 0.242757
9.457723 11.643684 0.329547
9.772464 11.643684 0.420724
10.087205 11.643684 0.534034
10.401946 11.643684 0.615041
10.716687 11.643684 0.725176
11.031426 11.643684 0.846469
11.346168 11.643684 0.954987
11.660909 11.643684 1.061691
11.975650 11.643684 1.190099
12.290391 11.643684 1.327178
12.605132 11.643684 1.451699
12.919873 11.643684 1.578251
13.234614 11.643684 1.673375
13.549356 11.643684 1.761881
13.864097 11.643684 1.868459
14.178838 11.643684 2.028180
14.493579 11.643684 2.174577
14.808320 11.643684 2.270089
15.123059 11.643684 2.573151
15.437800 11.643684 3.520654
15.752542 11.643684 4.627433
16.067284 11.643684 0.000000
16.382023 11.643684 0.000000
16.696766 11.643684 0.000000
17.011505 11.643684 0.000000
17.326248 11.643684 0.000000
17.640987 11.643684 0.000000
17.955730 11.643684 0.000000
18.270470 11.643684 0.000000
18.585213 11.643684 0.000000
18.899952 11.643684 0.000000
-7.223550 11.328941 0.000000
-6.908809 11.328941 0.013050
-6.594068 11.328941 0.009460
-6.279327 11.328941 0.009579
-5.964586 11.328941 0.009434
-5.649845 11.328941 0.009329
-5.335104 11.328941 0.009327
-5.020363 11.328941 0.009225
-4.705622 11.328941 0.008866
-4.390881 11.328941 0.008553
-4.076140 11.328941 0.008541
-3.761399 11.328941 0.008550
-3.446658 11.328941 0.008518
-3.131917 11.328941 0.008488
-2.817176 11.328941 0.008365
-2.502435 11.328941 0.008254
-2.187694 11.328941 0.008152
-1.872953 11.328941 0.008247
-1.558212 11.328941 0.008369
-1.243471 11.328941 0.008259
-0.928730 11.328941 0.008301
-0.613989 11.328941 0.008286
-0.299248 11.328941 0.008357
0.015493 11.328941 0.008276
0.330234 11.328941 0.008091
0.644975 11.328941 0.008134
0.959716 11.328941 0.008321
1.274457 11.328941 0.008232
1.589198 11.328941 0.008088
1.903938 11.328941 0.007988
2.218679 11.328941 0.007902
2.533421 11.328941 0.007982
2.848162 11.328941 0.008152
3.162903 11.328941 0.008113
3.477644 11.328941 0.007953
3.792385 11.328941 0.007805
4.107125 11.328941 0.007784
4.421866 11.328941 0.008108
4.736608 11.328941 0.008374
5.051349 11.328941 0.008629
5.366090 11.328941 0.009096
5.680831 11.328941 0.009682
5.995571 11.328941 0.010607
6.310312 11.328941 0.012376
6.625053 11.328941 0.015011
6.939795 11.328941 0.018911
7.254536 11.328941 0.025330
7.569277 11.328941 0.037380
7.884017 11.328941 0.055295
8.198758 11.328941 0.083453
8.513499 11.328941 0.122729
8.828240 11.328941 0.177147
9.142982 11.328941 0.244432
9.457723 11.328941 0.323431
9.772464 11.328941 0.426245
10.087205 11.328941 0.536203
10.401946 11.328941 0.624991
10.716687 11.328941 0.734228
11.031426 11.328941 0.858068
11.346168 11.328941 0.976141
11.660909 11.328941 1.081803
11.975650 11.328941 1.188305
12.290391 11.328941 1.350764
12.605132 11.328941 1.468490
12.919873 11.328941 1.577476
13.234614 11.328941 1.659176
13.549356 11.328941 1.729260
13.864097 11.328941 1.877367
14.178838 11.328941 2.022645
14.493579 11.328941 2.142296
14.808320 11.328941 2.299891
15.123059 11.328941 2.586707
15.437800 11.328941 3.568071
15.752542 11.328941 4.905423
16.067284 11.328941 0.000000
16.382023 11.328941 0.000000
16.696766 11.328941 0.000000
17.011505 11.328941 0.000000
17.326248 11.328941 0.000000
17.640987 11.328941 0.000000
17.955730 11.328941 0.000000
18.270470 11.328941 0.000000
18.585213 11.328941 0.000000
18.899952 11.328941 0.000000
-7.223550 11.014202 0.000000
-6.908809 11.014202 0.013073
-6.594068 11.014202 0.009399
-6.279327 11.014202 0.009362
-5.964586 11.014202 0.009095
-5.649845 11.014202 0.009013
-5.335104 11.014202 0.009074
-5.020363 11.014202 0.008918
-4.705622 11.014202 0.008654
-4.390881 11.014202 0.008437
-4.076140 11.014202 0.008358
-3.761399 11.014202 0.008430
-3.446658 11.014202 0.008545
-3.131917 11.014202 0.008570
-2.817176 11.014202 0.008491
-2.502435 11.014202 0.008278
-2.187694 11.014202 0.008160
-1.872953 11.014202 0.008269
-1.558212 11.014202 0.008413
-1.243471 11.014202 0.008273
-0.928730 11.014202 0.008320
-0.613989 11.014202 0.008393
-0.299248 11.014202 0.008346
0.015493 11.014202 0.008241
0.330234 11.014202 0.008031
0.644975 11.014202 0.008087
0.959716 11.014202 0.008237
1.274457 11.014202 0.008235
1.589198 11.014202 0.008085
1.903938 11.014202 0.007849
2.218679 11.014202 0.007802
2.533421 11.014202 0.007956
2.848162 11.014202 0.008149
3.162903 11.014202 0.008125
3.477644 11.014202 0.008058
3.792385 11.014202 0.008007
4.107125 11.014202 0.007889
4.421866 11.014202 0.008231
4.736608 11.014202 0.008471
5.051349 11.014202 0.008682
5.366090 11.014202 0.009045
5.680831 11.014202 0.009515
5.995571 11.014202 0.010530
6.310312 11.014202 0.012312
6.625053 11.014202 0.015063
6.939795 11.014202 0.019302
7.254536 11.014202 0.026225
7.569277 11.014202 0.038017
7.884017 11.014202 0.057221
8.198758 11.014202 0.085178
8.513499 11.014202 0.122415
8.828240 11.014202 0.178426
9.142982 11.014202 0.248831
9.457723 11.014202 0.332484
9.772464 11.014202 0.429353
10.087205 11.014202 0.542826
10.401946 11.014202 0.647045
10.716687 11.014202 0.750374
11.031426 11.014202 0.876717
11.346168 11.014202 1.002787
11.660909 11.014202 1.094490
11.975650 11.014202 1.226328
12.290391 11.014202 1.377081
12.605132 11.014202 1.487501
12.919873 11.014202 1.594140
13.234614 11.014202 1.675973
13.549356 11.014202 1.727674
13.864097 11.014202 1.865952
14.178838 11.014202 2.043543
14.493579 11.014202 2.151519
14.808320 11.014202 2.353236
15.123059 11.014202 2.704765
15.437800 11.014202 3.818055
15.752542 11.014202 5.015516
16.067284 11.014202 0.000000
16.382023 11.014202 0.000000
16.696766 11.014202 0.000000
17.011505 11.014202 0.000000
17.326248 11.014202 0.000000
17.640987 11.014202 0.000000
17.955730 11.014202 0.000000
18.270470 11.014202 0.000000
18.585213 11.014202 0.000000
18.899952 11.014202 0.000000
-7.223550 10.699459 0.000000
-6.908809 10.699459 0.012731
-6.594068 10.699459 0.009119
-6.279327 10.699459 0.009123
-5.964586 10.699459 0.008897
-5.649845 10.699459 0.008785
-5.335104 10.699459 0.008838
-5.020363 10.699459 0.008722
-4.705622 10.699459 0.008677
-4.390881 10.699459 0.008506
-4.076140 10.699459 0.008373
-3.761399 10.699459 0.008517
-3.446658 10.699459 0.008552
-3.131917 10.699459 0.008534
-2.817176 10.699459 0.008435
-2.502435 10.699459 0.008241
-2.187694 10.699459 0.008165
-1.872953 10.699459 0.008198
-1.558212 10.699459 0.008219
-1.243471 10.699459 0.008138
-0.928730 10.699459 0.008286
-0.613989 10.699459 0.008534
-0.299248 10.699459 0.008354
0.015493 10.699459 0.008184
0.330234 10.699459 0.007929
0.644975 10.699459 0.007937
0.959716 10.699459 0.008151
1.274457 10.699459 0.008278
1.589198 10.699459 0.008104
1.903938 10.699459 0.007806
2.218679 10.699459 0.007752
2.533421 10.699459 0.007932
2.848162 10.699459 0.008169
3.162903 10.699459 0.008104
3.477644 10.699459 0.008068
3.792385 10.699459 0.008083
4.107125 10.699459 0.008013
4.421866 10.699459 0.008324
4.736608 10.699459 0.008499
5.051349 10.699459 0.008681
5.366090 10.699459 0.008976
5.680831 10.699459 0.009451
5.995571 10.699459 0.010511
6.310312 10.699459 0.012271
6.625053 10.699459 0.015324
6.939795 10.699459 0.019623
7.254536 10.699459 0.026814
7.569277 10.699459 0.038550
7.884017 10.699459 0.057534
8.198758 10.699459 0.084887
8.513499 10.699459 0.125664
8.828240 10.699459 0.178672
9.142982 10.699459 0.252670
9.457723 10.699459 0.339547
9.772464 10.699459 0.446074
10.087205 10.699459 0.549561
10.401946 10.699459 0.660040
10.716687 10.699459 0.757436
11.031426 10.699459 0.876209
11.346168 10.699459 1.006079
11.660909 10.699459 1.107606
11.975650 10.699459 1.261245
12.290391 10.699459 1.384058
12.605132 10.699459 1.517751
12.919873 10.699459 1.560990
13.234614 10.699459 1.656374
13.549356 10.699459 1.742156
13.864097 10.699459 1.881512
14.178838 10.699459 2.006647
14.493579 10.699459 2.112729
14.808320 10.699459 2.351160
15.123059 10.699459 2.713348
15.437800 10.699459 3.909692
15.752542 10.699459 5.447633
16.067284 10.699459 0.000000
16.382023 10.699459 0.000000
16.696766 10.699459 0.000000
17.011505 10.699459 0.000000
17.326248 10.699459 0.000000
17.640987 10.699459 0.000000
17.955730 10.699459 0.000000
18.270470 10.699459 0.000000
18.585213 10.699459 0.000000
18.899952 10.699459 0.000000
-7.223550 10.384720 0.000000
-6.908809 10.384720 0.012247
-6.594068 10.384720 0.008826
-6.279327 10.384720 0.009063
-5.964586 10.384720 0.008994
-5.649845 10.384720 0.008739
-5.335104 10.384720 0.008777
-5.020363 10.384720 0.008805
-4.705622 10.384720 0.008765
-4.390881 10.384720 0.008530
-4.076140 10.384720 0.008412
-3.761399 10.384720 0.008601
-3.446658 10.384720 0.008575
-3.131917 10.384720 0.008437
-2.817176 10.384720 0.008313
-2.502435 10.384720 0.008193
-2.187694 10.384720 0.008189
-1.872953 10.384720 0.008160
-1.558212 10.384720 0.008021
-1.243471 10.384720 0.007975
-0.928730 10.384720 0.008235
-0.613989 10.384720 0.008603
-0.299248 10.384720 0.008357
0.015493 10.384720 0.008071
0.330234 10.384720 0.007753
0.644975 10.384720 0.007769
0.959716 10.384720 0.008070
1.274457 10.384720 0.008282
1.589198 10.384720 0.008134
1.903938 10.384720 0.007840
2.218679 10.384720 0.007783
2.533421 10.384720 0.008003
2.848162 10.384720 0.008152
3.162903 10.384720 0.008000
3.477644 10.384720 0.007932
3.792385 10.384720 0.007952
4.107125 10.384720 0.008063
4.421866 10.384720 0.008307
4.736608 10.384720 0.008447
5.051349 10.384720 0.008674
5.366090 10.384720 0.008944
5.680831 10.384720 0.009571
5.995571 10.384720 0.010782
6.310312 10.384720 0.012427
6.625053 10.384720 0.015356
6.939795 10.384720 0.020416
7.254536 10.384720 0.027613
7.569277 10.384720 0.039949
7.884017 10.384720 0.059503
8.198758 10.384720 0.087815
8.513499 10.384720 0.127301
8.828240 10.384720 0.187755
9.142982 10.384720 0.260995
9.457723 10.384720 0.345317
9.772464 10.384720 0.449565
10.087205 10.384720 0.558830
10.401946 10.384720 0.667414
10.716687 10.384720 0.756000
11.031426 10.384720 0.877972
11.346168 10.384720 1.012970
11.660909 10.384720 1.137120
11.975650 10.384720 1.241127
12.290391 10.384720 1.378064
12.605132 10.384720 1.466083
12.919873 10.384720 1.554085
13.234614 10.384720 1.675455
13.549356 10.384720 1.774538
13.864097 10.384720 1.902517
14.178838 10.384720 2.055838
14.493579 10.384720 2.148370
14.808320 10.384720 2.376251
15.123059 10.384720 2.812660
15.437800 10.384720 4.061454
15.752542 10.384720 5.594714
16.067284 10.384720 0.000000
16.382023 10.384720 0.000000
16.696766 10.384720 0.000000
17.011505 10.384720 0.000000
17.326248 10.384720 0.000000
17.640987 10.384720 0.000000
17.955730 10.384720 0.000000
18.270470 10.384720 0.000000
18.585213 10.384720 0.000000
18.899952 10.384720 0.000000
-7.223550 10.069977 0.000000
-6.908809 10.069977 0.012072
-6.594068 10.069977 0.008826
-6.279327 10.069977 0.009116
-5.964586 10.069977 0.009140
-5.649845 10.069977 0.008824
-5.335104 10.069977 0.008905
-5.020363 10.069977 0.008917
-4.705622 10.069977 0.008726
-4.390881 10.069977 0.008470
-4.076140 10.069977 0.008399
-3.761399 10.069977 0.008515
-3.446658 10.069977 0.008479
-3.131917 10.069977 0.008308
-2.817176 10.069977 0.008311
-2.502435 10.069977 0.008224
-2.187694 10.069977 0.008285
-1.872953 10.069977 0.008246
-1.558212 10.069977 0.008065
-1.243471 10.069977 0.007999
-0.928730 10.069977 0.008189
-0.613989 10.069977 0.008483
-0.299248 10.069977 0.008341
0.015493 10.069977 0.008040
0.330234 10.069977 0.007731
0.644975 10.069977 0.007716
0.959716 10.069977 0.008062
1.274457 10.069977 0.008282
1.589198 10.069977 0.008167
1.903938 10.069977 0.007861
2.218679 10.069977 0.007785
2.533421 10.069977 0.008040
2.848162 10.069977 0.008223
3.162903 10.069977 0.007970
3.477644 10.069977 0.007745
3.792385 10.069977 0.007837
4.107125 10.069977 0.008080
4.421866 10.069977 0.008324
4.736608 10.069977 0.008427
5.051349 10.069977 0.008704
5.366090 10.069977 0.009064
5.680831 10.069977 0.009738
5.995571 10.069977 0.010896
6.310312 10.069977 0.012686
6.625053 10.069977 0.015597
6.939795 10.069977 0.020353
7.254536 10.069977 0.028277
7.569277 10.069977 0.039990
7.884017 10.069977 0.060709
8.198758 10.069977 0.090266
8.513499 10.069977 0.130754
8.828240 10.069977 0.189365
9.142982 10.069977 0.260447
9.457723 10.069977 0.353561
9.772464 10.069977 0.451025
10.087205 10.069977 0.549674
10.401946 10.069977 0.664177
10.716687 10.069977 0.770538
11.031426 10.069977 0.885656
11.346168 10.069977 1.026433
11.660909 10.069977 1.133087
11.975650 10.069977 1.243113
12.290391 10.069977 1.356112
12.605132 10.069977 1.481332
12.919873 10.069977 1.586859
13.234614 10.069977 1.672182
13.549356 10.069977 1.797159
13.864097 10.069977 1.912827
14.178838 10.069977 2.069132
14.493579 10.069977 2.211537
14.808320 10.069977 2.365566
15.123059 10.069977 2.847581
15.437800 10.069977 3.958959
15.752542 10.069977 5.622252
16.067284 10.069977 0.000000
16.382023 10.069977 0.000000
16.696766 10.069977 0.000000
17.011505 10.069977 0.000000
17.326248 10.069977 0.000000
17.640987 10.069977 0.000000
17.955730 10.069977 0.000000
18.270470 10.069977 0.000000
18.585213 10.069977 0.000000
18.899952 10.069977 0.000000
-7.223550 9.755238 0.000000
-6.908809 9.755238 0.012126
-6.594068 9.755238 0.008862
-6.279327 9.755238 0.009055
-5.964586 9.755238 0.009043
-5.649845 9.755238 0.008856
-5.335104 9.755238 0.008912
-5.020363 9.755238 0.008970
-4.705622 9.755238 0.008652
-4.390881 9.755238 0.008470
-4.076140 9.755238 0.008374
-3.761399 9.755238 0.008360
-3.446658 9.755238 0.008396
-3.131917 9.755238 0.008379
-2.817176 9.755238 0.008411
-2.502435 9.755238 0.008302
-2.187694 9.755238 0.008321
-1.872953 9.755238 0.008341
-1.558212 9.755238 0.008254
-1.243471 9.755238 0.008131
-0.928730 9.755238 0.008152
-0.613989 9.755238 0.008327
-0.299248 9.755238 0.008275
0.015493 9.755238 0.008064
0.330234 9.755238 0.007788
0.644975 9.755238 0.007794
0.959716 9.755238 0.008028
1.274457 9.755238 0.008232
1.589198 9.755238 0.008123
1.903938 9.755238 0.007875
2.218679 9.755238 0.007767
2.533421 9.755238 0.008016
2.848162 9.755238 0.008267
3.162903 9.755238 0.008012
3.477644 9.755238 0.007732
3.792385 9.755238 0.007904
4.107125 9.755238 0.008215
4.421866 9.755238 0.008336
4.736608 9.755238 0.008433
5.051349 9.755238 0.008675
5.366090 9.755238 0.009193
5.680831 9.755238 0.009915
5.995571 9.755238 0.011026
6.310312 9.755238 0.012781
6.625053 9.755238 0.015780
6.939795 9.755238 0.020696
7.254536 9.755238 0.028013
7.569277 9.755238 0.040705
7.884017 9.755238 0.061086
8.198758 9.755238 0.091348
8.513499 9.755238 0.133784
8.828240 9.755238 0.194585
9.142982 9.755238 0.264199
9.457723 9.755238 0.362827
9.772464 9.755238 0.459831
10.087205 9.755238 0.560758
10.401946 9.755238 0.663980
10.716687 9.755238 0.780772
11.031426 9.755238 0.894937
11.346168 9.755238 1.025681
11.660909 9.755238 1.143717
11.975650 9.755238 1.243001
12.290391 9.755238 1.364462
12.605132 9.755238 1.488580
12.919873 9.755238 1.616987
13.234614 9.755238 1.706013
13.549356 9.755238 1.866315
13.864097 9.755238 1.889352
14.178838 9.755238 2.023569
14.493579 9.755238 2.169825
14.808320 9.755238 2.388869
15.123059 9.755238 3.011240
15.437800 9.755238 4.096325
15.752542 9.755238 5.729318
16.067284 9.755238 0.000000
16.382023 9.755238 0.000000
16.696766 9.755238 0.000000
17.011505 9.755238 0.000000
17.326248 9.755238 0.000000
17.640987 9.755238 0.000000
17.955730 9.755238 0.000000
18.270470 9.755238 0.000000
18.585213 9.755238 0.000000
18.899952 9.755238 0.000000
-7.223550 9.440495 0.000000
-6.908809 9.440495 0.012000
-6.594068 9.440495 0.008819
-6.279327 9.440495 0.008845
-5.964586 9.440495 0.008728
-5.649845 9.440495 0.008721
-5.335104 9.440495 0.008825
-5.020363 9.440495 0.008847
-4.705622 9.440495 0.008593
-4.390881 9.440495 0.008534
-4.076140 9.440495 0.008364
-3.761399 9.440495 0.008346
-3.446658 9.440495 0.008460
-3.131917 9.440495 0.008546
-2.817176 9.440495 0.008471
-2.502435 9.440495 0.008281
-2.187694 9.440495 0.008309
-1.872953 9.440495 0.008398
-1.558212 9.440495 0.008330
-1.243471 9.440495 0.008206
-0.928730 9.440495 0.008077
-0.613989 9.440495 0.008221
-0.299248 9.440495 0.008289
0.015493 9.440495 0.008163
0.330234 9.440495 0.007941
0.644975 9.440495 0.007901
0.959716 9.440495 0.008040
1.274457 9.440495 0.008114
1.589198 9.440495 0.007994
1.903938 9.440495 0.007919
2.218679 9.440495 0.007813
2.533421 9.440495 0.007908
2.848162 9.440495 0.008170
3.162903 9.440495 0.007927
3.477644 9.440495 0.007739
3.792385 9.440495 0.007949
4.107125 9.440495 0.008224
4.421866 9.440495 0.008295
4.736608 9.440495 0.008381
5.051349 9.440495 0.008602
5.366090 9.440495 0.009203
5.680831 9.440495 0.010085
5.995571 9.440495 0.011129
6.310312 9.440495 0.012880
6.625053 9.440495 0.016005
6.939795 9.440495 0.020999
7.254536 9.440495 0.028869
7.569277 9.440495 0.041016
7.884017 9.440495 0.062966
8.198758 9.440495 0.092606
8.513499 9.440495 0.138152
8.828240 9.440495 0.201802
9.142982 9.440495 0.269899
9.457723 9.440495 0.370968
9.772464 9.440495 0.474261
10.087205 9.440495 0.576846
10.401946 9.440495 0.674447
10.716687 9.440495 0.800669
11.031426 9.440495 0.927198
11.346168 9.440495 1.043763
11.660909 9.440495 1.145281
11.975650 9.440495 1.245377
12.290391 9.440495 1.341609
12.605132 9.440495 1.511174
12.919873 9.440495 1.636234
13.234614 9.440495 1.706479
13.549356 9.440495 1.794939
13.864097 9.440495 1.821820
14.178838 9.440495 1.964673
14.493579 9.440495 2.140868
14.808320 9.440495 2.426160
15.123059 9.440495 3.091268
15.437800 9.440495 4.272366
15.752542 9.440495 5.938699
16.067284 9.440495 0.000000
16.382023 9.440495 0.000000
16.696766 9.440495 0.000000
17.011505 9.440495 0.000000
17.326248 9.440495 0.000000
17.640987 9.440495 0.000000
17.955730 9.440495 0.000000
18.270470 9.440495 0.000000
18.585213 9.440495 0.000000
18.899952 9.440495 0.000000
-7.223550 9.125755 0.000000
-6.908809 9.125755 0.011809
-6.594068 9.125755 0.008721
-6.279327 9.125755 0.008662
-5.964586 9.125755 0.008506
-5.649845 9.125755 0.008622
-5.335104 9.125755 0.008853
-5.020363 9.125755 0.008776
-4.705622 9.125755 0.008657
-4.390881 9.125755 0.008572
-4.076140 9.125755 0.008363
-3.761399 9.125755 0.008345
-3.446658 9.125755 0.008522
-3.131917 9.125755 0.008608
-2.817176 9.125755 0.008463
-2.502435 9.125755 0.008183
-2.187694 9.125755 0.008143
-1.872953 9.125755 0.008347
-1.558212 9.125755 0.008375
-1.243471 9.125755 0.008140
-0.928730 9.125755 0.007980
-0.613989 9.125755 0.008166
-0.299248 9.125755 0.008275
0.015493 9.125755 0.008228
0.330234 9.125755 0.008113
0.644975 9.125755 0.008057
0.959716 9.125755 0.008083
1.274457 9.125755 0.008012
1.589198 9.125755 0.007870
1.903938 9.125755 0.007951
2.218679 9.125755 0.007842
2.533421 9.125755 0.007821
2.848162 9.125755 0.007980
3.162903 9.125755 0.007787
3.477644 9.125755 0.007655
3.792385 9.125755 0.007805
4.107125 9.125755 0.008045
4.421866 9.125755 0.008144
4.736608 9.125755 0.008235
5.051349 9.125755 0.008600
5.366090 9.125755 0.009245
5.680831 9.125755 0.010123
5.995571 9.125755 0.011447
6.310312 9.125755 0.013129
6.625053 9.125755 0.016121
6.939795 9.125755 0.021961
7.254536 9.125755 0.030060
7.569277 9.125755 0.041354
7.884017 9.125755 0.063453
8.198758 9.125755 0.095815
8.513499 9.125755 0.142943
8.828240 9.125755 0.207487
9.142982 9.125755 0.280758
9.457723 9.125755 0.372612
9.772464 9.125755 0.475856
10.087205 9.125755 0.588477
10.401946 9.125755 0.695739
10.716687 9.125755 0.823684
11.031426 9.125755 0.954404
11.346168 9.125755 1.037643
11.660909 9.125755 1.147316
11.975650 9.125755 1.250502
12.290391 9.125755 1.389384
12.605132 9.125755 1.525510
12.919873 9.125755 1.611083
13.234614 9.125755 1.707145
13.549356 9.125755 1.745662
13.864097 9.125755 1.827264
14.178838 9.125755 1.957298
14.493579 9.125755 2.186537
14.808320 9.125755 2.510066
15.123059 9.125755 3.075890
15.437800 9.125755 4.501250
15.752542 9.125755 6.272725
16.067284 9.125755 0.000000
16.382023 9.125755 0.000000
16.696766 9.125755 0.000000
17.011505 9.125755 0.000000
17.326248 9.125755 0.000000
17.640987 9.125755 0.000000
17.955730 9.125755 0.000000
18.270470 9.125755 0.000000
18.585213 9.125755 0.000000
18.899952 9.125755 0.000000
-7.223550 8.811016 0.000000
-6.908809 8.811016 0.011684
-6.594068 8.811016 0.008661
-6.279327 8.811016 0.008724
-5.964586 8.811016 0.008632
-5.649845 8.811016 0.008711
-5.335104 8.811016 0.008822
-5.020363 8.811016 0.008745
-4.705622 8.811016 0.008711
-4.390881 8.811016 0.008509
-4.076140 8.811016 0.008286
-3.761399 8.811016 0.008249
-3.446658 8.811016 0.008420
-3.131917 8.811016 0.008560
-2.817176 8.811016 0.008414
-2.502435 8.811016 0.008152
-2.187694 8.811016 0.008102
-1.872953 8.811016 0.008266
-1.558212 8.811016 0.008308
-1.243471 8.811016 0.008069
-0.928730 8.811016 0.007965
-0.613989 8.811016 0.008134
-0.299248 8.811016 0.008178
0.015493 8.811016 0.008149
0.330234 8.811016 0.008085
0.644975 8.811016 0.008103
0.959716 8.811016 0.008133
1.274457 8.811016 0.008012
1.589198 8.811016 0.007856
1.903938 8.811016 0.007878
2.218679 8.811016 0.007730
2.533421 8.811016 0.007678
2.848162 8.811016 0.007791
3.162903 8.811016 0.007693
3.477644 8.811016 0.007563
3.792385 8.811016 0.007617
4.107125 8.811016 0.007790
4.421866 8.811016 0.007979
4.736608 8.811016 0.008163
5.051349 8.811016 0.008660
5.366090 8.811016 0.009325
5.680831 8.811016 0.010236
5.995571 8.811016 0.011570
6.310312 8.811016 0.013351
6.625053 8.811016 0.016372
6.939795 8.811016 0.021818
7.254536 8.811016 0.030315
7.569277 8.811016 0.043620
7.884017 8.811016 0.065531
8.198758 8.811016 0.098159
8.513499 8.811016 0.148397
8.828240 8.811016 0.213624
9.142982 8.811016 0.283687
9.457723 8.811016 0.378444
9.772464 8.811016 0.477729
10.087205 8.811016 0.600635
10.401946 8.811016 0.704223
10.716687 8.811016 0.814450
11.031426 8.811016 0.912156
11.346168 8.811016 1.035632
11.660909 8.811016 1.150037
11.975650 8.811016 1.244814
12.290391 8.811016 1.368097
12.605132 8.811016 1.491013
12.919873 8.811016 1.640506
13.234614 8.811016 1.704584
13.549356 8.811016 1.767811
13.864097 8.811016 1.845734
14.178838 8.811016 1.950771
14.493579 8.811016 2.252103
14.808320 8.811016 2.603563
15.123059 8.811016 3.233380
15.437800 8.811016 4.709518
15.752542 8.811016 6.358417
16.067284 8.811016 0.000000
16.382023 8.811016 0.000000
16.696766 8.811016 0.000000
17.011505 8.811016 0.000000
17.326248 8.811016 0.000000
17.640987 8.811016 0.000000
17.955730 8.811016 0.000000
18.270470 8.811016 0.000000
18.585213 8.811016 0.000000
18.899952 8.811016 0.000000
-7.223550 8.496273 0.000000
-6.908809 8.496273 0.011696
-6.594068 8.496273 0.008650
-6.279327 8.496273 0.008911
-5.964586 8.496273 0.008877
-5.649845 8.496273 0.008783
-5.335104 8.496273 0.008676
-5.020363 8.496273 0.008633
-4.705622 8.496273 0.008585
-4.390881 8.496273 0.008347
-4.076140 8.496273 0.008225
-3.761399 8.496273 0.008184
-3.446658 8.496273 0.008342
-3.131917 8.496273 0.008486
-2.817176 8.496273 0.008413
-2.502435 8.496273 0.008252
-2.187694 8.496273 0.008204
-1.872953 8.496273 0.008185
-1.558212 8.496273 0.008161
-1.243471 8.496273 0.008022
-0.928730 8.496273 0.008050
-0.613989 8.496273 0.008140
-0.299248 8.496273 0.008119
0.015493 8.496273 0.008051
0.330234 8.496273 0.007947
0.644975 8.496273 0.008014
0.959716 8.496273 0.008064
1.274457 8.496273 0.008004
1.589198 8.496273 0.007874
1.903938 8.496273 0.007771
2.218679 8.496273 0.007623
2.533421 8.496273 0.007615
2.848162 8.496273 0.007783
3.162903 8.496273 0.007680
3.477644 8.496273 0.007599
3.792385 8.496273 0.007672
4.107125 8.496273 0.007804
4.421866 8.496273 0.007914
4.736608 8.496273 0.008195
5.051349 8.496273 0.008744
5.366090 8.496273 0.009404
5.680831 8.496273 0.010340
5.995571 8.496273 0.011739
6.310312 8.496273 0.013726
6.625053 8.496273 0.016399
6.939795 8.496273 0.021846
7.254536 8.496273 0.030598
7.569277 8.496273 0.045664
7.884017 8.496273 0.068120
8.198758 8.496273 0.101572
8.513499 8.496273 0.149937
8.828240 8.496273 0.215911
9.142982 8.496273 0.292128
9.457723 8.496273 0.383071
9.772464 8.496273 0.485125
10.087205 8.496273 0.603923
10.401946 8.496273 0.708635
10.716687 8.496273 0.803375
11.031426 8.496273 0.921522
11.346168 8.496273 1.040126
11.660909 8.496273 1.160638
11.975650 8.496273 1.291317
12.290391 8.496273 1.378934
12.605132 8.496273 1.505691
12.919873 8.496273 1.592418
13.234614 8.496273 1.729115
13.549356 8.496273 1.776426
13.864097 8.496273 1.889809
14.178838 8.496273 2.013556
14.493579 8.496273 2.312295
14.808320 8.496273 2.701206
15.123059 8.496273 3.448415
15.437800 8.496273 5.036676
15.752542 8.496273 6.921785
16.067284 8.496273 0.000000
16.382023 8.496273 0.000000
16.696766 8.496273 0.000000
17.011505 8.496273 0.000000
17.326248 8.496273 0.000000
17.640987 8.496273 0.000000
17.955730 8.496273 0.000000
18.270470 8.496273 0.000000
18.585213 8.496273 0.000000
18.899952 8.496273 0.000000
-7.223550 8.181534 0.000000
-6.908809 8.181534 0.011708
-6.594068 8.181534 0.008659
-6.279327 8.181534 0.008959
-5.964586 8.181534 0.009017
-5.649845 8.181534 0.008799
-5.335104 8.181534 0.008647
-5.020363 8.181534 0.008551
-4.705622 8.181534 0.008425
-4.390881 8.181534 0.008283
-4.076140 8.181534 0.008284
-3.761399 8.181534 0.008242
-3.446658 8.181534 0.008323
-3.131917 8.181534 0.008403
-2.817176 8.181534 0.008438
-2.502435 8.181534 0.008284
-2.187694 8.181534 0.008249
-1.872953 8.181534 0.008171
-1.558212 8.181534 0.008096
-1.243471 8.181534 0.007999
-0.928730 8.181534 0.008139
-0.613989 8.181534 0.008219
-0.299248 8.181534 0.008231
0.015493 8.181534 0.008102
0.330234 8.181534 0.007913
0.644975 8.181534 0.008009
0.959716 8.181534 0.007909
1.274457 8.181534 0.007889
1.589198 8.181534 0.007903
1.903938 8.181534 0.007706
2.218679 8.181534 0.007671
2.533421 8.181534 0.007843
2.848162 8.181534 0.007998
3.162903 8.181534 0.007860
3.477644 8.181534 0.007758
3.792385 8.181534 0.007821
4.107125 8.181534 0.007969
4.421866 8.181534 0.008055
4.736608 8.181534 0.008298
5.051349 8.181534 0.008751
5.366090 8.181534 0.009483
5.680831 8.181534 0.010437
5.995571 8.181534 0.011925
6.310312 8.181534 0.014063
6.625053 8.181534 0.016736
6.939795 8.181534 0.021719
7.254536 8.181534 0.030830
7.569277 8.181534 0.047348
7.884017 8.181534 0.073819
8.198758 8.181534 0.107020
8.513499 8.181534 0.155181
8.828240 8.181534 0.217347
9.142982 8.181534 0.295840
9.457723 8.181534 0.389158
9.772464 8.181534 0.491339
10.087205 8.181534 0.610555
10.401946 8.181534 0.710545
10.716687 8.181534 0.805673
11.031426 8.181534 0.933836
11.346168 8.181534 1.060877
11.660909 8.181534 1.164530
11.975650 8.181534 1.293776
12.290391 8.181534 1.389843
12.605132 8.181534 1.472719
12.919873 8.181534 1.584399
13.234614 8.181534 1.740675
13.549356 8.181534 1.846519
13.864097 8.181534 1.900870
14.178838 8.181534 2.111305
14.493579 8.181534 2.433582
14.808320 8.181534 2.745223
15.123059 8.181534 3.477199
15.437800 8.181534 5.254015
15.752542 8.181534 7.722615
16.067284 8.181534 0.000000
16.382023 8.181534 0.000000
16.696766 8.181534 0.000000
17.011505 8.181534 0.000000
17.326248 8.181534 0.000000
17.640987 8.181534 0.000000
17.955730 8.181534 0.000000
18.270470 8.181534 0.000000
18.585213 8.181534 0.000000
18.899952 8.181534 0.000000
-7.223550 7.866791 0.000000
-6.908809 7.866791 0.011778
-6.594068 7.866791 0.008731
-6.279327 7.866791 0.008944
-5.964586 7.866791 0.008948
-5.649845 7.866791 0.008787
-5.335104 7.866791 0.008759
-5.020363 7.866791 0.008620
-4.705622 7.866791 0.008389
-4.390881 7.866791 0.008389
-4.076140 7.866791 0.008384
-3.761399 7.866791 0.008275
-3.446658 7.866791 0.008277
-3.131917 7.866791 0.008348
-2.817176 7.866791 0.008350
-2.502435 7.866791 0.008253
-2.187694 7.866791 0.008234
-1.872953 7.866791 0.008325
-1.558212 7.866791 0.008123
-1.243471 7.866791 0.007983
-0.928730 7.866791 0.008191
-0.613989 7.866791 0.008278
-0.299248 7.866791 0.008281
0.015493 7.866791 0.008182
0.330234 7.866791 0.008000
0.644975 7.866791 0.008011
0.959716 7.866791 0.007759
1.274457 7.866791 0.007784
1.589198 7.866791 0.007884
1.903938 7.866791 0.007669
2.218679 7.866791 0.007719
2.533421 7.866791 0.008114
2.848162 7.866791 0.008279
3.162903 7.866791 0.008093
3.477644 7.866791 0.007958
3.792385 7.866791 0.007924
4.107125 7.866791 0.008093
4.421866 7.866791 0.008313
4.736608 7.866791 0.008466
5.051349 7.866791 0.008730
5.366090 7.866791 0.009501
5.680831 7.866791 0.010605
5.995571 7.866791 0.012093
6.310312 7.866791 0.014327
6.625053 7.866791 0.017199
6.939795 7.866791 0.022504
7.254536 7.866791 0.031510
7.569277 7.866791 0.047167
7.884017 7.866791 0.072416
8.198758 7.866791 0.108563
8.513499 7.866791 0.156789
8.828240 7.866791 0.220735
9.142982 7.866791 0.305163
9.457723 7.866791 0.396173
9.772464 7.866791 0.495157
10.087205 7.866791 0.611845
10.401946 7.866791 0.720768
10.716687 7.866791 0.826435
11.031426 7.866791 0.947098
11.346168 7.866791 1.060498
11.660909 7.866791 1.151328
11.975650 7.866791 1.319735
12.290391 7.866791 1.385113
12.605132 7.866791 1.496868
12.919873 7.866791 1.589592
13.234614 7.866791 1.671764
13.549356 7.866791 1.775609
13.864097 7.866791 1.948627
14.178838 7.866791 2.119576
14.493579 7.866791 2.439089
14.808320 7.866791 2.782731
15.123059 7.866791 3.492387
15.437800 7.866791 5.563564
15.752542 7.866791 8.271503
16.067284 7.866791 0.000000
16.382023 7.866791 0.000000
16.696766 7.866791 0.000000
17.011505 7.866791 0.000000
17.326248 7.866791 0.000000
17.640987 7.866791 0.000000
17.955730 7.866791 0.000000
18.270470 7.866791 0.000000
18.585213 7.866791 0.000000
18.899952 7.866791 0.000000
-7.223550 7.552052 0.000000
-6.908809 7.552052 0.011953
-6.594068 7.552052 0.008850
-6.279327 7.552052 0.008790
-5.964586 7.552052 0.008775
-5.649845 7.552052 0.008777
-5.335104 7.552052 0.008835
-5.020363 7.552052 0.008663
-4.705622 7.552052 0.008401
-4.390881 7.552052 0.008430
-4.076140 7.552052 0.008314
-3.761399 7.552052 0.008163
-3.446658 7.552052 0.008226
-3.131917 7.552052 0.008209
-2.817176 7.552052 0.008252
-2.502435 7.552052 0.008187
-2.187694 7.552052 0.008247
-1.872953 7.552052 0.008361
-1.558212 7.552052 0.008145
-1.243471 7.552052 0.007944
-0.928730 7.552052 0.008122
-0.613989 7.552052 0.008182
-0.299248 7.552052 0.008175
0.015493 7.552052 0.008098
0.330234 7.552052 0.008006
0.644975 7.552052 0.007934
0.959716 7.552052 0.007690
1.274457 7.552052 0.007747
1.589198 7.552052 0.007868
1.903938 7.552052 0.007627
2.218679 7.552052 0.007662
2.533421 7.552052 0.008092
2.848162 7.552052 0.008296
3.162903 7.552052 0.008146
3.477644 7.552052 0.007994
3.792385 7.552052 0.007917
4.107125 7.552052 0.008181
4.421866 7.552052 0.008503
4.736608 7.552052 0.008548
5.051349 7.552052 0.008767
5.366090 7.552052 0.009554
5.680831 7.552052 0.010729
5.995571 7.552052 0.012304
6.310312 7.552052 0.014309
6.625053 7.552052 0.017501
6.939795 7.552052 0.023309
7.254536 7.552052 0.033057
7.569277 7.552052 0.048739
7.884017 7.552052 0.075167
8.198758 7.552052 0.112110
8.513499 7.552052 0.160404
8.828240 7.552052 0.223742
9.142982 7.552052 0.306381
9.457723 7.552052 0.401947
9.772464 7.552052 0.512348
10.087205 7.552052 0.614097
10.401946 7.552052 0.719274
10.716687 7.552052 0.833466
11.031426 7.552052 0.960976
11.346168 7.552052 1.063691
11.660909 7.552052 1.160547
11.975650 7.552052 1.295872
12.290391 7.552052 1.383403
12.605132 7.552052 1.477563
12.919873 7.552052 1.598680
13.234614 7.552052 1.700593
13.549356 7.552052 1.802600
13.864097 7.552052 1.885661
14.178838 7.552052 2.129687
14.493579 7.552052 2.330285
14.808320 7.552052 2.833149
15.123059 7.552052 3.436321
15.437800 7.552052 5.394624
15.752542 7.552052 7.932780
16.067284 7.552052 0.000000
16.382023 7.552052 0.000000
16.696766 7.552052 0.000000
17.011505 7.552052 0.000000
17.326248 7.552052 0.000000
17.640987 7.552052 0.000000
17.955730 7.552052 0.000000
18.270470 7.552052 0.000000
18.585213 7.552052 0.000000
18.899952 7.552052 0.000000
-7.223550 7.237309 0.000000
-6.908809 7.237309 0.012067
-6.594068 7.237309 0.008935
-6.279327 7.237309 0.008699
-5.964586 7.237309 0.008566
-5.649845 7.237309 0.008708
-5.335104 7.237309 0.008763
-5.020363 7.237309 0.008616
-4.705622 7.237309 0.008380
-4.390881 7.237309 0.008235
-4.076140 7.237309 0.008096
-3.761399 7.237309 0.008123
-3.446658 7.237309 0.008272
-3.131917 7.237309 0.008202
-2.817176 7.237309 0.008204
-2.502435 7.237309 0.008217
-2.187694 7.237309 0.008231
-1.872953 7.237309 0.008354
-1.558212 7.237309 0.008151
-1.243471 7.237309 0.007802
-0.928730 7.237309 0.007928
-0.613989 7.237309 0.008057
-0.299248 7.237309 0.008136
0.015493 7.237309 0.008034
0.330234 7.237309 0.008014
0.644975 7.237309 0.007884
0.959716 7.237309 0.007719
1.274457 7.237309 0.007717
1.589198 7.237309 0.007841
1.903938 7.237309 0.007565
2.218679 7.237309 0.007498
2.533421 7.237309 0.007830
2.848162 7.237309 0.008032
3.162903 7.237309 0.007959
3.477644 7.237309 0.007823
3.792385 7.237309 0.007849
4.107125 7.237309 0.008228
4.421866 7.237309 0.008598
4.736608 7.237309 0.008679
5.051349 7.237309 0.008881
5.366090 7.237309 0.009520
5.680831 7.237309 0.010718
5.995571 7.237309 0.012440
6.310312 7.237309 0.014492
6.625053 7.237309 0.018001
6.939795 7.237309 0.024068
7.254536 7.237309 0.033860
7.569277 7.237309 0.049876
7.884017 7.237309 0.077327
8.198758 7.237309 0.113689
8.513499 7.237309 0.162775
8.828240 7.237309 0.231527
9.142982 7.237309 0.314160
9.457723 7.237309 0.412002
9.772464 7.237309 0.507726
10.087205 7.237309 0.613875
10.401946 7.237309 0.710726
10.716687 7.237309 0.829412
11.031426 7.237309 0.961450
11.346168 7.237309 1.063340
11.660909 7.237309 1.171285
11.975650 7.237309 1.311644
12.290391 7.237309 1.382752
12.605132 7.237309 1.520725
12.919873 7.237309 1.598038
13.234614 7.237309 1.704854
13.549356 7.237309 1.751379
13.864097 7.237309 1.893710
14.178838 7.237309 2.032183
14.493579 7.237309 2.339437
14.808320 7.237309 2.765767
15.123059 7.237309 3.560626
15.437800 7.237309 5.444492
15.752542 7.237309 8.226945
16.067284 7.237309 0.000000
16.382023 7.237309 0.000000
16.696766 7.237309 0.000000
17.011505 7.237309 0.000000
17.326248 7.237309 0.000000
17.640987 7.237309 0.000000
17.955730 7.237309 0.000000
18.270470 7.237309 0.000000
18.585213 7.237309 0.000000
18.899952 7.237309 0.000000
-7.223550 6.922569 0.000000
-6.908809 6.922569 0.012195
-6.594068 6.922569 0.008872
-6.279327 6.922569 0.008660
-5.964586 6.922569 0.008515
-5.649845 6.922569 0.008652
-5.335104 6.922569 0.008658
-5.020363 6.922569 0.008585
-4.705622 6.922569 0.008322
-4.390881 6.922569 0.008081
-4.076140 6.922569 0.007989
-3.761399 6.922569 0.008156
-3.446658 6.922569 0.008335
-3.131917 6.922569 0.008316
-2.817176 6.922569 0.008246
-2.502435 6.922569 0.008296
-2.187694 6.922569 0.008178
-1.872953 6.922569 0.008329
-1.558212 6.922569 0.008186
-1.243471 6.922569 0.007806
-0.928730 6.922569 0.007819
-0.613989 6.922569 0.008001
-0.299248 6.922569 0.008157
0.015493 6.922569 0.008022
0.330234 6.922569 0.008053
0.644975 6.922569 0.007898
0.959716 6.922569 0.007773
1.274457 6.922569 0.007750
1.589198 6.922569 0.007652
1.903938 6.922569 0.007390
2.218679 6.922569 0.007368
2.533421 6.922569 0.007645
2.848162 6.922569 0.007922
3.162903 6.922569 0.007922
3.477644 6.922569 0.007747
3.792385 6.922569 0.007789
4.107125 6.922569 0.008209
4.421866 6.922569 0.008611
4.736608 6.922569 0.008830
5.051349 6.922569 0.008975
5.366090 6.922569 0.009461
5.680831 6.922569 0.010622
5.995571 6.922569 0.012403
6.310312 6.922569 0.014528
6.625053 6.922569 0.018267
6.939795 6.922569 0.024422
7.254536 6.922569 0.035007
7.569277 6.922569 0.052941
7.884017 6.922569 0.079825
8.198758 6.922569 0.115446
8.513499 6.922569 0.167158
8.828240 6.922569 0.236070
9.142982 6.922569 0.318528
9.457723 6.922569 0.414591
9.772464 6.922569 0.515362
10.087205 6.922569 0.612246
10.401946 6.922569 0.713983
10.716687 6.922569 0.836964
11.031426 6.922569 0.965240
11.346168 6.922569 1.094616
11.660909 6.922569 1.193257
11.975650 6.922569 1.305072
12.290391 6.922569 1.427443
12.605132 6.922569 1.495014
12.919873 6.922569 1.623147
13.234614 6.922569 1.695343
13.549356 6.922569 1.776553
13.864097 6.922569 1.859948
14.178838 6.922569 2.087891
14.493579 6.922569 2.291842
14.808320 6.922569 2.756411
15.123059 6.922569 3.729756
15.437800 6.922569 5.610371
15.752542 6.922569 8.465880
16.067284 6.922569 0.000000
16.382023 6.922569 0.000000
16.696766 6.922569 0.000000
17.011505 6.922569 0.000000
17.326248 6.922569 0.000000
17.640987 6.922569 0.000000
17.955730 6.922569 0.000000
18.270470 6.922569 0.000000
18.585213 6.922569 0.000000
18.899952 6.922569 0.000000
-7.223550 6.607826 0.000000
-6.908809 6.607826 0.012234
-6.594068 6.607826 0.008830
-6.279327 6.607826 0.008696
-5.964586 6.607826 0.008544
-5.649845 6.607826 0.008641
-5.335104 6.607826 0.008617
-5.020363 6.607826 0.008600
-4.705622 6.607826 0.008273
-4.390881 6.607826 0.008046
-4.076140 6.607826 0.008122
-3.761399 6.607826 0.008271
-3.446658 6.607826 0.008381
-3.131917 6.607826 0.008414
-2.817176 6.607826 0.008317
-2.502435 6.607826 0.008333
-2.187694 6.607826 0.008199
-1.872953 6.607826 0.008267
-1.558212 6.607826 0.008222
-1.243471 6.607826 0.007953
-0.928730 6.607826 0.007863
-0.613989 6.607826 0.007993
-0.299248 6.607826 0.008121
0.015493 6.607826 0.007979
0.330234 6.607826 0.007992
0.644975 6.607826 0.007902
0.959716 6.607826 0.007799
1.274457 6.607826 0.007822
1.589198 6.607826 0.007573
1.903938 6.607826 0.007404
2.218679 6.607826 0.007440
2.533421 6.607826 0.007653
2.848162 6.607826 0.008010
3.162903 6.607826 0.007994
3.477644 6.607826 0.007815
3.792385 6.607826 0.007814
4.107125 6.607826 0.008156
4.421866 6.607826 0.008515
4.736608 6.607826 0.008817
5.051349 6.607826 0.008960
5.366090 6.607826 0.009374
5.680831 6.607826 0.010536
5.995571 6.607826 0.012426
6.310312 6.607826 0.014900
6.625053 6.607826 0.018464
6.939795 6.607826 0.025290
7.254536 6.607826 0.036801
7.569277 6.607826 0.054815
7.884017 6.607826 0.082663
8.198758 6.607826 0.120549
8.513499 6.607826 0.173188
8.828240 6.607826 0.248068
9.142982 6.607826 0.326107
9.457723 6.607826 0.420171
9.772464 6.607826 0.520342
10.087205 6.607826 0.616553
10.401946 6.607826 0.724364
10.716687 6.607826 0.846970
11.031426 6.607826 0.974761
11.346168 6.607826 1.088446
11.660909 6.607826 1.205204
11.975650 6.607826 1.322762
12.290391 6.607826 1.426840
12.605132 6.607826 1.497226
12.919873 6.607826 1.613609
13.234614 6.607826 1.680509
13.549356 6.607826 1.771302
13.864097 6.607826 1.915751
14.178838 6.607826 2.059749
14.493579 6.607826 2.292613
14.808320 6.607826 2.693171
15.123059 6.607826 3.668065
15.437800 6.607826 5.890075
15.752542 6.607826 8.080014
16.067284 6.607826 0.000000
16.382023 6.607826 0.000000
16.696766 6.607826 0.000000
17.011505 6.607826 0.000000
17.326248 6.607826 0.000000
17.640987 6.607826 0.000000
17.955730 6.607826 0.000000
18.270470 6.607826 0.000000
18.585213 6.607826 0.000000
18.899952 6.607826 0.000000
-7.223550 6.293087 0.000000
-6.908809 6.293087 0.012294
-6.594068 6.293087 0.008875
-6.279327 6.293087 0.008829
-5.964586 6.293087 0.008685
-5.649845 6.293087 0.008738
-5.335104 6.293087 0.008705
-5.020363 6.293087 0.008610
-4.705622 6.293087 0.008294
-4.390881 6.293087 0.008158
-4.076140 6.293087 0.008308
-3.761399 6.293087 0.008399
-3.446658 6.293087 0.008409
-3.131917 6.293087 0.008458
-2.817176 6.293087 0.008398
-2.502435 6.293087 0.008357
-2.187694 6.293087 0.008260
-1.872953 6.293087 0.008206
-1.558212 6.293087 0.008171
-1.243471 6.293087 0.008119
-0.928730 6.293087 0.007958
-0.613989 6.293087 0.007944
-0.299248 6.293087 0.008005
0.015493 6.293087 0.007898
0.330234 6.293087 0.007958
0.644975 6.293087 0.007918
0.959716 6.293087 0.007827
1.274457 6.293087 0.007950
1.589198 6.293087 0.007680
1.903938 6.293087 0.007601
2.218679 6.293087 0.007715
2.533421 6.293087 0.007782
2.848162 6.293087 0.008004
3.162903 6.293087 0.007945
3.477644 6.293087 0.007780
3.792385 6.293087 0.007857
4.107125 6.293087 0.008100
4.421866 6.293087 0.008347
4.736608 6.293087 0.008730
5.051349 6.293087 0.008916
5.366090 6.293087 0.009392
5.680831 6.293087 0.010580
5.995571 6.293087 0.012404
6.310312 6.293087 0.015014
6.625053 6.293087 0.018979
6.939795 6.293087 0.025466
7.254536 6.293087 0.037338
7.569277 6.293087 0.056894
7.884017 6.293087 0.084280
8.198758 6.293087 0.128727
8.513499 6.293087 0.184614
8.828240 6.293087 0.252169
9.142982 6.293087 0.328257
9.457723 6.293087 0.411686
9.772464 6.293087 0.519530
10.087205 6.293087 0.623347
10.401946 6.293087 0.728323
10.716687 6.293087 0.879082
11.031426 6.293087 0.985344
11.346168 6.293087 1.087920
11.660909 6.293087 1.220475
11.975650 6.293087 1.333362
12.290391 6.293087 1.441510
12.605132 6.293087 1.512152
12.919873 6.293087 1.629763
13.234614 6.293087 1.698865
13.549356 6.293087 1.785836
13.864097 6.293087 1.923018
14.178838 6.293087 2.080467
14.493579 6.293087 2.386144
14.808320 6.293087 2.746693
15.123059 6.293087 3.628348
15.437800 6.293087 5.839161
15.752542 6.293087 8.143682
16.067284 6.293087 0.000000
16.382023 6.293087 0.000000
16.696766 6.293087 0.000000
17.011505 6.293087 0.000000
17.326248 6.293087 0.000000
17.640987 6.293087 0.000000
17.955730 6.293087 0.000000
18.270470 6.293087 0.000000
18.585213 6.293087 0.000000
18.899952 6.293087 0.000000
-7.223550 5.978344 0.000000
-6.908809 5.978344 0.012355
-6.594068 5.978344 0.008929
-6.279327 5.978344 0.008904
-5.964586 5.978344 0.008769
-5.649845 5.978344 0.008816
-5.335104 5.978344 0.008801
-5.020363 5.978344 0.008576
-4.705622 5.978344 0.008384
-4.390881 5.978344 0.008302
-4.076140 5.978344 0.008405
-3.761399 5.978344 0.008518
-3.446658 5.978344 0.008499
-3.131917 5.978344 0.008519
-2.817176 5.978344 0.008454
-2.502435 5.978344 0.008345
-2.187694 5.978344 0.008315
-1.872953 5.978344 0.008198
-1.558212 5.978344 0.008054
-1.243471 5.978344 0.008136
-0.928730 5.978344 0.007990
-0.613989 5.978344 0.007920
-0.299248 5.978344 0.007975
0.015493 5.978344 0.007839
0.330234 5.978344 0.008021
0.644975 5.978344 0.007962
0.959716 5.978344 0.007834
1.274457 5.978344 0.007910
1.589198 5.978344 0.007741
1.903938 5.978344 0.007709
2.218679 5.978344 0.007919
2.533421 5.978344 0.007820
2.848162 5.978344 0.007893
3.162903 5.978344 0.007770
3.477644 5.978344 0.007687
3.792385 5.978344 0.007886
4.107125 5.978344 0.008073
4.421866 5.978344 0.008364
4.736608 5.978344 0.008671
5.051349 5.978344 0.008921
5.366090 5.978344 0.009503
5.680831 5.978344 0.010619
5.995571 5.978344 0.012354
6.310312 5.978344 0.015105
6.625053 5.978344 0.019387
6.939795 5.978344 0.026099
7.254536 5.978344 0.037560
7.569277 5.978344 0.056354
7.884017 5.978344 0.085990
8.198758 5.978344 0.127759
8.513499 5.978344 0.188776
8.828240 5.978344 0.254702
9.142982 5.978344 0.339184
9.457723 5.978344 0.430704
9.772464 5.978344 0.536008
10.087205 5.978344 0.635969
10.401946 5.978344 0.749671
10.716687 5.978344 0.879903
11.031426 5.978344 0.988840
11.346168 5.978344 1.085416
11.660909 5.978344 1.229378
11.975650 5.978344 1.340613
12.290391 5.978344 1.454808
12.605132 5.978344 1.560667
12.919873 5.978344 1.645660
13.234614 5.978344 1.732858
13.549356 5.978344 1.814325
13.864097 5.978344 1.997758
14.178838 5.978344 2.195368
14.493579 5.978344 2.385632
14.808320 5.978344 2.701850
15.123059 5.978344 3.757040
15.437800 5.978344 5.929493
15.752542 5.978344 8.267689
16.067284 5.978344 0.000000
16.382023 5.978344 0.000000
16.696766 5.978344 0.000000
17.011505 5.978344 0.000000
17.326248 5.978344 0.000000
17.640987 5.978344 0.000000
17.955730 5.978344 0.000000
18.270470 5.978344 0.000000
18.585213 5.978344 0.000000
18.899952 5.978344 0.000000
-7.223550 5.663605 0.000000
-6.908809 5.663605 0.012336
-6.594068 5.663605 0.008915
-6.279327 5.663605 0.008774
-5.964586 5.663605 0.008674
-5.649845 5.663605 0.008777
-5.335104 5.663605 0.008794
-5.020363 5.663605 0.008638
-4.705622 5.663605 0.008543
-4.390881 5.663605 0.008444
-4.076140 5.663605 0.008420
-3.761399 5.663605 0.008612
-3.446658 5.663605 0.008626
-3.131917 5.663605 0.008572
-2.817176 5.663605 0.008437
-2.502435 5.663605 0.008243
-2.187694 5.663605 0.008337
-1.872953 5.663605 0.008261
-1.558212 5.663605 0.007946
-1.243471 5.663605 0.007988
-0.928730 5.663605 0.007898
-0.613989 5.663605 0.007873
-0.299248 5.663605 0.007998
0.015493 5.663605 0.007791
0.330234 5.663605 0.007921
0.644975 5.663605 0.007923
0.959716 5.663605 0.007852
1.274457 5.663605 0.007856
1.589198 5.663605 0.007731
1.903938 5.663605 0.007698
2.218679 5.663605 0.007931
2.533421 5.663605 0.007886
2.848162 5.663605 0.007803
3.162903 5.663605 0.007691
3.477644 5.663605 0.007559
3.792385 5.663605 0.007815
4.107125 5.663605 0.008038
4.421866 5.663605 0.008404
4.736608 5.663605 0.008638
5.051349 5.663605 0.008906
5.366090 5.663605 0.009554
5.680831 5.663605 0.010699
5.995571 5.663605 0.012494
6.310312 5.663605 0.015189
6.625053 5.663605 0.019893
6.939795 5.663605 0.026287
7.254536 5.663605 0.037715
7.569277 5.663605 0.057373
7.884017 5.663605 0.086686
8.198758 5.663605 0.129600
8.513499 5.663605 0.193201
8.828240 5.663605 0.262375
9.142982 5.663605 0.343338
9.457723 5.663605 0.447778
9.772464 5.663605 0.546334
10.087205 5.663605 0.651071
10.401946 5.663605 0.760702
10.716687 5.663605 0.878561
11.031426 5.663605 1.001349
11.346168 5.663605 1.096454
11.660909 5.663605 1.215261
11.975650 5.663605 1.337791
12.290391 5.663605 1.443807
12.605132 5.663605 1.595592
12.919873 5.663605 1.700223
13.234614 5.663605 1.774882
13.549356 5.663605 1.866349
13.864097 5.663605 2.061349
14.178838 5.663605 2.252931
14.493579 5.663605 2.438730
14.808320 5.663605 2.800582
15.123059 5.663605 3.827699
15.437800 5.663605 5.974319
15.752542 5.663605 8.371887
16.067284 5.663605 0.000000
16.382023 5.663605 0.000000
16.696766 5.663605 0.000000
17.011505 5.663605 0.000000
17.326248 5.663605 0.000000
17.640987 5.663605 0.000000
17.955730 5.663605 0.000000
18.270470 5.663605 0.000000
18.585213 5.663605 0.000000
18.899952 5.663605 0.000000
-7.223550 5.348862 0.000000
-6.908809 5.348862 0.012365
-6.594068 5.348862 0.008839
-6.279327 5.348862 0.008626
-5.964586 5.348862 0.008520
-5.649845 5.348862 0.008726
-5.335104 5.348862 0.008707
-5.020363 5.348862 0.008755
-4.705622 5.348862 0.008660
-4.390881 5.348862 0.008508
-4.076140 5.348862 0.008406
-3.761399 5.348862 0.008677
-3.446658 5.348862 0.008763
-3.131917 5.348862 0.008601
-2.817176 5.348862 0.008411
-2.502435 5.348862 0.008193
-2.187694 5.348862 0.008318
-1.872953 5.348862 0.008277
-1.558212 5.348862 0.007871
-1.243471 5.348862 0.007757
-0.928730 5.348862 0.007746
-0.613989 5.348862 0.007895
-0.299248 5.348862 0.008032
0.015493 5.348862 0.007760
0.330234 5.348862 0.007795
0.644975 5.348862 0.007829
0.959716 5.348862 0.007914
1.274457 5.348862 0.007960
1.589198 5.348862 0.007798
1.903938 5.348862 0.007603
2.218679 5.348862 0.007763
2.533421 5.348862 0.007837
2.848162 5.348862 0.007833
3.162903 5.348862 0.007718
3.477644 5.348862 0.007462
3.792385 5.348862 0.007683
4.107125 5.348862 0.008049
4.421866 5.348862 0.008421
4.736608 5.348862 0.008606
5.051349 5.348862 0.008901
5.366090 5.348862 0.009618
5.680831 5.348862 0.010786
5.995571 5.348862 0.012695
6.310312 5.348862 0.015505
6.625053 5.348862 0.020490
6.939795 5.348862 0.027393
7.254536 5.348862 0.038876
7.569277 5.348862 0.059184
7.884017 5.348862 0.091336
8.198758 5.348862 0.132510
8.513499 5.348862 0.190944
8.828240 5.348862 0.266609
9.142982 5.348862 0.355028
9.457723 5.348862 0.450282
9.772464 5.348862 0.550271
10.087205 5.348862 0.663557
10.401946 5.348862 0.794412
10.716687 5.348862 0.895967
11.031426 5.348862 1.005035
11.346168 5.348862 1.122198
11.660909 5.348862 1.224187
11.975650 5.348862 1.341064
12.290391 5.348862 1.489463
12.605132 5.348862 1.565910
12.919873 5.348862 1.691670
13.234614 5.348862 1.760984
13.549356 5.348862 1.907665
13.864097 5.348862 2.055680
14.178838 5.348862 2.292912
14.493579 5.348862 2.536681
14.808320 5.348862 2.885875
15.123059 5.348862 3.905922
15.437800 5.348862 6.239439
15.752542 5.348862 8.659162
16.067284 5.348862 0.000000
16.382023 5.348862 0.000000
16.696766 5.348862 0.000000
17.011505 5.348862 0.000000
17.326248 5.348862 0.000000
17.640987 5.348862 0.000000
17.955730 5.348862 0.000000
18.270470 5.348862 0.000000
18.585213 5.348862 0.000000
18.899952 5.348862 0.000000
-7.223550 5.034122 0.000000
-6.908809 5.034122 0.012393
-6.594068 5.034122 0.008791
-6.279327 5.034122 0.008621
-5.964586 5.034122 0.008554
-5.649845 5.034122 0.008649
-5.335104 5.034122 0.008689
-5.020363 5.034122 0.008818
-4.705622 5.034122 0.008676
-4.390881 5.034122 0.008469
-4.076140 5.034122 0.008492
-3.761399 5.034122 0.008722
-3.446658 5.034122 0.008800
-3.131917 5.034122 0.008572
-2.817176 5.034122 0.008378
-2.502435 5.034122 0.008168
-2.187694 5.034122 0.008251
-1.872953 5.034122 0.008279
-1.558212 5.034122 0.007902
-1.243471 5.034122 0.007762
-0.928730 5.034122 0.007775
-0.613989 5.034122 0.008015
-0.299248 5.034122 0.008136
0.015493 5.034122 0.007853
0.330234 5.034122 0.007819
0.644975 5.034122 0.007825
0.959716 5.034122 0.008018
1.274457 5.034122 0.008114
1.589198 5.034122 0.007828
1.903938 5.034122 0.007536
2.218679 5.034122 0.007599
2.533421 5.034122 0.007823
2.848162 5.034122 0.007837
3.162903 5.034122 0.007814
3.477644 5.034122 0.007513
3.792385 5.034122 0.007616
4.107125 5.034122 0.008051
4.421866 5.034122 0.008446
4.736608 5.034122 0.008645
5.051349 5.034122 0.009079
5.366090 5.034122 0.009801
5.680831 5.034122 0.011026
5.995571 5.034122 0.013020
6.310312 5.034122 0.015993
6.625053 5.034122 0.020762
6.939795 5.034122 0.027825
7.254536 5.034122 0.041303
7.569277 5.034122 0.062378
7.884017 5.034122 0.094744
8.198758 5.034122 0.135960
8.513499 5.034122 0.197273
8.828240 5.034122 0.271531
9.142982 5.034122 0.352909
9.457723 5.034122 0.461179
9.772464 5.034122 0.567764
10.087205 5.034122 0.675119
10.401946 5.034122 0.804443
10.716687 5.034122 0.911111
11.031426 5.034122 1.015027
11.346168 5.034122 1.148480
11.660909 5.034122 1.240040
11.975650 5.034122 1.382004
12.290391 5.034122 1.507311
12.605132 5.034122 1.595682
12.919873 5.034122 1.664381
13.234614 5.034122 1.760397
13.549356 5.034122 1.886950
13.864097 5.034122 2.034209
14.178838 5.034122 2.280233
14.493579 5.034122 2.582974
14.808320 5.034122 2.985988
15.123059 5.034122 3.846964
15.437800 5.034122 6.225924
15.752542 5.034122 8.399888
16.067284 5.034122 0.000000
16.382023 5.034122 0.000000
16.696766 5.034122 0.000000
17.011505 5.034122 0.000000
17.326248 5.034122 0.000000
17.640987 5.034122 0.000000
17.955730 5.034122 0.000000
18.270470 5.034122 0.000000
18.585213 5.034122 0.000000
18.899952 5.034122 0.000000
-7.223550 4.719383 0.000000
-6.908809 4.719383 0.012445
-6.594068 4.719383 0.008888
-6.279327 4.719383 0.008745
-5.964586 4.719383 0.008679
-5.649845 4.719383 0.008670
-5.335104 4.719383 0.008725
-5.020363 4.719383 0.008860
-4.705622 4.719383 0.008618
-4.390881 4.719383 0.008529
-4.076140 4.719383 0.008623
-3.761399 4.719383 0.008705
-3.446658 4.719383 0.008672
-3.131917 4.719383 0.008511
-2.817176 4.719383 0.008302
-2.502435 4.719383 0.008205
-2.187694 4.719383 0.008202
-1.872953 4.719383 0.008253
-1.558212 4.719383 0.008009
-1.243471 4.719383 0.007974
-0.928730 4.719383 0.008010
-0.613989 4.719383 0.008208
-0.299248 4.719383 0.008297
0.015493 4.719383 0.008068
0.330234 4.719383 0.007980
0.644975 4.719383 0.007890
0.959716 4.719383 0.008012
1.274457 4.719383 0.008029
1.589198 4.719383 0.007770
1.903938 4.719383 0.007528
2.218679 4.719383 0.007517
2.533421 4.719383 0.007797
2.848162 4.719383 0.007898
3.162903 4.719383 0.007966
3.477644 4.719383 0.007674
3.792385 4.719383 0.007674
4.107125 4.719383 0.008034
4.421866 4.719383 0.008518
4.736608 4.719383 0.008818
5.051349 4.719383 0.009331
5.366090 4.719383 0.010102
5.680831 4.719383 0.011337
5.995571 4.719383 0.013364
6.310312 4.719383 0.016330
6.625053 4.719383 0.021117
6.939795 4.719383 0.028494
7.254536 4.719383 0.042222
7.569277 4.719383 0.064741
7.884017 4.719383 0.095116
8.198758 4.719383 0.139575
8.513499 4.719383 0.201286
8.828240 4.719383 0.273008
9.142982 4.719383 0.364509
9.457723 4.719383 0.462684
9.772464 4.719383 0.572344
10.087205 4.719383 0.668088
10.401946 4.719383 0.808114
10.716687 4.719383 0.918122
11.031426 4.719383 1.020765
11.346168 4.719383 1.158570
11.660909 4.719383 1.263000
11.975650 4.719383 1.433203
12.290391 4.719383 1.551576
12.605132 4.719383 1.603940
12.919873 4.719383 1.668776
13.234614 4.719383 1.714579
13.549356 4.719383 1.852568
13.864097 4.719383 2.037399
14.178838 4.719383 2.283089
14.493579 4.719383 2.542426
14.808320 4.719383 2.950598
15.123059 4.719383 3.924457
15.437800 4.719383 6.154128
15.752542 4.719383 7.410367
16.067284 4.719383 0.000000
16.382023 4.719383 0.000000
16.696766 4.719383 0.000000
17.011505 4.719383 0.000000
17.326248 4.719383 0.000000
17.640987 4.719383 0.000000
17.955730 4.719383 0.000000
18.270470 4.719383 0.000000
18.585213 4.719383 0.000000
18.899952 4.719383 0.000000
-7.223550 4.404640 0.000000
-6.908809 4.404640 0.012523
-6.594068 4.404640 0.008994
-6.279327 4.404640 0.008918
-5.964586 4.404640 0.008932
-5.649845 4.404640 0.008914
-5.335104 4.404640 0.008950
-5.020363 4.404640 0.008850
-4.705622 4.404640 0.008535
-4.390881 4.404640 0.008591
-4.076140 4.404640 0.008704
-3.761399 4.404640 0.008686
-3.446658 4.404640 0.008632
-3.131917 4.404640 0.008521
-2.817176 4.404640 0.008246
-2.502435 4.404640 0.008251
-2.187694 4.404640 0.008254
-1.872953 4.404640 0.008210
-1.558212 4.404640 0.008138
-1.243471 4.404640 0.008179
-0.928730 4.404640 0.008219
-0.613989 4.404640 0.008244
-0.299248 4.404640 0.008218
0.015493 4.404640 0.008146
0.330234 4.404640 0.008062
0.644975 4.404640 0.007815
0.959716 4.404640 0.007788
1.274457 4.404640 0.007797
1.589198 4.404640 0.007709
1.903938 4.404640 0.007615
2.218679 4.404640 0.007543
2.533421 4.404640 0.007816
2.848162 4.404640 0.008018
3.162903 4.404640 0.008050
3.477644 4.404640 0.007873
3.792385 4.404640 0.007800
4.107125 4.404640 0.008133
4.421866 4.404640 0.008682
4.736608 4.404640 0.009001
5.051349 4.404640 0.009513
5.366090 4.404640 0.010357
5.680831 4.404640 0.011498
5.995571 4.404640 0.013604
6.310312 4.404640 0.016710
6.625053 4.404640 0.021351
6.939795 4.404640 0.029789
7.254536 4.404640 0.043734
7.569277 4.404640 0.068402
7.884017 4.404640 0.099125
8.198758 4.404640 0.143874
8.513499 4.404640 0.207519
8.828240 4.404640 0.283999
9.142982 4.404640 0.377991
9.457723 4.404640 0.479570
9.772464 4.404640 0.592291
10.087205 4.404640 0.682134
10.401946 4.404640 0.817502
10.716687 4.404640 0.931243
11.031426 4.404640 1.059381
11.346168 4.404640 1.170458
11.660909 4.404640 1.297630
11.975650 4.404640 1.397677
12.290391 4.404640 1.523856
12.605132 4.404640 1.606577
12.919873 4.404640 1.675881
13.234614 4.404640 1.700107
13.549356 4.404640 1.828919
13.864097 4.404640 2.038690
14.178838 4.404640 2.253365
14.493579 4.404640 2.575315
14.808320 4.404640 2.893975
15.123059 4.404640 4.151963
15.437800 4.404640 6.528944
15.752542 4.404640 6.540866
16.067284 4.404640 0.000000
16.382023 4.404640 0.000000
16.696766 4.404640 0.000000
17.011505 4.404640 0.000000
17.326248 4.404640 0.000000
17.640987 4.404640 0.000000
17.955730 4.404640 0.000000
18.270470 4.404640 0.000000
18.585213 4.404640 0.000000
18.899952 4.404640 0.000000
-7.223550 4.089901 0.000000
-6.908809 4.089901 0.012676
-6.594068 4.089901 0.009048
-6.279327 4.089901 0.009050
-5.964586 4.089901 0.009185
-5.649845 4.089901 0.009190
-5.335104 4.089901 0.009120
-5.020363 4.089901 0.008829
-4.705622 4.089901 0.008532
-4.390881 4.089901 0.008606
-4.076140 4.089901 0.008635
-3.761399 4.089901 0.008685
-3.446658 4.089901 0.008808
-3.131917 4.089901 0.008603
-2.817176 4.089901 0.008242
-2.502435 4.089901 0.008335
-2.187694 4.089901 0.008420
-1.872953 4.089901 0.008235
-1.558212 4.089901 0.008097
-1.243471 4.089901 0.008202
-0.928730 4.089901 0.008208
-0.613989 4.089901 0.008110
-0.299248 4.089901 0.007973
0.015493 4.089901 0.008038
0.330234 4.089901 0.008000
0.644975 4.089901 0.007625
0.959716 4.089901 0.007537
1.274457 4.089901 0.007652
1.589198 4.089901 0.007802
1.903938 4.089901 0.007778
2.218679 4.089901 0.007693
2.533421 4.089901 0.007900
2.848162 4.089901 0.008081
3.162903 4.089901 0.007984
3.477644 4.089901 0.007975
3.792385 4.089901 0.007931
4.107125 4.089901 0.008280
4.421866 4.089901 0.008866
4.736608 4.089901 0.009174
5.051349 4.089901 0.009648
5.366090 4.089901 0.010373
5.680831 4.089901 0.011615
5.995571 4.089901 0.013955
6.310312 4.089901 0.016974
6.625053 4.089901 0.022205
6.939795 4.089901 0.031180
7.254536 4.089901 0.045481
7.569277 4.089901 0.068773
7.884017 4.089901 0.102373
8.198758 4.089901 0.149335
8.513499 4.089901 0.209261
8.828240 4.089901 0.289268
9.142982 4.089901 0.383762
9.457723 4.089901 0.485540
9.772464 4.089901 0.590915
10.087205 4.089901 0.702986
10.401946 4.089901 0.834652
10.716687 4.089901 0.961989
11.031426 4.089901 1.059812
11.346168 4.089901 1.180542
11.660909 4.089901 1.302377
11.975650 4.089901 1.381010
12.290391 4.089901 1.503196
12.605132 4.089901 1.607731
12.919873 4.089901 1.697685
13.234614 4.089901 1.737501
13.549356 4.089901 1.830587
13.864097 4.089901 1.995931
14.178838 4.089901 2.280869
14.493579 4.089901 2.590355
14.808320 4.089901 3.143001
15.123059 4.089901 4.499878
15.437800 4.089901 6.314319
15.752542 4.089901 0.000000
16.067284 4.089901 0.000000
16.382023 4.089901 0.000000
16.696766 4.089901 0.000000
17.011505 4.089901 0.000000
17.326248 4.089901 0.000000
17.640987 4.089901 0.000000
17.955730 4.089901 0.000000
18.270470 4.089901 0.000000
18.585213 4.089901 0.000000
18.899952 4.089901 0.000000
-7.223550 3.775158 0.000000
-6.908809 3.775158 0.012641
-6.594068 3.775158 0.009013
-6.279327 3.775158 0.009106
-5.964586 3.775158 0.009344
-5.649845 3.775158 0.009318
-5.335104 3.775158 0.009206
-5.020363 3.775158 0.008839
-4.705622 3.775158 0.008633
-4.390881 3.775158 0.008675
-4.076140 3.775158 0.008566
-3.761399 3.775158 0.008634
-3.446658 3.775158 0.008955
-3.131917 3.775158 0.008681
-2.817176 3.775158 0.008259
-2.502435 3.775158 0.008336
-2.187694 3.775158 0.008514
-1.872953 3.775158 0.008274
-1.558212 3.775158 0.008030
-1.243471 3.775158 0.008056
-0.928730 3.775158 0.008053
-0.613989 3.775158 0.008006
-0.299248 3.775158 0.007886
0.015493 3.775158 0.007967
0.330234 3.775158 0.007920
0.644975 3.775158 0.007556
0.959716 3.775158 0.007401
1.274457 3.775158 0.007646
1.589198 3.775158 0.007858
1.903938 3.775158 0.007828
2.218679 3.775158 0.007767
2.533421 3.775158 0.007925
2.848162 3.775158 0.008000
3.162903 3.775158 0.007882
3.477644 3.775158 0.007957
3.792385 3.775158 0.008004
4.107125 3.775158 0.008419
4.421866 3.775158 0.008921
4.736608 3.775158 0.009253
5.051349 3.775158 0.009711
5.366090 3.775158 0.010394
5.680831 3.775158 0.011725
5.995571 3.775158 0.014132
6.310312 3.775158 0.017610
6.625053 3.775158 0.022827
6.939795 3.775158 0.032024
7.254536 3.775158 0.048121
7.569277 3.775158 0.071285
7.884017 3.775158 0.106565
8.198758 3.775158 0.154919
8.513499 3.775158 0.216888
8.828240 3.775158 0.288923
9.142982 3.775158 0.380111
9.457723 3.775158 0.487419
9.772464 3.775158 0.593450
10.087205 3.775158 0.711979
10.401946 3.775158 0.831563
10.716687 3.775158 0.964070
11.031426 3.775158 1.062735
11.346168 3.775158 1.202749
11.660909 3.775158 1.311504
11.975650 3.775158 1.395123
12.290391 3.775158 1.466624
12.605132 3.775158 1.632105
12.919873 3.775158 1.677907
13.234614 3.775158 1.734795
13.549356 3.775158 1.812659
13.864097 3.775158 2.044990
14.178838 3.775158 2.334587
14.493579 3.775158 2.622763
14.808320 3.775158 3.218745
15.123059 3.775158 4.481756
15.437800 3.775158 6.369881
15.752542 3.775158 0.000000
16.067284 3.775158 0.000000
16.382023 3.775158 0.000000
16.696766 3.775158 0.000000
17.011505 3.775158 0.000000
17.326248 3.775158 0.000000
17.640987 3.775158 0.000000
17.955730 3.775158 0.000000
18.270470 3.775158 0.000000
18.585213 3.775158 0.000000
18.899952 3.775158 0.000000
-7.223550 3.460419 0.000000
-6.908809 3.460419 0.012451
-6.594068 3.460419 0.008903
-6.279327 3.460419 0.009070
-5.964586 3.460419 0.009271
-5.649845 3.460419 0.009302
-5.335104 3.460419 0.009238
-5.020363 3.460419 0.008907
-4.705622 3.460419 0.008740
-4.390881 3.460419 0.008759
-4.076140 3.460419 0.008555
-3.761399 3.460419 0.008649
-3.446658 3.460419 0.008887
-3.131917 3.460419 0.008604
-2.817176 3.460419 0.008269
-2.502435 3.460419 0.008227
-2.187694 3.460419 0.008415
-1.872953 3.460419 0.008267
-1.558212 3.460419 0.008000
-1.243471 3.460419 0.007947
-0.928730 3.460419 0.008012
-0.613989 3.460419 0.008120
-0.299248 3.460419 0.008041
0.015493 3.460419 0.008045
0.330234 3.460419 0.007879
0.644975 3.460419 0.007606
0.959716 3.460419 0.007455
1.274457 3.460419 0.007647
1.589198 3.460419 0.007691
1.903938 3.460419 0.007646
2.218679 3.460419 0.007705
2.533421 3.460419 0.007891
2.848162 3.460419 0.007983
3.162903 3.460419 0.007870
3.477644 3.460419 0.008007
3.792385 3.460419 0.008170
4.107125 3.460419 0.008541
4.421866 3.460419 0.008912
4.736608 3.460419 0.009244
5.051349 3.460419 0.009691
5.366090 3.460419 0.010375
5.680831 3.460419 0.011860
5.995571 3.460419 0.014188
6.310312 3.460419 0.017799
6.625053 3.460419 0.023189
6.939795 3.460419 0.032829
7.254536 3.460419 0.049618
7.569277 3.460419 0.072388
7.884017 3.460419 0.108249
8.198758 3.460419 0.157992
8.513499 3.460419 0.226866
8.828240 3.460419 0.290864
9.142982 3.460419 0.385075
9.457723 3.460419 0.495220
9.772464 3.460419 0.605631
10.087205 3.460419 0.712276
10.401946 3.460419 0.833493
10.716687 3.460419 0.961388
11.031426 3.460419 1.065142
11.346168 3.460419 1.204337
11.660909 3.460419 1.290024
11.975650 3.460419 1.416210
12.290391 3.460419 1.493069
12.605132 3.460419 1.578897
12.919873 3.460419 1.646697
13.234614 3.460419 1.734217
13.549356 3.460419 1.874631
13.864097 3.460419 2.044371
14.178838 3.460419 2.334976
14.493579 3.460419 2.554378
14.808320 3.460419 3.231538
15.123059 3.460419 4.470121
15.437800 3.460419 6.813420
15.752542 3.460419 0.000000
16.067284 3.460419 0.000000
16.382023 3.460419 0.000000
16.696766 3.460419 0.000000
17.011505 3.460419 0.000000
17.326248 3.460419 0.000000
17.640987 3.460419 0.000000
17.955730 3.460419 0.000000
18.270470 3.460419 0.000000
18.585213 3.460419 0.000000
18.899952 3.460419 0.000000
-7.223550 3.145676 0.000000
-6.908809 3.145676 0.012269
-6.594068 3.145676 0.008867
-6.279327 3.145676 0.009040
-5.964586 3.145676 0.009142
-5.649845 3.145676 0.009127
-5.335104 3.145676 0.009174
-5.020363 3.145676 0.008870
-4.705622 3.145676 0.008738
-4.390881 3.145676 0.008692
-4.076140 3.145676 0.008537
-3.761399 3.145676 0.008625
-3.446658 3.145676 0.008746
-3.131917 3.145676 0.008541
-2.817176 3.145676 0.008226
-2.502435 3.145676 0.008076
-2.187694 3.145676 0.008286
-1.872953 3.145676 0.008305
-1.558212 3.145676 0.008118
-1.243471 3.145676 0.007948
-0.928730 3.145676 0.008064
-0.613989 3.145676 0.008294
-0.299248 3.145676 0.008163
0.015493 3.145676 0.008023
0.330234 3.145676 0.007826
0.644975 3.145676 0.007609
0.959716 3.145676 0.007499
1.274457 3.145676 0.007588
1.589198 3.145676 0.007508
1.903938 3.145676 0.007423
2.218679 3.145676 0.007611
2.533421 3.145676 0.007843
2.848162 3.145676 0.008004
3.162903 3.145676 0.008024
3.477644 3.145676 0.007996
3.792385 3.145676 0.008236
4.107125 3.145676 0.008626
4.421866 3.145676 0.008948
4.736608 3.145676 0.009219
5.051349 3.145676 0.009651
5.366090 3.145676 0.010416
5.680831 3.145676 0.011992
5.995571 3.145676 0.014337
6.310312 3.145676 0.017977
6.625053 3.145676 0.024054
6.939795 3.145676 0.033728
7.254536 3.145676 0.050785
7.569277 3.145676 0.076737
7.884017 3.145676 0.112908
8.198758 3.145676 0.164038
8.513499 3.145676 0.227149
8.828240 3.145676 0.299523
9.142982 3.145676 0.401457
9.457723 3.145676 0.506391
9.772464 3.145676 0.605274
10.087205 3.145676 0.716982
10.401946 3.145676 0.824527
10.716687 3.145676 0.969885
11.031426 3.145676 1.090970
11.346168 3.145676 1.194063
11.660909 3.145676 1.295235
11.975650 3.145676 1.384434
12.290391 3.145676 1.478664
12.605132 3.145676 1.557046
12.919873 3.145676 1.598400
13.234614 3.145676 1.727230
13.549356 3.145676 1.779494
13.864097 3.145676 1.982504
14.178838 3.145676 2.321943
14.493579 3.145676 2.579279
14.808320 3.145676 3.168516
15.123059 3.145676 4.566836
15.437800 3.145676 6.131451
15.752542 3.145676 0.000000
16.067284 3.145676 0.000000
16.382023 3.145676 0.000000
16.696766 3.145676 0.000000
17.011505 3.145676 0.000000
17.326248 3.145676 0.000000
17.640987 3.145676 0.000000
17.955730 3.145676 0.000000
18.270470 3.145676 0.000000
18.585213 3.145676 0.000000
18.899952 3.145676 0.000000
-7.223550 2.830936 0.000000
-6.908809 2.830936 0.012423
-6.594068 2.830936 0.008951
-6.279327 2.830936 0.009075
-5.964586 2.830936 0.009025
-5.649845 2.830936 0.009004
-5.335104 2.830936 0.009117
-5.020363 2.830936 0.008858
-4.705622 2.830936 0.008641
-4.390881 2.830936 0.008560
-4.076140 2.830936 0.008513
-3.761399 2.830936 0.008595
-3.446658 2.830936 0.008682
-3.131917 2.830936 0.008484
-2.817176 2.830936 0.008205
-2.502435 2.830936 0.008057
-2.187694 2.830936 0.008267
-1.872953 2.830936 0.008443
-1.558212 2.830936 0.008247
-1.243471 2.830936 0.007986
-0.928730 2.830936 0.008072
-0.613989 2.830936 0.008288
-0.299248 2.830936 0.008046
0.015493 2.830936 0.007860
0.330234 2.830936 0.007724
0.644975 2.830936 0.007618
0.959716 2.830936 0.007591
1.274457 2.830936 0.007628
1.589198 2.830936 0.007408
1.903938 2.830936 0.007319
2.218679 2.830936 0.007563
2.533421 2.830936 0.007826
2.848162 2.830936 0.007993
3.162903 2.830936 0.008098
3.477644 2.830936 0.007996
3.792385 2.830936 0.008161
4.107125 2.830936 0.008700
4.421866 2.830936 0.009034
4.736608 2.830936 0.009289
5.051349 2.830936 0.009713
5.366090 2.830936 0.010512
5.680831 2.830936 0.012214
5.995571 2.830936 0.014668
6.310312 2.830936 0.018583
6.625053 2.830936 0.024694
6.939795 2.830936 0.035460
7.254536 2.830936 0.053052
7.569277 2.830936 0.077915
7.884017 2.830936 0.116537
8.198758 2.830936 0.172117
8.513499 2.830936 0.236359
8.828240 2.830936 0.312590
9.142982 2.830936 0.411652
9.457723 2.830936 0.507113
9.772464 2.830936 0.607542
10.087205 2.830936 0.710527
10.401946 2.830936 0.833260
10.716687 2.830936 0.977769
11.031426 2.830936 1.137079
11.346168 2.830936 1.228717
11.660909 2.830936 1.290157
11.975650 2.830936 1.353994
12.290391 2.830936 1.463677
12.605132 2.830936 1.582562
12.919873 2.830936 1.642588
13.234614 2.830936 1.709308
13.549356 2.830936 1.827268
13.864097 2.830936 1.964998
14.178838 2.830936 2.274854
14.493579 2.830936 2.695203
14.808320 2.830936 3.282650
15.123059 2.830936 5.087106
15.437800 2.830936 6.309452
15.752542 2.830936 0.000000
16.067284 2.830936 0.000000
16.382023 2.830936 0.000000
16.696766 2.830936 0.000000
17.011505 2.830936 0.000000
17.326248 2.830936 0.000000
17.640987 2.830936 0.000000
17.955730 2.830936 0.000000
18.270470 2.830936 0.000000
18.585213 2.830936 0.000000
18.899952 2.830936 0.000000
-7.223550 2.516193 0.000000
-6.908809 2.516193 0.012710
-6.594068 2.516193 0.009126
-6.279327 2.516193 0.009145
-5.964586 2.516193 0.009006
-5.649845 2.516193 0.009034
-5.335104 2.516193 0.009146
-5.020363 2.516193 0.008811
-4.705622 2.516193 0.008567
-4.390881 2.516193 0.008548
-4.076140 2.516193 0.008527
-3.761399 2.516193 0.008538
-3.446658 2.516193 0.008671
-3.131917 2.516193 0.008457
-2.817176 2.516193 0.008213
-2.502435 2.516193 0.008174
-2.187694 2.516193 0.008282
-1.872953 2.516193 0.008477
-1.558212 2.516193 0.008266
-1.243471 2.516193 0.007964
-0.928730 2.516193 0.007971
-0.613989 2.516193 0.008004
-0.299248 2.516193 0.007779
0.015493 2.516193 0.007819
0.330234 2.516193 0.007774
0.644975 2.516193 0.007643
0.959716 2.516193 0.007649
1.274457 2.516193 0.007682
1.589198 2.516193 0.007422
1.903938 2.516193 0.007308
2.218679 2.516193 0.007502
2.533421 2.516193 0.007773
2.848162 2.516193 0.007979
3.162903 2.516193 0.008126
3.477644 2.516193 0.008048
3.792385 2.516193 0.008183
4.107125 2.516193 0.008860
4.421866 2.516193 0.009298
4.736608 2.516193 0.009520
5.051349 2.516193 0.009886
5.366090 2.516193 0.010802
5.680831 2.516193 0.012659
5.995571 2.516193 0.015239
6.310312 2.516193 0.019183
6.625053 2.516193 0.025774
6.939795 2.516193 0.036974
7.254536 2.516193 0.053806
7.569277 2.516193 0.079484
7.884017 2.516193 0.122642
8.198758 2.516193 0.179549
8.513499 2.516193 0.244615
8.828240 2.516193 0.320345
9.142982 2.516193 0.411987
9.457723 2.516193 0.522959
9.772464 2.516193 0.616329
10.087205 2.516193 0.722100
10.401946 2.516193 0.850457
10.716687 2.516193 0.991990
11.031426 2.516193 1.112145
11.346168 2.516193 1.199695
11.660909 2.516193 1.285333
11.975650 2.516193 1.375566
12.290391 2.516193 1.458615
12.605132 2.516193 1.590337
12.919873 2.516193 1.691910
13.234614 2.516193 1.760956
13.549356 2.516193 1.882587
13.864097 2.516193 1.988310
14.178838 2.516193 2.243469
14.493579 2.516193 2.697711
14.808320 2.516193 3.638891
15.123059 2.516193 5.310318
15.437800 2.516193 0.000000
15.752542 2.516193 0.000000
16.067284 2.516193 0.000000
16.382023 2.516193 0.000000
16.696766 2.516193 0.000000
17.011505 2.516193 0.000000
17.326248 2.516193 0.000000
17.640987 2.516193 0.000000
17.955730 2.516193 0.000000
18.270470 2.516193 0.000000
18.585213 2.516193 0.000000
18.899952 2.516193 0.000000
-7.223550 2.201454 0.000000
-6.908809 2.201454 0.012791
-6.594068 2.201454 0.009227
-6.279327 2.201454 0.009328
-5.964586 2.201454 0.009194
-5.649845 2.201454 0.009161
-5.335104 2.201454 0.009122
-5.020363 2.201454 0.008815
-4.705622 2.201454 0.008545
-4.390881 2.201454 0.008488
-4.076140 2.201454 0.008457
-3.761399 2.201454 0.008531
-3.446658 2.201454 0.008661
-3.131917 2.201454 0.008403
-2.817176 2.201454 0.008257
-2.502435 2.201454 0.008215
-2.187694 2.201454 0.008255
-1.872953 2.201454 0.008304
-1.558212 2.201454 0.008143
-1.243471 2.201454 0.007934
-0.928730 2.201454 0.007904
-0.613989 2.201454 0.007737
-0.299248 2.201454 0.007665
0.015493 2.201454 0.007928
0.330234 2.201454 0.007921
0.644975 2.201454 0.007678
0.959716 2.201454 0.007571
1.274457 2.201454 0.007631
1.589198 2.201454 0.007434
1.903938 2.201454 0.007310
2.218679 2.201454 0.007523
2.533421 2.201454 0.007784
2.848162 2.201454 0.007990
3.162903 2.201454 0.008203
3.477644 2.201454 0.008177
3.792385 2.201454 0.008312
4.107125 2.201454 0.009032
4.421866 2.201454 0.009462
4.736608 2.201454 0.009701
5.051349 2.201454 0.010078
5.366090 2.201454 0.010876
5.680831 2.201454 0.012948
5.995571 2.201454 0.015847
6.310312 2.201454 0.020055
6.625053 2.201454 0.026483
6.939795 2.201454 0.038356
7.254536 2.201454 0.056447
7.569277 2.201454 0.082115
7.884017 2.201454 0.126621
8.198758 2.201454 0.183005
8.513499 2.201454 0.249780
8.828240 2.201454 0.328285
9.142982 2.201454 0.423318
9.457723 2.201454 0.533840
9.772464 2.201454 0.631074
10.087205 2.201454 0.732355
10.401946 2.201454 0.852957
10.716687 2.201454 0.987361
11.031426 2.201454 1.112253
11.346168 2.201454 1.194345
11.660909 2.201454 1.304551
11.975650 2.201454 1.407340
12.290391 2.201454 1.514039
12.605132 2.201454 1.647020
12.919873 2.201454 1.742274
13.234614 2.201454 1.757367
13.549356 2.201454 1.869070
13.864097 2.201454 2.075087
14.178838 2.201454 2.276423
14.493579 2.201454 2.771477
14.808320 2.201454 3.678300
15.123059 2.201454 5.438785
15.437800 2.201454 0.000000
15.752542 2.201454 0.000000
16.067284 2.201454 0.000000
16.382023 2.201454 0.000000
16.696766 2.201454 0.000000
17.011505 2.201454 0.000000
17.326248 2.201454 0.000000
17.640987 2.201454 0.000000
17.955730 2.201454 0.000000
18.270470 2.201454 0.000000
18.585213 2.201454 0.000000
18.899952 2.201454 0.000000
-7.223550 1.886711 0.000000
-6.908809 1.886711 0.012737
-6.594068 1.886711 0.009289
-6.279327 1.886711 0.009601
-5.964586 1.886711 0.009448
-5.649845 1.886711 0.009219
-5.335104 1.886711 0.009119
-5.020363 1.886711 0.008858
-4.705622 1.886711 0.008666
-4.390881 1.886711 0.008584
-4.076140 1.886711 0.008387
-3.761399 1.886711 0.008550
-3.446658 1.886711 0.008693
-3.131917 1.886711 0.008351
-2.817176 1.886711 0.008181
-2.502435 1.886711 0.008206
-2.187694 1.886711 0.008239
-1.872953 1.886711 0.008109
-1.558212 1.886711 0.007932
-1.243471 1.886711 0.007869
-0.928730 1.886711 0.007804
-0.613989 1.886711 0.007610
-0.299248 1.886711 0.007669
0.015493 1.886711 0.007999
0.330234 1.886711 0.008006
0.644975 1.886711 0.007631
0.959716 1.886711 0.007469
1.274457 1.886711 0.007515
1.589198 1.886711 0.007332
1.903938 1.886711 0.007342
2.218679 1.886711 0.007603
2.533421 1.886711 0.007760
2.848162 1.886711 0.007990
3.162903 1.886711 0.008307
3.477644 1.886711 0.008255
3.792385 1.886711 0.008481
4.107125 1.886711 0.009008
4.421866 1.886711 0.009417
4.736608 1.886711 0.009780
5.051349 1.886711 0.010167
5.366090 1.886711 0.011015
5.680831 1.886711 0.013103
5.995571 1.886711 0.016161
6.310312 1.886711 0.020411
6.625053 1.886711 0.027245
6.939795 1.886711 0.039426
7.254536 1.886711 0.059091
7.569277 1.886711 0.086569
7.884017 1.886711 0.128784
8.198758 1.886711 0.187887
8.513499 1.886711 0.261442
8.828240 1.886711 0.336988
9.142982 1.886711 0.429545
9.457723 1.886711 0.552681
9.772464 1.886711 0.640831
10.087205 1.886711 0.736819
10.401946 1.886711 0.861027
10.716687 1.886711 0.977879
11.031426 1.886711 1.109898
11.346168 1.886711 1.195897
11.660909 1.886711 1.274315
11.975650 1.886711 1.386891
12.290391 1.886711 1.526989
12.605132 1.886711 1.653960
12.919873 1.886711 1.761988
13.234614 1.886711 1.805086
13.549356 1.886711 1.943161
13.864097 1.886711 2.106555
14.178838 1.886711 2.473734
14.493579 1.886711 2.868766
14.808320 1.886711 4.042868
15.123059 1.886711 5.415260
15.437800 1.886711 0.000000
15.752542 1.886711 0.000000
16.067284 1.886711 0.000000
16.382023 1.886711 0.000000
16.696766 1.886711 0.000000
17.011505 1.886711 0.000000
17.326248 1.886711 0.000000
17.640987 1.886711 0.000000
17.955730 1.886711 0.000000
18.270470 1.886711 0.000000
18.585213 1.886711 0.000000
18.899952 1.886711 0.000000
-7.223550 1.571972 0.000000
-6.908809 1.571972 0.012306
-6.594068 1.571972 0.009193
-6.279327 1.571972 0.009727
-5.964586 1.571972 0.009537
-5.649845 1.571972 0.009199
-5.335104 1.571972 0.009022
-5.020363 1.571972 0.008980
-4.705622 1.571972 0.008884
-4.390881 1.571972 0.008800
-4.076140 1.571972 0.008432
-3.761399 1.571972 0.008552
-3.446658 1.571972 0.008717
-3.131917 1.571972 0.008371
-2.817176 1.571972 0.008143
-2.502435 1.571972 0.008150
-2.187694 1.571972 0.008180
-1.872953 1.571972 0.007944
-1.558212 1.571972 0.007723
-1.243471 1.571972 0.007766
-0.928730 1.571972 0.007765
-0.613989 1.571972 0.007698
-0.299248 1.571972 0.007795
0.015493 1.571972 0.007954
0.330234 1.571972 0.007881
0.644975 1.571972 0.007550
0.959716 1.571972 0.007439
1.274457 1.571972 0.007482
1.589198 1.571972 0.007310
1.903938 1.571972 0.007388
2.218679 1.571972 0.007637
2.533421 1.571972 0.007712
2.848162 1.571972 0.007934
3.162903 1.571972 0.008234
3.477644 1.571972 0.008250
3.792385 1.571972 0.008570
4.107125 1.571972 0.008923
4.421866 1.571972 0.009328
4.736608 1.571972 0.009713
5.051349 1.571972 0.010140
5.366090 1.571972 0.011211
5.680831 1.571972 0.013328
5.995571 1.571972 0.016208
6.310312 1.571972 0.020842
6.625053 1.571972 0.027994
6.939795 1.571972 0.039698
7.254536 1.571972 0.061793
7.569277 1.571972 0.091450
7.884017 1.571972 0.133379
8.198758 1.571972 0.193214
8.513499 1.571972 0.268379
8.828240 1.571972 0.345243
9.142982 1.571972 0.445832
9.457723 1.571972 0.560149
9.772464 1.571972 0.653393
10.087205 1.571972 0.743976
10.401946 1.571972 0.853609
10.716687 1.571972 0.979783
11.031426 1.571972 1.100320
11.346168 1.571972 1.192878
11.660909 1.571972 1.279196
11.975650 1.571972 1.426160
12.290391 1.571972 1.581023
12.605132 1.571972 1.686860
12.919873 1.571972 1.781632
13.234614 1.571972 1.860792
13.549356 1.571972 2.020234
13.864097 1.571972 2.230453
14.178838 1.571972 2.551963
14.493579 1.571972 3.134858
14.808320 1.571972 4.362359
15.123059 1.571972 4.631492
15.437800 1.571972 0.000000
15.752542 1.571972 0.000000
16.067284 1.571972 0.000000
16.382023 1.571972 0.000000
16.696766 1.571972 0.000000
17.011505 1.571972 0.000000
17.326248 1.571972 0.000000
17.640987 1.571972 0.000000
17.955730 1.571972 0.000000
18.270470 1.571972 0.000000
18.585213 1.571972 0.000000
18.899952 1.571972 0.000000
-7.223550 1.257229 0.000000
-6.908809 1.257229 0.011751
-6.594068 1.257229 0.008855
-6.279327 1.257229 0.009481
-5.964586 1.257229 0.009428
-5.649845 1.257229 0.009091
-5.335104 1.257229 0.009003
-5.020363 1.257229 0.009010
-4.705622 1.257229 0.008917
-4.390881 1.257229 0.008852
-4.076140 1.257229 0.008534
-3.761399 1.257229 0.008554
-3.446658 1.257229 0.008597
-3.131917 1.257229 0.008297
-2.817176 1.257229 0.008045
-2.502435 1.257229 0.007978
-2.187694 1.257229 0.008063
-1.872953 1.257229 0.007839
-1.558212 1.257229 0.007652
-1.243471 1.257229 0.007636
-0.928730 1.257229 0.007668
-0.613989 1.257229 0.007703
-0.299248 1.257229 0.007829
0.015493 1.257229 0.007743
0.330234 1.257229 0.007630
0.644975 1.257229 0.007475
0.959716 1.257229 0.007508
1.274457 1.257229 0.007483
1.589198 1.257229 0.007282
1.903938 1.257229 0.007337
2.218679 1.257229 0.007596
2.533421 1.257229 0.007673
2.848162 1.257229 0.007823
3.162903 1.257229 0.008048
3.477644 1.257229 0.008230
3.792385 1.257229 0.008577
4.107125 1.257229 0.008890
4.421866 1.257229 0.009384
4.736608 1.257229 0.009738
5.051349 1.257229 0.010172
5.366090 1.257229 0.011346
5.680831 1.257229 0.013409
5.995571 1.257229 0.016123
6.310312 1.257229 0.020655
6.625053 1.257229 0.027790
6.939795 1.257229 0.040749
7.254536 1.257229 0.063668
7.569277 1.257229 0.096219
7.884017 1.257229 0.140585
8.198758 1.257229 0.200302
8.513499 1.257229 0.276673
8.828240 1.257229 0.359394
9.142982 1.257229 0.455386
9.457723 1.257229 0.567356
9.772464 1.257229 0.668373
10.087205 1.257229 0.748851
10.401946 1.257229 0.873998
10.716687 1.257229 0.984438
11.031426 1.257229 1.115700
11.346168 1.257229 1.192775
11.660909 1.257229 1.337314
11.975650 1.257229 1.466642
12.290391 1.257229 1.586017
12.605132 1.257229 1.730928
12.919873 1.257229 1.776901
13.234614 1.257229 1.890786
13.549356 1.257229 2.133428
13.864097 1.257229 2.392722
14.178838 1.257229 2.759165
14.493579 1.257229 3.164368
14.808320 1.257229 4.697715
15.123059 1.257229 0.000000
15.437800 1.257229 0.000000
15.752542 1.257229 0.000000
16.067284 1.257229 0.000000
16.382023 1.257229 0.000000
16.696766 1.257229 0.000000
17.011505 1.257229 0.000000
17.326248 1.257229 0.000000
17.640987 1.257229 0.000000
17.955730 1.257229 0.000000
18.270470 1.257229 0.000000
18.585213 1.257229 0.000000
18.899952 1.257229 0.000000
-7.223550 0.942490 0.000000
-6.908809 0.942490 0.011479
-6.594068 0.942490 0.008515
-6.279327 0.942490 0.009086
-5.964586 0.942490 0.009193
-5.649845 0.942490 0.008977
-5.335104 0.942490 0.008861
-5.020363 0.942490 0.008790
-4.705622 0.942490 0.008675
-4.390881 0.942490 0.008639
-4.076140 0.942490 0.008411
-3.761399 0.942490 0.008412
-3.446658 0.942490 0.008415
-3.131917 0.942490 0.008175
-2.817176 0.942490 0.007910
-2.502435 0.942490 0.007783
-2.187694 0.942490 0.007827
-1.872953 0.942490 0.007792
-1.558212 0.942490 0.007679
-1.243471 0.942490 0.007513
-0.928730 0.942490 0.007487
-0.613989 0.942490 0.007516
-0.299248 0.942490 0.007631
0.015493 0.942490 0.007463
0.330234 0.942490 0.007419
0.644975 0.942490 0.007344
0.959716 0.942490 0.007490
1.274457 0.942490 0.007457
1.589198 0.942490 0.007221
1.903938 0.942490 0.007245
2.218679 0.942490 0.007496
2.533421 0.942490 0.007602
2.848162 0.942490 0.007702
3.162903 0.942490 0.007868
3.477644 0.942490 0.008148
3.792385 0.942490 0.008503
4.107125 0.942490 0.008880
4.421866 0.942490 0.009392
4.736608 0.942490 0.009766
5.051349 0.942490 0.010289
5.366090 0.942490 0.011416
5.680831 0.942490 0.013317
5.995571 0.942490 0.016161
6.310312 0.942490 0.020725
6.625053 0.942490 0.028230
6.939795 0.942490 0.042834
7.254536 0.942490 0.064999
7.569277 0.942490 0.098465
7.884017 0.942490 0.142646
8.198758 0.942490 0.203787
8.513499 0.942490 0.282767
8.828240 0.942490 0.368982
9.142982 0.942490 0.460221
9.457723 0.942490 0.557884
9.772464 0.942490 0.671304
10.087205 0.942490 0.768558
10.401946 0.942490 0.887789
10.716687 0.942490 1.013201
11.031426 0.942490 1.124894
11.346168 0.942490 1.215889
11.660909 0.942490 1.363310
11.975650 0.942490 1.516400
12.290391 0.942490 1.651478
12.605132 0.942490 1.772083
12.919873 0.942490 1.831577
13.234614 0.942490 1.948299
13.549356 0.942490 2.237001
13.864097 0.942490 2.465433
14.178838 0.942490 2.867845
14.493579 0.942490 3.538563
14.808320 0.942490 5.150257
15.123059 0.942490 0.000000
15.437800 0.942490 0.000000
15.752542 0.942490 0.000000
16.067284 0.942490 0.000000
16.382023 0.942490 0.000000
16.696766 0.942490 0.000000
17.011505 0.942490 0.000000
17.326248 0.942490 0.000000
17.640987 0.942490 0.000000
17.955730 0.942490 0.000000
18.270470 0.942490 0.000000
18.585213 0.942490 0.000000
18.899952 0.942490 0.000000
-7.223550 0.627750 0.000000
-6.908809 0.627750 0.011983
-6.594068 0.627750 0.008673
-6.279327 0.627750 0.009058
-5.964586 0.627750 0.009212
-5.649845 0.627750 0.009030
-5.335104 0.627750 0.008827
-5.020363 0.627750 0.008634
-4.705622 0.627750 0.008455
-4.390881 0.627750 0.008482
-4.076140 0.627750 0.008340
-3.761399 0.627750 0.008327
-3.446658 0.627750 0.008446
-3.131917 0.627750 0.008184
-2.817176 0.627750 0.007968
-2.502435 0.627750 0.007751
-2.187694 0.627750 0.007802
-1.872953 0.627750 0.007957
-1.558212 0.627750 0.007886
-1.243471 0.627750 0.007561
-0.928730 0.627750 0.007390
-0.613989 0.627750 0.007441
-0.299248 0.627750 0.007580
0.015493 0.627750 0.007531
0.330234 0.627750 0.007430
0.644975 0.627750 0.007304
0.959716 0.627750 0.007428
1.274457 0.627750 0.007472
1.589198 0.627750 0.007241
1.903938 0.627750 0.007302
2.218679 0.627750 0.007524
2.533421 0.627750 0.007646
2.848162 0.627750 0.007752
3.162903 0.627750 0.007949
3.477644 0.627750 0.008140
3.792385 0.627750 0.008408
4.107125 0.627750 0.008826
4.421866 0.627750 0.009448
4.736608 0.627750 0.009986
5.051349 0.627750 0.010610
5.366090 0.627750 0.011693
5.680831 0.627750 0.013418
5.995571 0.627750 0.016278
6.310312 0.627750 0.021273
6.625053 0.627750 0.029580
6.939795 0.627750 0.044259
7.254536 0.627750 0.066736
7.569277 0.627750 0.101221
7.884017 0.627750 0.153956
8.198758 0.627750 0.216929
8.513499 0.627750 0.294338
8.828240 0.627750 0.384431
9.142982 0.627750 0.474998
9.457723 0.627750 0.559533
9.772464 0.627750 0.666252
10.087205 0.627750 0.781034
10.401946 0.627750 0.912597
10.716687 0.627750 1.040097
11.031426 0.627750 1.179901
11.346168 0.627750 1.282037
11.660909 0.627750 1.384391
11.975650 0.627750 1.550646
12.290391 0.627750 1.698287
12.605132 0.627750 1.800467
12.919873 0.627750 1.868365
13.234614 0.627750 1.999552
13.549356 0.627750 2.245592
13.864097 0.627750 2.569556
14.178838 0.627750 3.120640
14.493579 0.627750 4.041028
14.808320 0.627750 5.248007
15.123059 0.627750 0.000000
15.437800 0.627750 0.000000
15.752542 0.627750 0.000000
16.067284 0.627750 0.000000
16.382023 0.627750 0.000000
16.696766 0.627750 0.000000
17.011505 0.627750 0.000000
17.326248 0.627750 0.000000
17.640987 0.627750 0.000000
17.955730 0.627750 0.000000
18.270470 0.627750 0.000000
18.585213 0.627750 0.000000
18.899952 0.627750 0.000000
-7.223550 0.313007 0.000000
-6.908809 0.313007 0.013185
-6.594068 0.313007 0.009962
-6.279327 0.313007 0.010377
-5.964586 0.313007 0.010554
-5.649845 0.313007 0.010062
-5.335104 0.313007 0.009614
-5.020363 0.313007 0.009314
-4.705622 0.313007 0.009148
-4.390881 0.313007 0.009316
-4.076140 0.313007 0.009128
-3.761399 0.313007 0.009033
-3.446658 0.313007 0.009257
-3.131917 0.313007 0.009001
-2.817176 0.313007 0.008696
-2.502435 0.313007 0.008411
-2.187694 0.313007 0.008461
-1.872953 0.313007 0.008704
-1.558212 0.313007 0.008713
-1.243471 0.313007 0.008247
-0.928730 0.313007 0.008165
-0.613989 0.313007 0.008286
-0.299248 0.313007 0.008551
0.015493 0.313007 0.008618
0.330234 0.313007 0.008247
0.644975 0.313007 0.007927
0.959716 0.313007 0.007944
1.274457 0.313007 0.008040
1.589198 0.313007 0.007837
1.903938 0.313007 0.007916
2.218679 0.313007 0.008081
2.533421 0.313007 0.008167
2.848162 0.313007 0.008417
3.162903 0.313007 0.008689
3.477644 0.313007 0.008756
3.792385 0.313007 0.008963
4.107125 0.313007 0.009427
4.421866 0.313007 0.010168
4.736608 0.313007 0.010932
5.051349 0.313007 0.011594
5.366090 0.313007 0.012700
5.680831 0.313007 0.014446
5.995571 0.313007 0.017603
6.310312 0.313007 0.023056
6.625053 0.313007 0.032617
6.939795 0.313007 0.048425
7.254536 0.313007 0.072939
7.569277 0.313007 0.112321
7.884017 0.313007 0.168786
8.198758 0.313007 0.233075
8.513499 0.313007 0.316419
8.828240 0.313007 0.409094
9.142982 0.313007 0.504277
9.457723 0.313007 0.610379
9.772464 0.313007 0.700184
10.087205 0.313007 0.809418
10.401946 0.313007 0.965537
10.716687 0.313007 1.096306
11.031426 0.313007 1.209574
11.346168 0.313007 1.313967
11.660909 0.313007 1.480077
11.975650 0.313007 1.638612
12.290391 0.313007 1.774022
12.605132 0.313007 1.913406
12.919873 0.313007 2.000603
13.234614 0.313007 2.092204
13.549356 0.313007 2.316267
13.864097 0.313007 2.715342
14.178838 0.313007 3.386156
14.493579 0.313007 4.569640
14.808320 0.313007 3.638398
15.123059 0.313007 0.000000
15.437800 0.313007 0.000000
15.752542 0.313007 0.000000
16.067284 0.313007 0.000000
16.382023 0.313007 0.000000
16.696766 0.313007 0.000000
17.011505 0.313007 0.000000
17.326248 0.313007 0.000000
17.640987 0.313007 0.000000
17.955730 0.313007 0.000000
18.270470 0.313007 0.000000
18.585213 0.313007 0.000000
18.899952 0.313007 0.000000
-7.223550 -0.001732 0.000000
-6.908809 -0.001732 0.010021
-6.594068 -0.001732 0.012789
-6.279327 -0.001732 0.014087
-5.964586 -0.001732 0.014330
-5.649845 -0.001732 0.012962
-5.335104 -0.001732 0.012058
-5.020363 -0.001732 0.011645
-4.705622 -0.001732 0.011394
-4.390881 -0.001732 0.011637
-4.076140 -0.001732 0.011409
-3.761399 -0.001732 0.011362
-3.446658 -0.001732 0.011584
-3.131917 -0.001732 0.011318
-2.817176 -0.001732 0.010818
-2.502435 -0.001732 0.010473
-2.187694 -0.001732 0.010461
-1.872953 -0.001732 0.010767
-1.558212 -0.001732 0.010892
-1.243471 -0.001732 0.010388
-0.928730 -0.001732 0.010258
-0.613989 -0.001732 0.010597
-0.299248 -0.001732 0.011061
0.015493 -0.001732 0.011128
0.330234 -0.001732 0.010342
0.644975 -0.001732 0.009770
0.959716 -0.001732 0.009732
1.274457 -0.001732 0.009822
1.589198 -0.001732 0.009698
1.903938 -0.001732 0.009835
2.218679 -0.001732 0.010000
2.533421 -0.001732 0.010170
2.848162 -0.001732 0.010587
3.162903 -0.001732 0.010935
3.477644 -0.001732 0.010776
3.792385 -0.001732 0.011078
4.107125 -0.001732 0.011510
4.421866 -0.001732 0.012401
4.736608 -0.001732 0.013292
5.051349 -0.001732 0.013960
5.366090 -0.001732 0.015359
5.680831 -0.001732 0.017716
5.995571 -0.001732 0.021331
6.310312 -0.001732 0.028528
6.625053 -0.001732 0.040387
6.939795 -0.001732 0.058641
7.254536 -0.001732 0.088619
7.569277 -0.001732 0.134669
7.884017 -0.001732 0.199743
8.198758 -0.001732 0.278228
8.513499 -0.001732 0.362178
8.828240 -0.001732 0.466722
9.142982 -0.001732 0.577675
9.457723 -0.001732 0.693755
9.772464 -0.001732 0.799363
10.087205 -0.001732 0.957642
10.401946 -0.001732 1.085010
10.716687 -0.001732 1.239407
11.031426 -0.001732 1.354309
11.346168 -0.001732 1.508375
11.660909 -0.001732 1.667255
11.975650 -0.001732 1.846529
12.290391 -0.001732 2.002447
12.605132 -0.001732 2.234571
12.919873 -0.001732 2.272063
13.234614 -0.001732 2.414495
13.549356 -0.001732 2.612176
13.864097 -0.001732 3.025310
14.178838 -0.001732 3.853371
14.493579 -0.001732 4.954861
14.808320 -0.001732 0.000000
15.123059 -0.001732 0.000000
15.437800 -0.001732 0.000000
15.752542 -0.001732 0.000000
16.067284 -0.001732 0.000000
16.382023 -0.001732 0.000000
16.696766 -0.001732 0.000000
17.011505 -0.001732 0.000000
17.326248 -0.001732 0.000000
17.640987 -0.001732 0.000000
17.955730 -0.001732 0.000000
18.270470 -0.001732 0.000000
18.585213 -0.001732 0.000000
18.899952 -0.001732 0.000000
-7.223550 -0.316475 0.000000
-6.908809 -0.316475 0.000000
-6.594068 -0.316475 0.000000
-6.279327 -0.316475 0.000000
-5.964586 -0.316475 0.000000
-5.649845 -0.316475 0.000000
-5.335104 -0.316475 0.000000
-5.020363 -0.316475 0.000000
-4.705622 -0.316475 0.000000
-4.390881 -0.316475 0.000000
-4.076140 -0.316475 0.000000
-3.761399 -0.316475 0.000000
-3.446658 -0.316475 0.000000
-3.131917 -0.316475 0.000000
-2.817176 -0.316475 0.000000
-2.502435 -0.316475 0.000000
-2.187694 -0.316475 0.000000
-1.872953 -0.316475 0.004774
-1.558212 -0.316475 0.006013
-1.243471 -0.316475 0.011514
-0.928730 -0.316475 0.013562
-0.613989 -0.316475 0.012965
-0.299248 -0.316475 0.012623
0.015493 -0.316475 0.013007
0.330234 -0.316475 0.012056
0.644975 -0.316475 0.011601
0.959716 -0.316475 0.011972
1.274457 -0.316475 0.012543
1.589198 -0.316475 0.012882
1.903938 -0.316475 0.013344
2.218679 -0.316475 0.013603
2.533421 -0.316475 0.014019
2.848162 -0.316475 0.014653
3.162903 -0.316475 0.014869
3.477644 -0.316475 0.014521
3.792385 -0.316475 0.014926
4.107125 -0.316475 0.015364
4.421866 -0.316475 0.016336
4.736608 -0.316475 0.017270
5.051349 -0.316475 0.018161
5.366090 -0.316475 0.020322
5.680831 -0.316475 0.023566
5.995571 -0.316475 0.028150
6.310312 -0.316475 0.036718
6.625053 -0.316475 0.051952
6.939795 -0.316475 0.073584
7.254536 -0.316475 0.111984
7.569277 -0.316475 0.169293
7.884017 -0.316475 0.247783
8.198758 -0.316475 0.334735
8.513499 -0.316475 0.439334
8.828240 -0.316475 0.571249
9.142982 -0.316475 0.712316
9.457723 -0.316475 0.841472
9.772464 -0.316475 0.993559
10.087205 -0.316475 1.154153
10.401946 -0.316475 1.314930
10.716687 -0.316475 1.478178
11.031426 -0.316475 1.673949
11.346168 -0.316475 1.812456
11.660909 -0.316475 2.060041
11.975650 -0.316475 2.239640
12.290391 -0.316475 2.514551
12.605132 -0.316475 2.639501
12.919873 -0.316475 2.752707
13.234614 -0.316475 2.905406
13.549356 -0.316475 3.120469
13.864097 -0.316475 3.682640
14.178838 -0.316475 4.371429
14.493579 -0.316475 4.985608
14.808320 -0.316475 0.000000
15.123059 -0.316475 0.000000
15.437800 -0.316475 0.000000
15.752542 -0.316475 0.000000
16.067284 -0.316475 0.000000
16.382023 -0.316475 0.000000
16.696766 -0.316475 0.000000
17.011505 -0.316475 0.000000
17.326248 -0.316475 0.000000
17.640987 -0.316475 0.000000
17.955730 -0.316475 0.000000
18.270470 -0.316475 0.000000
18.585213 -0.316475 0.000000
18.899952 -0.316475 0.000000
-7.223550 -0.631214 0.000000
-6.908809 -0.631214 0.000000
-6.594068 -0.631214 0.000000
-6.279327 -0.631214 0.000000
-5.964586 -0.631214 0.000000
-5.649845 -0.631214 0.000000
-5.335104 -0.631214 0.000000
-5.020363 -0.631214 0.000000
-4.705622 -0.631214 0.000000
-4.390881 -0.631214 0.000000
-4.076140 -0.631214 0.000000
-3.761399 -0.631214 0.000000
-3.446658 -0.631214 0.000000
-3.131917 -0.631214 0.000000
-2.817176 -0.631214 0.000000
-2.502435 -0.631214 0.000000
-2.187694 -0.631214 0.000000
-1.872953 -0.631214 0.000000
-1.558212 -0.631214 0.000000
-1.243471 -0.631214 0.000000
-0.928730 -0.631214 0.000000
-0.613989 -0.631214 0.000000
-0.299248 -0.631214 0.000000
0.015493 -0.631214 0.000000
0.330234 -0.631214 0.000000
0.644975 -0.631214 0.000000
0.959716 -0.631214 0.000000
1.274457 -0.631214 0.000000
1.589198 -0.631214 0.000000
1.903938 -0.631214 0.000000
2.218679 -0.631214 0.000000
2.533421 -0.631214 0.000000
2.848162 -0.631214 0.000000
3.162903 -0.631214 0.000000
3.477644 -0.631214 0.000000
3.792385 -0.631214 0.000000
4.107125 -0.631214 0.000000
4.421866 -0.631214 0.000000
4.736608 -0.631214 0.000000
5.051349 -0.631214 0.000000
5.366090 -0.631214 0.000000
5.680831 -0.631214 0.000000
5.995571 -0.631214 0.000000
6.310312 -0.631214 0.000000
6.625053 -0.631214 4.717806
6.939795 -0.631214 7.257329
7.254536 -0.631214 5.990967
7.569277 -0.631214 0.791508
7.884017 -0.631214 2.585222
8.198758 -0.631214 2.521297
8.513499 -0.631214 1.348238
8.828240 -0.631214 1.557921
9.142982 -0.631214 1.605902
9.457723 -0.631214 1.409186
9.772464 -0.631214 1.445027
10.087205 -0.631214 1.522501
10.401946 -0.631214 1.603934
10.716687 -0.631214 1.680665
11.031426 -0.631214 1.880252
11.346168 -0.631214 2.142091
11.660909 -0.631214 2.468305
11.975650 -0.631214 2.715329
12.290391 -0.631214 2.962635
12.605132 -0.631214 3.060043
12.919873 -0.631214 3.222834
13.234614 -0.631214 3.523864
13.549356 -0.631214 3.846739
13.864097 -0.631214 4.166069
14.178838 -0.631214 4.546839
14.493579 -0.631214 5.160121
14.808320 -0.631214 0.000000
15.123059 -0.631214 0.000000
15.437800 -0.631214 0.000000
15.752542 -0.631214 0.000000
16.067284 -0.631214 0.000000
16.382023 -0.631214 0.000000
16.696766 -0.631214 0.000000
17.011505 -0.631214 0.000000
17.326248 -0.631214 0.000000
17.640987 -0.631214 0.000000
17.955730 -0.631214 0.000000
18.270470 -0.631214 0.000000
18.585213 -0.631214 0.000000
18.899952 -0.631214 0.000000
-7.223550 -0.945957 0.000000
-6.908809 -0.945957 0.000000
-6.594068 -0.945957 0.000000
-6.279327 -0.945957 0.000000
-5.964586 -0.945957 0.000000
-5.649845 -0.945957 0.000000
-5.335104 -0.945957 0.000000
-5.020363 -0.945957 0.000000
-4.705622 -0.945957 0.000000
-4.390881 -0.945957 0.000000
-4.076140 -0.945957 0.000000
-3.761399 -0.945957 0.000000
-3.446658 -0.945957 0.000000
-3.131917 -0.945957 0.000000
-2.817176 -0.945957 0.000000
-2.502435 -0.945957 0.000000
-2.187694 -0.945957 0.000000
-1.872953 -0.945957 0.000000
-1.558212 -0.945957 0.000000
-1.243471 -0.945957 0.000000
-0.928730 -0.945957 0.000000
-0.613989 -0.945957 0.000000
-0.299248 -0.945957 0.000000
0.015493 -0.945957 0.000000
0.330234 -0.945957 0.000000
0.644975 -0.945957 0.000000
0.959716 -0.945957 0.000000
1.274457 -0.945957 0.000000
1.589198 -0.945957 0.000000
1.903938 -0.945957 0.000000
2.218679 -0.945957 0.000000
2.533421 -0.945957 0.000000
2.848162 -0.945957 0.000000
3.162903 -0.945957 0.000000
3.477644 -0.945957 0.000000
3.792385 -0.945957 0.000000
4.107125 -0.945957 0.000000
4.421866 -0.945957 0.000000
4.736608 -0.945957 0.000000
5.051349 -0.945957 0.000000
5.366090 -0.945957 0.000000
5.680831 -0.945957 0.000000
5.995571 -0.945957 0.000000
6.310312 -0.945957 0.000000
6.625053 -0.945957 0.000000
6.939795 -0.945957 0.000000
7.254536 -0.945957 0.000000
7.569277 -0.945957 0.000000
7.884017 -0.945957 0.000000
8.198758 -0.945957 0.000000
8.513499 -0.945957 0.000000
8.828240 -0.945957 0.000000
9.142982 -0.945957 0.000000
9.457723 -0.945957 0.000000
9.772464 -0.945957 2.905870
10.087205 -0.945957 0.928011
10.401946 -0.945957 4.259942
10.716687 -0.945957 5.771036
11.031426 -0.945957 3.148624
11.346168 -0.945957 3.101449
11.660909 -0.945957 3.695641
11.975650 -0.945957 2.924965
12.290391 -0.945957 3.021987
12.605132 -0.945957 2.833895
12.919873 -0.945957 3.020073
13.234614 -0.945957 2.984708
13.549356 -0.945957 2.966887
13.864097 -0.945957 3.128418
14.178838 -0.945957 3.030867
14.493579 -0.945957 2.430785
14.808320 -0.945957 0.000000
15.123059 -0.945957 0.000000
15.437800 -0.945957 0.000000
15.752542 -0.945957 0.000000
16.067284 -0.945957 0.000000
16.382023 -0.945957 0.000000
16.696766 -0.945957 0.000000
17.011505 -0.945957 0.000000
17.326248 -0.945957 0.000000
17.640987 -0.945957 0.000000
17.955730 -0.945957 0.000000
18.270470 -0.945957 0.000000
18.585213 -0.945957 0.000000
18.899952 -0.945957 0.000000
-7.223550 -1.260696 0.000000
-6.908809 -1.260696 0.000000
-6.594068 -1.260696 0.000000
-6.279327 -1.260696 0.000000
-5.964586 -1.260696 0.000000
-5.649845 -1.260696 0.000000
-5.335104 -1.260696 0.000000
-5.020363 -1.260696 0.000000
-4.705622 -1.260696 0.000000
-4.390881 -1.260696 0.000000
-4.076140 -1.260696 0.000000
-3.761399 -1.260696 0.000000
-3.446658 -1.260696 0.000000
-3.131917 -1.260696 0.000000
-2.817176 -1.260696 0.000000
-2.502435 -1.260696 0.000000
-2.187694 -1.260696 0.000000
-1.872953 -1.260696 0.000000
-1.558212 -1.260696 0.000000
-1.243471 -1.260696 0.000000
-0.928730 -1.260696 0.000000
-0.613989 -1.260696 0.000000
-0.299248 -1.260696 0.000000
0.015493 -1.260696 0.000000
0.330234 -1.260696 0.000000
0.644975 -1.260696 0.000000
0.959716 -1.260696 0.000000
1.274457 -1.260696 0.000000
1.589198 -1.260696 0.000000
1.903938 -1.260696 0.000000
2.218679 -1.260696 0.000000
2.533421 -1.260696 0.000000
2.848162 -1.260696 0.000000
3.162903 -1.260696 0.000000
3.477644 -1.260696 0.000000
3.792385 -1.260696 0.000000
4.107125 -1.260696 0.000000
4.421866 -1.260696 0.000000
4.736608 -1.260696 0.000000
5.051349 -1.260696 0.000000
5.366090 -1.260696 0.000000
5.680831 -1.260696 0.000000
5.995571 -1.260696 0.000000
6.310312 -1.260696 0.000000
6.625053 -1.260696 0.000000
6.939795 -1.260696 0.000000
7.254536 -1.260696 0.000000
7.569277 -1.260696 0.000000
7.884017 -1.260696 0.000000
8.198758 -1.260696 0.000000
8.513499 -1.260696 0.000000
8.828240 -1.260696 0.000000
9.142982 -1.260696 0.000000
9.457723 -1.260696 0.000000
9.772464 -1.260696 0.000000
10.087205 -1.260696 0.000000
10.401946 -1.260696 0.000000
10.716687 -1.260696 0.000000
11.031426 -1.260696 0.000000
11.346168 -1.260696 0.000000
11.660909 -1.260696 0.000000
11.975650 -1.260696 0.000000
12.290391 -1.260696 0.000000
12.605132 -1.260696 0.000000
12.919873 -1.260696 0.000000
13.234614 -1.260696 0.000000
13.549356 -1.260696 8.011999
13.864097 -1.260696 3.365947
14.178838 -1.260696 2.485493
14.493579 -1.260696 0.000000
14.808320 -1.260696 0.000000
15.123059 -1.260696 0.000000
15.437800 -1.260696 0.000000
15.752542 -1.260696 0.000000
16.067284 -1.260696 0.000000
16.382023 -1.260696 0.000000
16.696766 -1.260696 0.000000
17.011505 -1.260696 0.000000
17.326248 -1.260696 0.000000
17.640987 -1.260696 0.000000
17.955730 -1.260696 0.000000
18.270470 -1.260696 0.000000
18.585213 -1.260696 0.000000
18.899952 -1.260696 0.000000
-7.223550 -1.575439 0.000000
-6.908809 -1.575439 0.000000
-6.594068 -1.575439 0.000000
-6.279327 -1.575439 0.000000
-5.964586 -1.575439 0.000000
-5.649845 -1.575439 0.000000
-5.335104 -1.575439 0.000000
-5.020363 -1.575439 0.000000
-4.705622 -1.575439 0.000000
-4.390881 -1.575439 0.000000
-4.076140 -1.575439 0.000000
-3.761399 -1.575439 0.000000
-3.446658 -1.575439 0.000000
-3.131917 -1.575439 0.000000
-2.817176 -1.575439 0.000000
-2.502435 -1.575439 0.000000
-2.187694 -1.575439 0.000000
-1.872953 -1.575439 0.000000
-1.558212 -1.575439 0.000000
-1.243471 -1.575439 0.000000
-0.928730 -1.575439 0.000000
-0.613989 -1.575439 0.000000
-0.299248 -1.575439 0.000000
0.015493 -1.575439 0.000000
0.330234 -1.575439 0.000000
0.644975 -1.575439 0.000000
0.959716 -1.575439 0.000000
1.274457 -1.575439 0.000000
1.589198 -1.575439 0.000000
1.903938 -1.575439 0.000000
2.218679 -1.575439 0.000000
2.533421 -1.575439 0.000000
2.848162 -1.575439 0.000000
3.162903 -1.575439 0.000000
3.477644 -1.575439 0.000000
3.792385 -1.575439 0.000000
4.107125 -1.575439 0.000000
4.421866 -1.575439 0.000000
4.736608 -1.575439 0.000000
5.051349 -1.575439 0.000000
5.366090 -1.575439 0.000000
5.680831 -1.575439 0.000000
5.995571 -1.575439 0.000000
6.310312 -1.575439 0.000000
6.625053 -1.575439 0.000000
6.939795 -1.575439 0.000000
7.254536 -1.575439 0.000000
7.569277 -1.575439 0.000000
7.884017 -1.575439 0.000000
8.198758 -1.575439 0.000000
8.513499 -1.575439 0.000000
8.828240 -1.575439 0.000000
9.142982 -1.575439 0.000000
9.457723 -1.575439 0.000000
9.772464 -1.575439 0.000000
10.087205 -1.575439 0.000000
10.401946 -1.575439 0.000000
10.716687 -1.575439 0.000000
11.031426 -1.575439 0.000000
11.346168 -1.575439 0.000000
11.660909 -1.575439 0.000000
11.975650 -1.575439 0.000000
12.290391 -1.575439 0.000000
12.605132 -1.575439 0.000000
12.919873 -1.575439 0.000000
13.234614 -1.575439 0.000000
13.549356 -1.575439 0.000000
13.864097 -1.575439 0.000000
14.178838 -1.575439 0.000000
14.493579 -1.575439 0.000000
14.808320 -1.575439 0.000000
15.123059 -1.575439 0.000000
15.437800 -1.575439 0.000000
15.752542 -1.575439 0.000000
16.067284 -1.575439 0.000000
16.382023 -1.575439 0.000000
16.696766 -1.575439 0.000000
17.011505 -1.575439 0.000000
17.326248 -1.575439 0.000000
17.640987 -1.575439 0.000000
17.955730 -1.575439 0.000000
18.270470 -1.575439 0.000000
18.585213 -1.575439 0.000000
18.899952 -1.575439 0.000000
