TITLE = "B00011"
VARIABLES = "x", "y", "Reynold stress YZ"
ZONE T="Frame 1" I=84, J=163, F=POINT
-7.223550 49.412601 0.000000
-6.908809 49.412601 0.000000
-6.594068 49.412601 0.000000
-6.279327 49.412601 0.000000
-5.964586 49.412601 0.000000
-5.649845 49.412601 0.000000
-5.335104 49.412601 0.000000
-5.020363 49.412601 0.000000
-4.705622 49.412601 0.000000
-4.390881 49.412601 0.000000
-4.076140 49.412601 0.000000
-3.761399 49.412601 0.000000
-3.446658 49.412601 0.000000
-3.131917 49.412601 0.000000
-2.817176 49.412601 0.000000
-2.502435 49.412601 0.000000
-2.187694 49.412601 0.000000
-1.872953 49.412601 0.000000
-1.558212 49.412601 0.000000
-1.243471 49.412601 0.000000
-0.928730 49.412601 0.000000
-0.613989 49.412601 0.000000
-0.299248 49.412601 0.000000
0.015493 49.412601 0.000000
0.330234 49.412601 0.000000
0.644975 49.412601 0.000000
0.959716 49.412601 0.000000
1.274457 49.412601 0.000000
1.589198 49.412601 0.000000
1.903938 49.412601 0.000000
2.218679 49.412601 0.000000
2.533421 49.412601 0.000000
2.848162 49.412601 0.000000
3.162903 49.412601 0.000000
3.477644 49.412601 0.000000
3.792385 49.412601 0.000000
4.107125 49.412601 0.000000
4.421866 49.412601 0.000000
4.736608 49.412601 0.000000
5.051349 49.412601 0.000000
5.366090 49.412601 0.000000
5.680831 49.412601 0.000000
5.995571 49.412601 0.000000
6.310312 49.412601 0.000000
6.625053 49.412601 0.000000
6.939795 49.412601 0.000000
7.254536 49.412601 0.000000
7.569277 49.412601 0.000000
7.884017 49.412601 0.000000
8.198758 49.412601 0.000000
8.513499 49.412601 0.000000
8.828240 49.412601 0.000000
9.142982 49.412601 0.000000
9.457723 49.412601 0.000000
9.772464 49.412601 0.000000
10.087205 49.412601 0.000000
10.401946 49.412601 0.000000
10.716687 49.412601 0.000000
11.031426 49.412601 0.000000
11.346168 49.412601 0.000000
11.660909 49.412601 0.000000
11.975650 49.412601 0.000000
12.290391 49.412601 0.000000
12.605132 49.412601 0.000000
12.919873 49.412601 0.000000
13.234614 49.412601 0.000000
13.549356 49.412601 0.000000
13.864097 49.412601 0.000000
14.178838 49.412601 0.000000
14.493579 49.412601 0.000000
14.808320 49.412601 0.000000
15.123059 49.412601 0.000000
15.437800 49.412601 0.000000
15.752542 49.412601 0.000000
16.067284 49.412601 0.000000
16.382023 49.412601 0.000000
16.696766 49.412601 0.000000
17.011505 49.412601 0.000000
17.326248 49.412601 0.000000
17.640987 49.412601 0.000000
17.955730 49.412601 0.000000
18.270470 49.412601 0.000000
18.585213 49.412601 0.000000
18.899952 49.412601 0.000000
-7.223550 49.097862 0.000000
-6.908809 49.097862 0.000000
-6.594068 49.097862 0.000000
-6.279327 49.097862 0.000000
-5.964586 49.097862 0.000000
-5.649845 49.097862 0.000000
-5.335104 49.097862 0.000000
-5.020363 49.097862 0.000000
-4.705622 49.097862 0.000000
-4.390881 49.097862 0.000000
-4.076140 49.097862 0.000000
-3.761399 49.097862 0.000000
-3.446658 49.097862 0.000000
-3.131917 49.097862 0.000000
-2.817176 49.097862 0.000000
-2.502435 49.097862 0.000000
-2.187694 49.097862 0.000000
-1.872953 49.097862 0.000000
-1.558212 49.097862 0.000000
-1.243471 49.097862 0.000000
-0.928730 49.097862 0.000000
-0.613989 49.097862 0.000000
-0.299248 49.097862 0.000000
0.015493 49.097862 0.000000
0.330234 49.097862 0.000000
0.644975 49.097862 0.000000
0.959716 49.097862 0.000000
1.274457 49.097862 0.000000
1.589198 49.097862 0.000000
1.903938 49.097862 0.000000
2.218679 49.097862 0.000000
2.533421 49.097862 0.000000
2.848162 49.097862 0.000000
3.162903 49.097862 0.000000
3.477644 49.097862 0.000000
3.792385 49.097862 0.000000
4.107125 49.097862 0.000000
4.421866 49.097862 0.000000
4.736608 49.097862 0.000000
5.051349 49.097862 0.000000
5.366090 49.097862 0.000000
5.680831 49.097862 0.000000
5.995571 49.097862 0.000000
6.310312 49.097862 0.000000
6.625053 49.097862 0.000000
6.939795 49.097862 0.000000
7.254536 49.097862 0.000000
7.569277 49.097862 0.000000
7.884017 49.097862 0.000000
8.198758 49.097862 0.000000
8.513499 49.097862 0.000000
8.828240 49.097862 0.000000
9.142982 49.097862 0.000000
9.457723 49.097862 0.000000
9.772464 49.097862 0.000000
10.087205 49.097862 0.000000
10.401946 49.097862 0.000000
10.716687 49.097862 0.000000
11.031426 49.097862 0.000000
11.346168 49.097862 0.000000
11.660909 49.097862 0.000000
11.975650 49.097862 0.000000
12.290391 49.097862 0.000000
12.605132 49.097862 0.000000
12.919873 49.097862 0.000000
13.234614 49.097862 0.000000
13.549356 49.097862 0.000000
13.864097 49.097862 0.000000
14.178838 49.097862 0.000000
14.493579 49.097862 0.000000
14.808320 49.097862 0.000000
15.123059 49.097862 0.000000
15.437800 49.097862 0.000000
15.752542 49.097862 -5.214411
16.067284 49.097862 16.122652
16.382023 49.097862 0.000000
16.696766 49.097862 0.000000
17.011505 49.097862 -0.340409
17.326248 49.097862 -1.471790
17.640987 49.097862 -0.959604
17.955730 49.097862 -1.055622
18.270470 49.097862 -3.290375
18.585213 49.097862 -1.838704
18.899952 49.097862 0.000000
-7.223550 48.783119 0.000000
-6.908809 48.783119 0.000000
-6.594068 48.783119 0.000000
-6.279327 48.783119 0.000000
-5.964586 48.783119 0.000000
-5.649845 48.783119 0.000000
-5.335104 48.783119 0.000000
-5.020363 48.783119 0.000000
-4.705622 48.783119 0.000000
-4.390881 48.783119 0.000000
-4.076140 48.783119 0.000000
-3.761399 48.783119 0.000000
-3.446658 48.783119 0.000000
-3.131917 48.783119 0.000000
-2.817176 48.783119 0.000000
-2.502435 48.783119 0.000000
-2.187694 48.783119 0.000000
-1.872953 48.783119 0.000000
-1.558212 48.783119 0.000000
-1.243471 48.783119 0.000000
-0.928730 48.783119 0.000000
-0.613989 48.783119 0.000000
-0.299248 48.783119 0.000000
0.015493 48.783119 0.000000
0.330234 48.783119 0.000000
0.644975 48.783119 0.000000
0.959716 48.783119 0.000000
1.274457 48.783119 0.000000
1.589198 48.783119 0.000000
1.903938 48.783119 0.000000
2.218679 48.783119 0.000000
2.533421 48.783119 0.000000
2.848162 48.783119 0.000000
3.162903 48.783119 0.000000
3.477644 48.783119 0.000000
3.792385 48.783119 0.000000
4.107125 48.783119 0.000000
4.421866 48.783119 0.000000
4.736608 48.783119 0.000000
5.051349 48.783119 0.000000
5.366090 48.783119 0.000000
5.680831 48.783119 0.000000
5.995571 48.783119 0.000000
6.310312 48.783119 0.000000
6.625053 48.783119 0.000000
6.939795 48.783119 0.000000
7.254536 48.783119 0.000000
7.569277 48.783119 0.000000
7.884017 48.783119 0.000000
8.198758 48.783119 0.000000
8.513499 48.783119 0.000000
8.828240 48.783119 -0.598260
9.142982 48.783119 0.270144
9.457723 48.783119 0.343738
9.772464 48.783119 0.597427
10.087205 48.783119 0.377299
10.401946 48.783119 2.569160
10.716687 48.783119 0.155340
11.031426 48.783119 0.321381
11.346168 48.783119 0.531605
11.660909 48.783119 1.311614
11.975650 48.783119 1.668877
12.290391 48.783119 1.099636
12.605132 48.783119 1.139503
12.919873 48.783119 0.975224
13.234614 48.783119 1.119081
13.549356 48.783119 1.034714
13.864097 48.783119 0.686635
14.178838 48.783119 0.363836
14.493579 48.783119 0.165282
14.808320 48.783119 0.236825
15.123059 48.783119 0.273517
15.437800 48.783119 0.295500
15.752542 48.783119 0.405484
16.067284 48.783119 0.617835
16.382023 48.783119 0.782466
16.696766 48.783119 0.814144
17.011505 48.783119 1.428377
17.326248 48.783119 2.269874
17.640987 48.783119 3.095000
17.955730 48.783119 4.167686
18.270470 48.783119 6.008291
18.585213 48.783119 8.048449
18.899952 48.783119 9.640500
-7.223550 48.468380 0.000000
-6.908809 48.468380 0.000000
-6.594068 48.468380 0.001659
-6.279327 48.468380 0.000894
-5.964586 48.468380 0.001493
-5.649845 48.468380 0.001102
-5.335104 48.468380 0.001370
-5.020363 48.468380 0.002132
-4.705622 48.468380 0.002387
-4.390881 48.468380 0.002200
-4.076140 48.468380 0.002286
-3.761399 48.468380 0.002458
-3.446658 48.468380 0.002553
-3.131917 48.468380 0.002891
-2.817176 48.468380 0.003170
-2.502435 48.468380 0.003123
-2.187694 48.468380 0.003562
-1.872953 48.468380 0.004156
-1.558212 48.468380 0.004268
-1.243471 48.468380 0.003785
-0.928730 48.468380 0.003658
-0.613989 48.468380 0.004098
-0.299248 48.468380 0.004494
0.015493 48.468380 0.003999
0.330234 48.468380 0.003556
0.644975 48.468380 0.003572
0.959716 48.468380 0.003533
1.274457 48.468380 0.003188
1.589198 48.468380 0.002651
1.903938 48.468380 0.002484
2.218679 48.468380 0.002518
2.533421 48.468380 0.002570
2.848162 48.468380 0.002575
3.162903 48.468380 0.002806
3.477644 48.468380 0.003063
3.792385 48.468380 0.002730
4.107125 48.468380 0.002494
4.421866 48.468380 0.002690
4.736608 48.468380 0.002501
5.051349 48.468380 0.001973
5.366090 48.468380 0.001080
5.680831 48.468380 -0.000094
5.995571 48.468380 -0.001483
6.310312 48.468380 -0.002479
6.625053 48.468380 -0.004245
6.939795 48.468380 -0.005716
7.254536 48.468380 -0.006918
7.569277 48.468380 -0.008061
7.884017 48.468380 -0.008868
8.198758 48.468380 -0.010123
8.513499 48.468380 -0.005207
8.828240 48.468380 -0.002478
9.142982 48.468380 0.004002
9.457723 48.468380 0.002705
9.772464 48.468380 -0.011201
10.087205 48.468380 -0.024829
10.401946 48.468380 -0.022116
10.716687 48.468380 -0.023925
11.031426 48.468380 -0.000070
11.346168 48.468380 0.012666
11.660909 48.468380 0.022737
11.975650 48.468380 0.059965
12.290391 48.468380 0.080898
12.605132 48.468380 0.145657
12.919873 48.468380 0.175257
13.234614 48.468380 0.243790
13.549356 48.468380 0.251431
13.864097 48.468380 0.287658
14.178838 48.468380 0.323995
14.493579 48.468380 0.309936
14.808320 48.468380 0.336221
15.123059 48.468380 0.402466
15.437800 48.468380 0.412998
15.752542 48.468380 0.464421
16.067284 48.468380 0.550754
16.382023 48.468380 0.624971
16.696766 48.468380 0.662401
17.011505 48.468380 0.787846
17.326248 48.468380 0.958780
17.640987 48.468380 1.328043
17.955730 48.468380 1.822078
18.270470 48.468380 2.728976
18.585213 48.468380 3.386023
18.899952 48.468380 3.100358
-7.223550 48.153637 0.000000
-6.908809 48.153637 0.000000
-6.594068 48.153637 0.001935
-6.279327 48.153637 0.001659
-5.964586 48.153637 0.000928
-5.649845 48.153637 0.000585
-5.335104 48.153637 0.000276
-5.020363 48.153637 0.000466
-4.705622 48.153637 0.000534
-4.390881 48.153637 0.000386
-4.076140 48.153637 0.000535
-3.761399 48.153637 0.000729
-3.446658 48.153637 0.000904
-3.131917 48.153637 0.001269
-2.817176 48.153637 0.001464
-2.502435 48.153637 0.001501
-2.187694 48.153637 0.001844
-1.872953 48.153637 0.002249
-1.558212 48.153637 0.002194
-1.243471 48.153637 0.001784
-0.928730 48.153637 0.001776
-0.613989 48.153637 0.001995
-0.299248 48.153637 0.002345
0.015493 48.153637 0.002177
0.330234 48.153637 0.001906
0.644975 48.153637 0.002177
0.959716 48.153637 0.002351
1.274457 48.153637 0.002010
1.589198 48.153637 0.001578
1.903938 48.153637 0.001451
2.218679 48.153637 0.001611
2.533421 48.153637 0.001753
2.848162 48.153637 0.001758
3.162903 48.153637 0.001874
3.477644 48.153637 0.002100
3.792385 48.153637 0.001997
4.107125 48.153637 0.001918
4.421866 48.153637 0.001978
4.736608 48.153637 0.002006
5.051349 48.153637 0.001788
5.366090 48.153637 0.001577
5.680831 48.153637 0.001357
5.995571 48.153637 0.000989
6.310312 48.153637 0.000581
6.625053 48.153637 -0.000065
6.939795 48.153637 -0.000885
7.254536 48.153637 -0.001405
7.569277 48.153637 -0.000866
7.884017 48.153637 -0.000746
8.198758 48.153637 0.002094
8.513499 48.153637 0.005066
8.828240 48.153637 0.012248
9.142982 48.153637 0.022516
9.457723 48.153637 0.027203
9.772464 48.153637 0.021299
10.087205 48.153637 0.017985
10.401946 48.153637 0.023391
10.716687 48.153637 0.014622
11.031426 48.153637 0.030360
11.346168 48.153637 0.045839
11.660909 48.153637 0.054491
11.975650 48.153637 0.118753
12.290391 48.153637 0.115267
12.605132 48.153637 0.163132
12.919873 48.153637 0.201164
13.234614 48.153637 0.243957
13.549356 48.153637 0.227244
13.864097 48.153637 0.247412
14.178838 48.153637 0.248144
14.493579 48.153637 0.223266
14.808320 48.153637 0.266760
15.123059 48.153637 0.273525
15.437800 48.153637 0.299909
15.752542 48.153637 0.334711
16.067284 48.153637 0.412802
16.382023 48.153637 0.447560
16.696766 48.153637 0.563719
17.011505 48.153637 0.677567
17.326248 48.153637 0.853261
17.640987 48.153637 1.293011
17.955730 48.153637 2.023850
18.270470 48.153637 3.445493
18.585213 48.153637 4.956221
18.899952 48.153637 4.518433
-7.223550 47.838898 0.000000
-6.908809 47.838898 0.000000
-6.594068 47.838898 0.004386
-6.279327 47.838898 0.001380
-5.964586 47.838898 0.000618
-5.649845 47.838898 0.000396
-5.335104 47.838898 0.000031
-5.020363 47.838898 -0.000029
-4.705622 47.838898 -0.000113
-4.390881 47.838898 -0.000326
-4.076140 47.838898 -0.000274
-3.761399 47.838898 -0.000125
-3.446658 47.838898 0.000154
-3.131917 47.838898 0.000542
-2.817176 47.838898 0.000669
-2.502435 47.838898 0.000781
-2.187694 47.838898 0.001110
-1.872953 47.838898 0.001327
-1.558212 47.838898 0.001130
-1.243471 47.838898 0.000822
-0.928730 47.838898 0.000787
-0.613989 47.838898 0.000742
-0.299248 47.838898 0.000848
0.015493 47.838898 0.000864
0.330234 47.838898 0.000665
0.644975 47.838898 0.000842
0.959716 47.838898 0.000980
1.274457 47.838898 0.000699
1.589198 47.838898 0.000241
1.903938 47.838898 0.000162
2.218679 47.838898 0.000430
2.533421 47.838898 0.000710
2.848162 47.838898 0.000731
3.162903 47.838898 0.000757
3.477644 47.838898 0.000898
3.792385 47.838898 0.001074
4.107125 47.838898 0.001211
4.421866 47.838898 0.001129
4.736608 47.838898 0.001137
5.051349 47.838898 0.001025
5.366090 47.838898 0.000984
5.680831 47.838898 0.000863
5.995571 47.838898 0.000428
6.310312 47.838898 -0.000120
6.625053 47.838898 -0.000934
6.939795 47.838898 -0.001946
7.254536 47.838898 -0.002565
7.569277 47.838898 -0.003152
7.884017 47.838898 -0.002673
8.198758 47.838898 -0.001554
8.513499 47.838898 -0.000541
8.828240 47.838898 0.002778
9.142982 47.838898 0.013808
9.457723 47.838898 0.013462
9.772464 47.838898 0.008720
10.087205 47.838898 0.000701
10.401946 47.838898 -0.001189
10.716687 47.838898 -0.018119
11.031426 47.838898 -0.005531
11.346168 47.838898 0.016331
11.660909 47.838898 0.022316
11.975650 47.838898 0.044398
12.290391 47.838898 0.065614
12.605132 47.838898 0.061973
12.919873 47.838898 0.091168
13.234614 47.838898 0.143843
13.549356 47.838898 0.108441
13.864097 47.838898 0.121934
14.178838 47.838898 0.138940
14.493579 47.838898 0.136458
14.808320 47.838898 0.147086
15.123059 47.838898 0.140203
15.437800 47.838898 0.163366
15.752542 47.838898 0.180983
16.067284 47.838898 0.255174
16.382023 47.838898 0.322215
16.696766 47.838898 0.392563
17.011505 47.838898 0.526667
17.326248 47.838898 0.770402
17.640987 47.838898 1.192470
17.955730 47.838898 1.904860
18.270470 47.838898 3.461925
18.585213 47.838898 5.807462
18.899952 47.838898 5.740067
-7.223550 47.524155 0.000000
-6.908809 47.524155 0.000000
-6.594068 47.524155 0.003905
-6.279327 47.524155 0.001084
-5.964586 47.524155 0.000688
-5.649845 47.524155 0.000503
-5.335104 47.524155 0.000137
-5.020363 47.524155 0.000037
-4.705622 47.524155 -0.000085
-4.390881 47.524155 -0.000428
-4.076140 47.524155 -0.000534
-3.761399 47.524155 -0.000434
-3.446658 47.524155 -0.000104
-3.131917 47.524155 0.000286
-2.817176 47.524155 0.000347
-2.502435 47.524155 0.000551
-2.187694 47.524155 0.000948
-1.872953 47.524155 0.001009
-1.558212 47.524155 0.000807
-1.243471 47.524155 0.000666
-0.928730 47.524155 0.000621
-0.613989 47.524155 0.000382
-0.299248 47.524155 0.000276
0.015493 47.524155 0.000371
0.330234 47.524155 0.000216
0.644975 47.524155 0.000165
0.959716 47.524155 0.000215
1.274457 47.524155 0.000008
1.589198 47.524155 -0.000463
1.903938 47.524155 -0.000563
2.218679 47.524155 -0.000297
2.533421 47.524155 0.000003
2.848162 47.524155 0.000053
3.162903 47.524155 0.000054
3.477644 47.524155 0.000112
3.792385 47.524155 0.000504
4.107125 47.524155 0.000758
4.421866 47.524155 0.000677
4.736608 47.524155 0.000755
5.051349 47.524155 0.000819
5.366090 47.524155 0.000918
5.680831 47.524155 0.000967
5.995571 47.524155 0.000619
6.310312 47.524155 0.000033
6.625053 47.524155 -0.000657
6.939795 47.524155 -0.001478
7.254536 47.524155 -0.002492
7.569277 47.524155 -0.002988
7.884017 47.524155 -0.003168
8.198758 47.524155 -0.002482
8.513499 47.524155 -0.004239
8.828240 47.524155 -0.002665
9.142982 47.524155 0.005305
9.457723 47.524155 0.006234
9.772464 47.524155 0.003605
10.087205 47.524155 -0.006105
10.401946 47.524155 -0.027334
10.716687 47.524155 -0.038003
11.031426 47.524155 -0.028082
11.346168 47.524155 -0.024477
11.660909 47.524155 -0.012555
11.975650 47.524155 0.017323
12.290391 47.524155 0.020304
12.605132 47.524155 0.017136
12.919873 47.524155 0.001782
13.234614 47.524155 0.034021
13.549356 47.524155 0.021827
13.864097 47.524155 0.046152
14.178838 47.524155 0.066712
14.493579 47.524155 0.061792
14.808320 47.524155 0.047312
15.123059 47.524155 0.049055
15.437800 47.524155 0.085716
15.752542 47.524155 0.096489
16.067284 47.524155 0.165455
16.382023 47.524155 0.242332
16.696766 47.524155 0.296328
17.011505 47.524155 0.401546
17.326248 47.524155 0.627215
17.640987 47.524155 1.054856
17.955730 47.524155 1.765325
18.270470 47.524155 3.363924
18.585213 47.524155 5.884140
18.899952 47.524155 5.612718
-7.223550 47.209415 0.000000
-6.908809 47.209415 0.000000
-6.594068 47.209415 0.003399
-6.279327 47.209415 0.000883
-5.964586 47.209415 0.000775
-5.649845 47.209415 0.000568
-5.335104 47.209415 0.000234
-5.020363 47.209415 0.000210
-4.705622 47.209415 0.000064
-4.390881 47.209415 -0.000390
-4.076140 47.209415 -0.000569
-3.761399 47.209415 -0.000492
-3.446658 47.209415 -0.000220
-3.131917 47.209415 0.000137
-2.817176 47.209415 0.000162
-2.502435 47.209415 0.000471
-2.187694 47.209415 0.000955
-1.872953 47.209415 0.000941
-1.558212 47.209415 0.000780
-1.243471 47.209415 0.000760
-0.928730 47.209415 0.000746
-0.613989 47.209415 0.000433
-0.299248 47.209415 0.000262
0.015493 47.209415 0.000374
0.330234 47.209415 0.000265
0.644975 47.209415 0.000023
0.959716 47.209415 -0.000029
1.274457 47.209415 -0.000214
1.589198 47.209415 -0.000624
1.903938 47.209415 -0.000869
2.218679 47.209415 -0.000751
2.533421 47.209415 -0.000543
2.848162 47.209415 -0.000539
3.162903 47.209415 -0.000558
3.477644 47.209415 -0.000554
3.792385 47.209415 -0.000139
4.107125 47.209415 0.000217
4.421866 47.209415 0.000223
4.736608 47.209415 0.000430
5.051349 47.209415 0.000666
5.366090 47.209415 0.000867
5.680831 47.209415 0.001106
5.995571 47.209415 0.000997
6.310312 47.209415 0.000763
6.625053 47.209415 0.000295
6.939795 47.209415 -0.000304
7.254536 47.209415 -0.001331
7.569277 47.209415 -0.002026
7.884017 47.209415 -0.003536
8.198758 47.209415 -0.003373
8.513499 47.209415 -0.003839
8.828240 47.209415 -0.005804
9.142982 47.209415 -0.004010
9.457723 47.209415 -0.002699
9.772464 47.209415 -0.005714
10.087205 47.209415 -0.014775
10.401946 47.209415 -0.033673
10.716687 47.209415 -0.049919
11.031426 47.209415 -0.032887
11.346168 47.209415 -0.034567
11.660909 47.209415 -0.030183
11.975650 47.209415 0.000126
12.290391 47.209415 -0.002836
12.605132 47.209415 -0.032230
12.919873 47.209415 -0.017480
13.234614 47.209415 -0.018211
13.549356 47.209415 -0.027961
13.864097 47.209415 0.003545
14.178838 47.209415 0.001753
14.493579 47.209415 0.004180
14.808320 47.209415 -0.003360
15.123059 47.209415 0.007996
15.437800 47.209415 0.016020
15.752542 47.209415 0.033801
16.067284 47.209415 0.102905
16.382023 47.209415 0.196740
16.696766 47.209415 0.251511
17.011505 47.209415 0.384280
17.326248 47.209415 0.603661
17.640987 47.209415 0.999978
17.955730 47.209415 1.699920
18.270470 47.209415 3.267097
18.585213 47.209415 5.574100
18.899952 47.209415 5.522448
-7.223550 46.894672 0.000000
-6.908809 46.894672 0.000000
-6.594068 46.894672 0.003109
-6.279327 46.894672 0.000712
-5.964586 46.894672 0.000706
-5.649845 46.894672 0.000538
-5.335104 46.894672 0.000242
-5.020363 46.894672 0.000295
-4.705622 46.894672 0.000155
-4.390881 46.894672 -0.000405
-4.076140 46.894672 -0.000621
-3.761399 46.894672 -0.000548
-3.446658 46.894672 -0.000322
-3.131917 46.894672 -0.000138
-2.817176 46.894672 -0.000085
-2.502435 46.894672 0.000309
-2.187694 46.894672 0.000848
-1.872953 46.894672 0.000891
-1.558212 46.894672 0.000809
-1.243471 46.894672 0.000900
-0.928730 46.894672 0.000933
-0.613989 46.894672 0.000674
-0.299248 46.894672 0.000516
0.015493 46.894672 0.000579
0.330234 46.894672 0.000543
0.644975 46.894672 0.000234
0.959716 46.894672 0.000066
1.274457 46.894672 -0.000051
1.589198 46.894672 -0.000402
1.903938 46.894672 -0.000801
2.218679 46.894672 -0.000927
2.533421 46.894672 -0.000920
2.848162 46.894672 -0.001111
3.162903 46.894672 -0.001190
3.477644 46.894672 -0.001249
3.792385 46.894672 -0.000945
4.107125 46.894672 -0.000577
4.421866 46.894672 -0.000378
4.736608 46.894672 -0.000106
5.051349 46.894672 0.000245
5.366090 46.894672 0.000553
5.680831 46.894672 0.000971
5.995571 46.894672 0.001041
6.310312 46.894672 0.001063
6.625053 46.894672 0.001056
6.939795 46.894672 0.001014
7.254536 46.894672 -0.000032
7.569277 46.894672 -0.001166
7.884017 46.894672 -0.002562
8.198758 46.894672 -0.002137
8.513499 46.894672 -0.002800
8.828240 46.894672 -0.002908
9.142982 46.894672 -0.004775
9.457723 46.894672 -0.007244
9.772464 46.894672 -0.014070
10.087205 46.894672 -0.017384
10.401946 46.894672 -0.029002
10.716687 46.894672 -0.041191
11.031426 46.894672 -0.038894
11.346168 46.894672 -0.030102
11.660909 46.894672 -0.027747
11.975650 46.894672 -0.011588
12.290391 46.894672 -0.029878
12.605132 46.894672 -0.049153
12.919873 46.894672 -0.049646
13.234614 46.894672 -0.052999
13.549356 46.894672 -0.038170
13.864097 46.894672 -0.017732
14.178838 46.894672 -0.030228
14.493579 46.894672 -0.019993
14.808320 46.894672 -0.033775
15.123059 46.894672 -0.012042
15.437800 46.894672 -0.014014
15.752542 46.894672 0.010377
16.067284 46.894672 0.087245
16.382023 46.894672 0.147353
16.696766 46.894672 0.232074
17.011505 46.894672 0.394054
17.326248 46.894672 0.609777
17.640987 46.894672 1.025988
17.955730 46.894672 1.699519
18.270470 46.894672 2.925809
18.585213 46.894672 4.786098
18.899952 46.894672 4.874076
-7.223550 46.579933 0.000000
-6.908809 46.579933 0.000000
-6.594068 46.579933 0.002694
-6.279327 46.579933 0.000480
-5.964586 46.579933 0.000457
-5.649845 46.579933 0.000412
-5.335104 46.579933 0.000238
-5.020363 46.579933 0.000303
-4.705622 46.579933 0.000196
-4.390881 46.579933 -0.000421
-4.076140 46.579933 -0.000714
-3.761399 46.579933 -0.000606
-3.446658 46.579933 -0.000448
-3.131917 46.579933 -0.000530
-2.817176 46.579933 -0.000499
-2.502435 46.579933 -0.000029
-2.187694 46.579933 0.000525
-1.872953 46.579933 0.000644
-1.558212 46.579933 0.000649
-1.243471 46.579933 0.000840
-0.928730 46.579933 0.000947
-0.613989 46.579933 0.000882
-0.299248 46.579933 0.000789
0.015493 46.579933 0.000888
0.330234 46.579933 0.000943
0.644975 46.579933 0.000664
0.959716 46.579933 0.000516
1.274457 46.579933 0.000460
1.589198 46.579933 0.000184
1.903938 46.579933 -0.000364
2.218679 46.579933 -0.000722
2.533421 46.579933 -0.000966
2.848162 46.579933 -0.001427
3.162903 46.579933 -0.001689
3.477644 46.579933 -0.001851
3.792385 46.579933 -0.001744
4.107125 46.579933 -0.001478
4.421866 46.579933 -0.001201
4.736608 46.579933 -0.000956
5.051349 46.579933 -0.000716
5.366090 46.579933 -0.000270
5.680831 46.579933 0.000118
5.995571 46.579933 0.000498
6.310312 46.579933 0.000925
6.625053 46.579933 0.001377
6.939795 46.579933 0.001772
7.254536 46.579933 0.001255
7.569277 46.579933 0.000215
7.884017 46.579933 -0.001508
8.198758 46.579933 -0.001824
8.513499 46.579933 -0.002165
8.828240 46.579933 0.000174
9.142982 46.579933 -0.000851
9.457723 46.579933 -0.010903
9.772464 46.579933 -0.013213
10.087205 46.579933 -0.018795
10.401946 46.579933 -0.028098
10.716687 46.579933 -0.046925
11.031426 46.579933 -0.047554
11.346168 46.579933 -0.034009
11.660909 46.579933 -0.027026
11.975650 46.579933 -0.017049
12.290391 46.579933 -0.038441
12.605132 46.579933 -0.041145
12.919873 46.579933 -0.037884
13.234614 46.579933 -0.041248
13.549356 46.579933 -0.050824
13.864097 46.579933 -0.050330
14.178838 46.579933 -0.036458
14.493579 46.579933 -0.042513
14.808320 46.579933 -0.042177
15.123059 46.579933 -0.026789
15.437800 46.579933 -0.017942
15.752542 46.579933 0.016726
16.067284 46.579933 0.097291
16.382023 46.579933 0.165518
16.696766 46.579933 0.253488
17.011505 46.579933 0.463283
17.326248 46.579933 0.663359
17.640987 46.579933 1.120009
17.955730 46.579933 1.818913
18.270470 46.579933 2.970413
18.585213 46.579933 4.519073
18.899952 46.579933 4.001092
-7.223550 46.265190 0.000000
-6.908809 46.265190 0.000000
-6.594068 46.265190 0.002683
-6.279327 46.265190 0.000439
-5.964586 46.265190 0.000311
-5.649845 46.265190 0.000357
-5.335104 46.265190 0.000269
-5.020363 46.265190 0.000323
-4.705622 46.265190 0.000228
-4.390881 46.265190 -0.000345
-4.076140 46.265190 -0.000714
-3.761399 46.265190 -0.000607
-3.446658 46.265190 -0.000563
-3.131917 46.265190 -0.000880
-2.817176 46.265190 -0.000923
-2.502435 46.265190 -0.000542
-2.187694 46.265190 -0.000094
-1.872953 46.265190 0.000058
-1.558212 46.265190 0.000153
-1.243471 46.265190 0.000365
-0.928730 46.265190 0.000612
-0.613989 46.265190 0.000862
-0.299248 46.265190 0.000968
0.015493 46.265190 0.001129
0.330234 46.265190 0.001299
0.644975 46.265190 0.001210
0.959716 46.265190 0.001144
1.274457 46.265190 0.001145
1.589198 46.265190 0.000933
1.903938 46.265190 0.000366
2.218679 46.265190 -0.000046
2.533421 46.265190 -0.000509
2.848162 46.265190 -0.001258
3.162903 46.265190 -0.001768
3.477644 46.265190 -0.002058
3.792385 46.265190 -0.002165
4.107125 46.265190 -0.002094
4.421866 46.265190 -0.001963
4.736608 46.265190 -0.001949
5.051349 46.265190 -0.001774
5.366090 46.265190 -0.001368
5.680831 46.265190 -0.001058
5.995571 46.265190 -0.000663
6.310312 46.265190 0.000155
6.625053 46.265190 0.000950
6.939795 46.265190 0.001576
7.254536 46.265190 0.001567
7.569277 46.265190 0.001086
7.884017 46.265190 -0.000619
8.198758 46.265190 -0.000955
8.513499 46.265190 -0.002237
8.828240 46.265190 -0.000057
9.142982 46.265190 -0.001594
9.457723 46.265190 -0.008063
9.772464 46.265190 -0.010245
10.087205 46.265190 -0.016779
10.401946 46.265190 -0.029993
10.716687 46.265190 -0.045591
11.031426 46.265190 -0.047952
11.346168 46.265190 -0.038313
11.660909 46.265190 -0.027827
11.975650 46.265190 -0.014764
12.290391 46.265190 -0.029901
12.605132 46.265190 -0.051090
12.919873 46.265190 -0.056660
13.234614 46.265190 -0.070679
13.549356 46.265190 -0.068990
13.864097 46.265190 -0.076690
14.178838 46.265190 -0.066672
14.493579 46.265190 -0.054775
14.808320 46.265190 -0.048458
15.123059 46.265190 -0.050300
15.437800 46.265190 -0.020534
15.752542 46.265190 0.027917
16.067284 46.265190 0.130225
16.382023 46.265190 0.193949
16.696766 46.265190 0.350366
17.011505 46.265190 0.588414
17.326248 46.265190 0.920152
17.640987 46.265190 1.240698
17.955730 46.265190 1.843452
18.270470 46.265190 2.994946
18.585213 46.265190 4.259823
18.899952 46.265190 3.562025
-7.223550 45.950451 0.000000
-6.908809 45.950451 0.000000
-6.594068 45.950451 0.002926
-6.279327 45.950451 0.000648
-5.964586 45.950451 0.000421
-5.649845 45.950451 0.000462
-5.335104 45.950451 0.000448
-5.020363 45.950451 0.000511
-4.705622 45.950451 0.000492
-4.390881 45.950451 -0.000020
-4.076140 45.950451 -0.000435
-3.761399 45.950451 -0.000419
-3.446658 45.950451 -0.000513
-3.131917 45.950451 -0.000941
-2.817176 45.950451 -0.001187
-2.502435 45.950451 -0.001056
-2.187694 45.950451 -0.000804
-1.872953 45.950451 -0.000710
-1.558212 45.950451 -0.000640
-1.243471 45.950451 -0.000466
-0.928730 45.950451 -0.000135
-0.613989 45.950451 0.000351
-0.299248 45.950451 0.000660
0.015493 45.950451 0.000960
0.330234 45.950451 0.001345
0.644975 45.950451 0.001521
0.959716 45.950451 0.001577
1.274457 45.950451 0.001663
1.589198 45.950451 0.001611
1.903938 45.950451 0.001285
2.218679 45.950451 0.000922
2.533421 45.950451 0.000355
2.848162 45.950451 -0.000550
3.162903 45.950451 -0.001267
3.477644 45.950451 -0.001707
3.792385 45.950451 -0.002071
4.107125 45.950451 -0.002192
4.421866 45.950451 -0.002357
4.736608 45.950451 -0.002622
5.051349 45.950451 -0.002681
5.366090 45.950451 -0.002515
5.680831 45.950451 -0.002353
5.995571 45.950451 -0.002072
6.310312 45.950451 -0.001186
6.625053 45.950451 -0.000277
6.939795 45.950451 0.000579
7.254536 45.950451 0.000824
7.569277 45.950451 0.000807
7.884017 45.950451 -0.000164
8.198758 45.950451 0.000025
8.513499 45.950451 -0.000567
8.828240 45.950451 -0.000113
9.142982 45.950451 -0.001567
9.457723 45.950451 -0.008539
9.772464 45.950451 -0.010948
10.087205 45.950451 -0.016003
10.401946 45.950451 -0.028533
10.716687 45.950451 -0.039234
11.031426 45.950451 -0.056575
11.346168 45.950451 -0.063569
11.660909 45.950451 -0.044771
11.975650 45.950451 -0.030002
12.290391 45.950451 -0.026717
12.605132 45.950451 -0.063137
12.919873 45.950451 -0.062384
13.234614 45.950451 -0.074339
13.549356 45.950451 -0.061159
13.864097 45.950451 -0.060592
14.178838 45.950451 -0.071522
14.493579 45.950451 -0.050452
14.808320 45.950451 -0.057275
15.123059 45.950451 -0.038031
15.437800 45.950451 -0.010950
15.752542 45.950451 0.061508
16.067284 45.950451 0.155978
16.382023 45.950451 0.271483
16.696766 45.950451 0.493968
17.011505 45.950451 0.754829
17.326248 45.950451 1.131000
17.640987 45.950451 1.655922
17.955730 45.950451 2.238397
18.270470 45.950451 3.144963
18.585213 45.950451 4.223197
18.899952 45.950451 3.494306
-7.223550 45.635712 0.000000
-6.908809 45.635712 0.000000
-6.594068 45.635712 0.003050
-6.279327 45.635712 0.000862
-5.964586 45.635712 0.000667
-5.649845 45.635712 0.000767
-5.335104 45.635712 0.000777
-5.020363 45.635712 0.000943
-4.705622 45.635712 0.000987
-4.390881 45.635712 0.000478
-4.076140 45.635712 0.000130
-3.761399 45.635712 0.000023
-3.446658 45.635712 -0.000168
-3.131917 45.635712 -0.000667
-2.817176 45.635712 -0.001151
-2.502435 45.635712 -0.001374
-2.187694 45.635712 -0.001385
-1.872953 45.635712 -0.001502
-1.558212 45.635712 -0.001540
-1.243471 45.635712 -0.001420
-0.928730 45.635712 -0.001092
-0.613989 45.635712 -0.000507
-0.299248 45.635712 -0.000084
0.015493 45.635712 0.000318
0.330234 45.635712 0.000937
0.644975 45.635712 0.001317
0.959716 45.635712 0.001596
1.274457 45.635712 0.001850
1.589198 45.635712 0.001998
1.903938 45.635712 0.001987
2.218679 45.635712 0.001835
2.533421 45.635712 0.001363
2.848162 45.635712 0.000450
3.162903 45.635712 -0.000337
3.477644 45.635712 -0.000868
3.792385 45.635712 -0.001353
4.107125 45.635712 -0.001660
4.421866 45.635712 -0.002134
4.736608 45.635712 -0.002772
5.051349 45.635712 -0.003224
5.366090 45.635712 -0.003393
5.680831 45.635712 -0.003544
5.995571 45.635712 -0.003283
6.310312 45.635712 -0.002908
6.625053 45.635712 -0.001969
6.939795 45.635712 -0.001193
7.254536 45.635712 -0.000352
7.569277 45.635712 0.000053
7.884017 45.635712 -0.000227
8.198758 45.635712 0.000072
8.513499 45.635712 0.000772
8.828240 45.635712 0.000256
9.142982 45.635712 -0.001783
9.457723 45.635712 -0.006012
9.772464 45.635712 -0.007229
10.087205 45.635712 -0.011211
10.401946 45.635712 -0.020760
10.716687 45.635712 -0.034616
11.031426 45.635712 -0.054228
11.346168 45.635712 -0.064175
11.660909 45.635712 -0.044387
11.975650 45.635712 -0.043792
12.290391 45.635712 -0.032191
12.605132 45.635712 -0.052297
12.919873 45.635712 -0.067714
13.234614 45.635712 -0.076910
13.549356 45.635712 -0.059984
13.864097 45.635712 -0.052533
14.178838 45.635712 -0.055797
14.493579 45.635712 -0.060821
14.808320 45.635712 -0.040281
15.123059 45.635712 -0.033134
15.437800 45.635712 0.015294
15.752542 45.635712 0.110645
16.067284 45.635712 0.081757
16.382023 45.635712 0.200040
16.696766 45.635712 0.412476
17.011505 45.635712 0.658830
17.326248 45.635712 1.000897
17.640987 45.635712 1.858258
17.955730 45.635712 2.561211
18.270470 45.635712 3.330828
18.585213 45.635712 4.309575
18.899952 45.635712 3.660261
-7.223550 45.320969 0.000000
-6.908809 45.320969 0.000000
-6.594068 45.320969 0.002990
-6.279327 45.320969 0.000844
-5.964586 45.320969 0.000773
-5.649845 45.320969 0.000934
-5.335104 45.320969 0.001097
-5.020363 45.320969 0.001374
-4.705622 45.320969 0.001511
-4.390881 45.320969 0.001153
-4.076140 45.320969 0.000829
-3.761399 45.320969 0.000683
-3.446658 45.320969 0.000445
-3.131917 45.320969 -0.000081
-2.817176 45.320969 -0.000759
-2.502435 45.320969 -0.001226
-2.187694 45.320969 -0.001514
-1.872953 45.320969 -0.001793
-1.558212 45.320969 -0.002015
-1.243471 45.320969 -0.002090
-0.928730 45.320969 -0.001945
-0.613989 45.320969 -0.001473
-0.299248 45.320969 -0.001066
0.015493 45.320969 -0.000633
0.330234 45.320969 0.000036
0.644975 45.320969 0.000565
0.959716 45.320969 0.001001
1.274457 45.320969 0.001384
1.589198 45.320969 0.001785
1.903938 45.320969 0.002229
2.218679 45.320969 0.002366
2.533421 45.320969 0.002156
2.848162 45.320969 0.001449
3.162903 45.320969 0.000752
3.477644 45.320969 0.000149
3.792385 45.320969 -0.000301
4.107125 45.320969 -0.000656
4.421866 45.320969 -0.001307
4.736608 45.320969 -0.002237
5.051349 45.320969 -0.003076
5.366090 45.320969 -0.003653
5.680831 45.320969 -0.004172
5.995571 45.320969 -0.004282
6.310312 45.320969 -0.004232
6.625053 45.320969 -0.003761
6.939795 45.320969 -0.003059
7.254536 45.320969 -0.002349
7.569277 45.320969 -0.001247
7.884017 45.320969 -0.001275
8.198758 45.320969 -0.001182
8.513499 45.320969 0.000174
8.828240 45.320969 -0.000878
9.142982 45.320969 -0.002163
9.457723 45.320969 -0.004823
9.772464 45.320969 -0.008370
10.087205 45.320969 -0.013537
10.401946 45.320969 -0.006498
10.716687 45.320969 -0.028183
11.031426 45.320969 -0.045495
11.346168 45.320969 -0.050102
11.660909 45.320969 -0.041184
11.975650 45.320969 -0.057702
12.290391 45.320969 -0.054160
12.605132 45.320969 -0.056933
12.919873 45.320969 -0.068276
13.234614 45.320969 -0.063270
13.549356 45.320969 -0.075354
13.864097 45.320969 -0.060402
14.178838 45.320969 -0.034292
14.493579 45.320969 -0.039436
14.808320 45.320969 -0.028864
15.123059 45.320969 -0.033847
15.437800 45.320969 0.045915
15.752542 45.320969 0.182218
16.067284 45.320969 9.360875
16.382023 45.320969 3.636764
16.696766 45.320969 3.414650
17.011505 45.320969 3.070035
17.326248 45.320969 4.457045
17.640987 45.320969 2.393921
17.955730 45.320969 2.965328
18.270470 45.320969 3.301603
18.585213 45.320969 4.143788
18.899952 45.320969 3.232046
-7.223550 45.006226 0.000000
-6.908809 45.006226 0.000000
-6.594068 45.006226 0.002591
-6.279327 45.006226 0.000466
-5.964586 45.006226 0.000475
-5.649845 45.006226 0.000826
-5.335104 45.006226 0.001233
-5.020363 45.006226 0.001529
-4.705622 45.006226 0.001745
-4.390881 45.006226 0.001677
-4.076140 45.006226 0.001567
-3.761399 45.006226 0.001430
-3.446658 45.006226 0.001175
-3.131917 45.006226 0.000764
-2.817176 45.006226 0.000004
-2.502435 45.006226 -0.000682
-2.187694 45.006226 -0.001123
-1.872953 45.006226 -0.001499
-1.558212 45.006226 -0.001863
-1.243471 45.006226 -0.002205
-0.928730 45.006226 -0.002328
-0.613989 45.006226 -0.002131
-0.299248 45.006226 -0.001948
0.015493 45.006226 -0.001627
0.330234 45.006226 -0.001099
0.644975 45.006226 -0.000566
0.959716 45.006226 -0.000115
1.274457 45.006226 0.000315
1.589198 45.006226 0.000992
1.903938 45.006226 0.001838
2.218679 45.006226 0.002279
2.533421 45.006226 0.002421
2.848162 45.006226 0.002117
3.162903 45.006226 0.001664
3.477644 45.006226 0.001228
3.792385 45.006226 0.000844
4.107125 45.006226 0.000536
4.421866 45.006226 -0.000159
4.736608 45.006226 -0.001217
5.051349 45.006226 -0.002258
5.366090 45.006226 -0.003161
5.680831 45.006226 -0.003961
5.995571 45.006226 -0.004648
6.310312 45.006226 -0.005044
6.625053 45.006226 -0.005037
6.939795 45.006226 -0.004713
7.254536 45.006226 -0.004371
7.569277 45.006226 -0.003524
7.884017 45.006226 -0.003383
8.198758 45.006226 -0.002725
8.513499 45.006226 -0.001456
8.828240 45.006226 -0.000871
9.142982 45.006226 -0.005270
9.457723 45.006226 -0.007856
9.772464 45.006226 -0.005535
10.087205 45.006226 -0.013268
10.401946 45.006226 -0.014780
10.716687 45.006226 -0.035662
11.031426 45.006226 -0.044594
11.346168 45.006226 -0.043355
11.660909 45.006226 -0.055029
11.975650 45.006226 -0.060108
12.290391 45.006226 -0.061946
12.605132 45.006226 -0.056597
12.919873 45.006226 -0.053685
13.234614 45.006226 -0.052060
13.549356 45.006226 -0.049189
13.864097 45.006226 -0.062144
14.178838 45.006226 -0.046158
14.493579 45.006226 -0.031362
14.808320 45.006226 -0.018674
15.123059 45.006226 -0.008500
15.437800 45.006226 0.093641
15.752542 45.006226 0.248840
16.067284 45.006226 0.000000
16.382023 45.006226 0.000000
16.696766 45.006226 0.109928
17.011505 45.006226 -2.541853
17.326248 45.006226 12.075493
17.640987 45.006226 2.791961
17.955730 45.006226 3.190284
18.270470 45.006226 3.459056
18.585213 45.006226 4.266720
18.899952 45.006226 3.710524
-7.223550 44.691486 0.000000
-6.908809 44.691486 0.000000
-6.594068 44.691486 0.001922
-6.279327 44.691486 -0.000228
-5.964586 44.691486 -0.000215
-5.649845 44.691486 0.000272
-5.335104 44.691486 0.000860
-5.020363 44.691486 0.001124
-4.705622 44.691486 0.001487
-4.390881 44.691486 0.001848
-4.076140 44.691486 0.001991
-3.761399 44.691486 0.001939
-3.446658 44.691486 0.001783
-3.131917 44.691486 0.001637
-2.817176 44.691486 0.001035
-2.502435 44.691486 0.000204
-2.187694 44.691486 -0.000361
-1.872953 44.691486 -0.000683
-1.558212 44.691486 -0.001129
-1.243471 44.691486 -0.001674
-0.928730 44.691486 -0.002059
-0.613989 44.691486 -0.002188
-0.299248 44.691486 -0.002406
0.015493 44.691486 -0.002366
0.330234 44.691486 -0.002144
0.644975 44.691486 -0.001765
0.959716 44.691486 -0.001388
1.274457 44.691486 -0.001002
1.589198 44.691486 -0.000230
1.903938 44.691486 0.000805
2.218679 44.691486 0.001539
2.533421 44.691486 0.002072
2.848162 44.691486 0.002218
3.162903 44.691486 0.002176
3.477644 44.691486 0.002018
3.792385 44.691486 0.001798
4.107125 44.691486 0.001639
4.421866 44.691486 0.001109
4.736608 44.691486 0.000122
5.051349 44.691486 -0.000944
5.366090 44.691486 -0.001971
5.680831 44.691486 -0.003108
5.995571 44.691486 -0.004118
6.310312 44.691486 -0.005074
6.625053 44.691486 -0.005536
6.939795 44.691486 -0.005931
7.254536 44.691486 -0.005806
7.569277 44.691486 -0.005537
7.884017 44.691486 -0.004808
8.198758 44.691486 -0.004472
8.513499 44.691486 -0.002648
8.828240 44.691486 -0.002013
9.142982 44.691486 -0.003767
9.457723 44.691486 -0.007897
9.772464 44.691486 -0.011132
10.087205 44.691486 -0.023420
10.401946 44.691486 -0.035099
10.716687 44.691486 -0.042430
11.031426 44.691486 -0.041844
11.346168 44.691486 -0.045829
11.660909 44.691486 -0.053325
11.975650 44.691486 -0.065357
12.290391 44.691486 -0.067546
12.605132 44.691486 -0.061245
12.919873 44.691486 -0.055180
13.234614 44.691486 -0.044059
13.549356 44.691486 -0.053127
13.864097 44.691486 -0.039737
14.178838 44.691486 -0.035444
14.493579 44.691486 -0.019299
14.808320 44.691486 -0.004139
15.123059 44.691486 0.034836
15.437800 44.691486 0.142800
15.752542 44.691486 0.385320
16.067284 44.691486 0.000000
16.382023 44.691486 0.000000
16.696766 44.691486 0.000000
17.011505 44.691486 0.000000
17.326248 44.691486 -4.727032
17.640987 44.691486 3.370787
17.955730 44.691486 3.639003
18.270470 44.691486 3.560597
18.585213 44.691486 4.006751
18.899952 44.691486 3.497712
-7.223550 44.376747 0.000000
-6.908809 44.376747 0.000000
-6.594068 44.376747 0.001164
-6.279327 44.376747 -0.001039
-5.964586 44.376747 -0.001093
-5.649845 44.376747 -0.000556
-5.335104 44.376747 0.000102
-5.020363 44.376747 0.000264
-4.705622 44.376747 0.000740
-4.390881 44.376747 0.001442
-4.076140 44.376747 0.001850
-3.761399 44.376747 0.001948
-3.446658 44.376747 0.002035
-3.131917 44.376747 0.002317
-2.817176 44.376747 0.002102
-2.502435 44.376747 0.001305
-2.187694 44.376747 0.000709
-1.872953 44.376747 0.000398
-1.558212 44.376747 -0.000072
-1.243471 44.376747 -0.000694
-0.928730 44.376747 -0.001249
-0.613989 44.376747 -0.001649
-0.299248 44.376747 -0.002256
0.015493 44.376747 -0.002587
0.330234 44.376747 -0.002692
0.644975 44.376747 -0.002608
0.959716 44.376747 -0.002442
1.274457 44.376747 -0.002196
1.589198 44.376747 -0.001527
1.903938 44.376747 -0.000564
2.218679 44.376747 0.000337
2.533421 44.376747 0.001154
2.848162 44.376747 0.001684
3.162903 44.376747 0.002038
3.477644 44.376747 0.002319
3.792385 44.376747 0.002332
4.107125 44.376747 0.002294
4.421866 44.376747 0.001980
4.736608 44.376747 0.001309
5.051349 44.376747 0.000481
5.366090 44.376747 -0.000511
5.680831 44.376747 -0.001627
5.995571 44.376747 -0.002880
6.310312 44.376747 -0.004072
6.625053 44.376747 -0.005200
6.939795 44.376747 -0.006247
7.254536 44.376747 -0.006641
7.569277 44.376747 -0.007298
7.884017 44.376747 -0.007327
8.198758 44.376747 -0.006022
8.513499 44.376747 -0.004863
8.828240 44.376747 -0.002630
9.142982 44.376747 0.000598
9.457723 44.376747 -0.006789
9.772464 44.376747 -0.015939
10.087205 44.376747 -0.033146
10.401946 44.376747 -0.047346
10.716687 44.376747 -0.041423
11.031426 44.376747 -0.039604
11.346168 44.376747 -0.048724
11.660909 44.376747 -0.062008
11.975650 44.376747 -0.055907
12.290391 44.376747 -0.071992
12.605132 44.376747 -0.056514
12.919873 44.376747 -0.060748
13.234614 44.376747 -0.047842
13.549356 44.376747 -0.045477
13.864097 44.376747 -0.033727
14.178838 44.376747 -0.027674
14.493579 44.376747 0.000716
14.808320 44.376747 0.016675
15.123059 44.376747 0.042694
15.437800 44.376747 0.200644
15.752542 44.376747 0.510720
16.067284 44.376747 -11.809933
16.382023 44.376747 0.000000
16.696766 44.376747 0.000000
17.011505 44.376747 0.000000
17.326248 44.376747 -14.136801
17.640987 44.376747 4.026849
17.955730 44.376747 3.654517
18.270470 44.376747 3.546790
18.585213 44.376747 4.146961
18.899952 44.376747 3.282021
-7.223550 44.062004 0.000000
-6.908809 44.062004 0.000000
-6.594068 44.062004 0.000881
-6.279327 44.062004 -0.001655
-5.964586 44.062004 -0.001834
-5.649845 44.062004 -0.001412
-5.335104 44.062004 -0.000889
-5.020363 44.062004 -0.000878
-4.705622 44.062004 -0.000432
-4.390881 44.062004 0.000409
-4.076140 44.062004 0.001034
-3.761399 44.062004 0.001346
-3.446658 44.062004 0.001827
-3.131917 44.062004 0.002538
-2.817176 44.062004 0.002738
-2.502435 44.062004 0.002192
-2.187694 44.062004 0.001715
-1.872953 44.062004 0.001414
-1.558212 44.062004 0.001109
-1.243471 44.062004 0.000573
-0.928730 44.062004 -0.000103
-0.613989 44.062004 -0.000700
-0.299248 44.062004 -0.001572
0.015493 44.062004 -0.002163
0.330234 44.062004 -0.002578
0.644975 44.062004 -0.002910
0.959716 44.062004 -0.003043
1.274457 44.062004 -0.003029
1.589198 44.062004 -0.002670
1.903938 44.062004 -0.001998
2.218679 44.062004 -0.001145
2.533421 44.062004 -0.000171
2.848162 44.062004 0.000631
3.162903 44.062004 0.001308
3.477644 44.062004 0.001893
3.792385 44.062004 0.002291
4.107125 44.062004 0.002410
4.421866 44.062004 0.002396
4.736608 44.062004 0.002174
5.051349 44.062004 0.001695
5.366090 44.062004 0.000976
5.680831 44.062004 -0.000034
5.995571 44.062004 -0.001292
6.310312 44.062004 -0.002534
6.625053 44.062004 -0.003880
6.939795 44.062004 -0.005418
7.254536 44.062004 -0.006722
7.569277 44.062004 -0.007927
7.884017 44.062004 -0.008054
8.198758 44.062004 -0.007393
8.513499 44.062004 -0.006063
8.828240 44.062004 -0.003226
9.142982 44.062004 -0.001185
9.457723 44.062004 -0.004983
9.772464 44.062004 -0.013429
10.087205 44.062004 -0.034354
10.401946 44.062004 -0.039282
10.716687 44.062004 -0.033479
11.031426 44.062004 -0.043740
11.346168 44.062004 -0.051892
11.660909 44.062004 -0.056185
11.975650 44.062004 -0.062890
12.290391 44.062004 -0.074397
12.605132 44.062004 -0.075005
12.919873 44.062004 -0.066130
13.234614 44.062004 -0.050374
13.549356 44.062004 -0.059501
13.864097 44.062004 -0.047233
14.178838 44.062004 -0.030333
14.493579 44.062004 0.012466
14.808320 44.062004 0.010751
15.123059 44.062004 0.054044
15.437800 44.062004 0.259081
15.752542 44.062004 0.786261
16.067284 44.062004 0.000000
16.382023 44.062004 0.000000
16.696766 44.062004 0.000000
17.011505 44.062004 0.000000
17.326248 44.062004 0.000000
17.640987 44.062004 4.902197
17.955730 44.062004 4.103423
18.270470 44.062004 3.510076
18.585213 44.062004 4.249916
18.899952 44.062004 4.083385
-7.223550 43.747265 0.000000
-6.908809 43.747265 0.000000
-6.594068 43.747265 0.001190
-6.279327 43.747265 -0.001742
-5.964586 43.747265 -0.002160
-5.649845 43.747265 -0.001969
-5.335104 43.747265 -0.001762
-5.020363 43.747265 -0.001932
-4.705622 43.747265 -0.001682
-4.390881 43.747265 -0.000930
-4.076140 43.747265 -0.000260
-3.761399 43.747265 0.000296
-3.446658 43.747265 0.001090
-3.131917 43.747265 0.002126
-2.817176 43.747265 0.002671
-2.502435 43.747265 0.002652
-2.187694 43.747265 0.002472
-1.872953 43.747265 0.002283
-1.558212 43.747265 0.002198
-1.243471 43.747265 0.001898
-0.928730 43.747265 0.001175
-0.613989 43.747265 0.000400
-0.299248 43.747265 -0.000454
0.015493 43.747265 -0.001152
0.330234 43.747265 -0.001841
0.644975 43.747265 -0.002533
0.959716 43.747265 -0.003020
1.274457 43.747265 -0.003346
1.589198 43.747265 -0.003399
1.903938 43.747265 -0.003158
2.218679 43.747265 -0.002501
2.533421 43.747265 -0.001593
2.848162 43.747265 -0.000697
3.162903 43.747265 0.000144
3.477644 43.747265 0.000974
3.792385 43.747265 0.001632
4.107125 43.747265 0.001997
4.421866 43.747265 0.002294
4.736608 43.747265 0.002511
5.051349 43.747265 0.002472
5.366090 43.747265 0.002076
5.680831 43.747265 0.001342
5.995571 43.747265 0.000412
6.310312 43.747265 -0.000735
6.625053 43.747265 -0.002096
6.939795 43.747265 -0.003922
7.254536 43.747265 -0.005710
7.569277 43.747265 -0.007322
7.884017 43.747265 -0.008800
8.198758 43.747265 -0.008500
8.513499 43.747265 -0.007313
8.828240 43.747265 -0.005251
9.142982 43.747265 -0.005787
9.457723 43.747265 -0.006711
9.772464 43.747265 -0.017366
10.087205 43.747265 -0.024059
10.401946 43.747265 -0.038235
10.716687 43.747265 -0.038014
11.031426 43.747265 -0.039935
11.346168 43.747265 -0.053879
11.660909 43.747265 -0.042624
11.975650 43.747265 -0.049244
12.290391 43.747265 -0.066077
12.605132 43.747265 -0.052586
12.919873 43.747265 -0.067379
13.234614 43.747265 -0.039326
13.549356 43.747265 -0.028517
13.864097 43.747265 -0.030019
14.178838 43.747265 -0.007898
14.493579 43.747265 -0.004748
14.808320 43.747265 0.006406
15.123059 43.747265 0.070980
15.437800 43.747265 0.269129
15.752542 43.747265 0.632507
16.067284 43.747265 0.000000
16.382023 43.747265 0.000000
16.696766 43.747265 0.000000
17.011505 43.747265 0.000000
17.326248 43.747265 0.000000
17.640987 43.747265 4.741260
17.955730 43.747265 4.310027
18.270470 43.747265 3.717829
18.585213 43.747265 4.745453
18.899952 43.747265 4.516934
-7.223550 43.432522 0.000000
-6.908809 43.432522 0.000000
-6.594068 43.432522 0.001929
-6.279327 43.432522 -0.001193
-5.964586 43.432522 -0.001818
-5.649845 43.432522 -0.001978
-5.335104 43.432522 -0.002144
-5.020363 43.432522 -0.002568
-4.705622 43.432522 -0.002604
-4.390881 43.432522 -0.002087
-4.076140 43.432522 -0.001521
-3.761399 43.432522 -0.000997
-3.446658 43.432522 -0.000021
-3.131917 43.432522 0.001168
-2.817176 43.432522 0.001997
-2.502435 43.432522 0.002520
-2.187694 43.432522 0.002715
-1.872953 43.432522 0.002699
-1.558212 43.432522 0.002881
-1.243471 43.432522 0.002895
-0.928730 43.432522 0.002285
-0.613989 43.432522 0.001533
-0.299248 43.432522 0.000846
0.015493 43.432522 0.000202
0.330234 43.432522 -0.000708
0.644975 43.432522 -0.001637
0.959716 43.432522 -0.002389
1.274457 43.432522 -0.002998
1.589198 43.432522 -0.003502
1.903938 43.432522 -0.003812
2.218679 43.432522 -0.003554
2.533421 43.432522 -0.002802
2.848162 43.432522 -0.002035
3.162903 43.432522 -0.001264
3.477644 43.432522 -0.000402
3.792385 43.432522 0.000461
4.107125 43.432522 0.001117
4.421866 43.432522 0.001705
4.736608 43.432522 0.002270
5.051349 43.432522 0.002627
5.366090 43.432522 0.002593
5.680831 43.432522 0.002247
5.995571 43.432522 0.001613
6.310312 43.432522 0.000917
6.625053 43.432522 -0.000355
6.939795 43.432522 -0.001889
7.254536 43.432522 -0.003906
7.569277 43.432522 -0.005665
7.884017 43.432522 -0.006888
8.198758 43.432522 -0.007525
8.513499 43.432522 -0.006697
8.828240 43.432522 -0.008151
9.142982 43.432522 -0.008024
9.457723 43.432522 -0.015736
9.772464 43.432522 -0.020896
10.087205 43.432522 -0.020444
10.401946 43.432522 -0.034628
10.716687 43.432522 -0.041313
11.031426 43.432522 -0.057063
11.346168 43.432522 -0.044524
11.660909 43.432522 -0.048329
11.975650 43.432522 -0.041541
12.290391 43.432522 -0.064218
12.605132 43.432522 -0.058704
12.919873 43.432522 -0.038761
13.234614 43.432522 -0.027570
13.549356 43.432522 -0.013878
13.864097 43.432522 -0.017318
14.178838 43.432522 -0.005152
14.493579 43.432522 -0.029617
14.808320 43.432522 -0.008064
15.123059 43.432522 0.069718
15.437800 43.432522 0.294242
15.752542 43.432522 0.725606
16.067284 43.432522 0.000000
16.382023 43.432522 0.000000
16.696766 43.432522 0.000000
17.011505 43.432522 0.000000
17.326248 43.432522 0.000000
17.640987 43.432522 4.760905
17.955730 43.432522 4.838454
18.270470 43.432522 4.095503
18.585213 43.432522 4.972509
18.899952 43.432522 4.361717
-7.223550 43.117783 0.000000
-6.908809 43.117783 0.000000
-6.594068 43.117783 0.002873
-6.279327 43.117783 -0.000160
-5.964586 43.117783 -0.000917
-5.649845 43.117783 -0.001379
-5.335104 43.117783 -0.001970
-5.020363 43.117783 -0.002571
-4.705622 43.117783 -0.002879
-4.390881 43.117783 -0.002726
-4.076140 43.117783 -0.002436
-3.761399 43.117783 -0.002025
-3.446658 43.117783 -0.001245
-3.131917 43.117783 -0.000134
-2.817176 43.117783 0.000874
-2.502435 43.117783 0.001786
-2.187694 43.117783 0.002372
-1.872953 43.117783 0.002600
-1.558212 43.117783 0.002998
-1.243471 43.117783 0.003307
-0.928730 43.117783 0.002998
-0.613989 43.117783 0.002493
-0.299248 43.117783 0.002094
0.015493 43.117783 0.001507
0.330234 43.117783 0.000524
0.644975 43.117783 -0.000469
0.959716 43.117783 -0.001270
1.274457 43.117783 -0.002119
1.589198 43.117783 -0.002987
1.903938 43.117783 -0.003810
2.218679 43.117783 -0.004005
2.533421 43.117783 -0.003561
2.848162 43.117783 -0.003125
3.162903 43.117783 -0.002640
3.477644 43.117783 -0.001869
3.792385 43.117783 -0.000922
4.107125 43.117783 -0.000027
4.421866 43.117783 0.000848
4.736608 43.117783 0.001671
5.051349 43.117783 0.002327
5.366090 43.117783 0.002610
5.680831 43.117783 0.002582
5.995571 43.117783 0.002347
6.310312 43.117783 0.002012
6.625053 43.117783 0.001192
6.939795 43.117783 -0.000128
7.254536 43.117783 -0.002185
7.569277 43.117783 -0.004378
7.884017 43.117783 -0.005853
8.198758 43.117783 -0.006384
8.513499 43.117783 -0.007205
8.828240 43.117783 -0.006407
9.142982 43.117783 -0.004579
9.457723 43.117783 -0.012671
9.772464 43.117783 -0.018308
10.087205 43.117783 -0.021655
10.401946 43.117783 -0.037221
10.716687 43.117783 -0.055667
11.031426 43.117783 -0.050811
11.346168 43.117783 -0.032302
11.660909 43.117783 -0.049884
11.975650 43.117783 -0.044557
12.290391 43.117783 -0.060459
12.605132 43.117783 -0.064551
12.919873 43.117783 -0.041604
13.234614 43.117783 -0.042894
13.549356 43.117783 -0.021843
13.864097 43.117783 -0.024406
14.178838 43.117783 -0.013257
14.493579 43.117783 -0.019564
14.808320 43.117783 -0.008307
15.123059 43.117783 0.080338
15.437800 43.117783 0.329248
15.752542 43.117783 0.601223
16.067284 43.117783 0.000000
16.382023 43.117783 0.000000
16.696766 43.117783 0.000000
17.011505 43.117783 0.000000
17.326248 43.117783 0.000000
17.640987 43.117783 5.776252
17.955730 43.117783 4.834743
18.270470 43.117783 4.388896
18.585213 43.117783 5.024352
18.899952 43.117783 5.132539
-7.223550 42.803040 0.000000
-6.908809 42.803040 0.000000
-6.594068 42.803040 0.003921
-6.279327 42.803040 0.001069
-5.964586 42.803040 0.000377
-5.649845 42.803040 -0.000364
-5.335104 42.803040 -0.001263
-5.020363 42.803040 -0.001965
-4.705622 42.803040 -0.002477
-4.390881 42.803040 -0.002660
-4.076140 42.803040 -0.002645
-3.761399 42.803040 -0.002551
-3.446658 42.803040 -0.002271
-3.131917 42.803040 -0.001543
-2.817176 42.803040 -0.000521
-2.502435 42.803040 0.000623
-2.187694 42.803040 0.001453
-1.872953 42.803040 0.001939
-1.558212 42.803040 0.002486
-1.243471 42.803040 0.003085
-0.928730 42.803040 0.003174
-0.613989 42.803040 0.003034
-0.299248 42.803040 0.002989
0.015493 42.803040 0.002527
0.330234 42.803040 0.001620
0.644975 42.803040 0.000773
0.959716 42.803040 0.000045
1.274457 42.803040 -0.000838
1.589198 42.803040 -0.001964
1.903938 42.803040 -0.003147
2.218679 42.803040 -0.003851
2.533421 42.803040 -0.003870
2.848162 42.803040 -0.003891
3.162903 42.803040 -0.003791
3.477644 42.803040 -0.003206
3.792385 42.803040 -0.002271
4.107125 42.803040 -0.001186
4.421866 42.803040 -0.000153
4.736608 42.803040 0.000777
5.051349 42.803040 0.001584
5.366090 42.803040 0.002172
5.680831 42.803040 0.002546
5.995571 42.803040 0.002558
6.310312 42.803040 0.002604
6.625053 42.803040 0.002170
6.939795 42.803040 0.001105
7.254536 42.803040 -0.000724
7.569277 42.803040 -0.003365
7.884017 42.803040 -0.005022
8.198758 42.803040 -0.006388
8.513499 42.803040 -0.006063
8.828240 42.803040 -0.004939
9.142982 42.803040 -0.005038
9.457723 42.803040 -0.007065
9.772464 42.803040 -0.013548
10.087205 42.803040 -0.014557
10.401946 42.803040 -0.039474
10.716687 42.803040 -0.047164
11.031426 42.803040 -0.041249
11.346168 42.803040 -0.037998
11.660909 42.803040 -0.032481
11.975650 42.803040 -0.049313
12.290391 42.803040 -0.056025
12.605132 42.803040 -0.060938
12.919873 42.803040 -0.053020
13.234614 42.803040 -0.053027
13.549356 42.803040 -0.046070
13.864097 42.803040 -0.055593
14.178838 42.803040 -0.023292
14.493579 42.803040 -0.005073
14.808320 42.803040 0.022381
15.123059 42.803040 0.094227
15.437800 42.803040 0.336437
15.752542 42.803040 0.655114
16.067284 42.803040 0.000000
16.382023 42.803040 0.000000
16.696766 42.803040 0.000000
17.011505 42.803040 0.000000
17.326248 42.803040 0.000000
17.640987 42.803040 5.475833
17.955730 42.803040 4.920055
18.270470 42.803040 4.426150
18.585213 42.803040 5.214153
18.899952 42.803040 3.539989
-7.223550 42.488300 0.000000
-6.908809 42.488300 0.000000
-6.594068 42.488300 0.004782
-6.279327 42.488300 0.002206
-5.964586 42.488300 0.001650
-5.649845 42.488300 0.000796
-5.335104 42.488300 -0.000223
-5.020363 42.488300 -0.000920
-4.705622 42.488300 -0.001489
-4.390881 42.488300 -0.001933
-4.076140 42.488300 -0.002216
-3.761399 42.488300 -0.002519
-3.446658 42.488300 -0.002856
-3.131917 42.488300 -0.002688
-2.817176 42.488300 -0.001876
-2.502435 42.488300 -0.000757
-2.187694 42.488300 0.000133
-1.872953 42.488300 0.000760
-1.558212 42.488300 0.001497
-1.243471 42.488300 0.002322
-0.928730 42.488300 0.002743
-0.613989 42.488300 0.003076
-0.299248 42.488300 0.003414
0.015493 42.488300 0.003127
0.330234 42.488300 0.002429
0.644975 42.488300 0.001868
0.959716 42.488300 0.001366
1.274457 42.488300 0.000507
1.589198 42.488300 -0.000736
1.903938 42.488300 -0.002082
2.218679 42.488300 -0.003113
2.533421 42.488300 -0.003658
2.848162 42.488300 -0.004134
3.162903 42.488300 -0.004432
3.477644 42.488300 -0.004183
3.792385 42.488300 -0.003349
4.107125 42.488300 -0.002298
4.421866 42.488300 -0.001261
4.736608 42.488300 -0.000315
5.051349 42.488300 0.000644
5.366090 42.488300 0.001531
5.680831 42.488300 0.002120
5.995571 42.488300 0.002309
6.310312 42.488300 0.002437
6.625053 42.488300 0.002514
6.939795 42.488300 0.001881
7.254536 42.488300 0.000465
7.569277 42.488300 -0.001636
7.884017 42.488300 -0.004266
8.198758 42.488300 -0.005537
8.513499 42.488300 -0.005152
8.828240 42.488300 -0.006142
9.142982 42.488300 -0.005328
9.457723 42.488300 -0.003378
9.772464 42.488300 -0.007039
10.087205 42.488300 -0.017243
10.401946 42.488300 -0.033620
10.716687 42.488300 -0.045725
11.031426 42.488300 -0.045032
11.346168 42.488300 -0.060355
11.660909 42.488300 -0.059014
11.975650 42.488300 -0.055173
12.290391 42.488300 -0.057901
12.605132 42.488300 -0.060281
12.919873 42.488300 -0.050313
13.234614 42.488300 -0.059294
13.549356 42.488300 -0.070044
13.864097 42.488300 -0.057892
14.178838 42.488300 -0.026079
14.493579 42.488300 0.004715
14.808320 42.488300 0.031219
15.123059 42.488300 0.078977
15.437800 42.488300 0.348859
15.752542 42.488300 0.800828
16.067284 42.488300 0.000000
16.382023 42.488300 0.000000
16.696766 42.488300 0.000000
17.011505 42.488300 0.000000
17.326248 42.488300 0.000000
17.640987 42.488300 5.038153
17.955730 42.488300 5.470040
18.270470 42.488300 4.854972
18.585213 42.488300 5.620532
18.899952 42.488300 4.376018
-7.223550 42.173557 0.000000
-6.908809 42.173557 0.000000
-6.594068 42.173557 0.005281
-6.279327 42.173557 0.003026
-5.964586 42.173557 0.002629
-5.649845 42.173557 0.001803
-5.335104 42.173557 0.000834
-5.020363 42.173557 0.000323
-4.705622 42.173557 -0.000218
-4.390881 42.173557 -0.000840
-4.076140 42.173557 -0.001464
-3.761399 42.173557 -0.002147
-3.446658 42.173557 -0.003032
-3.131917 42.173557 -0.003390
-2.817176 42.173557 -0.002904
-2.502435 42.173557 -0.002054
-2.187694 42.173557 -0.001328
-1.872953 42.173557 -0.000650
-1.558212 42.173557 0.000230
-1.243471 42.173557 0.001129
-0.928730 42.173557 0.001835
-0.613989 42.173557 0.002626
-0.299248 42.173557 0.003289
0.015493 42.173557 0.003299
0.330234 42.173557 0.002888
0.644975 42.173557 0.002634
0.959716 42.173557 0.002366
1.274457 42.173557 0.001703
1.589198 42.173557 0.000506
1.903938 42.173557 -0.000805
2.218679 42.173557 -0.002018
2.533421 42.173557 -0.002938
2.848162 42.173557 -0.003793
3.162903 42.173557 -0.004439
3.477644 42.173557 -0.004603
3.792385 42.173557 -0.004038
4.107125 42.173557 -0.003134
4.421866 42.173557 -0.002245
4.736608 42.173557 -0.001365
5.051349 42.173557 -0.000389
5.366090 42.173557 0.000631
5.680831 42.173557 0.001455
5.995571 42.173557 0.001789
6.310312 42.173557 0.002008
6.625053 42.173557 0.002258
6.939795 42.173557 0.002237
7.254536 42.173557 0.001285
7.569277 42.173557 -0.000534
7.884017 42.173557 -0.003149
8.198758 42.173557 -0.005045
8.513499 42.173557 -0.005670
8.828240 42.173557 -0.006261
9.142982 42.173557 -0.004607
9.457723 42.173557 -0.004302
9.772464 42.173557 -0.007587
10.087205 42.173557 -0.017511
10.401946 42.173557 -0.033087
10.716687 42.173557 -0.040260
11.031426 42.173557 -0.052200
11.346168 42.173557 -0.054273
11.660909 42.173557 -0.049322
11.975650 42.173557 -0.063171
12.290391 42.173557 -0.071561
12.605132 42.173557 -0.069906
12.919873 42.173557 -0.058287
13.234614 42.173557 -0.043508
13.549356 42.173557 -0.045121
13.864097 42.173557 -0.057790
14.178838 42.173557 -0.033575
14.493579 42.173557 -0.003897
14.808320 42.173557 0.015330
15.123059 42.173557 0.115949
15.437800 42.173557 0.332465
15.752542 42.173557 0.802224
16.067284 42.173557 0.000000
16.382023 42.173557 0.000000
16.696766 42.173557 0.000000
17.011505 42.173557 0.000000
17.326248 42.173557 0.000000
17.640987 42.173557 5.287701
17.955730 42.173557 5.918921
18.270470 42.173557 5.386266
18.585213 42.173557 6.036300
18.899952 42.173557 1.714970
-7.223550 41.858818 0.000000
-6.908809 41.858818 0.000000
-6.594068 41.858818 0.005301
-6.279327 41.858818 0.003487
-5.964586 41.858818 0.003240
-5.649845 41.858818 0.002553
-5.335104 41.858818 0.001796
-5.020363 41.858818 0.001525
-4.705622 41.858818 0.001097
-4.390881 41.858818 0.000315
-4.076140 41.858818 -0.000604
-3.761399 41.858818 -0.001499
-3.446658 41.858818 -0.002683
-3.131917 41.858818 -0.003547
-2.817176 41.858818 -0.003564
-2.502435 41.858818 -0.003039
-2.187694 41.858818 -0.002658
-1.872953 41.858818 -0.002155
-1.558212 41.858818 -0.001256
-1.243471 41.858818 -0.000291
-0.928730 41.858818 0.000676
-0.613989 41.858818 0.001888
-0.299248 41.858818 0.002806
0.015493 41.858818 0.003058
0.330234 41.858818 0.002924
0.644975 41.858818 0.002967
0.959716 41.858818 0.002937
1.274457 41.858818 0.002577
1.589198 41.858818 0.001597
1.903938 41.858818 0.000468
2.218679 41.858818 -0.000788
2.533421 41.858818 -0.001940
2.848162 41.858818 -0.003007
3.162903 41.858818 -0.003972
3.477644 41.858818 -0.004479
3.792385 41.858818 -0.004301
4.107125 41.858818 -0.003732
4.421866 41.858818 -0.003139
4.736608 41.858818 -0.002308
5.051349 41.858818 -0.001383
5.366090 41.858818 -0.000460
5.680831 41.858818 0.000666
5.995571 41.858818 0.001133
6.310312 41.858818 0.001449
6.625053 41.858818 0.001829
6.939795 41.858818 0.002171
7.254536 41.858818 0.001472
7.569277 41.858818 -0.000322
7.884017 41.858818 -0.002943
8.198758 41.858818 -0.004649
8.513499 41.858818 -0.003547
8.828240 41.858818 -0.003310
9.142982 41.858818 -0.003234
9.457723 41.858818 -0.001996
9.772464 41.858818 -0.010528
10.087205 41.858818 -0.013873
10.401946 41.858818 -0.036042
10.716687 41.858818 -0.048255
11.031426 41.858818 -0.066698
11.346168 41.858818 -0.061510
11.660909 41.858818 -0.054343
11.975650 41.858818 -0.071460
12.290391 41.858818 -0.079344
12.605132 41.858818 -0.086352
12.919873 41.858818 -0.061846
13.234614 41.858818 -0.045807
13.549356 41.858818 -0.026931
13.864097 41.858818 -0.036718
14.178838 41.858818 -0.022023
14.493579 41.858818 -0.015970
14.808320 41.858818 0.021260
15.123059 41.858818 0.142772
15.437800 41.858818 0.328477
15.752542 41.858818 0.749902
16.067284 41.858818 0.000000
16.382023 41.858818 0.000000
16.696766 41.858818 0.000000
17.011505 41.858818 0.000000
17.326248 41.858818 0.000000
17.640987 41.858818 7.108857
17.955730 41.858818 6.373574
18.270470 41.858818 5.559372
18.585213 41.858818 6.459686
18.899952 41.858818 0.000000
-7.223550 41.544075 0.000000
-6.908809 41.544075 0.000000
-6.594068 41.544075 0.004812
-6.279327 41.544075 0.003431
-5.964586 41.544075 0.003466
-5.649845 41.544075 0.003004
-5.335104 41.544075 0.002560
-5.020363 41.544075 0.002572
-4.705622 41.544075 0.002239
-4.390881 41.544075 0.001363
-4.076140 41.544075 0.000328
-3.761399 41.544075 -0.000646
-3.446658 41.544075 -0.001908
-3.131917 41.544075 -0.003074
-2.817176 41.544075 -0.003570
-2.502435 41.544075 -0.003494
-2.187694 41.544075 -0.003547
-1.872953 41.544075 -0.003349
-1.558212 41.544075 -0.002583
-1.243471 41.544075 -0.001690
-0.928730 41.544075 -0.000534
-0.613989 41.544075 0.000896
-0.299248 41.544075 0.001974
0.015493 41.544075 0.002458
0.330234 41.544075 0.002629
0.644975 41.544075 0.002892
0.959716 41.544075 0.003134
1.274457 41.544075 0.002958
1.589198 41.544075 0.002308
1.903938 41.544075 0.001480
2.218679 41.544075 0.000359
2.533421 41.544075 -0.000873
2.848162 41.544075 -0.002045
3.162903 41.544075 -0.003190
3.477644 41.544075 -0.003882
3.792385 41.544075 -0.004063
4.107125 41.544075 -0.003966
4.421866 41.544075 -0.003693
4.736608 41.544075 -0.003037
5.051349 41.544075 -0.002319
5.366090 41.544075 -0.001482
5.680831 41.544075 -0.000397
5.995571 41.544075 0.000334
6.310312 41.544075 0.000724
6.625053 41.544075 0.001362
6.939795 41.544075 0.002018
7.254536 41.544075 0.001290
7.569277 41.544075 0.000061
7.884017 41.544075 -0.001939
8.198758 41.544075 -0.003962
8.513499 41.544075 -0.002627
8.828240 41.544075 -0.002770
9.142982 41.544075 -0.003993
9.457723 41.544075 -0.003553
9.772464 41.544075 -0.007806
10.087205 41.544075 -0.014863
10.401946 41.544075 -0.032361
10.716687 41.544075 -0.055121
11.031426 41.544075 -0.059186
11.346168 41.544075 -0.059726
11.660909 41.544075 -0.078470
11.975650 41.544075 -0.077185
12.290391 41.544075 -0.087612
12.605132 41.544075 -0.090714
12.919873 41.544075 -0.080265
13.234614 41.544075 -0.045298
13.549356 41.544075 -0.038509
13.864097 41.544075 -0.015892
14.178838 41.544075 -0.029744
14.493579 41.544075 -0.014930
14.808320 41.544075 0.005439
15.123059 41.544075 0.104846
15.437800 41.544075 0.378646
15.752542 41.544075 0.846870
16.067284 41.544075 0.000000
16.382023 41.544075 0.000000
16.696766 41.544075 0.000000
17.011505 41.544075 0.000000
17.326248 41.544075 0.000000
17.640987 41.544075 7.555499
17.955730 41.544075 7.084414
18.270470 41.544075 6.815051
18.585213 41.544075 7.162393
18.899952 41.544075 0.000000
-7.223550 41.229336 0.000000
-6.908809 41.229336 0.000000
-6.594068 41.229336 0.003897
-6.279327 41.229336 0.003036
-5.964586 41.229336 0.003325
-5.649845 41.229336 0.003177
-5.335104 41.229336 0.003069
-5.020363 41.229336 0.003335
-4.705622 41.229336 0.003128
-4.390881 41.229336 0.002282
-4.076140 41.229336 0.001264
-3.761399 41.229336 0.000299
-3.446658 41.229336 -0.000858
-3.131917 41.229336 -0.002120
-2.817176 41.229336 -0.002968
-2.502435 41.229336 -0.003410
-2.187694 41.229336 -0.003902
-1.872953 41.229336 -0.004029
-1.558212 41.229336 -0.003562
-1.243471 41.229336 -0.002809
-0.928730 41.229336 -0.001649
-0.613989 41.229336 -0.000185
-0.299248 41.229336 0.000961
0.015493 41.229336 0.001608
0.330234 41.229336 0.002060
0.644975 41.229336 0.002604
0.959716 41.229336 0.003013
1.274457 41.229336 0.002957
1.589198 41.229336 0.002606
1.903938 41.229336 0.002110
2.218679 41.229336 0.001168
2.533421 41.229336 0.000043
2.848162 41.229336 -0.001122
3.162903 41.229336 -0.002279
3.477644 41.229336 -0.003016
3.792385 41.229336 -0.003502
4.107125 41.229336 -0.003840
4.421866 41.229336 -0.003975
4.736608 41.229336 -0.003556
5.051349 41.229336 -0.003100
5.366090 41.229336 -0.002435
5.680831 41.229336 -0.001351
5.995571 41.229336 -0.000444
6.310312 41.229336 0.000161
6.625053 41.229336 0.000849
6.939795 41.229336 0.001523
7.254536 41.229336 0.001247
7.569277 41.229336 -0.000396
7.884017 41.229336 -0.002282
8.198758 41.229336 -0.003606
8.513499 41.229336 -0.002450
8.828240 41.229336 -0.002004
9.142982 41.229336 -0.002679
9.457723 41.229336 -0.002936
9.772464 41.229336 -0.012833
10.087205 41.229336 -0.015625
10.401946 41.229336 -0.030952
10.716687 41.229336 -0.061484
11.031426 41.229336 -0.072781
11.346168 41.229336 -0.073254
11.660909 41.229336 -0.074658
11.975650 41.229336 -0.089321
12.290391 41.229336 -0.069948
12.605132 41.229336 -0.079785
12.919873 41.229336 -0.067045
13.234614 41.229336 -0.052624
13.549356 41.229336 -0.032047
13.864097 41.229336 -0.003724
14.178838 41.229336 -0.011999
14.493579 41.229336 -0.002212
14.808320 41.229336 0.019493
15.123059 41.229336 0.118328
15.437800 41.229336 0.440164
15.752542 41.229336 0.898635
16.067284 41.229336 0.000000
16.382023 41.229336 0.000000
16.696766 41.229336 0.000000
17.011505 41.229336 0.000000
17.326248 41.229336 0.000000
17.640987 41.229336 8.296275
17.955730 41.229336 8.195239
18.270470 41.229336 7.495386
18.585213 41.229336 8.449297
18.899952 41.229336 0.000000
-7.223550 40.914597 0.000000
-6.908809 40.914597 0.000000
-6.594068 40.914597 0.002893
-6.279327 40.914597 0.002297
-5.964586 40.914597 0.002839
-5.649845 40.914597 0.003064
-5.335104 40.914597 0.003264
-5.020363 40.914597 0.003670
-4.705622 40.914597 0.003653
-4.390881 40.914597 0.002920
-4.076140 40.914597 0.002039
-3.761399 40.914597 0.001249
-3.446658 40.914597 0.000278
-3.131917 40.914597 -0.000932
-2.817176 40.914597 -0.002019
-2.502435 40.914597 -0.002804
-2.187694 40.914597 -0.003599
-1.872953 40.914597 -0.004067
-1.558212 40.914597 -0.004000
-1.243471 40.914597 -0.003555
-0.928730 40.914597 -0.002542
-0.613989 40.914597 -0.001166
-0.299248 40.914597 -0.000056
0.015493 40.914597 0.000689
0.330234 40.914597 0.001433
0.644975 40.914597 0.002210
0.959716 40.914597 0.002671
1.274457 40.914597 0.002634
1.589198 40.914597 0.002545
1.903938 40.914597 0.002322
2.218679 40.914597 0.001701
2.533421 40.914597 0.000724
2.848162 40.914597 -0.000318
3.162903 40.914597 -0.001321
3.477644 40.914597 -0.002045
3.792385 40.914597 -0.002768
4.107125 40.914597 -0.003493
4.421866 40.914597 -0.003980
4.736608 40.914597 -0.003911
5.051349 40.914597 -0.003603
5.366090 40.914597 -0.003062
5.680831 40.914597 -0.002076
5.995571 40.914597 -0.001111
6.310312 40.914597 -0.000276
6.625053 40.914597 0.000500
6.939795 40.914597 0.000883
7.254536 40.914597 0.000819
7.569277 40.914597 -0.000494
7.884017 40.914597 -0.002177
8.198758 40.914597 -0.002962
8.513499 40.914597 -0.003862
8.828240 40.914597 -0.002848
9.142982 40.914597 -0.004212
9.457723 40.914597 -0.001643
9.772464 40.914597 -0.007821
10.087205 40.914597 -0.020564
10.401946 40.914597 -0.034737
10.716687 40.914597 -0.067353
11.031426 40.914597 -0.064769
11.346168 40.914597 -0.067877
11.660909 40.914597 -0.090959
11.975650 40.914597 -0.086416
12.290391 40.914597 -0.070060
12.605132 40.914597 -0.049740
12.919873 40.914597 -0.055504
13.234614 40.914597 -0.062047
13.549356 40.914597 -0.034233
13.864097 40.914597 -0.024887
14.178838 40.914597 -0.017226
14.493579 40.914597 -0.007796
14.808320 40.914597 0.013781
15.123059 40.914597 0.125799
15.437800 40.914597 0.415994
15.752542 40.914597 0.857768
16.067284 40.914597 0.000000
16.382023 40.914597 0.000000
16.696766 40.914597 0.000000
17.011505 40.914597 0.000000
17.326248 40.914597 0.000000
17.640987 40.914597 9.448462
17.955730 40.914597 9.006918
18.270470 40.914597 8.151675
18.585213 40.914597 8.824899
18.899952 40.914597 0.000000
-7.223550 40.599854 0.000000
-6.908809 40.599854 0.000000
-6.594068 40.599854 0.001926
-6.279327 40.599854 0.001318
-5.964586 40.599854 0.002053
-5.649845 40.599854 0.002655
-5.335104 40.599854 0.003136
-5.020363 40.599854 0.003679
-4.705622 40.599854 0.003832
-4.390881 40.599854 0.003299
-4.076140 40.599854 0.002558
-3.761399 40.599854 0.001977
-3.446658 40.599854 0.001290
-3.131917 40.599854 0.000252
-2.817176 40.599854 -0.000947
-2.502435 40.599854 -0.001961
-2.187694 40.599854 -0.002870
-1.872953 40.599854 -0.003660
-1.558212 40.599854 -0.003972
-1.243471 40.599854 -0.003840
-0.928730 40.599854 -0.003131
-0.613989 40.599854 -0.002004
-0.299248 40.599854 -0.000999
0.015493 40.599854 -0.000173
0.330234 40.599854 0.000807
0.644975 40.599854 0.001700
0.959716 40.599854 0.002090
1.274457 40.599854 0.002193
1.589198 40.599854 0.002284
1.903938 40.599854 0.002318
2.218679 40.599854 0.002032
2.533421 40.599854 0.001269
2.848162 40.599854 0.000383
3.162903 40.599854 -0.000401
3.477644 40.599854 -0.001170
3.792385 40.599854 -0.002085
4.107125 40.599854 -0.003090
4.421866 40.599854 -0.003896
4.736608 40.599854 -0.004127
5.051349 40.599854 -0.003955
5.366090 40.599854 -0.003390
5.680831 40.599854 -0.002530
5.995571 40.599854 -0.001581
6.310312 40.599854 -0.000654
6.625053 40.599854 0.000171
6.939795 40.599854 0.000506
7.254536 40.599854 0.000291
7.569277 40.599854 -0.000990
7.884017 40.599854 -0.001752
8.198758 40.599854 -0.002275
8.513499 40.599854 -0.005319
8.828240 40.599854 -0.007384
9.142982 40.599854 -0.006998
9.457723 40.599854 -0.003912
9.772464 40.599854 -0.008179
10.087205 40.599854 -0.021957
10.401946 40.599854 -0.041702
10.716687 40.599854 -0.052579
11.031426 40.599854 -0.067642
11.346168 40.599854 -0.071337
11.660909 40.599854 -0.093826
11.975650 40.599854 -0.075620
12.290391 40.599854 -0.063840
12.605132 40.599854 -0.047007
12.919873 40.599854 -0.068199
13.234614 40.599854 -0.066406
13.549356 40.599854 -0.059066
13.864097 40.599854 -0.014073
14.178838 40.599854 -0.006578
14.493579 40.599854 0.006267
14.808320 40.599854 0.005255
15.123059 40.599854 0.103067
15.437800 40.599854 0.369117
15.752542 40.599854 0.841725
16.067284 40.599854 0.000000
16.382023 40.599854 0.000000
16.696766 40.599854 0.000000
17.011505 40.599854 0.000000
17.326248 40.599854 0.000000
17.640987 40.599854 10.460928
17.955730 40.599854 9.867962
18.270470 40.599854 9.088649
18.585213 40.599854 9.461747
18.899952 40.599854 0.000000
-7.223550 40.285114 0.000000
-6.908809 40.285114 0.000000
-6.594068 40.285114 0.000974
-6.279327 40.285114 0.000209
-5.964586 40.285114 0.001111
-5.649845 40.285114 0.002027
-5.335104 40.285114 0.002804
-5.020363 40.285114 0.003443
-4.705622 40.285114 0.003739
-4.390881 40.285114 0.003377
-4.076140 40.285114 0.002864
-3.761399 40.285114 0.002476
-3.446658 40.285114 0.002057
-3.131917 40.285114 0.001281
-2.817176 40.285114 0.000127
-2.502435 40.285114 -0.001071
-2.187694 40.285114 -0.002123
-1.872953 40.285114 -0.003039
-1.558212 40.285114 -0.003599
-1.243471 40.285114 -0.003668
-0.928730 40.285114 -0.003352
-0.613989 40.285114 -0.002566
-0.299248 40.285114 -0.001721
0.015493 40.285114 -0.000894
0.330234 40.285114 0.000180
0.644975 40.285114 0.001075
0.959716 40.285114 0.001423
1.274457 40.285114 0.001630
1.589198 40.285114 0.001960
1.903938 40.285114 0.002231
2.218679 40.285114 0.002209
2.533421 40.285114 0.001680
2.848162 40.285114 0.000957
3.162903 40.285114 0.000336
3.477644 40.285114 -0.000494
3.792385 40.285114 -0.001564
4.107125 40.285114 -0.002757
4.421866 40.285114 -0.003671
4.736608 40.285114 -0.004106
5.051349 40.285114 -0.003966
5.366090 40.285114 -0.003478
5.680831 40.285114 -0.002830
5.995571 40.285114 -0.002016
6.310312 40.285114 -0.001187
6.625053 40.285114 -0.000245
6.939795 40.285114 -0.000054
7.254536 40.285114 -0.000444
7.569277 40.285114 -0.000967
7.884017 40.285114 -0.001742
8.198758 40.285114 -0.003451
8.513499 40.285114 -0.004304
8.828240 40.285114 -0.007618
9.142982 40.285114 -0.006905
9.457723 40.285114 -0.004349
9.772464 40.285114 -0.017884
10.087205 40.285114 -0.024824
10.401946 40.285114 -0.041081
10.716687 40.285114 -0.058015
11.031426 40.285114 -0.057295
11.346168 40.285114 -0.059863
11.660909 40.285114 -0.082820
11.975650 40.285114 -0.057607
12.290391 40.285114 -0.045419
12.605132 40.285114 -0.040200
12.919873 40.285114 -0.069701
13.234614 40.285114 -0.064243
13.549356 40.285114 -0.056062
13.864097 40.285114 -0.007627
14.178838 40.285114 0.002093
14.493579 40.285114 -0.012308
14.808320 40.285114 0.034808
15.123059 40.285114 0.078342
15.437800 40.285114 0.381315
15.752542 40.285114 0.853092
16.067284 40.285114 0.000000
16.382023 40.285114 0.000000
16.696766 40.285114 0.000000
17.011505 40.285114 0.000000
17.326248 40.285114 0.000000
17.640987 40.285114 11.302394
17.955730 40.285114 10.639651
18.270470 40.285114 9.998446
18.585213 40.285114 10.417686
18.899952 40.285114 0.000000
-7.223550 39.970371 0.000000
-6.908809 39.970371 0.000000
-6.594068 39.970371 0.000115
-6.279327 39.970371 -0.000846
-5.964586 39.970371 0.000141
-5.649845 39.970371 0.001284
-5.335104 39.970371 0.002252
-5.020363 39.970371 0.002973
-4.705622 39.970371 0.003338
-4.390881 39.970371 0.003138
-4.076140 39.970371 0.002893
-3.761399 39.970371 0.002766
-3.446658 39.970371 0.002599
-3.131917 39.970371 0.002027
-2.817176 39.970371 0.001023
-2.502435 39.970371 -0.000203
-2.187694 39.970371 -0.001331
-1.872953 39.970371 -0.002293
-1.558212 39.970371 -0.002965
-1.243471 39.970371 -0.003189
-0.928730 39.970371 -0.003258
-0.613989 39.970371 -0.002859
-0.299248 39.970371 -0.002219
0.015493 39.970371 -0.001455
0.330234 39.970371 -0.000491
0.644975 39.970371 0.000339
0.959716 39.970371 0.000719
1.274457 39.970371 0.001105
1.589198 39.970371 0.001619
1.903938 39.970371 0.002032
2.218679 39.970371 0.002188
2.533421 39.970371 0.001909
2.848162 39.970371 0.001389
3.162903 39.970371 0.000870
3.477644 39.970371 -0.000030
3.792385 39.970371 -0.001196
4.107125 39.970371 -0.002494
4.421866 39.970371 -0.003428
4.736608 39.970371 -0.003826
5.051349 39.970371 -0.003667
5.366090 39.970371 -0.003288
5.680831 39.970371 -0.002916
5.995571 39.970371 -0.002341
6.310312 39.970371 -0.001690
6.625053 39.970371 -0.000837
6.939795 39.970371 -0.000627
7.254536 39.970371 -0.001007
7.569277 39.970371 -0.001315
7.884017 39.970371 -0.002382
8.198758 39.970371 -0.003618
8.513499 39.970371 -0.003502
8.828240 39.970371 -0.005699
9.142982 39.970371 -0.003227
9.457723 39.970371 -0.006170
9.772464 39.970371 -0.019309
10.087205 39.970371 -0.034975
10.401946 39.970371 -0.048084
10.716687 39.970371 -0.060744
11.031426 39.970371 -0.058635
11.346168 39.970371 -0.064769
11.660909 39.970371 -0.080298
11.975650 39.970371 -0.071675
12.290391 39.970371 -0.048968
12.605132 39.970371 -0.038211
12.919873 39.970371 -0.053225
13.234614 39.970371 -0.067493
13.549356 39.970371 -0.036436
13.864097 39.970371 -0.031249
14.178838 39.970371 -0.025218
14.493579 39.970371 -0.005531
14.808320 39.970371 0.017153
15.123059 39.970371 0.124957
15.437800 39.970371 0.440242
15.752542 39.970371 0.862071
16.067284 39.970371 0.000000
16.382023 39.970371 0.000000
16.696766 39.970371 0.000000
17.011505 39.970371 0.000000
17.326248 39.970371 0.000000
17.640987 39.970371 12.914284
17.955730 39.970371 12.250457
18.270470 39.970371 10.907607
18.585213 39.970371 11.462790
18.899952 39.970371 0.000000
-7.223550 39.655632 0.000000
-6.908809 39.655632 0.000000
-6.594068 39.655632 -0.000598
-6.279327 39.655632 -0.001727
-5.964586 39.655632 -0.000717
-5.649845 39.655632 0.000487
-5.335104 39.655632 0.001525
-5.020363 39.655632 0.002284
-4.705622 39.655632 0.002682
-4.390881 39.655632 0.002688
-4.076140 39.655632 0.002770
-3.761399 39.655632 0.002905
-3.446658 39.655632 0.002929
-3.131917 39.655632 0.002520
-2.817176 39.655632 0.001707
-2.502435 39.655632 0.000636
-2.187694 39.655632 -0.000474
-1.872953 39.655632 -0.001441
-1.558212 39.655632 -0.002160
-1.243471 39.655632 -0.002547
-0.928730 39.655632 -0.002965
-0.613989 39.655632 -0.002945
-0.299248 39.655632 -0.002541
0.015493 39.655632 -0.001930
0.330234 39.655632 -0.001169
0.644975 39.655632 -0.000441
0.959716 39.655632 0.000066
1.274457 39.655632 0.000664
1.589198 39.655632 0.001247
1.903938 39.655632 0.001734
2.218679 39.655632 0.002052
2.533421 39.655632 0.002054
2.848162 39.655632 0.001714
3.162903 39.655632 0.001168
3.477644 39.655632 0.000335
3.792385 39.655632 -0.000796
4.107125 39.655632 -0.002141
4.421866 39.655632 -0.003022
4.736608 39.655632 -0.003329
5.051349 39.655632 -0.003190
5.366090 39.655632 -0.002958
5.680831 39.655632 -0.002830
5.995571 39.655632 -0.002654
6.310312 39.655632 -0.002025
6.625053 39.655632 -0.001402
6.939795 39.655632 -0.001237
7.254536 39.655632 -0.001501
7.569277 39.655632 -0.002098
7.884017 39.655632 -0.002870
8.198758 39.655632 -0.003381
8.513499 39.655632 -0.004791
8.828240 39.655632 -0.005986
9.142982 39.655632 -0.001342
9.457723 39.655632 -0.007314
9.772464 39.655632 -0.022243
10.087205 39.655632 -0.029580
10.401946 39.655632 -0.053323
10.716687 39.655632 -0.051465
11.031426 39.655632 -0.056660
11.346168 39.655632 -0.060561
11.660909 39.655632 -0.071858
11.975650 39.655632 -0.058446
12.290391 39.655632 -0.039500
12.605132 39.655632 -0.045635
12.919873 39.655632 -0.055289
13.234614 39.655632 -0.050406
13.549356 39.655632 -0.044823
13.864097 39.655632 -0.028803
14.178838 39.655632 -0.020337
14.493579 39.655632 -0.025808
14.808320 39.655632 0.021780
15.123059 39.655632 0.126373
15.437800 39.655632 0.438002
15.752542 39.655632 0.840839
16.067284 39.655632 0.000000
16.382023 39.655632 0.000000
16.696766 39.655632 0.000000
17.011505 39.655632 0.000000
17.326248 39.655632 0.000000
17.640987 39.655632 16.093216
17.955730 39.655632 14.763249
18.270470 39.655632 13.145203
18.585213 39.655632 13.494538
18.899952 39.655632 0.000000
-7.223550 39.340889 0.000000
-6.908809 39.340889 0.000000
-6.594068 39.340889 -0.000967
-6.279327 39.340889 -0.002265
-5.964586 39.340889 -0.001423
-5.649845 39.340889 -0.000280
-5.335104 39.340889 0.000673
-5.020363 39.340889 0.001439
-4.705622 39.340889 0.001953
-4.390881 39.340889 0.002232
-4.076140 39.340889 0.002639
-3.761399 39.340889 0.002972
-3.446658 39.340889 0.003062
-3.131917 39.340889 0.002826
-2.817176 39.340889 0.002148
-2.502435 39.340889 0.001327
-2.187694 39.340889 0.000341
-1.872953 39.340889 -0.000665
-1.558212 39.340889 -0.001384
-1.243471 39.340889 -0.001920
-0.928730 39.340889 -0.002544
-0.613989 39.340889 -0.002823
-0.299248 39.340889 -0.002695
0.015493 39.340889 -0.002280
0.330234 39.340889 -0.001775
0.644975 39.340889 -0.001143
0.959716 39.340889 -0.000537
1.274457 39.340889 0.000215
1.589198 39.340889 0.000892
1.903938 39.340889 0.001405
2.218679 39.340889 0.001817
2.533421 39.340889 0.002068
2.848162 39.340889 0.001871
3.162903 39.340889 0.001293
3.477644 39.340889 0.000590
3.792385 39.340889 -0.000411
4.107125 39.340889 -0.001753
4.421866 39.340889 -0.002631
4.736608 39.340889 -0.002842
5.051349 39.340889 -0.002749
5.366090 39.340889 -0.002591
5.680831 39.340889 -0.002623
5.995571 39.340889 -0.002665
6.310312 39.340889 -0.002283
6.625053 39.340889 -0.001758
6.939795 39.340889 -0.001583
7.254536 39.340889 -0.001627
7.569277 39.340889 -0.002432
7.884017 39.340889 -0.002510
8.198758 39.340889 -0.003684
8.513499 39.340889 -0.004892
8.828240 39.340889 -0.006466
9.142982 39.340889 -0.003929
9.457723 39.340889 -0.004044
9.772464 39.340889 -0.010106
10.087205 39.340889 -0.027849
10.401946 39.340889 -0.044953
10.716687 39.340889 -0.054304
11.031426 39.340889 -0.042369
11.346168 39.340889 -0.049816
11.660909 39.340889 -0.067760
11.975650 39.340889 -0.051985
12.290391 39.340889 -0.040790
12.605132 39.340889 -0.051753
12.919873 39.340889 -0.049077
13.234614 39.340889 -0.057377
13.549356 39.340889 -0.041827
13.864097 39.340889 -0.039346
14.178838 39.340889 -0.036033
14.493579 39.340889 -0.032846
14.808320 39.340889 0.009278
15.123059 39.340889 0.122247
15.437800 39.340889 0.440523
15.752542 39.340889 0.942972
16.067284 39.340889 0.000000
16.382023 39.340889 0.000000
16.696766 39.340889 0.000000
17.011505 39.340889 0.000000
17.326248 39.340889 0.000000
17.640987 39.340889 19.385386
17.955730 39.340889 17.504572
18.270470 39.340889 15.643628
18.585213 39.340889 15.324480
18.899952 39.340889 0.000000
-7.223550 39.026150 0.000000
-6.908809 39.026150 0.000000
-6.594068 39.026150 -0.001112
-6.279327 39.026150 -0.002519
-5.964586 39.026150 -0.001911
-5.649845 39.026150 -0.000947
-5.335104 39.026150 -0.000179
-5.020363 39.026150 0.000614
-4.705622 39.026150 0.001290
-4.390881 39.026150 0.001851
-4.076140 39.026150 0.002460
-3.761399 39.026150 0.002903
-3.446658 39.026150 0.003007
-3.131917 39.026150 0.002869
-2.817176 39.026150 0.002369
-2.502435 39.026150 0.001812
-2.187694 39.026150 0.000993
-1.872953 39.026150 0.000013
-1.558212 39.026150 -0.000742
-1.243471 39.026150 -0.001455
-0.928730 39.026150 -0.002207
-0.613989 39.026150 -0.002600
-0.299248 39.026150 -0.002637
0.015493 39.026150 -0.002442
0.330234 39.026150 -0.002178
0.644975 39.026150 -0.001621
0.959716 39.026150 -0.000932
1.274457 39.026150 -0.000146
1.589198 39.026150 0.000553
1.903938 39.026150 0.001026
2.218679 39.026150 0.001495
2.533421 39.026150 0.001903
2.848162 39.026150 0.001821
3.162903 39.026150 0.001313
3.477644 39.026150 0.000727
3.792385 39.026150 -0.000100
4.107125 39.026150 -0.001312
4.421866 39.026150 -0.002207
4.736608 39.026150 -0.002518
5.051349 39.026150 -0.002400
5.366090 39.026150 -0.002338
5.680831 39.026150 -0.002482
5.995571 39.026150 -0.002621
6.310312 39.026150 -0.002455
6.625053 39.026150 -0.002048
6.939795 39.026150 -0.001905
7.254536 39.026150 -0.002021
7.569277 39.026150 -0.002657
7.884017 39.026150 -0.003210
8.198758 39.026150 -0.004031
8.513499 39.026150 -0.005978
8.828240 39.026150 -0.008199
9.142982 39.026150 -0.007431
9.457723 39.026150 -0.004221
9.772464 39.026150 -0.011514
10.087205 39.026150 -0.028522
10.401946 39.026150 -0.044137
10.716687 39.026150 -0.044273
11.031426 39.026150 -0.036617
11.346168 39.026150 -0.040056
11.660909 39.026150 -0.056608
11.975650 39.026150 -0.038172
12.290391 39.026150 -0.040839
12.605132 39.026150 -0.043519
12.919873 39.026150 -0.051714
13.234614 39.026150 -0.064470
13.549356 39.026150 -0.044328
13.864097 39.026150 -0.005472
14.178838 39.026150 -0.020265
14.493579 39.026150 -0.014872
14.808320 39.026150 -0.001423
15.123059 39.026150 0.110504
15.437800 39.026150 0.431082
15.752542 39.026150 0.772693
16.067284 39.026150 0.000000
16.382023 39.026150 0.000000
16.696766 39.026150 0.000000
17.011505 39.026150 0.000000
17.326248 39.026150 0.000000
17.640987 39.026150 26.258820
17.955730 39.026150 21.168385
18.270470 39.026150 18.319258
18.585213 39.026150 18.283073
18.899952 39.026150 0.000000
-7.223550 38.711407 0.000000
-6.908809 38.711407 0.000000
-6.594068 38.711407 -0.001041
-6.279327 38.711407 -0.002615
-5.964586 38.711407 -0.002188
-5.649845 38.711407 -0.001531
-5.335104 38.711407 -0.000903
-5.020363 38.711407 -0.000109
-4.705622 38.711407 0.000769
-4.390881 38.711407 0.001549
-4.076140 38.711407 0.002275
-3.761399 38.711407 0.002711
-3.446658 38.711407 0.002800
-3.131917 38.711407 0.002699
-2.817176 38.711407 0.002411
-2.502435 38.711407 0.002106
-2.187694 38.711407 0.001489
-1.872953 38.711407 0.000521
-1.558212 38.711407 -0.000270
-1.243471 38.711407 -0.001134
-0.928730 38.711407 -0.001941
-0.613989 38.711407 -0.002336
-0.299248 38.711407 -0.002409
0.015493 38.711407 -0.002412
0.330234 38.711407 -0.002358
0.644975 38.711407 -0.001853
0.959716 38.711407 -0.001131
1.274457 38.711407 -0.000378
1.589198 38.711407 0.000253
1.903938 38.711407 0.000647
2.218679 38.711407 0.001142
2.533421 38.711407 0.001573
2.848162 38.711407 0.001605
3.162903 38.711407 0.001211
3.477644 38.711407 0.000748
3.792385 38.711407 0.000086
4.107125 38.711407 -0.000917
4.421866 38.711407 -0.001822
4.736608 38.711407 -0.002241
5.051349 38.711407 -0.002196
5.366090 38.711407 -0.002167
5.680831 38.711407 -0.002374
5.995571 38.711407 -0.002611
6.310312 38.711407 -0.002556
6.625053 38.711407 -0.002158
6.939795 38.711407 -0.002191
7.254536 38.711407 -0.002342
7.569277 38.711407 -0.003158
7.884017 38.711407 -0.003892
8.198758 38.711407 -0.004988
8.513499 38.711407 -0.005816
8.828240 38.711407 -0.007944
9.142982 38.711407 -0.006298
9.457723 38.711407 -0.005194
9.772464 38.711407 -0.009382
10.087205 38.711407 -0.021763
10.401946 38.711407 -0.038015
10.716687 38.711407 -0.038292
11.031426 38.711407 -0.027908
11.346168 38.711407 -0.037082
11.660909 38.711407 -0.055434
11.975650 38.711407 -0.033242
12.290391 38.711407 -0.023211
12.605132 38.711407 -0.033235
12.919873 38.711407 -0.059330
13.234614 38.711407 -0.080238
13.549356 38.711407 -0.034412
13.864097 38.711407 -0.012469
14.178838 38.711407 -0.006044
14.493579 38.711407 -0.011153
14.808320 38.711407 0.026509
15.123059 38.711407 0.111787
15.437800 38.711407 0.438018
15.752542 38.711407 0.914934
16.067284 38.711407 0.000000
16.382023 38.711407 0.000000
16.696766 38.711407 0.000000
17.011505 38.711407 0.000000
17.326248 38.711407 0.000000
17.640987 38.711407 29.216972
17.955730 38.711407 24.424213
18.270470 38.711407 20.596617
18.585213 38.711407 20.097460
18.899952 38.711407 0.000000
-7.223550 38.396667 0.000000
-6.908809 38.396667 0.000000
-6.594068 38.396667 -0.000946
-6.279327 38.396667 -0.002602
-5.964586 38.396667 -0.002347
-5.649845 38.396667 -0.001919
-5.335104 38.396667 -0.001456
-5.020363 38.396667 -0.000623
-4.705622 38.396667 0.000403
-4.390881 38.396667 0.001300
-4.076140 38.396667 0.002061
-3.761399 38.396667 0.002410
-3.446658 38.396667 0.002440
-3.131917 38.396667 0.002424
-2.817176 38.396667 0.002300
-2.502435 38.396667 0.002154
-2.187694 38.396667 0.001728
-1.872953 38.396667 0.000787
-1.558212 38.396667 0.000009
-1.243471 38.396667 -0.000894
-0.928730 38.396667 -0.001689
-0.613989 38.396667 -0.002034
-0.299248 38.396667 -0.002135
0.015493 38.396667 -0.002170
0.330234 38.396667 -0.002214
0.644975 38.396667 -0.001817
0.959716 38.396667 -0.001145
1.274457 38.396667 -0.000458
1.589198 38.396667 -0.000024
1.903938 38.396667 0.000298
2.218679 38.396667 0.000727
2.533421 38.396667 0.001106
2.848162 38.396667 0.001211
3.162903 38.396667 0.000952
3.477644 38.396667 0.000610
3.792385 38.396667 0.000114
4.107125 38.396667 -0.000662
4.421866 38.396667 -0.001506
4.736608 38.396667 -0.001986
5.051349 38.396667 -0.002010
5.366090 38.396667 -0.002036
5.680831 38.396667 -0.002235
5.995571 38.396667 -0.002327
6.310312 38.396667 -0.002361
6.625053 38.396667 -0.002207
6.939795 38.396667 -0.002171
7.254536 38.396667 -0.002435
7.569277 38.396667 -0.003821
7.884017 38.396667 -0.004968
8.198758 38.396667 -0.006063
8.513499 38.396667 -0.004773
8.828240 38.396667 -0.005241
9.142982 38.396667 -0.005364
9.457723 38.396667 -0.005500
9.772464 38.396667 -0.007467
10.087205 38.396667 -0.022244
10.401946 38.396667 -0.036379
10.716687 38.396667 -0.038413
11.031426 38.396667 -0.035654
11.346168 38.396667 -0.042232
11.660909 38.396667 -0.051739
11.975650 38.396667 -0.049638
12.290391 38.396667 -0.013993
12.605132 38.396667 -0.024229
12.919873 38.396667 -0.065861
13.234614 38.396667 -0.085104
13.549356 38.396667 -0.044392
13.864097 38.396667 -0.000932
14.178838 38.396667 0.008429
14.493579 38.396667 0.022669
14.808320 38.396667 0.068073
15.123059 38.396667 0.121066
15.437800 38.396667 0.440172
15.752542 38.396667 1.061670
16.067284 38.396667 0.000000
16.382023 38.396667 0.000000
16.696766 38.396667 0.000000
17.011505 38.396667 0.000000
17.326248 38.396667 0.000000
17.640987 38.396667 28.323196
17.955730 38.396667 24.794468
18.270470 38.396667 20.703554
18.585213 38.396667 20.112503
18.899952 38.396667 0.000000
-7.223550 38.081924 0.000000
-6.908809 38.081924 0.000000
-6.594068 38.081924 -0.000790
-6.279327 38.081924 -0.002520
-5.964586 38.081924 -0.002377
-5.649845 38.081924 -0.002127
-5.335104 38.081924 -0.001767
-5.020363 38.081924 -0.000878
-4.705622 38.081924 0.000185
-4.390881 38.081924 0.001055
-4.076140 38.081924 0.001802
-3.761399 38.081924 0.002077
-3.446658 38.081924 0.002121
-3.131917 38.081924 0.002177
-2.817176 38.081924 0.002186
-2.502435 38.081924 0.002160
-2.187694 38.081924 0.001760
-1.872953 38.081924 0.000923
-1.558212 38.081924 0.000156
-1.243471 38.081924 -0.000722
-0.928730 38.081924 -0.001429
-0.613989 38.081924 -0.001720
-0.299248 38.081924 -0.001793
0.015493 38.081924 -0.001859
0.330234 38.081924 -0.001900
0.644975 38.081924 -0.001602
0.959716 38.081924 -0.001016
1.274457 38.081924 -0.000419
1.589198 38.081924 -0.000146
1.903938 38.081924 0.000080
2.218679 38.081924 0.000413
2.533421 38.081924 0.000683
2.848162 38.081924 0.000769
3.162903 38.081924 0.000651
3.477644 38.081924 0.000382
3.792385 38.081924 0.000013
4.107125 38.081924 -0.000513
4.421866 38.081924 -0.001181
4.736608 38.081924 -0.001587
5.051349 38.081924 -0.001744
5.366090 38.081924 -0.001866
5.680831 38.081924 -0.002018
5.995571 38.081924 -0.002142
6.310312 38.081924 -0.002111
6.625053 38.081924 -0.001999
6.939795 38.081924 -0.002014
7.254536 38.081924 -0.002584
7.569277 38.081924 -0.003529
7.884017 38.081924 -0.005028
8.198758 38.081924 -0.005934
8.513499 38.081924 -0.005907
8.828240 38.081924 -0.004091
9.142982 38.081924 -0.004172
9.457723 38.081924 -0.009906
9.772464 38.081924 -0.016533
10.087205 38.081924 -0.025617
10.401946 38.081924 -0.037469
10.716687 38.081924 -0.051545
11.031426 38.081924 -0.047865
11.346168 38.081924 -0.055807
11.660909 38.081924 -0.054161
11.975650 38.081924 -0.042002
12.290391 38.081924 -0.027973
12.605132 38.081924 -0.018685
12.919873 38.081924 -0.047515
13.234614 38.081924 -0.050643
13.549356 38.081924 -0.018005
13.864097 38.081924 -0.006737
14.178838 38.081924 -0.006561
14.493579 38.081924 0.037336
14.808320 38.081924 0.077286
15.123059 38.081924 0.134950
15.437800 38.081924 0.395344
15.752542 38.081924 0.935963
16.067284 38.081924 0.000000
16.382023 38.081924 0.000000
16.696766 38.081924 0.000000
17.011505 38.081924 0.000000
17.326248 38.081924 0.000000
17.640987 38.081924 32.171986
17.955730 38.081924 36.200279
18.270470 38.081924 20.102140
18.585213 38.081924 19.835451
18.899952 38.081924 0.000000
-7.223550 37.767185 0.000000
-6.908809 37.767185 0.000000
-6.594068 37.767185 -0.000464
-6.279327 37.767185 -0.002298
-5.964586 37.767185 -0.002232
-5.649845 37.767185 -0.002161
-5.335104 37.767185 -0.001846
-5.020363 37.767185 -0.000982
-4.705622 37.767185 -0.000019
-4.390881 37.767185 0.000767
-4.076140 37.767185 0.001536
-3.761399 37.767185 0.001773
-3.446658 37.767185 0.001800
-3.131917 37.767185 0.001892
-2.817176 37.767185 0.002012
-2.502435 37.767185 0.002030
-2.187694 37.767185 0.001648
-1.872953 37.767185 0.001003
-1.558212 37.767185 0.000299
-1.243471 37.767185 -0.000600
-0.928730 37.767185 -0.001243
-0.613989 37.767185 -0.001459
-0.299248 37.767185 -0.001490
0.015493 37.767185 -0.001526
0.330234 37.767185 -0.001534
0.644975 37.767185 -0.001295
0.959716 37.767185 -0.000817
1.274457 37.767185 -0.000378
1.589198 37.767185 -0.000242
1.903938 37.767185 -0.000106
2.218679 37.767185 0.000116
2.533421 37.767185 0.000295
2.848162 37.767185 0.000360
3.162903 37.767185 0.000308
3.477644 37.767185 0.000148
3.792385 37.767185 -0.000088
4.107125 37.767185 -0.000483
4.421866 37.767185 -0.000965
4.736608 37.767185 -0.001267
5.051349 37.767185 -0.001450
5.366090 37.767185 -0.001546
5.680831 37.767185 -0.001627
5.995571 37.767185 -0.001761
6.310312 37.767185 -0.001840
6.625053 37.767185 -0.001739
6.939795 37.767185 -0.001819
7.254536 37.767185 -0.002341
7.569277 37.767185 -0.003916
7.884017 37.767185 -0.005261
8.198758 37.767185 -0.006605
8.513499 37.767185 -0.006595
8.828240 37.767185 -0.005032
9.142982 37.767185 -0.006085
9.457723 37.767185 -0.009391
9.772464 37.767185 -0.011940
10.087205 37.767185 -0.022272
10.401946 37.767185 -0.040796
10.716687 37.767185 -0.055529
11.031426 37.767185 -0.065684
11.346168 37.767185 -0.069853
11.660909 37.767185 -0.076198
11.975650 37.767185 -0.051501
12.290391 37.767185 -0.046018
12.605132 37.767185 -0.027331
12.919873 37.767185 -0.043112
13.234614 37.767185 -0.032898
13.549356 37.767185 -0.023352
13.864097 37.767185 0.007281
14.178838 37.767185 0.002000
14.493579 37.767185 0.012552
14.808320 37.767185 0.051221
15.123059 37.767185 0.140602
15.437800 37.767185 0.400421
15.752542 37.767185 0.731263
16.067284 37.767185 0.000000
16.382023 37.767185 0.000000
16.696766 37.767185 0.000000
17.011505 37.767185 0.000000
17.326248 37.767185 0.000000
17.640987 37.767185 0.000000
17.955730 37.767185 0.000000
18.270470 37.767185 20.514278
18.585213 37.767185 18.619736
18.899952 37.767185 0.000000
-7.223550 37.452446 0.000000
-6.908809 37.452446 0.000000
-6.594068 37.452446 -0.000134
-6.279327 37.452446 -0.001992
-5.964586 37.452446 -0.002027
-5.649845 37.452446 -0.001961
-5.335104 37.452446 -0.001689
-5.020363 37.452446 -0.001007
-4.705622 37.452446 -0.000232
-4.390881 37.452446 0.000452
-4.076140 37.452446 0.001204
-3.761399 37.452446 0.001521
-3.446658 37.452446 0.001556
-3.131917 37.452446 0.001581
-2.817176 37.452446 0.001764
-2.502435 37.452446 0.001848
-2.187694 37.452446 0.001550
-1.872953 37.452446 0.001014
-1.558212 37.452446 0.000350
-1.243471 37.452446 -0.000546
-0.928730 37.452446 -0.001087
-0.613989 37.452446 -0.001219
-0.299248 37.452446 -0.001247
0.015493 37.452446 -0.001216
0.330234 37.452446 -0.001174
0.644975 37.452446 -0.000955
0.959716 37.452446 -0.000619
1.274457 37.452446 -0.000385
1.589198 37.452446 -0.000333
1.903938 37.452446 -0.000282
2.218679 37.452446 -0.000172
2.533421 37.452446 -0.000028
2.848162 37.452446 0.000006
3.162903 37.452446 -0.000008
3.477644 37.452446 -0.000053
3.792385 37.452446 -0.000181
4.107125 37.452446 -0.000543
4.421866 37.452446 -0.000837
4.736608 37.452446 -0.000983
5.051349 37.452446 -0.001138
5.366090 37.452446 -0.001194
5.680831 37.452446 -0.001081
5.995571 37.452446 -0.001278
6.310312 37.452446 -0.001490
6.625053 37.452446 -0.001534
6.939795 37.452446 -0.001776
7.254536 37.452446 -0.002327
7.569277 37.452446 -0.003677
7.884017 37.452446 -0.004773
8.198758 37.452446 -0.006347
8.513499 37.452446 -0.006767
8.828240 37.452446 -0.008730
9.142982 37.452446 -0.010685
9.457723 37.452446 -0.015060
9.772464 37.452446 -0.018145
10.087205 37.452446 -0.022122
10.401946 37.452446 -0.038160
10.716687 37.452446 -0.065134
11.031426 37.452446 -0.069531
11.346168 37.452446 -0.088193
11.660909 37.452446 -0.080601
11.975650 37.452446 -0.060899
12.290391 37.452446 -0.050882
12.605132 37.452446 -0.030504
12.919873 37.452446 -0.012985
13.234614 37.452446 -0.026026
13.549356 37.452446 -0.000628
13.864097 37.452446 0.013140
14.178838 37.452446 0.010440
14.493579 37.452446 0.033972
14.808320 37.452446 0.018614
15.123059 37.452446 0.129155
15.437800 37.452446 0.431738
15.752542 37.452446 0.832655
16.067284 37.452446 0.000000
16.382023 37.452446 0.000000
16.696766 37.452446 0.000000
17.011505 37.452446 0.000000
17.326248 37.452446 0.000000
17.640987 37.452446 0.000000
17.955730 37.452446 0.000000
18.270470 37.452446 20.428526
18.585213 37.452446 16.031681
18.899952 37.452446 0.000000
-7.223550 37.137703 0.000000
-6.908809 37.137703 0.000000
-6.594068 37.137703 0.000291
-6.279327 37.137703 -0.001667
-5.964586 37.137703 -0.001740
-5.649845 37.137703 -0.001616
-5.335104 37.137703 -0.001438
-5.020363 37.137703 -0.000948
-4.705622 37.137703 -0.000387
-4.390881 37.137703 0.000160
-4.076140 37.137703 0.000804
-3.761399 37.137703 0.001272
-3.446658 37.137703 0.001340
-3.131917 37.137703 0.001364
-2.817176 37.137703 0.001555
-2.502435 37.137703 0.001668
-2.187694 37.137703 0.001449
-1.872953 37.137703 0.000964
-1.558212 37.137703 0.000338
-1.243471 37.137703 -0.000466
-0.928730 37.137703 -0.000916
-0.613989 37.137703 -0.001000
-0.299248 37.137703 -0.001005
0.015493 37.137703 -0.000937
0.330234 37.137703 -0.000832
0.644975 37.137703 -0.000624
0.959716 37.137703 -0.000466
1.274457 37.137703 -0.000476
1.589198 37.137703 -0.000442
1.903938 37.137703 -0.000459
2.218679 37.137703 -0.000418
2.533421 37.137703 -0.000337
2.848162 37.137703 -0.000268
3.162903 37.137703 -0.000213
3.477644 37.137703 -0.000225
3.792385 37.137703 -0.000338
4.107125 37.137703 -0.000651
4.421866 37.137703 -0.000785
4.736608 37.137703 -0.000838
5.051349 37.137703 -0.000902
5.366090 37.137703 -0.000888
5.680831 37.137703 -0.000645
5.995571 37.137703 -0.000671
6.310312 37.137703 -0.000920
6.625053 37.137703 -0.001067
6.939795 37.137703 -0.001434
7.254536 37.137703 -0.002389
7.569277 37.137703 -0.004237
7.884017 37.137703 -0.005166
8.198758 37.137703 -0.005717
8.513499 37.137703 -0.006847
8.828240 37.137703 -0.007895
9.142982 37.137703 -0.009865
9.457723 37.137703 -0.018692
9.772464 37.137703 -0.020480
10.087205 37.137703 -0.020433
10.401946 37.137703 -0.038149
10.716687 37.137703 -0.059576
11.031426 37.137703 -0.068722
11.346168 37.137703 -0.080678
11.660909 37.137703 -0.073899
11.975650 37.137703 -0.054890
12.290391 37.137703 -0.032885
12.605132 37.137703 -0.019830
12.919873 37.137703 -0.010085
13.234614 37.137703 -0.024353
13.549356 37.137703 0.006744
13.864097 37.137703 0.009987
14.178838 37.137703 0.020548
14.493579 37.137703 0.015325
14.808320 37.137703 0.028843
15.123059 37.137703 0.125543
15.437800 37.137703 0.512252
15.752542 37.137703 0.904451
16.067284 37.137703 0.000000
16.382023 37.137703 0.000000
16.696766 37.137703 0.000000
17.011505 37.137703 0.000000
17.326248 37.137703 0.000000
17.640987 37.137703 0.000000
17.955730 37.137703 0.000000
18.270470 37.137703 0.000000
18.585213 37.137703 98.470154
18.899952 37.137703 0.000000
-7.223550 36.822960 0.000000
-6.908809 36.822960 0.000000
-6.594068 36.822960 0.000614
-6.279327 36.822960 -0.001300
-5.964586 36.822960 -0.001334
-5.649845 36.822960 -0.001217
-5.335104 36.822960 -0.001082
-5.020363 36.822960 -0.000814
-4.705622 36.822960 -0.000406
-4.390881 36.822960 0.000024
-4.076140 36.822960 0.000547
-3.761399 36.822960 0.001042
-3.446658 36.822960 0.001121
-3.131917 36.822960 0.001185
-2.817176 36.822960 0.001371
-2.502435 36.822960 0.001510
-2.187694 36.822960 0.001343
-1.872953 36.822960 0.000896
-1.558212 36.822960 0.000336
-1.243471 36.822960 -0.000327
-0.928730 36.822960 -0.000684
-0.613989 36.822960 -0.000757
-0.299248 36.822960 -0.000754
0.015493 36.822960 -0.000613
0.330234 36.822960 -0.000450
0.644975 36.822960 -0.000305
0.959716 36.822960 -0.000412
1.274457 36.822960 -0.000610
1.589198 36.822960 -0.000537
1.903938 36.822960 -0.000554
2.218679 36.822960 -0.000567
2.533421 36.822960 -0.000573
2.848162 36.822960 -0.000467
3.162903 36.822960 -0.000348
3.477644 36.822960 -0.000417
3.792385 36.822960 -0.000589
4.107125 36.822960 -0.000804
4.421866 36.822960 -0.000890
4.736608 36.822960 -0.000886
5.051349 36.822960 -0.000798
5.366090 36.822960 -0.000515
5.680831 36.822960 -0.000154
5.995571 36.822960 -0.000116
6.310312 36.822960 -0.000248
6.625053 36.822960 -0.000570
6.939795 36.822960 -0.001064
7.254536 36.822960 -0.002360
7.569277 36.822960 -0.004135
7.884017 36.822960 -0.005389
8.198758 36.822960 -0.005211
8.513499 36.822960 -0.006516
8.828240 36.822960 -0.010075
9.142982 36.822960 -0.011938
9.457723 36.822960 -0.019947
9.772464 36.822960 -0.018738
10.087205 36.822960 -0.026500
10.401946 36.822960 -0.041622
10.716687 36.822960 -0.061751
11.031426 36.822960 -0.076441
11.346168 36.822960 -0.074276
11.660909 36.822960 -0.063282
11.975650 36.822960 -0.065348
12.290391 36.822960 -0.030999
12.605132 36.822960 -0.002349
12.919873 36.822960 -0.013572
13.234614 36.822960 -0.010449
13.549356 36.822960 0.007062
13.864097 36.822960 0.021038
14.178838 36.822960 -0.004872
14.493579 36.822960 -0.010994
14.808320 36.822960 0.034786
15.123059 36.822960 0.170349
15.437800 36.822960 0.497742
15.752542 36.822960 0.800058
16.067284 36.822960 0.000000
16.382023 36.822960 0.000000
16.696766 36.822960 0.000000
17.011505 36.822960 0.000000
17.326248 36.822960 0.000000
17.640987 36.822960 0.000000
17.955730 36.822960 0.000000
18.270470 36.822960 0.000000
18.585213 36.822960 0.000000
18.899952 36.822960 0.000000
-7.223550 36.508221 0.000000
-6.908809 36.508221 0.000000
-6.594068 36.508221 0.000792
-6.279327 36.508221 -0.001020
-5.964586 36.508221 -0.000969
-5.649845 36.508221 -0.000857
-5.335104 36.508221 -0.000780
-5.020363 36.508221 -0.000614
-4.705622 36.508221 -0.000284
-4.390881 36.508221 0.000037
-4.076140 36.508221 0.000328
-3.761399 36.508221 0.000764
-3.446658 36.508221 0.000939
-3.131917 36.508221 0.001080
-2.817176 36.508221 0.001222
-2.502435 36.508221 0.001342
-2.187694 36.508221 0.001164
-1.872953 36.508221 0.000749
-1.558212 36.508221 0.000284
-1.243471 36.508221 -0.000231
-0.928730 36.508221 -0.000545
-0.613989 36.508221 -0.000617
-0.299248 36.508221 -0.000572
0.015493 36.508221 -0.000297
0.330234 36.508221 -0.000034
0.644975 36.508221 -0.000022
0.959716 36.508221 -0.000321
1.274457 36.508221 -0.000616
1.589198 36.508221 -0.000583
1.903938 36.508221 -0.000586
2.218679 36.508221 -0.000626
2.533421 36.508221 -0.000703
2.848162 36.508221 -0.000586
3.162903 36.508221 -0.000479
3.477644 36.508221 -0.000628
3.792385 36.508221 -0.000928
4.107125 36.508221 -0.001039
4.421866 36.508221 -0.001065
4.736608 36.508221 -0.000977
5.051349 36.508221 -0.000706
5.366090 36.508221 -0.000138
5.680831 36.508221 0.000405
5.995571 36.508221 0.000442
6.310312 36.508221 0.000250
6.625053 36.508221 -0.000057
6.939795 36.508221 -0.000964
7.254536 36.508221 -0.001971
7.569277 36.508221 -0.003959
7.884017 36.508221 -0.004962
8.198758 36.508221 -0.006319
8.513499 36.508221 -0.007588
8.828240 36.508221 -0.008880
9.142982 36.508221 -0.008660
9.457723 36.508221 -0.016539
9.772464 36.508221 -0.018888
10.087205 36.508221 -0.024268
10.401946 36.508221 -0.033559
10.716687 36.508221 -0.054877
11.031426 36.508221 -0.075209
11.346168 36.508221 -0.076117
11.660909 36.508221 -0.082209
11.975650 36.508221 -0.062912
12.290391 36.508221 -0.041939
12.605132 36.508221 -0.016635
12.919873 36.508221 -0.010215
13.234614 36.508221 -0.002267
13.549356 36.508221 -0.008227
13.864097 36.508221 0.003747
14.178838 36.508221 0.001020
14.493579 36.508221 -0.010128
14.808320 36.508221 0.015387
15.123059 36.508221 0.192105
15.437800 36.508221 0.486999
15.752542 36.508221 0.747928
16.067284 36.508221 0.000000
16.382023 36.508221 0.000000
16.696766 36.508221 0.000000
17.011505 36.508221 0.000000
17.326248 36.508221 0.000000
17.640987 36.508221 0.000000
17.955730 36.508221 0.000000
18.270470 36.508221 0.000000
18.585213 36.508221 0.000000
18.899952 36.508221 0.000000
-7.223550 36.193481 0.000000
-6.908809 36.193481 0.000000
-6.594068 36.193481 0.000754
-6.279327 36.193481 -0.000822
-5.964586 36.193481 -0.000651
-5.649845 36.193481 -0.000562
-5.335104 36.193481 -0.000490
-5.020363 36.193481 -0.000340
-4.705622 36.193481 -0.000138
-4.390881 36.193481 0.000071
-4.076140 36.193481 0.000186
-3.761399 36.193481 0.000495
-3.446658 36.193481 0.000794
-3.131917 36.193481 0.001007
-2.817176 36.193481 0.001060
-2.502435 36.193481 0.001087
-2.187694 36.193481 0.000862
-1.872953 36.193481 0.000491
-1.558212 36.193481 0.000165
-1.243471 36.193481 -0.000219
-0.928730 36.193481 -0.000472
-0.613989 36.193481 -0.000491
-0.299248 36.193481 -0.000404
0.015493 36.193481 -0.000011
0.330234 36.193481 0.000290
0.644975 36.193481 0.000232
0.959716 36.193481 -0.000131
1.274457 36.193481 -0.000428
1.589198 36.193481 -0.000475
1.903938 36.193481 -0.000550
2.218679 36.193481 -0.000621
2.533421 36.193481 -0.000752
2.848162 36.193481 -0.000717
3.162903 36.193481 -0.000656
3.477644 36.193481 -0.000902
3.792385 36.193481 -0.001316
4.107125 36.193481 -0.001429
4.421866 36.193481 -0.001302
4.736608 36.193481 -0.001057
5.051349 36.193481 -0.000639
5.366090 36.193481 0.000152
5.680831 36.193481 0.000787
5.995571 36.193481 0.000982
6.310312 36.193481 0.000854
6.625053 36.193481 0.000316
6.939795 36.193481 -0.000690
7.254536 36.193481 -0.002048
7.569277 36.193481 -0.003842
7.884017 36.193481 -0.004944
8.198758 36.193481 -0.006025
8.513499 36.193481 -0.007118
8.828240 36.193481 -0.006861
9.142982 36.193481 -0.009776
9.457723 36.193481 -0.016219
9.772464 36.193481 -0.023460
10.087205 36.193481 -0.027040
10.401946 36.193481 -0.034692
10.716687 36.193481 -0.046522
11.031426 36.193481 -0.064076
11.346168 36.193481 -0.079909
11.660909 36.193481 -0.077291
11.975650 36.193481 -0.075123
12.290391 36.193481 -0.069345
12.605132 36.193481 -0.040259
12.919873 36.193481 -0.013640
13.234614 36.193481 -0.014913
13.549356 36.193481 -0.005568
13.864097 36.193481 -0.007518
14.178838 36.193481 -0.000262
14.493579 36.193481 -0.004790
14.808320 36.193481 0.035867
15.123059 36.193481 0.172783
15.437800 36.193481 0.479287
15.752542 36.193481 0.707342
16.067284 36.193481 0.000000
16.382023 36.193481 0.000000
16.696766 36.193481 0.000000
17.011505 36.193481 0.000000
17.326248 36.193481 0.000000
17.640987 36.193481 0.000000
17.955730 36.193481 0.000000
18.270470 36.193481 0.000000
18.585213 36.193481 0.000000
18.899952 36.193481 0.000000
-7.223550 35.878738 0.000000
-6.908809 35.878738 0.000000
-6.594068 35.878738 0.000812
-6.279327 35.878738 -0.000636
-5.964586 35.878738 -0.000377
-5.649845 35.878738 -0.000285
-5.335104 35.878738 -0.000253
-5.020363 35.878738 -0.000112
-4.705622 35.878738 0.000012
-4.390881 35.878738 0.000068
-4.076140 35.878738 0.000043
-3.761399 35.878738 0.000237
-3.446658 35.878738 0.000686
-3.131917 35.878738 0.000907
-2.817176 35.878738 0.000873
-2.502435 35.878738 0.000801
-2.187694 35.878738 0.000545
-1.872953 35.878738 0.000243
-1.558212 35.878738 0.000065
-1.243471 35.878738 -0.000228
-0.928730 35.878738 -0.000438
-0.613989 35.878738 -0.000442
-0.299248 35.878738 -0.000261
0.015493 35.878738 0.000193
0.330234 35.878738 0.000532
0.644975 35.878738 0.000477
0.959716 35.878738 0.000165
1.274457 35.878738 -0.000127
1.589198 35.878738 -0.000313
1.903938 35.878738 -0.000514
2.218679 35.878738 -0.000635
2.533421 35.878738 -0.000791
2.848162 35.878738 -0.000836
3.162903 35.878738 -0.000937
3.477644 35.878738 -0.001257
3.792385 35.878738 -0.001747
4.107125 35.878738 -0.001900
4.421866 35.878738 -0.001559
4.736608 35.878738 -0.001075
5.051349 35.878738 -0.000491
5.366090 35.878738 0.000463
5.680831 35.878738 0.001252
5.995571 35.878738 0.001540
6.310312 35.878738 0.001353
6.625053 35.878738 0.000697
6.939795 35.878738 -0.000401
7.254536 35.878738 -0.001867
7.569277 35.878738 -0.004020
7.884017 35.878738 -0.005926
8.198758 35.878738 -0.006775
8.513499 35.878738 -0.006768
8.828240 35.878738 -0.007559
9.142982 35.878738 -0.011517
9.457723 35.878738 -0.018261
9.772464 35.878738 -0.025433
10.087205 35.878738 -0.035614
10.401946 35.878738 -0.040624
10.716687 35.878738 -0.045392
11.031426 35.878738 -0.073033
11.346168 35.878738 -0.081417
11.660909 35.878738 -0.076299
11.975650 35.878738 -0.079329
12.290391 35.878738 -0.065178
12.605132 35.878738 -0.034510
12.919873 35.878738 0.010327
13.234614 35.878738 0.007242
13.549356 35.878738 -0.012575
13.864097 35.878738 -0.006143
14.178838 35.878738 0.012983
14.493579 35.878738 -0.012758
14.808320 35.878738 0.032923
15.123059 35.878738 0.172302
15.437800 35.878738 0.497103
15.752542 35.878738 0.684355
16.067284 35.878738 0.000000
16.382023 35.878738 0.000000
16.696766 35.878738 0.000000
17.011505 35.878738 0.000000
17.326248 35.878738 0.000000
17.640987 35.878738 0.000000
17.955730 35.878738 0.000000
18.270470 35.878738 0.000000
18.585213 35.878738 0.000000
18.899952 35.878738 0.000000
-7.223550 35.563999 0.000000
-6.908809 35.563999 0.000000
-6.594068 35.563999 0.000972
-6.279327 35.563999 -0.000385
-5.964586 35.563999 -0.000127
-5.649845 35.563999 -0.000021
-5.335104 35.563999 -0.000048
-5.020363 35.563999 0.000065
-4.705622 35.563999 0.000132
-4.390881 35.563999 -0.000004
-4.076140 35.563999 -0.000124
-3.761399 35.563999 0.000076
-3.446658 35.563999 0.000563
-3.131917 35.563999 0.000763
-2.817176 35.563999 0.000735
-2.502435 35.563999 0.000566
-2.187694 35.563999 0.000244
-1.872953 35.563999 0.000004
-1.558212 35.563999 -0.000019
-1.243471 35.563999 -0.000236
-0.928730 35.563999 -0.000441
-0.613989 35.563999 -0.000392
-0.299248 35.563999 -0.000114
0.015493 35.563999 0.000392
0.330234 35.563999 0.000690
0.644975 35.563999 0.000675
0.959716 35.563999 0.000498
1.274457 35.563999 0.000194
1.589198 35.563999 -0.000177
1.903938 35.563999 -0.000547
2.218679 35.563999 -0.000736
2.533421 35.563999 -0.000908
2.848162 35.563999 -0.001072
3.162903 35.563999 -0.001250
3.477644 35.563999 -0.001544
3.792385 35.563999 -0.002122
4.107125 35.563999 -0.002247
4.421866 35.563999 -0.001736
4.736608 35.563999 -0.001025
5.051349 35.563999 -0.000263
5.366090 35.563999 0.000722
5.680831 35.563999 0.001665
5.995571 35.563999 0.002004
6.310312 35.563999 0.001742
6.625053 35.563999 0.000992
6.939795 35.563999 -0.000403
7.254536 35.563999 -0.002041
7.569277 35.563999 -0.004534
7.884017 35.563999 -0.006219
8.198758 35.563999 -0.008189
8.513499 35.563999 -0.007464
8.828240 35.563999 -0.008252
9.142982 35.563999 -0.013109
9.457723 35.563999 -0.019430
9.772464 35.563999 -0.026857
10.087205 35.563999 -0.037510
10.401946 35.563999 -0.049994
10.716687 35.563999 -0.054260
11.031426 35.563999 -0.055269
11.346168 35.563999 -0.069499
11.660909 35.563999 -0.075102
11.975650 35.563999 -0.054652
12.290391 35.563999 -0.028496
12.605132 35.563999 -0.020359
12.919873 35.563999 0.011765
13.234614 35.563999 0.014277
13.549356 35.563999 0.007042
13.864097 35.563999 0.009131
14.178838 35.563999 -0.035135
14.493579 35.563999 -0.010114
14.808320 35.563999 0.015040
15.123059 35.563999 0.186851
15.437800 35.563999 0.496960
15.752542 35.563999 0.707745
16.067284 35.563999 0.000000
16.382023 35.563999 0.000000
16.696766 35.563999 0.000000
17.011505 35.563999 0.000000
17.326248 35.563999 0.000000
17.640987 35.563999 0.000000
17.955730 35.563999 0.000000
18.270470 35.563999 0.000000
18.585213 35.563999 0.000000
18.899952 35.563999 0.000000
-7.223550 35.249256 0.000000
-6.908809 35.249256 0.000000
-6.594068 35.249256 0.001142
-6.279327 35.249256 -0.000165
-5.964586 35.249256 0.000083
-5.649845 35.249256 0.000196
-5.335104 35.249256 0.000127
-5.020363 35.249256 0.000180
-4.705622 35.249256 0.000180
-4.390881 35.249256 -0.000128
-4.076140 35.249256 -0.000290
-3.761399 35.249256 -0.000046
-3.446658 35.249256 0.000386
-3.131917 35.249256 0.000607
-2.817176 35.249256 0.000574
-2.502435 35.249256 0.000382
-2.187694 35.249256 0.000007
-1.872953 35.249256 -0.000247
-1.558212 35.249256 -0.000175
-1.243471 35.249256 -0.000263
-0.928730 35.249256 -0.000410
-0.613989 35.249256 -0.000254
-0.299248 35.249256 0.000175
0.015493 35.249256 0.000610
0.330234 35.249256 0.000862
0.644975 35.249256 0.000853
0.959716 35.249256 0.000751
1.274457 35.249256 0.000430
1.589198 35.249256 -0.000089
1.903938 35.249256 -0.000635
2.218679 35.249256 -0.000949
2.533421 35.249256 -0.001142
2.848162 35.249256 -0.001411
3.162903 35.249256 -0.001607
3.477644 35.249256 -0.001903
3.792385 35.249256 -0.002409
4.107125 35.249256 -0.002428
4.421866 35.249256 -0.001789
4.736608 35.249256 -0.000872
5.051349 35.249256 0.000032
5.366090 35.249256 0.000981
5.680831 35.249256 0.001870
5.995571 35.249256 0.002254
6.310312 35.249256 0.001960
6.625053 35.249256 0.001326
6.939795 35.249256 -0.000406
7.254536 35.249256 -0.002433
7.569277 35.249256 -0.005241
7.884017 35.249256 -0.006907
8.198758 35.249256 -0.008927
8.513499 35.249256 -0.010468
8.828240 35.249256 -0.010631
9.142982 35.249256 -0.016412
9.457723 35.249256 -0.022453
9.772464 35.249256 -0.023014
10.087205 35.249256 -0.034718
10.401946 35.249256 -0.052349
10.716687 35.249256 -0.057274
11.031426 35.249256 -0.071387
11.346168 35.249256 -0.082974
11.660909 35.249256 -0.069828
11.975650 35.249256 -0.055856
12.290391 35.249256 -0.036770
12.605132 35.249256 -0.021682
12.919873 35.249256 0.022144
13.234614 35.249256 0.003726
13.549356 35.249256 0.010515
13.864097 35.249256 -0.004364
14.178838 35.249256 -0.027552
14.493579 35.249256 -0.026468
14.808320 35.249256 0.033841
15.123059 35.249256 0.185466
15.437800 35.249256 0.417507
15.752542 35.249256 0.769063
16.067284 35.249256 0.000000
16.382023 35.249256 0.000000
16.696766 35.249256 0.000000
17.011505 35.249256 0.000000
17.326248 35.249256 0.000000
17.640987 35.249256 0.000000
17.955730 35.249256 0.000000
18.270470 35.249256 0.000000
18.585213 35.249256 0.000000
18.899952 35.249256 0.000000
-7.223550 34.934517 0.000000
-6.908809 34.934517 0.000000
-6.594068 34.934517 0.001354
-6.279327 34.934517 0.000059
-5.964586 34.934517 0.000323
-5.649845 34.934517 0.000364
-5.335104 34.934517 0.000285
-5.020363 34.934517 0.000299
-4.705622 34.934517 0.000219
-4.390881 34.934517 -0.000204
-4.076140 34.934517 -0.000384
-3.761399 34.934517 -0.000147
-3.446658 34.934517 0.000140
-3.131917 34.934517 0.000378
-2.817176 34.934517 0.000328
-2.502435 34.934517 0.000139
-2.187694 34.934517 -0.000274
-1.872953 34.934517 -0.000526
-1.558212 34.934517 -0.000412
-1.243471 34.934517 -0.000411
-0.928730 34.934517 -0.000375
-0.613989 34.934517 0.000002
-0.299248 34.934517 0.000527
0.015493 34.934517 0.000896
0.330234 34.934517 0.001059
0.644975 34.934517 0.001042
0.959716 34.934517 0.000962
1.274457 34.934517 0.000570
1.589198 34.934517 -0.000012
1.903938 34.934517 -0.000719
2.218679 34.934517 -0.001227
2.533421 34.934517 -0.001526
2.848162 34.934517 -0.001855
3.162903 34.934517 -0.002062
3.477644 34.934517 -0.002293
3.792385 34.934517 -0.002583
4.107125 34.934517 -0.002428
4.421866 34.934517 -0.001659
4.736608 34.934517 -0.000543
5.051349 34.934517 0.000455
5.366090 34.934517 0.001210
5.680831 34.934517 0.001899
5.995571 34.934517 0.002263
6.310312 34.934517 0.002021
6.625053 34.934517 0.001172
6.939795 34.934517 -0.000502
7.254536 34.934517 -0.002930
7.569277 34.934517 -0.006071
7.884017 34.934517 -0.007934
8.198758 34.934517 -0.008061
8.513499 34.934517 -0.009508
8.828240 34.934517 -0.011737
9.142982 34.934517 -0.014907
9.457723 34.934517 -0.022777
9.772464 34.934517 -0.025434
10.087205 34.934517 -0.031552
10.401946 34.934517 -0.046840
10.716687 34.934517 -0.061572
11.031426 34.934517 -0.078173
11.346168 34.934517 -0.078331
11.660909 34.934517 -0.075546
11.975650 34.934517 -0.071096
12.290391 34.934517 -0.046394
12.605132 34.934517 -0.016319
12.919873 34.934517 0.008028
13.234614 34.934517 -0.005831
13.549356 34.934517 -0.006483
13.864097 34.934517 -0.015682
14.178838 34.934517 -0.010466
14.493579 34.934517 0.009110
14.808320 34.934517 0.035047
15.123059 34.934517 0.145819
15.437800 34.934517 0.422328
15.752542 34.934517 0.719538
16.067284 34.934517 0.000000
16.382023 34.934517 0.000000
16.696766 34.934517 0.000000
17.011505 34.934517 0.000000
17.326248 34.934517 0.000000
17.640987 34.934517 0.000000
17.955730 34.934517 0.000000
18.270470 34.934517 0.000000
18.585213 34.934517 0.000000
18.899952 34.934517 0.000000
-7.223550 34.619774 0.000000
-6.908809 34.619774 0.000000
-6.594068 34.619774 0.001507
-6.279327 34.619774 0.000275
-5.964586 34.619774 0.000499
-5.649845 34.619774 0.000496
-5.335104 34.619774 0.000486
-5.020363 34.619774 0.000528
-4.705622 34.619774 0.000393
-4.390881 34.619774 -0.000067
-4.076140 34.619774 -0.000321
-3.761399 34.619774 -0.000247
-3.446658 34.619774 -0.000115
-3.131917 34.619774 0.000012
-2.817176 34.619774 -0.000001
-2.502435 34.619774 -0.000191
-2.187694 34.619774 -0.000542
-1.872953 34.619774 -0.000784
-1.558212 34.619774 -0.000657
-1.243471 34.619774 -0.000530
-0.928730 34.619774 -0.000314
-0.613989 34.619774 0.000310
-0.299248 34.619774 0.000880
0.015493 34.619774 0.001142
0.330234 34.619774 0.001284
0.644975 34.619774 0.001305
0.959716 34.619774 0.001199
1.274457 34.619774 0.000725
1.589198 34.619774 0.000030
1.903938 34.619774 -0.000821
2.218679 34.619774 -0.001541
2.533421 34.619774 -0.001940
2.848162 34.619774 -0.002358
3.162903 34.619774 -0.002593
3.477644 34.619774 -0.002688
3.792385 34.619774 -0.002624
4.107125 34.619774 -0.002230
4.421866 34.619774 -0.001363
4.736608 34.619774 -0.000093
5.051349 34.619774 0.000941
5.366090 34.619774 0.001520
5.680831 34.619774 0.001955
5.995571 34.619774 0.002189
6.310312 34.619774 0.001887
6.625053 34.619774 0.000906
6.939795 34.619774 -0.001035
7.254536 34.619774 -0.003571
7.569277 34.619774 -0.006403
7.884017 34.619774 -0.008737
8.198758 34.619774 -0.010158
8.513499 34.619774 -0.010629
8.828240 34.619774 -0.010538
9.142982 34.619774 -0.015437
9.457723 34.619774 -0.023232
9.772464 34.619774 -0.023587
10.087205 34.619774 -0.026815
10.401946 34.619774 -0.036361
10.716687 34.619774 -0.054528
11.031426 34.619774 -0.080631
11.346168 34.619774 -0.094429
11.660909 34.619774 -0.082675
11.975650 34.619774 -0.073285
12.290391 34.619774 -0.035446
12.605132 34.619774 -0.023248
12.919873 34.619774 -0.017776
13.234614 34.619774 -0.036411
13.549356 34.619774 -0.029175
13.864097 34.619774 -0.023788
14.178838 34.619774 -0.010604
14.493579 34.619774 0.026120
14.808320 34.619774 0.048072
15.123059 34.619774 0.165690
15.437800 34.619774 0.401008
15.752542 34.619774 0.694329
16.067284 34.619774 0.000000
16.382023 34.619774 0.000000
16.696766 34.619774 0.000000
17.011505 34.619774 0.000000
17.326248 34.619774 0.000000
17.640987 34.619774 0.000000
17.955730 34.619774 0.000000
18.270470 34.619774 0.000000
18.585213 34.619774 0.000000
18.899952 34.619774 0.000000
-7.223550 34.305035 0.000000
-6.908809 34.305035 0.000000
-6.594068 34.305035 0.001636
-6.279327 34.305035 0.000479
-5.964586 34.305035 0.000638
-5.649845 34.305035 0.000657
-5.335104 34.305035 0.000734
-5.020363 34.305035 0.000807
-4.705622 34.305035 0.000593
-4.390881 34.305035 0.000093
-4.076140 34.305035 -0.000209
-3.761399 34.305035 -0.000298
-3.446658 34.305035 -0.000347
-3.131917 34.305035 -0.000368
-2.817176 34.305035 -0.000383
-2.502435 34.305035 -0.000547
-2.187694 34.305035 -0.000890
-1.872953 34.305035 -0.001049
-1.558212 34.305035 -0.000849
-1.243471 34.305035 -0.000568
-0.928730 34.305035 -0.000124
-0.613989 34.305035 0.000601
-0.299248 34.305035 0.001136
0.015493 34.305035 0.001379
0.330234 34.305035 0.001503
0.644975 34.305035 0.001597
0.959716 34.305035 0.001439
1.274457 34.305035 0.000831
1.589198 34.305035 -0.000009
1.903938 34.305035 -0.000974
2.218679 34.305035 -0.001861
2.533421 34.305035 -0.002386
2.848162 34.305035 -0.002835
3.162903 34.305035 -0.003041
3.477644 34.305035 -0.002939
3.792385 34.305035 -0.002511
4.107125 34.305035 -0.001891
4.421866 34.305035 -0.000908
4.736608 34.305035 0.000469
5.051349 34.305035 0.001464
5.366090 34.305035 0.001862
5.680831 34.305035 0.002082
5.995571 34.305035 0.002053
6.310312 34.305035 0.001591
6.625053 34.305035 0.000452
6.939795 34.305035 -0.001508
7.254536 34.305035 -0.004602
7.569277 34.305035 -0.007132
7.884017 34.305035 -0.009374
8.198758 34.305035 -0.011379
8.513499 34.305035 -0.009293
8.828240 34.305035 -0.008400
9.142982 34.305035 -0.013909
9.457723 34.305035 -0.019226
9.772464 34.305035 -0.023345
10.087205 34.305035 -0.021737
10.401946 34.305035 -0.036275
10.716687 34.305035 -0.055746
11.031426 34.305035 -0.089249
11.346168 34.305035 -0.091020
11.660909 34.305035 -0.095644
11.975650 34.305035 -0.070032
12.290391 34.305035 -0.026802
12.605132 34.305035 -0.033821
12.919873 34.305035 -0.027747
13.234614 34.305035 -0.053984
13.549356 34.305035 -0.066032
13.864097 34.305035 -0.027247
14.178838 34.305035 -0.011034
14.493579 34.305035 0.018622
14.808320 34.305035 0.072756
15.123059 34.305035 0.148448
15.437800 34.305035 0.418204
15.752542 34.305035 0.734107
16.067284 34.305035 0.000000
16.382023 34.305035 0.000000
16.696766 34.305035 0.000000
17.011505 34.305035 0.000000
17.326248 34.305035 0.000000
17.640987 34.305035 0.000000
17.955730 34.305035 0.000000
18.270470 34.305035 0.000000
18.585213 34.305035 0.000000
18.899952 34.305035 0.000000
-7.223550 33.990295 0.000000
-6.908809 33.990295 0.000000
-6.594068 33.990295 0.001790
-6.279327 33.990295 0.000723
-5.964586 33.990295 0.000815
-5.649845 33.990295 0.000870
-5.335104 33.990295 0.000996
-5.020363 33.990295 0.001069
-4.705622 33.990295 0.000829
-4.390881 33.990295 0.000306
-4.076140 33.990295 -0.000064
-3.761399 33.990295 -0.000307
-3.446658 33.990295 -0.000499
-3.131917 33.990295 -0.000663
-2.817176 33.990295 -0.000755
-2.502435 33.990295 -0.000957
-2.187694 33.990295 -0.001227
-1.872953 33.990295 -0.001274
-1.558212 33.990295 -0.000972
-1.243471 33.990295 -0.000554
-0.928730 33.990295 0.000113
-0.613989 33.990295 0.000850
-0.299248 33.990295 0.001337
0.015493 33.990295 0.001561
0.330234 33.990295 0.001740
0.644975 33.990295 0.001810
0.959716 33.990295 0.001581
1.274457 33.990295 0.000825
1.589198 33.990295 -0.000176
1.903938 33.990295 -0.001213
2.218679 33.990295 -0.002189
2.533421 33.990295 -0.002872
2.848162 33.990295 -0.003275
3.162903 33.990295 -0.003440
3.477644 33.990295 -0.003076
3.792385 33.990295 -0.002288
4.107125 33.990295 -0.001382
4.421866 33.990295 -0.000301
4.736608 33.990295 0.001069
5.051349 33.990295 0.001994
5.366090 33.990295 0.002269
5.680831 33.990295 0.002248
5.995571 33.990295 0.001972
6.310312 33.990295 0.001288
6.625053 33.990295 -0.000151
6.939795 33.990295 -0.002323
7.254536 33.990295 -0.005281
7.569277 33.990295 -0.007681
7.884017 33.990295 -0.010221
8.198758 33.990295 -0.011273
8.513499 33.990295 -0.010170
8.828240 33.990295 -0.008046
9.142982 33.990295 -0.012108
9.457723 33.990295 -0.020877
9.772464 33.990295 -0.019296
10.087205 33.990295 -0.021584
10.401946 33.990295 -0.033673
10.716687 33.990295 -0.064499
11.031426 33.990295 -0.099629
11.346168 33.990295 -0.106532
11.660909 33.990295 -0.103390
11.975650 33.990295 -0.069712
12.290391 33.990295 -0.026624
12.605132 33.990295 -0.026617
12.919873 33.990295 -0.031731
13.234614 33.990295 -0.067421
13.549356 33.990295 -0.071380
13.864097 33.990295 -0.045120
14.178838 33.990295 -0.014290
14.493579 33.990295 0.022459
14.808320 33.990295 0.065871
15.123059 33.990295 0.169606
15.437800 33.990295 0.448525
15.752542 33.990295 0.853009
16.067284 33.990295 0.000000
16.382023 33.990295 0.000000
16.696766 33.990295 0.000000
17.011505 33.990295 0.000000
17.326248 33.990295 0.000000
17.640987 33.990295 0.000000
17.955730 33.990295 0.000000
18.270470 33.990295 0.000000
18.585213 33.990295 0.000000
18.899952 33.990295 0.000000
-7.223550 33.675552 0.000000
-6.908809 33.675552 0.000000
-6.594068 33.675552 0.002019
-6.279327 33.675552 0.000999
-5.964586 33.675552 0.001117
-5.649845 33.675552 0.001196
-5.335104 33.675552 0.001262
-5.020363 33.675552 0.001316
-4.705622 33.675552 0.001032
-4.390881 33.675552 0.000482
-4.076140 33.675552 -0.000018
-3.761399 33.675552 -0.000356
-3.446658 33.675552 -0.000702
-3.131917 33.675552 -0.000944
-2.817176 33.675552 -0.001107
-2.502435 33.675552 -0.001334
-2.187694 33.675552 -0.001547
-1.872953 33.675552 -0.001441
-1.558212 33.675552 -0.001009
-1.243471 33.675552 -0.000388
-0.928730 33.675552 0.000375
-0.613989 33.675552 0.001095
-0.299248 33.675552 0.001522
0.015493 33.675552 0.001750
0.330234 33.675552 0.001923
0.644975 33.675552 0.001960
0.959716 33.675552 0.001606
1.274457 33.675552 0.000697
1.589198 33.675552 -0.000427
1.903938 33.675552 -0.001531
2.218679 33.675552 -0.002585
2.533421 33.675552 -0.003384
2.848162 33.675552 -0.003750
3.162903 33.675552 -0.003706
3.477644 33.675552 -0.003048
3.792385 33.675552 -0.001906
4.107125 33.675552 -0.000758
4.421866 33.675552 0.000401
4.736608 33.675552 0.001681
5.051349 33.675552 0.002471
5.366090 33.675552 0.002672
5.680831 33.675552 0.002394
5.995571 33.675552 0.001848
6.310312 33.675552 0.000829
6.625053 33.675552 -0.000905
6.939795 33.675552 -0.003109
7.254536 33.675552 -0.005513
7.569277 33.675552 -0.008058
7.884017 33.675552 -0.010131
8.198758 33.675552 -0.010953
8.513499 33.675552 -0.010758
8.828240 33.675552 -0.010222
9.142982 33.675552 -0.014048
9.457723 33.675552 -0.017751
9.772464 33.675552 -0.019626
10.087205 33.675552 -0.025681
10.401946 33.675552 -0.041579
10.716687 33.675552 -0.066019
11.031426 33.675552 -0.092649
11.346168 33.675552 -0.108339
11.660909 33.675552 -0.091993
11.975650 33.675552 -0.052566
12.290391 33.675552 -0.026704
12.605132 33.675552 -0.012044
12.919873 33.675552 -0.039020
13.234614 33.675552 -0.044075
13.549356 33.675552 -0.057303
13.864097 33.675552 -0.039131
14.178838 33.675552 -0.011006
14.493579 33.675552 0.009092
14.808320 33.675552 0.049984
15.123059 33.675552 0.168950
15.437800 33.675552 0.430786
15.752542 33.675552 0.647913
16.067284 33.675552 0.000000
16.382023 33.675552 0.000000
16.696766 33.675552 0.000000
17.011505 33.675552 0.000000
17.326248 33.675552 0.000000
17.640987 33.675552 0.000000
17.955730 33.675552 0.000000
18.270470 33.675552 0.000000
18.585213 33.675552 0.000000
18.899952 33.675552 0.000000
-7.223550 33.360809 0.000000
-6.908809 33.360809 0.000000
-6.594068 33.360809 0.002335
-6.279327 33.360809 0.001460
-5.964586 33.360809 0.001621
-5.649845 33.360809 0.001624
-5.335104 33.360809 0.001574
-5.020363 33.360809 0.001547
-4.705622 33.360809 0.001222
-4.390881 33.360809 0.000560
-4.076140 33.360809 -0.000106
-3.761399 33.360809 -0.000540
-3.446658 33.360809 -0.000945
-3.131917 33.360809 -0.001215
-2.817176 33.360809 -0.001421
-2.502435 33.360809 -0.001650
-2.187694 33.360809 -0.001768
-1.872953 33.360809 -0.001482
-1.558212 33.360809 -0.000884
-1.243471 33.360809 -0.000157
-0.928730 33.360809 0.000732
-0.613989 33.360809 0.001388
-0.299248 33.360809 0.001732
0.015493 33.360809 0.001979
0.330234 33.360809 0.002083
0.644975 33.360809 0.001958
0.959716 33.360809 0.001408
1.274457 33.360809 0.000398
1.589198 33.360809 -0.000790
1.903938 33.360809 -0.001954
2.218679 33.360809 -0.003096
2.533421 33.360809 -0.003826
2.848162 33.360809 -0.004053
3.162903 33.360809 -0.003702
3.477644 33.360809 -0.002743
3.792385 33.360809 -0.001302
4.107125 33.360809 0.000071
4.421866 33.360809 0.001270
4.736608 33.360809 0.002276
5.051349 33.360809 0.002878
5.366090 33.360809 0.002899
5.680831 33.360809 0.002419
5.995571 33.360809 0.001538
6.310312 33.360809 0.000153
6.625053 33.360809 -0.001703
6.939795 33.360809 -0.004040
7.254536 33.360809 -0.006668
7.569277 33.360809 -0.008748
7.884017 33.360809 -0.009834
8.198758 33.360809 -0.009886
8.513499 33.360809 -0.010834
8.828240 33.360809 -0.010338
9.142982 33.360809 -0.009757
9.457723 33.360809 -0.011605
9.772464 33.360809 -0.017007
10.087205 33.360809 -0.029768
10.401946 33.360809 -0.042556
10.716687 33.360809 -0.062358
11.031426 33.360809 -0.069653
11.346168 33.360809 -0.090691
11.660909 33.360809 -0.087614
11.975650 33.360809 -0.040158
12.290391 33.360809 0.000630
12.605132 33.360809 -0.004733
12.919873 33.360809 -0.024726
13.234614 33.360809 -0.035094
13.549356 33.360809 -0.042292
13.864097 33.360809 -0.029126
14.178838 33.360809 0.002667
14.493579 33.360809 0.019660
14.808320 33.360809 0.040838
15.123059 33.360809 0.159650
15.437800 33.360809 0.433020
15.752542 33.360809 0.750772
16.067284 33.360809 0.000000
16.382023 33.360809 0.000000
16.696766 33.360809 0.000000
17.011505 33.360809 0.000000
17.326248 33.360809 0.000000
17.640987 33.360809 0.000000
17.955730 33.360809 0.000000
18.270470 33.360809 0.000000
18.585213 33.360809 0.000000
18.899952 33.360809 0.000000
-7.223550 33.046070 0.000000
-6.908809 33.046070 0.000000
-6.594068 33.046070 0.002729
-6.279327 33.046070 0.001928
-5.964586 33.046070 0.002152
-5.649845 33.046070 0.002031
-5.335104 33.046070 0.001878
-5.020363 33.046070 0.001710
-4.705622 33.046070 0.001302
-4.390881 33.046070 0.000474
-4.076140 33.046070 -0.000323
-3.761399 33.046070 -0.000889
-3.446658 33.046070 -0.001260
-3.131917 33.046070 -0.001506
-2.817176 33.046070 -0.001678
-2.502435 33.046070 -0.001811
-2.187694 33.046070 -0.001769
-1.872953 33.046070 -0.001377
-1.558212 33.046070 -0.000647
-1.243471 33.046070 0.000212
-0.928730 33.046070 0.001184
-0.613989 33.046070 0.001821
-0.299248 33.046070 0.002115
0.015493 33.046070 0.002242
0.330234 33.046070 0.002204
0.644975 33.046070 0.001831
0.959716 33.046070 0.000989
1.274457 33.046070 -0.000125
1.589198 33.046070 -0.001318
1.903938 33.046070 -0.002496
2.218679 33.046070 -0.003575
2.533421 33.046070 -0.004169
2.848162 33.046070 -0.004166
3.162903 33.046070 -0.003429
3.477644 33.046070 -0.002174
3.792385 33.046070 -0.000571
4.107125 33.046070 0.000936
4.421866 33.046070 0.002068
4.736608 33.046070 0.002778
5.051349 33.046070 0.003184
5.366090 33.046070 0.003073
5.680831 33.046070 0.002386
5.995571 33.046070 0.001135
6.310312 33.046070 -0.000514
6.625053 33.046070 -0.002727
6.939795 33.046070 -0.004932
7.254536 33.046070 -0.007465
7.569277 33.046070 -0.009235
7.884017 33.046070 -0.008958
8.198758 33.046070 -0.008879
8.513499 33.046070 -0.009290
8.828240 33.046070 -0.009219
9.142982 33.046070 -0.007312
9.457723 33.046070 -0.009897
9.772464 33.046070 -0.020614
10.087205 33.046070 -0.023068
10.401946 33.046070 -0.037626
10.716687 33.046070 -0.057286
11.031426 33.046070 -0.068189
11.346168 33.046070 -0.077213
11.660909 33.046070 -0.073916
11.975650 33.046070 -0.057352
12.290391 33.046070 -0.019737
12.605132 33.046070 -0.021703
12.919873 33.046070 -0.016824
13.234614 33.046070 -0.042052
13.549356 33.046070 -0.036127
13.864097 33.046070 -0.026733
14.178838 33.046070 0.002733
14.493579 33.046070 -0.006771
14.808320 33.046070 0.024203
15.123059 33.046070 0.111132
15.437800 33.046070 0.383920
15.752542 33.046070 0.750700
16.067284 33.046070 0.000000
16.382023 33.046070 0.000000
16.696766 33.046070 0.000000
17.011505 33.046070 0.000000
17.326248 33.046070 0.000000
17.640987 33.046070 0.000000
17.955730 33.046070 0.000000
18.270470 33.046070 0.000000
18.585213 33.046070 0.000000
18.899952 33.046070 0.000000
-7.223550 32.731331 0.000000
-6.908809 32.731331 0.000000
-6.594068 32.731331 0.003121
-6.279327 32.731331 0.002364
-5.964586 32.731331 0.002636
-5.649845 32.731331 0.002439
-5.335104 32.731331 0.002115
-5.020363 32.731331 0.001756
-4.705622 32.731331 0.001217
-4.390881 32.731331 0.000302
-4.076140 32.731331 -0.000623
-3.761399 32.731331 -0.001300
-3.446658 32.731331 -0.001645
-3.131917 32.731331 -0.001827
-2.817176 32.731331 -0.001909
-2.502435 32.731331 -0.001799
-2.187694 32.731331 -0.001542
-1.872953 32.731331 -0.001008
-1.558212 32.731331 -0.000212
-1.243471 32.731331 0.000771
-0.928730 32.731331 0.001730
-0.613989 32.731331 0.002300
-0.299248 32.731331 0.002597
0.015493 32.731331 0.002551
0.330234 32.731331 0.002259
0.644975 32.731331 0.001523
0.959716 32.731331 0.000418
1.274457 32.731331 -0.000835
1.589198 32.731331 -0.002030
1.903938 32.731331 -0.003085
2.218679 32.731331 -0.003939
2.533421 32.731331 -0.004321
2.848162 32.731331 -0.003996
3.162903 32.731331 -0.002879
3.477644 32.731331 -0.001390
3.792385 32.731331 0.000153
4.107125 32.731331 0.001647
4.421866 32.731331 0.002626
4.736608 32.731331 0.003117
5.051349 32.731331 0.003389
5.366090 32.731331 0.003062
5.680831 32.731331 0.002078
5.995571 32.731331 0.000574
6.310312 32.731331 -0.001377
6.625053 32.731331 -0.003626
6.939795 32.731331 -0.005979
7.254536 32.731331 -0.007938
7.569277 32.731331 -0.009322
7.884017 32.731331 -0.008695
8.198758 32.731331 -0.008580
8.513499 32.731331 -0.006976
8.828240 32.731331 -0.003854
9.142982 32.731331 -0.003927
9.457723 32.731331 -0.011478
9.772464 32.731331 -0.022886
10.087205 32.731331 -0.023097
10.401946 32.731331 -0.029806
10.716687 32.731331 -0.048431
11.031426 32.731331 -0.066915
11.346168 32.731331 -0.070441
11.660909 32.731331 -0.063149
11.975650 32.731331 -0.055755
12.290391 32.731331 -0.033870
12.605132 32.731331 -0.019240
12.919873 32.731331 -0.024919
13.234614 32.731331 -0.022578
13.549356 32.731331 -0.033015
13.864097 32.731331 -0.025727
14.178838 32.731331 -0.010779
14.493579 32.731331 -0.021666
14.808320 32.731331 0.014198
15.123059 32.731331 0.088583
15.437800 32.731331 0.378661
15.752542 32.731331 0.725134
16.067284 32.731331 0.000000
16.382023 32.731331 0.000000
16.696766 32.731331 0.000000
17.011505 32.731331 0.000000
17.326248 32.731331 0.000000
17.640987 32.731331 0.000000
17.955730 32.731331 0.000000
18.270470 32.731331 0.000000
18.585213 32.731331 0.000000
18.899952 32.731331 0.000000
-7.223550 32.416588 0.000000
-6.908809 32.416588 0.000000
-6.594068 32.416588 0.003466
-6.279327 32.416588 0.002689
-5.964586 32.416588 0.002999
-5.649845 32.416588 0.002723
-5.335104 32.416588 0.002176
-5.020363 32.416588 0.001633
-4.705622 32.416588 0.000941
-4.390881 32.416588 -0.000043
-4.076140 32.416588 -0.001021
-3.761399 32.416588 -0.001785
-3.446658 32.416588 -0.002025
-3.131917 32.416588 -0.002129
-2.817176 32.416588 -0.002060
-2.502435 32.416588 -0.001691
-2.187694 32.416588 -0.001112
-1.872953 32.416588 -0.000407
-1.558212 32.416588 0.000488
-1.243471 32.416588 0.001411
-0.928730 32.416588 0.002280
-0.613989 32.416588 0.002770
-0.299248 32.416588 0.003032
0.015493 32.416588 0.002781
0.330234 32.416588 0.002134
0.644975 32.416588 0.001075
0.959716 32.416588 -0.000256
1.274457 32.416588 -0.001664
1.589198 32.416588 -0.002830
1.903938 32.416588 -0.003668
2.218679 32.416588 -0.004157
2.533421 32.416588 -0.004152
2.848162 32.416588 -0.003464
3.162903 32.416588 -0.002065
3.477644 32.416588 -0.000473
3.792385 32.416588 0.000942
4.107125 32.416588 0.002225
4.421866 32.416588 0.002978
4.736608 32.416588 0.003294
5.051349 32.416588 0.003405
5.366090 32.416588 0.002857
5.680831 32.416588 0.001561
5.995571 32.416588 -0.000286
6.310312 32.416588 -0.002494
6.625053 32.416588 -0.004771
6.939795 32.416588 -0.006992
7.254536 32.416588 -0.008426
7.569277 32.416588 -0.008628
7.884017 32.416588 -0.008112
8.198758 32.416588 -0.007776
8.513499 32.416588 -0.006180
8.828240 32.416588 -0.002027
9.142982 32.416588 -0.006780
9.457723 32.416588 -0.011090
9.772464 32.416588 -0.016346
10.087205 32.416588 -0.026206
10.401946 32.416588 -0.025930
10.716687 32.416588 -0.044788
11.031426 32.416588 -0.062171
11.346168 32.416588 -0.076912
11.660909 32.416588 -0.067628
11.975650 32.416588 -0.052881
12.290391 32.416588 -0.047554
12.605132 32.416588 -0.031015
12.919873 32.416588 -0.010564
13.234614 32.416588 -0.012239
13.549356 32.416588 -0.037805
13.864097 32.416588 -0.022845
14.178838 32.416588 -0.042098
14.493579 32.416588 -0.020897
14.808320 32.416588 0.001999
15.123059 32.416588 0.102308
15.437800 32.416588 0.336511
15.752542 32.416588 0.742426
16.067284 32.416588 0.000000
16.382023 32.416588 0.000000
16.696766 32.416588 0.000000
17.011505 32.416588 0.000000
17.326248 32.416588 0.000000
17.640987 32.416588 0.000000
17.955730 32.416588 0.000000
18.270470 32.416588 0.000000
18.585213 32.416588 0.000000
18.899952 32.416588 0.000000
-7.223550 32.101845 0.000000
-6.908809 32.101845 0.000000
-6.594068 32.101845 0.003633
-6.279327 32.101845 0.002857
-5.964586 32.101845 0.003112
-5.649845 32.101845 0.002764
-5.335104 32.101845 0.002026
-5.020363 32.101845 0.001281
-4.705622 32.101845 0.000456
-4.390881 32.101845 -0.000539
-4.076140 32.101845 -0.001500
-3.761399 32.101845 -0.002239
-3.446658 32.101845 -0.002419
-3.131917 32.101845 -0.002319
-2.817176 32.101845 -0.002019
-2.502435 32.101845 -0.001364
-2.187694 32.101845 -0.000505
-1.872953 32.101845 0.000388
-1.558212 32.101845 0.001297
-1.243471 32.101845 0.002136
-0.928730 32.101845 0.002795
-0.613989 32.101845 0.003112
-0.299248 32.101845 0.003252
0.015493 32.101845 0.002828
0.330234 32.101845 0.001846
0.644975 32.101845 0.000489
0.959716 32.101845 -0.001044
1.274457 32.101845 -0.002494
1.589198 32.101845 -0.003593
1.903938 32.101845 -0.004103
2.218679 32.101845 -0.004148
2.533421 32.101845 -0.003684
2.848162 32.101845 -0.002642
3.162903 32.101845 -0.001126
3.477644 32.101845 0.000504
3.792385 32.101845 0.001733
4.107125 32.101845 0.002705
4.421866 32.101845 0.003179
4.736608 32.101845 0.003255
5.051349 32.101845 0.003098
5.366090 32.101845 0.002345
5.680831 32.101845 0.000868
5.995571 32.101845 -0.001196
6.310312 32.101845 -0.003614
6.625053 32.101845 -0.005824
6.939795 32.101845 -0.007520
7.254536 32.101845 -0.008247
7.569277 32.101845 -0.007509
7.884017 32.101845 -0.006779
8.198758 32.101845 -0.005349
8.513499 32.101845 -0.004345
8.828240 32.101845 -0.006089
9.142982 32.101845 -0.005619
9.457723 32.101845 -0.011103
9.772464 32.101845 -0.015638
10.087205 32.101845 -0.024851
10.401946 32.101845 -0.034611
10.716687 32.101845 -0.053022
11.031426 32.101845 -0.066666
11.346168 32.101845 -0.080200
11.660909 32.101845 -0.059329
11.975650 32.101845 -0.047513
12.290391 32.101845 -0.039954
12.605132 32.101845 -0.040336
12.919873 32.101845 -0.023714
13.234614 32.101845 -0.038267
13.549356 32.101845 -0.017104
13.864097 32.101845 -0.016084
14.178838 32.101845 -0.027700
14.493579 32.101845 -0.000229
14.808320 32.101845 -0.022255
15.123059 32.101845 0.131449
15.437800 32.101845 0.354110
15.752542 32.101845 0.694884
16.067284 32.101845 0.000000
16.382023 32.101845 0.000000
16.696766 32.101845 0.000000
17.011505 32.101845 0.000000
17.326248 32.101845 0.000000
17.640987 32.101845 0.000000
17.955730 32.101845 0.000000
18.270470 32.101845 0.000000
18.585213 32.101845 0.000000
18.899952 32.101845 0.000000
-7.223550 31.787106 0.000000
-6.908809 31.787106 0.000000
-6.594068 31.787106 0.003743
-6.279327 31.787106 0.002904
-5.964586 31.787106 0.003013
-5.649845 31.787106 0.002518
-5.335104 31.787106 0.001600
-5.020363 31.787106 0.000795
-4.705622 31.787106 -0.000126
-4.390881 31.787106 -0.001120
-4.076140 31.787106 -0.002082
-3.761399 31.787106 -0.002705
-3.446658 31.787106 -0.002690
-3.131917 31.787106 -0.002297
-2.817176 31.787106 -0.001689
-2.502435 31.787106 -0.000768
-2.187694 31.787106 0.000238
-1.872953 31.787106 0.001236
-1.558212 31.787106 0.002092
-1.243471 31.787106 0.002718
-0.928730 31.787106 0.003141
-0.613989 31.787106 0.003279
-0.299248 31.787106 0.003192
0.015493 31.787106 0.002604
0.330234 31.787106 0.001373
0.644975 31.787106 -0.000239
0.959716 31.787106 -0.001922
1.274457 31.787106 -0.003329
1.589198 31.787106 -0.004198
1.903938 31.787106 -0.004370
2.218679 31.787106 -0.003859
2.533421 31.787106 -0.002862
2.848162 31.787106 -0.001591
3.162903 31.787106 -0.000034
3.477644 31.787106 0.001422
3.792385 31.787106 0.002369
4.107125 31.787106 0.003052
4.421866 31.787106 0.003232
4.736608 31.787106 0.003008
5.051349 31.787106 0.002522
5.366090 31.787106 0.001505
5.680831 31.787106 -0.000102
5.995571 31.787106 -0.002223
6.310312 31.787106 -0.004545
6.625053 31.787106 -0.006635
6.939795 31.787106 -0.007956
7.254536 31.787106 -0.007864
7.569277 31.787106 -0.006675
7.884017 31.787106 -0.005361
8.198758 31.787106 -0.003572
8.513499 31.787106 -0.003252
8.828240 31.787106 -0.002794
9.142982 31.787106 -0.008130
9.457723 31.787106 -0.013602
9.772464 31.787106 -0.012066
10.087205 31.787106 -0.024609
10.401946 31.787106 -0.038782
10.716687 31.787106 -0.051542
11.031426 31.787106 -0.071606
11.346168 31.787106 -0.078858
11.660909 31.787106 -0.073337
11.975650 31.787106 -0.062841
12.290391 31.787106 -0.048640
12.605132 31.787106 -0.029835
12.919873 31.787106 -0.019895
13.234614 31.787106 -0.026890
13.549356 31.787106 -0.020220
13.864097 31.787106 -0.002096
14.178838 31.787106 -0.010785
14.493579 31.787106 -0.007574
14.808320 31.787106 0.018605
15.123059 31.787106 0.127711
15.437800 31.787106 0.348229
15.752542 31.787106 0.721543
16.067284 31.787106 0.000000
16.382023 31.787106 0.000000
16.696766 31.787106 0.000000
17.011505 31.787106 0.000000
17.326248 31.787106 0.000000
17.640987 31.787106 0.000000
17.955730 31.787106 0.000000
18.270470 31.787106 0.000000
18.585213 31.787106 0.000000
18.899952 31.787106 0.000000
-7.223550 31.472364 0.000000
-6.908809 31.472364 0.000000
-6.594068 31.472364 0.003961
-6.279327 31.472364 0.002841
-5.964586 31.472364 0.002726
-5.649845 31.472364 0.001974
-5.335104 31.472364 0.000977
-5.020363 31.472364 0.000172
-4.705622 31.472364 -0.000715
-4.390881 31.472364 -0.001712
-4.076140 31.472364 -0.002580
-3.761399 31.472364 -0.002981
-3.446658 31.472364 -0.002720
-3.131917 31.472364 -0.002000
-2.817176 31.472364 -0.001018
-2.502435 31.472364 0.000093
-2.187694 31.472364 0.001095
-1.872953 31.472364 0.002074
-1.558212 31.472364 0.002788
-1.243471 31.472364 0.003201
-0.928730 31.472364 0.003371
-0.613989 31.472364 0.003248
-0.299248 31.472364 0.002951
0.015493 31.472364 0.002115
0.330234 31.472364 0.000649
0.644975 31.472364 -0.001149
0.959716 31.472364 -0.002855
1.274457 31.472364 -0.004071
1.589198 31.472364 -0.004565
1.903938 31.472364 -0.004312
2.218679 31.472364 -0.003305
2.533421 31.472364 -0.001877
2.848162 31.472364 -0.000394
3.162903 31.472364 0.001035
3.477644 31.472364 0.002203
3.792385 31.472364 0.002868
4.107125 31.472364 0.003241
4.421866 31.472364 0.003097
4.736608 31.472364 0.002545
5.051349 31.472364 0.001641
5.366090 31.472364 0.000271
5.680831 31.472364 -0.001383
5.995571 31.472364 -0.003399
6.310312 31.472364 -0.005364
6.625053 31.472364 -0.006939
6.939795 31.472364 -0.007485
7.254536 31.472364 -0.006772
7.569277 31.472364 -0.005738
7.884017 31.472364 -0.004129
8.198758 31.472364 -0.002543
8.513499 31.472364 -0.002317
8.828240 31.472364 -0.003061
9.142982 31.472364 -0.007140
9.457723 31.472364 -0.014132
9.772464 31.472364 -0.023421
10.087205 31.472364 -0.030543
10.401946 31.472364 -0.034922
10.716687 31.472364 -0.049056
11.031426 31.472364 -0.065220
11.346168 31.472364 -0.084028
11.660909 31.472364 -0.094514
11.975650 31.472364 -0.080114
12.290391 31.472364 -0.033846
12.605132 31.472364 -0.006750
12.919873 31.472364 -0.025854
13.234614 31.472364 -0.031291
13.549356 31.472364 -0.039864
13.864097 31.472364 -0.003486
14.178838 31.472364 -0.008644
14.493579 31.472364 0.005464
14.808320 31.472364 0.031213
15.123059 31.472364 0.114384
15.437800 31.472364 0.342338
15.752542 31.472364 0.658249
16.067284 31.472364 0.000000
16.382023 31.472364 0.000000
16.696766 31.472364 0.000000
17.011505 31.472364 0.000000
17.326248 31.472364 0.000000
17.640987 31.472364 0.000000
17.955730 31.472364 0.000000
18.270470 31.472364 0.000000
18.585213 31.472364 0.000000
18.899952 31.472364 0.000000
-7.223550 31.157625 0.000000
-6.908809 31.157625 0.000000
-6.594068 31.157625 0.004220
-6.279327 31.157625 0.002752
-5.964586 31.157625 0.002274
-5.649845 31.157625 0.001362
-5.335104 31.157625 0.000315
-5.020363 31.157625 -0.000554
-4.705622 31.157625 -0.001401
-4.390881 31.157625 -0.002316
-4.076140 31.157625 -0.002933
-3.761399 31.157625 -0.003040
-3.446658 31.157625 -0.002490
-3.131917 31.157625 -0.001477
-2.817176 31.157625 -0.000178
-2.502435 31.157625 0.001015
-2.187694 31.157625 0.001882
-1.872953 31.157625 0.002717
-1.558212 31.157625 0.003211
-1.243471 31.157625 0.003455
-0.928730 31.157625 0.003421
-0.613989 31.157625 0.003072
-0.299248 31.157625 0.002464
0.015493 31.157625 0.001348
0.330234 31.157625 -0.000346
0.644975 31.157625 -0.002170
0.959716 31.157625 -0.003689
1.274457 31.157625 -0.004562
1.589198 31.157625 -0.004584
1.903938 31.157625 -0.003888
2.218679 31.157625 -0.002515
2.533421 31.157625 -0.000791
2.848162 31.157625 0.000781
3.162903 31.157625 0.002009
3.477644 31.157625 0.002840
3.792385 31.157625 0.003266
4.107125 31.157625 0.003312
4.421866 31.157625 0.002769
4.736608 31.157625 0.001835
5.051349 31.157625 0.000471
5.366090 31.157625 -0.001084
5.680831 31.157625 -0.002802
5.995571 31.157625 -0.004524
6.310312 31.157625 -0.005908
6.625053 31.157625 -0.006880
6.939795 31.157625 -0.006478
7.254536 31.157625 -0.005413
7.569277 31.157625 -0.004231
7.884017 31.157625 -0.003289
8.198758 31.157625 -0.002733
8.513499 31.157625 -0.001598
8.828240 31.157625 -0.006068
9.142982 31.157625 -0.012108
9.457723 31.157625 -0.013056
9.772464 31.157625 -0.019106
10.087205 31.157625 -0.030630
10.401946 31.157625 -0.039421
10.716687 31.157625 -0.054262
11.031426 31.157625 -0.067666
11.346168 31.157625 -0.083863
11.660909 31.157625 -0.086574
11.975650 31.157625 -0.054888
12.290391 31.157625 -0.040497
12.605132 31.157625 -0.014962
12.919873 31.157625 -0.022386
13.234614 31.157625 -0.034902
13.549356 31.157625 -0.044495
13.864097 31.157625 -0.003365
14.178838 31.157625 0.013700
14.493579 31.157625 0.009666
14.808320 31.157625 0.032454
15.123059 31.157625 0.078435
15.437800 31.157625 0.339479
15.752542 31.157625 0.662084
16.067284 31.157625 0.000000
16.382023 31.157625 0.000000
16.696766 31.157625 0.000000
17.011505 31.157625 0.000000
17.326248 31.157625 0.000000
17.640987 31.157625 0.000000
17.955730 31.157625 0.000000
18.270470 31.157625 0.000000
18.585213 31.157625 0.000000
18.899952 31.157625 0.000000
-7.223550 30.842884 0.000000
-6.908809 30.842884 0.000000
-6.594068 30.842884 0.004386
-6.279327 30.842884 0.002506
-5.964586 30.842884 0.001737
-5.649845 30.842884 0.000681
-5.335104 30.842884 -0.000379
-5.020363 30.842884 -0.001310
-4.705622 30.842884 -0.002169
-4.390881 30.842884 -0.002837
-4.076140 30.842884 -0.003028
-3.761399 30.842884 -0.002786
-3.446658 30.842884 -0.001969
-3.131917 30.842884 -0.000702
-2.817176 30.842884 0.000662
-2.502435 30.842884 0.001838
-2.187694 30.842884 0.002565
-1.872953 30.842884 0.003212
-1.558212 30.842884 0.003540
-1.243471 30.842884 0.003494
-0.928730 30.842884 0.003235
-0.613989 30.842884 0.002647
-0.299248 30.842884 0.001656
0.015493 30.842884 0.000242
0.330234 30.842884 -0.001505
0.644975 30.842884 -0.003145
0.959716 30.842884 -0.004304
1.274457 30.842884 -0.004636
1.589198 30.842884 -0.004131
1.903938 30.842884 -0.003071
2.218679 30.842884 -0.001521
2.533421 30.842884 0.000253
2.848162 30.842884 0.001758
3.162903 30.842884 0.002750
3.477644 30.842884 0.003237
3.792385 30.842884 0.003408
4.107125 30.842884 0.003105
4.421866 30.842884 0.002153
4.736608 30.842884 0.000795
5.051349 30.842884 -0.000858
5.366090 30.842884 -0.002537
5.680831 30.842884 -0.004099
5.995571 30.842884 -0.005344
6.310312 30.842884 -0.006091
6.625053 30.842884 -0.006158
6.939795 30.842884 -0.005246
7.254536 30.842884 -0.003518
7.569277 30.842884 -0.002504
7.884017 30.842884 -0.001734
8.198758 30.842884 -0.002318
8.513499 30.842884 -0.002893
8.828240 30.842884 -0.005454
9.142982 30.842884 -0.013514
9.457723 30.842884 -0.009192
9.772464 30.842884 -0.018092
10.087205 30.842884 -0.028130
10.401946 30.842884 -0.045007
10.716687 30.842884 -0.067960
11.031426 30.842884 -0.073363
11.346168 30.842884 -0.083941
11.660909 30.842884 -0.067975
11.975650 30.842884 -0.052011
12.290391 30.842884 -0.034249
12.605132 30.842884 -0.022209
12.919873 30.842884 -0.029403
13.234614 30.842884 -0.016693
13.549356 30.842884 -0.018006
13.864097 30.842884 -0.009044
14.178838 30.842884 0.025415
14.493579 30.842884 -0.017402
14.808320 30.842884 0.039828
15.123059 30.842884 0.089654
15.437800 30.842884 0.424859
15.752542 30.842884 0.715370
16.067284 30.842884 0.000000
16.382023 30.842884 0.000000
16.696766 30.842884 0.000000
17.011505 30.842884 0.000000
17.326248 30.842884 0.000000
17.640987 30.842884 0.000000
17.955730 30.842884 0.000000
18.270470 30.842884 0.000000
18.585213 30.842884 0.000000
18.899952 30.842884 0.000000
-7.223550 30.528143 0.000000
-6.908809 30.528143 0.017419
-6.594068 30.528143 0.004284
-6.279327 30.528143 0.002077
-5.964586 30.528143 0.001061
-5.649845 30.528143 -0.000095
-5.335104 30.528143 -0.001147
-5.020363 30.528143 -0.002026
-4.705622 30.528143 -0.002709
-4.390881 30.528143 -0.003038
-4.076140 30.528143 -0.002781
-3.761399 30.528143 -0.002172
-3.446658 30.528143 -0.001117
-3.131917 30.528143 0.000263
-2.817176 30.528143 0.001540
-2.502435 30.528143 0.002572
-2.187694 30.528143 0.003172
-1.872953 30.528143 0.003617
-1.558212 30.528143 0.003664
-1.243471 30.528143 0.003354
-0.928730 30.528143 0.002765
-0.613989 30.528143 0.001882
-0.299248 30.528143 0.000578
0.015493 30.528143 -0.001087
0.330234 30.528143 -0.002653
0.644975 30.528143 -0.003821
0.959716 30.528143 -0.004375
1.274457 30.528143 -0.004187
1.589198 30.528143 -0.003264
1.903938 30.528143 -0.001930
2.218679 30.528143 -0.000381
2.533421 30.528143 0.001185
2.848162 30.528143 0.002453
3.162903 30.528143 0.003149
3.477644 30.528143 0.003352
3.792385 30.528143 0.003236
4.107125 30.528143 0.002561
4.421866 30.528143 0.001282
4.736608 30.528143 -0.000419
5.051349 30.528143 -0.002247
5.366090 30.528143 -0.003817
5.680831 30.528143 -0.005001
5.995571 30.528143 -0.005708
6.310312 30.528143 -0.005646
6.625053 30.528143 -0.005027
6.939795 30.528143 -0.003645
7.254536 30.528143 -0.001744
7.569277 30.528143 -0.000815
7.884017 30.528143 -0.000986
8.198758 30.528143 -0.002473
8.513499 30.528143 -0.003528
8.828240 30.528143 -0.008421
9.142982 30.528143 -0.014015
9.457723 30.528143 -0.010293
9.772464 30.528143 -0.016106
10.087205 30.528143 -0.028869
10.401946 30.528143 -0.052738
10.716687 30.528143 -0.072573
11.031426 30.528143 -0.074227
11.346168 30.528143 -0.072722
11.660909 30.528143 -0.056913
11.975650 30.528143 -0.048067
12.290391 30.528143 -0.019820
12.605132 30.528143 -0.021819
12.919873 30.528143 -0.021771
13.234614 30.528143 -0.028830
13.549356 30.528143 -0.003640
13.864097 30.528143 -0.028982
14.178838 30.528143 -0.014323
14.493579 30.528143 -0.015863
14.808320 30.528143 0.046214
15.123059 30.528143 0.121987
15.437800 30.528143 0.424736
15.752542 30.528143 0.732427
16.067284 30.528143 0.000000
16.382023 30.528143 0.000000
16.696766 30.528143 0.000000
17.011505 30.528143 0.000000
17.326248 30.528143 0.000000
17.640987 30.528143 0.000000
17.955730 30.528143 0.000000
18.270470 30.528143 0.000000
18.585213 30.528143 0.000000
18.899952 30.528143 0.000000
-7.223550 30.213402 0.000000
-6.908809 30.213402 0.009589
-6.594068 30.213402 0.003931
-6.279327 30.213402 0.001415
-5.964586 30.213402 0.000267
-5.649845 30.213402 -0.000953
-5.335104 30.213402 -0.001966
-5.020363 30.213402 -0.002620
-4.705622 30.213402 -0.002943
-4.390881 30.213402 -0.002763
-4.076140 30.213402 -0.002091
-3.761399 30.213402 -0.001220
-3.446658 30.213402 -0.000034
-3.131917 30.213402 0.001294
-2.817176 30.213402 0.002386
-2.502435 30.213402 0.003213
-2.187694 30.213402 0.003673
-1.872953 30.213402 0.003817
-1.558212 30.213402 0.003573
-1.243471 30.213402 0.002930
-0.928730 30.213402 0.002013
-0.613989 30.213402 0.000738
-0.299248 30.213402 -0.000716
0.015493 30.213402 -0.002358
0.330234 30.213402 -0.003566
0.644975 30.213402 -0.004024
0.959716 30.213402 -0.003883
1.274457 30.213402 -0.003205
1.589198 30.213402 -0.001959
1.903938 30.213402 -0.000568
2.218679 30.213402 0.000853
2.533421 30.213402 0.002092
2.848162 30.213402 0.002963
3.162903 30.213402 0.003299
3.477644 30.213402 0.003185
3.792385 30.213402 0.002729
4.107125 30.213402 0.001715
4.421866 30.213402 0.000191
4.736608 30.213402 -0.001666
5.051349 30.213402 -0.003430
5.366090 30.213402 -0.004712
5.680831 30.213402 -0.005407
5.995571 30.213402 -0.005499
6.310312 30.213402 -0.004596
6.625053 30.213402 -0.003450
6.939795 30.213402 -0.001779
7.254536 30.213402 -0.000359
7.569277 30.213402 0.000715
7.884017 30.213402 -0.000760
8.198758 30.213402 -0.002980
8.513499 30.213402 -0.005849
8.828240 30.213402 -0.006342
9.142982 30.213402 -0.011409
9.457723 30.213402 -0.010091
9.772464 30.213402 -0.012784
10.087205 30.213402 -0.023309
10.401946 30.213402 -0.044325
10.716687 30.213402 -0.058872
11.031426 30.213402 -0.059894
11.346168 30.213402 -0.053935
11.660909 30.213402 -0.045592
11.975650 30.213402 -0.048582
12.290391 30.213402 -0.019798
12.605132 30.213402 -0.018615
12.919873 30.213402 -0.027921
13.234614 30.213402 -0.044311
13.549356 30.213402 -0.032188
13.864097 30.213402 -0.013213
14.178838 30.213402 -0.026409
14.493579 30.213402 -0.010224
14.808320 30.213402 0.030272
15.123059 30.213402 0.139453
15.437800 30.213402 0.434630
15.752542 30.213402 0.714008
16.067284 30.213402 0.000000
16.382023 30.213402 0.000000
16.696766 30.213402 0.000000
17.011505 30.213402 0.000000
17.326248 30.213402 0.000000
17.640987 30.213402 0.000000
17.955730 30.213402 0.000000
18.270470 30.213402 0.000000
18.585213 30.213402 0.000000
18.899952 30.213402 0.000000
-7.223550 29.898661 0.000000
-6.908809 29.898661 0.010089
-6.594068 29.898661 0.003278
-6.279327 29.898661 0.000558
-5.964586 29.898661 -0.000721
-5.649845 29.898661 -0.001893
-5.335104 29.898661 -0.002691
-5.020363 29.898661 -0.002948
-4.705622 29.898661 -0.002792
-4.390881 29.898661 -0.002135
-4.076140 29.898661 -0.001109
-3.761399 29.898661 -0.000012
-3.446658 29.898661 0.001109
-3.131917 29.898661 0.002266
-2.817176 29.898661 0.003106
-2.502435 29.898661 0.003645
-2.187694 29.898661 0.003971
-1.872953 29.898661 0.003799
-1.558212 29.898661 0.003154
-1.243471 29.898661 0.002178
-0.928730 29.898661 0.000944
-0.613989 29.898661 -0.000590
-0.299248 29.898661 -0.002070
0.015493 29.898661 -0.003366
0.330234 29.898661 -0.004059
0.644975 29.898661 -0.003764
0.959716 29.898661 -0.002925
1.274457 29.898661 -0.001825
1.589198 29.898661 -0.000417
1.903938 29.898661 0.000860
2.218679 29.898661 0.001967
2.533421 29.898661 0.002787
2.848162 29.898661 0.003189
3.162903 29.898661 0.003117
3.477644 29.898661 0.002678
3.792385 29.898661 0.001884
4.107125 29.898661 0.000619
4.421866 29.898661 -0.001003
4.736608 29.898661 -0.002789
5.051349 29.898661 -0.004278
5.366090 29.898661 -0.005070
5.680831 29.898661 -0.005224
5.995571 29.898661 -0.004666
6.310312 29.898661 -0.003252
6.625053 29.898661 -0.001578
6.939795 29.898661 -0.000296
7.254536 29.898661 0.000636
7.569277 29.898661 0.001267
7.884017 29.898661 -0.000713
8.198758 29.898661 -0.003672
8.513499 29.898661 -0.004709
8.828240 29.898661 -0.006813
9.142982 29.898661 -0.006763
9.457723 29.898661 -0.007172
9.772464 29.898661 -0.013204
10.087205 29.898661 -0.024936
10.401946 29.898661 -0.046875
10.716687 29.898661 -0.056365
11.031426 29.898661 -0.051485
11.346168 29.898661 -0.056932
11.660909 29.898661 -0.042382
11.975650 29.898661 -0.024950
12.290391 29.898661 -0.018773
12.605132 29.898661 -0.031740
12.919873 29.898661 -0.023768
13.234614 29.898661 -0.046547
13.549356 29.898661 -0.029760
13.864097 29.898661 -0.009913
14.178838 29.898661 -0.004541
14.493579 29.898661 0.009804
14.808320 29.898661 0.052387
15.123059 29.898661 0.169321
15.437800 29.898661 0.509089
15.752542 29.898661 0.823063
16.067284 29.898661 0.000000
16.382023 29.898661 0.000000
16.696766 29.898661 0.000000
17.011505 29.898661 0.000000
17.326248 29.898661 0.000000
17.640987 29.898661 0.000000
17.955730 29.898661 0.000000
18.270470 29.898661 0.000000
18.585213 29.898661 0.000000
18.899952 29.898661 0.000000
-7.223550 29.583920 0.000000
-6.908809 29.583920 0.007045
-6.594068 29.583920 0.002271
-6.279327 29.583920 -0.000513
-5.964586 29.583920 -0.001772
-5.649845 29.583920 -0.002682
-5.335104 29.583920 -0.003046
-5.020363 29.583920 -0.002846
-4.705622 29.583920 -0.002216
-4.390881 29.583920 -0.001157
-4.076140 29.583920 0.000096
-3.761399 29.583920 0.001215
-3.446658 29.583920 0.002215
-3.131917 29.583920 0.003091
-2.817176 29.583920 0.003638
-2.502435 29.583920 0.003924
-2.187694 29.583920 0.004010
-1.872953 29.583920 0.003475
-1.558212 29.583920 0.002403
-1.243471 29.583920 0.001099
-0.928730 29.583920 -0.000296
-0.613989 29.583920 -0.001955
-0.299248 29.583920 -0.003247
0.015493 29.583920 -0.003997
0.330234 29.583920 -0.004036
0.644975 29.583920 -0.003087
0.959716 29.583920 -0.001720
1.274457 29.583920 -0.000323
1.589198 29.583920 0.001011
1.903938 29.583920 0.002055
2.218679 29.583920 0.002800
2.533421 29.583920 0.003197
2.848162 29.583920 0.003149
3.162903 29.583920 0.002669
3.477644 29.583920 0.001841
3.792385 29.583920 0.000797
4.107125 29.583920 -0.000594
4.421866 29.583920 -0.002164
4.736608 29.583920 -0.003598
5.051349 29.583920 -0.004578
5.366090 29.583920 -0.004804
5.680831 29.583920 -0.004280
5.995571 29.583920 -0.003313
6.310312 29.583920 -0.001712
6.625053 29.583920 0.000117
6.939795 29.583920 0.001060
7.254536 29.583920 0.001150
7.569277 29.583920 0.000297
7.884017 29.583920 -0.001362
8.198758 29.583920 -0.004103
8.513499 29.583920 -0.004788
8.828240 29.583920 -0.006808
9.142982 29.583920 -0.008236
9.457723 29.583920 -0.004818
9.772464 29.583920 -0.012159
10.087205 29.583920 -0.031502
10.401946 29.583920 -0.053161
10.716687 29.583920 -0.063877
11.031426 29.583920 -0.059133
11.346168 29.583920 -0.055390
11.660909 29.583920 -0.043069
11.975650 29.583920 -0.038619
12.290391 29.583920 -0.023847
12.605132 29.583920 -0.019407
12.919873 29.583920 -0.024631
13.234614 29.583920 -0.026330
13.549356 29.583920 -0.036448
13.864097 29.583920 -0.014153
14.178838 29.583920 0.002858
14.493579 29.583920 0.024806
14.808320 29.583920 0.055311
15.123059 29.583920 0.185582
15.437800 29.583920 0.525932
15.752542 29.583920 0.628036
16.067284 29.583920 0.000000
16.382023 29.583920 0.000000
16.696766 29.583920 0.000000
17.011505 29.583920 0.000000
17.326248 29.583920 0.000000
17.640987 29.583920 0.000000
17.955730 29.583920 0.000000
18.270470 29.583920 0.000000
18.585213 29.583920 0.000000
18.899952 29.583920 0.000000
-7.223550 29.269178 0.000000
-6.908809 29.269178 0.004805
-6.594068 29.269178 0.000971
-6.279327 29.269178 -0.001620
-5.964586 29.269178 -0.002592
-5.649845 29.269178 -0.003039
-5.335104 29.269178 -0.002883
-5.020363 29.269178 -0.002197
-4.705622 29.269178 -0.001170
-4.390881 29.269178 0.000061
-4.076140 29.269178 0.001312
-3.761399 29.269178 0.002370
-3.446658 29.269178 0.003163
-3.131917 29.269178 0.003737
-2.817176 29.269178 0.003904
-2.502435 29.269178 0.003868
-2.187694 29.269178 0.003617
-1.872953 29.269178 0.002770
-1.558212 29.269178 0.001315
-1.243471 29.269178 -0.000221
-0.928730 29.269178 -0.001646
-0.613989 29.269178 -0.003155
-0.299248 29.269178 -0.004022
0.015493 29.269178 -0.004022
0.330234 29.269178 -0.003429
0.644975 29.269178 -0.002008
0.959716 29.269178 -0.000419
1.274457 29.269178 0.001019
1.589198 29.269178 0.002129
1.903938 29.269178 0.002883
2.218679 29.269178 0.003260
2.533421 29.269178 0.003243
2.848162 29.269178 0.002757
3.162903 29.269178 0.001857
3.477644 29.269178 0.000666
3.792385 29.269178 -0.000468
4.107125 29.269178 -0.001757
4.421866 29.269178 -0.003021
4.736608 29.269178 -0.003895
5.051349 29.269178 -0.004224
5.366090 29.269178 -0.003827
5.680831 29.269178 -0.002888
5.995571 29.269178 -0.001696
6.310312 29.269178 -0.000184
6.625053 29.269178 0.001174
6.939795 29.269178 0.001595
7.254536 29.269178 0.000795
7.569277 29.269178 -0.000594
7.884017 29.269178 -0.001914
8.198758 29.269178 -0.004509
8.513499 29.269178 -0.006929
8.828240 29.269178 -0.005698
9.142982 29.269178 -0.005386
9.457723 29.269178 -0.004914
9.772464 29.269178 -0.015470
10.087205 29.269178 -0.035252
10.401946 29.269178 -0.056766
10.716687 29.269178 -0.077391
11.031426 29.269178 -0.074379
11.346168 29.269178 -0.064373
11.660909 29.269178 -0.057551
11.975650 29.269178 -0.026772
12.290391 29.269178 -0.024655
12.605132 29.269178 -0.012148
12.919873 29.269178 -0.015759
13.234614 29.269178 -0.035062
13.549356 29.269178 -0.024742
13.864097 29.269178 -0.008771
14.178838 29.269178 0.025663
14.493579 29.269178 0.005412
14.808320 29.269178 0.058689
15.123059 29.269178 0.189921
15.437800 29.269178 0.528870
15.752542 29.269178 0.853508
16.067284 29.269178 0.000000
16.382023 29.269178 0.000000
16.696766 29.269178 0.000000
17.011505 29.269178 0.000000
17.326248 29.269178 0.000000
17.640987 29.269178 0.000000
17.955730 29.269178 0.000000
18.270470 29.269178 0.000000
18.585213 29.269178 0.000000
18.899952 29.269178 0.000000
-7.223550 28.954437 0.000000
-6.908809 28.954437 0.003731
-6.594068 28.954437 -0.000400
-6.279327 28.954437 -0.002550
-5.964586 28.954437 -0.002945
-5.649845 28.954437 -0.002846
-5.335104 28.954437 -0.002182
-5.020363 28.954437 -0.001103
-4.705622 28.954437 0.000073
-4.390881 28.954437 0.001333
-4.076140 28.954437 0.002480
-3.761399 28.954437 0.003262
-3.446658 28.954437 0.003824
-3.131917 28.954437 0.004035
-2.817176 28.954437 0.003776
-2.502435 28.954437 0.003370
-2.187694 28.954437 0.002759
-1.872953 28.954437 0.001653
-1.558212 28.954437 -0.000033
-1.243471 28.954437 -0.001633
-0.928730 28.954437 -0.002842
-0.613989 28.954437 -0.003888
-0.299248 28.954437 -0.004116
0.015493 28.954437 -0.003434
0.330234 28.954437 -0.002319
0.644975 28.954437 -0.000745
0.959716 28.954437 0.000815
1.274457 28.954437 0.002092
1.589198 28.954437 0.002851
1.903938 28.954437 0.003271
2.218679 28.954437 0.003220
2.533421 28.954437 0.002799
2.848162 28.954437 0.002003
3.162903 28.954437 0.000760
3.477644 28.954437 -0.000663
3.792385 28.954437 -0.001758
4.107125 28.954437 -0.002736
4.421866 28.954437 -0.003500
4.736608 28.954437 -0.003642
5.051349 28.954437 -0.003281
5.366090 28.954437 -0.002443
5.680831 28.954437 -0.001264
5.995571 28.954437 -0.000015
6.310312 28.954437 0.000996
6.625053 28.954437 0.001694
6.939795 28.954437 0.001511
7.254536 28.954437 0.000151
7.569277 28.954437 -0.001565
7.884017 28.954437 -0.003057
8.198758 28.954437 -0.006081
8.513499 28.954437 -0.006968
8.828240 28.954437 -0.005715
9.142982 28.954437 -0.005364
9.457723 28.954437 -0.007800
9.772464 28.954437 -0.012567
10.087205 28.954437 -0.035275
10.401946 28.954437 -0.049866
10.716687 28.954437 -0.070818
11.031426 28.954437 -0.075936
11.346168 28.954437 -0.077353
11.660909 28.954437 -0.068982
11.975650 28.954437 -0.045356
12.290391 28.954437 -0.031060
12.605132 28.954437 -0.018748
12.919873 28.954437 -0.028502
13.234614 28.954437 -0.043324
13.549356 28.954437 -0.033284
13.864097 28.954437 -0.021759
14.178838 28.954437 0.008515
14.493579 28.954437 0.000327
14.808320 28.954437 0.058286
15.123059 28.954437 0.196953
15.437800 28.954437 0.464178
15.752542 28.954437 0.840849
16.067284 28.954437 0.000000
16.382023 28.954437 0.000000
16.696766 28.954437 0.000000
17.011505 28.954437 0.000000
17.326248 28.954437 0.000000
17.640987 28.954437 0.000000
17.955730 28.954437 0.000000
18.270470 28.954437 0.000000
18.585213 28.954437 0.000000
18.899952 28.954437 0.000000
-7.223550 28.639696 0.000000
-6.908809 28.639696 0.002466
-6.594068 28.639696 -0.001547
-6.279327 28.639696 -0.002996
-5.964586 28.639696 -0.002679
-5.649845 28.639696 -0.002071
-5.335104 28.639696 -0.001034
-5.020363 28.639696 0.000219
-4.705622 28.639696 0.001345
-4.390881 28.639696 0.002430
-4.076140 28.639696 0.003349
-3.761399 28.639696 0.003753
-3.446658 28.639696 0.004030
-3.131917 28.639696 0.003903
-2.817176 28.639696 0.003227
-2.502435 28.639696 0.002382
-2.187694 28.639696 0.001456
-1.872953 28.639696 0.000198
-1.558212 28.639696 -0.001477
-1.243471 28.639696 -0.002829
-0.928730 28.639696 -0.003571
-0.613989 28.639696 -0.003832
-0.299248 28.639696 -0.003348
0.015493 28.639696 -0.002206
0.330234 28.639696 -0.000888
0.644975 28.639696 0.000569
0.959716 28.639696 0.001860
1.274457 28.639696 0.002861
1.589198 28.639696 0.003282
1.903938 28.639696 0.003257
2.218679 28.639696 0.002737
2.533421 28.639696 0.001946
2.848162 28.639696 0.000917
3.162903 28.639696 -0.000487
3.477644 28.639696 -0.001953
3.792385 28.639696 -0.002835
4.107125 28.639696 -0.003377
4.421866 28.639696 -0.003499
4.736608 28.639696 -0.002972
5.051349 28.639696 -0.002032
5.366090 28.639696 -0.000875
5.680831 28.639696 0.000303
5.995571 28.639696 0.001190
6.310312 28.639696 0.001750
6.625053 28.639696 0.001549
6.939795 28.639696 0.000755
7.254536 28.639696 -0.000916
7.569277 28.639696 -0.002227
7.884017 28.639696 -0.003691
8.198758 28.639696 -0.006234
8.513499 28.639696 -0.007591
8.828240 28.639696 -0.004372
9.142982 28.639696 -0.003264
9.457723 28.639696 0.000422
9.772464 28.639696 -0.009948
10.087205 28.639696 -0.025080
10.401946 28.639696 -0.037786
10.716687 28.639696 -0.059910
11.031426 28.639696 -0.068582
11.346168 28.639696 -0.074899
11.660909 28.639696 -0.084544
11.975650 28.639696 -0.062014
12.290391 28.639696 -0.068742
12.605132 28.639696 -0.033108
12.919873 28.639696 -0.019100
13.234614 28.639696 -0.015258
13.549356 28.639696 -0.026338
13.864097 28.639696 -0.024280
14.178838 28.639696 0.029980
14.493579 28.639696 0.012073
14.808320 28.639696 0.063057
15.123059 28.639696 0.197626
15.437800 28.639696 0.430974
15.752542 28.639696 0.745672
16.067284 28.639696 0.000000
16.382023 28.639696 0.000000
16.696766 28.639696 0.000000
17.011505 28.639696 0.000000
17.326248 28.639696 0.000000
17.640987 28.639696 0.000000
17.955730 28.639696 0.000000
18.270470 28.639696 0.000000
18.585213 28.639696 0.000000
18.899952 28.639696 0.000000
-7.223550 28.324955 0.000000
-6.908809 28.324955 0.001050
-6.594068 28.324955 -0.002128
-6.279327 28.324955 -0.002733
-5.964586 28.324955 -0.001798
-5.649845 28.324955 -0.000779
-5.335104 28.324955 0.000412
-5.020363 28.324955 0.001639
-4.705622 28.324955 0.002536
-4.390881 28.324955 0.003310
-4.076140 28.324955 0.003824
-3.761399 28.324955 0.003900
-3.446658 28.324955 0.003858
-3.131917 28.324955 0.003390
-2.817176 28.324955 0.002334
-2.502435 28.324955 0.001096
-2.187694 28.324955 -0.000086
-1.872953 28.324955 -0.001290
-1.558212 28.324955 -0.002591
-1.243471 28.324955 -0.003439
-0.928730 28.324955 -0.003582
-0.613989 28.324955 -0.003052
-0.299248 28.324955 -0.001969
0.015493 28.324955 -0.000649
0.330234 28.324955 0.000556
0.644975 28.324955 0.001671
0.959716 28.324955 0.002604
1.274457 28.324955 0.003234
1.589198 28.324955 0.003284
1.903938 28.324955 0.002776
2.218679 28.324955 0.001860
2.533421 28.324955 0.000813
2.848162 28.324955 -0.000331
3.162903 28.324955 -0.001630
3.477644 28.324955 -0.002874
3.792385 28.324955 -0.003451
4.107125 28.324955 -0.003432
4.421866 28.324955 -0.002914
4.736608 28.324955 -0.001927
5.051349 28.324955 -0.000768
5.366090 28.324955 0.000450
5.680831 28.324955 0.001434
5.995571 28.324955 0.001864
6.310312 28.324955 0.001636
6.625053 28.324955 0.000823
6.939795 28.324955 -0.000367
7.254536 28.324955 -0.001636
7.569277 28.324955 -0.003017
7.884017 28.324955 -0.004406
8.198758 28.324955 -0.006619
8.513499 28.324955 -0.006921
8.828240 28.324955 -0.005619
9.142982 28.324955 -0.001096
9.457723 28.324955 -0.002386
9.772464 28.324955 -0.008724
10.087205 28.324955 -0.030608
10.401946 28.324955 -0.038421
10.716687 28.324955 -0.056251
11.031426 28.324955 -0.074701
11.346168 28.324955 -0.085794
11.660909 28.324955 -0.088680
11.975650 28.324955 -0.069567
12.290391 28.324955 -0.048857
12.605132 28.324955 -0.038425
12.919873 28.324955 -0.005414
13.234614 28.324955 -0.025477
13.549356 28.324955 0.002392
13.864097 28.324955 -0.003883
14.178838 28.324955 0.018001
14.493579 28.324955 0.033267
14.808320 28.324955 0.071414
15.123059 28.324955 0.146366
15.437800 28.324955 0.404355
15.752542 28.324955 0.815342
16.067284 28.324955 0.000000
16.382023 28.324955 0.000000
16.696766 28.324955 0.000000
17.011505 28.324955 0.000000
17.326248 28.324955 0.000000
17.640987 28.324955 0.000000
17.955730 28.324955 0.000000
18.270470 28.324955 0.000000
18.585213 28.324955 0.000000
18.899952 28.324955 0.000000
-7.223550 28.010214 0.000000
-6.908809 28.010214 0.000384
-6.594068 28.010214 -0.002004
-6.279327 28.010214 -0.001814
-5.964586 28.010214 -0.000498
-5.649845 28.010214 0.000750
-5.335104 28.010214 0.001874
-5.020363 28.010214 0.002922
-4.705622 28.010214 0.003556
-4.390881 28.010214 0.003868
-4.076140 28.010214 0.003931
-3.761399 28.010214 0.003732
-3.446658 28.010214 0.003321
-3.131917 28.010214 0.002490
-2.817176 28.010214 0.001160
-2.502435 28.010214 -0.000343
-2.187694 28.010214 -0.001615
-1.872953 28.010214 -0.002559
-1.558212 28.010214 -0.003166
-1.243471 28.010214 -0.003337
-0.928730 28.010214 -0.002868
-0.613989 28.010214 -0.001690
-0.299248 28.010214 -0.000245
0.015493 28.010214 0.000982
0.330234 28.010214 0.001797
0.644975 28.010214 0.002447
0.959716 28.010214 0.002948
1.274457 28.010214 0.003174
1.589198 28.010214 0.002819
1.903938 28.010214 0.001881
2.218679 28.010214 0.000737
2.533421 28.010214 -0.000425
2.848162 28.010214 -0.001466
3.162903 28.010214 -0.002441
3.477644 28.010214 -0.003253
3.792385 28.010214 -0.003407
4.107125 28.010214 -0.002845
4.421866 28.010214 -0.001882
4.736608 28.010214 -0.000728
5.051349 28.010214 0.000364
5.366090 28.010214 0.001334
5.680831 28.010214 0.001998
5.995571 28.010214 0.001930
6.310312 28.010214 0.001064
6.625053 28.010214 -0.000302
6.939795 28.010214 -0.001639
7.254536 28.010214 -0.002620
7.569277 28.010214 -0.003785
7.884017 28.010214 -0.004460
8.198758 28.010214 -0.005148
8.513499 28.010214 -0.005884
8.828240 28.010214 -0.006510
9.142982 28.010214 -0.004048
9.457723 28.010214 -0.002481
9.772464 28.010214 -0.013929
10.087205 28.010214 -0.027084
10.401946 28.010214 -0.031940
10.716687 28.010214 -0.044257
11.031426 28.010214 -0.065928
11.346168 28.010214 -0.069398
11.660909 28.010214 -0.089529
11.975650 28.010214 -0.071230
12.290391 28.010214 -0.050192
12.605132 28.010214 -0.035370
12.919873 28.010214 -0.001733
13.234614 28.010214 -0.005042
13.549356 28.010214 0.008507
13.864097 28.010214 0.006080
14.178838 28.010214 -0.000589
14.493579 28.010214 0.021856
14.808320 28.010214 0.076881
15.123059 28.010214 0.167322
15.437800 28.010214 0.353128
15.752542 28.010214 0.722408
16.067284 28.010214 0.000000
16.382023 28.010214 0.000000
16.696766 28.010214 0.000000
17.011505 28.010214 0.000000
17.326248 28.010214 0.000000
17.640987 28.010214 0.000000
17.955730 28.010214 0.000000
18.270470 28.010214 0.000000
18.585213 28.010214 0.000000
18.899952 28.010214 0.000000
-7.223550 27.695473 0.000000
-6.908809 27.695473 0.000560
-6.594068 27.695473 -0.001068
-6.279327 27.695473 -0.000447
-5.964586 27.695473 0.001025
-5.649845 27.695473 0.002231
-5.335104 27.695473 0.003156
-5.020363 27.695473 0.003880
-4.705622 27.695473 0.004156
-4.390881 27.695473 0.003978
-4.076140 27.695473 0.003620
-3.761399 27.695473 0.003120
-3.446658 27.695473 0.002400
-3.131917 27.695473 0.001294
-2.817176 27.695473 -0.000172
-2.502435 27.695473 -0.001651
-2.187694 27.695473 -0.002698
-1.872953 27.695473 -0.003096
-1.558212 27.695473 -0.002902
-1.243471 27.695473 -0.002428
-0.928730 27.695473 -0.001500
-0.613989 27.695473 -0.000080
-0.299248 27.695473 0.001433
0.015493 27.695473 0.002288
0.330234 27.695473 0.002578
0.644975 27.695473 0.002773
0.959716 27.695473 0.002810
1.274457 27.695473 0.002665
1.589198 27.695473 0.001932
1.903938 27.695473 0.000687
2.218679 27.695473 -0.000515
2.533421 27.695473 -0.001527
2.848162 27.695473 -0.002306
3.162903 27.695473 -0.002714
3.477644 27.695473 -0.002999
3.792385 27.695473 -0.002738
4.107125 27.695473 -0.001804
4.421866 27.695473 -0.000683
4.736608 27.695473 0.000392
5.051349 27.695473 0.001127
5.366090 27.695473 0.001620
5.680831 27.695473 0.001843
5.995571 27.695473 0.001438
6.310312 27.695473 0.000259
6.625053 27.695473 -0.001327
6.939795 27.695473 -0.002613
7.254536 27.695473 -0.003438
7.569277 27.695473 -0.004505
7.884017 27.695473 -0.004171
8.198758 27.695473 -0.005547
8.513499 27.695473 -0.005298
8.828240 27.695473 -0.007330
9.142982 27.695473 -0.005459
9.457723 27.695473 -0.001289
9.772464 27.695473 -0.017238
10.087205 27.695473 -0.031922
10.401946 27.695473 -0.035463
10.716687 27.695473 -0.043502
11.031426 27.695473 -0.056419
11.346168 27.695473 -0.072945
11.660909 27.695473 -0.079466
11.975650 27.695473 -0.071903
12.290391 27.695473 -0.060238
12.605132 27.695473 -0.033215
12.919873 27.695473 -0.023221
13.234614 27.695473 0.007863
13.549356 27.695473 -0.001273
13.864097 27.695473 -0.020601
14.178838 27.695473 0.016173
14.493579 27.695473 0.025784
14.808320 27.695473 0.056924
15.123059 27.695473 0.151984
15.437800 27.695473 0.371168
15.752542 27.695473 0.586636
16.067284 27.695473 0.000000
16.382023 27.695473 0.000000
16.696766 27.695473 0.000000
17.011505 27.695473 0.000000
17.326248 27.695473 0.000000
17.640987 27.695473 0.000000
17.955730 27.695473 0.000000
18.270470 27.695473 0.000000
18.585213 27.695473 0.000000
18.899952 27.695473 0.000000
-7.223550 27.380732 0.000000
-6.908809 27.380732 0.001770
-6.594068 27.380732 0.000439
-6.279327 27.380732 0.001171
-5.964586 27.380732 0.002496
-5.649845 27.380732 0.003435
-5.335104 27.380732 0.004037
-5.020363 27.380732 0.004346
-4.705622 27.380732 0.004209
-4.390881 27.380732 0.003635
-4.076140 27.380732 0.002898
-3.761399 27.380732 0.002098
-3.446658 27.380732 0.001210
-3.131917 27.380732 -0.000063
-2.817176 27.380732 -0.001439
-2.502435 27.380732 -0.002556
-2.187694 27.380732 -0.003069
-1.872953 27.380732 -0.002751
-1.558212 27.380732 -0.001847
-1.243471 27.380732 -0.000894
-0.928730 27.380732 0.000175
-0.613989 27.380732 0.001479
-0.299248 27.380732 0.002715
0.015493 27.380732 0.003071
0.330234 27.380732 0.002839
0.644975 27.380732 0.002560
0.959716 27.380732 0.002194
1.274457 27.380732 0.001717
1.589198 27.380732 0.000745
1.903938 27.380732 -0.000562
2.218679 27.380732 -0.001583
2.533421 27.380732 -0.002217
2.848162 27.380732 -0.002479
3.162903 27.380732 -0.002362
3.477644 27.380732 -0.002171
3.792385 27.380732 -0.001618
4.107125 27.380732 -0.000671
4.421866 27.380732 0.000334
4.736608 27.380732 0.001088
5.051349 27.380732 0.001312
5.366090 27.380732 0.001338
5.680831 27.380732 0.001171
5.995571 27.380732 0.000598
6.310312 27.380732 -0.000698
6.625053 27.380732 -0.002061
6.939795 27.380732 -0.003058
7.254536 27.380732 -0.003717
7.569277 27.380732 -0.004175
7.884017 27.380732 -0.004392
8.198758 27.380732 -0.004821
8.513499 27.380732 -0.006073
8.828240 27.380732 -0.006710
9.142982 27.380732 -0.002646
9.457723 27.380732 -0.004729
9.772464 27.380732 -0.013004
10.087205 27.380732 -0.028377
10.401946 27.380732 -0.035167
10.716687 27.380732 -0.046589
11.031426 27.380732 -0.069004
11.346168 27.380732 -0.076299
11.660909 27.380732 -0.063957
11.975650 27.380732 -0.071356
12.290391 27.380732 -0.074290
12.605132 27.380732 -0.036238
12.919873 27.380732 -0.013635
13.234614 27.380732 0.018562
13.549356 27.380732 0.018944
13.864097 27.380732 0.002549
14.178838 27.380732 0.014072
14.493579 27.380732 0.033417
14.808320 27.380732 0.083557
15.123059 27.380732 0.177586
15.437800 27.380732 0.376882
15.752542 27.380732 0.534606
16.067284 27.380732 0.000000
16.382023 27.380732 0.000000
16.696766 27.380732 0.000000
17.011505 27.380732 0.000000
17.326248 27.380732 0.000000
17.640987 27.380732 0.000000
17.955730 27.380732 0.000000
18.270470 27.380732 0.000000
18.585213 27.380732 0.000000
18.899952 27.380732 0.000000
-7.223550 27.065992 0.000000
-6.908809 27.065992 0.003549
-6.594068 27.065992 0.002123
-6.279327 27.065992 0.002651
-5.964586 27.065992 0.003685
-5.649845 27.065992 0.004209
-5.335104 27.065992 0.004330
-5.020363 27.065992 0.004146
-4.705622 27.065992 0.003636
-4.390881 27.065992 0.002759
-4.076140 27.065992 0.001742
-3.761399 27.065992 0.000679
-3.446658 27.065992 -0.000294
-3.131917 27.065992 -0.001428
-2.817176 27.065992 -0.002379
-2.502435 27.065992 -0.002829
-2.187694 27.065992 -0.002636
-1.872953 27.065992 -0.001668
-1.558212 27.065992 -0.000408
-1.243471 27.065992 0.000737
-0.928730 27.065992 0.001739
-0.613989 27.065992 0.002663
-0.299248 27.065992 0.003286
0.015493 27.065992 0.003148
0.330234 27.065992 0.002568
0.644975 27.065992 0.001895
0.959716 27.065992 0.001206
1.274457 27.065992 0.000533
1.589198 27.065992 -0.000460
1.903938 27.065992 -0.001580
2.218679 27.065992 -0.002243
2.533421 27.065992 -0.002327
2.848162 27.065992 -0.002050
3.162903 27.065992 -0.001536
3.477644 27.065992 -0.001008
3.792385 27.065992 -0.000411
4.107125 27.065992 0.000230
4.421866 27.065992 0.000919
4.736608 27.065992 0.001186
5.051349 27.065992 0.001031
5.366090 27.065992 0.000669
5.680831 27.065992 0.000226
5.995571 27.065992 -0.000351
6.310312 27.065992 -0.001384
6.625053 27.065992 -0.002312
6.939795 27.065992 -0.003041
7.254536 27.065992 -0.003478
7.569277 27.065992 -0.003845
7.884017 27.065992 -0.004085
8.198758 27.065992 -0.006546
8.513499 27.065992 -0.008994
8.828240 27.065992 -0.008791
9.142982 27.065992 -0.006605
9.457723 27.065992 -0.006267
9.772464 27.065992 -0.011779
10.087205 27.065992 -0.024697
10.401946 27.065992 -0.036744
10.716687 27.065992 -0.050415
11.031426 27.065992 -0.067348
11.346168 27.065992 -0.074810
11.660909 27.065992 -0.061375
11.975650 27.065992 -0.057104
12.290391 27.065992 -0.069818
12.605132 27.065992 -0.054744
12.919873 27.065992 -0.021373
13.234614 27.065992 0.029919
13.549356 27.065992 0.028484
13.864097 27.065992 -0.028960
14.178838 27.065992 -0.005997
14.493579 27.065992 0.025644
14.808320 27.065992 0.081844
15.123059 27.065992 0.196505
15.437800 27.065992 0.399038
15.752542 27.065992 0.506796
16.067284 27.065992 0.000000
16.382023 27.065992 0.000000
16.696766 27.065992 0.000000
17.011505 27.065992 0.000000
17.326248 27.065992 0.000000
17.640987 27.065992 0.000000
17.955730 27.065992 0.000000
18.270470 27.065992 0.000000
18.585213 27.065992 0.000000
18.899952 27.065992 0.000000
-7.223550 26.751251 0.000000
-6.908809 26.751251 0.005381
-6.594068 26.751251 0.003586
-6.279327 26.751251 0.003686
-5.964586 26.751251 0.004330
-5.649845 26.751251 0.004369
-5.335104 26.751251 0.003972
-5.020363 26.751251 0.003377
-4.705622 26.751251 0.002456
-4.390881 26.751251 0.001394
-4.076140 26.751251 0.000325
-3.761399 26.751251 -0.000818
-3.446658 26.751251 -0.001723
-3.131917 26.751251 -0.002428
-2.817176 26.751251 -0.002657
-2.502435 26.751251 -0.002326
-2.187694 26.751251 -0.001477
-1.872953 26.751251 -0.000199
-1.558212 26.751251 0.001028
-1.243471 26.751251 0.002011
-0.928730 26.751251 0.002768
-0.613989 26.751251 0.003176
-0.299248 26.751251 0.003134
0.015493 26.751251 0.002590
0.330234 26.751251 0.001826
0.644975 26.751251 0.001009
0.959716 26.751251 0.000143
1.274457 26.751251 -0.000571
1.589198 26.751251 -0.001349
1.903938 26.751251 -0.002081
2.218679 26.751251 -0.002275
2.533421 26.751251 -0.001920
2.848162 26.751251 -0.001291
3.162903 26.751251 -0.000562
3.477644 26.751251 0.000104
3.792385 26.751251 0.000533
4.107125 26.751251 0.000753
4.421866 26.751251 0.000969
4.736608 26.751251 0.000899
5.051349 26.751251 0.000450
5.366090 26.751251 -0.000080
5.680831 26.751251 -0.000613
5.995571 26.751251 -0.001031
6.310312 26.751251 -0.001661
6.625053 26.751251 -0.002073
6.939795 26.751251 -0.002740
7.254536 26.751251 -0.003132
7.569277 26.751251 -0.003583
7.884017 26.751251 -0.004739
8.198758 26.751251 -0.007870
8.513499 26.751251 -0.010737
8.828240 26.751251 -0.012949
9.142982 26.751251 -0.008357
9.457723 26.751251 -0.007953
9.772464 26.751251 -0.017918
10.087205 26.751251 -0.027613
10.401946 26.751251 -0.029876
10.716687 26.751251 -0.049446
11.031426 26.751251 -0.067200
11.346168 26.751251 -0.070883
11.660909 26.751251 -0.045501
11.975650 26.751251 -0.062873
12.290391 26.751251 -0.063234
12.605132 26.751251 -0.050461
12.919873 26.751251 -0.026227
13.234614 26.751251 0.014623
13.549356 26.751251 0.026173
13.864097 26.751251 0.001819
14.178838 26.751251 -0.002035
14.493579 26.751251 0.021706
14.808320 26.751251 0.086115
15.123059 26.751251 0.199744
15.437800 26.751251 0.417118
15.752542 26.751251 0.565537
16.067284 26.751251 0.000000
16.382023 26.751251 0.000000
16.696766 26.751251 0.000000
17.011505 26.751251 0.000000
17.326248 26.751251 0.000000
17.640987 26.751251 0.000000
17.955730 26.751251 0.000000
18.270470 26.751251 0.000000
18.585213 26.751251 0.000000
18.899952 26.751251 0.000000
-7.223550 26.436510 0.000000
-6.908809 26.436510 0.006881
-6.594068 26.436510 0.004453
-6.279327 26.436510 0.004053
-5.964586 26.436510 0.004279
-5.649845 26.436510 0.003859
-5.335104 26.436510 0.002985
-5.020363 26.436510 0.002044
-4.705622 26.436510 0.000908
-4.390881 26.436510 -0.000145
-4.076140 26.436510 -0.001071
-3.761399 26.436510 -0.001952
-3.446658 26.436510 -0.002492
-3.131917 26.436510 -0.002539
-2.817176 26.436510 -0.002049
-2.502435 26.436510 -0.001086
-2.187694 26.436510 0.000102
-1.872953 26.436510 0.001324
-1.558212 26.436510 0.002131
-1.243471 26.436510 0.002685
-0.928730 26.436510 0.003057
-0.613989 26.436510 0.002990
-0.299248 26.436510 0.002466
0.015493 26.436510 0.001696
0.330234 26.436510 0.000900
0.644975 26.436510 0.000172
0.959716 26.436510 -0.000636
1.274457 26.436510 -0.001262
1.589198 26.436510 -0.001693
1.903938 26.436510 -0.001959
2.218679 26.436510 -0.001747
2.533421 26.436510 -0.001148
2.848162 26.436510 -0.000442
3.162903 26.436510 0.000276
3.477644 26.436510 0.000861
3.792385 26.436510 0.000938
4.107125 26.436510 0.000749
4.421866 26.436510 0.000701
4.736608 26.436510 0.000437
5.051349 26.436510 -0.000090
5.366090 26.436510 -0.000635
5.680831 26.436510 -0.001088
5.995571 26.436510 -0.001385
6.310312 26.436510 -0.001496
6.625053 26.436510 -0.001686
6.939795 26.436510 -0.002377
7.254536 26.436510 -0.003050
7.569277 26.436510 -0.003571
7.884017 26.436510 -0.004778
8.198758 26.436510 -0.008231
8.513499 26.436510 -0.010371
8.828240 26.436510 -0.012552
9.142982 26.436510 -0.009710
9.457723 26.436510 -0.013284
9.772464 26.436510 -0.017583
10.087205 26.436510 -0.022587
10.401946 26.436510 -0.028043
10.716687 26.436510 -0.049247
11.031426 26.436510 -0.055429
11.346168 26.436510 -0.062773
11.660909 26.436510 -0.050211
11.975650 26.436510 -0.041062
12.290391 26.436510 -0.044053
12.605132 26.436510 -0.052545
12.919873 26.436510 -0.022607
13.234614 26.436510 0.000764
13.549356 26.436510 0.014674
13.864097 26.436510 -0.007052
14.178838 26.436510 -0.026486
14.493579 26.436510 0.028301
14.808320 26.436510 0.104267
15.123059 26.436510 0.247358
15.437800 26.436510 0.370959
15.752542 26.436510 0.573768
16.067284 26.436510 0.000000
16.382023 26.436510 0.000000
16.696766 26.436510 0.000000
17.011505 26.436510 0.000000
17.326248 26.436510 0.000000
17.640987 26.436510 0.000000
17.955730 26.436510 0.000000
18.270470 26.436510 0.000000
18.585213 26.436510 0.000000
18.899952 26.436510 0.000000
-7.223550 26.121769 0.000000
-6.908809 26.121769 0.007790
-6.594068 26.121769 0.004758
-6.279327 26.121769 0.003708
-5.964586 26.121769 0.003493
-5.649845 26.121769 0.002731
-5.335104 26.121769 0.001592
-5.020363 26.121769 0.000446
-4.705622 26.121769 -0.000692
-4.390881 26.121769 -0.001480
-4.076140 26.121769 -0.002009
-3.761399 26.121769 -0.002372
-3.446658 26.121769 -0.002291
-3.131917 26.121769 -0.001707
-2.817176 26.121769 -0.000765
-2.502435 26.121769 0.000404
-2.187694 26.121769 0.001570
-1.872953 26.121769 0.002444
-1.558212 26.121769 0.002741
-1.243471 26.121769 0.002820
-0.928730 26.121769 0.002677
-0.613989 26.121769 0.002189
-0.299248 26.121769 0.001466
0.015493 26.121769 0.000711
0.330234 26.121769 0.000050
0.644975 26.121769 -0.000498
0.959716 26.121769 -0.001083
1.274457 26.121769 -0.001482
1.589198 26.121769 -0.001520
1.903938 26.121769 -0.001373
2.218679 26.121769 -0.000867
2.533421 26.121769 -0.000222
2.848162 26.121769 0.000318
3.162903 26.121769 0.000814
3.477644 26.121769 0.001157
3.792385 26.121769 0.000921
4.107125 26.121769 0.000513
4.421866 26.121769 0.000306
4.736608 26.121769 0.000055
5.051349 26.121769 -0.000381
5.366090 26.121769 -0.000871
5.680831 26.121769 -0.001274
5.995571 26.121769 -0.001374
6.310312 26.121769 -0.001304
6.625053 26.121769 -0.001436
6.939795 26.121769 -0.002526
7.254536 26.121769 -0.003556
7.569277 26.121769 -0.004663
7.884017 26.121769 -0.005112
8.198758 26.121769 -0.006887
8.513499 26.121769 -0.008354
8.828240 26.121769 -0.012022
9.142982 26.121769 -0.013255
9.457723 26.121769 -0.018208
9.772464 26.121769 -0.018063
10.087205 26.121769 -0.023835
10.401946 26.121769 -0.033439
10.716687 26.121769 -0.044732
11.031426 26.121769 -0.058273
11.346168 26.121769 -0.046510
11.660909 26.121769 -0.042381
11.975650 26.121769 -0.036130
12.290391 26.121769 -0.057045
12.605132 26.121769 -0.021182
12.919873 26.121769 -0.005513
13.234614 26.121769 0.004090
13.549356 26.121769 0.022043
13.864097 26.121769 -0.029237
14.178838 26.121769 -0.016355
14.493579 26.121769 0.019065
14.808320 26.121769 0.104715
15.123059 26.121769 0.224077
15.437800 26.121769 0.411482
15.752542 26.121769 0.499687
16.067284 26.121769 0.000000
16.382023 26.121769 0.000000
16.696766 26.121769 0.000000
17.011505 26.121769 0.000000
17.326248 26.121769 0.000000
17.640987 26.121769 0.000000
17.955730 26.121769 0.000000
18.270470 26.121769 0.000000
18.585213 26.121769 0.000000
18.899952 26.121769 0.000000
-7.223550 25.807028 0.000000
-6.908809 25.807028 0.008114
-6.594068 25.807028 0.004479
-6.279327 25.807028 0.002845
-5.964586 25.807028 0.002119
-5.649845 25.807028 0.001180
-5.335104 25.807028 0.000013
-5.020363 25.807028 -0.001091
-4.705622 25.807028 -0.001949
-4.390881 25.807028 -0.002227
-4.076140 25.807028 -0.002180
-3.761399 25.807028 -0.001923
-3.446658 25.807028 -0.001283
-3.131917 25.807028 -0.000251
-2.817176 25.807028 0.000734
-2.502435 25.807028 0.001671
-2.187694 25.807028 0.002490
-1.872953 25.807028 0.002909
-1.558212 25.807028 0.002725
-1.243471 25.807028 0.002407
-0.928730 25.807028 0.001786
-0.613989 25.807028 0.001058
-0.299248 25.807028 0.000384
0.015493 25.807028 -0.000099
0.330234 25.807028 -0.000510
0.644975 25.807028 -0.000772
0.959716 25.807028 -0.001069
1.274457 25.807028 -0.001170
1.589198 25.807028 -0.000965
1.903938 25.807028 -0.000534
2.218679 25.807028 0.000030
2.533421 25.807028 0.000506
2.848162 25.807028 0.000824
3.162903 25.807028 0.001019
3.477644 25.807028 0.001042
3.792385 25.807028 0.000649
4.107125 25.807028 0.000212
4.421866 25.807028 0.000021
4.736608 25.807028 -0.000115
5.051349 25.807028 -0.000421
5.366090 25.807028 -0.000843
5.680831 25.807028 -0.001231
5.995571 25.807028 -0.001284
6.310312 25.807028 -0.001248
6.625053 25.807028 -0.001584
6.939795 25.807028 -0.002930
7.254536 25.807028 -0.004344
7.569277 25.807028 -0.005535
7.884017 25.807028 -0.005975
8.198758 25.807028 -0.005576
8.513499 25.807028 -0.006196
8.828240 25.807028 -0.007500
9.142982 25.807028 -0.014068
9.457723 25.807028 -0.013837
9.772464 25.807028 -0.023162
10.087205 25.807028 -0.025248
10.401946 25.807028 -0.035268
10.716687 25.807028 -0.045313
11.031426 25.807028 -0.053007
11.346168 25.807028 -0.043262
11.660909 25.807028 -0.024665
11.975650 25.807028 -0.036411
12.290391 25.807028 -0.019801
12.605132 25.807028 0.005728
12.919873 25.807028 0.007459
13.234614 25.807028 0.023166
13.549356 25.807028 0.010872
13.864097 25.807028 -0.029958
14.178838 25.807028 0.000329
14.493579 25.807028 0.019575
14.808320 25.807028 0.086110
15.123059 25.807028 0.224735
15.437800 25.807028 0.403391
15.752542 25.807028 0.639044
16.067284 25.807028 0.000000
16.382023 25.807028 0.000000
16.696766 25.807028 0.000000
17.011505 25.807028 0.000000
17.326248 25.807028 0.000000
17.640987 25.807028 0.000000
17.955730 25.807028 0.000000
18.270470 25.807028 0.000000
18.585213 25.807028 0.000000
18.899952 25.807028 0.000000
-7.223550 25.492287 0.000000
-6.908809 25.492287 0.007542
-6.594068 25.492287 0.003624
-6.279327 25.492287 0.001542
-5.964586 25.492287 0.000485
-5.649845 25.492287 -0.000451
-5.335104 25.492287 -0.001363
-5.020363 25.492287 -0.002061
-4.705622 25.492287 -0.002393
-4.390881 25.492287 -0.002095
-4.076140 25.492287 -0.001484
-3.761399 25.492287 -0.000798
-3.446658 25.492287 0.000163
-3.131917 25.492287 0.001222
-2.817176 25.492287 0.002006
-2.502435 25.492287 0.002498
-2.187694 25.492287 0.002790
-1.872953 25.492287 0.002686
-1.558212 25.492287 0.002174
-1.243471 25.492287 0.001545
-0.928730 25.492287 0.000720
-0.613989 25.492287 -0.000107
-0.299248 25.492287 -0.000529
0.015493 25.492287 -0.000659
0.330234 25.492287 -0.000654
0.644975 25.492287 -0.000621
0.959716 25.492287 -0.000624
1.274457 25.492287 -0.000520
1.589198 25.492287 -0.000278
1.903938 25.492287 0.000216
2.218679 25.492287 0.000678
2.533421 25.492287 0.000928
2.848162 25.492287 0.001040
3.162903 25.492287 0.000978
3.477644 25.492287 0.000762
3.792385 25.492287 0.000384
4.107125 25.492287 0.000104
4.421866 25.492287 0.000005
4.736608 25.492287 0.000016
5.051349 25.492287 -0.000232
5.366090 25.492287 -0.000664
5.680831 25.492287 -0.001071
5.995571 25.492287 -0.001255
6.310312 25.492287 -0.001471
6.625053 25.492287 -0.002216
6.939795 25.492287 -0.003596
7.254536 25.492287 -0.004854
7.569277 25.492287 -0.005251
7.884017 25.492287 -0.004754
8.198758 25.492287 -0.005280
8.513499 25.492287 -0.004631
8.828240 25.492287 -0.007207
9.142982 25.492287 -0.009585
9.457723 25.492287 -0.011366
9.772464 25.492287 -0.023229
10.087205 25.492287 -0.027871
10.401946 25.492287 -0.027665
10.716687 25.492287 -0.032248
11.031426 25.492287 -0.049523
11.346168 25.492287 -0.035698
11.660909 25.492287 -0.030547
11.975650 25.492287 -0.014585
12.290391 25.492287 -0.005675
12.605132 25.492287 -0.011268
12.919873 25.492287 0.014680
13.234614 25.492287 0.026589
13.549356 25.492287 -0.016931
13.864097 25.492287 -0.015609
14.178838 25.492287 -0.025884
14.493579 25.492287 0.020855
14.808320 25.492287 0.088119
15.123059 25.492287 0.231461
15.437800 25.492287 0.434280
15.752542 25.492287 0.568200
16.067284 25.492287 0.000000
16.382023 25.492287 0.000000
16.696766 25.492287 0.000000
17.011505 25.492287 0.000000
17.326248 25.492287 0.000000
17.640987 25.492287 0.000000
17.955730 25.492287 0.000000
18.270470 25.492287 0.000000
18.585213 25.492287 0.000000
18.899952 25.492287 0.000000
-7.223550 25.177546 0.000000
-6.908809 25.177546 0.006235
-6.594068 25.177546 0.002324
-6.279327 25.177546 0.000055
-5.964586 25.177546 -0.000969
-5.649845 25.177546 -0.001651
-5.335104 25.177546 -0.002052
-5.020363 25.177546 -0.002109
-4.705622 25.177546 -0.001844
-4.390881 25.177546 -0.001062
-4.076140 25.177546 -0.000153
-3.761399 25.177546 0.000610
-3.446658 25.177546 0.001504
-3.131917 25.177546 0.002271
-2.817176 25.177546 0.002697
-2.502435 25.177546 0.002671
-2.187694 25.177546 0.002463
-1.872953 25.177546 0.001993
-1.558212 25.177546 0.001280
-1.243471 25.177546 0.000605
-0.928730 25.177546 -0.000173
-0.613989 25.177546 -0.000887
-0.299248 25.177546 -0.001003
0.015493 25.177546 -0.000785
0.330234 25.177546 -0.000452
0.644975 25.177546 -0.000217
0.959716 25.177546 -0.000050
1.274457 25.177546 0.000168
1.589198 25.177546 0.000250
1.903938 25.177546 0.000617
2.218679 25.177546 0.000984
2.533421 25.177546 0.001033
2.848162 25.177546 0.001019
3.162903 25.177546 0.000807
3.477644 25.177546 0.000440
3.792385 25.177546 0.000263
4.107125 25.177546 0.000203
4.421866 25.177546 0.000220
4.736608 25.177546 0.000294
5.051349 25.177546 0.000038
5.366090 25.177546 -0.000557
5.680831 25.177546 -0.001092
5.995571 25.177546 -0.001469
6.310312 25.177546 -0.001971
6.625053 25.177546 -0.002817
6.939795 25.177546 -0.004064
7.254536 25.177546 -0.004903
7.569277 25.177546 -0.004521
7.884017 25.177546 -0.003800
8.198758 25.177546 -0.003068
8.513499 25.177546 -0.002884
8.828240 25.177546 -0.001919
9.142982 25.177546 -0.007049
9.457723 25.177546 -0.011354
9.772464 25.177546 -0.016692
10.087205 25.177546 -0.028434
10.401946 25.177546 -0.021947
10.716687 25.177546 -0.026957
11.031426 25.177546 -0.046131
11.346168 25.177546 -0.036991
11.660909 25.177546 -0.032498
11.975650 25.177546 -0.004566
12.290391 25.177546 -0.001596
12.605132 25.177546 0.013275
12.919873 25.177546 0.026630
13.234614 25.177546 0.030838
13.549356 25.177546 0.013636
13.864097 25.177546 -0.017591
14.178838 25.177546 0.000148
14.493579 25.177546 0.051754
14.808320 25.177546 0.103901
15.123059 25.177546 0.209057
15.437800 25.177546 0.392368
15.752542 25.177546 0.543538
16.067284 25.177546 0.000000
16.382023 25.177546 0.000000
16.696766 25.177546 0.000000
17.011505 25.177546 0.000000
17.326248 25.177546 0.000000
17.640987 25.177546 0.000000
17.955730 25.177546 0.000000
18.270470 25.177546 0.000000
18.585213 25.177546 0.000000
18.899952 25.177546 0.000000
-7.223550 24.862804 0.000000
-6.908809 24.862804 0.004454
-6.594068 24.862804 0.000773
-6.279327 24.862804 -0.001156
-5.964586 24.862804 -0.001795
-5.649845 24.862804 -0.001943
-5.335104 24.862804 -0.001731
-5.020363 24.862804 -0.001243
-4.705622 24.862804 -0.000549
-4.390881 24.862804 0.000392
-4.076140 24.862804 0.001301
-3.761399 24.862804 0.001807
-3.446658 24.862804 0.002341
-3.131917 24.862804 0.002716
-2.817176 24.862804 0.002676
-2.502435 24.862804 0.002256
-2.187694 24.862804 0.001690
-1.872953 24.862804 0.001084
-1.558212 24.862804 0.000379
-1.243471 24.862804 -0.000140
-0.928730 24.862804 -0.000649
-0.613989 24.862804 -0.001055
-0.299248 24.862804 -0.000923
0.015493 24.862804 -0.000499
0.330234 24.862804 -0.000091
0.644975 24.862804 0.000180
0.959716 24.862804 0.000342
1.274457 24.862804 0.000533
1.589198 24.862804 0.000528
1.903938 24.862804 0.000739
2.218679 24.862804 0.001005
2.533421 24.862804 0.001000
2.848162 24.862804 0.000872
3.162903 24.862804 0.000591
3.477644 24.862804 0.000313
3.792385 24.862804 0.000325
4.107125 24.862804 0.000415
4.421866 24.862804 0.000387
4.736608 24.862804 0.000387
5.051349 24.862804 0.000021
5.366090 24.862804 -0.000746
5.680831 24.862804 -0.001389
5.995571 24.862804 -0.001936
6.310312 24.862804 -0.002543
6.625053 24.862804 -0.003181
6.939795 24.862804 -0.003620
7.254536 24.862804 -0.003603
7.569277 24.862804 -0.002483
7.884017 24.862804 -0.001695
8.198758 24.862804 -0.000769
8.513499 24.862804 -0.001184
8.828240 24.862804 -0.001339
9.142982 24.862804 -0.005015
9.457723 24.862804 -0.007117
9.772464 24.862804 -0.021324
10.087205 24.862804 -0.027008
10.401946 24.862804 -0.021117
10.716687 24.862804 -0.020323
11.031426 24.862804 -0.034596
11.346168 24.862804 -0.042693
11.660909 24.862804 -0.034949
11.975650 24.862804 0.000113
12.290391 24.862804 -0.007750
12.605132 24.862804 -0.002578
12.919873 24.862804 0.005710
13.234614 24.862804 0.035775
13.549356 24.862804 0.027320
13.864097 24.862804 0.002341
14.178838 24.862804 0.018271
14.493579 24.862804 0.045688
14.808320 24.862804 0.102685
15.123059 24.862804 0.196886
15.437800 24.862804 0.339062
15.752542 24.862804 0.534456
16.067284 24.862804 0.000000
16.382023 24.862804 0.000000
16.696766 24.862804 0.000000
17.011505 24.862804 0.000000
17.326248 24.862804 0.000000
17.640987 24.862804 0.000000
17.955730 24.862804 0.000000
18.270470 24.862804 0.000000
18.585213 24.862804 0.000000
18.899952 24.862804 0.000000
-7.223550 24.548063 0.000000
-6.908809 24.548063 0.002973
-6.594068 24.548063 -0.000354
-6.279327 24.548063 -0.001696
-5.964586 24.548063 -0.001689
-5.649845 24.548063 -0.001274
-5.335104 24.548063 -0.000565
-5.020363 24.548063 0.000206
-4.705622 24.548063 0.000912
-4.390881 24.548063 0.001703
-4.076140 24.548063 0.002291
-3.761399 24.548063 0.002389
-3.446658 24.548063 0.002513
-3.131917 24.548063 0.002441
-2.817176 24.548063 0.002019
-2.502435 24.548063 0.001453
-2.187694 24.548063 0.000785
-1.872953 24.548063 0.000237
-1.558212 24.548063 -0.000250
-1.243471 24.548063 -0.000480
-0.928730 24.548063 -0.000653
-0.613989 24.548063 -0.000686
-0.299248 24.548063 -0.000404
0.015493 24.548063 -0.000062
0.330234 24.548063 0.000188
0.644975 24.548063 0.000428
0.959716 24.548063 0.000502
1.274457 24.548063 0.000648
1.589198 24.548063 0.000659
1.903938 24.548063 0.000741
2.218679 24.548063 0.000960
2.533421 24.548063 0.000996
2.848162 24.548063 0.000819
3.162903 24.548063 0.000569
3.477644 24.548063 0.000442
3.792385 24.548063 0.000474
4.107125 24.548063 0.000489
4.421866 24.548063 0.000248
4.736608 24.548063 0.000001
5.051349 24.548063 -0.000547
5.366090 24.548063 -0.001347
5.680831 24.548063 -0.001876
5.995571 24.548063 -0.002231
6.310312 24.548063 -0.002526
6.625053 24.548063 -0.002681
6.939795 24.548063 -0.002442
7.254536 24.548063 -0.001798
7.569277 24.548063 -0.000631
7.884017 24.548063 0.000568
8.198758 24.548063 -0.000549
8.513499 24.548063 -0.000641
8.828240 24.548063 -0.003556
9.142982 24.548063 -0.005487
9.457723 24.548063 -0.012205
9.772464 24.548063 -0.025009
10.087205 24.548063 -0.033229
10.401946 24.548063 -0.024755
10.716687 24.548063 -0.021847
11.031426 24.548063 -0.020204
11.346168 24.548063 -0.041873
11.660909 24.548063 -0.038435
11.975650 24.548063 -0.022199
12.290391 24.548063 -0.030288
12.605132 24.548063 -0.027470
12.919873 24.548063 -0.003240
13.234614 24.548063 0.006647
13.549356 24.548063 0.001044
13.864097 24.548063 0.015506
14.178838 24.548063 0.005752
14.493579 24.548063 0.043283
14.808320 24.548063 0.130780
15.123059 24.548063 0.223378
15.437800 24.548063 0.431102
15.752542 24.548063 0.549169
16.067284 24.548063 0.000000
16.382023 24.548063 0.000000
16.696766 24.548063 0.000000
17.011505 24.548063 0.000000
17.326248 24.548063 0.000000
17.640987 24.548063 0.000000
17.955730 24.548063 0.000000
18.270470 24.548063 0.000000
18.585213 24.548063 0.000000
18.899952 24.548063 0.000000
-7.223550 24.233322 0.000000
-6.908809 24.233322 0.002231
-6.594068 24.233322 -0.000544
-6.279327 24.233322 -0.001289
-5.964586 24.233322 -0.000760
-5.649845 24.233322 0.000057
-5.335104 24.233322 0.000878
-5.020363 24.233322 0.001582
-4.705622 24.233322 0.002013
-4.390881 24.233322 0.002373
-4.076140 24.233322 0.002576
-3.761399 24.233322 0.002371
-3.446658 24.233322 0.002097
-3.131917 24.233322 0.001707
-2.817176 24.233322 0.001144
-2.502435 24.233322 0.000646
-2.187694 24.233322 0.000092
-1.872953 24.233322 -0.000253
-1.558212 24.233322 -0.000450
-1.243471 24.233322 -0.000439
-0.928730 24.233322 -0.000366
-0.613989 24.233322 -0.000088
-0.299248 24.233322 0.000229
0.015493 24.233322 0.000283
0.330234 24.233322 0.000302
0.644975 24.233322 0.000453
0.959716 24.233322 0.000529
1.274457 24.233322 0.000628
1.589198 24.233322 0.000746
1.903938 24.233322 0.000765
2.218679 24.233322 0.000986
2.533421 24.233322 0.001117
2.848162 24.233322 0.000952
3.162903 24.233322 0.000765
3.477644 24.233322 0.000567
3.792385 24.233322 0.000454
4.107125 24.233322 0.000221
4.421866 24.233322 -0.000340
4.736608 24.233322 -0.000824
5.051349 24.233322 -0.001322
5.366090 24.233322 -0.001861
5.680831 24.233322 -0.002017
5.995571 24.233322 -0.001906
6.310312 24.233322 -0.001661
6.625053 24.233322 -0.001173
6.939795 24.233322 -0.000509
7.254536 24.233322 -0.000279
7.569277 24.233322 0.000760
7.884017 24.233322 0.000646
8.198758 24.233322 -0.000914
8.513499 24.233322 -0.000927
8.828240 24.233322 -0.004942
9.142982 24.233322 -0.007258
9.457723 24.233322 -0.015755
9.772464 24.233322 -0.028597
10.087205 24.233322 -0.032744
10.401946 24.233322 -0.028247
10.716687 24.233322 -0.032341
11.031426 24.233322 -0.030932
11.346168 24.233322 -0.033831
11.660909 24.233322 -0.046567
11.975650 24.233322 -0.034676
12.290391 24.233322 -0.035776
12.605132 24.233322 -0.019806
12.919873 24.233322 -0.021174
13.234614 24.233322 0.004089
13.549356 24.233322 -0.005734
13.864097 24.233322 -0.012797
14.178838 24.233322 0.023956
14.493579 24.233322 0.059912
14.808320 24.233322 0.160648
15.123059 24.233322 0.252323
15.437800 24.233322 0.414003
15.752542 24.233322 0.601487
16.067284 24.233322 0.000000
16.382023 24.233322 0.000000
16.696766 24.233322 0.000000
17.011505 24.233322 0.000000
17.326248 24.233322 0.000000
17.640987 24.233322 0.000000
17.955730 24.233322 0.000000
18.270470 24.233322 0.000000
18.585213 24.233322 0.000000
18.899952 24.233322 0.000000
-7.223550 23.918581 0.000000
-6.908809 23.918581 0.002508
-6.594068 23.918581 0.000204
-6.279327 23.918581 -0.000119
-5.964586 23.918581 0.000574
-5.649845 23.918581 0.001350
-5.335104 23.918581 0.002001
-5.020363 23.918581 0.002397
-4.705622 23.918581 0.002433
-4.390881 23.918581 0.002340
-4.076140 23.918581 0.002217
-3.761399 23.918581 0.001818
-3.446658 23.918581 0.001373
-3.131917 23.918581 0.000857
-2.817176 23.918581 0.000392
-2.502435 23.918581 -0.000001
-2.187694 23.918581 -0.000253
-1.872953 23.918581 -0.000283
-1.558212 23.918581 -0.000225
-1.243471 23.918581 -0.000162
-0.928730 23.918581 0.000007
-0.613989 23.918581 0.000371
-0.299248 23.918581 0.000593
0.015493 23.918581 0.000366
0.330234 23.918581 0.000158
0.644975 23.918581 0.000300
0.959716 23.918581 0.000517
1.274457 23.918581 0.000756
1.589198 23.918581 0.000947
1.903938 23.918581 0.000892
2.218679 23.918581 0.001042
2.533421 23.918581 0.001237
2.848162 23.918581 0.001150
3.162903 23.918581 0.000858
3.477644 23.918581 0.000416
3.792385 23.918581 0.000033
4.107125 23.918581 -0.000463
4.421866 23.918581 -0.001165
4.736608 23.918581 -0.001674
5.051349 23.918581 -0.001820
5.366090 23.918581 -0.001802
5.680831 23.918581 -0.001372
5.995571 23.918581 -0.000895
6.310312 23.918581 -0.000175
6.625053 23.918581 0.000543
6.939795 23.918581 0.001004
7.254536 23.918581 0.000657
7.569277 23.918581 0.000074
7.884017 23.918581 -0.000465
8.198758 23.918581 -0.001445
8.513499 23.918581 -0.003952
8.828240 23.918581 -0.004753
9.142982 23.918581 -0.009940
9.457723 23.918581 -0.017673
9.772464 23.918581 -0.024967
10.087205 23.918581 -0.033719
10.401946 23.918581 -0.029758
10.716687 23.918581 -0.038978
11.031426 23.918581 -0.032025
11.346168 23.918581 -0.034973
11.660909 23.918581 -0.036873
11.975650 23.918581 -0.028801
12.290391 23.918581 -0.035216
12.605132 23.918581 -0.012678
12.919873 23.918581 -0.010089
13.234614 23.918581 -0.000039
13.549356 23.918581 0.010293
13.864097 23.918581 -0.010388
14.178838 23.918581 0.010589
14.493579 23.918581 0.096722
14.808320 23.918581 0.125868
15.123059 23.918581 0.254792
15.437800 23.918581 0.443920
15.752542 23.918581 0.641876
16.067284 23.918581 0.000000
16.382023 23.918581 0.000000
16.696766 23.918581 0.000000
17.011505 23.918581 0.000000
17.326248 23.918581 0.000000
17.640987 23.918581 0.000000
17.955730 23.918581 0.000000
18.270470 23.918581 0.000000
18.585213 23.918581 0.000000
18.899952 23.918581 0.000000
-7.223550 23.603840 0.000000
-6.908809 23.603840 0.003579
-6.594068 23.603840 0.001571
-6.279327 23.603840 0.001281
-5.964586 23.603840 0.001733
-5.649845 23.603840 0.002162
-5.335104 23.603840 0.002417
-5.020363 23.603840 0.002438
-4.705622 23.603840 0.002164
-4.390881 23.603840 0.001798
-4.076140 23.603840 0.001528
-3.761399 23.603840 0.001178
-3.446658 23.603840 0.000725
-3.131917 23.603840 0.000275
-2.817176 23.603840 -0.000050
-2.502435 23.603840 -0.000250
-2.187694 23.603840 -0.000223
-1.872953 23.603840 -0.000039
-1.558212 23.603840 0.000133
-1.243471 23.603840 0.000178
-0.928730 23.603840 0.000289
-0.613989 23.603840 0.000581
-0.299248 23.603840 0.000645
0.015493 23.603840 0.000297
0.330234 23.603840 0.000078
0.644975 23.603840 0.000208
0.959716 23.603840 0.000605
1.274457 23.603840 0.001063
1.589198 23.603840 0.001243
1.903938 23.603840 0.001084
2.218679 23.603840 0.001038
2.533421 23.603840 0.001117
2.848162 23.603840 0.001028
3.162903 23.603840 0.000578
3.477644 23.603840 -0.000190
3.792385 23.603840 -0.000771
4.107125 23.603840 -0.001330
4.421866 23.603840 -0.001791
4.736608 23.603840 -0.001950
5.051349 23.603840 -0.001562
5.366090 23.603840 -0.000966
5.680831 23.603840 -0.000141
5.995571 23.603840 0.000610
6.310312 23.603840 0.001285
6.625053 23.603840 0.001642
6.939795 23.603840 0.001327
7.254536 23.603840 -0.000046
7.569277 23.603840 -0.001292
7.884017 23.603840 -0.002637
8.198758 23.603840 -0.006094
8.513499 23.603840 -0.007305
8.828240 23.603840 -0.007163
9.142982 23.603840 -0.008008
9.457723 23.603840 -0.010289
9.772464 23.603840 -0.025065
10.087205 23.603840 -0.035524
10.401946 23.603840 -0.031050
10.716687 23.603840 -0.045097
11.031426 23.603840 -0.049851
11.346168 23.603840 -0.043634
11.660909 23.603840 -0.022039
11.975650 23.603840 -0.019993
12.290391 23.603840 -0.031977
12.605132 23.603840 -0.022210
12.919873 23.603840 0.004458
13.234614 23.603840 -0.006364
13.549356 23.603840 0.010653
13.864097 23.603840 0.030681
14.178838 23.603840 0.016966
14.493579 23.603840 0.083105
14.808320 23.603840 0.147219
15.123059 23.603840 0.249113
15.437800 23.603840 0.462196
15.752542 23.603840 0.681531
16.067284 23.603840 0.000000
16.382023 23.603840 0.000000
16.696766 23.603840 0.000000
17.011505 23.603840 0.000000
17.326248 23.603840 0.000000
17.640987 23.603840 0.000000
17.955730 23.603840 0.000000
18.270470 23.603840 0.000000
18.585213 23.603840 0.000000
18.899952 23.603840 0.000000
-7.223550 23.289099 0.000000
-6.908809 23.289099 0.004804
-6.594068 23.289099 0.002858
-6.279327 23.289099 0.002365
-5.964586 23.289099 0.002345
-5.649845 23.289099 0.002280
-5.335104 23.289099 0.002125
-5.020363 23.289099 0.001813
-4.705622 23.289099 0.001380
-4.390881 23.289099 0.001022
-4.076140 23.289099 0.000812
-3.761399 23.289099 0.000611
-3.446658 23.289099 0.000352
-3.131917 23.289099 0.000069
-2.817176 23.289099 -0.000134
-2.502435 23.289099 -0.000198
-2.187694 23.289099 0.000011
-1.872953 23.289099 0.000258
-1.558212 23.289099 0.000386
-1.243471 23.289099 0.000390
-0.928730 23.289099 0.000409
-0.613989 23.289099 0.000567
-0.299248 23.289099 0.000569
0.015493 23.289099 0.000343
0.330234 23.289099 0.000227
0.644975 23.289099 0.000372
0.959716 23.289099 0.000910
1.274457 23.289099 0.001476
1.589198 23.289099 0.001509
1.903938 23.289099 0.001142
2.218679 23.289099 0.000812
2.533421 23.289099 0.000636
2.848162 23.289099 0.000471
3.162903 23.289099 -0.000086
3.477644 23.289099 -0.000913
3.792385 23.289099 -0.001483
4.107125 23.289099 -0.001783
4.421866 23.289099 -0.001713
4.736608 23.289099 -0.001328
5.051349 23.289099 -0.000530
5.366090 23.289099 0.000437
5.680831 23.289099 0.001246
5.995571 23.289099 0.001770
6.310312 23.289099 0.001951
6.625053 23.289099 0.001630
6.939795 23.289099 0.000346
7.254536 23.289099 -0.002031
7.569277 23.289099 -0.003741
7.884017 23.289099 -0.005492
8.198758 23.289099 -0.009010
8.513499 23.289099 -0.008927
8.828240 23.289099 -0.005269
9.142982 23.289099 -0.007098
9.457723 23.289099 -0.005875
9.772464 23.289099 -0.019049
10.087205 23.289099 -0.033355
10.401946 23.289099 -0.036346
10.716687 23.289099 -0.035912
11.031426 23.289099 -0.037785
11.346168 23.289099 -0.035453
11.660909 23.289099 -0.033692
11.975650 23.289099 -0.025549
12.290391 23.289099 -0.026874
12.605132 23.289099 -0.030264
12.919873 23.289099 0.016761
13.234614 23.289099 -0.004423
13.549356 23.289099 -0.000127
13.864097 23.289099 0.002691
14.178838 23.289099 0.046288
14.493579 23.289099 0.069559
14.808320 23.289099 0.147966
15.123059 23.289099 0.256396
15.437800 23.289099 0.462743
15.752542 23.289099 0.661402
16.067284 23.289099 0.000000
16.382023 23.289099 0.000000
16.696766 23.289099 0.000000
17.011505 23.289099 0.000000
17.326248 23.289099 0.000000
17.640987 23.289099 0.000000
17.955730 23.289099 0.000000
18.270470 23.289099 0.000000
18.585213 23.289099 0.000000
18.899952 23.289099 0.000000
-7.223550 22.974360 0.000000
-6.908809 22.974360 0.005602
-6.594068 22.974360 0.003454
-6.279327 22.974360 0.002681
-5.964586 22.974360 0.002327
-5.649845 22.974360 0.001883
-5.335104 22.974360 0.001423
-5.020363 22.974360 0.000967
-4.705622 22.974360 0.000610
-4.390881 22.974360 0.000385
-4.076140 22.974360 0.000319
-3.761399 22.974360 0.000302
-3.446658 22.974360 0.000264
-3.131917 22.974360 0.000111
-2.817176 22.974360 -0.000017
-2.502435 22.974360 -0.000016
-2.187694 22.974360 0.000244
-1.872953 22.974360 0.000441
-1.558212 22.974360 0.000500
-1.243471 22.974360 0.000522
-0.928730 22.974360 0.000551
-0.613989 22.974360 0.000608
-0.299248 22.974360 0.000664
0.015493 22.974360 0.000645
0.330234 22.974360 0.000639
0.644975 22.974360 0.000763
0.959716 22.974360 0.001269
1.274457 22.974360 0.001723
1.589198 22.974360 0.001490
1.903938 22.974360 0.000865
2.218679 22.974360 0.000204
2.533421 22.974360 -0.000244
2.848162 22.974360 -0.000484
3.162903 22.974360 -0.000858
3.477644 22.974360 -0.001319
3.792385 22.974360 -0.001577
4.107125 22.974360 -0.001355
4.421866 22.974360 -0.000711
4.736608 22.974360 0.000062
5.051349 22.974360 0.000929
5.366090 22.974360 0.001683
5.680831 22.974360 0.001994
5.995571 22.974360 0.001918
6.310312 22.974360 0.001449
6.625053 22.974360 0.000271
6.939795 22.974360 -0.001646
7.254536 22.974360 -0.004233
7.569277 22.974360 -0.005955
7.884017 22.974360 -0.007705
8.198758 22.974360 -0.009035
8.513499 22.974360 -0.009747
8.828240 22.974360 -0.004486
9.142982 22.974360 -0.004836
9.457723 22.974360 -0.005502
9.772464 22.974360 -0.017840
10.087205 22.974360 -0.030832
10.401946 22.974360 -0.036319
10.716687 22.974360 -0.032324
11.031426 22.974360 -0.041934
11.346168 22.974360 -0.037697
11.660909 22.974360 -0.030816
11.975650 22.974360 -0.023768
12.290391 22.974360 -0.032318
12.605132 22.974360 -0.011913
12.919873 22.974360 -0.012999
13.234614 22.974360 -0.006037
13.549356 22.974360 -0.001399
13.864097 22.974360 0.035793
14.178838 22.974360 0.058584
14.493579 22.974360 0.070190
14.808320 22.974360 0.142402
15.123059 22.974360 0.247269
15.437800 22.974360 0.414852
15.752542 22.974360 0.592112
16.067284 22.974360 0.000000
16.382023 22.974360 0.000000
16.696766 22.974360 0.000000
17.011505 22.974360 0.000000
17.326248 22.974360 0.000000
17.640987 22.974360 0.000000
17.955730 22.974360 0.000000
18.270470 22.974360 0.000000
18.585213 22.974360 0.000000
18.899952 22.974360 0.000000
-7.223550 22.659618 0.000000
-6.908809 22.659618 0.005559
-6.594068 22.659618 0.003175
-6.279327 22.659618 0.002234
-5.964586 22.659618 0.001782
-5.649845 22.659618 0.001233
-5.335104 22.659618 0.000701
-5.020363 22.659618 0.000335
-4.705622 22.659618 0.000144
-4.390881 22.659618 0.000086
-4.076140 22.659618 0.000158
-3.761399 22.659618 0.000281
-3.446658 22.659618 0.000389
-3.131917 22.659618 0.000294
-2.817176 22.659618 0.000163
-2.502435 22.659618 0.000126
-2.187694 22.659618 0.000325
-1.872953 22.659618 0.000485
-1.558212 22.659618 0.000520
-1.243471 22.659618 0.000629
-0.928730 22.659618 0.000754
-0.613989 22.659618 0.000868
-0.299248 22.659618 0.001046
0.015493 22.659618 0.001122
0.330234 22.659618 0.001170
0.644975 22.659618 0.001208
0.959716 22.659618 0.001419
1.274457 22.659618 0.001446
1.589198 22.659618 0.000925
1.903938 22.659618 0.000117
2.218679 22.659618 -0.000771
2.533421 22.659618 -0.001289
2.848162 22.659618 -0.001347
3.162903 22.659618 -0.001167
3.477644 22.659618 -0.001016
3.792385 22.659618 -0.000804
4.107125 22.659618 -0.000171
4.421866 22.659618 0.000793
4.736608 22.659618 0.001620
5.051349 22.659618 0.002037
5.366090 22.659618 0.002092
5.680831 22.659618 0.001635
5.995571 22.659618 0.000730
6.310312 22.659618 -0.000525
6.625053 22.659618 -0.002078
6.939795 22.659618 -0.003907
7.254536 22.659618 -0.005722
7.569277 22.659618 -0.006553
7.884017 22.659618 -0.006833
8.198758 22.659618 -0.007628
8.513499 22.659618 -0.007803
8.828240 22.659618 -0.004721
9.142982 22.659618 -0.006390
9.457723 22.659618 -0.014027
9.772464 22.659618 -0.022262
10.087205 22.659618 -0.030805
10.401946 22.659618 -0.039205
10.716687 22.659618 -0.041849
11.031426 22.659618 -0.030669
11.346168 22.659618 -0.044388
11.660909 22.659618 -0.025402
11.975650 22.659618 -0.028305
12.290391 22.659618 -0.031605
12.605132 22.659618 -0.031312
12.919873 22.659618 -0.033169
13.234614 22.659618 -0.031451
13.549356 22.659618 -0.018520
13.864097 22.659618 -0.000160
14.178838 22.659618 0.020084
14.493579 22.659618 0.067850
14.808320 22.659618 0.145409
15.123059 22.659618 0.214820
15.437800 22.659618 0.420460
15.752542 22.659618 0.603600
16.067284 22.659618 0.000000
16.382023 22.659618 0.000000
16.696766 22.659618 0.000000
17.011505 22.659618 0.000000
17.326248 22.659618 0.000000
17.640987 22.659618 0.000000
17.955730 22.659618 0.000000
18.270470 22.659618 0.000000
18.585213 22.659618 0.000000
18.899952 22.659618 0.000000
-7.223550 22.344877 0.000000
-6.908809 22.344877 0.005012
-6.594068 22.344877 0.002412
-6.279327 22.344877 0.001385
-5.964586 22.344877 0.001012
-5.649845 22.344877 0.000647
-5.335104 22.344877 0.000288
-5.020363 22.344877 0.000129
-4.705622 22.344877 0.000038
-4.390881 22.344877 0.000110
-4.076140 22.344877 0.000240
-3.761399 22.344877 0.000356
-3.446658 22.344877 0.000480
-3.131917 22.344877 0.000394
-2.817176 22.344877 0.000265
-2.502435 22.344877 0.000217
-2.187694 22.344877 0.000404
-1.872953 22.344877 0.000605
-1.558212 22.344877 0.000697
-1.243471 22.344877 0.000841
-0.928730 22.344877 0.001052
-0.613989 22.344877 0.001298
-0.299248 22.344877 0.001469
0.015493 22.344877 0.001467
0.330234 22.344877 0.001455
0.644975 22.344877 0.001368
0.959716 22.344877 0.001143
1.274457 22.344877 0.000686
1.589198 22.344877 -0.000054
1.903938 22.344877 -0.000813
2.218679 22.344877 -0.001537
2.533421 22.344877 -0.001747
2.848162 22.344877 -0.001394
3.162903 22.344877 -0.000642
3.477644 22.344877 0.000013
3.792385 22.344877 0.000543
4.107125 22.344877 0.001240
4.421866 22.344877 0.002081
4.736608 22.344877 0.002462
5.051349 22.344877 0.002139
5.366090 22.344877 0.001299
5.680831 22.344877 0.000027
5.995571 22.344877 -0.001445
6.310312 22.344877 -0.002877
6.625053 22.344877 -0.004218
6.939795 22.344877 -0.005392
7.254536 22.344877 -0.006043
7.569277 22.344877 -0.005202
7.884017 22.344877 -0.005205
8.198758 22.344877 -0.004085
8.513499 22.344877 -0.004614
8.828240 22.344877 -0.003595
9.142982 22.344877 -0.005645
9.457723 22.344877 -0.017669
9.772464 22.344877 -0.023663
10.087205 22.344877 -0.029960
10.401946 22.344877 -0.039794
10.716687 22.344877 -0.042860
11.031426 22.344877 -0.039494
11.346168 22.344877 -0.052212
11.660909 22.344877 -0.033287
11.975650 22.344877 -0.023395
12.290391 22.344877 -0.030112
12.605132 22.344877 -0.037298
12.919873 22.344877 -0.048311
13.234614 22.344877 -0.037223
13.549356 22.344877 -0.033072
13.864097 22.344877 0.009364
14.178838 22.344877 0.019057
14.493579 22.344877 0.049251
14.808320 22.344877 0.127877
15.123059 22.344877 0.218959
15.437800 22.344877 0.378903
15.752542 22.344877 0.558623
16.067284 22.344877 0.000000
16.382023 22.344877 0.000000
16.696766 22.344877 0.000000
17.011505 22.344877 0.000000
17.326248 22.344877 0.000000
17.640987 22.344877 0.000000
17.955730 22.344877 0.000000
18.270470 22.344877 0.000000
18.585213 22.344877 0.000000
18.899952 22.344877 0.000000
-7.223550 22.030136 0.000000
-6.908809 22.030136 0.004243
-6.594068 22.030136 0.001624
-6.279327 22.030136 0.000529
-5.964586 22.030136 0.000356
-5.649845 22.030136 0.000286
-5.335104 22.030136 0.000259
-5.020363 22.030136 0.000263
-4.705622 22.030136 0.000187
-4.390881 22.030136 0.000187
-4.076140 22.030136 0.000329
-3.761399 22.030136 0.000343
-3.446658 22.030136 0.000431
-3.131917 22.030136 0.000353
-2.817176 22.030136 0.000353
-2.502435 22.030136 0.000435
-2.187694 22.030136 0.000703
-1.872953 22.030136 0.000926
-1.558212 22.030136 0.001040
-1.243471 22.030136 0.001143
-0.928730 22.030136 0.001349
-0.613989 22.030136 0.001551
-0.299248 22.030136 0.001608
0.015493 22.030136 0.001431
0.330234 22.030136 0.001261
0.644975 22.030136 0.000934
0.959716 22.030136 0.000439
1.274457 22.030136 -0.000311
1.589198 22.030136 -0.000915
1.903938 22.030136 -0.001286
2.218679 22.030136 -0.001506
2.533421 22.030136 -0.001192
2.848162 22.030136 -0.000401
3.162903 22.030136 0.000608
3.477644 22.030136 0.001364
3.792385 22.030136 0.001762
4.107125 22.030136 0.002145
4.421866 22.030136 0.002445
4.736608 22.030136 0.002070
5.051349 22.030136 0.001005
5.366090 22.030136 -0.000468
5.680831 22.030136 -0.002076
5.995571 22.030136 -0.003308
6.310312 22.030136 -0.004109
6.625053 22.030136 -0.004517
6.939795 22.030136 -0.004726
7.254536 22.030136 -0.004190
7.569277 22.030136 -0.002759
7.884017 22.030136 -0.002516
8.198758 22.030136 -0.002365
8.513499 22.030136 -0.000290
8.828240 22.030136 -0.002243
9.142982 22.030136 -0.006329
9.457723 22.030136 -0.014525
9.772464 22.030136 -0.018782
10.087205 22.030136 -0.032263
10.401946 22.030136 -0.037667
10.716687 22.030136 -0.040645
11.031426 22.030136 -0.033291
11.346168 22.030136 -0.039886
11.660909 22.030136 -0.037675
11.975650 22.030136 -0.018645
12.290391 22.030136 -0.031622
12.605132 22.030136 -0.020402
12.919873 22.030136 -0.039622
13.234614 22.030136 -0.030724
13.549356 22.030136 -0.026603
13.864097 22.030136 0.000276
14.178838 22.030136 -0.001986
14.493579 22.030136 0.024474
14.808320 22.030136 0.111784
15.123059 22.030136 0.215691
15.437800 22.030136 0.371761
15.752542 22.030136 0.477505
16.067284 22.030136 0.000000
16.382023 22.030136 0.000000
16.696766 22.030136 0.000000
17.011505 22.030136 0.000000
17.326248 22.030136 0.000000
17.640987 22.030136 0.000000
17.955730 22.030136 0.000000
18.270470 22.030136 0.000000
18.585213 22.030136 0.000000
18.899952 22.030136 0.000000
-7.223550 21.715395 0.000000
-6.908809 21.715395 0.003527
-6.594068 21.715395 0.001003
-6.279327 21.715395 0.000042
-5.964586 21.715395 0.000073
-5.649845 21.715395 0.000208
-5.335104 21.715395 0.000371
-5.020363 21.715395 0.000504
-4.705622 21.715395 0.000405
-4.390881 21.715395 0.000300
-4.076140 21.715395 0.000310
-3.761399 21.715395 0.000337
-3.446658 21.715395 0.000399
-3.131917 21.715395 0.000456
-2.817176 21.715395 0.000587
-2.502435 21.715395 0.000816
-2.187694 21.715395 0.001194
-1.872953 21.715395 0.001392
-1.558212 21.715395 0.001396
-1.243471 21.715395 0.001289
-0.928730 21.715395 0.001350
-0.613989 21.715395 0.001336
-0.299248 21.715395 0.001207
0.015493 21.715395 0.000845
0.330234 21.715395 0.000486
0.644975 21.715395 0.000081
0.959716 21.715395 -0.000473
1.274457 21.715395 -0.000953
1.589198 21.715395 -0.001075
1.903938 21.715395 -0.000905
2.218679 21.715395 -0.000529
2.533421 21.715395 0.000196
2.848162 21.715395 0.001116
3.162903 21.715395 0.001949
3.477644 21.715395 0.002357
3.792385 21.715395 0.002199
4.107125 21.715395 0.001957
4.421866 21.715395 0.001553
4.736608 21.715395 0.000554
5.051349 21.715395 -0.000903
5.366090 21.715395 -0.002285
5.680831 21.715395 -0.003349
5.995571 21.715395 -0.003832
6.310312 21.715395 -0.003522
6.625053 21.715395 -0.002893
6.939795 21.715395 -0.002214
7.254536 21.715395 -0.000969
7.569277 21.715395 0.000118
7.884017 21.715395 -0.000492
8.198758 21.715395 -0.002631
8.513499 21.715395 -0.002397
8.828240 21.715395 -0.000018
9.142982 21.715395 -0.003544
9.457723 21.715395 -0.009239
9.772464 21.715395 -0.017478
10.087205 21.715395 -0.028540
10.401946 21.715395 -0.037701
10.716687 21.715395 -0.034963
11.031426 21.715395 -0.033633
11.346168 21.715395 -0.031072
11.660909 21.715395 -0.022344
11.975650 21.715395 -0.004647
12.290391 21.715395 -0.029072
12.605132 21.715395 -0.029862
12.919873 21.715395 -0.026706
13.234614 21.715395 -0.027387
13.549356 21.715395 -0.010693
13.864097 21.715395 -0.005112
14.178838 21.715395 0.004943
14.493579 21.715395 0.036680
14.808320 21.715395 0.093370
15.123059 21.715395 0.193985
15.437800 21.715395 0.383359
15.752542 21.715395 0.548738
16.067284 21.715395 0.000000
16.382023 21.715395 0.000000
16.696766 21.715395 0.000000
17.011505 21.715395 0.000000
17.326248 21.715395 0.000000
17.640987 21.715395 0.000000
17.955730 21.715395 0.000000
18.270470 21.715395 0.000000
18.585213 21.715395 0.000000
18.899952 21.715395 0.000000
-7.223550 21.400654 0.000000
-6.908809 21.400654 0.003026
-6.594068 21.400654 0.000759
-6.279327 21.400654 0.000050
-5.964586 21.400654 0.000144
-5.649845 21.400654 0.000276
-5.335104 21.400654 0.000459
-5.020363 21.400654 0.000620
-4.705622 21.400654 0.000568
-4.390881 21.400654 0.000395
-4.076140 21.400654 0.000335
-3.761399 21.400654 0.000442
-3.446658 21.400654 0.000616
-3.131917 21.400654 0.000846
-2.817176 21.400654 0.001062
-2.502435 21.400654 0.001387
-2.187694 21.400654 0.001711
-1.872953 21.400654 0.001742
-1.558212 21.400654 0.001501
-1.243471 21.400654 0.001127
-0.928730 21.400654 0.000855
-0.613989 21.400654 0.000526
-0.299248 21.400654 0.000241
0.015493 21.400654 -0.000127
0.330234 21.400654 -0.000447
0.644975 21.400654 -0.000652
0.959716 21.400654 -0.000804
1.274457 21.400654 -0.000723
1.589198 21.400654 -0.000273
1.903938 21.400654 0.000363
2.218679 21.400654 0.000996
2.533421 21.400654 0.001711
2.848162 21.400654 0.002276
3.162903 21.400654 0.002546
3.477644 21.400654 0.002303
3.792385 21.400654 0.001502
4.107125 21.400654 0.000639
4.421866 21.400654 -0.000276
4.736608 21.400654 -0.001398
5.051349 21.400654 -0.002480
5.366090 21.400654 -0.003010
5.680831 21.400654 -0.002963
5.995571 21.400654 -0.002376
6.310312 21.400654 -0.001315
6.625053 21.400654 -0.000180
6.939795 21.400654 0.000632
7.254536 21.400654 0.000975
7.569277 21.400654 0.000916
7.884017 21.400654 -0.001057
8.198758 21.400654 -0.002699
8.513499 21.400654 -0.003857
8.828240 21.400654 -0.004347
9.142982 21.400654 -0.008493
9.457723 21.400654 -0.011540
9.772464 21.400654 -0.016070
10.087205 21.400654 -0.026108
10.401946 21.400654 -0.041465
10.716687 21.400654 -0.035488
11.031426 21.400654 -0.025196
11.346168 21.400654 -0.024288
11.660909 21.400654 -0.017828
11.975650 21.400654 -0.010404
12.290391 21.400654 -0.021761
12.605132 21.400654 -0.042477
12.919873 21.400654 -0.026961
13.234614 21.400654 -0.039557
13.549356 21.400654 -0.018453
13.864097 21.400654 -0.022158
14.178838 21.400654 -0.015758
14.493579 21.400654 0.047993
14.808320 21.400654 0.078853
15.123059 21.400654 0.210457
15.437800 21.400654 0.379124
15.752542 21.400654 0.540931
16.067284 21.400654 0.000000
16.382023 21.400654 0.000000
16.696766 21.400654 0.000000
17.011505 21.400654 0.000000
17.326248 21.400654 0.000000
17.640987 21.400654 0.000000
17.955730 21.400654 0.000000
18.270470 21.400654 0.000000
18.585213 21.400654 0.000000
18.899952 21.400654 0.000000
-7.223550 21.085913 0.000000
-6.908809 21.085913 0.003038
-6.594068 21.085913 0.000886
-6.279327 21.085913 0.000255
-5.964586 21.085913 0.000373
-5.649845 21.085913 0.000382
-5.335104 21.085913 0.000423
-5.020363 21.085913 0.000691
-4.705622 21.085913 0.000751
-4.390881 21.085913 0.000595
-4.076140 21.085913 0.000526
-3.761399 21.085913 0.000781
-3.446658 21.085913 0.001115
-3.131917 21.085913 0.001387
-2.817176 21.085913 0.001522
-2.502435 21.085913 0.001767
-2.187694 21.085913 0.001910
-1.872953 21.085913 0.001697
-1.558212 21.085913 0.001177
-1.243471 21.085913 0.000538
-0.928730 21.085913 -0.000014
-0.613989 21.085913 -0.000451
-0.299248 21.085913 -0.000671
0.015493 21.085913 -0.000848
0.330234 21.085913 -0.000905
0.644975 21.085913 -0.000607
0.959716 21.085913 -0.000165
1.274457 21.085913 0.000386
1.589198 21.085913 0.001093
1.903938 21.085913 0.001768
2.218679 21.085913 0.002235
2.533421 21.085913 0.002494
2.848162 21.085913 0.002370
3.162903 21.085913 0.001917
3.477644 21.085913 0.001010
3.792385 21.085913 -0.000141
4.107125 21.085913 -0.001156
4.421866 21.085913 -0.001922
4.736608 21.085913 -0.002496
5.051349 21.085913 -0.002627
5.366090 21.085913 -0.002037
5.680831 21.085913 -0.001027
5.995571 21.085913 0.000085
6.310312 21.085913 0.001216
6.625053 21.085913 0.001888
6.939795 21.085913 0.001901
7.254536 21.085913 0.001424
7.569277 21.085913 -0.000783
7.884017 21.085913 -0.002250
8.198758 21.085913 -0.005294
8.513499 21.085913 -0.005306
8.828240 21.085913 -0.006240
9.142982 21.085913 -0.007955
9.457723 21.085913 -0.011523
9.772464 21.085913 -0.019818
10.087205 21.085913 -0.026635
10.401946 21.085913 -0.034675
10.716687 21.085913 -0.041881
11.031426 21.085913 -0.031729
11.346168 21.085913 -0.026386
11.660909 21.085913 -0.019326
11.975650 21.085913 -0.014229
12.290391 21.085913 -0.009840
12.605132 21.085913 -0.019960
12.919873 21.085913 -0.025197
13.234614 21.085913 -0.018883
13.549356 21.085913 -0.017536
13.864097 21.085913 -0.001003
14.178838 21.085913 0.018703
14.493579 21.085913 0.039278
14.808320 21.085913 0.076410
15.123059 21.085913 0.197205
15.437800 21.085913 0.341307
15.752542 21.085913 0.505551
16.067284 21.085913 0.000000
16.382023 21.085913 0.000000
16.696766 21.085913 0.000000
17.011505 21.085913 0.000000
17.326248 21.085913 0.000000
17.640987 21.085913 0.000000
17.955730 21.085913 0.000000
18.270470 21.085913 0.000000
18.585213 21.085913 0.000000
18.899952 21.085913 0.000000
-7.223550 20.771172 0.000000
-6.908809 20.771172 0.003317
-6.594068 20.771172 0.001095
-6.279327 20.771172 0.000496
-5.964586 20.771172 0.000594
-5.649845 20.771172 0.000487
-5.335104 20.771172 0.000515
-5.020363 20.771172 0.000873
-4.705622 20.771172 0.001093
-4.390881 20.771172 0.000969
-4.076140 20.771172 0.000945
-3.761399 20.771172 0.001305
-3.446658 20.771172 0.001594
-3.131917 20.771172 0.001681
-2.817176 20.771172 0.001596
-2.502435 20.771172 0.001631
-2.187694 20.771172 0.001453
-1.872953 20.771172 0.000999
-1.558212 20.771172 0.000349
-1.243471 20.771172 -0.000354
-0.928730 20.771172 -0.000778
-0.613989 20.771172 -0.000997
-0.299248 20.771172 -0.000900
0.015493 20.771172 -0.000709
0.330234 20.771172 -0.000402
0.644975 20.771172 0.000254
0.959716 20.771172 0.001089
1.274457 20.771172 0.001726
1.589198 20.771172 0.002252
1.903938 20.771172 0.002495
2.218679 20.771172 0.002423
2.533421 20.771172 0.002059
2.848162 20.771172 0.001265
3.162903 20.771172 0.000273
3.477644 20.771172 -0.000849
3.792385 20.771172 -0.001759
4.107125 20.771172 -0.002245
4.421866 20.771172 -0.002286
4.736608 20.771172 -0.001911
5.051349 20.771172 -0.001175
5.366090 20.771172 0.000023
5.680831 20.771172 0.001285
5.995571 20.771172 0.002172
6.310312 20.771172 0.002440
6.625053 20.771172 0.002099
6.939795 20.771172 0.001184
7.254536 20.771172 -0.000448
7.569277 20.771172 -0.003228
7.884017 20.771172 -0.004770
8.198758 20.771172 -0.006254
8.513499 20.771172 -0.005561
8.828240 20.771172 -0.006077
9.142982 20.771172 -0.010415
9.457723 20.771172 -0.016250
9.772464 20.771172 -0.016812
10.087205 20.771172 -0.024428
10.401946 20.771172 -0.039573
10.716687 20.771172 -0.046521
11.031426 20.771172 -0.043311
11.346168 20.771172 -0.023010
11.660909 20.771172 -0.021471
11.975650 20.771172 -0.019464
12.290391 20.771172 -0.009774
12.605132 20.771172 -0.016126
12.919873 20.771172 -0.025503
13.234614 20.771172 -0.033249
13.549356 20.771172 0.012918
13.864097 20.771172 0.014295
14.178838 20.771172 0.022439
14.493579 20.771172 0.042596
14.808320 20.771172 0.104702
15.123059 20.771172 0.185524
15.437800 20.771172 0.333210
15.752542 20.771172 0.453560
16.067284 20.771172 0.000000
16.382023 20.771172 0.000000
16.696766 20.771172 0.000000
17.011505 20.771172 0.000000
17.326248 20.771172 0.000000
17.640987 20.771172 0.000000
17.955730 20.771172 0.000000
18.270470 20.771172 0.000000
18.585213 20.771172 0.000000
18.899952 20.771172 0.000000
-7.223550 20.456430 0.000000
-6.908809 20.456430 0.003590
-6.594068 20.456430 0.001235
-6.279327 20.456430 0.000683
-5.964586 20.456430 0.000818
-5.649845 20.456430 0.000733
-5.335104 20.456430 0.000854
-5.020363 20.456430 0.001234
-4.705622 20.456430 0.001511
-4.390881 20.456430 0.001417
-4.076140 20.456430 0.001386
-3.761399 20.456430 0.001640
-3.446658 20.456430 0.001743
-3.131917 20.456430 0.001451
-2.817176 20.456430 0.001079
-2.502435 20.456430 0.000845
-2.187694 20.456430 0.000440
-1.872953 20.456430 -0.000067
-1.558212 20.456430 -0.000561
-1.243471 20.456430 -0.000921
-0.928730 20.456430 -0.000848
-0.613989 20.456430 -0.000572
-0.299248 20.456430 -0.000109
0.015493 20.456430 0.000362
0.330234 20.456430 0.000783
0.644975 20.456430 0.001421
0.959716 20.456430 0.002149
1.274457 20.456430 0.002463
1.589198 20.456430 0.002418
1.903938 20.456430 0.002084
2.218679 20.456430 0.001433
2.533421 20.456430 0.000631
2.848162 20.456430 -0.000381
3.162903 20.456430 -0.001341
3.477644 20.456430 -0.002048
3.792385 20.456430 -0.002218
4.107125 20.456430 -0.001814
4.421866 20.456430 -0.001010
4.736608 20.456430 -0.000073
5.051349 20.456430 0.000893
5.366090 20.456430 0.001911
5.680831 20.456430 0.002597
5.995571 20.456430 0.002527
6.310312 20.456430 0.001702
6.625053 20.456430 0.000408
6.939795 20.456430 -0.001303
7.254536 20.456430 -0.003642
7.569277 20.456430 -0.004877
7.884017 20.456430 -0.006054
8.198758 20.456430 -0.005435
8.513499 20.456430 -0.006356
8.828240 20.456430 -0.009235
9.142982 20.456430 -0.007857
9.457723 20.456430 -0.011146
9.772464 20.456430 -0.011159
10.087205 20.456430 -0.016319
10.401946 20.456430 -0.038281
10.716687 20.456430 -0.047663
11.031426 20.456430 -0.044658
11.346168 20.456430 -0.041047
11.660909 20.456430 -0.036889
11.975650 20.456430 -0.020952
12.290391 20.456430 -0.003424
12.605132 20.456430 0.013207
12.919873 20.456430 -0.006705
13.234614 20.456430 0.003351
13.549356 20.456430 0.018392
13.864097 20.456430 0.040819
14.178838 20.456430 0.022323
14.493579 20.456430 0.032004
14.808320 20.456430 0.080666
15.123059 20.456430 0.195464
15.437800 20.456430 0.319292
15.752542 20.456430 0.590317
16.067284 20.456430 0.000000
16.382023 20.456430 0.000000
16.696766 20.456430 0.000000
17.011505 20.456430 0.000000
17.326248 20.456430 0.000000
17.640987 20.456430 0.000000
17.955730 20.456430 0.000000
18.270470 20.456430 0.000000
18.585213 20.456430 0.000000
18.899952 20.456430 0.000000
-7.223550 20.141689 0.000000
-6.908809 20.141689 0.003858
-6.594068 20.141689 0.001460
-6.279327 20.141689 0.000999
-5.964586 20.141689 0.001078
-5.649845 20.141689 0.001108
-5.335104 20.141689 0.001284
-5.020363 20.141689 0.001599
-4.705622 20.141689 0.001790
-4.390881 20.141689 0.001663
-4.076140 20.141689 0.001541
-3.761399 20.141689 0.001539
-3.446658 20.141689 0.001304
-3.131917 20.141689 0.000687
-2.817176 20.141689 0.000093
-2.502435 20.141689 -0.000256
-2.187694 20.141689 -0.000584
-1.872953 20.141689 -0.000784
-1.558212 20.141689 -0.000863
-1.243471 20.141689 -0.000588
-0.928730 20.141689 0.000060
-0.613989 20.141689 0.000752
-0.299248 20.141689 0.001281
0.015493 20.141689 0.001659
0.330234 20.141689 0.001804
0.644975 20.141689 0.002015
0.959716 20.141689 0.002234
1.274457 20.141689 0.002014
1.589198 20.141689 0.001410
1.903938 20.141689 0.000685
2.218679 20.141689 -0.000110
2.533421 20.141689 -0.000840
2.848162 20.141689 -0.001444
3.162903 20.141689 -0.001775
3.477644 20.141689 -0.001683
3.792385 20.141689 -0.001072
4.107125 20.141689 -0.000031
4.421866 20.141689 0.001036
4.736608 20.141689 0.001767
5.051349 20.141689 0.002252
5.366090 20.141689 0.002439
5.680831 20.141689 0.002054
5.995571 20.141689 0.001019
6.310312 20.141689 -0.000420
6.625053 20.141689 -0.002012
6.939795 20.141689 -0.003667
7.254536 20.141689 -0.005441
7.569277 20.141689 -0.005937
7.884017 20.141689 -0.005577
8.198758 20.141689 -0.005504
8.513499 20.141689 -0.003961
8.828240 20.141689 -0.007464
9.142982 20.141689 -0.005969
9.457723 20.141689 -0.006176
9.772464 20.141689 -0.009324
10.087205 20.141689 -0.010700
10.401946 20.141689 -0.033021
10.716687 20.141689 -0.044225
11.031426 20.141689 -0.047068
11.346168 20.141689 -0.049919
11.660909 20.141689 -0.037827
11.975650 20.141689 -0.049007
12.290391 20.141689 -0.018906
12.605132 20.141689 -0.003948
12.919873 20.141689 0.003757
13.234614 20.141689 -0.002502
13.549356 20.141689 -0.022325
13.864097 20.141689 0.012699
14.178838 20.141689 0.009259
14.493579 20.141689 0.044167
14.808320 20.141689 0.100049
15.123059 20.141689 0.207873
15.437800 20.141689 0.341833
15.752542 20.141689 0.610349
16.067284 20.141689 0.000000
16.382023 20.141689 0.000000
16.696766 20.141689 0.000000
17.011505 20.141689 0.000000
17.326248 20.141689 0.000000
17.640987 20.141689 0.000000
17.955730 20.141689 0.000000
18.270470 20.141689 0.000000
18.585213 20.141689 0.000000
18.899952 20.141689 0.000000
-7.223550 19.826948 0.000000
-6.908809 19.826948 0.004315
-6.594068 19.826948 0.001837
-6.279327 19.826948 0.001434
-5.964586 19.826948 0.001427
-5.649845 19.826948 0.001454
-5.335104 19.826948 0.001554
-5.020363 19.826948 0.001668
-4.705622 19.826948 0.001672
-4.390881 19.826948 0.001460
-4.076140 19.826948 0.001212
-3.761399 19.826948 0.000920
-3.446658 19.826948 0.000477
-3.131917 19.826948 -0.000197
-2.817176 19.826948 -0.000754
-2.502435 19.826948 -0.000950
-2.187694 19.826948 -0.000910
-1.872953 19.826948 -0.000551
-1.558212 19.826948 -0.000056
-1.243471 19.826948 0.000634
-0.928730 19.826948 0.001490
-0.613989 19.826948 0.002094
-0.299248 19.826948 0.002278
0.015493 19.826948 0.002207
0.330234 19.826948 0.001865
0.644975 19.826948 0.001570
0.959716 19.826948 0.001277
1.274457 19.826948 0.000701
1.589198 19.826948 -0.000086
1.903938 19.826948 -0.000746
2.218679 19.826948 -0.001139
2.533421 19.826948 -0.001283
2.848162 19.826948 -0.001148
3.162903 19.826948 -0.000716
3.477644 19.826948 -0.000044
3.792385 19.826948 0.000867
4.107125 19.826948 0.001838
4.421866 19.826948 0.002446
4.736608 19.826948 0.002392
5.051349 19.826948 0.002045
5.366090 19.826948 0.001333
5.680831 19.826948 0.000097
5.995571 19.826948 -0.001310
6.310312 19.826948 -0.002710
6.625053 19.826948 -0.003687
6.939795 19.826948 -0.004324
7.254536 19.826948 -0.004736
7.569277 19.826948 -0.004767
7.884017 19.826948 -0.003896
8.198758 19.826948 -0.004623
8.513499 19.826948 -0.004145
8.828240 19.826948 -0.009281
9.142982 19.826948 -0.007756
9.457723 19.826948 -0.009585
9.772464 19.826948 -0.010936
10.087205 19.826948 -0.018003
10.401946 19.826948 -0.035798
10.716687 19.826948 -0.035303
11.031426 19.826948 -0.043915
11.346168 19.826948 -0.049281
11.660909 19.826948 -0.052100
11.975650 19.826948 -0.032134
12.290391 19.826948 -0.012855
12.605132 19.826948 0.002879
12.919873 19.826948 -0.003270
13.234614 19.826948 -0.031843
13.549356 19.826948 -0.016376
13.864097 19.826948 -0.014514
14.178838 19.826948 0.011258
14.493579 19.826948 0.060233
14.808320 19.826948 0.097244
15.123059 19.826948 0.183496
15.437800 19.826948 0.397110
15.752542 19.826948 0.652530
16.067284 19.826948 0.000000
16.382023 19.826948 0.000000
16.696766 19.826948 0.000000
17.011505 19.826948 0.000000
17.326248 19.826948 0.000000
17.640987 19.826948 0.000000
17.955730 19.826948 0.000000
18.270470 19.826948 0.000000
18.585213 19.826948 0.000000
18.899952 19.826948 0.000000
-7.223550 19.512207 0.000000
-6.908809 19.512207 0.004714
-6.594068 19.512207 0.002211
-6.279327 19.512207 0.001772
-5.964586 19.512207 0.001563
-5.649845 19.512207 0.001390
-5.335104 19.512207 0.001312
-5.020363 19.512207 0.001242
-4.705622 19.512207 0.001099
-4.390881 19.512207 0.000861
-4.076140 19.512207 0.000551
-3.761399 19.512207 0.000174
-3.446658 19.512207 -0.000165
-3.131917 19.512207 -0.000589
-2.817176 19.512207 -0.000847
-2.502435 19.512207 -0.000651
-2.187694 19.512207 -0.000181
-1.872953 19.512207 0.000602
-1.558212 19.512207 0.001376
-1.243471 19.512207 0.002012
-0.928730 19.512207 0.002537
-0.613989 19.512207 0.002575
-0.299248 19.512207 0.002216
0.015493 19.512207 0.001638
0.330234 19.512207 0.000872
0.644975 19.512207 0.000297
0.959716 19.512207 -0.000170
1.274457 19.512207 -0.000595
1.589198 19.512207 -0.000979
1.903938 19.512207 -0.001070
2.218679 19.512207 -0.000795
2.533421 19.512207 -0.000292
2.848162 19.512207 0.000377
3.162903 19.512207 0.001117
3.477644 19.512207 0.001748
3.792385 19.512207 0.002205
4.107125 19.512207 0.002519
4.421866 19.512207 0.002294
4.736608 19.512207 0.001430
5.051349 19.512207 0.000508
5.366090 19.512207 -0.000681
5.680831 19.512207 -0.001979
5.995571 19.512207 -0.002828
6.310312 19.512207 -0.003271
6.625053 19.512207 -0.003168
6.939795 19.512207 -0.002851
7.254536 19.512207 -0.002698
7.569277 19.512207 -0.002572
7.884017 19.512207 -0.002350
8.198758 19.512207 -0.003473
8.513499 19.512207 -0.004599
8.828240 19.512207 -0.008514
9.142982 19.512207 -0.011224
9.457723 19.512207 -0.015501
9.772464 19.512207 -0.015090
10.087205 19.512207 -0.020958
10.401946 19.512207 -0.031126
10.716687 19.512207 -0.030244
11.031426 19.512207 -0.042196
11.346168 19.512207 -0.043928
11.660909 19.512207 -0.036883
11.975650 19.512207 -0.031907
12.290391 19.512207 -0.008444
12.605132 19.512207 0.020830
12.919873 19.512207 0.019450
13.234614 19.512207 0.000632
13.549356 19.512207 0.009930
13.864097 19.512207 -0.027031
14.178838 19.512207 0.005204
14.493579 19.512207 0.069597
14.808320 19.512207 0.117471
15.123059 19.512207 0.210530
15.437800 19.512207 0.365854
15.752542 19.512207 0.627320
16.067284 19.512207 0.000000
16.382023 19.512207 0.000000
16.696766 19.512207 0.000000
17.011505 19.512207 0.000000
17.326248 19.512207 0.000000
17.640987 19.512207 0.000000
17.955730 19.512207 0.000000
18.270470 19.512207 0.000000
18.585213 19.512207 0.000000
18.899952 19.512207 0.000000
-7.223550 19.197468 0.000000
-6.908809 19.197468 0.004719
-6.594068 19.197468 0.002224
-6.279327 19.197468 0.001682
-5.964586 19.197468 0.001249
-5.649845 19.197468 0.000836
-5.335104 19.197468 0.000655
-5.020363 19.197468 0.000484
-4.705622 19.197468 0.000303
-4.390881 19.197468 0.000171
-4.076140 19.197468 0.000038
-3.761399 19.197468 -0.000136
-3.446658 19.197468 -0.000101
-3.131917 19.197468 -0.000064
-2.817176 19.197468 0.000053
-2.502435 19.197468 0.000509
-2.187694 19.197468 0.001108
-1.872953 19.197468 0.001827
-1.558212 19.197468 0.002436
-1.243471 19.197468 0.002633
-0.928730 19.197468 0.002538
-0.613989 19.197468 0.001902
-0.299248 19.197468 0.001056
0.015493 19.197468 0.000255
0.330234 19.197468 -0.000555
0.644975 19.197468 -0.000970
0.959716 19.197468 -0.001058
1.274457 19.197468 -0.000932
1.589198 19.197468 -0.000587
1.903938 19.197468 -0.000043
2.218679 19.197468 0.000691
2.533421 19.197468 0.001354
2.848162 19.197468 0.001952
3.162903 19.197468 0.002395
3.477644 19.197468 0.002388
3.792385 19.197468 0.002067
4.107125 19.197468 0.001621
4.421866 19.197468 0.000742
4.736608 19.197468 -0.000352
5.051349 19.197468 -0.001248
5.366090 19.197468 -0.002065
5.680831 19.197468 -0.002652
5.995571 19.197468 -0.002549
6.310312 19.197468 -0.001913
6.625053 19.197468 -0.001099
6.939795 19.197468 -0.000647
7.254536 19.197468 -0.000628
7.569277 19.197468 -0.000540
7.884017 19.197468 -0.001379
8.198758 19.197468 -0.004002
8.513499 19.197468 -0.005977
8.828240 19.197468 -0.008881
9.142982 19.197468 -0.011188
9.457723 19.197468 -0.016287
9.772464 19.197468 -0.012244
10.087205 19.197468 -0.017821
10.401946 19.197468 -0.021373
10.716687 19.197468 -0.030501
11.031426 19.197468 -0.042721
11.346168 19.197468 -0.045744
11.660909 19.197468 -0.039879
11.975650 19.197468 -0.024304
12.290391 19.197468 -0.005870
12.605132 19.197468 0.013219
12.919873 19.197468 0.017782
13.234614 19.197468 0.012686
13.549356 19.197468 -0.000244
13.864097 19.197468 -0.035394
14.178838 19.197468 -0.005541
14.493579 19.197468 0.094794
14.808320 19.197468 0.129885
15.123059 19.197468 0.211777
15.437800 19.197468 0.430662
15.752542 19.197468 0.666404
16.067284 19.197468 0.000000
16.382023 19.197468 0.000000
16.696766 19.197468 0.000000
17.011505 19.197468 0.000000
17.326248 19.197468 0.000000
17.640987 19.197468 0.000000
17.955730 19.197468 0.000000
18.270470 19.197468 0.000000
18.585213 19.197468 0.000000
18.899952 19.197468 0.000000
-7.223550 18.882727 0.000000
-6.908809 18.882727 0.004314
-6.594068 18.882727 0.001720
-6.279327 18.882727 0.001115
-5.964586 18.882727 0.000571
-5.649845 18.882727 0.000042
-5.335104 18.882727 -0.000120
-5.020363 18.882727 -0.000210
-4.705622 18.882727 -0.000206
-4.390881 18.882727 -0.000074
-4.076140 18.882727 0.000108
-3.761399 18.882727 0.000325
-3.446658 18.882727 0.000723
-3.131917 18.882727 0.001081
-2.817176 18.882727 0.001336
-2.502435 18.882727 0.001662
-2.187694 18.882727 0.002023
-1.872953 18.882727 0.002252
-1.558212 18.882727 0.002381
-1.243471 18.882727 0.002119
-0.928730 18.882727 0.001462
-0.613989 18.882727 0.000445
-0.299248 18.882727 -0.000424
0.015493 18.882727 -0.000990
0.330234 18.882727 -0.001369
0.644975 18.882727 -0.001203
0.959716 18.882727 -0.000643
1.274457 18.882727 0.000063
1.589198 18.882727 0.000847
1.903938 18.882727 0.001527
2.218679 18.882727 0.002066
2.533421 18.882727 0.002331
2.848162 18.882727 0.002412
3.162903 18.882727 0.002240
3.477644 18.882727 0.001503
3.792385 18.882727 0.000602
4.107125 18.882727 -0.000175
4.421866 18.882727 -0.000977
4.736608 18.882727 -0.001585
5.051349 18.882727 -0.001821
5.366090 18.882727 -0.001837
5.680831 18.882727 -0.001577
5.995571 18.882727 -0.000771
6.310312 18.882727 0.000093
6.625053 18.882727 0.000676
6.939795 18.882727 0.000780
7.254536 18.882727 0.000015
7.569277 18.882727 -0.001273
7.884017 18.882727 -0.002023
8.198758 18.882727 -0.004506
8.513499 18.882727 -0.007131
8.828240 18.882727 -0.008714
9.142982 18.882727 -0.011742
9.457723 18.882727 -0.016353
9.772464 18.882727 -0.013912
10.087205 18.882727 -0.015632
10.401946 18.882727 -0.020043
10.716687 18.882727 -0.024912
11.031426 18.882727 -0.033606
11.346168 18.882727 -0.046034
11.660909 18.882727 -0.050734
11.975650 18.882727 -0.023248
12.290391 18.882727 0.004582
12.605132 18.882727 0.020040
12.919873 18.882727 0.024602
13.234614 18.882727 0.029347
13.549356 18.882727 0.006691
13.864097 18.882727 0.003568
14.178838 18.882727 0.010441
14.493579 18.882727 0.109507
14.808320 18.882727 0.165702
15.123059 18.882727 0.207190
15.437800 18.882727 0.454714
15.752542 18.882727 0.651410
16.067284 18.882727 0.000000
16.382023 18.882727 0.000000
16.696766 18.882727 0.000000
17.011505 18.882727 0.000000
17.326248 18.882727 0.000000
17.640987 18.882727 0.000000
17.955730 18.882727 0.000000
18.270470 18.882727 0.000000
18.585213 18.882727 0.000000
18.899952 18.882727 0.000000
-7.223550 18.567986 0.000000
-6.908809 18.567986 0.003460
-6.594068 18.567986 0.000921
-6.279327 18.567986 0.000339
-5.964586 18.567986 -0.000053
-5.649845 18.567986 -0.000407
-5.335104 18.567986 -0.000397
-5.020363 18.567986 -0.000242
-4.705622 18.567986 0.000013
-4.390881 18.567986 0.000476
-4.076140 18.567986 0.000922
-3.761399 18.567986 0.001330
-3.446658 18.567986 0.001747
-3.131917 18.567986 0.002052
-2.817176 18.567986 0.002093
-2.502435 18.567986 0.001986
-2.187694 18.567986 0.001848
-1.872953 18.567986 0.001578
-1.558212 18.567986 0.001259
-1.243471 18.567986 0.000778
-0.928730 18.567986 0.000024
-0.613989 18.567986 -0.000796
-0.299248 18.567986 -0.001181
0.015493 18.567986 -0.001090
0.330234 18.567986 -0.000736
0.644975 18.567986 -0.000045
0.959716 18.567986 0.000792
1.274457 18.567986 0.001545
1.589198 18.567986 0.002190
1.903938 18.567986 0.002439
2.218679 18.567986 0.002329
2.533421 18.567986 0.001948
2.848162 18.567986 0.001447
3.162903 18.567986 0.000763
3.477644 18.567986 -0.000211
3.792385 18.567986 -0.001026
4.107125 18.567986 -0.001407
4.421866 18.567986 -0.001488
4.736608 18.567986 -0.001306
5.051349 18.567986 -0.000842
5.366090 18.567986 -0.000336
5.680831 18.567986 0.000274
5.995571 18.567986 0.000950
6.310312 18.567986 0.001211
6.625053 18.567986 0.001034
6.939795 18.567986 0.000431
7.254536 18.567986 -0.001092
7.569277 18.567986 -0.002259
7.884017 18.567986 -0.003970
8.198758 18.567986 -0.005398
8.513499 18.567986 -0.007693
8.828240 18.567986 -0.011296
9.142982 18.567986 -0.012819
9.457723 18.567986 -0.013059
9.772464 18.567986 -0.009644
10.087205 18.567986 -0.013095
10.401946 18.567986 -0.020090
10.716687 18.567986 -0.030395
11.031426 18.567986 -0.037093
11.346168 18.567986 -0.040349
11.660909 18.567986 -0.049216
11.975650 18.567986 -0.022071
12.290391 18.567986 -0.002583
12.605132 18.567986 0.016813
12.919873 18.567986 0.047199
13.234614 18.567986 0.052749
13.549356 18.567986 0.010190
13.864097 18.567986 -0.015234
14.178838 18.567986 0.034217
14.493579 18.567986 0.135879
14.808320 18.567986 0.148060
15.123059 18.567986 0.229989
15.437800 18.567986 0.428172
15.752542 18.567986 0.681136
16.067284 18.567986 0.000000
16.382023 18.567986 0.000000
16.696766 18.567986 0.000000
17.011505 18.567986 0.000000
17.326248 18.567986 0.000000
17.640987 18.567986 0.000000
17.955730 18.567986 0.000000
18.270470 18.567986 0.000000
18.585213 18.567986 0.000000
18.899952 18.567986 0.000000
-7.223550 18.253244 0.000000
-6.908809 18.253244 0.002684
-6.594068 18.253244 0.000282
-6.279327 18.253244 -0.000077
-5.964586 18.253244 -0.000078
-5.649845 18.253244 -0.000070
-5.335104 18.253244 0.000183
-5.020363 18.253244 0.000548
-4.705622 18.253244 0.000960
-4.390881 18.253244 0.001421
-4.076140 18.253244 0.001762
-3.761399 18.253244 0.002081
-3.446658 18.253244 0.002161
-3.131917 18.253244 0.002114
-2.817176 18.253244 0.001740
-2.502435 18.253244 0.001176
-2.187694 18.253244 0.000719
-1.872953 18.253244 0.000293
-1.558212 18.253244 -0.000046
-1.243471 18.253244 -0.000336
-0.928730 18.253244 -0.000647
-0.613989 18.253244 -0.000823
-0.299248 18.253244 -0.000473
0.015493 18.253244 0.000239
0.330234 18.253244 0.000951
0.644975 18.253244 0.001639
0.959716 18.253244 0.002087
1.274457 18.253244 0.002362
1.589198 18.253244 0.002411
1.903938 18.253244 0.002022
2.218679 18.253244 0.001325
2.533421 18.253244 0.000504
2.848162 18.253244 -0.000149
3.162903 18.253244 -0.000720
3.477644 18.253244 -0.001286
3.792385 18.253244 -0.001483
4.107125 18.253244 -0.001091
4.421866 18.253244 -0.000456
4.736608 18.253244 0.000192
5.051349 18.253244 0.000773
5.366090 18.253244 0.001173
5.680831 18.253244 0.001361
5.995571 18.253244 0.001278
6.310312 18.253244 0.000861
6.625053 18.253244 -0.000086
6.939795 18.253244 -0.001380
7.254536 18.253244 -0.002839
7.569277 18.253244 -0.003604
7.884017 18.253244 -0.005303
8.198758 18.253244 -0.006387
8.513499 18.253244 -0.008998
8.828240 18.253244 -0.011134
9.142982 18.253244 -0.013051
9.457723 18.253244 -0.011533
9.772464 18.253244 -0.010639
10.087205 18.253244 -0.006070
10.401946 18.253244 -0.021892
10.716687 18.253244 -0.029299
11.031426 18.253244 -0.037282
11.346168 18.253244 -0.039439
11.660909 18.253244 -0.043230
11.975650 18.253244 -0.029470
12.290391 18.253244 -0.001390
12.605132 18.253244 -0.004436
12.919873 18.253244 0.030170
13.234614 18.253244 0.017517
13.549356 18.253244 0.015985
13.864097 18.253244 0.026471
14.178838 18.253244 0.051676
14.493579 18.253244 0.076352
14.808320 18.253244 0.145246
15.123059 18.253244 0.265671
15.437800 18.253244 0.491466
15.752542 18.253244 0.718907
16.067284 18.253244 0.000000
16.382023 18.253244 0.000000
16.696766 18.253244 0.000000
17.011505 18.253244 0.000000
17.326248 18.253244 0.000000
17.640987 18.253244 0.000000
17.955730 18.253244 0.000000
18.270470 18.253244 0.000000
18.585213 18.253244 0.000000
18.899952 18.253244 0.000000
-7.223550 17.938503 0.000000
-6.908809 17.938503 0.002517
-6.594068 17.938503 0.000297
-6.279327 17.938503 0.000223
-5.964586 17.938503 0.000600
-5.649845 17.938503 0.000945
-5.335104 17.938503 0.001311
-5.020363 17.938503 0.001612
-4.705622 17.938503 0.001842
-4.390881 17.938503 0.001935
-4.076140 17.938503 0.001904
-3.761399 17.938503 0.001910
-3.446658 17.938503 0.001655
-3.131917 17.938503 0.001221
-2.817176 17.938503 0.000616
-2.502435 17.938503 -0.000028
-2.187694 17.938503 -0.000422
-1.872953 17.938503 -0.000517
-1.558212 17.938503 -0.000440
-1.243471 17.938503 -0.000259
-0.928730 17.938503 0.000016
-0.613989 17.938503 0.000393
-0.299248 17.938503 0.001099
0.015493 17.938503 0.001949
0.330234 17.938503 0.002433
0.644975 17.938503 0.002553
0.959716 17.938503 0.002252
1.274457 17.938503 0.001844
1.589198 17.938503 0.001327
1.903938 17.938503 0.000580
2.218679 17.938503 -0.000236
2.533421 17.938503 -0.000913
2.848162 17.938503 -0.001109
3.162903 17.938503 -0.000973
3.477644 17.938503 -0.000796
3.792385 17.938503 -0.000430
4.107125 17.938503 0.000390
4.421866 17.938503 0.001187
4.736608 17.938503 0.001571
5.051349 17.938503 0.001625
5.366090 17.938503 0.001446
5.680831 17.938503 0.000924
5.995571 17.938503 0.000227
6.310312 17.938503 -0.000740
6.625053 17.938503 -0.001780
6.939795 17.938503 -0.003096
7.254536 17.938503 -0.003853
7.569277 17.938503 -0.004401
7.884017 17.938503 -0.005112
8.198758 17.938503 -0.006649
8.513499 17.938503 -0.009330
8.828240 17.938503 -0.010558
9.142982 17.938503 -0.013612
9.457723 17.938503 -0.016486
9.772464 17.938503 -0.014742
10.087205 17.938503 -0.013526
10.401946 17.938503 -0.028790
10.716687 17.938503 -0.028496
11.031426 17.938503 -0.025778
11.346168 17.938503 -0.036544
11.660909 17.938503 -0.039667
11.975650 17.938503 -0.027404
12.290391 17.938503 -0.026472
12.605132 17.938503 -0.031848
12.919873 17.938503 0.012064
13.234614 17.938503 0.022111
13.549356 17.938503 0.007994
13.864097 17.938503 -0.002651
14.178838 17.938503 0.033022
14.493579 17.938503 0.078062
14.808320 17.938503 0.138166
15.123059 17.938503 0.242780
15.437800 17.938503 0.454222
15.752542 17.938503 0.707929
16.067284 17.938503 0.000000
16.382023 17.938503 0.000000
16.696766 17.938503 0.000000
17.011505 17.938503 0.000000
17.326248 17.938503 0.000000
17.640987 17.938503 0.000000
17.955730 17.938503 0.000000
18.270470 17.938503 0.000000
18.585213 17.938503 0.000000
18.899952 17.938503 0.000000
-7.223550 17.623762 0.000000
-6.908809 17.623762 0.003247
-6.594068 17.623762 0.001065
-6.279327 17.623762 0.001098
-5.964586 17.623762 0.001580
-5.649845 17.623762 0.001870
-5.335104 17.623762 0.002066
-5.020363 17.623762 0.002087
-4.705622 17.623762 0.001883
-4.390881 17.623762 0.001520
-4.076140 17.623762 0.001144
-3.761399 17.623762 0.000911
-3.446658 17.623762 0.000595
-3.131917 17.623762 0.000137
-2.817176 17.623762 -0.000300
-2.502435 17.623762 -0.000559
-2.187694 17.623762 -0.000549
-1.872953 17.623762 -0.000113
-1.558212 17.623762 0.000418
-1.243471 17.623762 0.000884
-0.928730 17.623762 0.001319
-0.613989 17.623762 0.001704
-0.299248 17.623762 0.002217
0.015493 17.623762 0.002679
0.330234 17.623762 0.002614
0.644975 17.623762 0.002061
0.959716 17.623762 0.001189
1.274457 17.623762 0.000381
1.589198 17.623762 -0.000229
1.903938 17.623762 -0.000711
2.218679 17.623762 -0.001014
2.533421 17.623762 -0.001073
2.848162 17.623762 -0.000577
3.162903 17.623762 0.000238
3.477644 17.623762 0.000774
3.792385 17.623762 0.001167
4.107125 17.623762 0.001775
4.421866 17.623762 0.002175
4.736608 17.623762 0.001840
5.051349 17.623762 0.001152
5.366090 17.623762 0.000417
5.680831 17.623762 -0.000453
5.995571 17.623762 -0.001200
6.310312 17.623762 -0.001987
6.625053 17.623762 -0.002663
6.939795 17.623762 -0.003020
7.254536 17.623762 -0.003802
7.569277 17.623762 -0.003802
7.884017 17.623762 -0.003711
8.198758 17.623762 -0.005293
8.513499 17.623762 -0.008316
8.828240 17.623762 -0.011156
9.142982 17.623762 -0.016054
9.457723 17.623762 -0.014219
9.772464 17.623762 -0.015131
10.087205 17.623762 -0.016404
10.401946 17.623762 -0.028194
10.716687 17.623762 -0.037811
11.031426 17.623762 -0.030663
11.346168 17.623762 -0.036064
11.660909 17.623762 -0.042837
11.975650 17.623762 -0.030681
12.290391 17.623762 -0.027644
12.605132 17.623762 -0.032509
12.919873 17.623762 -0.010259
13.234614 17.623762 0.016010
13.549356 17.623762 -0.000064
13.864097 17.623762 0.014859
14.178838 17.623762 0.046688
14.493579 17.623762 0.062475
14.808320 17.623762 0.143224
15.123059 17.623762 0.236047
15.437800 17.623762 0.502813
15.752542 17.623762 0.795477
16.067284 17.623762 0.000000
16.382023 17.623762 0.000000
16.696766 17.623762 0.000000
17.011505 17.623762 0.000000
17.326248 17.623762 0.000000
17.640987 17.623762 0.000000
17.955730 17.623762 0.000000
18.270470 17.623762 0.000000
18.585213 17.623762 0.000000
18.899952 17.623762 0.000000
-7.223550 17.309021 0.000000
-6.908809 17.309021 0.004331
-6.594068 17.309021 0.001929
-6.279327 17.309021 0.001771
-5.964586 17.309021 0.002079
-5.649845 17.309021 0.002061
-5.335104 17.309021 0.001898
-5.020363 17.309021 0.001579
-4.705622 17.309021 0.001077
-4.390881 17.309021 0.000459
-4.076140 17.309021 0.000023
-3.761399 17.309021 -0.000100
-3.446658 17.309021 -0.000142
-3.131917 17.309021 -0.000161
-2.817176 17.309021 -0.000083
-2.502435 17.309021 0.000181
-2.187694 17.309021 0.000530
-1.872953 17.309021 0.001203
-1.558212 17.309021 0.001788
-1.243471 17.309021 0.002045
-0.928730 17.309021 0.002131
-0.613989 17.309021 0.002132
-0.299248 17.309021 0.002125
0.015493 17.309021 0.001996
0.330234 17.309021 0.001472
0.644975 17.309021 0.000611
0.959716 17.309021 -0.000255
1.274457 17.309021 -0.000794
1.589198 17.309021 -0.000907
1.903938 17.309021 -0.000710
2.218679 17.309021 -0.000379
2.533421 17.309021 0.000089
2.848162 17.309021 0.000883
3.162903 17.309021 0.001740
3.477644 17.309021 0.002054
3.792385 17.309021 0.001975
4.107125 17.309021 0.001967
4.421866 17.309021 0.001799
4.736608 17.309021 0.000947
5.051349 17.309021 -0.000131
5.366090 17.309021 -0.000912
5.680831 17.309021 -0.001507
5.995571 17.309021 -0.001792
6.310312 17.309021 -0.001925
6.625053 17.309021 -0.001957
6.939795 17.309021 -0.001703
7.254536 17.309021 -0.002065
7.569277 17.309021 -0.002379
7.884017 17.309021 -0.002651
8.198758 17.309021 -0.005598
8.513499 17.309021 -0.006904
8.828240 17.309021 -0.010695
9.142982 17.309021 -0.014874
9.457723 17.309021 -0.012534
9.772464 17.309021 -0.015836
10.087205 17.309021 -0.024875
10.401946 17.309021 -0.027606
10.716687 17.309021 -0.021936
11.031426 17.309021 -0.026965
11.346168 17.309021 -0.036110
11.660909 17.309021 -0.051755
11.975650 17.309021 -0.041514
12.290391 17.309021 -0.021335
12.605132 17.309021 -0.022974
12.919873 17.309021 -0.004337
13.234614 17.309021 0.014982
13.549356 17.309021 0.031901
13.864097 17.309021 0.012981
14.178838 17.309021 0.024254
14.493579 17.309021 0.118136
14.808320 17.309021 0.156875
15.123059 17.309021 0.252489
15.437800 17.309021 0.484339
15.752542 17.309021 0.713968
16.067284 17.309021 0.000000
16.382023 17.309021 0.000000
16.696766 17.309021 0.000000
17.011505 17.309021 0.000000
17.326248 17.309021 0.000000
17.640987 17.309021 0.000000
17.955730 17.309021 0.000000
18.270470 17.309021 0.000000
18.585213 17.309021 0.000000
18.899952 17.309021 0.000000
-7.223550 16.994282 0.000000
-6.908809 16.994282 0.004856
-6.594068 16.994282 0.002167
-6.279327 16.994282 0.001646
-5.964586 16.994282 0.001654
-5.649845 16.994282 0.001342
-5.335104 16.994282 0.000993
-5.020363 16.994282 0.000564
-4.705622 16.994282 0.000109
-4.390881 16.994282 -0.000296
-4.076140 16.994282 -0.000412
-3.761399 16.994282 -0.000190
-3.446658 16.994282 0.000194
-3.131917 16.994282 0.000595
-2.817176 16.994282 0.001121
-2.502435 16.994282 0.001608
-2.187694 16.994282 0.001883
-1.872953 16.994282 0.002284
-1.558212 16.994282 0.002441
-1.243471 16.994282 0.002242
-0.928730 16.994282 0.001854
-0.613989 16.994282 0.001464
-0.299248 16.994282 0.001056
0.015493 16.994282 0.000583
0.330234 16.994282 0.000016
0.644975 16.994282 -0.000524
0.959716 16.994282 -0.000808
1.274457 16.994282 -0.000687
1.589198 16.994282 -0.000166
1.903938 16.994282 0.000495
2.218679 16.994282 0.001005
2.533421 16.994282 0.001491
2.848162 16.994282 0.001982
3.162903 16.994282 0.002289
3.477644 16.994282 0.002107
3.792385 16.994282 0.001486
4.107125 16.994282 0.001004
4.421866 16.994282 0.000617
4.736608 16.994282 -0.000216
5.051349 16.994282 -0.001074
5.366090 16.994282 -0.001357
5.680831 16.994282 -0.001287
5.995571 16.994282 -0.001064
6.310312 16.994282 -0.000719
6.625053 16.994282 -0.000645
6.939795 16.994282 -0.000643
7.254536 16.994282 -0.000929
7.569277 16.994282 -0.001472
7.884017 16.994282 -0.000848
8.198758 16.994282 -0.003814
8.513499 16.994282 -0.007283
8.828240 16.994282 -0.011199
9.142982 16.994282 -0.013904
9.457723 16.994282 -0.014047
9.772464 16.994282 -0.015792
10.087205 16.994282 -0.024201
10.401946 16.994282 -0.029406
10.716687 16.994282 -0.026173
11.031426 16.994282 -0.036945
11.346168 16.994282 -0.037925
11.660909 16.994282 -0.047376
11.975650 16.994282 -0.030068
12.290391 16.994282 -0.021352
12.605132 16.994282 -0.014838
12.919873 16.994282 -0.005942
13.234614 16.994282 0.008375
13.549356 16.994282 0.043543
13.864097 16.994282 0.069286
14.178838 16.994282 0.083431
14.493579 16.994282 0.152238
14.808320 16.994282 0.167906
15.123059 16.994282 0.237335
15.437800 16.994282 0.483828
15.752542 16.994282 0.645714
16.067284 16.994282 0.000000
16.382023 16.994282 0.000000
16.696766 16.994282 0.000000
17.011505 16.994282 0.000000
17.326248 16.994282 0.000000
17.640987 16.994282 0.000000
17.955730 16.994282 0.000000
18.270470 16.994282 0.000000
18.585213 16.994282 0.000000
18.899952 16.994282 0.000000
-7.223550 16.679539 0.000000
-6.908809 16.679539 0.004464
-6.594068 16.679539 0.001609
-6.279327 16.679539 0.000865
-5.964586 16.679539 0.000714
-5.649845 16.679539 0.000429
-5.335104 16.679539 0.000159
-5.020363 16.679539 -0.000048
-4.705622 16.679539 -0.000092
-4.390881 16.679539 0.000005
-4.076140 16.679539 0.000306
-3.761399 16.679539 0.000746
-3.446658 16.679539 0.001242
-3.131917 16.679539 0.001685
-2.817176 16.679539 0.002193
-2.502435 16.679539 0.002509
-2.187694 16.679539 0.002458
-1.872953 16.679539 0.002325
-1.558212 16.679539 0.001942
-1.243471 16.679539 0.001339
-0.928730 16.679539 0.000783
-0.613989 16.679539 0.000358
-0.299248 16.679539 0.000014
0.015493 16.679539 -0.000270
0.330234 16.679539 -0.000421
0.644975 16.679539 -0.000333
0.959716 16.679539 -0.000049
1.274457 16.679539 0.000465
1.589198 16.679539 0.001164
1.903938 16.679539 0.001755
2.218679 16.679539 0.001951
2.533421 16.679539 0.002010
2.848162 16.679539 0.001914
3.162903 16.679539 0.001596
3.477644 16.679539 0.001025
3.792385 16.679539 0.000225
4.107125 16.679539 -0.000269
4.421866 16.679539 -0.000330
4.736608 16.679539 -0.000524
5.051349 16.679539 -0.000710
5.366090 16.679539 -0.000508
5.680831 16.679539 -0.000164
5.995571 16.679539 0.000242
6.310312 16.679539 0.000547
6.625053 16.679539 0.000367
6.939795 16.679539 -0.000174
7.254536 16.679539 -0.001165
7.569277 16.679539 -0.001269
7.884017 16.679539 -0.000782
8.198758 16.679539 -0.002680
8.513499 16.679539 -0.005947
8.828240 16.679539 -0.007731
9.142982 16.679539 -0.012688
9.457723 16.679539 -0.011737
9.772464 16.679539 -0.015012
10.087205 16.679539 -0.017227
10.401946 16.679539 -0.026313
10.716687 16.679539 -0.017072
11.031426 16.679539 -0.024191
11.346168 16.679539 -0.019674
11.660909 16.679539 -0.026110
11.975650 16.679539 -0.023477
12.290391 16.679539 -0.015493
12.605132 16.679539 -0.003336
12.919873 16.679539 -0.006996
13.234614 16.679539 0.005238
13.549356 16.679539 0.024036
13.864097 16.679539 0.063796
14.178838 16.679539 0.101685
14.493579 16.679539 0.125884
14.808320 16.679539 0.131222
15.123059 16.679539 0.235354
15.437800 16.679539 0.524765
15.752542 16.679539 0.709554
16.067284 16.679539 0.000000
16.382023 16.679539 0.000000
16.696766 16.679539 0.000000
17.011505 16.679539 0.000000
17.326248 16.679539 0.000000
17.640987 16.679539 0.000000
17.955730 16.679539 0.000000
18.270470 16.679539 0.000000
18.585213 16.679539 0.000000
18.899952 16.679539 0.000000
-7.223550 16.364799 0.000000
-6.908809 16.364799 0.003599
-6.594068 16.364799 0.000775
-6.279327 16.364799 0.000150
-5.964586 16.364799 0.000112
-5.649845 16.364799 0.000137
-5.335104 16.364799 0.000246
-5.020363 16.364799 0.000417
-4.705622 16.364799 0.000735
-4.390881 16.364799 0.001164
-4.076140 16.364799 0.001507
-3.761399 16.364799 0.001765
-3.446658 16.364799 0.001963
-3.131917 16.364799 0.002059
-2.817176 16.364799 0.002204
-2.502435 16.364799 0.002163
-2.187694 16.364799 0.001810
-1.872953 16.364799 0.001385
-1.558212 16.364799 0.000748
-1.243471 16.364799 0.000223
-0.928730 16.364799 -0.000021
-0.613989 16.364799 -0.000033
-0.299248 16.364799 0.000031
0.015493 16.364799 0.000177
0.330234 16.364799 0.000345
0.644975 16.364799 0.000720
0.959716 16.364799 0.001172
1.274457 16.364799 0.001588
1.589198 16.364799 0.001917
1.903938 16.364799 0.002052
2.218679 16.364799 0.001744
2.533421 16.364799 0.001366
2.848162 16.364799 0.000892
3.162903 16.364799 0.000363
3.477644 16.364799 -0.000114
3.792385 16.364799 -0.000635
4.107125 16.364799 -0.000690
4.421866 16.364799 -0.000235
4.736608 16.364799 0.000133
5.051349 16.364799 0.000428
5.366090 16.364799 0.000700
5.680831 16.364799 0.000889
5.995571 16.364799 0.000953
6.310312 16.364799 0.000728
6.625053 16.364799 0.000052
6.939795 16.364799 -0.000646
7.254536 16.364799 -0.001464
7.569277 16.364799 -0.001821
7.884017 16.364799 -0.002110
8.198758 16.364799 -0.002142
8.513499 16.364799 -0.006631
8.828240 16.364799 -0.010229
9.142982 16.364799 -0.008870
9.457723 16.364799 -0.009255
9.772464 16.364799 -0.018286
10.087205 16.364799 -0.016688
10.401946 16.364799 -0.025143
10.716687 16.364799 -0.016457
11.031426 16.364799 -0.022954
11.346168 16.364799 -0.022718
11.660909 16.364799 -0.008044
11.975650 16.364799 -0.004891
12.290391 16.364799 -0.002575
12.605132 16.364799 -0.003785
12.919873 16.364799 0.001867
13.234614 16.364799 0.006562
13.549356 16.364799 0.014902
13.864097 16.364799 0.050530
14.178838 16.364799 0.094157
14.493579 16.364799 0.126842
14.808320 16.364799 0.141612
15.123059 16.364799 0.261279
15.437800 16.364799 0.492432
15.752542 16.364799 0.680689
16.067284 16.364799 0.000000
16.382023 16.364799 0.000000
16.696766 16.364799 0.000000
17.011505 16.364799 0.000000
17.326248 16.364799 0.000000
17.640987 16.364799 0.000000
17.955730 16.364799 0.000000
18.270470 16.364799 0.000000
18.585213 16.364799 0.000000
18.899952 16.364799 0.000000
-7.223550 16.050056 0.000000
-6.908809 16.050056 0.003160
-6.594068 16.050056 0.000590
-6.279327 16.050056 0.000204
-5.964586 16.050056 0.000459
-5.649845 16.050056 0.000804
-5.335104 16.050056 0.001214
-5.020363 16.050056 0.001549
-4.705622 16.050056 0.001837
-4.390881 16.050056 0.002145
-4.076140 16.050056 0.002200
-3.761399 16.050056 0.002009
-3.446658 16.050056 0.001733
-3.131917 16.050056 0.001435
-2.817176 16.050056 0.001207
-2.502435 16.050056 0.000975
-2.187694 16.050056 0.000652
-1.872953 16.050056 0.000413
-1.558212 16.050056 0.000093
-1.243471 16.050056 -0.000003
-0.928730 16.050056 0.000268
-0.613989 16.050056 0.000605
-0.299248 16.050056 0.001009
0.015493 16.050056 0.001267
0.330234 16.050056 0.001366
0.644975 16.050056 0.001561
0.959716 16.050056 0.001777
1.274457 16.050056 0.001795
1.589198 16.050056 0.001575
1.903938 16.050056 0.001296
2.218679 16.050056 0.000750
2.533421 16.050056 0.000318
2.848162 16.050056 -0.000036
3.162903 16.050056 -0.000304
3.477644 16.050056 -0.000338
3.792385 16.050056 -0.000393
4.107125 16.050056 -0.000071
4.421866 16.050056 0.000555
4.736608 16.050056 0.001095
5.051349 16.050056 0.001330
5.366090 16.050056 0.001322
5.680831 16.050056 0.001066
5.995571 16.050056 0.000646
6.310312 16.050056 0.000092
6.625053 16.050056 -0.001085
6.939795 16.050056 -0.001721
7.254536 16.050056 -0.001988
7.569277 16.050056 -0.002546
7.884017 16.050056 -0.002741
8.198758 16.050056 -0.004141
8.513499 16.050056 -0.008474
8.828240 16.050056 -0.011285
9.142982 16.050056 -0.011819
9.457723 16.050056 -0.007131
9.772464 16.050056 -0.010391
10.087205 16.050056 -0.012254
10.401946 16.050056 -0.020006
10.716687 16.050056 -0.023231
11.031426 16.050056 -0.026672
11.346168 16.050056 -0.022639
11.660909 16.050056 -0.009333
11.975650 16.050056 -0.001355
12.290391 16.050056 -0.015897
12.605132 16.050056 -0.009855
12.919873 16.050056 0.010752
13.234614 16.050056 0.020714
13.549356 16.050056 0.006064
13.864097 16.050056 0.045136
14.178838 16.050056 0.095307
14.493579 16.050056 0.157808
14.808320 16.050056 0.161733
15.123059 16.050056 0.287372
15.437800 16.050056 0.517461
15.752542 16.050056 0.738813
16.067284 16.050056 0.000000
16.382023 16.050056 0.000000
16.696766 16.050056 0.000000
17.011505 16.050056 0.000000
17.326248 16.050056 0.000000
17.640987 16.050056 0.000000
17.955730 16.050056 0.000000
18.270470 16.050056 0.000000
18.585213 16.050056 0.000000
18.899952 16.050056 0.000000
-7.223550 15.735317 0.000000
-6.908809 15.735317 0.003592
-6.594068 15.735317 0.001227
-6.279327 15.735317 0.001020
-5.964586 15.735317 0.001337
-5.649845 15.735317 0.001711
-5.335104 15.735317 0.002061
-5.020363 15.735317 0.002237
-4.705622 15.735317 0.002243
-4.390881 15.735317 0.002210
-4.076140 15.735317 0.001880
-3.761399 15.735317 0.001342
-3.446658 15.735317 0.000796
-3.131917 15.735317 0.000365
-2.817176 15.735317 0.000168
-2.502435 15.735317 0.000106
-2.187694 15.735317 0.000158
-1.872953 15.735317 0.000424
-1.558212 15.735317 0.000593
-1.243471 15.735317 0.000875
-0.928730 15.735317 0.001283
-0.613989 15.735317 0.001573
-0.299248 15.735317 0.001870
0.015493 15.735317 0.001908
0.330234 15.735317 0.001669
0.644975 15.735317 0.001577
0.959716 15.735317 0.001441
1.274457 15.735317 0.001161
1.589198 15.735317 0.000627
1.903938 15.735317 0.000248
2.218679 15.735317 -0.000042
2.533421 15.735317 -0.000153
2.848162 15.735317 -0.000087
3.162903 15.735317 0.000064
3.477644 15.735317 0.000280
3.792385 15.735317 0.000419
4.107125 15.735317 0.000760
4.421866 15.735317 0.001195
4.736608 15.735317 0.001453
5.051349 15.735317 0.001346
5.366090 15.735317 0.000946
5.680831 15.735317 0.000384
5.995571 15.735317 -0.000139
6.310312 15.735317 -0.000927
6.625053 15.735317 -0.001663
6.939795 15.735317 -0.002198
7.254536 15.735317 -0.002337
7.569277 15.735317 -0.003053
7.884017 15.735317 -0.002900
8.198758 15.735317 -0.004726
8.513499 15.735317 -0.004159
8.828240 15.735317 -0.007949
9.142982 15.735317 -0.015144
9.457723 15.735317 -0.015314
9.772464 15.735317 -0.015961
10.087205 15.735317 -0.023529
10.401946 15.735317 -0.030421
10.716687 15.735317 -0.028380
11.031426 15.735317 -0.027624
11.346168 15.735317 -0.027796
11.660909 15.735317 -0.019242
11.975650 15.735317 -0.004571
12.290391 15.735317 -0.010167
12.605132 15.735317 0.000842
12.919873 15.735317 0.011159
13.234614 15.735317 0.031635
13.549356 15.735317 0.025890
13.864097 15.735317 0.037555
14.178838 15.735317 0.064981
14.493579 15.735317 0.120276
14.808320 15.735317 0.186131
15.123059 15.735317 0.325960
15.437800 15.735317 0.513492
15.752542 15.735317 0.863659
16.067284 15.735317 0.000000
16.382023 15.735317 0.000000
16.696766 15.735317 0.000000
17.011505 15.735317 0.000000
17.326248 15.735317 0.000000
17.640987 15.735317 0.000000
17.955730 15.735317 0.000000
18.270470 15.735317 0.000000
18.585213 15.735317 0.000000
18.899952 15.735317 0.000000
-7.223550 15.420574 0.000000
-6.908809 15.420574 0.004418
-6.594068 15.420574 0.002030
-6.279327 15.420574 0.001701
-5.964586 15.420574 0.001772
-5.649845 15.420574 0.001894
-5.335104 15.420574 0.001978
-5.020363 15.420574 0.001938
-4.705622 15.420574 0.001736
-4.390881 15.420574 0.001367
-4.076140 15.420574 0.000990
-3.761399 15.420574 0.000522
-3.446658 15.420574 0.000127
-3.131917 15.420574 -0.000058
-2.817176 15.420574 0.000113
-2.502435 15.420574 0.000384
-2.187694 15.420574 0.000754
-1.872953 15.420574 0.001290
-1.558212 15.420574 0.001633
-1.243471 15.420574 0.001889
-0.928730 15.420574 0.002015
-0.613989 15.420574 0.001879
-0.299248 15.420574 0.001826
0.015493 15.420574 0.001520
0.330234 15.420574 0.001065
0.644975 15.420574 0.000869
0.959716 15.420574 0.000733
1.274457 15.420574 0.000489
1.589198 15.420574 0.000058
1.903938 15.420574 -0.000066
2.218679 15.420574 0.000028
2.533421 15.420574 0.000237
2.848162 15.420574 0.000578
3.162903 15.420574 0.000888
3.477644 15.420574 0.000994
3.792385 15.420574 0.001009
4.107125 15.420574 0.001078
4.421866 15.420574 0.001163
4.736608 15.420574 0.001015
5.051349 15.420574 0.000544
5.366090 15.420574 -0.000011
5.680831 15.420574 -0.000452
5.995571 15.420574 -0.000847
6.310312 15.420574 -0.001243
6.625053 15.420574 -0.001726
6.939795 15.420574 -0.002106
7.254536 15.420574 -0.002375
7.569277 15.420574 -0.002676
7.884017 15.420574 -0.002762
8.198758 15.420574 -0.003415
8.513499 15.420574 -0.003553
8.828240 15.420574 -0.005101
9.142982 15.420574 -0.010376
9.457723 15.420574 -0.010888
9.772464 15.420574 -0.018594
10.087205 15.420574 -0.028900
10.401946 15.420574 -0.036415
10.716687 15.420574 -0.029284
11.031426 15.420574 -0.023131
11.346168 15.420574 -0.021312
11.660909 15.420574 -0.023615
11.975650 15.420574 -0.007947
12.290391 15.420574 -0.024201
12.605132 15.420574 0.009031
12.919873 15.420574 0.022075
13.234614 15.420574 0.019272
13.549356 15.420574 0.012467
13.864097 15.420574 0.065505
14.178838 15.420574 0.093468
14.493579 15.420574 0.147557
14.808320 15.420574 0.200884
15.123059 15.420574 0.317091
15.437800 15.420574 0.530946
15.752542 15.420574 0.916042
16.067284 15.420574 0.000000
16.382023 15.420574 0.000000
16.696766 15.420574 0.000000
17.011505 15.420574 0.000000
17.326248 15.420574 0.000000
17.640987 15.420574 0.000000
17.955730 15.420574 0.000000
18.270470 15.420574 0.000000
18.585213 15.420574 0.000000
18.899952 15.420574 0.000000
-7.223550 15.105835 0.000000
-6.908809 15.105835 0.004840
-6.594068 15.105835 0.002207
-6.279327 15.105835 0.001581
-5.964586 15.105835 0.001365
-5.649845 15.105835 0.001235
-5.335104 15.105835 0.001114
-5.020363 15.105835 0.001014
-4.705622 15.105835 0.000851
-4.390881 15.105835 0.000535
-4.076140 15.105835 0.000415
-3.761399 15.105835 0.000442
-3.446658 15.105835 0.000466
-3.131917 15.105835 0.000574
-2.817176 15.105835 0.000958
-2.502435 15.105835 0.001316
-2.187694 15.105835 0.001663
-1.872953 15.105835 0.002113
-1.558212 15.105835 0.002234
-1.243471 15.105835 0.002184
-0.928730 15.105835 0.001863
-0.613989 15.105835 0.001386
-0.299248 15.105835 0.001087
0.015493 15.105835 0.000659
0.330234 15.105835 0.000312
0.644975 15.105835 0.000361
0.959716 15.105835 0.000494
1.274457 15.105835 0.000531
1.589198 15.105835 0.000409
1.903938 15.105835 0.000465
2.218679 15.105835 0.000651
2.533421 15.105835 0.000899
2.848162 15.105835 0.001200
3.162903 15.105835 0.001333
3.477644 15.105835 0.001190
3.792385 15.105835 0.000941
4.107125 15.105835 0.000717
4.421866 15.105835 0.000566
4.736608 15.105835 0.000266
5.051349 15.105835 -0.000254
5.366090 15.105835 -0.000757
5.680831 15.105835 -0.000837
5.995571 15.105835 -0.000822
6.310312 15.105835 -0.000972
6.625053 15.105835 -0.001183
6.939795 15.105835 -0.001840
7.254536 15.105835 -0.002637
7.569277 15.105835 -0.002644
7.884017 15.105835 -0.002391
8.198758 15.105835 -0.003103
8.513499 15.105835 -0.000636
8.828240 15.105835 -0.005276
9.142982 15.105835 -0.006081
9.457723 15.105835 -0.009875
9.772464 15.105835 -0.018515
10.087205 15.105835 -0.025499
10.401946 15.105835 -0.034068
10.716687 15.105835 -0.032305
11.031426 15.105835 -0.034177
11.346168 15.105835 -0.031916
11.660909 15.105835 -0.024558
11.975650 15.105835 -0.020491
12.290391 15.105835 -0.014661
12.605132 15.105835 0.036383
12.919873 15.105835 0.027078
13.234614 15.105835 0.021110
13.549356 15.105835 0.046615
13.864097 15.105835 0.069041
14.178838 15.105835 0.095010
14.493579 15.105835 0.174094
14.808320 15.105835 0.170922
15.123059 15.105835 0.284667
15.437800 15.105835 0.553084
15.752542 15.105835 0.920241
16.067284 15.105835 0.000000
16.382023 15.105835 0.000000
16.696766 15.105835 0.000000
17.011505 15.105835 0.000000
17.326248 15.105835 0.000000
17.640987 15.105835 0.000000
17.955730 15.105835 0.000000
18.270470 15.105835 0.000000
18.585213 15.105835 0.000000
18.899952 15.105835 0.000000
-7.223550 14.791092 0.000000
-6.908809 14.791092 0.004303
-6.594068 14.791092 0.001547
-6.279327 14.791092 0.000862
-5.964586 14.791092 0.000541
-5.649845 14.791092 0.000422
-5.335104 14.791092 0.000390
-5.020363 14.791092 0.000512
-4.705622 14.791092 0.000647
-4.390881 14.791092 0.000597
-4.076140 14.791092 0.000785
-3.761399 14.791092 0.001184
-3.446658 14.791092 0.001485
-3.131917 14.791092 0.001572
-2.817176 14.791092 0.001827
-2.502435 14.791092 0.001944
-2.187694 14.791092 0.001992
-1.872953 14.791092 0.002147
-1.558212 14.791092 0.001985
-1.243471 14.791092 0.001699
-0.928730 14.791092 0.001150
-0.613989 14.791092 0.000625
-0.299248 14.791092 0.000459
0.015493 14.791092 0.000347
0.330234 14.791092 0.000298
0.644975 14.791092 0.000633
0.959716 14.791092 0.000989
1.274457 14.791092 0.001191
1.589198 14.791092 0.001160
1.903938 14.791092 0.001088
2.218679 14.791092 0.001134
2.533421 14.791092 0.001157
2.848162 14.791092 0.001234
3.162903 14.791092 0.001111
3.477644 14.791092 0.000796
3.792385 14.791092 0.000463
4.107125 14.791092 0.000213
4.421866 14.791092 0.000084
4.736608 14.791092 -0.000153
5.051349 14.791092 -0.000514
5.366090 14.791092 -0.000755
5.680831 14.791092 -0.000630
5.995571 14.791092 -0.000363
6.310312 14.791092 -0.000304
6.625053 14.791092 -0.000649
6.939795 14.791092 -0.001451
7.254536 14.791092 -0.002305
7.569277 14.791092 -0.002957
7.884017 14.791092 -0.002492
8.198758 14.791092 -0.000826
8.513499 14.791092 -0.000775
8.828240 14.791092 -0.004370
9.142982 14.791092 -0.004774
9.457723 14.791092 -0.005875
9.772464 14.791092 -0.013760
10.087205 14.791092 -0.023134
10.401946 14.791092 -0.029232
10.716687 14.791092 -0.021673
11.031426 14.791092 -0.020929
11.346168 14.791092 -0.032184
11.660909 14.791092 -0.032130
11.975650 14.791092 -0.018107
12.290391 14.791092 -0.015513
12.605132 14.791092 0.021248
12.919873 14.791092 0.041394
13.234614 14.791092 0.020529
13.549356 14.791092 0.048801
13.864097 14.791092 0.079481
14.178838 14.791092 0.110524
14.493579 14.791092 0.168791
14.808320 14.791092 0.214613
15.123059 14.791092 0.301257
15.437800 14.791092 0.605903
15.752542 14.791092 0.973327
16.067284 14.791092 0.000000
16.382023 14.791092 0.000000
16.696766 14.791092 0.000000
17.011505 14.791092 0.000000
17.326248 14.791092 0.000000
17.640987 14.791092 0.000000
17.955730 14.791092 0.000000
18.270470 14.791092 0.000000
18.585213 14.791092 0.000000
18.899952 14.791092 0.000000
-7.223550 14.476353 0.000000
-6.908809 14.476353 0.003386
-6.594068 14.476353 0.000801
-6.279327 14.476353 0.000355
-5.964586 14.476353 0.000272
-5.649845 14.476353 0.000327
-5.335104 14.476353 0.000551
-5.020363 14.476353 0.000910
-4.705622 14.476353 0.001224
-4.390881 14.476353 0.001272
-4.076140 14.476353 0.001507
-3.761399 14.476353 0.001956
-3.446658 14.476353 0.002184
-3.131917 14.476353 0.002029
-2.817176 14.476353 0.001867
-2.502435 14.476353 0.001667
-2.187694 14.476353 0.001510
-1.872953 14.476353 0.001415
-1.558212 14.476353 0.001204
-1.243471 14.476353 0.000986
-0.928730 14.476353 0.000611
-0.613989 14.476353 0.000418
-0.299248 14.476353 0.000663
0.015493 14.476353 0.000925
0.330234 14.476353 0.001017
0.644975 14.476353 0.001319
0.959716 14.476353 0.001638
1.274457 14.476353 0.001725
1.589198 14.476353 0.001513
1.903938 14.476353 0.001161
2.218679 14.476353 0.001034
2.533421 14.476353 0.000903
2.848162 14.476353 0.000796
3.162903 14.476353 0.000614
3.477644 14.476353 0.000326
3.792385 14.476353 0.000171
4.107125 14.476353 0.000142
4.421866 14.476353 0.000147
4.736608 14.476353 0.000055
5.051349 14.476353 -0.000213
5.366090 14.476353 -0.000340
5.680831 14.476353 -0.000181
5.995571 14.476353 -0.000012
6.310312 14.476353 -0.000075
6.625053 14.476353 -0.000521
6.939795 14.476353 -0.001283
7.254536 14.476353 -0.002149
7.569277 14.476353 -0.003106
7.884017 14.476353 -0.002226
8.198758 14.476353 -0.001477
8.513499 14.476353 -0.005507
8.828240 14.476353 -0.008668
9.142982 14.476353 -0.006817
9.457723 14.476353 -0.008973
9.772464 14.476353 -0.011098
10.087205 14.476353 -0.013834
10.401946 14.476353 -0.018058
10.716687 14.476353 -0.026306
11.031426 14.476353 -0.022804
11.346168 14.476353 -0.035863
11.660909 14.476353 -0.042486
11.975650 14.476353 -0.029143
12.290391 14.476353 -0.006752
12.605132 14.476353 0.021519
12.919873 14.476353 0.023487
13.234614 14.476353 0.015650
13.549356 14.476353 0.060028
13.864097 14.476353 0.062171
14.178838 14.476353 0.079828
14.493579 14.476353 0.157257
14.808320 14.476353 0.208164
15.123059 14.476353 0.327455
15.437800 14.476353 0.676700
15.752542 14.476353 1.017549
16.067284 14.476353 0.000000
16.382023 14.476353 0.000000
16.696766 14.476353 0.000000
17.011505 14.476353 0.000000
17.326248 14.476353 0.000000
17.640987 14.476353 0.000000
17.955730 14.476353 0.000000
18.270470 14.476353 0.000000
18.585213 14.476353 0.000000
18.899952 14.476353 0.000000
-7.223550 14.161610 0.000000
-6.908809 14.161610 0.003086
-6.594068 14.161610 0.000775
-6.279327 14.161610 0.000645
-5.964586 14.161610 0.000881
-5.649845 14.161610 0.000967
-5.335104 14.161610 0.001266
-5.020363 14.161610 0.001651
-4.705622 14.161610 0.001803
-4.390881 14.161610 0.001674
-4.076140 14.161610 0.001757
-3.761399 14.161610 0.001989
-3.446658 14.161610 0.002050
-3.131917 14.161610 0.001630
-2.817176 14.161610 0.001260
-2.502435 14.161610 0.000934
-2.187694 14.161610 0.000761
-1.872953 14.161610 0.000745
-1.558212 14.161610 0.000742
-1.243471 14.161610 0.000774
-0.928730 14.161610 0.000728
-0.613989 14.161610 0.000876
-0.299248 14.161610 0.001435
0.015493 14.161610 0.001784
0.330234 14.161610 0.001705
0.644975 14.161610 0.001713
0.959716 14.161610 0.001774
1.274457 14.161610 0.001603
1.589198 14.161610 0.001190
1.903938 14.161610 0.000731
2.218679 14.161610 0.000604
2.533421 14.161610 0.000499
2.848162 14.161610 0.000429
3.162903 14.161610 0.000365
3.477644 14.161610 0.000246
3.792385 14.161610 0.000378
4.107125 14.161610 0.000549
4.421866 14.161610 0.000553
4.736608 14.161610 0.000426
5.051349 14.161610 0.000207
5.366090 14.161610 0.000095
5.680831 14.161610 0.000100
5.995571 14.161610 0.000026
6.310312 14.161610 -0.000289
6.625053 14.161610 -0.000712
6.939795 14.161610 -0.001428
7.254536 14.161610 -0.002742
7.569277 14.161610 -0.003382
7.884017 14.161610 -0.004595
8.198758 14.161610 -0.004218
8.513499 14.161610 -0.007256
8.828240 14.161610 -0.009580
9.142982 14.161610 -0.008535
9.457723 14.161610 -0.012027
9.772464 14.161610 -0.011396
10.087205 14.161610 -0.002413
10.401946 14.161610 -0.017599
10.716687 14.161610 -0.020610
11.031426 14.161610 -0.016385
11.346168 14.161610 -0.040208
11.660909 14.161610 -0.048869
11.975650 14.161610 -0.047061
12.290391 14.161610 -0.037772
12.605132 14.161610 -0.009140
12.919873 14.161610 0.021239
13.234614 14.161610 0.044212
13.549356 14.161610 0.075681
13.864097 14.161610 0.093823
14.178838 14.161610 0.083649
14.493579 14.161610 0.176901
14.808320 14.161610 0.217605
15.123059 14.161610 0.370834
15.437800 14.161610 0.788736
15.752542 14.161610 1.152083
16.067284 14.161610 0.000000
16.382023 14.161610 0.000000
16.696766 14.161610 0.000000
17.011505 14.161610 0.000000
17.326248 14.161610 0.000000
17.640987 14.161610 0.000000
17.955730 14.161610 0.000000
18.270470 14.161610 0.000000
18.585213 14.161610 0.000000
18.899952 14.161610 0.000000
-7.223550 13.846870 0.000000
-6.908809 13.846870 0.003619
-6.594068 13.846870 0.001419
-6.279327 13.846870 0.001446
-5.964586 13.846870 0.001690
-5.649845 13.846870 0.001607
-5.335104 13.846870 0.001684
-5.020363 13.846870 0.001896
-4.705622 13.846870 0.001742
-4.390881 13.846870 0.001374
-4.076140 13.846870 0.001257
-3.761399 13.846870 0.001374
-3.446658 13.846870 0.001421
-3.131917 13.846870 0.001108
-2.817176 13.846870 0.000816
-2.502435 13.846870 0.000582
-2.187694 13.846870 0.000571
-1.872953 13.846870 0.000776
-1.558212 13.846870 0.000954
-1.243471 13.846870 0.001144
-0.928730 13.846870 0.001235
-0.613989 13.846870 0.001465
-0.299248 13.846870 0.001930
0.015493 13.846870 0.002123
0.330234 13.846870 0.001777
0.644975 13.846870 0.001511
0.959716 13.846870 0.001332
1.274457 13.846870 0.001010
1.589198 13.846870 0.000581
1.903938 13.846870 0.000294
2.218679 13.846870 0.000370
2.533421 13.846870 0.000450
2.848162 13.846870 0.000563
3.162903 13.846870 0.000643
3.477644 13.846870 0.000603
3.792385 13.846870 0.000797
4.107125 13.846870 0.000977
4.421866 13.846870 0.000920
4.736608 13.846870 0.000599
5.051349 13.846870 0.000384
5.366090 13.846870 0.000267
5.680831 13.846870 0.000026
5.995571 13.846870 -0.000316
6.310312 13.846870 -0.000680
6.625053 13.846870 -0.001049
6.939795 13.846870 -0.001541
7.254536 13.846870 -0.003112
7.569277 13.846870 -0.003794
7.884017 13.846870 -0.004977
8.198758 13.846870 -0.006342
8.513499 13.846870 -0.005749
8.828240 13.846870 -0.007040
9.142982 13.846870 -0.007079
9.457723 13.846870 -0.005061
9.772464 13.846870 -0.005527
10.087205 13.846870 0.001656
10.401946 13.846870 -0.004880
10.716687 13.846870 -0.029138
11.031426 13.846870 -0.025852
11.346168 13.846870 -0.033574
11.660909 13.846870 -0.045534
11.975650 13.846870 -0.036746
12.290391 13.846870 -0.031076
12.605132 13.846870 -0.018443
12.919873 13.846870 0.024334
13.234614 13.846870 0.069899
13.549356 13.846870 0.110049
13.864097 13.846870 0.102149
14.178838 13.846870 0.140678
14.493579 13.846870 0.199432
14.808320 13.846870 0.253419
15.123059 13.846870 0.403088
15.437800 13.846870 0.776198
15.752542 13.846870 1.059521
16.067284 13.846870 0.000000
16.382023 13.846870 0.000000
16.696766 13.846870 0.000000
17.011505 13.846870 0.000000
17.326248 13.846870 0.000000
17.640987 13.846870 0.000000
17.955730 13.846870 0.000000
18.270470 13.846870 0.000000
18.585213 13.846870 0.000000
18.899952 13.846870 0.000000
-7.223550 13.532127 0.000000
-6.908809 13.532127 0.004226
-6.594068 13.532127 0.001981
-6.279327 13.532127 0.001885
-5.964586 13.532127 0.001934
-5.649845 13.532127 0.001589
-5.335104 13.532127 0.001467
-5.020363 13.532127 0.001508
-4.705622 13.532127 0.001140
-4.390881 13.532127 0.000704
-4.076140 13.532127 0.000594
-3.761399 13.532127 0.000819
-3.446658 13.532127 0.001095
-3.131917 13.532127 0.001131
-2.817176 13.532127 0.001084
-2.502435 13.532127 0.000994
-2.187694 13.532127 0.001022
-1.872953 13.532127 0.001244
-1.558212 13.532127 0.001398
-1.243471 13.532127 0.001424
-0.928730 13.532127 0.001428
-0.613989 13.532127 0.001484
-0.299248 13.532127 0.001762
0.015493 13.532127 0.001774
0.330234 13.532127 0.001343
0.644975 13.532127 0.001012
0.959716 13.532127 0.000802
1.274457 13.532127 0.000581
1.589198 13.532127 0.000332
1.903938 13.532127 0.000332
2.218679 13.532127 0.000570
2.533421 13.532127 0.000826
2.848162 13.532127 0.001080
3.162903 13.532127 0.001098
3.477644 13.532127 0.000936
3.792385 13.532127 0.001002
4.107125 13.532127 0.001056
4.421866 13.532127 0.000949
4.736608 13.532127 0.000512
5.051349 13.532127 0.000240
5.366090 13.532127 0.000184
5.680831 13.532127 -0.000170
5.995571 13.532127 -0.000617
6.310312 13.532127 -0.001040
6.625053 13.532127 -0.001416
6.939795 13.532127 -0.001625
7.254536 13.532127 -0.002591
7.569277 13.532127 -0.002839
7.884017 13.532127 -0.002886
8.198758 13.532127 -0.003611
8.513499 13.532127 -0.007408
8.828240 13.532127 -0.009127
9.142982 13.532127 -0.007173
9.457723 13.532127 -0.001371
9.772464 13.532127 0.002754
10.087205 13.532127 0.011373
10.401946 13.532127 -0.007259
10.716687 13.532127 -0.019090
11.031426 13.532127 -0.028818
11.346168 13.532127 -0.034403
11.660909 13.532127 -0.041608
11.975650 13.532127 -0.030796
12.290391 13.532127 -0.041277
12.605132 13.532127 -0.005867
12.919873 13.532127 0.055489
13.234614 13.532127 0.079745
13.549356 13.532127 0.088766
13.864097 13.532127 0.117839
14.178838 13.532127 0.187198
14.493579 13.532127 0.223899
14.808320 13.532127 0.282282
15.123059 13.532127 0.395593
15.437800 13.532127 0.760048
15.752542 13.532127 1.155595
16.067284 13.532127 0.000000
16.382023 13.532127 0.000000
16.696766 13.532127 0.000000
17.011505 13.532127 0.000000
17.326248 13.532127 0.000000
17.640987 13.532127 0.000000
17.955730 13.532127 0.000000
18.270470 13.532127 0.000000
18.585213 13.532127 0.000000
18.899952 13.532127 0.000000
-7.223550 13.217388 0.000000
-6.908809 13.217388 0.004255
-6.594068 13.217388 0.001959
-6.279327 13.217388 0.001722
-5.964586 13.217388 0.001531
-5.649845 13.217388 0.001040
-5.335104 13.217388 0.000973
-5.020363 13.217388 0.001014
-4.705622 13.217388 0.000729
-4.390881 13.217388 0.000436
-4.076140 13.217388 0.000476
-3.761399 13.217388 0.000917
-3.446658 13.217388 0.001406
-3.131917 13.217388 0.001648
-2.817176 13.217388 0.001703
-2.502435 13.217388 0.001577
-2.187694 13.217388 0.001446
-1.872953 13.217388 0.001512
-1.558212 13.217388 0.001469
-1.243471 13.217388 0.001308
-0.928730 13.217388 0.001160
-0.613989 13.217388 0.001081
-0.299248 13.217388 0.001223
0.015493 13.217388 0.001178
0.330234 13.217388 0.000925
0.644975 13.217388 0.000713
0.959716 13.217388 0.000656
1.274457 13.217388 0.000707
1.589198 13.217388 0.000732
1.903938 13.217388 0.000786
2.218679 13.217388 0.000960
2.533421 13.217388 0.001176
2.848162 13.217388 0.001391
3.162903 13.217388 0.001260
3.477644 13.217388 0.000925
3.792385 13.217388 0.000781
4.107125 13.217388 0.000829
4.421866 13.217388 0.000686
4.736608 13.217388 0.000300
5.051349 13.217388 0.000054
5.366090 13.217388 0.000081
5.680831 13.217388 -0.000114
5.995571 13.217388 -0.000535
6.310312 13.217388 -0.001073
6.625053 13.217388 -0.001348
6.939795 13.217388 -0.001091
7.254536 13.217388 -0.001912
7.569277 13.217388 -0.002423
7.884017 13.217388 -0.002098
8.198758 13.217388 -0.003202
8.513499 13.217388 -0.006402
8.828240 13.217388 -0.004954
9.142982 13.217388 -0.006549
9.457723 13.217388 -0.001688
9.772464 13.217388 0.004420
10.087205 13.217388 0.003392
10.401946 13.217388 -0.004259
10.716687 13.217388 -0.023021
11.031426 13.217388 -0.039002
11.346168 13.217388 -0.036318
11.660909 13.217388 -0.036496
11.975650 13.217388 -0.033760
12.290391 13.217388 -0.021392
12.605132 13.217388 0.013937
12.919873 13.217388 0.044969
13.234614 13.217388 0.082413
13.549356 13.217388 0.090999
13.864097 13.217388 0.129831
14.178838 13.217388 0.205841
14.493579 13.217388 0.260305
14.808320 13.217388 0.280197
15.123059 13.217388 0.444776
15.437800 13.217388 0.816130
15.752542 13.217388 1.167515
16.067284 13.217388 0.000000
16.382023 13.217388 0.000000
16.696766 13.217388 0.000000
17.011505 13.217388 0.000000
17.326248 13.217388 0.000000
17.640987 13.217388 0.000000
17.955730 13.217388 0.000000
18.270470 13.217388 0.000000
18.585213 13.217388 0.000000
18.899952 13.217388 0.000000
-7.223550 12.902649 0.000000
-6.908809 12.902649 0.003776
-6.594068 12.902649 0.001502
-6.279327 12.902649 0.001249
-5.964586 12.902649 0.001035
-5.649845 12.902649 0.000709
-5.335104 12.902649 0.000873
-5.020363 12.902649 0.001061
-4.705622 12.902649 0.000956
-4.390881 12.902649 0.000823
-4.076140 12.902649 0.000913
-3.761399 12.902649 0.001350
-3.446658 12.902649 0.001760
-3.131917 12.902649 0.001978
-2.817176 12.902649 0.001943
-2.502435 12.902649 0.001697
-2.187694 12.902649 0.001419
-1.872953 12.902649 0.001304
-1.558212 12.902649 0.001081
-1.243471 12.902649 0.000880
-0.928730 12.902649 0.000745
-0.613989 12.902649 0.000752
-0.299248 12.902649 0.000950
0.015493 12.902649 0.000993
0.330234 12.902649 0.000880
0.644975 12.902649 0.000812
0.959716 12.902649 0.000912
1.274457 12.902649 0.001180
1.589198 12.902649 0.001282
1.903938 12.902649 0.001185
2.218679 12.902649 0.001111
2.533421 12.902649 0.001171
2.848162 12.902649 0.001278
3.162903 12.902649 0.001039
3.477644 12.902649 0.000612
3.792385 12.902649 0.000376
4.107125 12.902649 0.000472
4.421866 12.902649 0.000552
4.736608 12.902649 0.000323
5.051349 12.902649 0.000115
5.366090 12.902649 0.000190
5.680831 12.902649 0.000029
5.995571 12.902649 -0.000241
6.310312 12.902649 -0.000683
6.625053 12.902649 -0.000997
6.939795 12.902649 -0.000814
7.254536 12.902649 -0.001374
7.569277 12.902649 -0.001765
7.884017 12.902649 -0.002412
8.198758 12.902649 -0.002065
8.513499 12.902649 -0.005474
8.828240 12.902649 -0.007251
9.142982 12.902649 -0.003873
9.457723 12.902649 -0.005583
9.772464 12.902649 0.000615
10.087205 12.902649 -0.000233
10.401946 12.902649 -0.007541
10.716687 12.902649 -0.019624
11.031426 12.902649 -0.026922
11.346168 12.902649 -0.044141
11.660909 12.902649 -0.047223
11.975650 12.902649 -0.031957
12.290391 12.902649 -0.012697
12.605132 12.902649 0.002619
12.919873 12.902649 0.046184
13.234614 12.902649 0.090471
13.549356 12.902649 0.081588
13.864097 12.902649 0.127540
14.178838 12.902649 0.177108
14.493579 12.902649 0.251404
14.808320 12.902649 0.318522
15.123059 12.902649 0.390062
15.437800 12.902649 0.765062
15.752542 12.902649 1.047961
16.067284 12.902649 0.000000
16.382023 12.902649 0.000000
16.696766 12.902649 0.000000
17.011505 12.902649 0.000000
17.326248 12.902649 0.000000
17.640987 12.902649 0.000000
17.955730 12.902649 0.000000
18.270470 12.902649 0.000000
18.585213 12.902649 0.000000
18.899952 12.902649 0.000000
-7.223550 12.587906 0.000000
-6.908809 12.587906 0.003302
-6.594068 12.587906 0.001208
-6.279327 12.587906 0.001047
-5.964586 12.587906 0.001007
-5.649845 12.587906 0.000912
-5.335104 12.587906 0.001245
-5.020363 12.587906 0.001500
-4.705622 12.587906 0.001493
-4.390881 12.587906 0.001353
-4.076140 12.587906 0.001305
-3.761399 12.587906 0.001532
-3.446658 12.587906 0.001718
-3.131917 12.587906 0.001750
-2.817176 12.587906 0.001604
-2.502435 12.587906 0.001320
-2.187694 12.587906 0.001044
-1.872953 12.587906 0.000932
-1.558212 12.587906 0.000764
-1.243471 12.587906 0.000712
-0.928730 12.587906 0.000778
-0.613989 12.587906 0.000896
-0.299248 12.587906 0.001107
0.015493 12.587906 0.001121
0.330234 12.587906 0.001053
0.644975 12.587906 0.000985
0.959716 12.587906 0.001162
1.274457 12.587906 0.001479
1.589198 12.587906 0.001476
1.903938 12.587906 0.001183
2.218679 12.587906 0.000940
2.533421 12.587906 0.000925
2.848162 12.587906 0.000973
3.162903 12.587906 0.000741
3.477644 12.587906 0.000381
3.792385 12.587906 0.000136
4.107125 12.587906 0.000348
4.421866 12.587906 0.000594
4.736608 12.587906 0.000510
5.051349 12.587906 0.000345
5.366090 12.587906 0.000405
5.680831 12.587906 0.000234
5.995571 12.587906 -0.000064
6.310312 12.587906 -0.000513
6.625053 12.587906 -0.000804
6.939795 12.587906 -0.000871
7.254536 12.587906 -0.001314
7.569277 12.587906 -0.001414
7.884017 12.587906 -0.003570
8.198758 12.587906 -0.002074
8.513499 12.587906 -0.006437
8.828240 12.587906 -0.006890
9.142982 12.587906 -0.007637
9.457723 12.587906 -0.006983
9.772464 12.587906 0.002484
10.087205 12.587906 0.001868
10.401946 12.587906 -0.015662
10.716687 12.587906 -0.027207
11.031426 12.587906 -0.033859
11.346168 12.587906 -0.054206
11.660909 12.587906 -0.064690
11.975650 12.587906 -0.047623
12.290391 12.587906 -0.024841
12.605132 12.587906 0.012766
12.919873 12.587906 0.028061
13.234614 12.587906 0.070906
13.549356 12.587906 0.088020
13.864097 12.587906 0.133015
14.178838 12.587906 0.180880
14.493579 12.587906 0.265129
14.808320 12.587906 0.279002
15.123059 12.587906 0.387781
15.437800 12.587906 0.787519
15.752542 12.587906 1.294457
16.067284 12.587906 0.000000
16.382023 12.587906 0.000000
16.696766 12.587906 0.000000
17.011505 12.587906 0.000000
17.326248 12.587906 0.000000
17.640987 12.587906 0.000000
17.955730 12.587906 0.000000
18.270470 12.587906 0.000000
18.585213 12.587906 0.000000
18.899952 12.587906 0.000000
-7.223550 12.273167 0.000000
-6.908809 12.273167 0.003395
-6.594068 12.273167 0.001321
-6.279327 12.273167 0.001240
-5.964586 12.273167 0.001285
-5.649845 12.273167 0.001324
-5.335104 12.273167 0.001663
-5.020363 12.273167 0.001822
-4.705622 12.273167 0.001779
-4.390881 12.273167 0.001558
-4.076140 12.273167 0.001280
-3.761399 12.273167 0.001285
-3.446658 12.273167 0.001240
-3.131917 12.273167 0.001123
-2.817176 12.273167 0.000999
-2.502435 12.273167 0.000896
-2.187694 12.273167 0.000824
-1.872953 12.273167 0.000883
-1.558212 12.273167 0.000957
-1.243471 12.273167 0.001051
-0.928730 12.273167 0.001165
-0.613989 12.273167 0.001172
-0.299248 12.273167 0.001227
0.015493 12.273167 0.001163
0.330234 12.273167 0.001037
0.644975 12.273167 0.000970
0.959716 12.273167 0.001159
1.274457 12.273167 0.001390
1.589198 12.273167 0.001295
1.903938 12.273167 0.000939
2.218679 12.273167 0.000666
2.533421 12.273167 0.000682
2.848162 12.273167 0.000765
3.162903 12.273167 0.000638
3.477644 12.273167 0.000399
3.792385 12.273167 0.000171
4.107125 12.273167 0.000419
4.421866 12.273167 0.000711
4.736608 12.273167 0.000662
5.051349 12.273167 0.000492
5.366090 12.273167 0.000449
5.680831 12.273167 0.000315
5.995571 12.273167 0.000085
6.310312 12.273167 -0.000490
6.625053 12.273167 -0.000879
6.939795 12.273167 -0.001020
7.254536 12.273167 -0.001880
7.569277 12.273167 -0.003073
7.884017 12.273167 -0.003994
8.198758 12.273167 -0.004227
8.513499 12.273167 -0.006822
8.828240 12.273167 -0.003541
9.142982 12.273167 -0.005411
9.457723 12.273167 -0.001602
9.772464 12.273167 -0.004011
10.087205 12.273167 -0.002091
10.401946 12.273167 -0.005712
10.716687 12.273167 -0.031718
11.031426 12.273167 -0.031256
11.346168 12.273167 -0.038784
11.660909 12.273167 -0.062766
11.975650 12.273167 -0.047461
12.290391 12.273167 -0.019930
12.605132 12.273167 0.013501
12.919873 12.273167 0.010284
13.234614 12.273167 0.050246
13.549356 12.273167 0.112667
13.864097 12.273167 0.148175
14.178838 12.273167 0.190650
14.493579 12.273167 0.225651
14.808320 12.273167 0.299524
15.123059 12.273167 0.431437
15.437800 12.273167 0.782202
15.752542 12.273167 1.208172
16.067284 12.273167 0.000000
16.382023 12.273167 0.000000
16.696766 12.273167 0.000000
17.011505 12.273167 0.000000
17.326248 12.273167 0.000000
17.640987 12.273167 0.000000
17.955730 12.273167 0.000000
18.270470 12.273167 0.000000
18.585213 12.273167 0.000000
18.899952 12.273167 0.000000
-7.223550 11.958424 0.000000
-6.908809 11.958424 0.003731
-6.594068 11.958424 0.001586
-6.279327 11.958424 0.001383
-5.964586 11.958424 0.001436
-5.649845 11.958424 0.001493
-5.335104 11.958424 0.001724
-5.020363 11.958424 0.001766
-4.705622 11.958424 0.001653
-4.390881 11.958424 0.001425
-4.076140 11.958424 0.001054
-3.761399 11.958424 0.000921
-3.446658 11.958424 0.000847
-3.131917 11.958424 0.000752
-2.817176 11.958424 0.000702
-2.502435 11.958424 0.000806
-2.187694 11.958424 0.000996
-1.872953 11.958424 0.001229
-1.558212 11.958424 0.001405
-1.243471 11.958424 0.001489
-0.928730 11.958424 0.001451
-0.613989 11.958424 0.001224
-0.299248 11.958424 0.001029
0.015493 11.958424 0.000864
0.330234 11.958424 0.000794
0.644975 11.958424 0.000805
0.959716 11.958424 0.000999
1.274457 11.958424 0.001113
1.589198 11.958424 0.001028
1.903938 11.958424 0.000765
2.218679 11.958424 0.000569
2.533421 11.958424 0.000643
2.848162 11.958424 0.000826
3.162903 11.958424 0.000755
3.477644 11.958424 0.000559
3.792385 11.958424 0.000314
4.107125 11.958424 0.000422
4.421866 11.958424 0.000619
4.736608 11.958424 0.000583
5.051349 11.958424 0.000400
5.366090 11.958424 0.000305
5.680831 11.958424 0.000119
5.995571 11.958424 -0.000097
6.310312 11.958424 -0.000504
6.625053 11.958424 -0.001106
6.939795 11.958424 -0.001291
7.254536 11.958424 -0.002370
7.569277 11.958424 -0.003423
7.884017 11.958424 -0.004145
8.198758 11.958424 -0.004706
8.513499 11.958424 -0.003049
8.828240 11.958424 -0.002777
9.142982 11.958424 -0.000598
9.457723 11.958424 -0.000444
9.772464 11.958424 -0.005765
10.087205 11.958424 0.003372
10.401946 11.958424 0.002767
10.716687 11.958424 -0.023530
11.031426 11.958424 -0.025656
11.346168 11.958424 -0.031113
11.660909 11.958424 -0.056264
11.975650 11.958424 -0.032644
12.290391 11.958424 -0.027710
12.605132 11.958424 -0.002261
12.919873 11.958424 0.026501
13.234614 11.958424 0.048258
13.549356 11.958424 0.096209
13.864097 11.958424 0.121296
14.178838 11.958424 0.199953
14.493579 11.958424 0.240142
14.808320 11.958424 0.359098
15.123059 11.958424 0.495984
15.437800 11.958424 0.733013
15.752542 11.958424 1.120065
16.067284 11.958424 0.000000
16.382023 11.958424 0.000000
16.696766 11.958424 0.000000
17.011505 11.958424 0.000000
17.326248 11.958424 0.000000
17.640987 11.958424 0.000000
17.955730 11.958424 0.000000
18.270470 11.958424 0.000000
18.585213 11.958424 0.000000
18.899952 11.958424 0.000000
-7.223550 11.643684 0.000000
-6.908809 11.643684 0.003821
-6.594068 11.643684 0.001582
-6.279327 11.643684 0.001223
-5.964586 11.643684 0.001247
-5.649845 11.643684 0.001358
-5.335104 11.643684 0.001497
-5.020363 11.643684 0.001514
-4.705622 11.643684 0.001446
-4.390881 11.643684 0.001266
-4.076140 11.643684 0.000983
-3.761399 11.643684 0.000921
-3.446658 11.643684 0.000904
-3.131917 11.643684 0.000889
-2.817176 11.643684 0.000853
-2.502435 11.643684 0.000976
-2.187694 11.643684 0.001252
-1.872953 11.643684 0.001539
-1.558212 11.643684 0.001682
-1.243471 11.643684 0.001594
-0.928730 11.643684 0.001408
-0.613989 11.643684 0.001040
-0.299248 11.643684 0.000745
0.015493 11.643684 0.000571
0.330234 11.643684 0.000612
0.644975 11.643684 0.000787
0.959716 11.643684 0.001031
1.274457 11.643684 0.001030
1.589198 11.643684 0.000938
1.903938 11.643684 0.000752
2.218679 11.643684 0.000638
2.533421 11.643684 0.000761
2.848162 11.643684 0.000989
3.162903 11.643684 0.000918
3.477644 11.643684 0.000664
3.792385 11.643684 0.000342
4.107125 11.643684 0.000306
4.421866 11.643684 0.000417
4.736608 11.643684 0.000362
5.051349 11.643684 0.000144
5.366090 11.643684 -0.000031
5.680831 11.643684 -0.000055
5.995571 11.643684 -0.000101
6.310312 11.643684 -0.000391
6.625053 11.643684 -0.000974
6.939795 11.643684 -0.001419
7.254536 11.643684 -0.001859
7.569277 11.643684 -0.002677
7.884017 11.643684 -0.004759
8.198758 11.643684 -0.006526
8.513499 11.643684 -0.002772
8.828240 11.643684 -0.004558
9.142982 11.643684 -0.002493
9.457723 11.643684 -0.005384
9.772464 11.643684 -0.003444
10.087205 11.643684 0.011586
10.401946 11.643684 0.011011
10.716687 11.643684 -0.007829
11.031426 11.643684 -0.023108
11.346168 11.643684 -0.036682
11.660909 11.643684 -0.041103
11.975650 11.643684 -0.040112
12.290391 11.643684 -0.039794
12.605132 11.643684 -0.016947
12.919873 11.643684 0.008306
13.234614 11.643684 0.053931
13.549356 11.643684 0.109237
13.864097 11.643684 0.132807
14.178838 11.643684 0.191218
14.493579 11.643684 0.283792
14.808320 11.643684 0.401170
15.123059 11.643684 0.480683
15.437800 11.643684 0.744159
15.752542 11.643684 1.125581
16.067284 11.643684 0.000000
16.382023 11.643684 0.000000
16.696766 11.643684 0.000000
17.011505 11.643684 0.000000
17.326248 11.643684 0.000000
17.640987 11.643684 0.000000
17.955730 11.643684 0.000000
18.270470 11.643684 0.000000
18.585213 11.643684 0.000000
18.899952 11.643684 0.000000
-7.223550 11.328941 0.000000
-6.908809 11.328941 0.003584
-6.594068 11.328941 0.001333
-6.279327 11.328941 0.000939
-5.964586 11.328941 0.001025
-5.649845 11.328941 0.001178
-5.335104 11.328941 0.001281
-5.020363 11.328941 0.001444
-4.705622 11.328941 0.001547
-4.390881 11.328941 0.001405
-4.076140 11.328941 0.001234
-3.761399 11.328941 0.001215
-3.446658 11.328941 0.001191
-3.131917 11.328941 0.001159
-2.817176 11.328941 0.001066
-2.502435 11.328941 0.001090
-2.187694 11.328941 0.001271
-1.872953 11.328941 0.001559
-1.558212 11.328941 0.001602
-1.243471 11.328941 0.001352
-0.928730 11.328941 0.001126
-0.613989 11.328941 0.000858
-0.299248 11.328941 0.000663
0.015493 11.328941 0.000575
0.330234 11.328941 0.000686
0.644975 11.328941 0.000983
0.959716 11.328941 0.001207
1.274457 11.328941 0.001141
1.589198 11.328941 0.000981
1.903938 11.328941 0.000766
2.218679 11.328941 0.000667
2.533421 11.328941 0.000787
2.848162 11.328941 0.000990
3.162903 11.328941 0.000903
3.477644 11.328941 0.000627
3.792385 11.328941 0.000342
4.107125 11.328941 0.000198
4.421866 11.328941 0.000275
4.736608 11.328941 0.000201
5.051349 11.328941 -0.000087
5.366090 11.328941 -0.000209
5.680831 11.328941 -0.000191
5.995571 11.328941 0.000010
6.310312 11.328941 -0.000204
6.625053 11.328941 -0.000571
6.939795 11.328941 -0.001298
7.254536 11.328941 -0.001327
7.569277 11.328941 -0.002112
7.884017 11.328941 -0.005811
8.198758 11.328941 -0.006915
8.513499 11.328941 -0.003178
8.828240 11.328941 -0.003709
9.142982 11.328941 -0.003354
9.457723 11.328941 -0.003454
9.772464 11.328941 -0.001972
10.087205 11.328941 0.006595
10.401946 11.328941 0.002517
10.716687 11.328941 -0.005296
11.031426 11.328941 -0.010606
11.346168 11.328941 -0.019391
11.660909 11.328941 -0.021695
11.975650 11.328941 -0.045040
12.290391 11.328941 -0.024992
12.605132 11.328941 0.014017
12.919873 11.328941 0.020960
13.234614 11.328941 0.039602
13.549356 11.328941 0.056667
13.864097 11.328941 0.103365
14.178838 11.328941 0.218825
14.493579 11.328941 0.328295
14.808320 11.328941 0.424231
15.123059 11.328941 0.527243
15.437800 11.328941 0.772972
15.752542 11.328941 1.172574
16.067284 11.328941 0.000000
16.382023 11.328941 0.000000
16.696766 11.328941 0.000000
17.011505 11.328941 0.000000
17.326248 11.328941 0.000000
17.640987 11.328941 0.000000
17.955730 11.328941 0.000000
18.270470 11.328941 0.000000
18.585213 11.328941 0.000000
18.899952 11.328941 0.000000
-7.223550 11.014202 0.000000
-6.908809 11.014202 0.003316
-6.594068 11.014202 0.001185
-6.279327 11.014202 0.000937
-5.964586 11.014202 0.001105
-5.649845 11.014202 0.001230
-5.335104 11.014202 0.001361
-5.020363 11.014202 0.001632
-4.705622 11.014202 0.001749
-4.390881 11.014202 0.001624
-4.076140 11.014202 0.001441
-3.761399 11.014202 0.001435
-3.446658 11.014202 0.001338
-3.131917 11.014202 0.001214
-2.817176 11.014202 0.001118
-2.502435 11.014202 0.000983
-2.187694 11.014202 0.001061
-1.872953 11.014202 0.001311
-1.558212 11.014202 0.001327
-1.243471 11.014202 0.001082
-0.928730 11.014202 0.000975
-0.613989 11.014202 0.000978
-0.299248 11.014202 0.000943
0.015493 11.014202 0.000866
0.330234 11.014202 0.000916
0.644975 11.014202 0.001189
0.959716 11.014202 0.001352
1.274457 11.014202 0.001207
1.589198 11.014202 0.000882
1.903938 11.014202 0.000610
2.218679 11.014202 0.000537
2.533421 11.014202 0.000634
2.848162 11.014202 0.000804
3.162903 11.014202 0.000755
3.477644 11.014202 0.000578
3.792385 11.014202 0.000403
4.107125 11.014202 0.000284
4.421866 11.014202 0.000364
4.736608 11.014202 0.000299
5.051349 11.014202 0.000080
5.366090 11.014202 -0.000161
5.680831 11.014202 -0.000138
5.995571 11.014202 0.000199
6.310312 11.014202 0.000044
6.625053 11.014202 -0.000423
6.939795 11.014202 -0.000746
7.254536 11.014202 -0.001576
7.569277 11.014202 -0.002970
7.884017 11.014202 -0.004408
8.198758 11.014202 -0.003803
8.513499 11.014202 -0.004152
8.828240 11.014202 -0.006786
9.142982 11.014202 -0.007668
9.457723 11.014202 -0.010511
9.772464 11.014202 -0.008815
10.087205 11.014202 -0.003280
10.401946 11.014202 -0.013646
10.716687 11.014202 -0.017918
11.031426 11.014202 -0.009298
11.346168 11.014202 -0.009847
11.660909 11.014202 -0.021578
11.975650 11.014202 -0.026366
12.290391 11.014202 0.005368
12.605132 11.014202 0.030035
12.919873 11.014202 0.017461
13.234614 11.014202 0.041387
13.549356 11.014202 0.032959
13.864097 11.014202 0.117192
14.178838 11.014202 0.226202
14.493579 11.014202 0.320608
14.808320 11.014202 0.405377
15.123059 11.014202 0.536587
15.437800 11.014202 0.908811
15.752542 11.014202 1.368150
16.067284 11.014202 0.000000
16.382023 11.014202 0.000000
16.696766 11.014202 0.000000
17.011505 11.014202 0.000000
17.326248 11.014202 0.000000
17.640987 11.014202 0.000000
17.955730 11.014202 0.000000
18.270470 11.014202 0.000000
18.585213 11.014202 0.000000
18.899952 11.014202 0.000000
-7.223550 10.699459 0.000000
-6.908809 10.699459 0.003291
-6.594068 10.699459 0.001369
-6.279327 10.699459 0.001271
-5.964586 10.699459 0.001421
-5.649845 10.699459 0.001422
-5.335104 10.699459 0.001482
-5.020363 10.699459 0.001738
-4.705622 10.699459 0.001777
-4.390881 10.699459 0.001617
-4.076140 10.699459 0.001471
-3.761399 10.699459 0.001455
-3.446658 10.699459 0.001287
-3.131917 10.699459 0.001115
-2.817176 10.699459 0.000998
-2.502435 10.699459 0.000845
-2.187694 10.699459 0.000830
-1.872953 10.699459 0.001041
-1.558212 10.699459 0.001086
-1.243471 10.699459 0.000989
-0.928730 10.699459 0.001029
-0.613989 10.699459 0.001305
-0.299248 10.699459 0.001399
0.015493 10.699459 0.001193
0.330234 10.699459 0.001090
0.644975 10.699459 0.001204
0.959716 10.699459 0.001327
1.274457 10.699459 0.001122
1.589198 10.699459 0.000679
1.903938 10.699459 0.000412
2.218679 10.699459 0.000392
2.533421 10.699459 0.000507
2.848162 10.699459 0.000667
3.162903 10.699459 0.000636
3.477644 10.699459 0.000612
3.792385 10.699459 0.000606
4.107125 10.699459 0.000550
4.421866 10.699459 0.000635
4.736608 10.699459 0.000526
5.051349 10.699459 0.000261
5.366090 10.699459 0.000004
5.680831 10.699459 0.000010
5.995571 10.699459 0.000323
6.310312 10.699459 0.000343
6.625053 10.699459 -0.000240
6.939795 10.699459 -0.000946
7.254536 10.699459 -0.002130
7.569277 10.699459 -0.003080
7.884017 10.699459 -0.004577
8.198758 10.699459 -0.001776
8.513499 10.699459 -0.004504
8.828240 10.699459 -0.009623
9.142982 10.699459 -0.013299
9.457723 10.699459 -0.016586
9.772464 10.699459 -0.013761
10.087205 10.699459 -0.013955
10.401946 10.699459 -0.027277
10.716687 10.699459 -0.026085
11.031426 10.699459 -0.004408
11.346168 10.699459 -0.008741
11.660909 10.699459 -0.029485
11.975650 10.699459 -0.015588
12.290391 10.699459 0.035758
12.605132 10.699459 0.043768
12.919873 10.699459 0.052662
13.234614 10.699459 0.043898
13.549356 10.699459 0.050690
13.864097 10.699459 0.091926
14.178838 10.699459 0.199760
14.493579 10.699459 0.324241
14.808320 10.699459 0.395304
15.123059 10.699459 0.585061
15.437800 10.699459 0.978175
15.752542 10.699459 1.399700
16.067284 10.699459 0.000000
16.382023 10.699459 0.000000
16.696766 10.699459 0.000000
17.011505 10.699459 0.000000
17.326248 10.699459 0.000000
17.640987 10.699459 0.000000
17.955730 10.699459 0.000000
18.270470 10.699459 0.000000
18.585213 10.699459 0.000000
18.899952 10.699459 0.000000
-7.223550 10.384720 0.000000
-6.908809 10.384720 0.003431
-6.594068 10.384720 0.001644
-6.279327 10.384720 0.001577
-5.964586 10.384720 0.001612
-5.649845 10.384720 0.001439
-5.335104 10.384720 0.001445
-5.020363 10.384720 0.001578
-4.705622 10.384720 0.001513
-4.390881 10.384720 0.001353
-4.076140 10.384720 0.001311
-3.761399 10.384720 0.001367
-3.446658 10.384720 0.001286
-3.131917 10.384720 0.001137
-2.817176 10.384720 0.001050
-2.502435 10.384720 0.000917
-2.187694 10.384720 0.000839
-1.872953 10.384720 0.000903
-1.558212 10.384720 0.000935
-1.243471 10.384720 0.000935
-0.928730 10.384720 0.001116
-0.613989 10.384720 0.001553
-0.299248 10.384720 0.001673
0.015493 10.384720 0.001338
0.330234 10.384720 0.000984
0.644975 10.384720 0.000964
0.959716 10.384720 0.001125
1.274457 10.384720 0.000987
1.589198 10.384720 0.000573
1.903938 10.384720 0.000333
2.218679 10.384720 0.000351
2.533421 10.384720 0.000526
2.848162 10.384720 0.000703
3.162903 10.384720 0.000676
3.477644 10.384720 0.000725
3.792385 10.384720 0.000785
4.107125 10.384720 0.000792
4.421866 10.384720 0.000799
4.736608 10.384720 0.000665
5.051349 10.384720 0.000357
5.366090 10.384720 0.000069
5.680831 10.384720 -0.000052
5.995571 10.384720 0.000267
6.310312 10.384720 0.000173
6.625053 10.384720 -0.000456
6.939795 10.384720 -0.001447
7.254536 10.384720 -0.002378
7.569277 10.384720 -0.004236
7.884017 10.384720 -0.004135
8.198758 10.384720 -0.004165
8.513499 10.384720 -0.007519
8.828240 10.384720 -0.012815
9.142982 10.384720 -0.014061
9.457723 10.384720 -0.015199
9.772464 10.384720 -0.023822
10.087205 10.384720 -0.028503
10.401946 10.384720 -0.037413
10.716687 10.384720 -0.033311
11.031426 10.384720 -0.022205
11.346168 10.384720 -0.010548
11.660909 10.384720 -0.015188
11.975650 10.384720 -0.011797
12.290391 10.384720 0.020055
12.605132 10.384720 0.047776
12.919873 10.384720 0.032284
13.234614 10.384720 0.043473
13.549356 10.384720 0.050468
13.864097 10.384720 0.114834
14.178838 10.384720 0.185617
14.493579 10.384720 0.257388
14.808320 10.384720 0.431801
15.123059 10.384720 0.537056
15.437800 10.384720 1.008533
15.752542 10.384720 1.346648
16.067284 10.384720 0.000000
16.382023 10.384720 0.000000
16.696766 10.384720 0.000000
17.011505 10.384720 0.000000
17.326248 10.384720 0.000000
17.640987 10.384720 0.000000
17.955730 10.384720 0.000000
18.270470 10.384720 0.000000
18.585213 10.384720 0.000000
18.899952 10.384720 0.000000
-7.223550 10.069977 0.000000
-6.908809 10.069977 0.003474
-6.594068 10.069977 0.001751
-6.279327 10.069977 0.001581
-5.964586 10.069977 0.001456
-5.649845 10.069977 0.001248
-5.335104 10.069977 0.001288
-5.020363 10.069977 0.001292
-4.705622 10.069977 0.001138
-4.390881 10.069977 0.001062
-4.076140 10.069977 0.001160
-3.761399 10.069977 0.001359
-3.446658 10.069977 0.001421
-3.131917 10.069977 0.001312
-2.817176 10.069977 0.001273
-2.502435 10.069977 0.001095
-2.187694 10.069977 0.000925
-1.872953 10.069977 0.000832
-1.558212 10.069977 0.000822
-1.243471 10.069977 0.000824
-0.928730 10.069977 0.000987
-0.613989 10.069977 0.001470
-0.299248 10.069977 0.001691
0.015493 10.069977 0.001284
0.330234 10.069977 0.000820
0.644975 10.069977 0.000714
0.959716 10.069977 0.000888
1.274457 10.069977 0.000883
1.589198 10.069977 0.000630
1.903938 10.069977 0.000451
2.218679 10.069977 0.000433
2.533421 10.069977 0.000678
2.848162 10.069977 0.000903
3.162903 10.069977 0.000780
3.477644 10.069977 0.000784
3.792385 10.069977 0.000872
4.107125 10.069977 0.000882
4.421866 10.069977 0.000895
4.736608 10.069977 0.000685
5.051349 10.069977 0.000362
5.366090 10.069977 0.000076
5.680831 10.069977 -0.000071
5.995571 10.069977 0.000011
6.310312 10.069977 -0.000100
6.625053 10.069977 -0.000583
6.939795 10.069977 -0.001425
7.254536 10.069977 -0.002334
7.569277 10.069977 -0.002981
7.884017 10.069977 -0.004381
8.198758 10.069977 -0.007440
8.513499 10.069977 -0.010190
8.828240 10.069977 -0.015696
9.142982 10.069977 -0.018337
9.457723 10.069977 -0.019723
9.772464 10.069977 -0.021893
10.087205 10.069977 -0.033361
10.401946 10.069977 -0.035551
10.716687 10.069977 -0.041517
11.031426 10.069977 -0.011942
11.346168 10.069977 -0.003319
11.660909 10.069977 -0.024561
11.975650 10.069977 0.000722
12.290391 10.069977 0.016423
12.605132 10.069977 0.058721
12.919873 10.069977 0.056242
13.234614 10.069977 0.037882
13.549356 10.069977 0.053855
13.864097 10.069977 0.126101
14.178838 10.069977 0.214518
14.493579 10.069977 0.279731
14.808320 10.069977 0.372348
15.123059 10.069977 0.647801
15.437800 10.069977 0.989921
15.752542 10.069977 1.415939
16.067284 10.069977 0.000000
16.382023 10.069977 0.000000
16.696766 10.069977 0.000000
17.011505 10.069977 0.000000
17.326248 10.069977 0.000000
17.640987 10.069977 0.000000
17.955730 10.069977 0.000000
18.270470 10.069977 0.000000
18.585213 10.069977 0.000000
18.899952 10.069977 0.000000
-7.223550 9.755238 0.000000
-6.908809 9.755238 0.003293
-6.594068 9.755238 0.001595
-6.279327 9.755238 0.001305
-5.964586 9.755238 0.001108
-5.649845 9.755238 0.001053
-5.335104 9.755238 0.001158
-5.020363 9.755238 0.001142
-4.705622 9.755238 0.000922
-4.390881 9.755238 0.000983
-4.076140 9.755238 0.001122
-3.761399 9.755238 0.001387
-3.446658 9.755238 0.001513
-3.131917 9.755238 0.001483
-2.817176 9.755238 0.001419
-2.502435 9.755238 0.001183
-2.187694 9.755238 0.000930
-1.872953 9.755238 0.000749
-1.558212 9.755238 0.000693
-1.243471 9.755238 0.000650
-0.928730 9.755238 0.000800
-0.613989 9.755238 0.001295
-0.299248 9.755238 0.001566
0.015493 9.755238 0.001217
0.330234 9.755238 0.000716
0.644975 9.755238 0.000560
0.959716 9.755238 0.000728
1.274457 9.755238 0.000848
1.589198 9.755238 0.000807
1.903938 9.755238 0.000671
2.218679 9.755238 0.000582
2.533421 9.755238 0.000757
2.848162 9.755238 0.001012
3.162903 9.755238 0.000836
3.477644 9.755238 0.000815
3.792385 9.755238 0.000953
4.107125 9.755238 0.000956
4.421866 9.755238 0.000896
4.736608 9.755238 0.000643
5.051349 9.755238 0.000350
5.366090 9.755238 0.000179
5.680831 9.755238 0.000032
5.995571 9.755238 -0.000197
6.310312 9.755238 -0.000356
6.625053 9.755238 -0.000606
6.939795 9.755238 -0.000863
7.254536 9.755238 -0.001822
7.569277 9.755238 -0.002749
7.884017 9.755238 -0.004316
8.198758 9.755238 -0.006938
8.513499 9.755238 -0.012079
8.828240 9.755238 -0.019720
9.142982 9.755238 -0.016407
9.457723 9.755238 -0.014558
9.772464 9.755238 -0.012699
10.087205 9.755238 -0.025660
10.401946 9.755238 -0.022189
10.716687 9.755238 -0.030033
11.031426 9.755238 -0.024880
11.346168 9.755238 -0.005294
11.660909 9.755238 -0.001450
11.975650 9.755238 -0.011524
12.290391 9.755238 0.029474
12.605132 9.755238 0.058836
12.919873 9.755238 0.098578
13.234614 9.755238 0.093155
13.549356 9.755238 0.088165
13.864097 9.755238 0.132145
14.178838 9.755238 0.210691
14.493579 9.755238 0.278177
14.808320 9.755238 0.394321
15.123059 9.755238 0.650269
15.437800 9.755238 1.046838
15.752542 9.755238 1.401434
16.067284 9.755238 0.000000
16.382023 9.755238 0.000000
16.696766 9.755238 0.000000
17.011505 9.755238 0.000000
17.326248 9.755238 0.000000
17.640987 9.755238 0.000000
17.955730 9.755238 0.000000
18.270470 9.755238 0.000000
18.585213 9.755238 0.000000
18.899952 9.755238 0.000000
-7.223550 9.440495 0.000000
-6.908809 9.440495 0.002965
-6.594068 9.440495 0.001410
-6.279327 9.440495 0.001067
-5.964586 9.440495 0.000897
-5.649845 9.440495 0.001022
-5.335104 9.440495 0.001191
-5.020363 9.440495 0.001081
-4.705622 9.440495 0.000861
-4.390881 9.440495 0.000957
-4.076140 9.440495 0.001065
-3.761399 9.440495 0.001315
-3.446658 9.440495 0.001459
-3.131917 9.440495 0.001475
-2.817176 9.440495 0.001354
-2.502435 9.440495 0.001075
-2.187694 9.440495 0.000844
-1.872953 9.440495 0.000679
-1.558212 9.440495 0.000595
-1.243471 9.440495 0.000564
-0.928730 9.440495 0.000750
-0.613989 9.440495 0.001206
-0.299248 9.440495 0.001471
0.015493 9.440495 0.001147
0.330234 9.440495 0.000715
0.644975 9.440495 0.000542
0.959716 9.440495 0.000654
1.274457 9.440495 0.000853
1.589198 9.440495 0.000923
1.903938 9.440495 0.000869
2.218679 9.440495 0.000677
2.533421 9.440495 0.000721
2.848162 9.440495 0.000977
3.162903 9.440495 0.000770
3.477644 9.440495 0.000725
3.792385 9.440495 0.000920
4.107125 9.440495 0.000982
4.421866 9.440495 0.000894
4.736608 9.440495 0.000605
5.051349 9.440495 0.000379
5.366090 9.440495 0.000292
5.680831 9.440495 0.000097
5.995571 9.440495 -0.000246
6.310312 9.440495 -0.000658
6.625053 9.440495 -0.000660
6.939795 9.440495 -0.000613
7.254536 9.440495 -0.001445
7.569277 9.440495 -0.002985
7.884017 9.440495 -0.004101
8.198758 9.440495 -0.002932
8.513499 9.440495 -0.009769
8.828240 9.440495 -0.019349
9.142982 9.440495 -0.014357
9.457723 9.440495 -0.009612
9.772464 9.440495 -0.013589
10.087205 9.440495 -0.010337
10.401946 9.440495 -0.020229
10.716687 9.440495 -0.023341
11.031426 9.440495 -0.014631
11.346168 9.440495 0.005244
11.660909 9.440495 -0.009346
11.975650 9.440495 -0.004372
12.290391 9.440495 0.024808
12.605132 9.440495 0.100173
12.919873 9.440495 0.116054
13.234614 9.440495 0.108366
13.549356 9.440495 0.113826
13.864097 9.440495 0.146138
14.178838 9.440495 0.239601
14.493579 9.440495 0.292310
14.808320 9.440495 0.374408
15.123059 9.440495 0.699995
15.437800 9.440495 1.104231
15.752542 9.440495 1.560127
16.067284 9.440495 0.000000
16.382023 9.440495 0.000000
16.696766 9.440495 0.000000
17.011505 9.440495 0.000000
17.326248 9.440495 0.000000
17.640987 9.440495 0.000000
17.955730 9.440495 0.000000
18.270470 9.440495 0.000000
18.585213 9.440495 0.000000
18.899952 9.440495 0.000000
-7.223550 9.125755 0.000000
-6.908809 9.125755 0.002878
-6.594068 9.125755 0.001391
-6.279327 9.125755 0.001092
-5.964586 9.125755 0.000960
-5.649845 9.125755 0.001121
-5.335104 9.125755 0.001228
-5.020363 9.125755 0.001028
-4.705622 9.125755 0.000819
-4.390881 9.125755 0.000838
-4.076140 9.125755 0.000901
-3.761399 9.125755 0.001050
-3.446658 9.125755 0.001224
-3.131917 9.125755 0.001269
-2.817176 9.125755 0.001204
-2.502435 9.125755 0.000943
-2.187694 9.125755 0.000792
-1.872953 9.125755 0.000685
-1.558212 9.125755 0.000613
-1.243471 9.125755 0.000602
-0.928730 9.125755 0.000803
-0.613989 9.125755 0.001185
-0.299248 9.125755 0.001319
0.015493 9.125755 0.001008
0.330234 9.125755 0.000661
0.644975 9.125755 0.000489
0.959716 9.125755 0.000540
1.274457 9.125755 0.000807
1.589198 9.125755 0.000923
1.903938 9.125755 0.000931
2.218679 9.125755 0.000713
2.533421 9.125755 0.000633
2.848162 9.125755 0.000812
3.162903 9.125755 0.000677
3.477644 9.125755 0.000653
3.792385 9.125755 0.000811
4.107125 9.125755 0.000943
4.421866 9.125755 0.000903
4.736608 9.125755 0.000641
5.051349 9.125755 0.000473
5.366090 9.125755 0.000368
5.680831 9.125755 0.000133
5.995571 9.125755 -0.000353
6.310312 9.125755 -0.000814
6.625053 9.125755 -0.000890
6.939795 9.125755 -0.000911
7.254536 9.125755 -0.001334
7.569277 9.125755 -0.003903
7.884017 9.125755 -0.004080
8.198758 9.125755 0.000712
8.513499 9.125755 -0.005272
8.828240 9.125755 -0.015915
9.142982 9.125755 -0.012516
9.457723 9.125755 -0.012031
9.772464 9.125755 -0.006592
10.087205 9.125755 -0.002638
10.401946 9.125755 -0.004151
10.716687 9.125755 -0.019342
11.031426 9.125755 -0.016945
11.346168 9.125755 -0.006633
11.660909 9.125755 0.011460
11.975650 9.125755 0.004724
12.290391 9.125755 0.042029
12.605132 9.125755 0.075158
12.919873 9.125755 0.101571
13.234614 9.125755 0.122352
13.549356 9.125755 0.146839
13.864097 9.125755 0.136041
14.178838 9.125755 0.249947
14.493579 9.125755 0.316877
14.808320 9.125755 0.459235
15.123059 9.125755 0.722586
15.437800 9.125755 1.310787
15.752542 9.125755 1.614943
16.067284 9.125755 0.000000
16.382023 9.125755 0.000000
16.696766 9.125755 0.000000
17.011505 9.125755 0.000000
17.326248 9.125755 0.000000
17.640987 9.125755 0.000000
17.955730 9.125755 0.000000
18.270470 9.125755 0.000000
18.585213 9.125755 0.000000
18.899952 9.125755 0.000000
-7.223550 8.811016 0.000000
-6.908809 8.811016 0.002891
-6.594068 8.811016 0.001432
-6.279327 8.811016 0.001207
-5.964586 8.811016 0.001075
-5.649845 8.811016 0.001159
-5.335104 8.811016 0.001152
-5.020363 8.811016 0.000912
-4.705622 8.811016 0.000733
-4.390881 8.811016 0.000664
-4.076140 8.811016 0.000695
-3.761399 8.811016 0.000790
-3.446658 8.811016 0.001016
-3.131917 8.811016 0.001113
-2.817176 8.811016 0.001117
-2.502435 8.811016 0.000932
-2.187694 8.811016 0.000850
-1.872953 8.811016 0.000782
-1.558212 8.811016 0.000730
-1.243471 8.811016 0.000791
-0.928730 8.811016 0.000938
-0.613989 8.811016 0.001083
-0.299248 8.811016 0.001023
0.015493 8.811016 0.000768
0.330234 8.811016 0.000557
0.644975 8.811016 0.000485
0.959716 8.811016 0.000561
1.274457 8.811016 0.000777
1.589198 8.811016 0.000872
1.903938 8.811016 0.000898
2.218679 8.811016 0.000708
2.533421 8.811016 0.000635
2.848162 8.811016 0.000744
3.162903 8.811016 0.000648
3.477644 8.811016 0.000582
3.792385 8.811016 0.000670
4.107125 8.811016 0.000833
4.421866 8.811016 0.000872
4.736608 8.811016 0.000700
5.051349 8.811016 0.000547
5.366090 8.811016 0.000418
5.680831 8.811016 0.000094
5.995571 8.811016 -0.000353
6.310312 8.811016 -0.000795
6.625053 8.811016 -0.001052
6.939795 8.811016 -0.001457
7.254536 8.811016 -0.002283
7.569277 8.811016 -0.003261
7.884017 8.811016 -0.002539
8.198758 8.811016 -0.000053
8.513499 8.811016 -0.002320
8.828240 8.811016 -0.009252
9.142982 8.811016 -0.012251
9.457723 8.811016 -0.015891
9.772464 8.811016 -0.001883
10.087205 8.811016 -0.001625
10.401946 8.811016 -0.008662
10.716687 8.811016 -0.018468
11.031426 8.811016 -0.019295
11.346168 8.811016 0.002446
11.660909 8.811016 0.015568
11.975650 8.811016 0.025742
12.290391 8.811016 0.049990
12.605132 8.811016 0.060682
12.919873 8.811016 0.113698
13.234614 8.811016 0.138088
13.549356 8.811016 0.143851
13.864097 8.811016 0.195001
14.178838 8.811016 0.254779
14.493579 8.811016 0.367803
14.808320 8.811016 0.516140
15.123059 8.811016 0.819017
15.437800 8.811016 1.361759
15.752542 8.811016 1.783868
16.067284 8.811016 0.000000
16.382023 8.811016 0.000000
16.696766 8.811016 0.000000
17.011505 8.811016 0.000000
17.326248 8.811016 0.000000
17.640987 8.811016 0.000000
17.955730 8.811016 0.000000
18.270470 8.811016 0.000000
18.585213 8.811016 0.000000
18.899952 8.811016 0.000000
-7.223550 8.496273 0.000000
-6.908809 8.496273 0.002829
-6.594068 8.496273 0.001344
-6.279327 8.496273 0.001177
-5.964586 8.496273 0.001098
-5.649845 8.496273 0.001092
-5.335104 8.496273 0.001005
-5.020363 8.496273 0.000812
-4.705622 8.496273 0.000675
-4.390881 8.496273 0.000583
-4.076140 8.496273 0.000575
-3.761399 8.496273 0.000642
-3.446658 8.496273 0.000901
-3.131917 8.496273 0.001053
-2.817176 8.496273 0.001098
-2.502435 8.496273 0.001027
-2.187694 8.496273 0.000930
-1.872953 8.496273 0.000808
-1.558212 8.496273 0.000776
-1.243471 8.496273 0.000899
-0.928730 8.496273 0.000960
-0.613989 8.496273 0.000907
-0.299248 8.496273 0.000747
0.015493 8.496273 0.000606
0.330234 8.496273 0.000530
0.644975 8.496273 0.000571
0.959716 8.496273 0.000635
1.274457 8.496273 0.000839
1.589198 8.496273 0.000912
1.903938 8.496273 0.000934
2.218679 8.496273 0.000827
2.533421 8.496273 0.000805
2.848162 8.496273 0.000890
3.162903 8.496273 0.000758
3.477644 8.496273 0.000607
3.792385 8.496273 0.000625
4.107125 8.496273 0.000797
4.421866 8.496273 0.000850
4.736608 8.496273 0.000681
5.051349 8.496273 0.000525
5.366090 8.496273 0.000336
5.680831 8.496273 0.000202
5.995571 8.496273 -0.000069
6.310312 8.496273 -0.000580
6.625053 8.496273 -0.001054
6.939795 8.496273 -0.001496
7.254536 8.496273 -0.002036
7.569277 8.496273 -0.002092
7.884017 8.496273 -0.001060
8.198758 8.496273 -0.002393
8.513499 8.496273 -0.001852
8.828240 8.496273 -0.005104
9.142982 8.496273 -0.004047
9.457723 8.496273 -0.013974
9.772464 8.496273 -0.005214
10.087205 8.496273 -0.006129
10.401946 8.496273 -0.008243
10.716687 8.496273 -0.022953
11.031426 8.496273 0.002570
11.346168 8.496273 0.004035
11.660909 8.496273 0.029048
11.975650 8.496273 0.014162
12.290391 8.496273 0.039217
12.605132 8.496273 0.067281
12.919873 8.496273 0.073365
13.234614 8.496273 0.124544
13.549356 8.496273 0.138681
13.864097 8.496273 0.181298
14.178838 8.496273 0.304012
14.493579 8.496273 0.400261
14.808320 8.496273 0.541136
15.123059 8.496273 0.870360
15.437800 8.496273 1.571402
15.752542 8.496273 2.007387
16.067284 8.496273 0.000000
16.382023 8.496273 0.000000
16.696766 8.496273 0.000000
17.011505 8.496273 0.000000
17.326248 8.496273 0.000000
17.640987 8.496273 0.000000
17.955730 8.496273 0.000000
18.270470 8.496273 0.000000
18.585213 8.496273 0.000000
18.899952 8.496273 0.000000
-7.223550 8.181534 0.000000
-6.908809 8.181534 0.002618
-6.594068 8.181534 0.001185
-6.279327 8.181534 0.001049
-5.964586 8.181534 0.001047
-5.649845 8.181534 0.001056
-5.335104 8.181534 0.000958
-5.020363 8.181534 0.000893
-4.705622 8.181534 0.000829
-4.390881 8.181534 0.000736
-4.076140 8.181534 0.000657
-3.761399 8.181534 0.000696
-3.446658 8.181534 0.000894
-3.131917 8.181534 0.000998
-2.817176 8.181534 0.001060
-2.502435 8.181534 0.001070
-2.187694 8.181534 0.000944
-1.872953 8.181534 0.000783
-1.558212 8.181534 0.000836
-1.243471 8.181534 0.001021
-0.928730 8.181534 0.000980
-0.613989 8.181534 0.000756
-0.299248 8.181534 0.000611
0.015493 8.181534 0.000580
0.330234 8.181534 0.000645
0.644975 8.181534 0.000816
0.959716 8.181534 0.000810
1.274457 8.181534 0.000934
1.589198 8.181534 0.001048
1.903938 8.181534 0.001025
2.218679 8.181534 0.000974
2.533421 8.181534 0.001092
2.848162 8.181534 0.001161
3.162903 8.181534 0.001001
3.477644 8.181534 0.000752
3.792385 8.181534 0.000641
4.107125 8.181534 0.000788
4.421866 8.181534 0.000874
4.736608 8.181534 0.000679
5.051349 8.181534 0.000456
5.366090 8.181534 0.000445
5.680831 8.181534 0.000459
5.995571 8.181534 0.000349
6.310312 8.181534 -0.000095
6.625053 8.181534 -0.000945
6.939795 8.181534 -0.001350
7.254536 8.181534 -0.001406
7.569277 8.181534 -0.001038
7.884017 8.181534 -0.000596
8.198758 8.181534 -0.000404
8.513499 8.181534 -0.000485
8.828240 8.181534 -0.003758
9.142982 8.181534 -0.001988
9.457723 8.181534 -0.008355
9.772464 8.181534 -0.007835
10.087205 8.181534 -0.006722
10.401946 8.181534 -0.002776
10.716687 8.181534 -0.011216
11.031426 8.181534 -0.003900
11.346168 8.181534 0.022221
11.660909 8.181534 0.040244
11.975650 8.181534 0.037589
12.290391 8.181534 0.046795
12.605132 8.181534 0.050294
12.919873 8.181534 0.063995
13.234614 8.181534 0.122949
13.549356 8.181534 0.166207
13.864097 8.181534 0.212569
14.178838 8.181534 0.288633
14.493579 8.181534 0.407676
14.808320 8.181534 0.605656
15.123059 8.181534 0.907859
15.437800 8.181534 1.704877
15.752542 8.181534 2.372607
16.067284 8.181534 0.000000
16.382023 8.181534 0.000000
16.696766 8.181534 0.000000
17.011505 8.181534 0.000000
17.326248 8.181534 0.000000
17.640987 8.181534 0.000000
17.955730 8.181534 0.000000
18.270470 8.181534 0.000000
18.585213 8.181534 0.000000
18.899952 8.181534 0.000000
-7.223550 7.866791 0.000000
-6.908809 7.866791 0.002489
-6.594068 7.866791 0.001094
-6.279327 7.866791 0.001047
-5.964586 7.866791 0.001134
-5.649845 7.866791 0.001201
-5.335104 7.866791 0.001115
-5.020363 7.866791 0.001123
-4.705622 7.866791 0.001097
-4.390881 7.866791 0.000970
-4.076140 7.866791 0.000789
-3.761399 7.866791 0.000738
-3.446658 7.866791 0.000810
-3.131917 7.866791 0.000863
-2.817176 7.866791 0.000960
-2.502435 7.866791 0.001059
-2.187694 7.866791 0.001015
-1.872953 7.866791 0.000946
-1.558212 7.866791 0.001014
-1.243471 7.866791 0.001069
-0.928730 7.866791 0.000899
-0.613989 7.866791 0.000658
-0.299248 7.866791 0.000631
0.015493 7.866791 0.000715
0.330234 7.866791 0.000850
0.644975 7.866791 0.001017
0.959716 7.866791 0.000895
1.274457 7.866791 0.000955
1.589198 7.866791 0.001153
1.903938 7.866791 0.001135
2.218679 7.866791 0.001178
2.533421 7.866791 0.001407
2.848162 7.866791 0.001450
3.162903 7.866791 0.001183
3.477644 7.866791 0.000828
3.792385 7.866791 0.000626
4.107125 7.866791 0.000801
4.421866 7.866791 0.000943
4.736608 7.866791 0.000659
5.051349 7.866791 0.000462
5.366090 7.866791 0.000652
5.680831 7.866791 0.000823
5.995571 7.866791 0.000687
6.310312 7.866791 0.000282
6.625053 7.866791 -0.000762
6.939795 7.866791 -0.001107
7.254536 7.866791 -0.002057
7.569277 7.866791 -0.002237
7.884017 7.866791 -0.002894
8.198758 7.866791 -0.000436
8.513499 7.866791 0.000625
8.828240 7.866791 -0.002622
9.142982 7.866791 -0.004180
9.457723 7.866791 -0.007599
9.772464 7.866791 -0.003909
10.087205 7.866791 -0.004087
10.401946 7.866791 0.002734
10.716687 7.866791 -0.003760
11.031426 7.866791 0.006615
11.346168 7.866791 0.044590
11.660909 7.866791 0.041962
11.975650 7.866791 0.037303
12.290391 7.866791 0.046501
12.605132 7.866791 0.056564
12.919873 7.866791 0.078935
13.234614 7.866791 0.118902
13.549356 7.866791 0.164801
13.864097 7.866791 0.257751
14.178838 7.866791 0.298578
14.493579 7.866791 0.434605
14.808320 7.866791 0.627074
15.123059 7.866791 0.971821
15.437800 7.866791 1.833614
15.752542 7.866791 2.726052
16.067284 7.866791 0.000000
16.382023 7.866791 0.000000
16.696766 7.866791 0.000000
17.011505 7.866791 0.000000
17.326248 7.866791 0.000000
17.640987 7.866791 0.000000
17.955730 7.866791 0.000000
18.270470 7.866791 0.000000
18.585213 7.866791 0.000000
18.899952 7.866791 0.000000
-7.223550 7.552052 0.000000
-6.908809 7.552052 0.002554
-6.594068 7.552052 0.001154
-6.279327 7.552052 0.001157
-5.964586 7.552052 0.001270
-5.649845 7.552052 0.001338
-5.335104 7.552052 0.001336
-5.020363 7.552052 0.001359
-4.705622 7.552052 0.001241
-4.390881 7.552052 0.001078
-4.076140 7.552052 0.000838
-3.761399 7.552052 0.000697
-3.446658 7.552052 0.000712
-3.131917 7.552052 0.000699
-2.817176 7.552052 0.000850
-2.502435 7.552052 0.001031
-2.187694 7.552052 0.001103
-1.872953 7.552052 0.001170
-1.558212 7.552052 0.001195
-1.243471 7.552052 0.001077
-0.928730 7.552052 0.000790
-0.613989 7.552052 0.000580
-0.299248 7.552052 0.000655
0.015493 7.552052 0.000752
0.330234 7.552052 0.000914
0.644975 7.552052 0.001102
0.959716 7.552052 0.000905
1.274457 7.552052 0.000972
1.589198 7.552052 0.001229
1.903938 7.552052 0.001178
2.218679 7.552052 0.001172
2.533421 7.552052 0.001466
2.848162 7.552052 0.001536
3.162903 7.552052 0.001208
3.477644 7.552052 0.000895
3.792385 7.552052 0.000747
4.107125 7.552052 0.000889
4.421866 7.552052 0.001017
4.736608 7.552052 0.000697
5.051349 7.552052 0.000522
5.366090 7.552052 0.000855
5.680831 7.552052 0.001059
5.995571 7.552052 0.000957
6.310312 7.552052 0.000324
6.625053 7.552052 -0.000613
6.939795 7.552052 -0.001010
7.254536 7.552052 -0.001467
7.569277 7.552052 -0.002332
7.884017 7.552052 -0.002950
8.198758 7.552052 -0.002719
8.513499 7.552052 -0.003431
8.828240 7.552052 -0.004327
9.142982 7.552052 -0.000932
9.457723 7.552052 -0.000598
9.772464 7.552052 -0.004238
10.087205 7.552052 -0.009138
10.401946 7.552052 0.000452
10.716687 7.552052 0.002928
11.031426 7.552052 0.030337
11.346168 7.552052 0.049690
11.660909 7.552052 0.054070
11.975650 7.552052 0.047823
12.290391 7.552052 0.037704
12.605132 7.552052 0.056171
12.919873 7.552052 0.087402
13.234614 7.552052 0.117308
13.549356 7.552052 0.200578
13.864097 7.552052 0.224659
14.178838 7.552052 0.294986
14.493579 7.552052 0.367317
14.808320 7.552052 0.609859
15.123059 7.552052 0.876109
15.437800 7.552052 1.636566
15.752542 7.552052 2.523424
16.067284 7.552052 0.000000
16.382023 7.552052 0.000000
16.696766 7.552052 0.000000
17.011505 7.552052 0.000000
17.326248 7.552052 0.000000
17.640987 7.552052 0.000000
17.955730 7.552052 0.000000
18.270470 7.552052 0.000000
18.585213 7.552052 0.000000
18.899952 7.552052 0.000000
-7.223550 7.237309 0.000000
-6.908809 7.237309 0.002620
-6.594068 7.237309 0.001275
-6.279327 7.237309 0.001269
-5.964586 7.237309 0.001299
-5.649845 7.237309 0.001364
-5.335104 7.237309 0.001456
-5.020363 7.237309 0.001490
-4.705622 7.237309 0.001290
-4.390881 7.237309 0.001062
-4.076140 7.237309 0.000860
-3.761399 7.237309 0.000713
-3.446658 7.237309 0.000681
-3.131917 7.237309 0.000644
-2.817176 7.237309 0.000809
-2.502435 7.237309 0.001070
-2.187694 7.237309 0.001279
-1.872953 7.237309 0.001432
-1.558212 7.237309 0.001321
-1.243471 7.237309 0.000987
-0.928730 7.237309 0.000685
-0.613989 7.237309 0.000544
-0.299248 7.237309 0.000701
0.015493 7.237309 0.000852
0.330234 7.237309 0.000938
0.644975 7.237309 0.001022
0.959716 7.237309 0.000816
1.274457 7.237309 0.000887
1.589198 7.237309 0.001153
1.903938 7.237309 0.001132
2.218679 7.237309 0.001135
2.533421 7.237309 0.001388
2.848162 7.237309 0.001466
3.162903 7.237309 0.001209
3.477644 7.237309 0.000988
3.792385 7.237309 0.000890
4.107125 7.237309 0.001012
4.421866 7.237309 0.001052
4.736608 7.237309 0.000743
5.051349 7.237309 0.000574
5.366090 7.237309 0.000802
5.680831 7.237309 0.001162
5.995571 7.237309 0.001194
6.310312 7.237309 0.000318
6.625053 7.237309 -0.000535
6.939795 7.237309 -0.000919
7.254536 7.237309 -0.002126
7.569277 7.237309 -0.001923
7.884017 7.237309 -0.001989
8.198758 7.237309 -0.008185
8.513499 7.237309 -0.007360
8.828240 7.237309 -0.003823
9.142982 7.237309 -0.003146
9.457723 7.237309 -0.003963
9.772464 7.237309 -0.010734
10.087205 7.237309 -0.012223
10.401946 7.237309 -0.009898
10.716687 7.237309 0.009274
11.031426 7.237309 0.027055
11.346168 7.237309 0.042391
11.660909 7.237309 0.036951
11.975650 7.237309 0.045218
12.290391 7.237309 0.062199
12.605132 7.237309 0.078813
12.919873 7.237309 0.081736
13.234614 7.237309 0.148135
13.549356 7.237309 0.163818
13.864097 7.237309 0.199565
14.178838 7.237309 0.246177
14.493579 7.237309 0.369739
14.808320 7.237309 0.522343
15.123059 7.237309 0.959448
15.437800 7.237309 1.624180
15.752542 7.237309 2.487247
16.067284 7.237309 0.000000
16.382023 7.237309 0.000000
16.696766 7.237309 0.000000
17.011505 7.237309 0.000000
17.326248 7.237309 0.000000
17.640987 7.237309 0.000000
17.955730 7.237309 0.000000
18.270470 7.237309 0.000000
18.585213 7.237309 0.000000
18.899952 7.237309 0.000000
-7.223550 6.922569 0.000000
-6.908809 6.922569 0.002768
-6.594068 6.922569 0.001374
-6.279327 6.922569 0.001336
-5.964586 6.922569 0.001245
-5.649845 6.922569 0.001253
-5.335104 6.922569 0.001442
-5.020363 6.922569 0.001480
-4.705622 6.922569 0.001215
-4.390881 6.922569 0.001026
-4.076140 6.922569 0.000961
-3.761399 6.922569 0.000875
-3.446658 6.922569 0.000785
-3.131917 6.922569 0.000724
-2.817176 6.922569 0.000807
-2.502435 6.922569 0.001086
-2.187694 6.922569 0.001456
-1.872953 6.922569 0.001641
-1.558212 6.922569 0.001412
-1.243471 6.922569 0.000967
-0.928730 6.922569 0.000652
-0.613989 6.922569 0.000577
-0.299248 6.922569 0.000784
0.015493 6.922569 0.000906
0.330234 6.922569 0.000951
0.644975 6.922569 0.000910
0.959716 6.922569 0.000759
1.274457 6.922569 0.000854
1.589198 6.922569 0.001047
1.903938 6.922569 0.001107
2.218679 6.922569 0.001218
2.533421 6.922569 0.001410
2.848162 6.922569 0.001508
3.162903 6.922569 0.001330
3.477644 6.922569 0.001172
3.792385 6.922569 0.001061
4.107125 6.922569 0.001093
4.421866 6.922569 0.001036
4.736608 6.922569 0.000775
5.051349 6.922569 0.000568
5.366090 6.922569 0.000696
5.680831 6.922569 0.001167
5.995571 6.922569 0.001242
6.310312 6.922569 0.000506
6.625053 6.922569 -0.000414
6.939795 6.922569 -0.001195
7.254536 6.922569 -0.001799
7.569277 6.922569 -0.002113
7.884017 6.922569 -0.004379
8.198758 6.922569 -0.008707
8.513499 6.922569 -0.008647
8.828240 6.922569 -0.008505
9.142982 6.922569 -0.008527
9.457723 6.922569 -0.005745
9.772464 6.922569 -0.014030
10.087205 6.922569 -0.014473
10.401946 6.922569 -0.005233
10.716687 6.922569 0.002284
11.031426 6.922569 0.018988
11.346168 6.922569 0.040401
11.660909 6.922569 0.038666
11.975650 6.922569 0.039726
12.290391 6.922569 0.079984
12.605132 6.922569 0.090384
12.919873 6.922569 0.102444
13.234614 6.922569 0.105649
13.549356 6.922569 0.133044
13.864097 6.922569 0.182990
14.178838 6.922569 0.251349
14.493579 6.922569 0.330136
14.808320 6.922569 0.536778
15.123059 6.922569 0.919883
15.437800 6.922569 1.639517
15.752542 6.922569 2.380554
16.067284 6.922569 0.000000
16.382023 6.922569 0.000000
16.696766 6.922569 0.000000
17.011505 6.922569 0.000000
17.326248 6.922569 0.000000
17.640987 6.922569 0.000000
17.955730 6.922569 0.000000
18.270470 6.922569 0.000000
18.585213 6.922569 0.000000
18.899952 6.922569 0.000000
-7.223550 6.607826 0.000000
-6.908809 6.607826 0.002913
-6.594068 6.607826 0.001444
-6.279327 6.607826 0.001315
-5.964586 6.607826 0.001153
-5.649845 6.607826 0.001167
-5.335104 6.607826 0.001399
-5.020363 6.607826 0.001420
-4.705622 6.607826 0.001160
-4.390881 6.607826 0.001046
-4.076140 6.607826 0.001098
-3.761399 6.607826 0.001087
-3.446658 6.607826 0.000958
-3.131917 6.607826 0.000848
-2.817176 6.607826 0.000829
-2.502435 6.607826 0.001078
-2.187694 6.607826 0.001524
-1.872953 6.607826 0.001672
-1.558212 6.607826 0.001372
-1.243471 6.607826 0.000946
-0.928730 6.607826 0.000708
-0.613989 6.607826 0.000684
-0.299248 6.607826 0.000892
0.015493 6.607826 0.000968
0.330234 6.607826 0.000996
0.644975 6.607826 0.000885
0.959716 6.607826 0.000780
1.274457 6.607826 0.000910
1.589198 6.607826 0.001034
1.903938 6.607826 0.001195
2.218679 6.607826 0.001418
2.533421 6.607826 0.001565
2.848162 6.607826 0.001664
3.162903 6.607826 0.001567
3.477644 6.607826 0.001383
3.792385 6.607826 0.001143
4.107125 6.607826 0.001112
4.421866 6.607826 0.000993
4.736608 6.607826 0.000847
5.051349 6.607826 0.000688
5.366090 6.607826 0.000700
5.680831 6.607826 0.001106
5.995571 6.607826 0.001346
6.310312 6.607826 0.000560
6.625053 6.607826 -0.000245
6.939795 6.607826 -0.001068
7.254536 6.607826 -0.001559
7.569277 6.607826 -0.001911
7.884017 6.607826 -0.006112
8.198758 6.607826 -0.009684
8.513499 6.607826 -0.012167
8.828240 6.607826 -0.016204
9.142982 6.607826 -0.009919
9.457723 6.607826 -0.009217
9.772464 6.607826 -0.014423
10.087205 6.607826 -0.016068
10.401946 6.607826 -0.008299
10.716687 6.607826 0.000559
11.031426 6.607826 0.020166
11.346168 6.607826 0.022338
11.660909 6.607826 0.034493
11.975650 6.607826 0.062231
12.290391 6.607826 0.091591
12.605132 6.607826 0.101752
12.919873 6.607826 0.111342
13.234614 6.607826 0.114741
13.549356 6.607826 0.121036
13.864097 6.607826 0.183907
14.178838 6.607826 0.261838
14.493579 6.607826 0.323309
14.808320 6.607826 0.572204
15.123059 6.607826 0.943138
15.437800 6.607826 1.751591
15.752542 6.607826 2.362804
16.067284 6.607826 0.000000
16.382023 6.607826 0.000000
16.696766 6.607826 0.000000
17.011505 6.607826 0.000000
17.326248 6.607826 0.000000
17.640987 6.607826 0.000000
17.955730 6.607826 0.000000
18.270470 6.607826 0.000000
18.585213 6.607826 0.000000
18.899952 6.607826 0.000000
-7.223550 6.293087 0.000000
-6.908809 6.293087 0.003123
-6.594068 6.293087 0.001526
-6.279327 6.293087 0.001276
-5.964586 6.293087 0.001100
-5.649845 6.293087 0.001074
-5.335104 6.293087 0.001268
-5.020363 6.293087 0.001294
-4.705622 6.293087 0.001102
-4.390881 6.293087 0.001047
-4.076140 6.293087 0.001145
-3.761399 6.293087 0.001218
-3.446658 6.293087 0.001130
-3.131917 6.293087 0.000963
-2.817176 6.293087 0.000854
-2.502435 6.293087 0.001071
-2.187694 6.293087 0.001457
-1.872953 6.293087 0.001565
-1.558212 6.293087 0.001308
-1.243471 6.293087 0.001063
-0.928730 6.293087 0.000893
-0.613989 6.293087 0.000916
-0.299248 6.293087 0.001038
0.015493 6.293087 0.001035
0.330234 6.293087 0.001076
0.644975 6.293087 0.000954
0.959716 6.293087 0.000865
1.274457 6.293087 0.001059
1.589198 6.293087 0.001158
1.903938 6.293087 0.001386
2.218679 6.293087 0.001663
2.533421 6.293087 0.001708
2.848162 6.293087 0.001733
3.162903 6.293087 0.001646
3.477644 6.293087 0.001490
3.792385 6.293087 0.001179
4.107125 6.293087 0.001101
4.421866 6.293087 0.001121
4.736608 6.293087 0.001099
5.051349 6.293087 0.000938
5.366090 6.293087 0.000837
5.680831 6.293087 0.001106
5.995571 6.293087 0.001088
6.310312 6.293087 0.000601
6.625053 6.293087 -0.000113
6.939795 6.293087 -0.001120
7.254536 6.293087 -0.002029
7.569277 6.293087 -0.000962
7.884017 6.293087 -0.004403
8.198758 6.293087 -0.009025
8.513499 6.293087 -0.018818
8.828240 6.293087 -0.020327
9.142982 6.293087 -0.015840
9.457723 6.293087 -0.003996
9.772464 6.293087 -0.014128
10.087205 6.293087 -0.017249
10.401946 6.293087 -0.016866
10.716687 6.293087 0.002342
11.031426 6.293087 0.021855
11.346168 6.293087 0.016522
11.660909 6.293087 0.030283
11.975650 6.293087 0.061029
12.290391 6.293087 0.108138
12.605132 6.293087 0.107705
12.919873 6.293087 0.115216
13.234614 6.293087 0.115023
13.549356 6.293087 0.134431
13.864097 6.293087 0.202557
14.178838 6.293087 0.267590
14.493579 6.293087 0.366882
14.808320 6.293087 0.540571
15.123059 6.293087 0.984264
15.437800 6.293087 1.775894
15.752542 6.293087 2.483188
16.067284 6.293087 0.000000
16.382023 6.293087 0.000000
16.696766 6.293087 0.000000
17.011505 6.293087 0.000000
17.326248 6.293087 0.000000
17.640987 6.293087 0.000000
17.955730 6.293087 0.000000
18.270470 6.293087 0.000000
18.585213 6.293087 0.000000
18.899952 6.293087 0.000000
-7.223550 5.978344 0.000000
-6.908809 5.978344 0.003321
-6.594068 5.978344 0.001543
-6.279327 5.978344 0.001206
-5.964586 5.978344 0.001057
-5.649845 5.978344 0.001040
-5.335104 5.978344 0.001098
-5.020363 5.978344 0.001134
-4.705622 5.978344 0.001056
-4.390881 5.978344 0.001023
-4.076140 5.978344 0.001159
-3.761399 5.978344 0.001313
-3.446658 5.978344 0.001308
-3.131917 5.978344 0.001137
-2.817176 5.978344 0.000976
-2.502435 5.978344 0.001052
-2.187694 5.978344 0.001337
-1.872953 5.978344 0.001421
-1.558212 5.978344 0.001280
-1.243471 5.978344 0.001200
-0.928730 5.978344 0.001132
-0.613989 5.978344 0.001176
-0.299248 5.978344 0.001210
0.015493 5.978344 0.001115
0.330234 5.978344 0.001189
0.644975 5.978344 0.001102
0.959716 5.978344 0.000995
1.274457 5.978344 0.001138
1.589198 5.978344 0.001270
1.903938 5.978344 0.001471
2.218679 5.978344 0.001794
2.533421 5.978344 0.001778
2.848162 5.978344 0.001711
3.162903 5.978344 0.001630
3.477644 5.978344 0.001501
3.792385 5.978344 0.001237
4.107125 5.978344 0.001179
4.421866 5.978344 0.001366
4.736608 5.978344 0.001388
5.051349 5.978344 0.001190
5.366090 5.978344 0.000952
5.680831 5.978344 0.000905
5.995571 5.978344 0.000821
6.310312 5.978344 0.000625
6.625053 5.978344 -0.000011
6.939795 5.978344 -0.001097
7.254536 5.978344 -0.002159
7.569277 5.978344 -0.000714
7.884017 5.978344 -0.000783
8.198758 5.978344 -0.005118
8.513499 5.978344 -0.013249
8.828240 5.978344 -0.013923
9.142982 5.978344 -0.012095
9.457723 5.978344 0.000899
9.772464 5.978344 0.001602
10.087205 5.978344 -0.007432
10.401946 5.978344 -0.016255
10.716687 5.978344 -0.000124
11.031426 5.978344 0.022653
11.346168 5.978344 0.019193
11.660909 5.978344 0.039327
11.975650 5.978344 0.068411
12.290391 5.978344 0.101583
12.605132 5.978344 0.133049
12.919873 5.978344 0.098147
13.234614 5.978344 0.136081
13.549356 5.978344 0.170297
13.864097 5.978344 0.259876
14.178838 5.978344 0.303776
14.493579 5.978344 0.386370
14.808320 5.978344 0.560225
15.123059 5.978344 0.995965
15.437800 5.978344 1.832813
15.752542 5.978344 2.525886
16.067284 5.978344 0.000000
16.382023 5.978344 0.000000
16.696766 5.978344 0.000000
17.011505 5.978344 0.000000
17.326248 5.978344 0.000000
17.640987 5.978344 0.000000
17.955730 5.978344 0.000000
18.270470 5.978344 0.000000
18.585213 5.978344 0.000000
18.899952 5.978344 0.000000
-7.223550 5.663605 0.000000
-6.908809 5.663605 0.003392
-6.594068 5.663605 0.001533
-6.279327 5.663605 0.001163
-5.964586 5.663605 0.001076
-5.649845 5.663605 0.001030
-5.335104 5.663605 0.000985
-5.020363 5.663605 0.001062
-4.705622 5.663605 0.001072
-4.390881 5.663605 0.001032
-4.076140 5.663605 0.001164
-3.761399 5.663605 0.001400
-3.446658 5.663605 0.001397
-3.131917 5.663605 0.001271
-2.817176 5.663605 0.001107
-2.502435 5.663605 0.001040
-2.187694 5.663605 0.001224
-1.872953 5.663605 0.001341
-1.558212 5.663605 0.001249
-1.243471 5.663605 0.001245
-0.928730 5.663605 0.001299
-0.613989 5.663605 0.001382
-0.299248 5.663605 0.001372
0.015493 5.663605 0.001159
0.330234 5.663605 0.001212
0.644975 5.663605 0.001156
0.959716 5.663605 0.001107
1.274457 5.663605 0.001280
1.589198 5.663605 0.001378
1.903938 5.663605 0.001508
2.218679 5.663605 0.001787
2.533421 5.663605 0.001767
2.848162 5.663605 0.001630
3.162903 5.663605 0.001511
3.477644 5.663605 0.001426
3.792385 5.663605 0.001179
4.107125 5.663605 0.001151
4.421866 5.663605 0.001455
4.736608 5.663605 0.001586
5.051349 5.663605 0.001291
5.366090 5.663605 0.000881
5.680831 5.663605 0.000636
5.995571 5.663605 0.000448
6.310312 5.663605 0.000591
6.625053 5.663605 -0.000178
6.939795 5.663605 -0.001361
7.254536 5.663605 -0.001969
7.569277 5.663605 -0.002625
7.884017 5.663605 0.000498
8.198758 5.663605 -0.001073
8.513499 5.663605 -0.007696
8.828240 5.663605 -0.008812
9.142982 5.663605 -0.003480
9.457723 5.663605 0.009228
9.772464 5.663605 0.008596
10.087205 5.663605 -0.003120
10.401946 5.663605 -0.007740
10.716687 5.663605 -0.010595
11.031426 5.663605 0.014294
11.346168 5.663605 0.007349
11.660909 5.663605 0.043039
11.975650 5.663605 0.084545
12.290391 5.663605 0.091047
12.605132 5.663605 0.149801
12.919873 5.663605 0.141410
13.234614 5.663605 0.150782
13.549356 5.663605 0.192407
13.864097 5.663605 0.301503
14.178838 5.663605 0.372281
14.493579 5.663605 0.467075
14.808320 5.663605 0.579493
15.123059 5.663605 1.057076
15.437800 5.663605 1.993032
15.752542 5.663605 2.597737
16.067284 5.663605 0.000000
16.382023 5.663605 0.000000
16.696766 5.663605 0.000000
17.011505 5.663605 0.000000
17.326248 5.663605 0.000000
17.640987 5.663605 0.000000
17.955730 5.663605 0.000000
18.270470 5.663605 0.000000
18.585213 5.663605 0.000000
18.899952 5.663605 0.000000
-7.223550 5.348862 0.000000
-6.908809 5.348862 0.003420
-6.594068 5.348862 0.001524
-6.279327 5.348862 0.001160
-5.964586 5.348862 0.001129
-5.649845 5.348862 0.001089
-5.335104 5.348862 0.000993
-5.020363 5.348862 0.001125
-4.705622 5.348862 0.001193
-4.390881 5.348862 0.001162
-4.076140 5.348862 0.001262
-3.761399 5.348862 0.001478
-3.446658 5.348862 0.001486
-3.131917 5.348862 0.001311
-2.817176 5.348862 0.001185
-2.502435 5.348862 0.001088
-2.187694 5.348862 0.001160
-1.872953 5.348862 0.001283
-1.558212 5.348862 0.001197
-1.243471 5.348862 0.001228
-0.928730 5.348862 0.001304
-0.613989 5.348862 0.001429
-0.299248 5.348862 0.001436
0.015493 5.348862 0.001277
0.330234 5.348862 0.001296
0.644975 5.348862 0.001243
0.959716 5.348862 0.001301
1.274457 5.348862 0.001521
1.589198 5.348862 0.001554
1.903938 5.348862 0.001513
2.218679 5.348862 0.001662
2.533421 5.348862 0.001671
2.848162 5.348862 0.001530
3.162903 5.348862 0.001376
3.477644 5.348862 0.001240
3.792385 5.348862 0.001073
4.107125 5.348862 0.001085
4.421866 5.348862 0.001496
4.736608 5.348862 0.001637
5.051349 5.348862 0.001263
5.366090 5.348862 0.000773
5.680831 5.348862 0.000505
5.995571 5.348862 0.000286
6.310312 5.348862 0.000496
6.625053 5.348862 -0.000752
6.939795 5.348862 -0.002081
7.254536 5.348862 -0.002413
7.569277 5.348862 -0.001159
7.884017 5.348862 -0.002442
8.198758 5.348862 -0.000116
8.513499 5.348862 -0.006026
8.828240 5.348862 -0.003810
9.142982 5.348862 0.007198
9.457723 5.348862 0.019462
9.772464 5.348862 0.013839
10.087205 5.348862 0.010858
10.401946 5.348862 0.007182
10.716687 5.348862 -0.002139
11.031426 5.348862 -0.005337
11.346168 5.348862 0.010142
11.660909 5.348862 0.042190
11.975650 5.348862 0.081902
12.290391 5.348862 0.123026
12.605132 5.348862 0.143988
12.919873 5.348862 0.131952
13.234614 5.348862 0.150266
13.549356 5.348862 0.191780
13.864097 5.348862 0.305192
14.178838 5.348862 0.402672
14.493579 5.348862 0.514050
14.808320 5.348862 0.625558
15.123059 5.348862 1.073449
15.437800 5.348862 2.036815
15.752542 5.348862 2.614000
16.067284 5.348862 0.000000
16.382023 5.348862 0.000000
16.696766 5.348862 0.000000
17.011505 5.348862 0.000000
17.326248 5.348862 0.000000
17.640987 5.348862 0.000000
17.955730 5.348862 0.000000
18.270470 5.348862 0.000000
18.585213 5.348862 0.000000
18.899952 5.348862 0.000000
-7.223550 5.034122 0.000000
-6.908809 5.034122 0.003387
-6.594068 5.034122 0.001529
-6.279327 5.034122 0.001251
-5.964586 5.034122 0.001255
-5.649845 5.034122 0.001196
-5.335104 5.034122 0.001129
-5.020363 5.034122 0.001280
-4.705622 5.034122 0.001364
-4.390881 5.034122 0.001268
-4.076140 5.034122 0.001311
-3.761399 5.034122 0.001483
-3.446658 5.034122 0.001513
-3.131917 5.034122 0.001381
-2.817176 5.034122 0.001255
-2.502435 5.034122 0.001139
-2.187694 5.034122 0.001132
-1.872953 5.034122 0.001248
-1.558212 5.034122 0.001157
-1.243471 5.034122 0.001216
-0.928730 5.034122 0.001332
-0.613989 5.034122 0.001489
-0.299248 5.034122 0.001541
0.015493 5.034122 0.001525
0.330234 5.034122 0.001471
0.644975 5.034122 0.001357
0.959716 5.034122 0.001478
1.274457 5.034122 0.001710
1.589198 5.034122 0.001648
1.903938 5.034122 0.001482
2.218679 5.034122 0.001440
2.533421 5.034122 0.001489
2.848162 5.034122 0.001410
3.162903 5.034122 0.001323
3.477644 5.034122 0.001174
3.792385 5.034122 0.001030
4.107125 5.034122 0.001105
4.421866 5.034122 0.001553
4.736608 5.034122 0.001708
5.051349 5.034122 0.001293
5.366090 5.034122 0.000808
5.680831 5.034122 0.000446
5.995571 5.034122 0.000093
6.310312 5.034122 -0.000255
6.625053 5.034122 -0.001077
6.939795 5.034122 -0.002097
7.254536 5.034122 -0.002636
7.569277 5.034122 -0.001428
7.884017 5.034122 -0.002103
8.198758 5.034122 -0.002313
8.513499 5.034122 -0.005350
8.828240 5.034122 -0.004651
9.142982 5.034122 0.009931
9.457723 5.034122 0.020119
9.772464 5.034122 0.016872
10.087205 5.034122 -0.001867
10.401946 5.034122 -0.002213
10.716687 5.034122 -0.004408
11.031426 5.034122 -0.006046
11.346168 5.034122 -0.000149
11.660909 5.034122 0.028985
11.975650 5.034122 0.076220
12.290391 5.034122 0.106558
12.605132 5.034122 0.136406
12.919873 5.034122 0.126664
13.234614 5.034122 0.145010
13.549356 5.034122 0.177363
13.864097 5.034122 0.281248
14.178838 5.034122 0.352579
14.493579 5.034122 0.533913
14.808320 5.034122 0.748611
15.123059 5.034122 1.029452
15.437800 5.034122 1.917062
15.752542 5.034122 2.589034
16.067284 5.034122 0.000000
16.382023 5.034122 0.000000
16.696766 5.034122 0.000000
17.011505 5.034122 0.000000
17.326248 5.034122 0.000000
17.640987 5.034122 0.000000
17.955730 5.034122 0.000000
18.270470 5.034122 0.000000
18.585213 5.034122 0.000000
18.899952 5.034122 0.000000
-7.223550 4.719383 0.000000
-6.908809 4.719383 0.003295
-6.594068 4.719383 0.001582
-6.279327 4.719383 0.001347
-5.964586 4.719383 0.001387
-5.649845 4.719383 0.001313
-5.335104 4.719383 0.001269
-5.020363 4.719383 0.001400
-4.705622 4.719383 0.001496
-4.390881 4.719383 0.001360
-4.076140 4.719383 0.001292
-3.761399 4.719383 0.001397
-3.446658 4.719383 0.001501
-3.131917 4.719383 0.001456
-2.817176 4.719383 0.001316
-2.502435 4.719383 0.001276
-2.187694 4.719383 0.001240
-1.872953 4.719383 0.001301
-1.558212 4.719383 0.001222
-1.243471 4.719383 0.001285
-0.928730 4.719383 0.001422
-0.613989 4.719383 0.001501
-0.299248 4.719383 0.001639
0.015493 4.719383 0.001801
0.330234 4.719383 0.001765
0.644975 4.719383 0.001508
0.959716 4.719383 0.001564
1.274457 4.719383 0.001729
1.589198 4.719383 0.001631
1.903938 4.719383 0.001417
2.218679 4.719383 0.001260
2.533421 4.719383 0.001397
2.848162 4.719383 0.001436
3.162903 4.719383 0.001406
3.477644 4.719383 0.001335
3.792385 4.719383 0.001201
4.107125 4.719383 0.001263
4.421866 4.719383 0.001708
4.736608 4.719383 0.001726
5.051349 4.719383 0.001288
5.366090 4.719383 0.000939
5.680831 4.719383 0.000484
5.995571 4.719383 -0.000144
6.310312 4.719383 -0.000434
6.625053 4.719383 -0.001109
6.939795 4.719383 -0.002019
7.254536 4.719383 -0.002377
7.569277 4.719383 -0.002528
7.884017 4.719383 -0.002023
8.198758 4.719383 -0.003126
8.513499 4.719383 -0.008668
8.828240 4.719383 -0.003295
9.142982 4.719383 0.009066
9.457723 4.719383 0.017737
9.772464 4.719383 0.011566
10.087205 4.719383 0.004061
10.401946 4.719383 0.000942
10.716687 4.719383 0.000547
11.031426 4.719383 0.012668
11.346168 4.719383 0.002265
11.660909 4.719383 0.013834
11.975650 4.719383 0.082726
12.290391 4.719383 0.107396
12.605132 4.719383 0.144026
12.919873 4.719383 0.105697
13.234614 4.719383 0.123561
13.549356 4.719383 0.177848
13.864097 4.719383 0.275175
14.178838 4.719383 0.407892
14.493579 4.719383 0.567485
14.808320 4.719383 0.745943
15.123059 4.719383 1.092932
15.437800 4.719383 1.846849
15.752542 4.719383 2.232264
16.067284 4.719383 0.000000
16.382023 4.719383 0.000000
16.696766 4.719383 0.000000
17.011505 4.719383 0.000000
17.326248 4.719383 0.000000
17.640987 4.719383 0.000000
17.955730 4.719383 0.000000
18.270470 4.719383 0.000000
18.585213 4.719383 0.000000
18.899952 4.719383 0.000000
-7.223550 4.404640 0.000000
-6.908809 4.404640 0.003103
-6.594068 4.404640 0.001523
-6.279327 4.404640 0.001366
-5.964586 4.404640 0.001482
-5.649845 4.404640 0.001448
-5.335104 4.404640 0.001452
-5.020363 4.404640 0.001557
-4.705622 4.404640 0.001584
-4.390881 4.404640 0.001393
-4.076140 4.404640 0.001183
-3.761399 4.404640 0.001257
-3.446658 4.404640 0.001523
-3.131917 4.404640 0.001545
-2.817176 4.404640 0.001404
-2.502435 4.404640 0.001459
-2.187694 4.404640 0.001436
-1.872953 4.404640 0.001398
-1.558212 4.404640 0.001303
-1.243471 4.404640 0.001296
-0.928730 4.404640 0.001442
-0.613989 4.404640 0.001423
-0.299248 4.404640 0.001592
0.015493 4.404640 0.001889
0.330234 4.404640 0.001905
0.644975 4.404640 0.001584
0.959716 4.404640 0.001512
1.274457 4.404640 0.001620
1.589198 4.404640 0.001636
1.903938 4.404640 0.001423
2.218679 4.404640 0.001210
2.533421 4.404640 0.001417
2.848162 4.404640 0.001587
3.162903 4.404640 0.001645
3.477644 4.404640 0.001649
3.792385 4.404640 0.001459
4.107125 4.404640 0.001450
4.421866 4.404640 0.001763
4.736608 4.404640 0.001708
5.051349 4.404640 0.001306
5.366090 4.404640 0.000992
5.680831 4.404640 0.000490
5.995571 4.404640 0.000065
6.310312 4.404640 -0.000308
6.625053 4.404640 -0.001195
6.939795 4.404640 -0.002100
7.254536 4.404640 -0.002039
7.569277 4.404640 -0.003111
7.884017 4.404640 -0.002781
8.198758 4.404640 -0.003206
8.513499 4.404640 -0.004320
8.828240 4.404640 -0.002243
9.142982 4.404640 0.005363
9.457723 4.404640 0.017745
9.772464 4.404640 0.020177
10.087205 4.404640 0.006612
10.401946 4.404640 0.000143
10.716687 4.404640 0.005790
11.031426 4.404640 0.020437
11.346168 4.404640 0.018488
11.660909 4.404640 0.017213
11.975650 4.404640 0.070822
12.290391 4.404640 0.118900
12.605132 4.404640 0.143576
12.919873 4.404640 0.130360
13.234614 4.404640 0.121772
13.549356 4.404640 0.164684
13.864097 4.404640 0.306202
14.178838 4.404640 0.409653
14.493579 4.404640 0.628098
14.808320 4.404640 0.749131
15.123059 4.404640 1.208482
15.437800 4.404640 1.951964
15.752542 4.404640 2.391637
16.067284 4.404640 0.000000
16.382023 4.404640 0.000000
16.696766 4.404640 0.000000
17.011505 4.404640 0.000000
17.326248 4.404640 0.000000
17.640987 4.404640 0.000000
17.955730 4.404640 0.000000
18.270470 4.404640 0.000000
18.585213 4.404640 0.000000
18.899952 4.404640 0.000000
-7.223550 4.089901 0.000000
-6.908809 4.089901 0.002940
-6.594068 4.089901 0.001420
-6.279327 4.089901 0.001356
-5.964586 4.089901 0.001550
-5.649845 4.089901 0.001596
-5.335104 4.089901 0.001619
-5.020363 4.089901 0.001713
-4.705622 4.089901 0.001668
-4.390881 4.089901 0.001394
-4.076140 4.089901 0.001122
-3.761399 4.089901 0.001287
-3.446658 4.089901 0.001621
-3.131917 4.089901 0.001569
-2.817176 4.089901 0.001423
-2.502435 4.089901 0.001569
-2.187694 4.089901 0.001674
-1.872953 4.089901 0.001579
-1.558212 4.089901 0.001355
-1.243471 4.089901 0.001254
-0.928730 4.089901 0.001348
-0.613989 4.089901 0.001341
-0.299248 4.089901 0.001455
0.015493 4.089901 0.001799
0.330234 4.089901 0.001916
0.644975 4.089901 0.001594
0.959716 4.089901 0.001449
1.274457 4.089901 0.001571
1.589198 4.089901 0.001686
1.903938 4.089901 0.001532
2.218679 4.089901 0.001320
2.533421 4.089901 0.001495
2.848162 4.089901 0.001723
3.162903 4.089901 0.001775
3.477644 4.089901 0.001803
3.792385 4.089901 0.001568
4.107125 4.089901 0.001509
4.421866 4.089901 0.001651
4.736608 4.089901 0.001516
5.051349 4.089901 0.001245
5.366090 4.089901 0.001020
5.680831 4.089901 0.000646
5.995571 4.089901 0.000300
6.310312 4.089901 -0.000052
6.625053 4.089901 -0.000815
6.939795 4.089901 -0.001844
7.254536 4.089901 -0.001593
7.569277 4.089901 -0.002299
7.884017 4.089901 -0.001970
8.198758 4.089901 -0.006044
8.513499 4.089901 -0.004582
8.828240 4.089901 -0.000097
9.142982 4.089901 0.007325
9.457723 4.089901 0.014820
9.772464 4.089901 0.011752
10.087205 4.089901 0.001937
10.401946 4.089901 -0.003004
10.716687 4.089901 0.010720
11.031426 4.089901 0.020546
11.346168 4.089901 0.028464
11.660909 4.089901 0.048518
11.975650 4.089901 0.077654
12.290391 4.089901 0.117677
12.605132 4.089901 0.122935
12.919873 4.089901 0.157248
13.234614 4.089901 0.117941
13.549356 4.089901 0.166094
13.864097 4.089901 0.291520
14.178838 4.089901 0.441841
14.493579 4.089901 0.614001
14.808320 4.089901 0.833322
15.123059 4.089901 1.279827
15.437800 4.089901 1.877216
15.752542 4.089901 0.000000
16.067284 4.089901 0.000000
16.382023 4.089901 0.000000
16.696766 4.089901 0.000000
17.011505 4.089901 0.000000
17.326248 4.089901 0.000000
17.640987 4.089901 0.000000
17.955730 4.089901 0.000000
18.270470 4.089901 0.000000
18.585213 4.089901 0.000000
18.899952 4.089901 0.000000
-7.223550 3.775158 0.000000
-6.908809 3.775158 0.002700
-6.594068 3.775158 0.001297
-6.279327 3.775158 0.001345
-5.964586 3.775158 0.001568
-5.649845 3.775158 0.001727
-5.335104 3.775158 0.001850
-5.020363 3.775158 0.001902
-4.705622 3.775158 0.001714
-4.390881 3.775158 0.001461
-4.076140 3.775158 0.001167
-3.761399 3.775158 0.001332
-3.446658 3.775158 0.001664
-3.131917 3.775158 0.001513
-2.817176 3.775158 0.001325
-2.502435 3.775158 0.001532
-2.187694 3.775158 0.001834
-1.872953 3.775158 0.001772
-1.558212 3.775158 0.001412
-1.243471 3.775158 0.001253
-0.928730 3.775158 0.001324
-0.613989 3.775158 0.001389
-0.299248 3.775158 0.001463
0.015493 3.775158 0.001696
0.330234 3.775158 0.001841
0.644975 3.775158 0.001613
0.959716 3.775158 0.001469
1.274457 3.775158 0.001563
1.589198 3.775158 0.001657
1.903938 3.775158 0.001613
2.218679 3.775158 0.001436
2.533421 3.775158 0.001603
2.848162 3.775158 0.001814
3.162903 3.775158 0.001800
3.477644 3.775158 0.001739
3.792385 3.775158 0.001516
4.107125 3.775158 0.001413
4.421866 3.775158 0.001361
4.736608 3.775158 0.001143
5.051349 3.775158 0.001142
5.366090 3.775158 0.001057
5.680831 3.775158 0.000888
5.995571 3.775158 0.000537
6.310312 3.775158 0.000225
6.625053 3.775158 -0.000594
6.939795 3.775158 -0.001367
7.254536 3.775158 -0.001201
7.569277 3.775158 -0.000290
7.884017 3.775158 -0.001522
8.198758 3.775158 -0.006333
8.513499 3.775158 -0.006323
8.828240 3.775158 -0.000326
9.142982 3.775158 0.007438
9.457723 3.775158 0.010290
9.772464 3.775158 -0.000024
10.087205 3.775158 -0.003852
10.401946 3.775158 -0.011720
10.716687 3.775158 0.011814
11.031426 3.775158 0.032784
11.346168 3.775158 0.020933
11.660909 3.775158 0.051298
11.975650 3.775158 0.068583
12.290391 3.775158 0.101443
12.605132 3.775158 0.140853
12.919873 3.775158 0.141799
13.234614 3.775158 0.126822
13.549356 3.775158 0.163076
13.864097 3.775158 0.316510
14.178838 3.775158 0.481934
14.493579 3.775158 0.575731
14.808320 3.775158 0.788216
15.123059 3.775158 1.219121
15.437800 3.775158 1.799712
15.752542 3.775158 0.000000
16.067284 3.775158 0.000000
16.382023 3.775158 0.000000
16.696766 3.775158 0.000000
17.011505 3.775158 0.000000
17.326248 3.775158 0.000000
17.640987 3.775158 0.000000
17.955730 3.775158 0.000000
18.270470 3.775158 0.000000
18.585213 3.775158 0.000000
18.899952 3.775158 0.000000
-7.223550 3.460419 0.000000
-6.908809 3.460419 0.002520
-6.594068 3.460419 0.001270
-6.279327 3.460419 0.001336
-5.964586 3.460419 0.001468
-5.649845 3.460419 0.001711
-5.335104 3.460419 0.001947
-5.020363 3.460419 0.001882
-4.705622 3.460419 0.001646
-4.390881 3.460419 0.001488
-4.076140 3.460419 0.001224
-3.761399 3.460419 0.001366
-3.446658 3.460419 0.001540
-3.131917 3.460419 0.001336
-2.817176 3.460419 0.001204
-2.502435 3.460419 0.001466
-2.187694 3.460419 0.001954
-1.872953 3.460419 0.001953
-1.558212 3.460419 0.001515
-1.243471 3.460419 0.001334
-0.928730 3.460419 0.001395
-0.613989 3.460419 0.001563
-0.299248 3.460419 0.001617
0.015493 3.460419 0.001670
0.330234 3.460419 0.001737
0.644975 3.460419 0.001624
0.959716 3.460419 0.001508
1.274457 3.460419 0.001527
1.589198 3.460419 0.001603
1.903938 3.460419 0.001646
2.218679 3.460419 0.001587
2.533421 3.460419 0.001758
2.848162 3.460419 0.001932
3.162903 3.460419 0.001778
3.477644 3.460419 0.001593
3.792385 3.460419 0.001461
4.107125 3.460419 0.001323
4.421866 3.460419 0.001039
4.736608 3.460419 0.000820
5.051349 3.460419 0.000932
5.366090 3.460419 0.001027
5.680831 3.460419 0.000967
5.995571 3.460419 0.000924
6.310312 3.460419 0.000416
6.625053 3.460419 -0.000691
6.939795 3.460419 -0.001554
7.254536 3.460419 -0.001520
7.569277 3.460419 -0.000597
7.884017 3.460419 -0.002421
8.198758 3.460419 -0.003510
8.513499 3.460419 -0.007221
8.828240 3.460419 -0.005591
9.142982 3.460419 0.008502
9.457723 3.460419 0.009781
9.772464 3.460419 -0.005034
10.087205 3.460419 -0.004008
10.401946 3.460419 -0.017399
10.716687 3.460419 0.010417
11.031426 3.460419 0.030799
11.346168 3.460419 0.050088
11.660909 3.460419 0.039221
11.975650 3.460419 0.094337
12.290391 3.460419 0.126691
12.605132 3.460419 0.134940
12.919873 3.460419 0.120162
13.234614 3.460419 0.122789
13.549356 3.460419 0.177770
13.864097 3.460419 0.309570
14.178838 3.460419 0.488386
14.493579 3.460419 0.573149
14.808320 3.460419 0.792277
15.123059 3.460419 1.184856
15.437800 3.460419 1.763914
15.752542 3.460419 0.000000
16.067284 3.460419 0.000000
16.382023 3.460419 0.000000
16.696766 3.460419 0.000000
17.011505 3.460419 0.000000
17.326248 3.460419 0.000000
17.640987 3.460419 0.000000
17.955730 3.460419 0.000000
18.270470 3.460419 0.000000
18.585213 3.460419 0.000000
18.899952 3.460419 0.000000
-7.223550 3.145676 0.000000
-6.908809 3.145676 0.002511
-6.594068 3.145676 0.001331
-6.279327 3.145676 0.001318
-5.964586 3.145676 0.001359
-5.649845 3.145676 0.001645
-5.335104 3.145676 0.001919
-5.020363 3.145676 0.001687
-4.705622 3.145676 0.001412
-4.390881 3.145676 0.001375
-4.076140 3.145676 0.001209
-3.761399 3.145676 0.001381
-3.446658 3.145676 0.001445
-3.131917 3.145676 0.001233
-2.817176 3.145676 0.001076
-2.502435 3.145676 0.001324
-2.187694 3.145676 0.001893
-1.872953 3.145676 0.002017
-1.558212 3.145676 0.001623
-1.243471 3.145676 0.001425
-0.928730 3.145676 0.001517
-0.613989 3.145676 0.001794
-0.299248 3.145676 0.001832
0.015493 3.145676 0.001702
0.330234 3.145676 0.001666
0.644975 3.145676 0.001648
0.959716 3.145676 0.001619
1.274457 3.145676 0.001559
1.589198 3.145676 0.001542
1.903938 3.145676 0.001636
2.218679 3.145676 0.001692
2.533421 3.145676 0.001869
2.848162 3.145676 0.002000
3.162903 3.145676 0.001762
3.477644 3.145676 0.001442
3.792385 3.145676 0.001429
4.107125 3.145676 0.001349
4.421866 3.145676 0.000959
4.736608 3.145676 0.000666
5.051349 3.145676 0.000710
5.366090 3.145676 0.000938
5.680831 3.145676 0.001074
5.995571 3.145676 0.000810
6.310312 3.145676 0.000165
6.625053 3.145676 -0.000875
6.939795 3.145676 -0.001985
7.254536 3.145676 -0.002867
7.569277 3.145676 -0.000295
7.884017 3.145676 -0.004940
8.198758 3.145676 -0.003975
8.513499 3.145676 -0.004280
8.828240 3.145676 -0.005055
9.142982 3.145676 0.009047
9.457723 3.145676 0.009238
9.772464 3.145676 -0.003682
10.087205 3.145676 -0.009956
10.401946 3.145676 -0.016125
10.716687 3.145676 0.020410
11.031426 3.145676 0.047604
11.346168 3.145676 0.041149
11.660909 3.145676 0.036033
11.975650 3.145676 0.075112
12.290391 3.145676 0.091552
12.605132 3.145676 0.097716
12.919873 3.145676 0.111583
13.234614 3.145676 0.133220
13.549356 3.145676 0.150889
13.864097 3.145676 0.314203
14.178838 3.145676 0.491489
14.493579 3.145676 0.599614
14.808320 3.145676 0.779448
15.123059 3.145676 1.085508
15.437800 3.145676 1.639491
15.752542 3.145676 0.000000
16.067284 3.145676 0.000000
16.382023 3.145676 0.000000
16.696766 3.145676 0.000000
17.011505 3.145676 0.000000
17.326248 3.145676 0.000000
17.640987 3.145676 0.000000
17.955730 3.145676 0.000000
18.270470 3.145676 0.000000
18.585213 3.145676 0.000000
18.899952 3.145676 0.000000
-7.223550 2.830936 0.000000
-6.908809 2.830936 0.002770
-6.594068 2.830936 0.001422
-6.279327 2.830936 0.001338
-5.964586 2.830936 0.001304
-5.649845 2.830936 0.001602
-5.335104 2.830936 0.001781
-5.020363 2.830936 0.001463
-4.705622 2.830936 0.001198
-4.390881 2.830936 0.001269
-4.076140 2.830936 0.001243
-3.761399 2.830936 0.001414
-3.446658 2.830936 0.001456
-3.131917 2.830936 0.001200
-2.817176 2.830936 0.000990
-2.502435 2.830936 0.001246
-2.187694 2.830936 0.001884
-1.872953 2.830936 0.002062
-1.558212 2.830936 0.001700
-1.243471 2.830936 0.001502
-0.928730 2.830936 0.001680
-0.613989 2.830936 0.002018
-0.299248 2.830936 0.002014
0.015493 2.830936 0.001731
0.330234 2.830936 0.001580
0.644975 2.830936 0.001621
0.959716 2.830936 0.001681
1.274457 2.830936 0.001612
1.589198 2.830936 0.001490
1.903938 2.830936 0.001616
2.218679 2.830936 0.001730
2.533421 2.830936 0.001905
2.848162 2.830936 0.002020
3.162903 2.830936 0.001796
3.477644 2.830936 0.001475
3.792385 2.830936 0.001506
4.107125 2.830936 0.001534
4.421866 2.830936 0.001120
4.736608 2.830936 0.000732
5.051349 2.830936 0.000615
5.366090 2.830936 0.000777
5.680831 2.830936 0.000848
5.995571 2.830936 0.000596
6.310312 2.830936 0.000064
6.625053 2.830936 -0.000672
6.939795 2.830936 -0.002308
7.254536 2.830936 -0.003444
7.569277 2.830936 -0.003107
7.884017 2.830936 -0.005406
8.198758 2.830936 -0.000837
8.513499 2.830936 0.000815
8.828240 2.830936 0.000778
9.142982 2.830936 0.004298
9.457723 2.830936 0.007483
9.772464 2.830936 -0.001611
10.087205 2.830936 -0.006222
10.401946 2.830936 0.003494
10.716687 2.830936 0.023363
11.031426 2.830936 0.053809
11.346168 2.830936 0.032263
11.660909 2.830936 0.061708
11.975650 2.830936 0.070782
12.290391 2.830936 0.115993
12.605132 2.830936 0.110747
12.919873 2.830936 0.119014
13.234614 2.830936 0.145930
13.549356 2.830936 0.225697
13.864097 2.830936 0.313923
14.178838 2.830936 0.472518
14.493579 2.830936 0.680272
14.808320 2.830936 0.823072
15.123059 2.830936 1.265534
15.437800 2.830936 1.681117
15.752542 2.830936 0.000000
16.067284 2.830936 0.000000
16.382023 2.830936 0.000000
16.696766 2.830936 0.000000
17.011505 2.830936 0.000000
17.326248 2.830936 0.000000
17.640987 2.830936 0.000000
17.955730 2.830936 0.000000
18.270470 2.830936 0.000000
18.585213 2.830936 0.000000
18.899952 2.830936 0.000000
-7.223550 2.516193 0.000000
-6.908809 2.516193 0.003079
-6.594068 2.516193 0.001550
-6.279327 2.516193 0.001463
-5.964586 2.516193 0.001417
-5.649845 2.516193 0.001558
-5.335104 2.516193 0.001608
-5.020363 2.516193 0.001269
-4.705622 2.516193 0.001096
-4.390881 2.516193 0.001249
-4.076140 2.516193 0.001342
-3.761399 2.516193 0.001482
-3.446658 2.516193 0.001516
-3.131917 2.516193 0.001238
-2.817176 2.516193 0.001009
-2.502435 2.516193 0.001267
-2.187694 2.516193 0.001909
-1.872953 2.516193 0.002157
-1.558212 2.516193 0.001825
-1.243471 2.516193 0.001652
-0.928730 2.516193 0.001827
-0.613989 2.516193 0.001986
-0.299248 2.516193 0.001907
0.015493 2.516193 0.001685
0.330234 2.516193 0.001527
0.644975 2.516193 0.001523
0.959716 2.516193 0.001630
1.274457 2.516193 0.001625
1.589198 2.516193 0.001475
1.903938 2.516193 0.001599
2.218679 2.516193 0.001764
2.533421 2.516193 0.001937
2.848162 2.516193 0.002083
3.162903 2.516193 0.001906
3.477644 2.516193 0.001607
3.792385 2.516193 0.001644
4.107125 2.516193 0.001782
4.421866 2.516193 0.001417
4.736608 2.516193 0.000967
5.051349 2.516193 0.000736
5.366090 2.516193 0.000718
5.680831 2.516193 0.000894
5.995571 2.516193 0.000837
6.310312 2.516193 0.000698
6.625053 2.516193 -0.000151
6.939795 2.516193 -0.001198
7.254536 2.516193 -0.002531
7.569277 2.516193 -0.002153
7.884017 2.516193 -0.003124
8.198758 2.516193 -0.003029
8.513499 2.516193 -0.003790
8.828240 2.516193 0.006261
9.142982 2.516193 0.006964
9.457723 2.516193 0.008707
9.772464 2.516193 0.012048
10.087205 2.516193 0.008293
10.401946 2.516193 0.014123
10.716687 2.516193 0.019231
11.031426 2.516193 0.048010
11.346168 2.516193 0.043101
11.660909 2.516193 0.054990
11.975650 2.516193 0.094736
12.290391 2.516193 0.122952
12.605132 2.516193 0.119209
12.919873 2.516193 0.158462
13.234614 2.516193 0.192841
13.549356 2.516193 0.264874
13.864097 2.516193 0.370351
14.178838 2.516193 0.485804
14.493579 2.516193 0.634630
14.808320 2.516193 0.883450
15.123059 2.516193 1.295640
15.437800 2.516193 0.000000
15.752542 2.516193 0.000000
16.067284 2.516193 0.000000
16.382023 2.516193 0.000000
16.696766 2.516193 0.000000
17.011505 2.516193 0.000000
17.326248 2.516193 0.000000
17.640987 2.516193 0.000000
17.955730 2.516193 0.000000
18.270470 2.516193 0.000000
18.585213 2.516193 0.000000
18.899952 2.516193 0.000000
-7.223550 2.201454 0.000000
-6.908809 2.201454 0.003249
-6.594068 2.201454 0.001589
-6.279327 2.201454 0.001602
-5.964586 2.201454 0.001551
-5.649845 2.201454 0.001430
-5.335104 2.201454 0.001360
-5.020363 2.201454 0.001203
-4.705622 2.201454 0.001188
-4.390881 2.201454 0.001383
-4.076140 2.201454 0.001486
-3.761399 2.201454 0.001602
-3.446658 2.201454 0.001647
-3.131917 2.201454 0.001348
-2.817176 2.201454 0.001134
-2.502435 2.201454 0.001363
-2.187694 2.201454 0.001954
-1.872953 2.201454 0.002159
-1.558212 2.201454 0.001867
-1.243471 2.201454 0.001780
-0.928730 2.201454 0.001860
-0.613989 2.201454 0.001812
-0.299248 2.201454 0.001735
0.015493 2.201454 0.001678
0.330234 2.201454 0.001592
0.644975 2.201454 0.001509
0.959716 2.201454 0.001569
1.274457 2.201454 0.001617
1.589198 2.201454 0.001519
1.903938 2.201454 0.001569
2.218679 2.201454 0.001694
2.533421 2.201454 0.001817
2.848162 2.201454 0.002032
3.162903 2.201454 0.002045
3.477644 2.201454 0.001790
3.792385 2.201454 0.001814
4.107125 2.201454 0.001961
4.421866 2.201454 0.001653
4.736608 2.201454 0.001322
5.051349 2.201454 0.000972
5.366090 2.201454 0.000876
5.680831 2.201454 0.000777
5.995571 2.201454 0.001186
6.310312 2.201454 0.001279
6.625053 2.201454 0.000203
6.939795 2.201454 -0.001679
7.254536 2.201454 -0.001949
7.569277 2.201454 -0.001013
7.884017 2.201454 -0.004443
8.198758 2.201454 -0.004383
8.513499 2.201454 -0.007979
8.828240 2.201454 0.005072
9.142982 2.201454 0.012241
9.457723 2.201454 0.017269
9.772464 2.201454 0.012617
10.087205 2.201454 0.019881
10.401946 2.201454 0.015356
10.716687 2.201454 0.018389
11.031426 2.201454 0.036992
11.346168 2.201454 0.033442
11.660909 2.201454 0.059238
11.975650 2.201454 0.076262
12.290391 2.201454 0.141982
12.605132 2.201454 0.171849
12.919873 2.201454 0.222028
13.234614 2.201454 0.235255
13.549356 2.201454 0.270371
13.864097 2.201454 0.378084
14.178838 2.201454 0.467885
14.493579 2.201454 0.664589
14.808320 2.201454 0.882865
15.123059 2.201454 1.369440
15.437800 2.201454 0.000000
15.752542 2.201454 0.000000
16.067284 2.201454 0.000000
16.382023 2.201454 0.000000
16.696766 2.201454 0.000000
17.011505 2.201454 0.000000
17.326248 2.201454 0.000000
17.640987 2.201454 0.000000
17.955730 2.201454 0.000000
18.270470 2.201454 0.000000
18.585213 2.201454 0.000000
18.899952 2.201454 0.000000
-7.223550 1.886711 0.000000
-6.908809 1.886711 0.003145
-6.594068 1.886711 0.001628
-6.279327 1.886711 0.001781
-5.964586 1.886711 0.001671
-5.649845 1.886711 0.001314
-5.335104 1.886711 0.001186
-5.020363 1.886711 0.001218
-4.705622 1.886711 0.001410
-4.390881 1.886711 0.001742
-4.076140 1.886711 0.001737
-3.761399 1.886711 0.001796
-3.446658 1.886711 0.001787
-3.131917 1.886711 0.001458
-2.817176 1.886711 0.001207
-2.502435 1.886711 0.001404
-2.187694 1.886711 0.001902
-1.872953 1.886711 0.002017
-1.558212 1.886711 0.001827
-1.243471 1.886711 0.001863
-0.928730 1.886711 0.001891
-0.613989 1.886711 0.001700
-0.299248 1.886711 0.001656
0.015493 1.886711 0.001731
0.330234 1.886711 0.001724
0.644975 1.886711 0.001530
0.959716 1.886711 0.001501
1.274457 1.886711 0.001515
1.589198 1.886711 0.001459
1.903938 1.886711 0.001482
2.218679 1.886711 0.001566
2.533421 1.886711 0.001573
2.848162 1.886711 0.001914
3.162903 1.886711 0.002106
3.477644 1.886711 0.001889
3.792385 1.886711 0.002032
4.107125 1.886711 0.002089
4.421866 1.886711 0.001790
4.736608 1.886711 0.001423
5.051349 1.886711 0.001082
5.366090 1.886711 0.000835
5.680831 1.886711 0.000616
5.995571 1.886711 0.000811
6.310312 1.886711 0.001227
6.625053 1.886711 0.000312
6.939795 1.886711 -0.002203
7.254536 1.886711 -0.002796
7.569277 1.886711 -0.004009
7.884017 1.886711 -0.006259
8.198758 1.886711 -0.010850
8.513499 1.886711 -0.007351
8.828240 1.886711 0.000898
9.142982 1.886711 0.011646
9.457723 1.886711 0.017935
9.772464 1.886711 0.012216
10.087205 1.886711 0.016475
10.401946 1.886711 0.006949
10.716687 1.886711 0.012477
11.031426 1.886711 0.012524
11.346168 1.886711 0.047684
11.660909 1.886711 0.064493
11.975650 1.886711 0.076431
12.290391 1.886711 0.171702
12.605132 1.886711 0.192098
12.919873 1.886711 0.234318
13.234614 1.886711 0.254027
13.549356 1.886711 0.317572
13.864097 1.886711 0.369436
14.178838 1.886711 0.517574
14.493579 1.886711 0.687096
14.808320 1.886711 1.075191
15.123059 1.886711 1.339666
15.437800 1.886711 0.000000
15.752542 1.886711 0.000000
16.067284 1.886711 0.000000
16.382023 1.886711 0.000000
16.696766 1.886711 0.000000
17.011505 1.886711 0.000000
17.326248 1.886711 0.000000
17.640987 1.886711 0.000000
17.955730 1.886711 0.000000
18.270470 1.886711 0.000000
18.585213 1.886711 0.000000
18.899952 1.886711 0.000000
-7.223550 1.571972 0.000000
-6.908809 1.571972 0.002783
-6.594068 1.571972 0.001609
-6.279327 1.571972 0.001922
-5.964586 1.571972 0.001749
-5.649845 1.571972 0.001274
-5.335104 1.571972 0.001159
-5.020363 1.571972 0.001338
-4.705622 1.571972 0.001698
-4.390881 1.571972 0.002030
-4.076140 1.571972 0.001854
-3.761399 1.571972 0.001828
-3.446658 1.571972 0.001841
-3.131917 1.571972 0.001520
-2.817176 1.571972 0.001258
-2.502435 1.571972 0.001440
-2.187694 1.571972 0.001908
-1.872953 1.571972 0.001976
-1.558212 1.571972 0.001841
-1.243471 1.571972 0.001921
-0.928730 1.571972 0.001930
-0.613989 1.571972 0.001733
-0.299248 1.571972 0.001662
0.015493 1.571972 0.001689
0.330234 1.571972 0.001667
0.644975 1.571972 0.001518
0.959716 1.571972 0.001451
1.274457 1.571972 0.001403
1.589198 1.571972 0.001374
1.903938 1.571972 0.001427
2.218679 1.571972 0.001485
2.533421 1.571972 0.001519
2.848162 1.571972 0.001917
3.162903 1.571972 0.002188
3.477644 1.571972 0.001949
3.792385 1.571972 0.002082
4.107125 1.571972 0.002026
4.421866 1.571972 0.001767
4.736608 1.571972 0.001278
5.051349 1.571972 0.000904
5.366090 1.571972 0.000736
5.680831 1.571972 0.000430
5.995571 1.571972 0.000373
6.310312 1.571972 0.000526
6.625053 1.571972 -0.000547
6.939795 1.571972 -0.002077
7.254536 1.571972 -0.003136
7.569277 1.571972 -0.004198
7.884017 1.571972 -0.008532
8.198758 1.571972 -0.012022
8.513499 1.571972 -0.011378
8.828240 1.571972 -0.000105
9.142982 1.571972 0.016289
9.457723 1.571972 0.014974
9.772464 1.571972 0.009660
10.087205 1.571972 0.003252
10.401946 1.571972 0.001762
10.716687 1.571972 0.011223
11.031426 1.571972 0.013164
11.346168 1.571972 0.037773
11.660909 1.571972 0.074502
11.975650 1.571972 0.119116
12.290391 1.571972 0.205004
12.605132 1.571972 0.251318
12.919873 1.571972 0.239683
13.234614 1.571972 0.251810
13.549356 1.571972 0.349267
13.864097 1.571972 0.420299
14.178838 1.571972 0.545545
14.493579 1.571972 0.776694
14.808320 1.571972 1.110467
15.123059 1.571972 1.605582
15.437800 1.571972 0.000000
15.752542 1.571972 0.000000
16.067284 1.571972 0.000000
16.382023 1.571972 0.000000
16.696766 1.571972 0.000000
17.011505 1.571972 0.000000
17.326248 1.571972 0.000000
17.640987 1.571972 0.000000
17.955730 1.571972 0.000000
18.270470 1.571972 0.000000
18.585213 1.571972 0.000000
18.899952 1.571972 0.000000
-7.223550 1.257229 0.000000
-6.908809 1.257229 0.002511
-6.594068 1.257229 0.001559
-6.279327 1.257229 0.001872
-5.964586 1.257229 0.001710
-5.649845 1.257229 0.001243
-5.335104 1.257229 0.001121
-5.020363 1.257229 0.001395
-4.705622 1.257229 0.001828
-4.390881 1.257229 0.002109
-4.076140 1.257229 0.001872
-3.761399 1.257229 0.001829
-3.446658 1.257229 0.001843
-3.131917 1.257229 0.001597
-2.817176 1.257229 0.001351
-2.502435 1.257229 0.001479
-2.187694 1.257229 0.001899
-1.872953 1.257229 0.001976
-1.558212 1.257229 0.001905
-1.243471 1.257229 0.001899
-0.928730 1.257229 0.001837
-0.613989 1.257229 0.001670
-0.299248 1.257229 0.001615
0.015493 1.257229 0.001500
0.330234 1.257229 0.001487
0.644975 1.257229 0.001477
0.959716 1.257229 0.001543
1.274457 1.257229 0.001506
1.589198 1.257229 0.001484
1.903938 1.257229 0.001542
2.218679 1.257229 0.001568
2.533421 1.257229 0.001561
2.848162 1.257229 0.001858
3.162903 1.257229 0.002018
3.477644 1.257229 0.001841
3.792385 1.257229 0.001939
4.107125 1.257229 0.001855
4.421866 1.257229 0.001641
4.736608 1.257229 0.001187
5.051349 1.257229 0.000871
5.366090 1.257229 0.000766
5.680831 1.257229 0.000470
5.995571 1.257229 -0.000060
6.310312 1.257229 0.000134
6.625053 1.257229 -0.000189
6.939795 1.257229 -0.001797
7.254536 1.257229 -0.003918
7.569277 1.257229 -0.004949
7.884017 1.257229 -0.009786
8.198758 1.257229 -0.011782
8.513499 1.257229 -0.009028
8.828240 1.257229 0.011048
9.142982 1.257229 0.021512
9.457723 1.257229 0.010420
9.772464 1.257229 -0.003315
10.087205 1.257229 -0.014706
10.401946 1.257229 0.000041
10.716687 1.257229 0.013521
11.031426 1.257229 0.012065
11.346168 1.257229 0.037458
11.660909 1.257229 0.077372
11.975650 1.257229 0.139094
12.290391 1.257229 0.233881
12.605132 1.257229 0.284701
12.919873 1.257229 0.268737
13.234614 1.257229 0.270958
13.549356 1.257229 0.397371
13.864097 1.257229 0.522963
14.178838 1.257229 0.653485
14.493579 1.257229 0.820222
14.808320 1.257229 1.148002
15.123059 1.257229 0.000000
15.437800 1.257229 0.000000
15.752542 1.257229 0.000000
16.067284 1.257229 0.000000
16.382023 1.257229 0.000000
16.696766 1.257229 0.000000
17.011505 1.257229 0.000000
17.326248 1.257229 0.000000
17.640987 1.257229 0.000000
17.955730 1.257229 0.000000
18.270470 1.257229 0.000000
18.585213 1.257229 0.000000
18.899952 1.257229 0.000000
-7.223550 0.942490 0.000000
-6.908809 0.942490 0.002430
-6.594068 0.942490 0.001503
-6.279327 0.942490 0.001769
-5.964586 0.942490 0.001701
-5.649845 0.942490 0.001341
-5.335104 0.942490 0.001195
-5.020363 0.942490 0.001408
-4.705622 0.942490 0.001768
-4.390881 0.942490 0.001978
-4.076140 0.942490 0.001761
-3.761399 0.942490 0.001761
-3.446658 0.942490 0.001848
-3.131917 0.942490 0.001656
-2.817176 0.942490 0.001385
-2.502435 0.942490 0.001448
-2.187694 0.942490 0.001773
-1.872953 0.942490 0.001979
-1.558212 0.942490 0.001981
-1.243471 0.942490 0.001807
-0.928730 0.942490 0.001615
-0.613989 0.942490 0.001550
-0.299248 0.942490 0.001578
0.015493 0.942490 0.001449
0.330234 0.942490 0.001454
0.644975 0.942490 0.001562
0.959716 0.942490 0.001709
1.274457 0.942490 0.001667
1.589198 0.942490 0.001579
1.903938 0.942490 0.001583
2.218679 0.942490 0.001564
2.533421 0.942490 0.001541
2.848162 0.942490 0.001739
3.162903 0.942490 0.001787
3.477644 0.942490 0.001669
3.792385 0.942490 0.001716
4.107125 0.942490 0.001737
4.421866 0.942490 0.001701
4.736608 0.942490 0.001328
5.051349 0.942490 0.000992
5.366090 0.942490 0.000756
5.680831 0.942490 0.000349
5.995571 0.942490 -0.000340
6.310312 0.942490 -0.000544
6.625053 0.942490 -0.000723
6.939795 0.942490 -0.003085
7.254536 0.942490 -0.004421
7.569277 0.942490 -0.004316
7.884017 0.942490 -0.009146
8.198758 0.942490 -0.009786
8.513499 0.942490 -0.003826
8.828240 0.942490 0.007276
9.142982 0.942490 0.017375
9.457723 0.942490 -0.003914
9.772464 0.942490 -0.008649
10.087205 0.942490 -0.018160
10.401946 0.942490 -0.018051
10.716687 0.942490 -0.012170
11.031426 0.942490 0.021285
11.346168 0.942490 0.037163
11.660909 0.942490 0.085922
11.975650 0.942490 0.161686
12.290391 0.942490 0.245646
12.605132 0.942490 0.295776
12.919873 0.942490 0.276944
13.234614 0.942490 0.299906
13.549356 0.942490 0.432397
13.864097 0.942490 0.566271
14.178838 0.942490 0.727421
14.493579 0.942490 0.994457
14.808320 0.942490 1.355256
15.123059 0.942490 0.000000
15.437800 0.942490 0.000000
15.752542 0.942490 0.000000
16.067284 0.942490 0.000000
16.382023 0.942490 0.000000
16.696766 0.942490 0.000000
17.011505 0.942490 0.000000
17.326248 0.942490 0.000000
17.640987 0.942490 0.000000
17.955730 0.942490 0.000000
18.270470 0.942490 0.000000
18.585213 0.942490 0.000000
18.899952 0.942490 0.000000
-7.223550 0.627750 0.000000
-6.908809 0.627750 0.002800
-6.594068 0.627750 0.001777
-6.279327 0.627750 0.001941
-5.964586 0.627750 0.002006
-5.649845 0.627750 0.001675
-5.335104 0.627750 0.001508
-5.020363 0.627750 0.001591
-4.705622 0.627750 0.001791
-4.390881 0.627750 0.001880
-4.076140 0.627750 0.001675
-3.761399 0.627750 0.001658
-3.446658 0.627750 0.001813
-3.131917 0.627750 0.001715
-2.817176 0.627750 0.001539
-2.502435 0.627750 0.001504
-2.187694 0.627750 0.001801
-1.872953 0.627750 0.002129
-1.558212 0.627750 0.002166
-1.243471 0.627750 0.001858
-0.928730 0.627750 0.001587
-0.613989 0.627750 0.001628
-0.299248 0.627750 0.001762
0.015493 0.627750 0.001672
0.330234 0.627750 0.001573
0.644975 0.627750 0.001646
0.959716 0.627750 0.001824
1.274457 0.627750 0.001824
1.589198 0.627750 0.001645
1.903938 0.627750 0.001629
2.218679 0.627750 0.001671
2.533421 0.627750 0.001665
2.848162 0.627750 0.001783
3.162903 0.627750 0.001887
3.477644 0.627750 0.001740
3.792385 0.627750 0.001633
4.107125 0.627750 0.001648
4.421866 0.627750 0.001775
4.736608 0.627750 0.001545
5.051349 0.627750 0.001035
5.366090 0.627750 0.000767
5.680831 0.627750 0.000491
5.995571 0.627750 -0.000305
6.310312 0.627750 -0.000835
6.625053 0.627750 -0.001578
6.939795 0.627750 -0.003588
7.254536 0.627750 -0.000887
7.569277 0.627750 0.000734
7.884017 0.627750 -0.002171
8.198758 0.627750 -0.003863
8.513499 0.627750 0.000175
8.828240 0.627750 0.019625
9.142982 0.627750 0.023284
9.457723 0.627750 0.000505
9.772464 0.627750 -0.009807
10.087205 0.627750 -0.010210
10.401946 0.627750 -0.009813
10.716687 0.627750 0.007264
11.031426 0.627750 0.042332
11.346168 0.627750 0.067270
11.660909 0.627750 0.080884
11.975650 0.627750 0.171647
12.290391 0.627750 0.272559
12.605132 0.627750 0.298214
12.919873 0.627750 0.312907
13.234614 0.627750 0.322393
13.549356 0.627750 0.404497
13.864097 0.627750 0.636985
14.178838 0.627750 0.834605
14.493579 0.627750 1.156014
14.808320 0.627750 1.379849
15.123059 0.627750 0.000000
15.437800 0.627750 0.000000
15.752542 0.627750 0.000000
16.067284 0.627750 0.000000
16.382023 0.627750 0.000000
16.696766 0.627750 0.000000
17.011505 0.627750 0.000000
17.326248 0.627750 0.000000
17.640987 0.627750 0.000000
17.955730 0.627750 0.000000
18.270470 0.627750 0.000000
18.585213 0.627750 0.000000
18.899952 0.627750 0.000000
-7.223550 0.313007 0.000000
-6.908809 0.313007 0.003369
-6.594068 0.313007 0.002606
-6.279327 0.313007 0.002910
-5.964586 0.313007 0.003040
-5.649845 0.313007 0.002521
-5.335104 0.313007 0.002232
-5.020363 0.313007 0.002218
-4.705622 0.313007 0.002309
-4.390881 0.313007 0.002384
-4.076140 0.313007 0.002157
-3.761399 0.313007 0.002047
-3.446658 0.313007 0.002182
-3.131917 0.313007 0.002191
-2.817176 0.313007 0.002082
-2.502435 0.313007 0.001906
-2.187694 0.313007 0.002076
-1.872953 0.313007 0.002431
-1.558212 0.313007 0.002428
-1.243471 0.313007 0.002007
-0.928730 0.313007 0.001761
-0.613989 0.313007 0.001955
-0.299248 0.313007 0.002341
0.015493 0.313007 0.002403
0.330234 0.313007 0.002180
0.644975 0.313007 0.002169
0.959716 0.313007 0.002405
1.274457 0.313007 0.002457
1.589198 0.313007 0.002189
1.903938 0.313007 0.002077
2.218679 0.313007 0.002075
2.533421 0.313007 0.001881
2.848162 0.313007 0.001871
3.162903 0.313007 0.001938
3.477644 0.313007 0.001692
3.792385 0.313007 0.001518
4.107125 0.313007 0.001600
4.421866 0.313007 0.002036
4.736608 0.313007 0.002183
5.051349 0.313007 0.001608
5.366090 0.313007 0.001454
5.680831 0.313007 0.001155
5.995571 0.313007 0.000361
6.310312 0.313007 -0.000594
6.625053 0.313007 -0.000834
6.939795 0.313007 -0.000227
7.254536 0.313007 0.002281
7.569277 0.313007 0.007726
7.884017 0.313007 0.009289
8.198758 0.313007 0.005144
8.513499 0.313007 0.015897
8.828240 0.313007 0.029980
9.142982 0.313007 0.036562
9.457723 0.313007 0.029591
9.772464 0.313007 0.014638
10.087205 0.313007 0.001344
10.401946 0.313007 0.022802
10.716687 0.313007 0.057077
11.031426 0.313007 0.062915
11.346168 0.313007 0.092546
11.660909 0.313007 0.147791
11.975650 0.313007 0.212144
12.290391 0.313007 0.330084
12.605132 0.313007 0.373465
12.919873 0.313007 0.382531
13.234614 0.313007 0.359799
13.549356 0.313007 0.438743
13.864097 0.313007 0.642160
14.178838 0.313007 0.910784
14.493579 0.313007 1.364474
14.808320 0.313007 0.890726
15.123059 0.313007 0.000000
15.437800 0.313007 0.000000
15.752542 0.313007 0.000000
16.067284 0.313007 0.000000
16.382023 0.313007 0.000000
16.696766 0.313007 0.000000
17.011505 0.313007 0.000000
17.326248 0.313007 0.000000
17.640987 0.313007 0.000000
17.955730 0.313007 0.000000
18.270470 0.313007 0.000000
18.585213 0.313007 0.000000
18.899952 0.313007 0.000000
-7.223550 -0.001732 0.000000
-6.908809 -0.001732 0.002691
-6.594068 -0.001732 0.003809
-6.279327 -0.001732 0.004901
-5.964586 -0.001732 0.005263
-5.649845 -0.001732 0.004276
-5.335104 -0.001732 0.003786
-5.020363 -0.001732 0.003692
-4.705622 -0.001732 0.003660
-4.390881 -0.001732 0.003851
-4.076140 -0.001732 0.003563
-3.761399 -0.001732 0.003261
-3.446658 -0.001732 0.003195
-3.131917 -0.001732 0.003187
-2.817176 -0.001732 0.002969
-2.502435 -0.001732 0.002597
-2.187694 -0.001732 0.002580
-1.872953 -0.001732 0.002876
-1.558212 -0.001732 0.002889
-1.243471 -0.001732 0.002480
-0.928730 -0.001732 0.002331
-0.613989 -0.001732 0.002977
-0.299248 -0.001732 0.003754
0.015493 -0.001732 0.004077
0.330234 -0.001732 0.003718
0.644975 -0.001732 0.003572
0.959716 -0.001732 0.003719
1.274457 -0.001732 0.003647
1.589198 -0.001732 0.003151
1.903938 -0.001732 0.002821
2.218679 -0.001732 0.002565
2.533421 -0.001732 0.002146
2.848162 -0.001732 0.002083
3.162903 -0.001732 0.002162
3.477644 -0.001732 0.001950
3.792385 -0.001732 0.002017
4.107125 -0.001732 0.002402
4.421866 -0.001732 0.003247
4.736608 -0.001732 0.003811
5.051349 -0.001732 0.003340
5.366090 -0.001732 0.003226
5.680831 -0.001732 0.003019
5.995571 -0.001732 0.001816
6.310312 -0.001732 0.000223
6.625053 -0.001732 0.001000
6.939795 -0.001732 0.002266
7.254536 -0.001732 0.005863
7.569277 -0.001732 0.012820
7.884017 -0.001732 0.017420
8.198758 -0.001732 0.018463
8.513499 -0.001732 0.024124
8.828240 -0.001732 0.050531
9.142982 -0.001732 0.058800
9.457723 -0.001732 0.064411
9.772464 -0.001732 0.056688
10.087205 -0.001732 0.061505
10.401946 -0.001732 0.081458
10.716687 -0.001732 0.125325
11.031426 -0.001732 0.136232
11.346168 -0.001732 0.144872
11.660909 -0.001732 0.197163
11.975650 -0.001732 0.275068
12.290391 -0.001732 0.438126
12.605132 -0.001732 0.516761
12.919873 -0.001732 0.485965
13.234614 -0.001732 0.467460
13.549356 -0.001732 0.539198
13.864097 -0.001732 0.705969
14.178838 -0.001732 0.967388
14.493579 -0.001732 1.401827
14.808320 -0.001732 0.000000
15.123059 -0.001732 0.000000
15.437800 -0.001732 0.000000
15.752542 -0.001732 0.000000
16.067284 -0.001732 0.000000
16.382023 -0.001732 0.000000
16.696766 -0.001732 0.000000
17.011505 -0.001732 0.000000
17.326248 -0.001732 0.000000
17.640987 -0.001732 0.000000
17.955730 -0.001732 0.000000
18.270470 -0.001732 0.000000
18.585213 -0.001732 0.000000
18.899952 -0.001732 0.000000
-7.223550 -0.316475 0.000000
-6.908809 -0.316475 0.000000
-6.594068 -0.316475 0.000000
-6.279327 -0.316475 0.000000
-5.964586 -0.316475 0.000000
-5.649845 -0.316475 0.000000
-5.335104 -0.316475 0.000000
-5.020363 -0.316475 0.000000
-4.705622 -0.316475 0.000000
-4.390881 -0.316475 0.000000
-4.076140 -0.316475 0.000000
-3.761399 -0.316475 0.000000
-3.446658 -0.316475 0.000000
-3.131917 -0.316475 0.000000
-2.817176 -0.316475 0.000000
-2.502435 -0.316475 0.000000
-2.187694 -0.316475 0.000000
-1.872953 -0.316475 -0.000270
-1.558212 -0.316475 0.000036
-1.243471 -0.316475 -0.001225
-0.928730 -0.316475 -0.000925
-0.613989 -0.316475 -0.000243
-0.299248 -0.316475 0.000209
0.015493 -0.316475 0.001050
0.330234 -0.316475 0.001331
0.644975 -0.316475 0.001932
0.959716 -0.316475 0.002902
1.274457 -0.316475 0.003249
1.589198 -0.316475 0.003210
1.903938 -0.316475 0.003386
2.218679 -0.316475 0.003098
2.533421 -0.316475 0.002821
2.848162 -0.316475 0.002915
3.162903 -0.316475 0.003070
3.477644 -0.316475 0.003032
3.792385 -0.316475 0.003429
4.107125 -0.316475 0.004177
4.421866 -0.316475 0.005325
4.736608 -0.316475 0.006036
5.051349 -0.316475 0.005693
5.366090 -0.316475 0.005706
5.680831 -0.316475 0.005562
5.995571 -0.316475 0.004232
6.310312 -0.316475 0.003116
6.625053 -0.316475 0.004293
6.939795 -0.316475 0.006946
7.254536 -0.316475 0.012353
7.569277 -0.316475 0.026799
7.884017 -0.316475 0.029662
8.198758 -0.316475 0.032953
8.513499 -0.316475 0.049034
8.828240 -0.316475 0.076278
9.142982 -0.316475 0.107514
9.457723 -0.316475 0.105928
9.772464 -0.316475 0.104931
10.087205 -0.316475 0.135932
10.401946 -0.316475 0.173886
10.716687 -0.316475 0.203948
11.031426 -0.316475 0.223446
11.346168 -0.316475 0.236767
11.660909 -0.316475 0.317309
11.975650 -0.316475 0.443716
12.290391 -0.316475 0.642974
12.605132 -0.316475 0.713946
12.919873 -0.316475 0.693913
13.234614 -0.316475 0.685956
13.549356 -0.316475 0.752990
13.864097 -0.316475 0.849271
14.178838 -0.316475 1.077561
14.493579 -0.316475 1.218281
14.808320 -0.316475 0.000000
15.123059 -0.316475 0.000000
15.437800 -0.316475 0.000000
15.752542 -0.316475 0.000000
16.067284 -0.316475 0.000000
16.382023 -0.316475 0.000000
16.696766 -0.316475 0.000000
17.011505 -0.316475 0.000000
17.326248 -0.316475 0.000000
17.640987 -0.316475 0.000000
17.955730 -0.316475 0.000000
18.270470 -0.316475 0.000000
18.585213 -0.316475 0.000000
18.899952 -0.316475 0.000000
-7.223550 -0.631214 0.000000
-6.908809 -0.631214 0.000000
-6.594068 -0.631214 0.000000
-6.279327 -0.631214 0.000000
-5.964586 -0.631214 0.000000
-5.649845 -0.631214 0.000000
-5.335104 -0.631214 0.000000
-5.020363 -0.631214 0.000000
-4.705622 -0.631214 0.000000
-4.390881 -0.631214 0.000000
-4.076140 -0.631214 0.000000
-3.761399 -0.631214 0.000000
-3.446658 -0.631214 0.000000
-3.131917 -0.631214 0.000000
-2.817176 -0.631214 0.000000
-2.502435 -0.631214 0.000000
-2.187694 -0.631214 0.000000
-1.872953 -0.631214 0.000000
-1.558212 -0.631214 0.000000
-1.243471 -0.631214 0.000000
-0.928730 -0.631214 0.000000
-0.613989 -0.631214 0.000000
-0.299248 -0.631214 0.000000
0.015493 -0.631214 0.000000
0.330234 -0.631214 0.000000
0.644975 -0.631214 0.000000
0.959716 -0.631214 0.000000
1.274457 -0.631214 0.000000
1.589198 -0.631214 0.000000
1.903938 -0.631214 0.000000
2.218679 -0.631214 0.000000
2.533421 -0.631214 0.000000
2.848162 -0.631214 0.000000
3.162903 -0.631214 0.000000
3.477644 -0.631214 0.000000
3.792385 -0.631214 0.000000
4.107125 -0.631214 0.000000
4.421866 -0.631214 0.000000
4.736608 -0.631214 0.000000
5.051349 -0.631214 0.000000
5.366090 -0.631214 0.000000
5.680831 -0.631214 0.000000
5.995571 -0.631214 0.000000
6.310312 -0.631214 0.000000
6.625053 -0.631214 -0.549590
6.939795 -0.631214 1.130426
7.254536 -0.631214 1.935411
7.569277 -0.631214 -0.179355
7.884017 -0.631214 0.209047
8.198758 -0.631214 0.012000
8.513499 -0.631214 -0.020301
8.828240 -0.631214 -0.031634
9.142982 -0.631214 -0.086009
9.457723 -0.631214 -0.033048
9.772464 -0.631214 -0.055800
10.087205 -0.631214 -0.024525
10.401946 -0.631214 0.052233
10.716687 -0.631214 0.120717
11.031426 -0.631214 0.187600
11.346168 -0.631214 0.266356
11.660909 -0.631214 0.380632
11.975650 -0.631214 0.555580
12.290391 -0.631214 0.775357
12.605132 -0.631214 0.814310
12.919873 -0.631214 0.841323
13.234614 -0.631214 0.898809
13.549356 -0.631214 0.942462
13.864097 -0.631214 1.003682
14.178838 -0.631214 1.100183
14.493579 -0.631214 1.643652
14.808320 -0.631214 0.000000
15.123059 -0.631214 0.000000
15.437800 -0.631214 0.000000
15.752542 -0.631214 0.000000
16.067284 -0.631214 0.000000
16.382023 -0.631214 0.000000
16.696766 -0.631214 0.000000
17.011505 -0.631214 0.000000
17.326248 -0.631214 0.000000
17.640987 -0.631214 0.000000
17.955730 -0.631214 0.000000
18.270470 -0.631214 0.000000
18.585213 -0.631214 0.000000
18.899952 -0.631214 0.000000
-7.223550 -0.945957 0.000000
-6.908809 -0.945957 0.000000
-6.594068 -0.945957 0.000000
-6.279327 -0.945957 0.000000
-5.964586 -0.945957 0.000000
-5.649845 -0.945957 0.000000
-5.335104 -0.945957 0.000000
-5.020363 -0.945957 0.000000
-4.705622 -0.945957 0.000000
-4.390881 -0.945957 0.000000
-4.076140 -0.945957 0.000000
-3.761399 -0.945957 0.000000
-3.446658 -0.945957 0.000000
-3.131917 -0.945957 0.000000
-2.817176 -0.945957 0.000000
-2.502435 -0.945957 0.000000
-2.187694 -0.945957 0.000000
-1.872953 -0.945957 0.000000
-1.558212 -0.945957 0.000000
-1.243471 -0.945957 0.000000
-0.928730 -0.945957 0.000000
-0.613989 -0.945957 0.000000
-0.299248 -0.945957 0.000000
0.015493 -0.945957 0.000000
0.330234 -0.945957 0.000000
0.644975 -0.945957 0.000000
0.959716 -0.945957 0.000000
1.274457 -0.945957 0.000000
1.589198 -0.945957 0.000000
1.903938 -0.945957 0.000000
2.218679 -0.945957 0.000000
2.533421 -0.945957 0.000000
2.848162 -0.945957 0.000000
3.162903 -0.945957 0.000000
3.477644 -0.945957 0.000000
3.792385 -0.945957 0.000000
4.107125 -0.945957 0.000000
4.421866 -0.945957 0.000000
4.736608 -0.945957 0.000000
5.051349 -0.945957 0.000000
5.366090 -0.945957 0.000000
5.680831 -0.945957 0.000000
5.995571 -0.945957 0.000000
6.310312 -0.945957 0.000000
6.625053 -0.945957 0.000000
6.939795 -0.945957 0.000000
7.254536 -0.945957 0.000000
7.569277 -0.945957 0.000000
7.884017 -0.945957 0.000000
8.198758 -0.945957 0.000000
8.513499 -0.945957 0.000000
8.828240 -0.945957 0.000000
9.142982 -0.945957 0.000000
9.457723 -0.945957 0.000000
9.772464 -0.945957 3.034371
10.087205 -0.945957 1.220376
10.401946 -0.945957 1.264880
10.716687 -0.945957 1.358327
11.031426 -0.945957 -0.208289
11.346168 -0.945957 0.012541
11.660909 -0.945957 0.699137
11.975650 -0.945957 0.521158
12.290391 -0.945957 0.622579
12.605132 -0.945957 0.532351
12.919873 -0.945957 0.625043
13.234614 -0.945957 0.594016
13.549356 -0.945957 0.532889
13.864097 -0.945957 0.625967
14.178838 -0.945957 0.640778
14.493579 -0.945957 0.195545
14.808320 -0.945957 0.000000
15.123059 -0.945957 0.000000
15.437800 -0.945957 0.000000
15.752542 -0.945957 0.000000
16.067284 -0.945957 0.000000
16.382023 -0.945957 0.000000
16.696766 -0.945957 0.000000
17.011505 -0.945957 0.000000
17.326248 -0.945957 0.000000
17.640987 -0.945957 0.000000
17.955730 -0.945957 0.000000
18.270470 -0.945957 0.000000
18.585213 -0.945957 0.000000
18.899952 -0.945957 0.000000
-7.223550 -1.260696 0.000000
-6.908809 -1.260696 0.000000
-6.594068 -1.260696 0.000000
-6.279327 -1.260696 0.000000
-5.964586 -1.260696 0.000000
-5.649845 -1.260696 0.000000
-5.335104 -1.260696 0.000000
-5.020363 -1.260696 0.000000
-4.705622 -1.260696 0.000000
-4.390881 -1.260696 0.000000
-4.076140 -1.260696 0.000000
-3.761399 -1.260696 0.000000
-3.446658 -1.260696 0.000000
-3.131917 -1.260696 0.000000
-2.817176 -1.260696 0.000000
-2.502435 -1.260696 0.000000
-2.187694 -1.260696 0.000000
-1.872953 -1.260696 0.000000
-1.558212 -1.260696 0.000000
-1.243471 -1.260696 0.000000
-0.928730 -1.260696 0.000000
-0.613989 -1.260696 0.000000
-0.299248 -1.260696 0.000000
0.015493 -1.260696 0.000000
0.330234 -1.260696 0.000000
0.644975 -1.260696 0.000000
0.959716 -1.260696 0.000000
1.274457 -1.260696 0.000000
1.589198 -1.260696 0.000000
1.903938 -1.260696 0.000000
2.218679 -1.260696 0.000000
2.533421 -1.260696 0.000000
2.848162 -1.260696 0.000000
3.162903 -1.260696 0.000000
3.477644 -1.260696 0.000000
3.792385 -1.260696 0.000000
4.107125 -1.260696 0.000000
4.421866 -1.260696 0.000000
4.736608 -1.260696 0.000000
5.051349 -1.260696 0.000000
5.366090 -1.260696 0.000000
5.680831 -1.260696 0.000000
5.995571 -1.260696 0.000000
6.310312 -1.260696 0.000000
6.625053 -1.260696 0.000000
6.939795 -1.260696 0.000000
7.254536 -1.260696 0.000000
7.569277 -1.260696 0.000000
7.884017 -1.260696 0.000000
8.198758 -1.260696 0.000000
8.513499 -1.260696 0.000000
8.828240 -1.260696 0.000000
9.142982 -1.260696 0.000000
9.457723 -1.260696 0.000000
9.772464 -1.260696 0.000000
10.087205 -1.260696 0.000000
10.401946 -1.260696 0.000000
10.716687 -1.260696 0.000000
11.031426 -1.260696 0.000000
11.346168 -1.260696 0.000000
11.660909 -1.260696 0.000000
11.975650 -1.260696 0.000000
12.290391 -1.260696 0.000000
12.605132 -1.260696 0.000000
12.919873 -1.260696 0.000000
13.234614 -1.260696 0.000000
13.549356 -1.260696 -0.126769
13.864097 -1.260696 1.698604
14.178838 -1.260696 1.362267
14.493579 -1.260696 0.000000
14.808320 -1.260696 0.000000
15.123059 -1.260696 0.000000
15.437800 -1.260696 0.000000
15.752542 -1.260696 0.000000
16.067284 -1.260696 0.000000
16.382023 -1.260696 0.000000
16.696766 -1.260696 0.000000
17.011505 -1.260696 0.000000
17.326248 -1.260696 0.000000
17.640987 -1.260696 0.000000
17.955730 -1.260696 0.000000
18.270470 -1.260696 0.000000
18.585213 -1.260696 0.000000
18.899952 -1.260696 0.000000
-7.223550 -1.575439 0.000000
-6.908809 -1.575439 0.000000
-6.594068 -1.575439 0.000000
-6.279327 -1.575439 0.000000
-5.964586 -1.575439 0.000000
-5.649845 -1.575439 0.000000
-5.335104 -1.575439 0.000000
-5.020363 -1.575439 0.000000
-4.705622 -1.575439 0.000000
-4.390881 -1.575439 0.000000
-4.076140 -1.575439 0.000000
-3.761399 -1.575439 0.000000
-3.446658 -1.575439 0.000000
-3.131917 -1.575439 0.000000
-2.817176 -1.575439 0.000000
-2.502435 -1.575439 0.000000
-2.187694 -1.575439 0.000000
-1.872953 -1.575439 0.000000
-1.558212 -1.575439 0.000000
-1.243471 -1.575439 0.000000
-0.928730 -1.575439 0.000000
-0.613989 -1.575439 0.000000
-0.299248 -1.575439 0.000000
0.015493 -1.575439 0.000000
0.330234 -1.575439 0.000000
0.644975 -1.575439 0.000000
0.959716 -1.575439 0.000000
1.274457 -1.575439 0.000000
1.589198 -1.575439 0.000000
1.903938 -1.575439 0.000000
2.218679 -1.575439 0.000000
2.533421 -1.575439 0.000000
2.848162 -1.575439 0.000000
3.162903 -1.575439 0.000000
3.477644 -1.575439 0.000000
3.792385 -1.575439 0.000000
4.107125 -1.575439 0.000000
4.421866 -1.575439 0.000000
4.736608 -1.575439 0.000000
5.051349 -1.575439 0.000000
5.366090 -1.575439 0.000000
5.680831 -1.575439 0.000000
5.995571 -1.575439 0.000000
6.310312 -1.575439 0.000000
6.625053 -1.575439 0.000000
6.939795 -1.575439 0.000000
7.254536 -1.575439 0.000000
7.569277 -1.575439 0.000000
7.884017 -1.575439 0.000000
8.198758 -1.575439 0.000000
8.513499 -1.575439 0.000000
8.828240 -1.575439 0.000000
9.142982 -1.575439 0.000000
9.457723 -1.575439 0.000000
9.772464 -1.575439 0.000000
10.087205 -1.575439 0.000000
10.401946 -1.575439 0.000000
10.716687 -1.575439 0.000000
11.031426 -1.575439 0.000000
11.346168 -1.575439 0.000000
11.660909 -1.575439 0.000000
11.975650 -1.575439 0.000000
12.290391 -1.575439 0.000000
12.605132 -1.575439 0.000000
12.919873 -1.575439 0.000000
13.234614 -1.575439 0.000000
13.549356 -1.575439 0.000000
13.864097 -1.575439 0.000000
14.178838 -1.575439 0.000000
14.493579 -1.575439 0.000000
14.808320 -1.575439 0.000000
15.123059 -1.575439 0.000000
15.437800 -1.575439 0.000000
15.752542 -1.575439 0.000000
16.067284 -1.575439 0.000000
16.382023 -1.575439 0.000000
16.696766 -1.575439 0.000000
17.011505 -1.575439 0.000000
17.326248 -1.575439 0.000000
17.640987 -1.575439 0.000000
17.955730 -1.575439 0.000000
18.270470 -1.575439 0.000000
18.585213 -1.575439 0.000000
18.899952 -1.575439 0.000000
