TITLE = "B00012"
VARIABLES = "x", "y", "Reynold stress XX"
ZONE T="Frame 1" I=84, J=163, F=POINT
-7.223550 49.412601 0.000000
-6.908809 49.412601 0.000000
-6.594068 49.412601 0.000000
-6.279327 49.412601 0.000000
-5.964586 49.412601 0.000000
-5.649845 49.412601 0.000000
-5.335104 49.412601 0.000000
-5.020363 49.412601 0.000000
-4.705622 49.412601 0.000000
-4.390881 49.412601 0.000000
-4.076140 49.412601 0.000000
-3.761399 49.412601 0.000000
-3.446658 49.412601 0.000000
-3.131917 49.412601 0.000000
-2.817176 49.412601 0.000000
-2.502435 49.412601 0.000000
-2.187694 49.412601 0.000000
-1.872953 49.412601 0.000000
-1.558212 49.412601 0.000000
-1.243471 49.412601 0.000000
-0.928730 49.412601 0.000000
-0.613989 49.412601 0.000000
-0.299248 49.412601 0.000000
0.015493 49.412601 0.000000
0.330234 49.412601 0.000000
0.644975 49.412601 0.000000
0.959716 49.412601 0.000000
1.274457 49.412601 0.000000
1.589198 49.412601 0.000000
1.903938 49.412601 0.000000
2.218679 49.412601 0.000000
2.533421 49.412601 0.000000
2.848162 49.412601 0.000000
3.162903 49.412601 0.000000
3.477644 49.412601 0.000000
3.792385 49.412601 0.000000
4.107125 49.412601 0.000000
4.421866 49.412601 0.000000
4.736608 49.412601 0.000000
5.051349 49.412601 0.000000
5.366090 49.412601 0.000000
5.680831 49.412601 0.000000
5.995571 49.412601 0.000000
6.310312 49.412601 0.000000
6.625053 49.412601 0.000000
6.939795 49.412601 0.000000
7.254536 49.412601 0.000000
7.569277 49.412601 0.000000
7.884017 49.412601 0.000000
8.198758 49.412601 0.000000
8.513499 49.412601 0.000000
8.828240 49.412601 0.000000
9.142982 49.412601 0.000000
9.457723 49.412601 0.000000
9.772464 49.412601 0.000000
10.087205 49.412601 0.000000
10.401946 49.412601 0.000000
10.716687 49.412601 0.000000
11.031426 49.412601 0.000000
11.346168 49.412601 0.000000
11.660909 49.412601 0.000000
11.975650 49.412601 0.000000
12.290391 49.412601 0.000000
12.605132 49.412601 0.000000
12.919873 49.412601 0.000000
13.234614 49.412601 0.000000
13.549356 49.412601 0.000000
13.864097 49.412601 0.000000
14.178838 49.412601 0.000000
14.493579 49.412601 0.000000
14.808320 49.412601 0.000000
15.123059 49.412601 0.000000
15.437800 49.412601 0.000000
15.752542 49.412601 0.000000
16.067284 49.412601 0.000000
16.382023 49.412601 0.000000
16.696766 49.412601 0.000000
17.011505 49.412601 0.000000
17.326248 49.412601 0.000000
17.640987 49.412601 0.000000
17.955730 49.412601 0.000000
18.270470 49.412601 0.000000
18.585213 49.412601 0.000000
18.899952 49.412601 0.000000
-7.223550 49.097862 0.000000
-6.908809 49.097862 0.000000
-6.594068 49.097862 0.000000
-6.279327 49.097862 0.000000
-5.964586 49.097862 0.000000
-5.649845 49.097862 0.000000
-5.335104 49.097862 0.000000
-5.020363 49.097862 0.000000
-4.705622 49.097862 0.000000
-4.390881 49.097862 0.000000
-4.076140 49.097862 0.000000
-3.761399 49.097862 0.000000
-3.446658 49.097862 0.000000
-3.131917 49.097862 0.000000
-2.817176 49.097862 0.000000
-2.502435 49.097862 0.000000
-2.187694 49.097862 0.000000
-1.872953 49.097862 0.000000
-1.558212 49.097862 0.000000
-1.243471 49.097862 0.000000
-0.928730 49.097862 0.000000
-0.613989 49.097862 0.000000
-0.299248 49.097862 0.000000
0.015493 49.097862 0.000000
0.330234 49.097862 0.000000
0.644975 49.097862 0.000000
0.959716 49.097862 0.000000
1.274457 49.097862 0.000000
1.589198 49.097862 0.000000
1.903938 49.097862 0.000000
2.218679 49.097862 0.000000
2.533421 49.097862 0.000000
2.848162 49.097862 0.000000
3.162903 49.097862 0.000000
3.477644 49.097862 0.000000
3.792385 49.097862 0.000000
4.107125 49.097862 0.000000
4.421866 49.097862 0.000000
4.736608 49.097862 0.000000
5.051349 49.097862 0.000000
5.366090 49.097862 0.000000
5.680831 49.097862 0.000000
5.995571 49.097862 0.000000
6.310312 49.097862 0.000000
6.625053 49.097862 0.000000
6.939795 49.097862 0.000000
7.254536 49.097862 0.000000
7.569277 49.097862 0.000000
7.884017 49.097862 0.000000
8.198758 49.097862 0.000000
8.513499 49.097862 0.000000
8.828240 49.097862 0.000000
9.142982 49.097862 0.000000
9.457723 49.097862 0.000000
9.772464 49.097862 0.000000
10.087205 49.097862 0.000000
10.401946 49.097862 0.000000
10.716687 49.097862 0.000000
11.031426 49.097862 0.000000
11.346168 49.097862 0.000000
11.660909 49.097862 0.000000
11.975650 49.097862 0.000000
12.290391 49.097862 0.000000
12.605132 49.097862 0.000000
12.919873 49.097862 0.000000
13.234614 49.097862 0.000000
13.549356 49.097862 0.000000
13.864097 49.097862 0.000000
14.178838 49.097862 0.000000
14.493579 49.097862 0.000000
14.808320 49.097862 0.000000
15.123059 49.097862 0.000000
15.437800 49.097862 0.000000
15.752542 49.097862 1.336019
16.067284 49.097862 2.437988
16.382023 49.097862 0.000000
16.696766 49.097862 0.000000
17.011505 49.097862 0.932940
17.326248 49.097862 4.603766
17.640987 49.097862 8.281313
17.955730 49.097862 23.490269
18.270470 49.097862 14.027368
18.585213 49.097862 3.367904
18.899952 49.097862 0.000000
-7.223550 48.783119 0.000000
-6.908809 48.783119 0.000000
-6.594068 48.783119 0.000000
-6.279327 48.783119 0.000000
-5.964586 48.783119 0.000000
-5.649845 48.783119 0.000000
-5.335104 48.783119 0.000000
-5.020363 48.783119 0.000000
-4.705622 48.783119 0.000000
-4.390881 48.783119 0.000000
-4.076140 48.783119 0.000000
-3.761399 48.783119 0.000000
-3.446658 48.783119 0.000000
-3.131917 48.783119 0.000000
-2.817176 48.783119 0.000000
-2.502435 48.783119 0.000000
-2.187694 48.783119 0.000000
-1.872953 48.783119 0.000000
-1.558212 48.783119 0.000000
-1.243471 48.783119 0.000000
-0.928730 48.783119 0.000000
-0.613989 48.783119 0.000000
-0.299248 48.783119 0.000000
0.015493 48.783119 0.000000
0.330234 48.783119 0.000000
0.644975 48.783119 0.000000
0.959716 48.783119 0.000000
1.274457 48.783119 0.000000
1.589198 48.783119 0.000000
1.903938 48.783119 0.000000
2.218679 48.783119 0.000000
2.533421 48.783119 0.000000
2.848162 48.783119 0.000000
3.162903 48.783119 0.000000
3.477644 48.783119 0.000000
3.792385 48.783119 0.000000
4.107125 48.783119 0.000000
4.421866 48.783119 0.000000
4.736608 48.783119 0.000000
5.051349 48.783119 0.000000
5.366090 48.783119 0.000000
5.680831 48.783119 0.000000
5.995571 48.783119 0.000000
6.310312 48.783119 0.000000
6.625053 48.783119 0.000000
6.939795 48.783119 0.000000
7.254536 48.783119 0.000000
7.569277 48.783119 0.000000
7.884017 48.783119 0.000000
8.198758 48.783119 0.000000
8.513499 48.783119 0.000000
8.828240 48.783119 0.057240
9.142982 48.783119 0.067874
9.457723 48.783119 0.345320
9.772464 48.783119 2.861019
10.087205 48.783119 2.338260
10.401946 48.783119 1.965365
10.716687 48.783119 1.049292
11.031426 48.783119 2.086310
11.346168 48.783119 2.140704
11.660909 48.783119 2.048040
11.975650 48.783119 1.949295
12.290391 48.783119 1.628729
12.605132 48.783119 1.775904
12.919873 48.783119 1.629597
13.234614 48.783119 1.639894
13.549356 48.783119 1.741099
13.864097 48.783119 1.733818
14.178838 48.783119 1.437066
14.493579 48.783119 1.307298
14.808320 48.783119 1.305542
15.123059 48.783119 1.351966
15.437800 48.783119 1.189463
15.752542 48.783119 1.165706
16.067284 48.783119 1.175673
16.382023 48.783119 1.160067
16.696766 48.783119 0.994193
17.011505 48.783119 1.049747
17.326248 48.783119 1.178834
17.640987 48.783119 1.425247
17.955730 48.783119 1.672207
18.270470 48.783119 1.687520
18.585213 48.783119 1.831632
18.899952 48.783119 0.637138
-7.223550 48.468380 0.000000
-6.908809 48.468380 0.000000
-6.594068 48.468380 0.007584
-6.279327 48.468380 0.007234
-5.964586 48.468380 0.008521
-5.649845 48.468380 0.008408
-5.335104 48.468380 0.008547
-5.020363 48.468380 0.008812
-4.705622 48.468380 0.009071
-4.390881 48.468380 0.009186
-4.076140 48.468380 0.008932
-3.761399 48.468380 0.008737
-3.446658 48.468380 0.008900
-3.131917 48.468380 0.009016
-2.817176 48.468380 0.009170
-2.502435 48.468380 0.009150
-2.187694 48.468380 0.009379
-1.872953 48.468380 0.009492
-1.558212 48.468380 0.009460
-1.243471 48.468380 0.009477
-0.928730 48.468380 0.009832
-0.613989 48.468380 0.010346
-0.299248 48.468380 0.010523
0.015493 48.468380 0.010479
0.330234 48.468380 0.010674
0.644975 48.468380 0.011017
0.959716 48.468380 0.011302
1.274457 48.468380 0.011737
1.589198 48.468380 0.012105
1.903938 48.468380 0.012725
2.218679 48.468380 0.013279
2.533421 48.468380 0.013930
2.848162 48.468380 0.014723
3.162903 48.468380 0.015644
3.477644 48.468380 0.016751
3.792385 48.468380 0.018029
4.107125 48.468380 0.019519
4.421866 48.468380 0.021252
4.736608 48.468380 0.023316
5.051349 48.468380 0.025876
5.366090 48.468380 0.029202
5.680831 48.468380 0.032761
5.995571 48.468380 0.037820
6.310312 48.468380 0.043778
6.625053 48.468380 0.051362
6.939795 48.468380 0.062807
7.254536 48.468380 0.080141
7.569277 48.468380 0.107475
7.884017 48.468380 0.149309
8.198758 48.468380 0.208630
8.513499 48.468380 0.285037
8.828240 48.468380 0.375719
9.142982 48.468380 0.473275
9.457723 48.468380 0.561921
9.772464 48.468380 0.654523
10.087205 48.468380 0.729570
10.401946 48.468380 0.840112
10.716687 48.468380 0.939352
11.031426 48.468380 1.055728
11.346168 48.468380 1.147354
11.660909 48.468380 1.252198
11.975650 48.468380 1.336676
12.290391 48.468380 1.385929
12.605132 48.468380 1.469052
12.919873 48.468380 1.565968
13.234614 48.468380 1.607622
13.549356 48.468380 1.663968
13.864097 48.468380 1.678806
14.178838 48.468380 1.668111
14.493579 48.468380 1.661454
14.808320 48.468380 1.655830
15.123059 48.468380 1.631730
15.437800 48.468380 1.587251
15.752542 48.468380 1.551461
16.067284 48.468380 1.483108
16.382023 48.468380 1.380326
16.696766 48.468380 1.295342
17.011505 48.468380 1.311866
17.326248 48.468380 1.424535
17.640987 48.468380 1.525654
17.955730 48.468380 1.617615
18.270470 48.468380 1.743439
18.585213 48.468380 1.652536
18.899952 48.468380 0.487637
-7.223550 48.153637 0.000000
-6.908809 48.153637 0.000000
-6.594068 48.153637 0.006873
-6.279327 48.153637 0.007584
-5.964586 48.153637 0.007227
-5.649845 48.153637 0.007075
-5.335104 48.153637 0.006917
-5.020363 48.153637 0.006997
-4.705622 48.153637 0.007188
-4.390881 48.153637 0.007285
-4.076140 48.153637 0.007181
-3.761399 48.153637 0.007085
-3.446658 48.153637 0.007176
-3.131917 48.153637 0.007309
-2.817176 48.153637 0.007393
-2.502435 48.153637 0.007422
-2.187694 48.153637 0.007596
-1.872953 48.153637 0.007674
-1.558212 48.153637 0.007609
-1.243471 48.153637 0.007664
-0.928730 48.153637 0.008013
-0.613989 48.153637 0.008371
-0.299248 48.153637 0.008709
0.015493 48.153637 0.008866
0.330234 48.153637 0.009146
0.644975 48.153637 0.009464
0.959716 48.153637 0.009761
1.274457 48.153637 0.010247
1.589198 48.153637 0.010671
1.903938 48.153637 0.011215
2.218679 48.153637 0.011774
2.533421 48.153637 0.012363
2.848162 48.153637 0.013157
3.162903 48.153637 0.014087
3.477644 48.153637 0.015120
3.792385 48.153637 0.016438
4.107125 48.153637 0.017916
4.421866 48.153637 0.019539
4.736608 48.153637 0.021584
5.051349 48.153637 0.024092
5.366090 48.153637 0.027291
5.680831 48.153637 0.031159
5.995571 48.153637 0.036001
6.310312 48.153637 0.042597
6.625053 48.153637 0.050378
6.939795 48.153637 0.061074
7.254536 48.153637 0.075064
7.569277 48.153637 0.095875
7.884017 48.153637 0.121066
8.198758 48.153637 0.156398
8.513499 48.153637 0.198153
8.828240 48.153637 0.253211
9.142982 48.153637 0.321403
9.457723 48.153637 0.398248
9.772464 48.153637 0.495533
10.087205 48.153637 0.593163
10.401946 48.153637 0.704217
10.716687 48.153637 0.821077
11.031426 48.153637 0.931861
11.346168 48.153637 1.033576
11.660909 48.153637 1.133731
11.975650 48.153637 1.234805
12.290391 48.153637 1.303812
12.605132 48.153637 1.367258
12.919873 48.153637 1.447192
13.234614 48.153637 1.489788
13.549356 48.153637 1.522535
13.864097 48.153637 1.548973
14.178838 48.153637 1.515839
14.493579 48.153637 1.522515
14.808320 48.153637 1.515131
15.123059 48.153637 1.494449
15.437800 48.153637 1.454588
15.752542 48.153637 1.419587
16.067284 48.153637 1.354135
16.382023 48.153637 1.248989
16.696766 48.153637 1.171608
17.011505 48.153637 1.207448
17.326248 48.153637 1.290398
17.640987 48.153637 1.377068
17.955730 48.153637 1.515761
18.270470 48.153637 1.646886
18.585213 48.153637 1.774364
18.899952 48.153637 0.448976
-7.223550 47.838898 0.000000
-6.908809 47.838898 0.000000
-6.594068 47.838898 0.007926
-6.279327 47.838898 0.006606
-5.964586 47.838898 0.006245
-5.649845 47.838898 0.006165
-5.335104 47.838898 0.006104
-5.020363 47.838898 0.006141
-4.705622 47.838898 0.006221
-4.390881 47.838898 0.006296
-4.076140 47.838898 0.006259
-3.761399 47.838898 0.006185
-3.446658 47.838898 0.006236
-3.131917 47.838898 0.006418
-2.817176 47.838898 0.006458
-2.502435 47.838898 0.006492
-2.187694 47.838898 0.006660
-1.872953 47.838898 0.006695
-1.558212 47.838898 0.006608
-1.243471 47.838898 0.006680
-0.928730 47.838898 0.006912
-0.613989 47.838898 0.007156
-0.299248 47.838898 0.007474
0.015493 47.838898 0.007700
0.330234 47.838898 0.007935
0.644975 47.838898 0.008161
0.959716 47.838898 0.008498
1.274457 47.838898 0.008966
1.589198 47.838898 0.009424
1.903938 47.838898 0.009918
2.218679 47.838898 0.010435
2.533421 47.838898 0.011042
2.848162 47.838898 0.011823
3.162903 47.838898 0.012709
3.477644 47.838898 0.013718
3.792385 47.838898 0.015126
4.107125 47.838898 0.016588
4.421866 47.838898 0.018132
4.736608 47.838898 0.020075
5.051349 47.838898 0.022502
5.366090 47.838898 0.025476
5.680831 47.838898 0.029045
5.995571 47.838898 0.034005
6.310312 47.838898 0.040265
6.625053 47.838898 0.048153
6.939795 47.838898 0.059103
7.254536 47.838898 0.072227
7.569277 47.838898 0.090261
7.884017 47.838898 0.113903
8.198758 47.838898 0.143604
8.513499 47.838898 0.184953
8.828240 47.838898 0.235016
9.142982 47.838898 0.294190
9.457723 47.838898 0.367675
9.772464 47.838898 0.459345
10.087205 47.838898 0.551780
10.401946 47.838898 0.642538
10.716687 47.838898 0.750576
11.031426 47.838898 0.862724
11.346168 47.838898 0.965799
11.660909 47.838898 1.045416
11.975650 47.838898 1.139211
12.290391 47.838898 1.214081
12.605132 47.838898 1.279793
12.919873 47.838898 1.350978
13.234614 47.838898 1.386908
13.549356 47.838898 1.405006
13.864097 47.838898 1.426591
14.178838 47.838898 1.414720
14.493579 47.838898 1.419777
14.808320 47.838898 1.409774
15.123059 47.838898 1.399604
15.437800 47.838898 1.365428
15.752542 47.838898 1.313271
16.067284 47.838898 1.250390
16.382023 47.838898 1.152041
16.696766 47.838898 1.080408
17.011505 47.838898 1.117682
17.326248 47.838898 1.214328
17.640987 47.838898 1.292189
17.955730 47.838898 1.396676
18.270470 47.838898 1.546384
18.585213 47.838898 1.713235
18.899952 47.838898 0.453842
-7.223550 47.524155 0.000000
-6.908809 47.524155 0.000000
-6.594068 47.524155 0.007301
-6.279327 47.524155 0.006012
-5.964586 47.524155 0.005819
-5.649845 47.524155 0.005800
-5.335104 47.524155 0.005815
-5.020363 47.524155 0.005874
-4.705622 47.524155 0.005892
-4.390881 47.524155 0.005927
-4.076140 47.524155 0.005888
-3.761399 47.524155 0.005782
-3.446658 47.524155 0.005823
-3.131917 47.524155 0.006047
-2.817176 47.524155 0.006116
-2.502435 47.524155 0.006157
-2.187694 47.524155 0.006300
-1.872953 47.524155 0.006337
-1.558212 47.524155 0.006272
-1.243471 47.524155 0.006355
-0.928730 47.524155 0.006514
-0.613989 47.524155 0.006630
-0.299248 47.524155 0.006943
0.015493 47.524155 0.007176
0.330234 47.524155 0.007375
0.644975 47.524155 0.007604
0.959716 47.524155 0.007961
1.274457 47.524155 0.008437
1.589198 47.524155 0.008882
1.903938 47.524155 0.009337
2.218679 47.524155 0.009863
2.533421 47.524155 0.010463
2.848162 47.524155 0.011242
3.162903 47.524155 0.012054
3.477644 47.524155 0.013122
3.792385 47.524155 0.014521
4.107125 47.524155 0.015989
4.421866 47.524155 0.017555
4.736608 47.524155 0.019422
5.051349 47.524155 0.021791
5.366090 47.524155 0.024683
5.680831 47.524155 0.028321
5.995571 47.524155 0.033371
6.310312 47.524155 0.039322
6.625053 47.524155 0.047521
6.939795 47.524155 0.057672
7.254536 47.524155 0.071182
7.569277 47.524155 0.088476
7.884017 47.524155 0.110227
8.198758 47.524155 0.140131
8.513499 47.524155 0.179142
8.828240 47.524155 0.228222
9.142982 47.524155 0.283390
9.457723 47.524155 0.357965
9.772464 47.524155 0.443607
10.087205 47.524155 0.526132
10.401946 47.524155 0.616194
10.716687 47.524155 0.719341
11.031426 47.524155 0.819831
11.346168 47.524155 0.920170
11.660909 47.524155 1.023670
11.975650 47.524155 1.104899
12.290391 47.524155 1.166789
12.605132 47.524155 1.237684
12.919873 47.524155 1.306925
13.234614 47.524155 1.342640
13.549356 47.524155 1.364170
13.864097 47.524155 1.378016
14.178838 47.524155 1.366340
14.493579 47.524155 1.376059
14.808320 47.524155 1.366551
15.123059 47.524155 1.350747
15.437800 47.524155 1.316638
15.752542 47.524155 1.278290
16.067284 47.524155 1.205314
16.382023 47.524155 1.113100
16.696766 47.524155 1.036525
17.011505 47.524155 1.084180
17.326248 47.524155 1.184598
17.640987 47.524155 1.265280
17.955730 47.524155 1.349936
18.270470 47.524155 1.469409
18.585213 47.524155 1.631811
18.899952 47.524155 0.407396
-7.223550 47.209415 0.000000
-6.908809 47.209415 0.000000
-6.594068 47.209415 0.007016
-6.279327 47.209415 0.005761
-5.964586 47.209415 0.005665
-5.649845 47.209415 0.005662
-5.335104 47.209415 0.005686
-5.020363 47.209415 0.005801
-4.705622 47.209415 0.005803
-4.390881 47.209415 0.005770
-4.076140 47.209415 0.005711
-3.761399 47.209415 0.005585
-3.446658 47.209415 0.005604
-3.131917 47.209415 0.005834
-2.817176 47.209415 0.005963
-2.502435 47.209415 0.006025
-2.187694 47.209415 0.006175
-1.872953 47.209415 0.006210
-1.558212 47.209415 0.006179
-1.243471 47.209415 0.006281
-0.928730 47.209415 0.006385
-0.613989 47.209415 0.006465
-0.299248 47.209415 0.006693
0.015493 47.209415 0.006879
0.330234 47.209415 0.007106
0.644975 47.209415 0.007402
0.959716 47.209415 0.007804
1.274457 47.209415 0.008230
1.589198 47.209415 0.008637
1.903938 47.209415 0.009077
2.218679 47.209415 0.009640
2.533421 47.209415 0.010276
2.848162 47.209415 0.011012
3.162903 47.209415 0.011876
3.477644 47.209415 0.012885
3.792385 47.209415 0.014252
4.107125 47.209415 0.015724
4.421866 47.209415 0.017368
4.736608 47.209415 0.019248
5.051349 47.209415 0.021645
5.366090 47.209415 0.024506
5.680831 47.209415 0.028182
5.995571 47.209415 0.033207
6.310312 47.209415 0.039261
6.625053 47.209415 0.047278
6.939795 47.209415 0.057474
7.254536 47.209415 0.071613
7.569277 47.209415 0.088696
7.884017 47.209415 0.109905
8.198758 47.209415 0.139421
8.513499 47.209415 0.179128
8.828240 47.209415 0.224391
9.142982 47.209415 0.281892
9.457723 47.209415 0.350104
9.772464 47.209415 0.435605
10.087205 47.209415 0.521124
10.401946 47.209415 0.609982
10.716687 47.209415 0.711429
11.031426 47.209415 0.812900
11.346168 47.209415 0.920505
11.660909 47.209415 1.012946
11.975650 47.209415 1.090164
12.290391 47.209415 1.170118
12.605132 47.209415 1.236102
12.919873 47.209415 1.292316
13.234614 47.209415 1.343277
13.549356 47.209415 1.361375
13.864097 47.209415 1.368869
14.178838 47.209415 1.350060
14.493579 47.209415 1.356614
14.808320 47.209415 1.356094
15.123059 47.209415 1.345760
15.437800 47.209415 1.305377
15.752542 47.209415 1.266292
16.067284 47.209415 1.203108
16.382023 47.209415 1.102204
16.696766 47.209415 1.035598
17.011505 47.209415 1.083266
17.326248 47.209415 1.190910
17.640987 47.209415 1.278542
17.955730 47.209415 1.324834
18.270470 47.209415 1.406883
18.585213 47.209415 1.563257
18.899952 47.209415 0.381439
-7.223550 46.894672 0.000000
-6.908809 46.894672 0.000000
-6.594068 46.894672 0.006986
-6.279327 46.894672 0.005667
-5.964586 46.894672 0.005582
-5.649845 46.894672 0.005600
-5.335104 46.894672 0.005633
-5.020363 46.894672 0.005761
-4.705622 46.894672 0.005777
-4.390881 46.894672 0.005670
-4.076140 46.894672 0.005584
-3.761399 46.894672 0.005454
-3.446658 46.894672 0.005451
-3.131917 46.894672 0.005676
-2.817176 46.894672 0.005848
-2.502435 46.894672 0.005925
-2.187694 46.894672 0.006044
-1.872953 46.894672 0.006093
-1.558212 46.894672 0.006139
-1.243471 46.894672 0.006246
-0.928730 46.894672 0.006301
-0.613989 46.894672 0.006332
-0.299248 46.894672 0.006510
0.015493 46.894672 0.006675
0.330234 46.894672 0.006958
0.644975 46.894672 0.007293
0.959716 46.894672 0.007682
1.274457 46.894672 0.008062
1.589198 46.894672 0.008404
1.903938 46.894672 0.008905
2.218679 46.894672 0.009480
2.533421 46.894672 0.010137
2.848162 46.894672 0.010880
3.162903 46.894672 0.011842
3.477644 46.894672 0.012797
3.792385 46.894672 0.014076
4.107125 46.894672 0.015539
4.421866 46.894672 0.017184
4.736608 46.894672 0.019145
5.051349 46.894672 0.021530
5.366090 46.894672 0.024374
5.680831 46.894672 0.028104
5.995571 46.894672 0.032826
6.310312 46.894672 0.038874
6.625053 46.894672 0.046513
6.939795 46.894672 0.057218
7.254536 46.894672 0.070501
7.569277 46.894672 0.087877
7.884017 46.894672 0.111738
8.198758 46.894672 0.140195
8.513499 46.894672 0.179523
8.828240 46.894672 0.225609
9.142982 46.894672 0.285784
9.457723 46.894672 0.354236
9.772464 46.894672 0.437087
10.087205 46.894672 0.523271
10.401946 46.894672 0.618935
10.716687 46.894672 0.718934
11.031426 46.894672 0.829808
11.346168 46.894672 0.926517
11.660909 46.894672 1.026317
11.975650 46.894672 1.106768
12.290391 46.894672 1.181018
12.605132 46.894672 1.256664
12.919873 46.894672 1.305645
13.234614 46.894672 1.353873
13.549356 46.894672 1.368468
13.864097 46.894672 1.373443
14.178838 46.894672 1.356207
14.493579 46.894672 1.356516
14.808320 46.894672 1.353623
15.123059 46.894672 1.339154
15.437800 46.894672 1.307897
15.752542 46.894672 1.266145
16.067284 46.894672 1.206179
16.382023 46.894672 1.102781
16.696766 46.894672 1.036020
17.011505 46.894672 1.089320
17.326248 46.894672 1.198694
17.640987 46.894672 1.266623
17.955730 46.894672 1.294102
18.270470 46.894672 1.362963
18.585213 46.894672 1.498026
18.899952 46.894672 0.358459
-7.223550 46.579933 0.000000
-6.908809 46.579933 0.000000
-6.594068 46.579933 0.006871
-6.279327 46.579933 0.005583
-5.964586 46.579933 0.005505
-5.649845 46.579933 0.005569
-5.335104 46.579933 0.005588
-5.020363 46.579933 0.005687
-4.705622 46.579933 0.005714
-4.390881 46.579933 0.005567
-4.076140 46.579933 0.005454
-3.761399 46.579933 0.005367
-3.446658 46.579933 0.005362
-3.131917 46.579933 0.005514
-2.817176 46.579933 0.005682
-2.502435 46.579933 0.005738
-2.187694 46.579933 0.005857
-1.872953 46.579933 0.005952
-1.558212 46.579933 0.006092
-1.243471 46.579933 0.006187
-0.928730 46.579933 0.006220
-0.613989 46.579933 0.006233
-0.299248 46.579933 0.006366
0.015493 46.579933 0.006524
0.330234 46.579933 0.006812
0.644975 46.579933 0.007195
0.959716 46.579933 0.007545
1.274457 46.579933 0.007900
1.589198 46.579933 0.008206
1.903938 46.579933 0.008744
2.218679 46.579933 0.009335
2.533421 46.579933 0.010046
2.848162 46.579933 0.010858
3.162903 46.579933 0.011808
3.477644 46.579933 0.012678
3.792385 46.579933 0.013910
4.107125 46.579933 0.015386
4.421866 46.579933 0.017030
4.736608 46.579933 0.019066
5.051349 46.579933 0.021409
5.366090 46.579933 0.024210
5.680831 46.579933 0.027861
5.995571 46.579933 0.032476
6.310312 46.579933 0.038702
6.625053 46.579933 0.045966
6.939795 46.579933 0.056952
7.254536 46.579933 0.070123
7.569277 46.579933 0.088876
7.884017 46.579933 0.111387
8.198758 46.579933 0.141691
8.513499 46.579933 0.178262
8.828240 46.579933 0.227807
9.142982 46.579933 0.284603
9.457723 46.579933 0.355416
9.772464 46.579933 0.436869
10.087205 46.579933 0.525691
10.401946 46.579933 0.621757
10.716687 46.579933 0.723518
11.031426 46.579933 0.833814
11.346168 46.579933 0.938816
11.660909 46.579933 1.030039
11.975650 46.579933 1.102252
12.290391 46.579933 1.188243
12.605132 46.579933 1.255183
12.919873 46.579933 1.306141
13.234614 46.579933 1.353108
13.549356 46.579933 1.380835
13.864097 46.579933 1.385965
14.178838 46.579933 1.365905
14.493579 46.579933 1.361464
14.808320 46.579933 1.364057
15.123059 46.579933 1.347268
15.437800 46.579933 1.308627
15.752542 46.579933 1.278020
16.067284 46.579933 1.211413
16.382023 46.579933 1.104965
16.696766 46.579933 1.054705
17.011505 46.579933 1.115282
17.326248 46.579933 1.224176
17.640987 46.579933 1.284059
17.955730 46.579933 1.287360
18.270470 46.579933 1.353217
18.585213 46.579933 1.492047
18.899952 46.579933 0.341950
-7.223550 46.265190 0.000000
-6.908809 46.265190 0.000000
-6.594068 46.265190 0.006800
-6.279327 46.265190 0.005529
-5.964586 46.265190 0.005434
-5.649845 46.265190 0.005522
-5.335104 46.265190 0.005515
-5.020363 46.265190 0.005557
-4.705622 46.265190 0.005590
-4.390881 46.265190 0.005468
-4.076140 46.265190 0.005351
-3.761399 46.265190 0.005312
-3.446658 46.265190 0.005341
-3.131917 46.265190 0.005395
-2.817176 46.265190 0.005497
-2.502435 46.265190 0.005538
-2.187694 46.265190 0.005693
-1.872953 46.265190 0.005812
-1.558212 46.265190 0.005997
-1.243471 46.265190 0.006101
-0.928730 46.265190 0.006121
-0.613989 46.265190 0.006143
-0.299248 46.265190 0.006296
0.015493 46.265190 0.006452
0.330234 46.265190 0.006757
0.644975 46.265190 0.007115
0.959716 46.265190 0.007454
1.274457 46.265190 0.007740
1.589198 46.265190 0.008091
1.903938 46.265190 0.008578
2.218679 46.265190 0.009220
2.533421 46.265190 0.009988
2.848162 46.265190 0.010798
3.162903 46.265190 0.011688
3.477644 46.265190 0.012575
3.792385 46.265190 0.013720
4.107125 46.265190 0.015180
4.421866 46.265190 0.016861
4.736608 46.265190 0.018917
5.051349 46.265190 0.021200
5.366090 46.265190 0.024012
5.680831 46.265190 0.027464
5.995571 46.265190 0.032229
6.310312 46.265190 0.038571
6.625053 46.265190 0.046495
6.939795 46.265190 0.057103
7.254536 46.265190 0.070551
7.569277 46.265190 0.088035
7.884017 46.265190 0.112016
8.198758 46.265190 0.139526
8.513499 46.265190 0.175932
8.828240 46.265190 0.224201
9.142982 46.265190 0.286494
9.457723 46.265190 0.357241
9.772464 46.265190 0.436861
10.087205 46.265190 0.527900
10.401946 46.265190 0.626706
10.716687 46.265190 0.722813
11.031426 46.265190 0.832070
11.346168 46.265190 0.946279
11.660909 46.265190 1.033988
11.975650 46.265190 1.111781
12.290391 46.265190 1.177089
12.605132 46.265190 1.249353
12.919873 46.265190 1.306176
13.234614 46.265190 1.353198
13.549356 46.265190 1.388174
13.864097 46.265190 1.394969
14.178838 46.265190 1.390168
14.493579 46.265190 1.378958
14.808320 46.265190 1.367099
15.123059 46.265190 1.349959
15.437800 46.265190 1.323673
15.752542 46.265190 1.285433
16.067284 46.265190 1.231873
16.382023 46.265190 1.131752
16.696766 46.265190 1.101335
17.011505 46.265190 1.178158
17.326248 46.265190 1.267806
17.640987 46.265190 1.302470
17.955730 46.265190 1.285976
18.270470 46.265190 1.343081
18.585213 46.265190 1.500779
18.899952 46.265190 0.317577
-7.223550 45.950451 0.000000
-6.908809 45.950451 0.000000
-6.594068 45.950451 0.006734
-6.279327 45.950451 0.005497
-5.964586 45.950451 0.005380
-5.649845 45.950451 0.005442
-5.335104 45.950451 0.005411
-5.020363 45.950451 0.005394
-4.705622 45.950451 0.005430
-4.390881 45.950451 0.005354
-4.076140 45.950451 0.005252
-3.761399 45.950451 0.005284
-3.446658 45.950451 0.005343
-3.131917 45.950451 0.005352
-2.817176 45.950451 0.005373
-2.502435 45.950451 0.005419
-2.187694 45.950451 0.005540
-1.872953 45.950451 0.005651
-1.558212 45.950451 0.005822
-1.243471 45.950451 0.005972
-0.928730 45.950451 0.006006
-0.613989 45.950451 0.006062
-0.299248 45.950451 0.006233
0.015493 45.950451 0.006428
0.330234 45.950451 0.006727
0.644975 45.950451 0.007048
0.959716 45.950451 0.007293
1.274457 45.950451 0.007629
1.589198 45.950451 0.007958
1.903938 45.950451 0.008427
2.218679 45.950451 0.009150
2.533421 45.950451 0.009860
2.848162 45.950451 0.010649
3.162903 45.950451 0.011507
3.477644 45.950451 0.012415
3.792385 45.950451 0.013579
4.107125 45.950451 0.014996
4.421866 45.950451 0.016521
4.736608 45.950451 0.018683
5.051349 45.950451 0.021131
5.366090 45.950451 0.023864
5.680831 45.950451 0.027432
5.995571 45.950451 0.031904
6.310312 45.950451 0.038179
6.625053 45.950451 0.046396
6.939795 45.950451 0.056978
7.254536 45.950451 0.070122
7.569277 45.950451 0.087963
7.884017 45.950451 0.110154
8.198758 45.950451 0.141091
8.513499 45.950451 0.175345
8.828240 45.950451 0.223105
9.142982 45.950451 0.288652
9.457723 45.950451 0.359330
9.772464 45.950451 0.439243
10.087205 45.950451 0.528247
10.401946 45.950451 0.628134
10.716687 45.950451 0.729078
11.031426 45.950451 0.837890
11.346168 45.950451 0.934503
11.660909 45.950451 1.024845
11.975650 45.950451 1.100185
12.290391 45.950451 1.169447
12.605132 45.950451 1.244900
12.919873 45.950451 1.310822
13.234614 45.950451 1.360573
13.549356 45.950451 1.391098
13.864097 45.950451 1.402798
14.178838 45.950451 1.401607
14.493579 45.950451 1.385266
14.808320 45.950451 1.366624
15.123059 45.950451 1.346650
15.437800 45.950451 1.327685
15.752542 45.950451 1.293697
16.067284 45.950451 1.255091
16.382023 45.950451 1.194095
16.696766 45.950451 1.177112
17.011505 45.950451 1.244983
17.326248 45.950451 1.342402
17.640987 45.950451 1.353225
17.955730 45.950451 1.325074
18.270470 45.950451 1.357820
18.585213 45.950451 1.505381
18.899952 45.950451 0.292145
-7.223550 45.635712 0.000000
-6.908809 45.635712 0.000000
-6.594068 45.635712 0.006740
-6.279327 45.635712 0.005487
-5.964586 45.635712 0.005344
-5.649845 45.635712 0.005357
-5.335104 45.635712 0.005309
-5.020363 45.635712 0.005260
-4.705622 45.635712 0.005262
-4.390881 45.635712 0.005219
-4.076140 45.635712 0.005171
-3.761399 45.635712 0.005235
-3.446658 45.635712 0.005334
-3.131917 45.635712 0.005320
-2.817176 45.635712 0.005317
-2.502435 45.635712 0.005337
-2.187694 45.635712 0.005407
-1.872953 45.635712 0.005495
-1.558212 45.635712 0.005647
-1.243471 45.635712 0.005835
-0.928730 45.635712 0.005899
-0.613989 45.635712 0.005984
-0.299248 45.635712 0.006185
0.015493 45.635712 0.006426
0.330234 45.635712 0.006715
0.644975 45.635712 0.006994
0.959716 45.635712 0.007192
1.274457 45.635712 0.007488
1.589198 45.635712 0.007854
1.903938 45.635712 0.008315
2.218679 45.635712 0.009020
2.533421 45.635712 0.009683
2.848162 45.635712 0.010453
3.162903 45.635712 0.011283
3.477644 45.635712 0.012178
3.792385 45.635712 0.013399
4.107125 45.635712 0.014806
4.421866 45.635712 0.016391
4.736608 45.635712 0.018467
5.051349 45.635712 0.020915
5.366090 45.635712 0.023776
5.680831 45.635712 0.027315
5.995571 45.635712 0.031890
6.310312 45.635712 0.038321
6.625053 45.635712 0.046431
6.939795 45.635712 0.056956
7.254536 45.635712 0.070619
7.569277 45.635712 0.088331
7.884017 45.635712 0.110322
8.198758 45.635712 0.139503
8.513499 45.635712 0.179579
8.828240 45.635712 0.229046
9.142982 45.635712 0.288708
9.457723 45.635712 0.360158
9.772464 45.635712 0.442405
10.087205 45.635712 0.527274
10.401946 45.635712 0.632342
10.716687 45.635712 0.736086
11.031426 45.635712 0.838794
11.346168 45.635712 0.916890
11.660909 45.635712 1.012832
11.975650 45.635712 1.095377
12.290391 45.635712 1.178378
12.605132 45.635712 1.257973
12.919873 45.635712 1.326180
13.234614 45.635712 1.366933
13.549356 45.635712 1.401586
13.864097 45.635712 1.402739
14.178838 45.635712 1.393381
14.493579 45.635712 1.396313
14.808320 45.635712 1.372723
15.123059 45.635712 1.349794
15.437800 45.635712 1.325437
15.752542 45.635712 1.285631
16.067284 45.635712 1.170084
16.382023 45.635712 1.179795
16.696766 45.635712 1.218349
17.011505 45.635712 1.298585
17.326248 45.635712 1.344829
17.640987 45.635712 1.369555
17.955730 45.635712 1.329365
18.270470 45.635712 1.366288
18.585213 45.635712 1.489963
18.899952 45.635712 0.259075
-7.223550 45.320969 0.000000
-6.908809 45.320969 0.000000
-6.594068 45.320969 0.006783
-6.279327 45.320969 0.005482
-5.964586 45.320969 0.005315
-5.649845 45.320969 0.005277
-5.335104 45.320969 0.005218
-5.020363 45.320969 0.005149
-4.705622 45.320969 0.005129
-4.390881 45.320969 0.005136
-4.076140 45.320969 0.005118
-3.761399 45.320969 0.005195
-3.446658 45.320969 0.005300
-3.131917 45.320969 0.005264
-2.817176 45.320969 0.005249
-2.502435 45.320969 0.005247
-2.187694 45.320969 0.005297
-1.872953 45.320969 0.005373
-1.558212 45.320969 0.005492
-1.243471 45.320969 0.005726
-0.928730 45.320969 0.005808
-0.613989 45.320969 0.005931
-0.299248 45.320969 0.006122
0.015493 45.320969 0.006388
0.330234 45.320969 0.006676
0.644975 45.320969 0.006924
0.959716 45.320969 0.007097
1.274457 45.320969 0.007379
1.589198 45.320969 0.007736
1.903938 45.320969 0.008213
2.218679 45.320969 0.008857
2.533421 45.320969 0.009506
2.848162 45.320969 0.010233
3.162903 45.320969 0.011050
3.477644 45.320969 0.011981
3.792385 45.320969 0.013259
4.107125 45.320969 0.014630
4.421866 45.320969 0.016245
4.736608 45.320969 0.018306
5.051349 45.320969 0.020793
5.366090 45.320969 0.023597
5.680831 45.320969 0.027210
5.995571 45.320969 0.031736
6.310312 45.320969 0.038328
6.625053 45.320969 0.046473
6.939795 45.320969 0.056159
7.254536 45.320969 0.070870
7.569277 45.320969 0.088351
7.884017 45.320969 0.111994
8.198758 45.320969 0.141691
8.513499 45.320969 0.177929
8.828240 45.320969 0.228705
9.142982 45.320969 0.287725
9.457723 45.320969 0.361037
9.772464 45.320969 0.449208
10.087205 45.320969 0.533998
10.401946 45.320969 0.626268
10.716687 45.320969 0.728593
11.031426 45.320969 0.830988
11.346168 45.320969 0.919082
11.660909 45.320969 1.012448
11.975650 45.320969 1.107433
12.290391 45.320969 1.197856
12.605132 45.320969 1.278147
12.919873 45.320969 1.336854
13.234614 45.320969 1.364755
13.549356 45.320969 1.405569
13.864097 45.320969 1.405659
14.178838 45.320969 1.417763
14.493579 45.320969 1.405802
14.808320 45.320969 1.378045
15.123059 45.320969 1.356339
15.437800 45.320969 1.328269
15.752542 45.320969 0.974311
16.067284 45.320969 2.155470
16.382023 45.320969 1.266266
16.696766 45.320969 1.874872
17.011505 45.320969 2.138821
17.326248 45.320969 2.220643
17.640987 45.320969 1.025336
17.955730 45.320969 1.326007
18.270470 45.320969 1.343372
18.585213 45.320969 1.455430
18.899952 45.320969 0.240050
-7.223550 45.006226 0.000000
-6.908809 45.006226 0.000000
-6.594068 45.006226 0.006861
-6.279327 45.006226 0.005441
-5.964586 45.006226 0.005268
-5.649845 45.006226 0.005202
-5.335104 45.006226 0.005140
-5.020363 45.006226 0.005078
-4.705622 45.006226 0.005074
-4.390881 45.006226 0.005114
-4.076140 45.006226 0.005116
-3.761399 45.006226 0.005138
-3.446658 45.006226 0.005226
-3.131917 45.006226 0.005208
-2.817176 45.006226 0.005183
-2.502435 45.006226 0.005190
-2.187694 45.006226 0.005255
-1.872953 45.006226 0.005275
-1.558212 45.006226 0.005401
-1.243471 45.006226 0.005659
-0.928730 45.006226 0.005732
-0.613989 45.006226 0.005844
-0.299248 45.006226 0.006041
0.015493 45.006226 0.006309
0.330234 45.006226 0.006584
0.644975 45.006226 0.006813
0.959716 45.006226 0.006973
1.274457 45.006226 0.007265
1.589198 45.006226 0.007626
1.903938 45.006226 0.008121
2.218679 45.006226 0.008699
2.533421 45.006226 0.009329
2.848162 45.006226 0.010027
3.162903 45.006226 0.010848
3.477644 45.006226 0.011862
3.792385 45.006226 0.013069
4.107125 45.006226 0.014470
4.421866 45.006226 0.016146
4.736608 45.006226 0.018092
5.051349 45.006226 0.020545
5.366090 45.006226 0.023500
5.680831 45.006226 0.027021
5.995571 45.006226 0.032017
6.310312 45.006226 0.038253
6.625053 45.006226 0.045956
6.939795 45.006226 0.056108
7.254536 45.006226 0.070738
7.569277 45.006226 0.088826
7.884017 45.006226 0.112118
8.198758 45.006226 0.141596
8.513499 45.006226 0.179750
8.828240 45.006226 0.227312
9.142982 45.006226 0.287349
9.457723 45.006226 0.358009
9.772464 45.006226 0.445625
10.087205 45.006226 0.534596
10.401946 45.006226 0.627468
10.716687 45.006226 0.729017
11.031426 45.006226 0.827907
11.346168 45.006226 0.921296
11.660909 45.006226 1.015106
11.975650 45.006226 1.097784
12.290391 45.006226 1.198786
12.605132 45.006226 1.277532
12.919873 45.006226 1.337178
13.234614 45.006226 1.377740
13.549356 45.006226 1.410955
13.864097 45.006226 1.420279
14.178838 45.006226 1.430823
14.493579 45.006226 1.418067
14.808320 45.006226 1.383163
15.123059 45.006226 1.359888
15.437800 45.006226 1.337318
15.752542 45.006226 0.971140
16.067284 45.006226 0.000000
16.382023 45.006226 0.000000
16.696766 45.006226 2.179811
17.011505 45.006226 2.260199
17.326248 45.006226 7.823307
17.640987 45.006226 1.010993
17.955730 45.006226 1.317213
18.270470 45.006226 1.314316
18.585213 45.006226 1.437660
18.899952 45.006226 0.219724
-7.223550 44.691486 0.000000
-6.908809 44.691486 0.000000
-6.594068 44.691486 0.006884
-6.279327 44.691486 0.005405
-5.964586 44.691486 0.005215
-5.649845 44.691486 0.005127
-5.335104 44.691486 0.005082
-5.020363 44.691486 0.005000
-4.705622 44.691486 0.005012
-4.390881 44.691486 0.005082
-4.076140 44.691486 0.005106
-3.761399 44.691486 0.005075
-3.446658 44.691486 0.005129
-3.131917 44.691486 0.005134
-2.817176 44.691486 0.005136
-2.502435 44.691486 0.005168
-2.187694 44.691486 0.005279
-1.872953 44.691486 0.005250
-1.558212 44.691486 0.005328
-1.243471 44.691486 0.005559
-0.928730 44.691486 0.005639
-0.613989 44.691486 0.005759
-0.299248 44.691486 0.005943
0.015493 44.691486 0.006174
0.330234 44.691486 0.006381
0.644975 44.691486 0.006602
0.959716 44.691486 0.006813
1.274457 44.691486 0.007171
1.589198 44.691486 0.007600
1.903938 44.691486 0.008059
2.218679 44.691486 0.008596
2.533421 44.691486 0.009194
2.848162 44.691486 0.009889
3.162903 44.691486 0.010686
3.477644 44.691486 0.011719
3.792385 44.691486 0.012898
4.107125 44.691486 0.014252
4.421866 44.691486 0.015919
4.736608 44.691486 0.017897
5.051349 44.691486 0.020234
5.366090 44.691486 0.023148
5.680831 44.691486 0.026905
5.995571 44.691486 0.031752
6.310312 44.691486 0.038179
6.625053 44.691486 0.045670
6.939795 44.691486 0.055914
7.254536 44.691486 0.070016
7.569277 44.691486 0.088800
7.884017 44.691486 0.111685
8.198758 44.691486 0.141572
8.513499 44.691486 0.180422
8.828240 44.691486 0.227355
9.142982 44.691486 0.287307
9.457723 44.691486 0.357509
9.772464 44.691486 0.446389
10.087205 44.691486 0.534812
10.401946 44.691486 0.631817
10.716687 44.691486 0.739820
11.031426 44.691486 0.831114
11.346168 44.691486 0.928559
11.660909 44.691486 1.016098
11.975650 44.691486 1.100188
12.290391 44.691486 1.192556
12.605132 44.691486 1.266635
12.919873 44.691486 1.329570
13.234614 44.691486 1.377744
13.549356 44.691486 1.421911
13.864097 44.691486 1.431490
14.178838 44.691486 1.437207
14.493579 44.691486 1.424271
14.808320 44.691486 1.396878
15.123059 44.691486 1.366526
15.437800 44.691486 1.352839
15.752542 44.691486 0.952348
16.067284 44.691486 0.000000
16.382023 44.691486 0.000000
16.696766 44.691486 0.000000
17.011505 44.691486 0.000000
17.326248 44.691486 4.390879
17.640987 44.691486 1.007292
17.955730 44.691486 1.293698
18.270470 44.691486 1.305511
18.585213 44.691486 1.444075
18.899952 44.691486 0.207816
-7.223550 44.376747 0.000000
-6.908809 44.376747 0.000000
-6.594068 44.376747 0.006718
-6.279327 44.376747 0.005273
-5.964586 44.376747 0.005105
-5.649845 44.376747 0.005061
-5.335104 44.376747 0.005005
-5.020363 44.376747 0.004927
-4.705622 44.376747 0.004926
-4.390881 44.376747 0.005004
-4.076140 44.376747 0.005024
-3.761399 44.376747 0.005017
-3.446658 44.376747 0.005047
-3.131917 44.376747 0.005051
-2.817176 44.376747 0.005072
-2.502435 44.376747 0.005135
-2.187694 44.376747 0.005256
-1.872953 44.376747 0.005214
-1.558212 44.376747 0.005263
-1.243471 44.376747 0.005386
-0.928730 44.376747 0.005483
-0.613989 44.376747 0.005675
-0.299248 44.376747 0.005877
0.015493 44.376747 0.006030
0.330234 44.376747 0.006175
0.644975 44.376747 0.006374
0.959716 44.376747 0.006631
1.274457 44.376747 0.007087
1.589198 44.376747 0.007547
1.903938 44.376747 0.007967
2.218679 44.376747 0.008480
2.533421 44.376747 0.009111
2.848162 44.376747 0.009766
3.162903 44.376747 0.010550
3.477644 44.376747 0.011557
3.792385 44.376747 0.012645
4.107125 44.376747 0.014036
4.421866 44.376747 0.015674
4.736608 44.376747 0.017717
5.051349 44.376747 0.020060
5.366090 44.376747 0.022801
5.680831 44.376747 0.026593
5.995571 44.376747 0.031486
6.310312 44.376747 0.038048
6.625053 44.376747 0.046255
6.939795 44.376747 0.056750
7.254536 44.376747 0.069868
7.569277 44.376747 0.088219
7.884017 44.376747 0.111143
8.198758 44.376747 0.141589
8.513499 44.376747 0.178937
8.828240 44.376747 0.228292
9.142982 44.376747 0.289107
9.457723 44.376747 0.358958
9.772464 44.376747 0.448489
10.087205 44.376747 0.532801
10.401946 44.376747 0.629767
10.716687 44.376747 0.735350
11.031426 44.376747 0.844046
11.346168 44.376747 0.932574
11.660909 44.376747 1.016706
11.975650 44.376747 1.098345
12.290391 44.376747 1.188874
12.605132 44.376747 1.263476
12.919873 44.376747 1.318829
13.234614 44.376747 1.386126
13.549356 44.376747 1.428869
13.864097 44.376747 1.436658
14.178838 44.376747 1.442931
14.493579 44.376747 1.429224
14.808320 44.376747 1.396444
15.123059 44.376747 1.377263
15.437800 44.376747 1.360974
15.752542 44.376747 0.917021
16.067284 44.376747 1.831791
16.382023 44.376747 0.000000
16.696766 44.376747 0.000000
17.011505 44.376747 0.000000
17.326248 44.376747 0.848600
17.640987 44.376747 0.970129
17.955730 44.376747 1.274493
18.270470 44.376747 1.301074
18.585213 44.376747 1.430869
18.899952 44.376747 0.184216
-7.223550 44.062004 0.000000
-6.908809 44.062004 0.000000
-6.594068 44.062004 0.006414
-6.279327 44.062004 0.005068
-5.964586 44.062004 0.004966
-5.649845 44.062004 0.004955
-5.335104 44.062004 0.004912
-5.020363 44.062004 0.004832
-4.705622 44.062004 0.004837
-4.390881 44.062004 0.004902
-4.076140 44.062004 0.004917
-3.761399 44.062004 0.004942
-3.446658 44.062004 0.004972
-3.131917 44.062004 0.004967
-2.817176 44.062004 0.004995
-2.502435 44.062004 0.005097
-2.187694 44.062004 0.005208
-1.872953 44.062004 0.005169
-1.558212 44.062004 0.005175
-1.243471 44.062004 0.005221
-0.928730 44.062004 0.005321
-0.613989 44.062004 0.005553
-0.299248 44.062004 0.005807
0.015493 44.062004 0.005949
0.330234 44.062004 0.006042
0.644975 44.062004 0.006203
0.959716 44.062004 0.006546
1.274457 44.062004 0.007024
1.589198 44.062004 0.007420
1.903938 44.062004 0.007811
2.218679 44.062004 0.008335
2.533421 44.062004 0.008962
2.848162 44.062004 0.009666
3.162903 44.062004 0.010412
3.477644 44.062004 0.011349
3.792385 44.062004 0.012436
4.107125 44.062004 0.013828
4.421866 44.062004 0.015392
4.736608 44.062004 0.017436
5.051349 44.062004 0.019859
5.366090 44.062004 0.022648
5.680831 44.062004 0.026432
5.995571 44.062004 0.031233
6.310312 44.062004 0.037902
6.625053 44.062004 0.046409
6.939795 44.062004 0.056575
7.254536 44.062004 0.070039
7.569277 44.062004 0.087865
7.884017 44.062004 0.111546
8.198758 44.062004 0.140064
8.513499 44.062004 0.180468
8.828240 44.062004 0.233264
9.142982 44.062004 0.287498
9.457723 44.062004 0.361914
9.772464 44.062004 0.445141
10.087205 44.062004 0.536848
10.401946 44.062004 0.636373
10.716687 44.062004 0.740844
11.031426 44.062004 0.847947
11.346168 44.062004 0.930778
11.660909 44.062004 1.013554
11.975650 44.062004 1.097353
12.290391 44.062004 1.187616
12.605132 44.062004 1.265617
12.919873 44.062004 1.327529
13.234614 44.062004 1.391257
13.549356 44.062004 1.438919
13.864097 44.062004 1.445468
14.178838 44.062004 1.442899
14.493579 44.062004 1.428306
14.808320 44.062004 1.401866
15.123059 44.062004 1.375022
15.437800 44.062004 1.341447
15.752542 44.062004 0.385963
16.067284 44.062004 0.000000
16.382023 44.062004 0.000000
16.696766 44.062004 0.000000
17.011505 44.062004 0.000000
17.326248 44.062004 0.000000
17.640987 44.062004 0.728901
17.955730 44.062004 1.282571
18.270470 44.062004 1.325159
18.585213 44.062004 1.458256
18.899952 44.062004 0.176252
-7.223550 43.747265 0.000000
-6.908809 43.747265 0.000000
-6.594068 43.747265 0.006153
-6.279327 43.747265 0.004946
-5.964586 43.747265 0.004875
-5.649845 43.747265 0.004832
-5.335104 43.747265 0.004799
-5.020363 43.747265 0.004749
-4.705622 43.747265 0.004756
-4.390881 43.747265 0.004819
-4.076140 43.747265 0.004829
-3.761399 43.747265 0.004871
-3.446658 43.747265 0.004906
-3.131917 43.747265 0.004860
-2.817176 43.747265 0.004912
-2.502435 43.747265 0.005070
-2.187694 43.747265 0.005155
-1.872953 43.747265 0.005133
-1.558212 43.747265 0.005113
-1.243471 43.747265 0.005109
-0.928730 43.747265 0.005185
-0.613989 43.747265 0.005424
-0.299248 43.747265 0.005680
0.015493 43.747265 0.005832
0.330234 43.747265 0.005952
0.644975 43.747265 0.006134
0.959716 43.747265 0.006491
1.274457 43.747265 0.006932
1.589198 43.747265 0.007229
1.903938 43.747265 0.007641
2.218679 43.747265 0.008176
2.533421 43.747265 0.008793
2.848162 43.747265 0.009514
3.162903 43.747265 0.010266
3.477644 43.747265 0.011129
3.792385 43.747265 0.012295
4.107125 43.747265 0.013634
4.421866 43.747265 0.015178
4.736608 43.747265 0.017186
5.051349 43.747265 0.019786
5.366090 43.747265 0.022740
5.680831 43.747265 0.026328
5.995571 43.747265 0.031030
6.310312 43.747265 0.037449
6.625053 43.747265 0.045873
6.939795 43.747265 0.056357
7.254536 43.747265 0.069410
7.569277 43.747265 0.087081
7.884017 43.747265 0.110175
8.198758 43.747265 0.140348
8.513499 43.747265 0.179007
8.828240 43.747265 0.231164
9.142982 43.747265 0.292971
9.457723 43.747265 0.364733
9.772464 43.747265 0.446215
10.087205 43.747265 0.538780
10.401946 43.747265 0.640716
10.716687 43.747265 0.747127
11.031426 43.747265 0.844272
11.346168 43.747265 0.930798
11.660909 43.747265 1.029202
11.975650 43.747265 1.115069
12.290391 43.747265 1.198608
12.605132 43.747265 1.280168
12.919873 43.747265 1.348055
13.234614 43.747265 1.402494
13.549356 43.747265 1.443184
13.864097 43.747265 1.451667
14.178838 43.747265 1.440956
14.493579 43.747265 1.422890
14.808320 43.747265 1.401454
15.123059 43.747265 1.372552
15.437800 43.747265 1.348017
15.752542 43.747265 0.338566
16.067284 43.747265 0.000000
16.382023 43.747265 0.000000
16.696766 43.747265 0.000000
17.011505 43.747265 0.000000
17.326248 43.747265 0.000000
17.640987 43.747265 0.719076
17.955730 43.747265 1.274251
18.270470 43.747265 1.317523
18.585213 43.747265 1.446108
18.899952 43.747265 0.167652
-7.223550 43.432522 0.000000
-6.908809 43.432522 0.000000
-6.594068 43.432522 0.006047
-6.279327 43.432522 0.004878
-5.964586 43.432522 0.004806
-5.649845 43.432522 0.004749
-5.335104 43.432522 0.004696
-5.020363 43.432522 0.004646
-4.705622 43.432522 0.004695
-4.390881 43.432522 0.004775
-4.076140 43.432522 0.004774
-3.761399 43.432522 0.004799
-3.446658 43.432522 0.004848
-3.131917 43.432522 0.004802
-2.817176 43.432522 0.004831
-2.502435 43.432522 0.004953
-2.187694 43.432522 0.005099
-1.872953 43.432522 0.005081
-1.558212 43.432522 0.005099
-1.243471 43.432522 0.005065
-0.928730 43.432522 0.005126
-0.613989 43.432522 0.005311
-0.299248 43.432522 0.005537
0.015493 43.432522 0.005689
0.330234 43.432522 0.005833
0.644975 43.432522 0.006086
0.959716 43.432522 0.006433
1.274457 43.432522 0.006773
1.589198 43.432522 0.007043
1.903938 43.432522 0.007443
2.218679 43.432522 0.008000
2.533421 43.432522 0.008628
2.848162 43.432522 0.009315
3.162903 43.432522 0.010079
3.477644 43.432522 0.011031
3.792385 43.432522 0.012221
4.107125 43.432522 0.013591
4.421866 43.432522 0.015126
4.736608 43.432522 0.017155
5.051349 43.432522 0.019766
5.366090 43.432522 0.022774
5.680831 43.432522 0.026081
5.995571 43.432522 0.030678
6.310312 43.432522 0.037229
6.625053 43.432522 0.045309
6.939795 43.432522 0.056125
7.254536 43.432522 0.069738
7.569277 43.432522 0.087726
7.884017 43.432522 0.110612
8.198758 43.432522 0.140958
8.513499 43.432522 0.179672
8.828240 43.432522 0.226660
9.142982 43.432522 0.287918
9.457723 43.432522 0.362600
9.772464 43.432522 0.445070
10.087205 43.432522 0.540102
10.401946 43.432522 0.636673
10.716687 43.432522 0.736994
11.031426 43.432522 0.834764
11.346168 43.432522 0.933477
11.660909 43.432522 1.029901
11.975650 43.432522 1.129754
12.290391 43.432522 1.214848
12.605132 43.432522 1.287638
12.919873 43.432522 1.345023
13.234614 43.432522 1.403015
13.549356 43.432522 1.449210
13.864097 43.432522 1.454799
14.178838 43.432522 1.441596
14.493579 43.432522 1.415554
14.808320 43.432522 1.402992
15.123059 43.432522 1.371870
15.437800 43.432522 1.358210
15.752542 43.432522 0.326739
16.067284 43.432522 0.000000
16.382023 43.432522 0.000000
16.696766 43.432522 0.000000
17.011505 43.432522 0.000000
17.326248 43.432522 0.000000
17.640987 43.432522 0.718297
17.955730 43.432522 1.264044
18.270470 43.432522 1.306614
18.585213 43.432522 1.446443
18.899952 43.432522 0.156372
-7.223550 43.117783 0.000000
-6.908809 43.117783 0.000000
-6.594068 43.117783 0.005978
-6.279327 43.117783 0.004822
-5.964586 43.117783 0.004742
-5.649845 43.117783 0.004694
-5.335104 43.117783 0.004654
-5.020363 43.117783 0.004633
-4.705622 43.117783 0.004667
-4.390881 43.117783 0.004737
-4.076140 43.117783 0.004742
-3.761399 43.117783 0.004756
-3.446658 43.117783 0.004793
-3.131917 43.117783 0.004781
-2.817176 43.117783 0.004810
-2.502435 43.117783 0.004898
-2.187694 43.117783 0.005021
-1.872953 43.117783 0.005056
-1.558212 43.117783 0.005070
-1.243471 43.117783 0.005070
-0.928730 43.117783 0.005108
-0.613989 43.117783 0.005221
-0.299248 43.117783 0.005410
0.015493 43.117783 0.005566
0.330234 43.117783 0.005751
0.644975 43.117783 0.006040
0.959716 43.117783 0.006333
1.274457 43.117783 0.006637
1.589198 43.117783 0.006903
1.903938 43.117783 0.007325
2.218679 43.117783 0.007874
2.533421 43.117783 0.008441
2.848162 43.117783 0.009161
3.162903 43.117783 0.009906
3.477644 43.117783 0.010933
3.792385 43.117783 0.012175
4.107125 43.117783 0.013600
4.421866 43.117783 0.015128
4.736608 43.117783 0.017087
5.051349 43.117783 0.019653
5.366090 43.117783 0.022557
5.680831 43.117783 0.026068
5.995571 43.117783 0.030570
6.310312 43.117783 0.036822
6.625053 43.117783 0.044914
6.939795 43.117783 0.055300
7.254536 43.117783 0.069370
7.569277 43.117783 0.087785
7.884017 43.117783 0.110516
8.198758 43.117783 0.139503
8.513499 43.117783 0.176800
8.828240 43.117783 0.222216
9.142982 43.117783 0.283898
9.457723 43.117783 0.355889
9.772464 43.117783 0.447351
10.087205 43.117783 0.540776
10.401946 43.117783 0.631971
10.716687 43.117783 0.730783
11.031426 43.117783 0.831562
11.346168 43.117783 0.939930
11.660909 43.117783 1.039496
11.975650 43.117783 1.132678
12.290391 43.117783 1.210672
12.605132 43.117783 1.286064
12.919873 43.117783 1.341882
13.234614 43.117783 1.401842
13.549356 43.117783 1.442668
13.864097 43.117783 1.454008
14.178838 43.117783 1.447556
14.493579 43.117783 1.413002
14.808320 43.117783 1.395617
15.123059 43.117783 1.366496
15.437800 43.117783 1.359873
15.752542 43.117783 0.510979
16.067284 43.117783 0.000000
16.382023 43.117783 0.000000
16.696766 43.117783 0.000000
17.011505 43.117783 0.000000
17.326248 43.117783 0.000000
17.640987 43.117783 0.537140
17.955730 43.117783 1.225812
18.270470 43.117783 1.307991
18.585213 43.117783 1.444689
18.899952 43.117783 0.145379
-7.223550 42.803040 0.000000
-6.908809 42.803040 0.000000
-6.594068 42.803040 0.005940
-6.279327 42.803040 0.004796
-5.964586 42.803040 0.004691
-5.649845 42.803040 0.004690
-5.335104 42.803040 0.004692
-5.020363 42.803040 0.004669
-4.705622 42.803040 0.004674
-4.390881 42.803040 0.004691
-4.076140 42.803040 0.004736
-3.761399 42.803040 0.004723
-3.446658 42.803040 0.004730
-3.131917 42.803040 0.004738
-2.817176 42.803040 0.004797
-2.502435 42.803040 0.004838
-2.187694 42.803040 0.004962
-1.872953 42.803040 0.005007
-1.558212 42.803040 0.005038
-1.243471 42.803040 0.005062
-0.928730 42.803040 0.005085
-0.613989 42.803040 0.005171
-0.299248 42.803040 0.005303
0.015493 42.803040 0.005465
0.330234 42.803040 0.005706
0.644975 42.803040 0.005979
0.959716 42.803040 0.006203
1.274457 42.803040 0.006514
1.589198 42.803040 0.006837
1.903938 42.803040 0.007279
2.218679 42.803040 0.007779
2.533421 42.803040 0.008358
2.848162 42.803040 0.009017
3.162903 42.803040 0.009812
3.477644 42.803040 0.010867
3.792385 42.803040 0.012162
4.107125 42.803040 0.013587
4.421866 42.803040 0.015137
4.736608 42.803040 0.017048
5.051349 42.803040 0.019451
5.366090 42.803040 0.022353
5.680831 42.803040 0.025915
5.995571 42.803040 0.030489
6.310312 42.803040 0.036711
6.625053 42.803040 0.044375
6.939795 42.803040 0.054885
7.254536 42.803040 0.069486
7.569277 42.803040 0.087272
7.884017 42.803040 0.111985
8.198758 42.803040 0.139692
8.513499 42.803040 0.175633
8.828240 42.803040 0.222420
9.142982 42.803040 0.281963
9.457723 42.803040 0.358196
9.772464 42.803040 0.445968
10.087205 42.803040 0.536529
10.401946 42.803040 0.627924
10.716687 42.803040 0.723164
11.031426 42.803040 0.824756
11.346168 42.803040 0.941872
11.660909 42.803040 1.032342
11.975650 42.803040 1.123940
12.290391 42.803040 1.211479
12.605132 42.803040 1.281227
12.919873 42.803040 1.340327
13.234614 42.803040 1.403273
13.549356 42.803040 1.443628
13.864097 42.803040 1.450289
14.178838 42.803040 1.448700
14.493579 42.803040 1.415413
14.808320 42.803040 1.391756
15.123059 42.803040 1.366097
15.437800 42.803040 1.355669
15.752542 42.803040 0.480601
16.067284 42.803040 0.000000
16.382023 42.803040 0.000000
16.696766 42.803040 0.000000
17.011505 42.803040 0.000000
17.326248 42.803040 0.000000
17.640987 42.803040 0.554496
17.955730 42.803040 1.240546
18.270470 42.803040 1.286132
18.585213 42.803040 1.434793
18.899952 42.803040 0.143154
-7.223550 42.488300 0.000000
-6.908809 42.488300 0.000000
-6.594068 42.488300 0.005904
-6.279327 42.488300 0.004769
-5.964586 42.488300 0.004698
-5.649845 42.488300 0.004712
-5.335104 42.488300 0.004746
-5.020363 42.488300 0.004717
-4.705622 42.488300 0.004679
-4.390881 42.488300 0.004664
-4.076140 42.488300 0.004736
-3.761399 42.488300 0.004718
-3.446658 42.488300 0.004671
-3.131917 42.488300 0.004685
-2.817176 42.488300 0.004768
-2.502435 42.488300 0.004809
-2.187694 42.488300 0.004908
-1.872953 42.488300 0.004965
-1.558212 42.488300 0.004991
-1.243471 42.488300 0.005014
-0.928730 42.488300 0.005045
-0.613989 42.488300 0.005144
-0.299248 42.488300 0.005256
0.015493 42.488300 0.005385
0.330234 42.488300 0.005666
0.644975 42.488300 0.005903
0.959716 42.488300 0.006106
1.274457 42.488300 0.006412
1.589198 42.488300 0.006781
1.903938 42.488300 0.007238
2.218679 42.488300 0.007675
2.533421 42.488300 0.008249
2.848162 42.488300 0.008901
3.162903 42.488300 0.009682
3.477644 42.488300 0.010742
3.792385 42.488300 0.012073
4.107125 42.488300 0.013517
4.421866 42.488300 0.015100
4.736608 42.488300 0.016981
5.051349 42.488300 0.019276
5.366090 42.488300 0.022203
5.680831 42.488300 0.025827
5.995571 42.488300 0.030479
6.310312 42.488300 0.036805
6.625053 42.488300 0.045124
6.939795 42.488300 0.055635
7.254536 42.488300 0.070088
7.569277 42.488300 0.087824
7.884017 42.488300 0.111390
8.198758 42.488300 0.141082
8.513499 42.488300 0.177764
8.828240 42.488300 0.224128
9.142982 42.488300 0.286327
9.457723 42.488300 0.362243
9.772464 42.488300 0.450826
10.087205 42.488300 0.539906
10.401946 42.488300 0.638578
10.716687 42.488300 0.729493
11.031426 42.488300 0.833196
11.346168 42.488300 0.931605
11.660909 42.488300 1.022551
11.975650 42.488300 1.120802
12.290391 42.488300 1.210357
12.605132 42.488300 1.274866
12.919873 42.488300 1.337291
13.234614 42.488300 1.404777
13.549356 42.488300 1.442800
13.864097 42.488300 1.451445
14.178838 42.488300 1.442886
14.493579 42.488300 1.425723
14.808320 42.488300 1.398838
15.123059 42.488300 1.366919
15.437800 42.488300 1.366719
15.752542 42.488300 0.450093
16.067284 42.488300 0.000000
16.382023 42.488300 0.000000
16.696766 42.488300 0.000000
17.011505 42.488300 0.000000
17.326248 42.488300 0.000000
17.640987 42.488300 0.572731
17.955730 42.488300 1.250002
18.270470 42.488300 1.273473
18.585213 42.488300 1.433845
18.899952 42.488300 0.134056
-7.223550 42.173557 0.000000
-6.908809 42.173557 0.000000
-6.594068 42.173557 0.005886
-6.279327 42.173557 0.004752
-5.964586 42.173557 0.004714
-5.649845 42.173557 0.004728
-5.335104 42.173557 0.004742
-5.020363 42.173557 0.004737
-4.705622 42.173557 0.004684
-4.390881 42.173557 0.004628
-4.076140 42.173557 0.004709
-3.761399 42.173557 0.004732
-3.446658 42.173557 0.004677
-3.131917 42.173557 0.004631
-2.817176 42.173557 0.004699
-2.502435 42.173557 0.004747
-2.187694 42.173557 0.004847
-1.872953 42.173557 0.004892
-1.558212 42.173557 0.004929
-1.243471 42.173557 0.004951
-0.928730 42.173557 0.004962
-0.613989 42.173557 0.005128
-0.299248 42.173557 0.005275
0.015493 42.173557 0.005369
0.330234 42.173557 0.005618
0.644975 42.173557 0.005822
0.959716 42.173557 0.006030
1.274457 42.173557 0.006334
1.589198 42.173557 0.006737
1.903938 42.173557 0.007221
2.218679 42.173557 0.007661
2.533421 42.173557 0.008158
2.848162 42.173557 0.008791
3.162903 42.173557 0.009565
3.477644 42.173557 0.010629
3.792385 42.173557 0.011935
4.107125 42.173557 0.013268
4.421866 42.173557 0.014913
4.736608 42.173557 0.016847
5.051349 42.173557 0.019143
5.366090 42.173557 0.021923
5.680831 42.173557 0.025700
5.995571 42.173557 0.030344
6.310312 42.173557 0.036724
6.625053 42.173557 0.045109
6.939795 42.173557 0.055756
7.254536 42.173557 0.069442
7.569277 42.173557 0.086925
7.884017 42.173557 0.110364
8.198758 42.173557 0.140098
8.513499 42.173557 0.178011
8.828240 42.173557 0.228854
9.142982 42.173557 0.292747
9.457723 42.173557 0.366342
9.772464 42.173557 0.452330
10.087205 42.173557 0.542482
10.401946 42.173557 0.633694
10.716687 42.173557 0.735107
11.031426 42.173557 0.829572
11.346168 42.173557 0.938947
11.660909 42.173557 1.028363
11.975650 42.173557 1.124443
12.290391 42.173557 1.212923
12.605132 42.173557 1.278160
12.919873 42.173557 1.350668
13.234614 42.173557 1.400720
13.549356 42.173557 1.440348
13.864097 42.173557 1.447891
14.178838 42.173557 1.445920
14.493579 42.173557 1.423053
14.808320 42.173557 1.404805
15.123059 42.173557 1.391911
15.437800 42.173557 1.375780
15.752542 42.173557 0.484033
16.067284 42.173557 0.000000
16.382023 42.173557 0.000000
16.696766 42.173557 0.000000
17.011505 42.173557 0.000000
17.326248 42.173557 0.000000
17.640987 42.173557 0.587265
17.955730 42.173557 1.255461
18.270470 42.173557 1.277338
18.585213 42.173557 1.435627
18.899952 42.173557 0.090250
-7.223550 41.858818 0.000000
-6.908809 41.858818 0.000000
-6.594068 41.858818 0.005867
-6.279327 41.858818 0.004770
-5.964586 41.858818 0.004742
-5.649845 41.858818 0.004719
-5.335104 41.858818 0.004677
-5.020363 41.858818 0.004702
-4.705622 41.858818 0.004698
-4.390881 41.858818 0.004598
-4.076140 41.858818 0.004638
-3.761399 41.858818 0.004718
-3.446658 41.858818 0.004676
-3.131917 41.858818 0.004594
-2.817176 41.858818 0.004619
-2.502435 41.858818 0.004697
-2.187694 41.858818 0.004765
-1.872953 41.858818 0.004815
-1.558212 41.858818 0.004883
-1.243471 41.858818 0.004884
-0.928730 41.858818 0.004904
-0.613989 41.858818 0.005076
-0.299248 41.858818 0.005250
0.015493 41.858818 0.005369
0.330234 41.858818 0.005573
0.644975 41.858818 0.005780
0.959716 41.858818 0.006016
1.274457 41.858818 0.006287
1.589198 41.858818 0.006687
1.903938 41.858818 0.007178
2.218679 41.858818 0.007663
2.533421 41.858818 0.008111
2.848162 41.858818 0.008761
3.162903 41.858818 0.009477
3.477644 41.858818 0.010534
3.792385 41.858818 0.011728
4.107125 41.858818 0.013077
4.421866 41.858818 0.014687
4.736608 41.858818 0.016625
5.051349 41.858818 0.018864
5.366090 41.858818 0.021832
5.680831 41.858818 0.025559
5.995571 41.858818 0.030287
6.310312 41.858818 0.036626
6.625053 41.858818 0.044835
6.939795 41.858818 0.055166
7.254536 41.858818 0.069346
7.569277 41.858818 0.087438
7.884017 41.858818 0.110832
8.198758 41.858818 0.138206
8.513499 41.858818 0.177278
8.828240 41.858818 0.228912
9.142982 41.858818 0.291153
9.457723 41.858818 0.367903
9.772464 41.858818 0.453102
10.087205 41.858818 0.541712
10.401946 41.858818 0.636932
10.716687 41.858818 0.737801
11.031426 41.858818 0.837210
11.346168 41.858818 0.948061
11.660909 41.858818 1.040580
11.975650 41.858818 1.132519
12.290391 41.858818 1.210948
12.605132 41.858818 1.276482
12.919873 41.858818 1.346739
13.234614 41.858818 1.399497
13.549356 41.858818 1.432697
13.864097 41.858818 1.443376
14.178838 41.858818 1.447263
14.493579 41.858818 1.429211
14.808320 41.858818 1.421430
15.123059 41.858818 1.381292
15.437800 41.858818 1.369193
15.752542 41.858818 0.671954
16.067284 41.858818 0.000000
16.382023 41.858818 0.000000
16.696766 41.858818 0.000000
17.011505 41.858818 0.000000
17.326248 41.858818 0.000000
17.640987 41.858818 0.451843
17.955730 41.858818 1.252308
18.270470 41.858818 1.292283
18.585213 41.858818 1.442492
18.899952 41.858818 0.000000
-7.223550 41.544075 0.000000
-6.908809 41.544075 0.000000
-6.594068 41.544075 0.005786
-6.279327 41.544075 0.004758
-5.964586 41.544075 0.004718
-5.649845 41.544075 0.004675
-5.335104 41.544075 0.004598
-5.020363 41.544075 0.004649
-4.705622 41.544075 0.004679
-4.390881 41.544075 0.004561
-4.076140 41.544075 0.004532
-3.761399 41.544075 0.004626
-3.446658 41.544075 0.004617
-3.131917 41.544075 0.004538
-2.817176 41.544075 0.004565
-2.502435 41.544075 0.004605
-2.187694 41.544075 0.004647
-1.872953 41.544075 0.004750
-1.558212 41.544075 0.004828
-1.243471 41.544075 0.004845
-0.928730 41.544075 0.004876
-0.613989 41.544075 0.005036
-0.299248 41.544075 0.005222
0.015493 41.544075 0.005353
0.330234 41.544075 0.005512
0.644975 41.544075 0.005745
0.959716 41.544075 0.006006
1.274457 41.544075 0.006254
1.589198 41.544075 0.006628
1.903938 41.544075 0.007157
2.218679 41.544075 0.007631
2.533421 41.544075 0.008059
2.848162 41.544075 0.008666
3.162903 41.544075 0.009410
3.477644 41.544075 0.010437
3.792385 41.544075 0.011627
4.107125 41.544075 0.012913
4.421866 41.544075 0.014508
4.736608 41.544075 0.016430
5.051349 41.544075 0.018739
5.366090 41.544075 0.021754
5.680831 41.544075 0.025520
5.995571 41.544075 0.030299
6.310312 41.544075 0.036313
6.625053 41.544075 0.044387
6.939795 41.544075 0.055072
7.254536 41.544075 0.069558
7.569277 41.544075 0.087644
7.884017 41.544075 0.110616
8.198758 41.544075 0.139968
8.513499 41.544075 0.178577
8.828240 41.544075 0.225163
9.142982 41.544075 0.286908
9.457723 41.544075 0.365924
9.772464 41.544075 0.450474
10.087205 41.544075 0.537002
10.401946 41.544075 0.634603
10.716687 41.544075 0.744273
11.031426 41.544075 0.841466
11.346168 41.544075 0.950084
11.660909 41.544075 1.045164
11.975650 41.544075 1.133318
12.290391 41.544075 1.209178
12.605132 41.544075 1.277508
12.919873 41.544075 1.343881
13.234614 41.544075 1.384969
13.549356 41.544075 1.424351
13.864097 41.544075 1.449914
14.178838 41.544075 1.451181
14.493579 41.544075 1.440955
14.808320 41.544075 1.405916
15.123059 41.544075 1.377316
15.437800 41.544075 1.361666
15.752542 41.544075 0.652957
16.067284 41.544075 0.000000
16.382023 41.544075 0.000000
16.696766 41.544075 0.000000
17.011505 41.544075 0.000000
17.326248 41.544075 0.000000
17.640987 41.544075 0.477284
17.955730 41.544075 1.237421
18.270470 41.544075 1.292518
18.585213 41.544075 1.439377
18.899952 41.544075 0.000000
-7.223550 41.229336 0.000000
-6.908809 41.229336 0.000000
-6.594068 41.229336 0.005685
-6.279327 41.229336 0.004706
-5.964586 41.229336 0.004654
-5.649845 41.229336 0.004613
-5.335104 41.229336 0.004554
-5.020363 41.229336 0.004584
-4.705622 41.229336 0.004624
-4.390881 41.229336 0.004535
-4.076140 41.229336 0.004473
-3.761399 41.229336 0.004536
-3.446658 41.229336 0.004514
-3.131917 41.229336 0.004478
-2.817176 41.229336 0.004499
-2.502435 41.229336 0.004498
-2.187694 41.229336 0.004555
-1.872953 41.229336 0.004666
-1.558212 41.229336 0.004752
-1.243471 41.229336 0.004771
-0.928730 41.229336 0.004832
-0.613989 41.229336 0.004997
-0.299248 41.229336 0.005168
0.015493 41.229336 0.005281
0.330234 41.229336 0.005410
0.644975 41.229336 0.005642
0.959716 41.229336 0.005967
1.274457 41.229336 0.006245
1.589198 41.229336 0.006550
1.903938 41.229336 0.007084
2.218679 41.229336 0.007578
2.533421 41.229336 0.007977
2.848162 41.229336 0.008601
3.162903 41.229336 0.009363
3.477644 41.229336 0.010320
3.792385 41.229336 0.011423
4.107125 41.229336 0.012715
4.421866 41.229336 0.014375
4.736608 41.229336 0.016322
5.051349 41.229336 0.018696
5.366090 41.229336 0.021473
5.680831 41.229336 0.025346
5.995571 41.229336 0.030354
6.310312 41.229336 0.036123
6.625053 41.229336 0.043974
6.939795 41.229336 0.054508
7.254536 41.229336 0.068743
7.569277 41.229336 0.087340
7.884017 41.229336 0.111082
8.198758 41.229336 0.138759
8.513499 41.229336 0.176259
8.828240 41.229336 0.227610
9.142982 41.229336 0.285952
9.457723 41.229336 0.356379
9.772464 41.229336 0.442033
10.087205 41.229336 0.535678
10.401946 41.229336 0.634486
10.716687 41.229336 0.744487
11.031426 41.229336 0.850179
11.346168 41.229336 0.944666
11.660909 41.229336 1.045755
11.975650 41.229336 1.133092
12.290391 41.229336 1.211262
12.605132 41.229336 1.278713
12.919873 41.229336 1.344891
13.234614 41.229336 1.388901
13.549356 41.229336 1.423076
13.864097 41.229336 1.449829
14.178838 41.229336 1.461695
14.493579 41.229336 1.436109
14.808320 41.229336 1.409561
15.123059 41.229336 1.371881
15.437800 41.229336 1.350142
15.752542 41.229336 0.614617
16.067284 41.229336 0.000000
16.382023 41.229336 0.000000
16.696766 41.229336 0.000000
17.011505 41.229336 0.000000
17.326248 41.229336 0.000000
17.640987 41.229336 0.499206
17.955730 41.229336 1.269755
18.270470 41.229336 1.300682
18.585213 41.229336 1.441347
18.899952 41.229336 0.000000
-7.223550 40.914597 0.000000
-6.908809 40.914597 0.000000
-6.594068 40.914597 0.005623
-6.279327 40.914597 0.004642
-5.964586 40.914597 0.004584
-5.649845 40.914597 0.004582
-5.335104 40.914597 0.004555
-5.020363 40.914597 0.004542
-4.705622 40.914597 0.004546
-4.390881 40.914597 0.004489
-4.076140 40.914597 0.004423
-3.761399 40.914597 0.004453
-3.446658 40.914597 0.004449
-3.131917 40.914597 0.004417
-2.817176 40.914597 0.004442
-2.502435 40.914597 0.004429
-2.187694 40.914597 0.004515
-1.872953 40.914597 0.004606
-1.558212 40.914597 0.004664
-1.243471 40.914597 0.004662
-0.928730 40.914597 0.004773
-0.613989 40.914597 0.004941
-0.299248 40.914597 0.005113
0.015493 40.914597 0.005201
0.330234 40.914597 0.005314
0.644975 40.914597 0.005529
0.959716 40.914597 0.005888
1.274457 40.914597 0.006186
1.589198 40.914597 0.006517
1.903938 40.914597 0.007024
2.218679 40.914597 0.007500
2.533421 40.914597 0.007890
2.848162 40.914597 0.008537
3.162903 40.914597 0.009276
3.477644 40.914597 0.010169
3.792385 40.914597 0.011245
4.107125 40.914597 0.012547
4.421866 40.914597 0.014252
4.736608 40.914597 0.016158
5.051349 40.914597 0.018562
5.366090 40.914597 0.021399
5.680831 40.914597 0.025237
5.995571 40.914597 0.030061
6.310312 40.914597 0.036132
6.625053 40.914597 0.043848
6.939795 40.914597 0.054188
7.254536 40.914597 0.068044
7.569277 40.914597 0.086282
7.884017 40.914597 0.111525
8.198758 40.914597 0.139325
8.513499 40.914597 0.176815
8.828240 40.914597 0.229027
9.142982 40.914597 0.285892
9.457723 40.914597 0.353191
9.772464 40.914597 0.442402
10.087205 40.914597 0.536779
10.401946 40.914597 0.637512
10.716687 40.914597 0.741903
11.031426 40.914597 0.852959
11.346168 40.914597 0.947500
11.660909 40.914597 1.050832
11.975650 40.914597 1.129355
12.290391 40.914597 1.221380
12.605132 40.914597 1.284089
12.919873 40.914597 1.339039
13.234614 40.914597 1.387607
13.549356 40.914597 1.426206
13.864097 40.914597 1.446386
14.178838 40.914597 1.459461
14.493579 40.914597 1.440187
14.808320 40.914597 1.416712
15.123059 40.914597 1.371707
15.437800 40.914597 1.348343
15.752542 40.914597 0.573172
16.067284 40.914597 0.000000
16.382023 40.914597 0.000000
16.696766 40.914597 0.000000
17.011505 40.914597 0.000000
17.326248 40.914597 0.000000
17.640987 40.914597 0.527634
17.955730 40.914597 1.271801
18.270470 40.914597 1.302194
18.585213 40.914597 1.441532
18.899952 40.914597 0.000000
-7.223550 40.599854 0.000000
-6.908809 40.599854 0.000000
-6.594068 40.599854 0.005629
-6.279327 40.599854 0.004615
-5.964586 40.599854 0.004542
-5.649845 40.599854 0.004541
-5.335104 40.599854 0.004524
-5.020363 40.599854 0.004490
-4.705622 40.599854 0.004472
-4.390881 40.599854 0.004421
-4.076140 40.599854 0.004405
-3.761399 40.599854 0.004422
-3.446658 40.599854 0.004391
-3.131917 40.599854 0.004383
-2.817176 40.599854 0.004414
-2.502435 40.599854 0.004408
-2.187694 40.599854 0.004517
-1.872953 40.599854 0.004576
-1.558212 40.599854 0.004573
-1.243471 40.599854 0.004578
-0.928730 40.599854 0.004725
-0.613989 40.599854 0.004903
-0.299248 40.599854 0.005063
0.015493 40.599854 0.005169
0.330234 40.599854 0.005267
0.644975 40.599854 0.005400
0.959716 40.599854 0.005766
1.274457 40.599854 0.006150
1.589198 40.599854 0.006480
1.903938 40.599854 0.006914
2.218679 40.599854 0.007388
2.533421 40.599854 0.007805
2.848162 40.599854 0.008454
3.162903 40.599854 0.009167
3.477644 40.599854 0.009988
3.792385 40.599854 0.011140
4.107125 40.599854 0.012436
4.421866 40.599854 0.014071
4.736608 40.599854 0.016099
5.051349 40.599854 0.018447
5.366090 40.599854 0.021378
5.680831 40.599854 0.025092
5.995571 40.599854 0.029898
6.310312 40.599854 0.036000
6.625053 40.599854 0.043768
6.939795 40.599854 0.054177
7.254536 40.599854 0.068251
7.569277 40.599854 0.086120
7.884017 40.599854 0.110332
8.198758 40.599854 0.141031
8.513499 40.599854 0.180622
8.828240 40.599854 0.227926
9.142982 40.599854 0.287790
9.457723 40.599854 0.358849
9.772464 40.599854 0.443247
10.087205 40.599854 0.542341
10.401946 40.599854 0.637594
10.716687 40.599854 0.749135
11.031426 40.599854 0.852297
11.346168 40.599854 0.948188
11.660909 40.599854 1.043448
11.975650 40.599854 1.134008
12.290391 40.599854 1.220203
12.605132 40.599854 1.290207
12.919873 40.599854 1.334730
13.234614 40.599854 1.397163
13.549356 40.599854 1.438043
13.864097 40.599854 1.469523
14.178838 40.599854 1.456022
14.493579 40.599854 1.440867
14.808320 40.599854 1.412075
15.123059 40.599854 1.378564
15.437800 40.599854 1.344233
15.752542 40.599854 0.528907
16.067284 40.599854 0.000000
16.382023 40.599854 0.000000
16.696766 40.599854 0.000000
17.011505 40.599854 0.000000
17.326248 40.599854 0.000000
17.640987 40.599854 0.562124
17.955730 40.599854 1.241429
18.270470 40.599854 1.308120
18.585213 40.599854 1.444271
18.899952 40.599854 0.000000
-7.223550 40.285114 0.000000
-6.908809 40.285114 0.000000
-6.594068 40.285114 0.005665
-6.279327 40.285114 0.004588
-5.964586 40.285114 0.004486
-5.649845 40.285114 0.004473
-5.335104 40.285114 0.004444
-5.020363 40.285114 0.004435
-4.705622 40.285114 0.004417
-4.390881 40.285114 0.004367
-4.076140 40.285114 0.004387
-3.761399 40.285114 0.004449
-3.446658 40.285114 0.004407
-3.131917 40.285114 0.004383
-2.817176 40.285114 0.004417
-2.502435 40.285114 0.004422
-2.187694 40.285114 0.004530
-1.872953 40.285114 0.004542
-1.558212 40.285114 0.004514
-1.243471 40.285114 0.004545
-0.928730 40.285114 0.004673
-0.613989 40.285114 0.004857
-0.299248 40.285114 0.004999
0.015493 40.285114 0.005154
0.330234 40.285114 0.005233
0.644975 40.285114 0.005327
0.959716 40.285114 0.005640
1.274457 40.285114 0.006056
1.589198 40.285114 0.006433
1.903938 40.285114 0.006812
2.218679 40.285114 0.007278
2.533421 40.285114 0.007735
2.848162 40.285114 0.008384
3.162903 40.285114 0.009110
3.477644 40.285114 0.009960
3.792385 40.285114 0.011053
4.107125 40.285114 0.012356
4.421866 40.285114 0.013892
4.736608 40.285114 0.015808
5.051349 40.285114 0.018321
5.366090 40.285114 0.021248
5.680831 40.285114 0.025015
5.995571 40.285114 0.029928
6.310312 40.285114 0.036076
6.625053 40.285114 0.043737
6.939795 40.285114 0.054236
7.254536 40.285114 0.067864
7.569277 40.285114 0.085856
7.884017 40.285114 0.109869
8.198758 40.285114 0.141071
8.513499 40.285114 0.178536
8.828240 40.285114 0.229849
9.142982 40.285114 0.295876
9.457723 40.285114 0.367485
9.772464 40.285114 0.451432
10.087205 40.285114 0.541629
10.401946 40.285114 0.642494
10.716687 40.285114 0.750934
11.031426 40.285114 0.858971
11.346168 40.285114 0.956170
11.660909 40.285114 1.040723
11.975650 40.285114 1.128140
12.290391 40.285114 1.213758
12.605132 40.285114 1.285071
12.919873 40.285114 1.337161
13.234614 40.285114 1.383589
13.549356 40.285114 1.429142
13.864097 40.285114 1.453953
14.178838 40.285114 1.460177
14.493579 40.285114 1.437819
14.808320 40.285114 1.409393
15.123059 40.285114 1.382593
15.437800 40.285114 1.353101
15.752542 40.285114 0.490010
16.067284 40.285114 0.000000
16.382023 40.285114 0.000000
16.696766 40.285114 0.000000
17.011505 40.285114 0.000000
17.326248 40.285114 0.000000
17.640987 40.285114 0.604483
17.955730 40.285114 1.200638
18.270470 40.285114 1.273955
18.585213 40.285114 1.419808
18.899952 40.285114 0.000000
-7.223550 39.970371 0.000000
-6.908809 39.970371 0.000000
-6.594068 39.970371 0.005641
-6.279327 39.970371 0.004536
-5.964586 39.970371 0.004443
-5.649845 39.970371 0.004383
-5.335104 39.970371 0.004345
-5.020363 39.970371 0.004373
-4.705622 39.970371 0.004388
-4.390881 39.970371 0.004348
-4.076140 39.970371 0.004372
-3.761399 39.970371 0.004453
-3.446658 39.970371 0.004404
-3.131917 39.970371 0.004375
-2.817176 39.970371 0.004438
-2.502435 39.970371 0.004439
-2.187694 39.970371 0.004515
-1.872953 39.970371 0.004510
-1.558212 39.970371 0.004485
-1.243471 39.970371 0.004535
-0.928730 39.970371 0.004654
-0.613989 39.970371 0.004805
-0.299248 39.970371 0.004927
0.015493 39.970371 0.005116
0.330234 39.970371 0.005194
0.644975 39.970371 0.005299
0.959716 39.970371 0.005557
1.274457 39.970371 0.005985
1.589198 39.970371 0.006335
1.903938 39.970371 0.006711
2.218679 39.970371 0.007158
2.533421 39.970371 0.007621
2.848162 39.970371 0.008323
3.162903 39.970371 0.008988
3.477644 39.970371 0.009824
3.792385 39.970371 0.010999
4.107125 39.970371 0.012267
4.421866 39.970371 0.013860
4.736608 39.970371 0.015835
5.051349 39.970371 0.018278
5.366090 39.970371 0.021060
5.680831 39.970371 0.024809
5.995571 39.970371 0.029734
6.310312 39.970371 0.035821
6.625053 39.970371 0.043652
6.939795 39.970371 0.054430
7.254536 39.970371 0.068963
7.569277 39.970371 0.087030
7.884017 39.970371 0.110362
8.198758 39.970371 0.140589
8.513499 39.970371 0.178675
8.828240 39.970371 0.230146
9.142982 39.970371 0.297774
9.457723 39.970371 0.373713
9.772464 39.970371 0.451174
10.087205 39.970371 0.544226
10.401946 39.970371 0.634650
10.716687 39.970371 0.744636
11.031426 39.970371 0.856339
11.346168 39.970371 0.954797
11.660909 39.970371 1.047933
11.975650 39.970371 1.134427
12.290391 39.970371 1.213396
12.605132 39.970371 1.285600
12.919873 39.970371 1.342601
13.234614 39.970371 1.398496
13.549356 39.970371 1.432794
13.864097 39.970371 1.449048
14.178838 39.970371 1.452176
14.493579 39.970371 1.427794
14.808320 39.970371 1.410403
15.123059 39.970371 1.386800
15.437800 39.970371 1.344846
15.752542 39.970371 0.462758
16.067284 39.970371 0.000000
16.382023 39.970371 0.000000
16.696766 39.970371 0.000000
17.011505 39.970371 0.000000
17.326248 39.970371 0.000000
17.640987 39.970371 0.618307
17.955730 39.970371 1.145301
18.270470 39.970371 1.211945
18.585213 39.970371 1.375346
18.899952 39.970371 0.000000
-7.223550 39.655632 0.000000
-6.908809 39.655632 0.000000
-6.594068 39.655632 0.005527
-6.279327 39.655632 0.004475
-5.964586 39.655632 0.004424
-5.649845 39.655632 0.004366
-5.335104 39.655632 0.004309
-5.020363 39.655632 0.004336
-4.705622 39.655632 0.004356
-4.390881 39.655632 0.004347
-4.076140 39.655632 0.004349
-3.761399 39.655632 0.004406
-3.446658 39.655632 0.004357
-3.131917 39.655632 0.004355
-2.817176 39.655632 0.004441
-2.502435 39.655632 0.004497
-2.187694 39.655632 0.004512
-1.872953 39.655632 0.004487
-1.558212 39.655632 0.004455
-1.243471 39.655632 0.004547
-0.928730 39.655632 0.004667
-0.613989 39.655632 0.004781
-0.299248 39.655632 0.004888
0.015493 39.655632 0.005051
0.330234 39.655632 0.005155
0.644975 39.655632 0.005306
0.959716 39.655632 0.005558
1.274457 39.655632 0.005941
1.589198 39.655632 0.006268
1.903938 39.655632 0.006624
2.218679 39.655632 0.007078
2.533421 39.655632 0.007576
2.848162 39.655632 0.008209
3.162903 39.655632 0.008884
3.477644 39.655632 0.009785
3.792385 39.655632 0.010925
4.107125 39.655632 0.012243
4.421866 39.655632 0.013838
4.736608 39.655632 0.015775
5.051349 39.655632 0.018195
5.366090 39.655632 0.020998
5.680831 39.655632 0.024627
5.995571 39.655632 0.029441
6.310312 39.655632 0.035473
6.625053 39.655632 0.043850
6.939795 39.655632 0.054785
7.254536 39.655632 0.069413
7.569277 39.655632 0.088170
7.884017 39.655632 0.111880
8.198758 39.655632 0.138717
8.513499 39.655632 0.179848
8.828240 39.655632 0.230198
9.142982 39.655632 0.289661
9.457723 39.655632 0.370372
9.772464 39.655632 0.455381
10.087205 39.655632 0.539469
10.401946 39.655632 0.635769
10.716687 39.655632 0.741907
11.031426 39.655632 0.847948
11.346168 39.655632 0.958442
11.660909 39.655632 1.055381
11.975650 39.655632 1.139990
12.290391 39.655632 1.220966
12.605132 39.655632 1.293255
12.919873 39.655632 1.360612
13.234614 39.655632 1.404242
13.549356 39.655632 1.441885
13.864097 39.655632 1.450594
14.178838 39.655632 1.456259
14.493579 39.655632 1.431020
14.808320 39.655632 1.411100
15.123059 39.655632 1.376918
15.437800 39.655632 1.349237
15.752542 39.655632 0.431675
16.067284 39.655632 0.000000
16.382023 39.655632 0.000000
16.696766 39.655632 0.000000
17.011505 39.655632 0.000000
17.326248 39.655632 0.000000
17.640987 39.655632 0.614413
17.955730 39.655632 1.055228
18.270470 39.655632 1.151421
18.585213 39.655632 1.339876
18.899952 39.655632 0.000000
-7.223550 39.340889 0.000000
-6.908809 39.340889 0.000000
-6.594068 39.340889 0.005432
-6.279327 39.340889 0.004448
-5.964586 39.340889 0.004430
-5.649845 39.340889 0.004393
-5.335104 39.340889 0.004325
-5.020363 39.340889 0.004314
-4.705622 39.340889 0.004315
-4.390881 39.340889 0.004370
-4.076140 39.340889 0.004366
-3.761399 39.340889 0.004356
-3.446658 39.340889 0.004315
-3.131917 39.340889 0.004337
-2.817176 39.340889 0.004428
-2.502435 39.340889 0.004517
-2.187694 39.340889 0.004512
-1.872953 39.340889 0.004475
-1.558212 39.340889 0.004453
-1.243471 39.340889 0.004550
-0.928730 39.340889 0.004650
-0.613989 39.340889 0.004741
-0.299248 39.340889 0.004841
0.015493 39.340889 0.004971
0.330234 39.340889 0.005121
0.644975 39.340889 0.005309
0.959716 39.340889 0.005577
1.274457 39.340889 0.005854
1.589198 39.340889 0.006170
1.903938 39.340889 0.006532
2.218679 39.340889 0.007020
2.533421 39.340889 0.007524
2.848162 39.340889 0.008113
3.162903 39.340889 0.008847
3.477644 39.340889 0.009729
3.792385 39.340889 0.010900
4.107125 39.340889 0.012202
4.421866 39.340889 0.013768
4.736608 39.340889 0.015683
5.051349 39.340889 0.018134
5.366090 39.340889 0.020964
5.680831 39.340889 0.024547
5.995571 39.340889 0.029404
6.310312 39.340889 0.035573
6.625053 39.340889 0.044026
6.939795 39.340889 0.054054
7.254536 39.340889 0.068925
7.569277 39.340889 0.088315
7.884017 39.340889 0.112532
8.198758 39.340889 0.140799
8.513499 39.340889 0.179615
8.828240 39.340889 0.228767
9.142982 39.340889 0.293889
9.457723 39.340889 0.364765
9.772464 39.340889 0.456155
10.087205 39.340889 0.545369
10.401946 39.340889 0.633612
10.716687 39.340889 0.736682
11.031426 39.340889 0.848645
11.346168 39.340889 0.962899
11.660909 39.340889 1.061855
11.975650 39.340889 1.149282
12.290391 39.340889 1.227922
12.605132 39.340889 1.297977
12.919873 39.340889 1.359531
13.234614 39.340889 1.413477
13.549356 39.340889 1.443627
13.864097 39.340889 1.461725
14.178838 39.340889 1.451699
14.493579 39.340889 1.439613
14.808320 39.340889 1.406414
15.123059 39.340889 1.371643
15.437800 39.340889 1.338949
15.752542 39.340889 0.400389
16.067284 39.340889 0.000000
16.382023 39.340889 0.000000
16.696766 39.340889 0.000000
17.011505 39.340889 0.000000
17.326248 39.340889 0.000000
17.640987 39.340889 0.596888
17.955730 39.340889 0.974185
18.270470 39.340889 1.106226
18.585213 39.340889 1.302934
18.899952 39.340889 0.000000
-7.223550 39.026150 0.000000
-6.908809 39.026150 0.000000
-6.594068 39.026150 0.005399
-6.279327 39.026150 0.004451
-5.964586 39.026150 0.004414
-5.649845 39.026150 0.004421
-5.335104 39.026150 0.004353
-5.020363 39.026150 0.004302
-4.705622 39.026150 0.004297
-4.390881 39.026150 0.004362
-4.076140 39.026150 0.004370
-3.761399 39.026150 0.004345
-3.446658 39.026150 0.004327
-3.131917 39.026150 0.004334
-2.817176 39.026150 0.004388
-2.502435 39.026150 0.004496
-2.187694 39.026150 0.004492
-1.872953 39.026150 0.004445
-1.558212 39.026150 0.004485
-1.243471 39.026150 0.004566
-0.928730 39.026150 0.004579
-0.613989 39.026150 0.004662
-0.299248 39.026150 0.004776
0.015493 39.026150 0.004893
0.330234 39.026150 0.005082
0.644975 39.026150 0.005303
0.959716 39.026150 0.005524
1.274457 39.026150 0.005779
1.589198 39.026150 0.006109
1.903938 39.026150 0.006508
2.218679 39.026150 0.007006
2.533421 39.026150 0.007545
2.848162 39.026150 0.008095
3.162903 39.026150 0.008756
3.477644 39.026150 0.009660
3.792385 39.026150 0.010842
4.107125 39.026150 0.012101
4.421866 39.026150 0.013604
4.736608 39.026150 0.015615
5.051349 39.026150 0.018053
5.366090 39.026150 0.021018
5.680831 39.026150 0.024564
5.995571 39.026150 0.029016
6.310312 39.026150 0.035460
6.625053 39.026150 0.043563
6.939795 39.026150 0.053949
7.254536 39.026150 0.068207
7.569277 39.026150 0.087835
7.884017 39.026150 0.111022
8.198758 39.026150 0.140266
8.513499 39.026150 0.180155
8.828240 39.026150 0.230063
9.142982 39.026150 0.293845
9.457723 39.026150 0.365853
9.772464 39.026150 0.454231
10.087205 39.026150 0.550502
10.401946 39.026150 0.640458
10.716687 39.026150 0.737073
11.031426 39.026150 0.849974
11.346168 39.026150 0.966678
11.660909 39.026150 1.063100
11.975650 39.026150 1.153879
12.290391 39.026150 1.230193
12.605132 39.026150 1.302300
12.919873 39.026150 1.347419
13.234614 39.026150 1.409494
13.549356 39.026150 1.442626
13.864097 39.026150 1.461930
14.178838 39.026150 1.461120
14.493579 39.026150 1.437259
14.808320 39.026150 1.410306
15.123059 39.026150 1.367182
15.437800 39.026150 1.341229
15.752542 39.026150 0.572389
16.067284 39.026150 0.000000
16.382023 39.026150 0.000000
16.696766 39.026150 0.000000
17.011505 39.026150 0.000000
17.326248 39.026150 0.000000
17.640987 39.026150 0.505434
17.955730 39.026150 0.943946
18.270470 39.026150 1.033728
18.585213 39.026150 1.276658
18.899952 39.026150 0.000000
-7.223550 38.711407 0.000000
-6.908809 38.711407 0.000000
-6.594068 38.711407 0.005436
-6.279327 38.711407 0.004476
-5.964586 38.711407 0.004417
-5.649845 38.711407 0.004426
-5.335104 38.711407 0.004376
-5.020363 38.711407 0.004267
-4.705622 38.711407 0.004248
-4.390881 38.711407 0.004318
-4.076140 38.711407 0.004324
-3.761399 38.711407 0.004334
-3.446658 38.711407 0.004305
-3.131917 38.711407 0.004329
-2.817176 38.711407 0.004372
-2.502435 38.711407 0.004439
-2.187694 38.711407 0.004457
-1.872953 38.711407 0.004441
-1.558212 38.711407 0.004545
-1.243471 38.711407 0.004572
-0.928730 38.711407 0.004556
-0.613989 38.711407 0.004603
-0.299248 38.711407 0.004724
0.015493 38.711407 0.004844
0.330234 38.711407 0.005071
0.644975 38.711407 0.005305
0.959716 38.711407 0.005482
1.274457 38.711407 0.005728
1.589198 38.711407 0.006062
1.903938 38.711407 0.006491
2.218679 38.711407 0.006948
2.533421 38.711407 0.007491
2.848162 38.711407 0.008071
3.162903 38.711407 0.008706
3.477644 38.711407 0.009567
3.792385 38.711407 0.010719
4.107125 38.711407 0.011884
4.421866 38.711407 0.013564
4.736608 38.711407 0.015562
5.051349 38.711407 0.018057
5.366090 38.711407 0.020952
5.680831 38.711407 0.024620
5.995571 38.711407 0.029106
6.310312 38.711407 0.035498
6.625053 38.711407 0.043809
6.939795 38.711407 0.054684
7.254536 38.711407 0.068994
7.569277 38.711407 0.088045
7.884017 38.711407 0.112489
8.198758 38.711407 0.142093
8.513499 38.711407 0.181055
8.828240 38.711407 0.231137
9.142982 38.711407 0.293216
9.457723 38.711407 0.365095
9.772464 38.711407 0.452903
10.087205 38.711407 0.549652
10.401946 38.711407 0.638125
10.716687 38.711407 0.739267
11.031426 38.711407 0.851292
11.346168 38.711407 0.966504
11.660909 38.711407 1.069097
11.975650 38.711407 1.152684
12.290391 38.711407 1.230136
12.605132 38.711407 1.289286
12.919873 38.711407 1.347967
13.234614 38.711407 1.397369
13.549356 38.711407 1.439792
13.864097 38.711407 1.458328
14.178838 38.711407 1.446503
14.493579 38.711407 1.426740
14.808320 38.711407 1.400384
15.123059 38.711407 1.354046
15.437800 38.711407 1.330906
15.752542 38.711407 0.554863
16.067284 38.711407 0.000000
16.382023 38.711407 0.000000
16.696766 38.711407 0.000000
17.011505 38.711407 0.000000
17.326248 38.711407 0.000000
17.640987 38.711407 0.518407
17.955730 38.711407 0.942194
18.270470 38.711407 1.040856
18.585213 38.711407 1.265579
18.899952 38.711407 0.000000
-7.223550 38.396667 0.000000
-6.908809 38.396667 0.000000
-6.594068 38.396667 0.005459
-6.279327 38.396667 0.004479
-5.964586 38.396667 0.004395
-5.649845 38.396667 0.004392
-5.335104 38.396667 0.004358
-5.020363 38.396667 0.004257
-4.705622 38.396667 0.004212
-4.390881 38.396667 0.004276
-4.076140 38.396667 0.004292
-3.761399 38.396667 0.004305
-3.446658 38.396667 0.004276
-3.131917 38.396667 0.004317
-2.817176 38.396667 0.004363
-2.502435 38.396667 0.004378
-2.187694 38.396667 0.004407
-1.872953 38.396667 0.004459
-1.558212 38.396667 0.004613
-1.243471 38.396667 0.004595
-0.928730 38.396667 0.004560
-0.613989 38.396667 0.004616
-0.299248 38.396667 0.004726
0.015493 38.396667 0.004860
0.330234 38.396667 0.005059
0.644975 38.396667 0.005269
0.959716 38.396667 0.005474
1.274457 38.396667 0.005691
1.589198 38.396667 0.006032
1.903938 38.396667 0.006443
2.218679 38.396667 0.006876
2.533421 38.396667 0.007441
2.848162 38.396667 0.008053
3.162903 38.396667 0.008665
3.477644 38.396667 0.009538
3.792385 38.396667 0.010548
4.107125 38.396667 0.011703
4.421866 38.396667 0.013475
4.736608 38.396667 0.015472
5.051349 38.396667 0.017996
5.366090 38.396667 0.020928
5.680831 38.396667 0.024450
5.995571 38.396667 0.028907
6.310312 38.396667 0.035698
6.625053 38.396667 0.043770
6.939795 38.396667 0.054774
7.254536 38.396667 0.068388
7.569277 38.396667 0.087510
7.884017 38.396667 0.110064
8.198758 38.396667 0.140217
8.513499 38.396667 0.178763
8.828240 38.396667 0.229135
9.142982 38.396667 0.290229
9.457723 38.396667 0.371210
9.772464 38.396667 0.457066
10.087205 38.396667 0.546091
10.401946 38.396667 0.637560
10.716687 38.396667 0.736268
11.031426 38.396667 0.858828
11.346168 38.396667 0.961720
11.660909 38.396667 1.060034
11.975650 38.396667 1.147022
12.290391 38.396667 1.227326
12.605132 38.396667 1.286472
12.919873 38.396667 1.353491
13.234614 38.396667 1.401471
13.549356 38.396667 1.442414
13.864097 38.396667 1.446575
14.178838 38.396667 1.440385
14.493579 38.396667 1.420116
14.808320 38.396667 1.388888
15.123059 38.396667 1.361569
15.437800 38.396667 1.333527
15.752542 38.396667 0.524581
16.067284 38.396667 0.000000
16.382023 38.396667 0.000000
16.696766 38.396667 0.000000
17.011505 38.396667 0.000000
17.326248 38.396667 0.000000
17.640987 38.396667 0.463403
17.955730 38.396667 0.862863
18.270470 38.396667 1.115256
18.585213 38.396667 1.261638
18.899952 38.396667 0.000000
-7.223550 38.081924 0.000000
-6.908809 38.081924 0.000000
-6.594068 38.081924 0.005460
-6.279327 38.081924 0.004495
-5.964586 38.081924 0.004392
-5.649845 38.081924 0.004347
-5.335104 38.081924 0.004327
-5.020363 38.081924 0.004273
-4.705622 38.081924 0.004227
-4.390881 38.081924 0.004254
-4.076140 38.081924 0.004308
-3.761399 38.081924 0.004306
-3.446658 38.081924 0.004244
-3.131917 38.081924 0.004277
-2.817176 38.081924 0.004325
-2.502435 38.081924 0.004342
-2.187694 38.081924 0.004400
-1.872953 38.081924 0.004506
-1.558212 38.081924 0.004610
-1.243471 38.081924 0.004588
-0.928730 38.081924 0.004548
-0.613989 38.081924 0.004631
-0.299248 38.081924 0.004739
0.015493 38.081924 0.004887
0.330234 38.081924 0.005059
0.644975 38.081924 0.005217
0.959716 38.081924 0.005445
1.274457 38.081924 0.005702
1.589198 38.081924 0.006037
1.903938 38.081924 0.006383
2.218679 38.081924 0.006837
2.533421 38.081924 0.007425
2.848162 38.081924 0.007991
3.162903 38.081924 0.008687
3.477644 38.081924 0.009482
3.792385 38.081924 0.010430
4.107125 38.081924 0.011651
4.421866 38.081924 0.013365
4.736608 38.081924 0.015378
5.051349 38.081924 0.017838
5.366090 38.081924 0.020754
5.680831 38.081924 0.024454
5.995571 38.081924 0.029117
6.310312 38.081924 0.035670
6.625053 38.081924 0.044087
6.939795 38.081924 0.054455
7.254536 38.081924 0.068484
7.569277 38.081924 0.087227
7.884017 38.081924 0.109064
8.198758 38.081924 0.138612
8.513499 38.081924 0.177473
8.828240 38.081924 0.229326
9.142982 38.081924 0.291662
9.457723 38.081924 0.375491
9.772464 38.081924 0.458366
10.087205 38.081924 0.546279
10.401946 38.081924 0.637160
10.716687 38.081924 0.740182
11.031426 38.081924 0.856417
11.346168 38.081924 0.950950
11.660909 38.081924 1.048965
11.975650 38.081924 1.144215
12.290391 38.081924 1.217401
12.605132 38.081924 1.289548
12.919873 38.081924 1.357535
13.234614 38.081924 1.407589
13.549356 38.081924 1.439941
13.864097 38.081924 1.434932
14.178838 38.081924 1.432210
14.493579 38.081924 1.431371
14.808320 38.081924 1.404827
15.123059 38.081924 1.352923
15.437800 38.081924 1.330284
15.752542 38.081924 0.509459
16.067284 38.081924 0.000000
16.382023 38.081924 0.000000
16.696766 38.081924 0.000000
17.011505 38.081924 0.000000
17.326248 38.081924 0.000000
17.640987 38.081924 0.807367
17.955730 38.081924 2.653934
18.270470 38.081924 0.913839
18.585213 38.081924 1.198523
18.899952 38.081924 0.000000
-7.223550 37.767185 0.000000
-6.908809 37.767185 0.000000
-6.594068 37.767185 0.005444
-6.279327 37.767185 0.004491
-5.964586 37.767185 0.004424
-5.649845 37.767185 0.004332
-5.335104 37.767185 0.004294
-5.020363 37.767185 0.004273
-4.705622 37.767185 0.004251
-4.390881 37.767185 0.004268
-4.076140 37.767185 0.004332
-3.761399 37.767185 0.004366
-3.446658 37.767185 0.004263
-3.131917 37.767185 0.004207
-2.817176 37.767185 0.004266
-2.502435 37.767185 0.004331
-2.187694 37.767185 0.004403
-1.872953 37.767185 0.004494
-1.558212 37.767185 0.004572
-1.243471 37.767185 0.004572
-0.928730 37.767185 0.004569
-0.613989 37.767185 0.004664
-0.299248 37.767185 0.004778
0.015493 37.767185 0.004939
0.330234 37.767185 0.005074
0.644975 37.767185 0.005199
0.959716 37.767185 0.005480
1.274457 37.767185 0.005747
1.589198 37.767185 0.006075
1.903938 37.767185 0.006412
2.218679 37.767185 0.006787
2.533421 37.767185 0.007368
2.848162 37.767185 0.007965
3.162903 37.767185 0.008695
3.477644 37.767185 0.009483
3.792385 37.767185 0.010333
4.107125 37.767185 0.011617
4.421866 37.767185 0.013289
4.736608 37.767185 0.015254
5.051349 37.767185 0.017655
5.366090 37.767185 0.020650
5.680831 37.767185 0.024517
5.995571 37.767185 0.029195
6.310312 37.767185 0.035607
6.625053 37.767185 0.043861
6.939795 37.767185 0.054462
7.254536 37.767185 0.069203
7.569277 37.767185 0.087855
7.884017 37.767185 0.111275
8.198758 37.767185 0.139873
8.513499 37.767185 0.176294
8.828240 37.767185 0.228997
9.142982 37.767185 0.285045
9.457723 37.767185 0.363705
9.772464 37.767185 0.458714
10.087205 37.767185 0.549344
10.401946 37.767185 0.642659
10.716687 37.767185 0.739231
11.031426 37.767185 0.843122
11.346168 37.767185 0.953934
11.660909 37.767185 1.037395
11.975650 37.767185 1.131068
12.290391 37.767185 1.217719
12.605132 37.767185 1.298896
12.919873 37.767185 1.368900
13.234614 37.767185 1.423362
13.549356 37.767185 1.443561
13.864097 37.767185 1.440915
14.178838 37.767185 1.434355
14.493579 37.767185 1.435825
14.808320 37.767185 1.407802
15.123059 37.767185 1.367652
15.437800 37.767185 1.340183
15.752542 37.767185 0.772734
16.067284 37.767185 0.000000
16.382023 37.767185 0.000000
16.696766 37.767185 0.000000
17.011505 37.767185 0.000000
17.326248 37.767185 0.000000
17.640987 37.767185 0.000000
17.955730 37.767185 0.000000
18.270470 37.767185 0.738551
18.585213 37.767185 1.031067
18.899952 37.767185 0.000000
-7.223550 37.452446 0.000000
-6.908809 37.452446 0.000000
-6.594068 37.452446 0.005438
-6.279327 37.452446 0.004463
-5.964586 37.452446 0.004424
-5.649845 37.452446 0.004365
-5.335104 37.452446 0.004282
-5.020363 37.452446 0.004261
-4.705622 37.452446 0.004284
-4.390881 37.452446 0.004322
-4.076140 37.452446 0.004362
-3.761399 37.452446 0.004372
-3.446658 37.452446 0.004279
-3.131917 37.452446 0.004160
-2.817176 37.452446 0.004210
-2.502435 37.452446 0.004306
-2.187694 37.452446 0.004362
-1.872953 37.452446 0.004426
-1.558212 37.452446 0.004494
-1.243471 37.452446 0.004566
-0.928730 37.452446 0.004591
-0.613989 37.452446 0.004683
-0.299248 37.452446 0.004811
0.015493 37.452446 0.004965
0.330234 37.452446 0.005082
0.644975 37.452446 0.005241
0.959716 37.452446 0.005502
1.274457 37.452446 0.005783
1.589198 37.452446 0.006082
1.903938 37.452446 0.006408
2.218679 37.452446 0.006781
2.533421 37.452446 0.007311
2.848162 37.452446 0.007902
3.162903 37.452446 0.008697
3.477644 37.452446 0.009491
3.792385 37.452446 0.010334
4.107125 37.452446 0.011556
4.421866 37.452446 0.013217
4.736608 37.452446 0.015162
5.051349 37.452446 0.017562
5.366090 37.452446 0.020511
5.680831 37.452446 0.024449
5.995571 37.452446 0.029599
6.310312 37.452446 0.035861
6.625053 37.452446 0.043890
6.939795 37.452446 0.054262
7.254536 37.452446 0.068485
7.569277 37.452446 0.087661
7.884017 37.452446 0.112972
8.198758 37.452446 0.139878
8.513499 37.452446 0.177519
8.828240 37.452446 0.227104
9.142982 37.452446 0.291690
9.457723 37.452446 0.366776
9.772464 37.452446 0.450673
10.087205 37.452446 0.552765
10.401946 37.452446 0.643936
10.716687 37.452446 0.732148
11.031426 37.452446 0.842537
11.346168 37.452446 0.957509
11.660909 37.452446 1.054174
11.975650 37.452446 1.136963
12.290391 37.452446 1.216700
12.605132 37.452446 1.303832
12.919873 37.452446 1.378786
13.234614 37.452446 1.427494
13.549356 37.452446 1.450073
13.864097 37.452446 1.447913
14.178838 37.452446 1.459424
14.493579 37.452446 1.450526
14.808320 37.452446 1.422269
15.123059 37.452446 1.374260
15.437800 37.452446 1.352870
15.752542 37.452446 0.730329
16.067284 37.452446 0.000000
16.382023 37.452446 0.000000
16.696766 37.452446 0.000000
17.011505 37.452446 0.000000
17.326248 37.452446 0.000000
17.640987 37.452446 0.000000
17.955730 37.452446 0.000000
18.270470 37.452446 0.681658
18.585213 37.452446 0.783259
18.899952 37.452446 0.000000
-7.223550 37.137703 0.000000
-6.908809 37.137703 0.000000
-6.594068 37.137703 0.005455
-6.279327 37.137703 0.004442
-5.964586 37.137703 0.004442
-5.649845 37.137703 0.004406
-5.335104 37.137703 0.004321
-5.020363 37.137703 0.004278
-4.705622 37.137703 0.004311
-4.390881 37.137703 0.004345
-4.076140 37.137703 0.004377
-3.761399 37.137703 0.004382
-3.446658 37.137703 0.004307
-3.131917 37.137703 0.004167
-2.817176 37.137703 0.004176
-2.502435 37.137703 0.004269
-2.187694 37.137703 0.004303
-1.872953 37.137703 0.004315
-1.558212 37.137703 0.004412
-1.243471 37.137703 0.004506
-0.928730 37.137703 0.004571
-0.613989 37.137703 0.004682
-0.299248 37.137703 0.004820
0.015493 37.137703 0.004956
0.330234 37.137703 0.005084
0.644975 37.137703 0.005279
0.959716 37.137703 0.005557
1.274457 37.137703 0.005813
1.589198 37.137703 0.006087
1.903938 37.137703 0.006381
2.218679 37.137703 0.006756
2.533421 37.137703 0.007270
2.848162 37.137703 0.007871
3.162903 37.137703 0.008673
3.477644 37.137703 0.009448
3.792385 37.137703 0.010279
4.107125 37.137703 0.011524
4.421866 37.137703 0.013182
4.736608 37.137703 0.015178
5.051349 37.137703 0.017448
5.366090 37.137703 0.020376
5.680831 37.137703 0.024268
5.995571 37.137703 0.029669
6.310312 37.137703 0.035987
6.625053 37.137703 0.043378
6.939795 37.137703 0.053910
7.254536 37.137703 0.068251
7.569277 37.137703 0.087690
7.884017 37.137703 0.112748
8.198758 37.137703 0.142232
8.513499 37.137703 0.178830
8.828240 37.137703 0.231069
9.142982 37.137703 0.289513
9.457723 37.137703 0.372575
9.772464 37.137703 0.458455
10.087205 37.137703 0.561041
10.401946 37.137703 0.650514
10.716687 37.137703 0.733743
11.031426 37.137703 0.841857
11.346168 37.137703 0.954554
11.660909 37.137703 1.058967
11.975650 37.137703 1.147332
12.290391 37.137703 1.218126
12.605132 37.137703 1.301525
12.919873 37.137703 1.376155
13.234614 37.137703 1.424898
13.549356 37.137703 1.432985
13.864097 37.137703 1.445808
14.178838 37.137703 1.456473
14.493579 37.137703 1.451350
14.808320 37.137703 1.436347
15.123059 37.137703 1.375215
15.437800 37.137703 1.340075
15.752542 37.137703 0.681508
16.067284 37.137703 0.000000
16.382023 37.137703 0.000000
16.696766 37.137703 0.000000
17.011505 37.137703 0.000000
17.326248 37.137703 0.000000
17.640987 37.137703 0.000000
17.955730 37.137703 0.000000
18.270470 37.137703 0.000000
18.585213 37.137703 4.468313
18.899952 37.137703 0.000000
-7.223550 36.822960 0.000000
-6.908809 36.822960 0.000000
-6.594068 36.822960 0.005438
-6.279327 36.822960 0.004414
-5.964586 36.822960 0.004416
-5.649845 36.822960 0.004450
-5.335104 36.822960 0.004394
-5.020363 36.822960 0.004285
-4.705622 36.822960 0.004290
-4.390881 36.822960 0.004379
-4.076140 36.822960 0.004379
-3.761399 36.822960 0.004377
-3.446658 36.822960 0.004295
-3.131917 36.822960 0.004182
-2.817176 36.822960 0.004187
-2.502435 36.822960 0.004243
-2.187694 36.822960 0.004261
-1.872953 36.822960 0.004261
-1.558212 36.822960 0.004341
-1.243471 36.822960 0.004453
-0.928730 36.822960 0.004553
-0.613989 36.822960 0.004667
-0.299248 36.822960 0.004799
0.015493 36.822960 0.004941
0.330234 36.822960 0.005084
0.644975 36.822960 0.005293
0.959716 36.822960 0.005584
1.274457 36.822960 0.005812
1.589198 36.822960 0.006060
1.903938 36.822960 0.006337
2.218679 36.822960 0.006719
2.533421 36.822960 0.007258
2.848162 36.822960 0.007885
3.162903 36.822960 0.008596
3.477644 36.822960 0.009393
3.792385 36.822960 0.010270
4.107125 36.822960 0.011514
4.421866 36.822960 0.013192
4.736608 36.822960 0.015190
5.051349 36.822960 0.017343
5.366090 36.822960 0.020313
5.680831 36.822960 0.024249
5.995571 36.822960 0.029423
6.310312 36.822960 0.035941
6.625053 36.822960 0.043913
6.939795 36.822960 0.053937
7.254536 36.822960 0.068661
7.569277 36.822960 0.088440
7.884017 36.822960 0.113305
8.198758 36.822960 0.143882
8.513499 36.822960 0.181716
8.828240 36.822960 0.231496
9.142982 36.822960 0.291333
9.457723 36.822960 0.376846
9.772464 36.822960 0.466818
10.087205 36.822960 0.561768
10.401946 36.822960 0.647391
10.716687 36.822960 0.734417
11.031426 36.822960 0.852042
11.346168 36.822960 0.963429
11.660909 36.822960 1.062188
11.975650 36.822960 1.154312
12.290391 36.822960 1.213126
12.605132 36.822960 1.290938
12.919873 36.822960 1.364884
13.234614 36.822960 1.419884
13.549356 36.822960 1.447169
13.864097 36.822960 1.448563
14.178838 36.822960 1.449852
14.493579 36.822960 1.451795
14.808320 36.822960 1.426103
15.123059 36.822960 1.360669
15.437800 36.822960 1.311508
15.752542 36.822960 0.654912
16.067284 36.822960 0.000000
16.382023 36.822960 0.000000
16.696766 36.822960 0.000000
17.011505 36.822960 0.000000
17.326248 36.822960 0.000000
17.640987 36.822960 0.000000
17.955730 36.822960 0.000000
18.270470 36.822960 0.000000
18.585213 36.822960 0.000000
18.899952 36.822960 0.000000
-7.223550 36.508221 0.000000
-6.908809 36.508221 0.000000
-6.594068 36.508221 0.005428
-6.279327 36.508221 0.004430
-5.964586 36.508221 0.004420
-5.649845 36.508221 0.004475
-5.335104 36.508221 0.004447
-5.020363 36.508221 0.004298
-4.705622 36.508221 0.004329
-4.390881 36.508221 0.004416
-4.076140 36.508221 0.004422
-3.761399 36.508221 0.004371
-3.446658 36.508221 0.004284
-3.131917 36.508221 0.004232
-2.817176 36.508221 0.004230
-2.502435 36.508221 0.004260
-2.187694 36.508221 0.004277
-1.872953 36.508221 0.004253
-1.558212 36.508221 0.004304
-1.243471 36.508221 0.004412
-0.928730 36.508221 0.004549
-0.613989 36.508221 0.004656
-0.299248 36.508221 0.004783
0.015493 36.508221 0.004924
0.330234 36.508221 0.005071
0.644975 36.508221 0.005279
0.959716 36.508221 0.005599
1.274457 36.508221 0.005814
1.589198 36.508221 0.006044
1.903938 36.508221 0.006356
2.218679 36.508221 0.006751
2.533421 36.508221 0.007275
2.848162 36.508221 0.007853
3.162903 36.508221 0.008508
3.477644 36.508221 0.009306
3.792385 36.508221 0.010315
4.107125 36.508221 0.011556
4.421866 36.508221 0.013260
4.736608 36.508221 0.015219
5.051349 36.508221 0.017384
5.366090 36.508221 0.020285
5.680831 36.508221 0.024246
5.995571 36.508221 0.029274
6.310312 36.508221 0.035779
6.625053 36.508221 0.043507
6.939795 36.508221 0.054304
7.254536 36.508221 0.068255
7.569277 36.508221 0.087717
7.884017 36.508221 0.112237
8.198758 36.508221 0.142591
8.513499 36.508221 0.181354
8.828240 36.508221 0.230514
9.142982 36.508221 0.296496
9.457723 36.508221 0.381853
9.772464 36.508221 0.471794
10.087205 36.508221 0.562882
10.401946 36.508221 0.647926
10.716687 36.508221 0.741368
11.031426 36.508221 0.857009
11.346168 36.508221 0.957575
11.660909 36.508221 1.065926
11.975650 36.508221 1.147286
12.290391 36.508221 1.216835
12.605132 36.508221 1.287622
12.919873 36.508221 1.365442
13.234614 36.508221 1.427860
13.549356 36.508221 1.459337
13.864097 36.508221 1.452646
14.178838 36.508221 1.457401
14.493579 36.508221 1.436812
14.808320 36.508221 1.415627
15.123059 36.508221 1.356087
15.437800 36.508221 1.307026
15.752542 36.508221 0.623265
16.067284 36.508221 0.000000
16.382023 36.508221 0.000000
16.696766 36.508221 0.000000
17.011505 36.508221 0.000000
17.326248 36.508221 0.000000
17.640987 36.508221 0.000000
17.955730 36.508221 0.000000
18.270470 36.508221 0.000000
18.585213 36.508221 0.000000
18.899952 36.508221 0.000000
-7.223550 36.193481 0.000000
-6.908809 36.193481 0.000000
-6.594068 36.193481 0.005406
-6.279327 36.193481 0.004455
-5.964586 36.193481 0.004447
-5.649845 36.193481 0.004475
-5.335104 36.193481 0.004460
-5.020363 36.193481 0.004307
-4.705622 36.193481 0.004343
-4.390881 36.193481 0.004455
-4.076140 36.193481 0.004470
-3.761399 36.193481 0.004402
-3.446658 36.193481 0.004281
-3.131917 36.193481 0.004281
-2.817176 36.193481 0.004310
-2.502435 36.193481 0.004320
-2.187694 36.193481 0.004313
-1.872953 36.193481 0.004312
-1.558212 36.193481 0.004316
-1.243471 36.193481 0.004417
-0.928730 36.193481 0.004566
-0.613989 36.193481 0.004694
-0.299248 36.193481 0.004812
0.015493 36.193481 0.004930
0.330234 36.193481 0.005057
0.644975 36.193481 0.005252
0.959716 36.193481 0.005587
1.274457 36.193481 0.005800
1.589198 36.193481 0.006046
1.903938 36.193481 0.006394
2.218679 36.193481 0.006812
2.533421 36.193481 0.007342
2.848162 36.193481 0.007856
3.162903 36.193481 0.008503
3.477644 36.193481 0.009335
3.792385 36.193481 0.010418
4.107125 36.193481 0.011623
4.421866 36.193481 0.013243
4.736608 36.193481 0.015212
5.051349 36.193481 0.017424
5.366090 36.193481 0.020176
5.680831 36.193481 0.023843
5.995571 36.193481 0.029046
6.310312 36.193481 0.035340
6.625053 36.193481 0.043897
6.939795 36.193481 0.054641
7.254536 36.193481 0.068894
7.569277 36.193481 0.087665
7.884017 36.193481 0.110505
8.198758 36.193481 0.140807
8.513499 36.193481 0.181079
8.828240 36.193481 0.233055
9.142982 36.193481 0.298874
9.457723 36.193481 0.382062
9.772464 36.193481 0.469705
10.087205 36.193481 0.558780
10.401946 36.193481 0.651015
10.716687 36.193481 0.748520
11.031426 36.193481 0.853959
11.346168 36.193481 0.967307
11.660909 36.193481 1.069617
11.975650 36.193481 1.152050
12.290391 36.193481 1.213547
12.605132 36.193481 1.299148
12.919873 36.193481 1.371234
13.234614 36.193481 1.451951
13.549356 36.193481 1.471443
13.864097 36.193481 1.465279
14.178838 36.193481 1.456159
14.493579 36.193481 1.439535
14.808320 36.193481 1.408048
15.123059 36.193481 1.350932
15.437800 36.193481 1.309795
15.752542 36.193481 0.576819
16.067284 36.193481 0.000000
16.382023 36.193481 0.000000
16.696766 36.193481 0.000000
17.011505 36.193481 0.000000
17.326248 36.193481 0.000000
17.640987 36.193481 0.000000
17.955730 36.193481 0.000000
18.270470 36.193481 0.000000
18.585213 36.193481 0.000000
18.899952 36.193481 0.000000
-7.223550 35.878738 0.000000
-6.908809 35.878738 0.000000
-6.594068 35.878738 0.005331
-6.279327 35.878738 0.004488
-5.964586 35.878738 0.004501
-5.649845 35.878738 0.004472
-5.335104 35.878738 0.004425
-5.020363 35.878738 0.004314
-4.705622 35.878738 0.004377
-4.390881 35.878738 0.004474
-4.076140 35.878738 0.004502
-3.761399 35.878738 0.004406
-3.446658 35.878738 0.004302
-3.131917 35.878738 0.004307
-2.817176 35.878738 0.004399
-2.502435 35.878738 0.004403
-2.187694 35.878738 0.004352
-1.872953 35.878738 0.004375
-1.558212 35.878738 0.004353
-1.243471 35.878738 0.004452
-0.928730 35.878738 0.004565
-0.613989 35.878738 0.004713
-0.299248 35.878738 0.004844
0.015493 35.878738 0.004957
0.330234 35.878738 0.005071
0.644975 35.878738 0.005247
0.959716 35.878738 0.005551
1.274457 35.878738 0.005777
1.589198 35.878738 0.006082
1.903938 35.878738 0.006451
2.218679 35.878738 0.006890
2.533421 35.878738 0.007391
2.848162 35.878738 0.007896
3.162903 35.878738 0.008532
3.477644 35.878738 0.009451
3.792385 35.878738 0.010514
4.107125 35.878738 0.011727
4.421866 35.878738 0.013256
4.736608 35.878738 0.015194
5.051349 35.878738 0.017415
5.366090 35.878738 0.020298
5.680831 35.878738 0.023910
5.995571 35.878738 0.028769
6.310312 35.878738 0.035233
6.625053 35.878738 0.043945
6.939795 35.878738 0.054947
7.254536 35.878738 0.069436
7.569277 35.878738 0.088480
7.884017 35.878738 0.111796
8.198758 35.878738 0.140811
8.513499 35.878738 0.179812
8.828240 35.878738 0.232748
9.142982 35.878738 0.299040
9.457723 35.878738 0.374544
9.772464 35.878738 0.460333
10.087205 35.878738 0.548409
10.401946 35.878738 0.650707
10.716687 35.878738 0.753114
11.031426 35.878738 0.861698
11.346168 35.878738 0.975997
11.660909 35.878738 1.063866
11.975650 35.878738 1.159451
12.290391 35.878738 1.225365
12.605132 35.878738 1.297842
12.919873 35.878738 1.378137
13.234614 35.878738 1.444169
13.549356 35.878738 1.473587
13.864097 35.878738 1.472326
14.178838 35.878738 1.454054
14.493579 35.878738 1.429483
14.808320 35.878738 1.405922
15.123059 35.878738 1.348533
15.437800 35.878738 1.296950
15.752542 35.878738 0.538092
16.067284 35.878738 0.000000
16.382023 35.878738 0.000000
16.696766 35.878738 0.000000
17.011505 35.878738 0.000000
17.326248 35.878738 0.000000
17.640987 35.878738 0.000000
17.955730 35.878738 0.000000
18.270470 35.878738 0.000000
18.585213 35.878738 0.000000
18.899952 35.878738 0.000000
-7.223550 35.563999 0.000000
-6.908809 35.563999 0.000000
-6.594068 35.563999 0.005300
-6.279327 35.563999 0.004506
-5.964586 35.563999 0.004517
-5.649845 35.563999 0.004469
-5.335104 35.563999 0.004390
-5.020363 35.563999 0.004325
-4.705622 35.563999 0.004393
-4.390881 35.563999 0.004469
-4.076140 35.563999 0.004496
-3.761399 35.563999 0.004424
-3.446658 35.563999 0.004340
-3.131917 35.563999 0.004341
-2.817176 35.563999 0.004470
-2.502435 35.563999 0.004467
-2.187694 35.563999 0.004397
-1.872953 35.563999 0.004426
-1.558212 35.563999 0.004407
-1.243471 35.563999 0.004506
-0.928730 35.563999 0.004591
-0.613989 35.563999 0.004739
-0.299248 35.563999 0.004891
0.015493 35.563999 0.004960
0.330234 35.563999 0.005064
0.644975 35.563999 0.005268
0.959716 35.563999 0.005525
1.274457 35.563999 0.005733
1.589198 35.563999 0.006063
1.903938 35.563999 0.006480
2.218679 35.563999 0.006936
2.533421 35.563999 0.007370
2.848162 35.563999 0.007854
3.162903 35.563999 0.008555
3.477644 35.563999 0.009588
3.792385 35.563999 0.010659
4.107125 35.563999 0.011781
4.421866 35.563999 0.013271
4.736608 35.563999 0.015168
5.051349 35.563999 0.017437
5.366090 35.563999 0.020403
5.680831 35.563999 0.024055
5.995571 35.563999 0.028856
6.310312 35.563999 0.034916
6.625053 35.563999 0.043498
6.939795 35.563999 0.053884
7.254536 35.563999 0.068740
7.569277 35.563999 0.088046
7.884017 35.563999 0.112595
8.198758 35.563999 0.140274
8.513499 35.563999 0.180120
8.828240 35.563999 0.231893
9.142982 35.563999 0.297893
9.457723 35.563999 0.371352
9.772464 35.563999 0.454872
10.087205 35.563999 0.548073
10.401946 35.563999 0.649426
10.716687 35.563999 0.749180
11.031426 35.563999 0.859698
11.346168 35.563999 0.966803
11.660909 35.563999 1.066405
11.975650 35.563999 1.151381
12.290391 35.563999 1.237768
12.605132 35.563999 1.310524
12.919873 35.563999 1.383759
13.234614 35.563999 1.436550
13.549356 35.563999 1.467173
13.864097 35.563999 1.465933
14.178838 35.563999 1.452000
14.493579 35.563999 1.427431
14.808320 35.563999 1.410445
15.123059 35.563999 1.345578
15.437800 35.563999 1.282251
15.752542 35.563999 0.513758
16.067284 35.563999 0.000000
16.382023 35.563999 0.000000
16.696766 35.563999 0.000000
17.011505 35.563999 0.000000
17.326248 35.563999 0.000000
17.640987 35.563999 0.000000
17.955730 35.563999 0.000000
18.270470 35.563999 0.000000
18.585213 35.563999 0.000000
18.899952 35.563999 0.000000
-7.223550 35.249256 0.000000
-6.908809 35.249256 0.000000
-6.594068 35.249256 0.005281
-6.279327 35.249256 0.004490
-5.964586 35.249256 0.004503
-5.649845 35.249256 0.004453
-5.335104 35.249256 0.004366
-5.020363 35.249256 0.004334
-4.705622 35.249256 0.004390
-4.390881 35.249256 0.004464
-4.076140 35.249256 0.004438
-3.761399 35.249256 0.004424
-3.446658 35.249256 0.004414
-3.131917 35.249256 0.004392
-2.817176 35.249256 0.004484
-2.502435 35.249256 0.004488
-2.187694 35.249256 0.004423
-1.872953 35.249256 0.004469
-1.558212 35.249256 0.004494
-1.243471 35.249256 0.004562
-0.928730 35.249256 0.004632
-0.613989 35.249256 0.004778
-0.299248 35.249256 0.004917
0.015493 35.249256 0.004990
0.330234 35.249256 0.005075
0.644975 35.249256 0.005308
0.959716 35.249256 0.005532
1.274457 35.249256 0.005703
1.589198 35.249256 0.006037
1.903938 35.249256 0.006455
2.218679 35.249256 0.006903
2.533421 35.249256 0.007334
2.848162 35.249256 0.007841
3.162903 35.249256 0.008584
3.477644 35.249256 0.009608
3.792385 35.249256 0.010705
4.107125 35.249256 0.011799
4.421866 35.249256 0.013215
4.736608 35.249256 0.015159
5.051349 35.249256 0.017619
5.366090 35.249256 0.020546
5.680831 35.249256 0.024333
5.995571 35.249256 0.028810
6.310312 35.249256 0.034881
6.625053 35.249256 0.043308
6.939795 35.249256 0.054328
7.254536 35.249256 0.068706
7.569277 35.249256 0.086700
7.884017 35.249256 0.111968
8.198758 35.249256 0.141682
8.513499 35.249256 0.182446
8.828240 35.249256 0.232082
9.142982 35.249256 0.295247
9.457723 35.249256 0.377374
9.772464 35.249256 0.463086
10.087205 35.249256 0.552149
10.401946 35.249256 0.651821
10.716687 35.249256 0.749229
11.031426 35.249256 0.858550
11.346168 35.249256 0.958097
11.660909 35.249256 1.058674
11.975650 35.249256 1.152710
12.290391 35.249256 1.234472
12.605132 35.249256 1.316510
12.919873 35.249256 1.384412
13.234614 35.249256 1.437479
13.549356 35.249256 1.468912
13.864097 35.249256 1.466789
14.178838 35.249256 1.453135
14.493579 35.249256 1.429352
14.808320 35.249256 1.403552
15.123059 35.249256 1.334956
15.437800 35.249256 1.279644
15.752542 35.249256 0.480900
16.067284 35.249256 0.000000
16.382023 35.249256 0.000000
16.696766 35.249256 0.000000
17.011505 35.249256 0.000000
17.326248 35.249256 0.000000
17.640987 35.249256 0.000000
17.955730 35.249256 0.000000
18.270470 35.249256 0.000000
18.585213 35.249256 0.000000
18.899952 35.249256 0.000000
-7.223550 34.934517 0.000000
-6.908809 34.934517 0.000000
-6.594068 34.934517 0.005329
-6.279327 34.934517 0.004504
-5.964586 34.934517 0.004512
-5.649845 34.934517 0.004466
-5.335104 34.934517 0.004399
-5.020363 34.934517 0.004377
-4.705622 34.934517 0.004390
-4.390881 34.934517 0.004420
-4.076140 34.934517 0.004378
-3.761399 34.934517 0.004410
-3.446658 34.934517 0.004459
-3.131917 34.934517 0.004439
-2.817176 34.934517 0.004461
-2.502435 34.934517 0.004481
-2.187694 34.934517 0.004450
-1.872953 34.934517 0.004500
-1.558212 34.934517 0.004553
-1.243471 34.934517 0.004604
-0.928730 34.934517 0.004667
-0.613989 34.934517 0.004783
-0.299248 34.934517 0.004925
0.015493 34.934517 0.005009
0.330234 34.934517 0.005119
0.644975 34.934517 0.005353
0.959716 34.934517 0.005540
1.274457 34.934517 0.005708
1.589198 34.934517 0.006029
1.903938 34.934517 0.006449
2.218679 34.934517 0.006871
2.533421 34.934517 0.007314
2.848162 34.934517 0.007855
3.162903 34.934517 0.008588
3.477644 34.934517 0.009539
3.792385 34.934517 0.010601
4.107125 34.934517 0.011794
4.421866 34.934517 0.013248
4.736608 34.934517 0.015159
5.051349 34.934517 0.017515
5.366090 34.934517 0.020583
5.680831 34.934517 0.024222
5.995571 34.934517 0.028692
6.310312 34.934517 0.035126
6.625053 34.934517 0.043278
6.939795 34.934517 0.054097
7.254536 34.934517 0.068412
7.569277 34.934517 0.086641
7.884017 34.934517 0.111084
8.198758 34.934517 0.143213
8.513499 34.934517 0.181772
8.828240 34.934517 0.232892
9.142982 34.934517 0.296810
9.457723 34.934517 0.379148
9.772464 34.934517 0.466670
10.087205 34.934517 0.557132
10.401946 34.934517 0.655247
10.716687 34.934517 0.748357
11.031426 34.934517 0.856264
11.346168 34.934517 0.958669
11.660909 34.934517 1.052642
11.975650 34.934517 1.148710
12.290391 34.934517 1.235483
12.605132 34.934517 1.322758
12.919873 34.934517 1.391246
13.234614 34.934517 1.439113
13.549356 34.934517 1.475728
13.864097 34.934517 1.479536
14.178838 34.934517 1.458078
14.493579 34.934517 1.430582
14.808320 34.934517 1.389609
15.123059 34.934517 1.332145
15.437800 34.934517 1.280613
15.752542 34.934517 0.538835
16.067284 34.934517 0.000000
16.382023 34.934517 0.000000
16.696766 34.934517 0.000000
17.011505 34.934517 0.000000
17.326248 34.934517 0.000000
17.640987 34.934517 0.000000
17.955730 34.934517 0.000000
18.270470 34.934517 0.000000
18.585213 34.934517 0.000000
18.899952 34.934517 0.000000
-7.223550 34.619774 0.000000
-6.908809 34.619774 0.000000
-6.594068 34.619774 0.005336
-6.279327 34.619774 0.004508
-5.964586 34.619774 0.004502
-5.649845 34.619774 0.004506
-5.335104 34.619774 0.004470
-5.020363 34.619774 0.004440
-4.705622 34.619774 0.004398
-4.390881 34.619774 0.004393
-4.076140 34.619774 0.004347
-3.761399 34.619774 0.004378
-3.446658 34.619774 0.004453
-3.131917 34.619774 0.004448
-2.817176 34.619774 0.004414
-2.502435 34.619774 0.004442
-2.187694 34.619774 0.004470
-1.872953 34.619774 0.004555
-1.558212 34.619774 0.004586
-1.243471 34.619774 0.004626
-0.928730 34.619774 0.004703
-0.613989 34.619774 0.004796
-0.299248 34.619774 0.004912
0.015493 34.619774 0.005042
0.330234 34.619774 0.005157
0.644975 34.619774 0.005351
0.959716 34.619774 0.005535
1.274457 34.619774 0.005719
1.589198 34.619774 0.006045
1.903938 34.619774 0.006424
2.218679 34.619774 0.006819
2.533421 34.619774 0.007316
2.848162 34.619774 0.007853
3.162903 34.619774 0.008551
3.477644 34.619774 0.009475
3.792385 34.619774 0.010515
4.107125 34.619774 0.011753
4.421866 34.619774 0.013240
4.736608 34.619774 0.015119
5.051349 34.619774 0.017529
5.366090 34.619774 0.020590
5.680831 34.619774 0.024274
5.995571 34.619774 0.028931
6.310312 34.619774 0.035214
6.625053 34.619774 0.043668
6.939795 34.619774 0.054753
7.254536 34.619774 0.068663
7.569277 34.619774 0.086900
7.884017 34.619774 0.111260
8.198758 34.619774 0.143244
8.513499 34.619774 0.181278
8.828240 34.619774 0.232615
9.142982 34.619774 0.299614
9.457723 34.619774 0.377508
9.772464 34.619774 0.469292
10.087205 34.619774 0.566329
10.401946 34.619774 0.655560
10.716687 34.619774 0.754856
11.031426 34.619774 0.854488
11.346168 34.619774 0.946792
11.660909 34.619774 1.056476
11.975650 34.619774 1.149596
12.290391 34.619774 1.236369
12.605132 34.619774 1.323361
12.919873 34.619774 1.390265
13.234614 34.619774 1.437980
13.549356 34.619774 1.488130
13.864097 34.619774 1.477276
14.178838 34.619774 1.467201
14.493579 34.619774 1.428525
14.808320 34.619774 1.381970
15.123059 34.619774 1.314993
15.437800 34.619774 1.268762
15.752542 34.619774 0.603888
16.067284 34.619774 0.000000
16.382023 34.619774 0.000000
16.696766 34.619774 0.000000
17.011505 34.619774 0.000000
17.326248 34.619774 0.000000
17.640987 34.619774 0.000000
17.955730 34.619774 0.000000
18.270470 34.619774 0.000000
18.585213 34.619774 0.000000
18.899952 34.619774 0.000000
-7.223550 34.305035 0.000000
-6.908809 34.305035 0.000000
-6.594068 34.305035 0.005367
-6.279327 34.305035 0.004503
-5.964586 34.305035 0.004508
-5.649845 34.305035 0.004522
-5.335104 34.305035 0.004561
-5.020363 34.305035 0.004529
-4.705622 34.305035 0.004449
-4.390881 34.305035 0.004377
-4.076140 34.305035 0.004362
-3.761399 34.305035 0.004380
-3.446658 34.305035 0.004446
-3.131917 34.305035 0.004432
-2.817176 34.305035 0.004378
-2.502435 34.305035 0.004406
-2.187694 34.305035 0.004474
-1.872953 34.305035 0.004582
-1.558212 34.305035 0.004619
-1.243471 34.305035 0.004647
-0.928730 34.305035 0.004718
-0.613989 34.305035 0.004805
-0.299248 34.305035 0.004923
0.015493 34.305035 0.005078
0.330234 34.305035 0.005212
0.644975 34.305035 0.005362
0.959716 34.305035 0.005569
1.274457 34.305035 0.005786
1.589198 34.305035 0.006106
1.903938 34.305035 0.006405
2.218679 34.305035 0.006800
2.533421 34.305035 0.007329
2.848162 34.305035 0.007894
3.162903 34.305035 0.008570
3.477644 34.305035 0.009472
3.792385 34.305035 0.010503
4.107125 34.305035 0.011756
4.421866 34.305035 0.013303
4.736608 34.305035 0.015119
5.051349 34.305035 0.017610
5.366090 34.305035 0.020683
5.680831 34.305035 0.024358
5.995571 34.305035 0.029144
6.310312 34.305035 0.035617
6.625053 34.305035 0.044037
6.939795 34.305035 0.054685
7.254536 34.305035 0.068540
7.569277 34.305035 0.086877
7.884017 34.305035 0.110721
8.198758 34.305035 0.141007
8.513499 34.305035 0.181431
8.828240 34.305035 0.234217
9.142982 34.305035 0.296368
9.457723 34.305035 0.378070
9.772464 34.305035 0.463382
10.087205 34.305035 0.563101
10.401946 34.305035 0.663454
10.716687 34.305035 0.761037
11.031426 34.305035 0.854686
11.346168 34.305035 0.943579
11.660909 34.305035 1.047880
11.975650 34.305035 1.152547
12.290391 34.305035 1.243638
12.605132 34.305035 1.323138
12.919873 34.305035 1.400951
13.234614 34.305035 1.435027
13.549356 34.305035 1.480681
13.864097 34.305035 1.484076
14.178838 34.305035 1.472974
14.493579 34.305035 1.433865
14.808320 34.305035 1.385542
15.123059 34.305035 1.305960
15.437800 34.305035 1.268784
15.752542 34.305035 0.561410
16.067284 34.305035 0.000000
16.382023 34.305035 0.000000
16.696766 34.305035 0.000000
17.011505 34.305035 0.000000
17.326248 34.305035 0.000000
17.640987 34.305035 0.000000
17.955730 34.305035 0.000000
18.270470 34.305035 0.000000
18.585213 34.305035 0.000000
18.899952 34.305035 0.000000
-7.223550 33.990295 0.000000
-6.908809 33.990295 0.000000
-6.594068 33.990295 0.005366
-6.279327 33.990295 0.004498
-5.964586 33.990295 0.004496
-5.649845 33.990295 0.004537
-5.335104 33.990295 0.004595
-5.020363 33.990295 0.004610
-4.705622 33.990295 0.004501
-4.390881 33.990295 0.004397
-4.076140 33.990295 0.004381
-3.761399 33.990295 0.004404
-3.446658 33.990295 0.004438
-3.131917 33.990295 0.004423
-2.817176 33.990295 0.004377
-2.502435 33.990295 0.004395
-2.187694 33.990295 0.004489
-1.872953 33.990295 0.004614
-1.558212 33.990295 0.004666
-1.243471 33.990295 0.004680
-0.928730 33.990295 0.004734
-0.613989 33.990295 0.004839
-0.299248 33.990295 0.004975
0.015493 33.990295 0.005120
0.330234 33.990295 0.005244
0.644975 33.990295 0.005395
0.959716 33.990295 0.005631
1.274457 33.990295 0.005851
1.589198 33.990295 0.006157
1.903938 33.990295 0.006408
2.218679 33.990295 0.006829
2.533421 33.990295 0.007345
2.848162 33.990295 0.007952
3.162903 33.990295 0.008640
3.477644 33.990295 0.009488
3.792385 33.990295 0.010520
4.107125 33.990295 0.011804
4.421866 33.990295 0.013355
4.736608 33.990295 0.015167
5.051349 33.990295 0.017658
5.366090 33.990295 0.020933
5.680831 33.990295 0.024349
5.995571 33.990295 0.029372
6.310312 33.990295 0.035863
6.625053 33.990295 0.043825
6.939795 33.990295 0.054777
7.254536 33.990295 0.069091
7.569277 33.990295 0.087346
7.884017 33.990295 0.110704
8.198758 33.990295 0.141865
8.513499 33.990295 0.181361
8.828240 33.990295 0.233857
9.142982 33.990295 0.297493
9.457723 33.990295 0.371566
9.772464 33.990295 0.461380
10.087205 33.990295 0.553509
10.401946 33.990295 0.658113
10.716687 33.990295 0.760841
11.031426 33.990295 0.852163
11.346168 33.990295 0.946109
11.660909 33.990295 1.047551
11.975650 33.990295 1.143758
12.290391 33.990295 1.242331
12.605132 33.990295 1.319580
12.919873 33.990295 1.392100
13.234614 33.990295 1.431632
13.549356 33.990295 1.470069
13.864097 33.990295 1.480971
14.178838 33.990295 1.474560
14.493579 33.990295 1.432885
14.808320 33.990295 1.383127
15.123059 33.990295 1.302236
15.437800 33.990295 1.260360
15.752542 33.990295 0.545685
16.067284 33.990295 0.000000
16.382023 33.990295 0.000000
16.696766 33.990295 0.000000
17.011505 33.990295 0.000000
17.326248 33.990295 0.000000
17.640987 33.990295 0.000000
17.955730 33.990295 0.000000
18.270470 33.990295 0.000000
18.585213 33.990295 0.000000
18.899952 33.990295 0.000000
-7.223550 33.675552 0.000000
-6.908809 33.675552 0.000000
-6.594068 33.675552 0.005395
-6.279327 33.675552 0.004565
-5.964586 33.675552 0.004542
-5.649845 33.675552 0.004564
-5.335104 33.675552 0.004609
-5.020363 33.675552 0.004647
-4.705622 33.675552 0.004560
-4.390881 33.675552 0.004471
-4.076140 33.675552 0.004456
-3.761399 33.675552 0.004461
-3.446658 33.675552 0.004474
-3.131917 33.675552 0.004442
-2.817176 33.675552 0.004411
-2.502435 33.675552 0.004403
-2.187694 33.675552 0.004501
-1.872953 33.675552 0.004658
-1.558212 33.675552 0.004699
-1.243471 33.675552 0.004713
-0.928730 33.675552 0.004763
-0.613989 33.675552 0.004893
-0.299248 33.675552 0.005048
0.015493 33.675552 0.005173
0.330234 33.675552 0.005323
0.644975 33.675552 0.005469
0.959716 33.675552 0.005707
1.274457 33.675552 0.005956
1.589198 33.675552 0.006219
1.903938 33.675552 0.006468
2.218679 33.675552 0.006833
2.533421 33.675552 0.007361
2.848162 33.675552 0.008010
3.162903 33.675552 0.008733
3.477644 33.675552 0.009533
3.792385 33.675552 0.010523
4.107125 33.675552 0.011826
4.421866 33.675552 0.013363
4.736608 33.675552 0.015334
5.051349 33.675552 0.017790
5.366090 33.675552 0.020767
5.680831 33.675552 0.024403
5.995571 33.675552 0.029375
6.310312 33.675552 0.035597
6.625053 33.675552 0.043544
6.939795 33.675552 0.053846
7.254536 33.675552 0.069045
7.569277 33.675552 0.086993
7.884017 33.675552 0.110253
8.198758 33.675552 0.142796
8.513499 33.675552 0.183892
8.828240 33.675552 0.234924
9.142982 33.675552 0.302220
9.457723 33.675552 0.378418
9.772464 33.675552 0.464941
10.087205 33.675552 0.553592
10.401946 33.675552 0.658338
10.716687 33.675552 0.757083
11.031426 33.675552 0.853277
11.346168 33.675552 0.956186
11.660909 33.675552 1.054779
11.975650 33.675552 1.150095
12.290391 33.675552 1.248747
12.605132 33.675552 1.318886
12.919873 33.675552 1.389989
13.234614 33.675552 1.439775
13.549356 33.675552 1.477008
13.864097 33.675552 1.484480
14.178838 33.675552 1.468324
14.493579 33.675552 1.433619
14.808320 33.675552 1.376870
15.123059 33.675552 1.290036
15.437800 33.675552 1.246077
15.752542 33.675552 0.777890
16.067284 33.675552 0.000000
16.382023 33.675552 0.000000
16.696766 33.675552 0.000000
17.011505 33.675552 0.000000
17.326248 33.675552 0.000000
17.640987 33.675552 0.000000
17.955730 33.675552 0.000000
18.270470 33.675552 0.000000
18.585213 33.675552 0.000000
18.899952 33.675552 0.000000
-7.223550 33.360809 0.000000
-6.908809 33.360809 0.000000
-6.594068 33.360809 0.005445
-6.279327 33.360809 0.004616
-5.964586 33.360809 0.004578
-5.649845 33.360809 0.004600
-5.335104 33.360809 0.004632
-5.020363 33.360809 0.004626
-4.705622 33.360809 0.004566
-4.390881 33.360809 0.004542
-4.076140 33.360809 0.004517
-3.761399 33.360809 0.004526
-3.446658 33.360809 0.004532
-3.131917 33.360809 0.004484
-2.817176 33.360809 0.004478
-2.502435 33.360809 0.004460
-2.187694 33.360809 0.004529
-1.872953 33.360809 0.004649
-1.558212 33.360809 0.004732
-1.243471 33.360809 0.004765
-0.928730 33.360809 0.004786
-0.613989 33.360809 0.004956
-0.299248 33.360809 0.005137
0.015493 33.360809 0.005273
0.330234 33.360809 0.005401
0.644975 33.360809 0.005547
0.959716 33.360809 0.005802
1.274457 33.360809 0.006040
1.589198 33.360809 0.006277
1.903938 33.360809 0.006547
2.218679 33.360809 0.006895
2.533421 33.360809 0.007396
2.848162 33.360809 0.008054
3.162903 33.360809 0.008789
3.477644 33.360809 0.009580
3.792385 33.360809 0.010499
4.107125 33.360809 0.011789
4.421866 33.360809 0.013476
4.736608 33.360809 0.015444
5.051349 33.360809 0.017827
5.366090 33.360809 0.020628
5.680831 33.360809 0.024414
5.995571 33.360809 0.029258
6.310312 33.360809 0.035549
6.625053 33.360809 0.043684
6.939795 33.360809 0.054066
7.254536 33.360809 0.069055
7.569277 33.360809 0.087008
7.884017 33.360809 0.110387
8.198758 33.360809 0.143452
8.513499 33.360809 0.184121
8.828240 33.360809 0.233731
9.142982 33.360809 0.300138
9.457723 33.360809 0.382553
9.772464 33.360809 0.474151
10.087205 33.360809 0.564808
10.401946 33.360809 0.664254
10.716687 33.360809 0.754208
11.031426 33.360809 0.855313
11.346168 33.360809 0.959748
11.660909 33.360809 1.057306
11.975650 33.360809 1.146066
12.290391 33.360809 1.241332
12.605132 33.360809 1.328089
12.919873 33.360809 1.393062
13.234614 33.360809 1.444214
13.549356 33.360809 1.479886
13.864097 33.360809 1.492476
14.178838 33.360809 1.464621
14.493579 33.360809 1.438276
14.808320 33.360809 1.366078
15.123059 33.360809 1.278556
15.437800 33.360809 1.221341
15.752542 33.360809 0.755560
16.067284 33.360809 0.000000
16.382023 33.360809 0.000000
16.696766 33.360809 0.000000
17.011505 33.360809 0.000000
17.326248 33.360809 0.000000
17.640987 33.360809 0.000000
17.955730 33.360809 0.000000
18.270470 33.360809 0.000000
18.585213 33.360809 0.000000
18.899952 33.360809 0.000000
-7.223550 33.046070 0.000000
-6.908809 33.046070 0.000000
-6.594068 33.046070 0.005453
-6.279327 33.046070 0.004651
-5.964586 33.046070 0.004602
-5.649845 33.046070 0.004621
-5.335104 33.046070 0.004620
-5.020363 33.046070 0.004594
-4.705622 33.046070 0.004594
-4.390881 33.046070 0.004568
-4.076140 33.046070 0.004546
-3.761399 33.046070 0.004579
-3.446658 33.046070 0.004580
-3.131917 33.046070 0.004543
-2.817176 33.046070 0.004552
-2.502435 33.046070 0.004523
-2.187694 33.046070 0.004544
-1.872953 33.046070 0.004631
-1.558212 33.046070 0.004739
-1.243471 33.046070 0.004826
-0.928730 33.046070 0.004841
-0.613989 33.046070 0.005018
-0.299248 33.046070 0.005206
0.015493 33.046070 0.005354
0.330234 33.046070 0.005445
0.644975 33.046070 0.005631
0.959716 33.046070 0.005876
1.274457 33.046070 0.006122
1.589198 33.046070 0.006360
1.903938 33.046070 0.006656
2.218679 33.046070 0.007005
2.533421 33.046070 0.007483
2.848162 33.046070 0.008124
3.162903 33.046070 0.008849
3.477644 33.046070 0.009619
3.792385 33.046070 0.010508
4.107125 33.046070 0.011836
4.421866 33.046070 0.013526
4.736608 33.046070 0.015509
5.051349 33.046070 0.017808
5.366090 33.046070 0.020595
5.680831 33.046070 0.024320
5.995571 33.046070 0.029260
6.310312 33.046070 0.035508
6.625053 33.046070 0.043726
6.939795 33.046070 0.054354
7.254536 33.046070 0.069262
7.569277 33.046070 0.087572
7.884017 33.046070 0.112459
8.198758 33.046070 0.144643
8.513499 33.046070 0.183973
8.828240 33.046070 0.237800
9.142982 33.046070 0.303776
9.457723 33.046070 0.383996
9.772464 33.046070 0.480199
10.087205 33.046070 0.574649
10.401946 33.046070 0.672432
10.716687 33.046070 0.763830
11.031426 33.046070 0.857595
11.346168 33.046070 0.964553
11.660909 33.046070 1.055665
11.975650 33.046070 1.144542
12.290391 33.046070 1.247830
12.605132 33.046070 1.325495
12.919873 33.046070 1.389096
13.234614 33.046070 1.436462
13.549356 33.046070 1.477636
13.864097 33.046070 1.494257
14.178838 33.046070 1.472213
14.493579 33.046070 1.428342
14.808320 33.046070 1.355281
15.123059 33.046070 1.261670
15.437800 33.046070 1.216967
15.752542 33.046070 0.717348
16.067284 33.046070 0.000000
16.382023 33.046070 0.000000
16.696766 33.046070 0.000000
17.011505 33.046070 0.000000
17.326248 33.046070 0.000000
17.640987 33.046070 0.000000
17.955730 33.046070 0.000000
18.270470 33.046070 0.000000
18.585213 33.046070 0.000000
18.899952 33.046070 0.000000
-7.223550 32.731331 0.000000
-6.908809 32.731331 0.000000
-6.594068 32.731331 0.005465
-6.279327 32.731331 0.004685
-5.964586 32.731331 0.004633
-5.649845 32.731331 0.004644
-5.335104 32.731331 0.004623
-5.020363 32.731331 0.004589
-4.705622 32.731331 0.004584
-4.390881 32.731331 0.004577
-4.076140 32.731331 0.004560
-3.761399 32.731331 0.004598
-3.446658 32.731331 0.004617
-3.131917 32.731331 0.004595
-2.817176 32.731331 0.004595
-2.502435 32.731331 0.004567
-2.187694 32.731331 0.004553
-1.872953 32.731331 0.004618
-1.558212 32.731331 0.004726
-1.243471 32.731331 0.004858
-0.928730 32.731331 0.004897
-0.613989 32.731331 0.005061
-0.299248 32.731331 0.005251
0.015493 32.731331 0.005391
0.330234 32.731331 0.005449
0.644975 32.731331 0.005649
0.959716 32.731331 0.005917
1.274457 32.731331 0.006157
1.589198 32.731331 0.006404
1.903938 32.731331 0.006738
2.218679 32.731331 0.007127
2.533421 32.731331 0.007593
2.848162 32.731331 0.008173
3.162903 32.731331 0.008867
3.477644 32.731331 0.009657
3.792385 32.731331 0.010598
4.107125 32.731331 0.011829
4.421866 32.731331 0.013537
4.736608 32.731331 0.015591
5.051349 32.731331 0.017828
5.366090 32.731331 0.020545
5.680831 32.731331 0.024284
5.995571 32.731331 0.029278
6.310312 32.731331 0.035440
6.625053 32.731331 0.043628
6.939795 32.731331 0.054375
7.254536 32.731331 0.069184
7.569277 32.731331 0.088349
7.884017 32.731331 0.113053
8.198758 32.731331 0.144503
8.513499 32.731331 0.187013
8.828240 32.731331 0.243657
9.142982 32.731331 0.308940
9.457723 32.731331 0.386843
9.772464 32.731331 0.481549
10.087205 32.731331 0.571601
10.401946 32.731331 0.673491
10.716687 32.731331 0.773542
11.031426 32.731331 0.864299
11.346168 32.731331 0.971510
11.660909 32.731331 1.062525
11.975650 32.731331 1.164545
12.290391 32.731331 1.245556
12.605132 32.731331 1.323767
12.919873 32.731331 1.394179
13.234614 32.731331 1.444507
13.549356 32.731331 1.470504
13.864097 32.731331 1.489856
14.178838 32.731331 1.478166
14.493579 32.731331 1.424127
14.808320 32.731331 1.346917
15.123059 32.731331 1.258477
15.437800 32.731331 1.213832
15.752542 32.731331 0.689184
16.067284 32.731331 0.000000
16.382023 32.731331 0.000000
16.696766 32.731331 0.000000
17.011505 32.731331 0.000000
17.326248 32.731331 0.000000
17.640987 32.731331 0.000000
17.955730 32.731331 0.000000
18.270470 32.731331 0.000000
18.585213 32.731331 0.000000
18.899952 32.731331 0.000000
-7.223550 32.416588 0.000000
-6.908809 32.416588 0.000000
-6.594068 32.416588 0.005462
-6.279327 32.416588 0.004731
-5.964586 32.416588 0.004707
-5.649845 32.416588 0.004677
-5.335104 32.416588 0.004635
-5.020363 32.416588 0.004616
-4.705622 32.416588 0.004636
-4.390881 32.416588 0.004628
-4.076140 32.416588 0.004590
-3.761399 32.416588 0.004612
-3.446658 32.416588 0.004657
-3.131917 32.416588 0.004647
-2.817176 32.416588 0.004629
-2.502435 32.416588 0.004623
-2.187694 32.416588 0.004593
-1.872953 32.416588 0.004647
-1.558212 32.416588 0.004730
-1.243471 32.416588 0.004887
-0.928730 32.416588 0.004965
-0.613989 32.416588 0.005088
-0.299248 32.416588 0.005263
0.015493 32.416588 0.005378
0.330234 32.416588 0.005447
0.644975 32.416588 0.005654
0.959716 32.416588 0.005944
1.274457 32.416588 0.006169
1.589198 32.416588 0.006444
1.903938 32.416588 0.006808
2.218679 32.416588 0.007238
2.533421 32.416588 0.007677
2.848162 32.416588 0.008205
3.162903 32.416588 0.008903
3.477644 32.416588 0.009733
3.792385 32.416588 0.010709
4.107125 32.416588 0.011882
4.421866 32.416588 0.013526
4.736608 32.416588 0.015548
5.051349 32.416588 0.017903
5.366090 32.416588 0.020569
5.680831 32.416588 0.024126
5.995571 32.416588 0.029110
6.310312 32.416588 0.035450
6.625053 32.416588 0.044561
6.939795 32.416588 0.055475
7.254536 32.416588 0.069934
7.569277 32.416588 0.089146
7.884017 32.416588 0.114211
8.198758 32.416588 0.146288
8.513499 32.416588 0.186780
8.828240 32.416588 0.244164
9.142982 32.416588 0.311632
9.457723 32.416588 0.390556
9.772464 32.416588 0.478375
10.087205 32.416588 0.566805
10.401946 32.416588 0.673176
10.716687 32.416588 0.770644
11.031426 32.416588 0.869841
11.346168 32.416588 0.978614
11.660909 32.416588 1.077740
11.975650 32.416588 1.172723
12.290391 32.416588 1.249931
12.605132 32.416588 1.320749
12.919873 32.416588 1.386705
13.234614 32.416588 1.438503
13.549356 32.416588 1.469090
13.864097 32.416588 1.487666
14.178838 32.416588 1.469545
14.493579 32.416588 1.423844
14.808320 32.416588 1.346681
15.123059 32.416588 1.262311
15.437800 32.416588 1.203000
15.752542 32.416588 0.659156
16.067284 32.416588 0.000000
16.382023 32.416588 0.000000
16.696766 32.416588 0.000000
17.011505 32.416588 0.000000
17.326248 32.416588 0.000000
17.640987 32.416588 0.000000
17.955730 32.416588 0.000000
18.270470 32.416588 0.000000
18.585213 32.416588 0.000000
18.899952 32.416588 0.000000
-7.223550 32.101845 0.000000
-6.908809 32.101845 0.000000
-6.594068 32.101845 0.005485
-6.279327 32.101845 0.004782
-5.964586 32.101845 0.004752
-5.649845 32.101845 0.004688
-5.335104 32.101845 0.004644
-5.020363 32.101845 0.004655
-4.705622 32.101845 0.004662
-4.390881 32.101845 0.004681
-4.076140 32.101845 0.004648
-3.761399 32.101845 0.004620
-3.446658 32.101845 0.004688
-3.131917 32.101845 0.004692
-2.817176 32.101845 0.004693
-2.502435 32.101845 0.004711
-2.187694 32.101845 0.004685
-1.872953 32.101845 0.004713
-1.558212 32.101845 0.004755
-1.243471 32.101845 0.004913
-0.928730 32.101845 0.005017
-0.613989 32.101845 0.005114
-0.299248 32.101845 0.005253
0.015493 32.101845 0.005345
0.330234 32.101845 0.005447
0.644975 32.101845 0.005667
0.959716 32.101845 0.005925
1.274457 32.101845 0.006175
1.589198 32.101845 0.006468
1.903938 32.101845 0.006860
2.218679 32.101845 0.007323
2.533421 32.101845 0.007753
2.848162 32.101845 0.008226
3.162903 32.101845 0.008936
3.477644 32.101845 0.009800
3.792385 32.101845 0.010790
4.107125 32.101845 0.011952
4.421866 32.101845 0.013506
4.736608 32.101845 0.015478
5.051349 32.101845 0.017800
5.366090 32.101845 0.020760
5.680831 32.101845 0.024356
5.995571 32.101845 0.029143
6.310312 32.101845 0.035368
6.625053 32.101845 0.043897
6.939795 32.101845 0.055669
7.254536 32.101845 0.070044
7.569277 32.101845 0.089112
7.884017 32.101845 0.114044
8.198758 32.101845 0.145794
8.513499 32.101845 0.187749
8.828240 32.101845 0.246401
9.142982 32.101845 0.316738
9.457723 32.101845 0.391869
9.772464 32.101845 0.483511
10.087205 32.101845 0.572663
10.401946 32.101845 0.667985
10.716687 32.101845 0.767961
11.031426 32.101845 0.871900
11.346168 32.101845 0.969957
11.660909 32.101845 1.079586
11.975650 32.101845 1.174423
12.290391 32.101845 1.253580
12.605132 32.101845 1.316618
12.919873 32.101845 1.378886
13.234614 32.101845 1.439754
13.549356 32.101845 1.468082
13.864097 32.101845 1.484144
14.178838 32.101845 1.449800
14.493579 32.101845 1.404733
14.808320 32.101845 1.348082
15.123059 32.101845 1.255476
15.437800 32.101845 1.193638
15.752542 32.101845 0.623494
16.067284 32.101845 0.000000
16.382023 32.101845 0.000000
16.696766 32.101845 0.000000
17.011505 32.101845 0.000000
17.326248 32.101845 0.000000
17.640987 32.101845 0.000000
17.955730 32.101845 0.000000
18.270470 32.101845 0.000000
18.585213 32.101845 0.000000
18.899952 32.101845 0.000000
-7.223550 31.787106 0.000000
-6.908809 31.787106 0.000000
-6.594068 31.787106 0.005524
-6.279327 31.787106 0.004822
-5.964586 31.787106 0.004774
-5.649845 31.787106 0.004687
-5.335104 31.787106 0.004627
-5.020363 31.787106 0.004656
-4.705622 31.787106 0.004702
-4.390881 31.787106 0.004754
-4.076140 31.787106 0.004700
-3.761399 31.787106 0.004650
-3.446658 31.787106 0.004716
-3.131917 31.787106 0.004719
-2.817176 31.787106 0.004783
-2.502435 31.787106 0.004806
-2.187694 31.787106 0.004777
-1.872953 31.787106 0.004807
-1.558212 31.787106 0.004816
-1.243471 31.787106 0.004952
-0.928730 31.787106 0.005057
-0.613989 31.787106 0.005149
-0.299248 31.787106 0.005228
0.015493 31.787106 0.005331
0.330234 31.787106 0.005475
0.644975 31.787106 0.005676
0.959716 31.787106 0.005914
1.274457 31.787106 0.006166
1.589198 31.787106 0.006504
1.903938 31.787106 0.006909
2.218679 31.787106 0.007359
2.533421 31.787106 0.007827
2.848162 31.787106 0.008284
3.162903 31.787106 0.009007
3.477644 31.787106 0.009926
3.792385 31.787106 0.010900
4.107125 31.787106 0.012086
4.421866 31.787106 0.013530
4.736608 31.787106 0.015356
5.051349 31.787106 0.017766
5.366090 31.787106 0.020784
5.680831 31.787106 0.024464
5.995571 31.787106 0.029026
6.310312 31.787106 0.035274
6.625053 31.787106 0.043457
6.939795 31.787106 0.055585
7.254536 31.787106 0.070320
7.569277 31.787106 0.088184
7.884017 31.787106 0.113771
8.198758 31.787106 0.148301
8.513499 31.787106 0.189879
8.828240 31.787106 0.242141
9.142982 31.787106 0.311599
9.457723 31.787106 0.392677
9.772464 31.787106 0.484965
10.087205 31.787106 0.579423
10.401946 31.787106 0.667665
10.716687 31.787106 0.771698
11.031426 31.787106 0.866237
11.346168 31.787106 0.976226
11.660909 31.787106 1.070946
11.975650 31.787106 1.172259
12.290391 31.787106 1.255641
12.605132 31.787106 1.316082
12.919873 31.787106 1.384462
13.234614 31.787106 1.424371
13.549356 31.787106 1.460531
13.864097 31.787106 1.464305
14.178838 31.787106 1.427952
14.493579 31.787106 1.402427
14.808320 31.787106 1.350544
15.123059 31.787106 1.259859
15.437800 31.787106 1.202493
15.752542 31.787106 0.594652
16.067284 31.787106 0.000000
16.382023 31.787106 0.000000
16.696766 31.787106 0.000000
17.011505 31.787106 0.000000
17.326248 31.787106 0.000000
17.640987 31.787106 0.000000
17.955730 31.787106 0.000000
18.270470 31.787106 0.000000
18.585213 31.787106 0.000000
18.899952 31.787106 0.000000
-7.223550 31.472364 0.000000
-6.908809 31.472364 0.000000
-6.594068 31.472364 0.005590
-6.279327 31.472364 0.004840
-5.964586 31.472364 0.004787
-5.649845 31.472364 0.004708
-5.335104 31.472364 0.004660
-5.020363 31.472364 0.004664
-4.705622 31.472364 0.004734
-4.390881 31.472364 0.004832
-4.076140 31.472364 0.004769
-3.761399 31.472364 0.004716
-3.446658 31.472364 0.004749
-3.131917 31.472364 0.004777
-2.817176 31.472364 0.004865
-2.502435 31.472364 0.004861
-2.187694 31.472364 0.004866
-1.872953 31.472364 0.004899
-1.558212 31.472364 0.004897
-1.243471 31.472364 0.004985
-0.928730 31.472364 0.005098
-0.613989 31.472364 0.005185
-0.299248 31.472364 0.005219
0.015493 31.472364 0.005323
0.330234 31.472364 0.005519
0.644975 31.472364 0.005660
0.959716 31.472364 0.005887
1.274457 31.472364 0.006180
1.589198 31.472364 0.006576
1.903938 31.472364 0.006985
2.218679 31.472364 0.007378
2.533421 31.472364 0.007818
2.848162 31.472364 0.008298
3.162903 31.472364 0.009066
3.477644 31.472364 0.010001
3.792385 31.472364 0.011040
4.107125 31.472364 0.012207
4.421866 31.472364 0.013651
4.736608 31.472364 0.015390
5.051349 31.472364 0.017800
5.366090 31.472364 0.020742
5.680831 31.472364 0.024555
5.995571 31.472364 0.029331
6.310312 31.472364 0.035332
6.625053 31.472364 0.043847
6.939795 31.472364 0.055062
7.254536 31.472364 0.069861
7.569277 31.472364 0.089052
7.884017 31.472364 0.114742
8.198758 31.472364 0.148413
8.513499 31.472364 0.191040
8.828240 31.472364 0.241629
9.142982 31.472364 0.306790
9.457723 31.472364 0.393457
9.772464 31.472364 0.486199
10.087205 31.472364 0.582707
10.401946 31.472364 0.675684
10.716687 31.472364 0.780506
11.031426 31.472364 0.884834
11.346168 31.472364 0.983703
11.660909 31.472364 1.075379
11.975650 31.472364 1.164550
12.290391 31.472364 1.245540
12.605132 31.472364 1.315262
12.919873 31.472364 1.378184
13.234614 31.472364 1.433964
13.549356 31.472364 1.458653
13.864097 31.472364 1.474544
14.178838 31.472364 1.424870
14.493579 31.472364 1.398095
14.808320 31.472364 1.344303
15.123059 31.472364 1.268629
15.437800 31.472364 1.184879
15.752542 31.472364 0.543781
16.067284 31.472364 0.000000
16.382023 31.472364 0.000000
16.696766 31.472364 0.000000
17.011505 31.472364 0.000000
17.326248 31.472364 0.000000
17.640987 31.472364 0.000000
17.955730 31.472364 0.000000
18.270470 31.472364 0.000000
18.585213 31.472364 0.000000
18.899952 31.472364 0.000000
-7.223550 31.157625 0.000000
-6.908809 31.157625 0.000000
-6.594068 31.157625 0.005623
-6.279327 31.157625 0.004838
-5.964586 31.157625 0.004817
-5.649845 31.157625 0.004769
-5.335104 31.157625 0.004769
-5.020363 31.157625 0.004721
-4.705622 31.157625 0.004780
-4.390881 31.157625 0.004873
-4.076140 31.157625 0.004802
-3.761399 31.157625 0.004795
-3.446658 31.157625 0.004847
-3.131917 31.157625 0.004856
-2.817176 31.157625 0.004928
-2.502435 31.157625 0.004914
-2.187694 31.157625 0.004966
-1.872953 31.157625 0.004997
-1.558212 31.157625 0.004987
-1.243471 31.157625 0.005043
-0.928730 31.157625 0.005121
-0.613989 31.157625 0.005205
-0.299248 31.157625 0.005241
0.015493 31.157625 0.005365
0.330234 31.157625 0.005579
0.644975 31.157625 0.005700
0.959716 31.157625 0.005882
1.274457 31.157625 0.006211
1.589198 31.157625 0.006618
1.903938 31.157625 0.007000
2.218679 31.157625 0.007396
2.533421 31.157625 0.007868
2.848162 31.157625 0.008372
3.162903 31.157625 0.009128
3.477644 31.157625 0.010064
3.792385 31.157625 0.011107
4.107125 31.157625 0.012274
4.421866 31.157625 0.013676
4.736608 31.157625 0.015450
5.051349 31.157625 0.017744
5.366090 31.157625 0.020775
5.680831 31.157625 0.024603
5.995571 31.157625 0.029362
6.310312 31.157625 0.035391
6.625053 31.157625 0.044235
6.939795 31.157625 0.055384
7.254536 31.157625 0.071428
7.569277 31.157625 0.089893
7.884017 31.157625 0.113997
8.198758 31.157625 0.147528
8.513499 31.157625 0.189060
8.828240 31.157625 0.243728
9.142982 31.157625 0.309229
9.457723 31.157625 0.390189
9.772464 31.157625 0.484556
10.087205 31.157625 0.586899
10.401946 31.157625 0.689835
10.716687 31.157625 0.792554
11.031426 31.157625 0.893009
11.346168 31.157625 0.994029
11.660909 31.157625 1.091452
11.975650 31.157625 1.166102
12.290391 31.157625 1.245344
12.605132 31.157625 1.318393
12.919873 31.157625 1.390575
13.234614 31.157625 1.441452
13.549356 31.157625 1.462196
13.864097 31.157625 1.472493
14.178838 31.157625 1.431044
14.493579 31.157625 1.412812
14.808320 31.157625 1.350170
15.123059 31.157625 1.266244
15.437800 31.157625 1.191389
15.752542 31.157625 0.519043
16.067284 31.157625 0.000000
16.382023 31.157625 0.000000
16.696766 31.157625 0.000000
17.011505 31.157625 0.000000
17.326248 31.157625 0.000000
17.640987 31.157625 0.000000
17.955730 31.157625 0.000000
18.270470 31.157625 0.000000
18.585213 31.157625 0.000000
18.899952 31.157625 0.000000
-7.223550 30.842884 0.000000
-6.908809 30.842884 0.000000
-6.594068 30.842884 0.005607
-6.279327 30.842884 0.004820
-5.964586 30.842884 0.004804
-5.649845 30.842884 0.004848
-5.335104 30.842884 0.004896
-5.020363 30.842884 0.004839
-4.705622 30.842884 0.004840
-4.390881 30.842884 0.004888
-4.076140 30.842884 0.004832
-3.761399 30.842884 0.004857
-3.446658 30.842884 0.004927
-3.131917 30.842884 0.004927
-2.817176 30.842884 0.004946
-2.502435 30.842884 0.004945
-2.187694 30.842884 0.005005
-1.872953 30.842884 0.005061
-1.558212 30.842884 0.005073
-1.243471 30.842884 0.005122
-0.928730 30.842884 0.005158
-0.613989 30.842884 0.005208
-0.299248 30.842884 0.005267
0.015493 30.842884 0.005444
0.330234 30.842884 0.005675
0.644975 30.842884 0.005808
0.959716 30.842884 0.005928
1.274457 30.842884 0.006248
1.589198 30.842884 0.006649
1.903938 30.842884 0.006974
2.218679 30.842884 0.007408
2.533421 30.842884 0.007915
2.848162 30.842884 0.008449
3.162903 30.842884 0.009174
3.477644 30.842884 0.010101
3.792385 30.842884 0.011155
4.107125 30.842884 0.012412
4.421866 30.842884 0.013843
4.736608 30.842884 0.015544
5.051349 30.842884 0.017830
5.366090 30.842884 0.020822
5.680831 30.842884 0.024615
5.995571 30.842884 0.029362
6.310312 30.842884 0.035501
6.625053 30.842884 0.044326
6.939795 30.842884 0.056536
7.254536 30.842884 0.071338
7.569277 30.842884 0.090959
7.884017 30.842884 0.113742
8.198758 30.842884 0.145730
8.513499 30.842884 0.190699
8.828240 30.842884 0.245352
9.142982 30.842884 0.310633
9.457723 30.842884 0.390042
9.772464 30.842884 0.478848
10.087205 30.842884 0.582295
10.401946 30.842884 0.695553
10.716687 30.842884 0.799766
11.031426 30.842884 0.898814
11.346168 30.842884 1.002772
11.660909 30.842884 1.095428
11.975650 30.842884 1.176127
12.290391 30.842884 1.259469
12.605132 30.842884 1.324633
12.919873 30.842884 1.398362
13.234614 30.842884 1.444563
13.549356 30.842884 1.452072
13.864097 30.842884 1.463773
14.178838 30.842884 1.443505
14.493579 30.842884 1.409525
14.808320 30.842884 1.366880
15.123059 30.842884 1.273099
15.437800 30.842884 1.203919
15.752542 30.842884 0.508881
16.067284 30.842884 0.000000
16.382023 30.842884 0.000000
16.696766 30.842884 0.000000
17.011505 30.842884 0.000000
17.326248 30.842884 0.000000
17.640987 30.842884 0.000000
17.955730 30.842884 0.000000
18.270470 30.842884 0.000000
18.585213 30.842884 0.000000
18.899952 30.842884 0.000000
-7.223550 30.528143 0.000000
-6.908809 30.528143 0.002251
-6.594068 30.528143 0.005553
-6.279327 30.528143 0.004789
-5.964586 30.528143 0.004799
-5.649845 30.528143 0.004894
-5.335104 30.528143 0.004981
-5.020363 30.528143 0.004937
-4.705622 30.528143 0.004887
-4.390881 30.528143 0.004907
-4.076140 30.528143 0.004893
-3.761399 30.528143 0.004910
-3.446658 30.528143 0.004960
-3.131917 30.528143 0.004944
-2.817176 30.528143 0.004950
-2.502435 30.528143 0.004968
-2.187694 30.528143 0.005016
-1.872953 30.528143 0.005073
-1.558212 30.528143 0.005134
-1.243471 30.528143 0.005193
-0.928730 30.528143 0.005198
-0.613989 30.528143 0.005198
-0.299248 30.528143 0.005303
0.015493 30.528143 0.005528
0.330234 30.528143 0.005775
0.644975 30.528143 0.005929
0.959716 30.528143 0.006023
1.274457 30.528143 0.006287
1.589198 30.528143 0.006649
1.903938 30.528143 0.006958
2.218679 30.528143 0.007445
2.533421 30.528143 0.007960
2.848162 30.528143 0.008492
3.162903 30.528143 0.009154
3.477644 30.528143 0.010113
3.792385 30.528143 0.011166
4.107125 30.528143 0.012451
4.421866 30.528143 0.013918
4.736608 30.528143 0.015659
5.051349 30.528143 0.017962
5.366090 30.528143 0.021078
5.680831 30.528143 0.024753
5.995571 30.528143 0.029754
6.310312 30.528143 0.036206
6.625053 30.528143 0.044432
6.939795 30.528143 0.056704
7.254536 30.528143 0.071314
7.569277 30.528143 0.091066
7.884017 30.528143 0.116507
8.198758 30.528143 0.149239
8.513499 30.528143 0.190381
8.828240 30.528143 0.245889
9.142982 30.528143 0.311683
9.457723 30.528143 0.390065
9.772464 30.528143 0.486045
10.087205 30.528143 0.584462
10.401946 30.528143 0.695588
10.716687 30.528143 0.795003
11.031426 30.528143 0.895894
11.346168 30.528143 0.994877
11.660909 30.528143 1.102908
11.975650 30.528143 1.195460
12.290391 30.528143 1.268850
12.605132 30.528143 1.331839
12.919873 30.528143 1.397217
13.234614 30.528143 1.452155
13.549356 30.528143 1.457756
13.864097 30.528143 1.463628
14.178838 30.528143 1.456609
14.493579 30.528143 1.417109
14.808320 30.528143 1.362851
15.123059 30.528143 1.276096
15.437800 30.528143 1.201607
15.752542 30.528143 0.600292
16.067284 30.528143 0.000000
16.382023 30.528143 0.000000
16.696766 30.528143 0.000000
17.011505 30.528143 0.000000
17.326248 30.528143 0.000000
17.640987 30.528143 0.000000
17.955730 30.528143 0.000000
18.270470 30.528143 0.000000
18.585213 30.528143 0.000000
18.899952 30.528143 0.000000
-7.223550 30.213402 0.000000
-6.908809 30.213402 0.002206
-6.594068 30.213402 0.005557
-6.279327 30.213402 0.004777
-5.964586 30.213402 0.004815
-5.649845 30.213402 0.004917
-5.335104 30.213402 0.005015
-5.020363 30.213402 0.004980
-4.705622 30.213402 0.004927
-4.390881 30.213402 0.004933
-4.076140 30.213402 0.004944
-3.761399 30.213402 0.004944
-3.446658 30.213402 0.004956
-3.131917 30.213402 0.004945
-2.817176 30.213402 0.004979
-2.502435 30.213402 0.005004
-2.187694 30.213402 0.005024
-1.872953 30.213402 0.005080
-1.558212 30.213402 0.005166
-1.243471 30.213402 0.005244
-0.928730 30.213402 0.005232
-0.613989 30.213402 0.005219
-0.299248 30.213402 0.005356
0.015493 30.213402 0.005578
0.330234 30.213402 0.005835
0.644975 30.213402 0.006020
0.959716 30.213402 0.006107
1.274457 30.213402 0.006323
1.589198 30.213402 0.006649
1.903938 30.213402 0.006968
2.218679 30.213402 0.007480
2.533421 30.213402 0.007981
2.848162 30.213402 0.008523
3.162903 30.213402 0.009142
3.477644 30.213402 0.010083
3.792385 30.213402 0.011149
4.107125 30.213402 0.012449
4.421866 30.213402 0.013952
4.736608 30.213402 0.015721
5.051349 30.213402 0.018045
5.366090 30.213402 0.021147
5.680831 30.213402 0.024944
5.995571 30.213402 0.029977
6.310312 30.213402 0.036230
6.625053 30.213402 0.044588
6.939795 30.213402 0.056134
7.254536 30.213402 0.070550
7.569277 30.213402 0.090977
7.884017 30.213402 0.115501
8.198758 30.213402 0.148759
8.513499 30.213402 0.191446
8.828240 30.213402 0.247149
9.142982 30.213402 0.314088
9.457723 30.213402 0.396889
9.772464 30.213402 0.490130
10.087205 30.213402 0.583638
10.401946 30.213402 0.686276
10.716687 30.213402 0.790020
11.031426 30.213402 0.897092
11.346168 30.213402 1.001401
11.660909 30.213402 1.099972
11.975650 30.213402 1.191584
12.290391 30.213402 1.270899
12.605132 30.213402 1.333897
12.919873 30.213402 1.407961
13.234614 30.213402 1.458287
13.549356 30.213402 1.466317
13.864097 30.213402 1.468530
14.178838 30.213402 1.459408
14.493579 30.213402 1.408965
14.808320 30.213402 1.359802
15.123059 30.213402 1.275745
15.437800 30.213402 1.206173
15.752542 30.213402 0.569253
16.067284 30.213402 0.000000
16.382023 30.213402 0.000000
16.696766 30.213402 0.000000
17.011505 30.213402 0.000000
17.326248 30.213402 0.000000
17.640987 30.213402 0.000000
17.955730 30.213402 0.000000
18.270470 30.213402 0.000000
18.585213 30.213402 0.000000
18.899952 30.213402 0.000000
-7.223550 29.898661 0.000000
-6.908809 29.898661 0.001806
-6.594068 29.898661 0.005644
-6.279327 29.898661 0.004827
-5.964586 29.898661 0.004853
-5.649845 29.898661 0.004939
-5.335104 29.898661 0.005022
-5.020363 29.898661 0.004988
-4.705622 29.898661 0.004931
-4.390881 29.898661 0.004940
-4.076140 29.898661 0.004954
-3.761399 29.898661 0.004969
-3.446658 29.898661 0.004956
-3.131917 29.898661 0.004939
-2.817176 29.898661 0.005014
-2.502435 29.898661 0.005038
-2.187694 29.898661 0.005048
-1.872953 29.898661 0.005087
-1.558212 29.898661 0.005199
-1.243471 29.898661 0.005275
-0.928730 29.898661 0.005260
-0.613989 29.898661 0.005288
-0.299248 29.898661 0.005427
0.015493 29.898661 0.005626
0.330234 29.898661 0.005872
0.644975 29.898661 0.006047
0.959716 29.898661 0.006162
1.274457 29.898661 0.006383
1.589198 29.898661 0.006676
1.903938 29.898661 0.007024
2.218679 29.898661 0.007520
2.533421 29.898661 0.008019
2.848162 29.898661 0.008580
3.162903 29.898661 0.009177
3.477644 29.898661 0.010004
3.792385 29.898661 0.011078
4.107125 29.898661 0.012455
4.421866 29.898661 0.013918
4.736608 29.898661 0.015710
5.051349 29.898661 0.018204
5.366090 29.898661 0.021077
5.680831 29.898661 0.025077
5.995571 29.898661 0.030047
6.310312 29.898661 0.036262
6.625053 29.898661 0.044308
6.939795 29.898661 0.055729
7.254536 29.898661 0.070185
7.569277 29.898661 0.089855
7.884017 29.898661 0.114900
8.198758 29.898661 0.149407
8.513499 29.898661 0.192921
8.828240 29.898661 0.247105
9.142982 29.898661 0.319252
9.457723 29.898661 0.395345
9.772464 29.898661 0.482871
10.087205 29.898661 0.587888
10.401946 29.898661 0.690203
10.716687 29.898661 0.789449
11.031426 29.898661 0.891772
11.346168 29.898661 0.998972
11.660909 29.898661 1.099285
11.975650 29.898661 1.183235
12.290391 29.898661 1.261781
12.605132 29.898661 1.340678
12.919873 29.898661 1.413681
13.234614 29.898661 1.464221
13.549356 29.898661 1.481909
13.864097 29.898661 1.488788
14.178838 29.898661 1.455858
14.493579 29.898661 1.406088
14.808320 29.898661 1.342776
15.123059 29.898661 1.267060
15.437800 29.898661 1.206947
15.752542 29.898661 0.542968
16.067284 29.898661 0.000000
16.382023 29.898661 0.000000
16.696766 29.898661 0.000000
17.011505 29.898661 0.000000
17.326248 29.898661 0.000000
17.640987 29.898661 0.000000
17.955730 29.898661 0.000000
18.270470 29.898661 0.000000
18.585213 29.898661 0.000000
18.899952 29.898661 0.000000
-7.223550 29.583920 0.000000
-6.908809 29.583920 0.001810
-6.594068 29.583920 0.005740
-6.279327 29.583920 0.004898
-5.964586 29.583920 0.004923
-5.649845 29.583920 0.004943
-5.335104 29.583920 0.004998
-5.020363 29.583920 0.004973
-4.705622 29.583920 0.004944
-4.390881 29.583920 0.004947
-4.076140 29.583920 0.004960
-3.761399 29.583920 0.004977
-3.446658 29.583920 0.004963
-3.131917 29.583920 0.004954
-2.817176 29.583920 0.005029
-2.502435 29.583920 0.005043
-2.187694 29.583920 0.005063
-1.872953 29.583920 0.005122
-1.558212 29.583920 0.005219
-1.243471 29.583920 0.005277
-0.928730 29.583920 0.005287
-0.613989 29.583920 0.005375
-0.299248 29.583920 0.005495
0.015493 29.583920 0.005665
0.330234 29.583920 0.005882
0.644975 29.583920 0.006034
0.959716 29.583920 0.006204
1.274457 29.583920 0.006458
1.589198 29.583920 0.006731
1.903938 29.583920 0.007111
2.218679 29.583920 0.007591
2.533421 29.583920 0.008105
2.848162 29.583920 0.008651
3.162903 29.583920 0.009231
3.477644 29.583920 0.009957
3.792385 29.583920 0.011019
4.107125 29.583920 0.012403
4.421866 29.583920 0.013971
4.736608 29.583920 0.015743
5.051349 29.583920 0.018132
5.366090 29.583920 0.021058
5.680831 29.583920 0.025027
5.995571 29.583920 0.029916
6.310312 29.583920 0.036288
6.625053 29.583920 0.044492
6.939795 29.583920 0.055288
7.254536 29.583920 0.070749
7.569277 29.583920 0.090529
7.884017 29.583920 0.116819
8.198758 29.583920 0.152430
8.513499 29.583920 0.194564
8.828240 29.583920 0.247944
9.142982 29.583920 0.319270
9.457723 29.583920 0.401169
9.772464 29.583920 0.488800
10.087205 29.583920 0.597089
10.401946 29.583920 0.703263
10.716687 29.583920 0.801426
11.031426 29.583920 0.898504
11.346168 29.583920 0.996590
11.660909 29.583920 1.094165
11.975650 29.583920 1.180617
12.290391 29.583920 1.278637
12.605132 29.583920 1.343412
12.919873 29.583920 1.420411
13.234614 29.583920 1.470923
13.549356 29.583920 1.498324
13.864097 29.583920 1.495871
14.178838 29.583920 1.464790
14.493579 29.583920 1.402828
14.808320 29.583920 1.333209
15.123059 29.583920 1.262760
15.437800 29.583920 1.192773
15.752542 29.583920 0.757089
16.067284 29.583920 0.000000
16.382023 29.583920 0.000000
16.696766 29.583920 0.000000
17.011505 29.583920 0.000000
17.326248 29.583920 0.000000
17.640987 29.583920 0.000000
17.955730 29.583920 0.000000
18.270470 29.583920 0.000000
18.585213 29.583920 0.000000
18.899952 29.583920 0.000000
-7.223550 29.269178 0.000000
-6.908809 29.269178 0.002405
-6.594068 29.269178 0.005825
-6.279327 29.269178 0.005020
-5.964586 29.269178 0.004984
-5.649845 29.269178 0.004949
-5.335104 29.269178 0.004981
-5.020363 29.269178 0.004959
-4.705622 29.269178 0.004947
-4.390881 29.269178 0.005003
-4.076140 29.269178 0.004970
-3.761399 29.269178 0.004970
-3.446658 29.269178 0.004989
-3.131917 29.269178 0.004992
-2.817176 29.269178 0.005039
-2.502435 29.269178 0.005040
-2.187694 29.269178 0.005062
-1.872953 29.269178 0.005118
-1.558212 29.269178 0.005205
-1.243471 29.269178 0.005260
-0.928730 29.269178 0.005312
-0.613989 29.269178 0.005437
-0.299248 29.269178 0.005538
0.015493 29.269178 0.005715
0.330234 29.269178 0.005879
0.644975 29.269178 0.006038
0.959716 29.269178 0.006259
1.274457 29.269178 0.006545
1.589198 29.269178 0.006813
1.903938 29.269178 0.007215
2.218679 29.269178 0.007653
2.533421 29.269178 0.008171
2.848162 29.269178 0.008706
3.162903 29.269178 0.009281
3.477644 29.269178 0.009964
3.792385 29.269178 0.011015
4.107125 29.269178 0.012453
4.421866 29.269178 0.014014
4.736608 29.269178 0.015825
5.051349 29.269178 0.018151
5.366090 29.269178 0.021120
5.680831 29.269178 0.024967
5.995571 29.269178 0.029928
6.310312 29.269178 0.036101
6.625053 29.269178 0.044619
6.939795 29.269178 0.055625
7.254536 29.269178 0.071377
7.569277 29.269178 0.090954
7.884017 29.269178 0.116538
8.198758 29.269178 0.151856
8.513499 29.269178 0.194979
8.828240 29.269178 0.251827
9.142982 29.269178 0.319168
9.457723 29.269178 0.405519
9.772464 29.269178 0.498417
10.087205 29.269178 0.600307
10.401946 29.269178 0.706784
10.716687 29.269178 0.810554
11.031426 29.269178 0.913001
11.346168 29.269178 0.998941
11.660909 29.269178 1.097653
11.975650 29.269178 1.184258
12.290391 29.269178 1.272509
12.605132 29.269178 1.351676
12.919873 29.269178 1.426000
13.234614 29.269178 1.474902
13.549356 29.269178 1.491115
13.864097 29.269178 1.493598
14.178838 29.269178 1.464579
14.493579 29.269178 1.408831
14.808320 29.269178 1.338840
15.123059 29.269178 1.262087
15.437800 29.269178 1.194317
15.752542 29.269178 0.763482
16.067284 29.269178 0.000000
16.382023 29.269178 0.000000
16.696766 29.269178 0.000000
17.011505 29.269178 0.000000
17.326248 29.269178 0.000000
17.640987 29.269178 0.000000
17.955730 29.269178 0.000000
18.270470 29.269178 0.000000
18.585213 29.269178 0.000000
18.899952 29.269178 0.000000
-7.223550 28.954437 0.000000
-6.908809 28.954437 0.003201
-6.594068 28.954437 0.005823
-6.279327 28.954437 0.005076
-5.964586 28.954437 0.005023
-5.649845 28.954437 0.004947
-5.335104 28.954437 0.004973
-5.020363 28.954437 0.004961
-4.705622 28.954437 0.004926
-4.390881 28.954437 0.005008
-4.076140 28.954437 0.004974
-3.761399 28.954437 0.004964
-3.446658 28.954437 0.004994
-3.131917 28.954437 0.005003
-2.817176 28.954437 0.005033
-2.502435 28.954437 0.005027
-2.187694 28.954437 0.005044
-1.872953 28.954437 0.005076
-1.558212 28.954437 0.005168
-1.243471 28.954437 0.005258
-0.928730 28.954437 0.005320
-0.613989 28.954437 0.005444
-0.299248 28.954437 0.005583
0.015493 28.954437 0.005768
0.330234 28.954437 0.005877
0.644975 28.954437 0.006069
0.959716 28.954437 0.006352
1.274457 28.954437 0.006645
1.589198 28.954437 0.006913
1.903938 28.954437 0.007324
2.218679 28.954437 0.007735
2.533421 28.954437 0.008232
2.848162 28.954437 0.008737
3.162903 28.954437 0.009339
3.477644 28.954437 0.010019
3.792385 28.954437 0.011064
4.107125 28.954437 0.012499
4.421866 28.954437 0.014141
4.736608 28.954437 0.015931
5.051349 28.954437 0.018227
5.366090 28.954437 0.021234
5.680831 28.954437 0.025321
5.995571 28.954437 0.030138
6.310312 28.954437 0.036346
6.625053 28.954437 0.044957
6.939795 28.954437 0.056271
7.254536 28.954437 0.072729
7.569277 28.954437 0.092329
7.884017 28.954437 0.116585
8.198758 28.954437 0.151072
8.513499 28.954437 0.199927
8.828240 28.954437 0.253363
9.142982 28.954437 0.321166
9.457723 28.954437 0.405143
9.772464 28.954437 0.501440
10.087205 28.954437 0.601718
10.401946 28.954437 0.700354
10.716687 28.954437 0.809996
11.031426 28.954437 0.918303
11.346168 28.954437 1.005285
11.660909 28.954437 1.098639
11.975650 28.954437 1.181069
12.290391 28.954437 1.278426
12.605132 28.954437 1.351819
12.919873 28.954437 1.432821
13.234614 28.954437 1.476821
13.549356 28.954437 1.492310
13.864097 28.954437 1.488223
14.178838 28.954437 1.472201
14.493579 28.954437 1.414660
14.808320 28.954437 1.344702
15.123059 28.954437 1.260549
15.437800 28.954437 1.192401
15.752542 28.954437 0.730718
16.067284 28.954437 0.000000
16.382023 28.954437 0.000000
16.696766 28.954437 0.000000
17.011505 28.954437 0.000000
17.326248 28.954437 0.000000
17.640987 28.954437 0.000000
17.955730 28.954437 0.000000
18.270470 28.954437 0.000000
18.585213 28.954437 0.000000
18.899952 28.954437 0.000000
-7.223550 28.639696 0.000000
-6.908809 28.639696 0.004276
-6.594068 28.639696 0.005733
-6.279327 28.639696 0.005054
-5.964586 28.639696 0.005039
-5.649845 28.639696 0.004943
-5.335104 28.639696 0.004984
-5.020363 28.639696 0.004975
-4.705622 28.639696 0.004928
-4.390881 28.639696 0.005015
-4.076140 28.639696 0.004995
-3.761399 28.639696 0.004959
-3.446658 28.639696 0.004976
-3.131917 28.639696 0.004979
-2.817176 28.639696 0.005024
-2.502435 28.639696 0.005037
-2.187694 28.639696 0.005032
-1.872953 28.639696 0.005023
-1.558212 28.639696 0.005146
-1.243471 28.639696 0.005265
-0.928730 28.639696 0.005356
-0.613989 28.639696 0.005445
-0.299248 28.639696 0.005614
0.015493 28.639696 0.005802
0.330234 28.639696 0.005893
0.644975 28.639696 0.006142
0.959716 28.639696 0.006452
1.274457 28.639696 0.006719
1.589198 28.639696 0.007004
1.903938 28.639696 0.007433
2.218679 28.639696 0.007830
2.533421 28.639696 0.008247
2.848162 28.639696 0.008775
3.162903 28.639696 0.009432
3.477644 28.639696 0.010189
3.792385 28.639696 0.011128
4.107125 28.639696 0.012528
4.421866 28.639696 0.014199
4.736608 28.639696 0.015962
5.051349 28.639696 0.018237
5.366090 28.639696 0.021287
5.680831 28.639696 0.025236
5.995571 28.639696 0.030266
6.310312 28.639696 0.036900
6.625053 28.639696 0.045204
6.939795 28.639696 0.056881
7.254536 28.639696 0.071967
7.569277 28.639696 0.092755
7.884017 28.639696 0.118314
8.198758 28.639696 0.152257
8.513499 28.639696 0.198898
8.828240 28.639696 0.253242
9.142982 28.639696 0.320722
9.457723 28.639696 0.403857
9.772464 28.639696 0.501877
10.087205 28.639696 0.594426
10.401946 28.639696 0.700376
10.716687 28.639696 0.803456
11.031426 28.639696 0.908061
11.346168 28.639696 1.001941
11.660909 28.639696 1.089496
11.975650 28.639696 1.176098
12.290391 28.639696 1.273649
12.605132 28.639696 1.355340
12.919873 28.639696 1.427842
13.234614 28.639696 1.469146
13.549356 28.639696 1.498913
13.864097 28.639696 1.499772
14.178838 28.639696 1.476962
14.493579 28.639696 1.434307
14.808320 28.639696 1.362107
15.123059 28.639696 1.277348
15.437800 28.639696 1.196281
15.752542 28.639696 0.711663
16.067284 28.639696 0.000000
16.382023 28.639696 0.000000
16.696766 28.639696 0.000000
17.011505 28.639696 0.000000
17.326248 28.639696 0.000000
17.640987 28.639696 0.000000
17.955730 28.639696 0.000000
18.270470 28.639696 0.000000
18.585213 28.639696 0.000000
18.899952 28.639696 0.000000
-7.223550 28.324955 0.000000
-6.908809 28.324955 0.005489
-6.594068 28.324955 0.005597
-6.279327 28.324955 0.004976
-5.964586 28.324955 0.005004
-5.649845 28.324955 0.004970
-5.335104 28.324955 0.005016
-5.020363 28.324955 0.004988
-4.705622 28.324955 0.004957
-4.390881 28.324955 0.005024
-4.076140 28.324955 0.005018
-3.761399 28.324955 0.004980
-3.446658 28.324955 0.004967
-3.131917 28.324955 0.004964
-2.817176 28.324955 0.005015
-2.502435 28.324955 0.005039
-2.187694 28.324955 0.005017
-1.872953 28.324955 0.004986
-1.558212 28.324955 0.005124
-1.243471 28.324955 0.005271
-0.928730 28.324955 0.005394
-0.613989 28.324955 0.005474
-0.299248 28.324955 0.005646
0.015493 28.324955 0.005796
0.330234 28.324955 0.005889
0.644975 28.324955 0.006177
0.959716 28.324955 0.006502
1.274457 28.324955 0.006746
1.589198 28.324955 0.007056
1.903938 28.324955 0.007473
2.218679 28.324955 0.007861
2.533421 28.324955 0.008250
2.848162 28.324955 0.008795
3.162903 28.324955 0.009501
3.477644 28.324955 0.010296
3.792385 28.324955 0.011247
4.107125 28.324955 0.012608
4.421866 28.324955 0.014287
4.736608 28.324955 0.016073
5.051349 28.324955 0.018320
5.366090 28.324955 0.021446
5.680831 28.324955 0.025337
5.995571 28.324955 0.030103
6.310312 28.324955 0.036475
6.625053 28.324955 0.044869
6.939795 28.324955 0.056954
7.254536 28.324955 0.072385
7.569277 28.324955 0.091886
7.884017 28.324955 0.119113
8.198758 28.324955 0.153565
8.513499 28.324955 0.198015
8.828240 28.324955 0.251577
9.142982 28.324955 0.322122
9.457723 28.324955 0.404992
9.772464 28.324955 0.500906
10.087205 28.324955 0.602835
10.401946 28.324955 0.701572
10.716687 28.324955 0.804937
11.031426 28.324955 0.905508
11.346168 28.324955 1.007126
11.660909 28.324955 1.096775
11.975650 28.324955 1.185009
12.290391 28.324955 1.289461
12.605132 28.324955 1.358882
12.919873 28.324955 1.423892
13.234614 28.324955 1.459494
13.549356 28.324955 1.492313
13.864097 28.324955 1.501363
14.178838 28.324955 1.480271
14.493579 28.324955 1.445509
14.808320 28.324955 1.381236
15.123059 28.324955 1.277530
15.437800 28.324955 1.195004
15.752542 28.324955 0.684413
16.067284 28.324955 0.000000
16.382023 28.324955 0.000000
16.696766 28.324955 0.000000
17.011505 28.324955 0.000000
17.326248 28.324955 0.000000
17.640987 28.324955 0.000000
17.955730 28.324955 0.000000
18.270470 28.324955 0.000000
18.585213 28.324955 0.000000
18.899952 28.324955 0.000000
-7.223550 28.010214 0.000000
-6.908809 28.010214 0.006505
-6.594068 28.010214 0.005494
-6.279327 28.010214 0.004888
-5.964586 28.010214 0.004942
-5.649845 28.010214 0.004971
-5.335104 28.010214 0.005037
-5.020363 28.010214 0.005013
-4.705622 28.010214 0.004980
-4.390881 28.010214 0.005009
-4.076140 28.010214 0.005003
-3.761399 28.010214 0.004976
-3.446658 28.010214 0.004986
-3.131917 28.010214 0.004946
-2.817176 28.010214 0.004978
-2.502435 28.010214 0.005005
-2.187694 28.010214 0.005001
-1.872953 28.010214 0.004998
-1.558212 28.010214 0.005118
-1.243471 28.010214 0.005263
-0.928730 28.010214 0.005415
-0.613989 28.010214 0.005522
-0.299248 28.010214 0.005663
0.015493 28.010214 0.005759
0.330234 28.010214 0.005870
0.644975 28.010214 0.006154
0.959716 28.010214 0.006477
1.274457 28.010214 0.006730
1.589198 28.010214 0.007056
1.903938 28.010214 0.007473
2.218679 28.010214 0.007845
2.533421 28.010214 0.008252
2.848162 28.010214 0.008827
3.162903 28.010214 0.009565
3.477644 28.010214 0.010432
3.792385 28.010214 0.011419
4.107125 28.010214 0.012707
4.421866 28.010214 0.014350
4.736608 28.010214 0.016116
5.051349 28.010214 0.018320
5.366090 28.010214 0.021393
5.680831 28.010214 0.025103
5.995571 28.010214 0.029913
6.310312 28.010214 0.036505
6.625053 28.010214 0.044758
6.939795 28.010214 0.056545
7.254536 28.010214 0.072526
7.569277 28.010214 0.092609
7.884017 28.010214 0.119490
8.198758 28.010214 0.154372
8.513499 28.010214 0.199889
8.828240 28.010214 0.253935
9.142982 28.010214 0.323472
9.457723 28.010214 0.407217
9.772464 28.010214 0.503521
10.087205 28.010214 0.604036
10.401946 28.010214 0.709099
10.716687 28.010214 0.806292
11.031426 28.010214 0.906391
11.346168 28.010214 1.001556
11.660909 28.010214 1.104816
11.975650 28.010214 1.188897
12.290391 28.010214 1.289417
12.605132 28.010214 1.376394
12.919873 28.010214 1.433811
13.234614 28.010214 1.462501
13.549356 28.010214 1.484102
13.864097 28.010214 1.503823
14.178838 28.010214 1.488661
14.493579 28.010214 1.453786
14.808320 28.010214 1.379674
15.123059 28.010214 1.277419
15.437800 28.010214 1.185664
15.752542 28.010214 0.643405
16.067284 28.010214 0.000000
16.382023 28.010214 0.000000
16.696766 28.010214 0.000000
17.011505 28.010214 0.000000
17.326248 28.010214 0.000000
17.640987 28.010214 0.000000
17.955730 28.010214 0.000000
18.270470 28.010214 0.000000
18.585213 28.010214 0.000000
18.899952 28.010214 0.000000
-7.223550 27.695473 0.000000
-6.908809 27.695473 0.007214
-6.594068 27.695473 0.005467
-6.279327 27.695473 0.004852
-5.964586 27.695473 0.004903
-5.649845 27.695473 0.004902
-5.335104 27.695473 0.005007
-5.020363 27.695473 0.005007
-4.705622 27.695473 0.004990
-4.390881 27.695473 0.004961
-4.076140 27.695473 0.004946
-3.761399 27.695473 0.004951
-3.446658 27.695473 0.004975
-3.131917 27.695473 0.004931
-2.817176 27.695473 0.004937
-2.502435 27.695473 0.004942
-2.187694 27.695473 0.004964
-1.872953 27.695473 0.005004
-1.558212 27.695473 0.005113
-1.243471 27.695473 0.005232
-0.928730 27.695473 0.005409
-0.613989 27.695473 0.005570
-0.299248 27.695473 0.005663
0.015493 27.695473 0.005705
0.330234 27.695473 0.005838
0.644975 27.695473 0.006105
0.959716 27.695473 0.006424
1.274457 27.695473 0.006708
1.589198 27.695473 0.007003
1.903938 27.695473 0.007418
2.218679 27.695473 0.007784
2.533421 27.695473 0.008269
2.848162 27.695473 0.008877
3.162903 27.695473 0.009583
3.477644 27.695473 0.010517
3.792385 27.695473 0.011528
4.107125 27.695473 0.012752
4.421866 27.695473 0.014309
4.736608 27.695473 0.016078
5.051349 27.695473 0.018360
5.366090 27.695473 0.021248
5.680831 27.695473 0.024924
5.995571 27.695473 0.029856
6.310312 27.695473 0.036341
6.625053 27.695473 0.045189
6.939795 27.695473 0.056255
7.254536 27.695473 0.071523
7.569277 27.695473 0.092633
7.884017 27.695473 0.119380
8.198758 27.695473 0.154217
8.513499 27.695473 0.197049
8.828240 27.695473 0.257187
9.142982 27.695473 0.332357
9.457723 27.695473 0.415847
9.772464 27.695473 0.507677
10.087205 27.695473 0.612868
10.401946 27.695473 0.713418
10.716687 27.695473 0.819190
11.031426 27.695473 0.915302
11.346168 27.695473 1.015789
11.660909 27.695473 1.114073
11.975650 27.695473 1.192668
12.290391 27.695473 1.296402
12.605132 27.695473 1.370543
12.919873 27.695473 1.433542
13.234614 27.695473 1.468132
13.549356 27.695473 1.480747
13.864097 27.695473 1.480559
14.178838 27.695473 1.479917
14.493579 27.695473 1.452845
14.808320 27.695473 1.373522
15.123059 27.695473 1.277334
15.437800 27.695473 1.185112
15.752542 27.695473 0.606103
16.067284 27.695473 0.000000
16.382023 27.695473 0.000000
16.696766 27.695473 0.000000
17.011505 27.695473 0.000000
17.326248 27.695473 0.000000
17.640987 27.695473 0.000000
17.955730 27.695473 0.000000
18.270470 27.695473 0.000000
18.585213 27.695473 0.000000
18.899952 27.695473 0.000000
-7.223550 27.380732 0.000000
-6.908809 27.380732 0.007472
-6.594068 27.380732 0.005495
-6.279327 27.380732 0.004872
-5.964586 27.380732 0.004897
-5.649845 27.380732 0.004836
-5.335104 27.380732 0.004931
-5.020363 27.380732 0.004963
-4.705622 27.380732 0.004960
-4.390881 27.380732 0.004923
-4.076140 27.380732 0.004882
-3.761399 27.380732 0.004920
-3.446658 27.380732 0.004978
-3.131917 27.380732 0.004926
-2.817176 27.380732 0.004898
-2.502435 27.380732 0.004882
-2.187694 27.380732 0.004951
-1.872953 27.380732 0.005023
-1.558212 27.380732 0.005099
-1.243471 27.380732 0.005192
-0.928730 27.380732 0.005397
-0.613989 27.380732 0.005583
-0.299248 27.380732 0.005660
0.015493 27.380732 0.005693
0.330234 27.380732 0.005855
0.644975 27.380732 0.006099
0.959716 27.380732 0.006373
1.274457 27.380732 0.006644
1.589198 27.380732 0.006932
1.903938 27.380732 0.007323
2.218679 27.380732 0.007714
2.533421 27.380732 0.008232
2.848162 27.380732 0.008827
3.162903 27.380732 0.009600
3.477644 27.380732 0.010537
3.792385 27.380732 0.011573
4.107125 27.380732 0.012795
4.421866 27.380732 0.014270
4.736608 27.380732 0.016095
5.051349 27.380732 0.018345
5.366090 27.380732 0.021128
5.680831 27.380732 0.024743
5.995571 27.380732 0.029626
6.310312 27.380732 0.036356
6.625053 27.380732 0.044939
6.939795 27.380732 0.056738
7.254536 27.380732 0.072620
7.569277 27.380732 0.093057
7.884017 27.380732 0.119465
8.198758 27.380732 0.155376
8.513499 27.380732 0.196915
8.828240 27.380732 0.259205
9.142982 27.380732 0.333075
9.457723 27.380732 0.420867
9.772464 27.380732 0.511574
10.087205 27.380732 0.611362
10.401946 27.380732 0.714142
10.716687 27.380732 0.823406
11.031426 27.380732 0.923913
11.346168 27.380732 1.030192
11.660909 27.380732 1.106049
11.975650 27.380732 1.190684
12.290391 27.380732 1.286570
12.605132 27.380732 1.369343
12.919873 27.380732 1.423633
13.234614 27.380732 1.466680
13.549356 27.380732 1.475432
13.864097 27.380732 1.488600
14.178838 27.380732 1.480184
14.493579 27.380732 1.441878
14.808320 27.380732 1.384937
15.123059 27.380732 1.280913
15.437800 27.380732 1.179011
15.752542 27.380732 0.569079
16.067284 27.380732 0.000000
16.382023 27.380732 0.000000
16.696766 27.380732 0.000000
17.011505 27.380732 0.000000
17.326248 27.380732 0.000000
17.640987 27.380732 0.000000
17.955730 27.380732 0.000000
18.270470 27.380732 0.000000
18.585213 27.380732 0.000000
18.899952 27.380732 0.000000
-7.223550 27.065992 0.000000
-6.908809 27.065992 0.007590
-6.594068 27.065992 0.005533
-6.279327 27.065992 0.004922
-5.964586 27.065992 0.004928
-5.649845 27.065992 0.004800
-5.335104 27.065992 0.004877
-5.020363 27.065992 0.004917
-4.705622 27.065992 0.004911
-4.390881 27.065992 0.004875
-4.076140 27.065992 0.004853
-3.761399 27.065992 0.004900
-3.446658 27.065992 0.004960
-3.131917 27.065992 0.004894
-2.817176 27.065992 0.004846
-2.502435 27.065992 0.004864
-2.187694 27.065992 0.004976
-1.872953 27.065992 0.005073
-1.558212 27.065992 0.005092
-1.243471 27.065992 0.005198
-0.928730 27.065992 0.005385
-0.613989 27.065992 0.005552
-0.299248 27.065992 0.005624
0.015493 27.065992 0.005695
0.330234 27.065992 0.005843
0.644975 27.065992 0.006074
0.959716 27.065992 0.006315
1.274457 27.065992 0.006612
1.589198 27.065992 0.006901
1.903938 27.065992 0.007254
2.218679 27.065992 0.007682
2.533421 27.065992 0.008196
2.848162 27.065992 0.008817
3.162903 27.065992 0.009582
3.477644 27.065992 0.010507
3.792385 27.065992 0.011654
4.107125 27.065992 0.012856
4.421866 27.065992 0.014319
4.736608 27.065992 0.016189
5.051349 27.065992 0.018498
5.366090 27.065992 0.021169
5.680831 27.065992 0.024914
5.995571 27.065992 0.029734
6.310312 27.065992 0.036391
6.625053 27.065992 0.045438
6.939795 27.065992 0.057586
7.254536 27.065992 0.073504
7.569277 27.065992 0.093495
7.884017 27.065992 0.120587
8.198758 27.065992 0.156266
8.513499 27.065992 0.200571
8.828240 27.065992 0.258664
9.142982 27.065992 0.333209
9.457723 27.065992 0.418717
9.772464 27.065992 0.514331
10.087205 27.065992 0.612554
10.401946 27.065992 0.705904
10.716687 27.065992 0.811935
11.031426 27.065992 0.928463
11.346168 27.065992 1.025944
11.660909 27.065992 1.113159
11.975650 27.065992 1.193750
12.290391 27.065992 1.287483
12.605132 27.065992 1.339710
12.919873 27.065992 1.402983
13.234614 27.065992 1.449822
13.549356 27.065992 1.458367
13.864097 27.065992 1.487874
14.178838 27.065992 1.496681
14.493579 27.065992 1.446242
14.808320 27.065992 1.380896
15.123059 27.065992 1.274311
15.437800 27.065992 1.170938
15.752542 27.065992 0.532097
16.067284 27.065992 0.000000
16.382023 27.065992 0.000000
16.696766 27.065992 0.000000
17.011505 27.065992 0.000000
17.326248 27.065992 0.000000
17.640987 27.065992 0.000000
17.955730 27.065992 0.000000
18.270470 27.065992 0.000000
18.585213 27.065992 0.000000
18.899952 27.065992 0.000000
-7.223550 26.751251 0.000000
-6.908809 26.751251 0.007473
-6.594068 26.751251 0.005493
-6.279327 26.751251 0.004978
-5.964586 26.751251 0.004956
-5.649845 26.751251 0.004832
-5.335104 26.751251 0.004866
-5.020363 26.751251 0.004888
-4.705622 26.751251 0.004858
-4.390881 26.751251 0.004829
-4.076140 26.751251 0.004809
-3.761399 26.751251 0.004869
-3.446658 26.751251 0.004916
-3.131917 26.751251 0.004841
-2.817176 26.751251 0.004819
-2.502435 26.751251 0.004905
-2.187694 26.751251 0.005023
-1.872953 26.751251 0.005113
-1.558212 26.751251 0.005121
-1.243471 26.751251 0.005218
-0.928730 26.751251 0.005348
-0.613989 26.751251 0.005477
-0.299248 26.751251 0.005579
0.015493 26.751251 0.005672
0.330234 26.751251 0.005831
0.644975 26.751251 0.006044
0.959716 26.751251 0.006252
1.274457 26.751251 0.006556
1.589198 26.751251 0.006851
1.903938 26.751251 0.007214
2.218679 26.751251 0.007648
2.533421 26.751251 0.008178
2.848162 26.751251 0.008787
3.162903 26.751251 0.009531
3.477644 26.751251 0.010492
3.792385 26.751251 0.011683
4.107125 26.751251 0.012859
4.421866 26.751251 0.014400
4.736608 26.751251 0.016279
5.051349 26.751251 0.018560
5.366090 26.751251 0.021344
5.680831 26.751251 0.025104
5.995571 26.751251 0.030271
6.310312 26.751251 0.036865
6.625053 26.751251 0.045713
6.939795 26.751251 0.057622
7.254536 26.751251 0.073677
7.569277 26.751251 0.094990
7.884017 26.751251 0.122233
8.198758 26.751251 0.158745
8.513499 26.751251 0.201410
8.828240 26.751251 0.261053
9.142982 26.751251 0.335220
9.457723 26.751251 0.418396
9.772464 26.751251 0.511197
10.087205 26.751251 0.604944
10.401946 26.751251 0.701037
10.716687 26.751251 0.811080
11.031426 26.751251 0.925130
11.346168 26.751251 1.024086
11.660909 26.751251 1.114358
11.975650 26.751251 1.206261
12.290391 26.751251 1.281489
12.605132 26.751251 1.342131
12.919873 26.751251 1.389205
13.234614 26.751251 1.422739
13.549356 26.751251 1.449497
13.864097 26.751251 1.493816
14.178838 26.751251 1.505192
14.493579 26.751251 1.448269
14.808320 26.751251 1.363529
15.123059 26.751251 1.251292
15.437800 26.751251 1.143195
15.752542 26.751251 0.487440
16.067284 26.751251 0.000000
16.382023 26.751251 0.000000
16.696766 26.751251 0.000000
17.011505 26.751251 0.000000
17.326248 26.751251 0.000000
17.640987 26.751251 0.000000
17.955730 26.751251 0.000000
18.270470 26.751251 0.000000
18.585213 26.751251 0.000000
18.899952 26.751251 0.000000
-7.223550 26.436510 0.000000
-6.908809 26.436510 0.007231
-6.594068 26.436510 0.005419
-6.279327 26.436510 0.004985
-5.964586 26.436510 0.004988
-5.649845 26.436510 0.004911
-5.335104 26.436510 0.004903
-5.020363 26.436510 0.004861
-4.705622 26.436510 0.004801
-4.390881 26.436510 0.004792
-4.076140 26.436510 0.004802
-3.761399 26.436510 0.004870
-3.446658 26.436510 0.004878
-3.131917 26.436510 0.004787
-2.817176 26.436510 0.004822
-2.502435 26.436510 0.004969
-2.187694 26.436510 0.005079
-1.872953 26.436510 0.005118
-1.558212 26.436510 0.005112
-1.243471 26.436510 0.005206
-0.928730 26.436510 0.005298
-0.613989 26.436510 0.005409
-0.299248 26.436510 0.005533
0.015493 26.436510 0.005634
0.330234 26.436510 0.005812
0.644975 26.436510 0.006020
0.959716 26.436510 0.006196
1.274457 26.436510 0.006504
1.589198 26.436510 0.006810
1.903938 26.436510 0.007182
2.218679 26.436510 0.007641
2.533421 26.436510 0.008184
2.848162 26.436510 0.008783
3.162903 26.436510 0.009485
3.477644 26.436510 0.010422
3.792385 26.436510 0.011588
4.107125 26.436510 0.012807
4.421866 26.436510 0.014392
4.736608 26.436510 0.016218
5.051349 26.436510 0.018674
5.366090 26.436510 0.021601
5.680831 26.436510 0.025414
5.995571 26.436510 0.030416
6.310312 26.436510 0.036462
6.625053 26.436510 0.045645
6.939795 26.436510 0.057785
7.254536 26.436510 0.073886
7.569277 26.436510 0.095429
7.884017 26.436510 0.122473
8.198758 26.436510 0.159668
8.513499 26.436510 0.204452
8.828240 26.436510 0.260929
9.142982 26.436510 0.335500
9.457723 26.436510 0.420644
9.772464 26.436510 0.509807
10.087205 26.436510 0.607403
10.401946 26.436510 0.706291
10.716687 26.436510 0.814667
11.031426 26.436510 0.931726
11.346168 26.436510 1.027594
11.660909 26.436510 1.126515
11.975650 26.436510 1.218875
12.290391 26.436510 1.301058
12.605132 26.436510 1.352118
12.919873 26.436510 1.393413
13.234614 26.436510 1.428638
13.549356 26.436510 1.460692
13.864097 26.436510 1.513961
14.178838 26.436510 1.511305
14.493579 26.436510 1.450090
14.808320 26.436510 1.358068
15.123059 26.436510 1.238882
15.437800 26.436510 1.110684
15.752542 26.436510 0.530787
16.067284 26.436510 0.000000
16.382023 26.436510 0.000000
16.696766 26.436510 0.000000
17.011505 26.436510 0.000000
17.326248 26.436510 0.000000
17.640987 26.436510 0.000000
17.955730 26.436510 0.000000
18.270470 26.436510 0.000000
18.585213 26.436510 0.000000
18.899952 26.436510 0.000000
-7.223550 26.121769 0.000000
-6.908809 26.121769 0.007056
-6.594068 26.121769 0.005337
-6.279327 26.121769 0.004936
-5.964586 26.121769 0.004994
-5.649845 26.121769 0.004976
-5.335104 26.121769 0.004926
-5.020363 26.121769 0.004822
-4.705622 26.121769 0.004766
-4.390881 26.121769 0.004768
-4.076140 26.121769 0.004796
-3.761399 26.121769 0.004864
-3.446658 26.121769 0.004866
-3.131917 26.121769 0.004765
-2.817176 26.121769 0.004848
-2.502435 26.121769 0.004982
-2.187694 26.121769 0.005036
-1.872953 26.121769 0.005073
-1.558212 26.121769 0.005091
-1.243471 26.121769 0.005155
-0.928730 26.121769 0.005249
-0.613989 26.121769 0.005375
-0.299248 26.121769 0.005499
0.015493 26.121769 0.005588
0.330234 26.121769 0.005776
0.644975 26.121769 0.005992
0.959716 26.121769 0.006167
1.274457 26.121769 0.006466
1.589198 26.121769 0.006774
1.903938 26.121769 0.007160
2.218679 26.121769 0.007638
2.533421 26.121769 0.008192
2.848162 26.121769 0.008810
3.162903 26.121769 0.009447
3.477644 26.121769 0.010334
3.792385 26.121769 0.011511
4.107125 26.121769 0.012778
4.421866 26.121769 0.014352
4.736608 26.121769 0.016219
5.051349 26.121769 0.018605
5.366090 26.121769 0.021716
5.680831 26.121769 0.025504
5.995571 26.121769 0.030444
6.310312 26.121769 0.036762
6.625053 26.121769 0.045380
6.939795 26.121769 0.057042
7.254536 26.121769 0.073302
7.569277 26.121769 0.095087
7.884017 26.121769 0.122541
8.198758 26.121769 0.159323
8.513499 26.121769 0.205738
8.828240 26.121769 0.262520
9.142982 26.121769 0.337488
9.457723 26.121769 0.421459
9.772464 26.121769 0.519295
10.087205 26.121769 0.608514
10.401946 26.121769 0.716913
10.716687 26.121769 0.824956
11.031426 26.121769 0.931528
11.346168 26.121769 1.036628
11.660909 26.121769 1.134572
11.975650 26.121769 1.228268
12.290391 26.121769 1.304887
12.605132 26.121769 1.362260
12.919873 26.121769 1.404945
13.234614 26.121769 1.444793
13.549356 26.121769 1.471881
13.864097 26.121769 1.512211
14.178838 26.121769 1.513772
14.493579 26.121769 1.449972
14.808320 26.121769 1.348765
15.123059 26.121769 1.222300
15.437800 26.121769 1.084569
15.752542 26.121769 0.502959
16.067284 26.121769 0.000000
16.382023 26.121769 0.000000
16.696766 26.121769 0.000000
17.011505 26.121769 0.000000
17.326248 26.121769 0.000000
17.640987 26.121769 0.000000
17.955730 26.121769 0.000000
18.270470 26.121769 0.000000
18.585213 26.121769 0.000000
18.899952 26.121769 0.000000
-7.223550 25.807028 0.000000
-6.908809 25.807028 0.007000
-6.594068 25.807028 0.005315
-6.279327 25.807028 0.004899
-5.964586 25.807028 0.004965
-5.649845 25.807028 0.004980
-5.335104 25.807028 0.004915
-5.020363 25.807028 0.004776
-4.705622 25.807028 0.004747
-4.390881 25.807028 0.004753
-4.076140 25.807028 0.004763
-3.761399 25.807028 0.004805
-3.446658 25.807028 0.004806
-3.131917 25.807028 0.004752
-2.817176 25.807028 0.004873
-2.502435 25.807028 0.004943
-2.187694 25.807028 0.004958
-1.872953 25.807028 0.005025
-1.558212 25.807028 0.005051
-1.243471 25.807028 0.005098
-0.928730 25.807028 0.005206
-0.613989 25.807028 0.005343
-0.299248 25.807028 0.005450
0.015493 25.807028 0.005534
0.330234 25.807028 0.005728
0.644975 25.807028 0.005968
0.959716 25.807028 0.006177
1.274457 25.807028 0.006458
1.589198 25.807028 0.006774
1.903938 25.807028 0.007163
2.218679 25.807028 0.007621
2.533421 25.807028 0.008225
2.848162 25.807028 0.008824
3.162903 25.807028 0.009454
3.477644 25.807028 0.010248
3.792385 25.807028 0.011418
4.107125 25.807028 0.012725
4.421866 25.807028 0.014249
4.736608 25.807028 0.016204
5.051349 25.807028 0.018511
5.366090 25.807028 0.021692
5.680831 25.807028 0.025558
5.995571 25.807028 0.030707
6.310312 25.807028 0.036855
6.625053 25.807028 0.045197
6.939795 25.807028 0.056617
7.254536 25.807028 0.072202
7.569277 25.807028 0.093578
7.884017 25.807028 0.121939
8.198758 25.807028 0.158008
8.513499 25.807028 0.204875
8.828240 25.807028 0.265684
9.142982 25.807028 0.344138
9.457723 25.807028 0.426038
9.772464 25.807028 0.522286
10.087205 25.807028 0.617610
10.401946 25.807028 0.728333
10.716687 25.807028 0.835847
11.031426 25.807028 0.948638
11.346168 25.807028 1.044149
11.660909 25.807028 1.134301
11.975650 25.807028 1.224067
12.290391 25.807028 1.306170
12.605132 25.807028 1.368264
12.919873 25.807028 1.419635
13.234614 25.807028 1.451938
13.549356 25.807028 1.484618
13.864097 25.807028 1.511303
14.178838 25.807028 1.504327
14.493579 25.807028 1.434679
14.808320 25.807028 1.338623
15.123059 25.807028 1.213506
15.437800 25.807028 1.064862
15.752542 25.807028 0.467460
16.067284 25.807028 0.000000
16.382023 25.807028 0.000000
16.696766 25.807028 0.000000
17.011505 25.807028 0.000000
17.326248 25.807028 0.000000
17.640987 25.807028 0.000000
17.955730 25.807028 0.000000
18.270470 25.807028 0.000000
18.585213 25.807028 0.000000
18.899952 25.807028 0.000000
-7.223550 25.492287 0.000000
-6.908809 25.492287 0.007030
-6.594068 25.492287 0.005326
-6.279327 25.492287 0.004893
-5.964586 25.492287 0.004963
-5.649845 25.492287 0.004938
-5.335104 25.492287 0.004853
-5.020363 25.492287 0.004713
-4.705622 25.492287 0.004719
-4.390881 25.492287 0.004723
-4.076140 25.492287 0.004699
-3.761399 25.492287 0.004711
-3.446658 25.492287 0.004736
-3.131917 25.492287 0.004755
-2.817176 25.492287 0.004885
-2.502435 25.492287 0.004913
-2.187694 25.492287 0.004931
-1.872953 25.492287 0.004975
-1.558212 25.492287 0.005000
-1.243471 25.492287 0.005041
-0.928730 25.492287 0.005161
-0.613989 25.492287 0.005298
-0.299248 25.492287 0.005402
0.015493 25.492287 0.005492
0.330234 25.492287 0.005684
0.644975 25.492287 0.005919
0.959716 25.492287 0.006176
1.274457 25.492287 0.006446
1.589198 25.492287 0.006771
1.903938 25.492287 0.007196
2.218679 25.492287 0.007689
2.533421 25.492287 0.008208
2.848162 25.492287 0.008805
3.162903 25.492287 0.009424
3.477644 25.492287 0.010201
3.792385 25.492287 0.011318
4.107125 25.492287 0.012625
4.421866 25.492287 0.014127
4.736608 25.492287 0.016093
5.051349 25.492287 0.018456
5.366090 25.492287 0.021586
5.680831 25.492287 0.025539
5.995571 25.492287 0.030674
6.310312 25.492287 0.037220
6.625053 25.492287 0.045418
6.939795 25.492287 0.056955
7.254536 25.492287 0.073274
7.569277 25.492287 0.094340
7.884017 25.492287 0.121117
8.198758 25.492287 0.159821
8.513499 25.492287 0.204297
8.828240 25.492287 0.266757
9.142982 25.492287 0.341045
9.457723 25.492287 0.427207
9.772464 25.492287 0.527710
10.087205 25.492287 0.623983
10.401946 25.492287 0.725436
10.716687 25.492287 0.842007
11.031426 25.492287 0.944765
11.346168 25.492287 1.040714
11.660909 25.492287 1.132250
11.975650 25.492287 1.217461
12.290391 25.492287 1.304813
12.605132 25.492287 1.375664
12.919873 25.492287 1.415596
13.234614 25.492287 1.450048
13.549356 25.492287 1.483539
13.864097 25.492287 1.506218
14.178838 25.492287 1.492149
14.493579 25.492287 1.431637
14.808320 25.492287 1.337085
15.123059 25.492287 1.193730
15.437800 25.492287 1.037808
15.752542 25.492287 0.565405
16.067284 25.492287 0.000000
16.382023 25.492287 0.000000
16.696766 25.492287 0.000000
17.011505 25.492287 0.000000
17.326248 25.492287 0.000000
17.640987 25.492287 0.000000
17.955730 25.492287 0.000000
18.270470 25.492287 0.000000
18.585213 25.492287 0.000000
18.899952 25.492287 0.000000
-7.223550 25.177546 0.000000
-6.908809 25.177546 0.007054
-6.594068 25.177546 0.005347
-6.279327 25.177546 0.004905
-5.964586 25.177546 0.004929
-5.649845 25.177546 0.004860
-5.335104 25.177546 0.004793
-5.020363 25.177546 0.004658
-4.705622 25.177546 0.004670
-4.390881 25.177546 0.004692
-4.076140 25.177546 0.004649
-3.761399 25.177546 0.004638
-3.446658 25.177546 0.004695
-3.131917 25.177546 0.004753
-2.817176 25.177546 0.004865
-2.502435 25.177546 0.004875
-2.187694 25.177546 0.004901
-1.872953 25.177546 0.004920
-1.558212 25.177546 0.004925
-1.243471 25.177546 0.005020
-0.928730 25.177546 0.005154
-0.613989 25.177546 0.005270
-0.299248 25.177546 0.005374
0.015493 25.177546 0.005459
0.330234 25.177546 0.005644
0.644975 25.177546 0.005874
0.959716 25.177546 0.006148
1.274457 25.177546 0.006439
1.589198 25.177546 0.006758
1.903938 25.177546 0.007205
2.218679 25.177546 0.007675
2.533421 25.177546 0.008164
2.848162 25.177546 0.008741
3.162903 25.177546 0.009334
3.477644 25.177546 0.010111
3.792385 25.177546 0.011230
4.107125 25.177546 0.012572
4.421866 25.177546 0.014018
4.736608 25.177546 0.015861
5.051349 25.177546 0.018305
5.366090 25.177546 0.021533
5.680831 25.177546 0.025568
5.995571 25.177546 0.030717
6.310312 25.177546 0.037093
6.625053 25.177546 0.046003
6.939795 25.177546 0.058019
7.254536 25.177546 0.074680
7.569277 25.177546 0.095575
7.884017 25.177546 0.123120
8.198758 25.177546 0.160271
8.513499 25.177546 0.207121
8.828240 25.177546 0.265374
9.142982 25.177546 0.341208
9.457723 25.177546 0.425650
9.772464 25.177546 0.527163
10.087205 25.177546 0.625699
10.401946 25.177546 0.728170
10.716687 25.177546 0.841909
11.031426 25.177546 0.933061
11.346168 25.177546 1.035067
11.660909 25.177546 1.133020
11.975650 25.177546 1.218340
12.290391 25.177546 1.303786
12.605132 25.177546 1.370445
12.919873 25.177546 1.415487
13.234614 25.177546 1.446343
13.549356 25.177546 1.476600
13.864097 25.177546 1.505155
14.178838 25.177546 1.482159
14.493579 25.177546 1.430050
14.808320 25.177546 1.329845
15.123059 25.177546 1.191592
15.437800 25.177546 1.041001
15.752542 25.177546 0.654496
16.067284 25.177546 0.000000
16.382023 25.177546 0.000000
16.696766 25.177546 0.000000
17.011505 25.177546 0.000000
17.326248 25.177546 0.000000
17.640987 25.177546 0.000000
17.955730 25.177546 0.000000
18.270470 25.177546 0.000000
18.585213 25.177546 0.000000
18.899952 25.177546 0.000000
-7.223550 24.862804 0.000000
-6.908809 24.862804 0.007040
-6.594068 24.862804 0.005356
-6.279327 24.862804 0.004889
-5.964586 24.862804 0.004831
-5.649845 24.862804 0.004740
-5.335104 24.862804 0.004717
-5.020363 24.862804 0.004610
-4.705622 24.862804 0.004623
-4.390881 24.862804 0.004665
-4.076140 24.862804 0.004629
-3.761399 24.862804 0.004611
-3.446658 24.862804 0.004665
-3.131917 24.862804 0.004743
-2.817176 24.862804 0.004837
-2.502435 24.862804 0.004856
-2.187694 24.862804 0.004861
-1.872953 24.862804 0.004850
-1.558212 24.862804 0.004865
-1.243471 24.862804 0.005011
-0.928730 24.862804 0.005173
-0.613989 24.862804 0.005280
-0.299248 24.862804 0.005357
0.015493 24.862804 0.005424
0.330234 24.862804 0.005596
0.644975 24.862804 0.005830
0.959716 24.862804 0.006086
1.274457 24.862804 0.006397
1.589198 24.862804 0.006720
1.903938 24.862804 0.007167
2.218679 24.862804 0.007604
2.533421 24.862804 0.008057
2.848162 24.862804 0.008649
3.162903 24.862804 0.009253
3.477644 24.862804 0.010042
3.792385 24.862804 0.011137
4.107125 24.862804 0.012487
4.421866 24.862804 0.013928
4.736608 24.862804 0.015808
5.051349 24.862804 0.018215
5.366090 24.862804 0.021571
5.680831 24.862804 0.025643
5.995571 24.862804 0.030787
6.310312 24.862804 0.036903
6.625053 24.862804 0.046191
6.939795 24.862804 0.058282
7.254536 24.862804 0.075127
7.569277 24.862804 0.096825
7.884017 24.862804 0.123762
8.198758 24.862804 0.162165
8.513499 24.862804 0.207923
8.828240 24.862804 0.268707
9.142982 24.862804 0.343913
9.457723 24.862804 0.430333
9.772464 24.862804 0.522897
10.087205 24.862804 0.625275
10.401946 24.862804 0.732550
10.716687 24.862804 0.845228
11.031426 24.862804 0.940260
11.346168 24.862804 1.026214
11.660909 24.862804 1.132146
11.975650 24.862804 1.218608
12.290391 24.862804 1.307376
12.605132 24.862804 1.388717
12.919873 24.862804 1.421104
13.234614 24.862804 1.446765
13.549356 24.862804 1.479545
13.864097 24.862804 1.495037
14.178838 24.862804 1.478417
14.493579 24.862804 1.434410
14.808320 24.862804 1.339048
15.123059 24.862804 1.204170
15.437800 24.862804 1.042197
15.752542 24.862804 0.627502
16.067284 24.862804 0.000000
16.382023 24.862804 0.000000
16.696766 24.862804 0.000000
17.011505 24.862804 0.000000
17.326248 24.862804 0.000000
17.640987 24.862804 0.000000
17.955730 24.862804 0.000000
18.270470 24.862804 0.000000
18.585213 24.862804 0.000000
18.899952 24.862804 0.000000
-7.223550 24.548063 0.000000
-6.908809 24.548063 0.006968
-6.594068 24.548063 0.005297
-6.279327 24.548063 0.004798
-5.964586 24.548063 0.004687
-5.649845 24.548063 0.004648
-5.335104 24.548063 0.004655
-5.020363 24.548063 0.004574
-4.705622 24.548063 0.004578
-4.390881 24.548063 0.004608
-4.076140 24.548063 0.004595
-3.761399 24.548063 0.004605
-3.446658 24.548063 0.004634
-3.131917 24.548063 0.004707
-2.817176 24.548063 0.004804
-2.502435 24.548063 0.004844
-2.187694 24.548063 0.004792
-1.872953 24.548063 0.004761
-1.558212 24.548063 0.004807
-1.243471 24.548063 0.004993
-0.928730 24.548063 0.005159
-0.613989 24.548063 0.005269
-0.299248 24.548063 0.005346
0.015493 24.548063 0.005369
0.330234 24.548063 0.005537
0.644975 24.548063 0.005748
0.959716 24.548063 0.005986
1.274457 24.548063 0.006309
1.589198 24.548063 0.006654
1.903938 24.548063 0.007099
2.218679 24.548063 0.007487
2.533421 24.548063 0.007954
2.848162 24.548063 0.008577
3.162903 24.548063 0.009233
3.477644 24.548063 0.010057
3.792385 24.548063 0.011113
4.107125 24.548063 0.012400
4.421866 24.548063 0.013910
4.736608 24.548063 0.015729
5.051349 24.548063 0.018099
5.366090 24.548063 0.021318
5.680831 24.548063 0.025287
5.995571 24.548063 0.030218
6.310312 24.548063 0.036987
6.625053 24.548063 0.046584
6.939795 24.548063 0.058350
7.254536 24.548063 0.075274
7.569277 24.548063 0.096813
7.884017 24.548063 0.126393
8.198758 24.548063 0.163264
8.513499 24.548063 0.210905
8.828240 24.548063 0.272511
9.142982 24.548063 0.350689
9.457723 24.548063 0.436906
9.772464 24.548063 0.529004
10.087205 24.548063 0.628475
10.401946 24.548063 0.741252
10.716687 24.548063 0.846333
11.031426 24.548063 0.944520
11.346168 24.548063 1.041613
11.660909 24.548063 1.133656
11.975650 24.548063 1.229734
12.290391 24.548063 1.308631
12.605132 24.548063 1.383939
12.919873 24.548063 1.433892
13.234614 24.548063 1.456748
13.549356 24.548063 1.496408
13.864097 24.548063 1.502186
14.178838 24.548063 1.480707
14.493579 24.548063 1.433452
14.808320 24.548063 1.343402
15.123059 24.548063 1.198853
15.437800 24.548063 1.037056
15.752542 24.548063 0.605135
16.067284 24.548063 0.000000
16.382023 24.548063 0.000000
16.696766 24.548063 0.000000
17.011505 24.548063 0.000000
17.326248 24.548063 0.000000
17.640987 24.548063 0.000000
17.955730 24.548063 0.000000
18.270470 24.548063 0.000000
18.585213 24.548063 0.000000
18.899952 24.548063 0.000000
-7.223550 24.233322 0.000000
-6.908809 24.233322 0.006881
-6.594068 24.233322 0.005215
-6.279327 24.233322 0.004682
-5.964586 24.233322 0.004589
-5.649845 24.233322 0.004597
-5.335104 24.233322 0.004603
-5.020363 24.233322 0.004550
-4.705622 24.233322 0.004534
-4.390881 24.233322 0.004544
-4.076140 24.233322 0.004544
-3.761399 24.233322 0.004580
-3.446658 24.233322 0.004618
-3.131917 24.233322 0.004659
-2.817176 24.233322 0.004772
-2.502435 24.233322 0.004817
-2.187694 24.233322 0.004704
-1.872953 24.233322 0.004662
-1.558212 24.233322 0.004736
-1.243471 24.233322 0.004944
-0.928730 24.233322 0.005083
-0.613989 24.233322 0.005213
-0.299248 24.233322 0.005304
0.015493 24.233322 0.005315
0.330234 24.233322 0.005467
0.644975 24.233322 0.005669
0.959716 24.233322 0.005905
1.274457 24.233322 0.006230
1.589198 24.233322 0.006548
1.903938 24.233322 0.006983
2.218679 24.233322 0.007366
2.533421 24.233322 0.007855
2.848162 24.233322 0.008492
3.162903 24.233322 0.009184
3.477644 24.233322 0.010031
3.792385 24.233322 0.011123
4.107125 24.233322 0.012403
4.421866 24.233322 0.013887
4.736608 24.233322 0.015668
5.051349 24.233322 0.017990
5.366090 24.233322 0.021065
5.680831 24.233322 0.024865
5.995571 24.233322 0.030233
6.310312 24.233322 0.037276
6.625053 24.233322 0.046040
6.939795 24.233322 0.058357
7.254536 24.233322 0.074769
7.569277 24.233322 0.096518
7.884017 24.233322 0.124866
8.198758 24.233322 0.161787
8.513499 24.233322 0.212013
8.828240 24.233322 0.272844
9.142982 24.233322 0.354558
9.457723 24.233322 0.445390
9.772464 24.233322 0.536780
10.087205 24.233322 0.636501
10.401946 24.233322 0.743282
10.716687 24.233322 0.843010
11.031426 24.233322 0.946619
11.346168 24.233322 1.040682
11.660909 24.233322 1.137325
11.975650 24.233322 1.225826
12.290391 24.233322 1.309883
12.605132 24.233322 1.376282
12.919873 24.233322 1.426443
13.234614 24.233322 1.463610
13.549356 24.233322 1.511298
13.864097 24.233322 1.519403
14.178838 24.233322 1.486412
14.493579 24.233322 1.433425
14.808320 24.233322 1.352150
15.123059 24.233322 1.198963
15.437800 24.233322 1.048451
15.752542 24.233322 0.585283
16.067284 24.233322 0.000000
16.382023 24.233322 0.000000
16.696766 24.233322 0.000000
17.011505 24.233322 0.000000
17.326248 24.233322 0.000000
17.640987 24.233322 0.000000
17.955730 24.233322 0.000000
18.270470 24.233322 0.000000
18.585213 24.233322 0.000000
18.899952 24.233322 0.000000
-7.223550 23.918581 0.000000
-6.908809 23.918581 0.006791
-6.594068 23.918581 0.005113
-6.279327 23.918581 0.004578
-5.964586 23.918581 0.004537
-5.649845 23.918581 0.004555
-5.335104 23.918581 0.004545
-5.020363 23.918581 0.004547
-4.705622 23.918581 0.004533
-4.390881 23.918581 0.004479
-4.076140 23.918581 0.004479
-3.761399 23.918581 0.004562
-3.446658 23.918581 0.004597
-3.131917 23.918581 0.004609
-2.817176 23.918581 0.004712
-2.502435 23.918581 0.004719
-2.187694 23.918581 0.004631
-1.872953 23.918581 0.004604
-1.558212 23.918581 0.004668
-1.243471 23.918581 0.004856
-0.928730 23.918581 0.004974
-0.613989 23.918581 0.005100
-0.299248 23.918581 0.005188
0.015493 23.918581 0.005221
0.330234 23.918581 0.005385
0.644975 23.918581 0.005585
0.959716 23.918581 0.005853
1.274457 23.918581 0.006167
1.589198 23.918581 0.006480
1.903938 23.918581 0.006868
2.218679 23.918581 0.007270
2.533421 23.918581 0.007763
2.848162 23.918581 0.008418
3.162903 23.918581 0.009147
3.477644 23.918581 0.010058
3.792385 23.918581 0.011148
4.107125 23.918581 0.012413
4.421866 23.918581 0.013848
4.736608 23.918581 0.015583
5.051349 23.918581 0.017842
5.366090 23.918581 0.020798
5.680831 23.918581 0.024717
5.995571 23.918581 0.029992
6.310312 23.918581 0.037228
6.625053 23.918581 0.046681
6.939795 23.918581 0.058454
7.254536 23.918581 0.074160
7.569277 23.918581 0.096857
7.884017 23.918581 0.124426
8.198758 23.918581 0.162569
8.513499 23.918581 0.212565
8.828240 23.918581 0.276244
9.142982 23.918581 0.356206
9.457723 23.918581 0.443507
9.772464 23.918581 0.535470
10.087205 23.918581 0.638118
10.401946 23.918581 0.748688
10.716687 23.918581 0.847525
11.031426 23.918581 0.949803
11.346168 23.918581 1.050331
11.660909 23.918581 1.133776
11.975650 23.918581 1.222266
12.290391 23.918581 1.294366
12.605132 23.918581 1.364396
12.919873 23.918581 1.410796
13.234614 23.918581 1.472741
13.549356 23.918581 1.521102
13.864097 23.918581 1.535480
14.178838 23.918581 1.494745
14.493579 23.918581 1.452718
14.808320 23.918581 1.366022
15.123059 23.918581 1.218789
15.437800 23.918581 1.043838
15.752542 23.918581 0.570289
16.067284 23.918581 0.000000
16.382023 23.918581 0.000000
16.696766 23.918581 0.000000
17.011505 23.918581 0.000000
17.326248 23.918581 0.000000
17.640987 23.918581 0.000000
17.955730 23.918581 0.000000
18.270470 23.918581 0.000000
18.585213 23.918581 0.000000
18.899952 23.918581 0.000000
-7.223550 23.603840 0.000000
-6.908809 23.603840 0.006635
-6.594068 23.603840 0.005027
-6.279327 23.603840 0.004528
-5.964586 23.603840 0.004542
-5.649845 23.603840 0.004529
-5.335104 23.603840 0.004507
-5.020363 23.603840 0.004568
-4.705622 23.603840 0.004556
-4.390881 23.603840 0.004449
-4.076140 23.603840 0.004412
-3.761399 23.603840 0.004500
-3.446658 23.603840 0.004541
-3.131917 23.603840 0.004522
-2.817176 23.603840 0.004609
-2.502435 23.603840 0.004602
-2.187694 23.603840 0.004599
-1.872953 23.603840 0.004582
-1.558212 23.603840 0.004610
-1.243471 23.603840 0.004727
-0.928730 23.603840 0.004856
-0.613989 23.603840 0.004974
-0.299248 23.603840 0.005055
0.015493 23.603840 0.005143
0.330234 23.603840 0.005298
0.644975 23.603840 0.005498
0.959716 23.603840 0.005801
1.274457 23.603840 0.006118
1.589198 23.603840 0.006413
1.903938 23.603840 0.006790
2.218679 23.603840 0.007231
2.533421 23.603840 0.007674
2.848162 23.603840 0.008329
3.162903 23.603840 0.009141
3.477644 23.603840 0.010077
3.792385 23.603840 0.011139
4.107125 23.603840 0.012423
4.421866 23.603840 0.013862
4.736608 23.603840 0.015660
5.051349 23.603840 0.017848
5.366090 23.603840 0.020725
5.680831 23.603840 0.024735
5.995571 23.603840 0.030146
6.310312 23.603840 0.037245
6.625053 23.603840 0.047097
6.939795 23.603840 0.058841
7.254536 23.603840 0.075684
7.569277 23.603840 0.097409
7.884017 23.603840 0.126314
8.198758 23.603840 0.163204
8.513499 23.603840 0.213133
8.828240 23.603840 0.278137
9.142982 23.603840 0.353049
9.457723 23.603840 0.441425
9.772464 23.603840 0.535570
10.087205 23.603840 0.644356
10.401946 23.603840 0.748773
10.716687 23.603840 0.852501
11.031426 23.603840 0.955338
11.346168 23.603840 1.047129
11.660909 23.603840 1.128490
11.975650 23.603840 1.227343
12.290391 23.603840 1.301322
12.605132 23.603840 1.356343
12.919873 23.603840 1.414872
13.234614 23.603840 1.474219
13.549356 23.603840 1.514517
13.864097 23.603840 1.534489
14.178838 23.603840 1.509415
14.493579 23.603840 1.461587
14.808320 23.603840 1.367680
15.123059 23.603840 1.230962
15.437800 23.603840 1.051940
15.752542 23.603840 0.565867
16.067284 23.603840 0.000000
16.382023 23.603840 0.000000
16.696766 23.603840 0.000000
17.011505 23.603840 0.000000
17.326248 23.603840 0.000000
17.640987 23.603840 0.000000
17.955730 23.603840 0.000000
18.270470 23.603840 0.000000
18.585213 23.603840 0.000000
18.899952 23.603840 0.000000
-7.223550 23.289099 0.000000
-6.908809 23.289099 0.006483
-6.594068 23.289099 0.004974
-6.279327 23.289099 0.004539
-5.964586 23.289099 0.004555
-5.649845 23.289099 0.004519
-5.335104 23.289099 0.004497
-5.020363 23.289099 0.004555
-4.705622 23.289099 0.004533
-4.390881 23.289099 0.004411
-4.076140 23.289099 0.004364
-3.761399 23.289099 0.004429
-3.446658 23.289099 0.004467
-3.131917 23.289099 0.004456
-2.817176 23.289099 0.004498
-2.502435 23.289099 0.004501
-2.187694 23.289099 0.004598
-1.872953 23.289099 0.004584
-1.558212 23.289099 0.004565
-1.243471 23.289099 0.004643
-0.928730 23.289099 0.004756
-0.613989 23.289099 0.004863
-0.299248 23.289099 0.004944
0.015493 23.289099 0.005087
0.330234 23.289099 0.005229
0.644975 23.289099 0.005416
0.959716 23.289099 0.005734
1.274457 23.289099 0.006055
1.589198 23.289099 0.006345
1.903938 23.289099 0.006717
2.218679 23.289099 0.007148
2.533421 23.289099 0.007603
2.848162 23.289099 0.008239
3.162903 23.289099 0.009056
3.477644 23.289099 0.010095
3.792385 23.289099 0.011064
4.107125 23.289099 0.012374
4.421866 23.289099 0.013877
4.736608 23.289099 0.015616
5.051349 23.289099 0.017880
5.366090 23.289099 0.020907
5.680831 23.289099 0.024875
5.995571 23.289099 0.030472
6.310312 23.289099 0.038067
6.625053 23.289099 0.047310
6.939795 23.289099 0.060186
7.254536 23.289099 0.077080
7.569277 23.289099 0.099467
7.884017 23.289099 0.128124
8.198758 23.289099 0.167413
8.513499 23.289099 0.216531
8.828240 23.289099 0.277554
9.142982 23.289099 0.352016
9.457723 23.289099 0.440221
9.772464 23.289099 0.538661
10.087205 23.289099 0.641309
10.401946 23.289099 0.756044
10.716687 23.289099 0.861754
11.031426 23.289099 0.955283
11.346168 23.289099 1.051752
11.660909 23.289099 1.131554
11.975650 23.289099 1.235486
12.290391 23.289099 1.312289
12.605132 23.289099 1.369674
12.919873 23.289099 1.415899
13.234614 23.289099 1.482203
13.549356 23.289099 1.520703
13.864097 23.289099 1.531782
14.178838 23.289099 1.508747
14.493579 23.289099 1.461711
14.808320 23.289099 1.374923
15.123059 23.289099 1.220830
15.437800 23.289099 1.037462
15.752542 23.289099 0.548744
16.067284 23.289099 0.000000
16.382023 23.289099 0.000000
16.696766 23.289099 0.000000
17.011505 23.289099 0.000000
17.326248 23.289099 0.000000
17.640987 23.289099 0.000000
17.955730 23.289099 0.000000
18.270470 23.289099 0.000000
18.585213 23.289099 0.000000
18.899952 23.289099 0.000000
-7.223550 22.974360 0.000000
-6.908809 22.974360 0.006399
-6.594068 22.974360 0.004917
-6.279327 22.974360 0.004523
-5.964586 22.974360 0.004542
-5.649845 22.974360 0.004502
-5.335104 22.974360 0.004488
-5.020363 22.974360 0.004505
-4.705622 22.974360 0.004464
-4.390881 22.974360 0.004374
-4.076140 22.974360 0.004333
-3.761399 22.974360 0.004391
-3.446658 22.974360 0.004405
-3.131917 22.974360 0.004375
-2.817176 22.974360 0.004397
-2.502435 22.974360 0.004426
-2.187694 22.974360 0.004577
-1.872953 22.974360 0.004584
-1.558212 22.974360 0.004527
-1.243471 22.974360 0.004603
-0.928730 22.974360 0.004708
-0.613989 22.974360 0.004785
-0.299248 22.974360 0.004878
0.015493 22.974360 0.005035
0.330234 22.974360 0.005194
0.644975 22.974360 0.005337
0.959716 22.974360 0.005641
1.274457 22.974360 0.005935
1.589198 22.974360 0.006247
1.903938 22.974360 0.006623
2.218679 22.974360 0.007043
2.533421 22.974360 0.007519
2.848162 22.974360 0.008154
3.162903 22.974360 0.008943
3.477644 22.974360 0.009995
3.792385 22.974360 0.011053
4.107125 22.974360 0.012272
4.421866 22.974360 0.013848
4.736608 22.974360 0.015631
5.051349 22.974360 0.018111
5.366090 22.974360 0.021135
5.680831 22.974360 0.025212
5.995571 22.974360 0.030628
6.310312 22.974360 0.037778
6.625053 22.974360 0.047556
6.939795 22.974360 0.059984
7.254536 22.974360 0.076712
7.569277 22.974360 0.099821
7.884017 22.974360 0.128916
8.198758 22.974360 0.168400
8.513499 22.974360 0.221265
8.828240 22.974360 0.282019
9.142982 22.974360 0.357043
9.457723 22.974360 0.445297
9.772464 22.974360 0.539183
10.087205 22.974360 0.648987
10.401946 22.974360 0.754118
10.716687 22.974360 0.865222
11.031426 22.974360 0.962219
11.346168 22.974360 1.050165
11.660909 22.974360 1.127314
11.975650 22.974360 1.235026
12.290391 22.974360 1.311439
12.605132 22.974360 1.364795
12.919873 22.974360 1.421500
13.234614 22.974360 1.475274
13.549356 22.974360 1.531924
13.864097 22.974360 1.533039
14.178838 22.974360 1.510586
14.493579 22.974360 1.468575
14.808320 22.974360 1.373063
15.123059 22.974360 1.210386
15.437800 22.974360 1.035010
15.752542 22.974360 0.525756
16.067284 22.974360 0.000000
16.382023 22.974360 0.000000
16.696766 22.974360 0.000000
17.011505 22.974360 0.000000
17.326248 22.974360 0.000000
17.640987 22.974360 0.000000
17.955730 22.974360 0.000000
18.270470 22.974360 0.000000
18.585213 22.974360 0.000000
18.899952 22.974360 0.000000
-7.223550 22.659618 0.000000
-6.908809 22.659618 0.006368
-6.594068 22.659618 0.004874
-6.279327 22.659618 0.004478
-5.964586 22.659618 0.004493
-5.649845 22.659618 0.004467
-5.335104 22.659618 0.004465
-5.020363 22.659618 0.004447
-4.705622 22.659618 0.004397
-4.390881 22.659618 0.004338
-4.076140 22.659618 0.004320
-3.761399 22.659618 0.004366
-3.446658 22.659618 0.004361
-3.131917 22.659618 0.004285
-2.817176 22.659618 0.004298
-2.502435 22.659618 0.004379
-2.187694 22.659618 0.004534
-1.872953 22.659618 0.004570
-1.558212 22.659618 0.004517
-1.243471 22.659618 0.004576
-0.928730 22.659618 0.004686
-0.613989 22.659618 0.004712
-0.299248 22.659618 0.004806
0.015493 22.659618 0.004979
0.330234 22.659618 0.005165
0.644975 22.659618 0.005273
0.959716 22.659618 0.005511
1.274457 22.659618 0.005786
1.589198 22.659618 0.006106
1.903938 22.659618 0.006501
2.218679 22.659618 0.006907
2.533421 22.659618 0.007425
2.848162 22.659618 0.008083
3.162903 22.659618 0.008793
3.477644 22.659618 0.009802
3.792385 22.659618 0.010972
4.107125 22.659618 0.012254
4.421866 22.659618 0.013789
4.736608 22.659618 0.015657
5.051349 22.659618 0.018130
5.366090 22.659618 0.021402
5.680831 22.659618 0.025353
5.995571 22.659618 0.030466
6.310312 22.659618 0.037744
6.625053 22.659618 0.047334
6.939795 22.659618 0.059980
7.254536 22.659618 0.077341
7.569277 22.659618 0.099845
7.884017 22.659618 0.131105
8.198758 22.659618 0.171936
8.513499 22.659618 0.220287
8.828240 22.659618 0.282784
9.142982 22.659618 0.359385
9.457723 22.659618 0.446882
9.772464 22.659618 0.544516
10.087205 22.659618 0.652839
10.401946 22.659618 0.761666
10.716687 22.659618 0.864546
11.031426 22.659618 0.968120
11.346168 22.659618 1.046089
11.660909 22.659618 1.141249
11.975650 22.659618 1.234227
12.290391 22.659618 1.319753
12.605132 22.659618 1.379658
12.919873 22.659618 1.438060
13.234614 22.659618 1.495501
13.549356 22.659618 1.536156
13.864097 22.659618 1.550964
14.178838 22.659618 1.521531
14.493579 22.659618 1.468084
14.808320 22.659618 1.360878
15.123059 22.659618 1.189415
15.437800 22.659618 1.007479
15.752542 22.659618 0.528615
16.067284 22.659618 0.000000
16.382023 22.659618 0.000000
16.696766 22.659618 0.000000
17.011505 22.659618 0.000000
17.326248 22.659618 0.000000
17.640987 22.659618 0.000000
17.955730 22.659618 0.000000
18.270470 22.659618 0.000000
18.585213 22.659618 0.000000
18.899952 22.659618 0.000000
-7.223550 22.344877 0.000000
-6.908809 22.344877 0.006345
-6.594068 22.344877 0.004859
-6.279327 22.344877 0.004434
-5.964586 22.344877 0.004466
-5.649845 22.344877 0.004441
-5.335104 22.344877 0.004410
-5.020363 22.344877 0.004395
-4.705622 22.344877 0.004357
-4.390881 22.344877 0.004311
-4.076140 22.344877 0.004307
-3.761399 22.344877 0.004344
-3.446658 22.344877 0.004303
-3.131917 22.344877 0.004199
-2.817176 22.344877 0.004242
-2.502435 22.344877 0.004344
-2.187694 22.344877 0.004467
-1.872953 22.344877 0.004527
-1.558212 22.344877 0.004512
-1.243471 22.344877 0.004570
-0.928730 22.344877 0.004643
-0.613989 22.344877 0.004684
-0.299248 22.344877 0.004768
0.015493 22.344877 0.004921
0.330234 22.344877 0.005132
0.644975 22.344877 0.005211
0.959716 22.344877 0.005394
1.274457 22.344877 0.005673
1.589198 22.344877 0.005983
1.903938 22.344877 0.006399
2.218679 22.344877 0.006822
2.533421 22.344877 0.007326
2.848162 22.344877 0.007943
3.162903 22.344877 0.008676
3.477644 22.344877 0.009617
3.792385 22.344877 0.010842
4.107125 22.344877 0.012199
4.421866 22.344877 0.013713
4.736608 22.344877 0.015723
5.051349 22.344877 0.018134
5.366090 22.344877 0.021422
5.680831 22.344877 0.025290
5.995571 22.344877 0.030510
6.310312 22.344877 0.037414
6.625053 22.344877 0.047426
6.939795 22.344877 0.060007
7.254536 22.344877 0.077317
7.569277 22.344877 0.100256
7.884017 22.344877 0.130053
8.198758 22.344877 0.172072
8.513499 22.344877 0.222164
8.828240 22.344877 0.284584
9.142982 22.344877 0.362515
9.457723 22.344877 0.447445
9.772464 22.344877 0.539635
10.087205 22.344877 0.655079
10.401946 22.344877 0.762625
10.716687 22.344877 0.868002
11.031426 22.344877 0.974705
11.346168 22.344877 1.051690
11.660909 22.344877 1.141802
11.975650 22.344877 1.249098
12.290391 22.344877 1.321481
12.605132 22.344877 1.373911
12.919873 22.344877 1.443880
13.234614 22.344877 1.485743
13.549356 22.344877 1.532632
13.864097 22.344877 1.549356
14.178838 22.344877 1.526989
14.493579 22.344877 1.453087
14.808320 22.344877 1.351396
15.123059 22.344877 1.172651
15.437800 22.344877 0.996394
15.752542 22.344877 0.530304
16.067284 22.344877 0.000000
16.382023 22.344877 0.000000
16.696766 22.344877 0.000000
17.011505 22.344877 0.000000
17.326248 22.344877 0.000000
17.640987 22.344877 0.000000
17.955730 22.344877 0.000000
18.270470 22.344877 0.000000
18.585213 22.344877 0.000000
18.899952 22.344877 0.000000
-7.223550 22.030136 0.000000
-6.908809 22.030136 0.006311
-6.594068 22.030136 0.004823
-6.279327 22.030136 0.004391
-5.964586 22.030136 0.004449
-5.649845 22.030136 0.004416
-5.335104 22.030136 0.004341
-5.020363 22.030136 0.004349
-4.705622 22.030136 0.004347
-4.390881 22.030136 0.004298
-4.076140 22.030136 0.004278
-3.761399 22.030136 0.004314
-3.446658 22.030136 0.004251
-3.131917 22.030136 0.004130
-2.817176 22.030136 0.004179
-2.502435 22.030136 0.004305
-2.187694 22.030136 0.004404
-1.872953 22.030136 0.004467
-1.558212 22.030136 0.004486
-1.243471 22.030136 0.004559
-0.928730 22.030136 0.004565
-0.613989 22.030136 0.004642
-0.299248 22.030136 0.004736
0.015493 22.030136 0.004862
0.330234 22.030136 0.005059
0.644975 22.030136 0.005141
0.959716 22.030136 0.005327
1.274457 22.030136 0.005625
1.589198 22.030136 0.005902
1.903938 22.030136 0.006334
2.218679 22.030136 0.006735
2.533421 22.030136 0.007212
2.848162 22.030136 0.007830
3.162903 22.030136 0.008485
3.477644 22.030136 0.009428
3.792385 22.030136 0.010689
4.107125 22.030136 0.012033
4.421866 22.030136 0.013624
4.736608 22.030136 0.015604
5.051349 22.030136 0.018043
5.366090 22.030136 0.021411
5.680831 22.030136 0.025328
5.995571 22.030136 0.030452
6.310312 22.030136 0.037497
6.625053 22.030136 0.047490
6.939795 22.030136 0.059929
7.254536 22.030136 0.077948
7.569277 22.030136 0.100036
7.884017 22.030136 0.130845
8.198758 22.030136 0.171022
8.513499 22.030136 0.224221
8.828240 22.030136 0.286057
9.142982 22.030136 0.363384
9.457723 22.030136 0.448523
9.772464 22.030136 0.535759
10.087205 22.030136 0.651065
10.401946 22.030136 0.760899
10.716687 22.030136 0.869529
11.031426 22.030136 0.975060
11.346168 22.030136 1.055206
11.660909 22.030136 1.150535
11.975650 22.030136 1.250738
12.290391 22.030136 1.329378
12.605132 22.030136 1.385016
12.919873 22.030136 1.440745
13.234614 22.030136 1.487038
13.549356 22.030136 1.528184
13.864097 22.030136 1.542947
14.178838 22.030136 1.527194
14.493579 22.030136 1.460512
14.808320 22.030136 1.347584
15.123059 22.030136 1.170615
15.437800 22.030136 1.004600
15.752542 22.030136 0.529170
16.067284 22.030136 0.000000
16.382023 22.030136 0.000000
16.696766 22.030136 0.000000
17.011505 22.030136 0.000000
17.326248 22.030136 0.000000
17.640987 22.030136 0.000000
17.955730 22.030136 0.000000
18.270470 22.030136 0.000000
18.585213 22.030136 0.000000
18.899952 22.030136 0.000000
-7.223550 21.715395 0.000000
-6.908809 21.715395 0.006248
-6.594068 21.715395 0.004782
-6.279327 21.715395 0.004362
-5.964586 21.715395 0.004422
-5.649845 21.715395 0.004407
-5.335104 21.715395 0.004303
-5.020363 21.715395 0.004340
-4.705622 21.715395 0.004342
-4.390881 21.715395 0.004281
-4.076140 21.715395 0.004234
-3.761399 21.715395 0.004268
-3.446658 21.715395 0.004200
-3.131917 21.715395 0.004097
-2.817176 21.715395 0.004145
-2.502435 21.715395 0.004251
-2.187694 21.715395 0.004338
-1.872953 21.715395 0.004384
-1.558212 21.715395 0.004420
-1.243471 21.715395 0.004480
-0.928730 21.715395 0.004497
-0.613989 21.715395 0.004574
-0.299248 21.715395 0.004694
0.015493 21.715395 0.004803
0.330234 21.715395 0.004973
0.644975 21.715395 0.005085
0.959716 21.715395 0.005279
1.274457 21.715395 0.005566
1.589198 21.715395 0.005860
1.903938 21.715395 0.006284
2.218679 21.715395 0.006688
2.533421 21.715395 0.007115
2.848162 21.715395 0.007688
3.162903 21.715395 0.008351
3.477644 21.715395 0.009288
3.792385 21.715395 0.010486
4.107125 21.715395 0.011863
4.421866 21.715395 0.013446
4.736608 21.715395 0.015490
5.051349 21.715395 0.017920
5.366090 21.715395 0.021103
5.680831 21.715395 0.025168
5.995571 21.715395 0.030607
6.310312 21.715395 0.037294
6.625053 21.715395 0.046968
6.939795 21.715395 0.060375
7.254536 21.715395 0.078631
7.569277 21.715395 0.100633
7.884017 21.715395 0.132600
8.198758 21.715395 0.173721
8.513499 21.715395 0.223492
8.828240 21.715395 0.288287
9.142982 21.715395 0.363351
9.457723 21.715395 0.451955
9.772464 21.715395 0.550389
10.087205 21.715395 0.653345
10.401946 21.715395 0.762902
10.716687 21.715395 0.872084
11.031426 21.715395 0.965819
11.346168 21.715395 1.059871
11.660909 21.715395 1.155614
11.975650 21.715395 1.250989
12.290391 21.715395 1.340653
12.605132 21.715395 1.400761
12.919873 21.715395 1.443819
13.234614 21.715395 1.487324
13.549356 21.715395 1.526893
13.864097 21.715395 1.546614
14.178838 21.715395 1.528216
14.493579 21.715395 1.465509
14.808320 21.715395 1.358670
15.123059 21.715395 1.172512
15.437800 21.715395 0.992838
15.752542 21.715395 0.520201
16.067284 21.715395 0.000000
16.382023 21.715395 0.000000
16.696766 21.715395 0.000000
17.011505 21.715395 0.000000
17.326248 21.715395 0.000000
17.640987 21.715395 0.000000
17.955730 21.715395 0.000000
18.270470 21.715395 0.000000
18.585213 21.715395 0.000000
18.899952 21.715395 0.000000
-7.223550 21.400654 0.000000
-6.908809 21.400654 0.006208
-6.594068 21.400654 0.004730
-6.279327 21.400654 0.004317
-5.964586 21.400654 0.004395
-5.649845 21.400654 0.004381
-5.335104 21.400654 0.004293
-5.020363 21.400654 0.004327
-4.705622 21.400654 0.004297
-4.390881 21.400654 0.004219
-4.076140 21.400654 0.004186
-3.761399 21.400654 0.004216
-3.446658 21.400654 0.004149
-3.131917 21.400654 0.004097
-2.817176 21.400654 0.004116
-2.502435 21.400654 0.004199
-2.187694 21.400654 0.004263
-1.872953 21.400654 0.004288
-1.558212 21.400654 0.004322
-1.243471 21.400654 0.004360
-0.928730 21.400654 0.004412
-0.613989 21.400654 0.004501
-0.299248 21.400654 0.004622
0.015493 21.400654 0.004739
0.330234 21.400654 0.004879
0.644975 21.400654 0.005005
0.959716 21.400654 0.005222
1.274457 21.400654 0.005481
1.589198 21.400654 0.005792
1.903938 21.400654 0.006246
2.218679 21.400654 0.006618
2.533421 21.400654 0.007040
2.848162 21.400654 0.007547
3.162903 21.400654 0.008222
3.477644 21.400654 0.009211
3.792385 21.400654 0.010331
4.107125 21.400654 0.011563
4.421866 21.400654 0.013305
4.736608 21.400654 0.015338
5.051349 21.400654 0.017842
5.366090 21.400654 0.021099
5.680831 21.400654 0.025176
5.995571 21.400654 0.030650
6.310312 21.400654 0.037671
6.625053 21.400654 0.047422
6.939795 21.400654 0.061615
7.254536 21.400654 0.079133
7.569277 21.400654 0.101767
7.884017 21.400654 0.132301
8.198758 21.400654 0.173168
8.513499 21.400654 0.226315
8.828240 21.400654 0.288728
9.142982 21.400654 0.366730
9.457723 21.400654 0.450381
9.772464 21.400654 0.550053
10.087205 21.400654 0.662948
10.401946 21.400654 0.757399
10.716687 21.400654 0.871760
11.031426 21.400654 0.970674
11.346168 21.400654 1.057194
11.660909 21.400654 1.155872
11.975650 21.400654 1.250175
12.290391 21.400654 1.346311
12.605132 21.400654 1.411521
12.919873 21.400654 1.450414
13.234614 21.400654 1.493958
13.549356 21.400654 1.525869
13.864097 21.400654 1.540595
14.178838 21.400654 1.542401
14.493579 21.400654 1.473595
14.808320 21.400654 1.349758
15.123059 21.400654 1.189774
15.437800 21.400654 0.996044
15.752542 21.400654 0.548566
16.067284 21.400654 0.000000
16.382023 21.400654 0.000000
16.696766 21.400654 0.000000
17.011505 21.400654 0.000000
17.326248 21.400654 0.000000
17.640987 21.400654 0.000000
17.955730 21.400654 0.000000
18.270470 21.400654 0.000000
18.585213 21.400654 0.000000
18.899952 21.400654 0.000000
-7.223550 21.085913 0.000000
-6.908809 21.085913 0.006187
-6.594068 21.085913 0.004665
-6.279327 21.085913 0.004279
-5.964586 21.085913 0.004365
-5.649845 21.085913 0.004336
-5.335104 21.085913 0.004272
-5.020363 21.085913 0.004273
-4.705622 21.085913 0.004205
-4.390881 21.085913 0.004114
-4.076140 21.085913 0.004127
-3.761399 21.085913 0.004182
-3.446658 21.085913 0.004133
-3.131917 21.085913 0.004096
-2.817176 21.085913 0.004079
-2.502435 21.085913 0.004110
-2.187694 21.085913 0.004174
-1.872953 21.085913 0.004220
-1.558212 21.085913 0.004240
-1.243471 21.085913 0.004249
-0.928730 21.085913 0.004353
-0.613989 21.085913 0.004447
-0.299248 21.085913 0.004547
0.015493 21.085913 0.004667
0.330234 21.085913 0.004785
0.644975 21.085913 0.004923
0.959716 21.085913 0.005159
1.274457 21.085913 0.005399
1.589198 21.085913 0.005739
1.903938 21.085913 0.006205
2.218679 21.085913 0.006556
2.533421 21.085913 0.006982
2.848162 21.085913 0.007462
3.162903 21.085913 0.008177
3.477644 21.085913 0.009139
3.792385 21.085913 0.010182
4.107125 21.085913 0.011404
4.421866 21.085913 0.013064
4.736608 21.085913 0.015191
5.051349 21.085913 0.017693
5.366090 21.085913 0.021022
5.680831 21.085913 0.025134
5.995571 21.085913 0.030333
6.310312 21.085913 0.037989
6.625053 21.085913 0.048138
6.939795 21.085913 0.061525
7.254536 21.085913 0.080016
7.569277 21.085913 0.103262
7.884017 21.085913 0.135357
8.198758 21.085913 0.177069
8.513499 21.085913 0.230779
8.828240 21.085913 0.295540
9.142982 21.085913 0.370469
9.457723 21.085913 0.462505
9.772464 21.085913 0.559962
10.087205 21.085913 0.673380
10.401946 21.085913 0.769368
10.716687 21.085913 0.884075
11.031426 21.085913 0.972297
11.346168 21.085913 1.055519
11.660909 21.085913 1.148167
11.975650 21.085913 1.251213
12.290391 21.085913 1.350076
12.605132 21.085913 1.415241
12.919873 21.085913 1.455438
13.234614 21.085913 1.491087
13.549356 21.085913 1.524733
13.864097 21.085913 1.545795
14.178838 21.085913 1.552873
14.493579 21.085913 1.493282
14.808320 21.085913 1.357590
15.123059 21.085913 1.195510
15.437800 21.085913 1.002506
15.752542 21.085913 0.687726
16.067284 21.085913 0.000000
16.382023 21.085913 0.000000
16.696766 21.085913 0.000000
17.011505 21.085913 0.000000
17.326248 21.085913 0.000000
17.640987 21.085913 0.000000
17.955730 21.085913 0.000000
18.270470 21.085913 0.000000
18.585213 21.085913 0.000000
18.899952 21.085913 0.000000
-7.223550 20.771172 0.000000
-6.908809 20.771172 0.006280
-6.594068 20.771172 0.004664
-6.279327 20.771172 0.004240
-5.964586 20.771172 0.004302
-5.649845 20.771172 0.004261
-5.335104 20.771172 0.004226
-5.020363 20.771172 0.004189
-4.705622 20.771172 0.004118
-4.390881 20.771172 0.004025
-4.076140 20.771172 0.004058
-3.761399 20.771172 0.004147
-3.446658 20.771172 0.004114
-3.131917 20.771172 0.004059
-2.817176 20.771172 0.004026
-2.502435 20.771172 0.004031
-2.187694 20.771172 0.004086
-1.872953 20.771172 0.004150
-1.558212 20.771172 0.004170
-1.243471 20.771172 0.004183
-0.928730 20.771172 0.004321
-0.613989 20.771172 0.004387
-0.299248 20.771172 0.004461
0.015493 20.771172 0.004582
0.330234 20.771172 0.004724
0.644975 20.771172 0.004864
0.959716 20.771172 0.005089
1.274457 20.771172 0.005324
1.589198 20.771172 0.005720
1.903938 20.771172 0.006179
2.218679 20.771172 0.006482
2.533421 20.771172 0.006915
2.848162 20.771172 0.007476
3.162903 20.771172 0.008213
3.477644 20.771172 0.009052
3.792385 20.771172 0.010062
4.107125 20.771172 0.011330
4.421866 20.771172 0.012945
4.736608 20.771172 0.015047
5.051349 20.771172 0.017648
5.366090 20.771172 0.020737
5.680831 20.771172 0.024960
5.995571 20.771172 0.030694
6.310312 20.771172 0.037738
6.625053 20.771172 0.048233
6.939795 20.771172 0.061982
7.254536 20.771172 0.079220
7.569277 20.771172 0.103287
7.884017 20.771172 0.138523
8.198758 20.771172 0.177320
8.513499 20.771172 0.231665
8.828240 20.771172 0.293237
9.142982 20.771172 0.376303
9.457723 20.771172 0.466643
9.772464 20.771172 0.566720
10.087205 20.771172 0.675500
10.401946 20.771172 0.780631
10.716687 20.771172 0.882216
11.031426 20.771172 0.979742
11.346168 20.771172 1.063101
11.660909 20.771172 1.144338
11.975650 20.771172 1.248739
12.290391 20.771172 1.349282
12.605132 20.771172 1.425280
12.919873 20.771172 1.458059
13.234614 20.771172 1.495215
13.549356 20.771172 1.536741
13.864097 20.771172 1.558145
14.178838 20.771172 1.547226
14.493579 20.771172 1.499885
14.808320 20.771172 1.379136
15.123059 20.771172 1.201638
15.437800 20.771172 1.024877
15.752542 20.771172 0.692374
16.067284 20.771172 0.000000
16.382023 20.771172 0.000000
16.696766 20.771172 0.000000
17.011505 20.771172 0.000000
17.326248 20.771172 0.000000
17.640987 20.771172 0.000000
17.955730 20.771172 0.000000
18.270470 20.771172 0.000000
18.585213 20.771172 0.000000
18.899952 20.771172 0.000000
-7.223550 20.456430 0.000000
-6.908809 20.456430 0.006313
-6.594068 20.456430 0.004631
-6.279327 20.456430 0.004216
-5.964586 20.456430 0.004208
-5.649845 20.456430 0.004167
-5.335104 20.456430 0.004149
-5.020363 20.456430 0.004129
-4.705622 20.456430 0.004092
-4.390881 20.456430 0.004003
-4.076140 20.456430 0.004013
-3.761399 20.456430 0.004101
-3.446658 20.456430 0.004077
-3.131917 20.456430 0.003997
-2.817176 20.456430 0.003988
-2.502435 20.456430 0.003995
-2.187694 20.456430 0.004005
-1.872953 20.456430 0.004068
-1.558212 20.456430 0.004122
-1.243471 20.456430 0.004194
-0.928730 20.456430 0.004308
-0.613989 20.456430 0.004337
-0.299248 20.456430 0.004357
0.015493 20.456430 0.004513
0.330234 20.456430 0.004663
0.644975 20.456430 0.004823
0.959716 20.456430 0.005028
1.274457 20.456430 0.005293
1.589198 20.456430 0.005669
1.903938 20.456430 0.006077
2.218679 20.456430 0.006398
2.533421 20.456430 0.006877
2.848162 20.456430 0.007520
3.162903 20.456430 0.008237
3.477644 20.456430 0.009001
3.792385 20.456430 0.010018
4.107125 20.456430 0.011259
4.421866 20.456430 0.012795
4.736608 20.456430 0.014877
5.051349 20.456430 0.017520
5.366090 20.456430 0.020676
5.680831 20.456430 0.024726
5.995571 20.456430 0.030587
6.310312 20.456430 0.037812
6.625053 20.456430 0.048142
6.939795 20.456430 0.061761
7.254536 20.456430 0.079516
7.569277 20.456430 0.104714
7.884017 20.456430 0.135334
8.198758 20.456430 0.178641
8.513499 20.456430 0.231170
8.828240 20.456430 0.297613
9.142982 20.456430 0.379068
9.457723 20.456430 0.471398
9.772464 20.456430 0.567706
10.087205 20.456430 0.681719
10.401946 20.456430 0.789983
10.716687 20.456430 0.887481
11.031426 20.456430 0.987633
11.346168 20.456430 1.065335
11.660909 20.456430 1.154159
11.975650 20.456430 1.242368
12.290391 20.456430 1.344463
12.605132 20.456430 1.414228
12.919873 20.456430 1.460381
13.234614 20.456430 1.506919
13.549356 20.456430 1.545014
13.864097 20.456430 1.545742
14.178838 20.456430 1.548963
14.493579 20.456430 1.503295
14.808320 20.456430 1.373988
15.123059 20.456430 1.211446
15.437800 20.456430 1.041773
15.752542 20.456430 0.695327
16.067284 20.456430 0.000000
16.382023 20.456430 0.000000
16.696766 20.456430 0.000000
17.011505 20.456430 0.000000
17.326248 20.456430 0.000000
17.640987 20.456430 0.000000
17.955730 20.456430 0.000000
18.270470 20.456430 0.000000
18.585213 20.456430 0.000000
18.899952 20.456430 0.000000
-7.223550 20.141689 0.000000
-6.908809 20.141689 0.006252
-6.594068 20.141689 0.004559
-6.279327 20.141689 0.004180
-5.964586 20.141689 0.004117
-5.649845 20.141689 0.004059
-5.335104 20.141689 0.004076
-5.020363 20.141689 0.004100
-4.705622 20.141689 0.004118
-4.390881 20.141689 0.004035
-4.076140 20.141689 0.003992
-3.761399 20.141689 0.004050
-3.446658 20.141689 0.004017
-3.131917 20.141689 0.003954
-2.817176 20.141689 0.003969
-2.502435 20.141689 0.003973
-2.187694 20.141689 0.003979
-1.872953 20.141689 0.004003
-1.558212 20.141689 0.004091
-1.243471 20.141689 0.004202
-0.928730 20.141689 0.004269
-0.613989 20.141689 0.004294
-0.299248 20.141689 0.004317
0.015493 20.141689 0.004458
0.330234 20.141689 0.004631
0.644975 20.141689 0.004790
0.959716 20.141689 0.004996
1.274457 20.141689 0.005239
1.589198 20.141689 0.005595
1.903938 20.141689 0.005946
2.218679 20.141689 0.006312
2.533421 20.141689 0.006833
2.848162 20.141689 0.007535
3.162903 20.141689 0.008251
3.477644 20.141689 0.009007
3.792385 20.141689 0.010003
4.107125 20.141689 0.011164
4.421866 20.141689 0.012724
4.736608 20.141689 0.014737
5.051349 20.141689 0.017298
5.366090 20.141689 0.020355
5.680831 20.141689 0.024585
5.995571 20.141689 0.030427
6.310312 20.141689 0.037948
6.625053 20.141689 0.048508
6.939795 20.141689 0.061578
7.254536 20.141689 0.080534
7.569277 20.141689 0.105055
7.884017 20.141689 0.136533
8.198758 20.141689 0.178168
8.513499 20.141689 0.235397
8.828240 20.141689 0.300677
9.142982 20.141689 0.384166
9.457723 20.141689 0.476752
9.772464 20.141689 0.576308
10.087205 20.141689 0.683171
10.401946 20.141689 0.793154
10.716687 20.141689 0.892831
11.031426 20.141689 0.984213
11.346168 20.141689 1.068067
11.660909 20.141689 1.165644
11.975650 20.141689 1.249589
12.290391 20.141689 1.339004
12.605132 20.141689 1.415228
12.919873 20.141689 1.452402
13.234614 20.141689 1.497679
13.549356 20.141689 1.536122
13.864097 20.141689 1.549481
14.178838 20.141689 1.537539
14.493579 20.141689 1.485814
14.808320 20.141689 1.379962
15.123059 20.141689 1.233737
15.437800 20.141689 1.069033
15.752542 20.141689 0.694543
16.067284 20.141689 0.000000
16.382023 20.141689 0.000000
16.696766 20.141689 0.000000
17.011505 20.141689 0.000000
17.326248 20.141689 0.000000
17.640987 20.141689 0.000000
17.955730 20.141689 0.000000
18.270470 20.141689 0.000000
18.585213 20.141689 0.000000
18.899952 20.141689 0.000000
-7.223550 19.826948 0.000000
-6.908809 19.826948 0.006169
-6.594068 19.826948 0.004439
-6.279327 19.826948 0.004129
-5.964586 19.826948 0.004033
-5.649845 19.826948 0.003996
-5.335104 19.826948 0.004008
-5.020363 19.826948 0.004087
-4.705622 19.826948 0.004132
-4.390881 19.826948 0.004051
-4.076140 19.826948 0.003970
-3.761399 19.826948 0.003978
-3.446658 19.826948 0.003951
-3.131917 19.826948 0.003916
-2.817176 19.826948 0.003938
-2.502435 19.826948 0.003967
-2.187694 19.826948 0.003943
-1.872953 19.826948 0.003937
-1.558212 19.826948 0.004038
-1.243471 19.826948 0.004172
-0.928730 19.826948 0.004217
-0.613989 19.826948 0.004242
-0.299248 19.826948 0.004304
0.015493 19.826948 0.004400
0.330234 19.826948 0.004573
0.644975 19.826948 0.004749
0.959716 19.826948 0.004952
1.274457 19.826948 0.005206
1.589198 19.826948 0.005507
1.903938 19.826948 0.005838
2.218679 19.826948 0.006245
2.533421 19.826948 0.006781
2.848162 19.826948 0.007499
3.162903 19.826948 0.008257
3.477644 19.826948 0.009013
3.792385 19.826948 0.009966
4.107125 19.826948 0.011162
4.421866 19.826948 0.012737
4.736608 19.826948 0.014762
5.051349 19.826948 0.017232
5.366090 19.826948 0.020335
5.680831 19.826948 0.024691
5.995571 19.826948 0.030394
6.310312 19.826948 0.038315
6.625053 19.826948 0.048995
6.939795 19.826948 0.062241
7.254536 19.826948 0.081550
7.569277 19.826948 0.105955
7.884017 19.826948 0.137319
8.198758 19.826948 0.177784
8.513499 19.826948 0.233000
8.828240 19.826948 0.300089
9.142982 19.826948 0.383351
9.457723 19.826948 0.476784
9.772464 19.826948 0.575079
10.087205 19.826948 0.685999
10.401946 19.826948 0.798469
10.716687 19.826948 0.891379
11.031426 19.826948 0.983010
11.346168 19.826948 1.075059
11.660909 19.826948 1.181696
11.975650 19.826948 1.256757
12.290391 19.826948 1.340417
12.605132 19.826948 1.408227
12.919873 19.826948 1.451137
13.234614 19.826948 1.503231
13.549356 19.826948 1.544411
13.864097 19.826948 1.544287
14.178838 19.826948 1.530605
14.493579 19.826948 1.488395
14.808320 19.826948 1.389221
15.123059 19.826948 1.244269
15.437800 19.826948 1.076727
15.752542 19.826948 0.686777
16.067284 19.826948 0.000000
16.382023 19.826948 0.000000
16.696766 19.826948 0.000000
17.011505 19.826948 0.000000
17.326248 19.826948 0.000000
17.640987 19.826948 0.000000
17.955730 19.826948 0.000000
18.270470 19.826948 0.000000
18.585213 19.826948 0.000000
18.899952 19.826948 0.000000
-7.223550 19.512207 0.000000
-6.908809 19.512207 0.006110
-6.594068 19.512207 0.004369
-6.279327 19.512207 0.004117
-5.964586 19.512207 0.004025
-5.649845 19.512207 0.003983
-5.335104 19.512207 0.003998
-5.020363 19.512207 0.004055
-4.705622 19.512207 0.004090
-4.390881 19.512207 0.004030
-4.076140 19.512207 0.003960
-3.761399 19.512207 0.003932
-3.446658 19.512207 0.003891
-3.131917 19.512207 0.003881
-2.817176 19.512207 0.003886
-2.502435 19.512207 0.003945
-2.187694 19.512207 0.003919
-1.872953 19.512207 0.003904
-1.558212 19.512207 0.003997
-1.243471 19.512207 0.004110
-0.928730 19.512207 0.004143
-0.613989 19.512207 0.004181
-0.299248 19.512207 0.004267
0.015493 19.512207 0.004383
0.330234 19.512207 0.004509
0.644975 19.512207 0.004666
0.959716 19.512207 0.004913
1.274457 19.512207 0.005153
1.589198 19.512207 0.005413
1.903938 19.512207 0.005742
2.218679 19.512207 0.006201
2.533421 19.512207 0.006712
2.848162 19.512207 0.007420
3.162903 19.512207 0.008207
3.477644 19.512207 0.008962
3.792385 19.512207 0.009942
4.107125 19.512207 0.011190
4.421866 19.512207 0.012815
4.736608 19.512207 0.014919
5.051349 19.512207 0.017286
5.366090 19.512207 0.020457
5.680831 19.512207 0.024565
5.995571 19.512207 0.030566
6.310312 19.512207 0.038716
6.625053 19.512207 0.049203
6.939795 19.512207 0.063060
7.254536 19.512207 0.082154
7.569277 19.512207 0.107374
7.884017 19.512207 0.139007
8.198758 19.512207 0.182593
8.513499 19.512207 0.237083
8.828240 19.512207 0.308859
9.142982 19.512207 0.386607
9.457723 19.512207 0.478072
9.772464 19.512207 0.579268
10.087205 19.512207 0.692581
10.401946 19.512207 0.801096
10.716687 19.512207 0.897244
11.031426 19.512207 0.980827
11.346168 19.512207 1.078923
11.660909 19.512207 1.179814
11.975650 19.512207 1.266371
12.290391 19.512207 1.345081
12.605132 19.512207 1.409635
12.919873 19.512207 1.456950
13.234614 19.512207 1.504987
13.549356 19.512207 1.539649
13.864097 19.512207 1.548098
14.178838 19.512207 1.544007
14.493579 19.512207 1.486321
14.808320 19.512207 1.382944
15.123059 19.512207 1.243000
15.437800 19.512207 1.080016
15.752542 19.512207 0.660697
16.067284 19.512207 0.000000
16.382023 19.512207 0.000000
16.696766 19.512207 0.000000
17.011505 19.512207 0.000000
17.326248 19.512207 0.000000
17.640987 19.512207 0.000000
17.955730 19.512207 0.000000
18.270470 19.512207 0.000000
18.585213 19.512207 0.000000
18.899952 19.512207 0.000000
-7.223550 19.197468 0.000000
-6.908809 19.197468 0.006105
-6.594068 19.197468 0.004364
-6.279327 19.197468 0.004154
-5.964586 19.197468 0.004066
-5.649845 19.197468 0.004022
-5.335104 19.197468 0.004011
-5.020363 19.197468 0.004016
-4.705622 19.197468 0.004028
-4.390881 19.197468 0.003987
-4.076140 19.197468 0.003946
-3.761399 19.197468 0.003893
-3.446658 19.197468 0.003848
-3.131917 19.197468 0.003854
-2.817176 19.197468 0.003845
-2.502435 19.197468 0.003905
-2.187694 19.197468 0.003925
-1.872953 19.197468 0.003907
-1.558212 19.197468 0.003956
-1.243471 19.197468 0.004065
-0.928730 19.197468 0.004112
-0.613989 19.197468 0.004129
-0.299248 19.197468 0.004225
0.015493 19.197468 0.004352
0.330234 19.197468 0.004463
0.644975 19.197468 0.004611
0.959716 19.197468 0.004884
1.274457 19.197468 0.005107
1.589198 19.197468 0.005338
1.903938 19.197468 0.005721
2.218679 19.197468 0.006154
2.533421 19.197468 0.006646
2.848162 19.197468 0.007299
3.162903 19.197468 0.008079
3.477644 19.197468 0.008850
3.792385 19.197468 0.009887
4.107125 19.197468 0.011242
4.421866 19.197468 0.012931
4.736608 19.197468 0.014938
5.051349 19.197468 0.017406
5.366090 19.197468 0.020700
5.680831 19.197468 0.024991
5.995571 19.197468 0.030916
6.310312 19.197468 0.039264
6.625053 19.197468 0.050032
6.939795 19.197468 0.063741
7.254536 19.197468 0.082291
7.569277 19.197468 0.108670
7.884017 19.197468 0.142056
8.198758 19.197468 0.185792
8.513499 19.197468 0.239934
8.828240 19.197468 0.311347
9.142982 19.197468 0.388960
9.457723 19.197468 0.483536
9.772464 19.197468 0.588352
10.087205 19.197468 0.695340
10.401946 19.197468 0.806182
10.716687 19.197468 0.897301
11.031426 19.197468 0.982976
11.346168 19.197468 1.075613
11.660909 19.197468 1.172245
11.975650 19.197468 1.257653
12.290391 19.197468 1.332739
12.605132 19.197468 1.403214
12.919873 19.197468 1.458503
13.234614 19.197468 1.499686
13.549356 19.197468 1.554512
13.864097 19.197468 1.551261
14.178838 19.197468 1.527441
14.493579 19.197468 1.480624
14.808320 19.197468 1.382486
15.123059 19.197468 1.237481
15.437800 19.197468 1.073007
15.752542 19.197468 0.648178
16.067284 19.197468 0.000000
16.382023 19.197468 0.000000
16.696766 19.197468 0.000000
17.011505 19.197468 0.000000
17.326248 19.197468 0.000000
17.640987 19.197468 0.000000
17.955730 19.197468 0.000000
18.270470 19.197468 0.000000
18.585213 19.197468 0.000000
18.899952 19.197468 0.000000
-7.223550 18.882727 0.000000
-6.908809 18.882727 0.006105
-6.594068 18.882727 0.004386
-6.279327 18.882727 0.004181
-5.964586 18.882727 0.004131
-5.649845 18.882727 0.004105
-5.335104 18.882727 0.004064
-5.020363 18.882727 0.004001
-4.705622 18.882727 0.003986
-4.390881 18.882727 0.003933
-4.076140 18.882727 0.003910
-3.761399 18.882727 0.003861
-3.446658 18.882727 0.003817
-3.131917 18.882727 0.003836
-2.817176 18.882727 0.003818
-2.502435 18.882727 0.003869
-2.187694 18.882727 0.003944
-1.872953 18.882727 0.003915
-1.558212 18.882727 0.003934
-1.243471 18.882727 0.004029
-0.928730 18.882727 0.004096
-0.613989 18.882727 0.004093
-0.299248 18.882727 0.004187
0.015493 18.882727 0.004322
0.330234 18.882727 0.004442
0.644975 18.882727 0.004598
0.959716 18.882727 0.004886
1.274457 18.882727 0.005099
1.589198 18.882727 0.005325
1.903938 18.882727 0.005666
2.218679 18.882727 0.006130
2.533421 18.882727 0.006578
2.848162 18.882727 0.007153
3.162903 18.882727 0.007908
3.477644 18.882727 0.008755
3.792385 18.882727 0.009865
4.107125 18.882727 0.011284
4.421866 18.882727 0.013030
4.736608 18.882727 0.014970
5.051349 18.882727 0.017557
5.366090 18.882727 0.020912
5.680831 18.882727 0.025094
5.995571 18.882727 0.030978
6.310312 18.882727 0.039582
6.625053 18.882727 0.050556
6.939795 18.882727 0.064583
7.254536 18.882727 0.083160
7.569277 18.882727 0.108465
7.884017 18.882727 0.144151
8.198758 18.882727 0.188543
8.513499 18.882727 0.242972
8.828240 18.882727 0.310309
9.142982 18.882727 0.393111
9.457723 18.882727 0.489795
9.772464 18.882727 0.589463
10.087205 18.882727 0.697438
10.401946 18.882727 0.811532
10.716687 18.882727 0.906803
11.031426 18.882727 0.990792
11.346168 18.882727 1.069442
11.660909 18.882727 1.177472
11.975650 18.882727 1.261125
12.290391 18.882727 1.333824
12.605132 18.882727 1.405117
12.919873 18.882727 1.465524
13.234614 18.882727 1.518825
13.549356 18.882727 1.554922
13.864097 18.882727 1.562343
14.178838 18.882727 1.527208
14.493579 18.882727 1.492117
14.808320 18.882727 1.396348
15.123059 18.882727 1.227459
15.437800 18.882727 1.074760
15.752542 18.882727 0.643065
16.067284 18.882727 0.000000
16.382023 18.882727 0.000000
16.696766 18.882727 0.000000
17.011505 18.882727 0.000000
17.326248 18.882727 0.000000
17.640987 18.882727 0.000000
17.955730 18.882727 0.000000
18.270470 18.882727 0.000000
18.585213 18.882727 0.000000
18.899952 18.882727 0.000000
-7.223550 18.567986 0.000000
-6.908809 18.567986 0.006091
-6.594068 18.567986 0.004364
-6.279327 18.567986 0.004155
-5.964586 18.567986 0.004171
-5.649845 18.567986 0.004180
-5.335104 18.567986 0.004101
-5.020363 18.567986 0.004001
-4.705622 18.567986 0.003969
-4.390881 18.567986 0.003888
-4.076140 18.567986 0.003855
-3.761399 18.567986 0.003826
-3.446658 18.567986 0.003775
-3.131917 18.567986 0.003795
-2.817176 18.567986 0.003821
-2.502435 18.567986 0.003868
-2.187694 18.567986 0.003930
-1.872953 18.567986 0.003906
-1.558212 18.567986 0.003890
-1.243471 18.567986 0.003990
-0.928730 18.567986 0.004077
-0.613989 18.567986 0.004084
-0.299248 18.567986 0.004178
0.015493 18.567986 0.004315
0.330234 18.567986 0.004448
0.644975 18.567986 0.004613
0.959716 18.567986 0.004864
1.274457 18.567986 0.005092
1.589198 18.567986 0.005325
1.903938 18.567986 0.005652
2.218679 18.567986 0.006060
2.533421 18.567986 0.006510
2.848162 18.567986 0.007071
3.162903 18.567986 0.007777
3.477644 18.567986 0.008670
3.792385 18.567986 0.009843
4.107125 18.567986 0.011337
4.421866 18.567986 0.013022
4.736608 18.567986 0.014886
5.051349 18.567986 0.017431
5.366090 18.567986 0.020878
5.680831 18.567986 0.025308
5.995571 18.567986 0.031258
6.310312 18.567986 0.038905
6.625053 18.567986 0.049808
6.939795 18.567986 0.064493
7.254536 18.567986 0.083424
7.569277 18.567986 0.108905
7.884017 18.567986 0.143079
8.198758 18.567986 0.186826
8.513499 18.567986 0.243304
8.828240 18.567986 0.310709
9.142982 18.567986 0.393510
9.457723 18.567986 0.487452
9.772464 18.567986 0.588800
10.087205 18.567986 0.695514
10.401946 18.567986 0.811682
10.716687 18.567986 0.910047
11.031426 18.567986 0.992737
11.346168 18.567986 1.078842
11.660909 18.567986 1.180426
11.975650 18.567986 1.270201
12.290391 18.567986 1.341908
12.605132 18.567986 1.406819
12.919873 18.567986 1.476118
13.234614 18.567986 1.532260
13.549356 18.567986 1.551148
13.864097 18.567986 1.565821
14.178838 18.567986 1.537694
14.493579 18.567986 1.496634
14.808320 18.567986 1.384430
15.123059 18.567986 1.235920
15.437800 18.567986 1.082875
15.752542 18.567986 0.631070
16.067284 18.567986 0.000000
16.382023 18.567986 0.000000
16.696766 18.567986 0.000000
17.011505 18.567986 0.000000
17.326248 18.567986 0.000000
17.640987 18.567986 0.000000
17.955730 18.567986 0.000000
18.270470 18.567986 0.000000
18.585213 18.567986 0.000000
18.899952 18.567986 0.000000
-7.223550 18.253244 0.000000
-6.908809 18.253244 0.006037
-6.594068 18.253244 0.004339
-6.279327 18.253244 0.004124
-5.964586 18.253244 0.004161
-5.649845 18.253244 0.004201
-5.335104 18.253244 0.004120
-5.020363 18.253244 0.004002
-4.705622 18.253244 0.003945
-4.390881 18.253244 0.003873
-4.076140 18.253244 0.003799
-3.761399 18.253244 0.003788
-3.446658 18.253244 0.003752
-3.131917 18.253244 0.003791
-2.817176 18.253244 0.003834
-2.502435 18.253244 0.003870
-2.187694 18.253244 0.003901
-1.872953 18.253244 0.003887
-1.558212 18.253244 0.003855
-1.243471 18.253244 0.003948
-0.928730 18.253244 0.004034
-0.613989 18.253244 0.004068
-0.299248 18.253244 0.004177
0.015493 18.253244 0.004290
0.330234 18.253244 0.004462
0.644975 18.253244 0.004617
0.959716 18.253244 0.004815
1.274457 18.253244 0.005070
1.589198 18.253244 0.005315
1.903938 18.253244 0.005622
2.218679 18.253244 0.006018
2.533421 18.253244 0.006493
2.848162 18.253244 0.006963
3.162903 18.253244 0.007674
3.477644 18.253244 0.008601
3.792385 18.253244 0.009817
4.107125 18.253244 0.011254
4.421866 18.253244 0.012923
4.736608 18.253244 0.014938
5.051349 18.253244 0.017520
5.366090 18.253244 0.021065
5.680831 18.253244 0.025422
5.995571 18.253244 0.031301
6.310312 18.253244 0.039060
6.625053 18.253244 0.049900
6.939795 18.253244 0.064934
7.254536 18.253244 0.084140
7.569277 18.253244 0.109485
7.884017 18.253244 0.141356
8.198758 18.253244 0.184314
8.513499 18.253244 0.242320
8.828240 18.253244 0.310640
9.142982 18.253244 0.394990
9.457723 18.253244 0.488565
9.772464 18.253244 0.589079
10.087205 18.253244 0.690077
10.401946 18.253244 0.809045
10.716687 18.253244 0.906988
11.031426 18.253244 0.993772
11.346168 18.253244 1.081116
11.660909 18.253244 1.179589
11.975650 18.253244 1.269738
12.290391 18.253244 1.344831
12.605132 18.253244 1.424313
12.919873 18.253244 1.486126
13.234614 18.253244 1.531214
13.549356 18.253244 1.559620
13.864097 18.253244 1.557599
14.178838 18.253244 1.548740
14.493579 18.253244 1.486827
14.808320 18.253244 1.380792
15.123059 18.253244 1.228579
15.437800 18.253244 1.094570
15.752542 18.253244 0.622108
16.067284 18.253244 0.000000
16.382023 18.253244 0.000000
16.696766 18.253244 0.000000
17.011505 18.253244 0.000000
17.326248 18.253244 0.000000
17.640987 18.253244 0.000000
17.955730 18.253244 0.000000
18.270470 18.253244 0.000000
18.585213 18.253244 0.000000
18.899952 18.253244 0.000000
-7.223550 17.938503 0.000000
-6.908809 17.938503 0.005909
-6.594068 17.938503 0.004317
-6.279327 17.938503 0.004106
-5.964586 17.938503 0.004148
-5.649845 17.938503 0.004171
-5.335104 17.938503 0.004102
-5.020363 17.938503 0.003988
-4.705622 17.938503 0.003939
-4.390881 17.938503 0.003852
-4.076140 17.938503 0.003754
-3.761399 17.938503 0.003772
-3.446658 17.938503 0.003769
-3.131917 17.938503 0.003813
-2.817176 17.938503 0.003823
-2.502435 17.938503 0.003824
-2.187694 17.938503 0.003874
-1.872953 17.938503 0.003859
-1.558212 17.938503 0.003857
-1.243471 17.938503 0.003942
-0.928730 17.938503 0.003999
-0.613989 17.938503 0.004045
-0.299248 17.938503 0.004166
0.015493 17.938503 0.004293
0.330234 17.938503 0.004485
0.644975 17.938503 0.004607
0.959716 17.938503 0.004780
1.274457 17.938503 0.005022
1.589198 17.938503 0.005304
1.903938 17.938503 0.005616
2.218679 17.938503 0.006019
2.533421 17.938503 0.006505
2.848162 17.938503 0.006930
3.162903 17.938503 0.007612
3.477644 17.938503 0.008644
3.792385 17.938503 0.009811
4.107125 17.938503 0.011229
4.421866 17.938503 0.012931
4.736608 17.938503 0.014937
5.051349 17.938503 0.017610
5.366090 17.938503 0.021028
5.680831 17.938503 0.025362
5.995571 17.938503 0.031154
6.310312 17.938503 0.038900
6.625053 17.938503 0.049652
6.939795 17.938503 0.064962
7.254536 17.938503 0.086016
7.569277 17.938503 0.111067
7.884017 17.938503 0.143380
8.198758 17.938503 0.185356
8.513499 17.938503 0.246005
8.828240 17.938503 0.317094
9.142982 17.938503 0.398572
9.457723 17.938503 0.492573
9.772464 17.938503 0.593884
10.087205 17.938503 0.698440
10.401946 17.938503 0.802364
10.716687 17.938503 0.900847
11.031426 17.938503 0.992067
11.346168 17.938503 1.074948
11.660909 17.938503 1.171634
11.975650 17.938503 1.276141
12.290391 17.938503 1.351170
12.605132 17.938503 1.415008
12.919873 17.938503 1.476444
13.234614 17.938503 1.541952
13.549356 17.938503 1.558390
13.864097 17.938503 1.561370
14.178838 17.938503 1.545577
14.493579 17.938503 1.492131
14.808320 17.938503 1.386023
15.123059 17.938503 1.226233
15.437800 17.938503 1.082847
15.752542 17.938503 0.682748
16.067284 17.938503 0.000000
16.382023 17.938503 0.000000
16.696766 17.938503 0.000000
17.011505 17.938503 0.000000
17.326248 17.938503 0.000000
17.640987 17.938503 0.000000
17.955730 17.938503 0.000000
18.270470 17.938503 0.000000
18.585213 17.938503 0.000000
18.899952 17.938503 0.000000
-7.223550 17.623762 0.000000
-6.908809 17.623762 0.005842
-6.594068 17.623762 0.004307
-6.279327 17.623762 0.004094
-5.964586 17.623762 0.004125
-5.649845 17.623762 0.004142
-5.335104 17.623762 0.004050
-5.020363 17.623762 0.003951
-4.705622 17.623762 0.003896
-4.390881 17.623762 0.003810
-4.076140 17.623762 0.003739
-3.761399 17.623762 0.003777
-3.446658 17.623762 0.003806
-3.131917 17.623762 0.003835
-2.817176 17.623762 0.003784
-2.502435 17.623762 0.003759
-2.187694 17.623762 0.003830
-1.872953 17.623762 0.003856
-1.558212 17.623762 0.003868
-1.243471 17.623762 0.003956
-0.928730 17.623762 0.003990
-0.613989 17.623762 0.004034
-0.299248 17.623762 0.004158
0.015493 17.623762 0.004308
0.330234 17.623762 0.004498
0.644975 17.623762 0.004616
0.959716 17.623762 0.004750
1.274457 17.623762 0.005003
1.589198 17.623762 0.005320
1.903938 17.623762 0.005647
2.218679 17.623762 0.006058
2.533421 17.623762 0.006479
2.848162 17.623762 0.006924
3.162903 17.623762 0.007621
3.477644 17.623762 0.008610
3.792385 17.623762 0.009770
4.107125 17.623762 0.011154
4.421866 17.623762 0.012800
4.736608 17.623762 0.014948
5.051349 17.623762 0.017652
5.366090 17.623762 0.021011
5.680831 17.623762 0.025498
5.995571 17.623762 0.031428
6.310312 17.623762 0.039770
6.625053 17.623762 0.051243
6.939795 17.623762 0.066231
7.254536 17.623762 0.084987
7.569277 17.623762 0.112489
7.884017 17.623762 0.146014
8.198758 17.623762 0.190303
8.513499 17.623762 0.249076
8.828240 17.623762 0.321586
9.142982 17.623762 0.399566
9.457723 17.623762 0.498812
9.772464 17.623762 0.598392
10.087205 17.623762 0.707325
10.401946 17.623762 0.807999
10.716687 17.623762 0.901270
11.031426 17.623762 0.994611
11.346168 17.623762 1.080329
11.660909 17.623762 1.174552
11.975650 17.623762 1.279726
12.290391 17.623762 1.354597
12.605132 17.623762 1.414188
12.919873 17.623762 1.483895
13.234614 17.623762 1.544473
13.549356 17.623762 1.573855
13.864097 17.623762 1.574190
14.178838 17.623762 1.550915
14.493579 17.623762 1.489434
14.808320 17.623762 1.384368
15.123059 17.623762 1.237126
15.437800 17.623762 1.083929
15.752542 17.623762 0.655000
16.067284 17.623762 0.000000
16.382023 17.623762 0.000000
16.696766 17.623762 0.000000
17.011505 17.623762 0.000000
17.326248 17.623762 0.000000
17.640987 17.623762 0.000000
17.955730 17.623762 0.000000
18.270470 17.623762 0.000000
18.585213 17.623762 0.000000
18.899952 17.623762 0.000000
-7.223550 17.309021 0.000000
-6.908809 17.309021 0.005849
-6.594068 17.309021 0.004300
-6.279327 17.309021 0.004058
-5.964586 17.309021 0.004073
-5.649845 17.309021 0.004079
-5.335104 17.309021 0.003981
-5.020363 17.309021 0.003880
-4.705622 17.309021 0.003845
-4.390881 17.309021 0.003786
-4.076140 17.309021 0.003773
-3.761399 17.309021 0.003820
-3.446658 17.309021 0.003858
-3.131917 17.309021 0.003848
-2.817176 17.309021 0.003742
-2.502435 17.309021 0.003729
-2.187694 17.309021 0.003804
-1.872953 17.309021 0.003865
-1.558212 17.309021 0.003903
-1.243471 17.309021 0.003996
-0.928730 17.309021 0.003997
-0.613989 17.309021 0.004045
-0.299248 17.309021 0.004156
0.015493 17.309021 0.004323
0.330234 17.309021 0.004488
0.644975 17.309021 0.004602
0.959716 17.309021 0.004736
1.274457 17.309021 0.005010
1.589198 17.309021 0.005315
1.903938 17.309021 0.005647
2.218679 17.309021 0.006047
2.533421 17.309021 0.006457
2.848162 17.309021 0.006935
3.162903 17.309021 0.007655
3.477644 17.309021 0.008659
3.792385 17.309021 0.009782
4.107125 17.309021 0.011062
4.421866 17.309021 0.012754
4.736608 17.309021 0.014980
5.051349 17.309021 0.017796
5.366090 17.309021 0.021216
5.680831 17.309021 0.025745
5.995571 17.309021 0.031601
6.310312 17.309021 0.040042
6.625053 17.309021 0.051855
6.939795 17.309021 0.066940
7.254536 17.309021 0.087452
7.569277 17.309021 0.114240
7.884017 17.309021 0.149619
8.198758 17.309021 0.193665
8.513499 17.309021 0.252323
8.828240 17.309021 0.323705
9.142982 17.309021 0.405880
9.457723 17.309021 0.504015
9.772464 17.309021 0.604091
10.087205 17.309021 0.715276
10.401946 17.309021 0.819644
10.716687 17.309021 0.909210
11.031426 17.309021 0.996878
11.346168 17.309021 1.086852
11.660909 17.309021 1.185915
11.975650 17.309021 1.287006
12.290391 17.309021 1.356229
12.605132 17.309021 1.418369
12.919873 17.309021 1.495857
13.234614 17.309021 1.555122
13.549356 17.309021 1.560643
13.864097 17.309021 1.569624
14.178838 17.309021 1.546359
14.493579 17.309021 1.488389
14.808320 17.309021 1.391509
15.123059 17.309021 1.241237
15.437800 17.309021 1.093978
15.752542 17.309021 0.652085
16.067284 17.309021 0.000000
16.382023 17.309021 0.000000
16.696766 17.309021 0.000000
17.011505 17.309021 0.000000
17.326248 17.309021 0.000000
17.640987 17.309021 0.000000
17.955730 17.309021 0.000000
18.270470 17.309021 0.000000
18.585213 17.309021 0.000000
18.899952 17.309021 0.000000
-7.223550 16.994282 0.000000
-6.908809 16.994282 0.005791
-6.594068 16.994282 0.004226
-6.279327 16.994282 0.003978
-5.964586 16.994282 0.003969
-5.649845 16.994282 0.003987
-5.335104 16.994282 0.003928
-5.020363 16.994282 0.003846
-4.705622 16.994282 0.003811
-4.390881 16.994282 0.003778
-4.076140 16.994282 0.003810
-3.761399 16.994282 0.003859
-3.446658 16.994282 0.003899
-3.131917 16.994282 0.003858
-2.817176 16.994282 0.003731
-2.502435 16.994282 0.003736
-2.187694 16.994282 0.003823
-1.872953 16.994282 0.003889
-1.558212 16.994282 0.003955
-1.243471 16.994282 0.004039
-0.928730 16.994282 0.004031
-0.613989 16.994282 0.004056
-0.299248 16.994282 0.004152
0.015493 16.994282 0.004309
0.330234 16.994282 0.004475
0.644975 16.994282 0.004550
0.959716 16.994282 0.004699
1.274457 16.994282 0.004995
1.589198 16.994282 0.005292
1.903938 16.994282 0.005618
2.218679 16.994282 0.006002
2.533421 16.994282 0.006434
2.848162 16.994282 0.007000
3.162903 16.994282 0.007705
3.477644 16.994282 0.008652
3.792385 16.994282 0.009762
4.107125 16.994282 0.011039
4.421866 16.994282 0.012683
4.736608 16.994282 0.014826
5.051349 16.994282 0.017690
5.366090 16.994282 0.021117
5.680831 16.994282 0.025865
5.995571 16.994282 0.032016
6.310312 16.994282 0.040625
6.625053 16.994282 0.052022
6.939795 16.994282 0.067127
7.254536 16.994282 0.088019
7.569277 16.994282 0.114111
7.884017 16.994282 0.152985
8.198758 16.994282 0.195320
8.513499 16.994282 0.256035
8.828240 16.994282 0.328113
9.142982 16.994282 0.409267
9.457723 16.994282 0.506611
9.772464 16.994282 0.605931
10.087205 16.994282 0.724071
10.401946 16.994282 0.828904
10.716687 16.994282 0.914588
11.031426 16.994282 0.999409
11.346168 16.994282 1.088389
11.660909 16.994282 1.191331
11.975650 16.994282 1.287890
12.290391 16.994282 1.357782
12.605132 16.994282 1.436306
12.919873 16.994282 1.513701
13.234614 16.994282 1.563843
13.549356 16.994282 1.578678
13.864097 16.994282 1.585544
14.178838 16.994282 1.549160
14.493579 16.994282 1.492445
14.808320 16.994282 1.405514
15.123059 16.994282 1.255021
15.437800 16.994282 1.096541
15.752542 16.994282 0.837628
16.067284 16.994282 0.000000
16.382023 16.994282 0.000000
16.696766 16.994282 0.000000
17.011505 16.994282 0.000000
17.326248 16.994282 0.000000
17.640987 16.994282 0.000000
17.955730 16.994282 0.000000
18.270470 16.994282 0.000000
18.585213 16.994282 0.000000
18.899952 16.994282 0.000000
-7.223550 16.679539 0.000000
-6.908809 16.679539 0.005738
-6.594068 16.679539 0.004157
-6.279327 16.679539 0.003888
-5.964586 16.679539 0.003849
-5.649845 16.679539 0.003923
-5.335104 16.679539 0.003899
-5.020363 16.679539 0.003836
-4.705622 16.679539 0.003794
-4.390881 16.679539 0.003789
-4.076140 16.679539 0.003845
-3.761399 16.679539 0.003885
-3.446658 16.679539 0.003889
-3.131917 16.679539 0.003871
-2.817176 16.679539 0.003759
-2.502435 16.679539 0.003760
-2.187694 16.679539 0.003845
-1.872953 16.679539 0.003916
-1.558212 16.679539 0.003974
-1.243471 16.679539 0.004073
-0.928730 16.679539 0.004078
-0.613989 16.679539 0.004099
-0.299248 16.679539 0.004157
0.015493 16.679539 0.004273
0.330234 16.679539 0.004413
0.644975 16.679539 0.004482
0.959716 16.679539 0.004675
1.274457 16.679539 0.004980
1.589198 16.679539 0.005281
1.903938 16.679539 0.005597
2.218679 16.679539 0.005977
2.533421 16.679539 0.006465
2.848162 16.679539 0.007046
3.162903 16.679539 0.007792
3.477644 16.679539 0.008715
3.792385 16.679539 0.009754
4.107125 16.679539 0.011017
4.421866 16.679539 0.012623
4.736608 16.679539 0.014810
5.051349 16.679539 0.017546
5.366090 16.679539 0.021016
5.680831 16.679539 0.026147
5.995571 16.679539 0.032322
6.310312 16.679539 0.040610
6.625053 16.679539 0.052033
6.939795 16.679539 0.068214
7.254536 16.679539 0.087787
7.569277 16.679539 0.115965
7.884017 16.679539 0.149337
8.198758 16.679539 0.194200
8.513499 16.679539 0.257108
8.828240 16.679539 0.329520
9.142982 16.679539 0.408768
9.457723 16.679539 0.512643
9.772464 16.679539 0.611189
10.087205 16.679539 0.723519
10.401946 16.679539 0.824966
10.716687 16.679539 0.922083
11.031426 16.679539 0.997440
11.346168 16.679539 1.088773
11.660909 16.679539 1.192876
11.975650 16.679539 1.282774
12.290391 16.679539 1.358091
12.605132 16.679539 1.452089
12.919873 16.679539 1.527499
13.234614 16.679539 1.565516
13.549356 16.679539 1.574770
13.864097 16.679539 1.571443
14.178838 16.679539 1.550141
14.493579 16.679539 1.483816
14.808320 16.679539 1.394332
15.123059 16.679539 1.256944
15.437800 16.679539 1.119264
15.752542 16.679539 0.836000
16.067284 16.679539 0.000000
16.382023 16.679539 0.000000
16.696766 16.679539 0.000000
17.011505 16.679539 0.000000
17.326248 16.679539 0.000000
17.640987 16.679539 0.000000
17.955730 16.679539 0.000000
18.270470 16.679539 0.000000
18.585213 16.679539 0.000000
18.899952 16.679539 0.000000
-7.223550 16.364799 0.000000
-6.908809 16.364799 0.005716
-6.594068 16.364799 0.004114
-6.279327 16.364799 0.003817
-5.964586 16.364799 0.003791
-5.649845 16.364799 0.003878
-5.335104 16.364799 0.003897
-5.020363 16.364799 0.003825
-4.705622 16.364799 0.003797
-4.390881 16.364799 0.003788
-4.076140 16.364799 0.003846
-3.761399 16.364799 0.003873
-3.446658 16.364799 0.003845
-3.131917 16.364799 0.003858
-2.817176 16.364799 0.003818
-2.502435 16.364799 0.003778
-2.187694 16.364799 0.003816
-1.872953 16.364799 0.003901
-1.558212 16.364799 0.003971
-1.243471 16.364799 0.004073
-0.928730 16.364799 0.004081
-0.613989 16.364799 0.004112
-0.299248 16.364799 0.004174
0.015493 16.364799 0.004257
0.330234 16.364799 0.004355
0.644975 16.364799 0.004461
0.959716 16.364799 0.004680
1.274457 16.364799 0.004993
1.589198 16.364799 0.005289
1.903938 16.364799 0.005595
2.218679 16.364799 0.005951
2.533421 16.364799 0.006491
2.848162 16.364799 0.007106
3.162903 16.364799 0.007860
3.477644 16.364799 0.008780
3.792385 16.364799 0.009757
4.107125 16.364799 0.011000
4.421866 16.364799 0.012655
4.736608 16.364799 0.014803
5.051349 16.364799 0.017540
5.366090 16.364799 0.021119
5.680831 16.364799 0.026233
5.995571 16.364799 0.032468
6.310312 16.364799 0.041249
6.625053 16.364799 0.052642
6.939795 16.364799 0.067806
7.254536 16.364799 0.087755
7.569277 16.364799 0.115674
7.884017 16.364799 0.150935
8.198758 16.364799 0.193938
8.513499 16.364799 0.257338
8.828240 16.364799 0.328322
9.142982 16.364799 0.409352
9.457723 16.364799 0.506793
9.772464 16.364799 0.615938
10.087205 16.364799 0.720097
10.401946 16.364799 0.828748
10.716687 16.364799 0.923172
11.031426 16.364799 1.003563
11.346168 16.364799 1.093603
11.660909 16.364799 1.190076
11.975650 16.364799 1.282487
12.290391 16.364799 1.377800
12.605132 16.364799 1.455557
12.919873 16.364799 1.529083
13.234614 16.364799 1.558446
13.549356 16.364799 1.566850
13.864097 16.364799 1.565910
14.178838 16.364799 1.551100
14.493579 16.364799 1.493094
14.808320 16.364799 1.392722
15.123059 16.364799 1.264444
15.437800 16.364799 1.130903
15.752542 16.364799 0.835262
16.067284 16.364799 0.000000
16.382023 16.364799 0.000000
16.696766 16.364799 0.000000
17.011505 16.364799 0.000000
17.326248 16.364799 0.000000
17.640987 16.364799 0.000000
17.955730 16.364799 0.000000
18.270470 16.364799 0.000000
18.585213 16.364799 0.000000
18.899952 16.364799 0.000000
-7.223550 16.050056 0.000000
-6.908809 16.050056 0.005731
-6.594068 16.050056 0.004110
-6.279327 16.050056 0.003790
-5.964586 16.050056 0.003784
-5.649845 16.050056 0.003859
-5.335104 16.050056 0.003909
-5.020363 16.050056 0.003843
-4.705622 16.050056 0.003819
-4.390881 16.050056 0.003807
-4.076140 16.050056 0.003806
-3.761399 16.050056 0.003832
-3.446658 16.050056 0.003792
-3.131917 16.050056 0.003836
-2.817176 16.050056 0.003830
-2.502435 16.050056 0.003767
-2.187694 16.050056 0.003771
-1.872953 16.050056 0.003848
-1.558212 16.050056 0.003951
-1.243471 16.050056 0.004017
-0.928730 16.050056 0.004015
-0.613989 16.050056 0.004100
-0.299248 16.050056 0.004189
0.015493 16.050056 0.004265
0.330234 16.050056 0.004352
0.644975 16.050056 0.004479
0.959716 16.050056 0.004705
1.274457 16.050056 0.004991
1.589198 16.050056 0.005319
1.903938 16.050056 0.005653
2.218679 16.050056 0.005938
2.533421 16.050056 0.006503
2.848162 16.050056 0.007176
3.162903 16.050056 0.007950
3.477644 16.050056 0.008858
3.792385 16.050056 0.009847
4.107125 16.050056 0.011057
4.421866 16.050056 0.012868
4.736608 16.050056 0.014904
5.051349 16.050056 0.017574
5.366090 16.050056 0.021317
5.680831 16.050056 0.026165
5.995571 16.050056 0.033244
6.310312 16.050056 0.041654
6.625053 16.050056 0.053011
6.939795 16.050056 0.068903
7.254536 16.050056 0.089143
7.569277 16.050056 0.116974
7.884017 16.050056 0.151721
8.198758 16.050056 0.199207
8.513499 16.050056 0.257242
8.828240 16.050056 0.330038
9.142982 16.050056 0.414239
9.457723 16.050056 0.512164
9.772464 16.050056 0.622420
10.087205 16.050056 0.720528
10.401946 16.050056 0.820908
10.716687 16.050056 0.921662
11.031426 16.050056 1.012877
11.346168 16.050056 1.092727
11.660909 16.050056 1.188279
11.975650 16.050056 1.285315
12.290391 16.050056 1.382064
12.605132 16.050056 1.452785
12.919873 16.050056 1.524803
13.234614 16.050056 1.563253
13.549356 16.050056 1.568892
13.864097 16.050056 1.573087
14.178838 16.050056 1.548269
14.493579 16.050056 1.483108
14.808320 16.050056 1.401924
15.123059 16.050056 1.284214
15.437800 16.050056 1.148346
15.752542 16.050056 0.821031
16.067284 16.050056 0.000000
16.382023 16.050056 0.000000
16.696766 16.050056 0.000000
17.011505 16.050056 0.000000
17.326248 16.050056 0.000000
17.640987 16.050056 0.000000
17.955730 16.050056 0.000000
18.270470 16.050056 0.000000
18.585213 16.050056 0.000000
18.899952 16.050056 0.000000
-7.223550 15.735317 0.000000
-6.908809 15.735317 0.005770
-6.594068 15.735317 0.004115
-6.279327 15.735317 0.003813
-5.964586 15.735317 0.003805
-5.649845 15.735317 0.003888
-5.335104 15.735317 0.003945
-5.020363 15.735317 0.003881
-4.705622 15.735317 0.003851
-4.390881 15.735317 0.003810
-4.076140 15.735317 0.003761
-3.761399 15.735317 0.003757
-3.446658 15.735317 0.003737
-3.131917 15.735317 0.003801
-2.817176 15.735317 0.003805
-2.502435 15.735317 0.003745
-2.187694 15.735317 0.003744
-1.872953 15.735317 0.003813
-1.558212 15.735317 0.003909
-1.243471 15.735317 0.003954
-0.928730 15.735317 0.003958
-0.613989 15.735317 0.004092
-0.299248 15.735317 0.004229
0.015493 15.735317 0.004294
0.330234 15.735317 0.004368
0.644975 15.735317 0.004511
0.959716 15.735317 0.004722
1.274457 15.735317 0.004973
1.589198 15.735317 0.005330
1.903938 15.735317 0.005645
2.218679 15.735317 0.005957
2.533421 15.735317 0.006527
2.848162 15.735317 0.007189
3.162903 15.735317 0.008023
3.477644 15.735317 0.008931
3.792385 15.735317 0.009952
4.107125 15.735317 0.011252
4.421866 15.735317 0.013034
4.736608 15.735317 0.014943
5.051349 15.735317 0.017641
5.366090 15.735317 0.021351
5.680831 15.735317 0.026541
5.995571 15.735317 0.033417
6.310312 15.735317 0.042613
6.625053 15.735317 0.054331
6.939795 15.735317 0.069545
7.254536 15.735317 0.091143
7.569277 15.735317 0.119972
7.884017 15.735317 0.155102
8.198758 15.735317 0.199865
8.513499 15.735317 0.261723
8.828240 15.735317 0.336726
9.142982 15.735317 0.419405
9.457723 15.735317 0.517184
9.772464 15.735317 0.627978
10.087205 15.735317 0.732080
10.401946 15.735317 0.837646
10.716687 15.735317 0.932094
11.031426 15.735317 1.024286
11.346168 15.735317 1.101916
11.660909 15.735317 1.188755
11.975650 15.735317 1.282027
12.290391 15.735317 1.376989
12.605132 15.735317 1.450141
12.919873 15.735317 1.512968
13.234614 15.735317 1.549335
13.549356 15.735317 1.562440
13.864097 15.735317 1.572187
14.178838 15.735317 1.540001
14.493579 15.735317 1.485651
14.808320 15.735317 1.414411
15.123059 15.735317 1.304317
15.437800 15.735317 1.168151
15.752542 15.735317 0.810584
16.067284 15.735317 0.000000
16.382023 15.735317 0.000000
16.696766 15.735317 0.000000
17.011505 15.735317 0.000000
17.326248 15.735317 0.000000
17.640987 15.735317 0.000000
17.955730 15.735317 0.000000
18.270470 15.735317 0.000000
18.585213 15.735317 0.000000
18.899952 15.735317 0.000000
-7.223550 15.420574 0.000000
-6.908809 15.420574 0.005788
-6.594068 15.420574 0.004163
-6.279327 15.420574 0.003871
-5.964586 15.420574 0.003881
-5.649845 15.420574 0.003922
-5.335104 15.420574 0.003963
-5.020363 15.420574 0.003922
-4.705622 15.420574 0.003867
-4.390881 15.420574 0.003820
-4.076140 15.420574 0.003751
-3.761399 15.420574 0.003707
-3.446658 15.420574 0.003709
-3.131917 15.420574 0.003780
-2.817176 15.420574 0.003788
-2.502435 15.420574 0.003759
-2.187694 15.420574 0.003750
-1.872953 15.420574 0.003811
-1.558212 15.420574 0.003915
-1.243471 15.420574 0.003944
-0.928730 15.420574 0.003966
-0.613989 15.420574 0.004104
-0.299248 15.420574 0.004244
0.015493 15.420574 0.004295
0.330234 15.420574 0.004398
0.644975 15.420574 0.004576
0.959716 15.420574 0.004782
1.274457 15.420574 0.004998
1.589198 15.420574 0.005292
1.903938 15.420574 0.005634
2.218679 15.420574 0.006013
2.533421 15.420574 0.006534
2.848162 15.420574 0.007201
3.162903 15.420574 0.008079
3.477644 15.420574 0.009020
3.792385 15.420574 0.010071
4.107125 15.420574 0.011500
4.421866 15.420574 0.013203
4.736608 15.420574 0.015080
5.051349 15.420574 0.017704
5.366090 15.420574 0.021577
5.680831 15.420574 0.026577
5.995571 15.420574 0.033640
6.310312 15.420574 0.043092
6.625053 15.420574 0.054699
6.939795 15.420574 0.070613
7.254536 15.420574 0.092544
7.569277 15.420574 0.121696
7.884017 15.420574 0.159865
8.198758 15.420574 0.204343
8.513499 15.420574 0.268116
8.828240 15.420574 0.340262
9.142982 15.420574 0.428170
9.457723 15.420574 0.528763
9.772464 15.420574 0.638040
10.087205 15.420574 0.748083
10.401946 15.420574 0.854518
10.716687 15.420574 0.944995
11.031426 15.420574 1.036180
11.346168 15.420574 1.115829
11.660909 15.420574 1.189873
11.975650 15.420574 1.290314
12.290391 15.420574 1.370841
12.605132 15.420574 1.449886
12.919873 15.420574 1.500839
13.234614 15.420574 1.551274
13.549356 15.420574 1.571016
13.864097 15.420574 1.576337
14.178838 15.420574 1.553871
14.493579 15.420574 1.512190
14.808320 15.420574 1.426926
15.123059 15.420574 1.314301
15.437800 15.420574 1.176389
15.752542 15.420574 0.794874
16.067284 15.420574 0.000000
16.382023 15.420574 0.000000
16.696766 15.420574 0.000000
17.011505 15.420574 0.000000
17.326248 15.420574 0.000000
17.640987 15.420574 0.000000
17.955730 15.420574 0.000000
18.270470 15.420574 0.000000
18.585213 15.420574 0.000000
18.899952 15.420574 0.000000
-7.223550 15.105835 0.000000
-6.908809 15.105835 0.005774
-6.594068 15.105835 0.004210
-6.279327 15.105835 0.003964
-5.964586 15.105835 0.003967
-5.649845 15.105835 0.003958
-5.335104 15.105835 0.003945
-5.020363 15.105835 0.003916
-4.705622 15.105835 0.003878
-4.390881 15.105835 0.003832
-4.076140 15.105835 0.003765
-3.761399 15.105835 0.003705
-3.446658 15.105835 0.003710
-3.131917 15.105835 0.003759
-2.817176 15.105835 0.003778
-2.502435 15.105835 0.003804
-2.187694 15.105835 0.003784
-1.872953 15.105835 0.003833
-1.558212 15.105835 0.003950
-1.243471 15.105835 0.003977
-0.928730 15.105835 0.003996
-0.613989 15.105835 0.004109
-0.299248 15.105835 0.004232
0.015493 15.105835 0.004295
0.330234 15.105835 0.004428
0.644975 15.105835 0.004644
0.959716 15.105835 0.004844
1.274457 15.105835 0.005005
1.589198 15.105835 0.005275
1.903938 15.105835 0.005649
2.218679 15.105835 0.006066
2.533421 15.105835 0.006531
2.848162 15.105835 0.007204
3.162903 15.105835 0.008100
3.477644 15.105835 0.009048
3.792385 15.105835 0.010201
4.107125 15.105835 0.011662
4.421866 15.105835 0.013188
4.736608 15.105835 0.015139
5.051349 15.105835 0.017951
5.366090 15.105835 0.021690
5.680831 15.105835 0.026583
5.995571 15.105835 0.033621
6.310312 15.105835 0.043007
6.625053 15.105835 0.054654
6.939795 15.105835 0.070711
7.254536 15.105835 0.093281
7.569277 15.105835 0.122724
7.884017 15.105835 0.159585
8.198758 15.105835 0.208508
8.513499 15.105835 0.269244
8.828240 15.105835 0.343940
9.142982 15.105835 0.431136
9.457723 15.105835 0.535676
9.772464 15.105835 0.643814
10.087205 15.105835 0.751868
10.401946 15.105835 0.857145
10.716687 15.105835 0.951833
11.031426 15.105835 1.043380
11.346168 15.105835 1.118896
11.660909 15.105835 1.207548
11.975650 15.105835 1.300904
12.290391 15.105835 1.374156
12.605132 15.105835 1.436967
12.919873 15.105835 1.497257
13.234614 15.105835 1.546900
13.549356 15.105835 1.586494
13.864097 15.105835 1.583088
14.178838 15.105835 1.578563
14.493579 15.105835 1.534843
14.808320 15.105835 1.444920
15.123059 15.105835 1.314976
15.437800 15.105835 1.177429
15.752542 15.105835 0.763543
16.067284 15.105835 0.000000
16.382023 15.105835 0.000000
16.696766 15.105835 0.000000
17.011505 15.105835 0.000000
17.326248 15.105835 0.000000
17.640987 15.105835 0.000000
17.955730 15.105835 0.000000
18.270470 15.105835 0.000000
18.585213 15.105835 0.000000
18.899952 15.105835 0.000000
-7.223550 14.791092 0.000000
-6.908809 14.791092 0.005731
-6.594068 14.791092 0.004236
-6.279327 14.791092 0.004031
-5.964586 14.791092 0.004037
-5.649845 14.791092 0.003991
-5.335104 14.791092 0.003924
-5.020363 14.791092 0.003882
-4.705622 14.791092 0.003872
-4.390881 14.791092 0.003817
-4.076140 14.791092 0.003771
-3.761399 14.791092 0.003729
-3.446658 14.791092 0.003722
-3.131917 14.791092 0.003758
-2.817176 14.791092 0.003818
-2.502435 14.791092 0.003848
-2.187694 14.791092 0.003822
-1.872953 14.791092 0.003850
-1.558212 14.791092 0.003965
-1.243471 14.791092 0.004009
-0.928730 14.791092 0.004010
-0.613989 14.791092 0.004107
-0.299248 14.791092 0.004194
0.015493 14.791092 0.004279
0.330234 14.791092 0.004444
0.644975 14.791092 0.004681
0.959716 14.791092 0.004894
1.274457 14.791092 0.005041
1.589198 14.791092 0.005304
1.903938 14.791092 0.005693
2.218679 14.791092 0.006151
2.533421 14.791092 0.006575
2.848162 14.791092 0.007204
3.162903 14.791092 0.008128
3.477644 14.791092 0.009075
3.792385 14.791092 0.010188
4.107125 14.791092 0.011605
4.421866 14.791092 0.013237
4.736608 14.791092 0.015350
5.051349 14.791092 0.018046
5.366090 14.791092 0.021707
5.680831 14.791092 0.026829
5.995571 14.791092 0.033951
6.310312 14.791092 0.043323
6.625053 14.791092 0.055065
6.939795 14.791092 0.071482
7.254536 14.791092 0.093463
7.569277 14.791092 0.121869
7.884017 14.791092 0.159276
8.198758 14.791092 0.207401
8.513499 14.791092 0.272748
8.828240 14.791092 0.347084
9.142982 14.791092 0.434987
9.457723 14.791092 0.539294
9.772464 14.791092 0.645784
10.087205 14.791092 0.756113
10.401946 14.791092 0.860752
10.716687 14.791092 0.953342
11.031426 14.791092 1.043807
11.346168 14.791092 1.131667
11.660909 14.791092 1.218040
11.975650 14.791092 1.302237
12.290391 14.791092 1.369929
12.605132 14.791092 1.434952
12.919873 14.791092 1.497904
13.234614 14.791092 1.550165
13.549356 14.791092 1.582010
13.864097 14.791092 1.600327
14.178838 14.791092 1.584452
14.493579 14.791092 1.536905
14.808320 14.791092 1.452644
15.123059 14.791092 1.320413
15.437800 14.791092 1.172964
15.752542 14.791092 0.739624
16.067284 14.791092 0.000000
16.382023 14.791092 0.000000
16.696766 14.791092 0.000000
17.011505 14.791092 0.000000
17.326248 14.791092 0.000000
17.640987 14.791092 0.000000
17.955730 14.791092 0.000000
18.270470 14.791092 0.000000
18.585213 14.791092 0.000000
18.899952 14.791092 0.000000
-7.223550 14.476353 0.000000
-6.908809 14.476353 0.005700
-6.594068 14.476353 0.004229
-6.279327 14.476353 0.004060
-5.964586 14.476353 0.004063
-5.649845 14.476353 0.003994
-5.335104 14.476353 0.003892
-5.020363 14.476353 0.003856
-4.705622 14.476353 0.003865
-4.390881 14.476353 0.003813
-4.076140 14.476353 0.003771
-3.761399 14.476353 0.003750
-3.446658 14.476353 0.003746
-3.131917 14.476353 0.003781
-2.817176 14.476353 0.003870
-2.502435 14.476353 0.003899
-2.187694 14.476353 0.003856
-1.872953 14.476353 0.003875
-1.558212 14.476353 0.003949
-1.243471 14.476353 0.004017
-0.928730 14.476353 0.004020
-0.613989 14.476353 0.004085
-0.299248 14.476353 0.004168
0.015493 14.476353 0.004287
0.330234 14.476353 0.004468
0.644975 14.476353 0.004704
0.959716 14.476353 0.004935
1.274457 14.476353 0.005102
1.589198 14.476353 0.005365
1.903938 14.476353 0.005784
2.218679 14.476353 0.006213
2.533421 14.476353 0.006621
2.848162 14.476353 0.007251
3.162903 14.476353 0.008125
3.477644 14.476353 0.009089
3.792385 14.476353 0.010263
4.107125 14.476353 0.011650
4.421866 14.476353 0.013326
4.736608 14.476353 0.015429
5.051349 14.476353 0.018213
5.366090 14.476353 0.021838
5.680831 14.476353 0.026862
5.995571 14.476353 0.034113
6.310312 14.476353 0.042837
6.625053 14.476353 0.055124
6.939795 14.476353 0.071246
7.254536 14.476353 0.092656
7.569277 14.476353 0.121787
7.884017 14.476353 0.159770
8.198758 14.476353 0.207903
8.513499 14.476353 0.273330
8.828240 14.476353 0.347474
9.142982 14.476353 0.440113
9.457723 14.476353 0.534397
9.772464 14.476353 0.646034
10.087205 14.476353 0.757818
10.401946 14.476353 0.863525
10.716687 14.476353 0.964405
11.031426 14.476353 1.052145
11.346168 14.476353 1.135127
11.660909 14.476353 1.220589
11.975650 14.476353 1.293187
12.290391 14.476353 1.362105
12.605132 14.476353 1.436607
12.919873 14.476353 1.498453
13.234614 14.476353 1.548648
13.549356 14.476353 1.568066
13.864097 14.476353 1.603501
14.178838 14.476353 1.593567
14.493579 14.476353 1.543554
14.808320 14.476353 1.464293
15.123059 14.476353 1.335138
15.437800 14.476353 1.192679
15.752542 14.476353 0.699055
16.067284 14.476353 0.000000
16.382023 14.476353 0.000000
16.696766 14.476353 0.000000
17.011505 14.476353 0.000000
17.326248 14.476353 0.000000
17.640987 14.476353 0.000000
17.955730 14.476353 0.000000
18.270470 14.476353 0.000000
18.585213 14.476353 0.000000
18.899952 14.476353 0.000000
-7.223550 14.161610 0.000000
-6.908809 14.161610 0.005705
-6.594068 14.161610 0.004212
-6.279327 14.161610 0.004043
-5.964586 14.161610 0.004050
-5.649845 14.161610 0.003948
-5.335104 14.161610 0.003845
-5.020363 14.161610 0.003849
-4.705622 14.161610 0.003891
-4.390881 14.161610 0.003806
-4.076140 14.161610 0.003750
-3.761399 14.161610 0.003729
-3.446658 14.161610 0.003741
-3.131917 14.161610 0.003827
-2.817176 14.161610 0.003929
-2.502435 14.161610 0.003928
-2.187694 14.161610 0.003894
-1.872953 14.161610 0.003891
-1.558212 14.161610 0.003948
-1.243471 14.161610 0.004012
-0.928730 14.161610 0.004031
-0.613989 14.161610 0.004061
-0.299248 14.161610 0.004157
0.015493 14.161610 0.004323
0.330234 14.161610 0.004523
0.644975 14.161610 0.004757
0.959716 14.161610 0.004980
1.274457 14.161610 0.005156
1.589198 14.161610 0.005435
1.903938 14.161610 0.005848
2.218679 14.161610 0.006239
2.533421 14.161610 0.006651
2.848162 14.161610 0.007330
3.162903 14.161610 0.008154
3.477644 14.161610 0.009081
3.792385 14.161610 0.010224
4.107125 14.161610 0.011701
4.421866 14.161610 0.013492
4.736608 14.161610 0.015630
5.051349 14.161610 0.018394
5.366090 14.161610 0.022237
5.680831 14.161610 0.027286
5.995571 14.161610 0.034121
6.310312 14.161610 0.043246
6.625053 14.161610 0.056202
6.939795 14.161610 0.073146
7.254536 14.161610 0.094644
7.569277 14.161610 0.124419
7.884017 14.161610 0.161091
8.198758 14.161610 0.211167
8.513499 14.161610 0.274361
8.828240 14.161610 0.354856
9.142982 14.161610 0.442863
9.457723 14.161610 0.539187
9.772464 14.161610 0.646932
10.087205 14.161610 0.757482
10.401946 14.161610 0.865319
10.716687 14.161610 0.965030
11.031426 14.161610 1.060341
11.346168 14.161610 1.151965
11.660909 14.161610 1.228526
11.975650 14.161610 1.301790
12.290391 14.161610 1.368458
12.605132 14.161610 1.446100
12.919873 14.161610 1.499803
13.234614 14.161610 1.551061
13.549356 14.161610 1.562496
13.864097 14.161610 1.593197
14.178838 14.161610 1.602346
14.493579 14.161610 1.552504
14.808320 14.161610 1.479802
15.123059 14.161610 1.344747
15.437800 14.161610 1.215302
15.752542 14.161610 0.688173
16.067284 14.161610 0.000000
16.382023 14.161610 0.000000
16.696766 14.161610 0.000000
17.011505 14.161610 0.000000
17.326248 14.161610 0.000000
17.640987 14.161610 0.000000
17.955730 14.161610 0.000000
18.270470 14.161610 0.000000
18.585213 14.161610 0.000000
18.899952 14.161610 0.000000
-7.223550 13.846870 0.000000
-6.908809 13.846870 0.005686
-6.594068 13.846870 0.004193
-6.279327 13.846870 0.004040
-5.964586 13.846870 0.004043
-5.649845 13.846870 0.003912
-5.335104 13.846870 0.003838
-5.020363 13.846870 0.003858
-4.705622 13.846870 0.003909
-4.390881 13.846870 0.003804
-4.076140 13.846870 0.003727
-3.761399 13.846870 0.003698
-3.446658 13.846870 0.003727
-3.131917 13.846870 0.003844
-2.817176 13.846870 0.003928
-2.502435 13.846870 0.003935
-2.187694 13.846870 0.003953
-1.872953 13.846870 0.003913
-1.558212 13.846870 0.003945
-1.243471 13.846870 0.004024
-0.928730 13.846870 0.004046
-0.613989 13.846870 0.004049
-0.299248 13.846870 0.004162
0.015493 13.846870 0.004372
0.330234 13.846870 0.004600
0.644975 13.846870 0.004808
0.959716 13.846870 0.005031
1.274457 13.846870 0.005215
1.589198 13.846870 0.005479
1.903938 13.846870 0.005842
2.218679 13.846870 0.006221
2.533421 13.846870 0.006737
2.848162 13.846870 0.007415
3.162903 13.846870 0.008209
3.477644 13.846870 0.009098
3.792385 13.846870 0.010180
4.107125 13.846870 0.011699
4.421866 13.846870 0.013687
4.736608 13.846870 0.015899
5.051349 13.846870 0.018772
5.366090 13.846870 0.022474
5.680831 13.846870 0.027553
5.995571 13.846870 0.034419
6.310312 13.846870 0.044259
6.625053 13.846870 0.057273
6.939795 13.846870 0.073436
7.254536 13.846870 0.096944
7.569277 13.846870 0.128183
7.884017 13.846870 0.166393
8.198758 13.846870 0.214056
8.513499 13.846870 0.279237
8.828240 13.846870 0.361575
9.142982 13.846870 0.452637
9.457723 13.846870 0.548613
9.772464 13.846870 0.655317
10.087205 13.846870 0.766442
10.401946 13.846870 0.874160
10.716687 13.846870 0.970581
11.031426 13.846870 1.065760
11.346168 13.846870 1.153297
11.660909 13.846870 1.233196
11.975650 13.846870 1.301461
12.290391 13.846870 1.366430
12.605132 13.846870 1.439748
12.919873 13.846870 1.499668
13.234614 13.846870 1.544046
13.549356 13.846870 1.557344
13.864097 13.846870 1.582059
14.178838 13.846870 1.601470
14.493579 13.846870 1.568074
14.808320 13.846870 1.492939
15.123059 13.846870 1.357445
15.437800 13.846870 1.216239
15.752542 13.846870 0.733822
16.067284 13.846870 0.000000
16.382023 13.846870 0.000000
16.696766 13.846870 0.000000
17.011505 13.846870 0.000000
17.326248 13.846870 0.000000
17.640987 13.846870 0.000000
17.955730 13.846870 0.000000
18.270470 13.846870 0.000000
18.585213 13.846870 0.000000
18.899952 13.846870 0.000000
-7.223550 13.532127 0.000000
-6.908809 13.532127 0.005645
-6.594068 13.532127 0.004186
-6.279327 13.532127 0.004034
-5.964586 13.532127 0.004016
-5.649845 13.532127 0.003917
-5.335104 13.532127 0.003871
-5.020363 13.532127 0.003890
-4.705622 13.532127 0.003923
-4.390881 13.532127 0.003825
-4.076140 13.532127 0.003744
-3.761399 13.532127 0.003722
-3.446658 13.532127 0.003743
-3.131917 13.532127 0.003829
-2.817176 13.532127 0.003885
-2.502435 13.532127 0.003913
-2.187694 13.532127 0.003961
-1.872953 13.532127 0.003940
-1.558212 13.532127 0.003955
-1.243471 13.532127 0.004059
-0.928730 13.532127 0.004098
-0.613989 13.532127 0.004099
-0.299248 13.532127 0.004196
0.015493 13.532127 0.004417
0.330234 13.532127 0.004638
0.644975 13.532127 0.004829
0.959716 13.532127 0.005057
1.274457 13.532127 0.005295
1.589198 13.532127 0.005507
1.903938 13.532127 0.005812
2.218679 13.532127 0.006227
2.533421 13.532127 0.006796
2.848162 13.532127 0.007534
3.162903 13.532127 0.008260
3.477644 13.532127 0.009088
3.792385 13.532127 0.010189
4.107125 13.532127 0.011740
4.421866 13.532127 0.013696
4.736608 13.532127 0.016049
5.051349 13.532127 0.019015
5.366090 13.532127 0.022923
5.680831 13.532127 0.028039
5.995571 13.532127 0.034968
6.310312 13.532127 0.044748
6.625053 13.532127 0.057383
6.939795 13.532127 0.075565
7.254536 13.532127 0.097522
7.569277 13.532127 0.128768
7.884017 13.532127 0.169373
8.198758 13.532127 0.219933
8.513499 13.532127 0.284874
8.828240 13.532127 0.371273
9.142982 13.532127 0.463245
9.457723 13.532127 0.564021
9.772464 13.532127 0.663874
10.087205 13.532127 0.775590
10.401946 13.532127 0.872950
10.716687 13.532127 0.973873
11.031426 13.532127 1.071318
11.346168 13.532127 1.156687
11.660909 13.532127 1.241121
11.975650 13.532127 1.300466
12.290391 13.532127 1.369438
12.605132 13.532127 1.439790
12.919873 13.532127 1.490757
13.234614 13.532127 1.543687
13.549356 13.532127 1.564899
13.864097 13.532127 1.587718
14.178838 13.532127 1.593648
14.493579 13.532127 1.573400
14.808320 13.532127 1.516248
15.123059 13.532127 1.365190
15.437800 13.532127 1.206855
15.752542 13.532127 0.752117
16.067284 13.532127 0.000000
16.382023 13.532127 0.000000
16.696766 13.532127 0.000000
17.011505 13.532127 0.000000
17.326248 13.532127 0.000000
17.640987 13.532127 0.000000
17.955730 13.532127 0.000000
18.270470 13.532127 0.000000
18.585213 13.532127 0.000000
18.899952 13.532127 0.000000
-7.223550 13.217388 0.000000
-6.908809 13.217388 0.005579
-6.594068 13.217388 0.004171
-6.279327 13.217388 0.004010
-5.964586 13.217388 0.003980
-5.649845 13.217388 0.003911
-5.335104 13.217388 0.003915
-5.020363 13.217388 0.003927
-4.705622 13.217388 0.003929
-4.390881 13.217388 0.003867
-4.076140 13.217388 0.003802
-3.761399 13.217388 0.003794
-3.446658 13.217388 0.003775
-3.131917 13.217388 0.003779
-2.817176 13.217388 0.003816
-2.502435 13.217388 0.003882
-2.187694 13.217388 0.003935
-1.872953 13.217388 0.003950
-1.558212 13.217388 0.004003
-1.243471 13.217388 0.004104
-0.928730 13.217388 0.004179
-0.613989 13.217388 0.004194
-0.299248 13.217388 0.004259
0.015493 13.217388 0.004458
0.330234 13.217388 0.004626
0.644975 13.217388 0.004825
0.959716 13.217388 0.005090
1.274457 13.217388 0.005366
1.589198 13.217388 0.005548
1.903938 13.217388 0.005825
2.218679 13.217388 0.006258
2.533421 13.217388 0.006894
2.848162 13.217388 0.007613
3.162903 13.217388 0.008338
3.477644 13.217388 0.009144
3.792385 13.217388 0.010218
4.107125 13.217388 0.011720
4.421866 13.217388 0.013692
4.736608 13.217388 0.016085
5.051349 13.217388 0.019134
5.366090 13.217388 0.022916
5.680831 13.217388 0.028102
5.995571 13.217388 0.034833
6.310312 13.217388 0.044761
6.625053 13.217388 0.058016
6.939795 13.217388 0.075296
7.254536 13.217388 0.098367
7.569277 13.217388 0.129691
7.884017 13.217388 0.168944
8.198758 13.217388 0.219819
8.513499 13.217388 0.286243
8.828240 13.217388 0.367016
9.142982 13.217388 0.465171
9.457723 13.217388 0.565260
9.772464 13.217388 0.674021
10.087205 13.217388 0.771333
10.401946 13.217388 0.878198
10.716687 13.217388 0.979085
11.031426 13.217388 1.069215
11.346168 13.217388 1.158005
11.660909 13.217388 1.241888
11.975650 13.217388 1.313930
12.290391 13.217388 1.372496
12.605132 13.217388 1.442461
12.919873 13.217388 1.481768
13.234614 13.217388 1.535069
13.549356 13.217388 1.560491
13.864097 13.217388 1.579457
14.178838 13.217388 1.585735
14.493579 13.217388 1.577285
14.808320 13.217388 1.506745
15.123059 13.217388 1.356058
15.437800 13.217388 1.224342
15.752542 13.217388 0.736992
16.067284 13.217388 0.000000
16.382023 13.217388 0.000000
16.696766 13.217388 0.000000
17.011505 13.217388 0.000000
17.326248 13.217388 0.000000
17.640987 13.217388 0.000000
17.955730 13.217388 0.000000
18.270470 13.217388 0.000000
18.585213 13.217388 0.000000
18.899952 13.217388 0.000000
-7.223550 12.902649 0.000000
-6.908809 12.902649 0.005544
-6.594068 12.902649 0.004161
-6.279327 12.902649 0.003978
-5.964586 12.902649 0.003934
-5.649845 12.902649 0.003889
-5.335104 12.902649 0.003931
-5.020363 12.902649 0.003925
-4.705622 12.902649 0.003916
-4.390881 12.902649 0.003896
-4.076140 12.902649 0.003870
-3.761399 12.902649 0.003848
-3.446658 12.902649 0.003771
-3.131917 12.902649 0.003734
-2.817176 12.902649 0.003777
-2.502435 12.902649 0.003857
-2.187694 12.902649 0.003904
-1.872953 12.902649 0.003938
-1.558212 12.902649 0.004020
-1.243471 12.902649 0.004123
-0.928730 12.902649 0.004211
-0.613989 12.902649 0.004262
-0.299248 12.902649 0.004314
0.015493 12.902649 0.004482
0.330234 12.902649 0.004606
0.644975 12.902649 0.004812
0.959716 12.902649 0.005099
1.274457 12.902649 0.005395
1.589198 12.902649 0.005610
1.903938 12.902649 0.005844
2.218679 12.902649 0.006320
2.533421 12.902649 0.006948
2.848162 12.902649 0.007669
3.162903 12.902649 0.008459
3.477644 12.902649 0.009241
3.792385 12.902649 0.010225
4.107125 12.902649 0.011759
4.421866 12.902649 0.013777
4.736608 12.902649 0.016140
5.051349 12.902649 0.019320
5.366090 12.902649 0.023211
5.680831 12.902649 0.028396
5.995571 12.902649 0.035234
6.310312 12.902649 0.045143
6.625053 12.902649 0.058116
6.939795 12.902649 0.075233
7.254536 12.902649 0.098877
7.569277 12.902649 0.129288
7.884017 12.902649 0.170810
8.198758 12.902649 0.221796
8.513499 12.902649 0.290462
8.828240 12.902649 0.371880
9.142982 12.902649 0.465513
9.457723 12.902649 0.563893
9.772464 12.902649 0.672183
10.087205 12.902649 0.777551
10.401946 12.902649 0.883866
10.716687 12.902649 0.982981
11.031426 12.902649 1.069890
11.346168 12.902649 1.170682
11.660909 12.902649 1.260283
11.975650 12.902649 1.333869
12.290391 12.902649 1.385895
12.605132 12.902649 1.443280
12.919873 12.902649 1.509612
13.234614 12.902649 1.544814
13.549356 12.902649 1.556278
13.864097 12.902649 1.566315
14.178838 12.902649 1.569808
14.493579 12.902649 1.551043
14.808320 12.902649 1.473227
15.123059 12.902649 1.346885
15.437800 12.902649 1.232353
15.752542 12.902649 0.903981
16.067284 12.902649 0.000000
16.382023 12.902649 0.000000
16.696766 12.902649 0.000000
17.011505 12.902649 0.000000
17.326248 12.902649 0.000000
17.640987 12.902649 0.000000
17.955730 12.902649 0.000000
18.270470 12.902649 0.000000
18.585213 12.902649 0.000000
18.899952 12.902649 0.000000
-7.223550 12.587906 0.000000
-6.908809 12.587906 0.005562
-6.594068 12.587906 0.004123
-6.279327 12.587906 0.003907
-5.964586 12.587906 0.003838
-5.649845 12.587906 0.003838
-5.335104 12.587906 0.003905
-5.020363 12.587906 0.003913
-4.705622 12.587906 0.003889
-4.390881 12.587906 0.003884
-4.076140 12.587906 0.003892
-3.761399 12.587906 0.003858
-3.446658 12.587906 0.003756
-3.131917 12.587906 0.003744
-2.817176 12.587906 0.003777
-2.502435 12.587906 0.003840
-2.187694 12.587906 0.003878
-1.872953 12.587906 0.003934
-1.558212 12.587906 0.004021
-1.243471 12.587906 0.004103
-0.928730 12.587906 0.004196
-0.613989 12.587906 0.004253
-0.299248 12.587906 0.004320
0.015493 12.587906 0.004470
0.330234 12.587906 0.004592
0.644975 12.587906 0.004811
0.959716 12.587906 0.005091
1.274457 12.587906 0.005386
1.589198 12.587906 0.005625
1.903938 12.587906 0.005873
2.218679 12.587906 0.006356
2.533421 12.587906 0.006979
2.848162 12.587906 0.007729
3.162903 12.587906 0.008557
3.477644 12.587906 0.009381
3.792385 12.587906 0.010378
4.107125 12.587906 0.011879
4.421866 12.587906 0.013835
4.736608 12.587906 0.016251
5.051349 12.587906 0.019525
5.366090 12.587906 0.023433
5.680831 12.587906 0.028757
5.995571 12.587906 0.036005
6.310312 12.587906 0.045382
6.625053 12.587906 0.058493
6.939795 12.587906 0.075939
7.254536 12.587906 0.100579
7.569277 12.587906 0.131396
7.884017 12.587906 0.171300
8.198758 12.587906 0.226197
8.513499 12.587906 0.294406
8.828240 12.587906 0.373476
9.142982 12.587906 0.461643
9.457723 12.587906 0.566938
9.772464 12.587906 0.669446
10.087205 12.587906 0.784110
10.401946 12.587906 0.888055
10.716687 12.587906 0.994220
11.031426 12.587906 1.084731
11.346168 12.587906 1.175734
11.660909 12.587906 1.271542
11.975650 12.587906 1.338395
12.290391 12.587906 1.384182
12.605132 12.587906 1.456140
12.919873 12.587906 1.527886
13.234614 12.587906 1.555866
13.549356 12.587906 1.560381
13.864097 12.587906 1.558336
14.178838 12.587906 1.560648
14.493579 12.587906 1.537242
14.808320 12.587906 1.469617
15.123059 12.587906 1.352244
15.437800 12.587906 1.242343
15.752542 12.587906 0.902949
16.067284 12.587906 0.000000
16.382023 12.587906 0.000000
16.696766 12.587906 0.000000
17.011505 12.587906 0.000000
17.326248 12.587906 0.000000
17.640987 12.587906 0.000000
17.955730 12.587906 0.000000
18.270470 12.587906 0.000000
18.585213 12.587906 0.000000
18.899952 12.587906 0.000000
-7.223550 12.273167 0.000000
-6.908809 12.273167 0.005513
-6.594068 12.273167 0.004015
-6.279327 12.273167 0.003835
-5.964586 12.273167 0.003776
-5.649845 12.273167 0.003786
-5.335104 12.273167 0.003832
-5.020363 12.273167 0.003869
-4.705622 12.273167 0.003866
-4.390881 12.273167 0.003846
-4.076140 12.273167 0.003872
-3.761399 12.273167 0.003835
-3.446658 12.273167 0.003742
-3.131917 12.273167 0.003763
-2.817176 12.273167 0.003793
-2.502435 12.273167 0.003827
-2.187694 12.273167 0.003861
-1.872953 12.273167 0.003916
-1.558212 12.273167 0.003992
-1.243471 12.273167 0.004073
-0.928730 12.273167 0.004168
-0.613989 12.273167 0.004201
-0.299248 12.273167 0.004275
0.015493 12.273167 0.004433
0.330234 12.273167 0.004594
0.644975 12.273167 0.004812
0.959716 12.273167 0.005089
1.274457 12.273167 0.005373
1.589198 12.273167 0.005625
1.903938 12.273167 0.005910
2.218679 12.273167 0.006394
2.533421 12.273167 0.006987
2.848162 12.273167 0.007742
3.162903 12.273167 0.008635
3.477644 12.273167 0.009466
3.792385 12.273167 0.010486
4.107125 12.273167 0.011994
4.421866 12.273167 0.013907
4.736608 12.273167 0.016315
5.051349 12.273167 0.019459
5.366090 12.273167 0.023577
5.680831 12.273167 0.028784
5.995571 12.273167 0.036405
6.310312 12.273167 0.045834
6.625053 12.273167 0.060283
6.939795 12.273167 0.078533
7.254536 12.273167 0.103453
7.569277 12.273167 0.134941
7.884017 12.273167 0.174895
8.198758 12.273167 0.228294
8.513499 12.273167 0.295429
8.828240 12.273167 0.378944
9.142982 12.273167 0.467412
9.457723 12.273167 0.572391
9.772464 12.273167 0.676655
10.087205 12.273167 0.785564
10.401946 12.273167 0.894049
10.716687 12.273167 0.997517
11.031426 12.273167 1.087818
11.346168 12.273167 1.183844
11.660909 12.273167 1.261244
11.975650 12.273167 1.329194
12.290391 12.273167 1.392397
12.605132 12.273167 1.460521
12.919873 12.273167 1.519363
13.234614 12.273167 1.551218
13.549356 12.273167 1.563718
13.864097 12.273167 1.549232
14.178838 12.273167 1.549649
14.493579 12.273167 1.539541
14.808320 12.273167 1.477744
15.123059 12.273167 1.363916
15.437800 12.273167 1.268091
15.752542 12.273167 0.898900
16.067284 12.273167 0.000000
16.382023 12.273167 0.000000
16.696766 12.273167 0.000000
17.011505 12.273167 0.000000
17.326248 12.273167 0.000000
17.640987 12.273167 0.000000
17.955730 12.273167 0.000000
18.270470 12.273167 0.000000
18.585213 12.273167 0.000000
18.899952 12.273167 0.000000
-7.223550 11.958424 0.000000
-6.908809 11.958424 0.005443
-6.594068 11.958424 0.003927
-6.279327 11.958424 0.003793
-5.964586 11.958424 0.003757
-5.649845 11.958424 0.003749
-5.335104 11.958424 0.003780
-5.020363 11.958424 0.003833
-4.705622 11.958424 0.003845
-4.390881 11.958424 0.003811
-4.076140 11.958424 0.003817
-3.761399 11.958424 0.003773
-3.446658 11.958424 0.003718
-3.131917 11.958424 0.003785
-2.817176 11.958424 0.003783
-2.502435 11.958424 0.003784
-2.187694 11.958424 0.003840
-1.872953 11.958424 0.003883
-1.558212 11.958424 0.003944
-1.243471 11.958424 0.004034
-0.928730 11.958424 0.004127
-0.613989 11.958424 0.004136
-0.299248 11.958424 0.004229
0.015493 11.958424 0.004418
0.330234 11.958424 0.004576
0.644975 11.958424 0.004785
0.959716 11.958424 0.005062
1.274457 11.958424 0.005342
1.589198 11.958424 0.005625
1.903938 11.958424 0.005949
2.218679 11.958424 0.006418
2.533421 11.958424 0.006991
2.848162 11.958424 0.007749
3.162903 11.958424 0.008613
3.477644 11.958424 0.009502
3.792385 11.958424 0.010572
4.107125 11.958424 0.012091
4.421866 11.958424 0.013932
4.736608 11.958424 0.016284
5.051349 11.958424 0.019567
5.366090 11.958424 0.023766
5.680831 11.958424 0.029169
5.995571 11.958424 0.036520
6.310312 11.958424 0.047101
6.625053 11.958424 0.061167
6.939795 11.958424 0.079453
7.254536 11.958424 0.106396
7.569277 11.958424 0.138502
7.884017 11.958424 0.179830
8.198758 11.958424 0.236059
8.513499 11.958424 0.301082
8.828240 11.958424 0.389138
9.142982 11.958424 0.476907
9.457723 11.958424 0.578320
9.772464 11.958424 0.685031
10.087205 11.958424 0.793465
10.401946 11.958424 0.893570
10.716687 11.958424 0.999577
11.031426 11.958424 1.100913
11.346168 11.958424 1.182550
11.660909 11.958424 1.255273
11.975650 11.958424 1.326314
12.290391 11.958424 1.395185
12.605132 11.958424 1.460507
12.919873 11.958424 1.517353
13.234614 11.958424 1.551199
13.549356 11.958424 1.564262
13.864097 11.958424 1.560145
14.178838 11.958424 1.550877
14.493579 11.958424 1.540413
14.808320 11.958424 1.457724
15.123059 11.958424 1.361103
15.437800 11.958424 1.272408
15.752542 11.958424 0.892247
16.067284 11.958424 0.000000
16.382023 11.958424 0.000000
16.696766 11.958424 0.000000
17.011505 11.958424 0.000000
17.326248 11.958424 0.000000
17.640987 11.958424 0.000000
17.955730 11.958424 0.000000
18.270470 11.958424 0.000000
18.585213 11.958424 0.000000
18.899952 11.958424 0.000000
-7.223550 11.643684 0.000000
-6.908809 11.643684 0.005364
-6.594068 11.643684 0.003900
-6.279327 11.643684 0.003810
-5.964586 11.643684 0.003773
-5.649845 11.643684 0.003721
-5.335104 11.643684 0.003739
-5.020363 11.643684 0.003789
-4.705622 11.643684 0.003828
-4.390881 11.643684 0.003763
-4.076140 11.643684 0.003734
-3.761399 11.643684 0.003698
-3.446658 11.643684 0.003678
-3.131917 11.643684 0.003757
-2.817176 11.643684 0.003751
-2.502435 11.643684 0.003732
-2.187694 11.643684 0.003802
-1.872953 11.643684 0.003844
-1.558212 11.643684 0.003910
-1.243471 11.643684 0.003995
-0.928730 11.643684 0.004078
-0.613989 11.643684 0.004082
-0.299248 11.643684 0.004183
0.015493 11.643684 0.004394
0.330234 11.643684 0.004577
0.644975 11.643684 0.004767
0.959716 11.643684 0.005055
1.274457 11.643684 0.005318
1.589198 11.643684 0.005613
1.903938 11.643684 0.005977
2.218679 11.643684 0.006411
2.533421 11.643684 0.006992
2.848162 11.643684 0.007755
3.162903 11.643684 0.008590
3.477644 11.643684 0.009502
3.792385 11.643684 0.010703
4.107125 11.643684 0.012143
4.421866 11.643684 0.013907
4.736608 11.643684 0.016336
5.051349 11.643684 0.019574
5.366090 11.643684 0.023964
5.680831 11.643684 0.029354
5.995571 11.643684 0.037168
6.310312 11.643684 0.048050
6.625053 11.643684 0.061773
6.939795 11.643684 0.080288
7.254536 11.643684 0.106107
7.569277 11.643684 0.139836
7.884017 11.643684 0.181459
8.198758 11.643684 0.235810
8.513499 11.643684 0.301997
8.828240 11.643684 0.386230
9.142982 11.643684 0.484629
9.457723 11.643684 0.581894
9.772464 11.643684 0.683931
10.087205 11.643684 0.793699
10.401946 11.643684 0.892211
10.716687 11.643684 1.001717
11.031426 11.643684 1.096328
11.346168 11.643684 1.173559
11.660909 11.643684 1.252137
11.975650 11.643684 1.320271
12.290391 11.643684 1.385659
12.605132 11.643684 1.448488
12.919873 11.643684 1.495981
13.234614 11.643684 1.530878
13.549356 11.643684 1.562625
13.864097 11.643684 1.565840
14.178838 11.643684 1.563026
14.493579 11.643684 1.545505
14.808320 11.643684 1.464000
15.123059 11.643684 1.377759
15.437800 11.643684 1.283540
15.752542 11.643684 0.865007
16.067284 11.643684 0.000000
16.382023 11.643684 0.000000
16.696766 11.643684 0.000000
17.011505 11.643684 0.000000
17.326248 11.643684 0.000000
17.640987 11.643684 0.000000
17.955730 11.643684 0.000000
18.270470 11.643684 0.000000
18.585213 11.643684 0.000000
18.899952 11.643684 0.000000
-7.223550 11.328941 0.000000
-6.908809 11.328941 0.005319
-6.594068 11.328941 0.003942
-6.279327 11.328941 0.003867
-5.964586 11.328941 0.003823
-5.649845 11.328941 0.003720
-5.335104 11.328941 0.003720
-5.020363 11.328941 0.003735
-4.705622 11.328941 0.003799
-4.390881 11.328941 0.003730
-4.076140 11.328941 0.003678
-3.761399 11.328941 0.003641
-3.446658 11.328941 0.003634
-3.131917 11.328941 0.003697
-2.817176 11.328941 0.003736
-2.502435 11.328941 0.003708
-2.187694 11.328941 0.003765
-1.872953 11.328941 0.003847
-1.558212 11.328941 0.003914
-1.243471 11.328941 0.003985
-0.928730 11.328941 0.004043
-0.613989 11.328941 0.004074
-0.299248 11.328941 0.004186
0.015493 11.328941 0.004383
0.330234 11.328941 0.004579
0.644975 11.328941 0.004784
0.959716 11.328941 0.005020
1.274457 11.328941 0.005280
1.589198 11.328941 0.005600
1.903938 11.328941 0.005974
2.218679 11.328941 0.006370
2.533421 11.328941 0.007003
2.848162 11.328941 0.007767
3.162903 11.328941 0.008583
3.477644 11.328941 0.009518
3.792385 11.328941 0.010761
4.107125 11.328941 0.012154
4.421866 11.328941 0.013932
4.736608 11.328941 0.016339
5.051349 11.328941 0.019673
5.366090 11.328941 0.023917
5.680831 11.328941 0.029682
5.995571 11.328941 0.037494
6.310312 11.328941 0.048185
6.625053 11.328941 0.062307
6.939795 11.328941 0.081129
7.254536 11.328941 0.105959
7.569277 11.328941 0.139124
7.884017 11.328941 0.181673
8.198758 11.328941 0.237571
8.513499 11.328941 0.304396
8.828240 11.328941 0.390221
9.142982 11.328941 0.490971
9.457723 11.328941 0.590124
9.772464 11.328941 0.691201
10.087205 11.328941 0.803329
10.401946 11.328941 0.907989
10.716687 11.328941 1.003222
11.031426 11.328941 1.094928
11.346168 11.328941 1.166598
11.660909 11.328941 1.253232
11.975650 11.328941 1.318966
12.290391 11.328941 1.388921
12.605132 11.328941 1.443645
12.919873 11.328941 1.492810
13.234614 11.328941 1.532848
13.549356 11.328941 1.563014
13.864097 11.328941 1.577557
14.178838 11.328941 1.563656
14.493579 11.328941 1.543257
14.808320 11.328941 1.479272
15.123059 11.328941 1.379477
15.437800 11.328941 1.293170
15.752542 11.328941 0.839566
16.067284 11.328941 0.000000
16.382023 11.328941 0.000000
16.696766 11.328941 0.000000
17.011505 11.328941 0.000000
17.326248 11.328941 0.000000
17.640987 11.328941 0.000000
17.955730 11.328941 0.000000
18.270470 11.328941 0.000000
18.585213 11.328941 0.000000
18.899952 11.328941 0.000000
-7.223550 11.014202 0.000000
-6.908809 11.014202 0.005369
-6.594068 11.014202 0.004027
-6.279327 11.014202 0.003970
-5.964586 11.014202 0.003889
-5.649845 11.014202 0.003733
-5.335104 11.014202 0.003733
-5.020363 11.014202 0.003719
-4.705622 11.014202 0.003740
-4.390881 11.014202 0.003724
-4.076140 11.014202 0.003650
-3.761399 11.014202 0.003605
-3.446658 11.014202 0.003583
-3.131917 11.014202 0.003665
-2.817176 11.014202 0.003763
-2.502435 11.014202 0.003740
-2.187694 11.014202 0.003769
-1.872953 11.014202 0.003853
-1.558212 11.014202 0.003940
-1.243471 11.014202 0.003985
-0.928730 11.014202 0.004028
-0.613989 11.014202 0.004101
-0.299248 11.014202 0.004211
0.015493 11.014202 0.004360
0.330234 11.014202 0.004556
0.644975 11.014202 0.004787
0.959716 11.014202 0.004991
1.274457 11.014202 0.005239
1.589198 11.014202 0.005566
1.903938 11.014202 0.005967
2.218679 11.014202 0.006353
2.533421 11.014202 0.007026
2.848162 11.014202 0.007784
3.162903 11.014202 0.008548
3.477644 11.014202 0.009543
3.792385 11.014202 0.010791
4.107125 11.014202 0.012175
4.421866 11.014202 0.013953
4.736608 11.014202 0.016411
5.051349 11.014202 0.019820
5.366090 11.014202 0.024128
5.680831 11.014202 0.029805
5.995571 11.014202 0.037861
6.310312 11.014202 0.048616
6.625053 11.014202 0.062893
6.939795 11.014202 0.082413
7.254536 11.014202 0.106432
7.569277 11.014202 0.140183
7.884017 11.014202 0.185124
8.198758 11.014202 0.242773
8.513499 11.014202 0.311718
8.828240 11.014202 0.397936
9.142982 11.014202 0.495882
9.457723 11.014202 0.595584
9.772464 11.014202 0.702487
10.087205 11.014202 0.810800
10.401946 11.014202 0.915980
10.716687 11.014202 1.011861
11.031426 11.014202 1.097378
11.346168 11.014202 1.174870
11.660909 11.014202 1.253135
11.975650 11.014202 1.311769
12.290391 11.014202 1.384149
12.605132 11.014202 1.452976
12.919873 11.014202 1.500115
13.234614 11.014202 1.530892
13.549356 11.014202 1.560281
13.864097 11.014202 1.571630
14.178838 11.014202 1.566195
14.493579 11.014202 1.550388
14.808320 11.014202 1.483279
15.123059 11.014202 1.375510
15.437800 11.014202 1.281085
15.752542 11.014202 0.806745
16.067284 11.014202 0.000000
16.382023 11.014202 0.000000
16.696766 11.014202 0.000000
17.011505 11.014202 0.000000
17.326248 11.014202 0.000000
17.640987 11.014202 0.000000
17.955730 11.014202 0.000000
18.270470 11.014202 0.000000
18.585213 11.014202 0.000000
18.899952 11.014202 0.000000
-7.223550 10.699459 0.000000
-6.908809 10.699459 0.005410
-6.594068 10.699459 0.004082
-6.279327 10.699459 0.004053
-5.964586 10.699459 0.003939
-5.649845 10.699459 0.003752
-5.335104 10.699459 0.003762
-5.020363 10.699459 0.003721
-4.705622 10.699459 0.003687
-4.390881 10.699459 0.003684
-4.076140 10.699459 0.003622
-3.761399 10.699459 0.003577
-3.446658 10.699459 0.003563
-3.131917 10.699459 0.003685
-2.817176 10.699459 0.003795
-2.502435 10.699459 0.003787
-2.187694 10.699459 0.003786
-1.872953 10.699459 0.003872
-1.558212 10.699459 0.003942
-1.243471 10.699459 0.003961
-0.928730 10.699459 0.004032
-0.613989 10.699459 0.004153
-0.299248 10.699459 0.004240
0.015493 10.699459 0.004343
0.330234 10.699459 0.004510
0.644975 10.699459 0.004756
0.959716 10.699459 0.004921
1.274457 10.699459 0.005158
1.589198 10.699459 0.005522
1.903938 10.699459 0.005973
2.218679 10.699459 0.006356
2.533421 10.699459 0.007006
2.848162 10.699459 0.007742
3.162903 10.699459 0.008522
3.477644 10.699459 0.009543
3.792385 10.699459 0.010821
4.107125 10.699459 0.012265
4.421866 10.699459 0.014064
4.736608 10.699459 0.016566
5.051349 10.699459 0.019994
5.366090 10.699459 0.024389
5.680831 10.699459 0.030122
5.995571 10.699459 0.038025
6.310312 10.699459 0.048903
6.625053 10.699459 0.063973
6.939795 10.699459 0.083240
7.254536 10.699459 0.108650
7.569277 10.699459 0.141818
7.884017 10.699459 0.186103
8.198758 10.699459 0.245455
8.513499 10.699459 0.316865
8.828240 10.699459 0.401148
9.142982 10.699459 0.497613
9.457723 10.699459 0.595603
9.772464 10.699459 0.697828
10.087205 10.699459 0.814651
10.401946 10.699459 0.918068
10.716687 10.699459 1.008327
11.031426 10.699459 1.101348
11.346168 10.699459 1.185422
11.660909 10.699459 1.248353
11.975650 10.699459 1.318847
12.290391 10.699459 1.395965
12.605132 10.699459 1.449269
12.919873 10.699459 1.505151
13.234614 10.699459 1.541788
13.549356 10.699459 1.548175
13.864097 10.699459 1.557418
14.178838 10.699459 1.563522
14.493579 10.699459 1.528279
14.808320 10.699459 1.474083
15.123059 10.699459 1.371448
15.437800 10.699459 1.278354
15.752542 10.699459 0.792401
16.067284 10.699459 0.000000
16.382023 10.699459 0.000000
16.696766 10.699459 0.000000
17.011505 10.699459 0.000000
17.326248 10.699459 0.000000
17.640987 10.699459 0.000000
17.955730 10.699459 0.000000
18.270470 10.699459 0.000000
18.585213 10.699459 0.000000
18.899952 10.699459 0.000000
-7.223550 10.384720 0.000000
-6.908809 10.384720 0.005354
-6.594068 10.384720 0.004073
-6.279327 10.384720 0.004062
-5.964586 10.384720 0.003961
-5.649845 10.384720 0.003767
-5.335104 10.384720 0.003786
-5.020363 10.384720 0.003750
-4.705622 10.384720 0.003660
-4.390881 10.384720 0.003624
-4.076140 10.384720 0.003588
-3.761399 10.384720 0.003568
-3.446658 10.384720 0.003569
-3.131917 10.384720 0.003702
-2.817176 10.384720 0.003803
-2.502435 10.384720 0.003819
-2.187694 10.384720 0.003802
-1.872953 10.384720 0.003875
-1.558212 10.384720 0.003938
-1.243471 10.384720 0.003954
-0.928730 10.384720 0.004051
-0.613989 10.384720 0.004183
-0.299248 10.384720 0.004284
0.015493 10.384720 0.004345
0.330234 10.384720 0.004495
0.644975 10.384720 0.004716
0.959716 10.384720 0.004872
1.274457 10.384720 0.005135
1.589198 10.384720 0.005490
1.903938 10.384720 0.005962
2.218679 10.384720 0.006361
2.533421 10.384720 0.006947
2.848162 10.384720 0.007674
3.162903 10.384720 0.008486
3.477644 10.384720 0.009549
3.792385 10.384720 0.010869
4.107125 10.384720 0.012367
4.421866 10.384720 0.014196
4.736608 10.384720 0.016736
5.051349 10.384720 0.020115
5.366090 10.384720 0.024537
5.680831 10.384720 0.030282
5.995571 10.384720 0.038288
6.310312 10.384720 0.049790
6.625053 10.384720 0.065207
6.939795 10.384720 0.085596
7.254536 10.384720 0.110175
7.569277 10.384720 0.145242
7.884017 10.384720 0.187723
8.198758 10.384720 0.250800
8.513499 10.384720 0.321791
8.828240 10.384720 0.414312
9.142982 10.384720 0.501144
9.457723 10.384720 0.599394
9.772464 10.384720 0.702726
10.087205 10.384720 0.811947
10.401946 10.384720 0.912735
10.716687 10.384720 1.011181
11.031426 10.384720 1.101291
11.346168 10.384720 1.190419
11.660909 10.384720 1.261464
11.975650 10.384720 1.315688
12.290391 10.384720 1.398398
12.605132 10.384720 1.451505
12.919873 10.384720 1.503698
13.234614 10.384720 1.546424
13.549356 10.384720 1.561136
13.864097 10.384720 1.569546
14.178838 10.384720 1.549786
14.493579 10.384720 1.526429
14.808320 10.384720 1.459989
15.123059 10.384720 1.394394
15.437800 10.384720 1.299846
15.752542 10.384720 0.770354
16.067284 10.384720 0.000000
16.382023 10.384720 0.000000
16.696766 10.384720 0.000000
17.011505 10.384720 0.000000
17.326248 10.384720 0.000000
17.640987 10.384720 0.000000
17.955730 10.384720 0.000000
18.270470 10.384720 0.000000
18.585213 10.384720 0.000000
18.899952 10.384720 0.000000
-7.223550 10.069977 0.000000
-6.908809 10.069977 0.005182
-6.594068 10.069977 0.003992
-6.279327 10.069977 0.004000
-5.964586 10.069977 0.003919
-5.649845 10.069977 0.003787
-5.335104 10.069977 0.003806
-5.020363 10.069977 0.003796
-4.705622 10.069977 0.003671
-4.390881 10.069977 0.003600
-4.076140 10.069977 0.003565
-3.761399 10.069977 0.003557
-3.446658 10.069977 0.003585
-3.131917 10.069977 0.003691
-2.817176 10.069977 0.003779
-2.502435 10.069977 0.003830
-2.187694 10.069977 0.003826
-1.872953 10.069977 0.003864
-1.558212 10.069977 0.003925
-1.243471 10.069977 0.003975
-0.928730 10.069977 0.004079
-0.613989 10.069977 0.004183
-0.299248 10.069977 0.004287
0.015493 10.069977 0.004373
0.330234 10.069977 0.004498
0.644975 10.069977 0.004697
0.959716 10.069977 0.004905
1.274457 10.069977 0.005168
1.589198 10.069977 0.005497
1.903938 10.069977 0.005926
2.218679 10.069977 0.006335
2.533421 10.069977 0.006873
2.848162 10.069977 0.007600
3.162903 10.069977 0.008429
3.477644 10.069977 0.009544
3.792385 10.069977 0.010825
4.107125 10.069977 0.012409
4.421866 10.069977 0.014333
4.736608 10.069977 0.016776
5.051349 10.069977 0.020169
5.366090 10.069977 0.024746
5.680831 10.069977 0.030602
5.995571 10.069977 0.038750
6.310312 10.069977 0.050171
6.625053 10.069977 0.066181
6.939795 10.069977 0.086307
7.254536 10.069977 0.114707
7.569277 10.069977 0.149316
7.884017 10.069977 0.194387
8.198758 10.069977 0.253457
8.513499 10.069977 0.328612
8.828240 10.069977 0.415917
9.142982 10.069977 0.507021
9.457723 10.069977 0.603865
9.772464 10.069977 0.708605
10.087205 10.069977 0.816433
10.401946 10.069977 0.914519
10.716687 10.069977 1.014181
11.031426 10.069977 1.102399
11.346168 10.069977 1.192196
11.660909 10.069977 1.276677
11.975650 10.069977 1.330401
12.290391 10.069977 1.402270
12.605132 10.069977 1.452924
12.919873 10.069977 1.512872
13.234614 10.069977 1.539773
13.549356 10.069977 1.546846
13.864097 10.069977 1.554220
14.178838 10.069977 1.567255
14.493579 10.069977 1.522610
14.808320 10.069977 1.477341
15.123059 10.069977 1.409601
15.437800 10.069977 1.323628
15.752542 10.069977 0.734051
16.067284 10.069977 0.000000
16.382023 10.069977 0.000000
16.696766 10.069977 0.000000
17.011505 10.069977 0.000000
17.326248 10.069977 0.000000
17.640987 10.069977 0.000000
17.955730 10.069977 0.000000
18.270470 10.069977 0.000000
18.585213 10.069977 0.000000
18.899952 10.069977 0.000000
-7.223550 9.755238 0.000000
-6.908809 9.755238 0.004981
-6.594068 9.755238 0.003892
-6.279327 9.755238 0.003892
-5.964586 9.755238 0.003856
-5.649845 9.755238 0.003800
-5.335104 9.755238 0.003817
-5.020363 9.755238 0.003789
-4.705622 9.755238 0.003678
-4.390881 9.755238 0.003609
-4.076140 9.755238 0.003574
-3.761399 9.755238 0.003553
-3.446658 9.755238 0.003583
-3.131917 9.755238 0.003687
-2.817176 9.755238 0.003735
-2.502435 9.755238 0.003809
-2.187694 9.755238 0.003833
-1.872953 9.755238 0.003831
-1.558212 9.755238 0.003905
-1.243471 9.755238 0.003990
-0.928730 9.755238 0.004075
-0.613989 9.755238 0.004141
-0.299248 9.755238 0.004268
0.015493 9.755238 0.004375
0.330234 9.755238 0.004478
0.644975 9.755238 0.004695
0.959716 9.755238 0.005001
1.274457 9.755238 0.005225
1.589198 9.755238 0.005498
1.903938 9.755238 0.005904
2.218679 9.755238 0.006328
2.533421 9.755238 0.006857
2.848162 9.755238 0.007590
3.162903 9.755238 0.008460
3.477644 9.755238 0.009528
3.792385 9.755238 0.010899
4.107125 9.755238 0.012494
4.421866 9.755238 0.014415
4.736608 9.755238 0.016939
5.051349 9.755238 0.020353
5.366090 9.755238 0.024873
5.680831 9.755238 0.030648
5.995571 9.755238 0.038878
6.310312 9.755238 0.050655
6.625053 9.755238 0.066709
6.939795 9.755238 0.087481
7.254536 9.755238 0.116375
7.569277 9.755238 0.150940
7.884017 9.755238 0.198266
8.198758 9.755238 0.255987
8.513499 9.755238 0.331837
8.828240 9.755238 0.419090
9.142982 9.755238 0.508926
9.457723 9.755238 0.609488
9.772464 9.755238 0.716769
10.087205 9.755238 0.826487
10.401946 9.755238 0.922322
10.716687 9.755238 1.021388
11.031426 9.755238 1.120260
11.346168 9.755238 1.205226
11.660909 9.755238 1.287256
11.975650 9.755238 1.342316
12.290391 9.755238 1.404951
12.605132 9.755238 1.458542
12.919873 9.755238 1.501295
13.234614 9.755238 1.544562
13.549356 9.755238 1.567573
13.864097 9.755238 1.566095
14.178838 9.755238 1.565469
14.493579 9.755238 1.527240
14.808320 9.755238 1.480098
15.123059 9.755238 1.429952
15.437800 9.755238 1.340065
15.752542 9.755238 0.794928
16.067284 9.755238 0.000000
16.382023 9.755238 0.000000
16.696766 9.755238 0.000000
17.011505 9.755238 0.000000
17.326248 9.755238 0.000000
17.640987 9.755238 0.000000
17.955730 9.755238 0.000000
18.270470 9.755238 0.000000
18.585213 9.755238 0.000000
18.899952 9.755238 0.000000
-7.223550 9.440495 0.000000
-6.908809 9.440495 0.004877
-6.594068 9.440495 0.003823
-6.279327 9.440495 0.003790
-5.964586 9.440495 0.003776
-5.649845 9.440495 0.003773
-5.335104 9.440495 0.003785
-5.020363 9.440495 0.003730
-4.705622 9.440495 0.003679
-4.390881 9.440495 0.003631
-4.076140 9.440495 0.003591
-3.761399 9.440495 0.003547
-3.446658 9.440495 0.003581
-3.131917 9.440495 0.003668
-2.817176 9.440495 0.003693
-2.502435 9.440495 0.003759
-2.187694 9.440495 0.003797
-1.872953 9.440495 0.003798
-1.558212 9.440495 0.003903
-1.243471 9.440495 0.004003
-0.928730 9.440495 0.004053
-0.613989 9.440495 0.004082
-0.299248 9.440495 0.004232
0.015493 9.440495 0.004357
0.330234 9.440495 0.004460
0.644975 9.440495 0.004728
0.959716 9.440495 0.005090
1.274457 9.440495 0.005255
1.589198 9.440495 0.005494
1.903938 9.440495 0.005892
2.218679 9.440495 0.006301
2.533421 9.440495 0.006866
2.848162 9.440495 0.007596
3.162903 9.440495 0.008476
3.477644 9.440495 0.009529
3.792385 9.440495 0.010885
4.107125 9.440495 0.012571
4.421866 9.440495 0.014603
4.736608 9.440495 0.017131
5.051349 9.440495 0.020573
5.366090 9.440495 0.025024
5.680831 9.440495 0.031261
5.995571 9.440495 0.039498
6.310312 9.440495 0.051047
6.625053 9.440495 0.067085
6.939795 9.440495 0.088888
7.254536 9.440495 0.117093
7.569277 9.440495 0.150775
7.884017 9.440495 0.199349
8.198758 9.440495 0.258967
8.513499 9.440495 0.335360
8.828240 9.440495 0.423432
9.142982 9.440495 0.512296
9.457723 9.440495 0.617011
9.772464 9.440495 0.727742
10.087205 9.440495 0.837991
10.401946 9.440495 0.924904
10.716687 9.440495 1.021981
11.031426 9.440495 1.125946
11.346168 9.440495 1.207651
11.660909 9.440495 1.282556
11.975650 9.440495 1.356539
12.290391 9.440495 1.421013
12.605132 9.440495 1.468897
12.919873 9.440495 1.515779
13.234614 9.440495 1.559277
13.549356 9.440495 1.569127
13.864097 9.440495 1.576686
14.178838 9.440495 1.565730
14.493579 9.440495 1.515913
14.808320 9.440495 1.485011
15.123059 9.440495 1.420204
15.437800 9.440495 1.369126
15.752542 9.440495 0.910563
16.067284 9.440495 0.000000
16.382023 9.440495 0.000000
16.696766 9.440495 0.000000
17.011505 9.440495 0.000000
17.326248 9.440495 0.000000
17.640987 9.440495 0.000000
17.955730 9.440495 0.000000
18.270470 9.440495 0.000000
18.585213 9.440495 0.000000
18.899952 9.440495 0.000000
-7.223550 9.125755 0.000000
-6.908809 9.125755 0.004847
-6.594068 9.125755 0.003762
-6.279327 9.125755 0.003711
-5.964586 9.125755 0.003690
-5.649845 9.125755 0.003708
-5.335104 9.125755 0.003708
-5.020363 9.125755 0.003650
-4.705622 9.125755 0.003658
-4.390881 9.125755 0.003662
-4.076140 9.125755 0.003600
-3.761399 9.125755 0.003534
-3.446658 9.125755 0.003571
-3.131917 9.125755 0.003657
-2.817176 9.125755 0.003676
-2.502435 9.125755 0.003725
-2.187694 9.125755 0.003748
-1.872953 9.125755 0.003787
-1.558212 9.125755 0.003872
-1.243471 9.125755 0.003991
-0.928730 9.125755 0.004034
-0.613989 9.125755 0.004083
-0.299248 9.125755 0.004216
0.015493 9.125755 0.004303
0.330234 9.125755 0.004433
0.644975 9.125755 0.004717
0.959716 9.125755 0.005083
1.274457 9.125755 0.005244
1.589198 9.125755 0.005510
1.903938 9.125755 0.005869
2.218679 9.125755 0.006265
2.533421 9.125755 0.006885
2.848162 9.125755 0.007619
3.162903 9.125755 0.008433
3.477644 9.125755 0.009481
3.792385 9.125755 0.010864
4.107125 9.125755 0.012564
4.421866 9.125755 0.014546
4.736608 9.125755 0.017287
5.051349 9.125755 0.020795
5.366090 9.125755 0.025414
5.680831 9.125755 0.031490
5.995571 9.125755 0.040141
6.310312 9.125755 0.051676
6.625053 9.125755 0.067853
6.939795 9.125755 0.090140
7.254536 9.125755 0.117875
7.569277 9.125755 0.152215
7.884017 9.125755 0.202072
8.198758 9.125755 0.266419
8.513499 9.125755 0.341840
8.828240 9.125755 0.426871
9.142982 9.125755 0.518250
9.457723 9.125755 0.619758
9.772464 9.125755 0.730946
10.087205 9.125755 0.839948
10.401946 9.125755 0.939633
10.716687 9.125755 1.037306
11.031426 9.125755 1.125727
11.346168 9.125755 1.207441
11.660909 9.125755 1.286345
11.975650 9.125755 1.361447
12.290391 9.125755 1.409395
12.605132 9.125755 1.469218
12.919873 9.125755 1.519239
13.234614 9.125755 1.570799
13.549356 9.125755 1.579515
13.864097 9.125755 1.591183
14.178838 9.125755 1.563959
14.493579 9.125755 1.519803
14.808320 9.125755 1.485359
15.123059 9.125755 1.431836
15.437800 9.125755 1.376124
15.752542 9.125755 0.887434
16.067284 9.125755 0.000000
16.382023 9.125755 0.000000
16.696766 9.125755 0.000000
17.011505 9.125755 0.000000
17.326248 9.125755 0.000000
17.640987 9.125755 0.000000
17.955730 9.125755 0.000000
18.270470 9.125755 0.000000
18.585213 9.125755 0.000000
18.899952 9.125755 0.000000
-7.223550 8.811016 0.000000
-6.908809 8.811016 0.004800
-6.594068 8.811016 0.003666
-6.279327 8.811016 0.003632
-5.964586 8.811016 0.003631
-5.649845 8.811016 0.003621
-5.335104 8.811016 0.003639
-5.020363 8.811016 0.003591
-4.705622 8.811016 0.003633
-4.390881 8.811016 0.003665
-4.076140 8.811016 0.003590
-3.761399 8.811016 0.003516
-3.446658 8.811016 0.003545
-3.131917 8.811016 0.003616
-2.817176 8.811016 0.003658
-2.502435 8.811016 0.003698
-2.187694 8.811016 0.003708
-1.872953 8.811016 0.003743
-1.558212 8.811016 0.003820
-1.243471 8.811016 0.003926
-0.928730 8.811016 0.003988
-0.613989 8.811016 0.004061
-0.299248 8.811016 0.004172
0.015493 8.811016 0.004224
0.330234 8.811016 0.004354
0.644975 8.811016 0.004631
0.959716 8.811016 0.004994
1.274457 8.811016 0.005209
1.589198 8.811016 0.005511
1.903938 8.811016 0.005857
2.218679 8.811016 0.006256
2.533421 8.811016 0.006864
2.848162 8.811016 0.007646
3.162903 8.811016 0.008458
3.477644 8.811016 0.009475
3.792385 8.811016 0.010825
4.107125 8.811016 0.012553
4.421866 8.811016 0.014602
4.736608 8.811016 0.017288
5.051349 8.811016 0.020830
5.366090 8.811016 0.025714
5.680831 8.811016 0.032123
5.995571 8.811016 0.040822
6.310312 8.811016 0.052665
6.625053 8.811016 0.069754
6.939795 8.811016 0.091246
7.254536 8.811016 0.120065
7.569277 8.811016 0.157827
7.884017 8.811016 0.206803
8.198758 8.811016 0.267516
8.513499 8.811016 0.344996
8.828240 8.811016 0.432615
9.142982 8.811016 0.522844
9.457723 8.811016 0.626361
9.772464 8.811016 0.730826
10.087205 8.811016 0.843482
10.401946 8.811016 0.939965
10.716687 8.811016 1.035247
11.031426 8.811016 1.130038
11.346168 8.811016 1.207503
11.660909 8.811016 1.287967
11.975650 8.811016 1.355030
12.290391 8.811016 1.387371
12.605132 8.811016 1.448247
12.919873 8.811016 1.512580
13.234614 8.811016 1.577677
13.549356 8.811016 1.588248
13.864097 8.811016 1.577777
14.178838 8.811016 1.555067
14.493579 8.811016 1.519324
14.808320 8.811016 1.479626
15.123059 8.811016 1.424232
15.437800 8.811016 1.381893
15.752542 8.811016 1.066728
16.067284 8.811016 0.000000
16.382023 8.811016 0.000000
16.696766 8.811016 0.000000
17.011505 8.811016 0.000000
17.326248 8.811016 0.000000
17.640987 8.811016 0.000000
17.955730 8.811016 0.000000
18.270470 8.811016 0.000000
18.585213 8.811016 0.000000
18.899952 8.811016 0.000000
-7.223550 8.496273 0.000000
-6.908809 8.496273 0.004722
-6.594068 8.496273 0.003580
-6.279327 8.496273 0.003562
-5.964586 8.496273 0.003564
-5.649845 8.496273 0.003558
-5.335104 8.496273 0.003598
-5.020363 8.496273 0.003586
-4.705622 8.496273 0.003615
-4.390881 8.496273 0.003619
-4.076140 8.496273 0.003568
-3.761399 8.496273 0.003484
-3.446658 8.496273 0.003505
-3.131917 8.496273 0.003570
-2.817176 8.496273 0.003613
-2.502435 8.496273 0.003657
-2.187694 8.496273 0.003685
-1.872953 8.496273 0.003724
-1.558212 8.496273 0.003771
-1.243471 8.496273 0.003842
-0.928730 8.496273 0.003930
-0.613989 8.496273 0.004025
-0.299248 8.496273 0.004098
0.015493 8.496273 0.004154
0.330234 8.496273 0.004296
0.644975 8.496273 0.004536
0.959716 8.496273 0.004868
1.274457 8.496273 0.005153
1.589198 8.496273 0.005486
1.903938 8.496273 0.005826
2.218679 8.496273 0.006236
2.533421 8.496273 0.006859
2.848162 8.496273 0.007636
3.162903 8.496273 0.008500
3.477644 8.496273 0.009511
3.792385 8.496273 0.010799
4.107125 8.496273 0.012512
4.421866 8.496273 0.014639
4.736608 8.496273 0.017301
5.051349 8.496273 0.020894
5.366090 8.496273 0.025682
5.680831 8.496273 0.032263
5.995571 8.496273 0.040999
6.310312 8.496273 0.053585
6.625053 8.496273 0.070154
6.939795 8.496273 0.093200
7.254536 8.496273 0.123369
7.569277 8.496273 0.161749
7.884017 8.496273 0.210051
8.198758 8.496273 0.272114
8.513499 8.496273 0.348299
8.828240 8.496273 0.434221
9.142982 8.496273 0.530135
9.457723 8.496273 0.634222
9.772464 8.496273 0.741450
10.087205 8.496273 0.844820
10.401946 8.496273 0.945238
10.716687 8.496273 1.050612
11.031426 8.496273 1.129833
11.346168 8.496273 1.201054
11.660909 8.496273 1.276094
11.975650 8.496273 1.351407
12.290391 8.496273 1.390224
12.605132 8.496273 1.443380
12.919873 8.496273 1.511271
13.234614 8.496273 1.565813
13.549356 8.496273 1.586244
13.864097 8.496273 1.555859
14.178838 8.496273 1.545885
14.493579 8.496273 1.508667
14.808320 8.496273 1.479942
15.123059 8.496273 1.401760
15.437800 8.496273 1.386428
15.752542 8.496273 1.071489
16.067284 8.496273 0.000000
16.382023 8.496273 0.000000
16.696766 8.496273 0.000000
17.011505 8.496273 0.000000
17.326248 8.496273 0.000000
17.640987 8.496273 0.000000
17.955730 8.496273 0.000000
18.270470 8.496273 0.000000
18.585213 8.496273 0.000000
18.899952 8.496273 0.000000
-7.223550 8.181534 0.000000
-6.908809 8.181534 0.004675
-6.594068 8.181534 0.003545
-6.279327 8.181534 0.003517
-5.964586 8.181534 0.003534
-5.649845 8.181534 0.003535
-5.335104 8.181534 0.003586
-5.020363 8.181534 0.003611
-4.705622 8.181534 0.003577
-4.390881 8.181534 0.003563
-4.076140 8.181534 0.003540
-3.761399 8.181534 0.003454
-3.446658 8.181534 0.003467
-3.131917 8.181534 0.003531
-2.817176 8.181534 0.003549
-2.502435 8.181534 0.003604
-2.187694 8.181534 0.003670
-1.872953 8.181534 0.003720
-1.558212 8.181534 0.003747
-1.243471 8.181534 0.003808
-0.928730 8.181534 0.003905
-0.613989 8.181534 0.003963
-0.299248 8.181534 0.004025
0.015493 8.181534 0.004135
0.330234 8.181534 0.004282
0.644975 8.181534 0.004476
0.959716 8.181534 0.004759
1.274457 8.181534 0.005088
1.589198 8.181534 0.005430
1.903938 8.181534 0.005773
2.218679 8.181534 0.006231
2.533421 8.181534 0.006886
2.848162 8.181534 0.007644
3.162903 8.181534 0.008498
3.477644 8.181534 0.009475
3.792385 8.181534 0.010766
4.107125 8.181534 0.012452
4.421866 8.181534 0.014652
4.736608 8.181534 0.017432
5.051349 8.181534 0.021031
5.366090 8.181534 0.025793
5.680831 8.181534 0.032571
5.995571 8.181534 0.041887
6.310312 8.181534 0.054259
6.625053 8.181534 0.071080
6.939795 8.181534 0.094433
7.254536 8.181534 0.125306
7.569277 8.181534 0.166449
7.884017 8.181534 0.215424
8.198758 8.181534 0.274374
8.513499 8.181534 0.347340
8.828240 8.181534 0.436128
9.142982 8.181534 0.536917
9.457723 8.181534 0.641430
9.772464 8.181534 0.748780
10.087205 8.181534 0.845895
10.401946 8.181534 0.946509
10.716687 8.181534 1.039688
11.031426 8.181534 1.130158
11.346168 8.181534 1.206790
11.660909 8.181534 1.281616
11.975650 8.181534 1.353716
12.290391 8.181534 1.395128
12.605132 8.181534 1.458138
12.919873 8.181534 1.525607
13.234614 8.181534 1.572000
13.549356 8.181534 1.572711
13.864097 8.181534 1.549281
14.178838 8.181534 1.550786
14.493579 8.181534 1.489821
14.808320 8.181534 1.443583
15.123059 8.181534 1.381846
15.437800 8.181534 1.379502
15.752542 8.181534 1.047323
16.067284 8.181534 0.000000
16.382023 8.181534 0.000000
16.696766 8.181534 0.000000
17.011505 8.181534 0.000000
17.326248 8.181534 0.000000
17.640987 8.181534 0.000000
17.955730 8.181534 0.000000
18.270470 8.181534 0.000000
18.585213 8.181534 0.000000
18.899952 8.181534 0.000000
-7.223550 7.866791 0.000000
-6.908809 7.866791 0.004698
-6.594068 7.866791 0.003594
-6.279327 7.866791 0.003532
-5.964586 7.866791 0.003549
-5.649845 7.866791 0.003545
-5.335104 7.866791 0.003574
-5.020363 7.866791 0.003612
-4.705622 7.866791 0.003553
-4.390881 7.866791 0.003523
-4.076140 7.866791 0.003505
-3.761399 7.866791 0.003429
-3.446658 7.866791 0.003438
-3.131917 7.866791 0.003507
-2.817176 7.866791 0.003492
-2.502435 7.866791 0.003559
-2.187694 7.866791 0.003659
-1.872953 7.866791 0.003715
-1.558212 7.866791 0.003738
-1.243471 7.866791 0.003812
-0.928730 7.866791 0.003886
-0.613989 7.866791 0.003912
-0.299248 7.866791 0.004001
0.015493 7.866791 0.004174
0.330234 7.866791 0.004347
0.644975 7.866791 0.004502
0.959716 7.866791 0.004705
1.274457 7.866791 0.005014
1.589198 7.866791 0.005359
1.903938 7.866791 0.005726
2.218679 7.866791 0.006269
2.533421 7.866791 0.006948
2.848162 7.866791 0.007668
3.162903 7.866791 0.008529
3.477644 7.866791 0.009527
3.792385 7.866791 0.010787
4.107125 7.866791 0.012477
4.421866 7.866791 0.014647
4.736608 7.866791 0.017530
5.051349 7.866791 0.021234
5.366090 7.866791 0.026138
5.680831 7.866791 0.032992
5.995571 7.866791 0.042385
6.310312 7.866791 0.055050
6.625053 7.866791 0.072347
6.939795 7.866791 0.095646
7.254536 7.866791 0.127427
7.569277 7.866791 0.170431
7.884017 7.866791 0.215943
8.198758 7.866791 0.280372
8.513499 7.866791 0.353779
8.828240 7.866791 0.439508
9.142982 7.866791 0.546531
9.457723 7.866791 0.646363
9.772464 7.866791 0.760843
10.087205 7.866791 0.857130
10.401946 7.866791 0.948857
10.716687 7.866791 1.038308
11.031426 7.866791 1.128920
11.346168 7.866791 1.206201
11.660909 7.866791 1.296828
11.975650 7.866791 1.365843
12.290391 7.866791 1.413819
12.605132 7.866791 1.475279
12.919873 7.866791 1.522669
13.234614 7.866791 1.541268
13.549356 7.866791 1.542430
13.864097 7.866791 1.541608
14.178838 7.866791 1.530290
14.493579 7.866791 1.481506
14.808320 7.866791 1.427596
15.123059 7.866791 1.373231
15.437800 7.866791 1.361120
15.752542 7.866791 1.009108
16.067284 7.866791 0.000000
16.382023 7.866791 0.000000
16.696766 7.866791 0.000000
17.011505 7.866791 0.000000
17.326248 7.866791 0.000000
17.640987 7.866791 0.000000
17.955730 7.866791 0.000000
18.270470 7.866791 0.000000
18.585213 7.866791 0.000000
18.899952 7.866791 0.000000
-7.223550 7.552052 0.000000
-6.908809 7.552052 0.004738
-6.594068 7.552052 0.003653
-6.279327 7.552052 0.003564
-5.964586 7.552052 0.003570
-5.649845 7.552052 0.003559
-5.335104 7.552052 0.003529
-5.020363 7.552052 0.003552
-4.705622 7.552052 0.003511
-4.390881 7.552052 0.003486
-4.076140 7.552052 0.003481
-3.761399 7.552052 0.003417
-3.446658 7.552052 0.003434
-3.131917 7.552052 0.003480
-2.817176 7.552052 0.003447
-2.502435 7.552052 0.003526
-2.187694 7.552052 0.003649
-1.872953 7.552052 0.003699
-1.558212 7.552052 0.003725
-1.243471 7.552052 0.003823
-0.928730 7.552052 0.003873
-0.613989 7.552052 0.003885
-0.299248 7.552052 0.004006
0.015493 7.552052 0.004222
0.330234 7.552052 0.004427
0.644975 7.552052 0.004556
0.959716 7.552052 0.004719
1.274457 7.552052 0.004964
1.589198 7.552052 0.005334
1.903938 7.552052 0.005741
2.218679 7.552052 0.006312
2.533421 7.552052 0.006972
2.848162 7.552052 0.007672
3.162903 7.552052 0.008537
3.477644 7.552052 0.009551
3.792385 7.552052 0.010809
4.107125 7.552052 0.012478
4.421866 7.552052 0.014676
4.736608 7.552052 0.017620
5.051349 7.552052 0.021388
5.366090 7.552052 0.026525
5.680831 7.552052 0.033825
5.995571 7.552052 0.043176
6.310312 7.552052 0.055707
6.625053 7.552052 0.072638
6.939795 7.552052 0.097116
7.254536 7.552052 0.130640
7.569277 7.552052 0.170372
7.884017 7.552052 0.224362
8.198758 7.552052 0.285909
8.513499 7.552052 0.363210
8.828240 7.552052 0.451533
9.142982 7.552052 0.555724
9.457723 7.552052 0.659323
9.772464 7.552052 0.775491
10.087205 7.552052 0.873303
10.401946 7.552052 0.961457
10.716687 7.552052 1.046100
11.031426 7.552052 1.129281
11.346168 7.552052 1.217873
11.660909 7.552052 1.301630
11.975650 7.552052 1.364285
12.290391 7.552052 1.414046
12.605132 7.552052 1.486273
12.919873 7.552052 1.530831
13.234614 7.552052 1.545593
13.549356 7.552052 1.549612
13.864097 7.552052 1.525170
14.178838 7.552052 1.506273
14.493579 7.552052 1.459323
14.808320 7.552052 1.420679
15.123059 7.552052 1.355119
15.437800 7.552052 1.350185
15.752542 7.552052 1.002190
16.067284 7.552052 0.000000
16.382023 7.552052 0.000000
16.696766 7.552052 0.000000
17.011505 7.552052 0.000000
17.326248 7.552052 0.000000
17.640987 7.552052 0.000000
17.955730 7.552052 0.000000
18.270470 7.552052 0.000000
18.585213 7.552052 0.000000
18.899952 7.552052 0.000000
-7.223550 7.237309 0.000000
-6.908809 7.237309 0.004767
-6.594068 7.237309 0.003699
-6.279327 7.237309 0.003609
-5.964586 7.237309 0.003586
-5.649845 7.237309 0.003550
-5.335104 7.237309 0.003487
-5.020363 7.237309 0.003482
-4.705622 7.237309 0.003473
-4.390881 7.237309 0.003453
-4.076140 7.237309 0.003467
-3.761399 7.237309 0.003428
-3.446658 7.237309 0.003450
-3.131917 7.237309 0.003468
-2.817176 7.237309 0.003440
-2.502435 7.237309 0.003499
-2.187694 7.237309 0.003623
-1.872953 7.237309 0.003669
-1.558212 7.237309 0.003717
-1.243471 7.237309 0.003815
-0.928730 7.237309 0.003839
-0.613989 7.237309 0.003892
-0.299248 7.237309 0.004045
0.015493 7.237309 0.004254
0.330234 7.237309 0.004449
0.644975 7.237309 0.004572
0.959716 7.237309 0.004729
1.274457 7.237309 0.004956
1.589198 7.237309 0.005343
1.903938 7.237309 0.005770
2.218679 7.237309 0.006336
2.533421 7.237309 0.006977
2.848162 7.237309 0.007664
3.162903 7.237309 0.008534
3.477644 7.237309 0.009635
3.792385 7.237309 0.010830
4.107125 7.237309 0.012504
4.421866 7.237309 0.014832
4.736608 7.237309 0.017787
5.051349 7.237309 0.021519
5.366090 7.237309 0.026857
5.680831 7.237309 0.034272
5.995571 7.237309 0.043708
6.310312 7.237309 0.057425
6.625053 7.237309 0.075367
6.939795 7.237309 0.099737
7.254536 7.237309 0.131314
7.569277 7.237309 0.172036
7.884017 7.237309 0.226292
8.198758 7.237309 0.290493
8.513499 7.237309 0.365535
8.828240 7.237309 0.457662
9.142982 7.237309 0.561371
9.457723 7.237309 0.670346
9.772464 7.237309 0.781619
10.087205 7.237309 0.878773
10.401946 7.237309 0.975324
10.716687 7.237309 1.065786
11.031426 7.237309 1.148085
11.346168 7.237309 1.225810
11.660909 7.237309 1.296975
11.975650 7.237309 1.363672
12.290391 7.237309 1.425146
12.605132 7.237309 1.477733
12.919873 7.237309 1.518786
13.234614 7.237309 1.542011
13.549356 7.237309 1.543352
13.864097 7.237309 1.511886
14.178838 7.237309 1.494924
14.493579 7.237309 1.454645
14.808320 7.237309 1.406578
15.123059 7.237309 1.346537
15.437800 7.237309 1.346726
15.752542 7.237309 0.966142
16.067284 7.237309 0.000000
16.382023 7.237309 0.000000
16.696766 7.237309 0.000000
17.011505 7.237309 0.000000
17.326248 7.237309 0.000000
17.640987 7.237309 0.000000
17.955730 7.237309 0.000000
18.270470 7.237309 0.000000
18.585213 7.237309 0.000000
18.899952 7.237309 0.000000
-7.223550 6.922569 0.000000
-6.908809 6.922569 0.004776
-6.594068 6.922569 0.003741
-6.279327 6.922569 0.003654
-5.964586 6.922569 0.003584
-5.649845 6.922569 0.003517
-5.335104 6.922569 0.003466
-5.020363 6.922569 0.003455
-4.705622 6.922569 0.003447
-4.390881 6.922569 0.003437
-4.076140 6.922569 0.003455
-3.761399 6.922569 0.003447
-3.446658 6.922569 0.003476
-3.131917 6.922569 0.003472
-2.817176 6.922569 0.003452
-2.502435 6.922569 0.003469
-2.187694 6.922569 0.003569
-1.872953 6.922569 0.003639
-1.558212 6.922569 0.003711
-1.243471 6.922569 0.003784
-0.928730 6.922569 0.003804
-0.613989 6.922569 0.003912
-0.299248 6.922569 0.004076
0.015493 6.922569 0.004254
0.330234 6.922569 0.004429
0.644975 6.922569 0.004529
0.959716 6.922569 0.004696
1.274457 6.922569 0.004965
1.589198 6.922569 0.005371
1.903938 6.922569 0.005796
2.218679 6.922569 0.006300
2.533421 6.922569 0.006949
2.848162 6.922569 0.007651
3.162903 6.922569 0.008542
3.477644 6.922569 0.009686
3.792385 6.922569 0.010930
4.107125 6.922569 0.012624
4.421866 6.922569 0.014973
4.736608 6.922569 0.018004
5.051349 6.922569 0.021815
5.366090 6.922569 0.027132
5.680831 6.922569 0.034657
5.995571 6.922569 0.044777
6.310312 6.922569 0.057668
6.625053 6.922569 0.076999
6.939795 6.922569 0.100937
7.254536 6.922569 0.133969
7.569277 6.922569 0.175820
7.884017 6.922569 0.231900
8.198758 6.922569 0.293468
8.513499 6.922569 0.371183
8.828240 6.922569 0.469392
9.142982 6.922569 0.568958
9.457723 6.922569 0.676435
9.772464 6.922569 0.787580
10.087205 6.922569 0.878868
10.401946 6.922569 0.975316
10.716687 6.922569 1.072163
11.031426 6.922569 1.163848
11.346168 6.922569 1.239234
11.660909 6.922569 1.306182
11.975650 6.922569 1.355609
12.290391 6.922569 1.420916
12.605132 6.922569 1.465411
12.919873 6.922569 1.515485
13.234614 6.922569 1.531709
13.549356 6.922569 1.529862
13.864097 6.922569 1.505809
14.178838 6.922569 1.481570
14.493579 6.922569 1.437894
14.808320 6.922569 1.394259
15.123059 6.922569 1.337431
15.437800 6.922569 1.325813
15.752542 6.922569 0.945986
16.067284 6.922569 0.000000
16.382023 6.922569 0.000000
16.696766 6.922569 0.000000
17.011505 6.922569 0.000000
17.326248 6.922569 0.000000
17.640987 6.922569 0.000000
17.955730 6.922569 0.000000
18.270470 6.922569 0.000000
18.585213 6.922569 0.000000
18.899952 6.922569 0.000000
-7.223550 6.607826 0.000000
-6.908809 6.607826 0.004750
-6.594068 6.607826 0.003770
-6.279327 6.607826 0.003685
-5.964586 6.607826 0.003551
-5.649845 6.607826 0.003484
-5.335104 6.607826 0.003483
-5.020363 6.607826 0.003465
-4.705622 6.607826 0.003458
-4.390881 6.607826 0.003436
-4.076140 6.607826 0.003461
-3.761399 6.607826 0.003467
-3.446658 6.607826 0.003485
-3.131917 6.607826 0.003482
-2.817176 6.607826 0.003484
-2.502435 6.607826 0.003471
-2.187694 6.607826 0.003529
-1.872953 6.607826 0.003615
-1.558212 6.607826 0.003696
-1.243471 6.607826 0.003750
-0.928730 6.607826 0.003790
-0.613989 6.607826 0.003914
-0.299248 6.607826 0.004089
0.015493 6.607826 0.004242
0.330234 6.607826 0.004395
0.644975 6.607826 0.004509
0.959716 6.607826 0.004704
1.274457 6.607826 0.005025
1.589198 6.607826 0.005413
1.903938 6.607826 0.005765
2.218679 6.607826 0.006237
2.533421 6.607826 0.006901
2.848162 6.607826 0.007584
3.162903 6.607826 0.008577
3.477644 6.607826 0.009713
3.792385 6.607826 0.011003
4.107125 6.607826 0.012750
4.421866 6.607826 0.015167
4.736608 6.607826 0.018250
5.051349 6.607826 0.022113
5.366090 6.607826 0.027541
5.680831 6.607826 0.034719
5.995571 6.607826 0.045098
6.310312 6.607826 0.058497
6.625053 6.607826 0.077418
6.939795 6.607826 0.102963
7.254536 6.607826 0.136199
7.569277 6.607826 0.178409
7.884017 6.607826 0.234438
8.198758 6.607826 0.297645
8.513499 6.607826 0.373611
8.828240 6.607826 0.472446
9.142982 6.607826 0.574304
9.457723 6.607826 0.674842
9.772464 6.607826 0.786106
10.087205 6.607826 0.880574
10.401946 6.607826 0.974332
10.716687 6.607826 1.069291
11.031426 6.607826 1.159149
11.346168 6.607826 1.248996
11.660909 6.607826 1.311910
11.975650 6.607826 1.363610
12.290391 6.607826 1.426079
12.605132 6.607826 1.479297
12.919873 6.607826 1.509531
13.234614 6.607826 1.522820
13.549356 6.607826 1.524960
13.864097 6.607826 1.498170
14.178838 6.607826 1.479015
14.493579 6.607826 1.429872
14.808320 6.607826 1.384928
15.123059 6.607826 1.339309
15.437800 6.607826 1.337157
15.752542 6.607826 0.891584
16.067284 6.607826 0.000000
16.382023 6.607826 0.000000
16.696766 6.607826 0.000000
17.011505 6.607826 0.000000
17.326248 6.607826 0.000000
17.640987 6.607826 0.000000
17.955730 6.607826 0.000000
18.270470 6.607826 0.000000
18.585213 6.607826 0.000000
18.899952 6.607826 0.000000
-7.223550 6.293087 0.000000
-6.908809 6.293087 0.004764
-6.594068 6.293087 0.003786
-6.279327 6.293087 0.003663
-5.964586 6.293087 0.003512
-5.649845 6.293087 0.003472
-5.335104 6.293087 0.003541
-5.020363 6.293087 0.003487
-4.705622 6.293087 0.003459
-4.390881 6.293087 0.003451
-4.076140 6.293087 0.003485
-3.761399 6.293087 0.003467
-3.446658 6.293087 0.003487
-3.131917 6.293087 0.003504
-2.817176 6.293087 0.003514
-2.502435 6.293087 0.003490
-2.187694 6.293087 0.003513
-1.872953 6.293087 0.003615
-1.558212 6.293087 0.003685
-1.243471 6.293087 0.003731
-0.928730 6.293087 0.003781
-0.613989 6.293087 0.003906
-0.299248 6.293087 0.004065
0.015493 6.293087 0.004223
0.330234 6.293087 0.004414
0.644975 6.293087 0.004545
0.959716 6.293087 0.004743
1.274457 6.293087 0.005110
1.589198 6.293087 0.005475
1.903938 6.293087 0.005743
2.218679 6.293087 0.006203
2.533421 6.293087 0.006865
2.848162 6.293087 0.007569
3.162903 6.293087 0.008516
3.477644 6.293087 0.009634
3.792385 6.293087 0.011080
4.107125 6.293087 0.012991
4.421866 6.293087 0.015401
4.736608 6.293087 0.018514
5.051349 6.293087 0.022467
5.366090 6.293087 0.027938
5.680831 6.293087 0.034931
5.995571 6.293087 0.044787
6.310312 6.293087 0.059152
6.625053 6.293087 0.078472
6.939795 6.293087 0.104263
7.254536 6.293087 0.140022
7.569277 6.293087 0.183540
7.884017 6.293087 0.236356
8.198758 6.293087 0.303809
8.513499 6.293087 0.385578
8.828240 6.293087 0.476309
9.142982 6.293087 0.575941
9.457723 6.293087 0.676990
9.772464 6.293087 0.788762
10.087205 6.293087 0.886458
10.401946 6.293087 0.977926
10.716687 6.293087 1.065358
11.031426 6.293087 1.156925
11.346168 6.293087 1.255286
11.660909 6.293087 1.318552
11.975650 6.293087 1.371614
12.290391 6.293087 1.428740
12.605132 6.293087 1.485637
12.919873 6.293087 1.516348
13.234614 6.293087 1.523298
13.549356 6.293087 1.529116
13.864097 6.293087 1.492916
14.178838 6.293087 1.447728
14.493579 6.293087 1.419973
14.808320 6.293087 1.364686
15.123059 6.293087 1.317525
15.437800 6.293087 1.302579
15.752542 6.293087 0.868438
16.067284 6.293087 0.000000
16.382023 6.293087 0.000000
16.696766 6.293087 0.000000
17.011505 6.293087 0.000000
17.326248 6.293087 0.000000
17.640987 6.293087 0.000000
17.955730 6.293087 0.000000
18.270470 6.293087 0.000000
18.585213 6.293087 0.000000
18.899952 6.293087 0.000000
-7.223550 5.978344 0.000000
-6.908809 5.978344 0.004800
-6.594068 5.978344 0.003768
-6.279327 5.978344 0.003630
-5.964586 5.978344 0.003511
-5.649845 5.978344 0.003513
-5.335104 5.978344 0.003571
-5.020363 5.978344 0.003496
-4.705622 5.978344 0.003455
-4.390881 5.978344 0.003453
-4.076140 5.978344 0.003478
-3.761399 5.978344 0.003446
-3.446658 5.978344 0.003492
-3.131917 5.978344 0.003517
-2.817176 5.978344 0.003520
-2.502435 5.978344 0.003505
-2.187694 5.978344 0.003547
-1.872953 5.978344 0.003634
-1.558212 5.978344 0.003713
-1.243471 5.978344 0.003750
-0.928730 5.978344 0.003770
-0.613989 5.978344 0.003884
-0.299248 5.978344 0.004042
0.015493 5.978344 0.004209
0.330234 5.978344 0.004439
0.644975 5.978344 0.004620
0.959716 5.978344 0.004818
1.274457 5.978344 0.005144
1.589198 5.978344 0.005475
1.903938 5.978344 0.005757
2.218679 5.978344 0.006245
2.533421 5.978344 0.006890
2.848162 5.978344 0.007563
3.162903 5.978344 0.008477
3.477644 5.978344 0.009686
3.792385 5.978344 0.011147
4.107125 5.978344 0.013148
4.421866 5.978344 0.015599
4.736608 5.978344 0.018724
5.051349 5.978344 0.022847
5.366090 5.978344 0.028382
5.680831 5.978344 0.035581
5.995571 5.978344 0.045600
6.310312 5.978344 0.059844
6.625053 5.978344 0.079985
6.939795 5.978344 0.105539
7.254536 5.978344 0.142040
7.569277 5.978344 0.187461
7.884017 5.978344 0.241624
8.198758 5.978344 0.306431
8.513499 5.978344 0.391905
8.828240 5.978344 0.480004
9.142982 5.978344 0.580531
9.457723 5.978344 0.680556
9.772464 5.978344 0.790023
10.087205 5.978344 0.892571
10.401946 5.978344 0.977700
10.716687 5.978344 1.059246
11.031426 5.978344 1.154091
11.346168 5.978344 1.255079
11.660909 5.978344 1.318831
11.975650 5.978344 1.382620
12.290391 5.978344 1.433936
12.605132 5.978344 1.488438
12.919873 5.978344 1.518784
13.234614 5.978344 1.529364
13.549356 5.978344 1.521557
13.864097 5.978344 1.485465
14.178838 5.978344 1.448156
14.493579 5.978344 1.416862
14.808320 5.978344 1.362042
15.123059 5.978344 1.296672
15.437800 5.978344 1.315691
15.752542 5.978344 0.833060
16.067284 5.978344 0.000000
16.382023 5.978344 0.000000
16.696766 5.978344 0.000000
17.011505 5.978344 0.000000
17.326248 5.978344 0.000000
17.640987 5.978344 0.000000
17.955730 5.978344 0.000000
18.270470 5.978344 0.000000
18.585213 5.978344 0.000000
18.899952 5.978344 0.000000
-7.223550 5.663605 0.000000
-6.908809 5.663605 0.004848
-6.594068 5.663605 0.003733
-6.279327 5.663605 0.003591
-5.964586 5.663605 0.003542
-5.649845 5.663605 0.003544
-5.335104 5.663605 0.003530
-5.020363 5.663605 0.003461
-4.705622 5.663605 0.003452
-4.390881 5.663605 0.003477
-4.076140 5.663605 0.003484
-3.761399 5.663605 0.003452
-3.446658 5.663605 0.003498
-3.131917 5.663605 0.003518
-2.817176 5.663605 0.003508
-2.502435 5.663605 0.003523
-2.187694 5.663605 0.003588
-1.872953 5.663605 0.003662
-1.558212 5.663605 0.003746
-1.243471 5.663605 0.003789
-0.928730 5.663605 0.003776
-0.613989 5.663605 0.003868
-0.299248 5.663605 0.004026
0.015493 5.663605 0.004197
0.330234 5.663605 0.004467
0.644975 5.663605 0.004689
0.959716 5.663605 0.004887
1.274457 5.663605 0.005164
1.589198 5.663605 0.005451
1.903938 5.663605 0.005804
2.218679 5.663605 0.006331
2.533421 5.663605 0.006944
2.848162 5.663605 0.007602
3.162903 5.663605 0.008527
3.477644 5.663605 0.009748
3.792385 5.663605 0.011283
4.107125 5.663605 0.013223
4.421866 5.663605 0.015671
4.736608 5.663605 0.018833
5.051349 5.663605 0.023033
5.366090 5.663605 0.028903
5.680831 5.663605 0.036635
5.995571 5.663605 0.046803
6.310312 5.663605 0.061578
6.625053 5.663605 0.081797
6.939795 5.663605 0.107391
7.254536 5.663605 0.143342
7.569277 5.663605 0.188295
7.884017 5.663605 0.245323
8.198758 5.663605 0.313159
8.513499 5.663605 0.400615
8.828240 5.663605 0.490362
9.142982 5.663605 0.595341
9.457723 5.663605 0.694837
9.772464 5.663605 0.801809
10.087205 5.663605 0.894315
10.401946 5.663605 0.975114
10.716687 5.663605 1.063454
11.031426 5.663605 1.163447
11.346168 5.663605 1.256147
11.660909 5.663605 1.324136
11.975650 5.663605 1.375662
12.290391 5.663605 1.439541
12.605132 5.663605 1.473697
12.919873 5.663605 1.517635
13.234614 5.663605 1.529737
13.549356 5.663605 1.508264
13.864097 5.663605 1.485696
14.178838 5.663605 1.441659
14.493579 5.663605 1.413506
14.808320 5.663605 1.354217
15.123059 5.663605 1.290027
15.437800 5.663605 1.318827
15.752542 5.663605 0.793140
16.067284 5.663605 0.000000
16.382023 5.663605 0.000000
16.696766 5.663605 0.000000
17.011505 5.663605 0.000000
17.326248 5.663605 0.000000
17.640987 5.663605 0.000000
17.955730 5.663605 0.000000
18.270470 5.663605 0.000000
18.585213 5.663605 0.000000
18.899952 5.663605 0.000000
-7.223550 5.348862 0.000000
-6.908809 5.348862 0.004862
-6.594068 5.348862 0.003692
-6.279327 5.348862 0.003566
-5.964586 5.348862 0.003574
-5.649845 5.348862 0.003541
-5.335104 5.348862 0.003475
-5.020363 5.348862 0.003437
-4.705622 5.348862 0.003469
-4.390881 5.348862 0.003513
-4.076140 5.348862 0.003502
-3.761399 5.348862 0.003458
-3.446658 5.348862 0.003482
-3.131917 5.348862 0.003491
-2.817176 5.348862 0.003487
-2.502435 5.348862 0.003537
-2.187694 5.348862 0.003613
-1.872953 5.348862 0.003671
-1.558212 5.348862 0.003770
-1.243471 5.348862 0.003818
-0.928730 5.348862 0.003804
-0.613989 5.348862 0.003886
-0.299248 5.348862 0.004017
0.015493 5.348862 0.004213
0.330234 5.348862 0.004483
0.644975 5.348862 0.004701
0.959716 5.348862 0.004923
1.274457 5.348862 0.005146
1.589198 5.348862 0.005452
1.903938 5.348862 0.005870
2.218679 5.348862 0.006417
2.533421 5.348862 0.007025
2.848162 5.348862 0.007720
3.162903 5.348862 0.008678
3.477644 5.348862 0.009894
3.792385 5.348862 0.011412
4.107125 5.348862 0.013346
4.421866 5.348862 0.015692
4.736608 5.348862 0.018917
5.051349 5.348862 0.023387
5.366090 5.348862 0.029280
5.680831 5.348862 0.036817
5.995571 5.348862 0.047579
6.310312 5.348862 0.063340
6.625053 5.348862 0.084591
6.939795 5.348862 0.110522
7.254536 5.348862 0.144068
7.569277 5.348862 0.191328
7.884017 5.348862 0.250545
8.198758 5.348862 0.318198
8.513499 5.348862 0.401996
8.828240 5.348862 0.501385
9.142982 5.348862 0.610403
9.457723 5.348862 0.713846
9.772464 5.348862 0.813453
10.087205 5.348862 0.904649
10.401946 5.348862 0.983725
10.716687 5.348862 1.067593
11.031426 5.348862 1.168041
11.346168 5.348862 1.273101
11.660909 5.348862 1.343386
11.975650 5.348862 1.386648
12.290391 5.348862 1.433869
12.605132 5.348862 1.470378
12.919873 5.348862 1.505891
13.234614 5.348862 1.524440
13.549356 5.348862 1.493858
13.864097 5.348862 1.458426
14.178838 5.348862 1.450090
14.493579 5.348862 1.424768
14.808320 5.348862 1.359506
15.123059 5.348862 1.291074
15.437800 5.348862 1.313640
15.752542 5.348862 0.785038
16.067284 5.348862 0.000000
16.382023 5.348862 0.000000
16.696766 5.348862 0.000000
17.011505 5.348862 0.000000
17.326248 5.348862 0.000000
17.640987 5.348862 0.000000
17.955730 5.348862 0.000000
18.270470 5.348862 0.000000
18.585213 5.348862 0.000000
18.899952 5.348862 0.000000
-7.223550 5.034122 0.000000
-6.908809 5.034122 0.004829
-6.594068 5.034122 0.003648
-6.279327 5.034122 0.003578
-5.964586 5.034122 0.003587
-5.649845 5.034122 0.003524
-5.335104 5.034122 0.003431
-5.020363 5.034122 0.003448
-4.705622 5.034122 0.003511
-4.390881 5.034122 0.003548
-4.076140 5.034122 0.003521
-3.761399 5.034122 0.003460
-3.446658 5.034122 0.003476
-3.131917 5.034122 0.003455
-2.817176 5.034122 0.003490
-2.502435 5.034122 0.003574
-2.187694 5.034122 0.003646
-1.872953 5.034122 0.003671
-1.558212 5.034122 0.003769
-1.243471 5.034122 0.003835
-0.928730 5.034122 0.003863
-0.613989 5.034122 0.003928
-0.299248 5.034122 0.004030
0.015493 5.034122 0.004239
0.330234 5.034122 0.004478
0.644975 5.034122 0.004693
0.959716 5.034122 0.004919
1.274457 5.034122 0.005154
1.589198 5.034122 0.005502
1.903938 5.034122 0.005940
2.218679 5.034122 0.006480
2.533421 5.034122 0.007139
2.848162 5.034122 0.007910
3.162903 5.034122 0.008865
3.477644 5.034122 0.010023
3.792385 5.034122 0.011542
4.107125 5.034122 0.013415
4.421866 5.034122 0.015649
4.736608 5.034122 0.018948
5.051349 5.034122 0.023481
5.366090 5.034122 0.029303
5.680831 5.034122 0.037181
5.995571 5.034122 0.048295
6.310312 5.034122 0.064212
6.625053 5.034122 0.086326
6.939795 5.034122 0.112342
7.254536 5.034122 0.146834
7.569277 5.034122 0.194559
7.884017 5.034122 0.253415
8.198758 5.034122 0.324801
8.513499 5.034122 0.408427
8.828240 5.034122 0.510859
9.142982 5.034122 0.619946
9.457723 5.034122 0.727708
9.772464 5.034122 0.828553
10.087205 5.034122 0.910512
10.401946 5.034122 0.988821
10.716687 5.034122 1.078546
11.031426 5.034122 1.183944
11.346168 5.034122 1.271391
11.660909 5.034122 1.336035
11.975650 5.034122 1.378995
12.290391 5.034122 1.420934
12.605132 5.034122 1.471496
12.919873 5.034122 1.498952
13.234614 5.034122 1.512574
13.549356 5.034122 1.482804
13.864097 5.034122 1.457180
14.178838 5.034122 1.428472
14.493579 5.034122 1.401215
14.808320 5.034122 1.354837
15.123059 5.034122 1.275861
15.437800 5.034122 1.276676
15.752542 5.034122 0.774472
16.067284 5.034122 0.000000
16.382023 5.034122 0.000000
16.696766 5.034122 0.000000
17.011505 5.034122 0.000000
17.326248 5.034122 0.000000
17.640987 5.034122 0.000000
17.955730 5.034122 0.000000
18.270470 5.034122 0.000000
18.585213 5.034122 0.000000
18.899952 5.034122 0.000000
-7.223550 4.719383 0.000000
-6.908809 4.719383 0.004770
-6.594068 4.719383 0.003627
-6.279327 4.719383 0.003584
-5.964586 4.719383 0.003582
-5.649845 4.719383 0.003554
-5.335104 4.719383 0.003482
-5.020363 4.719383 0.003519
-4.705622 4.719383 0.003579
-4.390881 4.719383 0.003612
-4.076140 4.719383 0.003546
-3.761399 4.719383 0.003482
-3.446658 4.719383 0.003471
-3.131917 4.719383 0.003445
-2.817176 4.719383 0.003509
-2.502435 4.719383 0.003623
-2.187694 4.719383 0.003684
-1.872953 4.719383 0.003664
-1.558212 4.719383 0.003760
-1.243471 4.719383 0.003870
-0.928730 4.719383 0.003933
-0.613989 4.719383 0.003961
-0.299248 4.719383 0.004063
0.015493 4.719383 0.004281
0.330234 4.719383 0.004495
0.644975 4.719383 0.004677
0.959716 4.719383 0.004891
1.274457 4.719383 0.005162
1.589198 4.719383 0.005554
1.903938 4.719383 0.005996
2.218679 4.719383 0.006560
2.533421 4.719383 0.007275
2.848162 4.719383 0.008043
3.162903 4.719383 0.008974
3.477644 4.719383 0.010195
3.792385 4.719383 0.011704
4.107125 4.719383 0.013498
4.421866 4.719383 0.015734
4.736608 4.719383 0.019067
5.051349 4.719383 0.023676
5.366090 4.719383 0.029554
5.680831 4.719383 0.037543
5.995571 4.719383 0.049168
6.310312 4.719383 0.064627
6.625053 4.719383 0.086515
6.939795 4.719383 0.113642
7.254536 4.719383 0.148970
7.569277 4.719383 0.195231
7.884017 4.719383 0.254970
8.198758 4.719383 0.330368
8.513499 4.719383 0.416488
8.828240 4.719383 0.510126
9.142982 4.719383 0.624340
9.457723 4.719383 0.735005
9.772464 4.719383 0.834556
10.087205 4.719383 0.916518
10.401946 4.719383 0.991279
10.716687 4.719383 1.084051
11.031426 4.719383 1.187687
11.346168 4.719383 1.270727
11.660909 4.719383 1.319494
11.975650 4.719383 1.368982
12.290391 4.719383 1.422824
12.605132 4.719383 1.455258
12.919873 4.719383 1.489644
13.234614 4.719383 1.500111
13.549356 4.719383 1.482047
13.864097 4.719383 1.438870
14.178838 4.719383 1.404188
14.493579 4.719383 1.378332
14.808320 4.719383 1.318563
15.123059 4.719383 1.267928
15.437800 4.719383 1.279933
15.752542 4.719383 0.788648
16.067284 4.719383 0.000000
16.382023 4.719383 0.000000
16.696766 4.719383 0.000000
17.011505 4.719383 0.000000
17.326248 4.719383 0.000000
17.640987 4.719383 0.000000
17.955730 4.719383 0.000000
18.270470 4.719383 0.000000
18.585213 4.719383 0.000000
18.899952 4.719383 0.000000
-7.223550 4.404640 0.000000
-6.908809 4.404640 0.004733
-6.594068 4.404640 0.003593
-6.279327 4.404640 0.003568
-5.964586 4.404640 0.003588
-5.649845 4.404640 0.003608
-5.335104 4.404640 0.003615
-5.020363 4.404640 0.003635
-4.705622 4.404640 0.003673
-4.390881 4.404640 0.003675
-4.076140 4.404640 0.003585
-3.761399 4.404640 0.003522
-3.446658 4.404640 0.003502
-3.131917 4.404640 0.003480
-2.817176 4.404640 0.003542
-2.502435 4.404640 0.003648
-2.187694 4.404640 0.003696
-1.872953 4.404640 0.003651
-1.558212 4.404640 0.003744
-1.243471 4.404640 0.003886
-0.928730 4.404640 0.003987
-0.613989 4.404640 0.003985
-0.299248 4.404640 0.004095
0.015493 4.404640 0.004334
0.330234 4.404640 0.004522
0.644975 4.404640 0.004665
0.959716 4.404640 0.004880
1.274457 4.404640 0.005166
1.589198 4.404640 0.005571
1.903938 4.404640 0.006043
2.218679 4.404640 0.006614
2.533421 4.404640 0.007318
2.848162 4.404640 0.008073
3.162903 4.404640 0.009028
3.477644 4.404640 0.010303
3.792385 4.404640 0.011771
4.107125 4.404640 0.013557
4.421866 4.404640 0.015956
4.736608 4.404640 0.019435
5.051349 4.404640 0.024014
5.366090 4.404640 0.029865
5.680831 4.404640 0.038501
5.995571 4.404640 0.050389
6.310312 4.404640 0.066175
6.625053 4.404640 0.087701
6.939795 4.404640 0.117036
7.254536 4.404640 0.153013
7.569277 4.404640 0.199045
7.884017 4.404640 0.260437
8.198758 4.404640 0.336072
8.513499 4.404640 0.424906
8.828240 4.404640 0.519551
9.142982 4.404640 0.627670
9.457723 4.404640 0.741479
9.772464 4.404640 0.841051
10.087205 4.404640 0.922182
10.401946 4.404640 1.001154
10.716687 4.404640 1.075364
11.031426 4.404640 1.176748
11.346168 4.404640 1.249745
11.660909 4.404640 1.305446
11.975650 4.404640 1.362876
12.290391 4.404640 1.414496
12.605132 4.404640 1.461475
12.919873 4.404640 1.479772
13.234614 4.404640 1.493769
13.549356 4.404640 1.468040
13.864097 4.404640 1.414192
14.178838 4.404640 1.383807
14.493579 4.404640 1.373309
14.808320 4.404640 1.318768
15.123059 4.404640 1.267164
15.437800 4.404640 1.291933
15.752542 4.404640 0.671812
16.067284 4.404640 0.000000
16.382023 4.404640 0.000000
16.696766 4.404640 0.000000
17.011505 4.404640 0.000000
17.326248 4.404640 0.000000
17.640987 4.404640 0.000000
17.955730 4.404640 0.000000
18.270470 4.404640 0.000000
18.585213 4.404640 0.000000
18.899952 4.404640 0.000000
-7.223550 4.089901 0.000000
-6.908809 4.089901 0.004689
-6.594068 4.089901 0.003568
-6.279327 4.089901 0.003562
-5.964586 4.089901 0.003612
-5.649845 4.089901 0.003698
-5.335104 4.089901 0.003756
-5.020363 4.089901 0.003729
-4.705622 4.089901 0.003722
-4.390881 4.089901 0.003712
-4.076140 4.089901 0.003650
-3.761399 4.089901 0.003590
-3.446658 4.089901 0.003581
-3.131917 4.089901 0.003540
-2.817176 4.089901 0.003574
-2.502435 4.089901 0.003651
-2.187694 4.089901 0.003712
-1.872953 4.089901 0.003660
-1.558212 4.089901 0.003751
-1.243471 4.089901 0.003880
-0.928730 4.089901 0.003975
-0.613989 4.089901 0.003971
-0.299248 4.089901 0.004085
0.015493 4.089901 0.004344
0.330234 4.089901 0.004528
0.644975 4.089901 0.004654
0.959716 4.089901 0.004862
1.274457 4.089901 0.005157
1.589198 4.089901 0.005587
1.903938 4.089901 0.006066
2.218679 4.089901 0.006678
2.533421 4.089901 0.007328
2.848162 4.089901 0.008027
3.162903 4.089901 0.009026
3.477644 4.089901 0.010308
3.792385 4.089901 0.011708
4.107125 4.089901 0.013521
4.421866 4.089901 0.016268
4.736608 4.089901 0.019653
5.051349 4.089901 0.024159
5.366090 4.089901 0.030382
5.680831 4.089901 0.039685
5.995571 4.089901 0.051973
6.310312 4.089901 0.068413
6.625053 4.089901 0.090211
6.939795 4.089901 0.120714
7.254536 4.089901 0.159244
7.569277 4.089901 0.205725
7.884017 4.089901 0.266391
8.198758 4.089901 0.345678
8.513499 4.089901 0.435333
8.828240 4.089901 0.531388
9.142982 4.089901 0.640659
9.457723 4.089901 0.749831
9.772464 4.089901 0.852832
10.087205 4.089901 0.929590
10.401946 4.089901 1.006125
10.716687 4.089901 1.088614
11.031426 4.089901 1.170450
11.346168 4.089901 1.238762
11.660909 4.089901 1.312206
11.975650 4.089901 1.366436
12.290391 4.089901 1.417123
12.605132 4.089901 1.461386
12.919873 4.089901 1.482543
13.234614 4.089901 1.481480
13.549356 4.089901 1.448093
13.864097 4.089901 1.398761
14.178838 4.089901 1.375445
14.493579 4.089901 1.354259
14.808320 4.089901 1.322887
15.123059 4.089901 1.289783
15.437800 4.089901 1.304916
15.752542 4.089901 0.000000
16.067284 4.089901 0.000000
16.382023 4.089901 0.000000
16.696766 4.089901 0.000000
17.011505 4.089901 0.000000
17.326248 4.089901 0.000000
17.640987 4.089901 0.000000
17.955730 4.089901 0.000000
18.270470 4.089901 0.000000
18.585213 4.089901 0.000000
18.899952 4.089901 0.000000
-7.223550 3.775158 0.000000
-6.908809 3.775158 0.004621
-6.594068 3.775158 0.003560
-6.279327 3.775158 0.003611
-5.964586 3.775158 0.003681
-5.649845 3.775158 0.003748
-5.335104 3.775158 0.003813
-5.020363 3.775158 0.003766
-4.705622 3.775158 0.003728
-4.390881 3.775158 0.003722
-4.076140 3.775158 0.003699
-3.761399 3.775158 0.003660
-3.446658 3.775158 0.003678
-3.131917 3.775158 0.003605
-2.817176 3.775158 0.003600
-2.502435 3.775158 0.003670
-2.187694 3.775158 0.003755
-1.872953 3.775158 0.003720
-1.558212 3.775158 0.003774
-1.243471 3.775158 0.003862
-0.928730 3.775158 0.003911
-0.613989 3.775158 0.003961
-0.299248 3.775158 0.004080
0.015493 3.775158 0.004334
0.330234 3.775158 0.004529
0.644975 3.775158 0.004675
0.959716 3.775158 0.004878
1.274457 3.775158 0.005175
1.589198 3.775158 0.005596
1.903938 3.775158 0.006099
2.218679 3.775158 0.006710
2.533421 3.775158 0.007339
2.848162 3.775158 0.008045
3.162903 3.775158 0.009074
3.477644 3.775158 0.010296
3.792385 3.775158 0.011675
4.107125 3.775158 0.013616
4.421866 3.775158 0.016412
4.736608 3.775158 0.019869
5.051349 3.775158 0.024475
5.366090 3.775158 0.031121
5.680831 3.775158 0.040750
5.995571 3.775158 0.053234
6.310312 3.775158 0.070669
6.625053 3.775158 0.093774
6.939795 3.775158 0.124726
7.254536 3.775158 0.163897
7.569277 3.775158 0.209204
7.884017 3.775158 0.271931
8.198758 3.775158 0.348826
8.513499 3.775158 0.438566
8.828240 3.775158 0.545537
9.142982 3.775158 0.647124
9.457723 3.775158 0.752932
9.772464 3.775158 0.853500
10.087205 3.775158 0.929738
10.401946 3.775158 1.008771
10.716687 3.775158 1.098932
11.031426 3.775158 1.179451
11.346168 3.775158 1.254979
11.660909 3.775158 1.322741
11.975650 3.775158 1.379373
12.290391 3.775158 1.422000
12.605132 3.775158 1.465764
12.919873 3.775158 1.478151
13.234614 3.775158 1.469712
13.549356 3.775158 1.439760
13.864097 3.775158 1.400249
14.178838 3.775158 1.361228
14.493579 3.775158 1.341089
14.808320 3.775158 1.308719
15.123059 3.775158 1.282958
15.437800 3.775158 1.323536
15.752542 3.775158 0.000000
16.067284 3.775158 0.000000
16.382023 3.775158 0.000000
16.696766 3.775158 0.000000
17.011505 3.775158 0.000000
17.326248 3.775158 0.000000
17.640987 3.775158 0.000000
17.955730 3.775158 0.000000
18.270470 3.775158 0.000000
18.585213 3.775158 0.000000
18.899952 3.775158 0.000000
-7.223550 3.460419 0.000000
-6.908809 3.460419 0.004582
-6.594068 3.460419 0.003592
-6.279327 3.460419 0.003677
-5.964586 3.460419 0.003736
-5.649845 3.460419 0.003730
-5.335104 3.460419 0.003777
-5.020363 3.460419 0.003730
-4.705622 3.460419 0.003725
-4.390881 3.460419 0.003727
-4.076140 3.460419 0.003696
-3.761399 3.460419 0.003663
-3.446658 3.460419 0.003721
-3.131917 3.460419 0.003644
-2.817176 3.460419 0.003609
-2.502435 3.460419 0.003696
-2.187694 3.460419 0.003792
-1.872953 3.460419 0.003802
-1.558212 3.460419 0.003833
-1.243471 3.460419 0.003872
-0.928730 3.460419 0.003889
-0.613989 3.460419 0.003998
-0.299248 3.460419 0.004118
0.015493 3.460419 0.004360
0.330234 3.460419 0.004555
0.644975 3.460419 0.004699
0.959716 3.460419 0.004904
1.274457 3.460419 0.005222
1.589198 3.460419 0.005621
1.903938 3.460419 0.006111
2.218679 3.460419 0.006688
2.533421 3.460419 0.007311
2.848162 3.460419 0.008085
3.162903 3.460419 0.009135
3.477644 3.460419 0.010366
3.792385 3.460419 0.011762
4.107125 3.460419 0.013840
4.421866 3.460419 0.016701
4.736608 3.460419 0.020153
5.051349 3.460419 0.024766
5.366090 3.460419 0.031640
5.680831 3.460419 0.041705
5.995571 3.460419 0.054091
6.310312 3.460419 0.071021
6.625053 3.460419 0.095706
6.939795 3.460419 0.126351
7.254536 3.460419 0.164720
7.569277 3.460419 0.214864
7.884017 3.460419 0.277815
8.198758 3.460419 0.357860
8.513499 3.460419 0.454166
8.828240 3.460419 0.553184
9.142982 3.460419 0.651485
9.457723 3.460419 0.753860
9.772464 3.460419 0.849114
10.087205 3.460419 0.938405
10.401946 3.460419 1.020189
10.716687 3.460419 1.104599
11.031426 3.460419 1.192411
11.346168 3.460419 1.271988
11.660909 3.460419 1.333335
11.975650 3.460419 1.380983
12.290391 3.460419 1.417152
12.605132 3.460419 1.455820
12.919873 3.460419 1.480131
13.234614 3.460419 1.470722
13.549356 3.460419 1.423358
13.864097 3.460419 1.388371
14.178838 3.460419 1.348006
14.493579 3.460419 1.307914
14.808320 3.460419 1.278260
15.123059 3.460419 1.262625
15.437800 3.460419 1.264463
15.752542 3.460419 0.000000
16.067284 3.460419 0.000000
16.382023 3.460419 0.000000
16.696766 3.460419 0.000000
17.011505 3.460419 0.000000
17.326248 3.460419 0.000000
17.640987 3.460419 0.000000
17.955730 3.460419 0.000000
18.270470 3.460419 0.000000
18.585213 3.460419 0.000000
18.899952 3.460419 0.000000
-7.223550 3.145676 0.000000
-6.908809 3.145676 0.004603
-6.594068 3.145676 0.003651
-6.279327 3.145676 0.003737
-5.964586 3.145676 0.003746
-5.649845 3.145676 0.003689
-5.335104 3.145676 0.003663
-5.020363 3.145676 0.003659
-4.705622 3.145676 0.003705
-4.390881 3.145676 0.003696
-4.076140 3.145676 0.003632
-3.761399 3.145676 0.003613
-3.446658 3.145676 0.003715
-3.131917 3.145676 0.003684
-2.817176 3.145676 0.003614
-2.502435 3.145676 0.003698
-2.187694 3.145676 0.003784
-1.872953 3.145676 0.003815
-1.558212 3.145676 0.003872
-1.243471 3.145676 0.003926
-0.928730 3.145676 0.003948
-0.613989 3.145676 0.004082
-0.299248 3.145676 0.004198
0.015493 3.145676 0.004402
0.330234 3.145676 0.004577
0.644975 3.145676 0.004734
0.959716 3.145676 0.004978
1.274457 3.145676 0.005286
1.589198 3.145676 0.005648
1.903938 3.145676 0.006072
2.218679 3.145676 0.006635
2.533421 3.145676 0.007322
2.848162 3.145676 0.008185
3.162903 3.145676 0.009168
3.477644 3.145676 0.010357
3.792385 3.145676 0.011949
4.107125 3.145676 0.014251
4.421866 3.145676 0.017062
4.736608 3.145676 0.020323
5.051349 3.145676 0.025069
5.366090 3.145676 0.032238
5.680831 3.145676 0.042055
5.995571 3.145676 0.054285
6.310312 3.145676 0.071807
6.625053 3.145676 0.096892
6.939795 3.145676 0.128397
7.254536 3.145676 0.167648
7.569277 3.145676 0.217310
7.884017 3.145676 0.282298
8.198758 3.145676 0.364617
8.513499 3.145676 0.460249
8.828240 3.145676 0.561023
9.142982 3.145676 0.665910
9.457723 3.145676 0.761873
9.772464 3.145676 0.857611
10.087205 3.145676 0.944651
10.401946 3.145676 1.034001
10.716687 3.145676 1.110708
11.031426 3.145676 1.205449
11.346168 3.145676 1.284339
11.660909 3.145676 1.340313
11.975650 3.145676 1.379505
12.290391 3.145676 1.424238
12.605132 3.145676 1.450826
12.919873 3.145676 1.471153
13.234614 3.145676 1.461994
13.549356 3.145676 1.419445
13.864097 3.145676 1.386633
14.178838 3.145676 1.340525
14.493579 3.145676 1.283027
14.808320 3.145676 1.248785
15.123059 3.145676 1.250790
15.437800 3.145676 1.058599
15.752542 3.145676 0.000000
16.067284 3.145676 0.000000
16.382023 3.145676 0.000000
16.696766 3.145676 0.000000
17.011505 3.145676 0.000000
17.326248 3.145676 0.000000
17.640987 3.145676 0.000000
17.955730 3.145676 0.000000
18.270470 3.145676 0.000000
18.585213 3.145676 0.000000
18.899952 3.145676 0.000000
-7.223550 2.830936 0.000000
-6.908809 2.830936 0.004697
-6.594068 2.830936 0.003707
-6.279327 2.830936 0.003779
-5.964586 2.830936 0.003736
-5.649845 2.830936 0.003658
-5.335104 2.830936 0.003586
-5.020363 2.830936 0.003588
-4.705622 2.830936 0.003645
-4.390881 2.830936 0.003619
-4.076140 2.830936 0.003566
-3.761399 2.830936 0.003575
-3.446658 2.830936 0.003680
-3.131917 2.830936 0.003672
-2.817176 2.830936 0.003630
-2.502435 2.830936 0.003701
-2.187694 2.830936 0.003759
-1.872953 2.830936 0.003808
-1.558212 2.830936 0.003866
-1.243471 2.830936 0.003965
-0.928730 2.830936 0.004032
-0.613989 2.830936 0.004144
-0.299248 2.830936 0.004267
0.015493 2.830936 0.004412
0.330234 2.830936 0.004583
0.644975 2.830936 0.004778
0.959716 2.830936 0.005054
1.274457 2.830936 0.005395
1.589198 2.830936 0.005723
1.903938 2.830936 0.006080
2.218679 2.830936 0.006616
2.533421 2.830936 0.007354
2.848162 2.830936 0.008278
3.162903 2.830936 0.009226
3.477644 2.830936 0.010405
3.792385 2.830936 0.012223
4.107125 2.830936 0.014727
4.421866 2.830936 0.017459
4.736608 2.830936 0.020721
5.051349 2.830936 0.025775
5.366090 2.830936 0.032678
5.680831 2.830936 0.041970
5.995571 2.830936 0.054886
6.310312 2.830936 0.072968
6.625053 2.830936 0.098783
6.939795 2.830936 0.132066
7.254536 2.830936 0.171367
7.569277 2.830936 0.222449
7.884017 2.830936 0.287250
8.198758 2.830936 0.370122
8.513499 2.830936 0.466986
8.828240 2.830936 0.564223
9.142982 2.830936 0.667890
9.457723 2.830936 0.771282
9.772464 2.830936 0.872786
10.087205 2.830936 0.955336
10.401946 2.830936 1.033747
10.716687 2.830936 1.109653
11.031426 2.830936 1.212322
11.346168 2.830936 1.288661
11.660909 2.830936 1.343894
11.975650 2.830936 1.374655
12.290391 2.830936 1.425341
12.605132 2.830936 1.443555
12.919873 2.830936 1.450839
13.234614 2.830936 1.446440
13.549356 2.830936 1.418877
13.864097 2.830936 1.375678
14.178838 2.830936 1.318727
14.493579 2.830936 1.258451
14.808320 2.830936 1.211512
15.123059 2.830936 1.240666
15.437800 2.830936 0.845442
15.752542 2.830936 0.000000
16.067284 2.830936 0.000000
16.382023 2.830936 0.000000
16.696766 2.830936 0.000000
17.011505 2.830936 0.000000
17.326248 2.830936 0.000000
17.640987 2.830936 0.000000
17.955730 2.830936 0.000000
18.270470 2.830936 0.000000
18.585213 2.830936 0.000000
18.899952 2.830936 0.000000
-7.223550 2.516193 0.000000
-6.908809 2.516193 0.004824
-6.594068 2.516193 0.003750
-6.279327 2.516193 0.003785
-5.964586 2.516193 0.003731
-5.649845 2.516193 0.003670
-5.335104 2.516193 0.003596
-5.020363 2.516193 0.003577
-4.705622 2.516193 0.003590
-4.390881 2.516193 0.003581
-4.076140 2.516193 0.003565
-3.761399 2.516193 0.003568
-3.446658 2.516193 0.003618
-3.131917 2.516193 0.003632
-2.817176 2.516193 0.003650
-2.502435 2.516193 0.003716
-2.187694 2.516193 0.003761
-1.872953 2.516193 0.003801
-1.558212 2.516193 0.003844
-1.243471 2.516193 0.003979
-0.928730 2.516193 0.004074
-0.613989 2.516193 0.004165
-0.299248 2.516193 0.004293
0.015493 2.516193 0.004425
0.330234 2.516193 0.004596
0.644975 2.516193 0.004803
0.959716 2.516193 0.005105
1.274457 2.516193 0.005471
1.589198 2.516193 0.005792
1.903938 2.516193 0.006127
2.218679 2.516193 0.006608
2.533421 2.516193 0.007389
2.848162 2.516193 0.008361
3.162903 2.516193 0.009313
3.477644 2.516193 0.010572
3.792385 2.516193 0.012503
4.107125 2.516193 0.015045
4.421866 2.516193 0.017845
4.736608 2.516193 0.021278
5.051349 2.516193 0.026511
5.366090 2.516193 0.033379
5.680831 2.516193 0.042528
5.995571 2.516193 0.056176
6.310312 2.516193 0.075359
6.625053 2.516193 0.102666
6.939795 2.516193 0.135985
7.254536 2.516193 0.179125
7.569277 2.516193 0.230655
7.884017 2.516193 0.297651
8.198758 2.516193 0.378974
8.513499 2.516193 0.478854
8.828240 2.516193 0.576563
9.142982 2.516193 0.678465
9.457723 2.516193 0.781668
9.772464 2.516193 0.879695
10.087205 2.516193 0.962496
10.401946 2.516193 1.037648
10.716687 2.516193 1.109570
11.031426 2.516193 1.209496
11.346168 2.516193 1.278704
11.660909 2.516193 1.356993
11.975650 2.516193 1.394663
12.290391 2.516193 1.418887
12.605132 2.516193 1.456895
12.919873 2.516193 1.452826
13.234614 2.516193 1.445543
13.549356 2.516193 1.416632
13.864097 2.516193 1.381085
14.178838 2.516193 1.314809
14.493579 2.516193 1.224683
14.808320 2.516193 1.173834
15.123059 2.516193 1.229223
15.437800 2.516193 0.000000
15.752542 2.516193 0.000000
16.067284 2.516193 0.000000
16.382023 2.516193 0.000000
16.696766 2.516193 0.000000
17.011505 2.516193 0.000000
17.326248 2.516193 0.000000
17.640987 2.516193 0.000000
17.955730 2.516193 0.000000
18.270470 2.516193 0.000000
18.585213 2.516193 0.000000
18.899952 2.516193 0.000000
-7.223550 2.201454 0.000000
-6.908809 2.201454 0.004867
-6.594068 2.201454 0.003751
-6.279327 2.201454 0.003768
-5.964586 2.201454 0.003735
-5.649845 2.201454 0.003687
-5.335104 2.201454 0.003664
-5.020363 2.201454 0.003631
-4.705622 2.201454 0.003584
-4.390881 2.201454 0.003588
-4.076140 2.201454 0.003631
-3.761399 2.201454 0.003620
-3.446658 2.201454 0.003611
-3.131917 2.201454 0.003605
-2.817176 2.201454 0.003666
-2.502435 2.201454 0.003747
-2.187694 2.201454 0.003811
-1.872953 2.201454 0.003830
-1.558212 2.201454 0.003833
-1.243471 2.201454 0.003926
-0.928730 2.201454 0.004050
-0.613989 2.201454 0.004168
-0.299248 2.201454 0.004292
0.015493 2.201454 0.004455
0.330234 2.201454 0.004630
0.644975 2.201454 0.004802
0.959716 2.201454 0.005100
1.274457 2.201454 0.005519
1.589198 2.201454 0.005838
1.903938 2.201454 0.006186
2.218679 2.201454 0.006670
2.533421 2.201454 0.007435
2.848162 2.201454 0.008410
3.162903 2.201454 0.009411
3.477644 2.201454 0.010745
3.792385 2.201454 0.012712
4.107125 2.201454 0.015204
4.421866 2.201454 0.018082
4.736608 2.201454 0.021809
5.051349 2.201454 0.027229
5.366090 2.201454 0.034207
5.680831 2.201454 0.043850
5.995571 2.201454 0.057991
6.310312 2.201454 0.078267
6.625053 2.201454 0.104631
6.939795 2.201454 0.139250
7.254536 2.201454 0.181199
7.569277 2.201454 0.233199
7.884017 2.201454 0.303843
8.198758 2.201454 0.385521
8.513499 2.201454 0.482070
8.828240 2.201454 0.582611
9.142982 2.201454 0.688538
9.457723 2.201454 0.789208
9.772464 2.201454 0.889865
10.087205 2.201454 0.967982
10.401946 2.201454 1.038252
10.716687 2.201454 1.114043
11.031426 2.201454 1.192304
11.346168 2.201454 1.276387
11.660909 2.201454 1.343611
11.975650 2.201454 1.390507
12.290391 2.201454 1.420491
12.605132 2.201454 1.450220
12.919873 2.201454 1.449685
13.234614 2.201454 1.445714
13.549356 2.201454 1.412619
13.864097 2.201454 1.372209
14.178838 2.201454 1.292405
14.493579 2.201454 1.203604
14.808320 2.201454 1.145022
15.123059 2.201454 1.198536
15.437800 2.201454 0.000000
15.752542 2.201454 0.000000
16.067284 2.201454 0.000000
16.382023 2.201454 0.000000
16.696766 2.201454 0.000000
17.011505 2.201454 0.000000
17.326248 2.201454 0.000000
17.640987 2.201454 0.000000
17.955730 2.201454 0.000000
18.270470 2.201454 0.000000
18.585213 2.201454 0.000000
18.899952 2.201454 0.000000
-7.223550 1.886711 0.000000
-6.908809 1.886711 0.004848
-6.594068 1.886711 0.003744
-6.279327 1.886711 0.003768
-5.964586 1.886711 0.003745
-5.649845 1.886711 0.003710
-5.335104 1.886711 0.003708
-5.020363 1.886711 0.003708
-4.705622 1.886711 0.003631
-4.390881 1.886711 0.003656
-4.076140 1.886711 0.003713
-3.761399 1.886711 0.003682
-3.446658 1.886711 0.003659
-3.131917 1.886711 0.003623
-2.817176 1.886711 0.003700
-2.502435 1.886711 0.003797
-2.187694 1.886711 0.003861
-1.872953 1.886711 0.003857
-1.558212 1.886711 0.003851
-1.243471 1.886711 0.003876
-0.928730 1.886711 0.003991
-0.613989 1.886711 0.004171
-0.299248 1.886711 0.004252
0.015493 1.886711 0.004472
0.330234 1.886711 0.004678
0.644975 1.886711 0.004795
0.959716 1.886711 0.005090
1.274457 1.886711 0.005522
1.589198 1.886711 0.005853
1.903938 1.886711 0.006236
2.218679 1.886711 0.006777
2.533421 1.886711 0.007524
2.848162 1.886711 0.008420
3.162903 1.886711 0.009524
3.477644 1.886711 0.010947
3.792385 1.886711 0.012882
4.107125 1.886711 0.015213
4.421866 1.886711 0.018210
4.736608 1.886711 0.022426
5.051349 1.886711 0.028108
5.366090 1.886711 0.035136
5.680831 1.886711 0.045526
5.995571 1.886711 0.059869
6.310312 1.886711 0.080644
6.625053 1.886711 0.107028
6.939795 1.886711 0.141127
7.254536 1.886711 0.181915
7.569277 1.886711 0.236462
7.884017 1.886711 0.306951
8.198758 1.886711 0.391233
8.513499 1.886711 0.486562
8.828240 1.886711 0.591213
9.142982 1.886711 0.693515
9.457723 1.886711 0.802505
9.772464 1.886711 0.897679
10.087205 1.886711 0.973167
10.401946 1.886711 1.046052
10.716687 1.886711 1.118649
11.031426 1.886711 1.199311
11.346168 1.886711 1.272988
11.660909 1.886711 1.337558
11.975650 1.886711 1.385085
12.290391 1.886711 1.420961
12.605132 1.886711 1.440512
12.919873 1.886711 1.448553
13.234614 1.886711 1.448049
13.549356 1.886711 1.415898
13.864097 1.886711 1.349319
14.178838 1.886711 1.291315
14.493579 1.886711 1.192216
14.808320 1.886711 1.146734
15.123059 1.886711 1.099744
15.437800 1.886711 0.000000
15.752542 1.886711 0.000000
16.067284 1.886711 0.000000
16.382023 1.886711 0.000000
16.696766 1.886711 0.000000
17.011505 1.886711 0.000000
17.326248 1.886711 0.000000
17.640987 1.886711 0.000000
17.955730 1.886711 0.000000
18.270470 1.886711 0.000000
18.585213 1.886711 0.000000
18.899952 1.886711 0.000000
-7.223550 1.571972 0.000000
-6.908809 1.571972 0.004735
-6.594068 1.571972 0.003728
-6.279327 1.571972 0.003762
-5.964586 1.571972 0.003742
-5.649845 1.571972 0.003692
-5.335104 1.571972 0.003725
-5.020363 1.571972 0.003764
-4.705622 1.571972 0.003711
-4.390881 1.571972 0.003734
-4.076140 1.571972 0.003765
-3.761399 1.571972 0.003739
-3.446658 1.571972 0.003726
-3.131917 1.571972 0.003653
-2.817176 1.571972 0.003719
-2.502435 1.571972 0.003829
-2.187694 1.571972 0.003866
-1.872953 1.571972 0.003874
-1.558212 1.571972 0.003870
-1.243471 1.571972 0.003844
-0.928730 1.571972 0.003949
-0.613989 1.571972 0.004141
-0.299248 1.571972 0.004219
0.015493 1.571972 0.004461
0.330234 1.571972 0.004712
0.644975 1.571972 0.004843
0.959716 1.571972 0.005110
1.274457 1.571972 0.005485
1.589198 1.571972 0.005833
1.903938 1.571972 0.006308
2.218679 1.571972 0.006892
2.533421 1.571972 0.007586
2.848162 1.571972 0.008484
3.162903 1.571972 0.009612
3.477644 1.571972 0.011075
3.792385 1.571972 0.012903
4.107125 1.571972 0.015190
4.421866 1.571972 0.018373
4.736608 1.571972 0.022693
5.051349 1.571972 0.028479
5.366090 1.571972 0.035480
5.680831 1.571972 0.045886
5.995571 1.571972 0.060805
6.310312 1.571972 0.081897
6.625053 1.571972 0.108531
6.939795 1.571972 0.143284
7.254536 1.571972 0.186258
7.569277 1.571972 0.242358
7.884017 1.571972 0.310091
8.198758 1.571972 0.399410
8.513499 1.571972 0.496000
8.828240 1.571972 0.599014
9.142982 1.571972 0.707767
9.457723 1.571972 0.807636
9.772464 1.571972 0.908197
10.087205 1.571972 0.979710
10.401946 1.571972 1.052364
10.716687 1.571972 1.124898
11.031426 1.571972 1.207403
11.346168 1.571972 1.269016
11.660909 1.571972 1.319826
11.975650 1.571972 1.371874
12.290391 1.571972 1.415125
12.605132 1.571972 1.426992
12.919873 1.571972 1.429389
13.234614 1.571972 1.424063
13.549356 1.571972 1.392570
13.864097 1.571972 1.338006
14.178838 1.571972 1.256007
14.493579 1.571972 1.183504
14.808320 1.571972 1.166583
15.123059 1.571972 0.584874
15.437800 1.571972 0.000000
15.752542 1.571972 0.000000
16.067284 1.571972 0.000000
16.382023 1.571972 0.000000
16.696766 1.571972 0.000000
17.011505 1.571972 0.000000
17.326248 1.571972 0.000000
17.640987 1.571972 0.000000
17.955730 1.571972 0.000000
18.270470 1.571972 0.000000
18.585213 1.571972 0.000000
18.899952 1.571972 0.000000
-7.223550 1.257229 0.000000
-6.908809 1.257229 0.004635
-6.594068 1.257229 0.003682
-6.279327 1.257229 0.003747
-5.964586 1.257229 0.003702
-5.649845 1.257229 0.003655
-5.335104 1.257229 0.003702
-5.020363 1.257229 0.003786
-4.705622 1.257229 0.003774
-4.390881 1.257229 0.003772
-4.076140 1.257229 0.003757
-3.761399 1.257229 0.003747
-3.446658 1.257229 0.003767
-3.131917 1.257229 0.003693
-2.817176 1.257229 0.003707
-2.502435 1.257229 0.003787
-2.187694 1.257229 0.003823
-1.872953 1.257229 0.003881
-1.558212 1.257229 0.003887
-1.243471 1.257229 0.003832
-0.928730 1.257229 0.003938
-0.613989 1.257229 0.004125
-0.299248 1.257229 0.004191
0.015493 1.257229 0.004426
0.330234 1.257229 0.004696
0.644975 1.257229 0.004910
0.959716 1.257229 0.005164
1.274457 1.257229 0.005418
1.589198 1.257229 0.005832
1.903938 1.257229 0.006371
2.218679 1.257229 0.007007
2.533421 1.257229 0.007689
2.848162 1.257229 0.008549
3.162903 1.257229 0.009703
3.477644 1.257229 0.011223
3.792385 1.257229 0.012922
4.107125 1.257229 0.015224
4.421866 1.257229 0.018454
4.736608 1.257229 0.022653
5.051349 1.257229 0.028070
5.366090 1.257229 0.035230
5.680831 1.257229 0.046012
5.995571 1.257229 0.061595
6.310312 1.257229 0.081844
6.625053 1.257229 0.109398
6.939795 1.257229 0.145872
7.254536 1.257229 0.191476
7.569277 1.257229 0.247501
7.884017 1.257229 0.320442
8.198758 1.257229 0.408879
8.513499 1.257229 0.508330
8.828240 1.257229 0.610199
9.142982 1.257229 0.716022
9.457723 1.257229 0.816670
9.772464 1.257229 0.914511
10.087205 1.257229 0.994795
10.401946 1.257229 1.065281
10.716687 1.257229 1.143328
11.031426 1.257229 1.219487
11.346168 1.257229 1.268953
11.660909 1.257229 1.311504
11.975650 1.257229 1.356918
12.290391 1.257229 1.403293
12.605132 1.257229 1.417088
12.919873 1.257229 1.405877
13.234614 1.257229 1.385215
13.549356 1.257229 1.368001
13.864097 1.257229 1.317019
14.178838 1.257229 1.231984
14.493579 1.257229 1.171642
14.808320 1.257229 1.195302
15.123059 1.257229 0.000000
15.437800 1.257229 0.000000
15.752542 1.257229 0.000000
16.067284 1.257229 0.000000
16.382023 1.257229 0.000000
16.696766 1.257229 0.000000
17.011505 1.257229 0.000000
17.326248 1.257229 0.000000
17.640987 1.257229 0.000000
17.955730 1.257229 0.000000
18.270470 1.257229 0.000000
18.585213 1.257229 0.000000
18.899952 1.257229 0.000000
-7.223550 0.942490 0.000000
-6.908809 0.942490 0.004499
-6.594068 0.942490 0.003633
-6.279327 0.942490 0.003693
-5.964586 0.942490 0.003655
-5.649845 0.942490 0.003602
-5.335104 0.942490 0.003666
-5.020363 0.942490 0.003764
-4.705622 0.942490 0.003777
-4.390881 0.942490 0.003755
-4.076140 0.942490 0.003696
-3.761399 0.942490 0.003700
-3.446658 0.942490 0.003758
-3.131917 0.942490 0.003698
-2.817176 0.942490 0.003651
-2.502435 0.942490 0.003664
-2.187694 0.942490 0.003746
-1.872953 0.942490 0.003877
-1.558212 0.942490 0.003876
-1.243471 0.942490 0.003851
-0.928730 0.942490 0.003966
-0.613989 0.942490 0.004100
-0.299248 0.942490 0.004195
0.015493 0.942490 0.004406
0.330234 0.942490 0.004689
0.644975 0.942490 0.004956
0.959716 0.942490 0.005184
1.274457 0.942490 0.005368
1.589198 0.942490 0.005837
1.903938 0.942490 0.006441
2.218679 0.942490 0.007086
2.533421 0.942490 0.007759
2.848162 0.942490 0.008638
3.162903 0.942490 0.009856
3.477644 0.942490 0.011331
3.792385 0.942490 0.012950
4.107125 0.942490 0.015264
4.421866 0.942490 0.018567
4.736608 0.942490 0.022562
5.051349 0.942490 0.027826
5.366090 0.942490 0.035069
5.680831 0.942490 0.046325
5.995571 0.942490 0.061885
6.310312 0.942490 0.082837
6.625053 0.942490 0.110084
6.939795 0.942490 0.149850
7.254536 0.942490 0.195090
7.569277 0.942490 0.255689
7.884017 0.942490 0.327234
8.198758 0.942490 0.416334
8.513499 0.942490 0.521359
8.828240 0.942490 0.618561
9.142982 0.942490 0.720626
9.457723 0.942490 0.826723
9.772464 0.942490 0.924601
10.087205 0.942490 1.008683
10.401946 0.942490 1.080186
10.716687 0.942490 1.158372
11.031426 0.942490 1.230881
11.346168 0.942490 1.273537
11.660909 0.942490 1.305046
11.975650 0.942490 1.359316
12.290391 0.942490 1.394214
12.605132 0.942490 1.416035
12.919873 0.942490 1.399292
13.234614 0.942490 1.370860
13.549356 0.942490 1.339427
13.864097 0.942490 1.296456
14.178838 0.942490 1.229518
14.493579 0.942490 1.160649
14.808320 0.942490 1.224946
15.123059 0.942490 0.000000
15.437800 0.942490 0.000000
15.752542 0.942490 0.000000
16.067284 0.942490 0.000000
16.382023 0.942490 0.000000
16.696766 0.942490 0.000000
17.011505 0.942490 0.000000
17.326248 0.942490 0.000000
17.640987 0.942490 0.000000
17.955730 0.942490 0.000000
18.270470 0.942490 0.000000
18.585213 0.942490 0.000000
18.899952 0.942490 0.000000
-7.223550 0.627750 0.000000
-6.908809 0.627750 0.004617
-6.594068 0.627750 0.003740
-6.279327 0.627750 0.003783
-5.964586 0.627750 0.003710
-5.649845 0.627750 0.003629
-5.335104 0.627750 0.003693
-5.020363 0.627750 0.003785
-4.705622 0.627750 0.003816
-4.390881 0.627750 0.003773
-4.076140 0.627750 0.003717
-3.761399 0.627750 0.003707
-3.446658 0.627750 0.003762
-3.131917 0.627750 0.003725
-2.817176 0.627750 0.003661
-2.502435 0.627750 0.003624
-2.187694 0.627750 0.003754
-1.872953 0.627750 0.003957
-1.558212 0.627750 0.003932
-1.243471 0.627750 0.003941
-0.928730 0.627750 0.004048
-0.613989 0.627750 0.004139
-0.299248 0.627750 0.004281
0.015493 0.627750 0.004483
0.330234 0.627750 0.004731
0.644975 0.627750 0.004981
0.959716 0.627750 0.005179
1.274457 0.627750 0.005348
1.589198 0.627750 0.005844
1.903938 0.627750 0.006486
2.218679 0.627750 0.007121
2.533421 0.627750 0.007835
2.848162 0.627750 0.008840
3.162903 0.627750 0.010062
3.477644 0.627750 0.011400
3.792385 0.627750 0.013004
4.107125 0.627750 0.015414
4.421866 0.627750 0.018690
4.736608 0.627750 0.022633
5.051349 0.627750 0.028034
5.366090 0.627750 0.035917
5.680831 0.627750 0.047991
5.995571 0.627750 0.064068
6.310312 0.627750 0.085447
6.625053 0.627750 0.111944
6.939795 0.627750 0.152527
7.254536 0.627750 0.202212
7.569277 0.627750 0.262054
7.884017 0.627750 0.334436
8.198758 0.627750 0.424814
8.513499 0.627750 0.527533
8.828240 0.627750 0.634541
9.142982 0.627750 0.736487
9.457723 0.627750 0.826472
9.772464 0.627750 0.926840
10.087205 0.627750 1.010077
10.401946 0.627750 1.088528
10.716687 0.627750 1.168211
11.031426 0.627750 1.239749
11.346168 0.627750 1.287346
11.660909 0.627750 1.318821
11.975650 0.627750 1.356487
12.290391 0.627750 1.382218
12.605132 0.627750 1.417538
12.919873 0.627750 1.405874
13.234614 0.627750 1.374345
13.549356 0.627750 1.326860
13.864097 0.627750 1.279882
14.178838 0.627750 1.207639
14.493579 0.627750 1.177837
14.808320 0.627750 1.157260
15.123059 0.627750 0.000000
15.437800 0.627750 0.000000
15.752542 0.627750 0.000000
16.067284 0.627750 0.000000
16.382023 0.627750 0.000000
16.696766 0.627750 0.000000
17.011505 0.627750 0.000000
17.326248 0.627750 0.000000
17.640987 0.627750 0.000000
17.955730 0.627750 0.000000
18.270470 0.627750 0.000000
18.585213 0.627750 0.000000
18.899952 0.627750 0.000000
-7.223550 0.313007 0.000000
-6.908809 0.313007 0.004982
-6.594068 0.313007 0.004266
-6.279327 0.313007 0.004273
-5.964586 0.313007 0.004099
-5.649845 0.313007 0.003970
-5.335104 0.313007 0.004025
-5.020363 0.313007 0.004098
-4.705622 0.313007 0.004115
-4.390881 0.313007 0.004066
-4.076140 0.313007 0.004018
-3.761399 0.313007 0.003977
-3.446658 0.313007 0.003987
-3.131917 0.313007 0.003990
-2.817176 0.313007 0.003942
-2.502435 0.313007 0.003900
-2.187694 0.313007 0.004044
-1.872953 0.313007 0.004251
-1.558212 0.313007 0.004201
-1.243471 0.313007 0.004197
-0.928730 0.313007 0.004297
-0.613989 0.313007 0.004409
-0.299248 0.313007 0.004601
0.015493 0.313007 0.004789
0.330234 0.313007 0.004990
0.644975 0.313007 0.005148
0.959716 0.313007 0.005310
1.274457 0.313007 0.005543
1.589198 0.313007 0.006066
1.903938 0.313007 0.006695
2.218679 0.313007 0.007253
2.533421 0.313007 0.008094
2.848162 0.313007 0.009268
3.162903 0.313007 0.010445
3.477644 0.313007 0.011636
3.792385 0.313007 0.013235
4.107125 0.313007 0.015860
4.421866 0.313007 0.019215
4.736608 0.313007 0.023168
5.051349 0.313007 0.028982
5.366090 0.313007 0.037829
5.680831 0.313007 0.049756
5.995571 0.313007 0.066200
6.310312 0.313007 0.089061
6.625053 0.313007 0.118498
6.939795 0.313007 0.158540
7.254536 0.313007 0.208695
7.569277 0.313007 0.272385
7.884017 0.313007 0.348257
8.198758 0.313007 0.445087
8.513499 0.313007 0.548045
8.828240 0.313007 0.663785
9.142982 0.313007 0.757993
9.457723 0.313007 0.855115
9.772464 0.313007 0.954877
10.087205 0.313007 1.035734
10.401946 0.313007 1.114354
10.716687 0.313007 1.182065
11.031426 0.313007 1.255483
11.346168 0.313007 1.301684
11.660909 0.313007 1.347402
11.975650 0.313007 1.372042
12.290391 0.313007 1.398185
12.605132 0.313007 1.427321
12.919873 0.313007 1.431488
13.234614 0.313007 1.389302
13.549356 0.313007 1.340156
13.864097 0.313007 1.284021
14.178838 0.313007 1.205815
14.493579 0.313007 1.210774
14.808320 0.313007 0.668447
15.123059 0.313007 0.000000
15.437800 0.313007 0.000000
15.752542 0.313007 0.000000
16.067284 0.313007 0.000000
16.382023 0.313007 0.000000
16.696766 0.313007 0.000000
17.011505 0.313007 0.000000
17.326248 0.313007 0.000000
17.640987 0.313007 0.000000
17.955730 0.313007 0.000000
18.270470 0.313007 0.000000
18.585213 0.313007 0.000000
18.899952 0.313007 0.000000
-7.223550 -0.001732 0.000000
-6.908809 -0.001732 0.004333
-6.594068 -0.001732 0.005259
-6.279327 -0.001732 0.005439
-5.964586 -0.001732 0.005161
-5.649845 -0.001732 0.004893
-5.335104 -0.001732 0.004971
-5.020363 -0.001732 0.005022
-4.705622 -0.001732 0.004998
-4.390881 -0.001732 0.004897
-4.076140 -0.001732 0.004857
-3.761399 -0.001732 0.004770
-3.446658 -0.001732 0.004712
-3.131917 -0.001732 0.004745
-2.817176 -0.001732 0.004707
-2.502435 -0.001732 0.004642
-2.187694 -0.001732 0.004793
-1.872953 -0.001732 0.004971
-1.558212 -0.001732 0.004930
-1.243471 -0.001732 0.004842
-0.928730 -0.001732 0.004935
-0.613989 -0.001732 0.005144
-0.299248 -0.001732 0.005391
0.015493 -0.001732 0.005552
0.330234 -0.001732 0.005686
0.644975 -0.001732 0.005741
0.959716 -0.001732 0.005919
1.274457 -0.001732 0.006205
1.589198 -0.001732 0.006753
1.903938 -0.001732 0.007373
2.218679 -0.001732 0.007865
2.533421 -0.001732 0.008778
2.848162 -0.001732 0.010081
3.162903 -0.001732 0.011265
3.477644 -0.001732 0.012359
3.792385 -0.001732 0.014074
4.107125 -0.001732 0.016797
4.421866 -0.001732 0.020411
4.736608 -0.001732 0.024717
5.051349 -0.001732 0.030824
5.366090 -0.001732 0.040138
5.680831 -0.001732 0.053408
5.995571 -0.001732 0.071185
6.310312 -0.001732 0.095276
6.625053 -0.001732 0.126115
6.939795 -0.001732 0.169614
7.254536 -0.001732 0.223410
7.569277 -0.001732 0.294301
7.884017 -0.001732 0.378665
8.198758 -0.001732 0.483313
8.513499 -0.001732 0.591582
8.828240 -0.001732 0.716591
9.142982 -0.001732 0.823373
9.457723 -0.001732 0.910265
9.772464 -0.001732 1.010242
10.087205 -0.001732 1.093077
10.401946 -0.001732 1.164733
10.716687 -0.001732 1.245451
11.031426 -0.001732 1.309692
11.346168 -0.001732 1.357301
11.660909 -0.001732 1.408507
11.975650 -0.001732 1.439800
12.290391 -0.001732 1.466978
12.605132 -0.001732 1.503592
12.919873 -0.001732 1.477950
13.234614 -0.001732 1.468510
13.549356 -0.001732 1.409070
13.864097 -0.001732 1.329996
14.178838 -0.001732 1.256867
14.493579 -0.001732 1.263300
14.808320 -0.001732 0.000000
15.123059 -0.001732 0.000000
15.437800 -0.001732 0.000000
15.752542 -0.001732 0.000000
16.067284 -0.001732 0.000000
16.382023 -0.001732 0.000000
16.696766 -0.001732 0.000000
17.011505 -0.001732 0.000000
17.326248 -0.001732 0.000000
17.640987 -0.001732 0.000000
17.955730 -0.001732 0.000000
18.270470 -0.001732 0.000000
18.585213 -0.001732 0.000000
18.899952 -0.001732 0.000000
-7.223550 -0.316475 0.000000
-6.908809 -0.316475 0.000000
-6.594068 -0.316475 0.000000
-6.279327 -0.316475 0.000000
-5.964586 -0.316475 0.000000
-5.649845 -0.316475 0.000000
-5.335104 -0.316475 0.000000
-5.020363 -0.316475 0.000000
-4.705622 -0.316475 0.000000
-4.390881 -0.316475 0.000000
-4.076140 -0.316475 0.000000
-3.761399 -0.316475 0.000000
-3.446658 -0.316475 0.000000
-3.131917 -0.316475 0.000000
-2.817176 -0.316475 0.000000
-2.502435 -0.316475 0.000000
-2.187694 -0.316475 0.000000
-1.872953 -0.316475 0.004658
-1.558212 -0.316475 0.004507
-1.243471 -0.316475 0.005068
-0.928730 -0.316475 0.005569
-0.613989 -0.316475 0.006223
-0.299248 -0.316475 0.006398
0.015493 -0.316475 0.006354
0.330234 -0.316475 0.006455
0.644975 -0.316475 0.006674
0.959716 -0.316475 0.007077
1.274457 -0.316475 0.007501
1.589198 -0.316475 0.008025
1.903938 -0.316475 0.008710
2.218679 -0.316475 0.009182
2.533421 -0.316475 0.010088
2.848162 -0.316475 0.011470
3.162903 -0.316475 0.012645
3.477644 -0.316475 0.013761
3.792385 -0.316475 0.015712
4.107125 -0.316475 0.018674
4.421866 -0.316475 0.022249
4.736608 -0.316475 0.026641
5.051349 -0.316475 0.033713
5.366090 -0.316475 0.044310
5.680831 -0.316475 0.057632
5.995571 -0.316475 0.076993
6.310312 -0.316475 0.102707
6.625053 -0.316475 0.138224
6.939795 -0.316475 0.183865
7.254536 -0.316475 0.249629
7.569277 -0.316475 0.326487
7.884017 -0.316475 0.427876
8.198758 -0.316475 0.539437
8.513499 -0.316475 0.666543
8.828240 -0.316475 0.790792
9.142982 -0.316475 0.900201
9.457723 -0.316475 1.009021
9.772464 -0.316475 1.106269
10.087205 -0.316475 1.195501
10.401946 -0.316475 1.268294
10.716687 -0.316475 1.362258
11.031426 -0.316475 1.441965
11.346168 -0.316475 1.489609
11.660909 -0.316475 1.519286
11.975650 -0.316475 1.579383
12.290391 -0.316475 1.622627
12.605132 -0.316475 1.639552
12.919873 -0.316475 1.620002
13.234614 -0.316475 1.580761
13.549356 -0.316475 1.540243
13.864097 -0.316475 1.446722
14.178838 -0.316475 1.349338
14.493579 -0.316475 1.256802
14.808320 -0.316475 0.000000
15.123059 -0.316475 0.000000
15.437800 -0.316475 0.000000
15.752542 -0.316475 0.000000
16.067284 -0.316475 0.000000
16.382023 -0.316475 0.000000
16.696766 -0.316475 0.000000
17.011505 -0.316475 0.000000
17.326248 -0.316475 0.000000
17.640987 -0.316475 0.000000
17.955730 -0.316475 0.000000
18.270470 -0.316475 0.000000
18.585213 -0.316475 0.000000
18.899952 -0.316475 0.000000
-7.223550 -0.631214 0.000000
-6.908809 -0.631214 0.000000
-6.594068 -0.631214 0.000000
-6.279327 -0.631214 0.000000
-5.964586 -0.631214 0.000000
-5.649845 -0.631214 0.000000
-5.335104 -0.631214 0.000000
-5.020363 -0.631214 0.000000
-4.705622 -0.631214 0.000000
-4.390881 -0.631214 0.000000
-4.076140 -0.631214 0.000000
-3.761399 -0.631214 0.000000
-3.446658 -0.631214 0.000000
-3.131917 -0.631214 0.000000
-2.817176 -0.631214 0.000000
-2.502435 -0.631214 0.000000
-2.187694 -0.631214 0.000000
-1.872953 -0.631214 0.000000
-1.558212 -0.631214 0.000000
-1.243471 -0.631214 0.000000
-0.928730 -0.631214 0.000000
-0.613989 -0.631214 0.000000
-0.299248 -0.631214 0.000000
0.015493 -0.631214 0.000000
0.330234 -0.631214 0.000000
0.644975 -0.631214 0.000000
0.959716 -0.631214 0.000000
1.274457 -0.631214 0.000000
1.589198 -0.631214 0.000000
1.903938 -0.631214 0.000000
2.218679 -0.631214 0.000000
2.533421 -0.631214 0.000000
2.848162 -0.631214 0.000000
3.162903 -0.631214 0.000000
3.477644 -0.631214 0.000000
3.792385 -0.631214 0.000000
4.107125 -0.631214 0.000000
4.421866 -0.631214 0.000000
4.736608 -0.631214 0.000000
5.051349 -0.631214 0.000000
5.366090 -0.631214 0.000000
5.680831 -0.631214 0.000000
5.995571 -0.631214 0.000000
6.310312 -0.631214 0.000000
6.625053 -0.631214 0.590900
6.939795 -0.631214 1.009026
7.254536 -0.631214 0.362412
7.569277 -0.631214 1.509088
7.884017 -0.631214 0.874918
8.198758 -0.631214 1.092400
8.513499 -0.631214 1.105801
8.828240 -0.631214 1.103659
9.142982 -0.631214 1.172012
9.457723 -0.631214 1.212672
9.772464 -0.631214 1.181223
10.087205 -0.631214 1.219041
10.401946 -0.631214 1.282844
10.716687 -0.631214 1.391908
11.031426 -0.631214 1.523396
11.346168 -0.631214 1.589997
11.660909 -0.631214 1.643880
11.975650 -0.631214 1.736773
12.290391 -0.631214 1.814008
12.605132 -0.631214 1.818952
12.919873 -0.631214 1.831164
13.234614 -0.631214 1.808017
13.549356 -0.631214 1.720103
13.864097 -0.631214 1.611872
14.178838 -0.631214 1.475282
14.493579 -0.631214 0.960410
14.808320 -0.631214 0.000000
15.123059 -0.631214 0.000000
15.437800 -0.631214 0.000000
15.752542 -0.631214 0.000000
16.067284 -0.631214 0.000000
16.382023 -0.631214 0.000000
16.696766 -0.631214 0.000000
17.011505 -0.631214 0.000000
17.326248 -0.631214 0.000000
17.640987 -0.631214 0.000000
17.955730 -0.631214 0.000000
18.270470 -0.631214 0.000000
18.585213 -0.631214 0.000000
18.899952 -0.631214 0.000000
-7.223550 -0.945957 0.000000
-6.908809 -0.945957 0.000000
-6.594068 -0.945957 0.000000
-6.279327 -0.945957 0.000000
-5.964586 -0.945957 0.000000
-5.649845 -0.945957 0.000000
-5.335104 -0.945957 0.000000
-5.020363 -0.945957 0.000000
-4.705622 -0.945957 0.000000
-4.390881 -0.945957 0.000000
-4.076140 -0.945957 0.000000
-3.761399 -0.945957 0.000000
-3.446658 -0.945957 0.000000
-3.131917 -0.945957 0.000000
-2.817176 -0.945957 0.000000
-2.502435 -0.945957 0.000000
-2.187694 -0.945957 0.000000
-1.872953 -0.945957 0.000000
-1.558212 -0.945957 0.000000
-1.243471 -0.945957 0.000000
-0.928730 -0.945957 0.000000
-0.613989 -0.945957 0.000000
-0.299248 -0.945957 0.000000
0.015493 -0.945957 0.000000
0.330234 -0.945957 0.000000
0.644975 -0.945957 0.000000
0.959716 -0.945957 0.000000
1.274457 -0.945957 0.000000
1.589198 -0.945957 0.000000
1.903938 -0.945957 0.000000
2.218679 -0.945957 0.000000
2.533421 -0.945957 0.000000
2.848162 -0.945957 0.000000
3.162903 -0.945957 0.000000
3.477644 -0.945957 0.000000
3.792385 -0.945957 0.000000
4.107125 -0.945957 0.000000
4.421866 -0.945957 0.000000
4.736608 -0.945957 0.000000
5.051349 -0.945957 0.000000
5.366090 -0.945957 0.000000
5.680831 -0.945957 0.000000
5.995571 -0.945957 0.000000
6.310312 -0.945957 0.000000
6.625053 -0.945957 0.000000
6.939795 -0.945957 0.000000
7.254536 -0.945957 0.000000
7.569277 -0.945957 0.000000
7.884017 -0.945957 0.000000
8.198758 -0.945957 0.000000
8.513499 -0.945957 0.000000
8.828240 -0.945957 0.000000
9.142982 -0.945957 0.000000
9.457723 -0.945957 0.000000
9.772464 -0.945957 0.450258
10.087205 -0.945957 0.303035
10.401946 -0.945957 2.854305
10.716687 -0.945957 1.243586
11.031426 -0.945957 1.893183
11.346168 -0.945957 2.005133
11.660909 -0.945957 1.692518
11.975650 -0.945957 1.586560
12.290391 -0.945957 1.574033
12.605132 -0.945957 1.546364
12.919873 -0.945957 1.599024
13.234614 -0.945957 1.532005
13.549356 -0.945957 1.462651
13.864097 -0.945957 1.365756
14.178838 -0.945957 1.232744
14.493579 -0.945957 0.548686
14.808320 -0.945957 0.000000
15.123059 -0.945957 0.000000
15.437800 -0.945957 0.000000
15.752542 -0.945957 0.000000
16.067284 -0.945957 0.000000
16.382023 -0.945957 0.000000
16.696766 -0.945957 0.000000
17.011505 -0.945957 0.000000
17.326248 -0.945957 0.000000
17.640987 -0.945957 0.000000
17.955730 -0.945957 0.000000
18.270470 -0.945957 0.000000
18.585213 -0.945957 0.000000
18.899952 -0.945957 0.000000
-7.223550 -1.260696 0.000000
-6.908809 -1.260696 0.000000
-6.594068 -1.260696 0.000000
-6.279327 -1.260696 0.000000
-5.964586 -1.260696 0.000000
-5.649845 -1.260696 0.000000
-5.335104 -1.260696 0.000000
-5.020363 -1.260696 0.000000
-4.705622 -1.260696 0.000000
-4.390881 -1.260696 0.000000
-4.076140 -1.260696 0.000000
-3.761399 -1.260696 0.000000
-3.446658 -1.260696 0.000000
-3.131917 -1.260696 0.000000
-2.817176 -1.260696 0.000000
-2.502435 -1.260696 0.000000
-2.187694 -1.260696 0.000000
-1.872953 -1.260696 0.000000
-1.558212 -1.260696 0.000000
-1.243471 -1.260696 0.000000
-0.928730 -1.260696 0.000000
-0.613989 -1.260696 0.000000
-0.299248 -1.260696 0.000000
0.015493 -1.260696 0.000000
0.330234 -1.260696 0.000000
0.644975 -1.260696 0.000000
0.959716 -1.260696 0.000000
1.274457 -1.260696 0.000000
1.589198 -1.260696 0.000000
1.903938 -1.260696 0.000000
2.218679 -1.260696 0.000000
2.533421 -1.260696 0.000000
2.848162 -1.260696 0.000000
3.162903 -1.260696 0.000000
3.477644 -1.260696 0.000000
3.792385 -1.260696 0.000000
4.107125 -1.260696 0.000000
4.421866 -1.260696 0.000000
4.736608 -1.260696 0.000000
5.051349 -1.260696 0.000000
5.366090 -1.260696 0.000000
5.680831 -1.260696 0.000000
5.995571 -1.260696 0.000000
6.310312 -1.260696 0.000000
6.625053 -1.260696 0.000000
6.939795 -1.260696 0.000000
7.254536 -1.260696 0.000000
7.569277 -1.260696 0.000000
7.884017 -1.260696 0.000000
8.198758 -1.260696 0.000000
8.513499 -1.260696 0.000000
8.828240 -1.260696 0.000000
9.142982 -1.260696 0.000000
9.457723 -1.260696 0.000000
9.772464 -1.260696 0.000000
10.087205 -1.260696 0.000000
10.401946 -1.260696 0.000000
10.716687 -1.260696 0.000000
11.031426 -1.260696 0.000000
11.346168 -1.260696 0.000000
11.660909 -1.260696 0.000000
11.975650 -1.260696 0.000000
12.290391 -1.260696 0.000000
12.605132 -1.260696 0.000000
12.919873 -1.260696 0.000000
13.234614 -1.260696 0.000000
13.549356 -1.260696 0.975127
13.864097 -1.260696 2.318234
14.178838 -1.260696 2.823498
14.493579 -1.260696 0.000000
14.808320 -1.260696 0.000000
15.123059 -1.260696 0.000000
15.437800 -1.260696 0.000000
15.752542 -1.260696 0.000000
16.067284 -1.260696 0.000000
16.382023 -1.260696 0.000000
16.696766 -1.260696 0.000000
17.011505 -1.260696 0.000000
17.326248 -1.260696 0.000000
17.640987 -1.260696 0.000000
17.955730 -1.260696 0.000000
18.270470 -1.260696 0.000000
18.585213 -1.260696 0.000000
18.899952 -1.260696 0.000000
-7.223550 -1.575439 0.000000
-6.908809 -1.575439 0.000000
-6.594068 -1.575439 0.000000
-6.279327 -1.575439 0.000000
-5.964586 -1.575439 0.000000
-5.649845 -1.575439 0.000000
-5.335104 -1.575439 0.000000
-5.020363 -1.575439 0.000000
-4.705622 -1.575439 0.000000
-4.390881 -1.575439 0.000000
-4.076140 -1.575439 0.000000
-3.761399 -1.575439 0.000000
-3.446658 -1.575439 0.000000
-3.131917 -1.575439 0.000000
-2.817176 -1.575439 0.000000
-2.502435 -1.575439 0.000000
-2.187694 -1.575439 0.000000
-1.872953 -1.575439 0.000000
-1.558212 -1.575439 0.000000
-1.243471 -1.575439 0.000000
-0.928730 -1.575439 0.000000
-0.613989 -1.575439 0.000000
-0.299248 -1.575439 0.000000
0.015493 -1.575439 0.000000
0.330234 -1.575439 0.000000
0.644975 -1.575439 0.000000
0.959716 -1.575439 0.000000
1.274457 -1.575439 0.000000
1.589198 -1.575439 0.000000
1.903938 -1.575439 0.000000
2.218679 -1.575439 0.000000
2.533421 -1.575439 0.000000
2.848162 -1.575439 0.000000
3.162903 -1.575439 0.000000
3.477644 -1.575439 0.000000
3.792385 -1.575439 0.000000
4.107125 -1.575439 0.000000
4.421866 -1.575439 0.000000
4.736608 -1.575439 0.000000
5.051349 -1.575439 0.000000
5.366090 -1.575439 0.000000
5.680831 -1.575439 0.000000
5.995571 -1.575439 0.000000
6.310312 -1.575439 0.000000
6.625053 -1.575439 0.000000
6.939795 -1.575439 0.000000
7.254536 -1.575439 0.000000
7.569277 -1.575439 0.000000
7.884017 -1.575439 0.000000
8.198758 -1.575439 0.000000
8.513499 -1.575439 0.000000
8.828240 -1.575439 0.000000
9.142982 -1.575439 0.000000
9.457723 -1.575439 0.000000
9.772464 -1.575439 0.000000
10.087205 -1.575439 0.000000
10.401946 -1.575439 0.000000
10.716687 -1.575439 0.000000
11.031426 -1.575439 0.000000
11.346168 -1.575439 0.000000
11.660909 -1.575439 0.000000
11.975650 -1.575439 0.000000
12.290391 -1.575439 0.000000
12.605132 -1.575439 0.000000
12.919873 -1.575439 0.000000
13.234614 -1.575439 0.000000
13.549356 -1.575439 0.000000
13.864097 -1.575439 0.000000
14.178838 -1.575439 0.000000
14.493579 -1.575439 0.000000
14.808320 -1.575439 0.000000
15.123059 -1.575439 0.000000
15.437800 -1.575439 0.000000
15.752542 -1.575439 0.000000
16.067284 -1.575439 0.000000
16.382023 -1.575439 0.000000
16.696766 -1.575439 0.000000
17.011505 -1.575439 0.000000
17.326248 -1.575439 0.000000
17.640987 -1.575439 0.000000
17.955730 -1.575439 0.000000
18.270470 -1.575439 0.000000
18.585213 -1.575439 0.000000
18.899952 -1.575439 0.000000
