TITLE = "B00013"
VARIABLES = "x", "y", "Reynold stress YY"
ZONE T="Frame 1" I=84, J=163, F=POINT
-7.223550 49.412601 0.000000
-6.908809 49.412601 0.000000
-6.594068 49.412601 0.000000
-6.279327 49.412601 0.000000
-5.964586 49.412601 0.000000
-5.649845 49.412601 0.000000
-5.335104 49.412601 0.000000
-5.020363 49.412601 0.000000
-4.705622 49.412601 0.000000
-4.390881 49.412601 0.000000
-4.076140 49.412601 0.000000
-3.761399 49.412601 0.000000
-3.446658 49.412601 0.000000
-3.131917 49.412601 0.000000
-2.817176 49.412601 0.000000
-2.502435 49.412601 0.000000
-2.187694 49.412601 0.000000
-1.872953 49.412601 0.000000
-1.558212 49.412601 0.000000
-1.243471 49.412601 0.000000
-0.928730 49.412601 0.000000
-0.613989 49.412601 0.000000
-0.299248 49.412601 0.000000
0.015493 49.412601 0.000000
0.330234 49.412601 0.000000
0.644975 49.412601 0.000000
0.959716 49.412601 0.000000
1.274457 49.412601 0.000000
1.589198 49.412601 0.000000
1.903938 49.412601 0.000000
2.218679 49.412601 0.000000
2.533421 49.412601 0.000000
2.848162 49.412601 0.000000
3.162903 49.412601 0.000000
3.477644 49.412601 0.000000
3.792385 49.412601 0.000000
4.107125 49.412601 0.000000
4.421866 49.412601 0.000000
4.736608 49.412601 0.000000
5.051349 49.412601 0.000000
5.366090 49.412601 0.000000
5.680831 49.412601 0.000000
5.995571 49.412601 0.000000
6.310312 49.412601 0.000000
6.625053 49.412601 0.000000
6.939795 49.412601 0.000000
7.254536 49.412601 0.000000
7.569277 49.412601 0.000000
7.884017 49.412601 0.000000
8.198758 49.412601 0.000000
8.513499 49.412601 0.000000
8.828240 49.412601 0.000000
9.142982 49.412601 0.000000
9.457723 49.412601 0.000000
9.772464 49.412601 0.000000
10.087205 49.412601 0.000000
10.401946 49.412601 0.000000
10.716687 49.412601 0.000000
11.031426 49.412601 0.000000
11.346168 49.412601 0.000000
11.660909 49.412601 0.000000
11.975650 49.412601 0.000000
12.290391 49.412601 0.000000
12.605132 49.412601 0.000000
12.919873 49.412601 0.000000
13.234614 49.412601 0.000000
13.549356 49.412601 0.000000
13.864097 49.412601 0.000000
14.178838 49.412601 0.000000
14.493579 49.412601 0.000000
14.808320 49.412601 0.000000
15.123059 49.412601 0.000000
15.437800 49.412601 0.000000
15.752542 49.412601 0.000000
16.067284 49.412601 0.000000
16.382023 49.412601 0.000000
16.696766 49.412601 0.000000
17.011505 49.412601 0.000000
17.326248 49.412601 0.000000
17.640987 49.412601 0.000000
17.955730 49.412601 0.000000
18.270470 49.412601 0.000000
18.585213 49.412601 0.000000
18.899952 49.412601 0.000000
-7.223550 49.097862 0.000000
-6.908809 49.097862 0.000000
-6.594068 49.097862 0.000000
-6.279327 49.097862 0.000000
-5.964586 49.097862 0.000000
-5.649845 49.097862 0.000000
-5.335104 49.097862 0.000000
-5.020363 49.097862 0.000000
-4.705622 49.097862 0.000000
-4.390881 49.097862 0.000000
-4.076140 49.097862 0.000000
-3.761399 49.097862 0.000000
-3.446658 49.097862 0.000000
-3.131917 49.097862 0.000000
-2.817176 49.097862 0.000000
-2.502435 49.097862 0.000000
-2.187694 49.097862 0.000000
-1.872953 49.097862 0.000000
-1.558212 49.097862 0.000000
-1.243471 49.097862 0.000000
-0.928730 49.097862 0.000000
-0.613989 49.097862 0.000000
-0.299248 49.097862 0.000000
0.015493 49.097862 0.000000
0.330234 49.097862 0.000000
0.644975 49.097862 0.000000
0.959716 49.097862 0.000000
1.274457 49.097862 0.000000
1.589198 49.097862 0.000000
1.903938 49.097862 0.000000
2.218679 49.097862 0.000000
2.533421 49.097862 0.000000
2.848162 49.097862 0.000000
3.162903 49.097862 0.000000
3.477644 49.097862 0.000000
3.792385 49.097862 0.000000
4.107125 49.097862 0.000000
4.421866 49.097862 0.000000
4.736608 49.097862 0.000000
5.051349 49.097862 0.000000
5.366090 49.097862 0.000000
5.680831 49.097862 0.000000
5.995571 49.097862 0.000000
6.310312 49.097862 0.000000
6.625053 49.097862 0.000000
6.939795 49.097862 0.000000
7.254536 49.097862 0.000000
7.569277 49.097862 0.000000
7.884017 49.097862 0.000000
8.198758 49.097862 0.000000
8.513499 49.097862 0.000000
8.828240 49.097862 0.000000
9.142982 49.097862 0.000000
9.457723 49.097862 0.000000
9.772464 49.097862 0.000000
10.087205 49.097862 0.000000
10.401946 49.097862 0.000000
10.716687 49.097862 0.000000
11.031426 49.097862 0.000000
11.346168 49.097862 0.000000
11.660909 49.097862 0.000000
11.975650 49.097862 0.000000
12.290391 49.097862 0.000000
12.605132 49.097862 0.000000
12.919873 49.097862 0.000000
13.234614 49.097862 0.000000
13.549356 49.097862 0.000000
13.864097 49.097862 0.000000
14.178838 49.097862 0.000000
14.493579 49.097862 0.000000
14.808320 49.097862 0.000000
15.123059 49.097862 0.000000
15.437800 49.097862 0.000000
15.752542 49.097862 7.841276
16.067284 49.097862 6.298902
16.382023 49.097862 0.000000
16.696766 49.097862 0.000000
17.011505 49.097862 0.018513
17.326248 49.097862 0.523205
17.640987 49.097862 0.476415
17.955730 49.097862 0.981457
18.270470 49.097862 0.427587
18.585213 49.097862 0.214771
18.899952 49.097862 0.000000
-7.223550 48.783119 0.000000
-6.908809 48.783119 0.000000
-6.594068 48.783119 0.000000
-6.279327 48.783119 0.000000
-5.964586 48.783119 0.000000
-5.649845 48.783119 0.000000
-5.335104 48.783119 0.000000
-5.020363 48.783119 0.000000
-4.705622 48.783119 0.000000
-4.390881 48.783119 0.000000
-4.076140 48.783119 0.000000
-3.761399 48.783119 0.000000
-3.446658 48.783119 0.000000
-3.131917 48.783119 0.000000
-2.817176 48.783119 0.000000
-2.502435 48.783119 0.000000
-2.187694 48.783119 0.000000
-1.872953 48.783119 0.000000
-1.558212 48.783119 0.000000
-1.243471 48.783119 0.000000
-0.928730 48.783119 0.000000
-0.613989 48.783119 0.000000
-0.299248 48.783119 0.000000
0.015493 48.783119 0.000000
0.330234 48.783119 0.000000
0.644975 48.783119 0.000000
0.959716 48.783119 0.000000
1.274457 48.783119 0.000000
1.589198 48.783119 0.000000
1.903938 48.783119 0.000000
2.218679 48.783119 0.000000
2.533421 48.783119 0.000000
2.848162 48.783119 0.000000
3.162903 48.783119 0.000000
3.477644 48.783119 0.000000
3.792385 48.783119 0.000000
4.107125 48.783119 0.000000
4.421866 48.783119 0.000000
4.736608 48.783119 0.000000
5.051349 48.783119 0.000000
5.366090 48.783119 0.000000
5.680831 48.783119 0.000000
5.995571 48.783119 0.000000
6.310312 48.783119 0.000000
6.625053 48.783119 0.000000
6.939795 48.783119 0.000000
7.254536 48.783119 0.000000
7.569277 48.783119 0.000000
7.884017 48.783119 0.000000
8.198758 48.783119 0.000000
8.513499 48.783119 0.000000
8.828240 48.783119 0.114731
9.142982 48.783119 0.027157
9.457723 48.783119 0.033944
9.772464 48.783119 0.290735
10.087205 48.783119 2.154354
10.401946 48.783119 2.771772
10.716687 48.783119 1.405564
11.031426 48.783119 1.795987
11.346168 48.783119 1.720424
11.660909 48.783119 1.945777
11.975650 48.783119 2.109245
12.290391 48.783119 2.308582
12.605132 48.783119 1.734913
12.919873 48.783119 1.573778
13.234614 48.783119 1.619027
13.549356 48.783119 1.574765
13.864097 48.783119 1.239658
14.178838 48.783119 1.100462
14.493579 48.783119 0.966886
14.808320 48.783119 0.921018
15.123059 48.783119 0.870784
15.437800 48.783119 0.912579
15.752542 48.783119 0.876128
16.067284 48.783119 0.976926
16.382023 48.783119 1.031987
16.696766 48.783119 1.111790
17.011505 48.783119 1.495054
17.326248 48.783119 1.929127
17.640987 48.783119 2.641922
17.955730 48.783119 3.500994
18.270470 48.783119 4.584562
18.585213 48.783119 5.706680
18.899952 48.783119 6.668705
-7.223550 48.468380 0.000000
-6.908809 48.468380 0.000000
-6.594068 48.468380 0.041375
-6.279327 48.468380 0.041123
-5.964586 48.468380 0.042628
-5.649845 48.468380 0.042364
-5.335104 48.468380 0.042562
-5.020363 48.468380 0.043194
-4.705622 48.468380 0.043282
-4.390881 48.468380 0.042543
-4.076140 48.468380 0.041925
-3.761399 48.468380 0.041915
-3.446658 48.468380 0.041670
-3.131917 48.468380 0.041290
-2.817176 48.468380 0.041212
-2.502435 48.468380 0.041225
-2.187694 48.468380 0.041560
-1.872953 48.468380 0.041692
-1.558212 48.468380 0.041778
-1.243471 48.468380 0.041975
-0.928730 48.468380 0.042342
-0.613989 48.468380 0.042891
-0.299248 48.468380 0.043419
0.015493 48.468380 0.043481
0.330234 48.468380 0.043366
0.644975 48.468380 0.043587
0.959716 48.468380 0.043869
1.274457 48.468380 0.044023
1.589198 48.468380 0.044112
1.903938 48.468380 0.044370
2.218679 48.468380 0.044633
2.533421 48.468380 0.044851
2.848162 48.468380 0.045111
3.162903 48.468380 0.045628
3.477644 48.468380 0.046433
3.792385 48.468380 0.047203
4.107125 48.468380 0.048392
4.421866 48.468380 0.049926
4.736608 48.468380 0.050932
5.051349 48.468380 0.050629
5.366090 48.468380 0.049745
5.680831 48.468380 0.048089
5.995571 48.468380 0.045232
6.310312 48.468380 0.042607
6.625053 48.468380 0.040798
6.939795 48.468380 0.039610
7.254536 48.468380 0.040668
7.569277 48.468380 0.045141
7.884017 48.468380 0.056890
8.198758 48.468380 0.089641
8.513499 48.468380 0.155919
8.828240 48.468380 0.273030
9.142982 48.468380 0.445871
9.457723 48.468380 0.646668
9.772464 48.468380 0.852994
10.087205 48.468380 1.051360
10.401946 48.468380 1.311608
10.716687 48.468380 1.510796
11.031426 48.468380 1.733865
11.346168 48.468380 1.956144
11.660909 48.468380 2.142146
11.975650 48.468380 2.309109
12.290391 48.468380 2.511367
12.605132 48.468380 2.688609
12.919873 48.468380 2.793970
13.234614 48.468380 2.922626
13.549356 48.468380 2.973548
13.864097 48.468380 3.057645
14.178838 48.468380 3.079337
14.493579 48.468380 2.966562
14.808320 48.468380 2.812376
15.123059 48.468380 2.696146
15.437800 48.468380 2.537825
15.752542 48.468380 2.358315
16.067284 48.468380 2.223684
16.382023 48.468380 2.034726
16.696766 48.468380 1.886836
17.011505 48.468380 1.869136
17.326248 48.468380 2.072073
17.640987 48.468380 2.392769
17.955730 48.468380 2.865531
18.270470 48.468380 3.738571
18.585213 48.468380 4.109477
18.899952 48.468380 3.835752
-7.223550 48.153637 0.000000
-6.908809 48.153637 0.000000
-6.594068 48.153637 0.040449
-6.279327 48.153637 0.041375
-5.964586 48.153637 0.041064
-5.649845 48.153637 0.040861
-5.335104 48.153637 0.040756
-5.020363 48.153637 0.041119
-4.705622 48.153637 0.041239
-4.390881 48.153637 0.040742
-4.076140 48.153637 0.040342
-3.761399 48.153637 0.040405
-3.446658 48.153637 0.040282
-3.131917 48.153637 0.039959
-2.817176 48.153637 0.039897
-2.502435 48.153637 0.039943
-2.187694 48.153637 0.040127
-1.872953 48.153637 0.040197
-1.558212 48.153637 0.040229
-1.243471 48.153637 0.040304
-0.928730 48.153637 0.040640
-0.613989 48.153637 0.041069
-0.299248 48.153637 0.041530
0.015493 48.153637 0.041774
0.330234 48.153637 0.041721
0.644975 48.153637 0.042047
0.959716 48.153637 0.042501
1.274457 48.153637 0.042667
1.589198 48.153637 0.042750
1.903938 48.153637 0.043021
2.218679 48.153637 0.043452
2.533421 48.153637 0.043738
2.848162 48.153637 0.043965
3.162903 48.153637 0.044416
3.477644 48.153637 0.045151
3.792385 48.153637 0.046053
4.107125 48.153637 0.047230
4.421866 48.153637 0.048726
4.736608 48.153637 0.050571
5.051349 48.153637 0.052556
5.366090 48.153637 0.054925
5.680831 48.153637 0.057705
5.995571 48.153637 0.061012
6.310312 48.153637 0.065315
6.625053 48.153637 0.071549
6.939795 48.153637 0.077957
7.254536 48.153637 0.086884
7.569277 48.153637 0.101701
7.884017 48.153637 0.122103
8.198758 48.153637 0.153610
8.513499 48.153637 0.200936
8.828240 48.153637 0.292556
9.142982 48.153637 0.447737
9.457723 48.153637 0.662088
9.772464 48.153637 0.899523
10.087205 48.153637 1.161788
10.401946 48.153637 1.466991
10.716687 48.153637 1.744429
11.031426 48.153637 2.005523
11.346168 48.153637 2.245788
11.660909 48.153637 2.423068
11.975650 48.153637 2.603362
12.290391 48.153637 2.773142
12.605132 48.153637 2.912433
12.919873 48.153637 2.986265
13.234614 48.153637 3.033851
13.549356 48.153637 3.071476
13.864097 48.153637 3.084914
14.178838 48.153637 3.061037
14.493579 48.153637 2.926751
14.808320 48.153637 2.783868
15.123059 48.153637 2.619889
15.437800 48.153637 2.428249
15.752542 48.153637 2.258992
16.067284 48.153637 2.081594
16.382023 48.153637 1.898494
16.696766 48.153637 1.768676
17.011505 48.153637 1.769810
17.326248 48.153637 1.893941
17.640987 48.153637 2.335744
17.955730 48.153637 3.064807
18.270470 48.153637 4.300165
18.585213 48.153637 5.679323
18.899952 48.153637 4.888960
-7.223550 47.838898 0.000000
-6.908809 47.838898 0.000000
-6.594068 47.838898 0.041561
-6.279327 47.838898 0.040134
-5.964586 47.838898 0.039817
-5.649845 47.838898 0.039714
-5.335104 47.838898 0.039674
-5.020363 47.838898 0.039885
-4.705622 47.838898 0.039989
-4.390881 47.838898 0.039687
-4.076140 47.838898 0.039434
-3.761399 47.838898 0.039499
-3.446658 47.838898 0.039525
-3.131917 47.838898 0.039332
-2.817176 47.838898 0.039236
-2.502435 47.838898 0.039246
-2.187694 47.838898 0.039343
-1.872953 47.838898 0.039354
-1.558212 47.838898 0.039327
-1.243471 47.838898 0.039295
-0.928730 47.838898 0.039497
-0.613989 47.838898 0.039824
-0.299248 47.838898 0.040247
0.015493 47.838898 0.040581
0.330234 47.838898 0.040579
0.644975 47.838898 0.040874
0.959716 47.838898 0.041291
1.274457 47.838898 0.041488
1.589198 47.838898 0.041520
1.903938 47.838898 0.041825
2.218679 47.838898 0.042335
2.533421 47.838898 0.042786
2.848162 47.838898 0.043047
3.162903 47.838898 0.043432
3.477644 47.838898 0.044068
3.792385 47.838898 0.045026
4.107125 47.838898 0.046158
4.421866 47.838898 0.047462
4.736608 47.838898 0.049162
5.051349 47.838898 0.050951
5.366090 47.838898 0.053263
5.680831 47.838898 0.055950
5.995571 47.838898 0.059407
6.310312 47.838898 0.063668
6.625053 47.838898 0.069657
6.939795 47.838898 0.076288
7.254536 47.838898 0.084686
7.569277 47.838898 0.097957
7.884017 47.838898 0.116748
8.198758 47.838898 0.144342
8.513499 47.838898 0.189297
8.828240 47.838898 0.284256
9.142982 47.838898 0.427461
9.457723 47.838898 0.634984
9.772464 47.838898 0.875820
10.087205 47.838898 1.145201
10.401946 47.838898 1.423972
10.716687 47.838898 1.701296
11.031426 47.838898 1.956127
11.346168 47.838898 2.171214
11.660909 47.838898 2.364689
11.975650 47.838898 2.532153
12.290391 47.838898 2.707805
12.605132 47.838898 2.842285
12.919873 47.838898 2.881793
13.234614 47.838898 2.956022
13.549356 47.838898 2.939876
13.864097 47.838898 2.962003
14.178838 47.838898 2.932683
14.493579 47.838898 2.823272
14.808320 47.838898 2.705690
15.123059 47.838898 2.508394
15.437800 47.838898 2.320019
15.752542 47.838898 2.108891
16.067284 47.838898 1.937974
16.382023 47.838898 1.757697
16.696766 47.838898 1.634119
17.011505 47.838898 1.649829
17.326248 47.838898 1.797810
17.640987 47.838898 2.196631
17.955730 47.838898 2.941937
18.270470 47.838898 4.309906
18.585213 47.838898 6.289134
18.899952 47.838898 5.802137
-7.223550 47.524155 0.000000
-6.908809 47.524155 0.000000
-6.594068 47.524155 0.040640
-6.279327 47.524155 0.039322
-5.964586 47.524155 0.039173
-5.649845 47.524155 0.039128
-5.335104 47.524155 0.039179
-5.020363 47.524155 0.039448
-4.705622 47.524155 0.039498
-4.390881 47.524155 0.039271
-4.076140 47.524155 0.039088
-3.761399 47.524155 0.039133
-3.446658 47.524155 0.039304
-3.131917 47.524155 0.039253
-2.817176 47.524155 0.039092
-2.502435 47.524155 0.039100
-2.187694 47.524155 0.039150
-1.872953 47.524155 0.039093
-1.558212 47.524155 0.039045
-1.243471 47.524155 0.038921
-0.928730 47.524155 0.038994
-0.613989 47.524155 0.039280
-0.299248 47.524155 0.039686
0.015493 47.524155 0.040086
0.330234 47.524155 0.040181
0.644975 47.524155 0.040386
0.959716 47.524155 0.040774
1.274457 47.524155 0.040994
1.589198 47.524155 0.041045
1.903938 47.524155 0.041411
2.218679 47.524155 0.041987
2.533421 47.524155 0.042549
2.848162 47.524155 0.042880
3.162903 47.524155 0.043217
3.477644 47.524155 0.043776
3.792385 47.524155 0.044709
4.107125 47.524155 0.045759
4.421866 47.524155 0.046944
4.736608 47.524155 0.048500
5.051349 47.524155 0.050186
5.366090 47.524155 0.052381
5.680831 47.524155 0.055144
5.995571 47.524155 0.058619
6.310312 47.524155 0.062892
6.625053 47.524155 0.068629
6.939795 47.524155 0.075217
7.254536 47.524155 0.083870
7.569277 47.524155 0.096241
7.884017 47.524155 0.113637
8.198758 47.524155 0.140599
8.513499 47.524155 0.183962
8.828240 47.524155 0.278797
9.142982 47.524155 0.419649
9.457723 47.524155 0.621611
9.772464 47.524155 0.869066
10.087205 47.524155 1.129017
10.401946 47.524155 1.397809
10.716687 47.524155 1.694723
11.031426 47.524155 1.932705
11.346168 47.524155 2.140047
11.660909 47.524155 2.317422
11.975650 47.524155 2.512979
12.290391 47.524155 2.671361
12.605132 47.524155 2.775593
12.919873 47.524155 2.832696
13.234614 47.524155 2.882456
13.549356 47.524155 2.899638
13.864097 47.524155 2.913081
14.178838 47.524155 2.884883
14.493579 47.524155 2.805770
14.808320 47.524155 2.646465
15.123059 47.524155 2.451326
15.437800 47.524155 2.269652
15.752542 47.524155 2.070125
16.067284 47.524155 1.881974
16.382023 47.524155 1.719683
16.696766 47.524155 1.569687
17.011505 47.524155 1.557952
17.326248 47.524155 1.724872
17.640987 47.524155 2.136021
17.955730 47.524155 2.844034
18.270470 47.524155 4.182457
18.585213 47.524155 6.230449
18.899952 47.524155 5.682022
-7.223550 47.209415 0.000000
-6.908809 47.209415 0.000000
-6.594068 47.209415 0.040144
-6.279327 47.209415 0.038931
-5.964586 47.209415 0.038958
-5.649845 47.209415 0.038939
-5.335104 47.209415 0.039112
-5.020363 47.209415 0.039450
-4.705622 47.209415 0.039410
-4.390881 47.209415 0.039159
-4.076140 47.209415 0.039034
-3.761399 47.209415 0.039047
-3.446658 47.209415 0.039283
-3.131917 47.209415 0.039332
-2.817176 47.209415 0.039161
-2.502435 47.209415 0.039151
-2.187694 47.209415 0.039184
-1.872953 47.209415 0.039124
-1.558212 47.209415 0.039033
-1.243471 47.209415 0.038793
-0.928730 47.209415 0.038739
-0.613989 47.209415 0.038967
-0.299248 47.209415 0.039367
0.015493 47.209415 0.039804
0.330234 47.209415 0.040041
0.644975 47.209415 0.040227
0.959716 47.209415 0.040617
1.274457 47.209415 0.040823
1.589198 47.209415 0.040951
1.903938 47.209415 0.041386
2.218679 47.209415 0.042066
2.533421 47.209415 0.042639
2.848162 47.209415 0.043051
3.162903 47.209415 0.043450
3.477644 47.209415 0.043981
3.792385 47.209415 0.044841
4.107125 47.209415 0.045795
4.421866 47.209415 0.046883
4.736608 47.209415 0.048367
5.051349 47.209415 0.049931
5.366090 47.209415 0.052044
5.680831 47.209415 0.054705
5.995571 47.209415 0.058238
6.310312 47.209415 0.062299
6.625053 47.209415 0.067700
6.939795 47.209415 0.074196
7.254536 47.209415 0.083268
7.569277 47.209415 0.095380
7.884017 47.209415 0.111496
8.198758 47.209415 0.138346
8.513499 47.209415 0.183018
8.828240 47.209415 0.271845
9.142982 47.209415 0.418764
9.457723 47.209415 0.614382
9.772464 47.209415 0.866212
10.087205 47.209415 1.130441
10.401946 47.209415 1.406797
10.716687 47.209415 1.684733
11.031426 47.209415 1.938915
11.346168 47.209415 2.135044
11.660909 47.209415 2.325178
11.975650 47.209415 2.492617
12.290391 47.209415 2.676091
12.605132 47.209415 2.756023
12.919873 47.209415 2.832153
13.234614 47.209415 2.871943
13.549356 47.209415 2.885069
13.864097 47.209415 2.898419
14.178838 47.209415 2.867593
14.493579 47.209415 2.782015
14.808320 47.209415 2.616798
15.123059 47.209415 2.437747
15.437800 47.209415 2.243138
15.752542 47.209415 2.030391
16.067284 47.209415 1.842458
16.382023 47.209415 1.696507
16.696766 47.209415 1.543857
17.011505 47.209415 1.526696
17.326248 47.209415 1.712866
17.640987 47.209415 2.102585
17.955730 47.209415 2.780976
18.270470 47.209415 4.078651
18.585213 47.209415 6.018425
18.899952 47.209415 5.596184
-7.223550 46.894672 0.000000
-6.908809 46.894672 0.000000
-6.594068 46.894672 0.040029
-6.279327 46.894672 0.038820
-5.964586 46.894672 0.038865
-5.649845 46.894672 0.038937
-5.335104 46.894672 0.039216
-5.020363 46.894672 0.039541
-4.705622 46.894672 0.039423
-4.390881 46.894672 0.039129
-4.076140 46.894672 0.039031
-3.761399 46.894672 0.039067
-3.446658 46.894672 0.039316
-3.131917 46.894672 0.039389
-2.817176 46.894672 0.039221
-2.502435 46.894672 0.039200
-2.187694 46.894672 0.039258
-1.872953 46.894672 0.039242
-1.558212 46.894672 0.039092
-1.243471 46.894672 0.038759
-0.928730 46.894672 0.038608
-0.613989 46.894672 0.038773
-0.299248 46.894672 0.039082
0.015493 46.894672 0.039467
0.330234 46.894672 0.039781
0.644975 46.894672 0.040014
0.959716 46.894672 0.040404
1.274457 46.894672 0.040662
1.589198 46.894672 0.040861
1.903938 46.894672 0.041333
2.218679 46.894672 0.042097
2.533421 46.894672 0.042751
2.848162 46.894672 0.043245
3.162903 46.894672 0.043794
3.477644 46.894672 0.044351
3.792385 46.894672 0.045116
4.107125 46.894672 0.046052
4.421866 46.894672 0.047168
4.736608 46.894672 0.048536
5.051349 46.894672 0.050007
5.366090 46.894672 0.051976
5.680831 46.894672 0.054675
5.995571 46.894672 0.057881
6.310312 46.894672 0.062112
6.625053 46.894672 0.067309
6.939795 46.894672 0.073815
7.254536 46.894672 0.082041
7.569277 46.894672 0.094162
7.884017 46.894672 0.111277
8.198758 46.894672 0.138958
8.513499 46.894672 0.187305
8.828240 46.894672 0.273199
9.142982 46.894672 0.420914
9.457723 46.894672 0.625856
9.772464 46.894672 0.868203
10.087205 46.894672 1.136934
10.401946 46.894672 1.417273
10.716687 46.894672 1.688290
11.031426 46.894672 1.937936
11.346168 46.894672 2.144322
11.660909 46.894672 2.344677
11.975650 46.894672 2.519251
12.290391 46.894672 2.682092
12.605132 46.894672 2.776320
12.919873 46.894672 2.844152
13.234614 46.894672 2.879177
13.549356 46.894672 2.913417
13.864097 46.894672 2.906461
14.178838 46.894672 2.867146
14.493579 46.894672 2.780066
14.808320 46.894672 2.617595
15.123059 46.894672 2.433684
15.437800 46.894672 2.233184
15.752542 46.894672 2.028067
16.067284 46.894672 1.842780
16.382023 46.894672 1.661983
16.696766 46.894672 1.542858
17.011505 46.894672 1.560736
17.326248 46.894672 1.713572
17.640987 46.894672 2.140521
17.955730 46.894672 2.806291
18.270470 46.894672 3.924480
18.585213 46.894672 5.606216
18.899952 46.894672 5.294050
-7.223550 46.579933 0.000000
-6.908809 46.579933 0.000000
-6.594068 46.579933 0.039994
-6.279327 46.579933 0.038771
-5.964586 46.579933 0.038795
-5.649845 46.579933 0.038993
-5.335104 46.579933 0.039320
-5.020363 46.579933 0.039537
-4.705622 46.579933 0.039347
-4.390881 46.579933 0.039059
-4.076140 46.579933 0.039003
-3.761399 46.579933 0.039087
-3.446658 46.579933 0.039380
-3.131917 46.579933 0.039390
-2.817176 46.579933 0.039253
-2.502435 46.579933 0.039276
-2.187694 46.579933 0.039414
-1.872953 46.579933 0.039435
-1.558212 46.579933 0.039230
-1.243471 46.579933 0.038819
-0.928730 46.579933 0.038591
-0.613989 46.579933 0.038641
-0.299248 46.579933 0.038745
0.015493 46.579933 0.038981
0.330234 46.579933 0.039342
0.644975 46.579933 0.039643
0.959716 46.579933 0.040027
1.274457 46.579933 0.040311
1.589198 46.579933 0.040573
1.903938 46.579933 0.041107
2.218679 46.579933 0.041989
2.533421 46.579933 0.042698
2.848162 46.579933 0.043230
3.162903 46.579933 0.043918
3.477644 46.579933 0.044548
3.792385 46.579933 0.045327
4.107125 46.579933 0.046353
4.421866 46.579933 0.047581
4.736608 46.579933 0.048902
5.051349 46.579933 0.050361
5.366090 46.579933 0.052144
5.680831 46.579933 0.054643
5.995571 46.579933 0.057697
6.310312 46.579933 0.061969
6.625053 46.579933 0.066763
6.939795 46.579933 0.073493
7.254536 46.579933 0.081463
7.569277 46.579933 0.093107
7.884017 46.579933 0.110286
8.198758 46.579933 0.142439
8.513499 46.579933 0.188756
8.828240 46.579933 0.276142
9.142982 46.579933 0.418896
9.457723 46.579933 0.626975
9.772464 46.579933 0.874787
10.087205 46.579933 1.135171
10.401946 46.579933 1.419450
10.716687 46.579933 1.683724
11.031426 46.579933 1.926655
11.346168 46.579933 2.161700
11.660909 46.579933 2.350166
11.975650 46.579933 2.538885
12.290391 46.579933 2.693257
12.605132 46.579933 2.812664
12.919873 46.579933 2.870503
13.234614 46.579933 2.895717
13.549356 46.579933 2.899048
13.864097 46.579933 2.905027
14.178838 46.579933 2.865428
14.493579 46.579933 2.766218
14.808320 46.579933 2.602209
15.123059 46.579933 2.430316
15.437800 46.579933 2.228293
15.752542 46.579933 2.032834
16.067284 46.579933 1.829618
16.382023 46.579933 1.645871
16.696766 46.579933 1.556885
17.011505 46.579933 1.614768
17.326248 46.579933 1.797913
17.640987 46.579933 2.199767
17.955730 46.579933 2.913806
18.270470 46.579933 3.986181
18.585213 46.579933 5.433151
18.899952 46.579933 4.655700
-7.223550 46.265190 0.000000
-6.908809 46.265190 0.000000
-6.594068 46.265190 0.040191
-6.279327 46.265190 0.038828
-5.964586 46.265190 0.038762
-5.649845 46.265190 0.038956
-5.335104 46.265190 0.039210
-5.020363 46.265190 0.039276
-4.705622 46.265190 0.039091
-4.390881 46.265190 0.038871
-4.076140 46.265190 0.038870
-3.761399 46.265190 0.039085
-3.446658 46.265190 0.039392
-3.131917 46.265190 0.039366
-2.817176 46.265190 0.039297
-2.502435 46.265190 0.039387
-2.187694 46.265190 0.039584
-1.872953 46.265190 0.039684
-1.558212 46.265190 0.039438
-1.243471 46.265190 0.039012
-0.928730 46.265190 0.038742
-0.613989 46.265190 0.038648
-0.299248 46.265190 0.038555
0.015493 46.265190 0.038612
0.330234 46.265190 0.038937
0.644975 46.265190 0.039286
0.959716 46.265190 0.039645
1.274457 46.265190 0.039857
1.589198 46.265190 0.040081
1.903938 46.265190 0.040711
2.218679 46.265190 0.041680
2.533421 46.265190 0.042398
2.848162 46.265190 0.042936
3.162903 46.265190 0.043716
3.477644 46.265190 0.044483
3.792385 46.265190 0.045399
4.107125 46.265190 0.046589
4.421866 46.265190 0.047979
4.736608 46.265190 0.049408
5.051349 46.265190 0.050862
5.366090 46.265190 0.052734
5.680831 46.265190 0.055169
5.995571 46.265190 0.058155
6.310312 46.265190 0.062274
6.625053 46.265190 0.067051
6.939795 46.265190 0.072936
7.254536 46.265190 0.081187
7.569277 46.265190 0.091695
7.884017 46.265190 0.109565
8.198758 46.265190 0.139043
8.513499 46.265190 0.187739
8.828240 46.265190 0.274084
9.142982 46.265190 0.423272
9.457723 46.265190 0.629044
9.772464 46.265190 0.865979
10.087205 46.265190 1.143562
10.401946 46.265190 1.420104
10.716687 46.265190 1.672179
11.031426 46.265190 1.911893
11.346168 46.265190 2.149445
11.660909 46.265190 2.352591
11.975650 46.265190 2.546948
12.290391 46.265190 2.710181
12.605132 46.265190 2.812510
12.919873 46.265190 2.877036
13.234614 46.265190 2.912144
13.549356 46.265190 2.920340
13.864097 46.265190 2.900105
14.178838 46.265190 2.871368
14.493579 46.265190 2.763780
14.808320 46.265190 2.607548
15.123059 46.265190 2.434199
15.437800 46.265190 2.261767
15.752542 46.265190 2.059366
16.067284 46.265190 1.866084
16.382023 46.265190 1.686627
16.696766 46.265190 1.617723
17.011505 46.265190 1.703351
17.326248 46.265190 1.962144
17.640987 46.265190 2.339178
17.955730 46.265190 3.054796
18.270470 46.265190 4.057216
18.585213 46.265190 5.340218
18.899952 46.265190 4.374111
-7.223550 45.950451 0.000000
-6.908809 45.950451 0.000000
-6.594068 45.950451 0.040471
-6.279327 45.950451 0.038963
-5.964586 45.950451 0.038773
-5.649845 45.950451 0.038866
-5.335104 45.950451 0.038929
-5.020363 45.950451 0.038843
-4.705622 45.950451 0.038699
-4.390881 45.950451 0.038601
-4.076140 45.950451 0.038679
-3.761399 45.950451 0.038911
-3.446658 45.950451 0.039233
-3.131917 45.950451 0.039313
-2.817176 45.950451 0.039348
-2.502435 45.950451 0.039458
-2.187694 45.950451 0.039753
-1.872953 45.950451 0.039952
-1.558212 45.950451 0.039704
-1.243471 45.950451 0.039348
-0.928730 45.950451 0.039106
-0.613989 45.950451 0.038852
-0.299248 45.950451 0.038548
0.015493 45.950451 0.038502
0.330234 45.950451 0.038776
0.644975 45.950451 0.039085
0.959716 45.950451 0.039318
1.274457 45.950451 0.039365
1.589198 45.950451 0.039568
1.903938 45.950451 0.040221
2.218679 45.950451 0.041143
2.533421 45.950451 0.041856
2.848162 45.950451 0.042386
3.162903 45.950451 0.043211
3.477644 45.950451 0.044134
3.792385 45.950451 0.045150
4.107125 45.950451 0.046578
4.421866 45.950451 0.048090
4.736608 45.950451 0.049668
5.051349 45.950451 0.051460
5.366090 45.950451 0.053339
5.680831 45.950451 0.055816
5.995571 45.950451 0.058797
6.310312 45.950451 0.062836
6.625053 45.950451 0.067644
6.939795 45.950451 0.073328
7.254536 45.950451 0.081333
7.569277 45.950451 0.092458
7.884017 45.950451 0.108755
8.198758 45.950451 0.138195
8.513499 45.950451 0.187384
8.828240 45.950451 0.273561
9.142982 45.950451 0.416622
9.457723 45.950451 0.625415
9.772464 45.950451 0.863217
10.087205 45.950451 1.130121
10.401946 45.950451 1.410547
10.716687 45.950451 1.688015
11.031426 45.950451 1.928767
11.346168 45.950451 2.138834
11.660909 45.950451 2.354164
11.975650 45.950451 2.549589
12.290391 45.950451 2.714042
12.605132 45.950451 2.822739
12.919873 45.950451 2.885487
13.234614 45.950451 2.911456
13.549356 45.950451 2.931097
13.864097 45.950451 2.928909
14.178838 45.950451 2.868206
14.493579 45.950451 2.769068
14.808320 45.950451 2.611625
15.123059 45.950451 2.458923
15.437800 45.950451 2.293005
15.752542 45.950451 2.098530
16.067284 45.950451 1.907130
16.382023 45.950451 1.758142
16.696766 45.950451 1.707069
17.011505 45.950451 1.807283
17.326248 45.950451 2.123986
17.640987 45.950451 2.654936
17.955730 45.950451 3.326801
18.270470 45.950451 4.180475
18.585213 45.950451 5.474921
18.899952 45.950451 4.285993
-7.223550 45.635712 0.000000
-6.908809 45.635712 0.000000
-6.594068 45.635712 0.040718
-6.279327 45.635712 0.039091
-5.964586 45.635712 0.038852
-5.649845 45.635712 0.038806
-5.335104 45.635712 0.038600
-5.020363 45.635712 0.038382
-4.705622 45.635712 0.038257
-4.390881 45.635712 0.038156
-4.076140 45.635712 0.038275
-3.761399 45.635712 0.038554
-3.446658 45.635712 0.038880
-3.131917 45.635712 0.039068
-2.817176 45.635712 0.039193
-2.502435 45.635712 0.039380
-2.187694 45.635712 0.039718
-1.872953 45.635712 0.039936
-1.558212 45.635712 0.039853
-1.243471 45.635712 0.039780
-0.928730 45.635712 0.039666
-0.613989 45.635712 0.039332
-0.299248 45.635712 0.038913
0.015493 45.635712 0.038765
0.330234 45.635712 0.038966
0.644975 45.635712 0.039120
0.959716 45.635712 0.039153
1.274457 45.635712 0.039082
1.589198 45.635712 0.039209
1.903938 45.635712 0.039775
2.218679 45.635712 0.040542
2.533421 45.635712 0.041172
2.848162 45.635712 0.041689
3.162903 45.635712 0.042499
3.477644 45.635712 0.043518
3.792385 45.635712 0.044681
4.107125 45.635712 0.046244
4.421866 45.635712 0.047901
4.736608 45.635712 0.049516
5.051349 45.635712 0.051442
5.366090 45.635712 0.053803
5.680831 45.635712 0.056405
5.995571 45.635712 0.059763
6.310312 45.635712 0.063540
6.625053 45.635712 0.068393
6.939795 45.635712 0.074554
7.254536 45.635712 0.082139
7.569277 45.635712 0.094088
7.884017 45.635712 0.109683
8.198758 45.635712 0.136849
8.513499 45.635712 0.186710
8.828240 45.635712 0.274800
9.142982 45.635712 0.414998
9.457723 45.635712 0.618830
9.772464 45.635712 0.864185
10.087205 45.635712 1.126080
10.401946 45.635712 1.409444
10.716687 45.635712 1.683092
11.031426 45.635712 1.922464
11.346168 45.635712 2.129070
11.660909 45.635712 2.349279
11.975650 45.635712 2.542436
12.290391 45.635712 2.710307
12.605132 45.635712 2.821501
12.919873 45.635712 2.906268
13.234614 45.635712 2.929701
13.549356 45.635712 2.936623
13.864097 45.635712 2.941777
14.178838 45.635712 2.870522
14.493579 45.635712 2.780501
14.808320 45.635712 2.633305
15.123059 45.635712 2.480800
15.437800 45.635712 2.321454
15.752542 45.635712 2.124571
16.067284 45.635712 1.430002
16.382023 45.635712 1.454894
16.696766 45.635712 1.494203
17.011505 45.635712 1.638850
17.326248 45.635712 1.892532
17.640987 45.635712 2.856488
17.955730 45.635712 3.543435
18.270470 45.635712 4.335379
18.585213 45.635712 5.382355
18.899952 45.635712 4.387393
-7.223550 45.320969 0.000000
-6.908809 45.320969 0.000000
-6.594068 45.320969 0.040924
-6.279327 45.320969 0.039213
-5.964586 45.320969 0.038941
-5.649845 45.320969 0.038781
-5.335104 45.320969 0.038381
-5.020363 45.320969 0.038048
-4.705622 45.320969 0.037887
-4.390881 45.320969 0.037795
-4.076140 45.320969 0.037887
-3.761399 45.320969 0.038119
-3.446658 45.320969 0.038369
-3.131917 45.320969 0.038618
-2.817176 45.320969 0.038801
-2.502435 45.320969 0.039108
-2.187694 45.320969 0.039427
-1.872953 45.320969 0.039685
-1.558212 45.320969 0.039848
-1.243471 45.320969 0.040104
-0.928730 45.320969 0.040220
-0.613989 45.320969 0.039943
-0.299248 45.320969 0.039537
0.015493 45.320969 0.039383
0.330234 45.320969 0.039493
0.644975 45.320969 0.039464
0.959716 45.320969 0.039285
1.274457 45.320969 0.039091
1.589198 45.320969 0.039161
1.903938 45.320969 0.039594
2.218679 45.320969 0.040078
2.533421 45.320969 0.040519
2.848162 45.320969 0.040952
3.162903 45.320969 0.041685
3.477644 45.320969 0.042678
3.792385 45.320969 0.043898
4.107125 45.320969 0.045529
4.421866 45.320969 0.047254
4.736608 45.320969 0.049017
5.051349 45.320969 0.051188
5.366090 45.320969 0.053779
5.680831 45.320969 0.056834
5.995571 45.320969 0.060232
6.310312 45.320969 0.064301
6.625053 45.320969 0.069081
6.939795 45.320969 0.075104
7.254536 45.320969 0.083865
7.569277 45.320969 0.094689
7.884017 45.320969 0.111470
8.198758 45.320969 0.136474
8.513499 45.320969 0.181741
8.828240 45.320969 0.278047
9.142982 45.320969 0.423980
9.457723 45.320969 0.634427
9.772464 45.320969 0.880525
10.087205 45.320969 1.133821
10.401946 45.320969 1.407395
10.716687 45.320969 1.681684
11.031426 45.320969 1.927865
11.346168 45.320969 2.142405
11.660909 45.320969 2.352887
11.975650 45.320969 2.565951
12.290391 45.320969 2.724521
12.605132 45.320969 2.837711
12.919873 45.320969 2.895879
13.234614 45.320969 2.927922
13.549356 45.320969 2.942977
13.864097 45.320969 2.949229
14.178838 45.320969 2.881842
14.493579 45.320969 2.787370
14.808320 45.320969 2.651088
15.123059 45.320969 2.516686
15.437800 45.320969 2.359346
15.752542 45.320969 2.238489
16.067284 45.320969 6.284664
16.382023 45.320969 5.817259
16.696766 45.320969 4.819619
17.011505 45.320969 4.477913
17.326248 45.320969 6.198920
17.640987 45.320969 3.214534
17.955730 45.320969 3.721989
18.270470 45.320969 4.273400
18.585213 45.320969 5.269860
18.899952 45.320969 4.048213
-7.223550 45.006226 0.000000
-6.908809 45.006226 0.000000
-6.594068 45.006226 0.041170
-6.279327 45.006226 0.039463
-5.964586 45.006226 0.039148
-5.649845 45.006226 0.038911
-5.335104 45.006226 0.038444
-5.020363 45.006226 0.037997
-4.705622 45.006226 0.037713
-4.390881 45.006226 0.037546
-4.076140 45.006226 0.037571
-3.761399 45.006226 0.037678
-3.446658 45.006226 0.037809
-3.131917 45.006226 0.038057
-2.817176 45.006226 0.038276
-2.502435 45.006226 0.038556
-2.187694 45.006226 0.038831
-1.872953 45.006226 0.039123
-1.558212 45.006226 0.039531
-1.243471 45.006226 0.040140
-0.928730 45.006226 0.040516
-0.613989 45.006226 0.040460
-0.299248 45.006226 0.040168
0.015493 45.006226 0.040091
0.330234 45.006226 0.040155
0.644975 45.006226 0.040013
0.959716 45.006226 0.039718
1.274457 45.006226 0.039495
1.589198 45.006226 0.039520
1.903938 45.006226 0.039685
2.218679 45.006226 0.039812
2.533421 45.006226 0.040033
2.848162 45.006226 0.040350
3.162903 45.006226 0.040993
3.477644 45.006226 0.041908
3.792385 45.006226 0.043073
4.107125 45.006226 0.044623
4.421866 45.006226 0.046272
4.736608 45.006226 0.048075
5.051349 45.006226 0.050451
5.366090 45.006226 0.053289
5.680831 45.006226 0.056440
5.995571 45.006226 0.060328
6.310312 45.006226 0.064524
6.625053 45.006226 0.069756
6.939795 45.006226 0.075954
7.254536 45.006226 0.085025
7.569277 45.006226 0.096304
7.884017 45.006226 0.113322
8.198758 45.006226 0.138359
8.513499 45.006226 0.190582
8.828240 45.006226 0.278067
9.142982 45.006226 0.425823
9.457723 45.006226 0.635686
9.772464 45.006226 0.874699
10.087205 45.006226 1.135781
10.401946 45.006226 1.411934
10.716687 45.006226 1.671777
11.031426 45.006226 1.906871
11.346168 45.006226 2.150404
11.660909 45.006226 2.350091
11.975650 45.006226 2.559302
12.290391 45.006226 2.692752
12.605132 45.006226 2.818247
12.919873 45.006226 2.892397
13.234614 45.006226 2.922094
13.549356 45.006226 2.950626
13.864097 45.006226 2.932154
14.178838 45.006226 2.890180
14.493579 45.006226 2.786154
14.808320 45.006226 2.648475
15.123059 45.006226 2.514534
15.437800 45.006226 2.416392
15.752542 45.006226 2.323004
16.067284 45.006226 0.000000
16.382023 45.006226 0.000000
16.696766 45.006226 2.808650
17.011505 45.006226 2.164570
17.326248 45.006226 13.671413
17.640987 45.006226 3.495425
17.955730 45.006226 3.949685
18.270470 45.006226 4.328691
18.585213 45.006226 5.271457
18.899952 45.006226 4.233478
-7.223550 44.691486 0.000000
-6.908809 44.691486 0.000000
-6.594068 44.691486 0.041371
-6.279327 44.691486 0.039683
-5.964586 44.691486 0.039334
-5.649845 44.691486 0.039105
-5.335104 44.691486 0.038736
-5.020363 44.691486 0.038238
-4.705622 44.691486 0.037821
-4.390881 44.691486 0.037559
-4.076140 44.691486 0.037426
-3.761399 44.691486 0.037361
-3.446658 44.691486 0.037337
-3.131917 44.691486 0.037545
-2.817176 44.691486 0.037725
-2.502435 44.691486 0.037890
-2.187694 44.691486 0.038068
-1.872953 44.691486 0.038358
-1.558212 44.691486 0.038974
-1.243471 44.691486 0.039821
-0.928730 44.691486 0.040445
-0.613989 44.691486 0.040693
-0.299248 44.691486 0.040599
0.015493 44.691486 0.040605
0.330234 44.691486 0.040668
0.644975 44.691486 0.040567
0.959716 44.691486 0.040367
1.274457 44.691486 0.040240
1.589198 44.691486 0.040170
1.903938 44.691486 0.040004
2.218679 44.691486 0.039796
2.533421 44.691486 0.039846
2.848162 44.691486 0.040067
3.162903 44.691486 0.040624
3.477644 44.691486 0.041398
3.792385 44.691486 0.042407
4.107125 44.691486 0.043747
4.421866 44.691486 0.045260
4.736608 44.691486 0.047062
5.051349 44.691486 0.049514
5.366090 44.691486 0.052470
5.680831 44.691486 0.055703
5.995571 44.691486 0.059675
6.310312 44.691486 0.064258
6.625053 44.691486 0.070118
6.939795 44.691486 0.076903
7.254536 44.691486 0.085208
7.569277 44.691486 0.096638
7.884017 44.691486 0.113636
8.198758 44.691486 0.141324
8.513499 44.691486 0.189697
8.828240 44.691486 0.277787
9.142982 44.691486 0.431798
9.457723 44.691486 0.633027
9.772464 44.691486 0.875875
10.087205 44.691486 1.146134
10.401946 44.691486 1.405757
10.716687 44.691486 1.679988
11.031426 44.691486 1.904989
11.346168 44.691486 2.141058
11.660909 44.691486 2.357303
11.975650 44.691486 2.549762
12.290391 44.691486 2.704236
12.605132 44.691486 2.817179
12.919873 44.691486 2.888817
13.234614 44.691486 2.945836
13.549356 44.691486 2.940711
13.864097 44.691486 2.944894
14.178838 44.691486 2.909957
14.493579 44.691486 2.794104
14.808320 44.691486 2.650044
15.123059 44.691486 2.540607
15.437800 44.691486 2.473373
15.752542 44.691486 2.444913
16.067284 44.691486 0.000000
16.382023 44.691486 0.000000
16.696766 44.691486 0.000000
17.011505 44.691486 0.000000
17.326248 44.691486 21.073021
17.640987 44.691486 3.858529
17.955730 44.691486 4.263530
18.270470 44.691486 4.381190
18.585213 44.691486 5.203101
18.899952 44.691486 4.238775
-7.223550 44.376747 0.000000
-6.908809 44.376747 0.000000
-6.594068 44.376747 0.041338
-6.279327 44.376747 0.039789
-5.964586 44.376747 0.039472
-5.649845 44.376747 0.039318
-5.335104 44.376747 0.039160
-5.020363 44.376747 0.038709
-4.705622 44.376747 0.038237
-4.390881 44.376747 0.037885
-4.076140 44.376747 0.037551
-3.761399 44.376747 0.037275
-3.446658 44.376747 0.037093
-3.131917 44.376747 0.037215
-2.817176 44.376747 0.037316
-2.502435 44.376747 0.037296
-2.187694 44.376747 0.037379
-1.872953 44.376747 0.037599
-1.558212 44.376747 0.038245
-1.243471 44.376747 0.039156
-0.928730 44.376747 0.039956
-0.613989 44.376747 0.040486
-0.299248 44.376747 0.040623
0.015493 44.376747 0.040767
0.330234 44.376747 0.040952
0.644975 44.376747 0.041037
0.959716 44.376747 0.041090
1.274457 44.376747 0.041099
1.589198 44.376747 0.040998
1.903938 44.376747 0.040547
2.218679 44.376747 0.040112
2.533421 44.376747 0.040055
2.848162 44.376747 0.040177
3.162903 44.376747 0.040587
3.477644 44.376747 0.041220
3.792385 44.376747 0.042006
4.107125 44.376747 0.043051
4.421866 44.376747 0.044333
4.736608 44.376747 0.046057
5.051349 44.376747 0.048464
5.366090 44.376747 0.051328
5.680831 44.376747 0.054765
5.995571 44.376747 0.058840
6.310312 44.376747 0.063751
6.625053 44.376747 0.069756
6.939795 44.376747 0.077204
7.254536 44.376747 0.085338
7.569277 44.376747 0.096582
7.884017 44.376747 0.114548
8.198758 44.376747 0.142084
8.513499 44.376747 0.189784
8.828240 44.376747 0.279319
9.142982 44.376747 0.430480
9.457723 44.376747 0.632497
9.772464 44.376747 0.883732
10.087205 44.376747 1.131028
10.401946 44.376747 1.413181
10.716687 44.376747 1.680905
11.031426 44.376747 1.921132
11.346168 44.376747 2.126489
11.660909 44.376747 2.337014
11.975650 44.376747 2.542603
12.290391 44.376747 2.708533
12.605132 44.376747 2.806355
12.919873 44.376747 2.902427
13.234614 44.376747 2.945008
13.549356 44.376747 2.949260
13.864097 44.376747 2.951437
14.178838 44.376747 2.900601
14.493579 44.376747 2.799211
14.808320 44.376747 2.647352
15.123059 44.376747 2.538985
15.437800 44.376747 2.519170
15.752542 44.376747 2.528142
16.067284 44.376747 3.539903
16.382023 44.376747 0.000000
16.696766 44.376747 0.000000
17.011505 44.376747 0.000000
17.326248 44.376747 5.533101
17.640987 44.376747 4.381232
17.955730 44.376747 4.342580
18.270470 44.376747 4.470716
18.585213 44.376747 5.221322
18.899952 44.376747 4.192279
-7.223550 44.062004 0.000000
-6.908809 44.062004 0.000000
-6.594068 44.062004 0.041198
-6.279327 44.062004 0.039721
-5.964586 44.062004 0.039513
-5.649845 44.062004 0.039531
-5.335104 44.062004 0.039569
-5.020363 44.062004 0.039263
-4.705622 44.062004 0.038843
-4.390881 44.062004 0.038446
-4.076140 44.062004 0.037911
-3.761399 44.062004 0.037452
-3.446658 44.062004 0.037188
-3.131917 44.062004 0.037153
-2.817176 44.062004 0.037083
-2.502435 44.062004 0.036914
-2.187694 44.062004 0.036881
-1.872953 44.062004 0.036960
-1.558212 44.062004 0.037525
-1.243471 44.062004 0.038355
-0.928730 44.062004 0.039151
-0.613989 44.062004 0.039839
-0.299248 44.062004 0.040165
0.015493 44.062004 0.040499
0.330234 44.062004 0.040925
0.644975 44.062004 0.041239
0.959716 44.062004 0.041555
1.274457 44.062004 0.041828
1.589198 44.062004 0.041737
1.903938 44.062004 0.041163
2.218679 44.062004 0.040649
2.533421 44.062004 0.040596
2.848162 44.062004 0.040671
3.162903 44.062004 0.040910
3.477644 44.062004 0.041321
3.792385 44.062004 0.041932
4.107125 44.062004 0.042679
4.421866 44.062004 0.043769
4.736608 44.062004 0.045337
5.051349 44.062004 0.047634
5.366090 44.062004 0.050389
5.680831 44.062004 0.053799
5.995571 44.062004 0.057641
6.310312 44.062004 0.062651
6.625053 44.062004 0.068849
6.939795 44.062004 0.076499
7.254536 44.062004 0.085447
7.569277 44.062004 0.096912
7.884017 44.062004 0.115831
8.198758 44.062004 0.141917
8.513499 44.062004 0.191912
8.828240 44.062004 0.284273
9.142982 44.062004 0.428543
9.457723 44.062004 0.636695
9.772464 44.062004 0.873363
10.087205 44.062004 1.132090
10.401946 44.062004 1.412422
10.716687 44.062004 1.688891
11.031426 44.062004 1.907280
11.346168 44.062004 2.119415
11.660909 44.062004 2.333981
11.975650 44.062004 2.521397
12.290391 44.062004 2.700410
12.605132 44.062004 2.811219
12.919873 44.062004 2.899914
13.234614 44.062004 2.958777
13.549356 44.062004 2.959606
13.864097 44.062004 2.951496
14.178838 44.062004 2.901818
14.493579 44.062004 2.794174
14.808320 44.062004 2.658988
15.123059 44.062004 2.539473
15.437800 44.062004 2.567191
15.752542 44.062004 2.352213
16.067284 44.062004 0.000000
16.382023 44.062004 0.000000
16.696766 44.062004 0.000000
17.011505 44.062004 0.000000
17.326248 44.062004 0.000000
17.640987 44.062004 4.787157
17.955730 44.062004 4.639725
18.270470 44.062004 4.445336
18.585213 44.062004 5.364758
18.899952 44.062004 4.529515
-7.223550 43.747265 0.000000
-6.908809 43.747265 0.000000
-6.594068 43.747265 0.040833
-6.279327 43.747265 0.039515
-5.964586 43.747265 0.039476
-5.649845 43.747265 0.039606
-5.335104 43.747265 0.039800
-5.020363 43.747265 0.039741
-4.705622 43.747265 0.039506
-4.390881 43.747265 0.039160
-4.076140 43.747265 0.038523
-3.761399 43.747265 0.037911
-3.446658 43.747265 0.037609
-3.131917 43.747265 0.037386
-2.817176 43.747265 0.037060
-2.502435 43.747265 0.036792
-2.187694 43.747265 0.036668
-1.872953 43.747265 0.036617
-1.558212 43.747265 0.037007
-1.243471 43.747265 0.037616
-0.928730 43.747265 0.038246
-0.613989 43.747265 0.038929
-0.299248 43.747265 0.039405
0.015493 43.747265 0.039954
0.330234 43.747265 0.040546
0.644975 43.747265 0.041064
0.959716 43.747265 0.041605
1.274457 43.747265 0.042082
1.589198 43.747265 0.042131
1.903938 43.747265 0.041696
2.218679 43.747265 0.041335
2.533421 43.747265 0.041415
2.848162 43.747265 0.041465
3.162903 43.747265 0.041521
3.477644 43.747265 0.041790
3.792385 43.747265 0.042168
4.107125 43.747265 0.042728
4.421866 43.747265 0.043621
4.736608 43.747265 0.045007
5.051349 43.747265 0.047121
5.366090 43.747265 0.049648
5.680831 43.747265 0.052704
5.995571 43.747265 0.056459
6.310312 43.747265 0.061611
6.625053 43.747265 0.067768
6.939795 43.747265 0.074998
7.254536 43.747265 0.084392
7.569277 43.747265 0.097663
7.884017 43.747265 0.116842
8.198758 43.747265 0.141973
8.513499 43.747265 0.193778
8.828240 43.747265 0.282409
9.142982 43.747265 0.431184
9.457723 43.747265 0.635915
9.772464 43.747265 0.867853
10.087205 43.747265 1.134394
10.401946 43.747265 1.408837
10.716687 43.747265 1.681765
11.031426 43.747265 1.909709
11.346168 43.747265 2.107580
11.660909 43.747265 2.338053
11.975650 43.747265 2.532834
12.290391 43.747265 2.693096
12.605132 43.747265 2.828327
12.919873 43.747265 2.917362
13.234614 43.747265 2.956516
13.549356 43.747265 2.969413
13.864097 43.747265 2.970772
14.178838 43.747265 2.916028
14.493579 43.747265 2.795409
14.808320 43.747265 2.656411
15.123059 43.747265 2.553419
15.437800 43.747265 2.570359
15.752542 43.747265 2.172747
16.067284 43.747265 0.000000
16.382023 43.747265 0.000000
16.696766 43.747265 0.000000
17.011505 43.747265 0.000000
17.326248 43.747265 0.000000
17.640987 43.747265 4.686087
17.955730 43.747265 4.828160
18.270470 43.747265 4.661313
18.585213 43.747265 5.766111
18.899952 43.747265 4.808525
-7.223550 43.432522 0.000000
-6.908809 43.432522 0.000000
-6.594068 43.432522 0.040308
-6.279327 43.432522 0.039173
-5.964586 43.432522 0.039319
-5.649845 43.432522 0.039568
-5.335104 43.432522 0.039873
-5.020363 43.432522 0.040059
-4.705622 43.432522 0.040077
-4.390881 43.432522 0.039879
-4.076140 43.432522 0.039254
-3.761399 43.432522 0.038667
-3.446658 43.432522 0.038333
-3.131917 43.432522 0.037903
-2.817176 43.432522 0.037351
-2.502435 43.432522 0.037008
-2.187694 43.432522 0.036816
-1.872953 43.432522 0.036648
-1.558212 43.432522 0.036775
-1.243471 43.432522 0.037055
-0.928730 43.432522 0.037445
-0.613989 43.432522 0.037995
-0.299248 43.432522 0.038532
0.015493 43.432522 0.039215
0.330234 43.432522 0.039910
0.644975 43.432522 0.040543
0.959716 43.432522 0.041198
1.274457 43.432522 0.041836
1.589198 43.432522 0.042110
1.903938 43.432522 0.041981
2.218679 43.432522 0.041996
2.533421 43.432522 0.042291
2.848162 43.432522 0.042395
3.162903 43.432522 0.042359
3.477644 43.432522 0.042468
3.792385 43.432522 0.042700
4.107125 43.432522 0.043143
4.421866 43.432522 0.043885
4.736608 43.432522 0.045111
5.051349 43.432522 0.046853
5.366090 43.432522 0.049030
5.680831 43.432522 0.051670
5.995571 43.432522 0.055380
6.310312 43.432522 0.060350
6.625053 43.432522 0.066485
6.939795 43.432522 0.073881
7.254536 43.432522 0.084044
7.569277 43.432522 0.096716
7.884017 43.432522 0.114073
8.198758 43.432522 0.142095
8.513499 43.432522 0.191644
8.828240 43.432522 0.277559
9.142982 43.432522 0.432606
9.457723 43.432522 0.635170
9.772464 43.432522 0.874616
10.087205 43.432522 1.132747
10.401946 43.432522 1.409852
10.716687 43.432522 1.685067
11.031426 43.432522 1.904816
11.346168 43.432522 2.119776
11.660909 43.432522 2.329577
11.975650 43.432522 2.530868
12.290391 43.432522 2.704932
12.605132 43.432522 2.836311
12.919873 43.432522 2.911200
13.234614 43.432522 2.970017
13.549356 43.432522 2.995257
13.864097 43.432522 2.974050
14.178838 43.432522 2.905099
14.493579 43.432522 2.784050
14.808320 43.432522 2.642461
15.123059 43.432522 2.555409
15.437800 43.432522 2.593970
15.752542 43.432522 2.226536
16.067284 43.432522 0.000000
16.382023 43.432522 0.000000
16.696766 43.432522 0.000000
17.011505 43.432522 0.000000
17.326248 43.432522 0.000000
17.640987 43.432522 4.722422
17.955730 43.432522 5.177390
18.270470 43.432522 4.843913
18.585213 43.432522 5.885850
18.899952 43.432522 4.781125
-7.223550 43.117783 0.000000
-6.908809 43.117783 0.000000
-6.594068 43.117783 0.039652
-6.279327 43.117783 0.038715
-5.964586 43.117783 0.039041
-5.649845 43.117783 0.039360
-5.335104 43.117783 0.039689
-5.020363 43.117783 0.040068
-4.705622 43.117783 0.040357
-4.390881 43.117783 0.040366
-4.076140 43.117783 0.039952
-3.761399 43.117783 0.039491
-3.446658 43.117783 0.039216
-3.131917 43.117783 0.038691
-2.817176 43.117783 0.037984
-2.502435 43.117783 0.037595
-2.187694 43.117783 0.037324
-1.872953 43.117783 0.036993
-1.558212 43.117783 0.036786
-1.243471 43.117783 0.036707
-0.928730 43.117783 0.036856
-0.613989 43.117783 0.037238
-0.299248 43.117783 0.037731
0.015493 43.117783 0.038391
0.330234 43.117783 0.039082
0.644975 43.117783 0.039738
0.959716 43.117783 0.040475
1.274457 43.117783 0.041164
1.589198 43.117783 0.041664
1.903938 43.117783 0.041970
2.218679 43.117783 0.042415
2.533421 43.117783 0.043016
2.848162 43.117783 0.043233
3.162903 43.117783 0.043224
3.477644 43.117783 0.043241
3.792385 43.117783 0.043408
4.107125 43.117783 0.043791
4.421866 43.117783 0.044502
4.736608 43.117783 0.045516
5.051349 43.117783 0.046928
5.366090 43.117783 0.048740
5.680831 43.117783 0.051184
5.995571 43.117783 0.054493
6.310312 43.117783 0.059415
6.625053 43.117783 0.065261
6.939795 43.117783 0.072435
7.254536 43.117783 0.082632
7.569277 43.117783 0.095508
7.884017 43.117783 0.113353
8.198758 43.117783 0.141376
8.513499 43.117783 0.189503
8.828240 43.117783 0.270722
9.142982 43.117783 0.429184
9.457723 43.117783 0.638659
9.772464 43.117783 0.880126
10.087205 43.117783 1.147697
10.401946 43.117783 1.415542
10.716687 43.117783 1.679353
11.031426 43.117783 1.897519
11.346168 43.117783 2.131825
11.660909 43.117783 2.343127
11.975650 43.117783 2.544122
12.290391 43.117783 2.702852
12.605132 43.117783 2.828856
12.919873 43.117783 2.900900
13.234614 43.117783 2.949147
13.549356 43.117783 2.992227
13.864097 43.117783 2.971359
14.178838 43.117783 2.924212
14.493579 43.117783 2.787269
14.808320 43.117783 2.676497
15.123059 43.117783 2.606042
15.437800 43.117783 2.606684
15.752542 43.117783 2.053647
16.067284 43.117783 0.000000
16.382023 43.117783 0.000000
16.696766 43.117783 0.000000
17.011505 43.117783 0.000000
17.326248 43.117783 0.000000
17.640987 43.117783 5.488471
17.955730 43.117783 5.188895
18.270470 43.117783 5.092354
18.585213 43.117783 5.861796
18.899952 43.117783 5.189748
-7.223550 42.803040 0.000000
-6.908809 42.803040 0.000000
-6.594068 42.803040 0.039044
-6.279327 42.803040 0.038172
-5.964586 42.803040 0.038671
-5.649845 42.803040 0.038961
-5.335104 42.803040 0.039231
-5.020363 42.803040 0.039692
-4.705622 42.803040 0.040230
-4.390881 42.803040 0.040532
-4.076140 42.803040 0.040457
-3.761399 42.803040 0.040280
-3.446658 42.803040 0.040079
-3.131917 42.803040 0.039552
-2.817176 42.803040 0.038838
-2.502435 42.803040 0.038423
-2.187694 42.803040 0.038072
-1.872953 42.803040 0.037574
-1.558212 42.803040 0.036990
-1.243471 42.803040 0.036650
-0.928730 42.803040 0.036564
-0.613989 42.803040 0.036756
-0.299248 42.803040 0.037149
0.015493 42.803040 0.037646
0.330234 42.803040 0.038173
0.644975 42.803040 0.038807
0.959716 42.803040 0.039566
1.274457 42.803040 0.040278
1.589198 42.803040 0.040956
1.903938 42.803040 0.041662
2.218679 42.803040 0.042500
2.533421 42.803040 0.043307
2.848162 42.803040 0.043708
3.162903 42.803040 0.043822
3.477644 42.803040 0.043959
3.792385 42.803040 0.044164
4.107125 42.803040 0.044590
4.421866 42.803040 0.045333
4.736608 42.803040 0.046175
5.051349 42.803040 0.047292
5.366090 42.803040 0.048955
5.680831 42.803040 0.051056
5.995571 42.803040 0.054018
6.310312 42.803040 0.058458
6.625053 42.803040 0.064151
6.939795 42.803040 0.071114
7.254536 42.803040 0.081297
7.569277 42.803040 0.094002
7.884017 42.803040 0.111616
8.198758 42.803040 0.140832
8.513499 42.803040 0.187300
8.828240 42.803040 0.273058
9.142982 42.803040 0.423531
9.457723 42.803040 0.633466
9.772464 42.803040 0.885980
10.087205 42.803040 1.151788
10.401946 42.803040 1.437998
10.716687 42.803040 1.695501
11.031426 42.803040 1.912463
11.346168 42.803040 2.145082
11.660909 42.803040 2.347912
11.975650 42.803040 2.556393
12.290391 42.803040 2.722959
12.605132 42.803040 2.824341
12.919873 42.803040 2.899974
13.234614 42.803040 2.937262
13.549356 42.803040 2.993466
13.864097 42.803040 2.979072
14.178838 42.803040 2.923638
14.493579 42.803040 2.808276
14.808320 42.803040 2.701756
15.123059 42.803040 2.644083
15.437800 42.803040 2.637023
15.752542 42.803040 2.070132
16.067284 42.803040 0.000000
16.382023 42.803040 0.000000
16.696766 42.803040 0.000000
17.011505 42.803040 0.000000
17.326248 42.803040 0.000000
17.640987 42.803040 5.341504
17.955730 42.803040 5.205215
18.270470 42.803040 5.162154
18.585213 42.803040 6.027461
18.899952 42.803040 4.247365
-7.223550 42.488300 0.000000
-6.908809 42.488300 0.000000
-6.594068 42.488300 0.038512
-6.279327 42.488300 0.037624
-5.964586 42.488300 0.038117
-5.649845 42.488300 0.038381
-5.335104 42.488300 0.038530
-5.020363 42.488300 0.039041
-4.705622 42.488300 0.039760
-4.390881 42.488300 0.040342
-4.076140 42.488300 0.040616
-3.761399 42.488300 0.040743
-3.446658 42.488300 0.040664
-3.131917 42.488300 0.040279
-2.817176 42.488300 0.039717
-2.502435 42.488300 0.039298
-2.187694 42.488300 0.038907
-1.872953 42.488300 0.038244
-1.558212 42.488300 0.037452
-1.243471 42.488300 0.036867
-0.928730 42.488300 0.036540
-0.613989 42.488300 0.036562
-0.299248 42.488300 0.036840
0.015493 42.488300 0.037080
0.330234 42.488300 0.037391
0.644975 42.488300 0.037924
0.959716 42.488300 0.038655
1.274457 42.488300 0.039368
1.589198 42.488300 0.040194
1.903938 42.488300 0.041179
2.218679 42.488300 0.042291
2.533421 42.488300 0.043261
2.848162 42.488300 0.043821
3.162903 42.488300 0.044136
3.477644 42.488300 0.044454
3.792385 42.488300 0.044821
4.107125 42.488300 0.045379
4.421866 42.488300 0.046153
4.736608 42.488300 0.046995
5.051349 42.488300 0.047920
5.366090 42.488300 0.049405
5.680831 42.488300 0.051329
5.995571 42.488300 0.054114
6.310312 42.488300 0.058077
6.625053 42.488300 0.063345
6.939795 42.488300 0.070465
7.254536 42.488300 0.079905
7.569277 42.488300 0.092903
7.884017 42.488300 0.110108
8.198758 42.488300 0.137465
8.513499 42.488300 0.188399
8.828240 42.488300 0.271841
9.142982 42.488300 0.421890
9.457723 42.488300 0.629142
9.772464 42.488300 0.886107
10.087205 42.488300 1.155055
10.401946 42.488300 1.436878
10.716687 42.488300 1.712901
11.031426 42.488300 1.947999
11.346168 42.488300 2.145395
11.660909 42.488300 2.333854
11.975650 42.488300 2.563338
12.290391 42.488300 2.722383
12.605132 42.488300 2.813631
12.919873 42.488300 2.916712
13.234614 42.488300 2.944176
13.549356 42.488300 3.001471
13.864097 42.488300 2.979916
14.178838 42.488300 2.936424
14.493579 42.488300 2.811918
14.808320 42.488300 2.695060
15.123059 42.488300 2.601421
15.437800 42.488300 2.630894
15.752542 42.488300 2.205721
16.067284 42.488300 0.000000
16.382023 42.488300 0.000000
16.696766 42.488300 0.000000
17.011505 42.488300 0.000000
17.326248 42.488300 0.000000
17.640987 42.488300 5.008279
17.955730 42.488300 5.550561
18.270470 42.488300 5.329102
18.585213 42.488300 6.255237
18.899952 42.488300 4.631067
-7.223550 42.173557 0.000000
-6.908809 42.173557 0.000000
-6.594068 42.173557 0.038078
-6.279327 42.173557 0.037067
-5.964586 42.173557 0.037480
-5.649845 42.173557 0.037652
-5.335104 42.173557 0.037679
-5.020363 42.173557 0.038198
-4.705622 42.173557 0.039039
-4.390881 42.173557 0.039799
-4.076140 42.173557 0.040295
-3.761399 42.173557 0.040673
-3.446658 42.173557 0.040791
-3.131917 42.173557 0.040644
-2.817176 42.173557 0.040342
-2.502435 42.173557 0.040038
-2.187694 42.173557 0.039641
-1.872953 42.173557 0.038963
-1.558212 42.173557 0.038097
-1.243471 42.173557 0.037307
-0.928730 42.173557 0.036794
-0.613989 42.173557 0.036701
-0.299248 42.173557 0.036836
0.015493 42.173557 0.036837
0.330234 42.173557 0.036937
0.644975 42.173557 0.037278
0.959716 42.173557 0.037893
1.274457 42.173557 0.038611
1.589198 42.173557 0.039508
1.903938 42.173557 0.040608
2.218679 42.173557 0.041771
2.533421 42.173557 0.042783
2.848162 42.173557 0.043573
3.162903 42.173557 0.044132
3.477644 42.173557 0.044713
3.792385 42.173557 0.045340
4.107125 42.173557 0.046088
4.421866 42.173557 0.046892
4.736608 42.173557 0.047733
5.051349 42.173557 0.048664
5.366090 42.173557 0.049946
5.680831 42.173557 0.051888
5.995571 42.173557 0.054553
6.310312 42.173557 0.058352
6.625053 42.173557 0.063202
6.939795 42.173557 0.070019
7.254536 42.173557 0.079046
7.569277 42.173557 0.091255
7.884017 42.173557 0.107848
8.198758 42.173557 0.135727
8.513499 42.173557 0.187021
8.828240 42.173557 0.276818
9.142982 42.173557 0.429840
9.457723 42.173557 0.632491
9.772464 42.173557 0.884733
10.087205 42.173557 1.155222
10.401946 42.173557 1.434435
10.716687 42.173557 1.717096
11.031426 42.173557 1.951711
11.346168 42.173557 2.149383
11.660909 42.173557 2.351013
11.975650 42.173557 2.558823
12.290391 42.173557 2.712779
12.605132 42.173557 2.803314
12.919873 42.173557 2.894127
13.234614 42.173557 2.960321
13.549356 42.173557 2.996173
13.864097 42.173557 2.995770
14.178838 42.173557 2.932386
14.493579 42.173557 2.784788
14.808320 42.173557 2.681950
15.123059 42.173557 2.631340
15.437800 42.173557 2.645290
15.752542 42.173557 2.200118
16.067284 42.173557 0.000000
16.382023 42.173557 0.000000
16.696766 42.173557 0.000000
17.011505 42.173557 0.000000
17.326248 42.173557 0.000000
17.640987 42.173557 5.232247
17.955730 42.173557 5.921091
18.270470 42.173557 5.656505
18.585213 42.173557 6.457480
18.899952 42.173557 3.383284
-7.223550 41.858818 0.000000
-6.908809 41.858818 0.000000
-6.594068 41.858818 0.037821
-6.279327 41.858818 0.036678
-5.964586 41.858818 0.036931
-5.649845 41.858818 0.036960
-5.335104 41.858818 0.036851
-5.020363 41.858818 0.037339
-4.705622 41.858818 0.038179
-4.390881 41.858818 0.038970
-4.076140 41.858818 0.039541
-3.761399 41.858818 0.040074
-3.446658 41.858818 0.040428
-3.131917 41.858818 0.040597
-2.817176 41.858818 0.040538
-2.502435 41.858818 0.040486
-2.187694 41.858818 0.040159
-1.872953 41.858818 0.039526
-1.558212 41.858818 0.038682
-1.243471 41.858818 0.037893
-0.928730 41.858818 0.037301
-0.613989 41.858818 0.037139
-0.299248 41.858818 0.037135
0.015493 41.858818 0.036906
0.330234 41.858818 0.036752
0.644975 41.858818 0.036901
0.959716 41.858818 0.037374
1.274457 41.858818 0.038101
1.589198 41.858818 0.038935
1.903938 41.858818 0.039986
2.218679 41.858818 0.041055
2.533421 41.858818 0.042073
2.848162 41.858818 0.043038
3.162903 41.858818 0.043810
3.477644 41.858818 0.044692
3.792385 41.858818 0.045597
4.107125 41.858818 0.046541
4.421866 41.858818 0.047407
4.736608 41.858818 0.048351
5.051349 41.858818 0.049243
5.366090 41.858818 0.050610
5.680831 41.858818 0.052549
5.995571 41.858818 0.055183
6.310312 41.858818 0.058694
6.625053 41.858818 0.063317
6.939795 41.858818 0.069526
7.254536 41.858818 0.078593
7.569277 41.858818 0.091170
7.884017 41.858818 0.107327
8.198758 41.858818 0.134232
8.513499 41.858818 0.185921
8.828240 41.858818 0.276507
9.142982 41.858818 0.430729
9.457723 41.858818 0.641923
9.772464 41.858818 0.880905
10.087205 41.858818 1.143653
10.401946 41.858818 1.436005
10.716687 41.858818 1.705748
11.031426 41.858818 1.950427
11.346168 41.858818 2.153606
11.660909 41.858818 2.345511
11.975650 41.858818 2.550685
12.290391 41.858818 2.706266
12.605132 41.858818 2.808146
12.919873 41.858818 2.890102
13.234614 41.858818 2.956274
13.549356 41.858818 3.009655
13.864097 41.858818 3.000587
14.178838 41.858818 2.935037
14.493579 41.858818 2.796782
14.808320 41.858818 2.700605
15.123059 41.858818 2.641479
15.437800 41.858818 2.659702
15.752542 41.858818 2.439025
16.067284 41.858818 0.000000
16.382023 41.858818 0.000000
16.696766 41.858818 0.000000
17.011505 41.858818 0.000000
17.326248 41.858818 0.000000
17.640987 41.858818 6.214756
17.955730 41.858818 6.184695
18.270470 41.858818 5.808203
18.585213 41.858818 6.736366
18.899952 41.858818 0.000000
-7.223550 41.544075 0.000000
-6.908809 41.544075 0.000000
-6.594068 41.544075 0.037750
-6.279327 41.544075 0.036486
-5.964586 41.544075 0.036581
-5.649845 41.544075 0.036437
-5.335104 41.544075 0.036240
-5.020363 41.544075 0.036672
-4.705622 41.544075 0.037386
-4.390881 41.544075 0.038042
-4.076140 41.544075 0.038584
-3.761399 41.544075 0.039167
-3.446658 41.544075 0.039718
-3.131917 41.544075 0.040149
-2.817176 41.544075 0.040390
-2.502435 41.544075 0.040639
-2.187694 41.544075 0.040499
-1.872953 41.544075 0.039967
-1.558212 41.544075 0.039287
-1.243471 41.544075 0.038579
-0.928730 41.544075 0.038009
-0.613989 41.544075 0.037741
-0.299248 41.544075 0.037577
0.015493 41.544075 0.037156
0.330234 41.544075 0.036797
0.644975 41.544075 0.036758
0.959716 41.544075 0.037129
1.274457 41.544075 0.037706
1.589198 41.544075 0.038425
1.903938 41.544075 0.039355
2.218679 41.544075 0.040303
2.533421 41.544075 0.041268
2.848162 41.544075 0.042295
3.162903 41.544075 0.043297
3.477644 41.544075 0.044452
3.792385 41.544075 0.045625
4.107125 41.544075 0.046697
4.421866 41.544075 0.047653
4.736608 41.544075 0.048695
5.051349 41.544075 0.049654
5.366090 41.544075 0.051093
5.680831 41.544075 0.053295
5.995571 41.544075 0.055925
6.310312 41.544075 0.059231
6.625053 41.544075 0.063707
6.939795 41.544075 0.070083
7.254536 41.544075 0.078688
7.569277 41.544075 0.091290
7.884017 41.544075 0.107169
8.198758 41.544075 0.134664
8.513499 41.544075 0.184531
8.828240 41.544075 0.276182
9.142982 41.544075 0.433105
9.457723 41.544075 0.647099
9.772464 41.544075 0.892671
10.087205 41.544075 1.145324
10.401946 41.544075 1.451669
10.716687 41.544075 1.711484
11.031426 41.544075 1.939499
11.346168 41.544075 2.159269
11.660909 41.544075 2.366271
11.975650 41.544075 2.556770
12.290391 41.544075 2.714787
12.605132 41.544075 2.797245
12.919873 41.544075 2.870898
13.234614 41.544075 2.962122
13.549356 41.544075 3.002620
13.864097 41.544075 3.026633
14.178838 41.544075 2.936681
14.493579 41.544075 2.817317
14.808320 41.544075 2.679305
15.123059 41.544075 2.639434
15.437800 41.544075 2.713394
15.752542 41.544075 2.519522
16.067284 41.544075 0.000000
16.382023 41.544075 0.000000
16.696766 41.544075 0.000000
17.011505 41.544075 0.000000
17.326248 41.544075 0.000000
17.640987 41.544075 6.464925
17.955730 41.544075 6.628979
18.270470 41.544075 6.545702
18.585213 41.544075 7.286336
18.899952 41.544075 0.000000
-7.223550 41.229336 0.000000
-6.908809 41.229336 0.000000
-6.594068 41.229336 0.037818
-6.279327 41.229336 0.036538
-5.964586 41.229336 0.036509
-5.649845 41.229336 0.036199
-5.335104 41.229336 0.035975
-5.020363 41.229336 0.036316
-4.705622 41.229336 0.036816
-4.390881 41.229336 0.037231
-4.076140 41.229336 0.037650
-3.761399 41.229336 0.038192
-3.446658 41.229336 0.038841
-3.131917 41.229336 0.039481
-2.817176 41.229336 0.039999
-2.502435 41.229336 0.040489
-2.187694 41.229336 0.040529
-1.872953 41.229336 0.040182
-1.558212 41.229336 0.039828
-1.243471 41.229336 0.039343
-0.928730 41.229336 0.038806
-0.613989 41.229336 0.038465
-0.299248 41.229336 0.038105
0.015493 41.229336 0.037506
0.330234 41.229336 0.037034
0.644975 41.229336 0.036885
0.959716 41.229336 0.037097
1.274457 41.229336 0.037492
1.589198 41.229336 0.038013
1.903938 41.229336 0.038735
2.218679 41.229336 0.039548
2.533421 41.229336 0.040427
2.848162 41.229336 0.041431
3.162903 41.229336 0.042645
3.477644 41.229336 0.044110
3.792385 41.229336 0.045446
4.107125 41.229336 0.046528
4.421866 41.229336 0.047542
4.736608 41.229336 0.048771
5.051349 41.229336 0.049947
5.366090 41.229336 0.051447
5.680831 41.229336 0.053658
5.995571 41.229336 0.056567
6.310312 41.229336 0.059781
6.625053 41.229336 0.064246
6.939795 41.229336 0.069949
7.254536 41.229336 0.078789
7.569277 41.229336 0.091102
7.884017 41.229336 0.108199
8.198758 41.229336 0.135897
8.513499 41.229336 0.183675
8.828240 41.229336 0.281901
9.142982 41.229336 0.440914
9.457723 41.229336 0.641095
9.772464 41.229336 0.896305
10.087205 41.229336 1.165256
10.401946 41.229336 1.435976
10.716687 41.229336 1.720711
11.031426 41.229336 1.943359
11.346168 41.229336 2.150072
11.660909 41.229336 2.376647
11.975650 41.229336 2.583716
12.290391 41.229336 2.737895
12.605132 41.229336 2.807542
12.919873 41.229336 2.903967
13.234614 41.229336 2.962806
13.549356 41.229336 3.031444
13.864097 41.229336 3.026674
14.178838 41.229336 2.947533
14.493579 41.229336 2.801428
14.808320 41.229336 2.696722
15.123059 41.229336 2.655867
15.437800 41.229336 2.738092
15.752542 41.229336 2.538545
16.067284 41.229336 0.000000
16.382023 41.229336 0.000000
16.696766 41.229336 0.000000
17.011505 41.229336 0.000000
17.326248 41.229336 0.000000
17.640987 41.229336 6.932886
17.955730 41.229336 7.395147
18.270470 41.229336 7.172576
18.585213 41.229336 8.120131
18.899952 41.229336 0.000000
-7.223550 40.914597 0.000000
-6.908809 40.914597 0.000000
-6.594068 40.914597 0.038218
-6.279327 40.914597 0.036828
-5.964586 40.914597 0.036601
-5.649845 40.914597 0.036189
-5.335104 40.914597 0.035939
-5.020363 40.914597 0.036159
-4.705622 40.914597 0.036439
-4.390881 40.914597 0.036560
-4.076140 40.914597 0.036831
-3.761399 40.914597 0.037283
-3.446658 40.914597 0.037951
-3.131917 40.914597 0.038727
-2.817176 40.914597 0.039413
-2.502435 40.914597 0.040077
-2.187694 40.914597 0.040293
-1.872953 40.914597 0.040174
-1.558212 40.914597 0.040180
-1.243471 40.914597 0.039994
-0.928730 40.914597 0.039566
-0.613989 40.914597 0.039145
-0.299248 40.914597 0.038584
0.015493 40.914597 0.037880
0.330234 40.914597 0.037427
0.644975 40.914597 0.037217
0.959716 40.914597 0.037270
1.274457 40.914597 0.037390
1.589198 40.914597 0.037622
1.903938 40.914597 0.038113
2.218679 40.914597 0.038834
2.533421 40.914597 0.039605
2.848162 40.914597 0.040580
3.162903 40.914597 0.041960
3.477644 40.914597 0.043621
3.792385 40.914597 0.045078
4.107125 40.914597 0.046176
4.421866 40.914597 0.047231
4.736608 40.914597 0.048658
5.051349 40.914597 0.050055
5.366090 40.914597 0.051843
5.680831 40.914597 0.054163
5.995571 40.914597 0.056959
6.310312 40.914597 0.060437
6.625053 40.914597 0.064833
6.939795 40.914597 0.070415
7.254536 40.914597 0.079132
7.569277 40.914597 0.090998
7.884017 40.914597 0.109693
8.198758 40.914597 0.136221
8.513499 40.914597 0.184594
8.828240 40.914597 0.282043
9.142982 40.914597 0.441116
9.457723 40.914597 0.638125
9.772464 40.914597 0.896038
10.087205 40.914597 1.174015
10.401946 40.914597 1.443831
10.716687 40.914597 1.706211
11.031426 40.914597 1.949572
11.346168 40.914597 2.154399
11.660909 40.914597 2.394651
11.975650 40.914597 2.575455
12.290391 40.914597 2.753271
12.605132 40.914597 2.841632
12.919873 40.914597 2.900759
13.234614 40.914597 2.962931
13.549356 40.914597 3.026043
13.864097 40.914597 3.011879
14.178838 40.914597 2.938592
14.493579 40.914597 2.774022
14.808320 40.914597 2.672621
15.123059 40.914597 2.657553
15.437800 40.914597 2.724008
15.752542 40.914597 2.473971
16.067284 40.914597 0.000000
16.382023 40.914597 0.000000
16.696766 40.914597 0.000000
17.011505 40.914597 0.000000
17.326248 40.914597 0.000000
17.640987 40.914597 7.845972
17.955730 40.914597 7.997768
18.270470 40.914597 7.566817
18.585213 40.914597 8.401966
18.899952 40.914597 0.000000
-7.223550 40.599854 0.000000
-6.908809 40.599854 0.000000
-6.594068 40.599854 0.038858
-6.279327 40.599854 0.037284
-5.964586 40.599854 0.036821
-5.649845 40.599854 0.036368
-5.335104 40.599854 0.036137
-5.020363 40.599854 0.036227
-4.705622 40.599854 0.036226
-4.390881 40.599854 0.036112
-4.076140 40.599854 0.036230
-3.761399 40.599854 0.036578
-3.446658 40.599854 0.037195
-3.131917 40.599854 0.037980
-2.817176 40.599854 0.038698
-2.502435 40.599854 0.039455
-2.187694 40.599854 0.039787
-1.872953 40.599854 0.039942
-1.558212 40.599854 0.040281
-1.243471 40.599854 0.040448
-0.928730 40.599854 0.040177
-0.613989 40.599854 0.039701
-0.299248 40.599854 0.039023
0.015493 40.599854 0.038285
0.330234 40.599854 0.037878
0.644975 40.599854 0.037651
0.959716 40.599854 0.037539
1.274457 40.599854 0.037388
1.589198 40.599854 0.037337
1.903938 40.599854 0.037615
2.218679 40.599854 0.038257
2.533421 40.599854 0.038990
2.848162 40.599854 0.039947
3.162903 40.599854 0.041372
3.477644 40.599854 0.043075
3.792385 40.599854 0.044531
4.107125 40.599854 0.045641
4.421866 40.599854 0.046714
4.736608 40.599854 0.048308
5.051349 40.599854 0.050036
5.366090 40.599854 0.051928
5.680831 40.599854 0.054570
5.995571 40.599854 0.057214
6.310312 40.599854 0.060895
6.625053 40.599854 0.065210
6.939795 40.599854 0.070988
7.254536 40.599854 0.079075
7.569277 40.599854 0.091071
7.884017 40.599854 0.108368
8.198758 40.599854 0.137374
8.513499 40.599854 0.189713
8.828240 40.599854 0.281130
9.142982 40.599854 0.433052
9.457723 40.599854 0.644628
9.772464 40.599854 0.892033
10.087205 40.599854 1.183650
10.401946 40.599854 1.439066
10.716687 40.599854 1.719789
11.031426 40.599854 1.970122
11.346168 40.599854 2.171136
11.660909 40.599854 2.393613
11.975650 40.599854 2.594469
12.290391 40.599854 2.762081
12.605132 40.599854 2.873990
12.919873 40.599854 2.924932
13.234614 40.599854 2.964283
13.549356 40.599854 3.008954
13.864097 40.599854 3.016997
14.178838 40.599854 2.914720
14.493579 40.599854 2.795903
14.808320 40.599854 2.662251
15.123059 40.599854 2.636987
15.437800 40.599854 2.715602
15.752542 40.599854 2.411131
16.067284 40.599854 0.000000
16.382023 40.599854 0.000000
16.696766 40.599854 0.000000
17.011505 40.599854 0.000000
17.326248 40.599854 0.000000
17.640987 40.599854 8.440405
17.955730 40.599854 8.493190
18.270470 40.599854 8.102132
18.585213 40.599854 8.831457
18.899952 40.599854 0.000000
-7.223550 40.285114 0.000000
-6.908809 40.285114 0.000000
-6.594068 40.285114 0.039637
-6.279327 40.285114 0.037851
-5.964586 40.285114 0.037212
-5.649845 40.285114 0.036727
-5.335104 40.285114 0.036480
-5.020363 40.285114 0.036418
-4.705622 40.285114 0.036198
-4.390881 40.285114 0.035898
-4.076140 40.285114 0.035913
-3.761399 40.285114 0.036170
-3.446658 40.285114 0.036694
-3.131917 40.285114 0.037344
-2.817176 40.285114 0.037979
-2.502435 40.285114 0.038695
-2.187694 40.285114 0.039092
-1.872953 40.285114 0.039452
-1.558212 40.285114 0.040111
-1.243471 40.285114 0.040612
-0.928730 40.285114 0.040538
-0.613989 40.285114 0.040110
-0.299248 40.285114 0.039459
0.015493 40.285114 0.038755
0.330234 40.285114 0.038351
0.644975 40.285114 0.038112
0.959716 40.285114 0.037831
1.274457 40.285114 0.037508
1.589198 40.285114 0.037245
1.903938 40.285114 0.037320
2.218679 40.285114 0.037847
2.533421 40.285114 0.038587
2.848162 40.285114 0.039495
3.162903 40.285114 0.040868
3.477644 40.285114 0.042467
3.792385 40.285114 0.043902
4.107125 40.285114 0.045038
4.421866 40.285114 0.046242
4.736608 40.285114 0.047934
5.051349 40.285114 0.049916
5.366090 40.285114 0.052060
5.680831 40.285114 0.054643
5.995571 40.285114 0.057488
6.310312 40.285114 0.061106
6.625053 40.285114 0.065328
6.939795 40.285114 0.071190
7.254536 40.285114 0.078875
7.569277 40.285114 0.091185
7.884017 40.285114 0.109115
8.198758 40.285114 0.135013
8.513499 40.285114 0.187293
8.828240 40.285114 0.282851
9.142982 40.285114 0.443351
9.457723 40.285114 0.650013
9.772464 40.285114 0.896658
10.087205 40.285114 1.162207
10.401946 40.285114 1.420397
10.716687 40.285114 1.722520
11.031426 40.285114 1.959089
11.346168 40.285114 2.187409
11.660909 40.285114 2.403667
11.975650 40.285114 2.608069
12.290391 40.285114 2.771065
12.605132 40.285114 2.879673
12.919873 40.285114 2.935295
13.234614 40.285114 2.969234
13.549356 40.285114 3.003661
13.864097 40.285114 2.985099
14.178838 40.285114 2.921637
14.493579 40.285114 2.797039
14.808320 40.285114 2.711280
15.123059 40.285114 2.638431
15.437800 40.285114 2.733706
15.752542 40.285114 2.450389
16.067284 40.285114 0.000000
16.382023 40.285114 0.000000
16.696766 40.285114 0.000000
17.011505 40.285114 0.000000
17.326248 40.285114 0.000000
17.640987 40.285114 9.097967
17.955730 40.285114 9.068781
18.270470 40.285114 8.612255
18.585213 40.285114 9.408428
18.899952 40.285114 0.000000
-7.223550 39.970371 0.000000
-6.908809 39.970371 0.000000
-6.594068 39.970371 0.040353
-6.279327 39.970371 0.038446
-5.964586 39.970371 0.037722
-5.649845 39.970371 0.037205
-5.335104 39.970371 0.036890
-5.020363 39.970371 0.036692
-4.705622 39.970371 0.036293
-4.390881 39.970371 0.035833
-4.076140 39.970371 0.035742
-3.761399 39.970371 0.035994
-3.446658 39.970371 0.036399
-3.131917 39.970371 0.036850
-2.817176 39.970371 0.037377
-2.502435 39.970371 0.037978
-2.187694 39.970371 0.038367
-1.872953 39.970371 0.038880
-1.558212 39.970371 0.039738
-1.243471 39.970371 0.040468
-0.928730 39.970371 0.040571
-0.613989 39.970371 0.040273
-0.299248 39.970371 0.039722
0.015493 39.970371 0.039149
0.330234 39.970371 0.038825
0.644975 39.970371 0.038575
0.959716 39.970371 0.038216
1.274457 39.970371 0.037787
1.589198 39.970371 0.037378
1.903938 39.970371 0.037262
2.218679 39.970371 0.037702
2.533421 39.970371 0.038385
2.848162 39.970371 0.039232
3.162903 39.970371 0.040482
3.477644 39.970371 0.041920
3.792385 39.970371 0.043283
4.107125 39.970371 0.044475
4.421866 39.970371 0.045798
4.736608 39.970371 0.047598
5.051349 39.970371 0.049713
5.366090 39.970371 0.052060
5.680831 39.970371 0.054413
5.995571 39.970371 0.057370
6.310312 39.970371 0.061229
6.625053 39.970371 0.065630
6.939795 39.970371 0.071348
7.254536 39.970371 0.079574
7.569277 39.970371 0.092143
7.884017 39.970371 0.108929
8.198758 39.970371 0.137003
8.513499 39.970371 0.187004
8.828240 39.970371 0.285757
9.142982 39.970371 0.451829
9.457723 39.970371 0.650924
9.772464 39.970371 0.894528
10.087205 39.970371 1.168670
10.401946 39.970371 1.427012
10.716687 39.970371 1.711809
11.031426 39.970371 1.968597
11.346168 39.970371 2.194554
11.660909 39.970371 2.415668
11.975650 39.970371 2.600227
12.290391 39.970371 2.767016
12.605132 39.970371 2.871399
12.919873 39.970371 2.930148
13.234614 39.970371 2.961801
13.549356 39.970371 2.995289
13.864097 39.970371 2.967181
14.178838 39.970371 2.898158
14.493579 39.970371 2.809081
14.808320 39.970371 2.720420
15.123059 39.970371 2.698309
15.437800 39.970371 2.799660
15.752542 39.970371 2.442640
16.067284 39.970371 0.000000
16.382023 39.970371 0.000000
16.696766 39.970371 0.000000
17.011505 39.970371 0.000000
17.326248 39.970371 0.000000
17.640987 39.970371 10.473138
17.955730 39.970371 10.011154
18.270470 39.970371 9.380626
18.585213 39.970371 9.829792
18.899952 39.970371 0.000000
-7.223550 39.655632 0.000000
-6.908809 39.655632 0.000000
-6.594068 39.655632 0.040887
-6.279327 39.655632 0.039010
-5.964586 39.655632 0.038287
-5.649845 39.655632 0.037769
-5.335104 39.655632 0.037341
-5.020363 39.655632 0.036968
-4.705622 39.655632 0.036425
-4.390881 39.655632 0.035862
-4.076140 39.655632 0.035681
-3.761399 39.655632 0.035954
-3.446658 39.655632 0.036266
-3.131917 39.655632 0.036532
-2.817176 39.655632 0.036888
-2.502435 39.655632 0.037332
-2.187694 39.655632 0.037761
-1.872953 39.655632 0.038396
-1.558212 39.655632 0.039279
-1.243471 39.655632 0.040061
-0.928730 39.655632 0.040315
-0.613989 39.655632 0.040190
-0.299248 39.655632 0.039803
0.015493 39.655632 0.039418
0.330234 39.655632 0.039137
0.644975 39.655632 0.038899
0.959716 39.655632 0.038562
1.274457 39.655632 0.038158
1.589198 39.655632 0.037672
1.903938 39.655632 0.037476
2.218679 39.655632 0.037777
2.533421 39.655632 0.038371
2.848162 39.655632 0.039099
3.162903 39.655632 0.040201
3.477644 39.655632 0.041526
3.792385 39.655632 0.042830
4.107125 39.655632 0.044053
4.421866 39.655632 0.045463
4.736608 39.655632 0.047307
5.051349 39.655632 0.049534
5.366090 39.655632 0.051836
5.680831 39.655632 0.054417
5.995571 39.655632 0.057263
6.310312 39.655632 0.061355
6.625053 39.655632 0.066074
6.939795 39.655632 0.071208
7.254536 39.655632 0.079733
7.569277 39.655632 0.092812
7.884017 39.655632 0.110549
8.198758 39.655632 0.136421
8.513499 39.655632 0.188756
8.828240 39.655632 0.287491
9.142982 39.655632 0.439663
9.457723 39.655632 0.652221
9.772464 39.655632 0.910679
10.087205 39.655632 1.172038
10.401946 39.655632 1.437183
10.716687 39.655632 1.699641
11.031426 39.655632 1.962067
11.346168 39.655632 2.195732
11.660909 39.655632 2.409418
11.975650 39.655632 2.612779
12.290391 39.655632 2.747465
12.605132 39.655632 2.874144
12.919873 39.655632 2.947863
13.234614 39.655632 2.975032
13.549356 39.655632 2.987393
13.864097 39.655632 2.979887
14.178838 39.655632 2.920370
14.493579 39.655632 2.815691
14.808320 39.655632 2.738245
15.123059 39.655632 2.666654
15.437800 39.655632 2.760163
15.752542 39.655632 2.405464
16.067284 39.655632 0.000000
16.382023 39.655632 0.000000
16.696766 39.655632 0.000000
17.011505 39.655632 0.000000
17.326248 39.655632 0.000000
17.640987 39.655632 12.511331
17.955730 39.655632 11.674589
18.270470 39.655632 10.678542
18.585213 39.655632 11.350012
18.899952 39.655632 0.000000
-7.223550 39.340889 0.000000
-6.908809 39.340889 0.000000
-6.594068 39.340889 0.041280
-6.279327 39.340889 0.039513
-5.964586 39.340889 0.038837
-5.649845 39.340889 0.038342
-5.335104 39.340889 0.037797
-5.020363 39.340889 0.037264
-4.705622 39.340889 0.036649
-4.390881 39.340889 0.036040
-4.076140 39.340889 0.035805
-3.761399 39.340889 0.036030
-3.446658 39.340889 0.036250
-3.131917 39.340889 0.036338
-2.817176 39.340889 0.036498
-2.502435 39.340889 0.036874
-2.187694 39.340889 0.037345
-1.872953 39.340889 0.038017
-1.558212 39.340889 0.038809
-1.243471 39.340889 0.039532
-0.928730 39.340889 0.039835
-0.613989 39.340889 0.039872
-0.299248 39.340889 0.039701
0.015493 39.340889 0.039516
0.330234 39.340889 0.039294
0.644975 39.340889 0.039085
0.959716 39.340889 0.038814
1.274457 39.340889 0.038490
1.589198 39.340889 0.038020
1.903938 39.340889 0.037818
2.218679 39.340889 0.038038
2.533421 39.340889 0.038513
2.848162 39.340889 0.039105
3.162903 39.340889 0.040068
3.477644 39.340889 0.041256
3.792385 39.340889 0.042526
4.107125 39.340889 0.043779
4.421866 39.340889 0.045243
4.736608 39.340889 0.047113
5.051349 39.340889 0.049382
5.366090 39.340889 0.051561
5.680831 39.340889 0.054004
5.995571 39.340889 0.057155
6.310312 39.340889 0.061195
6.625053 39.340889 0.066400
6.939795 39.340889 0.071419
7.254536 39.340889 0.080198
7.569277 39.340889 0.092253
7.884017 39.340889 0.112075
8.198758 39.340889 0.137456
8.513499 39.340889 0.190465
8.828240 39.340889 0.287192
9.142982 39.340889 0.447066
9.457723 39.340889 0.657182
9.772464 39.340889 0.922983
10.087205 39.340889 1.193506
10.401946 39.340889 1.457840
10.716687 39.340889 1.730727
11.031426 39.340889 1.965389
11.346168 39.340889 2.185257
11.660909 39.340889 2.409925
11.975650 39.340889 2.615983
12.290391 39.340889 2.756809
12.605132 39.340889 2.860960
12.919873 39.340889 2.952239
13.234614 39.340889 2.998564
13.549356 39.340889 3.011837
13.864097 39.340889 2.964111
14.178838 39.340889 2.899934
14.493579 39.340889 2.819950
14.808320 39.340889 2.738091
15.123059 39.340889 2.670855
15.437800 39.340889 2.752243
15.752542 39.340889 2.508137
16.067284 39.340889 0.000000
16.382023 39.340889 0.000000
16.696766 39.340889 0.000000
17.011505 39.340889 0.000000
17.326248 39.340889 0.000000
17.640987 39.340889 14.661743
17.955730 39.340889 13.546627
18.270470 39.340889 12.420769
18.585213 39.340889 12.760098
18.899952 39.340889 0.000000
-7.223550 39.026150 0.000000
-6.908809 39.026150 0.000000
-6.594068 39.026150 0.041447
-6.279327 39.026150 0.039916
-5.964586 39.026150 0.039348
-5.649845 39.026150 0.038909
-5.335104 39.026150 0.038235
-5.020363 39.026150 0.037581
-4.705622 39.026150 0.036959
-4.390881 39.026150 0.036346
-4.076140 39.026150 0.036050
-3.761399 39.026150 0.036141
-3.446658 39.026150 0.036243
-3.131917 39.026150 0.036226
-2.817176 39.026150 0.036296
-2.502435 39.026150 0.036656
-2.187694 39.026150 0.037148
-1.872953 39.026150 0.037788
-1.558212 39.026150 0.038423
-1.243471 39.026150 0.038940
-0.928730 39.026150 0.039239
-0.613989 39.026150 0.039429
-0.299248 39.026150 0.039512
0.015493 39.026150 0.039480
0.330234 39.026150 0.039321
0.644975 39.026150 0.039200
0.959716 39.026150 0.039048
1.274457 39.026150 0.038778
1.589198 39.026150 0.038384
1.903938 39.026150 0.038188
2.218679 39.026150 0.038401
2.533421 39.026150 0.038755
2.848162 39.026150 0.039215
3.162903 39.026150 0.040005
3.477644 39.026150 0.041057
3.792385 39.026150 0.042287
4.107125 39.026150 0.043562
4.421866 39.026150 0.044987
4.736608 39.026150 0.046844
5.051349 39.026150 0.048993
5.366090 39.026150 0.051354
5.680831 39.026150 0.053746
5.995571 39.026150 0.056782
6.310312 39.026150 0.060750
6.625053 39.026150 0.065991
6.939795 39.026150 0.071266
7.254536 39.026150 0.079693
7.569277 39.026150 0.092938
7.884017 39.026150 0.110167
8.198758 39.026150 0.138476
8.513499 39.026150 0.191793
8.828240 39.026150 0.285614
9.142982 39.026150 0.446386
9.457723 39.026150 0.670367
9.772464 39.026150 0.925245
10.087205 39.026150 1.198883
10.401946 39.026150 1.469062
10.716687 39.026150 1.740440
11.031426 39.026150 1.975674
11.346168 39.026150 2.182345
11.660909 39.026150 2.401300
11.975650 39.026150 2.619174
12.290391 39.026150 2.767024
12.605132 39.026150 2.868055
12.919873 39.026150 2.951015
13.234614 39.026150 3.006154
13.549356 39.026150 3.032763
13.864097 39.026150 3.001145
14.178838 39.026150 2.923932
14.493579 39.026150 2.819106
14.808320 39.026150 2.737808
15.123059 39.026150 2.688401
15.437800 39.026150 2.797079
15.752542 39.026150 2.343510
16.067284 39.026150 0.000000
16.382023 39.026150 0.000000
16.696766 39.026150 0.000000
17.011505 39.026150 0.000000
17.326248 39.026150 0.000000
17.640987 39.026150 19.430798
17.955730 39.026150 16.054306
18.270470 39.026150 14.192142
18.585213 39.026150 14.586738
18.899952 39.026150 0.000000
-7.223550 38.711407 0.000000
-6.908809 38.711407 0.000000
-6.594068 38.711407 0.041445
-6.279327 38.711407 0.040201
-5.964586 38.711407 0.039811
-5.649845 38.711407 0.039389
-5.335104 38.711407 0.038623
-5.020363 38.711407 0.037876
-4.705622 38.711407 0.037317
-4.390881 38.711407 0.036744
-4.076140 38.711407 0.036378
-3.761399 38.711407 0.036298
-3.446658 38.711407 0.036236
-3.131917 38.711407 0.036223
-2.817176 38.711407 0.036270
-2.502435 38.711407 0.036610
-2.187694 38.711407 0.037094
-1.872953 38.711407 0.037616
-1.558212 38.711407 0.038100
-1.243471 38.711407 0.038393
-0.928730 38.711407 0.038602
-0.613989 38.711407 0.038945
-0.299248 38.711407 0.039242
0.015493 38.711407 0.039361
0.330234 38.711407 0.039261
0.644975 38.711407 0.039168
0.959716 38.711407 0.039069
1.274457 38.711407 0.038923
1.589198 38.711407 0.038706
1.903938 38.711407 0.038553
2.218679 38.711407 0.038755
2.533421 38.711407 0.039019
2.848162 38.711407 0.039361
3.162903 38.711407 0.039991
3.477644 38.711407 0.040910
3.792385 38.711407 0.042104
4.107125 38.711407 0.043353
4.421866 38.711407 0.044786
4.736608 38.711407 0.046528
5.051349 38.711407 0.048615
5.366090 38.711407 0.050988
5.680831 38.711407 0.053430
5.995571 38.711407 0.056573
6.310312 38.711407 0.060376
6.625053 38.711407 0.065519
6.939795 38.711407 0.071655
7.254536 38.711407 0.079614
7.569277 38.711407 0.092154
7.884017 38.711407 0.109754
8.198758 38.711407 0.140352
8.513499 38.711407 0.192045
8.828240 38.711407 0.293313
9.142982 38.711407 0.452010
9.457723 38.711407 0.669340
9.772464 38.711407 0.926098
10.087205 38.711407 1.193786
10.401946 38.711407 1.462813
10.716687 38.711407 1.730371
11.031426 38.711407 1.981061
11.346168 38.711407 2.193871
11.660909 38.711407 2.421503
11.975650 38.711407 2.625933
12.290391 38.711407 2.776343
12.605132 38.711407 2.871638
12.919873 38.711407 2.921694
13.234614 38.711407 2.985961
13.549356 38.711407 3.034851
13.864097 38.711407 3.006885
14.178838 38.711407 2.904274
14.493579 38.711407 2.799980
14.808320 38.711407 2.742383
15.123059 38.711407 2.688282
15.437800 38.711407 2.798758
15.752542 38.711407 2.477896
16.067284 38.711407 0.000000
16.382023 38.711407 0.000000
16.696766 38.711407 0.000000
17.011505 38.711407 0.000000
17.326248 38.711407 0.000000
17.640987 38.711407 21.350195
17.955730 38.711407 18.138496
18.270470 38.711407 15.647120
18.585213 38.711407 15.823508
18.899952 38.711407 0.000000
-7.223550 38.396667 0.000000
-6.908809 38.396667 0.000000
-6.594068 38.396667 0.041215
-6.279327 38.396667 0.040273
-5.964586 38.396667 0.040096
-5.649845 38.396667 0.039677
-5.335104 38.396667 0.038866
-5.020363 38.396667 0.038140
-4.705622 38.396667 0.037661
-4.390881 38.396667 0.037178
-4.076140 38.396667 0.036770
-3.761399 38.396667 0.036460
-3.446658 38.396667 0.036239
-3.131917 38.396667 0.036227
-2.817176 38.396667 0.036281
-2.502435 38.396667 0.036553
-2.187694 38.396667 0.037055
-1.872953 38.396667 0.037448
-1.558212 38.396667 0.037808
-1.243471 38.396667 0.037985
-0.928730 38.396667 0.038136
-0.613989 38.396667 0.038559
-0.299248 38.396667 0.039009
0.015493 38.396667 0.039246
0.330234 38.396667 0.039190
0.644975 38.396667 0.039061
0.959716 38.396667 0.039014
1.274457 38.396667 0.039008
1.589198 38.396667 0.038924
1.903938 38.396667 0.038851
2.218679 38.396667 0.039017
2.533421 38.396667 0.039204
2.848162 38.396667 0.039477
3.162903 38.396667 0.039980
3.477644 38.396667 0.040799
3.792385 38.396667 0.041911
4.107125 38.396667 0.043221
4.421866 38.396667 0.044636
4.736608 38.396667 0.046271
5.051349 38.396667 0.048325
5.366090 38.396667 0.050517
5.680831 38.396667 0.053018
5.995571 38.396667 0.055981
6.310312 38.396667 0.059934
6.625053 38.396667 0.064976
6.939795 38.396667 0.071120
7.254536 38.396667 0.079785
7.569277 38.396667 0.091952
7.884017 38.396667 0.108059
8.198758 38.396667 0.137947
8.513499 38.396667 0.193259
8.828240 38.396667 0.288041
9.142982 38.396667 0.450126
9.457723 38.396667 0.675281
9.772464 38.396667 0.923467
10.087205 38.396667 1.183243
10.401946 38.396667 1.451193
10.716687 38.396667 1.723421
11.031426 38.396667 1.992656
11.346168 38.396667 2.196667
11.660909 38.396667 2.427181
11.975650 38.396667 2.630684
12.290391 38.396667 2.780451
12.605132 38.396667 2.863983
12.919873 38.396667 2.909964
13.234614 38.396667 2.980073
13.549356 38.396667 3.019421
13.864097 38.396667 3.008332
14.178838 38.396667 2.919661
14.493579 38.396667 2.815011
14.808320 38.396667 2.721017
15.123059 38.396667 2.697856
15.437800 38.396667 2.825385
15.752542 38.396667 2.640388
16.067284 38.396667 0.000000
16.382023 38.396667 0.000000
16.696766 38.396667 0.000000
17.011505 38.396667 0.000000
17.326248 38.396667 0.000000
17.640987 38.396667 19.867855
17.955730 38.396667 17.286188
18.270470 38.396667 15.478001
18.585213 38.396667 16.026037
18.899952 38.396667 0.000000
-7.223550 38.081924 0.000000
-6.908809 38.081924 0.000000
-6.594068 38.081924 0.040867
-6.279327 38.081924 0.040171
-5.964586 38.081924 0.040208
-5.649845 38.081924 0.039791
-5.335104 38.081924 0.039027
-5.020363 38.081924 0.038413
-4.705622 38.081924 0.037999
-4.390881 38.081924 0.037583
-4.076140 38.081924 0.037191
-3.761399 38.081924 0.036698
-3.446658 38.081924 0.036336
-3.131917 38.081924 0.036267
-2.817176 38.081924 0.036299
-2.502435 38.081924 0.036574
-2.187694 38.081924 0.036986
-1.872953 38.081924 0.037285
-1.558212 38.081924 0.037595
-1.243471 38.081924 0.037749
-0.928730 38.081924 0.037881
-0.613989 38.081924 0.038307
-0.299248 38.081924 0.038827
0.015493 38.081924 0.039125
0.330234 38.081924 0.039112
0.644975 38.081924 0.038988
0.959716 38.081924 0.038954
1.274457 38.081924 0.039062
1.589198 38.081924 0.039076
1.903938 38.081924 0.039068
2.218679 38.081924 0.039224
2.533421 38.081924 0.039350
2.848162 38.081924 0.039569
3.162903 38.081924 0.039975
3.477644 38.081924 0.040680
3.792385 38.081924 0.041779
4.107125 38.081924 0.043120
4.421866 38.081924 0.044490
4.736608 38.081924 0.046151
5.051349 38.081924 0.048000
5.366090 38.081924 0.050126
5.680831 38.081924 0.052633
5.995571 38.081924 0.055640
6.310312 38.081924 0.059553
6.625053 38.081924 0.064272
6.939795 38.081924 0.070892
7.254536 38.081924 0.080006
7.569277 38.081924 0.092223
7.884017 38.081924 0.108786
8.198758 38.081924 0.138533
8.513499 38.081924 0.193539
8.828240 38.081924 0.296973
9.142982 38.081924 0.448965
9.457723 38.081924 0.659153
9.772464 38.081924 0.921601
10.087205 38.081924 1.176560
10.401946 38.081924 1.446193
10.716687 38.081924 1.729330
11.031426 38.081924 1.980915
11.346168 38.081924 2.195691
11.660909 38.081924 2.434732
11.975650 38.081924 2.620495
12.290391 38.081924 2.766066
12.605132 38.081924 2.851017
12.919873 38.081924 2.925102
13.234614 38.081924 2.984710
13.549356 38.081924 3.024010
13.864097 38.081924 2.983685
14.178838 38.081924 2.912092
14.493579 38.081924 2.819271
14.808320 38.081924 2.752640
15.123059 38.081924 2.723749
15.437800 38.081924 2.826170
15.752542 38.081924 2.581544
16.067284 38.081924 0.000000
16.382023 38.081924 0.000000
16.696766 38.081924 0.000000
17.011505 38.081924 0.000000
17.326248 38.081924 0.000000
17.640987 38.081924 22.561014
17.955730 38.081924 24.615841
18.270470 38.081924 18.134312
18.585213 38.081924 15.852021
18.899952 38.081924 0.000000
-7.223550 37.767185 0.000000
-6.908809 37.767185 0.000000
-6.594068 37.767185 0.040475
-6.279327 37.767185 0.039960
-5.964586 37.767185 0.040142
-5.649845 37.767185 0.039799
-5.335104 37.767185 0.039178
-5.020363 37.767185 0.038657
-4.705622 37.767185 0.038246
-4.390881 37.767185 0.037860
-4.076140 37.767185 0.037555
-3.761399 37.767185 0.036975
-3.446658 37.767185 0.036489
-3.131917 37.767185 0.036322
-2.817176 37.767185 0.036337
-2.502435 37.767185 0.036567
-2.187694 37.767185 0.036883
-1.872953 37.767185 0.037167
-1.558212 37.767185 0.037477
-1.243471 37.767185 0.037667
-0.928730 37.767185 0.037819
-0.613989 37.767185 0.038252
-0.299248 37.767185 0.038725
0.015493 37.767185 0.039002
0.330234 37.767185 0.039032
0.644975 37.767185 0.038942
0.959716 37.767185 0.038939
1.274457 37.767185 0.039059
1.589198 37.767185 0.039154
1.903938 37.767185 0.039164
2.218679 37.767185 0.039330
2.533421 37.767185 0.039454
2.848162 37.767185 0.039658
3.162903 37.767185 0.039963
3.477644 37.767185 0.040616
3.792385 37.767185 0.041739
4.107125 37.767185 0.043114
4.421866 37.767185 0.044474
4.736608 37.767185 0.045994
5.051349 37.767185 0.047759
5.366090 37.767185 0.049818
5.680831 37.767185 0.052312
5.995571 37.767185 0.055500
6.310312 37.767185 0.059368
6.625053 37.767185 0.064371
6.939795 37.767185 0.070779
7.254536 37.767185 0.079909
7.569277 37.767185 0.093558
7.884017 37.767185 0.111956
8.198758 37.767185 0.140311
8.513499 37.767185 0.191148
8.828240 37.767185 0.298758
9.142982 37.767185 0.444190
9.457723 37.767185 0.655732
9.772464 37.767185 0.911404
10.087205 37.767185 1.178905
10.401946 37.767185 1.463303
10.716687 37.767185 1.729419
11.031426 37.767185 1.981962
11.346168 37.767185 2.215388
11.660909 37.767185 2.414390
11.975650 37.767185 2.607510
12.290391 37.767185 2.742211
12.605132 37.767185 2.852482
12.919873 37.767185 2.915400
13.234614 37.767185 2.992353
13.549356 37.767185 3.029996
13.864097 37.767185 2.980677
14.178838 37.767185 2.897709
14.493579 37.767185 2.805300
14.808320 37.767185 2.750144
15.123059 37.767185 2.750457
15.437800 37.767185 2.875327
15.752542 37.767185 2.715208
16.067284 37.767185 0.000000
16.382023 37.767185 0.000000
16.696766 37.767185 0.000000
17.011505 37.767185 0.000000
17.326248 37.767185 0.000000
17.640987 37.767185 0.000000
17.955730 37.767185 0.000000
18.270470 37.767185 16.443556
18.585213 37.767185 14.545309
18.899952 37.767185 0.000000
-7.223550 37.452446 0.000000
-6.908809 37.452446 0.000000
-6.594068 37.452446 0.040154
-6.279327 37.452446 0.039718
-5.964586 37.452446 0.039940
-5.649845 37.452446 0.039689
-5.335104 37.452446 0.039271
-5.020363 37.452446 0.038812
-4.705622 37.452446 0.038408
-4.390881 37.452446 0.038056
-4.076140 37.452446 0.037799
-3.761399 37.452446 0.037223
-3.446658 37.452446 0.036644
-3.131917 37.452446 0.036341
-2.817176 37.452446 0.036347
-2.502435 37.452446 0.036576
-2.187694 37.452446 0.036844
-1.872953 37.452446 0.037109
-1.558212 37.452446 0.037454
-1.243471 37.452446 0.037693
-0.928730 37.452446 0.037857
-0.613989 37.452446 0.038250
-0.299248 37.452446 0.038659
0.015493 37.452446 0.038854
0.330234 37.452446 0.038884
0.644975 37.452446 0.038831
0.959716 37.452446 0.038843
1.274457 37.452446 0.039003
1.589198 37.452446 0.039147
1.903938 37.452446 0.039186
2.218679 37.452446 0.039347
2.533421 37.452446 0.039555
2.848162 37.452446 0.039782
3.162903 37.452446 0.040051
3.477644 37.452446 0.040679
3.792385 37.452446 0.041813
4.107125 37.452446 0.043175
4.421866 37.452446 0.044450
4.736608 37.452446 0.045968
5.051349 37.452446 0.047686
5.366090 37.452446 0.049578
5.680831 37.452446 0.052200
5.995571 37.452446 0.055544
6.310312 37.452446 0.059212
6.625053 37.452446 0.064533
6.939795 37.452446 0.071029
7.254536 37.452446 0.079784
7.569277 37.452446 0.093288
7.884017 37.452446 0.112621
8.198758 37.452446 0.140468
8.513499 37.452446 0.193360
8.828240 37.452446 0.292707
9.142982 37.452446 0.443745
9.457723 37.452446 0.650303
9.772464 37.452446 0.904759
10.087205 37.452446 1.190091
10.401946 37.452446 1.456355
10.716687 37.452446 1.739563
11.031426 37.452446 1.994386
11.346168 37.452446 2.214097
11.660909 37.452446 2.426417
11.975650 37.452446 2.617802
12.290391 37.452446 2.764351
12.605132 37.452446 2.881363
12.919873 37.452446 2.946111
13.234614 37.452446 3.006146
13.549356 37.452446 3.044142
13.864097 37.452446 2.993976
14.178838 37.452446 2.893901
14.493579 37.452446 2.828929
14.808320 37.452446 2.758433
15.123059 37.452446 2.762227
15.437800 37.452446 2.921351
15.752542 37.452446 2.840747
16.067284 37.452446 0.000000
16.382023 37.452446 0.000000
16.696766 37.452446 0.000000
17.011505 37.452446 0.000000
17.326248 37.452446 0.000000
17.640987 37.452446 0.000000
17.955730 37.452446 0.000000
18.270470 37.452446 15.875255
18.585213 37.452446 12.601535
18.899952 37.452446 0.000000
-7.223550 37.137703 0.000000
-6.908809 37.137703 0.000000
-6.594068 37.137703 0.039885
-6.279327 37.137703 0.039459
-5.964586 37.137703 0.039668
-5.649845 37.137703 0.039505
-5.335104 37.137703 0.039252
-5.020363 37.137703 0.038856
-4.705622 37.137703 0.038423
-4.390881 37.137703 0.038130
-4.076140 37.137703 0.037874
-3.761399 37.137703 0.037373
-3.446658 37.137703 0.036780
-3.131917 37.137703 0.036407
-2.817176 37.137703 0.036365
-2.502435 37.137703 0.036607
-2.187694 37.137703 0.036843
-1.872953 37.137703 0.037074
-1.558212 37.137703 0.037490
-1.243471 37.137703 0.037822
-0.928730 37.137703 0.037975
-0.613989 37.137703 0.038253
-0.299248 37.137703 0.038541
0.015493 37.137703 0.038671
0.330234 37.137703 0.038685
0.644975 37.137703 0.038631
0.959716 37.137703 0.038634
1.274457 37.137703 0.038846
1.589198 37.137703 0.039047
1.903938 37.137703 0.039173
2.218679 37.137703 0.039331
2.533421 37.137703 0.039617
2.848162 37.137703 0.039991
3.162903 37.137703 0.040336
3.477644 37.137703 0.040922
3.792385 37.137703 0.041992
4.107125 37.137703 0.043251
4.421866 37.137703 0.044521
4.736608 37.137703 0.046003
5.051349 37.137703 0.047646
5.366090 37.137703 0.049493
5.680831 37.137703 0.052082
5.995571 37.137703 0.055325
6.310312 37.137703 0.059159
6.625053 37.137703 0.064335
6.939795 37.137703 0.070460
7.254536 37.137703 0.078835
7.569277 37.137703 0.091998
7.884017 37.137703 0.111280
8.198758 37.137703 0.139705
8.513499 37.137703 0.191966
8.828240 37.137703 0.297504
9.142982 37.137703 0.440723
9.457723 37.137703 0.661105
9.772464 37.137703 0.919837
10.087205 37.137703 1.197437
10.401946 37.137703 1.467056
10.716687 37.137703 1.729698
11.031426 37.137703 1.988134
11.346168 37.137703 2.219253
11.660909 37.137703 2.432838
11.975650 37.137703 2.623431
12.290391 37.137703 2.786007
12.605132 37.137703 2.873022
12.919873 37.137703 2.979934
13.234614 37.137703 3.040658
13.549356 37.137703 3.038438
13.864097 37.137703 2.981536
14.178838 37.137703 2.901362
14.493579 37.137703 2.811788
14.808320 37.137703 2.786456
15.123059 37.137703 2.750198
15.437800 37.137703 2.959649
15.752542 37.137703 2.929777
16.067284 37.137703 0.000000
16.382023 37.137703 0.000000
16.696766 37.137703 0.000000
17.011505 37.137703 0.000000
17.326248 37.137703 0.000000
17.640987 37.137703 0.000000
17.955730 37.137703 0.000000
18.270470 37.137703 0.000000
18.585213 37.137703 57.856140
18.899952 37.137703 0.000000
-7.223550 36.822960 0.000000
-6.908809 36.822960 0.000000
-6.594068 36.822960 0.039632
-6.279327 36.822960 0.039214
-5.964586 36.822960 0.039409
-5.649845 36.822960 0.039289
-5.335104 36.822960 0.039100
-5.020363 36.822960 0.038781
-4.705622 36.822960 0.038397
-4.390881 36.822960 0.038175
-4.076140 36.822960 0.037879
-3.761399 36.822960 0.037422
-3.446658 36.822960 0.036852
-3.131917 36.822960 0.036463
-2.817176 36.822960 0.036398
-2.502435 36.822960 0.036631
-2.187694 36.822960 0.036815
-1.872953 36.822960 0.037003
-1.558212 36.822960 0.037547
-1.243471 36.822960 0.037984
-0.928730 36.822960 0.038105
-0.613989 36.822960 0.038229
-0.299248 36.822960 0.038355
0.015493 36.822960 0.038445
0.330234 36.822960 0.038413
0.644975 36.822960 0.038332
0.959716 36.822960 0.038335
1.274457 36.822960 0.038580
1.589198 36.822960 0.038904
1.903938 36.822960 0.039110
2.218679 36.822960 0.039296
2.533421 36.822960 0.039668
2.848162 36.822960 0.040189
3.162903 36.822960 0.040656
3.477644 36.822960 0.041250
3.792385 36.822960 0.042219
4.107125 36.822960 0.043352
4.421866 36.822960 0.044568
4.736608 36.822960 0.045859
5.051349 36.822960 0.047348
5.366090 36.822960 0.049370
5.680831 36.822960 0.052027
5.995571 36.822960 0.054889
6.310312 36.822960 0.058871
6.625053 36.822960 0.063997
6.939795 36.822960 0.070515
7.254536 36.822960 0.078981
7.569277 36.822960 0.091953
7.884017 36.822960 0.110782
8.198758 36.822960 0.140615
8.513499 36.822960 0.196454
8.828240 36.822960 0.295330
9.142982 36.822960 0.442665
9.457723 36.822960 0.668122
9.772464 36.822960 0.924766
10.087205 36.822960 1.190171
10.401946 36.822960 1.457371
10.716687 36.822960 1.719982
11.031426 36.822960 1.980574
11.346168 36.822960 2.233907
11.660909 36.822960 2.447100
11.975650 36.822960 2.619739
12.290391 36.822960 2.763161
12.605132 36.822960 2.874873
12.919873 36.822960 2.972185
13.234614 36.822960 3.039238
13.549356 36.822960 3.052641
13.864097 36.822960 3.013142
14.178838 36.822960 2.902326
14.493579 36.822960 2.827907
14.808320 36.822960 2.769020
15.123059 36.822960 2.775096
15.437800 36.822960 2.958203
15.752542 36.822960 2.858953
16.067284 36.822960 0.000000
16.382023 36.822960 0.000000
16.696766 36.822960 0.000000
17.011505 36.822960 0.000000
17.326248 36.822960 0.000000
17.640987 36.822960 0.000000
17.955730 36.822960 0.000000
18.270470 36.822960 0.000000
18.585213 36.822960 0.000000
18.899952 36.822960 0.000000
-7.223550 36.508221 0.000000
-6.908809 36.508221 0.000000
-6.594068 36.508221 0.039367
-6.279327 36.508221 0.038912
-5.964586 36.508221 0.039100
-5.649845 36.508221 0.038996
-5.335104 36.508221 0.038830
-5.020363 36.508221 0.038632
-4.705622 36.508221 0.038404
-4.390881 36.508221 0.038227
-4.076140 36.508221 0.037883
-3.761399 36.508221 0.037403
-3.446658 36.508221 0.036869
-3.131917 36.508221 0.036536
-2.817176 36.508221 0.036464
-2.502435 36.508221 0.036631
-2.187694 36.508221 0.036729
-1.872953 36.508221 0.036935
-1.558212 36.508221 0.037565
-1.243471 36.508221 0.038072
-0.928730 36.508221 0.038157
-0.613989 36.508221 0.038133
-0.299248 36.508221 0.038127
0.015493 36.508221 0.038157
0.330234 36.508221 0.038094
0.644975 36.508221 0.038003
0.959716 36.508221 0.038033
1.274457 36.508221 0.038337
1.589198 36.508221 0.038780
1.903938 36.508221 0.039064
2.218679 36.508221 0.039300
2.533421 36.508221 0.039728
2.848162 36.508221 0.040354
3.162903 36.508221 0.040957
3.477644 36.508221 0.041615
3.792385 36.508221 0.042455
4.107125 36.508221 0.043454
4.421866 36.508221 0.044620
4.736608 36.508221 0.045752
5.051349 36.508221 0.047196
5.366090 36.508221 0.049261
5.680831 36.508221 0.051687
5.995571 36.508221 0.054589
6.310312 36.508221 0.058371
6.625053 36.508221 0.063361
6.939795 36.508221 0.069828
7.254536 36.508221 0.079214
7.569277 36.508221 0.091882
7.884017 36.508221 0.109841
8.198758 36.508221 0.142224
8.513499 36.508221 0.194996
8.828240 36.508221 0.295243
9.142982 36.508221 0.450201
9.457723 36.508221 0.667654
9.772464 36.508221 0.928365
10.087205 36.508221 1.194456
10.401946 36.508221 1.459270
10.716687 36.508221 1.726401
11.031426 36.508221 1.976696
11.346168 36.508221 2.235955
11.660909 36.508221 2.451098
11.975650 36.508221 2.619879
12.290391 36.508221 2.766053
12.605132 36.508221 2.875069
12.919873 36.508221 2.977267
13.234614 36.508221 3.056677
13.549356 36.508221 3.080149
13.864097 36.508221 3.032036
14.178838 36.508221 2.917660
14.493579 36.508221 2.825822
14.808320 36.508221 2.790139
15.123059 36.508221 2.780892
15.437800 36.508221 2.957616
15.752542 36.508221 2.800749
16.067284 36.508221 0.000000
16.382023 36.508221 0.000000
16.696766 36.508221 0.000000
17.011505 36.508221 0.000000
17.326248 36.508221 0.000000
17.640987 36.508221 0.000000
17.955730 36.508221 0.000000
18.270470 36.508221 0.000000
18.585213 36.508221 0.000000
18.899952 36.508221 0.000000
-7.223550 36.193481 0.000000
-6.908809 36.193481 0.000000
-6.594068 36.193481 0.039030
-6.279327 36.193481 0.038596
-5.964586 36.193481 0.038793
-5.649845 36.193481 0.038671
-5.335104 36.193481 0.038563
-5.020363 36.193481 0.038441
-4.705622 36.193481 0.038344
-4.390881 36.193481 0.038209
-4.076140 36.193481 0.037789
-3.761399 36.193481 0.037312
-3.446658 36.193481 0.036878
-3.131917 36.193481 0.036609
-2.817176 36.193481 0.036563
-2.502435 36.193481 0.036617
-2.187694 36.193481 0.036625
-1.872953 36.193481 0.036870
-1.558212 36.193481 0.037533
-1.243471 36.193481 0.038025
-0.928730 36.193481 0.038080
-0.613989 36.193481 0.037934
-0.299248 36.193481 0.037793
0.015493 36.193481 0.037752
0.330234 36.193481 0.037731
0.644975 36.193481 0.037711
0.959716 36.193481 0.037785
1.274457 36.193481 0.038142
1.589198 36.193481 0.038648
1.903938 36.193481 0.039009
2.218679 36.193481 0.039331
2.533421 36.193481 0.039813
2.848162 36.193481 0.040488
3.162903 36.193481 0.041174
3.477644 36.193481 0.041907
3.792385 36.193481 0.042682
4.107125 36.193481 0.043572
4.421866 36.193481 0.044642
4.736608 36.193481 0.045703
5.051349 36.193481 0.047097
5.366090 36.193481 0.049068
5.680831 36.193481 0.051182
5.995571 36.193481 0.054086
6.310312 36.193481 0.057976
6.625053 36.193481 0.063116
6.939795 36.193481 0.069933
7.254536 36.193481 0.079324
7.569277 36.193481 0.092031
7.884017 36.193481 0.110427
8.198758 36.193481 0.140136
8.513499 36.193481 0.195924
8.828240 36.193481 0.301198
9.142982 36.193481 0.455818
9.457723 36.193481 0.671005
9.772464 36.193481 0.927416
10.087205 36.193481 1.185727
10.401946 36.193481 1.483100
10.716687 36.193481 1.751607
11.031426 36.193481 1.976044
11.346168 36.193481 2.234599
11.660909 36.193481 2.433833
11.975650 36.193481 2.613252
12.290391 36.193481 2.746526
12.605132 36.193481 2.885677
12.919873 36.193481 2.982031
13.234614 36.193481 3.067087
13.549356 36.193481 3.089073
13.864097 36.193481 3.011496
14.178838 36.193481 2.912041
14.493579 36.193481 2.833622
14.808320 36.193481 2.780479
15.123059 36.193481 2.770462
15.437800 36.193481 2.972062
15.752542 36.193481 2.824130
16.067284 36.193481 0.000000
16.382023 36.193481 0.000000
16.696766 36.193481 0.000000
17.011505 36.193481 0.000000
17.326248 36.193481 0.000000
17.640987 36.193481 0.000000
17.955730 36.193481 0.000000
18.270470 36.193481 0.000000
18.585213 36.193481 0.000000
18.899952 36.193481 0.000000
-7.223550 35.878738 0.000000
-6.908809 35.878738 0.000000
-6.594068 35.878738 0.038835
-6.279327 35.878738 0.038332
-5.964586 35.878738 0.038502
-5.649845 35.878738 0.038312
-5.335104 35.878738 0.038201
-5.020363 35.878738 0.038231
-4.705622 35.878738 0.038222
-4.390881 35.878738 0.038041
-4.076140 35.878738 0.037603
-3.761399 35.878738 0.037207
-3.446658 35.878738 0.036927
-3.131917 35.878738 0.036742
-2.817176 35.878738 0.036683
-2.502435 35.878738 0.036617
-2.187694 35.878738 0.036519
-1.872953 35.878738 0.036829
-1.558212 35.878738 0.037510
-1.243471 35.878738 0.037955
-0.928730 35.878738 0.037972
-0.613989 35.878738 0.037669
-0.299248 35.878738 0.037419
0.015493 35.878738 0.037358
0.330234 35.878738 0.037406
0.644975 35.878738 0.037508
0.959716 35.878738 0.037624
1.274457 35.878738 0.037955
1.589198 35.878738 0.038471
1.903938 35.878738 0.038911
2.218679 35.878738 0.039362
2.533421 35.878738 0.039901
2.848162 35.878738 0.040567
3.162903 35.878738 0.041286
3.477644 35.878738 0.042084
3.792385 35.878738 0.042827
4.107125 35.878738 0.043611
4.421866 35.878738 0.044675
4.736608 35.878738 0.045681
5.051349 35.878738 0.046971
5.366090 35.878738 0.048851
5.680831 35.878738 0.051152
5.995571 35.878738 0.053886
6.310312 35.878738 0.057800
6.625053 35.878738 0.063139
6.939795 35.878738 0.069917
7.254536 35.878738 0.079430
7.569277 35.878738 0.092934
7.884017 35.878738 0.111616
8.198758 35.878738 0.140474
8.513499 35.878738 0.198734
8.828240 35.878738 0.297345
9.142982 35.878738 0.456015
9.457723 35.878738 0.672479
9.772464 35.878738 0.921543
10.087205 35.878738 1.187334
10.401946 35.878738 1.478082
10.716687 35.878738 1.749003
11.031426 35.878738 1.994365
11.346168 35.878738 2.224913
11.660909 35.878738 2.432723
11.975650 35.878738 2.620091
12.290391 35.878738 2.754516
12.605132 35.878738 2.868258
12.919873 35.878738 2.987446
13.234614 35.878738 3.091356
13.549356 35.878738 3.075114
13.864097 35.878738 3.000404
14.178838 35.878738 2.932629
14.493579 35.878738 2.844130
14.808320 35.878738 2.761365
15.123059 35.878738 2.757860
15.437800 35.878738 2.955289
15.752542 35.878738 2.846204
16.067284 35.878738 0.000000
16.382023 35.878738 0.000000
16.696766 35.878738 0.000000
17.011505 35.878738 0.000000
17.326248 35.878738 0.000000
17.640987 35.878738 0.000000
17.955730 35.878738 0.000000
18.270470 35.878738 0.000000
18.585213 35.878738 0.000000
18.899952 35.878738 0.000000
-7.223550 35.563999 0.000000
-6.908809 35.563999 0.000000
-6.594068 35.563999 0.038771
-6.279327 35.563999 0.038153
-5.964586 35.563999 0.038168
-5.649845 35.563999 0.037967
-5.335104 35.563999 0.037879
-5.020363 35.563999 0.038012
-4.705622 35.563999 0.038036
-4.390881 35.563999 0.037753
-4.076140 35.563999 0.037376
-3.761399 35.563999 0.037122
-3.446658 35.563999 0.037021
-3.131917 35.563999 0.036908
-2.817176 35.563999 0.036854
-2.502435 35.563999 0.036686
-2.187694 35.563999 0.036567
-1.872953 35.563999 0.036866
-1.558212 35.563999 0.037462
-1.243471 35.563999 0.037833
-0.928730 35.563999 0.037798
-0.613989 35.563999 0.037455
-0.299248 35.563999 0.037161
0.015493 35.563999 0.037058
0.330234 35.563999 0.037152
0.644975 35.563999 0.037324
0.959716 35.563999 0.037510
1.274457 35.563999 0.037806
1.589198 35.563999 0.038293
1.903938 35.563999 0.038781
2.218679 35.563999 0.039360
2.533421 35.563999 0.039997
2.848162 35.563999 0.040695
3.162903 35.563999 0.041440
3.477644 35.563999 0.042280
3.792385 35.563999 0.042906
4.107125 35.563999 0.043583
4.421866 35.563999 0.044557
4.736608 35.563999 0.045544
5.051349 35.563999 0.046747
5.366090 35.563999 0.048546
5.680831 35.563999 0.050846
5.995571 35.563999 0.053707
6.310312 35.563999 0.057739
6.625053 35.563999 0.063098
6.939795 35.563999 0.069706
7.254536 35.563999 0.078317
7.569277 35.563999 0.092481
7.884017 35.563999 0.110878
8.198758 35.563999 0.140876
8.513499 35.563999 0.198119
8.828240 35.563999 0.297090
9.142982 35.563999 0.455529
9.457723 35.563999 0.662458
9.772464 35.563999 0.910723
10.087205 35.563999 1.185351
10.401946 35.563999 1.471636
10.716687 35.563999 1.747007
11.031426 35.563999 2.001549
11.346168 35.563999 2.244838
11.660909 35.563999 2.451189
11.975650 35.563999 2.630502
12.290391 35.563999 2.758337
12.605132 35.563999 2.878043
12.919873 35.563999 3.001429
13.234614 35.563999 3.098442
13.549356 35.563999 3.086878
13.864097 35.563999 2.995942
14.178838 35.563999 2.912286
14.493579 35.563999 2.851451
14.808320 35.563999 2.776436
15.123059 35.563999 2.761344
15.437800 35.563999 2.971449
15.752542 35.563999 2.825899
16.067284 35.563999 0.000000
16.382023 35.563999 0.000000
16.696766 35.563999 0.000000
17.011505 35.563999 0.000000
17.326248 35.563999 0.000000
17.640987 35.563999 0.000000
17.955730 35.563999 0.000000
18.270470 35.563999 0.000000
18.585213 35.563999 0.000000
18.899952 35.563999 0.000000
-7.223550 35.249256 0.000000
-6.908809 35.249256 0.000000
-6.594068 35.249256 0.038771
-6.279327 35.249256 0.038023
-5.964586 35.249256 0.037869
-5.649845 35.249256 0.037600
-5.335104 35.249256 0.037533
-5.020363 35.249256 0.037731
-4.705622 35.249256 0.037796
-4.390881 35.249256 0.037464
-4.076140 35.249256 0.037181
-3.761399 35.249256 0.037108
-3.446658 35.249256 0.037170
-3.131917 35.249256 0.037117
-2.817176 35.249256 0.037097
-2.502435 35.249256 0.036913
-2.187694 35.249256 0.036776
-1.872953 35.249256 0.037010
-1.558212 35.249256 0.037448
-1.243471 35.249256 0.037681
-0.928730 35.249256 0.037619
-0.613989 35.249256 0.037328
-0.299248 35.249256 0.037012
0.015493 35.249256 0.036850
0.330234 35.249256 0.036951
0.644975 35.249256 0.037145
0.959716 35.249256 0.037390
1.274457 35.249256 0.037702
1.589198 35.249256 0.038134
1.903938 35.249256 0.038686
2.218679 35.249256 0.039357
2.533421 35.249256 0.040079
2.848162 35.249256 0.040787
3.162903 35.249256 0.041565
3.477644 35.249256 0.042374
3.792385 35.249256 0.042896
4.107125 35.249256 0.043477
4.421866 35.249256 0.044375
4.736608 35.249256 0.045345
5.051349 35.249256 0.046493
5.366090 35.249256 0.048019
5.680831 35.249256 0.050549
5.995571 35.249256 0.053604
6.310312 35.249256 0.057875
6.625053 35.249256 0.063320
6.939795 35.249256 0.069852
7.254536 35.249256 0.078597
7.569277 35.249256 0.091987
7.884017 35.249256 0.111561
8.198758 35.249256 0.141048
8.513499 35.249256 0.198570
8.828240 35.249256 0.298274
9.142982 35.249256 0.457604
9.457723 35.249256 0.664200
9.772464 35.249256 0.919768
10.087205 35.249256 1.188502
10.401946 35.249256 1.482667
10.716687 35.249256 1.749861
11.031426 35.249256 2.010643
11.346168 35.249256 2.267382
11.660909 35.249256 2.455475
11.975650 35.249256 2.632892
12.290391 35.249256 2.766483
12.605132 35.249256 2.886954
12.919873 35.249256 3.014779
13.234614 35.249256 3.098147
13.549356 35.249256 3.079749
13.864097 35.249256 3.013475
14.178838 35.249256 2.915638
14.493579 35.249256 2.856888
14.808320 35.249256 2.781173
15.123059 35.249256 2.757774
15.437800 35.249256 2.920758
15.752542 35.249256 2.826744
16.067284 35.249256 0.000000
16.382023 35.249256 0.000000
16.696766 35.249256 0.000000
17.011505 35.249256 0.000000
17.326248 35.249256 0.000000
17.640987 35.249256 0.000000
17.955730 35.249256 0.000000
18.270470 35.249256 0.000000
18.585213 35.249256 0.000000
18.899952 35.249256 0.000000
-7.223550 34.934517 0.000000
-6.908809 34.934517 0.000000
-6.594068 34.934517 0.038810
-6.279327 34.934517 0.037913
-5.964586 34.934517 0.037601
-5.649845 34.934517 0.037233
-5.335104 34.934517 0.037163
-5.020363 34.934517 0.037404
-4.705622 34.934517 0.037491
-4.390881 34.934517 0.037240
-4.076140 34.934517 0.037097
-3.761399 34.934517 0.037165
-3.446658 34.934517 0.037313
-3.131917 34.934517 0.037330
-2.817176 34.934517 0.037323
-2.502435 34.934517 0.037216
-2.187694 34.934517 0.037064
-1.872953 34.934517 0.037156
-1.558212 34.934517 0.037452
-1.243471 34.934517 0.037521
-0.928730 34.934517 0.037416
-0.613989 34.934517 0.037195
-0.299248 34.934517 0.036940
0.015493 34.934517 0.036758
0.330234 34.934517 0.036802
0.644975 34.934517 0.036977
0.959716 34.934517 0.037214
1.274457 34.934517 0.037540
1.589198 34.934517 0.038033
1.903938 34.934517 0.038703
2.218679 34.934517 0.039393
2.533421 34.934517 0.040125
2.848162 34.934517 0.040848
3.162903 34.934517 0.041605
3.477644 34.934517 0.042346
3.792385 34.934517 0.042783
4.107125 34.934517 0.043313
4.421866 34.934517 0.044189
4.736608 34.934517 0.045157
5.051349 34.934517 0.046086
5.366090 34.934517 0.047593
5.680831 34.934517 0.050148
5.995571 34.934517 0.053357
6.310312 34.934517 0.057825
6.625053 34.934517 0.063280
6.939795 34.934517 0.069778
7.254536 34.934517 0.078937
7.569277 34.934517 0.092397
7.884017 34.934517 0.110958
8.198758 34.934517 0.142501
8.513499 34.934517 0.197081
8.828240 34.934517 0.303019
9.142982 34.934517 0.460451
9.457723 34.934517 0.672546
9.772464 34.934517 0.920596
10.087205 34.934517 1.203811
10.401946 34.934517 1.488461
10.716687 34.934517 1.748038
11.031426 34.934517 2.005378
11.346168 34.934517 2.278972
11.660909 34.934517 2.470599
11.975650 34.934517 2.628590
12.290391 34.934517 2.761896
12.605132 34.934517 2.902271
12.919873 34.934517 3.050750
13.234614 34.934517 3.079544
13.549356 34.934517 3.094806
13.864097 34.934517 3.026016
14.178838 34.934517 2.929166
14.493579 34.934517 2.873739
14.808320 34.934517 2.777197
15.123059 34.934517 2.736879
15.437800 34.934517 2.952253
15.752542 34.934517 2.763851
16.067284 34.934517 0.000000
16.382023 34.934517 0.000000
16.696766 34.934517 0.000000
17.011505 34.934517 0.000000
17.326248 34.934517 0.000000
17.640987 34.934517 0.000000
17.955730 34.934517 0.000000
18.270470 34.934517 0.000000
18.585213 34.934517 0.000000
18.899952 34.934517 0.000000
-7.223550 34.619774 0.000000
-6.908809 34.619774 0.000000
-6.594068 34.619774 0.038845
-6.279327 34.619774 0.037816
-5.964586 34.619774 0.037345
-5.649845 34.619774 0.036899
-5.335104 34.619774 0.036839
-5.020363 34.619774 0.037084
-4.705622 34.619774 0.037254
-4.390881 34.619774 0.037138
-4.076140 34.619774 0.037122
-3.761399 34.619774 0.037279
-3.446658 34.619774 0.037449
-3.131917 34.619774 0.037525
-2.817176 34.619774 0.037554
-2.502435 34.619774 0.037543
-2.187694 34.619774 0.037439
-1.872953 34.619774 0.037399
-1.558212 34.619774 0.037489
-1.243471 34.619774 0.037379
-0.928730 34.619774 0.037167
-0.613989 34.619774 0.037010
-0.299248 34.619774 0.036849
0.015493 34.619774 0.036691
0.330234 34.619774 0.036692
0.644975 34.619774 0.036893
0.959716 34.619774 0.037105
1.274457 34.619774 0.037450
1.589198 34.619774 0.038079
1.903938 34.619774 0.038825
2.218679 34.619774 0.039513
2.533421 34.619774 0.040213
2.848162 34.619774 0.040908
3.162903 34.619774 0.041648
3.477644 34.619774 0.042305
3.792385 34.619774 0.042675
4.107125 34.619774 0.043116
4.421866 34.619774 0.043914
4.736608 34.619774 0.044815
5.051349 34.619774 0.045792
5.366090 34.619774 0.047223
5.680831 34.619774 0.049566
5.995571 34.619774 0.052958
6.310312 34.619774 0.057474
6.625053 34.619774 0.063220
6.939795 34.619774 0.070033
7.254536 34.619774 0.079652
7.569277 34.619774 0.093151
7.884017 34.619774 0.111779
8.198758 34.619774 0.141330
8.513499 34.619774 0.196826
8.828240 34.619774 0.305889
9.142982 34.619774 0.455767
9.457723 34.619774 0.670517
9.772464 34.619774 0.927652
10.087205 34.619774 1.210374
10.401946 34.619774 1.497821
10.716687 34.619774 1.756154
11.031426 34.619774 2.015510
11.346168 34.619774 2.271559
11.660909 34.619774 2.487787
11.975650 34.619774 2.638748
12.290391 34.619774 2.803588
12.605132 34.619774 2.943461
12.919873 34.619774 3.033313
13.234614 34.619774 3.088304
13.549356 34.619774 3.096297
13.864097 34.619774 3.020173
14.178838 34.619774 2.964235
14.493579 34.619774 2.897715
14.808320 34.619774 2.792179
15.123059 34.619774 2.742882
15.437800 34.619774 2.915275
15.752542 34.619774 2.862038
16.067284 34.619774 0.000000
16.382023 34.619774 0.000000
16.696766 34.619774 0.000000
17.011505 34.619774 0.000000
17.326248 34.619774 0.000000
17.640987 34.619774 0.000000
17.955730 34.619774 0.000000
18.270470 34.619774 0.000000
18.585213 34.619774 0.000000
18.899952 34.619774 0.000000
-7.223550 34.305035 0.000000
-6.908809 34.305035 0.000000
-6.594068 34.305035 0.038773
-6.279327 34.305035 0.037688
-5.964586 34.305035 0.037137
-5.649845 34.305035 0.036640
-5.335104 34.305035 0.036576
-5.020363 34.305035 0.036852
-4.705622 34.305035 0.037106
-4.390881 34.305035 0.037099
-4.076140 34.305035 0.037196
-3.761399 34.305035 0.037424
-3.446658 34.305035 0.037609
-3.131917 34.305035 0.037674
-2.817176 34.305035 0.037724
-2.502435 34.305035 0.037848
-2.187694 34.305035 0.037795
-1.872953 34.305035 0.037682
-1.558212 34.305035 0.037546
-1.243471 34.305035 0.037296
-0.928730 34.305035 0.036974
-0.613989 34.305035 0.036786
-0.299248 34.305035 0.036662
0.015493 34.305035 0.036536
0.330234 34.305035 0.036523
0.644975 34.305035 0.036783
0.959716 34.305035 0.037016
1.274457 34.305035 0.037420
1.589198 34.305035 0.038166
1.903938 34.305035 0.039002
2.218679 34.305035 0.039704
2.533421 34.305035 0.040384
2.848162 34.305035 0.041023
3.162903 34.305035 0.041706
3.477644 34.305035 0.042243
3.792385 34.305035 0.042598
4.107125 34.305035 0.042920
4.421866 34.305035 0.043588
4.736608 34.305035 0.044500
5.051349 34.305035 0.045434
5.366090 34.305035 0.046868
5.680831 34.305035 0.049263
5.995571 34.305035 0.052847
6.310312 34.305035 0.057588
6.625053 34.305035 0.063100
6.939795 34.305035 0.070090
7.254536 34.305035 0.079645
7.569277 34.305035 0.093881
7.884017 34.305035 0.112541
8.198758 34.305035 0.140541
8.513499 34.305035 0.197166
8.828240 34.305035 0.301594
9.142982 34.305035 0.456500
9.457723 34.305035 0.683693
9.772464 34.305035 0.933352
10.087205 34.305035 1.223046
10.401946 34.305035 1.511607
10.716687 34.305035 1.789560
11.031426 34.305035 2.017072
11.346168 34.305035 2.266082
11.660909 34.305035 2.483322
11.975650 34.305035 2.657506
12.290391 34.305035 2.827081
12.605132 34.305035 2.954516
12.919873 34.305035 3.064539
13.234614 34.305035 3.083083
13.549356 34.305035 3.085834
13.864097 34.305035 3.032701
14.178838 34.305035 2.969412
14.493579 34.305035 2.915484
14.808320 34.305035 2.786430
15.123059 34.305035 2.719323
15.437800 34.305035 2.923784
15.752542 34.305035 2.871823
16.067284 34.305035 0.000000
16.382023 34.305035 0.000000
16.696766 34.305035 0.000000
17.011505 34.305035 0.000000
17.326248 34.305035 0.000000
17.640987 34.305035 0.000000
17.955730 34.305035 0.000000
18.270470 34.305035 0.000000
18.585213 34.305035 0.000000
18.899952 34.305035 0.000000
-7.223550 33.990295 0.000000
-6.908809 33.990295 0.000000
-6.594068 33.990295 0.038597
-6.279327 33.990295 0.037535
-5.964586 33.990295 0.036958
-5.649845 33.990295 0.036487
-5.335104 33.990295 0.036424
-5.020363 33.990295 0.036726
-4.705622 33.990295 0.037066
-4.390881 33.990295 0.037147
-4.076140 33.990295 0.037352
-3.761399 33.990295 0.037624
-3.446658 33.990295 0.037742
-3.131917 33.990295 0.037784
-2.817176 33.990295 0.037896
-2.502435 33.990295 0.038081
-2.187694 33.990295 0.038061
-1.872953 33.990295 0.037883
-1.558212 33.990295 0.037619
-1.243471 33.990295 0.037238
-0.928730 33.990295 0.036776
-0.613989 33.990295 0.036509
-0.299248 33.990295 0.036392
0.015493 33.990295 0.036301
0.330234 33.990295 0.036378
0.644975 33.990295 0.036652
0.959716 33.990295 0.036978
1.274457 33.990295 0.037457
1.589198 33.990295 0.038256
1.903938 33.990295 0.039138
2.218679 33.990295 0.039871
2.533421 33.990295 0.040557
2.848162 33.990295 0.041211
3.162903 33.990295 0.041747
3.477644 33.990295 0.042175
3.792385 33.990295 0.042476
4.107125 33.990295 0.042660
4.421866 33.990295 0.043221
4.736608 33.990295 0.044050
5.051349 33.990295 0.045060
5.366090 33.990295 0.046614
5.680831 33.990295 0.048996
5.995571 33.990295 0.052683
6.310312 33.990295 0.057691
6.625053 33.990295 0.063331
6.939795 33.990295 0.070693
7.254536 33.990295 0.080591
7.569277 33.990295 0.094566
7.884017 33.990295 0.113206
8.198758 33.990295 0.144027
8.513499 33.990295 0.199581
8.828240 33.990295 0.298746
9.142982 33.990295 0.457774
9.457723 33.990295 0.685358
9.772464 33.990295 0.937675
10.087205 33.990295 1.207030
10.401946 33.990295 1.508102
10.716687 33.990295 1.783041
11.031426 33.990295 2.027856
11.346168 33.990295 2.259397
11.660909 33.990295 2.472271
11.975650 33.990295 2.674519
12.290391 33.990295 2.855566
12.605132 33.990295 2.959932
12.919873 33.990295 3.046715
13.234614 33.990295 3.095792
13.549356 33.990295 3.077617
13.864097 33.990295 3.033540
14.178838 33.990295 2.974797
14.493579 33.990295 2.899403
14.808320 33.990295 2.800071
15.123059 33.990295 2.737789
15.437800 33.990295 2.957807
15.752542 33.990295 2.981402
16.067284 33.990295 0.000000
16.382023 33.990295 0.000000
16.696766 33.990295 0.000000
17.011505 33.990295 0.000000
17.326248 33.990295 0.000000
17.640987 33.990295 0.000000
17.955730 33.990295 0.000000
18.270470 33.990295 0.000000
18.585213 33.990295 0.000000
18.899952 33.990295 0.000000
-7.223550 33.675552 0.000000
-6.908809 33.675552 0.000000
-6.594068 33.675552 0.038359
-6.279327 33.675552 0.037344
-5.964586 33.675552 0.036811
-5.649845 33.675552 0.036422
-5.335104 33.675552 0.036381
-5.020363 33.675552 0.036692
-4.705622 33.675552 0.037086
-4.390881 33.675552 0.037295
-4.076140 33.675552 0.037522
-3.761399 33.675552 0.037793
-3.446658 33.675552 0.037874
-3.131917 33.675552 0.037917
-2.817176 33.675552 0.038049
-2.502435 33.675552 0.038253
-2.187694 33.675552 0.038224
-1.872953 33.675552 0.037987
-1.558212 33.675552 0.037646
-1.243471 33.675552 0.037134
-0.928730 33.675552 0.036555
-0.613989 33.675552 0.036227
-0.299248 33.675552 0.036131
0.015493 33.675552 0.036097
0.330234 33.675552 0.036230
0.644975 33.675552 0.036577
0.959716 33.675552 0.037011
1.274457 33.675552 0.037571
1.589198 33.675552 0.038344
1.903938 33.675552 0.039234
2.218679 33.675552 0.040054
2.533421 33.675552 0.040771
2.848162 33.675552 0.041383
3.162903 33.675552 0.041750
3.477644 33.675552 0.042034
3.792385 33.675552 0.042338
4.107125 33.675552 0.042496
4.421866 33.675552 0.042900
4.736608 33.675552 0.043643
5.051349 33.675552 0.044724
5.366090 33.675552 0.046388
5.680831 33.675552 0.049032
5.995571 33.675552 0.052872
6.310312 33.675552 0.057725
6.625053 33.675552 0.064045
6.939795 33.675552 0.071193
7.254536 33.675552 0.080949
7.569277 33.675552 0.094966
7.884017 33.675552 0.113614
8.198758 33.675552 0.143862
8.513499 33.675552 0.200049
8.828240 33.675552 0.299147
9.142982 33.675552 0.468889
9.457723 33.675552 0.689052
9.772464 33.675552 0.933876
10.087205 33.675552 1.207645
10.401946 33.675552 1.496261
10.716687 33.675552 1.769808
11.031426 33.675552 2.012889
11.346168 33.675552 2.255152
11.660909 33.675552 2.474619
11.975650 33.675552 2.696823
12.290391 33.675552 2.845920
12.605132 33.675552 2.956530
12.919873 33.675552 3.044538
13.234614 33.675552 3.085687
13.549356 33.675552 3.091638
13.864097 33.675552 3.051167
14.178838 33.675552 2.962952
14.493579 33.675552 2.903988
14.808320 33.675552 2.771653
15.123059 33.675552 2.743708
15.437800 33.675552 2.961064
15.752542 33.675552 2.827625
16.067284 33.675552 0.000000
16.382023 33.675552 0.000000
16.696766 33.675552 0.000000
17.011505 33.675552 0.000000
17.326248 33.675552 0.000000
17.640987 33.675552 0.000000
17.955730 33.675552 0.000000
18.270470 33.675552 0.000000
18.585213 33.675552 0.000000
18.899952 33.675552 0.000000
-7.223550 33.360809 0.000000
-6.908809 33.360809 0.000000
-6.594068 33.360809 0.038144
-6.279327 33.360809 0.037138
-5.964586 33.360809 0.036675
-5.649845 33.360809 0.036362
-5.335104 33.360809 0.036378
-5.020363 33.360809 0.036726
-4.705622 33.360809 0.037185
-4.390881 33.360809 0.037443
-4.076140 33.360809 0.037627
-3.761399 33.360809 0.037860
-3.446658 33.360809 0.037991
-3.131917 33.360809 0.038063
-2.817176 33.360809 0.038215
-2.502435 33.360809 0.038398
-2.187694 33.360809 0.038302
-1.872953 33.360809 0.037984
-1.558212 33.360809 0.037574
-1.243471 33.360809 0.036936
-0.928730 33.360809 0.036282
-0.613989 33.360809 0.035982
-0.299248 33.360809 0.035906
0.015493 33.360809 0.035958
0.330234 33.360809 0.036151
0.644975 33.360809 0.036532
0.959716 33.360809 0.037056
1.274457 33.360809 0.037705
1.589198 33.360809 0.038486
1.903938 33.360809 0.039411
2.218679 33.360809 0.040315
2.533421 33.360809 0.041027
2.848162 33.360809 0.041544
3.162903 33.360809 0.041761
3.477644 33.360809 0.041866
3.792385 33.360809 0.042121
4.107125 33.360809 0.042269
4.421866 33.360809 0.042582
4.736608 33.360809 0.043310
5.051349 33.360809 0.044376
5.366090 33.360809 0.046322
5.680831 33.360809 0.049152
5.995571 33.360809 0.053187
6.310312 33.360809 0.058082
6.625053 33.360809 0.064478
6.939795 33.360809 0.071292
7.254536 33.360809 0.081122
7.569277 33.360809 0.095116
7.884017 33.360809 0.113301
8.198758 33.360809 0.146180
8.513499 33.360809 0.202382
8.828240 33.360809 0.299506
9.142982 33.360809 0.471940
9.457723 33.360809 0.695673
9.772464 33.360809 0.947107
10.087205 33.360809 1.208469
10.401946 33.360809 1.506447
10.716687 33.360809 1.769231
11.031426 33.360809 2.008598
11.346168 33.360809 2.270769
11.660909 33.360809 2.495470
11.975650 33.360809 2.700006
12.290391 33.360809 2.852904
12.605132 33.360809 2.966033
12.919873 33.360809 3.046402
13.234614 33.360809 3.086266
13.549356 33.360809 3.102111
13.864097 33.360809 3.065334
14.178838 33.360809 2.993862
14.493579 33.360809 2.908448
14.808320 33.360809 2.766898
15.123059 33.360809 2.734691
15.437800 33.360809 2.942638
15.752542 33.360809 3.074468
16.067284 33.360809 0.000000
16.382023 33.360809 0.000000
16.696766 33.360809 0.000000
17.011505 33.360809 0.000000
17.326248 33.360809 0.000000
17.640987 33.360809 0.000000
17.955730 33.360809 0.000000
18.270470 33.360809 0.000000
18.585213 33.360809 0.000000
18.899952 33.360809 0.000000
-7.223550 33.046070 0.000000
-6.908809 33.046070 0.000000
-6.594068 33.046070 0.037936
-6.279327 33.046070 0.036915
-5.964586 33.046070 0.036533
-5.649845 33.046070 0.036352
-5.335104 33.046070 0.036439
-5.020363 33.046070 0.036724
-4.705622 33.046070 0.037206
-4.390881 33.046070 0.037548
-4.076140 33.046070 0.037692
-3.761399 33.046070 0.037858
-3.446658 33.046070 0.038077
-3.131917 33.046070 0.038193
-2.817176 33.046070 0.038366
-2.502435 33.046070 0.038473
-2.187694 33.046070 0.038269
-1.872953 33.046070 0.037859
-1.558212 33.046070 0.037364
-1.243471 33.046070 0.036646
-0.928730 33.046070 0.036044
-0.613989 33.046070 0.035807
-0.299248 33.046070 0.035777
0.015493 33.046070 0.035844
0.330234 33.046070 0.036082
0.644975 33.046070 0.036497
0.959716 33.046070 0.037120
1.274457 33.046070 0.037893
1.589198 33.046070 0.038763
1.903938 33.046070 0.039718
2.218679 33.046070 0.040601
2.533421 33.046070 0.041267
2.848162 33.046070 0.041643
3.162903 33.046070 0.041719
3.477644 33.046070 0.041663
3.792385 33.046070 0.041833
4.107125 33.046070 0.041938
4.421866 33.046070 0.042194
4.736608 33.046070 0.042889
5.051349 33.046070 0.044208
5.366090 33.046070 0.046353
5.680831 33.046070 0.049496
5.995571 33.046070 0.053407
6.310312 33.046070 0.058517
6.625053 33.046070 0.064723
6.939795 33.046070 0.071897
7.254536 33.046070 0.081624
7.569277 33.046070 0.095190
7.884017 33.046070 0.113398
8.198758 33.046070 0.144617
8.513499 33.046070 0.198869
8.828240 33.046070 0.308506
9.142982 33.046070 0.471953
9.457723 33.046070 0.693170
9.772464 33.046070 0.952230
10.087205 33.046070 1.221907
10.401946 33.046070 1.517468
10.716687 33.046070 1.786417
11.031426 33.046070 2.013972
11.346168 33.046070 2.261575
11.660909 33.046070 2.500372
11.975650 33.046070 2.676503
12.290391 33.046070 2.865519
12.605132 33.046070 2.975197
12.919873 33.046070 3.055543
13.234614 33.046070 3.084061
13.549356 33.046070 3.118527
13.864097 33.046070 3.073238
14.178838 33.046070 2.989167
14.493579 33.046070 2.878781
14.808320 33.046070 2.784845
15.123059 33.046070 2.708685
15.437800 33.046070 2.890564
15.752542 33.046070 3.058150
16.067284 33.046070 0.000000
16.382023 33.046070 0.000000
16.696766 33.046070 0.000000
17.011505 33.046070 0.000000
17.326248 33.046070 0.000000
17.640987 33.046070 0.000000
17.955730 33.046070 0.000000
18.270470 33.046070 0.000000
18.585213 33.046070 0.000000
18.899952 33.046070 0.000000
-7.223550 32.731331 0.000000
-6.908809 32.731331 0.000000
-6.594068 32.731331 0.037618
-6.279327 32.731331 0.036677
-5.964586 32.731331 0.036465
-5.649845 32.731331 0.036410
-5.335104 32.731331 0.036541
-5.020363 32.731331 0.036782
-4.705622 32.731331 0.037226
-4.390881 32.731331 0.037654
-4.076140 32.731331 0.037778
-3.761399 32.731331 0.037908
-3.446658 32.731331 0.038174
-3.131917 32.731331 0.038313
-2.817176 32.731331 0.038451
-2.502435 32.731331 0.038465
-2.187694 32.731331 0.038130
-1.872953 32.731331 0.037567
-1.558212 32.731331 0.036996
-1.243471 32.731331 0.036360
-0.928730 32.731331 0.035836
-0.613989 32.731331 0.035652
-0.299248 32.731331 0.035650
0.015493 32.731331 0.035703
0.330234 32.731331 0.036003
0.644975 32.731331 0.036526
0.959716 32.731331 0.037258
1.274457 32.731331 0.038138
1.589198 32.731331 0.039146
1.903938 32.731331 0.040134
2.218679 32.731331 0.040928
2.533421 32.731331 0.041427
2.848162 32.731331 0.041611
3.162903 32.731331 0.041545
3.477644 32.731331 0.041362
3.792385 32.731331 0.041337
4.107125 32.731331 0.041483
4.421866 32.731331 0.041775
4.736608 32.731331 0.042553
5.051349 32.731331 0.044117
5.366090 32.731331 0.046421
5.680831 32.731331 0.049626
5.995571 32.731331 0.053499
6.310312 32.731331 0.058773
6.625053 32.731331 0.065118
6.939795 32.731331 0.072710
7.254536 32.731331 0.082386
7.569277 32.731331 0.096039
7.884017 32.731331 0.113275
8.198758 32.731331 0.142889
8.513499 32.731331 0.205376
8.828240 32.731331 0.309172
9.142982 32.731331 0.479003
9.457723 32.731331 0.694183
9.772464 32.731331 0.955143
10.087205 32.731331 1.221632
10.401946 32.731331 1.522417
10.716687 32.731331 1.794113
11.031426 32.731331 2.033495
11.346168 32.731331 2.279305
11.660909 32.731331 2.493848
11.975650 32.731331 2.702235
12.290391 32.731331 2.854464
12.605132 32.731331 2.979677
12.919873 32.731331 3.038123
13.234614 32.731331 3.099004
13.549356 32.731331 3.126234
13.864097 32.731331 3.097314
14.178838 32.731331 2.995404
14.493579 32.731331 2.875699
14.808320 32.731331 2.775325
15.123059 32.731331 2.695672
15.437800 32.731331 2.882923
15.752542 32.731331 3.008180
16.067284 32.731331 0.000000
16.382023 32.731331 0.000000
16.696766 32.731331 0.000000
17.011505 32.731331 0.000000
17.326248 32.731331 0.000000
17.640987 32.731331 0.000000
17.955730 32.731331 0.000000
18.270470 32.731331 0.000000
18.585213 32.731331 0.000000
18.899952 32.731331 0.000000
-7.223550 32.416588 0.000000
-6.908809 32.416588 0.000000
-6.594068 32.416588 0.037202
-6.279327 32.416588 0.036369
-5.964586 32.416588 0.036357
-5.649845 32.416588 0.036436
-5.335104 32.416588 0.036576
-5.020363 32.416588 0.036803
-4.705622 32.416588 0.037237
-4.390881 32.416588 0.037737
-4.076140 32.416588 0.037928
-3.761399 32.416588 0.037997
-3.446658 32.416588 0.038253
-3.131917 32.416588 0.038391
-2.817176 32.416588 0.038417
-2.502435 32.416588 0.038281
-2.187694 32.416588 0.037834
-1.872953 32.416588 0.037165
-1.558212 32.416588 0.036615
-1.243471 32.416588 0.036089
-0.928730 32.416588 0.035696
-0.613989 32.416588 0.035538
-0.299248 32.416588 0.035525
0.015493 32.416588 0.035551
0.330234 32.416588 0.035941
0.644975 32.416588 0.036630
0.959716 32.416588 0.037478
1.274457 32.416588 0.038462
1.589198 32.416588 0.039503
1.903938 32.416588 0.040469
2.218679 32.416588 0.041164
2.533421 32.416588 0.041479
2.848162 32.416588 0.041410
3.162903 32.416588 0.041193
3.477644 32.416588 0.040957
3.792385 32.416588 0.040804
4.107125 32.416588 0.040932
4.421866 32.416588 0.041329
4.736608 32.416588 0.042293
5.051349 32.416588 0.044103
5.366090 32.416588 0.046514
5.680831 32.416588 0.049771
5.995571 32.416588 0.053915
6.310312 32.416588 0.059473
6.625053 32.416588 0.065847
6.939795 32.416588 0.073143
7.254536 32.416588 0.083036
7.569277 32.416588 0.095273
7.884017 32.416588 0.113083
8.198758 32.416588 0.144354
8.513499 32.416588 0.205111
8.828240 32.416588 0.312775
9.142982 32.416588 0.478672
9.457723 32.416588 0.699541
9.772464 32.416588 0.954028
10.087205 32.416588 1.226568
10.401946 32.416588 1.523619
10.716687 32.416588 1.792949
11.031426 32.416588 2.040455
11.346168 32.416588 2.295117
11.660909 32.416588 2.500992
11.975650 32.416588 2.707580
12.290391 32.416588 2.875821
12.605132 32.416588 2.971469
12.919873 32.416588 3.043243
13.234614 32.416588 3.103881
13.549356 32.416588 3.110038
13.864097 32.416588 3.087950
14.178838 32.416588 2.990195
14.493579 32.416588 2.903690
14.808320 32.416588 2.778287
15.123059 32.416588 2.726292
15.437800 32.416588 2.873187
15.752542 32.416588 2.960152
16.067284 32.416588 0.000000
16.382023 32.416588 0.000000
16.696766 32.416588 0.000000
17.011505 32.416588 0.000000
17.326248 32.416588 0.000000
17.640987 32.416588 0.000000
17.955730 32.416588 0.000000
18.270470 32.416588 0.000000
18.585213 32.416588 0.000000
18.899952 32.416588 0.000000
-7.223550 32.101845 0.000000
-6.908809 32.101845 0.000000
-6.594068 32.101845 0.036679
-6.279327 32.101845 0.035995
-5.964586 32.101845 0.036174
-5.649845 32.101845 0.036388
-5.335104 32.101845 0.036564
-5.020363 32.101845 0.036845
-4.705622 32.101845 0.037297
-4.390881 32.101845 0.037845
-4.076140 32.101845 0.038119
-3.761399 32.101845 0.038127
-3.446658 32.101845 0.038334
-3.131917 32.101845 0.038414
-2.817176 32.101845 0.038269
-2.502435 32.101845 0.037908
-2.187694 32.101845 0.037359
-1.872953 32.101845 0.036672
-1.558212 32.101845 0.036177
-1.243471 32.101845 0.035855
-0.928730 32.101845 0.035585
-0.613989 32.101845 0.035446
-0.299248 32.101845 0.035425
0.015493 32.101845 0.035490
0.330234 32.101845 0.036022
0.644975 32.101845 0.036855
0.959716 32.101845 0.037814
1.274457 32.101845 0.038833
1.589198 32.101845 0.039856
1.903938 32.101845 0.040667
2.218679 32.101845 0.041202
2.533421 32.101845 0.041329
2.848162 32.101845 0.041010
3.162903 32.101845 0.040674
3.477644 32.101845 0.040447
3.792385 32.101845 0.040324
4.107125 32.101845 0.040472
4.421866 32.101845 0.040967
4.736608 32.101845 0.042181
5.051349 32.101845 0.044228
5.366090 32.101845 0.046913
5.680831 32.101845 0.050276
5.995571 32.101845 0.054665
6.310312 32.101845 0.060327
6.625053 32.101845 0.066566
6.939795 32.101845 0.073923
7.254536 32.101845 0.083256
7.569277 32.101845 0.095935
7.884017 32.101845 0.112096
8.198758 32.101845 0.142751
8.513499 32.101845 0.204432
8.828240 32.101845 0.315124
9.142982 32.101845 0.488868
9.457723 32.101845 0.699552
9.772464 32.101845 0.956822
10.087205 32.101845 1.240108
10.401946 32.101845 1.517551
10.716687 32.101845 1.792801
11.031426 32.101845 2.026611
11.346168 32.101845 2.272264
11.660909 32.101845 2.490074
11.975650 32.101845 2.701751
12.290391 32.101845 2.887491
12.605132 32.101845 2.981029
12.919873 32.101845 3.022100
13.234614 32.101845 3.086928
13.549356 32.101845 3.134257
13.864097 32.101845 3.103436
14.178838 32.101845 2.974496
14.493579 32.101845 2.897418
14.808320 32.101845 2.791325
15.123059 32.101845 2.731273
15.437800 32.101845 2.846254
15.752542 32.101845 2.917496
16.067284 32.101845 0.000000
16.382023 32.101845 0.000000
16.696766 32.101845 0.000000
17.011505 32.101845 0.000000
17.326248 32.101845 0.000000
17.640987 32.101845 0.000000
17.955730 32.101845 0.000000
18.270470 32.101845 0.000000
18.585213 32.101845 0.000000
18.899952 32.101845 0.000000
-7.223550 31.787106 0.000000
-6.908809 31.787106 0.000000
-6.594068 31.787106 0.036284
-6.279327 31.787106 0.035705
-5.964586 31.787106 0.035988
-5.649845 31.787106 0.036296
-5.335104 31.787106 0.036560
-5.020363 31.787106 0.036987
-4.705622 31.787106 0.037448
-4.390881 31.787106 0.037967
-4.076140 31.787106 0.038276
-3.761399 31.787106 0.038283
-3.446658 31.787106 0.038387
-3.131917 31.787106 0.038372
-2.817176 31.787106 0.038050
-2.502435 31.787106 0.037464
-2.187694 31.787106 0.036753
-1.872953 31.787106 0.036107
-1.558212 31.787106 0.035697
-1.243471 31.787106 0.035526
-0.928730 31.787106 0.035426
-0.613989 31.787106 0.035374
-0.299248 31.787106 0.035440
0.015493 31.787106 0.035700
0.330234 31.787106 0.036359
0.644975 31.787106 0.037267
0.959716 31.787106 0.038280
1.274457 31.787106 0.039319
1.589198 31.787106 0.040150
1.903938 31.787106 0.040703
2.218679 31.787106 0.040982
2.533421 31.787106 0.040892
2.848162 31.787106 0.040477
3.162903 31.787106 0.040086
3.477644 31.787106 0.039870
3.792385 31.787106 0.039800
4.107125 31.787106 0.040155
4.421866 31.787106 0.040849
4.736608 31.787106 0.042202
5.051349 31.787106 0.044502
5.366090 31.787106 0.047478
5.680831 31.787106 0.050867
5.995571 31.787106 0.055468
6.310312 31.787106 0.061067
6.625053 31.787106 0.067266
6.939795 31.787106 0.074090
7.254536 31.787106 0.082582
7.569277 31.787106 0.093557
7.884017 31.787106 0.110926
8.198758 31.787106 0.142973
8.513499 31.787106 0.203597
8.828240 31.787106 0.312838
9.142982 31.787106 0.485577
9.457723 31.787106 0.704358
9.772464 31.787106 0.957421
10.087205 31.787106 1.241530
10.401946 31.787106 1.522307
10.716687 31.787106 1.802887
11.031426 31.787106 2.036621
11.346168 31.787106 2.267895
11.660909 31.787106 2.493794
11.975650 31.787106 2.706476
12.290391 31.787106 2.878628
12.605132 31.787106 2.993584
12.919873 31.787106 3.026947
13.234614 31.787106 3.078316
13.549356 31.787106 3.115079
13.864097 31.787106 3.091274
14.178838 31.787106 2.991740
14.493579 31.787106 2.894226
14.808320 31.787106 2.760658
15.123059 31.787106 2.734885
15.437800 31.787106 2.886370
15.752542 31.787106 2.946744
16.067284 31.787106 0.000000
16.382023 31.787106 0.000000
16.696766 31.787106 0.000000
17.011505 31.787106 0.000000
17.326248 31.787106 0.000000
17.640987 31.787106 0.000000
17.955730 31.787106 0.000000
18.270470 31.787106 0.000000
18.585213 31.787106 0.000000
18.899952 31.787106 0.000000
-7.223550 31.472364 0.000000
-6.908809 31.472364 0.000000
-6.594068 31.472364 0.036091
-6.279327 31.472364 0.035560
-5.964586 31.472364 0.035916
-5.649845 31.472364 0.036268
-5.335104 31.472364 0.036651
-5.020363 31.472364 0.037245
-4.705622 31.472364 0.037756
-4.390881 31.472364 0.038201
-4.076140 31.472364 0.038475
-3.761399 31.472364 0.038456
-3.446658 31.472364 0.038428
-3.131917 31.472364 0.038257
-2.817176 31.472364 0.037753
-2.502435 31.472364 0.036994
-2.187694 31.472364 0.036164
-1.872953 31.472364 0.035535
-1.558212 31.472364 0.035164
-1.243471 31.472364 0.035151
-0.928730 31.472364 0.035199
-0.613989 31.472364 0.035264
-0.299248 31.472364 0.035607
0.015493 31.472364 0.036162
0.330234 31.472364 0.036979
0.644975 31.472364 0.037900
0.959716 31.472364 0.038860
1.274457 31.472364 0.039768
1.589198 31.472364 0.040319
1.903938 31.472364 0.040529
2.218679 31.472364 0.040500
2.533421 31.472364 0.040274
2.848162 31.472364 0.039836
3.162903 31.472364 0.039446
3.477644 31.472364 0.039265
3.792385 31.472364 0.039386
4.107125 31.472364 0.039993
4.421866 31.472364 0.040934
4.736608 31.472364 0.042433
5.051349 31.472364 0.044895
5.366090 31.472364 0.048133
5.680831 31.472364 0.051780
5.995571 31.472364 0.056464
6.310312 31.472364 0.061745
6.625053 31.472364 0.067646
6.939795 31.472364 0.073828
7.254536 31.472364 0.082074
7.569277 31.472364 0.092497
7.884017 31.472364 0.109869
8.198758 31.472364 0.142519
8.513499 31.472364 0.204073
8.828240 31.472364 0.315987
9.142982 31.472364 0.487320
9.457723 31.472364 0.709267
9.772464 31.472364 0.967802
10.087205 31.472364 1.246795
10.401946 31.472364 1.538439
10.716687 31.472364 1.827917
11.031426 31.472364 2.042727
11.346168 31.472364 2.280115
11.660909 31.472364 2.493872
11.975650 31.472364 2.699480
12.290391 31.472364 2.870336
12.605132 31.472364 2.969199
12.919873 31.472364 3.008054
13.234614 31.472364 3.068709
13.549356 31.472364 3.113732
13.864097 31.472364 3.084959
14.178838 31.472364 2.992405
14.493579 31.472364 2.888430
14.808320 31.472364 2.790570
15.123059 31.472364 2.734846
15.437800 31.472364 2.880403
15.752542 31.472364 2.896780
16.067284 31.472364 0.000000
16.382023 31.472364 0.000000
16.696766 31.472364 0.000000
17.011505 31.472364 0.000000
17.326248 31.472364 0.000000
17.640987 31.472364 0.000000
17.955730 31.472364 0.000000
18.270470 31.472364 0.000000
18.585213 31.472364 0.000000
18.899952 31.472364 0.000000
-7.223550 31.157625 0.000000
-6.908809 31.157625 0.000000
-6.594068 31.157625 0.036142
-6.279327 31.157625 0.035619
-5.964586 31.157625 0.035977
-5.649845 31.157625 0.036442
-5.335104 31.157625 0.036975
-5.020363 31.157625 0.037679
-4.705622 31.157625 0.038165
-4.390881 31.157625 0.038497
-4.076140 31.157625 0.038699
-3.761399 31.157625 0.038617
-3.446658 31.157625 0.038380
-3.131917 31.157625 0.037992
-2.817176 31.157625 0.037336
-2.502435 31.157625 0.036502
-2.187694 31.157625 0.035697
-1.872953 31.157625 0.035048
-1.558212 31.157625 0.034657
-1.243471 31.157625 0.034734
-0.928730 31.157625 0.034927
-0.613989 31.157625 0.035259
-0.299248 31.157625 0.035938
0.015493 31.157625 0.036831
0.330234 31.157625 0.037755
0.644975 31.157625 0.038628
0.959716 31.157625 0.039455
1.274457 31.157625 0.040150
1.589198 31.157625 0.040389
1.903938 31.157625 0.040211
2.218679 31.157625 0.039870
2.533421 31.157625 0.039514
2.848162 31.157625 0.039103
3.162903 31.157625 0.038732
3.477644 31.157625 0.038662
3.792385 31.157625 0.039067
4.107125 31.157625 0.039952
4.421866 31.157625 0.041138
4.736608 31.157625 0.042828
5.051349 31.157625 0.045441
5.366090 31.157625 0.048793
5.680831 31.157625 0.052629
5.995571 31.157625 0.057269
6.310312 31.157625 0.061907
6.625053 31.157625 0.067390
6.939795 31.157625 0.073273
7.254536 31.157625 0.081713
7.569277 31.157625 0.092656
7.884017 31.157625 0.108937
8.198758 31.157625 0.140596
8.513499 31.157625 0.201677
8.828240 31.157625 0.324774
9.142982 31.157625 0.487231
9.457723 31.157625 0.706378
9.772464 31.157625 0.964187
10.087205 31.157625 1.256270
10.401946 31.157625 1.545771
10.716687 31.157625 1.811152
11.031426 31.157625 2.050114
11.346168 31.157625 2.280459
11.660909 31.157625 2.514265
11.975650 31.157625 2.702771
12.290391 31.157625 2.861258
12.605132 31.157625 2.959476
12.919873 31.157625 3.015620
13.234614 31.157625 3.083402
13.549356 31.157625 3.112631
13.864097 31.157625 3.088666
14.178838 31.157625 3.032801
14.493579 31.157625 2.921203
14.808320 31.157625 2.807761
15.123059 31.157625 2.729427
15.437800 31.157625 2.875472
15.752542 31.157625 2.877326
16.067284 31.157625 0.000000
16.382023 31.157625 0.000000
16.696766 31.157625 0.000000
17.011505 31.157625 0.000000
17.326248 31.157625 0.000000
17.640987 31.157625 0.000000
17.955730 31.157625 0.000000
18.270470 31.157625 0.000000
18.585213 31.157625 0.000000
18.899952 31.157625 0.000000
-7.223550 30.842884 0.000000
-6.908809 30.842884 0.000000
-6.594068 30.842884 0.036384
-6.279327 30.842884 0.035869
-5.964586 30.842884 0.036324
-5.649845 30.842884 0.036874
-5.335104 30.842884 0.037523
-5.020363 30.842884 0.038224
-4.705622 30.842884 0.038584
-4.390881 30.842884 0.038740
-4.076140 30.842884 0.038870
-3.761399 30.842884 0.038669
-3.446658 30.842884 0.038222
-3.131917 30.842884 0.037560
-2.817176 30.842884 0.036746
-2.502435 30.842884 0.035946
-2.187694 30.842884 0.035316
-1.872953 30.842884 0.034806
-1.558212 30.842884 0.034446
-1.243471 30.842884 0.034465
-0.928730 30.842884 0.034783
-0.613989 30.842884 0.035405
-0.299248 30.842884 0.036396
0.015493 30.842884 0.037568
0.330234 30.842884 0.038554
0.644975 30.842884 0.039325
0.959716 30.842884 0.039925
1.274457 30.842884 0.040325
1.589198 30.842884 0.040269
1.903938 30.842884 0.039757
2.218679 30.842884 0.039114
2.533421 30.842884 0.038694
2.848162 30.842884 0.038307
3.162903 30.842884 0.038000
3.477644 30.842884 0.038159
3.792385 30.842884 0.038869
4.107125 30.842884 0.040023
4.421866 30.842884 0.041482
4.736608 30.842884 0.043358
5.051349 30.842884 0.046022
5.366090 30.842884 0.049419
5.680831 30.842884 0.053273
5.995571 30.842884 0.057355
6.310312 30.842884 0.061787
6.625053 30.842884 0.066523
6.939795 30.842884 0.073082
7.254536 30.842884 0.080548
7.569277 30.842884 0.091323
7.884017 30.842884 0.109836
8.198758 30.842884 0.139301
8.513499 30.842884 0.206577
8.828240 30.842884 0.326724
9.142982 30.842884 0.492374
9.457723 30.842884 0.695731
9.772464 30.842884 0.955638
10.087205 30.842884 1.252646
10.401946 30.842884 1.554430
10.716687 30.842884 1.819578
11.031426 30.842884 2.066899
11.346168 30.842884 2.294425
11.660909 30.842884 2.517941
11.975650 30.842884 2.714114
12.290391 30.842884 2.864614
12.605132 30.842884 2.990279
12.919873 30.842884 3.038247
13.234614 30.842884 3.103725
13.549356 30.842884 3.109297
13.864097 30.842884 3.108365
14.178838 30.842884 3.044437
14.493579 30.842884 2.911448
14.808320 30.842884 2.800587
15.123059 30.842884 2.697973
15.437800 30.842884 2.905336
15.752542 30.842884 2.923482
16.067284 30.842884 0.000000
16.382023 30.842884 0.000000
16.696766 30.842884 0.000000
17.011505 30.842884 0.000000
17.326248 30.842884 0.000000
17.640987 30.842884 0.000000
17.955730 30.842884 0.000000
18.270470 30.842884 0.000000
18.585213 30.842884 0.000000
18.899952 30.842884 0.000000
-7.223550 30.528143 0.000000
-6.908809 30.528143 0.062255
-6.594068 30.528143 0.036736
-6.279327 30.528143 0.036305
-5.964586 30.528143 0.036896
-5.649845 30.528143 0.037534
-5.335104 30.528143 0.038246
-5.020363 30.528143 0.038842
-4.705622 30.528143 0.038993
-4.390881 30.528143 0.038950
-4.076140 30.528143 0.038912
-3.761399 30.528143 0.038534
-3.446658 30.528143 0.037881
-3.131917 30.528143 0.037055
-2.817176 30.528143 0.036107
-2.502435 30.528143 0.035416
-2.187694 30.528143 0.035036
-1.872953 30.528143 0.034745
-1.558212 30.528143 0.034439
-1.243471 30.528143 0.034453
-0.928730 30.528143 0.034904
-0.613989 30.528143 0.035773
-0.299248 30.528143 0.036994
0.015493 30.528143 0.038230
0.330234 30.528143 0.039219
0.644975 30.528143 0.039889
0.959716 30.528143 0.040185
1.274457 30.528143 0.040221
1.589198 30.528143 0.039911
1.903938 30.528143 0.039165
2.218679 30.528143 0.038339
2.533421 30.528143 0.037865
2.848162 30.528143 0.037584
3.162903 30.528143 0.037428
3.477644 30.528143 0.037846
3.792385 30.528143 0.038859
4.107125 30.528143 0.040262
4.421866 30.528143 0.042002
4.736608 30.528143 0.044016
5.051349 30.528143 0.046701
5.366090 30.528143 0.050035
5.680831 30.528143 0.053539
5.995571 30.528143 0.057176
6.310312 30.528143 0.061201
6.625053 30.528143 0.065725
6.939795 30.528143 0.072085
7.254536 30.528143 0.079595
7.569277 30.528143 0.090822
7.884017 30.528143 0.110203
8.198758 30.528143 0.143560
8.513499 30.528143 0.205302
8.828240 30.528143 0.332626
9.142982 30.528143 0.492122
9.457723 30.528143 0.701554
9.772464 30.528143 0.959976
10.087205 30.528143 1.250684
10.401946 30.528143 1.554829
10.716687 30.528143 1.818262
11.031426 30.528143 2.061803
11.346168 30.528143 2.287556
11.660909 30.528143 2.514453
11.975650 30.528143 2.710208
12.290391 30.528143 2.884415
12.605132 30.528143 2.985851
12.919873 30.528143 3.041816
13.234614 30.528143 3.099771
13.549356 30.528143 3.136208
13.864097 30.528143 3.106534
14.178838 30.528143 3.032944
14.493579 30.528143 2.887877
14.808320 30.528143 2.793613
15.123059 30.528143 2.707958
15.437800 30.528143 2.894437
15.752542 30.528143 2.859296
16.067284 30.528143 0.000000
16.382023 30.528143 0.000000
16.696766 30.528143 0.000000
17.011505 30.528143 0.000000
17.326248 30.528143 0.000000
17.640987 30.528143 0.000000
17.955730 30.528143 0.000000
18.270470 30.528143 0.000000
18.585213 30.528143 0.000000
18.899952 30.528143 0.000000
-7.223550 30.213402 0.000000
-6.908809 30.213402 0.038629
-6.594068 30.213402 0.037222
-6.279327 30.213402 0.036910
-5.964586 30.213402 0.037581
-5.649845 30.213402 0.038265
-5.335104 30.213402 0.038928
-5.020363 30.213402 0.039359
-4.705622 30.213402 0.039294
-4.390881 30.213402 0.039056
-4.076140 30.213402 0.038785
-3.761399 30.213402 0.038212
-3.446658 30.213402 0.037384
-3.131917 30.213402 0.036424
-2.817176 30.213402 0.035484
-2.502435 30.213402 0.034978
-2.187694 30.213402 0.034878
-1.872953 30.213402 0.034817
-1.558212 30.213402 0.034645
-1.243471 30.213402 0.034716
-0.928730 30.213402 0.035357
-0.613989 30.213402 0.036381
-0.299248 30.213402 0.037687
0.015493 30.213402 0.038862
0.330234 30.213402 0.039725
0.644975 30.213402 0.040207
0.959716 30.213402 0.040185
1.274457 30.213402 0.039817
1.589198 30.213402 0.039240
1.903938 30.213402 0.038431
2.218679 30.213402 0.037648
2.533421 30.213402 0.037224
2.848162 30.213402 0.037035
3.162903 30.213402 0.037137
3.477644 30.213402 0.037840
3.792385 30.213402 0.039082
4.107125 30.213402 0.040676
4.421866 30.213402 0.042661
4.736608 30.213402 0.044846
5.051349 30.213402 0.047386
5.366090 30.213402 0.050377
5.680831 30.213402 0.053514
5.995571 30.213402 0.056670
6.310312 30.213402 0.060508
6.625053 30.213402 0.064780
6.939795 30.213402 0.070867
7.254536 30.213402 0.078763
7.569277 30.213402 0.091247
7.884017 30.213402 0.110643
8.198758 30.213402 0.142764
8.513499 30.213402 0.208426
8.828240 30.213402 0.325997
9.142982 30.213402 0.496397
9.457723 30.213402 0.715575
9.772464 30.213402 0.976376
10.087205 30.213402 1.259587
10.401946 30.213402 1.545254
10.716687 30.213402 1.817676
11.031426 30.213402 2.054504
11.346168 30.213402 2.272083
11.660909 30.213402 2.508765
11.975650 30.213402 2.703055
12.290391 30.213402 2.881865
12.605132 30.213402 2.993177
12.919873 30.213402 3.065899
13.234614 30.213402 3.107025
13.549356 30.213402 3.112936
13.864097 30.213402 3.098648
14.178838 30.213402 3.014543
14.493579 30.213402 2.899382
14.808320 30.213402 2.770594
15.123059 30.213402 2.693867
15.437800 30.213402 2.927307
15.752542 30.213402 2.878772
16.067284 30.213402 0.000000
16.382023 30.213402 0.000000
16.696766 30.213402 0.000000
17.011505 30.213402 0.000000
17.326248 30.213402 0.000000
17.640987 30.213402 0.000000
17.955730 30.213402 0.000000
18.270470 30.213402 0.000000
18.585213 30.213402 0.000000
18.899952 30.213402 0.000000
-7.223550 29.898661 0.000000
-6.908809 29.898661 0.035726
-6.594068 29.898661 0.037816
-6.279327 29.898661 0.037629
-5.964586 29.898661 0.038263
-5.649845 29.898661 0.038936
-5.335104 29.898661 0.039434
-5.020363 29.898661 0.039599
-4.705622 29.898661 0.039335
-4.390881 29.898661 0.038942
-4.076140 29.898661 0.038427
-3.761399 29.898661 0.037711
-3.446658 29.898661 0.036784
-3.131917 29.898661 0.035750
-2.817176 29.898661 0.035007
-2.502435 29.898661 0.034767
-2.187694 29.898661 0.034918
-1.872953 29.898661 0.035054
-1.558212 29.898661 0.035066
-1.243471 29.898661 0.035292
-0.928730 29.898661 0.036071
-0.613989 29.898661 0.037173
-0.299248 29.898661 0.038401
0.015493 29.898661 0.039374
0.330234 29.898661 0.039967
0.644975 29.898661 0.040193
0.959716 29.898661 0.039848
1.274457 29.898661 0.039136
1.589198 29.898661 0.038391
1.903938 29.898661 0.037655
2.218679 29.898661 0.037091
2.533421 29.898661 0.036818
2.848162 29.898661 0.036777
3.162903 29.898661 0.037172
3.477644 29.898661 0.038148
3.792385 29.898661 0.039556
4.107125 29.898661 0.041310
4.421866 29.898661 0.043500
4.736608 29.898661 0.045759
5.051349 29.898661 0.048088
5.366090 29.898661 0.050653
5.680831 29.898661 0.053315
5.995571 29.898661 0.056038
6.310312 29.898661 0.059604
6.625053 29.898661 0.063996
6.939795 29.898661 0.069768
7.254536 29.898661 0.077333
7.569277 29.898661 0.090551
7.884017 29.898661 0.110008
8.198758 29.898661 0.145656
8.513499 29.898661 0.209510
8.828240 29.898661 0.325581
9.142982 29.898661 0.505911
9.457723 29.898661 0.710703
9.772464 29.898661 0.970387
10.087205 29.898661 1.251347
10.401946 29.898661 1.552506
10.716687 29.898661 1.815706
11.031426 29.898661 2.058436
11.346168 29.898661 2.277502
11.660909 29.898661 2.498208
11.975650 29.898661 2.700222
12.290391 29.898661 2.867002
12.605132 29.898661 3.000698
12.919873 29.898661 3.058530
13.234614 29.898661 3.113045
13.549356 29.898661 3.135389
13.864097 29.898661 3.102473
14.178838 29.898661 3.033780
14.493579 29.898661 2.917576
14.808320 29.898661 2.772899
15.123059 29.898661 2.722121
15.437800 29.898661 2.953845
15.752542 29.898661 2.949279
16.067284 29.898661 0.000000
16.382023 29.898661 0.000000
16.696766 29.898661 0.000000
17.011505 29.898661 0.000000
17.326248 29.898661 0.000000
17.640987 29.898661 0.000000
17.955730 29.898661 0.000000
18.270470 29.898661 0.000000
18.585213 29.898661 0.000000
18.899952 29.898661 0.000000
-7.223550 29.583920 0.000000
-6.908809 29.583920 0.033922
-6.594068 29.583920 0.038428
-6.279327 29.583920 0.038349
-5.964586 29.583920 0.038918
-5.649845 29.583920 0.039436
-5.335104 29.583920 0.039684
-5.020363 29.583920 0.039532
-4.705622 29.583920 0.039038
-4.390881 29.583920 0.038477
-4.076140 29.583920 0.037814
-3.761399 29.583920 0.037008
-3.446658 29.583920 0.036113
-3.131917 29.583920 0.035200
-2.817176 29.583920 0.034745
-2.502435 29.583920 0.034790
-2.187694 29.583920 0.035114
-1.872953 29.583920 0.035441
-1.558212 29.583920 0.035688
-1.243471 29.583920 0.036111
-0.928730 29.583920 0.037035
-0.613989 29.583920 0.038033
-0.299248 29.583920 0.039021
0.015493 29.583920 0.039656
0.330234 29.583920 0.039862
0.644975 29.583920 0.039781
0.959716 29.583920 0.039147
1.274457 29.583920 0.038228
1.589198 29.583920 0.037445
1.903938 29.583920 0.036936
2.218679 29.583920 0.036671
2.533421 29.583920 0.036656
2.848162 29.583920 0.036862
3.162903 29.583920 0.037562
3.477644 29.583920 0.038743
3.792385 29.583920 0.040260
4.107125 29.583920 0.042145
4.421866 29.583920 0.044387
4.736608 29.583920 0.046535
5.051349 29.583920 0.048524
5.366090 29.583920 0.050535
5.680831 29.583920 0.052855
5.995571 29.583920 0.055216
6.310312 29.583920 0.058714
6.625053 29.583920 0.063377
6.939795 29.583920 0.068910
7.254536 29.583920 0.076714
7.569277 29.583920 0.090214
7.884017 29.583920 0.110573
8.198758 29.583920 0.145818
8.513499 29.583920 0.212096
8.828240 29.583920 0.328605
9.142982 29.583920 0.502053
9.457723 29.583920 0.719066
9.772464 29.583920 0.971770
10.087205 29.583920 1.255914
10.401946 29.583920 1.560208
10.716687 29.583920 1.836125
11.031426 29.583920 2.073558
11.346168 29.583920 2.284137
11.660909 29.583920 2.508257
11.975650 29.583920 2.711091
12.290391 29.583920 2.881127
12.605132 29.583920 2.985013
12.919873 29.583920 3.049388
13.234614 29.583920 3.122391
13.549356 29.583920 3.138004
13.864097 29.583920 3.122748
14.178838 29.583920 3.037202
14.493579 29.583920 2.909362
14.808320 29.583920 2.749488
15.123059 29.583920 2.713425
15.437800 29.583920 2.962071
15.752542 29.583920 2.694595
16.067284 29.583920 0.000000
16.382023 29.583920 0.000000
16.696766 29.583920 0.000000
17.011505 29.583920 0.000000
17.326248 29.583920 0.000000
17.640987 29.583920 0.000000
17.955730 29.583920 0.000000
18.270470 29.583920 0.000000
18.585213 29.583920 0.000000
18.899952 29.583920 0.000000
-7.223550 29.269178 0.000000
-6.908809 29.269178 0.035020
-6.594068 29.269178 0.039043
-6.279327 29.269178 0.039013
-5.964586 29.269178 0.039477
-5.649845 29.269178 0.039727
-5.335104 29.269178 0.039607
-5.020363 29.269178 0.039131
-4.705622 29.269178 0.038394
-4.390881 29.269178 0.037708
-4.076140 29.269178 0.036946
-3.761399 29.269178 0.036216
-3.446658 29.269178 0.035506
-3.131917 29.269178 0.034871
-2.817176 29.269178 0.034685
-2.502435 29.269178 0.034975
-2.187694 29.269178 0.035415
-1.872953 29.269178 0.035955
-1.558212 29.269178 0.036472
-1.243471 29.269178 0.037104
-0.928730 29.269178 0.038042
-0.613989 29.269178 0.038783
-0.299248 29.269178 0.039363
0.015493 29.269178 0.039598
0.330234 29.269178 0.039368
0.644975 29.269178 0.038942
0.959716 29.269178 0.038197
1.274457 29.269178 0.037252
1.589198 29.269178 0.036597
1.903938 29.269178 0.036394
2.218679 29.269178 0.036441
2.533421 29.269178 0.036749
2.848162 29.269178 0.037260
3.162903 29.269178 0.038205
3.477644 29.269178 0.039499
3.792385 29.269178 0.041090
4.107125 29.269178 0.042916
4.421866 29.269178 0.045001
4.736608 29.269178 0.046918
5.051349 29.269178 0.048481
5.366090 29.269178 0.050073
5.680831 29.269178 0.052087
5.995571 29.269178 0.054493
6.310312 29.269178 0.057582
6.625053 29.269178 0.062229
6.939795 29.269178 0.068312
7.254536 29.269178 0.077196
7.569277 29.269178 0.090944
7.884017 29.269178 0.111234
8.198758 29.269178 0.146545
8.513499 29.269178 0.209382
8.828240 29.269178 0.336983
9.142982 29.269178 0.507221
9.457723 29.269178 0.720957
9.772464 29.269178 0.973425
10.087205 29.269178 1.261474
10.401946 29.269178 1.567109
10.716687 29.269178 1.839715
11.031426 29.269178 2.084532
11.346168 29.269178 2.292581
11.660909 29.269178 2.510874
11.975650 29.269178 2.721789
12.290391 29.269178 2.873925
12.605132 29.269178 2.959168
12.919873 29.269178 3.057519
13.234614 29.269178 3.119982
13.549356 29.269178 3.159617
13.864097 29.269178 3.134944
14.178838 29.269178 3.047901
14.493579 29.269178 2.898530
14.808320 29.269178 2.744206
15.123059 29.269178 2.720452
15.437800 29.269178 2.949664
15.752542 29.269178 3.156720
16.067284 29.269178 0.000000
16.382023 29.269178 0.000000
16.696766 29.269178 0.000000
17.011505 29.269178 0.000000
17.326248 29.269178 0.000000
17.640987 29.269178 0.000000
17.955730 29.269178 0.000000
18.270470 29.269178 0.000000
18.585213 29.269178 0.000000
18.899952 29.269178 0.000000
-7.223550 28.954437 0.000000
-6.908809 28.954437 0.037248
-6.594068 28.954437 0.039610
-6.279327 28.954437 0.039552
-5.964586 28.954437 0.039818
-5.649845 28.954437 0.039727
-5.335104 28.954437 0.039192
-5.020363 28.954437 0.038378
-4.705622 28.954437 0.037478
-4.390881 28.954437 0.036703
-4.076140 28.954437 0.035996
-3.761399 28.954437 0.035420
-3.446658 28.954437 0.034993
-3.131917 28.954437 0.034681
-2.817176 28.954437 0.034738
-2.502435 28.954437 0.035208
-2.187694 28.954437 0.035803
-1.872953 28.954437 0.036582
-1.558212 28.954437 0.037364
-1.243471 28.954437 0.038112
-0.928730 28.954437 0.038943
-0.613989 28.954437 0.039285
-0.299248 28.954437 0.039335
0.015493 28.954437 0.039099
0.330234 28.954437 0.038491
0.644975 28.954437 0.037843
0.959716 28.954437 0.037102
1.274457 28.954437 0.036371
1.589198 28.954437 0.036003
1.903938 28.954437 0.036108
2.218679 28.954437 0.036428
2.533421 28.954437 0.037039
2.848162 28.954437 0.037903
3.162903 28.954437 0.039066
3.477644 28.954437 0.040341
3.792385 28.954437 0.041829
4.107125 28.954437 0.043458
4.421866 28.954437 0.045135
4.736608 28.954437 0.046731
5.051349 28.954437 0.047977
5.366090 28.954437 0.049408
5.680831 28.954437 0.051316
5.995571 28.954437 0.053774
6.310312 28.954437 0.056863
6.625053 28.954437 0.061714
6.939795 28.954437 0.068553
7.254536 28.954437 0.077695
7.569277 28.954437 0.092172
7.884017 28.954437 0.113050
8.198758 28.954437 0.149335
8.513499 28.954437 0.219777
8.828240 28.954437 0.339846
9.142982 28.954437 0.507061
9.457723 28.954437 0.724250
9.772464 28.954437 0.980972
10.087205 28.954437 1.265701
10.401946 28.954437 1.563942
10.716687 28.954437 1.858969
11.031426 28.954437 2.098406
11.346168 28.954437 2.306155
11.660909 28.954437 2.516716
11.975650 28.954437 2.697258
12.290391 28.954437 2.869397
12.605132 28.954437 2.962258
12.919873 28.954437 3.036441
13.234614 28.954437 3.108765
13.549356 28.954437 3.156530
13.864097 28.954437 3.137603
14.178838 28.954437 3.046519
14.493579 28.954437 2.897814
14.808320 28.954437 2.761844
15.123059 28.954437 2.687063
15.437800 28.954437 2.869824
15.752542 28.954437 3.122074
16.067284 28.954437 0.000000
16.382023 28.954437 0.000000
16.696766 28.954437 0.000000
17.011505 28.954437 0.000000
17.326248 28.954437 0.000000
17.640987 28.954437 0.000000
17.955730 28.954437 0.000000
18.270470 28.954437 0.000000
18.585213 28.954437 0.000000
18.899952 28.954437 0.000000
-7.223550 28.639696 0.000000
-6.908809 28.639696 0.039504
-6.594068 28.639696 0.039968
-6.279327 28.639696 0.039799
-5.964586 28.639696 0.039789
-5.649845 28.639696 0.039278
-5.335104 28.639696 0.038437
-5.020363 28.639696 0.037435
-4.705622 28.639696 0.036448
-4.390881 28.639696 0.035701
-4.076140 28.639696 0.035112
-3.761399 28.639696 0.034743
-3.446658 28.639696 0.034602
-3.131917 28.639696 0.034677
-2.817176 28.639696 0.034951
-2.502435 28.639696 0.035546
-2.187694 28.639696 0.036301
-1.872953 28.639696 0.037271
-1.558212 28.639696 0.038265
-1.243471 28.639696 0.038988
-0.928730 28.639696 0.039488
-0.613989 28.639696 0.039351
-0.299248 28.639696 0.038866
0.015493 28.639696 0.038264
0.330234 28.639696 0.037459
0.644975 28.639696 0.036724
0.959716 28.639696 0.036080
1.274457 28.639696 0.035693
1.589198 28.639696 0.035693
1.903938 28.639696 0.036083
2.218679 28.639696 0.036644
2.533421 28.639696 0.037504
2.848162 28.639696 0.038681
3.162903 28.639696 0.039947
3.477644 28.639696 0.041089
3.792385 28.639696 0.042373
4.107125 28.639696 0.043668
4.421866 28.639696 0.044947
4.736608 28.639696 0.046078
5.051349 28.639696 0.047187
5.366090 28.639696 0.048553
5.680831 28.639696 0.050491
5.995571 28.639696 0.052848
6.310312 28.639696 0.056613
6.625053 28.639696 0.061677
6.939795 28.639696 0.068889
7.254536 28.639696 0.078455
7.569277 28.639696 0.092663
7.884017 28.639696 0.113470
8.198758 28.639696 0.147098
8.513499 28.639696 0.218222
8.828240 28.639696 0.338852
9.142982 28.639696 0.512429
9.457723 28.639696 0.728738
9.772464 28.639696 0.984446
10.087205 28.639696 1.269279
10.401946 28.639696 1.586578
10.716687 28.639696 1.864623
11.031426 28.639696 2.098181
11.346168 28.639696 2.304070
11.660909 28.639696 2.524357
11.975650 28.639696 2.685093
12.290391 28.639696 2.853760
12.605132 28.639696 2.968333
12.919873 28.639696 3.060669
13.234614 28.639696 3.116656
13.549356 28.639696 3.169365
13.864097 28.639696 3.162480
14.178838 28.639696 3.080429
14.493579 28.639696 2.919926
14.808320 28.639696 2.742201
15.123059 28.639696 2.683243
15.437800 28.639696 2.832115
15.752542 28.639696 3.012274
16.067284 28.639696 0.000000
16.382023 28.639696 0.000000
16.696766 28.639696 0.000000
17.011505 28.639696 0.000000
17.326248 28.639696 0.000000
17.640987 28.639696 0.000000
17.955730 28.639696 0.000000
18.270470 28.639696 0.000000
18.585213 28.639696 0.000000
18.899952 28.639696 0.000000
-7.223550 28.324955 0.000000
-6.908809 28.324955 0.040827
-6.594068 28.324955 0.039998
-6.279327 28.324955 0.039620
-5.964586 28.324955 0.039289
-5.649845 28.324955 0.038479
-5.335104 28.324955 0.037493
-5.020363 28.324955 0.036504
-4.705622 28.324955 0.035549
-4.390881 28.324955 0.034883
-4.076140 28.324955 0.034452
-3.761399 28.324955 0.034332
-3.446658 28.324955 0.034527
-3.131917 28.324955 0.034956
-2.817176 28.324955 0.035468
-2.502435 28.324955 0.036139
-2.187694 28.324955 0.036944
-1.872953 28.324955 0.038002
-1.558212 28.324955 0.039025
-1.243471 28.324955 0.039487
-0.928730 28.324955 0.039507
-0.613989 28.324955 0.038934
-0.299248 28.324955 0.038050
0.015493 28.324955 0.037257
0.330234 28.324955 0.036449
0.644975 28.324955 0.035767
0.959716 28.324955 0.035357
1.274457 28.324955 0.035370
1.589198 28.324955 0.035729
1.903938 28.324955 0.036360
2.218679 28.324955 0.037102
2.533421 28.324955 0.038121
2.848162 28.324955 0.039449
3.162903 28.324955 0.040682
3.477644 28.324955 0.041607
3.792385 28.324955 0.042541
4.107125 28.324955 0.043516
4.421866 28.324955 0.044333
4.736608 28.324955 0.045209
5.051349 28.324955 0.046279
5.366090 28.324955 0.047790
5.680831 28.324955 0.049666
5.995571 28.324955 0.052426
6.310312 28.324955 0.056540
6.625053 28.324955 0.062090
6.939795 28.324955 0.069633
7.254536 28.324955 0.080096
7.569277 28.324955 0.092816
7.884017 28.324955 0.113729
8.198758 28.324955 0.149881
8.513499 28.324955 0.217257
8.828240 28.324955 0.337217
9.142982 28.324955 0.517907
9.457723 28.324955 0.730522
9.772464 28.324955 0.990104
10.087205 28.324955 1.284760
10.401946 28.324955 1.593062
10.716687 28.324955 1.864153
11.031426 28.324955 2.089907
11.346168 28.324955 2.324445
11.660909 28.324955 2.525715
11.975650 28.324955 2.678929
12.290391 28.324955 2.855952
12.605132 28.324955 3.003183
12.919873 28.324955 3.090270
13.234614 28.324955 3.162685
13.549356 28.324955 3.186507
13.864097 28.324955 3.167639
14.178838 28.324955 3.057544
14.493579 28.324955 2.926847
14.808320 28.324955 2.739150
15.123059 28.324955 2.643231
15.437800 28.324955 2.812627
15.752542 28.324955 2.989334
16.067284 28.324955 0.000000
16.382023 28.324955 0.000000
16.696766 28.324955 0.000000
17.011505 28.324955 0.000000
17.326248 28.324955 0.000000
17.640987 28.324955 0.000000
17.955730 28.324955 0.000000
18.270470 28.324955 0.000000
18.585213 28.324955 0.000000
18.899952 28.324955 0.000000
-7.223550 28.010214 0.000000
-6.908809 28.010214 0.041354
-6.594068 28.010214 0.039560
-6.279327 28.010214 0.038930
-5.964586 28.010214 0.038341
-5.649845 28.010214 0.037417
-5.335104 28.010214 0.036494
-5.020363 28.010214 0.035729
-4.705622 28.010214 0.034941
-4.390881 28.010214 0.034369
-4.076140 28.010214 0.034120
-3.761399 28.010214 0.034297
-3.446658 28.010214 0.034854
-3.131917 28.010214 0.035599
-2.817176 28.010214 0.036269
-2.502435 28.010214 0.036894
-2.187694 28.010214 0.037643
-1.872953 28.010214 0.038577
-1.558212 28.010214 0.039411
-1.243471 28.010214 0.039511
-0.928730 28.010214 0.039018
-0.613989 28.010214 0.038124
-0.299248 28.010214 0.037093
0.015493 28.010214 0.036284
0.330234 28.010214 0.035632
0.644975 28.010214 0.035144
0.959716 28.010214 0.035032
1.274457 28.010214 0.035457
1.589198 28.010214 0.036102
1.903938 28.010214 0.036872
2.218679 28.010214 0.037713
2.533421 28.010214 0.038781
2.848162 28.010214 0.040006
3.162903 28.010214 0.041129
3.477644 28.010214 0.041800
3.792385 28.010214 0.042357
4.107125 28.010214 0.043030
4.421866 28.010214 0.043612
4.736608 28.010214 0.044359
5.051349 28.010214 0.045384
5.366090 28.010214 0.047114
5.680831 28.010214 0.049301
5.995571 28.010214 0.052385
6.310312 28.010214 0.057086
6.625053 28.010214 0.062795
6.939795 28.010214 0.069972
7.254536 28.010214 0.079719
7.569277 28.010214 0.092417
7.884017 28.010214 0.112529
8.198758 28.010214 0.149296
8.513499 28.010214 0.220856
8.828240 28.010214 0.343137
9.142982 28.010214 0.516298
9.457723 28.010214 0.737852
9.772464 28.010214 0.994457
10.087205 28.010214 1.273681
10.401946 28.010214 1.585150
10.716687 28.010214 1.852392
11.031426 28.010214 2.098616
11.346168 28.010214 2.325094
11.660909 28.010214 2.520403
11.975650 28.010214 2.686899
12.290391 28.010214 2.865997
12.605132 28.010214 3.022923
12.919873 28.010214 3.102291
13.234614 28.010214 3.173105
13.549356 28.010214 3.191939
13.864097 28.010214 3.192787
14.178838 28.010214 3.062365
14.493579 28.010214 2.893744
14.808320 28.010214 2.720456
15.123059 28.010214 2.620853
15.437800 28.010214 2.778289
15.752542 28.010214 2.885279
16.067284 28.010214 0.000000
16.382023 28.010214 0.000000
16.696766 28.010214 0.000000
17.011505 28.010214 0.000000
17.326248 28.010214 0.000000
17.640987 28.010214 0.000000
17.955730 28.010214 0.000000
18.270470 28.010214 0.000000
18.585213 28.010214 0.000000
18.899952 28.010214 0.000000
-7.223550 27.695473 0.000000
-6.908809 27.695473 0.041099
-6.594068 27.695473 0.038774
-6.279327 27.695473 0.037851
-5.964586 27.695473 0.037122
-5.649845 27.695473 0.036317
-5.335104 27.695473 0.035649
-5.020363 27.695473 0.035203
-4.705622 27.695473 0.034637
-4.390881 27.695473 0.034220
-4.076140 27.695473 0.034223
-3.761399 27.695473 0.034727
-3.446658 27.695473 0.035613
-3.131917 27.695473 0.036566
-2.817176 27.695473 0.037269
-2.502435 27.695473 0.037723
-2.187694 27.695473 0.038253
-1.872953 27.695473 0.038882
-1.558212 27.695473 0.039293
-1.243471 27.695473 0.038968
-0.928730 27.695473 0.038083
-0.613989 27.695473 0.037116
-0.299248 27.695473 0.036215
0.015493 27.695473 0.035541
0.330234 27.695473 0.035115
0.644975 27.695473 0.034964
0.959716 27.695473 0.035180
1.274457 27.695473 0.035923
1.589198 27.695473 0.036724
1.903938 27.695473 0.037511
2.218679 27.695473 0.038363
2.533421 27.695473 0.039338
2.848162 27.695473 0.040351
3.162903 27.695473 0.041189
3.477644 27.695473 0.041593
3.792385 27.695473 0.041901
4.107125 27.695473 0.042329
4.421866 27.695473 0.042822
4.736608 27.695473 0.043571
5.051349 27.695473 0.044741
5.366090 27.695473 0.046651
5.680831 27.695473 0.049258
5.995571 27.695473 0.052929
6.310312 27.695473 0.057747
6.625053 27.695473 0.063828
6.939795 27.695473 0.070614
7.254536 27.695473 0.079552
7.569277 27.695473 0.093282
7.884017 27.695473 0.112832
8.198758 27.695473 0.146286
8.513499 27.695473 0.217192
8.828240 27.695473 0.346476
9.142982 27.695473 0.525352
9.457723 27.695473 0.742399
9.772464 27.695473 0.991501
10.087205 27.695473 1.287712
10.401946 27.695473 1.584052
10.716687 27.695473 1.861253
11.031426 27.695473 2.099883
11.346168 27.695473 2.321231
11.660909 27.695473 2.530061
11.975650 27.695473 2.704313
12.290391 27.695473 2.875196
12.605132 27.695473 3.019766
12.919873 27.695473 3.115080
13.234614 27.695473 3.187185
13.549356 27.695473 3.199746
13.864097 27.695473 3.166110
14.178838 27.695473 3.073815
14.493579 27.695473 2.899007
14.808320 27.695473 2.715417
15.123059 27.695473 2.607645
15.437800 27.695473 2.795359
15.752542 27.695473 2.769042
16.067284 27.695473 0.000000
16.382023 27.695473 0.000000
16.696766 27.695473 0.000000
17.011505 27.695473 0.000000
17.326248 27.695473 0.000000
17.640987 27.695473 0.000000
17.955730 27.695473 0.000000
18.270470 27.695473 0.000000
18.585213 27.695473 0.000000
18.899952 27.695473 0.000000
-7.223550 27.380732 0.000000
-6.908809 27.380732 0.040425
-6.594068 27.380732 0.037746
-6.279327 27.380732 0.036653
-5.964586 27.380732 0.035988
-5.649845 27.380732 0.035421
-5.335104 27.380732 0.035107
-5.020363 27.380732 0.035017
-4.705622 27.380732 0.034735
-4.390881 27.380732 0.034551
-4.076140 27.380732 0.034824
-3.761399 27.380732 0.035621
-3.446658 27.380732 0.036725
-3.131917 27.380732 0.037679
-2.817176 27.380732 0.038188
-2.502435 27.380732 0.038337
-2.187694 27.380732 0.038535
-1.872953 27.380732 0.038725
-1.558212 27.380732 0.038607
-1.243471 27.380732 0.037953
-0.928730 27.380732 0.036930
-0.613989 27.380732 0.036114
-0.299248 27.380732 0.035562
0.015493 27.380732 0.035174
0.330234 27.380732 0.035033
0.644975 27.380732 0.035265
0.959716 27.380732 0.035811
1.274457 27.380732 0.036702
1.589198 27.380732 0.037528
1.903938 27.380732 0.038203
2.218679 27.380732 0.038852
2.533421 27.380732 0.039655
2.848162 27.380732 0.040377
3.162903 27.380732 0.040889
3.477644 27.380732 0.041049
3.792385 27.380732 0.041182
4.107125 27.380732 0.041558
4.421866 27.380732 0.042116
4.736608 27.380732 0.043025
5.051349 27.380732 0.044368
5.366090 27.380732 0.046669
5.680831 27.380732 0.049585
5.995571 27.380732 0.053656
6.310312 27.380732 0.058416
6.625053 27.380732 0.064421
6.939795 27.380732 0.071052
7.254536 27.380732 0.080138
7.569277 27.380732 0.092741
7.884017 27.380732 0.112284
8.198758 27.380732 0.147105
8.513499 27.380732 0.220353
8.828240 27.380732 0.351872
9.142982 27.380732 0.533830
9.457723 27.380732 0.749399
9.772464 27.380732 1.010760
10.087205 27.380732 1.294478
10.401946 27.380732 1.587769
10.716687 27.380732 1.862337
11.031426 27.380732 2.114153
11.346168 27.380732 2.326758
11.660909 27.380732 2.529411
11.975650 27.380732 2.719989
12.290391 27.380732 2.899310
12.605132 27.380732 3.026927
12.919873 27.380732 3.120926
13.234614 27.380732 3.200044
13.549356 27.380732 3.205517
13.864097 27.380732 3.180421
14.178838 27.380732 3.101286
14.493579 27.380732 2.918665
14.808320 27.380732 2.762546
15.123059 27.380732 2.641593
15.437800 27.380732 2.836126
15.752542 27.380732 2.801592
16.067284 27.380732 0.000000
16.382023 27.380732 0.000000
16.696766 27.380732 0.000000
17.011505 27.380732 0.000000
17.326248 27.380732 0.000000
17.640987 27.380732 0.000000
17.955730 27.380732 0.000000
18.270470 27.380732 0.000000
18.585213 27.380732 0.000000
18.899952 27.380732 0.000000
-7.223550 27.065992 0.000000
-6.908809 27.065992 0.039485
-6.594068 27.065992 0.036680
-6.279327 27.065992 0.035589
-5.964586 27.065992 0.035152
-5.649845 27.065992 0.034861
-5.335104 27.065992 0.034873
-5.020363 27.065992 0.035118
-4.705622 27.065992 0.035194
-4.390881 27.065992 0.035302
-4.076140 27.065992 0.035824
-3.761399 27.065992 0.036785
-3.446658 27.065992 0.037839
-3.131917 27.065992 0.038564
-2.817176 27.065992 0.038699
-2.502435 27.065992 0.038523
-2.187694 27.065992 0.038363
-1.872953 27.065992 0.038061
-1.558212 27.065992 0.037467
-1.243471 27.065992 0.036634
-0.928730 27.065992 0.035796
-0.613989 27.065992 0.035335
-0.299248 27.065992 0.035237
0.015493 27.065992 0.035176
0.330234 27.065992 0.035386
0.644975 27.065992 0.035941
0.959716 27.065992 0.036691
1.274457 27.065992 0.037568
1.589198 27.065992 0.038305
1.903938 27.065992 0.038752
2.218679 27.065992 0.039131
2.533421 27.065992 0.039642
2.848162 27.065992 0.040117
3.162903 27.065992 0.040368
3.477644 27.065992 0.040357
3.792385 27.065992 0.040418
4.107125 27.065992 0.040829
4.421866 27.065992 0.041594
4.736608 27.065992 0.042704
5.051349 27.065992 0.044363
5.366090 27.065992 0.046813
5.680831 27.065992 0.050005
5.995571 27.065992 0.054203
6.310312 27.065992 0.058733
6.625053 27.065992 0.064529
6.939795 27.065992 0.071585
7.254536 27.065992 0.079975
7.569277 27.065992 0.092745
7.884017 27.065992 0.113054
8.198758 27.065992 0.151514
8.513499 27.065992 0.223639
8.828240 27.065992 0.361864
9.142982 27.065992 0.541600
9.457723 27.065992 0.755094
9.772464 27.065992 1.025698
10.087205 27.065992 1.303222
10.401946 27.065992 1.594941
10.716687 27.065992 1.854874
11.031426 27.065992 2.102623
11.346168 27.065992 2.335374
11.660909 27.065992 2.536220
11.975650 27.065992 2.731106
12.290391 27.065992 2.908000
12.605132 27.065992 3.014841
12.919873 27.065992 3.144484
13.234614 27.065992 3.222976
13.549356 27.065992 3.217731
13.864097 27.065992 3.193921
14.178838 27.065992 3.111405
14.493579 27.065992 2.938640
14.808320 27.065992 2.756927
15.123059 27.065992 2.664525
15.437800 27.065992 2.843940
15.752542 27.065992 2.814372
16.067284 27.065992 0.000000
16.382023 27.065992 0.000000
16.696766 27.065992 0.000000
17.011505 27.065992 0.000000
17.326248 27.065992 0.000000
17.640987 27.065992 0.000000
17.955730 27.065992 0.000000
18.270470 27.065992 0.000000
18.585213 27.065992 0.000000
18.899952 27.065992 0.000000
-7.223550 26.751251 0.000000
-6.908809 26.751251 0.038493
-6.594068 26.751251 0.035795
-6.279327 26.751251 0.034888
-5.964586 26.751251 0.034749
-5.649845 26.751251 0.034759
-5.335104 26.751251 0.035064
-5.020363 26.751251 0.035563
-4.705622 26.751251 0.035937
-4.390881 26.751251 0.036321
-4.076140 26.751251 0.037036
-3.761399 26.751251 0.037911
-3.446658 26.751251 0.038684
-3.131917 26.751251 0.038951
-2.817176 26.751251 0.038652
-2.502435 26.751251 0.038203
-2.187694 26.751251 0.037768
-1.872953 26.751251 0.037107
-1.558212 26.751251 0.036205
-1.243471 26.751251 0.035399
-0.928730 26.751251 0.034959
-0.613989 26.751251 0.034993
-0.299248 26.751251 0.035283
0.015493 26.751251 0.035519
0.330234 26.751251 0.036020
0.644975 26.751251 0.036785
0.959716 26.751251 0.037519
1.274457 26.751251 0.038270
1.589198 26.751251 0.038852
1.903938 26.751251 0.039029
2.218679 26.751251 0.039074
2.533421 26.751251 0.039322
2.848162 26.751251 0.039602
3.162903 26.751251 0.039722
3.477644 26.751251 0.039707
3.792385 26.751251 0.039800
4.107125 26.751251 0.040320
4.421866 26.751251 0.041362
4.736608 26.751251 0.042764
5.051349 26.751251 0.044648
5.366090 26.751251 0.047307
5.680831 26.751251 0.050608
5.995571 26.751251 0.054658
6.310312 26.751251 0.059119
6.625053 26.751251 0.064480
6.939795 26.751251 0.070823
7.254536 26.751251 0.080117
7.569277 26.751251 0.093631
7.884017 26.751251 0.115829
8.198758 26.751251 0.153230
8.513499 26.751251 0.226865
8.828240 26.751251 0.357283
9.142982 26.751251 0.556209
9.457723 26.751251 0.761961
9.772464 26.751251 1.025877
10.087205 26.751251 1.305527
10.401946 26.751251 1.601720
10.716687 26.751251 1.858987
11.031426 26.751251 2.100425
11.346168 26.751251 2.324707
11.660909 26.751251 2.533884
11.975650 26.751251 2.729581
12.290391 26.751251 2.898268
12.605132 26.751251 3.052263
12.919873 26.751251 3.135482
13.234614 26.751251 3.186056
13.549356 26.751251 3.188832
13.864097 26.751251 3.178932
14.178838 26.751251 3.095382
14.493579 26.751251 2.950618
14.808320 26.751251 2.754135
15.123059 26.751251 2.678137
15.437800 26.751251 2.830153
15.752542 26.751251 2.781534
16.067284 26.751251 0.000000
16.382023 26.751251 0.000000
16.696766 26.751251 0.000000
17.011505 26.751251 0.000000
17.326248 26.751251 0.000000
17.640987 26.751251 0.000000
17.955730 26.751251 0.000000
18.270470 26.751251 0.000000
18.585213 26.751251 0.000000
18.899952 26.751251 0.000000
-7.223550 26.436510 0.000000
-6.908809 26.436510 0.037757
-6.594068 26.436510 0.035206
-6.279327 26.436510 0.034638
-5.964586 26.436510 0.034813
-5.649845 26.436510 0.035093
-5.335104 26.436510 0.035616
-5.020363 26.436510 0.036326
-4.705622 26.436510 0.036903
-4.390881 26.436510 0.037457
-4.076140 26.436510 0.038143
-3.761399 26.436510 0.038785
-3.446658 26.436510 0.039045
-3.131917 26.436510 0.038747
-2.817176 26.436510 0.038053
-2.502435 26.436510 0.037446
-2.187694 26.436510 0.036897
-1.872953 26.436510 0.036133
-1.558212 26.436510 0.035226
-1.243471 26.436510 0.034627
-0.928730 26.436510 0.034596
-0.613989 26.436510 0.035078
-0.299248 26.436510 0.035681
0.015493 26.436510 0.036119
0.330234 26.436510 0.036758
0.644975 26.436510 0.037592
0.959716 26.436510 0.038167
1.274457 26.436510 0.038678
1.589198 26.436510 0.039046
1.903938 26.436510 0.038967
2.218679 26.436510 0.038763
2.533421 26.436510 0.038835
2.848162 26.436510 0.039010
3.162903 26.436510 0.039150
3.477644 26.436510 0.039291
3.792385 26.436510 0.039510
4.107125 26.436510 0.040222
4.421866 26.436510 0.041504
4.736608 26.436510 0.043067
5.051349 26.436510 0.045117
5.366090 26.436510 0.047617
5.680831 26.436510 0.050805
5.995571 26.436510 0.054630
6.310312 26.436510 0.059001
6.625053 26.436510 0.064390
6.939795 26.436510 0.070811
7.254536 26.436510 0.080067
7.569277 26.436510 0.094589
7.884017 26.436510 0.115518
8.198758 26.436510 0.157791
8.513499 26.436510 0.229910
8.828240 26.436510 0.359795
9.142982 26.436510 0.550929
9.457723 26.436510 0.776183
9.772464 26.436510 1.025677
10.087205 26.436510 1.310397
10.401946 26.436510 1.604020
10.716687 26.436510 1.868850
11.031426 26.436510 2.100507
11.346168 26.436510 2.322870
11.660909 26.436510 2.525582
11.975650 26.436510 2.718206
12.290391 26.436510 2.910180
12.605132 26.436510 3.061229
12.919873 26.436510 3.150074
13.234614 26.436510 3.165833
13.549356 26.436510 3.183855
13.864097 26.436510 3.183508
14.178838 26.436510 3.095369
14.493579 26.436510 2.950866
14.808320 26.436510 2.795641
15.123059 26.436510 2.726509
15.437800 26.436510 2.855052
15.752542 26.436510 2.850742
16.067284 26.436510 0.000000
16.382023 26.436510 0.000000
16.696766 26.436510 0.000000
17.011505 26.436510 0.000000
17.326248 26.436510 0.000000
17.640987 26.436510 0.000000
17.955730 26.436510 0.000000
18.270470 26.436510 0.000000
18.585213 26.436510 0.000000
18.899952 26.436510 0.000000
-7.223550 26.121769 0.000000
-6.908809 26.121769 0.037449
-6.594068 26.121769 0.035156
-6.279327 26.121769 0.034875
-5.964586 26.121769 0.035347
-5.649845 26.121769 0.035836
-5.335104 26.121769 0.036469
-5.020363 26.121769 0.037194
-4.705622 26.121769 0.037814
-4.390881 26.121769 0.038319
-4.076140 26.121769 0.038788
-3.761399 26.121769 0.038998
-3.446658 26.121769 0.038729
-3.131917 26.121769 0.038054
-2.817176 26.121769 0.037166
-2.502435 26.121769 0.036504
-2.187694 26.121769 0.036008
-1.872953 26.121769 0.035392
-1.558212 26.121769 0.034773
-1.243471 26.121769 0.034498
-0.928730 26.121769 0.034771
-0.613989 26.121769 0.035485
-0.299248 26.121769 0.036254
0.015493 26.121769 0.036794
0.330234 26.121769 0.037414
0.644975 26.121769 0.038106
0.959716 26.121769 0.038478
1.274457 26.121769 0.038691
1.589198 26.121769 0.038799
1.903938 26.121769 0.038578
2.218679 26.121769 0.038338
2.533421 26.121769 0.038379
2.848162 26.121769 0.038548
3.162903 26.121769 0.038812
3.477644 26.121769 0.039132
3.792385 26.121769 0.039571
4.107125 26.121769 0.040488
4.421866 26.121769 0.041865
4.736608 26.121769 0.043474
5.051349 26.121769 0.045413
5.366090 26.121769 0.047700
5.680831 26.121769 0.050653
5.995571 26.121769 0.054354
6.310312 26.121769 0.059070
6.625053 26.121769 0.064127
6.939795 26.121769 0.070687
7.254536 26.121769 0.080270
7.569277 26.121769 0.094188
7.884017 26.121769 0.115929
8.198758 26.121769 0.156423
8.513499 26.121769 0.234392
8.828240 26.121769 0.358620
9.142982 26.121769 0.552553
9.457723 26.121769 0.774361
9.772464 26.121769 1.032088
10.087205 26.121769 1.312268
10.401946 26.121769 1.606766
10.716687 26.121769 1.872956
11.031426 26.121769 2.104877
11.346168 26.121769 2.338881
11.660909 26.121769 2.528224
11.975650 26.121769 2.714166
12.290391 26.121769 2.891951
12.605132 26.121769 3.051357
12.919873 26.121769 3.153547
13.234614 26.121769 3.184719
13.549356 26.121769 3.187877
13.864097 26.121769 3.166438
14.178838 26.121769 3.102325
14.493579 26.121769 2.939481
14.808320 26.121769 2.779644
15.123059 26.121769 2.711096
15.437800 26.121769 2.873795
15.752542 26.121769 2.829341
16.067284 26.121769 0.000000
16.382023 26.121769 0.000000
16.696766 26.121769 0.000000
17.011505 26.121769 0.000000
17.326248 26.121769 0.000000
17.640987 26.121769 0.000000
17.955730 26.121769 0.000000
18.270470 26.121769 0.000000
18.585213 26.121769 0.000000
18.899952 26.121769 0.000000
-7.223550 25.807028 0.000000
-6.908809 25.807028 0.037836
-6.594068 25.807028 0.035791
-6.279327 25.807028 0.035659
-5.964586 25.807028 0.036263
-5.649845 25.807028 0.036832
-5.335104 25.807028 0.037370
-5.020363 25.807028 0.037962
-4.705622 25.807028 0.038440
-4.390881 25.807028 0.038704
-4.076140 25.807028 0.038743
-3.761399 25.807028 0.038458
-3.446658 25.807028 0.037796
-3.131917 25.807028 0.037029
-2.817176 25.807028 0.036237
-2.502435 25.807028 0.035651
-2.187694 25.807028 0.035319
-1.872953 25.807028 0.035037
-1.558212 25.807028 0.034883
-1.243471 25.807028 0.034966
-0.928730 25.807028 0.035356
-0.613989 25.807028 0.036076
-0.299248 25.807028 0.036834
0.015493 25.807028 0.037343
0.330234 25.807028 0.037835
0.644975 25.807028 0.038297
0.959716 25.807028 0.038428
1.274457 25.807028 0.038357
1.589198 25.807028 0.038272
1.903938 25.807028 0.038035
2.218679 25.807028 0.037984
2.533421 25.807028 0.038147
2.848162 25.807028 0.038370
3.162903 25.807028 0.038775
3.477644 25.807028 0.039318
3.792385 25.807028 0.039925
4.107125 25.807028 0.040921
4.421866 25.807028 0.042242
4.736608 25.807028 0.043729
5.051349 25.807028 0.045518
5.366090 25.807028 0.047667
5.680831 25.807028 0.050534
5.995571 25.807028 0.054315
6.310312 25.807028 0.059072
6.625053 25.807028 0.064367
6.939795 25.807028 0.071213
7.254536 25.807028 0.081118
7.569277 25.807028 0.096013
7.884017 25.807028 0.115824
8.198758 25.807028 0.153852
8.513499 25.807028 0.228474
8.828240 25.807028 0.367289
9.142982 25.807028 0.558626
9.457723 25.807028 0.771121
9.772464 25.807028 1.032355
10.087205 25.807028 1.313378
10.401946 25.807028 1.616766
10.716687 25.807028 1.875391
11.031426 25.807028 2.121201
11.346168 25.807028 2.333794
11.660909 25.807028 2.553740
11.975650 25.807028 2.729053
12.290391 25.807028 2.902798
12.605132 25.807028 3.063970
12.919873 25.807028 3.169899
13.234614 25.807028 3.213029
13.549356 25.807028 3.192977
13.864097 25.807028 3.168556
14.178838 25.807028 3.077895
14.493579 25.807028 2.908440
14.808320 25.807028 2.784208
15.123059 25.807028 2.703805
15.437800 25.807028 2.851171
15.752542 25.807028 2.905423
16.067284 25.807028 0.000000
16.382023 25.807028 0.000000
16.696766 25.807028 0.000000
17.011505 25.807028 0.000000
17.326248 25.807028 0.000000
17.640987 25.807028 0.000000
17.955730 25.807028 0.000000
18.270470 25.807028 0.000000
18.585213 25.807028 0.000000
18.899952 25.807028 0.000000
-7.223550 25.492287 0.000000
-6.908809 25.492287 0.038685
-6.594068 25.492287 0.036878
-6.279327 25.492287 0.036767
-5.964586 25.492287 0.037313
-5.649845 25.492287 0.037774
-5.335104 25.492287 0.038062
-5.020363 25.492287 0.038326
-4.705622 25.492287 0.038521
-4.390881 25.492287 0.038426
-4.076140 25.492287 0.038036
-3.761399 25.492287 0.037426
-3.446658 25.492287 0.036659
-3.131917 25.492287 0.035988
-2.817176 25.492287 0.035480
-2.502435 25.492287 0.035145
-2.187694 25.492287 0.035081
-1.872953 25.492287 0.035201
-1.558212 25.492287 0.035447
-1.243471 25.492287 0.035791
-0.928730 25.492287 0.036159
-0.613989 25.492287 0.036667
-0.299248 25.492287 0.037223
0.015493 25.492287 0.037563
0.330234 25.492287 0.037884
0.644975 25.492287 0.038156
0.959716 25.492287 0.038092
1.274457 25.492287 0.037892
1.589198 25.492287 0.037718
1.903938 25.492287 0.037596
2.218679 25.492287 0.037780
2.533421 25.492287 0.038134
2.848162 25.492287 0.038480
3.162903 25.492287 0.038977
3.477644 25.492287 0.039597
3.792385 25.492287 0.040311
4.107125 25.492287 0.041307
4.421866 25.492287 0.042438
4.736608 25.492287 0.043789
5.051349 25.492287 0.045494
5.366090 25.492287 0.047482
5.680831 25.492287 0.050399
5.995571 25.492287 0.054254
6.310312 25.492287 0.059045
6.625053 25.492287 0.064716
6.939795 25.492287 0.072047
7.254536 25.492287 0.082095
7.569277 25.492287 0.095982
7.884017 25.492287 0.115650
8.198758 25.492287 0.155235
8.513499 25.492287 0.231001
8.828240 25.492287 0.370837
9.142982 25.492287 0.556293
9.457723 25.492287 0.765274
9.772464 25.492287 1.025151
10.087205 25.492287 1.312222
10.401946 25.492287 1.612634
10.716687 25.492287 1.880747
11.031426 25.492287 2.112710
11.346168 25.492287 2.347029
11.660909 25.492287 2.562387
11.975650 25.492287 2.738424
12.290391 25.492287 2.921583
12.605132 25.492287 3.062180
12.919873 25.492287 3.172821
13.234614 25.492287 3.218940
13.549356 25.492287 3.214226
13.864097 25.492287 3.171396
14.178838 25.492287 3.060007
14.493579 25.492287 2.909585
14.808320 25.492287 2.781069
15.123059 25.492287 2.717742
15.437800 25.492287 2.859760
15.752542 25.492287 2.743131
16.067284 25.492287 0.000000
16.382023 25.492287 0.000000
16.696766 25.492287 0.000000
17.011505 25.492287 0.000000
17.326248 25.492287 0.000000
17.640987 25.492287 0.000000
17.955730 25.492287 0.000000
18.270470 25.492287 0.000000
18.585213 25.492287 0.000000
18.899952 25.492287 0.000000
-7.223550 25.177546 0.000000
-6.908809 25.177546 0.039740
-6.594068 25.177546 0.038048
-6.279327 25.177546 0.037849
-5.964586 25.177546 0.038197
-5.649845 25.177546 0.038300
-5.335104 25.177546 0.038302
-5.020363 25.177546 0.038212
-4.705622 25.177546 0.038032
-4.390881 25.177546 0.037584
-4.076140 25.177546 0.036970
-3.761399 25.177546 0.036276
-3.446658 25.177546 0.035652
-3.131917 25.177546 0.035227
-2.817176 25.177546 0.035091
-2.502435 25.177546 0.035115
-2.187694 25.177546 0.035293
-1.872953 25.177546 0.035693
-1.558212 25.177546 0.036183
-1.243471 25.177546 0.036627
-0.928730 25.177546 0.036864
-0.613989 25.177546 0.037056
-0.299248 25.177546 0.037317
0.015493 25.177546 0.037468
0.330234 25.177546 0.037666
0.644975 25.177546 0.037777
0.959716 25.177546 0.037618
1.274457 25.177546 0.037419
1.589198 25.177546 0.037292
1.903938 25.177546 0.037367
2.218679 25.177546 0.037776
2.533421 25.177546 0.038241
2.848162 25.177546 0.038731
3.162903 25.177546 0.039197
3.477644 25.177546 0.039722
3.792385 25.177546 0.040539
4.107125 25.177546 0.041509
4.421866 25.177546 0.042500
4.736608 25.177546 0.043788
5.051349 25.177546 0.045497
5.366090 25.177546 0.047629
5.680831 25.177546 0.050616
5.995571 25.177546 0.054558
6.310312 25.177546 0.059320
6.625053 25.177546 0.065103
6.939795 25.177546 0.072506
7.254536 25.177546 0.082200
7.569277 25.177546 0.095192
7.884017 25.177546 0.117177
8.198758 25.177546 0.155450
8.513499 25.177546 0.233644
8.828240 25.177546 0.372008
9.142982 25.177546 0.563132
9.457723 25.177546 0.771885
9.772464 25.177546 1.036687
10.087205 25.177546 1.325893
10.401946 25.177546 1.626384
10.716687 25.177546 1.885683
11.031426 25.177546 2.113489
11.346168 25.177546 2.353241
11.660909 25.177546 2.563315
11.975650 25.177546 2.756113
12.290391 25.177546 2.912374
12.605132 25.177546 3.059826
12.919873 25.177546 3.181802
13.234614 25.177546 3.221972
13.549356 25.177546 3.239241
13.864097 25.177546 3.200807
14.178838 25.177546 3.070184
14.493579 25.177546 2.945177
14.808320 25.177546 2.779044
15.123059 25.177546 2.735288
15.437800 25.177546 2.848228
15.752542 25.177546 3.000691
16.067284 25.177546 0.000000
16.382023 25.177546 0.000000
16.696766 25.177546 0.000000
17.011505 25.177546 0.000000
17.326248 25.177546 0.000000
17.640987 25.177546 0.000000
17.955730 25.177546 0.000000
18.270470 25.177546 0.000000
18.585213 25.177546 0.000000
18.899952 25.177546 0.000000
-7.223550 24.862804 0.000000
-6.908809 24.862804 0.040586
-6.594068 24.862804 0.038914
-6.279327 24.862804 0.038585
-5.964586 24.862804 0.038644
-5.649845 24.862804 0.038382
-5.335104 24.862804 0.038036
-5.020363 24.862804 0.037658
-4.705622 24.862804 0.037162
-4.390881 24.862804 0.036566
-4.076140 24.862804 0.035945
-3.761399 24.862804 0.035388
-3.446658 24.862804 0.035063
-3.131917 24.862804 0.034980
-2.817176 24.862804 0.035177
-2.502435 24.862804 0.035461
-2.187694 24.862804 0.035793
-1.872953 24.862804 0.036274
-1.558212 24.862804 0.036806
-1.243471 24.862804 0.037205
-0.928730 24.862804 0.037271
-0.613989 24.862804 0.037153
-0.299248 24.862804 0.037156
0.015493 24.862804 0.037155
0.330234 24.862804 0.037272
0.644975 24.862804 0.037284
0.959716 24.862804 0.037103
1.274457 24.862804 0.037023
1.589198 24.862804 0.037050
1.903938 24.862804 0.037336
2.218679 24.862804 0.037881
2.533421 24.862804 0.038381
2.848162 24.862804 0.038834
3.162903 24.862804 0.039195
3.477644 24.862804 0.039688
3.792385 24.862804 0.040553
4.107125 24.862804 0.041505
4.421866 24.862804 0.042491
4.736608 24.862804 0.043855
5.051349 24.862804 0.045702
5.366090 24.862804 0.048005
5.680831 24.862804 0.050988
5.995571 24.862804 0.054947
6.310312 24.862804 0.059325
6.625053 24.862804 0.064994
6.939795 24.862804 0.072269
7.254536 24.862804 0.081641
7.569277 24.862804 0.093946
7.884017 24.862804 0.115931
8.198758 24.862804 0.157882
8.513499 24.862804 0.233664
8.828240 24.862804 0.370461
9.142982 24.862804 0.569789
9.457723 24.862804 0.788281
9.772464 24.862804 1.044856
10.087205 24.862804 1.332317
10.401946 24.862804 1.624340
10.716687 24.862804 1.901445
11.031426 24.862804 2.129091
11.346168 24.862804 2.332030
11.660909 24.862804 2.555401
11.975650 24.862804 2.727863
12.290391 24.862804 2.896941
12.605132 24.862804 3.052982
12.919873 24.862804 3.161751
13.234614 24.862804 3.238480
13.549356 24.862804 3.260596
13.864097 24.862804 3.198018
14.178838 24.862804 3.103249
14.493579 24.862804 2.926100
14.808320 24.862804 2.758213
15.123059 24.862804 2.696882
15.437800 24.862804 2.832240
15.752542 24.862804 2.992866
16.067284 24.862804 0.000000
16.382023 24.862804 0.000000
16.696766 24.862804 0.000000
17.011505 24.862804 0.000000
17.326248 24.862804 0.000000
17.640987 24.862804 0.000000
17.955730 24.862804 0.000000
18.270470 24.862804 0.000000
18.585213 24.862804 0.000000
18.899952 24.862804 0.000000
-7.223550 24.548063 0.000000
-6.908809 24.548063 0.041182
-6.594068 24.548063 0.039264
-6.279327 24.548063 0.038724
-5.964586 24.548063 0.038490
-5.649845 24.548063 0.037957
-5.335104 24.548063 0.037371
-5.020363 24.548063 0.036794
-4.705622 24.548063 0.036202
-4.390881 24.548063 0.035650
-4.076140 24.548063 0.035241
-3.761399 24.548063 0.034991
-3.446658 24.548063 0.035037
-3.131917 24.548063 0.035235
-2.817176 24.548063 0.035654
-2.502435 24.548063 0.036050
-2.187694 24.548063 0.036315
-1.872953 24.548063 0.036705
-1.558212 24.548063 0.037136
-1.243471 24.548063 0.037374
-0.928730 24.548063 0.037289
-0.613989 24.548063 0.036971
-0.299248 24.548063 0.036862
0.015493 24.548063 0.036790
0.330234 24.548063 0.036815
0.644975 24.548063 0.036872
0.959716 24.548063 0.036706
1.274457 24.548063 0.036772
1.589198 24.548063 0.036972
1.903938 24.548063 0.037362
2.218679 24.548063 0.037929
2.533421 24.548063 0.038427
2.848162 24.548063 0.038731
3.162903 24.548063 0.038998
3.477644 24.548063 0.039540
3.792385 24.548063 0.040416
4.107125 24.548063 0.041389
4.421866 24.548063 0.042530
4.736608 24.548063 0.044022
5.051349 24.548063 0.045979
5.366090 24.548063 0.048374
5.680831 24.548063 0.051269
5.995571 24.548063 0.055042
6.310312 24.548063 0.059389
6.625053 24.548063 0.064901
6.939795 24.548063 0.071797
7.254536 24.548063 0.080488
7.569277 24.548063 0.093198
7.884017 24.548063 0.115780
8.198758 24.548063 0.160877
8.513499 24.548063 0.236255
8.828240 24.548063 0.374626
9.142982 24.548063 0.568779
9.457723 24.548063 0.792855
9.772464 24.548063 1.056602
10.087205 24.548063 1.344492
10.401946 24.548063 1.623754
10.716687 24.548063 1.885022
11.031426 24.548063 2.129951
11.346168 24.548063 2.336827
11.660909 24.548063 2.533436
11.975650 24.548063 2.723746
12.290391 24.548063 2.896436
12.605132 24.548063 3.040549
12.919873 24.548063 3.159195
13.234614 24.548063 3.256596
13.549356 24.548063 3.284941
13.864097 24.548063 3.244574
14.178838 24.548063 3.102692
14.493579 24.548063 2.924039
14.808320 24.548063 2.786793
15.123059 24.548063 2.745085
15.437800 24.548063 2.849248
15.752542 24.548063 3.030527
16.067284 24.548063 0.000000
16.382023 24.548063 0.000000
16.696766 24.548063 0.000000
17.011505 24.548063 0.000000
17.326248 24.548063 0.000000
17.640987 24.548063 0.000000
17.955730 24.548063 0.000000
18.270470 24.548063 0.000000
18.585213 24.548063 0.000000
18.899952 24.548063 0.000000
-7.223550 24.233322 0.000000
-6.908809 24.233322 0.041313
-6.594068 24.233322 0.039036
-6.279327 24.233322 0.038208
-5.964586 24.233322 0.037766
-5.649845 24.233322 0.037127
-5.335104 24.233322 0.036517
-5.020363 24.233322 0.035971
-4.705622 24.233322 0.035474
-4.390881 24.233322 0.035108
-4.076140 24.233322 0.034982
-3.761399 24.233322 0.035146
-3.446658 24.233322 0.035429
-3.131917 24.233322 0.035811
-2.817176 24.233322 0.036265
-2.502435 24.233322 0.036589
-2.187694 24.233322 0.036714
-1.872953 24.233322 0.036934
-1.558212 24.233322 0.037180
-1.243471 24.233322 0.037238
-0.928730 24.233322 0.037049
-0.613989 24.233322 0.036676
-0.299248 24.233322 0.036559
0.015493 24.233322 0.036513
0.330234 24.233322 0.036455
0.644975 24.233322 0.036621
0.959716 24.233322 0.036594
1.274457 24.233322 0.036710
1.589198 24.233322 0.036989
1.903938 24.233322 0.037343
2.218679 24.233322 0.037883
2.533421 24.233322 0.038313
2.848162 24.233322 0.038490
3.162903 24.233322 0.038721
3.477644 24.233322 0.039374
3.792385 24.233322 0.040346
4.107125 24.233322 0.041483
4.421866 24.233322 0.042745
4.736608 24.233322 0.044347
5.051349 24.233322 0.046343
5.366090 24.233322 0.048530
5.680831 24.233322 0.051355
5.995571 24.233322 0.054893
6.310312 24.233322 0.059233
6.625053 24.233322 0.064462
6.939795 24.233322 0.070715
7.254536 24.233322 0.078912
7.569277 24.233322 0.092096
7.884017 24.233322 0.116822
8.198758 24.233322 0.159986
8.513499 24.233322 0.241536
8.828240 24.233322 0.378781
9.142982 24.233322 0.575098
9.457723 24.233322 0.800446
9.772464 24.233322 1.070126
10.087205 24.233322 1.349650
10.401946 24.233322 1.623088
10.716687 24.233322 1.877104
11.031426 24.233322 2.137385
11.346168 24.233322 2.337924
11.660909 24.233322 2.538218
11.975650 24.233322 2.706057
12.290391 24.233322 2.894352
12.605132 24.233322 3.042942
12.919873 24.233322 3.126410
13.234614 24.233322 3.229200
13.549356 24.233322 3.296666
13.864097 24.233322 3.242523
14.178838 24.233322 3.089733
14.493579 24.233322 2.930226
14.808320 24.233322 2.806950
15.123059 24.233322 2.727906
15.437800 24.233322 2.892916
15.752542 24.233322 3.026429
16.067284 24.233322 0.000000
16.382023 24.233322 0.000000
16.696766 24.233322 0.000000
17.011505 24.233322 0.000000
17.326248 24.233322 0.000000
17.640987 24.233322 0.000000
17.955730 24.233322 0.000000
18.270470 24.233322 0.000000
18.585213 24.233322 0.000000
18.899952 24.233322 0.000000
-7.223550 23.918581 0.000000
-6.908809 23.918581 0.040908
-6.594068 23.918581 0.038295
-6.279327 23.918581 0.037254
-5.964586 23.918581 0.036736
-5.649845 23.918581 0.036232
-5.335104 23.918581 0.035846
-5.020363 23.918581 0.035480
-4.705622 23.918581 0.035159
-4.390881 23.918581 0.035046
-4.076140 23.918581 0.035241
-3.761399 23.918581 0.035645
-3.446658 23.918581 0.036030
-3.131917 23.918581 0.036421
-2.817176 23.918581 0.036755
-2.502435 23.918581 0.036869
-2.187694 23.918581 0.036836
-1.872953 23.918581 0.036900
-1.558212 23.918581 0.036992
-1.243471 23.918581 0.036907
-0.928730 23.918581 0.036684
-0.613989 23.918581 0.036425
-0.299248 23.918581 0.036383
0.015493 23.918581 0.036356
0.330234 23.918581 0.036265
0.644975 23.918581 0.036482
0.959716 23.918581 0.036611
1.274457 23.918581 0.036756
1.589198 23.918581 0.036949
1.903938 23.918581 0.037158
2.218679 23.918581 0.037629
2.533421 23.918581 0.038044
2.848162 23.918581 0.038249
3.162903 23.918581 0.038615
3.477644 23.918581 0.039375
3.792385 23.918581 0.040473
4.107125 23.918581 0.041723
4.421866 23.918581 0.043046
4.736608 23.918581 0.044569
5.051349 23.918581 0.046428
5.366090 23.918581 0.048422
5.680831 23.918581 0.051064
5.995571 23.918581 0.054199
6.310312 23.918581 0.058473
6.625053 23.918581 0.063720
6.939795 23.918581 0.070337
7.254536 23.918581 0.078715
7.569277 23.918581 0.092145
7.884017 23.918581 0.114507
8.198758 23.918581 0.159753
8.513499 23.918581 0.247646
8.828240 23.918581 0.386732
9.142982 23.918581 0.585034
9.457723 23.918581 0.804975
9.772464 23.918581 1.061090
10.087205 23.918581 1.348697
10.401946 23.918581 1.643447
10.716687 23.918581 1.881735
11.031426 23.918581 2.143478
11.346168 23.918581 2.365635
11.660909 23.918581 2.543126
11.975650 23.918581 2.732561
12.290391 23.918581 2.892171
12.605132 23.918581 3.012923
12.919873 23.918581 3.121145
13.234614 23.918581 3.226348
13.549356 23.918581 3.286617
13.864097 23.918581 3.223617
14.178838 23.918581 3.106036
14.493579 23.918581 2.956141
14.808320 23.918581 2.787403
15.123059 23.918581 2.732930
15.437800 23.918581 2.875082
15.752542 23.918581 2.990465
16.067284 23.918581 0.000000
16.382023 23.918581 0.000000
16.696766 23.918581 0.000000
17.011505 23.918581 0.000000
17.326248 23.918581 0.000000
17.640987 23.918581 0.000000
17.955730 23.918581 0.000000
18.270470 23.918581 0.000000
18.585213 23.918581 0.000000
18.899952 23.918581 0.000000
-7.223550 23.603840 0.000000
-6.908809 23.603840 0.040141
-6.594068 23.603840 0.037464
-6.279327 23.603840 0.036324
-5.964586 23.603840 0.035879
-5.649845 23.603840 0.035638
-5.335104 23.603840 0.035528
-5.020363 23.603840 0.035402
-4.705622 23.603840 0.035286
-4.390881 23.603840 0.035407
-4.076140 23.603840 0.035841
-3.761399 23.603840 0.036276
-3.446658 23.603840 0.036597
-3.131917 23.603840 0.036812
-2.817176 23.603840 0.036919
-2.502435 23.603840 0.036799
-2.187694 23.603840 0.036697
-1.872953 23.603840 0.036652
-1.558212 23.603840 0.036639
-1.243471 23.603840 0.036556
-0.928730 23.603840 0.036413
-0.613989 23.603840 0.036323
-0.299248 23.603840 0.036343
0.015493 23.603840 0.036298
0.330234 23.603840 0.036210
0.644975 23.603840 0.036392
0.959716 23.603840 0.036633
1.274457 23.603840 0.036738
1.589198 23.603840 0.036751
1.903938 23.603840 0.036852
2.218679 23.603840 0.037288
2.533421 23.603840 0.037795
2.848162 23.603840 0.038242
3.162903 23.603840 0.038794
3.477644 23.603840 0.039642
3.792385 23.603840 0.040727
4.107125 23.603840 0.041911
4.421866 23.603840 0.043116
4.736608 23.603840 0.044412
5.051349 23.603840 0.045950
5.366090 23.603840 0.047774
5.680831 23.603840 0.050158
5.995571 23.603840 0.053251
6.310312 23.603840 0.057377
6.625053 23.603840 0.063375
6.939795 23.603840 0.070699
7.254536 23.603840 0.080064
7.569277 23.603840 0.093089
7.884017 23.603840 0.117210
8.198758 23.603840 0.163446
8.513499 23.603840 0.254311
8.828240 23.603840 0.398635
9.142982 23.603840 0.589802
9.457723 23.603840 0.799439
9.772464 23.603840 1.062090
10.087205 23.603840 1.359090
10.401946 23.603840 1.641969
10.716687 23.603840 1.900220
11.031426 23.603840 2.154950
11.346168 23.603840 2.365926
11.660909 23.603840 2.570917
11.975650 23.603840 2.754488
12.290391 23.603840 2.885159
12.605132 23.603840 3.023670
12.919873 23.603840 3.136693
13.234614 23.603840 3.248348
13.549356 23.603840 3.276040
13.864097 23.603840 3.238635
14.178838 23.603840 3.105837
14.493579 23.603840 2.959619
14.808320 23.603840 2.787239
15.123059 23.603840 2.726317
15.437800 23.603840 2.921933
15.752542 23.603840 3.054937
16.067284 23.603840 0.000000
16.382023 23.603840 0.000000
16.696766 23.603840 0.000000
17.011505 23.603840 0.000000
17.326248 23.603840 0.000000
17.640987 23.603840 0.000000
17.955730 23.603840 0.000000
18.270470 23.603840 0.000000
18.585213 23.603840 0.000000
18.899952 23.603840 0.000000
-7.223550 23.289099 0.000000
-6.908809 23.289099 0.039249
-6.594068 23.289099 0.036778
-6.279327 23.289099 0.035777
-5.964586 23.289099 0.035453
-5.649845 23.289099 0.035442
-5.335104 23.289099 0.035556
-5.020363 23.289099 0.035642
-4.705622 23.289099 0.035675
-4.390881 23.289099 0.035945
-4.076140 23.289099 0.036457
-3.761399 23.289099 0.036746
-3.446658 23.289099 0.036891
-3.131917 23.289099 0.036909
-2.817176 23.289099 0.036737
-2.502435 23.289099 0.036537
-2.187694 23.289099 0.036469
-1.872953 23.289099 0.036373
-1.558212 23.289099 0.036293
-1.243471 23.289099 0.036294
-0.928730 23.289099 0.036264
-0.613989 23.289099 0.036311
-0.299248 23.289099 0.036381
0.015493 23.289099 0.036299
0.330234 23.289099 0.036187
0.644975 23.289099 0.036262
0.959716 23.289099 0.036526
1.274457 23.289099 0.036584
1.589198 23.289099 0.036535
1.903938 23.289099 0.036667
2.218679 23.289099 0.037117
2.533421 23.289099 0.037775
2.848162 23.289099 0.038503
3.162903 23.289099 0.039190
3.477644 23.289099 0.039982
3.792385 23.289099 0.040886
4.107125 23.289099 0.041797
4.421866 23.289099 0.042742
4.736608 23.289099 0.043804
5.051349 23.289099 0.045162
5.366090 23.289099 0.046972
5.680831 23.289099 0.049308
5.995571 23.289099 0.052608
6.310312 23.289099 0.057183
6.625053 23.289099 0.063201
6.939795 23.289099 0.071343
7.254536 23.289099 0.082092
7.569277 23.289099 0.095809
7.884017 23.289099 0.118875
8.198758 23.289099 0.167361
8.513499 23.289099 0.258031
8.828240 23.289099 0.401302
9.142982 23.289099 0.593542
9.457723 23.289099 0.808783
9.772464 23.289099 1.079819
10.087205 23.289099 1.356523
10.401946 23.289099 1.643744
10.716687 23.289099 1.911300
11.031426 23.289099 2.170585
11.346168 23.289099 2.402158
11.660909 23.289099 2.567795
11.975650 23.289099 2.743973
12.290391 23.289099 2.894746
12.605132 23.289099 3.024173
12.919873 23.289099 3.130763
13.234614 23.289099 3.255953
13.549356 23.289099 3.288814
13.864097 23.289099 3.247334
14.178838 23.289099 3.143697
14.493579 23.289099 2.957965
14.808320 23.289099 2.786478
15.123059 23.289099 2.741862
15.437800 23.289099 2.899540
15.752542 23.289099 3.008640
16.067284 23.289099 0.000000
16.382023 23.289099 0.000000
16.696766 23.289099 0.000000
17.011505 23.289099 0.000000
17.326248 23.289099 0.000000
17.640987 23.289099 0.000000
17.955730 23.289099 0.000000
18.270470 23.289099 0.000000
18.585213 23.289099 0.000000
18.899952 23.289099 0.000000
-7.223550 22.974360 0.000000
-6.908809 22.974360 0.038543
-6.594068 22.974360 0.036389
-6.279327 22.974360 0.035701
-5.964586 22.974360 0.035554
-5.649845 22.974360 0.035665
-5.335104 22.974360 0.035861
-5.020363 22.974360 0.036019
-4.705622 22.974360 0.036157
-4.390881 22.974360 0.036466
-4.076140 22.974360 0.036871
-3.761399 22.974360 0.036930
-3.446658 22.974360 0.036852
-3.131917 22.974360 0.036676
-2.817176 22.974360 0.036423
-2.502435 22.974360 0.036324
-2.187694 22.974360 0.036337
-1.872953 22.974360 0.036225
-1.558212 22.974360 0.036111
-1.243471 22.974360 0.036135
-0.928730 22.974360 0.036217
-0.613989 22.974360 0.036283
-0.299248 22.974360 0.036336
0.015493 22.974360 0.036264
0.330234 22.974360 0.036152
0.644975 22.974360 0.036141
0.959716 22.974360 0.036349
1.274457 22.974360 0.036470
1.589198 22.974360 0.036523
1.903938 22.974360 0.036765
2.218679 22.974360 0.037293
2.533421 22.974360 0.038005
2.848162 22.974360 0.038872
3.162903 22.974360 0.039596
3.477644 22.974360 0.040145
3.792385 22.974360 0.040683
4.107125 22.974360 0.041247
4.421866 22.974360 0.041931
4.736608 22.974360 0.042851
5.051349 22.974360 0.044220
5.366090 22.974360 0.046202
5.680831 22.974360 0.048874
5.995571 22.974360 0.052532
6.310312 22.974360 0.057357
6.625053 22.974360 0.063973
6.939795 22.974360 0.072407
7.254536 22.974360 0.083137
7.569277 22.974360 0.097294
7.884017 22.974360 0.121768
8.198758 22.974360 0.168426
8.513499 22.974360 0.256303
8.828240 22.974360 0.407162
9.142982 22.974360 0.598404
9.457723 22.974360 0.822444
9.772464 22.974360 1.072720
10.087205 22.974360 1.361423
10.401946 22.974360 1.637137
10.716687 22.974360 1.907404
11.031426 22.974360 2.166727
11.346168 22.974360 2.403301
11.660909 22.974360 2.551675
11.975650 22.974360 2.722242
12.290391 22.974360 2.885766
12.605132 22.974360 3.033625
12.919873 22.974360 3.127994
13.234614 22.974360 3.250569
13.549356 22.974360 3.289890
13.864097 22.974360 3.246403
14.178838 22.974360 3.102836
14.493579 22.974360 2.922317
14.808320 22.974360 2.778542
15.123059 22.974360 2.730669
15.437800 22.974360 2.856170
15.752542 22.974360 2.979041
16.067284 22.974360 0.000000
16.382023 22.974360 0.000000
16.696766 22.974360 0.000000
17.011505 22.974360 0.000000
17.326248 22.974360 0.000000
17.640987 22.974360 0.000000
17.955730 22.974360 0.000000
18.270470 22.974360 0.000000
18.585213 22.974360 0.000000
18.899952 22.974360 0.000000
-7.223550 22.659618 0.000000
-6.908809 22.659618 0.038179
-6.594068 22.659618 0.036396
-6.279327 22.659618 0.036019
-5.964586 22.659618 0.036025
-5.649845 22.659618 0.036127
-5.335104 22.659618 0.036273
-5.020363 22.659618 0.036419
-4.705622 22.659618 0.036565
-4.390881 22.659618 0.036804
-4.076140 22.659618 0.036993
-3.761399 22.659618 0.036853
-3.446658 22.659618 0.036618
-3.131917 22.659618 0.036355
-2.817176 22.659618 0.036198
-2.502435 22.659618 0.036296
-2.187694 22.659618 0.036368
-1.872953 22.659618 0.036193
-1.558212 22.659618 0.036006
-1.243471 22.659618 0.035991
-0.928730 22.659618 0.036102
-0.613989 22.659618 0.036188
-0.299248 22.659618 0.036213
0.015493 22.659618 0.036090
0.330234 22.659618 0.036024
0.644975 22.659618 0.036053
0.959716 22.659618 0.036258
1.274457 22.659618 0.036494
1.589198 22.659618 0.036814
1.903938 22.659618 0.037190
2.218679 22.659618 0.037714
2.533421 22.659618 0.038333
2.848162 22.659618 0.039077
3.162903 22.659618 0.039587
3.477644 22.659618 0.039829
3.792385 22.659618 0.040020
4.107125 22.659618 0.040401
4.421866 22.659618 0.041005
4.736608 22.659618 0.041958
5.051349 22.659618 0.043483
5.366090 22.659618 0.045889
5.680831 22.659618 0.049022
5.995571 22.659618 0.053220
6.310312 22.659618 0.058566
6.625053 22.659618 0.065370
6.939795 22.659618 0.073410
7.254536 22.659618 0.083592
7.569277 22.659618 0.097593
7.884017 22.659618 0.122972
8.198758 22.659618 0.170533
8.513499 22.659618 0.255138
8.828240 22.659618 0.399330
9.142982 22.659618 0.598364
9.457723 22.659618 0.820463
9.772464 22.659618 1.071433
10.087205 22.659618 1.371620
10.401946 22.659618 1.640876
10.716687 22.659618 1.904137
11.031426 22.659618 2.162229
11.346168 22.659618 2.387062
11.660909 22.659618 2.559294
11.975650 22.659618 2.712622
12.290391 22.659618 2.845372
12.605132 22.659618 3.001186
12.919873 22.659618 3.143894
13.234614 22.659618 3.230742
13.549356 22.659618 3.303213
13.864097 22.659618 3.223113
14.178838 22.659618 3.101300
14.493579 22.659618 2.950069
14.808320 22.659618 2.774861
15.123059 22.659618 2.685372
15.437800 22.659618 2.862489
15.752542 22.659618 3.032743
16.067284 22.659618 0.000000
16.382023 22.659618 0.000000
16.696766 22.659618 0.000000
17.011505 22.659618 0.000000
17.326248 22.659618 0.000000
17.640987 22.659618 0.000000
17.955730 22.659618 0.000000
18.270470 22.659618 0.000000
18.585213 22.659618 0.000000
18.899952 22.659618 0.000000
-7.223550 22.344877 0.000000
-6.908809 22.344877 0.038269
-6.594068 22.344877 0.036702
-6.279327 22.344877 0.036519
-5.964586 22.344877 0.036592
-5.649845 22.344877 0.036612
-5.335104 22.344877 0.036602
-5.020363 22.344877 0.036666
-4.705622 22.344877 0.036767
-4.390881 22.344877 0.036851
-4.076140 22.344877 0.036858
-3.761399 22.344877 0.036617
-3.446658 22.344877 0.036373
-3.131917 22.344877 0.036116
-2.817176 22.344877 0.036113
-2.502435 22.344877 0.036363
-2.187694 22.344877 0.036382
-1.872953 22.344877 0.036143
-1.558212 22.344877 0.035871
-1.243471 22.344877 0.035794
-0.928730 22.344877 0.035918
-0.613989 22.344877 0.036019
-0.299248 22.344877 0.036029
0.015493 22.344877 0.035907
0.330234 22.344877 0.035949
0.644975 22.344877 0.036168
0.959716 22.344877 0.036426
1.274457 22.344877 0.036819
1.589198 22.344877 0.037319
1.903938 22.344877 0.037736
2.218679 22.344877 0.038048
2.533421 22.344877 0.038408
2.848162 22.344877 0.038838
3.162903 22.344877 0.039100
3.477644 22.344877 0.039107
3.792385 22.344877 0.039178
4.107125 22.344877 0.039588
4.421866 22.344877 0.040354
4.736608 22.344877 0.041579
5.051349 22.344877 0.043523
5.366090 22.344877 0.046361
5.680831 22.344877 0.050062
5.995571 22.344877 0.054639
6.310312 22.344877 0.060284
6.625053 22.344877 0.066797
6.939795 22.344877 0.074365
7.254536 22.344877 0.083896
7.569277 22.344877 0.097444
7.884017 22.344877 0.121676
8.198758 22.344877 0.167367
8.513499 22.344877 0.260152
8.828240 22.344877 0.401005
9.142982 22.344877 0.605227
9.457723 22.344877 0.821150
9.772464 22.344877 1.071358
10.087205 22.344877 1.374019
10.401946 22.344877 1.643842
10.716687 22.344877 1.898028
11.031426 22.344877 2.162511
11.346168 22.344877 2.380045
11.660909 22.344877 2.551568
11.975650 22.344877 2.704057
12.290391 22.344877 2.835944
12.605132 22.344877 2.979371
12.919873 22.344877 3.108576
13.234614 22.344877 3.253793
13.549356 22.344877 3.308593
13.864097 22.344877 3.246239
14.178838 22.344877 3.112890
14.493579 22.344877 2.944927
14.808320 22.344877 2.781191
15.123059 22.344877 2.708629
15.437800 22.344877 2.847367
15.752542 22.344877 3.006079
16.067284 22.344877 0.000000
16.382023 22.344877 0.000000
16.696766 22.344877 0.000000
17.011505 22.344877 0.000000
17.326248 22.344877 0.000000
17.640987 22.344877 0.000000
17.955730 22.344877 0.000000
18.270470 22.344877 0.000000
18.585213 22.344877 0.000000
18.899952 22.344877 0.000000
-7.223550 22.030136 0.000000
-6.908809 22.030136 0.038674
-6.594068 22.030136 0.037128
-6.279327 22.030136 0.036907
-5.964586 22.030136 0.036936
-5.649845 22.030136 0.036847
-5.335104 22.030136 0.036682
-5.020363 22.030136 0.036714
-4.705622 22.030136 0.036771
-4.390881 22.030136 0.036798
-4.076140 22.030136 0.036689
-3.761399 22.030136 0.036460
-3.446658 22.030136 0.036205
-3.131917 22.030136 0.035990
-2.817176 22.030136 0.036094
-2.502435 22.030136 0.036322
-2.187694 22.030136 0.036240
-1.872953 22.030136 0.035953
-1.558212 22.030136 0.035621
-1.243471 22.030136 0.035498
-0.928730 22.030136 0.035644
-0.613989 22.030136 0.035859
-0.299248 22.030136 0.035933
0.015493 22.030136 0.035891
0.330234 22.030136 0.036114
0.644975 22.030136 0.036502
0.959716 22.030136 0.036884
1.274457 22.030136 0.037318
1.589198 22.030136 0.037789
1.903938 22.030136 0.038010
2.218679 22.030136 0.037996
2.533421 22.030136 0.038003
2.848162 22.030136 0.038135
3.162903 22.030136 0.038273
3.477644 22.030136 0.038236
3.792385 22.030136 0.038428
4.107125 22.030136 0.039145
4.421866 22.030136 0.040388
4.736608 22.030136 0.042015
5.051349 22.030136 0.044288
5.366090 22.030136 0.047461
5.680831 22.030136 0.051497
5.995571 22.030136 0.055913
6.310312 22.030136 0.061291
6.625053 22.030136 0.067004
6.939795 22.030136 0.074043
7.254536 22.030136 0.082991
7.569277 22.030136 0.096721
7.884017 22.030136 0.120392
8.198758 22.030136 0.164433
8.513499 22.030136 0.257772
8.828240 22.030136 0.404312
9.142982 22.030136 0.610647
9.457723 22.030136 0.842849
9.772464 22.030136 1.078677
10.087205 22.030136 1.370463
10.401946 22.030136 1.646393
10.716687 22.030136 1.905096
11.031426 22.030136 2.158863
11.346168 22.030136 2.363910
11.660909 22.030136 2.549292
11.975650 22.030136 2.697886
12.290391 22.030136 2.842194
12.605132 22.030136 2.978356
12.919873 22.030136 3.110055
13.234614 22.030136 3.235615
13.549356 22.030136 3.317065
13.864097 22.030136 3.258445
14.178838 22.030136 3.129866
14.493579 22.030136 2.972554
14.808320 22.030136 2.813831
15.123059 22.030136 2.716167
15.437800 22.030136 2.840791
15.752542 22.030136 2.981865
16.067284 22.030136 0.000000
16.382023 22.030136 0.000000
16.696766 22.030136 0.000000
17.011505 22.030136 0.000000
17.326248 22.030136 0.000000
17.640987 22.030136 0.000000
17.955730 22.030136 0.000000
18.270470 22.030136 0.000000
18.585213 22.030136 0.000000
18.899952 22.030136 0.000000
-7.223550 21.715395 0.000000
-6.908809 21.715395 0.039045
-6.594068 21.715395 0.037341
-6.279327 21.715395 0.036953
-5.964586 21.715395 0.036920
-5.649845 21.715395 0.036751
-5.335104 21.715395 0.036574
-5.020363 21.715395 0.036629
-4.705622 21.715395 0.036676
-4.390881 21.715395 0.036662
-4.076140 21.715395 0.036589
-3.761399 21.715395 0.036409
-3.446658 21.715395 0.036144
-3.131917 21.715395 0.035945
-2.817176 21.715395 0.035998
-2.502435 21.715395 0.036079
-2.187694 21.715395 0.035945
-1.872953 21.715395 0.035649
-1.558212 21.715395 0.035349
-1.243471 21.715395 0.035277
-0.928730 21.715395 0.035576
-0.613989 21.715395 0.035887
-0.299248 21.715395 0.036096
0.015493 21.715395 0.036192
0.330234 21.715395 0.036552
0.644975 21.715395 0.036996
0.959716 21.715395 0.037324
1.274457 21.715395 0.037646
1.589198 21.715395 0.037882
1.903938 21.715395 0.037780
2.218679 21.715395 0.037435
2.533421 21.715395 0.037199
2.848162 21.715395 0.037224
3.162903 21.715395 0.037436
3.477644 21.715395 0.037672
3.792385 21.715395 0.038215
4.107125 21.715395 0.039423
4.421866 21.715395 0.041073
4.736608 21.715395 0.043094
5.051349 21.715395 0.045514
5.366090 21.715395 0.048666
5.680831 21.715395 0.052288
5.995571 21.715395 0.056287
6.310312 21.715395 0.060778
6.625053 21.715395 0.065747
6.939795 21.715395 0.072957
7.254536 21.715395 0.082175
7.569277 21.715395 0.096055
7.884017 21.715395 0.119514
8.198758 21.715395 0.169610
8.513499 21.715395 0.265758
8.828240 21.715395 0.416715
9.142982 21.715395 0.625929
9.457723 21.715395 0.849697
9.772464 21.715395 1.103383
10.087205 21.715395 1.376749
10.401946 21.715395 1.653098
10.716687 21.715395 1.912717
11.031426 21.715395 2.157197
11.346168 21.715395 2.379815
11.660909 21.715395 2.568118
11.975650 21.715395 2.701243
12.290391 21.715395 2.848939
12.605132 21.715395 2.974723
12.919873 21.715395 3.135695
13.234614 21.715395 3.247311
13.549356 21.715395 3.311764
13.864097 21.715395 3.267966
14.178838 21.715395 3.154566
14.493579 21.715395 2.976336
14.808320 21.715395 2.828106
15.123059 21.715395 2.683625
15.437800 21.715395 2.806819
15.752542 21.715395 3.004109
16.067284 21.715395 0.000000
16.382023 21.715395 0.000000
16.696766 21.715395 0.000000
17.011505 21.715395 0.000000
17.326248 21.715395 0.000000
17.640987 21.715395 0.000000
17.955730 21.715395 0.000000
18.270470 21.715395 0.000000
18.585213 21.715395 0.000000
18.899952 21.715395 0.000000
-7.223550 21.400654 0.000000
-6.908809 21.400654 0.039059
-6.594068 21.400654 0.037236
-6.279327 21.400654 0.036778
-5.964586 21.400654 0.036728
-5.649845 21.400654 0.036527
-5.335104 21.400654 0.036357
-5.020363 21.400654 0.036488
-4.705622 21.400654 0.036553
-4.390881 21.400654 0.036485
-4.076140 21.400654 0.036413
-3.761399 21.400654 0.036311
-3.446658 21.400654 0.036069
-3.131917 21.400654 0.035840
-2.817176 21.400654 0.035776
-2.502435 21.400654 0.035758
-2.187694 21.400654 0.035608
-1.872953 21.400654 0.035426
-1.558212 21.400654 0.035269
-1.243471 21.400654 0.035313
-0.928730 21.400654 0.035736
-0.613989 21.400654 0.036168
-0.299248 21.400654 0.036481
0.015493 21.400654 0.036681
0.330234 21.400654 0.037021
0.644975 21.400654 0.037293
0.959716 21.400654 0.037374
1.274457 21.400654 0.037493
1.589198 21.400654 0.037432
1.903938 21.400654 0.037066
2.218679 21.400654 0.036597
2.533421 21.400654 0.036391
2.848162 21.400654 0.036610
3.162903 21.400654 0.037171
3.477644 21.400654 0.037809
3.792385 21.400654 0.038742
4.107125 21.400654 0.040316
4.421866 21.400654 0.042176
4.736608 21.400654 0.044176
5.051349 21.400654 0.046398
5.366090 21.400654 0.049153
5.680831 21.400654 0.052169
5.995571 21.400654 0.055536
6.310312 21.400654 0.059559
6.625053 21.400654 0.064422
6.939795 21.400654 0.071684
7.254536 21.400654 0.081231
7.569277 21.400654 0.096099
7.884017 21.400654 0.120231
8.198758 21.400654 0.172527
8.513499 21.400654 0.274122
8.828240 21.400654 0.428545
9.142982 21.400654 0.627540
9.457723 21.400654 0.859853
9.772464 21.400654 1.111552
10.087205 21.400654 1.392717
10.401946 21.400654 1.650090
10.716687 21.400654 1.918125
11.031426 21.400654 2.170065
11.346168 21.400654 2.370915
11.660909 21.400654 2.580104
11.975650 21.400654 2.704454
12.290391 21.400654 2.835831
12.605132 21.400654 2.987258
12.919873 21.400654 3.143906
13.234614 21.400654 3.236244
13.549356 21.400654 3.296269
13.864097 21.400654 3.266469
14.178838 21.400654 3.132325
14.493579 21.400654 2.998539
14.808320 21.400654 2.811262
15.123059 21.400654 2.684401
15.437800 21.400654 2.778272
15.752542 21.400654 3.000688
16.067284 21.400654 0.000000
16.382023 21.400654 0.000000
16.696766 21.400654 0.000000
17.011505 21.400654 0.000000
17.326248 21.400654 0.000000
17.640987 21.400654 0.000000
17.955730 21.400654 0.000000
18.270470 21.400654 0.000000
18.585213 21.400654 0.000000
18.899952 21.400654 0.000000
-7.223550 21.085913 0.000000
-6.908809 21.085913 0.038841
-6.594068 21.085913 0.036925
-6.279327 21.085913 0.036549
-5.964586 21.085913 0.036570
-5.649845 21.085913 0.036355
-5.335104 21.085913 0.036219
-5.020363 21.085913 0.036338
-4.705622 21.085913 0.036351
-4.390881 21.085913 0.036174
-4.076140 21.085913 0.036081
-3.761399 21.085913 0.036038
-3.446658 21.085913 0.035860
-3.131917 21.085913 0.035632
-2.817176 21.085913 0.035483
-2.502435 21.085913 0.035429
-2.187694 21.085913 0.035380
-1.872953 21.085913 0.035428
-1.558212 21.085913 0.035477
-1.243471 21.085913 0.035719
-0.928730 21.085913 0.036155
-0.613989 21.085913 0.036576
-0.299248 21.085913 0.036884
0.015493 21.085913 0.036988
0.330234 21.085913 0.037072
0.644975 21.085913 0.037064
0.959716 21.085913 0.036890
1.274457 21.085913 0.036809
1.589198 21.085913 0.036584
1.903938 21.085913 0.036210
2.218679 21.085913 0.035940
2.533421 21.085913 0.036068
2.848162 21.085913 0.036662
3.162903 21.085913 0.037612
3.477644 21.085913 0.038588
3.792385 21.085913 0.039735
4.107125 21.085913 0.041349
4.421866 21.085913 0.043066
4.736608 21.085913 0.044635
5.051349 21.085913 0.046285
5.366090 21.085913 0.048444
5.680831 21.085913 0.051048
5.995571 21.085913 0.054087
6.310312 21.085913 0.058383
6.625053 21.085913 0.063803
6.939795 21.085913 0.070764
7.254536 21.085913 0.081484
7.569277 21.085913 0.097581
7.884017 21.085913 0.126600
8.198758 21.085913 0.180280
8.513499 21.085913 0.281804
8.828240 21.085913 0.439088
9.142982 21.085913 0.633106
9.457723 21.085913 0.873547
9.772464 21.085913 1.121220
10.087205 21.085913 1.416502
10.401946 21.085913 1.672795
10.716687 21.085913 1.922080
11.031426 21.085913 2.176443
11.346168 21.085913 2.386020
11.660909 21.085913 2.573805
11.975650 21.085913 2.700331
12.290391 21.085913 2.834776
12.605132 21.085913 3.005094
12.919873 21.085913 3.123044
13.234614 21.085913 3.247862
13.549356 21.085913 3.314992
13.864097 21.085913 3.276095
14.178838 21.085913 3.180385
14.493579 21.085913 3.004053
14.808320 21.085913 2.821460
15.123059 21.085913 2.683294
15.437800 21.085913 2.774395
15.752542 21.085913 3.128741
16.067284 21.085913 0.000000
16.382023 21.085913 0.000000
16.696766 21.085913 0.000000
17.011505 21.085913 0.000000
17.326248 21.085913 0.000000
17.640987 21.085913 0.000000
17.955730 21.085913 0.000000
18.270470 21.085913 0.000000
18.585213 21.085913 0.000000
18.899952 21.085913 0.000000
-7.223550 20.771172 0.000000
-6.908809 20.771172 0.038595
-6.594068 20.771172 0.036694
-6.279327 20.771172 0.036457
-5.964586 20.771172 0.036555
-5.649845 20.771172 0.036338
-5.335104 20.771172 0.036162
-5.020363 20.771172 0.036187
-4.705622 20.771172 0.036046
-4.390881 20.771172 0.035755
-4.076140 20.771172 0.035674
-3.761399 20.771172 0.035722
-3.446658 20.771172 0.035591
-3.131917 20.771172 0.035425
-2.817176 20.771172 0.035235
-2.502435 20.771172 0.035227
-2.187694 20.771172 0.035393
-1.872953 20.771172 0.035747
-1.558212 20.771172 0.036034
-1.243471 20.771172 0.036331
-0.928730 20.771172 0.036595
-0.613989 20.771172 0.036794
-0.299248 20.771172 0.036916
0.015493 20.771172 0.036752
0.330234 20.771172 0.036514
0.644975 20.771172 0.036255
0.959716 20.771172 0.036057
1.274457 20.771172 0.035944
1.589198 20.771172 0.035844
1.903938 20.771172 0.035747
2.218679 20.771172 0.035900
2.533421 20.771172 0.036503
2.848162 20.771172 0.037409
3.162903 20.771172 0.038551
3.477644 20.771172 0.039552
3.792385 20.771172 0.040584
4.107125 20.771172 0.041911
4.421866 20.771172 0.043128
4.736608 20.771172 0.044123
5.051349 20.771172 0.045157
5.366090 20.771172 0.046844
5.680831 20.771172 0.049401
5.995571 20.771172 0.052834
6.310312 20.771172 0.057625
6.625053 20.771172 0.063889
6.939795 20.771172 0.071070
7.254536 20.771172 0.082398
7.569277 20.771172 0.098885
7.884017 20.771172 0.128741
8.198758 20.771172 0.184257
8.513499 20.771172 0.285442
8.828240 20.771172 0.443906
9.142982 20.771172 0.642031
9.457723 20.771172 0.870469
9.772464 20.771172 1.136836
10.087205 20.771172 1.435291
10.401946 20.771172 1.694960
10.716687 20.771172 1.937107
11.031426 20.771172 2.190649
11.346168 20.771172 2.393030
11.660909 20.771172 2.577411
11.975650 20.771172 2.694203
12.290391 20.771172 2.829871
12.605132 20.771172 2.980818
12.919873 20.771172 3.126864
13.234614 20.771172 3.246220
13.549356 20.771172 3.332250
13.864097 20.771172 3.326257
14.178838 20.771172 3.190282
14.493579 20.771172 3.037619
14.808320 20.771172 2.820276
15.123059 20.771172 2.665072
15.437800 20.771172 2.791253
15.752542 20.771172 3.053046
16.067284 20.771172 0.000000
16.382023 20.771172 0.000000
16.696766 20.771172 0.000000
17.011505 20.771172 0.000000
17.326248 20.771172 0.000000
17.640987 20.771172 0.000000
17.955730 20.771172 0.000000
18.270470 20.771172 0.000000
18.585213 20.771172 0.000000
18.899952 20.771172 0.000000
-7.223550 20.456430 0.000000
-6.908809 20.456430 0.038524
-6.594068 20.456430 0.036601
-6.279327 20.456430 0.036432
-5.964586 20.456430 0.036491
-5.649845 20.456430 0.036302
-5.335104 20.456430 0.036090
-5.020363 20.456430 0.035955
-4.705622 20.456430 0.035696
-4.390881 20.456430 0.035384
-4.076140 20.456430 0.035374
-3.761399 20.456430 0.035519
-3.446658 20.456430 0.035500
-3.131917 20.456430 0.035418
-2.817176 20.456430 0.035286
-2.502435 20.456430 0.035334
-2.187694 20.456430 0.035712
-1.872953 20.456430 0.036289
-1.558212 20.456430 0.036599
-1.243471 20.456430 0.036718
-0.928730 20.456430 0.036638
-0.613989 20.456430 0.036474
-0.299248 20.456430 0.036366
0.015493 20.456430 0.035994
0.330234 20.456430 0.035559
0.644975 20.456430 0.035318
0.959716 20.456430 0.035316
1.274457 20.456430 0.035468
1.589198 20.456430 0.035673
1.903938 20.456430 0.036017
2.218679 20.456430 0.036598
2.533421 20.456430 0.037477
2.848162 20.456430 0.038442
3.162903 20.456430 0.039430
3.477644 20.456430 0.040050
3.792385 20.456430 0.040658
4.107125 20.456430 0.041534
4.421866 20.456430 0.042308
4.736608 20.456430 0.042837
5.051349 20.456430 0.043757
5.366090 20.456430 0.045583
5.680831 20.456430 0.048535
5.995571 20.456430 0.052879
6.310312 20.456430 0.058368
6.625053 20.456430 0.065459
6.939795 20.456430 0.073501
7.254536 20.456430 0.083943
7.569277 20.456430 0.100438
7.884017 20.456430 0.128374
8.198758 20.456430 0.182217
8.513499 20.456430 0.284981
8.828240 20.456430 0.447534
9.142982 20.456430 0.650119
9.457723 20.456430 0.886558
9.772464 20.456430 1.154838
10.087205 20.456430 1.447805
10.401946 20.456430 1.706684
10.716687 20.456430 1.946919
11.031426 20.456430 2.208532
11.346168 20.456430 2.407243
11.660909 20.456430 2.583921
11.975650 20.456430 2.713184
12.290391 20.456430 2.828367
12.605132 20.456430 2.977968
12.919873 20.456430 3.118929
13.234614 20.456430 3.269814
13.549356 20.456430 3.326096
13.864097 20.456430 3.313967
14.178838 20.456430 3.215906
14.493579 20.456430 3.025766
14.808320 20.456430 2.808467
15.123059 20.456430 2.659633
15.437800 20.456430 2.817132
15.752542 20.456430 3.154370
16.067284 20.456430 0.000000
16.382023 20.456430 0.000000
16.696766 20.456430 0.000000
17.011505 20.456430 0.000000
17.326248 20.456430 0.000000
17.640987 20.456430 0.000000
17.955730 20.456430 0.000000
18.270470 20.456430 0.000000
18.585213 20.456430 0.000000
18.899952 20.456430 0.000000
-7.223550 20.141689 0.000000
-6.908809 20.141689 0.038414
-6.594068 20.141689 0.036496
-6.279327 20.141689 0.036344
-5.964586 20.141689 0.036242
-5.649845 20.141689 0.036097
-5.335104 20.141689 0.035921
-5.020363 20.141689 0.035651
-4.705622 20.141689 0.035400
-4.390881 20.141689 0.035213
-4.076140 20.141689 0.035302
-3.761399 20.141689 0.035551
-3.446658 20.141689 0.035716
-3.131917 20.141689 0.035696
-2.817176 20.141689 0.035589
-2.502435 20.141689 0.035654
-2.187694 20.141689 0.036073
-1.872953 20.141689 0.036628
-1.558212 20.141689 0.036749
-1.243471 20.141689 0.036566
-0.928730 20.141689 0.036125
-0.613989 20.141689 0.035647
-0.299248 20.141689 0.035413
0.015493 20.141689 0.035067
0.330234 20.141689 0.034763
0.644975 20.141689 0.034815
0.959716 20.141689 0.035189
1.274457 20.141689 0.035653
1.589198 20.141689 0.036150
1.903938 20.141689 0.036813
2.218679 20.141689 0.037639
2.533421 20.141689 0.038416
2.848162 20.141689 0.039092
3.162903 20.141689 0.039609
3.477644 20.141689 0.039688
3.792385 20.141689 0.039846
4.107125 20.141689 0.040458
4.421866 20.141689 0.041169
4.736608 20.141689 0.041751
5.051349 20.141689 0.042963
5.366090 20.141689 0.045231
5.680831 20.141689 0.048679
5.995571 20.141689 0.053390
6.310312 20.141689 0.059482
6.625053 20.141689 0.066834
6.939795 20.141689 0.075321
7.254536 20.141689 0.085530
7.569277 20.141689 0.101198
7.884017 20.141689 0.128634
8.198758 20.141689 0.180606
8.513499 20.141689 0.288125
8.828240 20.141689 0.452207
9.142982 20.141689 0.664270
9.457723 20.141689 0.900966
9.772464 20.141689 1.158585
10.087205 20.141689 1.450436
10.401946 20.141689 1.710204
10.716687 20.141689 1.946829
11.031426 20.141689 2.202156
11.346168 20.141689 2.426284
11.660909 20.141689 2.580410
11.975650 20.141689 2.706549
12.290391 20.141689 2.826634
12.605132 20.141689 2.945574
12.919873 20.141689 3.097414
13.234614 20.141689 3.240082
13.549356 20.141689 3.306849
13.864097 20.141689 3.323102
14.178838 20.141689 3.215012
14.493579 20.141689 3.037162
14.808320 20.141689 2.831406
15.123059 20.141689 2.670714
15.437800 20.141689 2.794799
15.752542 20.141689 3.062596
16.067284 20.141689 0.000000
16.382023 20.141689 0.000000
16.696766 20.141689 0.000000
17.011505 20.141689 0.000000
17.326248 20.141689 0.000000
17.640987 20.141689 0.000000
17.955730 20.141689 0.000000
18.270470 20.141689 0.000000
18.585213 20.141689 0.000000
18.899952 20.141689 0.000000
-7.223550 19.826948 0.000000
-6.908809 19.826948 0.038328
-6.594068 19.826948 0.036354
-6.279327 19.826948 0.036178
-5.964586 19.826948 0.035988
-5.649845 19.826948 0.035870
-5.335104 19.826948 0.035727
-5.020363 19.826948 0.035479
-4.705622 19.826948 0.035347
-4.390881 19.826948 0.035364
-4.076140 19.826948 0.035565
-3.761399 19.826948 0.035883
-3.446658 19.826948 0.036180
-3.131917 19.826948 0.036123
-2.817176 19.826948 0.035876
-2.502435 19.826948 0.035826
-2.187694 19.826948 0.036091
-1.872953 19.826948 0.036392
-1.558212 19.826948 0.036280
-1.243471 19.826948 0.035857
-0.928730 19.826948 0.035267
-0.613989 19.826948 0.034775
-0.299248 19.826948 0.034642
0.015493 19.826948 0.034587
0.330234 19.826948 0.034669
0.644975 19.826948 0.035107
0.959716 19.826948 0.035777
1.274457 19.826948 0.036419
1.589198 19.826948 0.036976
1.903938 19.826948 0.037643
2.218679 19.826948 0.038311
2.533421 19.826948 0.038607
2.848162 19.826948 0.038736
3.162903 19.826948 0.038822
3.477644 19.826948 0.038612
3.792385 19.826948 0.038661
4.107125 19.826948 0.039448
4.421866 19.826948 0.040501
4.736608 19.826948 0.041507
5.051349 19.826948 0.043368
5.366090 19.826948 0.046042
5.680831 19.826948 0.049614
5.995571 19.826948 0.054693
6.310312 19.826948 0.060553
6.625053 19.826948 0.067554
6.939795 19.826948 0.076002
7.254536 19.826948 0.085480
7.569277 19.826948 0.100100
7.884017 19.826948 0.127319
8.198758 19.826948 0.179672
8.513499 19.826948 0.291180
8.828240 19.826948 0.448229
9.142982 19.826948 0.664012
9.457723 19.826948 0.895721
9.772464 19.826948 1.169182
10.087205 19.826948 1.439023
10.401946 19.826948 1.707205
10.716687 19.826948 1.935118
11.031426 19.826948 2.184405
11.346168 19.826948 2.413220
11.660909 19.826948 2.565298
11.975650 19.826948 2.696016
12.290391 19.826948 2.832356
12.605132 19.826948 2.958392
12.919873 19.826948 3.076324
13.234614 19.826948 3.222446
13.549356 19.826948 3.314639
13.864097 19.826948 3.329176
14.178838 19.826948 3.261068
14.493579 19.826948 3.078408
14.808320 19.826948 2.830486
15.123059 19.826948 2.635797
15.437800 19.826948 2.749561
15.752542 19.826948 3.062866
16.067284 19.826948 0.000000
16.382023 19.826948 0.000000
16.696766 19.826948 0.000000
17.011505 19.826948 0.000000
17.326248 19.826948 0.000000
17.640987 19.826948 0.000000
17.955730 19.826948 0.000000
18.270470 19.826948 0.000000
18.585213 19.826948 0.000000
18.899952 19.826948 0.000000
-7.223550 19.512207 0.000000
-6.908809 19.512207 0.038169
-6.594068 19.512207 0.036269
-6.279327 19.512207 0.036061
-5.964586 19.512207 0.035845
-5.649845 19.512207 0.035733
-5.335104 19.512207 0.035723
-5.020363 19.512207 0.035621
-4.705622 19.512207 0.035633
-4.390881 19.512207 0.035810
-4.076140 19.512207 0.036004
-3.761399 19.512207 0.036296
-3.446658 19.512207 0.036573
-3.131917 19.512207 0.036368
-2.817176 19.512207 0.035883
-2.502435 19.512207 0.035636
-2.187694 19.512207 0.035596
-1.872953 19.512207 0.035613
-1.558212 19.512207 0.035430
-1.243471 19.512207 0.035057
-0.928730 19.512207 0.034650
-0.613989 19.512207 0.034363
-0.299248 19.512207 0.034515
0.015493 19.512207 0.034866
0.330234 19.512207 0.035332
0.644975 19.512207 0.036023
0.959716 19.512207 0.036674
1.274457 19.512207 0.037146
1.589198 19.512207 0.037484
1.903938 19.512207 0.037859
2.218679 19.512207 0.038109
2.533421 19.512207 0.037876
2.848162 19.512207 0.037615
3.162903 19.512207 0.037597
3.477644 19.512207 0.037538
3.792385 19.512207 0.037920
4.107125 19.512207 0.039142
4.421866 19.512207 0.040763
4.736608 19.512207 0.042396
5.051349 19.512207 0.044588
5.366090 19.512207 0.047491
5.680831 19.512207 0.051091
5.995571 19.512207 0.055381
6.310312 19.512207 0.060673
6.625053 19.512207 0.067470
6.939795 19.512207 0.075214
7.254536 19.512207 0.084122
7.569277 19.512207 0.099537
7.884017 19.512207 0.128065
8.198758 19.512207 0.185588
8.513499 19.512207 0.292695
8.828240 19.512207 0.458968
9.142982 19.512207 0.656165
9.457723 19.512207 0.893622
9.772464 19.512207 1.166906
10.087205 19.512207 1.444120
10.401946 19.512207 1.712789
10.716687 19.512207 1.939174
11.031426 19.512207 2.173660
11.346168 19.512207 2.401073
11.660909 19.512207 2.576418
11.975650 19.512207 2.699605
12.290391 19.512207 2.825326
12.605132 19.512207 2.981072
12.919873 19.512207 3.125953
13.234614 19.512207 3.213702
13.549356 19.512207 3.320534
13.864097 19.512207 3.304051
14.178838 19.512207 3.299233
14.493579 19.512207 3.117577
14.808320 19.512207 2.836638
15.123059 19.512207 2.637675
15.437800 19.512207 2.781741
15.752542 19.512207 3.074902
16.067284 19.512207 0.000000
16.382023 19.512207 0.000000
16.696766 19.512207 0.000000
17.011505 19.512207 0.000000
17.326248 19.512207 0.000000
17.640987 19.512207 0.000000
17.955730 19.512207 0.000000
18.270470 19.512207 0.000000
18.585213 19.512207 0.000000
18.899952 19.512207 0.000000
-7.223550 19.197468 0.000000
-6.908809 19.197468 0.038112
-6.594068 19.197468 0.036258
-6.279327 19.197468 0.036060
-5.964586 19.197468 0.035896
-5.649845 19.197468 0.035820
-5.335104 19.197468 0.035987
-5.020363 19.197468 0.036050
-4.705622 19.197468 0.036140
-4.390881 19.197468 0.036288
-4.076140 19.197468 0.036304
-3.761399 19.197468 0.036382
-3.446658 19.197468 0.036501
-3.131917 19.197468 0.036094
-2.817176 19.197468 0.035485
-2.502435 19.197468 0.035114
-2.187694 19.197468 0.034866
-1.872953 19.197468 0.034788
-1.558212 19.197468 0.034799
-1.243471 19.197468 0.034746
-0.928730 19.197468 0.034717
-0.613989 19.197468 0.034734
-0.299248 19.197468 0.035087
0.015493 19.197468 0.035669
0.330234 19.197468 0.036272
0.644975 19.197468 0.036848
0.959716 19.197468 0.037158
1.274457 19.197468 0.037252
1.589198 19.197468 0.037212
1.903938 19.197468 0.037219
2.218679 19.197468 0.037125
2.533421 19.197468 0.036684
2.848162 19.197468 0.036458
3.162903 19.197468 0.036712
3.477644 19.197468 0.037155
3.792385 19.197468 0.038064
4.107125 19.197468 0.039724
4.421866 19.197468 0.041708
4.736608 19.197468 0.043581
5.051349 19.197468 0.045939
5.366090 19.197468 0.048490
5.680831 19.197468 0.051353
5.995571 19.197468 0.055159
6.310312 19.197468 0.059835
6.625053 19.197468 0.066100
6.939795 19.197468 0.073495
7.254536 19.197468 0.082843
7.569277 19.197468 0.099120
7.884017 19.197468 0.130474
8.198758 19.197468 0.189640
8.513499 19.197468 0.297058
8.828240 19.197468 0.461408
9.142982 19.197468 0.660837
9.457723 19.197468 0.891996
9.772464 19.197468 1.169711
10.087205 19.197468 1.449952
10.401946 19.197468 1.718582
10.716687 19.197468 1.929720
11.031426 19.197468 2.180064
11.346168 19.197468 2.388244
11.660909 19.197468 2.570303
11.975650 19.197468 2.711082
12.290391 19.197468 2.840079
12.605132 19.197468 2.969631
12.919873 19.197468 3.130472
13.234614 19.197468 3.237938
13.549356 19.197468 3.337376
13.864097 19.197468 3.314054
14.178838 19.197468 3.253402
14.493579 19.197468 3.098427
14.808320 19.197468 2.831411
15.123059 19.197468 2.669199
15.437800 19.197468 2.785954
15.752542 19.197468 3.071396
16.067284 19.197468 0.000000
16.382023 19.197468 0.000000
16.696766 19.197468 0.000000
17.011505 19.197468 0.000000
17.326248 19.197468 0.000000
17.640987 19.197468 0.000000
17.955730 19.197468 0.000000
18.270470 19.197468 0.000000
18.585213 19.197468 0.000000
18.899952 19.197468 0.000000
-7.223550 18.882727 0.000000
-6.908809 18.882727 0.038272
-6.594068 18.882727 0.036404
-6.279327 18.882727 0.036272
-5.964586 18.882727 0.036175
-5.649845 18.882727 0.036107
-5.335104 18.882727 0.036322
-5.020363 18.882727 0.036405
-4.705622 18.882727 0.036425
-4.390881 18.882727 0.036407
-4.076140 18.882727 0.036180
-3.761399 18.882727 0.035967
-3.446658 18.882727 0.035853
-3.131917 18.882727 0.035395
-2.817176 18.882727 0.034908
-2.502435 18.882727 0.034612
-2.187694 18.882727 0.034411
-1.872953 18.882727 0.034462
-1.558212 18.882727 0.034778
-1.243471 18.882727 0.035127
-0.928730 18.882727 0.035432
-0.613989 18.882727 0.035624
-0.299248 18.882727 0.035964
0.015493 18.882727 0.036398
0.330234 18.882727 0.036707
0.644975 18.882727 0.036880
0.959716 18.882727 0.036798
1.274457 18.882727 0.036569
1.589198 18.882727 0.036286
1.903938 18.882727 0.036124
2.218679 18.882727 0.036049
2.533421 18.882727 0.035886
2.848162 18.882727 0.036054
3.162903 18.882727 0.036782
3.477644 18.882727 0.037717
3.792385 18.882727 0.038969
4.107125 18.882727 0.040682
4.421866 18.882727 0.042546
4.736608 18.882727 0.044322
5.051349 18.882727 0.046430
5.366090 18.882727 0.048555
5.680831 18.882727 0.050739
5.995571 18.882727 0.054016
6.310312 18.882727 0.058602
6.625053 18.882727 0.064843
6.939795 18.882727 0.073137
7.254536 18.882727 0.083392
7.569277 18.882727 0.100309
7.884017 18.882727 0.132002
8.198758 18.882727 0.190948
8.513499 18.882727 0.302911
8.828240 18.882727 0.467455
9.142982 18.882727 0.668245
9.457723 18.882727 0.904563
9.772464 18.882727 1.181102
10.087205 18.882727 1.452928
10.401946 18.882727 1.715970
10.716687 18.882727 1.950737
11.031426 18.882727 2.188658
11.346168 18.882727 2.396991
11.660909 18.882727 2.569091
11.975650 18.882727 2.723887
12.290391 18.882727 2.848094
12.605132 18.882727 2.984322
12.919873 18.882727 3.152057
13.234614 18.882727 3.269553
13.549356 18.882727 3.339191
13.864097 18.882727 3.347196
14.178838 18.882727 3.263650
14.493579 18.882727 3.122494
14.808320 18.882727 2.864785
15.123059 18.882727 2.645039
15.437800 18.882727 2.800647
15.752542 18.882727 3.044453
16.067284 18.882727 0.000000
16.382023 18.882727 0.000000
16.696766 18.882727 0.000000
17.011505 18.882727 0.000000
17.326248 18.882727 0.000000
17.640987 18.882727 0.000000
17.955730 18.882727 0.000000
18.270470 18.882727 0.000000
18.585213 18.882727 0.000000
18.899952 18.882727 0.000000
-7.223550 18.567986 0.000000
-6.908809 18.567986 0.038576
-6.594068 18.567986 0.036687
-6.279327 18.567986 0.036585
-5.964586 18.567986 0.036487
-5.649845 18.567986 0.036367
-5.335104 18.567986 0.036470
-5.020363 18.567986 0.036430
-4.705622 18.567986 0.036245
-4.390881 18.567986 0.036040
-4.076140 18.567986 0.035654
-3.761399 18.567986 0.035293
-3.446658 18.567986 0.035042
-3.131917 18.567986 0.034707
-2.817176 18.567986 0.034601
-2.502435 18.567986 0.034626
-2.187694 18.567986 0.034590
-1.872953 18.567986 0.034815
-1.558212 18.567986 0.035328
-1.243471 18.567986 0.035887
-0.928730 18.567986 0.036304
-0.613989 18.567986 0.036388
-0.299248 18.567986 0.036423
0.015493 18.567986 0.036454
0.330234 18.567986 0.036288
0.644975 18.567986 0.036083
0.959716 18.567986 0.035798
1.274457 18.567986 0.035546
1.589198 18.567986 0.035385
1.903938 18.567986 0.035420
2.218679 18.567986 0.035666
2.533421 18.567986 0.035976
2.848162 18.567986 0.036601
3.162903 18.567986 0.037612
3.477644 18.567986 0.038714
3.792385 18.567986 0.039879
4.107125 18.567986 0.041177
4.421866 18.567986 0.042615
4.736608 18.567986 0.044002
5.051349 18.567986 0.045567
5.366090 18.567986 0.047425
5.680831 18.567986 0.049810
5.995571 18.567986 0.053051
6.310312 18.567986 0.057975
6.625053 18.567986 0.064969
6.939795 18.567986 0.073436
7.254536 18.567986 0.085039
7.569277 18.567986 0.103135
7.884017 18.567986 0.134024
8.198758 18.567986 0.192208
8.513499 18.567986 0.301357
8.828240 18.567986 0.472051
9.142982 18.567986 0.678707
9.457723 18.567986 0.915787
9.772464 18.567986 1.183692
10.087205 18.567986 1.460427
10.401946 18.567986 1.720665
10.716687 18.567986 1.958791
11.031426 18.567986 2.194970
11.346168 18.567986 2.430588
11.660909 18.567986 2.581423
11.975650 18.567986 2.722900
12.290391 18.567986 2.875412
12.605132 18.567986 2.984643
12.919873 18.567986 3.148277
13.234614 18.567986 3.288772
13.549356 18.567986 3.353896
13.864097 18.567986 3.373807
14.178838 18.567986 3.266769
14.493579 18.567986 3.117293
14.808320 18.567986 2.852621
15.123059 18.567986 2.684783
15.437800 18.567986 2.806937
15.752542 18.567986 3.048203
16.067284 18.567986 0.000000
16.382023 18.567986 0.000000
16.696766 18.567986 0.000000
17.011505 18.567986 0.000000
17.326248 18.567986 0.000000
17.640987 18.567986 0.000000
17.955730 18.567986 0.000000
18.270470 18.567986 0.000000
18.585213 18.567986 0.000000
18.899952 18.567986 0.000000
-7.223550 18.253244 0.000000
-6.908809 18.253244 0.038849
-6.594068 18.253244 0.036914
-6.279327 18.253244 0.036731
-5.964586 18.253244 0.036543
-5.649845 18.253244 0.036255
-5.335104 18.253244 0.036135
-5.020363 18.253244 0.035974
-4.705622 18.253244 0.035715
-4.390881 18.253244 0.035422
-4.076140 18.253244 0.035057
-3.761399 18.253244 0.034838
-3.446658 18.253244 0.034655
-3.131917 18.253244 0.034568
-2.817176 18.253244 0.034834
-2.502435 18.253244 0.035119
-2.187694 18.253244 0.035237
-1.872953 18.253244 0.035497
-1.558212 18.253244 0.035920
-1.243471 18.253244 0.036371
-0.928730 18.253244 0.036596
-0.613989 18.253244 0.036391
-0.299248 18.253244 0.036120
0.015493 18.253244 0.035798
0.330234 18.253244 0.035330
0.644975 18.253244 0.035044
0.959716 18.253244 0.034897
1.274457 18.253244 0.034961
1.589198 18.253244 0.035150
1.903938 18.253244 0.035566
2.218679 18.253244 0.036167
2.533421 18.253244 0.036807
2.848162 18.253244 0.037593
3.162903 18.253244 0.038549
3.477644 18.253244 0.039388
3.792385 18.253244 0.040074
4.107125 18.253244 0.040820
4.421866 18.253244 0.041743
4.736608 18.253244 0.042939
5.051349 18.253244 0.044493
5.366090 18.253244 0.046548
5.680831 18.253244 0.049305
5.995571 18.253244 0.053060
6.310312 18.253244 0.058169
6.625053 18.253244 0.065715
6.939795 18.253244 0.074817
7.254536 18.253244 0.086472
7.569277 18.253244 0.104245
7.884017 18.253244 0.133680
8.198758 18.253244 0.192044
8.513499 18.253244 0.302620
8.828240 18.253244 0.479418
9.142982 18.253244 0.692318
9.457723 18.253244 0.930075
9.772464 18.253244 1.187355
10.087205 18.253244 1.456264
10.401946 18.253244 1.729952
10.716687 18.253244 1.966298
11.031426 18.253244 2.217674
11.346168 18.253244 2.428713
11.660909 18.253244 2.602288
11.975650 18.253244 2.756611
12.290391 18.253244 2.887170
12.605132 18.253244 2.993229
12.919873 18.253244 3.156404
13.234614 18.253244 3.282703
13.549356 18.253244 3.359289
13.864097 18.253244 3.391928
14.178838 18.253244 3.268156
14.493579 18.253244 3.081100
14.808320 18.253244 2.865734
15.123059 18.253244 2.723726
15.437800 18.253244 2.878915
15.752542 18.253244 3.032680
16.067284 18.253244 0.000000
16.382023 18.253244 0.000000
16.696766 18.253244 0.000000
17.011505 18.253244 0.000000
17.326248 18.253244 0.000000
17.640987 18.253244 0.000000
17.955730 18.253244 0.000000
18.270470 18.253244 0.000000
18.585213 18.253244 0.000000
18.899952 18.253244 0.000000
-7.223550 17.938503 0.000000
-6.908809 17.938503 0.038772
-6.594068 17.938503 0.036723
-6.279327 17.938503 0.036399
-5.964586 17.938503 0.036113
-5.649845 17.938503 0.035727
-5.335104 17.938503 0.035563
-5.020363 17.938503 0.035433
-4.705622 17.938503 0.035266
-4.390881 17.938503 0.035060
-4.076140 17.938503 0.034876
-3.761399 17.938503 0.034915
-3.446658 17.938503 0.034957
-3.131917 17.938503 0.035079
-2.817176 17.938503 0.035450
-2.502435 17.938503 0.035771
-2.187694 17.938503 0.035859
-1.872953 17.938503 0.035966
-1.558212 17.938503 0.036076
-1.243471 17.938503 0.036159
-0.928730 17.938503 0.036046
-0.613989 17.938503 0.035648
-0.299248 17.938503 0.035283
0.015493 17.938503 0.034968
0.330234 17.938503 0.034626
0.644975 17.938503 0.034552
0.959716 17.938503 0.034717
1.274457 17.938503 0.035186
1.589198 17.938503 0.035747
1.903938 17.938503 0.036362
2.218679 17.938503 0.037010
2.533421 17.938503 0.037607
2.848162 17.938503 0.038251
3.162903 17.938503 0.038839
3.477644 17.938503 0.039254
3.792385 17.938503 0.039500
4.107125 17.938503 0.039899
4.421866 17.938503 0.040776
4.736608 17.938503 0.042040
5.051349 17.938503 0.043863
5.366090 17.938503 0.046258
5.680831 17.938503 0.049654
5.995571 17.938503 0.053801
6.310312 17.938503 0.059299
6.625053 17.938503 0.066717
6.939795 17.938503 0.075824
7.254536 17.938503 0.087344
7.569277 17.938503 0.106008
7.884017 17.938503 0.135549
8.198758 17.938503 0.196711
8.513499 17.938503 0.311313
8.828240 17.938503 0.491414
9.142982 17.938503 0.710203
9.457723 17.938503 0.949711
9.772464 17.938503 1.202853
10.087205 17.938503 1.464216
10.401946 17.938503 1.716467
10.716687 17.938503 1.966502
11.031426 17.938503 2.213197
11.346168 17.938503 2.424589
11.660909 17.938503 2.599395
11.975650 17.938503 2.765999
12.290391 17.938503 2.877379
12.605132 17.938503 3.008828
12.919873 17.938503 3.147830
13.234614 17.938503 3.267557
13.549356 17.938503 3.367256
13.864097 17.938503 3.394656
14.178838 17.938503 3.294466
14.493579 17.938503 3.079380
14.808320 17.938503 2.860027
15.123059 17.938503 2.683120
15.437800 17.938503 2.822983
15.752542 17.938503 3.035168
16.067284 17.938503 0.000000
16.382023 17.938503 0.000000
16.696766 17.938503 0.000000
17.011505 17.938503 0.000000
17.326248 17.938503 0.000000
17.640987 17.938503 0.000000
17.955730 17.938503 0.000000
18.270470 17.938503 0.000000
18.585213 17.938503 0.000000
18.899952 17.938503 0.000000
-7.223550 17.623762 0.000000
-6.908809 17.623762 0.038338
-6.594068 17.623762 0.036161
-6.279327 17.623762 0.035768
-5.964586 17.623762 0.035518
-5.649845 17.623762 0.035235
-5.335104 17.623762 0.035183
-5.020363 17.623762 0.035255
-4.705622 17.623762 0.035236
-4.390881 17.623762 0.035228
-4.076140 17.623762 0.035245
-3.761399 17.623762 0.035483
-3.446658 17.623762 0.035681
-3.131917 17.623762 0.035797
-2.817176 17.623762 0.035957
-2.502435 17.623762 0.036032
-2.187694 17.623762 0.035909
-1.872953 17.623762 0.035774
-1.558212 17.623762 0.035583
-1.243471 17.623762 0.035366
-0.928730 17.623762 0.035077
-0.613989 17.623762 0.034731
-0.299248 17.623762 0.034607
0.015493 17.623762 0.034636
0.330234 17.623762 0.034672
0.644975 17.623762 0.034893
0.959716 17.623762 0.035292
1.274457 17.623762 0.035930
1.589198 17.623762 0.036567
1.903938 17.623762 0.037062
2.218679 17.623762 0.037448
2.533421 17.623762 0.037718
2.848162 17.623762 0.038021
3.162903 17.623762 0.038343
3.477644 17.623762 0.038554
3.792385 17.623762 0.038740
4.107125 17.623762 0.039220
4.421866 17.623762 0.040290
4.736608 17.623762 0.041920
5.051349 17.623762 0.044022
5.366090 17.623762 0.046903
5.680831 17.623762 0.050575
5.995571 17.623762 0.054887
6.310312 17.623762 0.060407
6.625053 17.623762 0.067715
6.939795 17.623762 0.076079
7.254536 17.623762 0.086684
7.569277 17.623762 0.106065
7.884017 17.623762 0.137206
8.198758 17.623762 0.203065
8.513499 17.623762 0.317119
8.828240 17.623762 0.493493
9.142982 17.623762 0.704442
9.457723 17.623762 0.949077
9.772464 17.623762 1.215636
10.087205 17.623762 1.487426
10.401946 17.623762 1.729128
10.716687 17.623762 1.971283
11.031426 17.623762 2.204550
11.346168 17.623762 2.430243
11.660909 17.623762 2.604862
11.975650 17.623762 2.754604
12.290391 17.623762 2.879419
12.605132 17.623762 3.004561
12.919873 17.623762 3.158706
13.234614 17.623762 3.275830
13.549356 17.623762 3.398525
13.864097 17.623762 3.406911
14.178838 17.623762 3.286235
14.493579 17.623762 3.077052
14.808320 17.623762 2.831511
15.123059 17.623762 2.690723
15.437800 17.623762 2.815286
15.752542 17.623762 3.085252
16.067284 17.623762 0.000000
16.382023 17.623762 0.000000
16.696766 17.623762 0.000000
17.011505 17.623762 0.000000
17.326248 17.623762 0.000000
17.640987 17.623762 0.000000
17.955730 17.623762 0.000000
18.270470 17.623762 0.000000
18.585213 17.623762 0.000000
18.899952 17.623762 0.000000
-7.223550 17.309021 0.000000
-6.908809 17.309021 0.037781
-6.594068 17.309021 0.035598
-6.279327 17.309021 0.035291
-5.964586 17.309021 0.035225
-5.649845 17.309021 0.035159
-5.335104 17.309021 0.035321
-5.020363 17.309021 0.035546
-4.705622 17.309021 0.035672
-4.390881 17.309021 0.035736
-4.076140 17.309021 0.035791
-3.761399 17.309021 0.035996
-3.446658 17.309021 0.036136
-3.131917 17.309021 0.036074
-2.817176 17.309021 0.035910
-2.502435 17.309021 0.035680
-2.187694 17.309021 0.035359
-1.872953 17.309021 0.035156
-1.558212 17.309021 0.034941
-1.243471 17.309021 0.034680
-0.928730 17.309021 0.034516
-0.613989 17.309021 0.034460
-0.299248 17.309021 0.034673
0.015493 17.309021 0.035051
0.330234 17.309021 0.035369
0.644975 17.309021 0.035649
0.959716 17.309021 0.036054
1.274457 17.309021 0.036561
1.589198 17.309021 0.036923
1.903938 17.309021 0.037035
2.218679 17.309021 0.037052
2.533421 17.309021 0.037079
2.848162 17.309021 0.037248
3.162903 17.309021 0.037562
3.477644 17.309021 0.037951
3.792385 17.309021 0.038412
4.107125 17.309021 0.039223
4.421866 17.309021 0.040674
4.736608 17.309021 0.042657
5.051349 17.309021 0.045034
5.366090 17.309021 0.047763
5.680831 17.309021 0.051304
5.995571 17.309021 0.055772
6.310312 17.309021 0.060753
6.625053 17.309021 0.067755
6.939795 17.309021 0.075367
7.254536 17.309021 0.086591
7.569277 17.309021 0.105185
7.884017 17.309021 0.138514
8.198758 17.309021 0.206710
8.513499 17.309021 0.318881
8.828240 17.309021 0.490976
9.142982 17.309021 0.708179
9.457723 17.309021 0.956824
9.772464 17.309021 1.227040
10.087205 17.309021 1.482123
10.401946 17.309021 1.742062
10.716687 17.309021 1.983020
11.031426 17.309021 2.208614
11.346168 17.309021 2.424872
11.660909 17.309021 2.602850
11.975650 17.309021 2.758794
12.290391 17.309021 2.884096
12.605132 17.309021 3.006346
12.919873 17.309021 3.171556
13.234614 17.309021 3.294717
13.549356 17.309021 3.384025
13.864097 17.309021 3.423953
14.178838 17.309021 3.303122
14.493579 17.309021 3.110311
14.808320 17.309021 2.832215
15.123059 17.309021 2.684064
15.437800 17.309021 2.827232
15.752542 17.309021 2.980834
16.067284 17.309021 0.000000
16.382023 17.309021 0.000000
16.696766 17.309021 0.000000
17.011505 17.309021 0.000000
17.326248 17.309021 0.000000
17.640987 17.309021 0.000000
17.955730 17.309021 0.000000
18.270470 17.309021 0.000000
18.585213 17.309021 0.000000
18.899952 17.309021 0.000000
-7.223550 16.994282 0.000000
-6.908809 16.994282 0.037525
-6.594068 16.994282 0.035468
-6.279327 16.994282 0.035328
-5.964586 16.994282 0.035448
-5.649845 16.994282 0.035593
-5.335104 16.994282 0.035836
-5.020363 16.994282 0.036036
-4.705622 16.994282 0.036094
-4.390881 16.994282 0.036098
-4.076140 16.994282 0.035999
-3.761399 16.994282 0.035959
-3.446658 16.994282 0.035893
-3.131917 16.994282 0.035608
-2.817176 16.994282 0.035272
-2.502435 16.994282 0.034970
-2.187694 16.994282 0.034734
-1.872953 16.994282 0.034736
-1.558212 16.994282 0.034717
-1.243471 16.994282 0.034651
-0.928730 16.994282 0.034728
-0.613989 16.994282 0.034983
-0.299248 16.994282 0.035418
0.015493 16.994282 0.035834
0.330234 16.994282 0.036047
0.644975 16.994282 0.036113
0.959716 16.994282 0.036286
1.274457 16.994282 0.036500
1.589198 16.994282 0.036513
1.903938 16.994282 0.036334
2.218679 16.994282 0.036208
2.533421 16.994282 0.036289
2.848162 16.994282 0.036607
3.162903 16.994282 0.037176
3.477644 16.994282 0.037953
3.792385 16.994282 0.038822
4.107125 16.994282 0.039961
4.421866 16.994282 0.041556
4.736608 16.994282 0.043430
5.051349 16.994282 0.045647
5.366090 16.994282 0.048026
5.680831 16.994282 0.051414
5.995571 16.994282 0.055605
6.310312 16.994282 0.060667
6.625053 16.994282 0.067115
6.939795 16.994282 0.074856
7.254536 16.994282 0.087204
7.569277 16.994282 0.105101
7.884017 16.994282 0.141731
8.198758 16.994282 0.206601
8.513499 16.994282 0.327786
8.828240 16.994282 0.489342
9.142982 16.994282 0.711883
9.457723 16.994282 0.967110
9.772464 16.994282 1.222201
10.087205 16.994282 1.476761
10.401946 16.994282 1.746682
10.716687 16.994282 1.983123
11.031426 16.994282 2.208561
11.346168 16.994282 2.416093
11.660909 16.994282 2.601575
11.975650 16.994282 2.762585
12.290391 16.994282 2.871602
12.605132 16.994282 3.002031
12.919873 16.994282 3.175822
13.234614 16.994282 3.281902
13.549356 16.994282 3.406378
13.864097 16.994282 3.456800
14.178838 16.994282 3.331886
14.493579 16.994282 3.140457
14.808320 16.994282 2.882710
15.123059 16.994282 2.722120
15.437800 16.994282 2.889685
15.752542 16.994282 3.062912
16.067284 16.994282 0.000000
16.382023 16.994282 0.000000
16.696766 16.994282 0.000000
17.011505 16.994282 0.000000
17.326248 16.994282 0.000000
17.640987 16.994282 0.000000
17.955730 16.994282 0.000000
18.270470 16.994282 0.000000
18.585213 16.994282 0.000000
18.899952 16.994282 0.000000
-7.223550 16.679539 0.000000
-6.908809 16.679539 0.037762
-6.594068 16.679539 0.035884
-6.279327 16.679539 0.035829
-5.964586 16.679539 0.035995
-5.649845 16.679539 0.036181
-5.335104 16.679539 0.036275
-5.020363 16.679539 0.036203
-4.705622 16.679539 0.036049
-4.390881 16.679539 0.035912
-4.076140 16.679539 0.035575
-3.761399 16.679539 0.035317
-3.446658 16.679539 0.035196
-3.131917 16.679539 0.034930
-2.817176 16.679539 0.034704
-2.502435 16.679539 0.034623
-2.187694 16.679539 0.034674
-1.872953 16.679539 0.034920
-1.558212 16.679539 0.035101
-1.243471 16.679539 0.035167
-0.928730 16.679539 0.035385
-0.613989 16.679539 0.035748
-0.299248 16.679539 0.036084
0.015493 16.679539 0.036246
0.330234 16.679539 0.036103
0.644975 16.679539 0.035831
0.959716 16.679539 0.035784
1.274457 16.679539 0.035836
1.589198 16.679539 0.035775
1.903938 16.679539 0.035614
2.218679 16.679539 0.035613
2.533421 16.679539 0.035984
2.848162 16.679539 0.036592
3.162903 16.679539 0.037446
3.477644 16.679539 0.038503
3.792385 16.679539 0.039563
4.107125 16.679539 0.040681
4.421866 16.679539 0.042100
4.736608 16.679539 0.043826
5.051349 16.679539 0.045624
5.366090 16.679539 0.047732
5.680831 16.679539 0.050871
5.995571 16.679539 0.054915
6.310312 16.679539 0.060243
6.625053 16.679539 0.066726
6.939795 16.679539 0.074977
7.254536 16.679539 0.086608
7.569277 16.679539 0.106625
7.884017 16.679539 0.139161
8.198758 16.679539 0.207106
8.513499 16.679539 0.329050
8.828240 16.679539 0.496710
9.142982 16.679539 0.716872
9.457723 16.679539 0.975538
9.772464 16.679539 1.232523
10.087205 16.679539 1.492498
10.401946 16.679539 1.748596
10.716687 16.679539 1.989298
11.031426 16.679539 2.197242
11.346168 16.679539 2.434206
11.660909 16.679539 2.586106
11.975650 16.679539 2.743006
12.290391 16.679539 2.860067
12.605132 16.679539 3.005548
12.919873 16.679539 3.159533
13.234614 16.679539 3.280454
13.549356 16.679539 3.393350
13.864097 16.679539 3.450549
14.178838 16.679539 3.350999
14.493579 16.679539 3.135138
14.808320 16.679539 2.867196
15.123059 16.679539 2.731879
15.437800 16.679539 2.910254
15.752542 16.679539 3.245588
16.067284 16.679539 0.000000
16.382023 16.679539 0.000000
16.696766 16.679539 0.000000
17.011505 16.679539 0.000000
17.326248 16.679539 0.000000
17.640987 16.679539 0.000000
17.955730 16.679539 0.000000
18.270470 16.679539 0.000000
18.585213 16.679539 0.000000
18.899952 16.679539 0.000000
-7.223550 16.364799 0.000000
-6.908809 16.364799 0.038274
-6.594068 16.364799 0.036420
-6.279327 16.364799 0.036270
-5.964586 16.364799 0.036315
-5.649845 16.364799 0.036390
-5.335104 16.364799 0.036223
-5.020363 16.364799 0.035818
-4.705622 16.364799 0.035455
-4.390881 16.364799 0.035277
-4.076140 16.364799 0.034917
-3.761399 16.364799 0.034644
-3.446658 16.364799 0.034647
-3.131917 16.364799 0.034607
-2.817176 16.364799 0.034669
-2.502435 16.364799 0.034905
-2.187694 16.364799 0.035259
-1.872953 16.364799 0.035649
-1.558212 16.364799 0.035793
-1.243471 16.364799 0.035767
-0.928730 16.364799 0.035862
-0.613989 16.364799 0.035985
-0.299248 16.364799 0.036048
0.015493 16.364799 0.035932
0.330234 16.364799 0.035522
0.644975 16.364799 0.035081
0.959716 16.364799 0.035034
1.274457 16.364799 0.035230
1.589198 16.364799 0.035362
1.903938 16.364799 0.035475
2.218679 16.364799 0.035713
2.533421 16.364799 0.036347
2.848162 16.364799 0.037161
3.162903 16.364799 0.038056
3.477644 16.364799 0.039058
3.792385 16.364799 0.039950
4.107125 16.364799 0.040826
4.421866 16.364799 0.041964
4.736608 16.364799 0.043383
5.051349 16.364799 0.045122
5.366090 16.364799 0.047113
5.680831 16.364799 0.050089
5.995571 16.364799 0.054282
6.310312 16.364799 0.060111
6.625053 16.364799 0.066802
6.939795 16.364799 0.075651
7.254536 16.364799 0.087716
7.569277 16.364799 0.107343
7.884017 16.364799 0.142396
8.198758 16.364799 0.209758
8.513499 16.364799 0.335017
8.828240 16.364799 0.504272
9.142982 16.364799 0.726802
9.457723 16.364799 0.965460
9.772464 16.364799 1.233597
10.087205 16.364799 1.506372
10.401946 16.364799 1.761353
10.716687 16.364799 2.000767
11.031426 16.364799 2.207694
11.346168 16.364799 2.424310
11.660909 16.364799 2.603877
11.975650 16.364799 2.734316
12.290391 16.364799 2.885492
12.605132 16.364799 3.022793
12.919873 16.364799 3.156635
13.234614 16.364799 3.268186
13.549356 16.364799 3.364653
13.864097 16.364799 3.402214
14.178838 16.364799 3.360382
14.493579 16.364799 3.158390
14.808320 16.364799 2.909392
15.123059 16.364799 2.749280
15.437800 16.364799 2.916229
15.752542 16.364799 3.132557
16.067284 16.364799 0.000000
16.382023 16.364799 0.000000
16.696766 16.364799 0.000000
17.011505 16.364799 0.000000
17.326248 16.364799 0.000000
17.640987 16.364799 0.000000
17.955730 16.364799 0.000000
18.270470 16.364799 0.000000
18.585213 16.364799 0.000000
18.899952 16.364799 0.000000
-7.223550 16.050056 0.000000
-6.908809 16.050056 0.038578
-6.594068 16.050056 0.036594
-6.279327 16.050056 0.036170
-5.964586 16.050056 0.036029
-5.649845 16.050056 0.035992
-5.335104 16.050056 0.035664
-5.020363 16.050056 0.035138
-4.705622 16.050056 0.034806
-4.390881 16.050056 0.034769
-4.076140 16.050056 0.034576
-3.761399 16.050056 0.034499
-3.446658 16.050056 0.034699
-3.131917 16.050056 0.034912
-2.817176 16.050056 0.035210
-2.502435 16.050056 0.035628
-2.187694 16.050056 0.035994
-1.872953 16.050056 0.036242
-1.558212 16.050056 0.036093
-1.243471 16.050056 0.035774
-0.928730 16.050056 0.035604
-0.613989 16.050056 0.035499
-0.299248 16.050056 0.035386
0.015493 16.050056 0.035211
0.330234 16.050056 0.034853
0.644975 16.050056 0.034567
0.959716 16.050056 0.034691
1.274457 16.050056 0.035137
1.589198 16.050056 0.035567
1.903938 16.050056 0.035956
2.218679 16.050056 0.036328
2.533421 16.050056 0.036980
2.848162 16.050056 0.037710
3.162903 16.050056 0.038343
3.477644 16.050056 0.039034
3.792385 16.050056 0.039682
4.107125 16.050056 0.040429
4.421866 16.050056 0.041390
4.736608 16.050056 0.042788
5.051349 16.050056 0.044561
5.366090 16.050056 0.046679
5.680831 16.050056 0.049886
5.995571 16.050056 0.054457
6.310312 16.050056 0.060086
6.625053 16.050056 0.066942
6.939795 16.050056 0.076436
7.254536 16.050056 0.088464
7.569277 16.050056 0.109283
7.884017 16.050056 0.144922
8.198758 16.050056 0.218193
8.513499 16.050056 0.336916
8.828240 16.050056 0.514529
9.142982 16.050056 0.734805
9.457723 16.050056 0.976475
9.772464 16.050056 1.243341
10.087205 16.050056 1.507131
10.401946 16.050056 1.763860
10.716687 16.050056 1.995783
11.031426 16.050056 2.231335
11.346168 16.050056 2.431235
11.660909 16.050056 2.603878
11.975650 16.050056 2.767525
12.290391 16.050056 2.898769
12.605132 16.050056 3.024049
12.919873 16.050056 3.142353
13.234614 16.050056 3.284143
13.549356 16.050056 3.381914
13.864097 16.050056 3.414120
14.178838 16.050056 3.327499
14.493579 16.050056 3.162857
14.808320 16.050056 2.933045
15.123059 16.050056 2.810423
15.437800 16.050056 2.945486
15.752542 16.050056 3.192421
16.067284 16.050056 0.000000
16.382023 16.050056 0.000000
16.696766 16.050056 0.000000
17.011505 16.050056 0.000000
17.326248 16.050056 0.000000
17.640987 16.050056 0.000000
17.955730 16.050056 0.000000
18.270470 16.050056 0.000000
18.585213 16.050056 0.000000
18.899952 16.050056 0.000000
-7.223550 15.735317 0.000000
-6.908809 15.735317 0.038300
-6.594068 15.735317 0.036162
-6.279327 15.735317 0.035596
-5.964586 15.735317 0.035417
-5.649845 15.735317 0.035370
-5.335104 15.735317 0.035112
-5.020363 15.735317 0.034729
-4.705622 15.735317 0.034635
-4.390881 15.735317 0.034839
-4.076140 15.735317 0.034863
-3.761399 15.735317 0.034938
-3.446658 15.735317 0.035191
-3.131917 15.735317 0.035437
-2.817176 15.735317 0.035763
-2.502435 15.735317 0.036077
-2.187694 15.735317 0.036197
-1.872953 15.735317 0.036133
-1.558212 15.735317 0.035676
-1.243471 15.735317 0.035164
-0.928730 15.735317 0.034858
-0.613989 15.735317 0.034728
-0.299248 15.735317 0.034699
0.015493 15.735317 0.034744
0.330234 15.735317 0.034719
0.644975 15.735317 0.034743
0.959716 15.735317 0.035028
1.274457 15.735317 0.035588
1.589198 15.735317 0.036101
1.903938 15.735317 0.036488
2.218679 15.735317 0.036789
2.533421 15.735317 0.037187
2.848162 15.735317 0.037671
3.162903 15.735317 0.038035
3.477644 15.735317 0.038407
3.792385 15.735317 0.038923
4.107125 15.735317 0.039792
4.421866 15.735317 0.040893
4.736608 15.735317 0.042514
5.051349 15.735317 0.044470
5.366090 15.735317 0.046896
5.680831 15.735317 0.050269
5.995571 15.735317 0.054830
6.310312 15.735317 0.060431
6.625053 15.735317 0.067421
6.939795 15.735317 0.076403
7.254536 15.735317 0.089061
7.569277 15.735317 0.111139
7.884017 15.735317 0.148737
8.198758 15.735317 0.217838
8.513499 15.735317 0.346732
8.828240 15.735317 0.528620
9.142982 15.735317 0.742992
9.457723 15.735317 0.980238
9.772464 15.735317 1.248656
10.087205 15.735317 1.510785
10.401946 15.735317 1.777921
10.716687 15.735317 2.005128
11.031426 15.735317 2.241524
11.346168 15.735317 2.434997
11.660909 15.735317 2.589133
11.975650 15.735317 2.745001
12.290391 15.735317 2.885031
12.605132 15.735317 3.019913
12.919873 15.735317 3.160498
13.234614 15.735317 3.307847
13.549356 15.735317 3.401931
13.864097 15.735317 3.396714
14.178838 15.735317 3.331831
14.493579 15.735317 3.172475
14.808320 15.735317 2.976541
15.123059 15.735317 2.832013
15.437800 15.735317 2.990646
15.752542 15.735317 3.278012
16.067284 15.735317 0.000000
16.382023 15.735317 0.000000
16.696766 15.735317 0.000000
17.011505 15.735317 0.000000
17.326248 15.735317 0.000000
17.640987 15.735317 0.000000
17.955730 15.735317 0.000000
18.270470 15.735317 0.000000
18.585213 15.735317 0.000000
18.899952 15.735317 0.000000
-7.223550 15.420574 0.000000
-6.908809 15.420574 0.037766
-6.594068 15.420574 0.035550
-6.279327 15.420574 0.035053
-5.964586 15.420574 0.034966
-5.649845 15.420574 0.035031
-5.335104 15.420574 0.034992
-5.020363 15.420574 0.034883
-4.705622 15.420574 0.035087
-4.390881 15.420574 0.035376
-4.076140 15.420574 0.035453
-3.761399 15.420574 0.035501
-3.446658 15.420574 0.035572
-3.131917 15.420574 0.035594
-2.817176 15.420574 0.035750
-2.502435 15.420574 0.035790
-2.187694 15.420574 0.035659
-1.872953 15.420574 0.035456
-1.558212 15.420574 0.034974
-1.243471 15.420574 0.034553
-0.928730 15.420574 0.034377
-0.613989 15.420574 0.034330
-0.299248 15.420574 0.034501
0.015493 15.420574 0.034846
0.330234 15.420574 0.035146
0.644975 15.420574 0.035386
0.959716 15.420574 0.035632
1.274457 15.420574 0.036049
1.589198 15.420574 0.036372
1.903938 15.420574 0.036552
2.218679 15.420574 0.036666
2.533421 15.420574 0.036808
2.848162 15.420574 0.037109
3.162903 15.420574 0.037423
3.477644 15.420574 0.037728
3.792385 15.420574 0.038361
4.107125 15.420574 0.039531
4.421866 15.420574 0.040948
4.736608 15.420574 0.042697
5.051349 15.420574 0.044896
5.366090 15.420574 0.047427
5.680831 15.420574 0.050725
5.995571 15.420574 0.055302
6.310312 15.420574 0.061009
6.625053 15.420574 0.068034
6.939795 15.420574 0.076095
7.254536 15.420574 0.089254
7.569277 15.420574 0.111549
7.884017 15.420574 0.150717
8.198758 15.420574 0.224823
8.513499 15.420574 0.356029
8.828240 15.420574 0.536759
9.142982 15.420574 0.758976
9.457723 15.420574 1.003474
9.772464 15.420574 1.254300
10.087205 15.420574 1.528155
10.401946 15.420574 1.792868
10.716687 15.420574 2.020766
11.031426 15.420574 2.249691
11.346168 15.420574 2.446746
11.660909 15.420574 2.587967
11.975650 15.420574 2.751918
12.290391 15.420574 2.873874
12.605132 15.420574 3.025193
12.919873 15.420574 3.180936
13.234614 15.420574 3.283698
13.549356 15.420574 3.401880
13.864097 15.420574 3.445199
14.178838 15.420574 3.315283
14.493579 15.420574 3.201015
14.808320 15.420574 2.976234
15.123059 15.420574 2.864848
15.437800 15.420574 2.994977
15.752542 15.420574 3.327607
16.067284 15.420574 0.000000
16.382023 15.420574 0.000000
16.696766 15.420574 0.000000
17.011505 15.420574 0.000000
17.326248 15.420574 0.000000
17.640987 15.420574 0.000000
17.955730 15.420574 0.000000
18.270470 15.420574 0.000000
18.585213 15.420574 0.000000
18.899952 15.420574 0.000000
-7.223550 15.105835 0.000000
-6.908809 15.105835 0.037546
-6.594068 15.105835 0.035345
-6.279327 15.105835 0.035006
-5.964586 15.105835 0.035037
-5.649845 15.105835 0.035235
-5.335104 15.105835 0.035361
-5.020363 15.105835 0.035483
-4.705622 15.105835 0.035696
-4.390881 15.105835 0.035835
-4.076140 15.105835 0.035733
-3.761399 15.105835 0.035550
-3.446658 15.105835 0.035377
-3.131917 15.105835 0.035203
-2.817176 15.105835 0.035213
-2.502435 15.105835 0.035081
-2.187694 15.105835 0.034932
-1.872953 15.105835 0.034894
-1.558212 15.105835 0.034670
-1.243471 15.105835 0.034495
-0.928730 15.105835 0.034508
-0.613989 15.105835 0.034593
-0.299248 15.105835 0.034854
0.015493 15.105835 0.035306
0.330234 15.105835 0.035709
0.644975 15.105835 0.035869
0.959716 15.105835 0.035911
1.274457 15.105835 0.036033
1.589198 15.105835 0.036110
1.903938 15.105835 0.036154
2.218679 15.105835 0.036185
2.533421 15.105835 0.036266
2.848162 15.105835 0.036621
3.162903 15.105835 0.037080
3.477644 15.105835 0.037525
3.792385 15.105835 0.038328
4.107125 15.105835 0.039693
4.421866 15.105835 0.041237
4.736608 15.105835 0.042967
5.051349 15.105835 0.045136
5.366090 15.105835 0.047576
5.680831 15.105835 0.051049
5.995571 15.105835 0.055474
6.310312 15.105835 0.061154
6.625053 15.105835 0.067898
6.939795 15.105835 0.076190
7.254536 15.105835 0.089223
7.569277 15.105835 0.111590
7.884017 15.105835 0.149592
8.198758 15.105835 0.230076
8.513499 15.105835 0.362709
8.828240 15.105835 0.548020
9.142982 15.105835 0.762345
9.457723 15.105835 1.010006
9.772464 15.105835 1.266307
10.087205 15.105835 1.534279
10.401946 15.105835 1.794900
10.716687 15.105835 2.031623
11.031426 15.105835 2.249163
11.346168 15.105835 2.433335
11.660909 15.105835 2.611649
11.975650 15.105835 2.743801
12.290391 15.105835 2.862235
12.605132 15.105835 3.003294
12.919873 15.105835 3.158463
13.234614 15.105835 3.268182
13.549356 15.105835 3.393497
13.864097 15.105835 3.395429
14.178838 15.105835 3.327491
14.493579 15.105835 3.224161
14.808320 15.105835 3.011569
15.123059 15.105835 2.855844
15.437800 15.105835 3.055088
15.752542 15.105835 3.354077
16.067284 15.105835 0.000000
16.382023 15.105835 0.000000
16.696766 15.105835 0.000000
17.011505 15.105835 0.000000
17.326248 15.105835 0.000000
17.640987 15.105835 0.000000
17.955730 15.105835 0.000000
18.270470 15.105835 0.000000
18.585213 15.105835 0.000000
18.899952 15.105835 0.000000
-7.223550 14.791092 0.000000
-6.908809 14.791092 0.037756
-6.594068 14.791092 0.035636
-6.279327 14.791092 0.035439
-5.964586 14.791092 0.035495
-5.649845 14.791092 0.035604
-5.335104 14.791092 0.035757
-5.020363 14.791092 0.035891
-4.705622 14.791092 0.035954
-4.390881 14.791092 0.035768
-4.076140 14.791092 0.035405
-3.761399 14.791092 0.035086
-3.446658 14.791092 0.034850
-3.131917 14.791092 0.034687
-2.817176 14.791092 0.034715
-2.502435 14.791092 0.034597
-2.187694 14.791092 0.034619
-1.872953 14.791092 0.034893
-1.558212 14.791092 0.034952
-1.243471 14.791092 0.035014
-0.928730 14.791092 0.035066
-0.613989 14.791092 0.035111
-0.299248 14.791092 0.035285
0.015493 14.791092 0.035594
0.330234 14.791092 0.035807
0.644975 14.791092 0.035796
0.959716 14.791092 0.035705
1.274457 14.791092 0.035663
1.589198 14.791092 0.035692
1.903938 14.791092 0.035748
2.218679 14.791092 0.035847
2.533421 14.791092 0.036053
2.848162 14.791092 0.036567
3.162903 14.791092 0.037179
3.477644 14.791092 0.037737
3.792385 14.791092 0.038598
4.107125 14.791092 0.039893
4.421866 14.791092 0.041401
4.736608 14.791092 0.042997
5.051349 14.791092 0.045017
5.366090 14.791092 0.047625
5.680831 14.791092 0.050998
5.995571 14.791092 0.055660
6.310312 14.791092 0.061383
6.625053 14.791092 0.067915
6.939795 14.791092 0.076524
7.254536 14.791092 0.089748
7.569277 14.791092 0.112736
7.884017 14.791092 0.151784
8.198758 14.791092 0.228545
8.513499 14.791092 0.365638
8.828240 14.791092 0.554906
9.142982 14.791092 0.770327
9.457723 14.791092 1.017518
9.772464 14.791092 1.272276
10.087205 14.791092 1.553502
10.401946 14.791092 1.807799
10.716687 14.791092 2.038145
11.031426 14.791092 2.256857
11.346168 14.791092 2.449215
11.660909 14.791092 2.619460
11.975650 14.791092 2.748160
12.290391 14.791092 2.875745
12.605132 14.791092 3.001821
12.919873 14.791092 3.189145
13.234614 14.791092 3.272423
13.549356 14.791092 3.394329
13.864097 14.791092 3.392538
14.178838 14.791092 3.322895
14.493579 14.791092 3.217625
14.808320 14.791092 3.014652
15.123059 14.791092 2.888295
15.437800 14.791092 3.123869
15.752542 14.791092 3.413144
16.067284 14.791092 0.000000
16.382023 14.791092 0.000000
16.696766 14.791092 0.000000
17.011505 14.791092 0.000000
17.326248 14.791092 0.000000
17.640987 14.791092 0.000000
17.955730 14.791092 0.000000
18.270470 14.791092 0.000000
18.585213 14.791092 0.000000
18.899952 14.791092 0.000000
-7.223550 14.476353 0.000000
-6.908809 14.476353 0.038188
-6.594068 14.476353 0.036074
-6.279327 14.476353 0.035831
-5.964586 14.476353 0.035711
-5.649845 14.476353 0.035599
-5.335104 14.476353 0.035702
-5.020363 14.476353 0.035820
-4.705622 14.476353 0.035700
-4.390881 14.476353 0.035314
-4.076140 14.476353 0.034922
-3.761399 14.476353 0.034654
-3.446658 14.476353 0.034522
-3.131917 14.476353 0.034508
-2.817176 14.476353 0.034629
-2.502435 14.476353 0.034596
-2.187694 14.476353 0.034801
-1.872953 14.476353 0.035244
-1.558212 14.476353 0.035447
-1.243471 14.476353 0.035508
-0.928730 14.476353 0.035440
-0.613989 14.476353 0.035348
-0.299248 14.476353 0.035365
0.015493 14.476353 0.035422
0.330234 14.476353 0.035388
0.644975 14.476353 0.035359
0.959716 14.476353 0.035358
1.274457 14.476353 0.035405
1.589198 14.476353 0.035523
1.903938 14.476353 0.035661
2.218679 14.476353 0.035924
2.533421 14.476353 0.036343
2.848162 14.476353 0.036918
3.162903 14.476353 0.037494
3.477644 14.476353 0.038063
3.792385 14.476353 0.038866
4.107125 14.476353 0.039947
4.421866 14.476353 0.041234
4.736608 14.476353 0.042680
5.051349 14.476353 0.044751
5.366090 14.476353 0.047502
5.680831 14.476353 0.051029
5.995571 14.476353 0.055468
6.310312 14.476353 0.061195
6.625053 14.476353 0.068362
6.939795 14.476353 0.077281
7.254536 14.476353 0.090289
7.569277 14.476353 0.113878
7.884017 14.476353 0.154301
8.198758 14.476353 0.230023
8.513499 14.476353 0.368724
8.828240 14.476353 0.566363
9.142982 14.476353 0.786209
9.457723 14.476353 1.031277
9.772464 14.476353 1.297890
10.087205 14.476353 1.574008
10.401946 14.476353 1.826001
10.716687 14.476353 2.042315
11.031426 14.476353 2.250840
11.346168 14.476353 2.448389
11.660909 14.476353 2.616351
11.975650 14.476353 2.758031
12.290391 14.476353 2.865795
12.605132 14.476353 3.012974
12.919873 14.476353 3.165720
13.234614 14.476353 3.277926
13.549356 14.476353 3.365611
13.864097 14.476353 3.403656
14.178838 14.476353 3.369699
14.493579 14.476353 3.247165
14.808320 14.476353 3.063205
15.123059 14.476353 2.972603
15.437800 14.476353 3.194084
15.752542 14.476353 3.403667
16.067284 14.476353 0.000000
16.382023 14.476353 0.000000
16.696766 14.476353 0.000000
17.011505 14.476353 0.000000
17.326248 14.476353 0.000000
17.640987 14.476353 0.000000
17.955730 14.476353 0.000000
18.270470 14.476353 0.000000
18.585213 14.476353 0.000000
18.899952 14.476353 0.000000
-7.223550 14.161610 0.000000
-6.908809 14.161610 0.038380
-6.594068 14.161610 0.036176
-6.279327 14.161610 0.035754
-5.964586 14.161610 0.035461
-5.649845 14.161610 0.035253
-5.335104 14.161610 0.035389
-5.020363 14.161610 0.035555
-4.705622 14.161610 0.035384
-4.390881 14.161610 0.035017
-4.076140 14.161610 0.034785
-3.761399 14.161610 0.034663
-3.446658 14.161610 0.034664
-3.131917 14.161610 0.034815
-2.817176 14.161610 0.034959
-2.502435 14.161610 0.034882
-2.187694 14.161610 0.035073
-1.872953 14.161610 0.035472
-1.558212 14.161610 0.035584
-1.243471 14.161610 0.035493
-0.928730 14.161610 0.035277
-0.613989 14.161610 0.035094
-0.299248 14.161610 0.035106
0.015493 14.161610 0.035039
0.330234 14.161610 0.034915
0.644975 14.161610 0.035022
0.959716 14.161610 0.035293
1.274457 14.161610 0.035498
1.589198 14.161610 0.035698
1.903938 14.161610 0.035904
2.218679 14.161610 0.036271
2.533421 14.161610 0.036772
2.848162 14.161610 0.037300
3.162903 14.161610 0.037731
3.477644 14.161610 0.038203
3.792385 14.161610 0.038913
4.107125 14.161610 0.039871
4.421866 14.161610 0.040902
4.736608 14.161610 0.042379
5.051349 14.161610 0.044536
5.366090 14.161610 0.047677
5.680831 14.161610 0.051250
5.995571 14.161610 0.055699
6.310312 14.161610 0.061443
6.625053 14.161610 0.068908
6.939795 14.161610 0.077908
7.254536 14.161610 0.091675
7.569277 14.161610 0.115073
7.884017 14.161610 0.154686
8.198758 14.161610 0.235535
8.513499 14.161610 0.374467
8.828240 14.161610 0.580331
9.142982 14.161610 0.792587
9.457723 14.161610 1.037810
9.772464 14.161610 1.314029
10.087205 14.161610 1.583295
10.401946 14.161610 1.838597
10.716687 14.161610 2.058449
11.031426 14.161610 2.263389
11.346168 14.161610 2.441653
11.660909 14.161610 2.608511
11.975650 14.161610 2.747284
12.290391 14.161610 2.858900
12.605132 14.161610 3.005071
12.919873 14.161610 3.157014
13.234614 14.161610 3.311685
13.549356 14.161610 3.385600
13.864097 14.161610 3.411428
14.178838 14.161610 3.398450
14.493579 14.161610 3.301540
14.808320 14.161610 3.130823
15.123059 14.161610 3.017134
15.437800 14.161610 3.249808
15.752542 14.161610 3.549657
16.067284 14.161610 0.000000
16.382023 14.161610 0.000000
16.696766 14.161610 0.000000
17.011505 14.161610 0.000000
17.326248 14.161610 0.000000
17.640987 14.161610 0.000000
17.955730 14.161610 0.000000
18.270470 14.161610 0.000000
18.585213 14.161610 0.000000
18.899952 14.161610 0.000000
-7.223550 13.846870 0.000000
-6.908809 13.846870 0.038076
-6.594068 13.846870 0.035885
-6.279327 13.846870 0.035413
-5.964586 13.846870 0.035112
-5.649845 13.846870 0.034925
-5.335104 13.846870 0.035185
-5.020363 13.846870 0.035418
-4.705622 13.846870 0.035293
-4.390881 13.846870 0.035084
-4.076140 13.846870 0.035013
-3.761399 13.846870 0.035023
-3.446658 13.846870 0.035122
-3.131917 13.846870 0.035264
-2.817176 13.846870 0.035245
-2.502435 13.846870 0.034972
-2.187694 13.846870 0.035017
-1.872953 13.846870 0.035265
-1.558212 13.846870 0.035229
-1.243471 13.846870 0.035061
-0.928730 13.846870 0.034891
-0.613989 13.846870 0.034821
-0.299248 13.846870 0.034932
0.015493 13.846870 0.034878
0.330234 13.846870 0.034802
0.644975 13.846870 0.035100
0.959716 13.846870 0.035563
1.274457 13.846870 0.035802
1.589198 13.846870 0.035958
1.903938 13.846870 0.036184
2.218679 13.846870 0.036576
2.533421 13.846870 0.036997
2.848162 13.846870 0.037384
3.162903 13.846870 0.037686
3.477644 13.846870 0.038134
3.792385 13.846870 0.038780
4.107125 13.846870 0.039638
4.421866 13.846870 0.040844
4.736608 13.846870 0.042328
5.051349 13.846870 0.044605
5.366090 13.846870 0.047789
5.680831 13.846870 0.051502
5.995571 13.846870 0.055943
6.310312 13.846870 0.061972
6.625053 13.846870 0.069391
6.939795 13.846870 0.078836
7.254536 13.846870 0.092645
7.569277 13.846870 0.118077
7.884017 13.846870 0.162109
8.198758 13.846870 0.245121
8.513499 13.846870 0.385622
8.828240 13.846870 0.585767
9.142982 13.846870 0.813581
9.457723 13.846870 1.051517
9.772464 13.846870 1.329301
10.087205 13.846870 1.608657
10.401946 13.846870 1.856126
10.716687 13.846870 2.053780
11.031426 13.846870 2.259256
11.346168 13.846870 2.441990
11.660909 13.846870 2.607102
11.975650 13.846870 2.759870
12.290391 13.846870 2.875046
12.605132 13.846870 3.009583
12.919873 13.846870 3.165700
13.234614 13.846870 3.287495
13.549356 13.846870 3.377443
13.864097 13.846870 3.399869
14.178838 13.846870 3.429523
14.493579 13.846870 3.357652
14.808320 13.846870 3.134511
15.123059 13.846870 3.058144
15.437800 13.846870 3.292750
15.752542 13.846870 3.453275
16.067284 13.846870 0.000000
16.382023 13.846870 0.000000
16.696766 13.846870 0.000000
17.011505 13.846870 0.000000
17.326248 13.846870 0.000000
17.640987 13.846870 0.000000
17.955730 13.846870 0.000000
18.270470 13.846870 0.000000
18.585213 13.846870 0.000000
18.899952 13.846870 0.000000
-7.223550 13.532127 0.000000
-6.908809 13.532127 0.037557
-6.594068 13.532127 0.035552
-6.279327 13.532127 0.035223
-5.964586 13.532127 0.035040
-5.649845 13.532127 0.034964
-5.335104 13.532127 0.035303
-5.020363 13.532127 0.035536
-4.705622 13.532127 0.035409
-4.390881 13.532127 0.035303
-4.076140 13.532127 0.035293
-3.761399 13.532127 0.035326
-3.446658 13.532127 0.035409
-3.131917 13.532127 0.035382
-2.817176 13.532127 0.035115
-2.502435 13.532127 0.034724
-2.187694 13.532127 0.034671
-1.872953 13.532127 0.034865
-1.558212 13.532127 0.034846
-1.243471 13.532127 0.034748
-0.928730 13.532127 0.034755
-0.613989 13.532127 0.034832
-0.299248 13.532127 0.035056
0.015493 13.532127 0.035030
0.330234 13.532127 0.035024
0.644975 13.532127 0.035392
0.959716 13.532127 0.035844
1.274457 13.532127 0.035996
1.589198 13.532127 0.036013
1.903938 13.532127 0.036174
2.218679 13.532127 0.036511
2.533421 13.532127 0.036914
2.848162 13.532127 0.037292
3.162903 13.532127 0.037617
3.477644 13.532127 0.038067
3.792385 13.532127 0.038767
4.107125 13.532127 0.039675
4.421866 13.532127 0.040980
4.736608 13.532127 0.042624
5.051349 13.532127 0.044926
5.366090 13.532127 0.048193
5.680831 13.532127 0.051753
5.995571 13.532127 0.056366
6.310312 13.532127 0.062318
6.625053 13.532127 0.069874
6.939795 13.532127 0.079710
7.254536 13.532127 0.094074
7.569277 13.532127 0.119099
7.884017 13.532127 0.165673
8.198758 13.532127 0.251155
8.513499 13.532127 0.395174
8.828240 13.532127 0.601395
9.142982 13.532127 0.834428
9.457723 13.532127 1.080926
9.772464 13.532127 1.341301
10.087205 13.532127 1.625524
10.401946 13.532127 1.858290
10.716687 13.532127 2.061336
11.031426 13.532127 2.252681
11.346168 13.532127 2.444915
11.660909 13.532127 2.622408
11.975650 13.532127 2.774603
12.290391 13.532127 2.899236
12.605132 13.532127 3.029275
12.919873 13.532127 3.190894
13.234614 13.532127 3.270394
13.549356 13.532127 3.361856
13.864097 13.532127 3.456049
14.178838 13.532127 3.444763
14.493579 13.532127 3.384508
14.808320 13.532127 3.156132
15.123059 13.532127 3.055892
15.437800 13.532127 3.292580
15.752542 13.532127 3.525640
16.067284 13.532127 0.000000
16.382023 13.532127 0.000000
16.696766 13.532127 0.000000
17.011505 13.532127 0.000000
17.326248 13.532127 0.000000
17.640987 13.532127 0.000000
17.955730 13.532127 0.000000
18.270470 13.532127 0.000000
18.585213 13.532127 0.000000
18.899952 13.532127 0.000000
-7.223550 13.217388 0.000000
-6.908809 13.217388 0.037301
-6.594068 13.217388 0.035575
-6.279327 13.217388 0.035412
-5.964586 13.217388 0.035294
-5.649845 13.217388 0.035230
-5.335104 13.217388 0.035477
-5.020363 13.217388 0.035601
-4.705622 13.217388 0.035441
-4.390881 13.217388 0.035295
-4.076140 13.217388 0.035220
-3.761399 13.217388 0.035274
-3.446658 13.217388 0.035342
-3.131917 13.217388 0.035147
-2.817176 13.217388 0.034769
-2.502435 13.217388 0.034412
-2.187694 13.217388 0.034405
-1.872953 13.217388 0.034655
-1.558212 13.217388 0.034743
-1.243471 13.217388 0.034792
-0.928730 13.217388 0.034919
-0.613989 13.217388 0.035098
-0.299248 13.217388 0.035311
0.015493 13.217388 0.035261
0.330234 13.217388 0.035229
0.644975 13.217388 0.035500
0.959716 13.217388 0.035816
1.274457 13.217388 0.035929
1.589198 13.217388 0.035888
1.903938 13.217388 0.035981
2.218679 13.217388 0.036289
2.533421 13.217388 0.036720
2.848162 13.217388 0.037224
3.162903 13.217388 0.037668
3.477644 13.217388 0.038185
3.792385 13.217388 0.038901
4.107125 13.217388 0.039952
4.421866 13.217388 0.041336
4.736608 13.217388 0.042930
5.051349 13.217388 0.045084
5.366090 13.217388 0.048249
5.680831 13.217388 0.052025
5.995571 13.217388 0.056648
6.310312 13.217388 0.062693
6.625053 13.217388 0.070402
6.939795 13.217388 0.080611
7.254536 13.217388 0.095687
7.569277 13.217388 0.119333
7.884017 13.217388 0.164897
8.198758 13.217388 0.252715
8.513499 13.217388 0.402881
8.828240 13.217388 0.603478
9.142982 13.217388 0.846556
9.457723 13.217388 1.091534
9.772464 13.217388 1.354337
10.087205 13.217388 1.618834
10.401946 13.217388 1.869448
10.716687 13.217388 2.072218
11.031426 13.217388 2.271813
11.346168 13.217388 2.458274
11.660909 13.217388 2.620416
11.975650 13.217388 2.776885
12.290391 13.217388 2.923678
12.605132 13.217388 3.085992
12.919873 13.217388 3.202105
13.234614 13.217388 3.313511
13.549356 13.217388 3.398622
13.864097 13.217388 3.456076
14.178838 13.217388 3.489790
14.493579 13.217388 3.396434
14.808320 13.217388 3.193971
15.123059 13.217388 3.107869
15.437800 13.217388 3.363306
15.752542 13.217388 3.535924
16.067284 13.217388 0.000000
16.382023 13.217388 0.000000
16.696766 13.217388 0.000000
17.011505 13.217388 0.000000
17.326248 13.217388 0.000000
17.640987 13.217388 0.000000
17.955730 13.217388 0.000000
18.270470 13.217388 0.000000
18.585213 13.217388 0.000000
18.899952 13.217388 0.000000
-7.223550 12.902649 0.000000
-6.908809 12.902649 0.037499
-6.594068 12.902649 0.035853
-6.279327 12.902649 0.035728
-5.964586 12.902649 0.035617
-5.649845 12.902649 0.035411
-5.335104 12.902649 0.035432
-5.020363 12.902649 0.035366
-4.705622 12.902649 0.035136
-4.390881 12.902649 0.034974
-4.076140 12.902649 0.034885
-3.761399 12.902649 0.035020
-3.446658 12.902649 0.035086
-3.131917 12.902649 0.034851
-2.817176 12.902649 0.034570
-2.502435 12.902649 0.034430
-2.187694 12.902649 0.034515
-1.872953 12.902649 0.034802
-1.558212 12.902649 0.034923
-1.243471 12.902649 0.035030
-0.928730 12.902649 0.035161
-0.613989 12.902649 0.035280
-0.299248 12.902649 0.035410
0.015493 12.902649 0.035314
0.330234 12.902649 0.035186
0.644975 12.902649 0.035300
0.959716 12.902649 0.035552
1.274457 12.902649 0.035776
1.589198 12.902649 0.035821
1.903938 12.902649 0.035917
2.218679 12.902649 0.036172
2.533421 12.902649 0.036639
2.848162 12.902649 0.037277
3.162903 12.902649 0.037817
3.477644 12.902649 0.038370
3.792385 12.902649 0.039082
4.107125 12.902649 0.040190
4.421866 12.902649 0.041677
4.736608 12.902649 0.043152
5.051349 12.902649 0.045221
5.366090 12.902649 0.048123
5.680831 12.902649 0.051894
5.995571 12.902649 0.056585
6.310312 12.902649 0.062618
6.625053 12.902649 0.070487
6.939795 12.902649 0.080189
7.254536 12.902649 0.095889
7.569277 12.902649 0.119692
7.884017 12.902649 0.167527
8.198758 12.902649 0.255087
8.513499 12.902649 0.409574
8.828240 12.902649 0.611965
9.142982 12.902649 0.851225
9.457723 12.902649 1.098707
9.772464 12.902649 1.364658
10.087205 12.902649 1.628749
10.401946 12.902649 1.874750
10.716687 12.902649 2.085146
11.031426 12.902649 2.279471
11.346168 12.902649 2.468671
11.660909 12.902649 2.623160
11.975650 12.902649 2.798432
12.290391 12.902649 2.944265
12.605132 12.902649 3.096936
12.919873 12.902649 3.244327
13.234614 12.902649 3.343795
13.549356 12.902649 3.401352
13.864097 12.902649 3.478903
14.178838 12.902649 3.473411
14.493579 12.902649 3.411068
14.808320 12.902649 3.218051
15.123059 12.902649 3.086067
15.437800 12.902649 3.372175
15.752542 12.902649 3.671076
16.067284 12.902649 0.000000
16.382023 12.902649 0.000000
16.696766 12.902649 0.000000
17.011505 12.902649 0.000000
17.326248 12.902649 0.000000
17.640987 12.902649 0.000000
17.955730 12.902649 0.000000
18.270470 12.902649 0.000000
18.585213 12.902649 0.000000
18.899952 12.902649 0.000000
-7.223550 12.587906 0.000000
-6.908809 12.587906 0.037589
-6.594068 12.587906 0.035953
-6.279327 12.587906 0.035759
-5.964586 12.587906 0.035596
-5.649845 12.587906 0.035257
-5.335104 12.587906 0.035058
-5.020363 12.587906 0.034886
-4.705622 12.587906 0.034711
-4.390881 12.587906 0.034622
-4.076140 12.587906 0.034644
-3.761399 12.587906 0.034916
-3.446658 12.587906 0.034993
-3.131917 12.587906 0.034780
-2.817176 12.587906 0.034660
-2.502435 12.587906 0.034703
-2.187694 12.587906 0.034830
-1.872953 12.587906 0.035052
-1.558212 12.587906 0.035111
-1.243471 12.587906 0.035126
-0.928730 12.587906 0.035158
-0.613989 12.587906 0.035187
-0.299248 12.587906 0.035244
0.015493 12.587906 0.035119
0.330234 12.587906 0.034947
0.644975 12.587906 0.035004
0.959716 12.587906 0.035317
1.274457 12.587906 0.035718
1.589198 12.587906 0.035908
1.903938 12.587906 0.036015
2.218679 12.587906 0.036231
2.533421 12.587906 0.036690
2.848162 12.587906 0.037383
3.162903 12.587906 0.037980
3.477644 12.587906 0.038533
3.792385 12.587906 0.039196
4.107125 12.587906 0.040287
4.421866 12.587906 0.041751
4.736608 12.587906 0.043137
5.051349 12.587906 0.045074
5.366090 12.587906 0.047820
5.680831 12.587906 0.051698
5.995571 12.587906 0.056422
6.310312 12.587906 0.062598
6.625053 12.587906 0.070775
6.939795 12.587906 0.080621
7.254536 12.587906 0.096969
7.569277 12.587906 0.123780
7.884017 12.587906 0.170578
8.198758 12.587906 0.263796
8.513499 12.587906 0.417377
8.828240 12.587906 0.619786
9.142982 12.587906 0.846965
9.457723 12.587906 1.116739
9.772464 12.587906 1.378572
10.087205 12.587906 1.655282
10.401946 12.587906 1.883701
10.716687 12.587906 2.089767
11.031426 12.587906 2.281488
11.346168 12.587906 2.444742
11.660909 12.587906 2.617050
11.975650 12.587906 2.774023
12.290391 12.587906 2.950284
12.605132 12.587906 3.101067
12.919873 12.587906 3.223890
13.234614 12.587906 3.356031
13.549356 12.587906 3.424505
13.864097 12.587906 3.482245
14.178838 12.587906 3.484051
14.493579 12.587906 3.380801
14.808320 12.587906 3.205978
15.123059 12.587906 3.104986
15.437800 12.587906 3.438843
15.752542 12.587906 3.832714
16.067284 12.587906 0.000000
16.382023 12.587906 0.000000
16.696766 12.587906 0.000000
17.011505 12.587906 0.000000
17.326248 12.587906 0.000000
17.640987 12.587906 0.000000
17.955730 12.587906 0.000000
18.270470 12.587906 0.000000
18.585213 12.587906 0.000000
18.899952 12.587906 0.000000
-7.223550 12.273167 0.000000
-6.908809 12.273167 0.037401
-6.594068 12.273167 0.035622
-6.279327 12.273167 0.035394
-5.964586 12.273167 0.035277
-5.649845 12.273167 0.034932
-5.335104 12.273167 0.034686
-5.020363 12.273167 0.034569
-4.705622 12.273167 0.034540
-4.390881 12.273167 0.034546
-4.076140 12.273167 0.034689
-3.761399 12.273167 0.035025
-3.446658 12.273167 0.035059
-3.131917 12.273167 0.034925
-2.817176 12.273167 0.034903
-2.502435 12.273167 0.034963
-2.187694 12.273167 0.035013
-1.872953 12.273167 0.035102
-1.558212 12.273167 0.035069
-1.243471 12.273167 0.034954
-0.928730 12.273167 0.034882
-0.613989 12.273167 0.034882
-0.299248 12.273167 0.034971
0.015493 12.273167 0.034967
0.330234 12.273167 0.034802
0.644975 12.273167 0.034882
0.959716 12.273167 0.035280
1.274457 12.273167 0.035790
1.589198 12.273167 0.036101
1.903938 12.273167 0.036201
2.218679 12.273167 0.036325
2.533421 12.273167 0.036689
2.848162 12.273167 0.037335
3.162903 12.273167 0.037917
3.477644 12.273167 0.038476
3.792385 12.273167 0.039121
4.107125 12.273167 0.040233
4.421866 12.273167 0.041591
4.736608 12.273167 0.042978
5.051349 12.273167 0.044816
5.366090 12.273167 0.047738
5.680831 12.273167 0.051404
5.995571 12.273167 0.056463
6.310312 12.273167 0.062368
6.625053 12.273167 0.070627
6.939795 12.273167 0.081143
7.254536 12.273167 0.097850
7.569277 12.273167 0.126111
7.884017 12.273167 0.174548
8.198758 12.273167 0.271438
8.513499 12.273167 0.421805
8.828240 12.273167 0.639293
9.142982 12.273167 0.865448
9.457723 12.273167 1.130953
9.772464 12.273167 1.400022
10.087205 12.273167 1.665484
10.401946 12.273167 1.895782
10.716687 12.273167 2.084824
11.031426 12.273167 2.267965
11.346168 12.273167 2.451464
11.660909 12.273167 2.616043
11.975650 12.273167 2.791268
12.290391 12.273167 2.937689
12.605132 12.273167 3.091341
12.919873 12.273167 3.208052
13.234614 12.273167 3.295693
13.549356 12.273167 3.414239
13.864097 12.273167 3.469906
14.178838 12.273167 3.467326
14.493579 12.273167 3.345202
14.808320 12.273167 3.235833
15.123059 12.273167 3.125775
15.437800 12.273167 3.451058
15.752542 12.273167 3.797240
16.067284 12.273167 0.000000
16.382023 12.273167 0.000000
16.696766 12.273167 0.000000
17.011505 12.273167 0.000000
17.326248 12.273167 0.000000
17.640987 12.273167 0.000000
17.955730 12.273167 0.000000
18.270470 12.273167 0.000000
18.585213 12.273167 0.000000
18.899952 12.273167 0.000000
-7.223550 11.958424 0.000000
-6.908809 11.958424 0.037042
-6.594068 11.958424 0.035218
-6.279327 11.958424 0.035019
-5.964586 11.958424 0.034978
-5.649845 11.958424 0.034760
-5.335104 11.958424 0.034607
-5.020363 11.958424 0.034614
-4.705622 11.958424 0.034712
-4.390881 11.958424 0.034758
-4.076140 11.958424 0.034957
-3.761399 11.958424 0.035172
-3.446658 11.958424 0.035047
-3.131917 11.958424 0.034940
-2.817176 11.958424 0.034955
-2.502435 11.958424 0.034941
-2.187694 11.958424 0.034907
-1.872953 11.958424 0.034958
-1.558212 11.958424 0.034890
-1.243471 11.958424 0.034723
-0.928730 11.958424 0.034638
-0.613989 11.958424 0.034628
-0.299248 11.958424 0.034761
0.015493 11.958424 0.034894
0.330234 11.958424 0.034873
0.644975 11.958424 0.035012
0.959716 11.958424 0.035423
1.274457 11.958424 0.035862
1.589198 11.958424 0.036171
1.903938 11.958424 0.036226
2.218679 11.958424 0.036230
2.533421 11.958424 0.036519
2.848162 11.958424 0.037118
3.162903 11.958424 0.037701
3.477644 11.958424 0.038285
3.792385 11.958424 0.039002
4.107125 11.958424 0.039972
4.421866 11.958424 0.041378
4.736608 11.958424 0.042881
5.051349 11.958424 0.044866
5.366090 11.958424 0.047808
5.680831 11.958424 0.051434
5.995571 11.958424 0.056564
6.310312 11.958424 0.062901
6.625053 11.958424 0.071214
6.939795 11.958424 0.081455
7.254536 11.958424 0.098039
7.569277 11.958424 0.127778
7.884017 11.958424 0.179946
8.198758 11.958424 0.278293
8.513499 11.958424 0.434121
8.828240 11.958424 0.655324
9.142982 11.958424 0.896804
9.457723 11.958424 1.148201
9.772464 11.958424 1.400467
10.087205 11.958424 1.665674
10.401946 11.958424 1.901817
10.716687 11.958424 2.081849
11.031426 11.958424 2.267017
11.346168 11.958424 2.457435
11.660909 11.958424 2.630580
11.975650 11.958424 2.810563
12.290391 11.958424 2.955422
12.605132 11.958424 3.091055
12.919873 11.958424 3.225897
13.234614 11.958424 3.321954
13.549356 11.958424 3.407472
13.864097 11.958424 3.464083
14.178838 11.958424 3.434808
14.493579 11.958424 3.373812
14.808320 11.958424 3.260391
15.123059 11.958424 3.173421
15.437800 11.958424 3.480848
15.752542 11.958424 3.774253
16.067284 11.958424 0.000000
16.382023 11.958424 0.000000
16.696766 11.958424 0.000000
17.011505 11.958424 0.000000
17.326248 11.958424 0.000000
17.640987 11.958424 0.000000
17.955730 11.958424 0.000000
18.270470 11.958424 0.000000
18.585213 11.958424 0.000000
18.899952 11.958424 0.000000
-7.223550 11.643684 0.000000
-6.908809 11.643684 0.036882
-6.594068 11.643684 0.035110
-6.279327 11.643684 0.034893
-5.964586 11.643684 0.034909
-5.649845 11.643684 0.034834
-5.335104 11.643684 0.034757
-5.020363 11.643684 0.034905
-4.705622 11.643684 0.035009
-4.390881 11.643684 0.034986
-4.076140 11.643684 0.035068
-3.761399 11.643684 0.035108
-3.446658 11.643684 0.034849
-3.131917 11.643684 0.034807
-2.817176 11.643684 0.034846
-2.502435 11.643684 0.034744
-2.187694 11.643684 0.034722
-1.872953 11.643684 0.034787
-1.558212 11.643684 0.034739
-1.243471 11.643684 0.034606
-0.928730 11.643684 0.034595
-0.613989 11.643684 0.034657
-0.299248 11.643684 0.034836
0.015493 11.643684 0.034982
0.330234 11.643684 0.035014
0.644975 11.643684 0.035179
0.959716 11.643684 0.035519
1.274457 11.643684 0.035830
1.589198 11.643684 0.036051
1.903938 11.643684 0.036048
2.218679 11.643684 0.036012
2.533421 11.643684 0.036269
2.848162 11.643684 0.036894
3.162903 11.643684 0.037520
3.477644 11.643684 0.038170
3.792385 11.643684 0.038983
4.107125 11.643684 0.039974
4.421866 11.643684 0.041347
4.736608 11.643684 0.043013
5.051349 11.643684 0.045017
5.366090 11.643684 0.047808
5.680831 11.643684 0.051684
5.995571 11.643684 0.057148
6.310312 11.643684 0.063617
6.625053 11.643684 0.071740
6.939795 11.643684 0.081846
7.254536 11.643684 0.098171
7.569277 11.643684 0.128390
7.884017 11.643684 0.179399
8.198758 11.643684 0.282692
8.513499 11.643684 0.446446
8.828240 11.643684 0.660449
9.142982 11.643684 0.910035
9.457723 11.643684 1.154477
9.772464 11.643684 1.403520
10.087205 11.643684 1.668943
10.401946 11.643684 1.911454
10.716687 11.643684 2.093987
11.031426 11.643684 2.279545
11.346168 11.643684 2.452754
11.660909 11.643684 2.652535
11.975650 11.643684 2.825864
12.290391 11.643684 2.959630
12.605132 11.643684 3.081974
12.919873 11.643684 3.201136
13.234614 11.643684 3.317265
13.549356 11.643684 3.417719
13.864097 11.643684 3.443021
14.178838 11.643684 3.453524
14.493579 11.643684 3.423220
14.808320 11.643684 3.325421
15.123059 11.643684 3.252545
15.437800 11.643684 3.549399
15.752542 11.643684 3.748668
16.067284 11.643684 0.000000
16.382023 11.643684 0.000000
16.696766 11.643684 0.000000
17.011505 11.643684 0.000000
17.326248 11.643684 0.000000
17.640987 11.643684 0.000000
17.955730 11.643684 0.000000
18.270470 11.643684 0.000000
18.585213 11.643684 0.000000
18.899952 11.643684 0.000000
-7.223550 11.328941 0.000000
-6.908809 11.328941 0.036892
-6.594068 11.328941 0.035195
-6.279327 11.328941 0.034984
-5.964586 11.328941 0.035001
-5.649845 11.328941 0.034960
-5.335104 11.328941 0.034936
-5.020363 11.328941 0.035097
-4.705622 11.328941 0.035127
-4.390881 11.328941 0.034962
-4.076140 11.328941 0.034897
-3.761399 11.328941 0.034822
-3.446658 11.328941 0.034593
-3.131917 11.328941 0.034674
-2.817176 11.328941 0.034772
-2.502435 11.328941 0.034656
-2.187694 11.328941 0.034637
-1.872953 11.328941 0.034763
-1.558212 11.328941 0.034771
-1.243471 11.328941 0.034690
-0.928730 11.328941 0.034731
-0.613989 11.328941 0.034830
-0.299248 11.328941 0.034965
0.015493 11.328941 0.035013
0.330234 11.328941 0.035023
0.644975 11.328941 0.035191
0.959716 11.328941 0.035475
1.274457 11.328941 0.035709
1.589198 11.328941 0.035842
1.903938 11.328941 0.035793
2.218679 11.328941 0.035796
2.533421 11.328941 0.036132
2.848162 11.328941 0.036840
3.162903 11.328941 0.037553
3.477644 11.328941 0.038217
3.792385 11.328941 0.039071
4.107125 11.328941 0.040053
4.421866 11.328941 0.041414
4.736608 11.328941 0.043188
5.051349 11.328941 0.045214
5.366090 11.328941 0.047956
5.680831 11.328941 0.052184
5.995571 11.328941 0.057503
6.310312 11.328941 0.064223
6.625053 11.328941 0.072096
6.939795 11.328941 0.082516
7.254536 11.328941 0.098515
7.569277 11.328941 0.127639
7.884017 11.328941 0.180500
8.198758 11.328941 0.284452
8.513499 11.328941 0.458155
8.828240 11.328941 0.677190
9.142982 11.328941 0.917834
9.457723 11.328941 1.169722
9.772464 11.328941 1.426386
10.087205 11.328941 1.690720
10.401946 11.328941 1.921219
10.716687 11.328941 2.100614
11.031426 11.328941 2.290895
11.346168 11.328941 2.457176
11.660909 11.328941 2.670310
11.975650 11.328941 2.823112
12.290391 11.328941 2.978288
12.605132 11.328941 3.117838
12.919873 11.328941 3.214521
13.234614 11.328941 3.301605
13.549356 11.328941 3.366400
13.864097 11.328941 3.408722
14.178838 11.328941 3.413215
14.493579 11.328941 3.422255
14.808320 11.328941 3.338992
15.123059 11.328941 3.230844
15.437800 11.328941 3.511681
15.752542 11.328941 3.840317
16.067284 11.328941 0.000000
16.382023 11.328941 0.000000
16.696766 11.328941 0.000000
17.011505 11.328941 0.000000
17.326248 11.328941 0.000000
17.640987 11.328941 0.000000
17.955730 11.328941 0.000000
18.270470 11.328941 0.000000
18.585213 11.328941 0.000000
18.899952 11.328941 0.000000
-7.223550 11.014202 0.000000
-6.908809 11.014202 0.036989
-6.594068 11.014202 0.035352
-6.279327 11.014202 0.035149
-5.964586 11.014202 0.035100
-5.649845 11.014202 0.035002
-5.335104 11.014202 0.034986
-5.020363 11.014202 0.035123
-4.705622 11.014202 0.035062
-4.390881 11.014202 0.034810
-4.076140 11.014202 0.034637
-3.761399 11.014202 0.034597
-3.446658 11.014202 0.034527
-3.131917 11.014202 0.034721
-2.817176 11.014202 0.034872
-2.502435 11.014202 0.034734
-2.187694 11.014202 0.034687
-1.872953 11.014202 0.034789
-1.558212 11.014202 0.034831
-1.243471 11.014202 0.034818
-0.928730 11.014202 0.034870
-0.613989 11.014202 0.034982
-0.299248 11.014202 0.035062
0.015493 11.014202 0.034964
0.330234 11.014202 0.034923
0.644975 11.014202 0.035109
0.959716 11.014202 0.035373
1.274457 11.014202 0.035596
1.589198 11.014202 0.035642
1.903938 11.014202 0.035591
2.218679 11.014202 0.035721
2.533421 11.014202 0.036170
2.848162 11.014202 0.036920
3.162903 11.014202 0.037629
3.477644 11.014202 0.038276
3.792385 11.014202 0.039071
4.107125 11.014202 0.040132
4.421866 11.014202 0.041486
4.736608 11.014202 0.043223
5.051349 11.014202 0.045397
5.366090 11.014202 0.048109
5.680831 11.014202 0.052159
5.995571 11.014202 0.057606
6.310312 11.014202 0.064519
6.625053 11.014202 0.072842
6.939795 11.014202 0.082626
7.254536 11.014202 0.099314
7.569277 11.014202 0.129915
7.884017 11.014202 0.187987
8.198758 11.014202 0.296895
8.513499 11.014202 0.468033
8.828240 11.014202 0.690959
9.142982 11.014202 0.921481
9.457723 11.014202 1.185317
9.772464 11.014202 1.444399
10.087205 11.014202 1.691328
10.401946 11.014202 1.928166
10.716687 11.014202 2.111933
11.031426 11.014202 2.293217
11.346168 11.014202 2.493323
11.660909 11.014202 2.669019
11.975650 11.014202 2.835414
12.290391 11.014202 2.998208
12.605132 11.014202 3.128292
12.919873 11.014202 3.203844
13.234614 11.014202 3.296860
13.549356 11.014202 3.361323
13.864097 11.014202 3.387153
14.178838 11.014202 3.423530
14.493579 11.014202 3.397420
14.808320 11.014202 3.350959
15.123059 11.014202 3.280026
15.437800 11.014202 3.545556
15.752542 11.014202 3.936290
16.067284 11.014202 0.000000
16.382023 11.014202 0.000000
16.696766 11.014202 0.000000
17.011505 11.014202 0.000000
17.326248 11.014202 0.000000
17.640987 11.014202 0.000000
17.955730 11.014202 0.000000
18.270470 11.014202 0.000000
18.585213 11.014202 0.000000
18.899952 11.014202 0.000000
-7.223550 10.699459 0.000000
-6.908809 10.699459 0.036958
-6.594068 10.699459 0.035374
-6.279327 10.699459 0.035190
-5.964586 10.699459 0.035101
-5.649845 10.699459 0.034985
-5.335104 10.699459 0.035037
-5.020363 10.699459 0.035139
-4.705622 10.699459 0.035058
-4.390881 10.699459 0.034736
-4.076140 10.699459 0.034544
-3.761399 10.699459 0.034604
-3.446658 10.699459 0.034704
-3.131917 10.699459 0.034921
-2.817176 10.699459 0.035025
-2.502435 10.699459 0.034860
-2.187694 10.699459 0.034719
-1.872953 10.699459 0.034743
-1.558212 10.699459 0.034764
-1.243471 10.699459 0.034831
-0.928730 10.699459 0.034903
-0.613989 10.699459 0.035075
-0.299248 10.699459 0.035131
0.015493 10.699459 0.034919
0.330234 10.699459 0.034834
0.644975 10.699459 0.035079
0.959716 10.699459 0.035387
1.274457 10.699459 0.035561
1.589198 10.699459 0.035560
1.903938 10.699459 0.035514
2.218679 10.699459 0.035747
2.533421 10.699459 0.036297
2.848162 10.699459 0.037023
3.162903 10.699459 0.037679
3.477644 10.699459 0.038263
3.792385 10.699459 0.038935
4.107125 10.699459 0.040016
4.421866 10.699459 0.041401
4.736608 10.699459 0.043238
5.051349 10.699459 0.045481
5.366090 10.699459 0.048411
5.680831 10.699459 0.052241
5.995571 10.699459 0.057741
6.310312 10.699459 0.064568
6.625053 10.699459 0.073838
6.939795 10.699459 0.083584
7.254536 10.699459 0.100576
7.569277 10.699459 0.132606
7.884017 10.699459 0.190768
8.198758 10.699459 0.303430
8.513499 10.699459 0.480709
8.828240 10.699459 0.690144
9.142982 10.699459 0.925939
9.457723 10.699459 1.182923
9.772464 10.699459 1.451509
10.087205 10.699459 1.706731
10.401946 10.699459 1.924359
10.716687 10.699459 2.123022
11.031426 10.699459 2.328784
11.346168 10.699459 2.500932
11.660909 10.699459 2.678334
11.975650 10.699459 2.814024
12.290391 10.699459 2.986634
12.605132 10.699459 3.133924
12.919873 10.699459 3.249243
13.234614 10.699459 3.314650
13.549356 10.699459 3.360723
13.864097 10.699459 3.397602
14.178838 10.699459 3.440080
14.493579 10.699459 3.447692
14.808320 10.699459 3.365856
15.123059 10.699459 3.284610
15.437800 10.699459 3.628538
15.752542 10.699459 3.907068
16.067284 10.699459 0.000000
16.382023 10.699459 0.000000
16.696766 10.699459 0.000000
17.011505 10.699459 0.000000
17.326248 10.699459 0.000000
17.640987 10.699459 0.000000
17.955730 10.699459 0.000000
18.270470 10.699459 0.000000
18.585213 10.699459 0.000000
18.899952 10.699459 0.000000
-7.223550 10.384720 0.000000
-6.908809 10.384720 0.036840
-6.594068 10.384720 0.035299
-6.279327 10.384720 0.035181
-5.964586 10.384720 0.035095
-5.649845 10.384720 0.035027
-5.335104 10.384720 0.035149
-5.020363 10.384720 0.035197
-4.705622 10.384720 0.035080
-4.390881 10.384720 0.034778
-4.076140 10.384720 0.034613
-3.761399 10.384720 0.034756
-3.446658 10.384720 0.034937
-3.131917 10.384720 0.035079
-2.817176 10.384720 0.035081
-2.502435 10.384720 0.034869
-2.187694 10.384720 0.034665
-1.872953 10.384720 0.034578
-1.558212 10.384720 0.034616
-1.243471 10.384720 0.034771
-0.928730 10.384720 0.034911
-0.613989 10.384720 0.035172
-0.299248 10.384720 0.035260
0.015493 10.384720 0.035021
0.330234 10.384720 0.034907
0.644975 10.384720 0.035133
0.959716 10.384720 0.035427
1.274457 10.384720 0.035550
1.589198 10.384720 0.035493
1.903938 10.384720 0.035441
2.218679 10.384720 0.035757
2.533421 10.384720 0.036399
2.848162 10.384720 0.037106
3.162903 10.384720 0.037646
3.477644 10.384720 0.038105
3.792385 10.384720 0.038749
4.107125 10.384720 0.039841
4.421866 10.384720 0.041325
4.736608 10.384720 0.043225
5.051349 10.384720 0.045435
5.366090 10.384720 0.048412
5.680831 10.384720 0.052369
5.995571 10.384720 0.057793
6.310312 10.384720 0.064885
6.625053 10.384720 0.073445
6.939795 10.384720 0.084822
7.254536 10.384720 0.102619
7.569277 10.384720 0.137267
7.884017 10.384720 0.197167
8.198758 10.384720 0.316766
8.513499 10.384720 0.487351
8.828240 10.384720 0.707892
9.142982 10.384720 0.938264
9.457723 10.384720 1.190674
9.772464 10.384720 1.454748
10.087205 10.384720 1.711758
10.401946 10.384720 1.936933
10.716687 10.384720 2.135649
11.031426 10.384720 2.341599
11.346168 10.384720 2.520027
11.660909 10.384720 2.672323
11.975650 10.384720 2.798210
12.290391 10.384720 2.953034
12.605132 10.384720 3.117328
12.919873 10.384720 3.251992
13.234614 10.384720 3.335899
13.549356 10.384720 3.369459
13.864097 10.384720 3.409743
14.178838 10.384720 3.397732
14.493579 10.384720 3.393372
14.808320 10.384720 3.384045
15.123059 10.384720 3.331380
15.437800 10.384720 3.703097
15.752542 10.384720 3.979639
16.067284 10.384720 0.000000
16.382023 10.384720 0.000000
16.696766 10.384720 0.000000
17.011505 10.384720 0.000000
17.326248 10.384720 0.000000
17.640987 10.384720 0.000000
17.955730 10.384720 0.000000
18.270470 10.384720 0.000000
18.585213 10.384720 0.000000
18.899952 10.384720 0.000000
-7.223550 10.069977 0.000000
-6.908809 10.069977 0.036864
-6.594068 10.069977 0.035350
-6.279327 10.069977 0.035174
-5.964586 10.069977 0.035099
-5.649845 10.069977 0.035143
-5.335104 10.069977 0.035311
-5.020363 10.069977 0.035265
-4.705622 10.069977 0.035073
-4.390881 10.069977 0.034809
-4.076140 10.069977 0.034685
-3.761399 10.069977 0.034851
-3.446658 10.069977 0.035035
-3.131917 10.069977 0.035064
-2.817176 10.069977 0.034983
-2.502435 10.069977 0.034791
-2.187694 10.069977 0.034590
-1.872953 10.069977 0.034455
-1.558212 10.069977 0.034543
-1.243471 10.069977 0.034750
-0.928730 10.069977 0.034958
-0.613989 10.069977 0.035258
-0.299248 10.069977 0.035382
0.015493 10.069977 0.035131
0.330234 10.069977 0.034978
0.644975 10.069977 0.035157
0.959716 10.069977 0.035382
1.274457 10.069977 0.035481
1.589198 10.069977 0.035428
1.903938 10.069977 0.035401
2.218679 10.069977 0.035751
2.533421 10.069977 0.036467
2.848162 10.069977 0.037174
3.162903 10.069977 0.037562
3.477644 10.069977 0.037960
3.792385 10.069977 0.038665
4.107125 10.069977 0.039821
4.421866 10.069977 0.041466
4.736608 10.069977 0.043178
5.051349 10.069977 0.045554
5.366090 10.069977 0.048489
5.680831 10.069977 0.052512
5.995571 10.069977 0.057886
6.310312 10.069977 0.065064
6.625053 10.069977 0.073775
6.939795 10.069977 0.084999
7.254536 10.069977 0.104172
7.569277 10.069977 0.139194
7.884017 10.069977 0.205695
8.198758 10.069977 0.324360
8.513499 10.069977 0.500842
8.828240 10.069977 0.722134
9.142982 10.069977 0.961724
9.457723 10.069977 1.208388
9.772464 10.069977 1.468013
10.087205 10.069977 1.719206
10.401946 10.069977 1.942344
10.716687 10.069977 2.154646
11.031426 10.069977 2.360295
11.346168 10.069977 2.534434
11.660909 10.069977 2.674908
11.975650 10.069977 2.830047
12.290391 10.069977 2.972770
12.605132 10.069977 3.115920
12.919873 10.069977 3.243036
13.234614 10.069977 3.304810
13.549356 10.069977 3.362415
13.864097 10.069977 3.381843
14.178838 10.069977 3.434371
14.493579 10.069977 3.401325
14.808320 10.069977 3.324152
15.123059 10.069977 3.457729
15.437800 10.069977 3.755838
15.752542 10.069977 4.098646
16.067284 10.069977 0.000000
16.382023 10.069977 0.000000
16.696766 10.069977 0.000000
17.011505 10.069977 0.000000
17.326248 10.069977 0.000000
17.640987 10.069977 0.000000
17.955730 10.069977 0.000000
18.270470 10.069977 0.000000
18.585213 10.069977 0.000000
18.899952 10.069977 0.000000
-7.223550 9.755238 0.000000
-6.908809 9.755238 0.036981
-6.594068 9.755238 0.035451
-6.279327 9.755238 0.035202
-5.964586 9.755238 0.035126
-5.649845 9.755238 0.035230
-5.335104 9.755238 0.035296
-5.020363 9.755238 0.035132
-4.705622 9.755238 0.034877
-4.390881 9.755238 0.034743
-4.076140 9.755238 0.034654
-3.761399 9.755238 0.034815
-3.446658 9.755238 0.034953
-3.131917 9.755238 0.034926
-2.817176 9.755238 0.034829
-2.502435 9.755238 0.034726
-2.187694 9.755238 0.034653
-1.872953 9.755238 0.034556
-1.558212 9.755238 0.034663
-1.243471 9.755238 0.034874
-0.928730 9.755238 0.035034
-0.613989 9.755238 0.035269
-0.299248 9.755238 0.035375
0.015493 9.755238 0.035167
0.330234 9.755238 0.035010
0.644975 9.755238 0.035088
0.959716 9.755238 0.035233
1.274457 9.755238 0.035332
1.589198 9.755238 0.035353
1.903938 9.755238 0.035438
2.218679 9.755238 0.035808
2.533421 9.755238 0.036526
2.848162 9.755238 0.037221
3.162903 9.755238 0.037480
3.477644 9.755238 0.037855
3.792385 9.755238 0.038709
4.107125 9.755238 0.039960
4.421866 9.755238 0.041610
4.736608 9.755238 0.043314
5.051349 9.755238 0.045486
5.366090 9.755238 0.048699
5.680831 9.755238 0.052932
5.995571 9.755238 0.058322
6.310312 9.755238 0.065358
6.625053 9.755238 0.073652
6.939795 9.755238 0.085559
7.254536 9.755238 0.105195
7.569277 9.755238 0.141106
7.884017 9.755238 0.206077
8.198758 9.755238 0.330716
8.513499 9.755238 0.512262
8.828240 9.755238 0.728277
9.142982 9.755238 0.973835
9.457723 9.755238 1.227889
9.772464 9.755238 1.486819
10.087205 9.755238 1.728806
10.401946 9.755238 1.952609
10.716687 9.755238 2.163891
11.031426 9.755238 2.378833
11.346168 9.755238 2.562210
11.660909 9.755238 2.712128
11.975650 9.755238 2.841888
12.290391 9.755238 3.004898
12.605132 9.755238 3.137646
12.919873 9.755238 3.268439
13.234614 9.755238 3.362278
13.549356 9.755238 3.367115
13.864097 9.755238 3.388717
14.178838 9.755238 3.404701
14.493579 9.755238 3.387645
14.808320 9.755238 3.324544
15.123059 9.755238 3.528146
15.437800 9.755238 3.872766
15.752542 9.755238 4.161067
16.067284 9.755238 0.000000
16.382023 9.755238 0.000000
16.696766 9.755238 0.000000
17.011505 9.755238 0.000000
17.326248 9.755238 0.000000
17.640987 9.755238 0.000000
17.955730 9.755238 0.000000
18.270470 9.755238 0.000000
18.585213 9.755238 0.000000
18.899952 9.755238 0.000000
-7.223550 9.440495 0.000000
-6.908809 9.440495 0.037071
-6.594068 9.440495 0.035492
-6.279327 9.440495 0.035161
-5.964586 9.440495 0.035041
-5.649845 9.440495 0.035113
-5.335104 9.440495 0.035067
-5.020363 9.440495 0.034784
-4.705622 9.440495 0.034591
-4.390881 9.440495 0.034628
-4.076140 9.440495 0.034592
-3.761399 9.440495 0.034734
-3.446658 9.440495 0.034831
-3.131917 9.440495 0.034802
-2.817176 9.440495 0.034757
-2.502435 9.440495 0.034737
-2.187694 9.440495 0.034767
-1.872953 9.440495 0.034710
-1.558212 9.440495 0.034771
-1.243471 9.440495 0.034936
-0.928730 9.440495 0.035048
-0.613989 9.440495 0.035195
-0.299248 9.440495 0.035267
0.015493 9.440495 0.035061
0.330234 9.440495 0.034942
0.644975 9.440495 0.034967
0.959716 9.440495 0.035068
1.274457 9.440495 0.035207
1.589198 9.440495 0.035330
1.903938 9.440495 0.035534
2.218679 9.440495 0.035909
2.533421 9.440495 0.036534
2.848162 9.440495 0.037157
3.162903 9.440495 0.037352
3.477644 9.440495 0.037836
3.792385 9.440495 0.038847
4.107125 9.440495 0.040175
4.421866 9.440495 0.041689
4.736608 9.440495 0.043332
5.051349 9.440495 0.045473
5.366090 9.440495 0.048771
5.680831 9.440495 0.053385
5.995571 9.440495 0.058812
6.310312 9.440495 0.065803
6.625053 9.440495 0.073925
6.939795 9.440495 0.086185
7.254536 9.440495 0.106436
7.569277 9.440495 0.141763
7.884017 9.440495 0.208050
8.198758 9.440495 0.336271
8.513499 9.440495 0.522729
8.828240 9.440495 0.749089
9.142982 9.440495 0.985386
9.457723 9.440495 1.245338
9.772464 9.440495 1.511506
10.087205 9.440495 1.758435
10.401946 9.440495 1.973022
10.716687 9.440495 2.185901
11.031426 9.440495 2.410150
11.346168 9.440495 2.580006
11.660909 9.440495 2.732801
11.975650 9.440495 2.860829
12.290391 9.440495 3.031230
12.605132 9.440495 3.190693
12.919873 9.440495 3.318533
13.234614 9.440495 3.375120
13.549356 9.440495 3.397753
13.864097 9.440495 3.379905
14.178838 9.440495 3.421177
14.493579 9.440495 3.356348
14.808320 9.440495 3.424577
15.123059 9.440495 3.582142
15.437800 9.440495 4.008775
15.752542 9.440495 4.377536
16.067284 9.440495 0.000000
16.382023 9.440495 0.000000
16.696766 9.440495 0.000000
17.011505 9.440495 0.000000
17.326248 9.440495 0.000000
17.640987 9.440495 0.000000
17.955730 9.440495 0.000000
18.270470 9.440495 0.000000
18.585213 9.440495 0.000000
18.899952 9.440495 0.000000
-7.223550 9.125755 0.000000
-6.908809 9.125755 0.037038
-6.594068 9.125755 0.035372
-6.279327 9.125755 0.035022
-5.964586 9.125755 0.034875
-5.649845 9.125755 0.034851
-5.335104 9.125755 0.034730
-5.020363 9.125755 0.034434
-4.705622 9.125755 0.034416
-4.390881 9.125755 0.034576
-4.076140 9.125755 0.034618
-3.761399 9.125755 0.034690
-3.446658 9.125755 0.034724
-3.131917 9.125755 0.034729
-2.817176 9.125755 0.034733
-2.502435 9.125755 0.034757
-2.187694 9.125755 0.034798
-1.872953 9.125755 0.034739
-1.558212 9.125755 0.034739
-1.243471 9.125755 0.034881
-0.928730 9.125755 0.034942
-0.613989 9.125755 0.035002
-0.299248 9.125755 0.034983
0.015493 9.125755 0.034820
0.330234 9.125755 0.034820
0.644975 9.125755 0.034918
0.959716 9.125755 0.035018
1.274457 9.125755 0.035177
1.589198 9.125755 0.035332
1.903938 9.125755 0.035581
2.218679 9.125755 0.035911
2.533421 9.125755 0.036432
2.848162 9.125755 0.036990
3.162903 9.125755 0.037302
3.477644 9.125755 0.037886
3.792385 9.125755 0.038928
4.107125 9.125755 0.040298
4.421866 9.125755 0.041790
4.736608 9.125755 0.043341
5.051349 9.125755 0.045527
5.366090 9.125755 0.048945
5.680831 9.125755 0.053616
5.995571 9.125755 0.059481
6.310312 9.125755 0.065877
6.625053 9.125755 0.074164
6.939795 9.125755 0.087428
7.254536 9.125755 0.108157
7.569277 9.125755 0.142798
7.884017 9.125755 0.211099
8.198758 9.125755 0.345326
8.513499 9.125755 0.534027
8.828240 9.125755 0.761344
9.142982 9.125755 0.992725
9.457723 9.125755 1.252908
9.772464 9.125755 1.519346
10.087205 9.125755 1.779838
10.401946 9.125755 1.997946
10.716687 9.125755 2.209509
11.031426 9.125755 2.425814
11.346168 9.125755 2.579555
11.660909 9.125755 2.726866
11.975650 9.125755 2.860881
12.290391 9.125755 3.013242
12.605132 9.125755 3.185432
12.919873 9.125755 3.286532
13.234614 9.125755 3.363835
13.549356 9.125755 3.412416
13.864097 9.125755 3.434169
14.178838 9.125755 3.391042
14.493579 9.125755 3.369697
14.808320 9.125755 3.437743
15.123059 9.125755 3.615353
15.437800 9.125755 4.183647
15.752542 9.125755 4.355617
16.067284 9.125755 0.000000
16.382023 9.125755 0.000000
16.696766 9.125755 0.000000
17.011505 9.125755 0.000000
17.326248 9.125755 0.000000
17.640987 9.125755 0.000000
17.955730 9.125755 0.000000
18.270470 9.125755 0.000000
18.585213 9.125755 0.000000
18.899952 9.125755 0.000000
-7.223550 8.811016 0.000000
-6.908809 8.811016 0.036882
-6.594068 8.811016 0.035203
-6.279327 8.811016 0.034939
-5.964586 8.811016 0.034817
-5.649845 8.811016 0.034700
-5.335104 8.811016 0.034497
-5.020363 8.811016 0.034303
-4.705622 8.811016 0.034424
-4.390881 8.811016 0.034611
-4.076140 8.811016 0.034668
-3.761399 8.811016 0.034666
-3.446658 8.811016 0.034627
-3.131917 8.811016 0.034641
-2.817176 8.811016 0.034716
-2.502435 8.811016 0.034722
-2.187694 8.811016 0.034723
-1.872953 8.811016 0.034622
-1.558212 8.811016 0.034609
-1.243471 8.811016 0.034784
-0.928730 8.811016 0.034873
-0.613989 8.811016 0.034906
-0.299248 8.811016 0.034809
0.015493 8.811016 0.034658
0.330234 8.811016 0.034781
0.644975 8.811016 0.034957
0.959716 8.811016 0.035052
1.274457 8.811016 0.035187
1.589198 8.811016 0.035334
1.903938 8.811016 0.035554
2.218679 8.811016 0.035864
2.533421 8.811016 0.036329
2.848162 8.811016 0.036857
3.162903 8.811016 0.037307
3.477644 8.811016 0.037981
3.792385 8.811016 0.038986
4.107125 8.811016 0.040291
4.421866 8.811016 0.041830
4.736608 8.811016 0.043425
5.051349 8.811016 0.045720
5.366090 8.811016 0.049179
5.680831 8.811016 0.053952
5.995571 8.811016 0.059382
6.310312 8.811016 0.066343
6.625053 8.811016 0.074930
6.939795 8.811016 0.088501
7.254536 8.811016 0.111032
7.569277 8.811016 0.149651
7.884017 8.811016 0.222609
8.198758 8.811016 0.355617
8.513499 8.811016 0.550429
8.828240 8.811016 0.786249
9.142982 8.811016 1.020758
9.457723 8.811016 1.282048
9.772464 8.811016 1.536259
10.087205 8.811016 1.802418
10.401946 8.811016 2.017347
10.716687 8.811016 2.216707
11.031426 8.811016 2.436970
11.346168 8.811016 2.603521
11.660909 8.811016 2.740877
11.975650 8.811016 2.857229
12.290391 8.811016 2.996818
12.605132 8.811016 3.154254
12.919873 8.811016 3.252115
13.234614 8.811016 3.351622
13.549356 8.811016 3.404273
13.864097 8.811016 3.401234
14.178838 8.811016 3.404541
14.493579 8.811016 3.442051
14.808320 8.811016 3.499111
15.123059 8.811016 3.675071
15.437800 8.811016 4.226035
15.752542 8.811016 4.507410
16.067284 8.811016 0.000000
16.382023 8.811016 0.000000
16.696766 8.811016 0.000000
17.011505 8.811016 0.000000
17.326248 8.811016 0.000000
17.640987 8.811016 0.000000
17.955730 8.811016 0.000000
18.270470 8.811016 0.000000
18.585213 8.811016 0.000000
18.899952 8.811016 0.000000
-7.223550 8.496273 0.000000
-6.908809 8.496273 0.036708
-6.594068 8.496273 0.035065
-6.279327 8.496273 0.034944
-5.964586 8.496273 0.034895
-5.649845 8.496273 0.034729
-5.335104 8.496273 0.034498
-5.020363 8.496273 0.034392
-4.705622 8.496273 0.034509
-4.390881 8.496273 0.034663
-4.076140 8.496273 0.034677
-3.761399 8.496273 0.034612
-3.446658 8.496273 0.034534
-3.131917 8.496273 0.034529
-2.817176 8.496273 0.034625
-2.502435 8.496273 0.034634
-2.187694 8.496273 0.034598
-1.872953 8.496273 0.034502
-1.558212 8.496273 0.034501
-1.243471 8.496273 0.034751
-0.928730 8.496273 0.034887
-0.613989 8.496273 0.034878
-0.299248 8.496273 0.034729
0.015493 8.496273 0.034576
0.330234 8.496273 0.034787
0.644975 8.496273 0.035056
0.959716 8.496273 0.035148
1.274457 8.496273 0.035287
1.589198 8.496273 0.035393
1.903938 8.496273 0.035544
2.218679 8.496273 0.035860
2.533421 8.496273 0.036348
2.848162 8.496273 0.036916
3.162903 8.496273 0.037425
3.477644 8.496273 0.038135
3.792385 8.496273 0.039054
4.107125 8.496273 0.040284
4.421866 8.496273 0.041758
4.736608 8.496273 0.043581
5.051349 8.496273 0.045911
5.366090 8.496273 0.049372
5.680831 8.496273 0.054086
5.995571 8.496273 0.059550
6.310312 8.496273 0.066599
6.625053 8.496273 0.075356
6.939795 8.496273 0.089598
7.254536 8.496273 0.113238
7.569277 8.496273 0.153346
7.884017 8.496273 0.228016
8.198758 8.496273 0.365062
8.513499 8.496273 0.572692
8.828240 8.496273 0.799564
9.142982 8.496273 1.039090
9.457723 8.496273 1.297480
9.772464 8.496273 1.548474
10.087205 8.496273 1.811439
10.401946 8.496273 2.035093
10.716687 8.496273 2.226035
11.031426 8.496273 2.435570
11.346168 8.496273 2.607210
11.660909 8.496273 2.733329
11.975650 8.496273 2.848300
12.290391 8.496273 2.966034
12.605132 8.496273 3.119868
12.919873 8.496273 3.221208
13.234614 8.496273 3.334459
13.549356 8.496273 3.402798
13.864097 8.496273 3.408167
14.178838 8.496273 3.429149
14.493579 8.496273 3.487898
14.808320 8.496273 3.523889
15.123059 8.496273 3.696957
15.437800 8.496273 4.390537
15.752542 8.496273 4.959807
16.067284 8.496273 0.000000
16.382023 8.496273 0.000000
16.696766 8.496273 0.000000
17.011505 8.496273 0.000000
17.326248 8.496273 0.000000
17.640987 8.496273 0.000000
17.955730 8.496273 0.000000
18.270470 8.496273 0.000000
18.585213 8.496273 0.000000
18.899952 8.496273 0.000000
-7.223550 8.181534 0.000000
-6.908809 8.181534 0.036584
-6.594068 8.181534 0.035061
-6.279327 8.181534 0.035003
-5.964586 8.181534 0.034995
-5.649845 8.181534 0.034809
-5.335104 8.181534 0.034584
-5.020363 8.181534 0.034537
-4.705622 8.181534 0.034572
-4.390881 8.181534 0.034619
-4.076140 8.181534 0.034556
-3.761399 8.181534 0.034495
-3.446658 8.181534 0.034503
-3.131917 8.181534 0.034532
-2.817176 8.181534 0.034599
-2.502435 8.181534 0.034586
-2.187694 8.181534 0.034525
-1.872953 8.181534 0.034443
-1.558212 8.181534 0.034499
-1.243471 8.181534 0.034774
-0.928730 8.181534 0.034904
-0.613989 8.181534 0.034855
-0.299248 8.181534 0.034735
0.015493 8.181534 0.034604
0.330234 8.181534 0.034824
0.644975 8.181534 0.035121
0.959716 8.181534 0.035187
1.274457 8.181534 0.035376
1.589198 8.181534 0.035501
1.903938 8.181534 0.035588
2.218679 8.181534 0.035884
2.533421 8.181534 0.036451
2.848162 8.181534 0.037060
3.162903 8.181534 0.037591
3.477644 8.181534 0.038259
3.792385 8.181534 0.039095
4.107125 8.181534 0.040252
4.421866 8.181534 0.041917
4.736608 8.181534 0.043775
5.051349 8.181534 0.046284
5.366090 8.181534 0.049819
5.680831 8.181534 0.054390
5.995571 8.181534 0.059901
6.310312 8.181534 0.067209
6.625053 8.181534 0.076017
6.939795 8.181534 0.090159
7.254536 8.181534 0.114129
7.569277 8.181534 0.156728
7.884017 8.181534 0.236424
8.198758 8.181534 0.377594
8.513499 8.181534 0.586711
8.828240 8.181534 0.820345
9.142982 8.181534 1.068756
9.457723 8.181534 1.316726
9.772464 8.181534 1.576201
10.087205 8.181534 1.823867
10.401946 8.181534 2.054595
10.716687 8.181534 2.248234
11.031426 8.181534 2.446065
11.346168 8.181534 2.616910
11.660909 8.181534 2.759790
11.975650 8.181534 2.875728
12.290391 8.181534 2.961526
12.605132 8.181534 3.074914
12.919873 8.181534 3.198145
13.234614 8.181534 3.330419
13.549356 8.181534 3.436665
13.864097 8.181534 3.451347
14.178838 8.181534 3.497816
14.493579 8.181534 3.518775
14.808320 8.181534 3.569074
15.123059 8.181534 3.814438
15.437800 8.181534 4.595335
15.752542 8.181534 5.282276
16.067284 8.181534 0.000000
16.382023 8.181534 0.000000
16.696766 8.181534 0.000000
17.011505 8.181534 0.000000
17.326248 8.181534 0.000000
17.640987 8.181534 0.000000
17.955730 8.181534 0.000000
18.270470 8.181534 0.000000
18.585213 8.181534 0.000000
18.899952 8.181534 0.000000
-7.223550 7.866791 0.000000
-6.908809 7.866791 0.036461
-6.594068 7.866791 0.035056
-6.279327 7.866791 0.035002
-5.964586 7.866791 0.035017
-5.649845 7.866791 0.034859
-5.335104 7.866791 0.034690
-5.020363 7.866791 0.034639
-4.705622 7.866791 0.034590
-4.390881 7.866791 0.034601
-4.076140 7.866791 0.034482
-3.761399 7.866791 0.034435
-3.446658 7.866791 0.034533
-3.131917 7.866791 0.034609
-2.817176 7.866791 0.034634
-2.502435 7.866791 0.034574
-2.187694 7.866791 0.034539
-1.872953 7.866791 0.034520
-1.558212 7.866791 0.034601
-1.243471 7.866791 0.034792
-0.928730 7.866791 0.034823
-0.613989 7.866791 0.034759
-0.299248 7.866791 0.034705
0.015493 7.866791 0.034598
0.330234 7.866791 0.034780
0.644975 7.866791 0.035078
0.959716 7.866791 0.035164
1.274457 7.866791 0.035411
1.589198 7.866791 0.035649
1.903938 7.866791 0.035703
2.218679 7.866791 0.035990
2.533421 7.866791 0.036624
2.848162 7.866791 0.037271
3.162903 7.866791 0.037750
3.477644 7.866791 0.038371
3.792385 7.866791 0.039087
4.107125 7.866791 0.040236
4.421866 7.866791 0.042042
4.736608 7.866791 0.044076
5.051349 7.866791 0.046605
5.366090 7.866791 0.050242
5.680831 7.866791 0.054971
5.995571 7.866791 0.060554
6.310312 7.866791 0.068034
6.625053 7.866791 0.076789
6.939795 7.866791 0.091722
7.254536 7.866791 0.116672
7.569277 7.866791 0.158209
7.884017 7.866791 0.237772
8.198758 7.866791 0.386526
8.513499 7.866791 0.600230
8.828240 7.866791 0.826718
9.142982 7.866791 1.097563
9.457723 7.866791 1.336763
9.772464 7.866791 1.600557
10.087205 7.866791 1.838632
10.401946 7.866791 2.073747
10.716687 7.866791 2.261717
11.031426 7.866791 2.462255
11.346168 7.866791 2.619643
11.660909 7.866791 2.759523
11.975650 7.866791 2.890259
12.290391 7.866791 2.970093
12.605132 7.866791 3.110677
12.919873 7.866791 3.196816
13.234614 7.866791 3.285306
13.549356 7.866791 3.385717
13.864097 7.866791 3.448957
14.178838 7.866791 3.483164
14.493579 7.866791 3.482890
14.808320 7.866791 3.556377
15.123059 7.866791 3.876199
15.437800 7.866791 4.761947
15.752542 7.866791 5.561084
16.067284 7.866791 0.000000
16.382023 7.866791 0.000000
16.696766 7.866791 0.000000
17.011505 7.866791 0.000000
17.326248 7.866791 0.000000
17.640987 7.866791 0.000000
17.955730 7.866791 0.000000
18.270470 7.866791 0.000000
18.585213 7.866791 0.000000
18.899952 7.866791 0.000000
-7.223550 7.552052 0.000000
-6.908809 7.552052 0.036325
-6.594068 7.552052 0.034963
-6.279327 7.552052 0.034925
-5.964586 7.552052 0.034980
-5.649845 7.552052 0.034898
-5.335104 7.552052 0.034833
-5.020363 7.552052 0.034791
-4.705622 7.552052 0.034708
-4.390881 7.552052 0.034635
-4.076140 7.552052 0.034492
-3.761399 7.552052 0.034471
-3.446658 7.552052 0.034618
-3.131917 7.552052 0.034680
-2.817176 7.552052 0.034658
-2.502435 7.552052 0.034588
-2.187694 7.552052 0.034598
-1.872953 7.552052 0.034653
-1.558212 7.552052 0.034688
-1.243471 7.552052 0.034694
-0.928730 7.552052 0.034595
-0.613989 7.552052 0.034550
-0.299248 7.552052 0.034606
0.015493 7.552052 0.034572
0.330234 7.552052 0.034666
0.644975 7.552052 0.034906
0.959716 7.552052 0.035030
1.274457 7.552052 0.035356
1.589198 7.552052 0.035714
1.903938 7.552052 0.035786
2.218679 7.552052 0.036044
2.533421 7.552052 0.036744
2.848162 7.552052 0.037386
3.162903 7.552052 0.037804
3.477644 7.552052 0.038367
3.792385 7.552052 0.039085
4.107125 7.552052 0.040190
4.421866 7.552052 0.042089
4.736608 7.552052 0.044220
5.051349 7.552052 0.046705
5.366090 7.552052 0.050543
5.680831 7.552052 0.055540
5.995571 7.552052 0.061438
6.310312 7.552052 0.069022
6.625053 7.552052 0.077974
6.939795 7.552052 0.091846
7.254536 7.552052 0.117641
7.569277 7.552052 0.160786
7.884017 7.552052 0.246583
8.198758 7.552052 0.397669
8.513499 7.552052 0.610633
8.828240 7.552052 0.845866
9.142982 7.552052 1.109576
9.457723 7.552052 1.369039
9.772464 7.552052 1.620635
10.087205 7.552052 1.860566
10.401946 7.552052 2.082689
10.716687 7.552052 2.282230
11.031426 7.552052 2.478424
11.346168 7.552052 2.632265
11.660909 7.552052 2.761408
11.975650 7.552052 2.878949
12.290391 7.552052 2.982885
12.605132 7.552052 3.093894
12.919873 7.552052 3.189271
13.234614 7.552052 3.263205
13.549356 7.552052 3.375128
13.864097 7.552052 3.395582
14.178838 7.552052 3.439490
14.493579 7.552052 3.418619
14.808320 7.552052 3.566865
15.123059 7.552052 3.804720
15.437800 7.552052 4.600488
15.752542 7.552052 5.496095
16.067284 7.552052 0.000000
16.382023 7.552052 0.000000
16.696766 7.552052 0.000000
17.011505 7.552052 0.000000
17.326248 7.552052 0.000000
17.640987 7.552052 0.000000
17.955730 7.552052 0.000000
18.270470 7.552052 0.000000
18.585213 7.552052 0.000000
18.899952 7.552052 0.000000
-7.223550 7.237309 0.000000
-6.908809 7.237309 0.036256
-6.594068 7.237309 0.034944
-6.279327 7.237309 0.034889
-5.964586 7.237309 0.034969
-5.649845 7.237309 0.035008
-5.335104 7.237309 0.035028
-5.020363 7.237309 0.034993
-4.705622 7.237309 0.034830
-4.390881 7.237309 0.034705
-4.076140 7.237309 0.034574
-3.761399 7.237309 0.034560
-3.446658 7.237309 0.034663
-3.131917 7.237309 0.034644
-2.817176 7.237309 0.034570
-2.502435 7.237309 0.034557
-2.187694 7.237309 0.034673
-1.872953 7.237309 0.034800
-1.558212 7.237309 0.034763
-1.243471 7.237309 0.034577
-0.928730 7.237309 0.034390
-0.613989 7.237309 0.034400
-0.299248 7.237309 0.034546
0.015493 7.237309 0.034551
0.330234 7.237309 0.034573
0.644975 7.237309 0.034735
0.959716 7.237309 0.034863
1.274457 7.237309 0.035212
1.589198 7.237309 0.035613
1.903938 7.237309 0.035818
2.218679 7.237309 0.036102
2.533421 7.237309 0.036712
2.848162 7.237309 0.037308
3.162903 7.237309 0.037694
3.477644 7.237309 0.038210
3.792385 7.237309 0.038923
4.107125 7.237309 0.040134
4.421866 7.237309 0.041930
4.736608 7.237309 0.044100
5.051349 7.237309 0.046745
5.366090 7.237309 0.050639
5.680831 7.237309 0.056063
5.995571 7.237309 0.062581
6.310312 7.237309 0.069565
6.625053 7.237309 0.078491
6.939795 7.237309 0.093082
7.254536 7.237309 0.118092
7.569277 7.237309 0.163925
7.884017 7.237309 0.251489
8.198758 7.237309 0.409203
8.513499 7.237309 0.617390
8.828240 7.237309 0.858472
9.142982 7.237309 1.118545
9.457723 7.237309 1.390111
9.772464 7.237309 1.630445
10.087205 7.237309 1.866880
10.401946 7.237309 2.083227
10.716687 7.237309 2.290240
11.031426 7.237309 2.483136
11.346168 7.237309 2.666172
11.660909 7.237309 2.781304
11.975650 7.237309 2.893801
12.290391 7.237309 3.013219
12.605132 7.237309 3.131142
12.919873 7.237309 3.197550
13.234614 7.237309 3.299140
13.549356 7.237309 3.349314
13.864097 7.237309 3.378345
14.178838 7.237309 3.368428
14.493579 7.237309 3.429203
14.808320 7.237309 3.544616
15.123059 7.237309 3.876877
15.437800 7.237309 4.743501
15.752542 7.237309 5.565159
16.067284 7.237309 0.000000
16.382023 7.237309 0.000000
16.696766 7.237309 0.000000
17.011505 7.237309 0.000000
17.326248 7.237309 0.000000
17.640987 7.237309 0.000000
17.955730 7.237309 0.000000
18.270470 7.237309 0.000000
18.585213 7.237309 0.000000
18.899952 7.237309 0.000000
-7.223550 6.922569 0.000000
-6.908809 6.922569 0.036363
-6.594068 6.922569 0.034999
-6.279327 6.922569 0.034937
-5.964586 6.922569 0.035035
-5.649845 6.922569 0.035153
-5.335104 6.922569 0.035227
-5.020363 6.922569 0.035153
-4.705622 6.922569 0.034912
-4.390881 6.922569 0.034741
-4.076140 6.922569 0.034630
-3.761399 6.922569 0.034637
-3.446658 6.922569 0.034690
-3.131917 6.922569 0.034562
-2.817176 6.922569 0.034413
-2.502435 6.922569 0.034513
-2.187694 6.922569 0.034784
-1.872953 6.922569 0.034995
-1.558212 6.922569 0.034843
-1.243471 6.922569 0.034487
-0.928730 6.922569 0.034268
-0.613989 6.922569 0.034335
-0.299248 6.922569 0.034556
0.015493 6.922569 0.034599
0.330234 6.922569 0.034636
0.644975 6.922569 0.034686
0.959716 6.922569 0.034792
1.274457 6.922569 0.035059
1.589198 6.922569 0.035434
1.903938 6.922569 0.035728
2.218679 6.922569 0.036143
2.533421 6.922569 0.036653
2.848162 6.922569 0.037216
3.162903 6.922569 0.037589
3.477644 6.922569 0.038077
3.792385 6.922569 0.038795
4.107125 6.922569 0.040086
4.421866 6.922569 0.041852
4.736608 6.922569 0.044095
5.051349 6.922569 0.046906
5.366090 6.922569 0.050820
5.680831 6.922569 0.056176
5.995571 6.922569 0.063048
6.310312 6.922569 0.070156
6.625053 6.922569 0.079763
6.939795 6.922569 0.095148
7.254536 6.922569 0.122775
7.569277 6.922569 0.171676
7.884017 6.922569 0.268045
8.198758 6.922569 0.420478
8.513499 6.922569 0.629908
8.828240 6.922569 0.877842
9.142982 6.922569 1.149122
9.457723 6.922569 1.402273
9.772464 6.922569 1.641745
10.087205 6.922569 1.866397
10.401946 6.922569 2.086195
10.716687 6.922569 2.289806
11.031426 6.922569 2.510133
11.346168 6.922569 2.677541
11.660909 6.922569 2.817780
11.975650 6.922569 2.921962
12.290391 6.922569 3.041369
12.605132 6.922569 3.150659
12.919873 6.922569 3.242370
13.234614 6.922569 3.269129
13.549356 6.922569 3.302695
13.864097 6.922569 3.340734
14.178838 6.922569 3.392518
14.493579 6.922569 3.415426
14.808320 6.922569 3.551093
15.123059 6.922569 3.886293
15.437800 6.922569 4.726442
15.752542 6.922569 5.591463
16.067284 6.922569 0.000000
16.382023 6.922569 0.000000
16.696766 6.922569 0.000000
17.011505 6.922569 0.000000
17.326248 6.922569 0.000000
17.640987 6.922569 0.000000
17.955730 6.922569 0.000000
18.270470 6.922569 0.000000
18.585213 6.922569 0.000000
18.899952 6.922569 0.000000
-7.223550 6.607826 0.000000
-6.908809 6.607826 0.036619
-6.594068 6.607826 0.035104
-6.279327 6.607826 0.034990
-5.964586 6.607826 0.035094
-5.649845 6.607826 0.035244
-5.335104 6.607826 0.035304
-5.020363 6.607826 0.035166
-4.705622 6.607826 0.034910
-4.390881 6.607826 0.034739
-4.076140 6.607826 0.034643
-3.761399 6.607826 0.034692
-3.446658 6.607826 0.034713
-3.131917 6.607826 0.034514
-2.817176 6.607826 0.034331
-2.502435 6.607826 0.034513
-2.187694 6.607826 0.034865
-1.872953 6.607826 0.035027
-1.558212 6.607826 0.034832
-1.243471 6.607826 0.034492
-0.928730 6.607826 0.034307
-0.613989 6.607826 0.034372
-0.299248 6.607826 0.034581
0.015493 6.607826 0.034651
0.330234 6.607826 0.034785
0.644975 6.607826 0.034785
0.959716 6.607826 0.034805
1.274457 6.607826 0.034994
1.589198 6.607826 0.035256
1.903938 6.607826 0.035640
2.218679 6.607826 0.036112
2.533421 6.607826 0.036593
2.848162 6.607826 0.037186
3.162903 6.607826 0.037606
3.477644 6.607826 0.038097
3.792385 6.607826 0.038850
4.107125 6.607826 0.040148
4.421866 6.607826 0.041890
4.736608 6.607826 0.044112
5.051349 6.607826 0.047029
5.366090 6.607826 0.051039
5.680831 6.607826 0.056154
5.995571 6.607826 0.062939
6.310312 6.607826 0.070360
6.625053 6.607826 0.081178
6.939795 6.607826 0.096717
7.254536 6.607826 0.125882
7.569277 6.607826 0.176388
7.884017 6.607826 0.276546
8.198758 6.607826 0.433925
8.513499 6.607826 0.638381
8.828240 6.607826 0.898325
9.142982 6.607826 1.171071
9.457723 6.607826 1.412895
9.772464 6.607826 1.652580
10.087205 6.607826 1.876730
10.401946 6.607826 2.091016
10.716687 6.607826 2.304374
11.031426 6.607826 2.503044
11.346168 6.607826 2.676489
11.660909 6.607826 2.799068
11.975650 6.607826 2.946685
12.290391 6.607826 3.074525
12.605132 6.607826 3.193164
12.919873 6.607826 3.236936
13.234614 6.607826 3.275333
13.549356 6.607826 3.294644
13.864097 6.607826 3.320907
14.178838 6.607826 3.369001
14.493579 6.607826 3.442709
14.808320 6.607826 3.578750
15.123059 6.607826 3.968185
15.437800 6.607826 4.882728
15.752542 6.607826 5.572876
16.067284 6.607826 0.000000
16.382023 6.607826 0.000000
16.696766 6.607826 0.000000
17.011505 6.607826 0.000000
17.326248 6.607826 0.000000
17.640987 6.607826 0.000000
17.955730 6.607826 0.000000
18.270470 6.607826 0.000000
18.585213 6.607826 0.000000
18.899952 6.607826 0.000000
-7.223550 6.293087 0.000000
-6.908809 6.293087 0.036823
-6.594068 6.293087 0.035166
-6.279327 6.293087 0.034990
-5.964586 6.293087 0.035115
-5.649845 6.293087 0.035264
-5.335104 6.293087 0.035280
-5.020363 6.293087 0.035143
-4.705622 6.293087 0.034900
-4.390881 6.293087 0.034717
-4.076140 6.293087 0.034642
-3.761399 6.293087 0.034712
-3.446658 6.293087 0.034687
-3.131917 6.293087 0.034478
-2.817176 6.293087 0.034357
-2.502435 6.293087 0.034556
-2.187694 6.293087 0.034851
-1.872953 6.293087 0.034942
-1.558212 6.293087 0.034775
-1.243471 6.293087 0.034566
-0.928730 6.293087 0.034422
-0.613989 6.293087 0.034478
-0.299248 6.293087 0.034611
0.015493 6.293087 0.034695
0.330234 6.293087 0.034952
0.644975 6.293087 0.034925
0.959716 6.293087 0.034858
1.274457 6.293087 0.034992
1.589198 6.293087 0.035165
1.903938 6.293087 0.035595
2.218679 6.293087 0.036146
2.533421 6.293087 0.036642
2.848162 6.293087 0.037249
3.162903 6.293087 0.037698
3.477644 6.293087 0.038130
3.792385 6.293087 0.038951
4.107125 6.293087 0.040241
4.421866 6.293087 0.041942
4.736608 6.293087 0.044076
5.051349 6.293087 0.047008
5.366090 6.293087 0.051028
5.680831 6.293087 0.056334
5.995571 6.293087 0.062743
6.310312 6.293087 0.070840
6.625053 6.293087 0.081685
6.939795 6.293087 0.098174
7.254536 6.293087 0.130298
7.569277 6.293087 0.181957
7.884017 6.293087 0.280801
8.198758 6.293087 0.447845
8.513499 6.293087 0.666532
8.828240 6.293087 0.911784
9.142982 6.293087 1.175941
9.457723 6.293087 1.441731
9.772464 6.293087 1.676779
10.087205 6.293087 1.895539
10.401946 6.293087 2.104881
10.716687 6.293087 2.306940
11.031426 6.293087 2.502483
11.346168 6.293087 2.677751
11.660909 6.293087 2.830121
11.975650 6.293087 2.966534
12.290391 6.293087 3.108861
12.605132 6.293087 3.208650
12.919873 6.293087 3.256558
13.234614 6.293087 3.302568
13.549356 6.293087 3.292767
13.864097 6.293087 3.309841
14.178838 6.293087 3.384017
14.493579 6.293087 3.469820
14.808320 6.293087 3.608821
15.123059 6.293087 3.985143
15.437800 6.293087 4.980209
15.752542 6.293087 5.791747
16.067284 6.293087 0.000000
16.382023 6.293087 0.000000
16.696766 6.293087 0.000000
17.011505 6.293087 0.000000
17.326248 6.293087 0.000000
17.640987 6.293087 0.000000
17.955730 6.293087 0.000000
18.270470 6.293087 0.000000
18.585213 6.293087 0.000000
18.899952 6.293087 0.000000
-7.223550 5.978344 0.000000
-6.908809 5.978344 0.036922
-6.594068 5.978344 0.035193
-6.279327 5.978344 0.035007
-5.964586 5.978344 0.035126
-5.649845 5.978344 0.035235
-5.335104 5.978344 0.035160
-5.020363 5.978344 0.035086
-4.705622 5.978344 0.034936
-4.390881 5.978344 0.034766
-4.076140 5.978344 0.034699
-3.761399 5.978344 0.034736
-3.446658 5.978344 0.034708
-3.131917 5.978344 0.034509
-2.817176 5.978344 0.034414
-2.502435 5.978344 0.034512
-2.187694 5.978344 0.034681
-1.872953 5.978344 0.034767
-1.558212 5.978344 0.034729
-1.243471 5.978344 0.034696
-0.928730 5.978344 0.034618
-0.613989 5.978344 0.034615
-0.299248 5.978344 0.034629
0.015493 5.978344 0.034721
0.330234 5.978344 0.035050
0.644975 5.978344 0.035047
0.959716 5.978344 0.034940
1.274457 5.978344 0.035050
1.589198 5.978344 0.035238
1.903938 5.978344 0.035642
2.218679 5.978344 0.036235
2.533421 5.978344 0.036718
2.848162 5.978344 0.037285
3.162903 5.978344 0.037720
3.477644 5.978344 0.038228
3.792385 5.978344 0.038990
4.107125 5.978344 0.040285
4.421866 5.978344 0.042047
4.736608 5.978344 0.044120
5.051349 5.978344 0.047011
5.366090 5.978344 0.051077
5.680831 5.978344 0.056457
5.995571 5.978344 0.063318
6.310312 5.978344 0.071937
6.625053 5.978344 0.083118
6.939795 5.978344 0.099663
7.254536 5.978344 0.130449
7.569277 5.978344 0.184098
7.884017 5.978344 0.288642
8.198758 5.978344 0.456523
8.513499 5.978344 0.685861
8.828240 5.978344 0.926141
9.142982 5.978344 1.187045
9.457723 5.978344 1.457874
9.772464 5.978344 1.698249
10.087205 5.978344 1.916986
10.401946 5.978344 2.103338
10.716687 5.978344 2.314211
11.031426 5.978344 2.518453
11.346168 5.978344 2.666100
11.660909 5.978344 2.818863
11.975650 5.978344 2.982607
12.290391 5.978344 3.084682
12.605132 5.978344 3.222481
12.919873 5.978344 3.268586
13.234614 5.978344 3.300110
13.549356 5.978344 3.297952
13.864097 5.978344 3.349337
14.178838 5.978344 3.385116
14.493579 5.978344 3.455456
14.808320 5.978344 3.605150
15.123059 5.978344 4.080047
15.437800 5.978344 5.112654
15.752542 5.978344 5.814749
16.067284 5.978344 0.000000
16.382023 5.978344 0.000000
16.696766 5.978344 0.000000
17.011505 5.978344 0.000000
17.326248 5.978344 0.000000
17.640987 5.978344 0.000000
17.955730 5.978344 0.000000
18.270470 5.978344 0.000000
18.585213 5.978344 0.000000
18.899952 5.978344 0.000000
-7.223550 5.663605 0.000000
-6.908809 5.663605 0.036956
-6.594068 5.663605 0.035281
-6.279327 5.663605 0.035103
-5.964586 5.663605 0.035155
-5.649845 5.663605 0.035096
-5.335104 5.663605 0.034992
-5.020363 5.663605 0.035014
-4.705622 5.663605 0.034973
-4.390881 5.663605 0.034860
-4.076140 5.663605 0.034790
-3.761399 5.663605 0.034766
-3.446658 5.663605 0.034700
-3.131917 5.663605 0.034554
-2.817176 5.663605 0.034522
-2.502435 5.663605 0.034478
-2.187694 5.663605 0.034477
-1.872953 5.663605 0.034609
-1.558212 5.663605 0.034709
-1.243471 5.663605 0.034796
-0.928730 5.663605 0.034795
-0.613989 5.663605 0.034727
-0.299248 5.663605 0.034735
0.015493 5.663605 0.034804
0.330234 5.663605 0.035105
0.644975 5.663605 0.035117
0.959716 5.663605 0.035033
1.274457 5.663605 0.035167
1.589198 5.663605 0.035373
1.903938 5.663605 0.035701
2.218679 5.663605 0.036241
2.533421 5.663605 0.036729
2.848162 5.663605 0.037259
3.162903 5.663605 0.037672
3.477644 5.663605 0.038207
3.792385 5.663605 0.038960
4.107125 5.663605 0.040228
4.421866 5.663605 0.042091
4.736608 5.663605 0.044299
5.051349 5.663605 0.047264
5.366090 5.663605 0.051262
5.680831 5.663605 0.057028
5.995571 5.663605 0.063790
6.310312 5.663605 0.072385
6.625053 5.663605 0.083129
6.939795 5.663605 0.100410
7.254536 5.663605 0.131244
7.569277 5.663605 0.190058
7.884017 5.663605 0.297367
8.198758 5.663605 0.472395
8.513499 5.663605 0.703657
8.828240 5.663605 0.951832
9.142982 5.663605 1.219811
9.457723 5.663605 1.476142
9.772464 5.663605 1.723655
10.087205 5.663605 1.920495
10.401946 5.663605 2.111368
10.716687 5.663605 2.305904
11.031426 5.663605 2.512319
11.346168 5.663605 2.661693
11.660909 5.663605 2.816203
11.975650 5.663605 2.981363
12.290391 5.663605 3.116171
12.605132 5.663605 3.220447
12.919873 5.663605 3.286469
13.234614 5.663605 3.304714
13.549356 5.663605 3.369080
13.864097 5.663605 3.413592
14.178838 5.663605 3.421127
14.493579 5.663605 3.526877
14.808320 5.663605 3.641725
15.123059 5.663605 4.110525
15.437800 5.663605 5.213565
15.752542 5.663605 5.735163
16.067284 5.663605 0.000000
16.382023 5.663605 0.000000
16.696766 5.663605 0.000000
17.011505 5.663605 0.000000
17.326248 5.663605 0.000000
17.640987 5.663605 0.000000
17.955730 5.663605 0.000000
18.270470 5.663605 0.000000
18.585213 5.663605 0.000000
18.899952 5.663605 0.000000
-7.223550 5.348862 0.000000
-6.908809 5.348862 0.036963
-6.594068 5.348862 0.035364
-6.279327 5.348862 0.035213
-5.964586 5.348862 0.035105
-5.649845 5.348862 0.034908
-5.335104 5.348862 0.034776
-5.020363 5.348862 0.034946
-4.705622 5.348862 0.035002
-4.390881 5.348862 0.034930
-4.076140 5.348862 0.034836
-3.761399 5.348862 0.034739
-3.446658 5.348862 0.034686
-3.131917 5.348862 0.034612
-2.817176 5.348862 0.034647
-2.502435 5.348862 0.034555
-2.187694 5.348862 0.034420
-1.872953 5.348862 0.034537
-1.558212 5.348862 0.034713
-1.243471 5.348862 0.034863
-0.928730 5.348862 0.034876
-0.613989 5.348862 0.034794
-0.299248 5.348862 0.034840
0.015493 5.348862 0.034966
0.330234 5.348862 0.035176
0.644975 5.348862 0.035142
0.959716 5.348862 0.035094
1.274457 5.348862 0.035269
1.589198 5.348862 0.035486
1.903938 5.348862 0.035697
2.218679 5.348862 0.036132
2.533421 5.348862 0.036671
2.848162 5.348862 0.037274
3.162903 5.348862 0.037706
3.477644 5.348862 0.038227
3.792385 5.348862 0.039046
4.107125 5.348862 0.040291
4.421866 5.348862 0.042261
4.736608 5.348862 0.044588
5.051349 5.348862 0.047618
5.366090 5.348862 0.051594
5.680831 5.348862 0.056839
5.995571 5.348862 0.064146
6.310312 5.348862 0.072118
6.625053 5.348862 0.084050
6.939795 5.348862 0.102599
7.254536 5.348862 0.135154
7.569277 5.348862 0.197341
7.884017 5.348862 0.310714
8.198758 5.348862 0.493684
8.513499 5.348862 0.713776
8.828240 5.348862 0.977199
9.142982 5.348862 1.250470
9.457723 5.348862 1.507553
9.772464 5.348862 1.750466
10.087205 5.348862 1.949927
10.401946 5.348862 2.123392
10.716687 5.348862 2.328084
11.031426 5.348862 2.508054
11.346168 5.348862 2.648542
11.660909 5.348862 2.815907
11.975650 5.348862 2.966592
12.290391 5.348862 3.138380
12.605132 5.348862 3.228034
12.919873 5.348862 3.247451
13.234614 5.348862 3.299240
13.549356 5.348862 3.333245
13.864097 5.348862 3.420912
14.178838 5.348862 3.437597
14.493579 5.348862 3.530854
14.808320 5.348862 3.684319
15.123059 5.348862 4.158346
15.437800 5.348862 5.222611
15.752542 5.348862 5.722604
16.067284 5.348862 0.000000
16.382023 5.348862 0.000000
16.696766 5.348862 0.000000
17.011505 5.348862 0.000000
17.326248 5.348862 0.000000
17.640987 5.348862 0.000000
17.955730 5.348862 0.000000
18.270470 5.348862 0.000000
18.585213 5.348862 0.000000
18.899952 5.348862 0.000000
-7.223550 5.034122 0.000000
-6.908809 5.034122 0.036903
-6.594068 5.034122 0.035400
-6.279327 5.034122 0.035233
-5.964586 5.034122 0.035026
-5.649845 5.034122 0.034737
-5.335104 5.034122 0.034655
-5.020363 5.034122 0.034827
-4.705622 5.034122 0.035006
-4.390881 5.034122 0.034985
-4.076140 5.034122 0.034841
-3.761399 5.034122 0.034689
-3.446658 5.034122 0.034706
-3.131917 5.034122 0.034741
-2.817176 5.034122 0.034806
-2.502435 5.034122 0.034714
-2.187694 5.034122 0.034490
-1.872953 5.034122 0.034551
-1.558212 5.034122 0.034739
-1.243471 5.034122 0.034880
-0.928730 5.034122 0.034879
-0.613989 5.034122 0.034800
-0.299248 5.034122 0.034927
0.015493 5.034122 0.035153
0.330234 5.034122 0.035210
0.644975 5.034122 0.035090
0.959716 5.034122 0.035076
1.274457 5.034122 0.035297
1.589198 5.034122 0.035489
1.903938 5.034122 0.035668
2.218679 5.034122 0.036018
2.533421 5.034122 0.036577
2.848162 5.034122 0.037300
3.162903 5.034122 0.037856
3.477644 5.034122 0.038384
3.792385 5.034122 0.039199
4.107125 5.034122 0.040556
4.421866 5.034122 0.042552
4.736608 5.034122 0.045074
5.051349 5.034122 0.047978
5.366090 5.034122 0.051960
5.680831 5.034122 0.057160
5.995571 5.034122 0.064395
6.310312 5.034122 0.072534
6.625053 5.034122 0.084705
6.939795 5.034122 0.103326
7.254536 5.034122 0.139511
7.569277 5.034122 0.208647
7.884017 5.034122 0.329485
8.198758 5.034122 0.518603
8.513499 5.034122 0.742672
8.828240 5.034122 1.009670
9.142982 5.034122 1.274693
9.457723 5.034122 1.530632
9.772464 5.034122 1.767572
10.087205 5.034122 1.953968
10.401946 5.034122 2.130940
10.716687 5.034122 2.338437
11.031426 5.034122 2.506881
11.346168 5.034122 2.645472
11.660909 5.034122 2.809491
11.975650 5.034122 2.962979
12.290391 5.034122 3.107467
12.605132 5.034122 3.205771
12.919873 5.034122 3.250169
13.234614 5.034122 3.314409
13.549356 5.034122 3.357044
13.864097 5.034122 3.391856
14.178838 5.034122 3.430896
14.493579 5.034122 3.509090
14.808320 5.034122 3.758703
15.123059 5.034122 4.134615
15.437800 5.034122 5.112901
15.752542 5.034122 5.640328
16.067284 5.034122 0.000000
16.382023 5.034122 0.000000
16.696766 5.034122 0.000000
17.011505 5.034122 0.000000
17.326248 5.034122 0.000000
17.640987 5.034122 0.000000
17.955730 5.034122 0.000000
18.270470 5.034122 0.000000
18.585213 5.034122 0.000000
18.899952 5.034122 0.000000
-7.223550 4.719383 0.000000
-6.908809 4.719383 0.036788
-6.594068 4.719383 0.035394
-6.279327 4.719383 0.035195
-5.964586 4.719383 0.034930
-5.649845 4.719383 0.034656
-5.335104 4.719383 0.034603
-5.020363 4.719383 0.034864
-4.705622 4.719383 0.035088
-4.390881 4.719383 0.035081
-4.076140 4.719383 0.034864
-3.761399 4.719383 0.034658
-3.446658 4.719383 0.034749
-3.131917 4.719383 0.034922
-2.817176 4.719383 0.035005
-2.502435 4.719383 0.034980
-2.187694 4.719383 0.034668
-1.872953 4.719383 0.034566
-1.558212 4.719383 0.034712
-1.243471 4.719383 0.034814
-0.928730 4.719383 0.034832
-0.613989 4.719383 0.034749
-0.299248 4.719383 0.034895
0.015493 4.719383 0.035241
0.330234 4.719383 0.035305
0.644975 4.719383 0.035111
0.959716 4.719383 0.035096
1.274457 4.719383 0.035298
1.589198 4.719383 0.035462
1.903938 4.719383 0.035619
2.218679 4.719383 0.035922
2.533421 4.719383 0.036552
2.848162 4.719383 0.037371
3.162903 4.719383 0.038049
3.477644 4.719383 0.038650
3.792385 4.719383 0.039478
4.107125 4.719383 0.040908
4.421866 4.719383 0.042942
4.736608 4.719383 0.045456
5.051349 4.719383 0.048405
5.366090 4.719383 0.052328
5.680831 4.719383 0.057695
5.995571 4.719383 0.064608
6.310312 4.719383 0.073068
6.625053 4.719383 0.085837
6.939795 4.719383 0.105178
7.254536 4.719383 0.142949
7.569277 4.719383 0.213972
7.884017 4.719383 0.342487
8.198758 4.719383 0.531311
8.513499 4.719383 0.771049
8.828240 4.719383 1.029135
9.142982 4.719383 1.299236
9.457723 4.719383 1.551607
9.772464 4.719383 1.781746
10.087205 4.719383 1.977775
10.401946 4.719383 2.171196
10.716687 4.719383 2.360243
11.031426 4.719383 2.540978
11.346168 4.719383 2.676414
11.660909 4.719383 2.811979
11.975650 4.719383 2.961977
12.290391 4.719383 3.107056
12.605132 4.719383 3.200749
12.919873 4.719383 3.226114
13.234614 4.719383 3.291497
13.549356 4.719383 3.338559
13.864097 4.719383 3.339826
14.178838 4.719383 3.458676
14.493579 4.719383 3.546852
14.808320 4.719383 3.738129
15.123059 4.719383 4.212348
15.437800 4.719383 5.146551
15.752542 4.719383 5.095970
16.067284 4.719383 0.000000
16.382023 4.719383 0.000000
16.696766 4.719383 0.000000
17.011505 4.719383 0.000000
17.326248 4.719383 0.000000
17.640987 4.719383 0.000000
17.955730 4.719383 0.000000
18.270470 4.719383 0.000000
18.585213 4.719383 0.000000
18.899952 4.719383 0.000000
-7.223550 4.404640 0.000000
-6.908809 4.404640 0.036648
-6.594068 4.404640 0.035331
-6.279327 4.404640 0.035143
-5.964586 4.404640 0.034932
-5.649845 4.404640 0.034762
-5.335104 4.404640 0.034746
-5.020363 4.404640 0.034941
-4.705622 4.404640 0.035135
-4.390881 4.404640 0.035128
-4.076140 4.404640 0.034814
-3.761399 4.404640 0.034618
-3.446658 4.404640 0.034832
-3.131917 4.404640 0.035024
-2.817176 4.404640 0.035082
-2.502435 4.404640 0.035149
-2.187694 4.404640 0.034840
-1.872953 4.404640 0.034604
-1.558212 4.404640 0.034652
-1.243471 4.404640 0.034698
-0.928730 4.404640 0.034745
-0.613989 4.404640 0.034626
-0.299248 4.404640 0.034706
0.015493 4.404640 0.035104
0.330234 4.404640 0.035264
0.644975 4.404640 0.035140
0.959716 4.404640 0.035135
1.274457 4.404640 0.035312
1.589198 4.404640 0.035454
1.903938 4.404640 0.035577
2.218679 4.404640 0.035863
2.533421 4.404640 0.036540
2.848162 4.404640 0.037397
3.162903 4.404640 0.038172
3.477644 4.404640 0.038875
3.792385 4.404640 0.039769
4.107125 4.404640 0.041237
4.421866 4.404640 0.043389
4.736608 4.404640 0.045855
5.051349 4.404640 0.048853
5.366090 4.404640 0.053019
5.680831 4.404640 0.058324
5.995571 4.404640 0.065028
6.310312 4.404640 0.074371
6.625053 4.404640 0.086859
6.939795 4.404640 0.107907
7.254536 4.404640 0.144554
7.569277 4.404640 0.221264
7.884017 4.404640 0.355193
8.198758 4.404640 0.550358
8.513499 4.404640 0.792157
8.828240 4.404640 1.062967
9.142982 4.404640 1.324815
9.457723 4.404640 1.571783
9.772464 4.404640 1.794661
10.087205 4.404640 2.006322
10.401946 4.404640 2.195353
10.716687 4.404640 2.373054
11.031426 4.404640 2.545474
11.346168 4.404640 2.687491
11.660909 4.404640 2.801210
11.975650 4.404640 2.955126
12.290391 4.404640 3.089860
12.605132 4.404640 3.222084
12.919873 4.404640 3.242693
13.234614 4.404640 3.260087
13.549356 4.404640 3.294828
13.864097 4.404640 3.343060
14.178838 4.404640 3.433969
14.493579 4.404640 3.576138
14.808320 4.404640 3.706031
15.123059 4.404640 4.281284
15.437800 4.404640 5.292523
15.752542 4.404640 5.488408
16.067284 4.404640 0.000000
16.382023 4.404640 0.000000
16.696766 4.404640 0.000000
17.011505 4.404640 0.000000
17.326248 4.404640 0.000000
17.640987 4.404640 0.000000
17.955730 4.404640 0.000000
18.270470 4.404640 0.000000
18.585213 4.404640 0.000000
18.899952 4.404640 0.000000
-7.223550 4.089901 0.000000
-6.908809 4.089901 0.036678
-6.594068 4.089901 0.035283
-6.279327 4.089901 0.035068
-5.964586 4.089901 0.034933
-5.649845 4.089901 0.034905
-5.335104 4.089901 0.034899
-5.020363 4.089901 0.034968
-4.705622 4.089901 0.035081
-4.390881 4.089901 0.035019
-4.076140 4.089901 0.034718
-3.761399 4.089901 0.034724
-3.446658 4.089901 0.035015
-3.131917 4.089901 0.035059
-2.817176 4.089901 0.035044
-2.502435 4.089901 0.035167
-2.187694 4.089901 0.034987
-1.872953 4.089901 0.034715
-1.558212 4.089901 0.034618
-1.243471 4.089901 0.034557
-0.928730 4.089901 0.034607
-0.613989 4.089901 0.034487
-0.299248 4.089901 0.034444
0.015493 4.089901 0.034773
0.330234 4.089901 0.035076
0.644975 4.089901 0.035108
0.959716 4.089901 0.035205
1.274457 4.089901 0.035392
1.589198 4.089901 0.035507
1.903938 4.089901 0.035582
2.218679 4.089901 0.035866
2.533421 4.089901 0.036521
2.848162 4.089901 0.037341
3.162903 4.089901 0.038162
3.477644 4.089901 0.038955
3.792385 4.089901 0.039873
4.107125 4.089901 0.041355
4.421866 4.089901 0.043637
4.736608 4.089901 0.046061
5.051349 4.089901 0.049021
5.366090 4.089901 0.053548
5.680831 4.089901 0.058762
5.995571 4.089901 0.065644
6.310312 4.089901 0.074958
6.625053 4.089901 0.087662
6.939795 4.089901 0.109426
7.254536 4.089901 0.148995
7.569277 4.089901 0.224195
7.884017 4.089901 0.363766
8.198758 4.089901 0.573750
8.513499 4.089901 0.816070
8.828240 4.089901 1.086513
9.142982 4.089901 1.342994
9.457723 4.089901 1.586576
9.772464 4.089901 1.820606
10.087205 4.089901 2.024626
10.401946 4.089901 2.197623
10.716687 4.089901 2.380118
11.031426 4.089901 2.551296
11.346168 4.089901 2.696869
11.660909 4.089901 2.827437
11.975650 4.089901 2.957024
12.290391 4.089901 3.083478
12.605132 4.089901 3.152985
12.919873 4.089901 3.230437
13.234614 4.089901 3.247928
13.549356 4.089901 3.262909
13.864097 4.089901 3.299838
14.178838 4.089901 3.395109
14.493579 4.089901 3.551658
14.808320 4.089901 3.799697
15.123059 4.089901 4.372343
15.437800 4.089901 5.400135
15.752542 4.089901 0.000000
16.067284 4.089901 0.000000
16.382023 4.089901 0.000000
16.696766 4.089901 0.000000
17.011505 4.089901 0.000000
17.326248 4.089901 0.000000
17.640987 4.089901 0.000000
17.955730 4.089901 0.000000
18.270470 4.089901 0.000000
18.585213 4.089901 0.000000
18.899952 4.089901 0.000000
-7.223550 3.775158 0.000000
-6.908809 3.775158 0.036651
-6.594068 3.775158 0.035186
-6.279327 3.775158 0.034974
-5.964586 3.775158 0.034883
-5.649845 3.775158 0.034971
-5.335104 3.775158 0.035060
-5.020363 3.775158 0.035000
-4.705622 3.775158 0.035000
-4.390881 3.775158 0.034951
-4.076140 3.775158 0.034700
-3.761399 3.775158 0.034832
-3.446658 3.775158 0.035122
-3.131917 3.775158 0.034966
-2.817176 3.775158 0.034825
-2.502435 3.775158 0.035011
-2.187694 3.775158 0.035117
-1.872953 3.775158 0.034904
-1.558212 3.775158 0.034644
-1.243471 3.775158 0.034490
-0.928730 3.775158 0.034511
-0.613989 3.775158 0.034429
-0.299248 3.775158 0.034283
0.015493 3.775158 0.034453
0.330234 3.775158 0.034828
0.644975 3.775158 0.035075
0.959716 3.775158 0.035320
1.274457 3.775158 0.035516
1.589198 3.775158 0.035574
1.903938 3.775158 0.035635
2.218679 3.775158 0.035916
2.533421 3.775158 0.036530
2.848162 3.775158 0.037264
3.162903 3.775158 0.038012
3.477644 3.775158 0.038778
3.792385 3.775158 0.039784
4.107125 3.775158 0.041365
4.421866 3.775158 0.043633
4.736608 3.775158 0.046093
5.051349 3.775158 0.049130
5.366090 3.775158 0.053753
5.680831 3.775158 0.059590
5.995571 3.775158 0.066467
6.310312 3.775158 0.075744
6.625053 3.775158 0.089104
6.939795 3.775158 0.111333
7.254536 3.775158 0.154799
7.569277 3.775158 0.234199
7.884017 3.775158 0.371621
8.198758 3.775158 0.587903
8.513499 3.775158 0.829451
8.828240 3.775158 1.111794
9.142982 3.775158 1.355142
9.457723 3.775158 1.594973
9.772464 3.775158 1.818611
10.087205 3.775158 2.024846
10.401946 3.775158 2.201144
10.716687 3.775158 2.383055
11.031426 3.775158 2.562175
11.346168 3.775158 2.713808
11.660909 3.775158 2.837913
11.975650 3.775158 2.964792
12.290391 3.775158 3.085353
12.605132 3.775158 3.181007
12.919873 3.775158 3.229142
13.234614 3.775158 3.269138
13.549356 3.775158 3.284445
13.864097 3.775158 3.324662
14.178838 3.775158 3.433715
14.493579 3.775158 3.569956
14.808320 3.775158 3.814982
15.123059 3.775158 4.429824
15.437800 3.775158 5.414494
15.752542 3.775158 0.000000
16.067284 3.775158 0.000000
16.382023 3.775158 0.000000
16.696766 3.775158 0.000000
17.011505 3.775158 0.000000
17.326248 3.775158 0.000000
17.640987 3.775158 0.000000
17.955730 3.775158 0.000000
18.270470 3.775158 0.000000
18.585213 3.775158 0.000000
18.899952 3.775158 0.000000
-7.223550 3.460419 0.000000
-6.908809 3.460419 0.036524
-6.594068 3.460419 0.035086
-6.279327 3.460419 0.034912
-5.964586 3.460419 0.034871
-5.649845 3.460419 0.035066
-5.335104 3.460419 0.035219
-5.020363 3.460419 0.035062
-4.705622 3.460419 0.034904
-4.390881 3.460419 0.034893
-4.076140 3.460419 0.034699
-3.761399 3.460419 0.034888
-3.446658 3.460419 0.035036
-3.131917 3.460419 0.034710
-2.817176 3.460419 0.034533
-2.502435 3.460419 0.034797
-2.187694 3.460419 0.035189
-1.872953 3.460419 0.035098
-1.558212 3.460419 0.034704
-1.243471 3.460419 0.034480
-0.928730 3.460419 0.034504
-0.613989 3.460419 0.034521
-0.299248 3.460419 0.034331
0.015493 3.460419 0.034337
0.330234 3.460419 0.034677
0.644975 3.460419 0.035100
0.959716 3.460419 0.035424
1.274457 3.460419 0.035568
1.589198 3.460419 0.035562
1.903938 3.460419 0.035651
2.218679 3.460419 0.035962
2.533421 3.460419 0.036546
2.848162 3.460419 0.037191
3.162903 3.460419 0.037830
3.477644 3.460419 0.038516
3.792385 3.460419 0.039533
4.107125 3.460419 0.041194
4.421866 3.460419 0.043313
4.736608 3.460419 0.045765
5.051349 3.460419 0.049036
5.366090 3.460419 0.053875
5.680831 3.460419 0.060036
5.995571 3.460419 0.067452
6.310312 3.460419 0.076172
6.625053 3.460419 0.090205
6.939795 3.460419 0.115253
7.254536 3.460419 0.159700
7.569277 3.460419 0.244066
7.884017 3.460419 0.385879
8.198758 3.460419 0.597278
8.513499 3.460419 0.858532
8.828240 3.460419 1.120835
9.142982 3.460419 1.364537
9.457723 3.460419 1.606964
9.772464 3.460419 1.826095
10.087205 3.460419 2.038284
10.401946 3.460419 2.215298
10.716687 3.460419 2.404168
11.031426 3.460419 2.594321
11.346168 3.460419 2.733726
11.660909 3.460419 2.843615
11.975650 3.460419 2.985941
12.290391 3.460419 3.097430
12.605132 3.460419 3.177599
12.919873 3.460419 3.240339
13.234614 3.460419 3.280441
13.549356 3.460419 3.299363
13.864097 3.460419 3.325169
14.178838 3.460419 3.433725
14.493579 3.460419 3.559903
14.808320 3.460419 3.866455
15.123059 3.460419 4.513900
15.437800 3.460419 5.558439
15.752542 3.460419 0.000000
16.067284 3.460419 0.000000
16.382023 3.460419 0.000000
16.696766 3.460419 0.000000
17.011505 3.460419 0.000000
17.326248 3.460419 0.000000
17.640987 3.460419 0.000000
17.955730 3.460419 0.000000
18.270470 3.460419 0.000000
18.585213 3.460419 0.000000
18.899952 3.460419 0.000000
-7.223550 3.145676 0.000000
-6.908809 3.145676 0.036523
-6.594068 3.145676 0.035087
-6.279327 3.145676 0.034938
-5.964586 3.145676 0.034910
-5.649845 3.145676 0.035166
-5.335104 3.145676 0.035306
-5.020363 3.145676 0.035064
-4.705622 3.145676 0.034768
-4.390881 3.145676 0.034703
-4.076140 3.145676 0.034604
-3.761399 3.145676 0.034803
-3.446658 3.145676 0.034796
-3.131917 3.145676 0.034416
-2.817176 3.145676 0.034240
-2.502435 3.145676 0.034568
-2.187694 3.145676 0.035202
-1.872953 3.145676 0.035296
-1.558212 3.145676 0.034868
-1.243471 3.145676 0.034570
-0.928730 3.145676 0.034621
-0.613989 3.145676 0.034742
-0.299248 3.145676 0.034534
0.015493 3.145676 0.034410
0.330234 3.145676 0.034654
0.644975 3.145676 0.035128
0.959716 3.145676 0.035480
1.274457 3.145676 0.035549
1.589198 3.145676 0.035508
1.903938 3.145676 0.035616
2.218679 3.145676 0.035956
2.533421 3.145676 0.036545
2.848162 3.145676 0.037107
3.162903 3.145676 0.037642
3.477644 3.145676 0.038275
3.792385 3.145676 0.039471
4.107125 3.145676 0.041182
4.421866 3.145676 0.043240
4.736608 3.145676 0.045516
5.051349 3.145676 0.048955
5.366090 3.145676 0.053851
5.680831 3.145676 0.060236
5.995571 3.145676 0.068136
6.310312 3.145676 0.077794
6.625053 3.145676 0.092281
6.939795 3.145676 0.118453
7.254536 3.145676 0.167153
7.569277 3.145676 0.258769
7.884017 3.145676 0.410111
8.198758 3.145676 0.623033
8.513499 3.145676 0.872657
8.828240 3.145676 1.136858
9.142982 3.145676 1.394441
9.457723 3.145676 1.616915
9.772464 3.145676 1.859151
10.087205 3.145676 2.064530
10.401946 3.145676 2.235405
10.716687 3.145676 2.426864
11.031426 3.145676 2.611857
11.346168 3.145676 2.754287
11.660909 3.145676 2.847648
11.975650 3.145676 3.011305
12.290391 3.145676 3.104867
12.605132 3.145676 3.158121
12.919873 3.145676 3.234920
13.234614 3.145676 3.279832
13.549356 3.145676 3.264581
13.864097 3.145676 3.339542
14.178838 3.145676 3.493003
14.493579 3.145676 3.620501
14.808320 3.145676 3.904239
15.123059 3.145676 4.593383
15.437800 3.145676 5.453913
15.752542 3.145676 0.000000
16.067284 3.145676 0.000000
16.382023 3.145676 0.000000
16.696766 3.145676 0.000000
17.011505 3.145676 0.000000
17.326248 3.145676 0.000000
17.640987 3.145676 0.000000
17.955730 3.145676 0.000000
18.270470 3.145676 0.000000
18.585213 3.145676 0.000000
18.899952 3.145676 0.000000
-7.223550 2.830936 0.000000
-6.908809 2.830936 0.036616
-6.594068 2.830936 0.035167
-6.279327 2.830936 0.035100
-5.964586 2.830936 0.035061
-5.649845 2.830936 0.035257
-5.335104 2.830936 0.035306
-5.020363 2.830936 0.034963
-4.705622 2.830936 0.034580
-4.390881 2.830936 0.034481
-4.076140 2.830936 0.034492
-3.761399 2.830936 0.034705
-3.446658 2.830936 0.034647
-3.131917 2.830936 0.034267
-2.817176 2.830936 0.034103
-2.502435 2.830936 0.034470
-2.187694 2.830936 0.035225
-1.872953 2.830936 0.035470
-1.558212 2.830936 0.035054
-1.243471 2.830936 0.034718
-0.928730 2.830936 0.034790
-0.613989 2.830936 0.034926
-0.299248 2.830936 0.034723
0.015493 2.830936 0.034528
0.330234 2.830936 0.034662
0.644975 2.830936 0.035104
0.959716 2.830936 0.035387
1.274457 2.830936 0.035403
1.589198 2.830936 0.035353
1.903938 2.830936 0.035536
2.218679 2.830936 0.035932
2.533421 2.830936 0.036536
2.848162 2.830936 0.037070
3.162903 2.830936 0.037585
3.477644 2.830936 0.038268
3.792385 2.830936 0.039587
4.107125 2.830936 0.041422
4.421866 2.830936 0.043331
4.736608 2.830936 0.045605
5.051349 2.830936 0.049155
5.366090 2.830936 0.054109
5.680831 2.830936 0.060362
5.995571 2.830936 0.068554
6.310312 2.830936 0.079046
6.625053 2.830936 0.093901
6.939795 2.830936 0.120655
7.254536 2.830936 0.173984
7.569277 2.830936 0.269315
7.884017 2.830936 0.428399
8.198758 2.830936 0.653184
8.513499 2.830936 0.905083
8.828240 2.830936 1.169987
9.142982 2.830936 1.409740
9.457723 2.830936 1.639191
9.772464 2.830936 1.884333
10.087205 2.830936 2.093610
10.401946 2.830936 2.260876
10.716687 2.830936 2.430475
11.031426 2.830936 2.627930
11.346168 2.830936 2.742325
11.660909 2.830936 2.887591
11.975650 2.830936 3.002438
12.290391 2.830936 3.115329
12.605132 2.830936 3.173599
12.919873 2.830936 3.215017
13.234614 2.830936 3.245450
13.549356 2.830936 3.269430
13.864097 2.830936 3.309285
14.178838 2.830936 3.466191
14.493579 2.830936 3.641506
14.808320 2.830936 3.997021
15.123059 2.830936 4.711107
15.437800 2.830936 5.521950
15.752542 2.830936 0.000000
16.067284 2.830936 0.000000
16.382023 2.830936 0.000000
16.696766 2.830936 0.000000
17.011505 2.830936 0.000000
17.326248 2.830936 0.000000
17.640987 2.830936 0.000000
17.955730 2.830936 0.000000
18.270470 2.830936 0.000000
18.585213 2.830936 0.000000
18.899952 2.830936 0.000000
-7.223550 2.516193 0.000000
-6.908809 2.516193 0.036716
-6.594068 2.516193 0.035221
-6.279327 2.516193 0.035259
-5.964586 2.516193 0.035204
-5.649845 2.516193 0.035234
-5.335104 2.516193 0.035198
-5.020363 2.516193 0.034860
-4.705622 2.516193 0.034500
-4.390881 2.516193 0.034404
-4.076140 2.516193 0.034457
-3.761399 2.516193 0.034624
-3.446658 2.516193 0.034564
-3.131917 2.516193 0.034270
-2.817176 2.516193 0.034141
-2.502435 2.516193 0.034482
-2.187694 2.516193 0.035271
-1.872953 2.516193 0.035601
-1.558212 2.516193 0.035203
-1.243471 2.516193 0.034871
-0.928730 2.516193 0.034887
-0.613989 2.516193 0.034904
-0.299248 2.516193 0.034710
0.015493 2.516193 0.034629
0.330234 2.516193 0.034728
0.644975 2.516193 0.035014
0.959716 2.516193 0.035187
1.274457 2.516193 0.035217
1.589198 2.516193 0.035182
1.903938 2.516193 0.035440
2.218679 2.516193 0.035916
2.533421 2.516193 0.036547
2.848162 2.516193 0.037192
3.162903 2.516193 0.037735
3.477644 2.516193 0.038544
3.792385 2.516193 0.039959
4.107125 2.516193 0.041810
4.421866 2.516193 0.043688
4.736608 2.516193 0.045932
5.051349 2.516193 0.049642
5.366090 2.516193 0.054477
5.680831 2.516193 0.061080
5.995571 2.516193 0.069923
6.310312 2.516193 0.080450
6.625053 2.516193 0.096351
6.939795 2.516193 0.124250
7.254536 2.516193 0.178249
7.569277 2.516193 0.273391
7.884017 2.516193 0.444252
8.198758 2.516193 0.670493
8.513499 2.516193 0.934930
8.828240 2.516193 1.200139
9.142982 2.516193 1.442387
9.457723 2.516193 1.670108
9.772464 2.516193 1.899508
10.087205 2.516193 2.106512
10.401946 2.516193 2.279149
10.716687 2.516193 2.439894
11.031426 2.516193 2.602765
11.346168 2.516193 2.737898
11.660909 2.516193 2.880279
11.975650 2.516193 3.039168
12.290391 2.516193 3.118515
12.605132 2.516193 3.157708
12.919873 2.516193 3.165929
13.234614 2.516193 3.216754
13.549356 2.516193 3.258164
13.864097 2.516193 3.355833
14.178838 2.516193 3.432848
14.493579 2.516193 3.623116
14.808320 2.516193 4.050078
15.123059 2.516193 4.868824
15.437800 2.516193 0.000000
15.752542 2.516193 0.000000
16.067284 2.516193 0.000000
16.382023 2.516193 0.000000
16.696766 2.516193 0.000000
17.011505 2.516193 0.000000
17.326248 2.516193 0.000000
17.640987 2.516193 0.000000
17.955730 2.516193 0.000000
18.270470 2.516193 0.000000
18.585213 2.516193 0.000000
18.899952 2.516193 0.000000
-7.223550 2.201454 0.000000
-6.908809 2.201454 0.036753
-6.594068 2.201454 0.035268
-6.279327 2.201454 0.035416
-5.964586 2.201454 0.035294
-5.649845 2.201454 0.035082
-5.335104 2.201454 0.034950
-5.020363 2.201454 0.034753
-4.705622 2.201454 0.034549
-4.390881 2.201454 0.034487
-4.076140 2.201454 0.034543
-3.761399 2.201454 0.034662
-3.446658 2.201454 0.034625
-3.131917 2.201454 0.034424
-2.817176 2.201454 0.034280
-2.502435 2.201454 0.034526
-2.187694 2.201454 0.035244
-1.872953 2.201454 0.035571
-1.558212 2.201454 0.035241
-1.243471 2.201454 0.035050
-0.928730 2.201454 0.035002
-0.613989 2.201454 0.034839
-0.299248 2.201454 0.034681
0.015493 2.201454 0.034771
0.330234 2.201454 0.034873
0.644975 2.201454 0.034897
0.959716 2.201454 0.034909
1.274457 2.201454 0.034932
1.589198 2.201454 0.035054
1.903938 2.201454 0.035441
2.218679 2.201454 0.035985
2.533421 2.201454 0.036613
2.848162 2.201454 0.037338
3.162903 2.201454 0.038042
3.477644 2.201454 0.038963
3.792385 2.201454 0.040401
4.107125 2.201454 0.042023
4.421866 2.201454 0.043830
4.736608 2.201454 0.046384
5.051349 2.201454 0.050069
5.366090 2.201454 0.054883
5.680831 2.201454 0.061544
5.995571 2.201454 0.070194
6.310312 2.201454 0.082105
6.625053 2.201454 0.099272
6.939795 2.201454 0.128444
7.254536 2.201454 0.181001
7.569277 2.201454 0.279664
7.884017 2.201454 0.458550
8.198758 2.201454 0.685378
8.513499 2.201454 0.952690
8.828240 2.201454 1.228662
9.142982 2.201454 1.469962
9.457723 2.201454 1.698114
9.772464 2.201454 1.916202
10.087205 2.201454 2.103636
10.401946 2.201454 2.273841
10.716687 2.201454 2.432500
11.031426 2.201454 2.585411
11.346168 2.201454 2.736435
11.660909 2.201454 2.895278
11.975650 2.201454 3.028296
12.290391 2.201454 3.130823
12.605132 2.201454 3.189775
12.919873 2.201454 3.211020
13.234614 2.201454 3.207326
13.549356 2.201454 3.275156
13.864097 2.201454 3.320549
14.178838 2.201454 3.441517
14.493579 2.201454 3.653486
14.808320 2.201454 4.052573
15.123059 2.201454 4.883245
15.437800 2.201454 0.000000
15.752542 2.201454 0.000000
16.067284 2.201454 0.000000
16.382023 2.201454 0.000000
16.696766 2.201454 0.000000
17.011505 2.201454 0.000000
17.326248 2.201454 0.000000
17.640987 2.201454 0.000000
17.955730 2.201454 0.000000
18.270470 2.201454 0.000000
18.585213 2.201454 0.000000
18.899952 2.201454 0.000000
-7.223550 1.886711 0.000000
-6.908809 1.886711 0.036652
-6.594068 1.886711 0.035303
-6.279327 1.886711 0.035513
-5.964586 1.886711 0.035269
-5.649845 1.886711 0.034889
-5.335104 1.886711 0.034752
-5.020363 1.886711 0.034716
-4.705622 1.886711 0.034680
-4.390881 1.886711 0.034733
-4.076140 1.886711 0.034733
-3.761399 1.886711 0.034790
-3.446658 1.886711 0.034769
-3.131917 1.886711 0.034645
-2.817176 1.886711 0.034501
-2.502435 1.886711 0.034621
-2.187694 1.886711 0.035184
-1.872953 1.886711 0.035404
-1.558212 1.886711 0.035169
-1.243471 1.886711 0.035119
-0.928730 1.886711 0.035040
-0.613989 1.886711 0.034804
-0.299248 1.886711 0.034689
0.015493 1.886711 0.034852
0.330234 1.886711 0.034942
0.644975 1.886711 0.034787
0.959716 1.886711 0.034695
1.274457 1.886711 0.034756
1.589198 1.886711 0.035040
1.903938 1.886711 0.035563
2.218679 1.886711 0.036144
2.533421 1.886711 0.036715
2.848162 1.886711 0.037530
3.162903 1.886711 0.038449
3.477644 1.886711 0.039331
3.792385 1.886711 0.040721
4.107125 1.886711 0.042115
4.421866 1.886711 0.043929
4.736608 1.886711 0.046792
5.051349 1.886711 0.050592
5.366090 1.886711 0.055544
5.680831 1.886711 0.062418
5.995571 1.886711 0.071018
6.310312 1.886711 0.082749
6.625053 1.886711 0.101933
6.939795 1.886711 0.131886
7.254536 1.886711 0.184635
7.569277 1.886711 0.287006
7.884017 1.886711 0.466161
8.198758 1.886711 0.697189
8.513499 1.886711 0.971723
8.828240 1.886711 1.236107
9.142982 1.886711 1.477749
9.457723 1.886711 1.720037
9.772464 1.886711 1.919539
10.087205 1.886711 2.097219
10.401946 1.886711 2.267182
10.716687 1.886711 2.418263
11.031426 1.886711 2.577563
11.346168 1.886711 2.739062
11.660909 1.886711 2.901129
11.975650 1.886711 3.039764
12.290391 1.886711 3.185251
12.605132 1.886711 3.231684
12.919873 1.886711 3.216747
13.234614 1.886711 3.249299
13.549356 1.886711 3.286864
13.864097 1.886711 3.334152
14.178838 1.886711 3.458194
14.493579 1.886711 3.723519
14.808320 1.886711 4.204170
15.123059 1.886711 4.865074
15.437800 1.886711 0.000000
15.752542 1.886711 0.000000
16.067284 1.886711 0.000000
16.382023 1.886711 0.000000
16.696766 1.886711 0.000000
17.011505 1.886711 0.000000
17.326248 1.886711 0.000000
17.640987 1.886711 0.000000
17.955730 1.886711 0.000000
18.270470 1.886711 0.000000
18.585213 1.886711 0.000000
18.899952 1.886711 0.000000
-7.223550 1.571972 0.000000
-6.908809 1.571972 0.036444
-6.594068 1.571972 0.035288
-6.279327 1.571972 0.035458
-5.964586 1.571972 0.035098
-5.649845 1.571972 0.034681
-5.335104 1.571972 0.034605
-5.020363 1.571972 0.034742
-4.705622 1.571972 0.034911
-4.390881 1.571972 0.035061
-4.076140 1.571972 0.034949
-3.761399 1.571972 0.034941
-3.446658 1.571972 0.034923
-3.131917 1.571972 0.034805
-2.817176 1.571972 0.034628
-2.502435 1.571972 0.034640
-2.187694 1.571972 0.035015
-1.872953 1.571972 0.035114
-1.558212 1.571972 0.034926
-1.243471 1.571972 0.034959
-0.928730 1.571972 0.034955
-0.613989 1.571972 0.034792
-0.299248 1.571972 0.034765
0.015493 1.571972 0.034902
0.330234 1.571972 0.034937
0.644975 1.571972 0.034741
0.959716 1.571972 0.034681
1.274457 1.571972 0.034838
1.589198 1.571972 0.035204
1.903938 1.571972 0.035777
2.218679 1.571972 0.036283
2.533421 1.571972 0.036789
2.848162 1.571972 0.037651
3.162903 1.571972 0.038689
3.477644 1.571972 0.039537
3.792385 1.571972 0.040811
4.107125 1.571972 0.042120
4.421866 1.571972 0.044094
4.736608 1.571972 0.047011
5.051349 1.571972 0.051018
5.366090 1.571972 0.055934
5.680831 1.571972 0.062714
5.995571 1.571972 0.071829
6.310312 1.571972 0.083926
6.625053 1.571972 0.104175
6.939795 1.571972 0.136954
7.254536 1.571972 0.193855
7.569277 1.571972 0.301279
7.884017 1.571972 0.485866
8.198758 1.571972 0.719817
8.513499 1.571972 0.984673
8.828240 1.571972 1.253322
9.142982 1.571972 1.509769
9.457723 1.571972 1.735375
9.772464 1.571972 1.928509
10.087205 1.571972 2.101764
10.401946 1.571972 2.256770
10.716687 1.571972 2.409458
11.031426 1.571972 2.579127
11.346168 1.571972 2.751054
11.660909 1.571972 2.933007
11.975650 1.571972 3.091007
12.290391 1.571972 3.189741
12.605132 1.571972 3.253904
12.919873 1.571972 3.240979
13.234614 1.571972 3.219806
13.549356 1.571972 3.277856
13.864097 1.571972 3.369673
14.178838 1.571972 3.497209
14.493579 1.571972 3.789838
14.808320 1.571972 4.362691
15.123059 1.571972 3.565520
15.437800 1.571972 0.000000
15.752542 1.571972 0.000000
16.067284 1.571972 0.000000
16.382023 1.571972 0.000000
16.696766 1.571972 0.000000
17.011505 1.571972 0.000000
17.326248 1.571972 0.000000
17.640987 1.571972 0.000000
17.955730 1.571972 0.000000
18.270470 1.571972 0.000000
18.585213 1.571972 0.000000
18.899952 1.571972 0.000000
-7.223550 1.257229 0.000000
-6.908809 1.257229 0.036202
-6.594068 1.257229 0.035243
-6.279327 1.257229 0.035315
-5.964586 1.257229 0.034941
-5.649845 1.257229 0.034600
-5.335104 1.257229 0.034606
-5.020363 1.257229 0.034837
-4.705622 1.257229 0.035104
-4.390881 1.257229 0.035238
-4.076140 1.257229 0.035047
-3.761399 1.257229 0.035027
-3.446658 1.257229 0.035002
-3.131917 1.257229 0.034877
-2.817176 1.257229 0.034641
-2.502435 1.257229 0.034534
-2.187694 1.257229 0.034738
-1.872953 1.257229 0.034793
-1.558212 1.257229 0.034706
-1.243471 1.257229 0.034764
-0.928730 1.257229 0.034791
-0.613989 1.257229 0.034821
-0.299248 1.257229 0.034920
0.015493 1.257229 0.034936
0.330234 1.257229 0.034897
0.644975 1.257229 0.034766
0.959716 1.257229 0.034818
1.274457 1.257229 0.035018
1.589198 1.257229 0.035414
1.903938 1.257229 0.035936
2.218679 1.257229 0.036383
2.533421 1.257229 0.036825
2.848162 1.257229 0.037684
3.162903 1.257229 0.038687
3.477644 1.257229 0.039633
3.792385 1.257229 0.040836
4.107125 1.257229 0.042176
4.421866 1.257229 0.044470
4.736608 1.257229 0.047386
5.051349 1.257229 0.051426
5.366090 1.257229 0.056449
5.680831 1.257229 0.063527
5.995571 1.257229 0.072207
6.310312 1.257229 0.084584
6.625053 1.257229 0.104617
6.939795 1.257229 0.141615
7.254536 1.257229 0.203827
7.569277 1.257229 0.320376
7.884017 1.257229 0.509927
8.198758 1.257229 0.749484
8.513499 1.257229 1.018552
8.828240 1.257229 1.287551
9.142982 1.257229 1.531303
9.457723 1.257229 1.758375
9.772464 1.257229 1.939974
10.087205 1.257229 2.105652
10.401946 1.257229 2.266215
10.716687 1.257229 2.427940
11.031426 1.257229 2.589991
11.346168 1.257229 2.753235
11.660909 1.257229 2.956467
11.975650 1.257229 3.102903
12.290391 1.257229 3.232400
12.605132 1.257229 3.297557
12.919873 1.257229 3.250158
13.234614 1.257229 3.219990
13.549356 1.257229 3.276212
13.864097 1.257229 3.446906
14.178838 1.257229 3.552670
14.493579 1.257229 3.890766
14.808320 1.257229 4.506743
15.123059 1.257229 0.000000
15.437800 1.257229 0.000000
15.752542 1.257229 0.000000
16.067284 1.257229 0.000000
16.382023 1.257229 0.000000
16.696766 1.257229 0.000000
17.011505 1.257229 0.000000
17.326248 1.257229 0.000000
17.640987 1.257229 0.000000
17.955730 1.257229 0.000000
18.270470 1.257229 0.000000
18.585213 1.257229 0.000000
18.899952 1.257229 0.000000
-7.223550 0.942490 0.000000
-6.908809 0.942490 0.036143
-6.594068 0.942490 0.035229
-6.279327 0.942490 0.035195
-5.964586 0.942490 0.034907
-5.649845 0.942490 0.034698
-5.335104 0.942490 0.034699
-5.020363 0.942490 0.034891
-4.705622 0.942490 0.035127
-4.390881 0.942490 0.035223
-4.076140 0.942490 0.034966
-3.761399 0.942490 0.034941
-3.446658 0.942490 0.034966
-3.131917 0.942490 0.034841
-2.817176 0.942490 0.034576
-2.502435 0.942490 0.034403
-2.187694 0.942490 0.034489
-1.872953 0.942490 0.034624
-1.558212 0.942490 0.034647
-1.243471 0.942490 0.034618
-0.928730 0.942490 0.034576
-0.613989 0.942490 0.034752
-0.299248 0.942490 0.034973
0.015493 0.942490 0.034911
0.330234 0.942490 0.034786
0.644975 0.942490 0.034782
0.959716 0.942490 0.035013
1.274457 0.942490 0.035283
1.589198 0.942490 0.035700
1.903938 0.942490 0.036160
2.218679 0.942490 0.036526
2.533421 0.942490 0.036911
2.848162 0.942490 0.037694
3.162903 0.942490 0.038632
3.477644 0.942490 0.039587
3.792385 0.942490 0.040724
4.107125 0.942490 0.042258
4.421866 0.942490 0.044752
4.736608 0.942490 0.047777
5.051349 0.942490 0.051668
5.366090 0.942490 0.056980
5.680831 0.942490 0.064194
5.995571 0.942490 0.072639
6.310312 0.942490 0.085169
6.625053 0.942490 0.104067
6.939795 0.942490 0.143751
7.254536 0.942490 0.209067
7.569277 0.942490 0.344302
7.884017 0.942490 0.533041
8.198758 0.942490 0.769850
8.513499 0.942490 1.047176
8.828240 0.942490 1.299109
9.142982 0.942490 1.550636
9.457723 0.942490 1.766689
9.772464 0.942490 1.951248
10.087205 0.942490 2.115636
10.401946 0.942490 2.267824
10.716687 0.942490 2.410135
11.031426 0.942490 2.572978
11.346168 0.942490 2.762396
11.660909 0.942490 2.949227
11.975650 0.942490 3.127411
12.290391 0.942490 3.233621
12.605132 0.942490 3.263944
12.919873 0.942490 3.226825
13.234614 0.942490 3.205492
13.549356 0.942490 3.319085
13.864097 0.942490 3.468416
14.178838 0.942490 3.687634
14.493579 0.942490 4.039636
14.808320 0.942490 4.753204
15.123059 0.942490 0.000000
15.437800 0.942490 0.000000
15.752542 0.942490 0.000000
16.067284 0.942490 0.000000
16.382023 0.942490 0.000000
16.696766 0.942490 0.000000
17.011505 0.942490 0.000000
17.326248 0.942490 0.000000
17.640987 0.942490 0.000000
17.955730 0.942490 0.000000
18.270470 0.942490 0.000000
18.585213 0.942490 0.000000
18.899952 0.942490 0.000000
-7.223550 0.627750 0.000000
-6.908809 0.627750 0.036569
-6.594068 0.627750 0.035509
-6.279327 0.627750 0.035388
-5.964586 0.627750 0.035202
-5.649845 0.627750 0.035011
-5.335104 0.627750 0.034948
-5.020363 0.627750 0.034986
-4.705622 0.627750 0.035154
-4.390881 0.627750 0.035243
-4.076140 0.627750 0.034987
-3.761399 0.627750 0.034888
-3.446658 0.627750 0.034931
-3.131917 0.627750 0.034840
-2.817176 0.627750 0.034577
-2.502435 0.627750 0.034292
-2.187694 0.627750 0.034337
-1.872953 0.627750 0.034580
-1.558212 0.627750 0.034710
-1.243471 0.627750 0.034580
-0.928730 0.627750 0.034436
-0.613989 0.627750 0.034725
-0.299248 0.627750 0.035082
0.015493 0.627750 0.035032
0.330234 0.627750 0.034847
0.644975 0.627750 0.034925
0.959716 0.627750 0.035230
1.274457 0.627750 0.035550
1.589198 0.627750 0.035882
1.903938 0.627750 0.036311
2.218679 0.627750 0.036644
2.533421 0.627750 0.036995
2.848162 0.627750 0.037661
3.162903 0.627750 0.038657
3.477644 0.627750 0.039526
3.792385 0.627750 0.040598
4.107125 0.627750 0.042351
4.421866 0.627750 0.045105
4.736608 0.627750 0.048206
5.051349 0.627750 0.052088
5.366090 0.627750 0.057369
5.680831 0.627750 0.064653
5.995571 0.627750 0.073572
6.310312 0.627750 0.086320
6.625053 0.627750 0.106158
6.939795 0.627750 0.145173
7.254536 0.627750 0.216522
7.569277 0.627750 0.351672
7.884017 0.627750 0.559272
8.198758 0.627750 0.795041
8.513499 0.627750 1.068076
8.828240 0.627750 1.334830
9.142982 0.627750 1.572289
9.457723 0.627750 1.774263
9.772464 0.627750 1.956361
10.087205 0.627750 2.121668
10.401946 0.627750 2.275115
10.716687 0.627750 2.438749
11.031426 0.627750 2.597751
11.346168 0.627750 2.801971
11.660909 0.627750 2.930597
11.975650 0.627750 3.122646
12.290391 0.627750 3.180096
12.605132 0.627750 3.228651
12.919873 0.627750 3.235503
13.234614 0.627750 3.234100
13.549356 0.627750 3.308458
13.864097 0.627750 3.512253
14.178838 0.627750 3.781110
14.493579 0.627750 4.270821
14.808320 0.627750 4.809579
15.123059 0.627750 0.000000
15.437800 0.627750 0.000000
15.752542 0.627750 0.000000
16.067284 0.627750 0.000000
16.382023 0.627750 0.000000
16.696766 0.627750 0.000000
17.011505 0.627750 0.000000
17.326248 0.627750 0.000000
17.640987 0.627750 0.000000
17.955730 0.627750 0.000000
18.270470 0.627750 0.000000
18.585213 0.627750 0.000000
18.899952 0.627750 0.000000
-7.223550 0.313007 0.000000
-6.908809 0.313007 0.037335
-6.594068 0.313007 0.036384
-6.279327 0.313007 0.036295
-5.964586 0.313007 0.036271
-5.649845 0.313007 0.035893
-5.335104 0.313007 0.035606
-5.020363 0.313007 0.035477
-4.705622 0.313007 0.035528
-4.390881 0.313007 0.035594
-4.076140 0.313007 0.035317
-3.761399 0.313007 0.035072
-3.446658 0.313007 0.035057
-3.131917 0.313007 0.035051
-2.817176 0.313007 0.034851
-2.502435 0.313007 0.034500
-2.187694 0.313007 0.034551
-1.872953 0.313007 0.034952
-1.558212 0.313007 0.035191
-1.243471 0.313007 0.035019
-0.928730 0.313007 0.034825
-0.613989 0.313007 0.035121
-0.299248 0.313007 0.035561
0.015493 0.313007 0.035496
0.330234 0.313007 0.035156
0.644975 0.313007 0.035176
0.959716 0.313007 0.035466
1.274457 0.313007 0.035760
1.589198 0.313007 0.036022
1.903938 0.313007 0.036460
2.218679 0.313007 0.036919
2.533421 0.313007 0.037293
2.848162 0.313007 0.038025
3.162903 0.313007 0.039068
3.477644 0.313007 0.039897
3.792385 0.313007 0.040950
4.107125 0.313007 0.042867
4.421866 0.313007 0.045732
4.736608 0.313007 0.048911
5.051349 0.313007 0.052815
5.366090 0.313007 0.058214
5.680831 0.313007 0.065171
5.995571 0.313007 0.074271
6.310312 0.313007 0.087602
6.625053 0.313007 0.109813
6.939795 0.313007 0.150904
7.254536 0.313007 0.228114
7.569277 0.313007 0.369281
7.884017 0.313007 0.579623
8.198758 0.313007 0.831612
8.513499 0.313007 1.103577
8.828240 0.313007 1.371110
9.142982 0.313007 1.598020
9.457723 0.313007 1.812049
9.772464 0.313007 1.996069
10.087205 0.313007 2.161326
10.401946 0.313007 2.319810
10.716687 0.313007 2.480521
11.031426 0.313007 2.639789
11.346168 0.313007 2.832412
11.660909 0.313007 2.983111
11.975650 0.313007 3.142689
12.290391 0.313007 3.207825
12.605132 0.313007 3.240908
12.919873 0.313007 3.274907
13.234614 0.313007 3.274134
13.549356 0.313007 3.362547
13.864097 0.313007 3.576928
14.178838 0.313007 3.910498
14.493579 0.313007 4.591211
14.808320 0.313007 4.192571
15.123059 0.313007 0.000000
15.437800 0.313007 0.000000
15.752542 0.313007 0.000000
16.067284 0.313007 0.000000
16.382023 0.313007 0.000000
16.696766 0.313007 0.000000
17.011505 0.313007 0.000000
17.326248 0.313007 0.000000
17.640987 0.313007 0.000000
17.955730 0.313007 0.000000
18.270470 0.313007 0.000000
18.585213 0.313007 0.000000
18.899952 0.313007 0.000000
-7.223550 -0.001732 0.000000
-6.908809 -0.001732 0.036532
-6.594068 -0.001732 0.037773
-6.279327 -0.001732 0.038224
-5.964586 -0.001732 0.038399
-5.649845 -0.001732 0.037593
-5.335104 -0.001732 0.036872
-5.020363 -0.001732 0.036496
-4.705622 -0.001732 0.036374
-4.390881 -0.001732 0.036562
-4.076140 -0.001732 0.036297
-3.761399 -0.001732 0.035899
-3.446658 -0.001732 0.035755
-3.131917 -0.001732 0.035852
-2.817176 -0.001732 0.035683
-2.502435 -0.001732 0.035355
-2.187694 -0.001732 0.035490
-1.872953 -0.001732 0.036010
-1.558212 -0.001732 0.036275
-1.243471 -0.001732 0.036027
-0.928730 -0.001732 0.035699
-0.613989 -0.001732 0.036041
-0.299248 -0.001732 0.036479
0.015493 -0.001732 0.036352
0.330234 -0.001732 0.035795
0.644975 -0.001732 0.035718
0.959716 -0.001732 0.035931
1.274457 -0.001732 0.036205
1.589198 -0.001732 0.036532
1.903938 -0.001732 0.037161
2.218679 -0.001732 0.037819
2.533421 -0.001732 0.038330
2.848162 -0.001732 0.039145
3.162903 -0.001732 0.040191
3.477644 -0.001732 0.040928
3.792385 -0.001732 0.041961
4.107125 -0.001732 0.043901
4.421866 -0.001732 0.046831
4.736608 -0.001732 0.050120
5.051349 -0.001732 0.053965
5.366090 -0.001732 0.059804
5.680831 -0.001732 0.067468
5.995571 -0.001732 0.076087
6.310312 -0.001732 0.090300
6.625053 -0.001732 0.115090
6.939795 -0.001732 0.159683
7.254536 -0.001732 0.244345
7.569277 -0.001732 0.392920
7.884017 -0.001732 0.615091
8.198758 -0.001732 0.873286
8.513499 -0.001732 1.141652
8.828240 -0.001732 1.419313
9.142982 -0.001732 1.655545
9.457723 -0.001732 1.874248
9.772464 -0.001732 2.058858
10.087205 -0.001732 2.224037
10.401946 -0.001732 2.392810
10.716687 -0.001732 2.570621
11.031426 -0.001732 2.712736
11.346168 -0.001732 2.877478
11.660909 -0.001732 3.070708
11.975650 -0.001732 3.245177
12.290391 -0.001732 3.361830
12.605132 -0.001732 3.403919
12.919873 -0.001732 3.369686
13.234614 -0.001732 3.392953
13.549356 -0.001732 3.419659
13.864097 -0.001732 3.718284
14.178838 -0.001732 4.122024
14.493579 -0.001732 4.705697
14.808320 -0.001732 0.000000
15.123059 -0.001732 0.000000
15.437800 -0.001732 0.000000
15.752542 -0.001732 0.000000
16.067284 -0.001732 0.000000
16.382023 -0.001732 0.000000
16.696766 -0.001732 0.000000
17.011505 -0.001732 0.000000
17.326248 -0.001732 0.000000
17.640987 -0.001732 0.000000
17.955730 -0.001732 0.000000
18.270470 -0.001732 0.000000
18.585213 -0.001732 0.000000
18.899952 -0.001732 0.000000
-7.223550 -0.316475 0.000000
-6.908809 -0.316475 0.000000
-6.594068 -0.316475 0.000000
-6.279327 -0.316475 0.000000
-5.964586 -0.316475 0.000000
-5.649845 -0.316475 0.000000
-5.335104 -0.316475 0.000000
-5.020363 -0.316475 0.000000
-4.705622 -0.316475 0.000000
-4.390881 -0.316475 0.000000
-4.076140 -0.316475 0.000000
-3.761399 -0.316475 0.000000
-3.446658 -0.316475 0.000000
-3.131917 -0.316475 0.000000
-2.817176 -0.316475 0.000000
-2.502435 -0.316475 0.000000
-2.187694 -0.316475 0.000000
-1.872953 -0.316475 0.001385
-1.558212 -0.316475 0.001833
-1.243471 -0.316475 0.002366
-0.928730 -0.316475 0.003516
-0.613989 -0.316475 0.005235
-0.299248 -0.316475 0.006883
0.015493 -0.316475 0.009154
0.330234 -0.316475 0.011858
0.644975 -0.316475 0.015828
0.959716 -0.316475 0.020514
1.274457 -0.316475 0.025795
1.589198 -0.316475 0.031403
1.903938 -0.316475 0.036046
2.218679 -0.316475 0.038573
2.533421 -0.316475 0.039838
2.848162 -0.316475 0.040857
3.162903 -0.316475 0.041902
3.477644 -0.316475 0.042444
3.792385 -0.316475 0.043465
4.107125 -0.316475 0.045423
4.421866 -0.316475 0.048397
4.736608 -0.316475 0.051751
5.051349 -0.316475 0.055929
5.366090 -0.316475 0.062309
5.680831 -0.316475 0.070518
5.995571 -0.316475 0.079643
6.310312 -0.316475 0.094158
6.625053 -0.316475 0.122994
6.939795 -0.316475 0.169472
7.254536 -0.316475 0.266909
7.569277 -0.316475 0.424871
7.884017 -0.316475 0.658305
8.198758 -0.316475 0.919733
8.513499 -0.316475 1.206195
8.828240 -0.316475 1.487184
9.142982 -0.316475 1.735024
9.457723 -0.316475 1.956282
9.772464 -0.316475 2.127334
10.087205 -0.316475 2.332475
10.401946 -0.316475 2.516211
10.716687 -0.316475 2.679404
11.031426 -0.316475 2.873798
11.346168 -0.316475 3.044449
11.660909 -0.316475 3.221274
11.975650 -0.316475 3.409002
12.290391 -0.316475 3.629467
12.605132 -0.316475 3.688704
12.919873 -0.316475 3.644248
13.234614 -0.316475 3.609502
13.549356 -0.316475 3.712795
13.864097 -0.316475 3.953958
14.178838 -0.316475 4.377682
14.493579 -0.316475 4.669651
14.808320 -0.316475 0.000000
15.123059 -0.316475 0.000000
15.437800 -0.316475 0.000000
15.752542 -0.316475 0.000000
16.067284 -0.316475 0.000000
16.382023 -0.316475 0.000000
16.696766 -0.316475 0.000000
17.011505 -0.316475 0.000000
17.326248 -0.316475 0.000000
17.640987 -0.316475 0.000000
17.955730 -0.316475 0.000000
18.270470 -0.316475 0.000000
18.585213 -0.316475 0.000000
18.899952 -0.316475 0.000000
-7.223550 -0.631214 0.000000
-6.908809 -0.631214 0.000000
-6.594068 -0.631214 0.000000
-6.279327 -0.631214 0.000000
-5.964586 -0.631214 0.000000
-5.649845 -0.631214 0.000000
-5.335104 -0.631214 0.000000
-5.020363 -0.631214 0.000000
-4.705622 -0.631214 0.000000
-4.390881 -0.631214 0.000000
-4.076140 -0.631214 0.000000
-3.761399 -0.631214 0.000000
-3.446658 -0.631214 0.000000
-3.131917 -0.631214 0.000000
-2.817176 -0.631214 0.000000
-2.502435 -0.631214 0.000000
-2.187694 -0.631214 0.000000
-1.872953 -0.631214 0.000000
-1.558212 -0.631214 0.000000
-1.243471 -0.631214 0.000000
-0.928730 -0.631214 0.000000
-0.613989 -0.631214 0.000000
-0.299248 -0.631214 0.000000
0.015493 -0.631214 0.000000
0.330234 -0.631214 0.000000
0.644975 -0.631214 0.000000
0.959716 -0.631214 0.000000
1.274457 -0.631214 0.000000
1.589198 -0.631214 0.000000
1.903938 -0.631214 0.000000
2.218679 -0.631214 0.000000
2.533421 -0.631214 0.000000
2.848162 -0.631214 0.000000
3.162903 -0.631214 0.000000
3.477644 -0.631214 0.000000
3.792385 -0.631214 0.000000
4.107125 -0.631214 0.000000
4.421866 -0.631214 0.000000
4.736608 -0.631214 0.000000
5.051349 -0.631214 0.000000
5.366090 -0.631214 0.000000
5.680831 -0.631214 0.000000
5.995571 -0.631214 0.000000
6.310312 -0.631214 0.000000
6.625053 -0.631214 0.064023
6.939795 -0.631214 0.176079
7.254536 -0.631214 0.689624
7.569277 -0.631214 0.271241
7.884017 -0.631214 0.438863
8.198758 -0.631214 0.625677
8.513499 -0.631214 0.717873
8.828240 -0.631214 0.683348
9.142982 -0.631214 0.794969
9.457723 -0.631214 0.902879
9.772464 -0.631214 0.999709
10.087205 -0.631214 1.209639
10.401946 -0.631214 1.494616
10.716687 -0.631214 1.849613
11.031426 -0.631214 2.257908
11.346168 -0.631214 2.643164
11.660909 -0.631214 3.036899
11.975650 -0.631214 3.406313
12.290391 -0.631214 3.706081
12.605132 -0.631214 3.779164
12.919873 -0.631214 3.850314
13.234614 -0.631214 3.941423
13.549356 -0.631214 3.941413
13.864097 -0.631214 4.159958
14.178838 -0.631214 4.483275
14.493579 -0.631214 5.468146
14.808320 -0.631214 0.000000
15.123059 -0.631214 0.000000
15.437800 -0.631214 0.000000
15.752542 -0.631214 0.000000
16.067284 -0.631214 0.000000
16.382023 -0.631214 0.000000
16.696766 -0.631214 0.000000
17.011505 -0.631214 0.000000
17.326248 -0.631214 0.000000
17.640987 -0.631214 0.000000
17.955730 -0.631214 0.000000
18.270470 -0.631214 0.000000
18.585213 -0.631214 0.000000
18.899952 -0.631214 0.000000
-7.223550 -0.945957 0.000000
-6.908809 -0.945957 0.000000
-6.594068 -0.945957 0.000000
-6.279327 -0.945957 0.000000
-5.964586 -0.945957 0.000000
-5.649845 -0.945957 0.000000
-5.335104 -0.945957 0.000000
-5.020363 -0.945957 0.000000
-4.705622 -0.945957 0.000000
-4.390881 -0.945957 0.000000
-4.076140 -0.945957 0.000000
-3.761399 -0.945957 0.000000
-3.446658 -0.945957 0.000000
-3.131917 -0.945957 0.000000
-2.817176 -0.945957 0.000000
-2.502435 -0.945957 0.000000
-2.187694 -0.945957 0.000000
-1.872953 -0.945957 0.000000
-1.558212 -0.945957 0.000000
-1.243471 -0.945957 0.000000
-0.928730 -0.945957 0.000000
-0.613989 -0.945957 0.000000
-0.299248 -0.945957 0.000000
0.015493 -0.945957 0.000000
0.330234 -0.945957 0.000000
0.644975 -0.945957 0.000000
0.959716 -0.945957 0.000000
1.274457 -0.945957 0.000000
1.589198 -0.945957 0.000000
1.903938 -0.945957 0.000000
2.218679 -0.945957 0.000000
2.533421 -0.945957 0.000000
2.848162 -0.945957 0.000000
3.162903 -0.945957 0.000000
3.477644 -0.945957 0.000000
3.792385 -0.945957 0.000000
4.107125 -0.945957 0.000000
4.421866 -0.945957 0.000000
4.736608 -0.945957 0.000000
5.051349 -0.945957 0.000000
5.366090 -0.945957 0.000000
5.680831 -0.945957 0.000000
5.995571 -0.945957 0.000000
6.310312 -0.945957 0.000000
6.625053 -0.945957 0.000000
6.939795 -0.945957 0.000000
7.254536 -0.945957 0.000000
7.569277 -0.945957 0.000000
7.884017 -0.945957 0.000000
8.198758 -0.945957 0.000000
8.513499 -0.945957 0.000000
8.828240 -0.945957 0.000000
9.142982 -0.945957 0.000000
9.457723 -0.945957 0.000000
9.772464 -0.945957 4.264859
10.087205 -0.945957 5.162124
10.401946 -0.945957 2.081105
10.716687 -0.945957 2.299528
11.031426 -0.945957 1.481039
11.346168 -0.945957 1.387497
11.660909 -0.945957 1.294263
11.975650 -0.945957 1.259052
12.290391 -0.945957 1.360557
12.605132 -0.945957 1.408311
12.919873 -0.945957 1.592879
13.234614 -0.945957 1.760867
13.549356 -0.945957 1.864366
13.864097 -0.945957 2.181025
14.178838 -0.945957 2.345377
14.493579 -0.945957 2.066748
14.808320 -0.945957 0.000000
15.123059 -0.945957 0.000000
15.437800 -0.945957 0.000000
15.752542 -0.945957 0.000000
16.067284 -0.945957 0.000000
16.382023 -0.945957 0.000000
16.696766 -0.945957 0.000000
17.011505 -0.945957 0.000000
17.326248 -0.945957 0.000000
17.640987 -0.945957 0.000000
17.955730 -0.945957 0.000000
18.270470 -0.945957 0.000000
18.585213 -0.945957 0.000000
18.899952 -0.945957 0.000000
-7.223550 -1.260696 0.000000
-6.908809 -1.260696 0.000000
-6.594068 -1.260696 0.000000
-6.279327 -1.260696 0.000000
-5.964586 -1.260696 0.000000
-5.649845 -1.260696 0.000000
-5.335104 -1.260696 0.000000
-5.020363 -1.260696 0.000000
-4.705622 -1.260696 0.000000
-4.390881 -1.260696 0.000000
-4.076140 -1.260696 0.000000
-3.761399 -1.260696 0.000000
-3.446658 -1.260696 0.000000
-3.131917 -1.260696 0.000000
-2.817176 -1.260696 0.000000
-2.502435 -1.260696 0.000000
-2.187694 -1.260696 0.000000
-1.872953 -1.260696 0.000000
-1.558212 -1.260696 0.000000
-1.243471 -1.260696 0.000000
-0.928730 -1.260696 0.000000
-0.613989 -1.260696 0.000000
-0.299248 -1.260696 0.000000
0.015493 -1.260696 0.000000
0.330234 -1.260696 0.000000
0.644975 -1.260696 0.000000
0.959716 -1.260696 0.000000
1.274457 -1.260696 0.000000
1.589198 -1.260696 0.000000
1.903938 -1.260696 0.000000
2.218679 -1.260696 0.000000
2.533421 -1.260696 0.000000
2.848162 -1.260696 0.000000
3.162903 -1.260696 0.000000
3.477644 -1.260696 0.000000
3.792385 -1.260696 0.000000
4.107125 -1.260696 0.000000
4.421866 -1.260696 0.000000
4.736608 -1.260696 0.000000
5.051349 -1.260696 0.000000
5.366090 -1.260696 0.000000
5.680831 -1.260696 0.000000
5.995571 -1.260696 0.000000
6.310312 -1.260696 0.000000
6.625053 -1.260696 0.000000
6.939795 -1.260696 0.000000
7.254536 -1.260696 0.000000
7.569277 -1.260696 0.000000
7.884017 -1.260696 0.000000
8.198758 -1.260696 0.000000
8.513499 -1.260696 0.000000
8.828240 -1.260696 0.000000
9.142982 -1.260696 0.000000
9.457723 -1.260696 0.000000
9.772464 -1.260696 0.000000
10.087205 -1.260696 0.000000
10.401946 -1.260696 0.000000
10.716687 -1.260696 0.000000
11.031426 -1.260696 0.000000
11.346168 -1.260696 0.000000
11.660909 -1.260696 0.000000
11.975650 -1.260696 0.000000
12.290391 -1.260696 0.000000
12.605132 -1.260696 0.000000
12.919873 -1.260696 0.000000
13.234614 -1.260696 0.000000
13.549356 -1.260696 3.165232
13.864097 -1.260696 1.205196
14.178838 -1.260696 1.017815
14.493579 -1.260696 0.000000
14.808320 -1.260696 0.000000
15.123059 -1.260696 0.000000
15.437800 -1.260696 0.000000
15.752542 -1.260696 0.000000
16.067284 -1.260696 0.000000
16.382023 -1.260696 0.000000
16.696766 -1.260696 0.000000
17.011505 -1.260696 0.000000
17.326248 -1.260696 0.000000
17.640987 -1.260696 0.000000
17.955730 -1.260696 0.000000
18.270470 -1.260696 0.000000
18.585213 -1.260696 0.000000
18.899952 -1.260696 0.000000
-7.223550 -1.575439 0.000000
-6.908809 -1.575439 0.000000
-6.594068 -1.575439 0.000000
-6.279327 -1.575439 0.000000
-5.964586 -1.575439 0.000000
-5.649845 -1.575439 0.000000
-5.335104 -1.575439 0.000000
-5.020363 -1.575439 0.000000
-4.705622 -1.575439 0.000000
-4.390881 -1.575439 0.000000
-4.076140 -1.575439 0.000000
-3.761399 -1.575439 0.000000
-3.446658 -1.575439 0.000000
-3.131917 -1.575439 0.000000
-2.817176 -1.575439 0.000000
-2.502435 -1.575439 0.000000
-2.187694 -1.575439 0.000000
-1.872953 -1.575439 0.000000
-1.558212 -1.575439 0.000000
-1.243471 -1.575439 0.000000
-0.928730 -1.575439 0.000000
-0.613989 -1.575439 0.000000
-0.299248 -1.575439 0.000000
0.015493 -1.575439 0.000000
0.330234 -1.575439 0.000000
0.644975 -1.575439 0.000000
0.959716 -1.575439 0.000000
1.274457 -1.575439 0.000000
1.589198 -1.575439 0.000000
1.903938 -1.575439 0.000000
2.218679 -1.575439 0.000000
2.533421 -1.575439 0.000000
2.848162 -1.575439 0.000000
3.162903 -1.575439 0.000000
3.477644 -1.575439 0.000000
3.792385 -1.575439 0.000000
4.107125 -1.575439 0.000000
4.421866 -1.575439 0.000000
4.736608 -1.575439 0.000000
5.051349 -1.575439 0.000000
5.366090 -1.575439 0.000000
5.680831 -1.575439 0.000000
5.995571 -1.575439 0.000000
6.310312 -1.575439 0.000000
6.625053 -1.575439 0.000000
6.939795 -1.575439 0.000000
7.254536 -1.575439 0.000000
7.569277 -1.575439 0.000000
7.884017 -1.575439 0.000000
8.198758 -1.575439 0.000000
8.513499 -1.575439 0.000000
8.828240 -1.575439 0.000000
9.142982 -1.575439 0.000000
9.457723 -1.575439 0.000000
9.772464 -1.575439 0.000000
10.087205 -1.575439 0.000000
10.401946 -1.575439 0.000000
10.716687 -1.575439 0.000000
11.031426 -1.575439 0.000000
11.346168 -1.575439 0.000000
11.660909 -1.575439 0.000000
11.975650 -1.575439 0.000000
12.290391 -1.575439 0.000000
12.605132 -1.575439 0.000000
12.919873 -1.575439 0.000000
13.234614 -1.575439 0.000000
13.549356 -1.575439 0.000000
13.864097 -1.575439 0.000000
14.178838 -1.575439 0.000000
14.493579 -1.575439 0.000000
14.808320 -1.575439 0.000000
15.123059 -1.575439 0.000000
15.437800 -1.575439 0.000000
15.752542 -1.575439 0.000000
16.067284 -1.575439 0.000000
16.382023 -1.575439 0.000000
16.696766 -1.575439 0.000000
17.011505 -1.575439 0.000000
17.326248 -1.575439 0.000000
17.640987 -1.575439 0.000000
17.955730 -1.575439 0.000000
18.270470 -1.575439 0.000000
18.585213 -1.575439 0.000000
18.899952 -1.575439 0.000000
