TITLE = "B00010"
VARIABLES = "x", "y", "Reynold stress XZ"
ZONE T="Frame 1" I=84, J=163, F=POINT
-7.223550 49.412601 0.000000
-6.908809 49.412601 0.000000
-6.594068 49.412601 0.000000
-6.279327 49.412601 0.000000
-5.964586 49.412601 0.000000
-5.649845 49.412601 0.000000
-5.335104 49.412601 0.000000
-5.020363 49.412601 0.000000
-4.705622 49.412601 0.000000
-4.390881 49.412601 0.000000
-4.076140 49.412601 0.000000
-3.761399 49.412601 0.000000
-3.446658 49.412601 0.000000
-3.131917 49.412601 0.000000
-2.817176 49.412601 0.000000
-2.502435 49.412601 0.000000
-2.187694 49.412601 0.000000
-1.872953 49.412601 0.000000
-1.558212 49.412601 0.000000
-1.243471 49.412601 0.000000
-0.928730 49.412601 0.000000
-0.613989 49.412601 0.000000
-0.299248 49.412601 0.000000
0.015493 49.412601 0.000000
0.330234 49.412601 0.000000
0.644975 49.412601 0.000000
0.959716 49.412601 0.000000
1.274457 49.412601 0.000000
1.589198 49.412601 0.000000
1.903938 49.412601 0.000000
2.218679 49.412601 0.000000
2.533421 49.412601 0.000000
2.848162 49.412601 0.000000
3.162903 49.412601 0.000000
3.477644 49.412601 0.000000
3.792385 49.412601 0.000000
4.107125 49.412601 0.000000
4.421866 49.412601 0.000000
4.736608 49.412601 0.000000
5.051349 49.412601 0.000000
5.366090 49.412601 0.000000
5.680831 49.412601 0.000000
5.995571 49.412601 0.000000
6.310312 49.412601 0.000000
6.625053 49.412601 0.000000
6.939795 49.412601 0.000000
7.254536 49.412601 0.000000
7.569277 49.412601 0.000000
7.884017 49.412601 0.000000
8.198758 49.412601 0.000000
8.513499 49.412601 0.000000
8.828240 49.412601 0.000000
9.142982 49.412601 0.000000
9.457723 49.412601 0.000000
9.772464 49.412601 0.000000
10.087205 49.412601 0.000000
10.401946 49.412601 0.000000
10.716687 49.412601 0.000000
11.031426 49.412601 0.000000
11.346168 49.412601 0.000000
11.660909 49.412601 0.000000
11.975650 49.412601 0.000000
12.290391 49.412601 0.000000
12.605132 49.412601 0.000000
12.919873 49.412601 0.000000
13.234614 49.412601 0.000000
13.549356 49.412601 0.000000
13.864097 49.412601 0.000000
14.178838 49.412601 0.000000
14.493579 49.412601 0.000000
14.808320 49.412601 0.000000
15.123059 49.412601 0.000000
15.437800 49.412601 0.000000
15.752542 49.412601 0.000000
16.067284 49.412601 0.000000
16.382023 49.412601 0.000000
16.696766 49.412601 0.000000
17.011505 49.412601 0.000000
17.326248 49.412601 0.000000
17.640987 49.412601 0.000000
17.955730 49.412601 0.000000
18.270470 49.412601 0.000000
18.585213 49.412601 0.000000
18.899952 49.412601 0.000000
-7.223550 49.097862 0.000000
-6.908809 49.097862 0.000000
-6.594068 49.097862 0.000000
-6.279327 49.097862 0.000000
-5.964586 49.097862 0.000000
-5.649845 49.097862 0.000000
-5.335104 49.097862 0.000000
-5.020363 49.097862 0.000000
-4.705622 49.097862 0.000000
-4.390881 49.097862 0.000000
-4.076140 49.097862 0.000000
-3.761399 49.097862 0.000000
-3.446658 49.097862 0.000000
-3.131917 49.097862 0.000000
-2.817176 49.097862 0.000000
-2.502435 49.097862 0.000000
-2.187694 49.097862 0.000000
-1.872953 49.097862 0.000000
-1.558212 49.097862 0.000000
-1.243471 49.097862 0.000000
-0.928730 49.097862 0.000000
-0.613989 49.097862 0.000000
-0.299248 49.097862 0.000000
0.015493 49.097862 0.000000
0.330234 49.097862 0.000000
0.644975 49.097862 0.000000
0.959716 49.097862 0.000000
1.274457 49.097862 0.000000
1.589198 49.097862 0.000000
1.903938 49.097862 0.000000
2.218679 49.097862 0.000000
2.533421 49.097862 0.000000
2.848162 49.097862 0.000000
3.162903 49.097862 0.000000
3.477644 49.097862 0.000000
3.792385 49.097862 0.000000
4.107125 49.097862 0.000000
4.421866 49.097862 0.000000
4.736608 49.097862 0.000000
5.051349 49.097862 0.000000
5.366090 49.097862 0.000000
5.680831 49.097862 0.000000
5.995571 49.097862 0.000000
6.310312 49.097862 0.000000
6.625053 49.097862 0.000000
6.939795 49.097862 0.000000
7.254536 49.097862 0.000000
7.569277 49.097862 0.000000
7.884017 49.097862 0.000000
8.198758 49.097862 0.000000
8.513499 49.097862 0.000000
8.828240 49.097862 0.000000
9.142982 49.097862 0.000000
9.457723 49.097862 0.000000
9.772464 49.097862 0.000000
10.087205 49.097862 0.000000
10.401946 49.097862 0.000000
10.716687 49.097862 0.000000
11.031426 49.097862 0.000000
11.346168 49.097862 0.000000
11.660909 49.097862 0.000000
11.975650 49.097862 0.000000
12.290391 49.097862 0.000000
12.605132 49.097862 0.000000
12.919873 49.097862 0.000000
13.234614 49.097862 0.000000
13.549356 49.097862 0.000000
13.864097 49.097862 0.000000
14.178838 49.097862 0.000000
14.493579 49.097862 0.000000
14.808320 49.097862 0.000000
15.123059 49.097862 0.000000
15.437800 49.097862 0.000000
15.752542 49.097862 -2.152376
16.067284 49.097862 -0.096250
16.382023 49.097862 0.000000
16.696766 49.097862 0.000000
17.011505 49.097862 2.416500
17.326248 49.097862 3.948968
17.640987 49.097862 3.834637
17.955730 49.097862 -5.164364
18.270470 49.097862 18.846077
18.585213 49.097862 7.281210
18.899952 49.097862 0.000000
-7.223550 48.783119 0.000000
-6.908809 48.783119 0.000000
-6.594068 48.783119 0.000000
-6.279327 48.783119 0.000000
-5.964586 48.783119 0.000000
-5.649845 48.783119 0.000000
-5.335104 48.783119 0.000000
-5.020363 48.783119 0.000000
-4.705622 48.783119 0.000000
-4.390881 48.783119 0.000000
-4.076140 48.783119 0.000000
-3.761399 48.783119 0.000000
-3.446658 48.783119 0.000000
-3.131917 48.783119 0.000000
-2.817176 48.783119 0.000000
-2.502435 48.783119 0.000000
-2.187694 48.783119 0.000000
-1.872953 48.783119 0.000000
-1.558212 48.783119 0.000000
-1.243471 48.783119 0.000000
-0.928730 48.783119 0.000000
-0.613989 48.783119 0.000000
-0.299248 48.783119 0.000000
0.015493 48.783119 0.000000
0.330234 48.783119 0.000000
0.644975 48.783119 0.000000
0.959716 48.783119 0.000000
1.274457 48.783119 0.000000
1.589198 48.783119 0.000000
1.903938 48.783119 0.000000
2.218679 48.783119 0.000000
2.533421 48.783119 0.000000
2.848162 48.783119 0.000000
3.162903 48.783119 0.000000
3.477644 48.783119 0.000000
3.792385 48.783119 0.000000
4.107125 48.783119 0.000000
4.421866 48.783119 0.000000
4.736608 48.783119 0.000000
5.051349 48.783119 0.000000
5.366090 48.783119 0.000000
5.680831 48.783119 0.000000
5.995571 48.783119 0.000000
6.310312 48.783119 0.000000
6.625053 48.783119 0.000000
6.939795 48.783119 0.000000
7.254536 48.783119 0.000000
7.569277 48.783119 0.000000
7.884017 48.783119 0.000000
8.198758 48.783119 0.000000
8.513499 48.783119 0.000000
8.828240 48.783119 -0.422573
9.142982 48.783119 0.427075
9.457723 48.783119 1.096367
9.772464 48.783119 -1.800840
10.087205 48.783119 0.656915
10.401946 48.783119 -0.418087
10.716687 48.783119 -0.080406
11.031426 48.783119 -0.802519
11.346168 48.783119 -0.850103
11.660909 48.783119 -0.671275
11.975650 48.783119 -0.273372
12.290391 48.783119 0.143180
12.605132 48.783119 0.053559
12.919873 48.783119 -0.554538
13.234614 48.783119 -0.631917
13.549356 48.783119 -0.607350
13.864097 48.783119 -0.658372
14.178838 48.783119 -0.559436
14.493579 48.783119 -0.433156
14.808320 48.783119 -0.361353
15.123059 48.783119 -0.336450
15.437800 48.783119 -0.277829
15.752542 48.783119 -0.264677
16.067284 48.783119 -0.154872
16.382023 48.783119 -0.167655
16.696766 48.783119 -0.058923
17.011505 48.783119 0.113628
17.326248 48.783119 0.259155
17.640987 48.783119 0.624345
17.955730 48.783119 0.577303
18.270470 48.783119 0.710184
18.585213 48.783119 0.827421
18.899952 48.783119 0.322332
-7.223550 48.468380 0.000000
-6.908809 48.468380 0.000000
-6.594068 48.468380 0.001201
-6.279327 48.468380 0.001032
-5.964586 48.468380 0.001172
-5.649845 48.468380 0.001192
-5.335104 48.468380 0.001180
-5.020363 48.468380 0.001302
-4.705622 48.468380 0.001081
-4.390881 48.468380 0.001051
-4.076140 48.468380 0.001124
-3.761399 48.468380 0.001083
-3.446658 48.468380 0.001023
-3.131917 48.468380 0.001146
-2.817176 48.468380 0.001436
-2.502435 48.468380 0.001356
-2.187694 48.468380 0.001262
-1.872953 48.468380 0.001380
-1.558212 48.468380 0.001215
-1.243471 48.468380 0.000970
-0.928730 48.468380 0.000957
-0.613989 48.468380 0.000877
-0.299248 48.468380 0.000902
0.015493 48.468380 0.000868
0.330234 48.468380 0.001016
0.644975 48.468380 0.001264
0.959716 48.468380 0.001440
1.274457 48.468380 0.001488
1.589198 48.468380 0.001411
1.903938 48.468380 0.001299
2.218679 48.468380 0.001235
2.533421 48.468380 0.001301
2.848162 48.468380 0.001170
3.162903 48.468380 0.001263
3.477644 48.468380 0.001362
3.792385 48.468380 0.001138
4.107125 48.468380 0.000884
4.421866 48.468380 0.000919
4.736608 48.468380 0.001122
5.051349 48.468380 0.001050
5.366090 48.468380 0.000853
5.680831 48.468380 0.000807
5.995571 48.468380 0.000660
6.310312 48.468380 0.000230
6.625053 48.468380 -0.000285
6.939795 48.468380 -0.000917
7.254536 48.468380 -0.001144
7.569277 48.468380 -0.001995
7.884017 48.468380 0.000638
8.198758 48.468380 0.000404
8.513499 48.468380 0.003152
8.828240 48.468380 0.012872
9.142982 48.468380 0.011388
9.457723 48.468380 0.018321
9.772464 48.468380 0.010242
10.087205 48.468380 0.006873
10.401946 48.468380 0.009501
10.716687 48.468380 0.004613
11.031426 48.468380 0.013193
11.346168 48.468380 0.004698
11.660909 48.468380 -0.003428
11.975650 48.468380 -0.007142
12.290391 48.468380 -0.004661
12.605132 48.468380 -0.007593
12.919873 48.468380 -0.029529
13.234614 48.468380 -0.036522
13.549356 48.468380 -0.030186
13.864097 48.468380 -0.020706
14.178838 48.468380 -0.033235
14.493579 48.468380 -0.030419
14.808320 48.468380 -0.030417
15.123059 48.468380 -0.013863
15.437800 48.468380 -0.006800
15.752542 48.468380 -0.006478
16.067284 48.468380 0.007995
16.382023 48.468380 -0.007983
16.696766 48.468380 -0.029852
17.011505 48.468380 -0.027453
17.326248 48.468380 -0.004411
17.640987 48.468380 -0.014053
17.955730 48.468380 -0.005322
18.270470 48.468380 0.008953
18.585213 48.468380 0.006688
18.899952 48.468380 -0.063103
-7.223550 48.153637 0.000000
-6.908809 48.153637 0.000000
-6.594068 48.153637 0.001090
-6.279327 48.153637 0.001201
-5.964586 48.153637 0.000981
-5.649845 48.153637 0.001005
-5.335104 48.153637 0.001018
-5.020363 48.153637 0.001095
-4.705622 48.153637 0.001014
-4.390881 48.153637 0.000918
-4.076140 48.153637 0.000880
-3.761399 48.153637 0.000861
-3.446658 48.153637 0.000843
-3.131917 48.153637 0.000869
-2.817176 48.153637 0.001014
-2.502435 48.153637 0.001074
-2.187694 48.153637 0.001071
-1.872953 48.153637 0.001055
-1.558212 48.153637 0.000888
-1.243471 48.153637 0.000778
-0.928730 48.153637 0.000870
-0.613989 48.153637 0.000906
-0.299248 48.153637 0.000900
0.015493 48.153637 0.000775
0.330234 48.153637 0.000859
0.644975 48.153637 0.001101
0.959716 48.153637 0.001289
1.274457 48.153637 0.001269
1.589198 48.153637 0.001175
1.903938 48.153637 0.001090
2.218679 48.153637 0.001052
2.533421 48.153637 0.001126
2.848162 48.153637 0.001059
3.162903 48.153637 0.001063
3.477644 48.153637 0.001116
3.792385 48.153637 0.000930
4.107125 48.153637 0.000735
4.421866 48.153637 0.000756
4.736608 48.153637 0.000841
5.051349 48.153637 0.000699
5.366090 48.153637 0.000589
5.680831 48.153637 0.000547
5.995571 48.153637 0.000308
6.310312 48.153637 -0.000191
6.625053 48.153637 -0.000890
6.939795 48.153637 -0.002036
7.254536 48.153637 -0.002666
7.569277 48.153637 -0.003444
7.884017 48.153637 -0.003943
8.198758 48.153637 -0.001984
8.513499 48.153637 -0.001565
8.828240 48.153637 0.000143
9.142982 48.153637 0.004183
9.457723 48.153637 0.010119
9.772464 48.153637 0.015759
10.087205 48.153637 0.012335
10.401946 48.153637 0.012602
10.716687 48.153637 0.015451
11.031426 48.153637 0.016368
11.346168 48.153637 0.007365
11.660909 48.153637 0.007599
11.975650 48.153637 0.030578
12.290391 48.153637 0.030266
12.605132 48.153637 0.015174
12.919873 48.153637 -0.002484
13.234614 48.153637 0.007570
13.549356 48.153637 -0.002040
13.864097 48.153637 0.000039
14.178838 48.153637 0.007447
14.493579 48.153637 -0.016993
14.808320 48.153637 -0.005214
15.123059 48.153637 -0.010571
15.437800 48.153637 0.000532
15.752542 48.153637 0.009058
16.067284 48.153637 0.000654
16.382023 48.153637 -0.043304
16.696766 48.153637 -0.024691
17.011505 48.153637 -0.031285
17.326248 48.153637 -0.005535
17.640987 48.153637 0.024891
17.955730 48.153637 -0.000544
18.270470 48.153637 0.015257
18.585213 48.153637 -0.043900
18.899952 48.153637 -0.129293
-7.223550 47.838898 0.000000
-6.908809 47.838898 0.000000
-6.594068 47.838898 0.001317
-6.279327 47.838898 0.000992
-5.964586 47.838898 0.000868
-5.649845 47.838898 0.000889
-5.335104 47.838898 0.000895
-5.020363 47.838898 0.000924
-4.705622 47.838898 0.000942
-4.390881 47.838898 0.000881
-4.076140 47.838898 0.000795
-3.761399 47.838898 0.000767
-3.446658 47.838898 0.000764
-3.131917 47.838898 0.000720
-2.817176 47.838898 0.000779
-2.502435 47.838898 0.000915
-2.187694 47.838898 0.001004
-1.872953 47.838898 0.000857
-1.558212 47.838898 0.000688
-1.243471 47.838898 0.000670
-0.928730 47.838898 0.000795
-0.613989 47.838898 0.000889
-0.299248 47.838898 0.000844
0.015493 47.838898 0.000687
0.330234 47.838898 0.000728
0.644975 47.838898 0.000885
0.959716 47.838898 0.001065
1.274457 47.838898 0.000993
1.589198 47.838898 0.000928
1.903938 47.838898 0.000864
2.218679 47.838898 0.000814
2.533421 47.838898 0.000925
2.848162 47.838898 0.000909
3.162903 47.838898 0.000830
3.477644 47.838898 0.000837
3.792385 47.838898 0.000713
4.107125 47.838898 0.000610
4.421866 47.838898 0.000612
4.736608 47.838898 0.000629
5.051349 47.838898 0.000460
5.366090 47.838898 0.000425
5.680831 47.838898 0.000330
5.995571 47.838898 0.000033
6.310312 47.838898 -0.000651
6.625053 47.838898 -0.000987
6.939795 47.838898 -0.001797
7.254536 47.838898 -0.002760
7.569277 47.838898 -0.003262
7.884017 47.838898 -0.003235
8.198758 47.838898 -0.002262
8.513499 47.838898 -0.000192
8.828240 47.838898 0.000571
9.142982 47.838898 0.003452
9.457723 47.838898 0.006920
9.772464 47.838898 0.006263
10.087205 47.838898 0.007483
10.401946 47.838898 0.008997
10.716687 47.838898 0.008721
11.031426 47.838898 0.019235
11.346168 47.838898 0.019524
11.660909 47.838898 0.023396
11.975650 47.838898 0.027277
12.290391 47.838898 0.036727
12.605132 47.838898 0.016976
12.919873 47.838898 0.020363
13.234614 47.838898 0.017584
13.549356 47.838898 0.018367
13.864097 47.838898 0.005943
14.178838 47.838898 0.006949
14.493579 47.838898 -0.010307
14.808320 47.838898 -0.019801
15.123059 47.838898 -0.007245
15.437800 47.838898 -0.025080
15.752542 47.838898 -0.013425
16.067284 47.838898 0.002788
16.382023 47.838898 -0.031748
16.696766 47.838898 -0.028111
17.011505 47.838898 -0.003263
17.326248 47.838898 0.014734
17.640987 47.838898 0.032524
17.955730 47.838898 0.022089
18.270470 47.838898 -0.000627
18.585213 47.838898 0.000703
18.899952 47.838898 -0.141627
-7.223550 47.524155 0.000000
-6.908809 47.524155 0.000000
-6.594068 47.524155 0.001205
-6.279327 47.524155 0.000911
-5.964586 47.524155 0.000870
-5.649845 47.524155 0.000882
-5.335104 47.524155 0.000827
-5.020363 47.524155 0.000808
-4.705622 47.524155 0.000901
-4.390881 47.524155 0.000905
-4.076140 47.524155 0.000797
-3.761399 47.524155 0.000758
-3.446658 47.524155 0.000766
-3.131917 47.524155 0.000701
-2.817176 47.524155 0.000715
-2.502435 47.524155 0.000868
-2.187694 47.524155 0.000940
-1.872953 47.524155 0.000770
-1.558212 47.524155 0.000635
-1.243471 47.524155 0.000612
-0.928730 47.524155 0.000693
-0.613989 47.524155 0.000803
-0.299248 47.524155 0.000785
0.015493 47.524155 0.000648
0.330234 47.524155 0.000670
0.644975 47.524155 0.000786
0.959716 47.524155 0.000875
1.274457 47.524155 0.000816
1.589198 47.524155 0.000778
1.903938 47.524155 0.000731
2.218679 47.524155 0.000675
2.533421 47.524155 0.000821
2.848162 47.524155 0.000842
3.162903 47.524155 0.000677
3.477644 47.524155 0.000695
3.792385 47.524155 0.000605
4.107125 47.524155 0.000575
4.421866 47.524155 0.000548
4.736608 47.524155 0.000498
5.051349 47.524155 0.000360
5.366090 47.524155 0.000315
5.680831 47.524155 0.000216
5.995571 47.524155 -0.000197
6.310312 47.524155 -0.000706
6.625053 47.524155 -0.001206
6.939795 47.524155 -0.001703
7.254536 47.524155 -0.002559
7.569277 47.524155 -0.002807
7.884017 47.524155 -0.003138
8.198758 47.524155 -0.002224
8.513499 47.524155 -0.001834
8.828240 47.524155 0.000527
9.142982 47.524155 0.004172
9.457723 47.524155 0.006258
9.772464 47.524155 0.008398
10.087205 47.524155 0.011313
10.401946 47.524155 0.007156
10.716687 47.524155 0.007387
11.031426 47.524155 0.017594
11.346168 47.524155 0.014864
11.660909 47.524155 0.007410
11.975650 47.524155 0.022314
12.290391 47.524155 0.018204
12.605132 47.524155 0.006246
12.919873 47.524155 0.010681
13.234614 47.524155 0.022455
13.549356 47.524155 0.027193
13.864097 47.524155 -0.003526
14.178838 47.524155 -0.004163
14.493579 47.524155 -0.013408
14.808320 47.524155 -0.038263
15.123059 47.524155 -0.026512
15.437800 47.524155 -0.029114
15.752542 47.524155 -0.020171
16.067284 47.524155 -0.013247
16.382023 47.524155 -0.019462
16.696766 47.524155 -0.044884
17.011505 47.524155 -0.005690
17.326248 47.524155 0.023565
17.640987 47.524155 0.040837
17.955730 47.524155 0.033237
18.270470 47.524155 0.028219
18.585213 47.524155 0.013571
18.899952 47.524155 -0.104252
-7.223550 47.209415 0.000000
-6.908809 47.209415 0.000000
-6.594068 47.209415 0.001191
-6.279327 47.209415 0.000937
-5.964586 47.209415 0.000891
-5.649845 47.209415 0.000894
-5.335104 47.209415 0.000794
-5.020363 47.209415 0.000744
-4.705622 47.209415 0.000893
-4.390881 47.209415 0.000896
-4.076140 47.209415 0.000825
-3.761399 47.209415 0.000805
-3.446658 47.209415 0.000820
-3.131917 47.209415 0.000754
-2.817176 47.209415 0.000759
-2.502435 47.209415 0.000854
-2.187694 47.209415 0.000840
-1.872953 47.209415 0.000716
-1.558212 47.209415 0.000642
-1.243471 47.209415 0.000581
-0.928730 47.209415 0.000578
-0.613989 47.209415 0.000724
-0.299248 47.209415 0.000772
0.015493 47.209415 0.000644
0.330234 47.209415 0.000647
0.644975 47.209415 0.000749
0.959716 47.209415 0.000767
1.274457 47.209415 0.000691
1.589198 47.209415 0.000699
1.903938 47.209415 0.000646
2.218679 47.209415 0.000638
2.533421 47.209415 0.000749
2.848162 47.209415 0.000750
3.162903 47.209415 0.000583
3.477644 47.209415 0.000653
3.792385 47.209415 0.000596
4.107125 47.209415 0.000510
4.421866 47.209415 0.000446
4.736608 47.209415 0.000368
5.051349 47.209415 0.000301
5.366090 47.209415 0.000221
5.680831 47.209415 0.000090
5.995571 47.209415 -0.000333
6.310312 47.209415 -0.000836
6.625053 47.209415 -0.001306
6.939795 47.209415 -0.001936
7.254536 47.209415 -0.002772
7.569277 47.209415 -0.002803
7.884017 47.209415 -0.003519
8.198758 47.209415 -0.002961
8.513499 47.209415 -0.001381
8.828240 47.209415 -0.000564
9.142982 47.209415 0.001149
9.457723 47.209415 0.006372
9.772464 47.209415 0.007015
10.087205 47.209415 0.007523
10.401946 47.209415 0.003243
10.716687 47.209415 0.007713
11.031426 47.209415 0.022297
11.346168 47.209415 0.018185
11.660909 47.209415 0.002287
11.975650 47.209415 0.013405
12.290391 47.209415 0.013514
12.605132 47.209415 -0.006977
12.919873 47.209415 0.002484
13.234614 47.209415 0.008055
13.549356 47.209415 -0.009556
13.864097 47.209415 0.001011
14.178838 47.209415 -0.014879
14.493579 47.209415 -0.001925
14.808320 47.209415 -0.017648
15.123059 47.209415 -0.032905
15.437800 47.209415 -0.032866
15.752542 47.209415 -0.032112
16.067284 47.209415 -0.028283
16.382023 47.209415 -0.031375
16.696766 47.209415 -0.016187
17.011505 47.209415 -0.006128
17.326248 47.209415 0.009201
17.640987 47.209415 0.053288
17.955730 47.209415 0.064725
18.270470 47.209415 0.061020
18.585213 47.209415 0.073995
18.899952 47.209415 -0.104674
-7.223550 46.894672 0.000000
-6.908809 46.894672 0.000000
-6.594068 46.894672 0.001283
-6.279327 46.894672 0.000984
-5.964586 46.894672 0.000911
-5.649845 46.894672 0.000915
-5.335104 46.894672 0.000843
-5.020363 46.894672 0.000748
-4.705622 46.894672 0.000860
-4.390881 46.894672 0.000887
-4.076140 46.894672 0.000871
-3.761399 46.894672 0.000859
-3.446658 46.894672 0.000887
-3.131917 46.894672 0.000833
-2.817176 46.894672 0.000806
-2.502435 46.894672 0.000809
-2.187694 46.894672 0.000699
-1.872953 46.894672 0.000688
-1.558212 46.894672 0.000692
-1.243471 46.894672 0.000577
-0.928730 46.894672 0.000535
-0.613989 46.894672 0.000681
-0.299248 46.894672 0.000802
0.015493 46.894672 0.000651
0.330234 46.894672 0.000602
0.644975 46.894672 0.000672
0.959716 46.894672 0.000640
1.274457 46.894672 0.000575
1.589198 46.894672 0.000646
1.903938 46.894672 0.000631
2.218679 46.894672 0.000658
2.533421 46.894672 0.000714
2.848162 46.894672 0.000626
3.162903 46.894672 0.000585
3.477644 46.894672 0.000659
3.792385 46.894672 0.000627
4.107125 46.894672 0.000450
4.421866 46.894672 0.000272
4.736608 46.894672 0.000200
5.051349 46.894672 0.000230
5.366090 46.894672 0.000179
5.680831 46.894672 -0.000115
5.995571 46.894672 -0.000567
6.310312 46.894672 -0.001039
6.625053 46.894672 -0.001549
6.939795 46.894672 -0.002130
7.254536 46.894672 -0.002624
7.569277 46.894672 -0.003033
7.884017 46.894672 -0.003761
8.198758 46.894672 -0.003120
8.513499 46.894672 -0.002300
8.828240 46.894672 -0.000635
9.142982 46.894672 0.000829
9.457723 46.894672 0.005683
9.772464 46.894672 0.007121
10.087205 46.894672 0.007779
10.401946 46.894672 0.009922
10.716687 46.894672 0.016293
11.031426 46.894672 0.026906
11.346168 46.894672 0.020274
11.660909 46.894672 0.010946
11.975650 46.894672 0.022546
12.290391 46.894672 0.016322
12.605132 46.894672 0.000127
12.919873 46.894672 -0.001852
13.234614 46.894672 -0.005212
13.549356 46.894672 -0.018082
13.864097 46.894672 -0.003045
14.178838 46.894672 -0.013869
14.493579 46.894672 -0.008777
14.808320 46.894672 -0.015425
15.123059 46.894672 -0.020845
15.437800 46.894672 -0.025389
15.752542 46.894672 -0.037454
16.067284 46.894672 -0.047597
16.382023 46.894672 -0.035082
16.696766 46.894672 -0.025572
17.011505 46.894672 -0.010026
17.326248 46.894672 0.004289
17.640987 46.894672 0.042366
17.955730 46.894672 0.079255
18.270470 46.894672 0.091610
18.585213 46.894672 0.088191
18.899952 46.894672 -0.080378
-7.223550 46.579933 0.000000
-6.908809 46.579933 0.000000
-6.594068 46.579933 0.001274
-6.279327 46.579933 0.000951
-5.964586 46.579933 0.000874
-5.649845 46.579933 0.000932
-5.335104 46.579933 0.000937
-5.020363 46.579933 0.000809
-4.705622 46.579933 0.000818
-4.390881 46.579933 0.000848
-4.076140 46.579933 0.000881
-3.761399 46.579933 0.000903
-3.446658 46.579933 0.000956
-3.131917 46.579933 0.000902
-2.817176 46.579933 0.000817
-2.502435 46.579933 0.000747
-2.187694 46.579933 0.000606
-1.872953 46.579933 0.000698
-1.558212 46.579933 0.000788
-1.243471 46.579933 0.000644
-0.928730 46.579933 0.000553
-0.613989 46.579933 0.000677
-0.299248 46.579933 0.000832
0.015493 46.579933 0.000662
0.330234 46.579933 0.000526
0.644975 46.579933 0.000540
0.959716 46.579933 0.000496
1.274457 46.579933 0.000479
1.589198 46.579933 0.000599
1.903938 46.579933 0.000686
2.218679 46.579933 0.000712
2.533421 46.579933 0.000733
2.848162 46.579933 0.000610
3.162903 46.579933 0.000599
3.477644 46.579933 0.000635
3.792385 46.579933 0.000638
4.107125 46.579933 0.000439
4.421866 46.579933 0.000154
4.736608 46.579933 0.000106
5.051349 46.579933 0.000149
5.366090 46.579933 0.000050
5.680831 46.579933 -0.000350
5.995571 46.579933 -0.000732
6.310312 46.579933 -0.001266
6.625053 46.579933 -0.001798
6.939795 46.579933 -0.002459
7.254536 46.579933 -0.002609
7.569277 46.579933 -0.003324
7.884017 46.579933 -0.004191
8.198758 46.579933 -0.003520
8.513499 46.579933 -0.002020
8.828240 46.579933 -0.000876
9.142982 46.579933 0.000838
9.457723 46.579933 -0.001550
9.772464 46.579933 0.001932
10.087205 46.579933 0.004793
10.401946 46.579933 0.007867
10.716687 46.579933 0.012788
11.031426 46.579933 0.021702
11.346168 46.579933 0.020167
11.660909 46.579933 0.012571
11.975650 46.579933 0.019559
12.290391 46.579933 0.012261
12.605132 46.579933 0.009783
12.919873 46.579933 -0.001456
13.234614 46.579933 -0.015640
13.549356 46.579933 -0.021125
13.864097 46.579933 -0.019185
14.178838 46.579933 -0.018461
14.493579 46.579933 -0.008561
14.808320 46.579933 -0.011771
15.123059 46.579933 -0.012772
15.437800 46.579933 -0.022627
15.752542 46.579933 -0.049630
16.067284 46.579933 -0.048335
16.382023 46.579933 -0.044588
16.696766 46.579933 -0.030793
17.011505 46.579933 0.008257
17.326248 46.579933 0.024421
17.640987 46.579933 0.018503
17.955730 46.579933 0.063838
18.270470 46.579933 0.095483
18.585213 46.579933 0.095827
18.899952 46.579933 -0.124017
-7.223550 46.265190 0.000000
-6.908809 46.265190 0.000000
-6.594068 46.265190 0.001238
-6.279327 46.265190 0.000864
-5.964586 46.265190 0.000818
-5.649845 46.265190 0.000905
-5.335104 46.265190 0.000990
-5.020363 46.265190 0.000890
-4.705622 46.265190 0.000798
-4.390881 46.265190 0.000796
-4.076140 46.265190 0.000813
-3.761399 46.265190 0.000869
-3.446658 46.265190 0.000949
-3.131917 46.265190 0.000894
-2.817176 46.265190 0.000795
-2.502435 46.265190 0.000697
-2.187694 46.265190 0.000619
-1.872953 46.265190 0.000756
-1.558212 46.265190 0.000861
-1.243471 46.265190 0.000734
-0.928730 46.265190 0.000625
-0.613989 46.265190 0.000691
-0.299248 46.265190 0.000811
0.015493 46.265190 0.000656
0.330234 46.265190 0.000500
0.644975 46.265190 0.000455
0.959716 46.265190 0.000421
1.274457 46.265190 0.000452
1.589198 46.265190 0.000605
1.903938 46.265190 0.000669
2.218679 46.265190 0.000702
2.533421 46.265190 0.000732
2.848162 46.265190 0.000618
3.162903 46.265190 0.000610
3.477644 46.265190 0.000598
3.792385 46.265190 0.000587
4.107125 46.265190 0.000436
4.421866 46.265190 0.000187
4.736608 46.265190 0.000084
5.051349 46.265190 0.000136
5.366090 46.265190 -0.000098
5.680831 46.265190 -0.000446
5.995571 46.265190 -0.000828
6.310312 46.265190 -0.001246
6.625053 46.265190 -0.001941
6.939795 46.265190 -0.002566
7.254536 46.265190 -0.002946
7.569277 46.265190 -0.002957
7.884017 46.265190 -0.003513
8.198758 46.265190 -0.003341
8.513499 46.265190 -0.003180
8.828240 46.265190 -0.000396
9.142982 46.265190 0.000966
9.457723 46.265190 -0.002303
9.772464 46.265190 -0.002139
10.087205 46.265190 0.004816
10.401946 46.265190 0.008043
10.716687 46.265190 0.011058
11.031426 46.265190 0.012809
11.346168 46.265190 0.017501
11.660909 46.265190 0.017149
11.975650 46.265190 0.028064
12.290391 46.265190 0.022742
12.605132 46.265190 0.006202
12.919873 46.265190 -0.001724
13.234614 46.265190 -0.015480
13.549356 46.265190 -0.020216
13.864097 46.265190 -0.040960
14.178838 46.265190 -0.040691
14.493579 46.265190 -0.028868
14.808320 46.265190 -0.015897
15.123059 46.265190 -0.011672
15.437800 46.265190 -0.018769
15.752542 46.265190 -0.033776
16.067284 46.265190 -0.039629
16.382023 46.265190 -0.035808
16.696766 46.265190 -0.016119
17.011505 46.265190 -0.016884
17.326248 46.265190 0.008328
17.640987 46.265190 0.005256
17.955730 46.265190 0.050976
18.270470 46.265190 0.071114
18.585213 46.265190 0.146046
18.899952 46.265190 -0.080497
-7.223550 45.950451 0.000000
-6.908809 45.950451 0.000000
-6.594068 45.950451 0.001212
-6.279327 45.950451 0.000806
-5.964586 45.950451 0.000761
-5.649845 45.950451 0.000834
-5.335104 45.950451 0.000959
-5.020363 45.950451 0.000930
-4.705622 45.950451 0.000852
-4.390881 45.950451 0.000792
-4.076140 45.950451 0.000722
-3.761399 45.950451 0.000775
-3.446658 45.950451 0.000865
-3.131917 45.950451 0.000830
-2.817176 45.950451 0.000786
-2.502435 45.950451 0.000693
-2.187694 45.950451 0.000669
-1.872953 45.950451 0.000791
-1.558212 45.950451 0.000867
-1.243471 45.950451 0.000786
-0.928730 45.950451 0.000697
-0.613989 45.950451 0.000684
-0.299248 45.950451 0.000745
0.015493 45.950451 0.000646
0.330234 45.950451 0.000536
0.644975 45.950451 0.000479
0.959716 45.950451 0.000417
1.274457 45.950451 0.000475
1.589198 45.950451 0.000566
1.903938 45.950451 0.000567
2.218679 45.950451 0.000612
2.533421 45.950451 0.000688
2.848162 45.950451 0.000635
3.162903 45.950451 0.000622
3.477644 45.950451 0.000547
3.792385 45.950451 0.000539
4.107125 45.950451 0.000475
4.421866 45.950451 0.000280
4.736608 45.950451 0.000119
5.051349 45.950451 0.000083
5.366090 45.950451 -0.000092
5.680831 45.950451 -0.000542
5.995571 45.950451 -0.000909
6.310312 45.950451 -0.001173
6.625053 45.950451 -0.001656
6.939795 45.950451 -0.002405
7.254536 45.950451 -0.002812
7.569277 45.950451 -0.002435
7.884017 45.950451 -0.003287
8.198758 45.950451 -0.001538
8.513499 45.950451 -0.001793
8.828240 45.950451 -0.001033
9.142982 45.950451 0.000826
9.457723 45.950451 -0.002034
9.772464 45.950451 -0.006089
10.087205 45.950451 -0.000156
10.401946 45.950451 0.008829
10.716687 45.950451 0.011617
11.031426 45.950451 0.009207
11.346168 45.950451 0.004381
11.660909 45.950451 0.017664
11.975650 45.950451 0.020269
12.290391 45.950451 0.017505
12.605132 45.950451 0.003565
12.919873 45.950451 0.002133
13.234614 45.950451 -0.013353
13.549356 45.950451 -0.013300
13.864097 45.950451 -0.035568
14.178838 45.950451 -0.032810
14.493579 45.950451 -0.032236
14.808320 45.950451 -0.028540
15.123059 45.950451 -0.020275
15.437800 45.950451 -0.023082
15.752542 45.950451 -0.023587
16.067284 45.950451 -0.022122
16.382023 45.950451 -0.015012
16.696766 45.950451 -0.024527
17.011505 45.950451 -0.029013
17.326248 45.950451 -0.014529
17.640987 45.950451 0.010993
17.955730 45.950451 0.037147
18.270470 45.950451 0.062753
18.585213 45.950451 0.109819
18.899952 45.950451 -0.050685
-7.223550 45.635712 0.000000
-6.908809 45.635712 0.000000
-6.594068 45.635712 0.001195
-6.279327 45.635712 0.000782
-5.964586 45.635712 0.000698
-5.649845 45.635712 0.000728
-5.335104 45.635712 0.000843
-5.020363 45.635712 0.000881
-4.705622 45.635712 0.000901
-4.390881 45.635712 0.000797
-4.076140 45.635712 0.000670
-3.761399 45.635712 0.000666
-3.446658 45.635712 0.000749
-3.131917 45.635712 0.000750
-2.817176 45.635712 0.000773
-2.502435 45.635712 0.000729
-2.187694 45.635712 0.000708
-1.872953 45.635712 0.000738
-1.558212 45.635712 0.000787
-1.243471 45.635712 0.000787
-0.928730 45.635712 0.000730
-0.613989 45.635712 0.000634
-0.299248 45.635712 0.000652
0.015493 45.635712 0.000624
0.330234 45.635712 0.000602
0.644975 45.635712 0.000539
0.959716 45.635712 0.000457
1.274457 45.635712 0.000482
1.589198 45.635712 0.000499
1.903938 45.635712 0.000494
2.218679 45.635712 0.000532
2.533421 45.635712 0.000607
2.848162 45.635712 0.000586
3.162903 45.635712 0.000582
3.477644 45.635712 0.000476
3.792385 45.635712 0.000467
4.107125 45.635712 0.000526
4.421866 45.635712 0.000411
4.736608 45.635712 0.000258
5.051349 45.635712 0.000156
5.366090 45.635712 -0.000060
5.680831 45.635712 -0.000458
5.995571 45.635712 -0.000834
6.310312 45.635712 -0.001031
6.625053 45.635712 -0.001536
6.939795 45.635712 -0.002185
7.254536 45.635712 -0.002811
7.569277 45.635712 -0.002413
7.884017 45.635712 -0.002454
8.198758 45.635712 -0.001575
8.513499 45.635712 -0.001547
8.828240 45.635712 -0.001517
9.142982 45.635712 0.000058
9.457723 45.635712 0.000927
9.772464 45.635712 0.001977
10.087205 45.635712 0.002853
10.401946 45.635712 0.010757
10.716687 45.635712 0.011411
11.031426 45.635712 0.011655
11.346168 45.635712 0.015447
11.660909 45.635712 0.021903
11.975650 45.635712 0.021225
12.290391 45.635712 0.012976
12.605132 45.635712 0.000828
12.919873 45.635712 0.001935
13.234614 45.635712 0.000977
13.549356 45.635712 -0.010808
13.864097 45.635712 -0.011487
14.178838 45.635712 -0.026866
14.493579 45.635712 -0.020832
14.808320 45.635712 -0.018364
15.123059 45.635712 -0.022843
15.437800 45.635712 -0.022182
15.752542 45.635712 0.001421
16.067284 45.635712 -0.034026
16.382023 45.635712 -0.012562
16.696766 45.635712 -0.018664
17.011505 45.635712 -0.018418
17.326248 45.635712 0.020372
17.640987 45.635712 -0.066197
17.955730 45.635712 0.021133
18.270470 45.635712 0.046656
18.585213 45.635712 0.111870
18.899952 45.635712 -0.060362
-7.223550 45.320969 0.000000
-6.908809 45.320969 0.000000
-6.594068 45.320969 0.001185
-6.279327 45.320969 0.000759
-5.964586 45.320969 0.000621
-5.649845 45.320969 0.000637
-5.335104 45.320969 0.000734
-5.020363 45.320969 0.000803
-4.705622 45.320969 0.000906
-4.390881 45.320969 0.000807
-4.076140 45.320969 0.000655
-3.761399 45.320969 0.000597
-3.446658 45.320969 0.000631
-3.131917 45.320969 0.000677
-2.817176 45.320969 0.000753
-2.502435 45.320969 0.000743
-2.187694 45.320969 0.000720
-1.872953 45.320969 0.000646
-1.558212 45.320969 0.000674
-1.243471 45.320969 0.000744
-0.928730 45.320969 0.000725
-0.613989 45.320969 0.000620
-0.299248 45.320969 0.000621
0.015493 45.320969 0.000638
0.330234 45.320969 0.000651
0.644975 45.320969 0.000614
0.959716 45.320969 0.000514
1.274457 45.320969 0.000512
1.589198 45.320969 0.000494
1.903938 45.320969 0.000478
2.218679 45.320969 0.000478
2.533421 45.320969 0.000530
2.848162 45.320969 0.000529
3.162903 45.320969 0.000504
3.477644 45.320969 0.000383
3.792385 45.320969 0.000404
4.107125 45.320969 0.000562
4.421866 45.320969 0.000528
4.736608 45.320969 0.000397
5.051349 45.320969 0.000260
5.366090 45.320969 0.000046
5.680831 45.320969 -0.000350
5.995571 45.320969 -0.000707
6.310312 45.320969 -0.000754
6.625053 45.320969 -0.001137
6.939795 45.320969 -0.002189
7.254536 45.320969 -0.003100
7.569277 45.320969 -0.003002
7.884017 45.320969 -0.003287
8.198758 45.320969 -0.002470
8.513499 45.320969 -0.001384
8.828240 45.320969 -0.000372
9.142982 45.320969 0.002613
9.457723 45.320969 0.003496
9.772464 45.320969 0.005328
10.087205 45.320969 0.005869
10.401946 45.320969 0.014809
10.716687 45.320969 0.017764
11.031426 45.320969 0.022131
11.346168 45.320969 0.016106
11.660909 45.320969 0.012084
11.975650 45.320969 0.006899
12.290391 45.320969 -0.000299
12.605132 45.320969 0.005003
12.919873 45.320969 0.011771
13.234614 45.320969 0.007034
13.549356 45.320969 -0.002924
13.864097 45.320969 -0.000932
14.178838 45.320969 -0.013054
14.493579 45.320969 -0.013813
14.808320 45.320969 -0.007842
15.123059 45.320969 -0.011445
15.437800 45.320969 -0.013476
15.752542 45.320969 0.000831
16.067284 45.320969 -0.788852
16.382023 45.320969 -0.778273
16.696766 45.320969 0.257715
17.011505 45.320969 0.210345
17.326248 45.320969 -0.092667
17.640987 45.320969 -0.125260
17.955730 45.320969 -0.014268
18.270470 45.320969 0.042956
18.585213 45.320969 0.134550
18.899952 45.320969 -0.023107
-7.223550 45.006226 0.000000
-6.908809 45.006226 0.000000
-6.594068 45.006226 0.001165
-6.279327 45.006226 0.000707
-5.964586 45.006226 0.000578
-5.649845 45.006226 0.000538
-5.335104 45.006226 0.000652
-5.020363 45.006226 0.000783
-4.705622 45.006226 0.000900
-4.390881 45.006226 0.000831
-4.076140 45.006226 0.000680
-3.761399 45.006226 0.000591
-3.446658 45.006226 0.000590
-3.131917 45.006226 0.000647
-2.817176 45.006226 0.000719
-2.502435 45.006226 0.000701
-2.187694 45.006226 0.000678
-1.872953 45.006226 0.000554
-1.558212 45.006226 0.000564
-1.243471 45.006226 0.000707
-0.928730 45.006226 0.000701
-0.613989 45.006226 0.000645
-0.299248 45.006226 0.000661
0.015493 45.006226 0.000693
0.330234 45.006226 0.000687
0.644975 45.006226 0.000674
0.959716 45.006226 0.000552
1.274457 45.006226 0.000569
1.589198 45.006226 0.000541
1.903938 45.006226 0.000464
2.218679 45.006226 0.000430
2.533421 45.006226 0.000447
2.848162 45.006226 0.000477
3.162903 45.006226 0.000458
3.477644 45.006226 0.000316
3.792385 45.006226 0.000361
4.107125 45.006226 0.000520
4.421866 45.006226 0.000552
4.736608 45.006226 0.000454
5.051349 45.006226 0.000300
5.366090 45.006226 0.000128
5.680831 45.006226 -0.000196
5.995571 45.006226 -0.000498
6.310312 45.006226 -0.000520
6.625053 45.006226 -0.000925
6.939795 45.006226 -0.002035
7.254536 45.006226 -0.003255
7.569277 45.006226 -0.003640
7.884017 45.006226 -0.003795
8.198758 45.006226 -0.003706
8.513499 45.006226 -0.003149
8.828240 45.006226 -0.001356
9.142982 45.006226 -0.000258
9.457723 45.006226 0.000124
9.772464 45.006226 0.008372
10.087205 45.006226 0.009157
10.401946 45.006226 0.016258
10.716687 45.006226 0.014717
11.031426 45.006226 0.016757
11.346168 45.006226 0.010458
11.660909 45.006226 -0.000473
11.975650 45.006226 -0.009859
12.290391 45.006226 -0.006016
12.605132 45.006226 -0.004508
12.919873 45.006226 0.012222
13.234614 45.006226 0.008213
13.549356 45.006226 0.000535
13.864097 45.006226 0.003527
14.178838 45.006226 -0.005949
14.493579 45.006226 -0.000614
14.808320 45.006226 -0.001597
15.123059 45.006226 -0.010300
15.437800 45.006226 -0.009001
15.752542 45.006226 -0.019949
16.067284 45.006226 0.000000
16.382023 45.006226 0.000000
16.696766 45.006226 -2.602453
17.011505 45.006226 2.617977
17.326248 45.006226 -11.223830
17.640987 45.006226 -0.115944
17.955730 45.006226 -0.032923
18.270470 45.006226 0.030770
18.585213 45.006226 0.113637
18.899952 45.006226 -0.099601
-7.223550 44.691486 0.000000
-6.908809 44.691486 0.000000
-6.594068 44.691486 0.001123
-6.279327 44.691486 0.000696
-5.964586 44.691486 0.000590
-5.649845 44.691486 0.000486
-5.335104 44.691486 0.000590
-5.020363 44.691486 0.000769
-4.705622 44.691486 0.000891
-4.390881 44.691486 0.000839
-4.076140 44.691486 0.000693
-3.761399 44.691486 0.000622
-3.446658 44.691486 0.000637
-3.131917 44.691486 0.000659
-2.817176 44.691486 0.000665
-2.502435 44.691486 0.000620
-2.187694 44.691486 0.000625
-1.872953 44.691486 0.000527
-1.558212 44.691486 0.000517
-1.243471 44.691486 0.000661
-0.928730 44.691486 0.000675
-0.613989 44.691486 0.000668
-0.299248 44.691486 0.000696
0.015493 44.691486 0.000715
0.330234 44.691486 0.000679
0.644975 44.691486 0.000686
0.959716 44.691486 0.000593
1.274457 44.691486 0.000597
1.589198 44.691486 0.000569
1.903938 44.691486 0.000432
2.218679 44.691486 0.000399
2.533421 44.691486 0.000386
2.848162 44.691486 0.000442
3.162903 44.691486 0.000427
3.477644 44.691486 0.000304
3.792385 44.691486 0.000320
4.107125 44.691486 0.000460
4.421866 44.691486 0.000513
4.736608 44.691486 0.000436
5.051349 44.691486 0.000315
5.366090 44.691486 0.000134
5.680831 44.691486 -0.000080
5.995571 44.691486 -0.000320
6.310312 44.691486 -0.000340
6.625053 44.691486 -0.000964
6.939795 44.691486 -0.001973
7.254536 44.691486 -0.002715
7.569277 44.691486 -0.003768
7.884017 44.691486 -0.004000
8.198758 44.691486 -0.004679
8.513499 44.691486 -0.003436
8.828240 44.691486 -0.001547
9.142982 44.691486 -0.001353
9.457723 44.691486 -0.003007
9.772464 44.691486 0.002306
10.087205 44.691486 0.008836
10.401946 44.691486 0.009206
10.716687 44.691486 0.016258
11.031426 44.691486 0.015097
11.346168 44.691486 0.006756
11.660909 44.691486 -0.000217
11.975650 44.691486 -0.001598
12.290391 44.691486 -0.008956
12.605132 44.691486 -0.009020
12.919873 44.691486 -0.000742
13.234614 44.691486 0.000606
13.549356 44.691486 -0.000925
13.864097 44.691486 -0.001108
14.178838 44.691486 -0.001562
14.493579 44.691486 0.006089
14.808320 44.691486 -0.001439
15.123059 44.691486 0.001733
15.437800 44.691486 -0.004383
15.752542 44.691486 -0.014045
16.067284 44.691486 0.000000
16.382023 44.691486 0.000000
16.696766 44.691486 0.000000
17.011505 44.691486 0.000000
17.326248 44.691486 -9.891292
17.640987 44.691486 -0.177997
17.955730 44.691486 -0.008416
18.270470 44.691486 0.027502
18.585213 44.691486 0.044857
18.899952 44.691486 -0.056527
-7.223550 44.376747 0.000000
-6.908809 44.376747 0.000000
-6.594068 44.376747 0.001027
-6.279327 44.376747 0.000687
-5.964586 44.376747 0.000643
-5.649845 44.376747 0.000532
-5.335104 44.376747 0.000622
-5.020363 44.376747 0.000767
-4.705622 44.376747 0.000841
-4.390881 44.376747 0.000806
-4.076140 44.376747 0.000681
-3.761399 44.376747 0.000643
-3.446658 44.376747 0.000662
-3.131917 44.376747 0.000628
-2.817176 44.376747 0.000563
-2.502435 44.376747 0.000535
-2.187694 44.376747 0.000588
-1.872953 44.376747 0.000523
-1.558212 44.376747 0.000506
-1.243471 44.376747 0.000601
-0.928730 44.376747 0.000637
-0.613989 44.376747 0.000666
-0.299248 44.376747 0.000717
0.015493 44.376747 0.000708
0.330234 44.376747 0.000660
0.644975 44.376747 0.000674
0.959716 44.376747 0.000601
1.274457 44.376747 0.000586
1.589198 44.376747 0.000573
1.903938 44.376747 0.000411
2.218679 44.376747 0.000412
2.533421 44.376747 0.000389
2.848162 44.376747 0.000406
3.162903 44.376747 0.000413
3.477644 44.376747 0.000304
3.792385 44.376747 0.000286
4.107125 44.376747 0.000411
4.421866 44.376747 0.000446
4.736608 44.376747 0.000388
5.051349 44.376747 0.000239
5.366090 44.376747 0.000111
5.680831 44.376747 0.000034
5.995571 44.376747 -0.000235
6.310312 44.376747 -0.000447
6.625053 44.376747 -0.000987
6.939795 44.376747 -0.001994
7.254536 44.376747 -0.002847
7.569277 44.376747 -0.003899
7.884017 44.376747 -0.003782
8.198758 44.376747 -0.003963
8.513499 44.376747 -0.003903
8.828240 44.376747 -0.003115
9.142982 44.376747 -0.001433
9.457723 44.376747 -0.003937
9.772464 44.376747 -0.001124
10.087205 44.376747 0.003830
10.401946 44.376747 0.008339
10.716687 44.376747 0.015285
11.031426 44.376747 0.019447
11.346168 44.376747 0.000880
11.660909 44.376747 -0.006138
11.975650 44.376747 -0.006382
12.290391 44.376747 -0.002324
12.605132 44.376747 -0.015228
12.919873 44.376747 -0.012234
13.234614 44.376747 -0.009560
13.549356 44.376747 0.011929
13.864097 44.376747 0.003881
14.178838 44.376747 0.003045
14.493579 44.376747 0.018533
14.808320 44.376747 0.017097
15.123059 44.376747 0.002990
15.437800 44.376747 0.021455
15.752542 44.376747 0.008378
16.067284 44.376747 8.495515
16.382023 44.376747 0.000000
16.696766 44.376747 0.000000
17.011505 44.376747 0.000000
17.326248 44.376747 -4.656271
17.640987 44.376747 -0.270383
17.955730 44.376747 -0.016820
18.270470 44.376747 0.015791
18.585213 44.376747 0.036049
18.899952 44.376747 -0.076101
-7.223550 44.062004 0.000000
-6.908809 44.062004 0.000000
-6.594068 44.062004 0.000917
-6.279327 44.062004 0.000707
-5.964586 44.062004 0.000707
-5.649845 44.062004 0.000650
-5.335104 44.062004 0.000721
-5.020363 44.062004 0.000758
-4.705622 44.062004 0.000759
-4.390881 44.062004 0.000752
-4.076140 44.062004 0.000638
-3.761399 44.062004 0.000577
-3.446658 44.062004 0.000603
-3.131917 44.062004 0.000587
-2.817176 44.062004 0.000506
-2.502435 44.062004 0.000494
-2.187694 44.062004 0.000562
-1.872953 44.062004 0.000534
-1.558212 44.062004 0.000517
-1.243471 44.062004 0.000550
-0.928730 44.062004 0.000584
-0.613989 44.062004 0.000648
-0.299248 44.062004 0.000679
0.015493 44.062004 0.000691
0.330234 44.062004 0.000661
0.644975 44.062004 0.000639
0.959716 44.062004 0.000602
1.274457 44.062004 0.000572
1.589198 44.062004 0.000558
1.903938 44.062004 0.000427
2.218679 44.062004 0.000454
2.533421 44.062004 0.000425
2.848162 44.062004 0.000386
3.162903 44.062004 0.000384
3.477644 44.062004 0.000318
3.792385 44.062004 0.000302
4.107125 44.062004 0.000378
4.421866 44.062004 0.000383
4.736608 44.062004 0.000333
5.051349 44.062004 0.000171
5.366090 44.062004 0.000011
5.680831 44.062004 0.000076
5.995571 44.062004 -0.000096
6.310312 44.062004 -0.000324
6.625053 44.062004 -0.000907
6.939795 44.062004 -0.001780
7.254536 44.062004 -0.002569
7.569277 44.062004 -0.003106
7.884017 44.062004 -0.003740
8.198758 44.062004 -0.003134
8.513499 44.062004 -0.003035
8.828240 44.062004 -0.001660
9.142982 44.062004 -0.001882
9.457723 44.062004 -0.002877
9.772464 44.062004 -0.000757
10.087205 44.062004 0.003899
10.401946 44.062004 0.014036
10.716687 44.062004 0.016328
11.031426 44.062004 0.014454
11.346168 44.062004 0.002470
11.660909 44.062004 -0.001177
11.975650 44.062004 -0.001634
12.290391 44.062004 -0.006587
12.605132 44.062004 -0.011159
12.919873 44.062004 -0.015438
13.234614 44.062004 -0.015184
13.549356 44.062004 0.003742
13.864097 44.062004 -0.005371
14.178838 44.062004 0.003848
14.493579 44.062004 0.020694
14.808320 44.062004 0.019588
15.123059 44.062004 -0.002054
15.437800 44.062004 0.000447
15.752542 44.062004 -0.010059
16.067284 44.062004 0.000000
16.382023 44.062004 0.000000
16.696766 44.062004 0.000000
17.011505 44.062004 0.000000
17.326248 44.062004 0.000000
17.640987 44.062004 -0.242025
17.955730 44.062004 -0.006669
18.270470 44.062004 -0.002603
18.585213 44.062004 0.077897
18.899952 44.062004 -0.106346
-7.223550 43.747265 0.000000
-6.908809 43.747265 0.000000
-6.594068 43.747265 0.000891
-6.279327 43.747265 0.000767
-5.964586 43.747265 0.000792
-5.649845 43.747265 0.000787
-5.335104 43.747265 0.000799
-5.020363 43.747265 0.000733
-4.705622 43.747265 0.000689
-4.390881 43.747265 0.000686
-4.076140 43.747265 0.000592
-3.761399 43.747265 0.000508
-3.446658 43.747265 0.000532
-3.131917 43.747265 0.000522
-2.817176 43.747265 0.000503
-2.502435 43.747265 0.000485
-2.187694 43.747265 0.000545
-1.872953 43.747265 0.000529
-1.558212 43.747265 0.000516
-1.243471 43.747265 0.000504
-0.928730 43.747265 0.000508
-0.613989 43.747265 0.000576
-0.299248 43.747265 0.000613
0.015493 43.747265 0.000634
0.330234 43.747265 0.000646
0.644975 43.747265 0.000626
0.959716 43.747265 0.000604
1.274457 43.747265 0.000534
1.589198 43.747265 0.000550
1.903938 43.747265 0.000490
2.218679 43.747265 0.000521
2.533421 43.747265 0.000501
2.848162 43.747265 0.000384
3.162903 43.747265 0.000350
3.477644 43.747265 0.000373
3.792385 43.747265 0.000343
4.107125 43.747265 0.000339
4.421866 43.747265 0.000298
4.736608 43.747265 0.000281
5.051349 43.747265 0.000118
5.366090 43.747265 -0.000032
5.680831 43.747265 0.000084
5.995571 43.747265 -0.000112
6.310312 43.747265 -0.000332
6.625053 43.747265 -0.000850
6.939795 43.747265 -0.001752
7.254536 43.747265 -0.002550
7.569277 43.747265 -0.003290
7.884017 43.747265 -0.003321
8.198758 43.747265 -0.003590
8.513499 43.747265 -0.002838
8.828240 43.747265 -0.001079
9.142982 43.747265 -0.003242
9.457723 43.747265 0.000193
9.772464 43.747265 0.000119
10.087205 43.747265 0.004640
10.401946 43.747265 0.009672
10.716687 43.747265 0.013744
11.031426 43.747265 0.015516
11.346168 43.747265 -0.004620
11.660909 43.747265 0.003213
11.975650 43.747265 0.006185
12.290391 43.747265 0.004927
12.605132 43.747265 -0.007919
12.919873 43.747265 -0.010753
13.234614 43.747265 -0.002116
13.549356 43.747265 0.005894
13.864097 43.747265 0.009415
14.178838 43.747265 0.011976
14.493579 43.747265 0.024385
14.808320 43.747265 0.030825
15.123059 43.747265 0.007810
15.437800 43.747265 0.003080
15.752542 43.747265 -0.030306
16.067284 43.747265 0.000000
16.382023 43.747265 0.000000
16.696766 43.747265 0.000000
17.011505 43.747265 0.000000
17.326248 43.747265 0.000000
17.640987 43.747265 -0.157843
17.955730 43.747265 -0.047021
18.270470 43.747265 0.003348
18.585213 43.747265 0.019480
18.899952 43.747265 -0.137600
-7.223550 43.432522 0.000000
-6.908809 43.432522 0.000000
-6.594068 43.432522 0.000932
-6.279327 43.432522 0.000824
-5.964586 43.432522 0.000867
-5.649845 43.432522 0.000902
-5.335104 43.432522 0.000804
-5.020363 43.432522 0.000705
-4.705622 43.432522 0.000677
-4.390881 43.432522 0.000653
-4.076140 43.432522 0.000589
-3.761399 43.432522 0.000517
-3.446658 43.432522 0.000525
-3.131917 43.432522 0.000538
-2.817176 43.432522 0.000545
-2.502435 43.432522 0.000537
-2.187694 43.432522 0.000597
-1.872953 43.432522 0.000550
-1.558212 43.432522 0.000528
-1.243471 43.432522 0.000473
-0.928730 43.432522 0.000448
-0.613989 43.432522 0.000483
-0.299248 43.432522 0.000508
0.015493 43.432522 0.000530
0.330234 43.432522 0.000586
0.644975 43.432522 0.000560
0.959716 43.432522 0.000544
1.274457 43.432522 0.000481
1.589198 43.432522 0.000524
1.903938 43.432522 0.000552
2.218679 43.432522 0.000597
2.533421 43.432522 0.000584
2.848162 43.432522 0.000409
3.162903 43.432522 0.000330
3.477644 43.432522 0.000420
3.792385 43.432522 0.000401
4.107125 43.432522 0.000321
4.421866 43.432522 0.000300
4.736608 43.432522 0.000288
5.051349 43.432522 0.000104
5.366090 43.432522 0.000062
5.680831 43.432522 -0.000002
5.995571 43.432522 -0.000087
6.310312 43.432522 -0.000379
6.625053 43.432522 -0.000883
6.939795 43.432522 -0.001629
7.254536 43.432522 -0.002041
7.569277 43.432522 -0.002851
7.884017 43.432522 -0.002956
8.198758 43.432522 -0.002651
8.513499 43.432522 -0.002046
8.828240 43.432522 -0.000738
9.142982 43.432522 0.001299
9.457723 43.432522 -0.002418
9.772464 43.432522 0.001849
10.087205 43.432522 0.005995
10.401946 43.432522 0.005822
10.716687 43.432522 0.010571
11.031426 43.432522 0.005106
11.346168 43.432522 0.001760
11.660909 43.432522 -0.004465
11.975650 43.432522 0.003828
12.290391 43.432522 0.005561
12.605132 43.432522 -0.019329
12.919873 43.432522 -0.010142
13.234614 43.432522 -0.004866
13.549356 43.432522 0.009112
13.864097 43.432522 0.009589
14.178838 43.432522 0.011574
14.493579 43.432522 0.031561
14.808320 43.432522 0.028309
15.123059 43.432522 0.033283
15.437800 43.432522 0.019431
15.752542 43.432522 -0.082100
16.067284 43.432522 0.000000
16.382023 43.432522 0.000000
16.696766 43.432522 0.000000
17.011505 43.432522 0.000000
17.326248 43.432522 0.000000
17.640987 43.432522 -0.270636
17.955730 43.432522 -0.070852
18.270470 43.432522 0.003719
18.585213 43.432522 0.009570
18.899952 43.432522 -0.148902
-7.223550 43.117783 0.000000
-6.908809 43.117783 0.000000
-6.594068 43.117783 0.000970
-6.279327 43.117783 0.000832
-5.964586 43.117783 0.000896
-5.649845 43.117783 0.000926
-5.335104 43.117783 0.000797
-5.020363 43.117783 0.000720
-4.705622 43.117783 0.000708
-4.390881 43.117783 0.000654
-4.076140 43.117783 0.000600
-3.761399 43.117783 0.000572
-3.446658 43.117783 0.000584
-3.131917 43.117783 0.000580
-2.817176 43.117783 0.000616
-2.502435 43.117783 0.000624
-2.187694 43.117783 0.000660
-1.872953 43.117783 0.000579
-1.558212 43.117783 0.000516
-1.243471 43.117783 0.000488
-0.928730 43.117783 0.000443
-0.613989 43.117783 0.000425
-0.299248 43.117783 0.000436
0.015493 43.117783 0.000454
0.330234 43.117783 0.000505
0.644975 43.117783 0.000472
0.959716 43.117783 0.000429
1.274457 43.117783 0.000412
1.589198 43.117783 0.000489
1.903938 43.117783 0.000573
2.218679 43.117783 0.000668
2.533421 43.117783 0.000670
2.848162 43.117783 0.000448
3.162903 43.117783 0.000311
3.477644 43.117783 0.000392
3.792385 43.117783 0.000399
4.107125 43.117783 0.000329
4.421866 43.117783 0.000330
4.736608 43.117783 0.000278
5.051349 43.117783 0.000091
5.366090 43.117783 0.000003
5.680831 43.117783 -0.000108
5.995571 43.117783 -0.000170
6.310312 43.117783 -0.000568
6.625053 43.117783 -0.001039
6.939795 43.117783 -0.001710
7.254536 43.117783 -0.002272
7.569277 43.117783 -0.002684
7.884017 43.117783 -0.002744
8.198758 43.117783 -0.002316
8.513499 43.117783 -0.002868
8.828240 43.117783 -0.000275
9.142982 43.117783 0.003069
9.457723 43.117783 0.003796
9.772464 43.117783 0.005970
10.087205 43.117783 0.008785
10.401946 43.117783 0.009840
10.716687 43.117783 0.004821
11.031426 43.117783 0.004625
11.346168 43.117783 0.010849
11.660909 43.117783 0.000722
11.975650 43.117783 0.005170
12.290391 43.117783 -0.007053
12.605132 43.117783 -0.018535
12.919873 43.117783 -0.017797
13.234614 43.117783 -0.003959
13.549356 43.117783 0.010413
13.864097 43.117783 0.013137
14.178838 43.117783 0.015182
14.493579 43.117783 0.026743
14.808320 43.117783 0.019815
15.123059 43.117783 0.026801
15.437800 43.117783 0.032908
15.752542 43.117783 0.004679
16.067284 43.117783 0.000000
16.382023 43.117783 0.000000
16.696766 43.117783 0.000000
17.011505 43.117783 0.000000
17.326248 43.117783 0.000000
17.640987 43.117783 -0.308773
17.955730 43.117783 -0.010522
18.270470 43.117783 0.039129
18.585213 43.117783 -0.010961
18.899952 43.117783 -0.131592
-7.223550 42.803040 0.000000
-6.908809 42.803040 0.000000
-6.594068 42.803040 0.001007
-6.279327 42.803040 0.000786
-5.964586 42.803040 0.000871
-5.649845 42.803040 0.000892
-5.335104 42.803040 0.000809
-5.020363 42.803040 0.000774
-4.705622 42.803040 0.000773
-4.390881 42.803040 0.000701
-4.076140 42.803040 0.000600
-3.761399 42.803040 0.000627
-3.446658 42.803040 0.000679
-3.131917 42.803040 0.000656
-2.817176 42.803040 0.000659
-2.502435 42.803040 0.000665
-2.187694 42.803040 0.000660
-1.872953 42.803040 0.000589
-1.558212 42.803040 0.000494
-1.243471 42.803040 0.000501
-0.928730 42.803040 0.000472
-0.613989 42.803040 0.000418
-0.299248 42.803040 0.000430
0.015493 42.803040 0.000431
0.330234 42.803040 0.000473
0.644975 42.803040 0.000414
0.959716 42.803040 0.000346
1.274457 42.803040 0.000347
1.589198 42.803040 0.000426
1.903938 42.803040 0.000538
2.218679 42.803040 0.000633
2.533421 42.803040 0.000638
2.848162 42.803040 0.000430
3.162903 42.803040 0.000284
3.477644 42.803040 0.000329
3.792385 42.803040 0.000353
4.107125 42.803040 0.000313
4.421866 42.803040 0.000285
4.736608 42.803040 0.000174
5.051349 42.803040 0.000034
5.366090 42.803040 -0.000064
5.680831 42.803040 -0.000202
5.995571 42.803040 -0.000286
6.310312 42.803040 -0.000658
6.625053 42.803040 -0.001116
6.939795 42.803040 -0.001756
7.254536 42.803040 -0.002770
7.569277 42.803040 -0.002715
7.884017 42.803040 -0.003113
8.198758 42.803040 -0.003334
8.513499 42.803040 -0.003309
8.828240 42.803040 -0.001450
9.142982 42.803040 0.001520
9.457723 42.803040 0.002662
9.772464 42.803040 0.007447
10.087205 42.803040 0.013179
10.401946 42.803040 0.010063
10.716687 42.803040 0.010444
11.031426 42.803040 0.015002
11.346168 42.803040 0.013406
11.660909 42.803040 0.004119
11.975650 42.803040 -0.000196
12.290391 42.803040 -0.009743
12.605132 42.803040 -0.007162
12.919873 42.803040 -0.007070
13.234614 42.803040 0.004267
13.549356 42.803040 -0.002776
13.864097 42.803040 0.011542
14.178838 42.803040 0.014871
14.493579 42.803040 0.029597
14.808320 42.803040 0.005749
15.123059 42.803040 0.015051
15.437800 42.803040 0.026058
15.752542 42.803040 -0.018334
16.067284 42.803040 0.000000
16.382023 42.803040 0.000000
16.696766 42.803040 0.000000
17.011505 42.803040 0.000000
17.326248 42.803040 0.000000
17.640987 42.803040 -0.173676
17.955730 42.803040 0.020843
18.270470 42.803040 0.065073
18.585213 42.803040 0.058587
18.899952 42.803040 -0.086125
-7.223550 42.488300 0.000000
-6.908809 42.488300 0.000000
-6.594068 42.488300 0.001026
-6.279327 42.488300 0.000747
-5.964586 42.488300 0.000829
-5.649845 42.488300 0.000828
-5.335104 42.488300 0.000828
-5.020363 42.488300 0.000784
-4.705622 42.488300 0.000752
-4.390881 42.488300 0.000740
-4.076140 42.488300 0.000621
-3.761399 42.488300 0.000650
-3.446658 42.488300 0.000731
-3.131917 42.488300 0.000680
-2.817176 42.488300 0.000631
-2.502435 42.488300 0.000626
-2.187694 42.488300 0.000630
-1.872953 42.488300 0.000590
-1.558212 42.488300 0.000502
-1.243471 42.488300 0.000497
-0.928730 42.488300 0.000469
-0.613989 42.488300 0.000420
-0.299248 42.488300 0.000422
0.015493 42.488300 0.000419
0.330234 42.488300 0.000433
0.644975 42.488300 0.000377
0.959716 42.488300 0.000302
1.274457 42.488300 0.000308
1.589198 42.488300 0.000353
1.903938 42.488300 0.000451
2.218679 42.488300 0.000521
2.533421 42.488300 0.000532
2.848162 42.488300 0.000405
3.162903 42.488300 0.000254
3.477644 42.488300 0.000266
3.792385 42.488300 0.000311
4.107125 42.488300 0.000299
4.421866 42.488300 0.000175
4.736608 42.488300 0.000042
5.051349 42.488300 -0.000004
5.366090 42.488300 -0.000085
5.680831 42.488300 -0.000324
5.995571 42.488300 -0.000423
6.310312 42.488300 -0.000767
6.625053 42.488300 -0.001197
6.939795 42.488300 -0.001599
7.254536 42.488300 -0.002725
7.569277 42.488300 -0.003078
7.884017 42.488300 -0.003629
8.198758 42.488300 -0.004186
8.513499 42.488300 -0.002004
8.828240 42.488300 -0.000129
9.142982 42.488300 0.001073
9.457723 42.488300 0.001778
9.772464 42.488300 0.008408
10.087205 42.488300 0.012834
10.401946 42.488300 0.013548
10.716687 42.488300 0.012163
11.031426 42.488300 0.018043
11.346168 42.488300 0.007419
11.660909 42.488300 -0.000148
11.975650 42.488300 -0.008911
12.290391 42.488300 -0.002599
12.605132 42.488300 -0.001325
12.919873 42.488300 0.011034
13.234614 42.488300 0.007413
13.549356 42.488300 -0.001744
13.864097 42.488300 0.000987
14.178838 42.488300 0.018122
14.493579 42.488300 0.018397
14.808320 42.488300 0.015083
15.123059 42.488300 -0.002135
15.437800 42.488300 0.010665
15.752542 42.488300 -0.036494
16.067284 42.488300 0.000000
16.382023 42.488300 0.000000
16.696766 42.488300 0.000000
17.011505 42.488300 0.000000
17.326248 42.488300 0.000000
17.640987 42.488300 -0.197443
17.955730 42.488300 0.044457
18.270470 42.488300 0.082507
18.585213 42.488300 0.112695
18.899952 42.488300 -0.012355
-7.223550 42.173557 0.000000
-6.908809 42.173557 0.000000
-6.594068 42.173557 0.001027
-6.279327 42.173557 0.000711
-5.964586 42.173557 0.000746
-5.649845 42.173557 0.000759
-5.335104 42.173557 0.000807
-5.020363 42.173557 0.000756
-4.705622 42.173557 0.000694
-4.390881 42.173557 0.000714
-4.076140 42.173557 0.000623
-3.761399 42.173557 0.000645
-3.446658 42.173557 0.000732
-3.131917 42.173557 0.000663
-2.817176 42.173557 0.000605
-2.502435 42.173557 0.000556
-2.187694 42.173557 0.000585
-1.872953 42.173557 0.000559
-1.558212 42.173557 0.000509
-1.243471 42.173557 0.000493
-0.928730 42.173557 0.000462
-0.613989 42.173557 0.000431
-0.299248 42.173557 0.000407
0.015493 42.173557 0.000369
0.330234 42.173557 0.000382
0.644975 42.173557 0.000340
0.959716 42.173557 0.000291
1.274457 42.173557 0.000265
1.589198 42.173557 0.000288
1.903938 42.173557 0.000319
2.218679 42.173557 0.000390
2.533421 42.173557 0.000395
2.848162 42.173557 0.000356
3.162903 42.173557 0.000301
3.477644 42.173557 0.000290
3.792385 42.173557 0.000316
4.107125 42.173557 0.000269
4.421866 42.173557 0.000082
4.736608 42.173557 -0.000074
5.051349 42.173557 -0.000051
5.366090 42.173557 -0.000204
5.680831 42.173557 -0.000378
5.995571 42.173557 -0.000563
6.310312 42.173557 -0.000925
6.625053 42.173557 -0.001334
6.939795 42.173557 -0.001879
7.254536 42.173557 -0.002862
7.569277 42.173557 -0.003724
7.884017 42.173557 -0.004502
8.198758 42.173557 -0.004524
8.513499 42.173557 -0.003690
8.828240 42.173557 -0.000604
9.142982 42.173557 0.002727
9.457723 42.173557 0.003180
9.772464 42.173557 0.008121
10.087205 42.173557 0.011896
10.401946 42.173557 0.009400
10.716687 42.173557 0.015715
11.031426 42.173557 0.017301
11.346168 42.173557 0.013678
11.660909 42.173557 0.004843
11.975650 42.173557 -0.010394
12.290391 42.173557 -0.014464
12.605132 42.173557 -0.005562
12.919873 42.173557 0.016320
13.234614 42.173557 0.021062
13.549356 42.173557 0.011056
13.864097 42.173557 0.012977
14.178838 42.173557 0.010432
14.493579 42.173557 0.019523
14.808320 42.173557 0.013260
15.123059 42.173557 0.011946
15.437800 42.173557 -0.003768
15.752542 42.173557 -0.107976
16.067284 42.173557 0.000000
16.382023 42.173557 0.000000
16.696766 42.173557 0.000000
17.011505 42.173557 0.000000
17.326248 42.173557 0.000000
17.640987 42.173557 -0.337796
17.955730 42.173557 0.038364
18.270470 42.173557 0.089719
18.585213 42.173557 0.138036
18.899952 42.173557 0.066421
-7.223550 41.858818 0.000000
-6.908809 41.858818 0.000000
-6.594068 41.858818 0.000951
-6.279327 41.858818 0.000632
-5.964586 41.858818 0.000667
-5.649845 41.858818 0.000698
-5.335104 41.858818 0.000778
-5.020363 41.858818 0.000746
-4.705622 41.858818 0.000680
-4.390881 41.858818 0.000646
-4.076140 41.858818 0.000580
-3.761399 41.858818 0.000624
-3.446658 41.858818 0.000701
-3.131917 41.858818 0.000646
-2.817176 41.858818 0.000571
-2.502435 41.858818 0.000512
-2.187694 41.858818 0.000515
-1.872953 41.858818 0.000515
-1.558212 41.858818 0.000529
-1.243471 41.858818 0.000505
-0.928730 41.858818 0.000486
-0.613989 41.858818 0.000448
-0.299248 41.858818 0.000393
0.015493 41.858818 0.000386
0.330234 41.858818 0.000390
0.644975 41.858818 0.000327
0.959716 41.858818 0.000271
1.274457 41.858818 0.000234
1.589198 41.858818 0.000227
1.903938 41.858818 0.000208
2.218679 41.858818 0.000256
2.533421 41.858818 0.000285
2.848162 41.858818 0.000326
3.162903 41.858818 0.000347
3.477644 41.858818 0.000315
3.792385 41.858818 0.000303
4.107125 41.858818 0.000216
4.421866 41.858818 0.000004
4.736608 41.858818 -0.000096
5.051349 41.858818 -0.000082
5.366090 41.858818 -0.000193
5.680831 41.858818 -0.000448
5.995571 41.858818 -0.000629
6.310312 41.858818 -0.001026
6.625053 41.858818 -0.001369
6.939795 41.858818 -0.002140
7.254536 41.858818 -0.002959
7.569277 41.858818 -0.003757
7.884017 41.858818 -0.004545
8.198758 41.858818 -0.003799
8.513499 41.858818 -0.002490
8.828240 41.858818 0.000020
9.142982 41.858818 0.003612
9.457723 41.858818 0.006085
9.772464 41.858818 0.008310
10.087205 41.858818 0.013636
10.401946 41.858818 0.010592
10.716687 41.858818 0.012657
11.031426 41.858818 0.006715
11.346168 41.858818 0.013885
11.660909 41.858818 0.005947
11.975650 41.858818 -0.015489
12.290391 41.858818 -0.018321
12.605132 41.858818 -0.015529
12.919873 41.858818 0.007945
13.234614 41.858818 0.025540
13.549356 41.858818 0.028957
13.864097 41.858818 0.030112
14.178838 41.858818 0.034386
14.493579 41.858818 0.025810
14.808320 41.858818 0.022392
15.123059 41.858818 0.003648
15.437800 41.858818 -0.003704
15.752542 41.858818 -0.016389
16.067284 41.858818 0.000000
16.382023 41.858818 0.000000
16.696766 41.858818 0.000000
17.011505 41.858818 0.000000
17.326248 41.858818 0.000000
17.640987 41.858818 -0.302329
17.955730 41.858818 0.000645
18.270470 41.858818 0.061249
18.585213 41.858818 0.090168
18.899952 41.858818 0.000000
-7.223550 41.544075 0.000000
-6.908809 41.544075 0.000000
-6.594068 41.544075 0.000879
-6.279327 41.544075 0.000620
-5.964586 41.544075 0.000610
-5.649845 41.544075 0.000655
-5.335104 41.544075 0.000715
-5.020363 41.544075 0.000754
-4.705622 41.544075 0.000704
-4.390881 41.544075 0.000584
-4.076140 41.544075 0.000535
-3.761399 41.544075 0.000602
-3.446658 41.544075 0.000664
-3.131917 41.544075 0.000615
-2.817176 41.544075 0.000571
-2.502435 41.544075 0.000512
-2.187694 41.544075 0.000447
-1.872953 41.544075 0.000456
-1.558212 41.544075 0.000544
-1.243471 41.544075 0.000527
-0.928730 41.544075 0.000483
-0.613989 41.544075 0.000438
-0.299248 41.544075 0.000383
0.015493 41.544075 0.000392
0.330234 41.544075 0.000425
0.644975 41.544075 0.000345
0.959716 41.544075 0.000252
1.274457 41.544075 0.000231
1.589198 41.544075 0.000226
1.903938 41.544075 0.000172
2.218679 41.544075 0.000193
2.533421 41.544075 0.000239
2.848162 41.544075 0.000300
3.162903 41.544075 0.000357
3.477644 41.544075 0.000327
3.792385 41.544075 0.000303
4.107125 41.544075 0.000191
4.421866 41.544075 0.000029
4.736608 41.544075 -0.000038
5.051349 41.544075 -0.000006
5.366090 41.544075 -0.000120
5.680831 41.544075 -0.000363
5.995571 41.544075 -0.000603
6.310312 41.544075 -0.000818
6.625053 41.544075 -0.001389
6.939795 41.544075 -0.001997
7.254536 41.544075 -0.002870
7.569277 41.544075 -0.003293
7.884017 41.544075 -0.004374
8.198758 41.544075 -0.004198
8.513499 41.544075 -0.001607
8.828240 41.544075 0.000115
9.142982 41.544075 0.002271
9.457723 41.544075 0.005205
9.772464 41.544075 0.008642
10.087205 41.544075 0.011762
10.401946 41.544075 0.012871
10.716687 41.544075 0.016871
11.031426 41.544075 0.017930
11.346168 41.544075 0.013273
11.660909 41.544075 -0.001594
11.975650 41.544075 -0.011643
12.290391 41.544075 -0.027002
12.605132 41.544075 -0.014721
12.919873 41.544075 0.000409
13.234614 41.544075 0.029089
13.549356 41.544075 0.028970
13.864097 41.544075 0.045764
14.178838 41.544075 0.032159
14.493579 41.544075 0.027037
14.808320 41.544075 0.024822
15.123059 41.544075 0.014507
15.437800 41.544075 0.013814
15.752542 41.544075 -0.042714
16.067284 41.544075 0.000000
16.382023 41.544075 0.000000
16.696766 41.544075 0.000000
17.011505 41.544075 0.000000
17.326248 41.544075 0.000000
17.640987 41.544075 -0.260836
17.955730 41.544075 -0.032665
18.270470 41.544075 0.083701
18.585213 41.544075 0.086186
18.899952 41.544075 0.000000
-7.223550 41.229336 0.000000
-6.908809 41.229336 0.000000
-6.594068 41.229336 0.000915
-6.279327 41.229336 0.000652
-5.964586 41.229336 0.000582
-5.649845 41.229336 0.000609
-5.335104 41.229336 0.000647
-5.020363 41.229336 0.000738
-4.705622 41.229336 0.000696
-4.390881 41.229336 0.000536
-4.076140 41.229336 0.000507
-3.761399 41.229336 0.000588
-3.446658 41.229336 0.000615
-3.131917 41.229336 0.000571
-2.817176 41.229336 0.000536
-2.502435 41.229336 0.000505
-2.187694 41.229336 0.000426
-1.872953 41.229336 0.000423
-1.558212 41.229336 0.000528
-1.243471 41.229336 0.000513
-0.928730 41.229336 0.000456
-0.613989 41.229336 0.000433
-0.299248 41.229336 0.000390
0.015493 41.229336 0.000401
0.330234 41.229336 0.000428
0.644975 41.229336 0.000341
0.959716 41.229336 0.000263
1.274457 41.229336 0.000266
1.589198 41.229336 0.000274
1.903938 41.229336 0.000180
2.218679 41.229336 0.000165
2.533421 41.229336 0.000223
2.848162 41.229336 0.000294
3.162903 41.229336 0.000344
3.477644 41.229336 0.000279
3.792385 41.229336 0.000234
4.107125 41.229336 0.000192
4.421866 41.229336 0.000130
4.736608 41.229336 0.000090
5.051349 41.229336 0.000101
5.366090 41.229336 -0.000072
5.680831 41.229336 -0.000311
5.995571 41.229336 -0.000517
6.310312 41.229336 -0.000660
6.625053 41.229336 -0.001174
6.939795 41.229336 -0.001744
7.254536 41.229336 -0.002368
7.569277 41.229336 -0.003232
7.884017 41.229336 -0.004068
8.198758 41.229336 -0.004360
8.513499 41.229336 -0.002913
8.828240 41.229336 0.000141
9.142982 41.229336 0.001107
9.457723 41.229336 0.004229
9.772464 41.229336 0.002077
10.087205 41.229336 0.011853
10.401946 41.229336 0.016689
10.716687 41.229336 0.012220
11.031426 41.229336 0.014606
11.346168 41.229336 0.010247
11.660909 41.229336 0.004584
11.975650 41.229336 -0.016041
12.290391 41.229336 -0.022077
12.605132 41.229336 -0.007600
12.919873 41.229336 -0.000157
13.234614 41.229336 0.013501
13.549356 41.229336 0.027844
13.864097 41.229336 0.048015
14.178838 41.229336 0.033014
14.493579 41.229336 0.014532
14.808320 41.229336 0.025777
15.123059 41.229336 0.013360
15.437800 41.229336 0.021575
15.752542 41.229336 -0.037931
16.067284 41.229336 0.000000
16.382023 41.229336 0.000000
16.696766 41.229336 0.000000
17.011505 41.229336 0.000000
17.326248 41.229336 0.000000
17.640987 41.229336 -0.261003
17.955730 41.229336 0.064872
18.270470 41.229336 0.111404
18.585213 41.229336 0.108082
18.899952 41.229336 0.000000
-7.223550 40.914597 0.000000
-6.908809 40.914597 0.000000
-6.594068 40.914597 0.000966
-6.279327 40.914597 0.000659
-5.964586 40.914597 0.000552
-5.649845 40.914597 0.000534
-5.335104 40.914597 0.000605
-5.020363 40.914597 0.000718
-4.705622 40.914597 0.000658
-4.390881 40.914597 0.000487
-4.076140 40.914597 0.000461
-3.761399 40.914597 0.000556
-3.446658 40.914597 0.000570
-3.131917 40.914597 0.000509
-2.817176 40.914597 0.000467
-2.502435 40.914597 0.000484
-2.187694 40.914597 0.000413
-1.872953 40.914597 0.000386
-1.558212 40.914597 0.000491
-1.243471 40.914597 0.000483
-0.928730 40.914597 0.000437
-0.613989 40.914597 0.000436
-0.299248 40.914597 0.000406
0.015493 40.914597 0.000395
0.330234 40.914597 0.000433
0.644975 40.914597 0.000389
0.959716 40.914597 0.000345
1.274457 40.914597 0.000357
1.589198 40.914597 0.000349
1.903938 40.914597 0.000224
2.218679 40.914597 0.000182
2.533421 40.914597 0.000226
2.848162 40.914597 0.000300
3.162903 40.914597 0.000335
3.477644 40.914597 0.000212
3.792385 40.914597 0.000199
4.107125 40.914597 0.000226
4.421866 40.914597 0.000260
4.736608 40.914597 0.000197
5.051349 40.914597 0.000172
5.366090 40.914597 -0.000070
5.680831 40.914597 -0.000287
5.995571 40.914597 -0.000369
6.310312 40.914597 -0.000582
6.625053 40.914597 -0.000883
6.939795 40.914597 -0.001396
7.254536 40.914597 -0.002160
7.569277 40.914597 -0.002783
7.884017 40.914597 -0.003715
8.198758 40.914597 -0.003944
8.513499 40.914597 -0.003817
8.828240 40.914597 0.000511
9.142982 40.914597 0.002413
9.457723 40.914597 0.005075
9.772464 40.914597 0.005785
10.087205 40.914597 0.008234
10.401946 40.914597 0.009927
10.716687 40.914597 0.007548
11.031426 40.914597 0.011747
11.346168 40.914597 0.008616
11.660909 40.914597 -0.005057
11.975650 40.914597 -0.012610
12.290391 40.914597 -0.018014
12.605132 40.914597 -0.009240
12.919873 40.914597 0.003635
13.234614 40.914597 0.006173
13.549356 40.914597 0.021905
13.864097 40.914597 0.036665
14.178838 40.914597 0.030213
14.493579 40.914597 0.014790
14.808320 40.914597 0.013484
15.123059 40.914597 0.018067
15.437800 40.914597 0.011340
15.752542 40.914597 -0.018239
16.067284 40.914597 0.000000
16.382023 40.914597 0.000000
16.696766 40.914597 0.000000
17.011505 40.914597 0.000000
17.326248 40.914597 0.000000
17.640987 40.914597 -0.275308
17.955730 40.914597 0.004954
18.270470 40.914597 0.080475
18.585213 40.914597 0.059028
18.899952 40.914597 0.000000
-7.223550 40.599854 0.000000
-6.908809 40.599854 0.000000
-6.594068 40.599854 0.000992
-6.279327 40.599854 0.000630
-5.964586 40.599854 0.000532
-5.649845 40.599854 0.000485
-5.335104 40.599854 0.000584
-5.020363 40.599854 0.000658
-4.705622 40.599854 0.000594
-4.390881 40.599854 0.000467
-4.076140 40.599854 0.000415
-3.761399 40.599854 0.000503
-3.446658 40.599854 0.000513
-3.131917 40.599854 0.000447
-2.817176 40.599854 0.000390
-2.502435 40.599854 0.000410
-2.187694 40.599854 0.000372
-1.872953 40.599854 0.000351
-1.558212 40.599854 0.000446
-1.243471 40.599854 0.000443
-0.928730 40.599854 0.000432
-0.613989 40.599854 0.000454
-0.299248 40.599854 0.000408
0.015493 40.599854 0.000394
0.330234 40.599854 0.000452
0.644975 40.599854 0.000453
0.959716 40.599854 0.000427
1.274457 40.599854 0.000441
1.589198 40.599854 0.000392
1.903938 40.599854 0.000259
2.218679 40.599854 0.000211
2.533421 40.599854 0.000223
2.848162 40.599854 0.000326
3.162903 40.599854 0.000315
3.477644 40.599854 0.000182
3.792385 40.599854 0.000182
4.107125 40.599854 0.000270
4.421866 40.599854 0.000310
4.736608 40.599854 0.000294
5.051349 40.599854 0.000195
5.366090 40.599854 0.000038
5.680831 40.599854 -0.000142
5.995571 40.599854 -0.000218
6.310312 40.599854 -0.000615
6.625053 40.599854 -0.000881
6.939795 40.599854 -0.001429
7.254536 40.599854 -0.001976
7.569277 40.599854 -0.002682
7.884017 40.599854 -0.002897
8.198758 40.599854 -0.004055
8.513499 40.599854 -0.004088
8.828240 40.599854 -0.001915
9.142982 40.599854 0.002195
9.457723 40.599854 0.005217
9.772464 40.599854 0.008850
10.087205 40.599854 0.009142
10.401946 40.599854 0.005085
10.716687 40.599854 0.002087
11.031426 40.599854 0.001118
11.346168 40.599854 0.001295
11.660909 40.599854 -0.012749
11.975650 40.599854 -0.016287
12.290391 40.599854 -0.021563
12.605132 40.599854 -0.012312
12.919873 40.599854 -0.001443
13.234614 40.599854 0.004307
13.549356 40.599854 0.023973
13.864097 40.599854 0.026194
14.178838 40.599854 0.030530
14.493579 40.599854 0.013093
14.808320 40.599854 0.009703
15.123059 40.599854 -0.020763
15.437800 40.599854 -0.002609
15.752542 40.599854 -0.044387
16.067284 40.599854 0.000000
16.382023 40.599854 0.000000
16.696766 40.599854 0.000000
17.011505 40.599854 0.000000
17.326248 40.599854 0.000000
17.640987 40.599854 -0.277790
17.955730 40.599854 -0.001600
18.270470 40.599854 0.104621
18.585213 40.599854 0.125518
18.899952 40.599854 0.000000
-7.223550 40.285114 0.000000
-6.908809 40.285114 0.000000
-6.594068 40.285114 0.001056
-6.279327 40.285114 0.000614
-5.964586 40.285114 0.000541
-5.649845 40.285114 0.000478
-5.335104 40.285114 0.000547
-5.020363 40.285114 0.000554
-4.705622 40.285114 0.000532
-4.390881 40.285114 0.000468
-4.076140 40.285114 0.000424
-3.761399 40.285114 0.000470
-3.446658 40.285114 0.000464
-3.131917 40.285114 0.000386
-2.817176 40.285114 0.000354
-2.502435 40.285114 0.000370
-2.187694 40.285114 0.000351
-1.872953 40.285114 0.000339
-1.558212 40.285114 0.000408
-1.243471 40.285114 0.000381
-0.928730 40.285114 0.000420
-0.613989 40.285114 0.000469
-0.299248 40.285114 0.000439
0.015493 40.285114 0.000401
0.330234 40.285114 0.000454
0.644975 40.285114 0.000512
0.959716 40.285114 0.000489
1.274457 40.285114 0.000431
1.589198 40.285114 0.000377
1.903938 40.285114 0.000281
2.218679 40.285114 0.000271
2.533421 40.285114 0.000257
2.848162 40.285114 0.000277
3.162903 40.285114 0.000261
3.477644 40.285114 0.000175
3.792385 40.285114 0.000146
4.107125 40.285114 0.000282
4.421866 40.285114 0.000368
4.736608 40.285114 0.000329
5.051349 40.285114 0.000236
5.366090 40.285114 0.000073
5.680831 40.285114 -0.000014
5.995571 40.285114 -0.000246
6.310312 40.285114 -0.000630
6.625053 40.285114 -0.001028
6.939795 40.285114 -0.001546
7.254536 40.285114 -0.001748
7.569277 40.285114 -0.001839
7.884017 40.285114 -0.002906
8.198758 40.285114 -0.003823
8.513499 40.285114 -0.003355
8.828240 40.285114 -0.002141
9.142982 40.285114 0.000566
9.457723 40.285114 0.005397
9.772464 40.285114 0.007294
10.087205 40.285114 0.013652
10.401946 40.285114 0.003779
10.716687 40.285114 -0.001751
11.031426 40.285114 -0.004504
11.346168 40.285114 -0.000839
11.660909 40.285114 -0.003844
11.975650 40.285114 -0.005602
12.290391 40.285114 -0.001723
12.605132 40.285114 0.003584
12.919873 40.285114 -0.004260
13.234614 40.285114 0.002122
13.549356 40.285114 0.026101
13.864097 40.285114 0.041061
14.178838 40.285114 0.018858
14.493579 40.285114 -0.001881
14.808320 40.285114 -0.009891
15.123059 40.285114 -0.012995
15.437800 40.285114 -0.008229
15.752542 40.285114 -0.065451
16.067284 40.285114 0.000000
16.382023 40.285114 0.000000
16.696766 40.285114 0.000000
17.011505 40.285114 0.000000
17.326248 40.285114 0.000000
17.640987 40.285114 -0.414338
17.955730 40.285114 -0.043378
18.270470 40.285114 0.066237
18.585213 40.285114 0.139711
18.899952 40.285114 0.000000
-7.223550 39.970371 0.000000
-6.908809 39.970371 0.000000
-6.594068 39.970371 0.001084
-6.279327 39.970371 0.000607
-5.964586 39.970371 0.000557
-5.649845 39.970371 0.000499
-5.335104 39.970371 0.000504
-5.020363 39.970371 0.000482
-4.705622 39.970371 0.000507
-4.390881 39.970371 0.000498
-4.076140 39.970371 0.000447
-3.761399 39.970371 0.000434
-3.446658 39.970371 0.000426
-3.131917 39.970371 0.000403
-2.817176 39.970371 0.000396
-2.502435 39.970371 0.000396
-2.187694 39.970371 0.000379
-1.872953 39.970371 0.000377
-1.558212 39.970371 0.000376
-1.243471 39.970371 0.000353
-0.928730 39.970371 0.000424
-0.613989 39.970371 0.000475
-0.299248 39.970371 0.000469
0.015493 39.970371 0.000415
0.330234 39.970371 0.000438
0.644975 39.970371 0.000518
0.959716 39.970371 0.000470
1.274457 39.970371 0.000377
1.589198 39.970371 0.000343
1.903938 39.970371 0.000285
2.218679 39.970371 0.000323
2.533421 39.970371 0.000285
2.848162 39.970371 0.000186
3.162903 39.970371 0.000188
3.477644 39.970371 0.000123
3.792385 39.970371 0.000112
4.107125 39.970371 0.000257
4.421866 39.970371 0.000378
4.736608 39.970371 0.000321
5.051349 39.970371 0.000226
5.366090 39.970371 0.000112
5.680831 39.970371 0.000054
5.995571 39.970371 -0.000162
6.310312 39.970371 -0.000621
6.625053 39.970371 -0.001156
6.939795 39.970371 -0.001487
7.254536 39.970371 -0.001883
7.569277 39.970371 -0.001939
7.884017 39.970371 -0.003061
8.198758 39.970371 -0.003451
8.513499 39.970371 -0.003594
8.828240 39.970371 -0.001519
9.142982 39.970371 0.002640
9.457723 39.970371 0.004745
9.772464 39.970371 0.006312
10.087205 39.970371 0.011082
10.401946 39.970371 0.010120
10.716687 39.970371 0.003545
11.031426 39.970371 -0.001793
11.346168 39.970371 0.005081
11.660909 39.970371 0.003409
11.975650 39.970371 -0.004316
12.290391 39.970371 0.005671
12.605132 39.970371 0.003738
12.919873 39.970371 -0.004073
13.234614 39.970371 -0.002524
13.549356 39.970371 0.020524
13.864097 39.970371 0.027894
14.178838 39.970371 0.012286
14.493579 39.970371 0.005485
14.808320 39.970371 0.006226
15.123059 39.970371 -0.013261
15.437800 39.970371 0.002784
15.752542 39.970371 -0.085550
16.067284 39.970371 0.000000
16.382023 39.970371 0.000000
16.696766 39.970371 0.000000
17.011505 39.970371 0.000000
17.326248 39.970371 0.000000
17.640987 39.970371 -0.494728
17.955730 39.970371 -0.015389
18.270470 39.970371 0.119182
18.585213 39.970371 0.186939
18.899952 39.970371 0.000000
-7.223550 39.655632 0.000000
-6.908809 39.655632 0.000000
-6.594068 39.655632 0.001012
-6.279327 39.655632 0.000612
-5.964586 39.655632 0.000573
-5.649845 39.655632 0.000507
-5.335104 39.655632 0.000459
-5.020363 39.655632 0.000444
-4.705622 39.655632 0.000517
-4.390881 39.655632 0.000520
-4.076140 39.655632 0.000467
-3.761399 39.655632 0.000420
-3.446658 39.655632 0.000425
-3.131917 39.655632 0.000468
-2.817176 39.655632 0.000452
-2.502435 39.655632 0.000440
-2.187694 39.655632 0.000427
-1.872953 39.655632 0.000414
-1.558212 39.655632 0.000368
-1.243471 39.655632 0.000351
-0.928730 39.655632 0.000452
-0.613989 39.655632 0.000460
-0.299248 39.655632 0.000472
0.015493 39.655632 0.000433
0.330234 39.655632 0.000415
0.644975 39.655632 0.000442
0.959716 39.655632 0.000396
1.274457 39.655632 0.000344
1.589198 39.655632 0.000342
1.903938 39.655632 0.000335
2.218679 39.655632 0.000362
2.533421 39.655632 0.000302
2.848162 39.655632 0.000107
3.162903 39.655632 0.000078
3.477644 39.655632 0.000084
3.792385 39.655632 0.000082
4.107125 39.655632 0.000201
4.421866 39.655632 0.000303
4.736608 39.655632 0.000223
5.051349 39.655632 0.000135
5.366090 39.655632 0.000075
5.680831 39.655632 0.000054
5.995571 39.655632 -0.000187
6.310312 39.655632 -0.000766
6.625053 39.655632 -0.001097
6.939795 39.655632 -0.001510
7.254536 39.655632 -0.002285
7.569277 39.655632 -0.002848
7.884017 39.655632 -0.002973
8.198758 39.655632 -0.002923
8.513499 39.655632 -0.004151
8.828240 39.655632 -0.000110
9.142982 39.655632 0.002020
9.457723 39.655632 0.002501
9.772464 39.655632 0.007837
10.087205 39.655632 0.012581
10.401946 39.655632 0.012060
10.716687 39.655632 0.008202
11.031426 39.655632 0.010736
11.346168 39.655632 0.010914
11.660909 39.655632 0.007542
11.975650 39.655632 -0.001529
12.290391 39.655632 0.000798
12.605132 39.655632 -0.003585
12.919873 39.655632 -0.014217
13.234614 39.655632 0.004273
13.549356 39.655632 0.025136
13.864097 39.655632 0.027143
14.178838 39.655632 0.004271
14.493579 39.655632 0.008483
14.808320 39.655632 0.015278
15.123059 39.655632 0.012928
15.437800 39.655632 0.014901
15.752542 39.655632 -0.076314
16.067284 39.655632 0.000000
16.382023 39.655632 0.000000
16.696766 39.655632 0.000000
17.011505 39.655632 0.000000
17.326248 39.655632 0.000000
17.640987 39.655632 -0.584495
17.955730 39.655632 -0.143657
18.270470 39.655632 -0.036606
18.585213 39.655632 0.166716
18.899952 39.655632 0.000000
-7.223550 39.340889 0.000000
-6.908809 39.340889 0.000000
-6.594068 39.340889 0.000905
-6.279327 39.340889 0.000592
-5.964586 39.340889 0.000542
-5.649845 39.340889 0.000474
-5.335104 39.340889 0.000404
-5.020363 39.340889 0.000427
-4.705622 39.340889 0.000525
-4.390881 39.340889 0.000533
-4.076140 39.340889 0.000516
-3.761399 39.340889 0.000480
-3.446658 39.340889 0.000475
-3.131917 39.340889 0.000527
-2.817176 39.340889 0.000500
-2.502435 39.340889 0.000463
-2.187694 39.340889 0.000420
-1.872953 39.340889 0.000411
-1.558212 39.340889 0.000345
-1.243471 39.340889 0.000328
-0.928730 39.340889 0.000417
-0.613989 39.340889 0.000409
-0.299248 39.340889 0.000446
0.015493 39.340889 0.000435
0.330234 39.340889 0.000394
0.644975 39.340889 0.000337
0.959716 39.340889 0.000300
1.274457 39.340889 0.000296
1.589198 39.340889 0.000364
1.903938 39.340889 0.000365
2.218679 39.340889 0.000418
2.533421 39.340889 0.000316
2.848162 39.340889 0.000082
3.162903 39.340889 0.000017
3.477644 39.340889 0.000055
3.792385 39.340889 0.000088
4.107125 39.340889 0.000137
4.421866 39.340889 0.000171
4.736608 39.340889 0.000081
5.051349 39.340889 0.000023
5.366090 39.340889 -0.000028
5.680831 39.340889 -0.000109
5.995571 39.340889 -0.000318
6.310312 39.340889 -0.000818
6.625053 39.340889 -0.001164
6.939795 39.340889 -0.001665
7.254536 39.340889 -0.001991
7.569277 39.340889 -0.002694
7.884017 39.340889 -0.003600
8.198758 39.340889 -0.003164
8.513499 39.340889 -0.002861
8.828240 39.340889 -0.001293
9.142982 39.340889 0.001386
9.457723 39.340889 0.005289
9.772464 39.340889 0.012257
10.087205 39.340889 0.010703
10.401946 39.340889 0.009127
10.716687 39.340889 0.010966
11.031426 39.340889 0.021934
11.346168 39.340889 0.022357
11.660909 39.340889 0.010170
11.975650 39.340889 0.004454
12.290391 39.340889 -0.009374
12.605132 39.340889 -0.014340
12.919873 39.340889 -0.012384
13.234614 39.340889 -0.011355
13.549356 39.340889 0.005696
13.864097 39.340889 0.012467
14.178838 39.340889 0.005110
14.493579 39.340889 0.001191
14.808320 39.340889 0.007133
15.123059 39.340889 0.002317
15.437800 39.340889 0.012984
15.752542 39.340889 -0.067654
16.067284 39.340889 0.000000
16.382023 39.340889 0.000000
16.696766 39.340889 0.000000
17.011505 39.340889 0.000000
17.326248 39.340889 0.000000
17.640987 39.340889 -0.814834
17.955730 39.340889 -0.421839
18.270470 39.340889 -0.169440
18.585213 39.340889 0.029462
18.899952 39.340889 0.000000
-7.223550 39.026150 0.000000
-6.908809 39.026150 0.000000
-6.594068 39.026150 0.000839
-6.279327 39.026150 0.000581
-5.964586 39.026150 0.000515
-5.649845 39.026150 0.000451
-5.335104 39.026150 0.000403
-5.020363 39.026150 0.000429
-4.705622 39.026150 0.000516
-4.390881 39.026150 0.000520
-4.076140 39.026150 0.000544
-3.761399 39.026150 0.000570
-3.446658 39.026150 0.000528
-3.131917 39.026150 0.000550
-2.817176 39.026150 0.000479
-2.502435 39.026150 0.000426
-2.187694 39.026150 0.000377
-1.872953 39.026150 0.000375
-1.558212 39.026150 0.000339
-1.243471 39.026150 0.000317
-0.928730 39.026150 0.000366
-0.613989 39.026150 0.000369
-0.299248 39.026150 0.000382
0.015493 39.026150 0.000401
0.330234 39.026150 0.000347
0.644975 39.026150 0.000265
0.959716 39.026150 0.000245
1.274457 39.026150 0.000273
1.589198 39.026150 0.000335
1.903938 39.026150 0.000360
2.218679 39.026150 0.000409
2.533421 39.026150 0.000322
2.848162 39.026150 0.000118
3.162903 39.026150 0.000034
3.477644 39.026150 0.000047
3.792385 39.026150 0.000075
4.107125 39.026150 0.000134
4.421866 39.026150 0.000036
4.736608 39.026150 -0.000080
5.051349 39.026150 -0.000046
5.366090 39.026150 -0.000120
5.680831 39.026150 -0.000242
5.995571 39.026150 -0.000550
6.310312 39.026150 -0.000894
6.625053 39.026150 -0.001090
6.939795 39.026150 -0.001515
7.254536 39.026150 -0.002221
7.569277 39.026150 -0.002730
7.884017 39.026150 -0.003101
8.198758 39.026150 -0.002881
8.513499 39.026150 -0.002208
8.828240 39.026150 0.000135
9.142982 39.026150 0.001546
9.457723 39.026150 0.005798
9.772464 39.026150 0.006468
10.087205 39.026150 0.001012
10.401946 39.026150 0.002343
10.716687 39.026150 0.016545
11.031426 39.026150 0.021834
11.346168 39.026150 0.020644
11.660909 39.026150 0.016075
11.975650 39.026150 0.006029
12.290391 39.026150 -0.002181
12.605132 39.026150 -0.014138
12.919873 39.026150 -0.014911
13.234614 39.026150 -0.012390
13.549356 39.026150 -0.002422
13.864097 39.026150 0.013390
14.178838 39.026150 0.013461
14.493579 39.026150 0.010781
14.808320 39.026150 0.005676
15.123059 39.026150 0.000545
15.437800 39.026150 -0.006336
15.752542 39.026150 -0.053144
16.067284 39.026150 0.000000
16.382023 39.026150 0.000000
16.696766 39.026150 0.000000
17.011505 39.026150 0.000000
17.326248 39.026150 0.000000
17.640987 39.026150 -1.748224
17.955730 39.026150 -0.612000
18.270470 39.026150 -0.285488
18.585213 39.026150 -0.118276
18.899952 39.026150 0.000000
-7.223550 38.711407 0.000000
-6.908809 38.711407 0.000000
-6.594068 38.711407 0.000767
-6.279327 38.711407 0.000529
-5.964586 38.711407 0.000492
-5.649845 38.711407 0.000473
-5.335104 38.711407 0.000451
-5.020363 38.711407 0.000442
-4.705622 38.711407 0.000481
-4.390881 38.711407 0.000454
-4.076140 38.711407 0.000516
-3.761399 38.711407 0.000581
-3.446658 38.711407 0.000553
-3.131917 38.711407 0.000538
-2.817176 38.711407 0.000433
-2.502435 38.711407 0.000341
-2.187694 38.711407 0.000303
-1.872953 38.711407 0.000341
-1.558212 38.711407 0.000342
-1.243471 38.711407 0.000302
-0.928730 38.711407 0.000334
-0.613989 38.711407 0.000345
-0.299248 38.711407 0.000319
0.015493 38.711407 0.000331
0.330234 38.711407 0.000297
0.644975 38.711407 0.000259
0.959716 38.711407 0.000277
1.274457 38.711407 0.000288
1.589198 38.711407 0.000290
1.903938 38.711407 0.000310
2.218679 38.711407 0.000357
2.533421 38.711407 0.000324
2.848162 38.711407 0.000183
3.162903 38.711407 0.000108
3.477644 38.711407 0.000054
3.792385 38.711407 0.000084
4.107125 38.711407 0.000091
4.421866 38.711407 -0.000088
4.736608 38.711407 -0.000161
5.051349 38.711407 -0.000073
5.366090 38.711407 -0.000073
5.680831 38.711407 -0.000243
5.995571 38.711407 -0.000476
6.310312 38.711407 -0.000844
6.625053 38.711407 -0.001187
6.939795 38.711407 -0.001447
7.254536 38.711407 -0.002198
7.569277 38.711407 -0.002996
7.884017 38.711407 -0.002980
8.198758 38.711407 -0.003085
8.513499 38.711407 -0.001647
8.828240 38.711407 0.000510
9.142982 38.711407 0.004613
9.457723 38.711407 0.007159
9.772464 38.711407 0.005514
10.087205 38.711407 0.005189
10.401946 38.711407 0.005511
10.716687 38.711407 0.019072
11.031426 38.711407 0.023348
11.346168 38.711407 0.018895
11.660909 38.711407 0.013647
11.975650 38.711407 0.002630
12.290391 38.711407 0.005948
12.605132 38.711407 -0.002202
12.919873 38.711407 -0.003918
13.234614 38.711407 -0.011192
13.549356 38.711407 -0.005439
13.864097 38.711407 0.011421
14.178838 38.711407 0.022642
14.493579 38.711407 0.027660
14.808320 38.711407 0.016322
15.123059 38.711407 0.000216
15.437800 38.711407 -0.005916
15.752542 38.711407 -0.052440
16.067284 38.711407 0.000000
16.382023 38.711407 0.000000
16.696766 38.711407 0.000000
17.011505 38.711407 0.000000
17.326248 38.711407 0.000000
17.640987 38.711407 -1.931496
17.955730 38.711407 -0.757350
18.270470 38.711407 -0.438409
18.585213 38.711407 -0.159612
18.899952 38.711407 0.000000
-7.223550 38.396667 0.000000
-6.908809 38.396667 0.000000
-6.594068 38.396667 0.000756
-6.279327 38.396667 0.000501
-5.964586 38.396667 0.000471
-5.649845 38.396667 0.000507
-5.335104 38.396667 0.000503
-5.020363 38.396667 0.000439
-4.705622 38.396667 0.000427
-4.390881 38.396667 0.000381
-4.076140 38.396667 0.000440
-3.761399 38.396667 0.000528
-3.446658 38.396667 0.000532
-3.131917 38.396667 0.000522
-2.817176 38.396667 0.000410
-2.502435 38.396667 0.000276
-2.187694 38.396667 0.000270
-1.872953 38.396667 0.000364
-1.558212 38.396667 0.000385
-1.243471 38.396667 0.000314
-0.928730 38.396667 0.000344
-0.613989 38.396667 0.000365
-0.299248 38.396667 0.000291
0.015493 38.396667 0.000289
0.330234 38.396667 0.000256
0.644975 38.396667 0.000267
0.959716 38.396667 0.000294
1.274457 38.396667 0.000303
1.589198 38.396667 0.000245
1.903938 38.396667 0.000196
2.218679 38.396667 0.000251
2.533421 38.396667 0.000287
2.848162 38.396667 0.000216
3.162903 38.396667 0.000169
3.477644 38.396667 0.000101
3.792385 38.396667 0.000084
4.107125 38.396667 0.000041
4.421866 38.396667 -0.000155
4.736608 38.396667 -0.000194
5.051349 38.396667 -0.000045
5.366090 38.396667 -0.000077
5.680831 38.396667 -0.000208
5.995571 38.396667 -0.000354
6.310312 38.396667 -0.000691
6.625053 38.396667 -0.001037
6.939795 38.396667 -0.001307
7.254536 38.396667 -0.001944
7.569277 38.396667 -0.003159
7.884017 38.396667 -0.003412
8.198758 38.396667 -0.003440
8.513499 38.396667 -0.000967
8.828240 38.396667 0.000838
9.142982 38.396667 0.004185
9.457723 38.396667 0.009327
9.772464 38.396667 0.011384
10.087205 38.396667 0.007983
10.401946 38.396667 0.007649
10.716687 38.396667 0.019379
11.031426 38.396667 0.021011
11.346168 38.396667 0.019237
11.660909 38.396667 0.014989
11.975650 38.396667 0.001918
12.290391 38.396667 0.000462
12.605132 38.396667 -0.003709
12.919873 38.396667 -0.004386
13.234614 38.396667 -0.009524
13.549356 38.396667 -0.000776
13.864097 38.396667 0.016240
14.178838 38.396667 0.024099
14.493579 38.396667 0.037420
14.808320 38.396667 0.026425
15.123059 38.396667 -0.009679
15.437800 38.396667 0.001432
15.752542 38.396667 -0.059583
16.067284 38.396667 0.000000
16.382023 38.396667 0.000000
16.696766 38.396667 0.000000
17.011505 38.396667 0.000000
17.326248 38.396667 0.000000
17.640987 38.396667 -1.564263
17.955730 38.396667 -0.695009
18.270470 38.396667 -0.457346
18.585213 38.396667 -0.297753
18.899952 38.396667 0.000000
-7.223550 38.081924 0.000000
-6.908809 38.081924 0.000000
-6.594068 38.081924 0.000786
-6.279327 38.081924 0.000505
-5.964586 38.081924 0.000490
-5.649845 38.081924 0.000507
-5.335104 38.081924 0.000513
-5.020363 38.081924 0.000453
-4.705622 38.081924 0.000421
-4.390881 38.081924 0.000372
-4.076140 38.081924 0.000402
-3.761399 38.081924 0.000453
-3.446658 38.081924 0.000470
-3.131917 38.081924 0.000485
-2.817176 38.081924 0.000426
-2.502435 38.081924 0.000318
-2.187694 38.081924 0.000299
-1.872953 38.081924 0.000405
-1.558212 38.081924 0.000413
-1.243471 38.081924 0.000317
-0.928730 38.081924 0.000348
-0.613989 38.081924 0.000376
-0.299248 38.081924 0.000297
0.015493 38.081924 0.000274
0.330234 38.081924 0.000271
0.644975 38.081924 0.000244
0.959716 38.081924 0.000242
1.274457 38.081924 0.000258
1.589198 38.081924 0.000187
1.903938 38.081924 0.000108
2.218679 38.081924 0.000158
2.533421 38.081924 0.000218
2.848162 38.081924 0.000245
3.162903 38.081924 0.000249
3.477644 38.081924 0.000174
3.792385 38.081924 0.000100
4.107125 38.081924 -0.000020
4.421866 38.081924 -0.000196
4.736608 38.081924 -0.000212
5.051349 38.081924 -0.000051
5.366090 38.081924 0.000014
5.680831 38.081924 -0.000071
5.995571 38.081924 -0.000222
6.310312 38.081924 -0.000408
6.625053 38.081924 -0.000789
6.939795 38.081924 -0.001294
7.254536 38.081924 -0.001951
7.569277 38.081924 -0.003078
7.884017 38.081924 -0.003267
8.198758 38.081924 -0.002684
8.513499 38.081924 -0.001278
8.828240 38.081924 0.000700
9.142982 38.081924 0.003839
9.457723 38.081924 0.004906
9.772464 38.081924 0.006657
10.087205 38.081924 0.005136
10.401946 38.081924 0.009859
10.716687 38.081924 0.010729
11.031426 38.081924 0.011211
11.346168 38.081924 0.010684
11.660909 38.081924 0.013789
11.975650 38.081924 0.005328
12.290391 38.081924 0.002472
12.605132 38.081924 -0.002642
12.919873 38.081924 0.000445
13.234614 38.081924 -0.002798
13.549356 38.081924 0.007257
13.864097 38.081924 0.017674
14.178838 38.081924 0.039823
14.493579 38.081924 0.042752
14.808320 38.081924 0.015319
15.123059 38.081924 0.004722
15.437800 38.081924 0.018917
15.752542 38.081924 -0.109998
16.067284 38.081924 0.000000
16.382023 38.081924 0.000000
16.696766 38.081924 0.000000
17.011505 38.081924 0.000000
17.326248 38.081924 0.000000
17.640987 38.081924 1.198834
17.955730 38.081924 -1.533554
18.270470 38.081924 -0.436065
18.585213 38.081924 -0.419320
18.899952 38.081924 0.000000
-7.223550 37.767185 0.000000
-6.908809 37.767185 0.000000
-6.594068 37.767185 0.000800
-6.279327 37.767185 0.000512
-5.964586 37.767185 0.000491
-5.649845 37.767185 0.000470
-5.335104 37.767185 0.000475
-5.020363 37.767185 0.000475
-4.705622 37.767185 0.000443
-4.390881 37.767185 0.000405
-4.076140 37.767185 0.000408
-3.761399 37.767185 0.000414
-3.446658 37.767185 0.000419
-3.131917 37.767185 0.000431
-2.817176 37.767185 0.000461
-2.502435 37.767185 0.000404
-2.187694 37.767185 0.000354
-1.872953 37.767185 0.000439
-1.558212 37.767185 0.000426
-1.243471 37.767185 0.000326
-0.928730 37.767185 0.000345
-0.613989 37.767185 0.000341
-0.299248 37.767185 0.000271
0.015493 37.767185 0.000251
0.330234 37.767185 0.000255
0.644975 37.767185 0.000216
0.959716 37.767185 0.000155
1.274457 37.767185 0.000193
1.589198 37.767185 0.000143
1.903938 37.767185 0.000066
2.218679 37.767185 0.000093
2.533421 37.767185 0.000174
2.848162 37.767185 0.000298
3.162903 37.767185 0.000306
3.477644 37.767185 0.000220
3.792385 37.767185 0.000123
4.107125 37.767185 -0.000053
4.421866 37.767185 -0.000211
4.736608 37.767185 -0.000168
5.051349 37.767185 -0.000046
5.366090 37.767185 -0.000002
5.680831 37.767185 0.000020
5.995571 37.767185 0.000023
6.310312 37.767185 -0.000124
6.625053 37.767185 -0.000362
6.939795 37.767185 -0.001034
7.254536 37.767185 -0.002167
7.569277 37.767185 -0.002970
7.884017 37.767185 -0.003568
8.198758 37.767185 -0.003766
8.513499 37.767185 -0.002054
8.828240 37.767185 0.001501
9.142982 37.767185 0.002897
9.457723 37.767185 0.004800
9.772464 37.767185 0.006216
10.087205 37.767185 0.006099
10.401946 37.767185 0.006629
10.716687 37.767185 0.005405
11.031426 37.767185 0.005513
11.346168 37.767185 0.001948
11.660909 37.767185 0.006750
11.975650 37.767185 0.002160
12.290391 37.767185 -0.001068
12.605132 37.767185 -0.011228
12.919873 37.767185 0.004699
13.234614 37.767185 0.015235
13.549356 37.767185 0.023861
13.864097 37.767185 0.029049
14.178838 37.767185 0.041034
14.493579 37.767185 0.042294
14.808320 37.767185 0.015250
15.123059 37.767185 0.014734
15.437800 37.767185 0.036034
15.752542 37.767185 -0.033737
16.067284 37.767185 0.000000
16.382023 37.767185 0.000000
16.696766 37.767185 0.000000
17.011505 37.767185 0.000000
17.326248 37.767185 0.000000
17.640987 37.767185 0.000000
17.955730 37.767185 0.000000
18.270470 37.767185 -0.646798
18.585213 37.767185 -0.512996
18.899952 37.767185 0.000000
-7.223550 37.452446 0.000000
-6.908809 37.452446 0.000000
-6.594068 37.452446 0.000810
-6.279327 37.452446 0.000491
-5.964586 37.452446 0.000440
-5.649845 37.452446 0.000420
-5.335104 37.452446 0.000442
-5.020363 37.452446 0.000478
-4.705622 37.452446 0.000466
-4.390881 37.452446 0.000443
-4.076140 37.452446 0.000449
-3.761399 37.452446 0.000435
-3.446658 37.452446 0.000401
-3.131917 37.452446 0.000409
-2.817176 37.452446 0.000489
-2.502435 37.452446 0.000480
-2.187694 37.452446 0.000398
-1.872953 37.452446 0.000414
-1.558212 37.452446 0.000406
-1.243471 37.452446 0.000333
-0.928730 37.452446 0.000287
-0.613989 37.452446 0.000244
-0.299248 37.452446 0.000197
0.015493 37.452446 0.000246
0.330234 37.452446 0.000261
0.644975 37.452446 0.000172
0.959716 37.452446 0.000079
1.274457 37.452446 0.000135
1.589198 37.452446 0.000140
1.903938 37.452446 0.000095
2.218679 37.452446 0.000114
2.533421 37.452446 0.000199
2.848162 37.452446 0.000340
3.162903 37.452446 0.000328
3.477644 37.452446 0.000218
3.792385 37.452446 0.000132
4.107125 37.452446 -0.000024
4.421866 37.452446 -0.000162
4.736608 37.452446 -0.000138
5.051349 37.452446 -0.000047
5.366090 37.452446 -0.000070
5.680831 37.452446 0.000002
5.995571 37.452446 0.000177
6.310312 37.452446 0.000090
6.625053 37.452446 -0.000272
6.939795 37.452446 -0.000883
7.254536 37.452446 -0.001857
7.569277 37.452446 -0.003241
7.884017 37.452446 -0.003830
8.198758 37.452446 -0.004146
8.513499 37.452446 -0.001732
8.828240 37.452446 -0.000057
9.142982 37.452446 0.001722
9.457723 37.452446 0.004283
9.772464 37.452446 0.006174
10.087205 37.452446 0.007920
10.401946 37.452446 0.003934
10.716687 37.452446 -0.005659
11.031426 37.452446 -0.006939
11.346168 37.452446 -0.008757
11.660909 37.452446 -0.004379
11.975650 37.452446 0.002673
12.290391 37.452446 0.003232
12.605132 37.452446 0.002245
12.919873 37.452446 0.017011
13.234614 37.452446 0.023928
13.549356 37.452446 0.036002
13.864097 37.452446 0.028526
14.178838 37.452446 0.034737
14.493579 37.452446 0.022780
14.808320 37.452446 -0.007106
15.123059 37.452446 -0.006046
15.437800 37.452446 0.039134
15.752542 37.452446 -0.001783
16.067284 37.452446 0.000000
16.382023 37.452446 0.000000
16.696766 37.452446 0.000000
17.011505 37.452446 0.000000
17.326248 37.452446 0.000000
17.640987 37.452446 0.000000
17.955730 37.452446 0.000000
18.270470 37.452446 -0.112075
18.585213 37.452446 -0.296961
18.899952 37.452446 0.000000
-7.223550 37.137703 0.000000
-6.908809 37.137703 0.000000
-6.594068 37.137703 0.000713
-6.279327 37.137703 0.000410
-5.964586 37.137703 0.000367
-5.649845 37.137703 0.000383
-5.335104 37.137703 0.000413
-5.020363 37.137703 0.000472
-4.705622 37.137703 0.000478
-4.390881 37.137703 0.000460
-4.076140 37.137703 0.000481
-3.761399 37.137703 0.000487
-3.446658 37.137703 0.000403
-3.131917 37.137703 0.000393
-2.817176 37.137703 0.000493
-2.502435 37.137703 0.000484
-2.187694 37.137703 0.000387
-1.872953 37.137703 0.000377
-1.558212 37.137703 0.000396
-1.243471 37.137703 0.000340
-0.928730 37.137703 0.000244
-0.613989 37.137703 0.000160
-0.299248 37.137703 0.000148
0.015493 37.137703 0.000262
0.330234 37.137703 0.000302
0.644975 37.137703 0.000184
0.959716 37.137703 0.000087
1.274457 37.137703 0.000127
1.589198 37.137703 0.000171
1.903938 37.137703 0.000194
2.218679 37.137703 0.000184
2.533421 37.137703 0.000258
2.848162 37.137703 0.000366
3.162903 37.137703 0.000314
3.477644 37.137703 0.000196
3.792385 37.137703 0.000097
4.107125 37.137703 0.000003
4.421866 37.137703 -0.000067
4.736608 37.137703 -0.000020
5.051349 37.137703 -0.000074
5.366090 37.137703 -0.000121
5.680831 37.137703 0.000010
5.995571 37.137703 0.000212
6.310312 37.137703 0.000211
6.625053 37.137703 -0.000209
6.939795 37.137703 -0.000696
7.254536 37.137703 -0.001641
7.569277 37.137703 -0.002481
7.884017 37.137703 -0.003217
8.198758 37.137703 -0.003663
8.513499 37.137703 -0.002012
8.828240 37.137703 0.000843
9.142982 37.137703 0.002769
9.457723 37.137703 0.001553
9.772464 37.137703 0.007909
10.087205 37.137703 0.007427
10.401946 37.137703 -0.001185
10.716687 37.137703 -0.003052
11.031426 37.137703 -0.002588
11.346168 37.137703 -0.005303
11.660909 37.137703 -0.010195
11.975650 37.137703 -0.000808
12.290391 37.137703 0.001969
12.605132 37.137703 0.002463
12.919873 37.137703 0.008091
13.234614 37.137703 0.010745
13.549356 37.137703 0.047045
13.864097 37.137703 0.038682
14.178838 37.137703 0.030371
14.493579 37.137703 0.019044
14.808320 37.137703 -0.018061
15.123059 37.137703 0.004058
15.437800 37.137703 0.037897
15.752542 37.137703 -0.009282
16.067284 37.137703 0.000000
16.382023 37.137703 0.000000
16.696766 37.137703 0.000000
17.011505 37.137703 0.000000
17.326248 37.137703 0.000000
17.640987 37.137703 0.000000
17.955730 37.137703 0.000000
18.270470 37.137703 0.000000
18.585213 37.137703 -20.454081
18.899952 37.137703 0.000000
-7.223550 36.822960 0.000000
-6.908809 36.822960 0.000000
-6.594068 36.822960 0.000565
-6.279327 36.822960 0.000326
-5.964586 36.822960 0.000340
-5.649845 36.822960 0.000390
-5.335104 36.822960 0.000418
-5.020363 36.822960 0.000434
-4.705622 36.822960 0.000446
-4.390881 36.822960 0.000463
-4.076140 36.822960 0.000480
-3.761399 36.822960 0.000489
-3.446658 36.822960 0.000378
-3.131917 36.822960 0.000345
-2.817176 36.822960 0.000464
-2.502435 36.822960 0.000473
-2.187694 36.822960 0.000365
-1.872953 36.822960 0.000359
-1.558212 36.822960 0.000408
-1.243471 36.822960 0.000349
-0.928730 36.822960 0.000234
-0.613989 36.822960 0.000153
-0.299248 36.822960 0.000157
0.015493 36.822960 0.000287
0.330234 36.822960 0.000303
0.644975 36.822960 0.000228
0.959716 36.822960 0.000171
1.274457 36.822960 0.000169
1.589198 36.822960 0.000197
1.903938 36.822960 0.000244
2.218679 36.822960 0.000233
2.533421 36.822960 0.000293
2.848162 36.822960 0.000340
3.162903 36.822960 0.000268
3.477644 36.822960 0.000156
3.792385 36.822960 0.000065
4.107125 36.822960 0.000047
4.421866 36.822960 0.000047
4.736608 36.822960 0.000079
5.051349 36.822960 -0.000054
5.366090 36.822960 -0.000106
5.680831 36.822960 0.000048
5.995571 36.822960 0.000272
6.310312 36.822960 0.000221
6.625053 36.822960 -0.000056
6.939795 36.822960 -0.000633
7.254536 36.822960 -0.001688
7.569277 36.822960 -0.002245
7.884017 36.822960 -0.003197
8.198758 36.822960 -0.003743
8.513499 36.822960 -0.001635
8.828240 36.822960 -0.000783
9.142982 36.822960 0.001783
9.457723 36.822960 0.001204
9.772464 36.822960 0.010124
10.087205 36.822960 0.008054
10.401946 36.822960 0.004135
10.716687 36.822960 0.004935
11.031426 36.822960 -0.001685
11.346168 36.822960 -0.003008
11.660909 36.822960 -0.002826
11.975650 36.822960 -0.001851
12.290391 36.822960 0.006477
12.605132 36.822960 0.006985
12.919873 36.822960 0.018234
13.234614 36.822960 0.026826
13.549356 36.822960 0.053674
13.864097 36.822960 0.042323
14.178838 36.822960 0.018154
14.493579 36.822960 0.003771
14.808320 36.822960 -0.006596
15.123059 36.822960 -0.003089
15.437800 36.822960 -0.002857
15.752542 36.822960 -0.023984
16.067284 36.822960 0.000000
16.382023 36.822960 0.000000
16.696766 36.822960 0.000000
17.011505 36.822960 0.000000
17.326248 36.822960 0.000000
17.640987 36.822960 0.000000
17.955730 36.822960 0.000000
18.270470 36.822960 0.000000
18.585213 36.822960 0.000000
18.899952 36.822960 0.000000
-7.223550 36.508221 0.000000
-6.908809 36.508221 0.000000
-6.594068 36.508221 0.000450
-6.279327 36.508221 0.000309
-5.964586 36.508221 0.000386
-5.649845 36.508221 0.000425
-5.335104 36.508221 0.000394
-5.020363 36.508221 0.000372
-4.705622 36.508221 0.000408
-4.390881 36.508221 0.000441
-4.076140 36.508221 0.000449
-3.761399 36.508221 0.000472
-3.446658 36.508221 0.000358
-3.131917 36.508221 0.000322
-2.817176 36.508221 0.000420
-2.502435 36.508221 0.000460
-2.187694 36.508221 0.000378
-1.872953 36.508221 0.000376
-1.558212 36.508221 0.000430
-1.243471 36.508221 0.000374
-0.928730 36.508221 0.000293
-0.613989 36.508221 0.000247
-0.299248 36.508221 0.000212
0.015493 36.508221 0.000309
0.330234 36.508221 0.000322
0.644975 36.508221 0.000300
0.959716 36.508221 0.000252
1.274457 36.508221 0.000210
1.589198 36.508221 0.000212
1.903938 36.508221 0.000258
2.218679 36.508221 0.000287
2.533421 36.508221 0.000276
2.848162 36.508221 0.000269
3.162903 36.508221 0.000254
3.477644 36.508221 0.000168
3.792385 36.508221 0.000107
4.107125 36.508221 0.000107
4.421866 36.508221 0.000134
4.736608 36.508221 0.000157
5.051349 36.508221 -0.000005
5.366090 36.508221 -0.000119
5.680831 36.508221 -0.000033
5.995571 36.508221 0.000248
6.310312 36.508221 0.000212
6.625053 36.508221 -0.000098
6.939795 36.508221 -0.000450
7.254536 36.508221 -0.001099
7.569277 36.508221 -0.002171
7.884017 36.508221 -0.003119
8.198758 36.508221 -0.004056
8.513499 36.508221 -0.003598
8.828240 36.508221 -0.000741
9.142982 36.508221 0.000403
9.457723 36.508221 0.001695
9.772464 36.508221 0.006175
10.087205 36.508221 0.009462
10.401946 36.508221 0.005880
10.716687 36.508221 0.004211
11.031426 36.508221 0.001661
11.346168 36.508221 -0.001253
11.660909 36.508221 0.000049
11.975650 36.508221 -0.002618
12.290391 36.508221 -0.002156
12.605132 36.508221 0.004121
12.919873 36.508221 0.009989
13.234614 36.508221 0.034669
13.549356 36.508221 0.052258
13.864097 36.508221 0.038308
14.178838 36.508221 0.009572
14.493579 36.508221 0.003859
14.808320 36.508221 -0.005276
15.123059 36.508221 -0.002398
15.437800 36.508221 0.011270
15.752542 36.508221 -0.079359
16.067284 36.508221 0.000000
16.382023 36.508221 0.000000
16.696766 36.508221 0.000000
17.011505 36.508221 0.000000
17.326248 36.508221 0.000000
17.640987 36.508221 0.000000
17.955730 36.508221 0.000000
18.270470 36.508221 0.000000
18.585213 36.508221 0.000000
18.899952 36.508221 0.000000
-7.223550 36.193481 0.000000
-6.908809 36.193481 0.000000
-6.594068 36.193481 0.000386
-6.279327 36.193481 0.000345
-5.964586 36.193481 0.000453
-5.649845 36.193481 0.000447
-5.335104 36.193481 0.000355
-5.020363 36.193481 0.000321
-4.705622 36.193481 0.000385
-4.390881 36.193481 0.000437
-4.076140 36.193481 0.000411
-3.761399 36.193481 0.000400
-3.446658 36.193481 0.000361
-3.131917 36.193481 0.000347
-2.817176 36.193481 0.000400
-2.502435 36.193481 0.000460
-2.187694 36.193481 0.000400
-1.872953 36.193481 0.000396
-1.558212 36.193481 0.000452
-1.243471 36.193481 0.000394
-0.928730 36.193481 0.000364
-0.613989 36.193481 0.000341
-0.299248 36.193481 0.000289
0.015493 36.193481 0.000373
0.330234 36.193481 0.000348
0.644975 36.193481 0.000338
0.959716 36.193481 0.000264
1.274457 36.193481 0.000174
1.589198 36.193481 0.000208
1.903938 36.193481 0.000279
2.218679 36.193481 0.000327
2.533421 36.193481 0.000260
2.848162 36.193481 0.000247
3.162903 36.193481 0.000253
3.477644 36.193481 0.000201
3.792385 36.193481 0.000174
4.107125 36.193481 0.000167
4.421866 36.193481 0.000204
4.736608 36.193481 0.000198
5.051349 36.193481 0.000061
5.366090 36.193481 -0.000041
5.680831 36.193481 0.000010
5.995571 36.193481 0.000200
6.310312 36.193481 0.000064
6.625053 36.193481 -0.000275
6.939795 36.193481 -0.000505
7.254536 36.193481 -0.001354
7.569277 36.193481 -0.002183
7.884017 36.193481 -0.002863
8.198758 36.193481 -0.003615
8.513499 36.193481 -0.002837
8.828240 36.193481 -0.000028
9.142982 36.193481 0.000653
9.457723 36.193481 0.001992
9.772464 36.193481 0.002805
10.087205 36.193481 0.008106
10.401946 36.193481 0.006468
10.716687 36.193481 0.007129
11.031426 36.193481 0.001503
11.346168 36.193481 -0.005846
11.660909 36.193481 -0.000756
11.975650 36.193481 -0.005891
12.290391 36.193481 0.000696
12.605132 36.193481 0.008479
12.919873 36.193481 0.019690
13.234614 36.193481 0.031675
13.549356 36.193481 0.043719
13.864097 36.193481 0.040794
14.178838 36.193481 0.017269
14.493579 36.193481 -0.000985
14.808320 36.193481 -0.004189
15.123059 36.193481 -0.008986
15.437800 36.193481 -0.000017
15.752542 36.193481 -0.070407
16.067284 36.193481 0.000000
16.382023 36.193481 0.000000
16.696766 36.193481 0.000000
17.011505 36.193481 0.000000
17.326248 36.193481 0.000000
17.640987 36.193481 0.000000
17.955730 36.193481 0.000000
18.270470 36.193481 0.000000
18.585213 36.193481 0.000000
18.899952 36.193481 0.000000
-7.223550 35.878738 0.000000
-6.908809 35.878738 0.000000
-6.594068 35.878738 0.000452
-6.279327 35.878738 0.000433
-5.964586 35.878738 0.000541
-5.649845 35.878738 0.000472
-5.335104 35.878738 0.000346
-5.020363 35.878738 0.000300
-4.705622 35.878738 0.000377
-4.390881 35.878738 0.000442
-4.076140 35.878738 0.000403
-3.761399 35.878738 0.000422
-3.446658 35.878738 0.000433
-3.131917 35.878738 0.000386
-2.817176 35.878738 0.000423
-2.502435 35.878738 0.000453
-2.187694 35.878738 0.000387
-1.872953 35.878738 0.000390
-1.558212 35.878738 0.000440
-1.243471 35.878738 0.000397
-0.928730 35.878738 0.000385
-0.613989 35.878738 0.000350
-0.299248 35.878738 0.000334
0.015493 35.878738 0.000410
0.330234 35.878738 0.000375
0.644975 35.878738 0.000312
0.959716 35.878738 0.000195
1.274457 35.878738 0.000089
1.589198 35.878738 0.000173
1.903938 35.878738 0.000308
2.218679 35.878738 0.000370
2.533421 35.878738 0.000272
2.848162 35.878738 0.000249
3.162903 35.878738 0.000249
3.477644 35.878738 0.000245
3.792385 35.878738 0.000247
4.107125 35.878738 0.000249
4.421866 35.878738 0.000235
4.736608 35.878738 0.000191
5.051349 35.878738 0.000055
5.366090 35.878738 -0.000005
5.680831 35.878738 -0.000023
5.995571 35.878738 0.000025
6.310312 35.878738 -0.000141
6.625053 35.878738 -0.000438
6.939795 35.878738 -0.000635
7.254536 35.878738 -0.001426
7.569277 35.878738 -0.002377
7.884017 35.878738 -0.003787
8.198758 35.878738 -0.003529
8.513499 35.878738 -0.001939
8.828240 35.878738 -0.000101
9.142982 35.878738 0.000840
9.457723 35.878738 -0.000508
9.772464 35.878738 0.001798
10.087205 35.878738 0.006250
10.401946 35.878738 0.004021
10.716687 35.878738 0.004844
11.031426 35.878738 -0.004137
11.346168 35.878738 -0.007982
11.660909 35.878738 -0.001017
11.975650 35.878738 0.004871
12.290391 35.878738 0.011966
12.605132 35.878738 0.024728
12.919873 35.878738 0.040281
13.234614 35.878738 0.042404
13.549356 35.878738 0.043928
13.864097 35.878738 0.046445
14.178838 35.878738 0.024544
14.493579 35.878738 0.009625
14.808320 35.878738 -0.003263
15.123059 35.878738 -0.011809
15.437800 35.878738 0.010914
15.752542 35.878738 -0.074270
16.067284 35.878738 0.000000
16.382023 35.878738 0.000000
16.696766 35.878738 0.000000
17.011505 35.878738 0.000000
17.326248 35.878738 0.000000
17.640987 35.878738 0.000000
17.955730 35.878738 0.000000
18.270470 35.878738 0.000000
18.585213 35.878738 0.000000
18.899952 35.878738 0.000000
-7.223550 35.563999 0.000000
-6.908809 35.563999 0.000000
-6.594068 35.563999 0.000572
-6.279327 35.563999 0.000499
-5.964586 35.563999 0.000604
-5.649845 35.563999 0.000489
-5.335104 35.563999 0.000355
-5.020363 35.563999 0.000342
-4.705622 35.563999 0.000396
-4.390881 35.563999 0.000471
-4.076140 35.563999 0.000418
-3.761399 35.563999 0.000465
-3.446658 35.563999 0.000500
-3.131917 35.563999 0.000466
-2.817176 35.563999 0.000470
-2.502435 35.563999 0.000435
-2.187694 35.563999 0.000346
-1.872953 35.563999 0.000363
-1.558212 35.563999 0.000399
-1.243471 35.563999 0.000410
-0.928730 35.563999 0.000375
-0.613989 35.563999 0.000301
-0.299248 35.563999 0.000324
0.015493 35.563999 0.000375
0.330234 35.563999 0.000345
0.644975 35.563999 0.000259
0.959716 35.563999 0.000127
1.274457 35.563999 0.000034
1.589198 35.563999 0.000146
1.903938 35.563999 0.000333
2.218679 35.563999 0.000373
2.533421 35.563999 0.000243
2.848162 35.563999 0.000188
3.162903 35.563999 0.000188
3.477644 35.563999 0.000257
3.792385 35.563999 0.000344
4.107125 35.563999 0.000323
4.421866 35.563999 0.000244
4.736608 35.563999 0.000152
5.051349 35.563999 0.000015
5.366090 35.563999 -0.000086
5.680831 35.563999 -0.000168
5.995571 35.563999 -0.000223
6.310312 35.563999 -0.000355
6.625053 35.563999 -0.000577
6.939795 35.563999 -0.000660
7.254536 35.563999 -0.001426
7.569277 35.563999 -0.002306
7.884017 35.563999 -0.003282
8.198758 35.563999 -0.003429
8.513499 35.563999 -0.002196
8.828240 35.563999 -0.001363
9.142982 35.563999 -0.000972
9.457723 35.563999 0.000530
9.772464 35.563999 0.000787
10.087205 35.563999 0.002645
10.401946 35.563999 0.001935
10.716687 35.563999 -0.001846
11.031426 35.563999 -0.001414
11.346168 35.563999 -0.006154
11.660909 35.563999 -0.005510
11.975650 35.563999 0.012611
12.290391 35.563999 0.027256
12.605132 35.563999 0.037381
12.919873 35.563999 0.038504
13.234614 35.563999 0.047448
13.549356 35.563999 0.048483
13.864097 35.563999 0.038732
14.178838 35.563999 0.030057
14.493579 35.563999 0.013159
14.808320 35.563999 0.002519
15.123059 35.563999 -0.000200
15.437800 35.563999 0.001535
15.752542 35.563999 -0.071992
16.067284 35.563999 0.000000
16.382023 35.563999 0.000000
16.696766 35.563999 0.000000
17.011505 35.563999 0.000000
17.326248 35.563999 0.000000
17.640987 35.563999 0.000000
17.955730 35.563999 0.000000
18.270470 35.563999 0.000000
18.585213 35.563999 0.000000
18.899952 35.563999 0.000000
-7.223550 35.249256 0.000000
-6.908809 35.249256 0.000000
-6.594068 35.249256 0.000621
-6.279327 35.249256 0.000533
-5.964586 35.249256 0.000606
-5.649845 35.249256 0.000476
-5.335104 35.249256 0.000372
-5.020363 35.249256 0.000400
-4.705622 35.249256 0.000435
-4.390881 35.249256 0.000476
-4.076140 35.249256 0.000443
-3.761399 35.249256 0.000490
-3.446658 35.249256 0.000522
-3.131917 35.249256 0.000516
-2.817176 35.249256 0.000484
-2.502435 35.249256 0.000421
-2.187694 35.249256 0.000347
-1.872953 35.249256 0.000342
-1.558212 35.249256 0.000372
-1.243471 35.249256 0.000396
-0.928730 35.249256 0.000364
-0.613989 35.249256 0.000281
-0.299248 35.249256 0.000310
0.015493 35.249256 0.000338
0.330234 35.249256 0.000277
0.644975 35.249256 0.000197
0.959716 35.249256 0.000086
1.274457 35.249256 0.000029
1.589198 35.249256 0.000116
1.903938 35.249256 0.000275
2.218679 35.249256 0.000315
2.533421 35.249256 0.000184
2.848162 35.249256 0.000095
3.162903 35.249256 0.000101
3.477644 35.249256 0.000240
3.792385 35.249256 0.000398
4.107125 35.249256 0.000357
4.421866 35.249256 0.000210
4.736608 35.249256 0.000100
5.051349 35.249256 0.000013
5.366090 35.249256 -0.000089
5.680831 35.249256 -0.000220
5.995571 35.249256 -0.000364
6.310312 35.249256 -0.000479
6.625053 35.249256 -0.000778
6.939795 35.249256 -0.000864
7.254536 35.249256 -0.001238
7.569277 35.249256 -0.001804
7.884017 35.249256 -0.002629
8.198758 35.249256 -0.003741
8.513499 35.249256 -0.003354
8.828240 35.249256 -0.003516
9.142982 35.249256 -0.002186
9.457723 35.249256 -0.000486
9.772464 35.249256 0.002623
10.087205 35.249256 0.003832
10.401946 35.249256 0.001994
10.716687 35.249256 -0.001722
11.031426 35.249256 0.002539
11.346168 35.249256 -0.004433
11.660909 35.249256 -0.001823
11.975650 35.249256 0.010042
12.290391 35.249256 0.027892
12.605132 35.249256 0.034098
12.919873 35.249256 0.030278
13.234614 35.249256 0.045320
13.549356 35.249256 0.036061
13.864097 35.249256 0.039261
14.178838 35.249256 0.019394
14.493579 35.249256 0.005326
14.808320 35.249256 0.012232
15.123059 35.249256 0.012473
15.437800 35.249256 0.012507
15.752542 35.249256 -0.074704
16.067284 35.249256 0.000000
16.382023 35.249256 0.000000
16.696766 35.249256 0.000000
17.011505 35.249256 0.000000
17.326248 35.249256 0.000000
17.640987 35.249256 0.000000
17.955730 35.249256 0.000000
18.270470 35.249256 0.000000
18.585213 35.249256 0.000000
18.899952 35.249256 0.000000
-7.223550 34.934517 0.000000
-6.908809 34.934517 0.000000
-6.594068 34.934517 0.000644
-6.279327 34.934517 0.000546
-5.964586 34.934517 0.000576
-5.649845 34.934517 0.000426
-5.335104 34.934517 0.000359
-5.020363 34.934517 0.000433
-4.705622 34.934517 0.000481
-4.390881 34.934517 0.000502
-4.076140 34.934517 0.000495
-3.761399 34.934517 0.000510
-3.446658 34.934517 0.000511
-3.131917 34.934517 0.000511
-2.817176 34.934517 0.000466
-2.502435 34.934517 0.000410
-2.187694 34.934517 0.000363
-1.872953 34.934517 0.000367
-1.558212 34.934517 0.000367
-1.243471 34.934517 0.000385
-0.928730 34.934517 0.000357
-0.613989 34.934517 0.000295
-0.299248 34.934517 0.000291
0.015493 34.934517 0.000298
0.330234 34.934517 0.000232
0.644975 34.934517 0.000166
0.959716 34.934517 0.000097
1.274457 34.934517 0.000054
1.589198 34.934517 0.000076
1.903938 34.934517 0.000166
2.218679 34.934517 0.000218
2.533421 34.934517 0.000110
2.848162 34.934517 0.000011
3.162903 34.934517 0.000071
3.477644 34.934517 0.000242
3.792385 34.934517 0.000413
4.107125 34.934517 0.000320
4.421866 34.934517 0.000116
4.736608 34.934517 -0.000001
5.051349 34.934517 -0.000045
5.366090 34.934517 -0.000092
5.680831 34.934517 -0.000212
5.995571 34.934517 -0.000359
6.310312 34.934517 -0.000533
6.625053 34.934517 -0.000764
6.939795 34.934517 -0.001074
7.254536 34.934517 -0.001416
7.569277 34.934517 -0.001945
7.884017 34.934517 -0.002321
8.198758 34.934517 -0.003449
8.513499 34.934517 -0.003506
8.828240 34.934517 -0.003352
9.142982 34.934517 -0.000486
9.457723 34.934517 -0.001365
9.772464 34.934517 0.000981
10.087205 34.934517 0.005703
10.401946 34.934517 0.003503
10.716687 34.934517 -0.000830
11.031426 34.934517 0.006192
11.346168 34.934517 -0.000637
11.660909 34.934517 -0.003471
11.975650 34.934517 0.013152
12.290391 34.934517 0.019014
12.605132 34.934517 0.018858
12.919873 34.934517 0.012424
13.234614 34.934517 0.025879
13.549356 34.934517 0.025691
13.864097 34.934517 0.032486
14.178838 34.934517 0.002343
14.493579 34.934517 0.011821
14.808320 34.934517 0.021768
15.123059 34.934517 0.021368
15.437800 34.934517 0.000909
15.752542 34.934517 -0.109068
16.067284 34.934517 0.000000
16.382023 34.934517 0.000000
16.696766 34.934517 0.000000
17.011505 34.934517 0.000000
17.326248 34.934517 0.000000
17.640987 34.934517 0.000000
17.955730 34.934517 0.000000
18.270470 34.934517 0.000000
18.585213 34.934517 0.000000
18.899952 34.934517 0.000000
-7.223550 34.619774 0.000000
-6.908809 34.619774 0.000000
-6.594068 34.619774 0.000627
-6.279327 34.619774 0.000534
-5.964586 34.619774 0.000512
-5.649845 34.619774 0.000359
-5.335104 34.619774 0.000310
-5.020363 34.619774 0.000427
-4.705622 34.619774 0.000496
-4.390881 34.619774 0.000518
-4.076140 34.619774 0.000526
-3.761399 34.619774 0.000521
-3.446658 34.619774 0.000480
-3.131917 34.619774 0.000457
-2.817176 34.619774 0.000421
-2.502435 34.619774 0.000404
-2.187694 34.619774 0.000403
-1.872953 34.619774 0.000408
-1.558212 34.619774 0.000378
-1.243471 34.619774 0.000364
-0.928730 34.619774 0.000362
-0.613989 34.619774 0.000319
-0.299248 34.619774 0.000290
0.015493 34.619774 0.000260
0.330234 34.619774 0.000204
0.644975 34.619774 0.000129
0.959716 34.619774 0.000097
1.274457 34.619774 0.000086
1.589198 34.619774 0.000082
1.903938 34.619774 0.000084
2.218679 34.619774 0.000111
2.533421 34.619774 0.000051
2.848162 34.619774 -0.000036
3.162903 34.619774 0.000024
3.477644 34.619774 0.000215
3.792385 34.619774 0.000359
4.107125 34.619774 0.000231
4.421866 34.619774 0.000002
4.736608 34.619774 -0.000100
5.051349 34.619774 -0.000089
5.366090 34.619774 -0.000084
5.680831 34.619774 -0.000152
5.995571 34.619774 -0.000328
6.310312 34.619774 -0.000544
6.625053 34.619774 -0.000779
6.939795 34.619774 -0.001324
7.254536 34.619774 -0.001707
7.569277 34.619774 -0.001861
7.884017 34.619774 -0.002861
8.198758 34.619774 -0.004353
8.513499 34.619774 -0.004463
8.828240 34.619774 -0.002407
9.142982 34.619774 -0.001739
9.457723 34.619774 0.000636
9.772464 34.619774 0.001130
10.087205 34.619774 0.006076
10.401946 34.619774 0.007844
10.716687 34.619774 0.008321
11.031426 34.619774 0.006796
11.346168 34.619774 0.005167
11.660909 34.619774 -0.000435
11.975650 34.619774 0.003884
12.290391 34.619774 0.017544
12.605132 34.619774 0.016339
12.919873 34.619774 0.005332
13.234614 34.619774 0.009806
13.549356 34.619774 0.010467
13.864097 34.619774 0.018676
14.178838 34.619774 -0.006061
14.493579 34.619774 0.000233
14.808320 34.619774 0.014549
15.123059 34.619774 0.011860
15.437800 34.619774 0.011278
15.752542 34.619774 -0.059667
16.067284 34.619774 0.000000
16.382023 34.619774 0.000000
16.696766 34.619774 0.000000
17.011505 34.619774 0.000000
17.326248 34.619774 0.000000
17.640987 34.619774 0.000000
17.955730 34.619774 0.000000
18.270470 34.619774 0.000000
18.585213 34.619774 0.000000
18.899952 34.619774 0.000000
-7.223550 34.305035 0.000000
-6.908809 34.305035 0.000000
-6.594068 34.305035 0.000590
-6.279327 34.305035 0.000485
-5.964586 34.305035 0.000423
-5.649845 34.305035 0.000292
-5.335104 34.305035 0.000263
-5.020363 34.305035 0.000407
-4.705622 34.305035 0.000484
-4.390881 34.305035 0.000481
-4.076140 34.305035 0.000503
-3.761399 34.305035 0.000508
-3.446658 34.305035 0.000462
-3.131917 34.305035 0.000428
-2.817176 34.305035 0.000386
-2.502435 34.305035 0.000389
-2.187694 34.305035 0.000412
-1.872953 34.305035 0.000437
-1.558212 34.305035 0.000415
-1.243471 34.305035 0.000368
-0.928730 34.305035 0.000371
-0.613989 34.305035 0.000337
-0.299248 34.305035 0.000306
0.015493 34.305035 0.000287
0.330234 34.305035 0.000205
0.644975 34.305035 0.000123
0.959716 34.305035 0.000106
1.274457 34.305035 0.000103
1.589198 34.305035 0.000085
1.903938 34.305035 0.000074
2.218679 34.305035 0.000085
2.533421 34.305035 0.000016
2.848162 34.305035 -0.000028
3.162903 34.305035 0.000049
3.477644 34.305035 0.000216
3.792385 34.305035 0.000265
4.107125 34.305035 0.000133
4.421866 34.305035 -0.000083
4.736608 34.305035 -0.000148
5.051349 34.305035 -0.000074
5.366090 34.305035 -0.000025
5.680831 34.305035 -0.000059
5.995571 34.305035 -0.000280
6.310312 34.305035 -0.000351
6.625053 34.305035 -0.000586
6.939795 34.305035 -0.001236
7.254536 34.305035 -0.001990
7.569277 34.305035 -0.002382
7.884017 34.305035 -0.003363
8.198758 34.305035 -0.004387
8.513499 34.305035 -0.002597
8.828240 34.305035 0.000473
9.142982 34.305035 0.000979
9.457723 34.305035 0.002433
9.772464 34.305035 0.002897
10.087205 34.305035 0.011319
10.401946 34.305035 0.006248
10.716687 34.305035 0.006917
11.031426 34.305035 0.005942
11.346168 34.305035 0.005876
11.660909 34.305035 -0.013399
11.975650 34.305035 -0.005427
12.290391 34.305035 0.022764
12.605132 34.305035 0.017135
12.919873 34.305035 -0.010882
13.234614 34.305035 0.000822
13.549356 34.305035 0.008903
13.864097 34.305035 0.007468
14.178838 34.305035 0.006720
14.493579 34.305035 -0.000848
14.808320 34.305035 0.007842
15.123059 34.305035 0.000745
15.437800 34.305035 -0.019439
15.752542 34.305035 -0.082807
16.067284 34.305035 0.000000
16.382023 34.305035 0.000000
16.696766 34.305035 0.000000
17.011505 34.305035 0.000000
17.326248 34.305035 0.000000
17.640987 34.305035 0.000000
17.955730 34.305035 0.000000
18.270470 34.305035 0.000000
18.585213 34.305035 0.000000
18.899952 34.305035 0.000000
-7.223550 33.990295 0.000000
-6.908809 33.990295 0.000000
-6.594068 33.990295 0.000559
-6.279327 33.990295 0.000413
-5.964586 33.990295 0.000358
-5.649845 33.990295 0.000269
-5.335104 33.990295 0.000269
-5.020363 33.990295 0.000392
-4.705622 33.990295 0.000448
-4.390881 33.990295 0.000433
-4.076140 33.990295 0.000474
-3.761399 33.990295 0.000518
-3.446658 33.990295 0.000491
-3.131917 33.990295 0.000436
-2.817176 33.990295 0.000419
-2.502435 33.990295 0.000402
-2.187694 33.990295 0.000393
-1.872953 33.990295 0.000468
-1.558212 33.990295 0.000459
-1.243471 33.990295 0.000389
-0.928730 33.990295 0.000362
-0.613989 33.990295 0.000333
-0.299248 33.990295 0.000322
0.015493 33.990295 0.000311
0.330234 33.990295 0.000210
0.644975 33.990295 0.000106
0.959716 33.990295 0.000111
1.274457 33.990295 0.000121
1.589198 33.990295 0.000078
1.903938 33.990295 0.000077
2.218679 33.990295 0.000097
2.533421 33.990295 0.000045
2.848162 33.990295 0.000071
3.162903 33.990295 0.000112
3.477644 33.990295 0.000200
3.792385 33.990295 0.000194
4.107125 33.990295 0.000095
4.421866 33.990295 -0.000118
4.736608 33.990295 -0.000149
5.051349 33.990295 -0.000034
5.366090 33.990295 0.000078
5.680831 33.990295 -0.000025
5.995571 33.990295 -0.000134
6.310312 33.990295 -0.000184
6.625053 33.990295 -0.000330
6.939795 33.990295 -0.000928
7.254536 33.990295 -0.002085
7.569277 33.990295 -0.002567
7.884017 33.990295 -0.004060
8.198758 33.990295 -0.003755
8.513499 33.990295 -0.001858
8.828240 33.990295 0.001373
9.142982 33.990295 0.002824
9.457723 33.990295 0.001935
9.772464 33.990295 0.008122
10.087205 33.990295 0.011738
10.401946 33.990295 0.008768
10.716687 33.990295 -0.003919
11.031426 33.990295 -0.007115
11.346168 33.990295 -0.006814
11.660909 33.990295 -0.014976
11.975650 33.990295 -0.001506
12.290391 33.990295 0.024444
12.605132 33.990295 0.010227
12.919873 33.990295 -0.003022
13.234614 33.990295 -0.001660
13.549356 33.990295 0.007174
13.864097 33.990295 0.009571
14.178838 33.990295 0.016839
14.493579 33.990295 0.002134
14.808320 33.990295 0.000101
15.123059 33.990295 -0.003472
15.437800 33.990295 -0.009119
15.752542 33.990295 -0.110473
16.067284 33.990295 0.000000
16.382023 33.990295 0.000000
16.696766 33.990295 0.000000
17.011505 33.990295 0.000000
17.326248 33.990295 0.000000
17.640987 33.990295 0.000000
17.955730 33.990295 0.000000
18.270470 33.990295 0.000000
18.585213 33.990295 0.000000
18.899952 33.990295 0.000000
-7.223550 33.675552 0.000000
-6.908809 33.675552 0.000000
-6.594068 33.675552 0.000602
-6.279327 33.675552 0.000384
-5.964586 33.675552 0.000341
-5.649845 33.675552 0.000302
-5.335104 33.675552 0.000335
-5.020363 33.675552 0.000391
-4.705622 33.675552 0.000402
-4.390881 33.675552 0.000388
-4.076140 33.675552 0.000469
-3.761399 33.675552 0.000561
-3.446658 33.675552 0.000542
-3.131917 33.675552 0.000489
-2.817176 33.675552 0.000485
-2.502435 33.675552 0.000420
-2.187694 33.675552 0.000385
-1.872953 33.675552 0.000487
-1.558212 33.675552 0.000489
-1.243471 33.675552 0.000406
-0.928730 33.675552 0.000338
-0.613989 33.675552 0.000309
-0.299248 33.675552 0.000335
0.015493 33.675552 0.000320
0.330234 33.675552 0.000202
0.644975 33.675552 0.000090
0.959716 33.675552 0.000122
1.274457 33.675552 0.000182
1.589198 33.675552 0.000118
1.903938 33.675552 0.000089
2.218679 33.675552 0.000088
2.533421 33.675552 0.000075
2.848162 33.675552 0.000169
3.162903 33.675552 0.000214
3.477644 33.675552 0.000223
3.792385 33.675552 0.000159
4.107125 33.675552 0.000080
4.421866 33.675552 -0.000073
4.736608 33.675552 -0.000092
5.051349 33.675552 -0.000006
5.366090 33.675552 0.000131
5.680831 33.675552 0.000120
5.995571 33.675552 -0.000080
6.310312 33.675552 -0.000172
6.625053 33.675552 -0.000195
6.939795 33.675552 -0.000707
7.254536 33.675552 -0.001745
7.569277 33.675552 -0.002669
7.884017 33.675552 -0.003224
8.198758 33.675552 -0.003373
8.513499 33.675552 -0.001613
8.828240 33.675552 0.000005
9.142982 33.675552 0.002228
9.457723 33.675552 0.005777
9.772464 33.675552 0.008343
10.087205 33.675552 0.006452
10.401946 33.675552 0.006348
10.716687 33.675552 -0.001988
11.031426 33.675552 -0.010353
11.346168 33.675552 -0.008833
11.660909 33.675552 -0.007757
11.975650 33.675552 0.004431
12.290391 33.675552 0.016035
12.605132 33.675552 0.019123
12.919873 33.675552 -0.001949
13.234614 33.675552 0.010145
13.549356 33.675552 0.010926
13.864097 33.675552 0.014940
14.178838 33.675552 0.023640
14.493579 33.675552 0.000878
14.808320 33.675552 0.014061
15.123059 33.675552 0.014385
15.437800 33.675552 -0.006259
15.752542 33.675552 -0.086297
16.067284 33.675552 0.000000
16.382023 33.675552 0.000000
16.696766 33.675552 0.000000
17.011505 33.675552 0.000000
17.326248 33.675552 0.000000
17.640987 33.675552 0.000000
17.955730 33.675552 0.000000
18.270470 33.675552 0.000000
18.585213 33.675552 0.000000
18.899952 33.675552 0.000000
-7.223550 33.360809 0.000000
-6.908809 33.360809 0.000000
-6.594068 33.360809 0.000668
-6.279327 33.360809 0.000425
-5.964586 33.360809 0.000391
-5.649845 33.360809 0.000375
-5.335104 33.360809 0.000411
-5.020363 33.360809 0.000399
-4.705622 33.360809 0.000377
-4.390881 33.360809 0.000400
-4.076140 33.360809 0.000499
-3.761399 33.360809 0.000605
-3.446658 33.360809 0.000599
-3.131917 33.360809 0.000544
-2.817176 33.360809 0.000529
-2.502435 33.360809 0.000455
-2.187694 33.360809 0.000390
-1.872953 33.360809 0.000499
-1.558212 33.360809 0.000492
-1.243471 33.360809 0.000414
-0.928730 33.360809 0.000342
-0.613989 33.360809 0.000313
-0.299248 33.360809 0.000340
0.015493 33.360809 0.000323
0.330234 33.360809 0.000211
0.644975 33.360809 0.000110
0.959716 33.360809 0.000182
1.274457 33.360809 0.000292
1.589198 33.360809 0.000186
1.903938 33.360809 0.000125
2.218679 33.360809 0.000081
2.533421 33.360809 0.000119
2.848162 33.360809 0.000263
3.162903 33.360809 0.000287
3.477644 33.360809 0.000202
3.792385 33.360809 0.000101
4.107125 33.360809 0.000055
4.421866 33.360809 0.000044
4.736608 33.360809 0.000040
5.051349 33.360809 0.000037
5.366090 33.360809 0.000189
5.680831 33.360809 0.000175
5.995571 33.360809 0.000014
6.310312 33.360809 -0.000012
6.625053 33.360809 -0.000067
6.939795 33.360809 -0.000535
7.254536 33.360809 -0.001613
7.569277 33.360809 -0.002541
7.884017 33.360809 -0.002740
8.198758 33.360809 -0.002143
8.513499 33.360809 -0.002072
8.828240 33.360809 -0.000561
9.142982 33.360809 0.001468
9.457723 33.360809 0.006939
9.772464 33.360809 0.009035
10.087205 33.360809 0.004800
10.401946 33.360809 0.000250
10.716687 33.360809 -0.004715
11.031426 33.360809 -0.006050
11.346168 33.360809 -0.011494
11.660909 33.360809 -0.015165
11.975650 33.360809 0.007720
12.290391 33.360809 0.020473
12.605132 33.360809 0.023904
12.919873 33.360809 0.007407
13.234614 33.360809 0.002900
13.549356 33.360809 0.010865
13.864097 33.360809 0.016692
14.178838 33.360809 0.030575
14.493579 33.360809 0.013253
14.808320 33.360809 0.023335
15.123059 33.360809 0.024178
15.437800 33.360809 0.029114
15.752542 33.360809 -0.076212
16.067284 33.360809 0.000000
16.382023 33.360809 0.000000
16.696766 33.360809 0.000000
17.011505 33.360809 0.000000
17.326248 33.360809 0.000000
17.640987 33.360809 0.000000
17.955730 33.360809 0.000000
18.270470 33.360809 0.000000
18.585213 33.360809 0.000000
18.899952 33.360809 0.000000
-7.223550 33.046070 0.000000
-6.908809 33.046070 0.000000
-6.594068 33.046070 0.000655
-6.279327 33.046070 0.000460
-5.964586 33.046070 0.000420
-5.649845 33.046070 0.000433
-5.335104 33.046070 0.000484
-5.020363 33.046070 0.000453
-4.705622 33.046070 0.000398
-4.390881 33.046070 0.000452
-4.076140 33.046070 0.000541
-3.761399 33.046070 0.000610
-3.446658 33.046070 0.000599
-3.131917 33.046070 0.000565
-2.817176 33.046070 0.000540
-2.502435 33.046070 0.000467
-2.187694 33.046070 0.000389
-1.872953 33.046070 0.000466
-1.558212 33.046070 0.000475
-1.243471 33.046070 0.000405
-0.928730 33.046070 0.000347
-0.613989 33.046070 0.000321
-0.299248 33.046070 0.000351
0.015493 33.046070 0.000345
0.330234 33.046070 0.000270
0.644975 33.046070 0.000208
0.959716 33.046070 0.000330
1.274457 33.046070 0.000396
1.589198 33.046070 0.000291
1.903938 33.046070 0.000184
2.218679 33.046070 0.000136
2.533421 33.046070 0.000195
2.848162 33.046070 0.000292
3.162903 33.046070 0.000256
3.477644 33.046070 0.000130
3.792385 33.046070 0.000031
4.107125 33.046070 0.000099
4.421866 33.046070 0.000198
4.736608 33.046070 0.000155
5.051349 33.046070 0.000081
5.366090 33.046070 0.000130
5.680831 33.046070 0.000161
5.995571 33.046070 0.000074
6.310312 33.046070 -0.000026
6.625053 33.046070 -0.000033
6.939795 33.046070 -0.000484
7.254536 33.046070 -0.001422
7.569277 33.046070 -0.002368
7.884017 33.046070 -0.002238
8.198758 33.046070 -0.002194
8.513499 33.046070 -0.002164
8.828240 33.046070 -0.002019
9.142982 33.046070 0.001250
9.457723 33.046070 0.005769
9.772464 33.046070 0.005804
10.087205 33.046070 0.004484
10.401946 33.046070 0.000142
10.716687 33.046070 -0.003468
11.031426 33.046070 -0.006091
11.346168 33.046070 -0.009712
11.660909 33.046070 -0.013217
11.975650 33.046070 0.004785
12.290391 33.046070 0.030036
12.605132 33.046070 0.025853
12.919873 33.046070 0.017253
13.234614 33.046070 0.007361
13.549356 33.046070 0.002911
13.864097 33.046070 0.013203
14.178838 33.046070 0.022547
14.493579 33.046070 0.027863
14.808320 33.046070 0.024821
15.123059 33.046070 0.032044
15.437800 33.046070 0.006901
15.752542 33.046070 -0.032713
16.067284 33.046070 0.000000
16.382023 33.046070 0.000000
16.696766 33.046070 0.000000
17.011505 33.046070 0.000000
17.326248 33.046070 0.000000
17.640987 33.046070 0.000000
17.955730 33.046070 0.000000
18.270470 33.046070 0.000000
18.585213 33.046070 0.000000
18.899952 33.046070 0.000000
-7.223550 32.731331 0.000000
-6.908809 32.731331 0.000000
-6.594068 32.731331 0.000626
-6.279327 32.731331 0.000478
-5.964586 32.731331 0.000437
-5.649845 32.731331 0.000445
-5.335104 32.731331 0.000514
-5.020363 32.731331 0.000488
-4.705622 32.731331 0.000452
-4.390881 32.731331 0.000489
-4.076140 32.731331 0.000566
-3.761399 32.731331 0.000591
-3.446658 32.731331 0.000557
-3.131917 32.731331 0.000574
-2.817176 32.731331 0.000562
-2.502435 32.731331 0.000485
-2.187694 32.731331 0.000375
-1.872953 32.731331 0.000405
-1.558212 32.731331 0.000428
-1.243471 32.731331 0.000382
-0.928730 32.731331 0.000332
-0.613989 32.731331 0.000313
-0.299248 32.731331 0.000331
0.015493 32.731331 0.000351
0.330234 32.731331 0.000361
0.644975 32.731331 0.000370
0.959716 32.731331 0.000450
1.274457 32.731331 0.000447
1.589198 32.731331 0.000376
1.903938 32.731331 0.000284
2.218679 32.731331 0.000254
2.533421 32.731331 0.000319
2.848162 32.731331 0.000323
3.162903 32.731331 0.000177
3.477644 32.731331 0.000025
3.792385 32.731331 -0.000014
4.107125 32.731331 0.000148
4.421866 32.731331 0.000303
4.736608 32.731331 0.000272
5.051349 32.731331 0.000134
5.366090 32.731331 0.000076
5.680831 32.731331 0.000088
5.995571 32.731331 0.000088
6.310312 32.731331 -0.000026
6.625053 32.731331 -0.000379
6.939795 32.731331 -0.000620
7.254536 32.731331 -0.001197
7.569277 32.731331 -0.002000
7.884017 32.731331 -0.002268
8.198758 32.731331 -0.003036
8.513499 32.731331 -0.002193
8.828240 32.731331 0.001456
9.142982 32.731331 0.003814
9.457723 32.731331 0.004874
9.772464 32.731331 0.004858
10.087205 32.731331 0.002463
10.401946 32.731331 -0.000785
10.716687 32.731331 -0.003940
11.031426 32.731331 -0.004253
11.346168 32.731331 -0.003670
11.660909 32.731331 0.000192
11.975650 32.731331 0.019783
12.290391 32.731331 0.029965
12.605132 32.731331 0.020323
12.919873 32.731331 0.006184
13.234614 32.731331 0.000367
13.549356 32.731331 0.013862
13.864097 32.731331 0.017509
14.178838 32.731331 0.002677
14.493579 32.731331 0.013285
14.808320 32.731331 0.022896
15.123059 32.731331 0.014371
15.437800 32.731331 0.009350
15.752542 32.731331 -0.058699
16.067284 32.731331 0.000000
16.382023 32.731331 0.000000
16.696766 32.731331 0.000000
17.011505 32.731331 0.000000
17.326248 32.731331 0.000000
17.640987 32.731331 0.000000
17.955730 32.731331 0.000000
18.270470 32.731331 0.000000
18.585213 32.731331 0.000000
18.899952 32.731331 0.000000
-7.223550 32.416588 0.000000
-6.908809 32.416588 0.000000
-6.594068 32.416588 0.000664
-6.279327 32.416588 0.000521
-5.964586 32.416588 0.000458
-5.649845 32.416588 0.000472
-5.335104 32.416588 0.000521
-5.020363 32.416588 0.000528
-4.705622 32.416588 0.000500
-4.390881 32.416588 0.000486
-4.076140 32.416588 0.000529
-3.761399 32.416588 0.000553
-3.446658 32.416588 0.000525
-3.131917 32.416588 0.000588
-2.817176 32.416588 0.000599
-2.502435 32.416588 0.000479
-2.187694 32.416588 0.000336
-1.872953 32.416588 0.000325
-1.558212 32.416588 0.000375
-1.243471 32.416588 0.000331
-0.928730 32.416588 0.000265
-0.613989 32.416588 0.000275
-0.299248 32.416588 0.000335
0.015493 32.416588 0.000386
0.330234 32.416588 0.000439
0.644975 32.416588 0.000492
0.959716 32.416588 0.000515
1.274457 32.416588 0.000447
1.589198 32.416588 0.000467
1.903938 32.416588 0.000419
2.218679 32.416588 0.000390
2.533421 32.416588 0.000408
2.848162 32.416588 0.000317
3.162903 32.416588 0.000107
3.477644 32.416588 -0.000012
3.792385 32.416588 0.000020
4.107125 32.416588 0.000216
4.421866 32.416588 0.000343
4.736608 32.416588 0.000292
5.051349 32.416588 0.000201
5.366090 32.416588 0.000111
5.680831 32.416588 0.000137
5.995571 32.416588 0.000251
6.310312 32.416588 0.000065
6.625053 32.416588 -0.000422
6.939795 32.416588 -0.001079
7.254536 32.416588 -0.001462
7.569277 32.416588 -0.002188
7.884017 32.416588 -0.002654
8.198758 32.416588 -0.002181
8.513499 32.416588 -0.001024
8.828240 32.416588 0.002244
9.142982 32.416588 0.004914
9.457723 32.416588 0.008244
9.772464 32.416588 0.009324
10.087205 32.416588 0.003939
10.401946 32.416588 -0.000155
10.716687 32.416588 -0.004721
11.031426 32.416588 -0.003697
11.346168 32.416588 -0.001529
11.660909 32.416588 0.013986
11.975650 32.416588 0.030051
12.290391 32.416588 0.034871
12.605132 32.416588 0.025147
12.919873 32.416588 0.003971
13.234614 32.416588 0.010789
13.549356 32.416588 0.018038
13.864097 32.416588 0.021905
14.178838 32.416588 0.003371
14.493579 32.416588 0.013328
14.808320 32.416588 0.004634
15.123059 32.416588 0.005617
15.437800 32.416588 0.007675
15.752542 32.416588 -0.065691
16.067284 32.416588 0.000000
16.382023 32.416588 0.000000
16.696766 32.416588 0.000000
17.011505 32.416588 0.000000
17.326248 32.416588 0.000000
17.640987 32.416588 0.000000
17.955730 32.416588 0.000000
18.270470 32.416588 0.000000
18.585213 32.416588 0.000000
18.899952 32.416588 0.000000
-7.223550 32.101845 0.000000
-6.908809 32.101845 0.000000
-6.594068 32.101845 0.000697
-6.279327 32.101845 0.000594
-5.964586 32.101845 0.000535
-5.649845 32.101845 0.000508
-5.335104 32.101845 0.000488
-5.020363 32.101845 0.000522
-4.705622 32.101845 0.000504
-4.390881 32.101845 0.000429
-4.076140 32.101845 0.000462
-3.761399 32.101845 0.000507
-3.446658 32.101845 0.000531
-3.131917 32.101845 0.000592
-2.817176 32.101845 0.000590
-2.502435 32.101845 0.000417
-2.187694 32.101845 0.000286
-1.872953 32.101845 0.000299
-1.558212 32.101845 0.000334
-1.243471 32.101845 0.000277
-0.928730 32.101845 0.000201
-0.613989 32.101845 0.000275
-0.299248 32.101845 0.000399
0.015493 32.101845 0.000451
0.330234 32.101845 0.000493
0.644975 32.101845 0.000542
0.959716 32.101845 0.000487
1.274457 32.101845 0.000431
1.589198 32.101845 0.000482
1.903938 32.101845 0.000499
2.218679 32.101845 0.000486
2.533421 32.101845 0.000406
2.848162 32.101845 0.000274
3.162903 32.101845 0.000082
3.477644 32.101845 0.000016
3.792385 32.101845 0.000103
4.107125 32.101845 0.000283
4.421866 32.101845 0.000344
4.736608 32.101845 0.000297
5.051349 32.101845 0.000258
5.366090 32.101845 0.000247
5.680831 32.101845 0.000250
5.995571 32.101845 0.000324
6.310312 32.101845 0.000166
6.625053 32.101845 -0.000474
6.939795 32.101845 -0.000930
7.254536 32.101845 -0.000966
7.569277 32.101845 -0.001623
7.884017 32.101845 -0.002639
8.198758 32.101845 -0.001627
8.513499 32.101845 -0.000097
8.828240 32.101845 0.001922
9.142982 32.101845 0.005338
9.457723 32.101845 0.006488
9.772464 32.101845 0.010237
10.087205 32.101845 0.008773
10.401946 32.101845 0.005477
10.716687 32.101845 -0.003091
11.031426 32.101845 -0.004498
11.346168 32.101845 0.006282
11.660909 32.101845 0.023241
11.975650 32.101845 0.027582
12.290391 32.101845 0.032453
12.605132 32.101845 0.020684
12.919873 32.101845 0.001611
13.234614 32.101845 0.005290
13.549356 32.101845 0.024417
13.864097 32.101845 0.011954
14.178838 32.101845 0.002614
14.493579 32.101845 0.016203
14.808320 32.101845 -0.012081
15.123059 32.101845 -0.009288
15.437800 32.101845 -0.002072
15.752542 32.101845 -0.079934
16.067284 32.101845 0.000000
16.382023 32.101845 0.000000
16.696766 32.101845 0.000000
17.011505 32.101845 0.000000
17.326248 32.101845 0.000000
17.640987 32.101845 0.000000
17.955730 32.101845 0.000000
18.270470 32.101845 0.000000
18.585213 32.101845 0.000000
18.899952 32.101845 0.000000
-7.223550 31.787106 0.000000
-6.908809 31.787106 0.000000
-6.594068 31.787106 0.000715
-6.279327 31.787106 0.000654
-5.964586 31.787106 0.000616
-5.649845 31.787106 0.000514
-5.335104 31.787106 0.000451
-5.020363 31.787106 0.000487
-4.705622 31.787106 0.000467
-4.390881 31.787106 0.000370
-4.076140 31.787106 0.000425
-3.761399 31.787106 0.000510
-3.446658 31.787106 0.000539
-3.131917 31.787106 0.000545
-2.817176 31.787106 0.000523
-2.502435 31.787106 0.000368
-2.187694 31.787106 0.000257
-1.872953 31.787106 0.000312
-1.558212 31.787106 0.000318
-1.243471 31.787106 0.000272
-0.928730 31.787106 0.000230
-0.613989 31.787106 0.000293
-0.299248 31.787106 0.000436
0.015493 31.787106 0.000496
0.330234 31.787106 0.000495
0.644975 31.787106 0.000468
0.959716 31.787106 0.000389
1.274457 31.787106 0.000381
1.589198 31.787106 0.000449
1.903938 31.787106 0.000492
2.218679 31.787106 0.000450
2.533421 31.787106 0.000347
2.848162 31.787106 0.000246
3.162903 31.787106 0.000140
3.477644 31.787106 0.000107
3.792385 31.787106 0.000220
4.107125 31.787106 0.000341
4.421866 31.787106 0.000308
4.736608 31.787106 0.000271
5.051349 31.787106 0.000275
5.366090 31.787106 0.000328
5.680831 31.787106 0.000409
5.995571 31.787106 0.000391
6.310312 31.787106 0.000085
6.625053 31.787106 -0.000522
6.939795 31.787106 -0.001020
7.254536 31.787106 -0.000880
7.569277 31.787106 -0.001285
7.884017 31.787106 -0.001641
8.198758 31.787106 -0.001669
8.513499 31.787106 -0.000712
8.828240 31.787106 0.001966
9.142982 31.787106 0.004202
9.457723 31.787106 0.005386
9.772464 31.787106 0.010550
10.087205 31.787106 0.011648
10.401946 31.787106 0.008270
10.716687 31.787106 0.001303
11.031426 31.787106 0.004485
11.346168 31.787106 0.011529
11.660909 31.787106 0.014101
11.975650 31.787106 0.016208
12.290391 31.787106 0.013966
12.605132 31.787106 0.022648
12.919873 31.787106 0.004047
13.234614 31.787106 0.002540
13.549356 31.787106 0.009287
13.864097 31.787106 0.003609
14.178838 31.787106 0.011282
14.493579 31.787106 0.008688
14.808320 31.787106 -0.001662
15.123059 31.787106 -0.020552
15.437800 31.787106 -0.000218
15.752542 31.787106 -0.079892
16.067284 31.787106 0.000000
16.382023 31.787106 0.000000
16.696766 31.787106 0.000000
17.011505 31.787106 0.000000
17.326248 31.787106 0.000000
17.640987 31.787106 0.000000
17.955730 31.787106 0.000000
18.270470 31.787106 0.000000
18.585213 31.787106 0.000000
18.899952 31.787106 0.000000
-7.223550 31.472364 0.000000
-6.908809 31.472364 0.000000
-6.594068 31.472364 0.000771
-6.279327 31.472364 0.000695
-5.964586 31.472364 0.000640
-5.649845 31.472364 0.000487
-5.335104 31.472364 0.000429
-5.020363 31.472364 0.000444
-4.705622 31.472364 0.000445
-4.390881 31.472364 0.000389
-4.076140 31.472364 0.000457
-3.761399 31.472364 0.000557
-3.446658 31.472364 0.000562
-3.131917 31.472364 0.000491
-2.817176 31.472364 0.000475
-2.502435 31.472364 0.000364
-2.187694 31.472364 0.000297
-1.872953 31.472364 0.000342
-1.558212 31.472364 0.000323
-1.243471 31.472364 0.000315
-0.928730 31.472364 0.000324
-0.613989 31.472364 0.000355
-0.299248 31.472364 0.000440
0.015493 31.472364 0.000480
0.330234 31.472364 0.000474
0.644975 31.472364 0.000340
0.959716 31.472364 0.000310
1.274457 31.472364 0.000354
1.589198 31.472364 0.000426
1.903938 31.472364 0.000468
2.218679 31.472364 0.000383
2.533421 31.472364 0.000238
2.848162 31.472364 0.000206
3.162903 31.472364 0.000231
3.477644 31.472364 0.000203
3.792385 31.472364 0.000290
4.107125 31.472364 0.000370
4.421866 31.472364 0.000247
4.736608 31.472364 0.000219
5.051349 31.472364 0.000198
5.366090 31.472364 0.000325
5.680831 31.472364 0.000424
5.995571 31.472364 0.000319
6.310312 31.472364 -0.000090
6.625053 31.472364 -0.000602
6.939795 31.472364 -0.000840
7.254536 31.472364 -0.000992
7.569277 31.472364 -0.000995
7.884017 31.472364 -0.001435
8.198758 31.472364 -0.001667
8.513499 31.472364 -0.001897
8.828240 31.472364 -0.000016
9.142982 31.472364 0.001590
9.457723 31.472364 0.001619
9.772464 31.472364 0.004726
10.087205 31.472364 0.002092
10.401946 31.472364 0.000445
10.716687 31.472364 0.004301
11.031426 31.472364 0.008656
11.346168 31.472364 0.007589
11.660909 31.472364 -0.000299
11.975650 31.472364 0.001145
12.290391 31.472364 0.016104
12.605132 31.472364 0.023406
12.919873 31.472364 0.010012
13.234614 31.472364 -0.000043
13.549356 31.472364 -0.004174
13.864097 31.472364 -0.002513
14.178838 31.472364 -0.001869
14.493579 31.472364 0.008088
14.808320 31.472364 0.011698
15.123059 31.472364 -0.002483
15.437800 31.472364 -0.003261
15.752542 31.472364 -0.079808
16.067284 31.472364 0.000000
16.382023 31.472364 0.000000
16.696766 31.472364 0.000000
17.011505 31.472364 0.000000
17.326248 31.472364 0.000000
17.640987 31.472364 0.000000
17.955730 31.472364 0.000000
18.270470 31.472364 0.000000
18.585213 31.472364 0.000000
18.899952 31.472364 0.000000
-7.223550 31.157625 0.000000
-6.908809 31.157625 0.000000
-6.594068 31.157625 0.000826
-6.279327 31.157625 0.000702
-5.964586 31.157625 0.000605
-5.649845 31.157625 0.000478
-5.335104 31.157625 0.000456
-5.020363 31.157625 0.000471
-4.705622 31.157625 0.000509
-4.390881 31.157625 0.000473
-4.076140 31.157625 0.000522
-3.761399 31.157625 0.000639
-3.446658 31.157625 0.000593
-3.131917 31.157625 0.000504
-2.817176 31.157625 0.000453
-2.502435 31.157625 0.000427
-2.187694 31.157625 0.000376
-1.872953 31.157625 0.000383
-1.558212 31.157625 0.000368
-1.243471 31.157625 0.000407
-0.928730 31.157625 0.000404
-0.613989 31.157625 0.000420
-0.299248 31.157625 0.000452
0.015493 31.157625 0.000476
0.330234 31.157625 0.000433
0.644975 31.157625 0.000300
0.959716 31.157625 0.000305
1.274457 31.157625 0.000354
1.589198 31.157625 0.000402
1.903938 31.157625 0.000451
2.218679 31.157625 0.000356
2.533421 31.157625 0.000171
2.848162 31.157625 0.000204
3.162903 31.157625 0.000311
3.477644 31.157625 0.000306
3.792385 31.157625 0.000318
4.107125 31.157625 0.000345
4.421866 31.157625 0.000199
4.736608 31.157625 0.000150
5.051349 31.157625 0.000218
5.366090 31.157625 0.000281
5.680831 31.157625 0.000355
5.995571 31.157625 0.000114
6.310312 31.157625 -0.000305
6.625053 31.157625 -0.000581
6.939795 31.157625 -0.000685
7.254536 31.157625 -0.000814
7.569277 31.157625 -0.000395
7.884017 31.157625 -0.001091
8.198758 31.157625 -0.002799
8.513499 31.157625 -0.001845
8.828240 31.157625 -0.001970
9.142982 31.157625 -0.000759
9.457723 31.157625 0.002692
9.772464 31.157625 0.004349
10.087205 31.157625 -0.001786
10.401946 31.157625 -0.004401
10.716687 31.157625 0.000058
11.031426 31.157625 0.000209
11.346168 31.157625 -0.002081
11.660909 31.157625 -0.004949
11.975650 31.157625 0.012018
12.290391 31.157625 0.006939
12.605132 31.157625 0.024593
12.919873 31.157625 0.008235
13.234614 31.157625 0.005154
13.549356 31.157625 0.000974
13.864097 31.157625 0.001157
14.178838 31.157625 0.000073
14.493579 31.157625 0.008303
14.808320 31.157625 0.010862
15.123059 31.157625 0.004836
15.437800 31.157625 -0.002025
15.752542 31.157625 -0.082857
16.067284 31.157625 0.000000
16.382023 31.157625 0.000000
16.696766 31.157625 0.000000
17.011505 31.157625 0.000000
17.326248 31.157625 0.000000
17.640987 31.157625 0.000000
17.955730 31.157625 0.000000
18.270470 31.157625 0.000000
18.585213 31.157625 0.000000
18.899952 31.157625 0.000000
-7.223550 30.842884 0.000000
-6.908809 30.842884 0.000000
-6.594068 30.842884 0.000886
-6.279327 30.842884 0.000679
-5.964586 30.842884 0.000543
-5.649845 30.842884 0.000487
-5.335104 30.842884 0.000521
-5.020363 30.842884 0.000547
-4.705622 30.842884 0.000605
-4.390881 30.842884 0.000574
-4.076140 30.842884 0.000608
-3.761399 30.842884 0.000689
-3.446658 30.842884 0.000623
-3.131917 30.842884 0.000531
-2.817176 30.842884 0.000455
-2.502435 30.842884 0.000486
-2.187694 30.842884 0.000450
-1.872953 30.842884 0.000402
-1.558212 30.842884 0.000403
-1.243471 30.842884 0.000495
-0.928730 30.842884 0.000467
-0.613989 30.842884 0.000471
-0.299248 30.842884 0.000480
0.015493 30.842884 0.000443
0.330234 30.842884 0.000389
0.644975 30.842884 0.000312
0.959716 30.842884 0.000357
1.274457 30.842884 0.000353
1.589198 30.842884 0.000351
1.903938 30.842884 0.000420
2.218679 30.842884 0.000360
2.533421 30.842884 0.000184
2.848162 30.842884 0.000222
3.162903 30.842884 0.000350
3.477644 30.842884 0.000379
3.792385 30.842884 0.000324
4.107125 30.842884 0.000273
4.421866 30.842884 0.000102
4.736608 30.842884 0.000108
5.051349 30.842884 0.000219
5.366090 30.842884 0.000238
5.680831 30.842884 0.000243
5.995571 30.842884 -0.000081
6.310312 30.842884 -0.000405
6.625053 30.842884 -0.000674
6.939795 30.842884 -0.001004
7.254536 30.842884 -0.000563
7.569277 30.842884 -0.000949
7.884017 30.842884 -0.001203
8.198758 30.842884 -0.002282
8.513499 30.842884 -0.002509
8.828240 30.842884 -0.000123
9.142982 30.842884 0.001470
9.457723 30.842884 0.004570
9.772464 30.842884 0.003715
10.087205 30.842884 0.001463
10.401946 30.842884 -0.002987
10.716687 30.842884 0.001749
11.031426 30.842884 0.004921
11.346168 30.842884 -0.004625
11.660909 30.842884 0.001739
11.975650 30.842884 0.011635
12.290391 30.842884 0.013039
12.605132 30.842884 0.009910
12.919873 30.842884 0.007068
13.234614 30.842884 0.016012
13.549356 30.842884 0.003095
13.864097 30.842884 -0.008732
14.178838 30.842884 -0.000318
14.493579 30.842884 -0.021604
14.808320 30.842884 -0.001498
15.123059 30.842884 -0.021846
15.437800 30.842884 -0.017036
15.752542 30.842884 -0.090841
16.067284 30.842884 0.000000
16.382023 30.842884 0.000000
16.696766 30.842884 0.000000
17.011505 30.842884 0.000000
17.326248 30.842884 0.000000
17.640987 30.842884 0.000000
17.955730 30.842884 0.000000
18.270470 30.842884 0.000000
18.585213 30.842884 0.000000
18.899952 30.842884 0.000000
-7.223550 30.528143 0.000000
-6.908809 30.528143 -0.000335
-6.594068 30.528143 0.000872
-6.279327 30.528143 0.000614
-5.964586 30.528143 0.000497
-5.649845 30.528143 0.000502
-5.335104 30.528143 0.000556
-5.020363 30.528143 0.000603
-4.705622 30.528143 0.000656
-4.390881 30.528143 0.000638
-4.076140 30.528143 0.000630
-3.761399 30.528143 0.000686
-3.446658 30.528143 0.000652
-3.131917 30.528143 0.000592
-2.817176 30.528143 0.000472
-2.502435 30.528143 0.000531
-2.187694 30.528143 0.000519
-1.872953 30.528143 0.000412
-1.558212 30.528143 0.000411
-1.243471 30.528143 0.000522
-0.928730 30.528143 0.000488
-0.613989 30.528143 0.000478
-0.299248 30.528143 0.000489
0.015493 30.528143 0.000401
0.330234 30.528143 0.000367
0.644975 30.528143 0.000356
0.959716 30.528143 0.000375
1.274457 30.528143 0.000345
1.589198 30.528143 0.000322
1.903938 30.528143 0.000393
2.218679 30.528143 0.000350
2.533421 30.528143 0.000237
2.848162 30.528143 0.000268
3.162903 30.528143 0.000366
3.477644 30.528143 0.000385
3.792385 30.528143 0.000294
4.107125 30.528143 0.000177
4.421866 30.528143 0.000056
4.736608 30.528143 0.000083
5.051349 30.528143 0.000271
5.366090 30.528143 0.000225
5.680831 30.528143 0.000083
5.995571 30.528143 -0.000172
6.310312 30.528143 -0.000250
6.625053 30.528143 -0.000461
6.939795 30.528143 -0.000574
7.254536 30.528143 -0.000903
7.569277 30.528143 -0.001661
7.884017 30.528143 -0.002321
8.198758 30.528143 -0.002135
8.513499 30.528143 -0.000384
8.828240 30.528143 0.001086
9.142982 30.528143 0.003856
9.457723 30.528143 0.008148
9.772464 30.528143 0.008785
10.087205 30.528143 0.001347
10.401946 30.528143 -0.004362
10.716687 30.528143 0.000663
11.031426 30.528143 0.003495
11.346168 30.528143 0.003557
11.660909 30.528143 0.007793
11.975650 30.528143 0.009432
12.290391 30.528143 0.021381
12.605132 30.528143 0.019171
12.919873 30.528143 0.011621
13.234614 30.528143 -0.001429
13.549356 30.528143 -0.006323
13.864097 30.528143 -0.011392
14.178838 30.528143 -0.017279
14.493579 30.528143 -0.025466
14.808320 30.528143 -0.017008
15.123059 30.528143 -0.015170
15.437800 30.528143 -0.010192
15.752542 30.528143 -0.061848
16.067284 30.528143 0.000000
16.382023 30.528143 0.000000
16.696766 30.528143 0.000000
17.011505 30.528143 0.000000
17.326248 30.528143 0.000000
17.640987 30.528143 0.000000
17.955730 30.528143 0.000000
18.270470 30.528143 0.000000
18.585213 30.528143 0.000000
18.899952 30.528143 0.000000
-7.223550 30.213402 0.000000
-6.908809 30.213402 -0.000306
-6.594068 30.213402 0.000779
-6.279327 30.213402 0.000534
-5.964586 30.213402 0.000488
-5.649845 30.213402 0.000514
-5.335104 30.213402 0.000555
-5.020363 30.213402 0.000595
-4.705622 30.213402 0.000616
-4.390881 30.213402 0.000625
-4.076140 30.213402 0.000612
-3.761399 30.213402 0.000666
-3.446658 30.213402 0.000646
-3.131917 30.213402 0.000613
-2.817176 30.213402 0.000521
-2.502435 30.213402 0.000565
-2.187694 30.213402 0.000570
-1.872953 30.213402 0.000439
-1.558212 30.213402 0.000427
-1.243471 30.213402 0.000509
-0.928730 30.213402 0.000469
-0.613989 30.213402 0.000443
-0.299248 30.213402 0.000444
0.015493 30.213402 0.000359
0.330234 30.213402 0.000351
0.644975 30.213402 0.000385
0.959716 30.213402 0.000379
1.274457 30.213402 0.000303
1.589198 30.213402 0.000294
1.903938 30.213402 0.000381
2.218679 30.213402 0.000340
2.533421 30.213402 0.000272
2.848162 30.213402 0.000321
3.162903 30.213402 0.000381
3.477644 30.213402 0.000355
3.792385 30.213402 0.000243
4.107125 30.213402 0.000133
4.421866 30.213402 0.000092
4.736608 30.213402 0.000140
5.051349 30.213402 0.000308
5.366090 30.213402 0.000288
5.680831 30.213402 -0.000010
5.995571 30.213402 -0.000141
6.310312 30.213402 -0.000216
6.625053 30.213402 -0.000120
6.939795 30.213402 -0.000464
7.254536 30.213402 -0.000568
7.569277 30.213402 -0.001442
7.884017 30.213402 -0.002744
8.198758 30.213402 -0.001712
8.513499 30.213402 -0.001630
8.828240 30.213402 0.001877
9.142982 30.213402 0.004531
9.457723 30.213402 0.010741
9.772464 30.213402 0.013199
10.087205 30.213402 0.007059
10.401946 30.213402 0.002847
10.716687 30.213402 0.005181
11.031426 30.213402 0.010065
11.346168 30.213402 0.010035
11.660909 30.213402 0.012440
11.975650 30.213402 0.005995
12.290391 30.213402 0.021637
12.605132 30.213402 0.021343
12.919873 30.213402 0.011522
13.234614 30.213402 -0.015247
13.549356 30.213402 -0.011109
13.864097 30.213402 -0.006651
14.178838 30.213402 -0.012776
14.493579 30.213402 -0.030924
14.808320 30.213402 -0.025901
15.123059 30.213402 -0.020189
15.437800 30.213402 -0.021776
15.752542 30.213402 -0.081512
16.067284 30.213402 0.000000
16.382023 30.213402 0.000000
16.696766 30.213402 0.000000
17.011505 30.213402 0.000000
17.326248 30.213402 0.000000
17.640987 30.213402 0.000000
17.955730 30.213402 0.000000
18.270470 30.213402 0.000000
18.585213 30.213402 0.000000
18.899952 30.213402 0.000000
-7.223550 29.898661 0.000000
-6.908809 29.898661 -0.000513
-6.594068 29.898661 0.000681
-6.279327 29.898661 0.000493
-5.964586 29.898661 0.000540
-5.649845 29.898661 0.000565
-5.335104 29.898661 0.000560
-5.020363 29.898661 0.000547
-4.705622 29.898661 0.000532
-4.390881 29.898661 0.000570
-4.076140 29.898661 0.000604
-3.761399 29.898661 0.000649
-3.446658 29.898661 0.000596
-3.131917 29.898661 0.000599
-2.817176 29.898661 0.000548
-2.502435 29.898661 0.000554
-2.187694 29.898661 0.000578
-1.872953 29.898661 0.000521
-1.558212 29.898661 0.000487
-1.243471 29.898661 0.000513
-0.928730 29.898661 0.000479
-0.613989 29.898661 0.000432
-0.299248 29.898661 0.000419
0.015493 29.898661 0.000362
0.330234 29.898661 0.000348
0.644975 29.898661 0.000357
0.959716 29.898661 0.000358
1.274457 29.898661 0.000281
1.589198 29.898661 0.000274
1.903938 29.898661 0.000370
2.218679 29.898661 0.000352
2.533421 29.898661 0.000331
2.848162 29.898661 0.000380
3.162903 29.898661 0.000395
3.477644 29.898661 0.000310
3.792385 29.898661 0.000205
4.107125 29.898661 0.000169
4.421866 29.898661 0.000169
4.736608 29.898661 0.000227
5.051349 29.898661 0.000356
5.366090 29.898661 0.000307
5.680831 29.898661 0.000070
5.995571 29.898661 -0.000127
6.310312 29.898661 -0.000081
6.625053 29.898661 0.000218
6.939795 29.898661 -0.000422
7.254536 29.898661 -0.000823
7.569277 29.898661 -0.001358
7.884017 29.898661 -0.002646
8.198758 29.898661 -0.002788
8.513499 29.898661 -0.001436
8.828240 29.898661 0.002353
9.142982 29.898661 0.006110
9.457723 29.898661 0.010335
9.772464 29.898661 0.010917
10.087205 29.898661 0.008814
10.401946 29.898661 0.007270
10.716687 29.898661 0.012835
11.031426 29.898661 0.017878
11.346168 29.898661 0.013066
11.660909 29.898661 0.012497
11.975650 29.898661 0.017403
12.290391 29.898661 0.015753
12.605132 29.898661 0.017368
12.919873 29.898661 0.002995
13.234614 29.898661 -0.007458
13.549356 29.898661 -0.016663
13.864097 29.898661 -0.010592
14.178838 29.898661 -0.019793
14.493579 29.898661 -0.032455
14.808320 29.898661 -0.024362
15.123059 29.898661 -0.019652
15.437800 29.898661 -0.000495
15.752542 29.898661 -0.090575
16.067284 29.898661 0.000000
16.382023 29.898661 0.000000
16.696766 29.898661 0.000000
17.011505 29.898661 0.000000
17.326248 29.898661 0.000000
17.640987 29.898661 0.000000
17.955730 29.898661 0.000000
18.270470 29.898661 0.000000
18.585213 29.898661 0.000000
18.899952 29.898661 0.000000
-7.223550 29.583920 0.000000
-6.908809 29.583920 -0.000204
-6.594068 29.583920 0.000640
-6.279327 29.583920 0.000480
-5.964586 29.583920 0.000586
-5.649845 29.583920 0.000661
-5.335104 29.583920 0.000599
-5.020363 29.583920 0.000520
-4.705622 29.583920 0.000474
-4.390881 29.583920 0.000518
-4.076140 29.583920 0.000611
-3.761399 29.583920 0.000659
-3.446658 29.583920 0.000538
-3.131917 29.583920 0.000574
-2.817176 29.583920 0.000577
-2.502435 29.583920 0.000519
-2.187694 29.583920 0.000543
-1.872953 29.583920 0.000600
-1.558212 29.583920 0.000568
-1.243471 29.583920 0.000534
-0.928730 29.583920 0.000512
-0.613989 29.583920 0.000445
-0.299248 29.583920 0.000406
0.015493 29.583920 0.000384
0.330234 29.583920 0.000336
0.644975 29.583920 0.000286
0.959716 29.583920 0.000350
1.274457 29.583920 0.000306
1.589198 29.583920 0.000300
1.903938 29.583920 0.000385
2.218679 29.583920 0.000418
2.533421 29.583920 0.000461
2.848162 29.583920 0.000500
3.162903 29.583920 0.000454
3.477644 29.583920 0.000297
3.792385 29.583920 0.000194
4.107125 29.583920 0.000192
4.421866 29.583920 0.000254
4.736608 29.583920 0.000299
5.051349 29.583920 0.000354
5.366090 29.583920 0.000266
5.680831 29.583920 0.000031
5.995571 29.583920 -0.000099
6.310312 29.583920 0.000093
6.625053 29.583920 0.000370
6.939795 29.583920 0.000009
7.254536 29.583920 -0.000757
7.569277 29.583920 -0.001539
7.884017 29.583920 -0.002910
8.198758 29.583920 -0.003446
8.513499 29.583920 -0.001098
8.828240 29.583920 0.001717
9.142982 29.583920 0.002188
9.457723 29.583920 0.009094
9.772464 29.583920 0.011467
10.087205 29.583920 0.006932
10.401946 29.583920 0.001117
10.716687 29.583920 0.004547
11.031426 29.583920 0.010593
11.346168 29.583920 0.010818
11.660909 29.583920 0.022944
11.975650 29.583920 0.016571
12.290391 29.583920 0.018256
12.605132 29.583920 0.015151
12.919873 29.583920 0.017052
13.234614 29.583920 0.001228
13.549356 29.583920 -0.008440
13.864097 29.583920 -0.009693
14.178838 29.583920 -0.018060
14.493579 29.583920 -0.019740
14.808320 29.583920 -0.008063
15.123059 29.583920 -0.006142
15.437800 29.583920 -0.001139
15.752542 29.583920 -0.128922
16.067284 29.583920 0.000000
16.382023 29.583920 0.000000
16.696766 29.583920 0.000000
17.011505 29.583920 0.000000
17.326248 29.583920 0.000000
17.640987 29.583920 0.000000
17.955730 29.583920 0.000000
18.270470 29.583920 0.000000
18.585213 29.583920 0.000000
18.899952 29.583920 0.000000
-7.223550 29.269178 0.000000
-6.908809 29.269178 0.000181
-6.594068 29.269178 0.000606
-6.279327 29.269178 0.000454
-5.964586 29.269178 0.000610
-5.649845 29.269178 0.000748
-5.335104 29.269178 0.000621
-5.020363 29.269178 0.000475
-4.705622 29.269178 0.000473
-4.390881 29.269178 0.000523
-4.076140 29.269178 0.000650
-3.761399 29.269178 0.000682
-3.446658 29.269178 0.000540
-3.131917 29.269178 0.000589
-2.817176 29.269178 0.000584
-2.502435 29.269178 0.000479
-2.187694 29.269178 0.000494
-1.872953 29.269178 0.000642
-1.558212 29.269178 0.000601
-1.243471 29.269178 0.000510
-0.928730 29.269178 0.000509
-0.613989 29.269178 0.000452
-0.299248 29.269178 0.000391
0.015493 29.269178 0.000421
0.330234 29.269178 0.000357
0.644975 29.269178 0.000300
0.959716 29.269178 0.000396
1.274457 29.269178 0.000382
1.589198 29.269178 0.000374
1.903938 29.269178 0.000436
2.218679 29.269178 0.000477
2.533421 29.269178 0.000562
2.848162 29.269178 0.000587
3.162903 29.269178 0.000460
3.477644 29.269178 0.000285
3.792385 29.269178 0.000185
4.107125 29.269178 0.000204
4.421866 29.269178 0.000343
4.736608 29.269178 0.000394
5.051349 29.269178 0.000339
5.366090 29.269178 0.000211
5.680831 29.269178 0.000039
5.995571 29.269178 -0.000057
6.310312 29.269178 0.000290
6.625053 29.269178 0.000299
6.939795 29.269178 -0.000130
7.254536 29.269178 -0.000520
7.569277 29.269178 -0.001156
7.884017 29.269178 -0.001693
8.198758 29.269178 -0.002737
8.513499 29.269178 -0.001077
8.828240 29.269178 0.003045
9.142982 29.269178 0.004151
9.457723 29.269178 0.009610
9.772464 29.269178 0.009472
10.087205 29.269178 0.003528
10.401946 29.269178 -0.001090
10.716687 29.269178 -0.008514
11.031426 29.269178 0.002680
11.346168 29.269178 0.013293
11.660909 29.269178 0.021995
11.975650 29.269178 0.027687
12.290391 29.269178 0.016579
12.605132 29.269178 0.016233
12.919873 29.269178 0.033781
13.234614 29.269178 0.020975
13.549356 29.269178 0.003639
13.864097 29.269178 -0.019241
14.178838 29.269178 -0.001920
14.493579 29.269178 -0.003084
14.808320 29.269178 0.001474
15.123059 29.269178 0.012428
15.437800 29.269178 0.021028
15.752542 29.269178 -0.051471
16.067284 29.269178 0.000000
16.382023 29.269178 0.000000
16.696766 29.269178 0.000000
17.011505 29.269178 0.000000
17.326248 29.269178 0.000000
17.640987 29.269178 0.000000
17.955730 29.269178 0.000000
18.270470 29.269178 0.000000
18.585213 29.269178 0.000000
18.899952 29.269178 0.000000
-7.223550 28.954437 0.000000
-6.908809 28.954437 0.000343
-6.594068 28.954437 0.000593
-6.279327 28.954437 0.000444
-5.964586 28.954437 0.000634
-5.649845 28.954437 0.000771
-5.335104 28.954437 0.000614
-5.020363 28.954437 0.000434
-4.705622 28.954437 0.000515
-4.390881 28.954437 0.000617
-4.076140 28.954437 0.000698
-3.761399 28.954437 0.000721
-3.446658 28.954437 0.000624
-3.131917 28.954437 0.000626
-2.817176 28.954437 0.000578
-2.502435 28.954437 0.000462
-2.187694 28.954437 0.000485
-1.872953 28.954437 0.000635
-1.558212 28.954437 0.000563
-1.243471 28.954437 0.000455
-0.928730 28.954437 0.000467
-0.613989 28.954437 0.000453
-0.299248 28.954437 0.000415
0.015493 28.954437 0.000447
0.330234 28.954437 0.000412
0.644975 28.954437 0.000389
0.959716 28.954437 0.000474
1.274457 28.954437 0.000455
1.589198 28.954437 0.000438
1.903938 28.954437 0.000487
2.218679 28.954437 0.000526
2.533421 28.954437 0.000613
2.848162 28.954437 0.000577
3.162903 28.954437 0.000409
3.477644 28.954437 0.000277
3.792385 28.954437 0.000199
4.107125 28.954437 0.000239
4.421866 28.954437 0.000452
4.736608 28.954437 0.000505
5.051349 28.954437 0.000370
5.366090 28.954437 0.000162
5.680831 28.954437 0.000054
5.995571 28.954437 0.000111
6.310312 28.954437 0.000300
6.625053 28.954437 0.000122
6.939795 28.954437 -0.000334
7.254536 28.954437 -0.000585
7.569277 28.954437 -0.000976
7.884017 28.954437 -0.000621
8.198758 28.954437 -0.002596
8.513499 28.954437 -0.000235
8.828240 28.954437 0.004732
9.142982 28.954437 0.004660
9.457723 28.954437 0.007531
9.772464 28.954437 0.011686
10.087205 28.954437 0.002930
10.401946 28.954437 0.001741
10.716687 28.954437 -0.011020
11.031426 28.954437 -0.010105
11.346168 28.954437 0.010292
11.660909 28.954437 0.024785
11.975650 28.954437 0.017244
12.290391 28.954437 0.013608
12.605132 28.954437 0.022274
12.919873 28.954437 0.038734
13.234614 28.954437 0.030451
13.549356 28.954437 0.008021
13.864097 28.954437 -0.014821
14.178838 28.954437 0.004231
14.493579 28.954437 0.007459
14.808320 28.954437 0.022023
15.123059 28.954437 0.018166
15.437800 28.954437 -0.004962
15.752542 28.954437 -0.042743
16.067284 28.954437 0.000000
16.382023 28.954437 0.000000
16.696766 28.954437 0.000000
17.011505 28.954437 0.000000
17.326248 28.954437 0.000000
17.640987 28.954437 0.000000
17.955730 28.954437 0.000000
18.270470 28.954437 0.000000
18.585213 28.954437 0.000000
18.899952 28.954437 0.000000
-7.223550 28.639696 0.000000
-6.908809 28.639696 0.000404
-6.594068 28.639696 0.000643
-6.279327 28.639696 0.000484
-5.964586 28.639696 0.000668
-5.649845 28.639696 0.000743
-5.335104 28.639696 0.000603
-5.020363 28.639696 0.000433
-4.705622 28.639696 0.000564
-4.390881 28.639696 0.000677
-4.076140 28.639696 0.000698
-3.761399 28.639696 0.000714
-3.446658 28.639696 0.000692
-3.131917 28.639696 0.000644
-2.817176 28.639696 0.000554
-2.502435 28.639696 0.000445
-2.187694 28.639696 0.000464
-1.872953 28.639696 0.000571
-1.558212 28.639696 0.000493
-1.243471 28.639696 0.000387
-0.928730 28.639696 0.000406
-0.613989 28.639696 0.000458
-0.299248 28.639696 0.000457
0.015493 28.639696 0.000467
0.330234 28.639696 0.000489
0.644975 28.639696 0.000482
0.959716 28.639696 0.000527
1.274457 28.639696 0.000506
1.589198 28.639696 0.000503
1.903938 28.639696 0.000525
2.218679 28.639696 0.000561
2.533421 28.639696 0.000615
2.848162 28.639696 0.000541
3.162903 28.639696 0.000377
3.477644 28.639696 0.000297
3.792385 28.639696 0.000235
4.107125 28.639696 0.000319
4.421866 28.639696 0.000520
4.736608 28.639696 0.000573
5.051349 28.639696 0.000407
5.366090 28.639696 0.000184
5.680831 28.639696 0.000137
5.995571 28.639696 0.000241
6.310312 28.639696 0.000262
6.625053 28.639696 0.000168
6.939795 28.639696 -0.000430
7.254536 28.639696 -0.000720
7.569277 28.639696 -0.000274
7.884017 28.639696 -0.000748
8.198758 28.639696 -0.000781
8.513499 28.639696 0.000386
8.828240 28.639696 0.003251
9.142982 28.639696 0.006789
9.457723 28.639696 0.012732
9.772464 28.639696 0.017354
10.087205 28.639696 0.012659
10.401946 28.639696 0.008436
10.716687 28.639696 -0.008715
11.031426 28.639696 -0.015235
11.346168 28.639696 0.002516
11.660909 28.639696 0.014932
11.975650 28.639696 0.017616
12.290391 28.639696 0.013346
12.605132 28.639696 0.023080
12.919873 28.639696 0.038829
13.234614 28.639696 0.032888
13.549356 28.639696 0.012949
13.864097 28.639696 -0.001598
14.178838 28.639696 0.022005
14.493579 28.639696 0.015784
14.808320 28.639696 0.016576
15.123059 28.639696 0.001549
15.437800 28.639696 0.019327
15.752542 28.639696 -0.042650
16.067284 28.639696 0.000000
16.382023 28.639696 0.000000
16.696766 28.639696 0.000000
17.011505 28.639696 0.000000
17.326248 28.639696 0.000000
17.640987 28.639696 0.000000
17.955730 28.639696 0.000000
18.270470 28.639696 0.000000
18.585213 28.639696 0.000000
18.899952 28.639696 0.000000
-7.223550 28.324955 0.000000
-6.908809 28.324955 0.000640
-6.594068 28.324955 0.000663
-6.279327 28.324955 0.000544
-5.964586 28.324955 0.000657
-5.649845 28.324955 0.000710
-5.335104 28.324955 0.000628
-5.020363 28.324955 0.000511
-4.705622 28.324955 0.000623
-4.390881 28.324955 0.000672
-4.076140 28.324955 0.000667
-3.761399 28.324955 0.000720
-3.446658 28.324955 0.000704
-3.131917 28.324955 0.000597
-2.817176 28.324955 0.000512
-2.502435 28.324955 0.000421
-2.187694 28.324955 0.000430
-1.872953 28.324955 0.000476
-1.558212 28.324955 0.000445
-1.243471 28.324955 0.000368
-0.928730 28.324955 0.000370
-0.613989 28.324955 0.000446
-0.299248 28.324955 0.000488
0.015493 28.324955 0.000519
0.330234 28.324955 0.000600
0.644975 28.324955 0.000581
0.959716 28.324955 0.000547
1.274457 28.324955 0.000509
1.589198 28.324955 0.000552
1.903938 28.324955 0.000530
2.218679 28.324955 0.000516
2.533421 28.324955 0.000539
2.848162 28.324955 0.000461
3.162903 28.324955 0.000369
3.477644 28.324955 0.000350
3.792385 28.324955 0.000326
4.107125 28.324955 0.000366
4.421866 28.324955 0.000511
4.736608 28.324955 0.000538
5.051349 28.324955 0.000373
5.366090 28.324955 0.000216
5.680831 28.324955 0.000223
5.995571 28.324955 0.000280
6.310312 28.324955 0.000187
6.625053 28.324955 -0.000163
6.939795 28.324955 -0.000329
7.254536 28.324955 -0.000194
7.569277 28.324955 -0.000121
7.884017 28.324955 -0.000484
8.198758 28.324955 -0.000498
8.513499 28.324955 0.000174
8.828240 28.324955 0.003096
9.142982 28.324955 0.007658
9.457723 28.324955 0.013768
9.772464 28.324955 0.019684
10.087205 28.324955 0.013191
10.401946 28.324955 0.010488
10.716687 28.324955 -0.001566
11.031426 28.324955 -0.017953
11.346168 28.324955 -0.007093
11.660909 28.324955 0.007210
11.975650 28.324955 0.021917
12.290391 28.324955 0.016307
12.605132 28.324955 0.028187
12.919873 28.324955 0.056040
13.234614 28.324955 0.038310
13.549356 28.324955 0.029887
13.864097 28.324955 0.013680
14.178838 28.324955 0.022105
14.493579 28.324955 0.028682
14.808320 28.324955 0.025448
15.123059 28.324955 -0.005369
15.437800 28.324955 0.002329
15.752542 28.324955 -0.054918
16.067284 28.324955 0.000000
16.382023 28.324955 0.000000
16.696766 28.324955 0.000000
17.011505 28.324955 0.000000
17.326248 28.324955 0.000000
17.640987 28.324955 0.000000
17.955730 28.324955 0.000000
18.270470 28.324955 0.000000
18.585213 28.324955 0.000000
18.899952 28.324955 0.000000
-7.223550 28.010214 0.000000
-6.908809 28.010214 0.000731
-6.594068 28.010214 0.000686
-6.279327 28.010214 0.000600
-5.964586 28.010214 0.000631
-5.649845 28.010214 0.000664
-5.335104 28.010214 0.000631
-5.020363 28.010214 0.000590
-4.705622 28.010214 0.000624
-4.390881 28.010214 0.000641
-4.076140 28.010214 0.000642
-3.761399 28.010214 0.000715
-3.446658 28.010214 0.000683
-3.131917 28.010214 0.000544
-2.817176 28.010214 0.000476
-2.502435 28.010214 0.000375
-2.187694 28.010214 0.000385
-1.872953 28.010214 0.000411
-1.558212 28.010214 0.000458
-1.243471 28.010214 0.000412
-0.928730 28.010214 0.000367
-0.613989 28.010214 0.000431
-0.299248 28.010214 0.000526
0.015493 28.010214 0.000594
0.330234 28.010214 0.000669
0.644975 28.010214 0.000630
0.959716 28.010214 0.000547
1.274457 28.010214 0.000489
1.589198 28.010214 0.000544
1.903938 28.010214 0.000522
2.218679 28.010214 0.000454
2.533421 28.010214 0.000419
2.848162 28.010214 0.000382
3.162903 28.010214 0.000403
3.477644 28.010214 0.000451
3.792385 28.010214 0.000443
4.107125 28.010214 0.000442
4.421866 28.010214 0.000505
4.736608 28.010214 0.000446
5.051349 28.010214 0.000257
5.366090 28.010214 0.000197
5.680831 28.010214 0.000261
5.995571 28.010214 0.000253
6.310312 28.010214 0.000049
6.625053 28.010214 -0.000230
6.939795 28.010214 -0.000106
7.254536 28.010214 0.000134
7.569277 28.010214 -0.000003
7.884017 28.010214 -0.000435
8.198758 28.010214 -0.000244
8.513499 28.010214 0.000246
8.828240 28.010214 0.002763
9.142982 28.010214 0.007382
9.457723 28.010214 0.013564
9.772464 28.010214 0.014124
10.087205 28.010214 0.013718
10.401946 28.010214 0.011098
10.716687 28.010214 0.003289
11.031426 28.010214 -0.014633
11.346168 28.010214 0.000811
11.660909 28.010214 0.002997
11.975650 28.010214 0.004702
12.290391 28.010214 0.017498
12.605132 28.010214 0.024258
12.919873 28.010214 0.052449
13.234614 28.010214 0.051299
13.549356 28.010214 0.033786
13.864097 28.010214 0.018372
14.178838 28.010214 0.010338
14.493579 28.010214 0.026929
14.808320 28.010214 0.027944
15.123059 28.010214 0.002947
15.437800 28.010214 -0.002289
15.752542 28.010214 -0.040233
16.067284 28.010214 0.000000
16.382023 28.010214 0.000000
16.696766 28.010214 0.000000
17.011505 28.010214 0.000000
17.326248 28.010214 0.000000
17.640987 28.010214 0.000000
17.955730 28.010214 0.000000
18.270470 28.010214 0.000000
18.585213 28.010214 0.000000
18.899952 28.010214 0.000000
-7.223550 27.695473 0.000000
-6.908809 27.695473 0.000877
-6.594068 27.695473 0.000734
-6.279327 27.695473 0.000654
-5.964586 27.695473 0.000622
-5.649845 27.695473 0.000648
-5.335104 27.695473 0.000668
-5.020363 27.695473 0.000662
-4.705622 27.695473 0.000621
-4.390881 27.695473 0.000611
-4.076140 27.695473 0.000636
-3.761399 27.695473 0.000684
-3.446658 27.695473 0.000610
-3.131917 27.695473 0.000510
-2.817176 27.695473 0.000448
-2.502435 27.695473 0.000322
-2.187694 27.695473 0.000314
-1.872953 27.695473 0.000403
-1.558212 27.695473 0.000530
-1.243471 27.695473 0.000508
-0.928730 27.695473 0.000426
-0.613989 27.695473 0.000457
-0.299248 27.695473 0.000570
0.015493 27.695473 0.000654
0.330234 27.695473 0.000635
0.644975 27.695473 0.000562
0.959716 27.695473 0.000505
1.274457 27.695473 0.000485
1.589198 27.695473 0.000530
1.903938 27.695473 0.000519
2.218679 27.695473 0.000417
2.533421 27.695473 0.000334
2.848162 27.695473 0.000326
3.162903 27.695473 0.000427
3.477644 27.695473 0.000528
3.792385 27.695473 0.000509
4.107125 27.695473 0.000436
4.421866 27.695473 0.000454
4.736608 27.695473 0.000336
5.051349 27.695473 0.000215
5.366090 27.695473 0.000239
5.680831 27.695473 0.000282
5.995571 27.695473 0.000096
6.310312 27.695473 -0.000088
6.625053 27.695473 -0.000322
6.939795 27.695473 -0.000243
7.254536 27.695473 0.000213
7.569277 27.695473 0.000193
7.884017 27.695473 -0.000393
8.198758 27.695473 -0.001058
8.513499 27.695473 -0.001067
8.828240 27.695473 0.001518
9.142982 27.695473 0.006782
9.457723 27.695473 0.015227
9.772464 27.695473 0.012708
10.087205 27.695473 0.012313
10.401946 27.695473 0.009804
10.716687 27.695473 0.005169
11.031426 27.695473 -0.001758
11.346168 27.695473 0.000852
11.660909 27.695473 0.005186
11.975650 27.695473 0.000543
12.290391 27.695473 0.000644
12.605132 27.695473 0.014648
12.919873 27.695473 0.041908
13.234614 27.695473 0.052460
13.549356 27.695473 0.027133
13.864097 27.695473 0.011760
14.178838 27.695473 0.008641
14.493579 27.695473 0.012006
14.808320 27.695473 0.014609
15.123059 27.695473 0.010248
15.437800 27.695473 0.025248
15.752542 27.695473 -0.049035
16.067284 27.695473 0.000000
16.382023 27.695473 0.000000
16.696766 27.695473 0.000000
17.011505 27.695473 0.000000
17.326248 27.695473 0.000000
17.640987 27.695473 0.000000
17.955730 27.695473 0.000000
18.270470 27.695473 0.000000
18.585213 27.695473 0.000000
18.899952 27.695473 0.000000
-7.223550 27.380732 0.000000
-6.908809 27.380732 0.000926
-6.594068 27.380732 0.000753
-6.279327 27.380732 0.000680
-5.964586 27.380732 0.000637
-5.649845 27.380732 0.000681
-5.335104 27.380732 0.000733
-5.020363 27.380732 0.000736
-4.705622 27.380732 0.000656
-4.390881 27.380732 0.000622
-4.076140 27.380732 0.000624
-3.761399 27.380732 0.000639
-3.446658 27.380732 0.000535
-3.131917 27.380732 0.000482
-2.817176 27.380732 0.000422
-2.502435 27.380732 0.000249
-2.187694 27.380732 0.000257
-1.872953 27.380732 0.000441
-1.558212 27.380732 0.000595
-1.243471 27.380732 0.000588
-0.928730 27.380732 0.000535
-0.613989 27.380732 0.000547
-0.299248 27.380732 0.000637
0.015493 27.380732 0.000672
0.330234 27.380732 0.000583
0.644975 27.380732 0.000475
0.959716 27.380732 0.000465
1.274457 27.380732 0.000469
1.589198 27.380732 0.000514
1.903938 27.380732 0.000509
2.218679 27.380732 0.000403
2.533421 27.380732 0.000312
2.848162 27.380732 0.000327
3.162903 27.380732 0.000435
3.477644 27.380732 0.000521
3.792385 27.380732 0.000499
4.107125 27.380732 0.000418
4.421866 27.380732 0.000361
4.736608 27.380732 0.000250
5.051349 27.380732 0.000223
5.366090 27.380732 0.000275
5.680831 27.380732 0.000285
5.995571 27.380732 -0.000069
6.310312 27.380732 -0.000331
6.625053 27.380732 -0.000290
6.939795 27.380732 -0.000184
7.254536 27.380732 0.000427
7.569277 27.380732 0.000460
7.884017 27.380732 -0.000552
8.198758 27.380732 -0.001195
8.513499 27.380732 -0.001258
8.828240 27.380732 0.002370
9.142982 27.380732 0.009677
9.457723 27.380732 0.011563
9.772464 27.380732 0.016115
10.087205 27.380732 0.011553
10.401946 27.380732 0.006676
10.716687 27.380732 0.002990
11.031426 27.380732 -0.001458
11.346168 27.380732 0.004367
11.660909 27.380732 0.013577
11.975650 27.380732 -0.005754
12.290391 27.380732 -0.004696
12.605132 27.380732 0.001528
12.919873 27.380732 0.012012
13.234614 27.380732 0.037143
13.549356 27.380732 0.034337
13.864097 27.380732 0.007020
14.178838 27.380732 0.000183
14.493579 27.380732 0.004098
14.808320 27.380732 0.004002
15.123059 27.380732 0.001536
15.437800 27.380732 0.008458
15.752542 27.380732 -0.050809
16.067284 27.380732 0.000000
16.382023 27.380732 0.000000
16.696766 27.380732 0.000000
17.011505 27.380732 0.000000
17.326248 27.380732 0.000000
17.640987 27.380732 0.000000
17.955730 27.380732 0.000000
18.270470 27.380732 0.000000
18.585213 27.380732 0.000000
18.899952 27.380732 0.000000
-7.223550 27.065992 0.000000
-6.908809 27.065992 0.000978
-6.594068 27.065992 0.000768
-6.279327 27.065992 0.000669
-5.964586 27.065992 0.000639
-5.649845 27.065992 0.000698
-5.335104 27.065992 0.000759
-5.020363 27.065992 0.000760
-4.705622 27.065992 0.000708
-4.390881 27.065992 0.000638
-4.076140 27.065992 0.000613
-3.761399 27.065992 0.000592
-3.446658 27.065992 0.000498
-3.131917 27.065992 0.000452
-2.817176 27.065992 0.000388
-2.502435 27.065992 0.000234
-2.187694 27.065992 0.000237
-1.872953 27.065992 0.000458
-1.558212 27.065992 0.000603
-1.243471 27.065992 0.000633
-0.928730 27.065992 0.000625
-0.613989 27.065992 0.000629
-0.299248 27.065992 0.000659
0.015493 27.065992 0.000659
0.330234 27.065992 0.000564
0.644975 27.065992 0.000461
0.959716 27.065992 0.000451
1.274457 27.065992 0.000457
1.589198 27.065992 0.000487
1.903938 27.065992 0.000508
2.218679 27.065992 0.000422
2.533421 27.065992 0.000365
2.848162 27.065992 0.000360
3.162903 27.065992 0.000407
3.477644 27.065992 0.000513
3.792385 27.065992 0.000499
4.107125 27.065992 0.000394
4.421866 27.065992 0.000307
4.736608 27.065992 0.000229
5.051349 27.065992 0.000268
5.366090 27.065992 0.000372
5.680831 27.065992 0.000329
5.995571 27.065992 -0.000087
6.310312 27.065992 -0.000333
6.625053 27.065992 -0.000241
6.939795 27.065992 0.000063
7.254536 27.065992 0.000481
7.569277 27.065992 0.000501
7.884017 27.065992 -0.000093
8.198758 27.065992 -0.002296
8.513499 27.065992 -0.001893
8.828240 27.065992 0.000959
9.142982 27.065992 0.006702
9.457723 27.065992 0.011551
9.772464 27.065992 0.016726
10.087205 27.065992 0.010552
10.401946 27.065992 0.007166
10.716687 27.065992 0.003602
11.031426 27.065992 0.011986
11.346168 27.065992 0.014681
11.660909 27.065992 0.006664
11.975650 27.065992 0.006630
12.290391 27.065992 -0.005427
12.605132 27.065992 -0.006391
12.919873 27.065992 0.009896
13.234614 27.065992 0.020827
13.549356 27.065992 0.034736
13.864097 27.065992 0.026574
14.178838 27.065992 -0.014770
14.493579 27.065992 -0.009968
14.808320 27.065992 -0.010774
15.123059 27.065992 0.001130
15.437800 27.065992 0.026793
15.752542 27.065992 -0.060125
16.067284 27.065992 0.000000
16.382023 27.065992 0.000000
16.696766 27.065992 0.000000
17.011505 27.065992 0.000000
17.326248 27.065992 0.000000
17.640987 27.065992 0.000000
17.955730 27.065992 0.000000
18.270470 27.065992 0.000000
18.585213 27.065992 0.000000
18.899952 27.065992 0.000000
-7.223550 26.751251 0.000000
-6.908809 26.751251 0.001088
-6.594068 26.751251 0.000802
-6.279327 26.751251 0.000636
-5.964586 26.751251 0.000629
-5.649845 26.751251 0.000674
-5.335104 26.751251 0.000723
-5.020363 26.751251 0.000752
-4.705622 26.751251 0.000721
-4.390881 26.751251 0.000619
-4.076140 26.751251 0.000585
-3.761399 26.751251 0.000573
-3.446658 26.751251 0.000493
-3.131917 26.751251 0.000425
-2.817176 26.751251 0.000378
-2.502435 26.751251 0.000308
-2.187694 26.751251 0.000304
-1.872953 26.751251 0.000451
-1.558212 26.751251 0.000580
-1.243471 26.751251 0.000667
-0.928730 26.751251 0.000680
-0.613989 26.751251 0.000665
-0.299248 26.751251 0.000624
0.015493 26.751251 0.000614
0.330234 26.751251 0.000542
0.644975 26.751251 0.000464
0.959716 26.751251 0.000470
1.274457 26.751251 0.000445
1.589198 26.751251 0.000479
1.903938 26.751251 0.000490
2.218679 26.751251 0.000444
2.533421 26.751251 0.000409
2.848162 26.751251 0.000395
3.162903 26.751251 0.000432
3.477644 26.751251 0.000522
3.792385 26.751251 0.000500
4.107125 26.751251 0.000366
4.421866 26.751251 0.000255
4.736608 26.751251 0.000204
5.051349 26.751251 0.000330
5.366090 26.751251 0.000451
5.680831 26.751251 0.000455
5.995571 26.751251 0.000058
6.310312 26.751251 -0.000158
6.625053 26.751251 -0.000231
6.939795 26.751251 0.000069
7.254536 26.751251 0.000586
7.569277 26.751251 0.000432
7.884017 26.751251 -0.000201
8.198758 26.751251 -0.001739
8.513499 26.751251 -0.000981
8.828240 26.751251 -0.001129
9.142982 26.751251 0.004109
9.457723 26.751251 0.009194
9.772464 26.751251 0.010217
10.087205 26.751251 0.007700
10.401946 26.751251 0.008721
10.716687 26.751251 0.004531
11.031426 26.751251 0.012941
11.346168 26.751251 0.023298
11.660909 26.751251 0.023071
11.975650 26.751251 0.008846
12.290391 26.751251 0.002547
12.605132 26.751251 -0.002285
12.919873 26.751251 0.003126
13.234614 26.751251 0.022518
13.549356 26.751251 0.036655
13.864097 26.751251 0.010756
14.178838 26.751251 -0.014204
14.493579 26.751251 -0.034382
14.808320 26.751251 -0.021745
15.123059 26.751251 0.000481
15.437800 26.751251 0.023950
15.752542 26.751251 -0.077251
16.067284 26.751251 0.000000
16.382023 26.751251 0.000000
16.696766 26.751251 0.000000
17.011505 26.751251 0.000000
17.326248 26.751251 0.000000
17.640987 26.751251 0.000000
17.955730 26.751251 0.000000
18.270470 26.751251 0.000000
18.585213 26.751251 0.000000
18.899952 26.751251 0.000000
-7.223550 26.436510 0.000000
-6.908809 26.436510 0.001218
-6.594068 26.436510 0.000847
-6.279327 26.436510 0.000612
-5.964586 26.436510 0.000620
-5.649845 26.436510 0.000659
-5.335104 26.436510 0.000707
-5.020363 26.436510 0.000728
-4.705622 26.436510 0.000694
-4.390881 26.436510 0.000582
-4.076140 26.436510 0.000545
-3.761399 26.436510 0.000567
-3.446658 26.436510 0.000478
-3.131917 26.436510 0.000376
-2.817176 26.436510 0.000419
-2.502435 26.436510 0.000470
-2.187694 26.436510 0.000443
-1.872953 26.436510 0.000487
-1.558212 26.436510 0.000600
-1.243471 26.436510 0.000701
-0.928730 26.436510 0.000731
-0.613989 26.436510 0.000674
-0.299248 26.436510 0.000557
0.015493 26.436510 0.000528
0.330234 26.436510 0.000492
0.644975 26.436510 0.000462
0.959716 26.436510 0.000480
1.274457 26.436510 0.000429
1.589198 26.436510 0.000461
1.903938 26.436510 0.000478
2.218679 26.436510 0.000442
2.533421 26.436510 0.000434
2.848162 26.436510 0.000436
3.162903 26.436510 0.000478
3.477644 26.436510 0.000515
3.792385 26.436510 0.000470
4.107125 26.436510 0.000331
4.421866 26.436510 0.000207
4.736608 26.436510 0.000204
5.051349 26.436510 0.000383
5.366090 26.436510 0.000574
5.680831 26.436510 0.000533
5.995571 26.436510 0.000211
6.310312 26.436510 -0.000021
6.625053 26.436510 0.000036
6.939795 26.436510 0.000220
7.254536 26.436510 0.000163
7.569277 26.436510 0.000093
7.884017 26.436510 0.000179
8.198758 26.436510 -0.000893
8.513499 26.436510 -0.000757
8.828240 26.436510 -0.000717
9.142982 26.436510 0.001717
9.457723 26.436510 0.003870
9.772464 26.436510 0.010462
10.087205 26.436510 0.012156
10.401946 26.436510 0.012455
10.716687 26.436510 0.006232
11.031426 26.436510 0.016284
11.346168 26.436510 0.038326
11.660909 26.436510 0.027121
11.975650 26.436510 0.021211
12.290391 26.436510 0.010900
12.605132 26.436510 0.000228
12.919873 26.436510 -0.006742
13.234614 26.436510 0.013197
13.549356 26.436510 0.031041
13.864097 26.436510 -0.002300
14.178838 26.436510 -0.044940
14.493579 26.436510 -0.038322
14.808320 26.436510 -0.021028
15.123059 26.436510 0.006552
15.437800 26.436510 0.024143
15.752542 26.436510 -0.063001
16.067284 26.436510 0.000000
16.382023 26.436510 0.000000
16.696766 26.436510 0.000000
17.011505 26.436510 0.000000
17.326248 26.436510 0.000000
17.640987 26.436510 0.000000
17.955730 26.436510 0.000000
18.270470 26.436510 0.000000
18.585213 26.436510 0.000000
18.899952 26.436510 0.000000
-7.223550 26.121769 0.000000
-6.908809 26.121769 0.001244
-6.594068 26.121769 0.000869
-6.279327 26.121769 0.000613
-5.964586 26.121769 0.000610
-5.649845 26.121769 0.000656
-5.335104 26.121769 0.000693
-5.020363 26.121769 0.000686
-4.705622 26.121769 0.000635
-4.390881 26.121769 0.000529
-4.076140 26.121769 0.000494
-3.761399 26.121769 0.000543
-3.446658 26.121769 0.000439
-3.131917 26.121769 0.000355
-2.817176 26.121769 0.000473
-2.502435 26.121769 0.000625
-2.187694 26.121769 0.000602
-1.872953 26.121769 0.000583
-1.558212 26.121769 0.000644
-1.243471 26.121769 0.000670
-0.928730 26.121769 0.000685
-0.613989 26.121769 0.000634
-0.299248 26.121769 0.000496
0.015493 26.121769 0.000443
0.330234 26.121769 0.000434
0.644975 26.121769 0.000443
0.959716 26.121769 0.000472
1.274457 26.121769 0.000419
1.589198 26.121769 0.000441
1.903938 26.121769 0.000484
2.218679 26.121769 0.000452
2.533421 26.121769 0.000450
2.848162 26.121769 0.000479
3.162903 26.121769 0.000529
3.477644 26.121769 0.000518
3.792385 26.121769 0.000416
4.107125 26.121769 0.000276
4.421866 26.121769 0.000174
4.736608 26.121769 0.000222
5.051349 26.121769 0.000417
5.366090 26.121769 0.000536
5.680831 26.121769 0.000521
5.995571 26.121769 0.000353
6.310312 26.121769 0.000252
6.625053 26.121769 0.000074
6.939795 26.121769 -0.000009
7.254536 26.121769 -0.000351
7.569277 26.121769 -0.000909
7.884017 26.121769 0.000068
8.198758 26.121769 -0.000635
8.513499 26.121769 0.000234
8.828240 26.121769 -0.001249
9.142982 26.121769 0.000400
9.457723 26.121769 0.001264
9.772464 26.121769 0.009393
10.087205 26.121769 0.013475
10.401946 26.121769 0.012018
10.716687 26.121769 0.011909
11.031426 26.121769 0.020858
11.346168 26.121769 0.036174
11.660909 26.121769 0.043460
11.975650 26.121769 0.029309
12.290391 26.121769 0.015165
12.605132 26.121769 0.019171
12.919873 26.121769 0.020864
13.234614 26.121769 0.025192
13.549356 26.121769 0.025273
13.864097 26.121769 -0.007936
14.178838 26.121769 -0.033487
14.493579 26.121769 -0.049690
14.808320 26.121769 -0.029132
15.123059 26.121769 0.008552
15.437800 26.121769 0.013976
15.752542 26.121769 -0.042351
16.067284 26.121769 0.000000
16.382023 26.121769 0.000000
16.696766 26.121769 0.000000
17.011505 26.121769 0.000000
17.326248 26.121769 0.000000
17.640987 26.121769 0.000000
17.955730 26.121769 0.000000
18.270470 26.121769 0.000000
18.585213 26.121769 0.000000
18.899952 26.121769 0.000000
-7.223550 25.807028 0.000000
-6.908809 25.807028 0.001209
-6.594068 25.807028 0.000843
-6.279327 25.807028 0.000649
-5.964586 25.807028 0.000624
-5.649845 25.807028 0.000641
-5.335104 25.807028 0.000656
-5.020363 25.807028 0.000605
-4.705622 25.807028 0.000549
-4.390881 25.807028 0.000507
-4.076140 25.807028 0.000482
-3.761399 25.807028 0.000493
-3.446658 25.807028 0.000415
-3.131917 25.807028 0.000426
-2.817176 25.807028 0.000574
-2.502435 25.807028 0.000707
-2.187694 25.807028 0.000720
-1.872953 25.807028 0.000671
-1.558212 25.807028 0.000654
-1.243471 25.807028 0.000574
-0.928730 25.807028 0.000567
-0.613989 25.807028 0.000555
-0.299248 25.807028 0.000438
0.015493 25.807028 0.000356
0.330234 25.807028 0.000369
0.644975 25.807028 0.000427
0.959716 25.807028 0.000504
1.274457 25.807028 0.000424
1.589198 25.807028 0.000416
1.903938 25.807028 0.000488
2.218679 25.807028 0.000494
2.533421 25.807028 0.000506
2.848162 25.807028 0.000554
3.162903 25.807028 0.000578
3.477644 25.807028 0.000492
3.792385 25.807028 0.000386
4.107125 25.807028 0.000284
4.421866 25.807028 0.000217
4.736608 25.807028 0.000297
5.051349 25.807028 0.000413
5.366090 25.807028 0.000467
5.680831 25.807028 0.000516
5.995571 25.807028 0.000471
6.310312 25.807028 0.000286
6.625053 25.807028 0.000080
6.939795 25.807028 -0.000234
7.254536 25.807028 -0.000717
7.569277 25.807028 -0.001281
7.884017 25.807028 -0.001055
8.198758 25.807028 0.000305
8.513499 25.807028 0.000125
8.828240 25.807028 0.000386
9.142982 25.807028 0.001665
9.457723 25.807028 0.006113
9.772464 25.807028 0.006964
10.087205 25.807028 0.010663
10.401946 25.807028 0.014305
10.716687 25.807028 0.010976
11.031426 25.807028 0.018545
11.346168 25.807028 0.034444
11.660909 25.807028 0.048347
11.975650 25.807028 0.022062
12.290391 25.807028 0.024388
12.605132 25.807028 0.027509
12.919873 25.807028 0.027766
13.234614 25.807028 0.032289
13.549356 25.807028 0.015483
13.864097 25.807028 -0.009592
14.178838 25.807028 -0.030211
14.493579 25.807028 -0.058622
14.808320 25.807028 -0.035424
15.123059 25.807028 0.018226
15.437800 25.807028 0.021115
15.752542 25.807028 -0.076937
16.067284 25.807028 0.000000
16.382023 25.807028 0.000000
16.696766 25.807028 0.000000
17.011505 25.807028 0.000000
17.326248 25.807028 0.000000
17.640987 25.807028 0.000000
17.955730 25.807028 0.000000
18.270470 25.807028 0.000000
18.585213 25.807028 0.000000
18.899952 25.807028 0.000000
-7.223550 25.492287 0.000000
-6.908809 25.492287 0.001067
-6.594068 25.492287 0.000768
-6.279327 25.492287 0.000690
-5.964586 25.492287 0.000660
-5.649845 25.492287 0.000632
-5.335104 25.492287 0.000614
-5.020363 25.492287 0.000525
-4.705622 25.492287 0.000507
-4.390881 25.492287 0.000522
-4.076140 25.492287 0.000519
-3.761399 25.492287 0.000477
-3.446658 25.492287 0.000429
-3.131917 25.492287 0.000564
-2.817176 25.492287 0.000682
-2.502435 25.492287 0.000736
-2.187694 25.492287 0.000780
-1.872953 25.492287 0.000722
-1.558212 25.492287 0.000629
-1.243471 25.492287 0.000491
-0.928730 25.492287 0.000468
-0.613989 25.492287 0.000480
-0.299248 25.492287 0.000387
0.015493 25.492287 0.000296
0.330234 25.492287 0.000314
0.644975 25.492287 0.000420
0.959716 25.492287 0.000522
1.274457 25.492287 0.000447
1.589198 25.492287 0.000408
1.903938 25.492287 0.000477
2.218679 25.492287 0.000537
2.533421 25.492287 0.000565
2.848162 25.492287 0.000581
3.162903 25.492287 0.000558
3.477644 25.492287 0.000454
3.792385 25.492287 0.000404
4.107125 25.492287 0.000333
4.421866 25.492287 0.000320
4.736608 25.492287 0.000368
5.051349 25.492287 0.000439
5.366090 25.492287 0.000409
5.680831 25.492287 0.000444
5.995571 25.492287 0.000482
6.310312 25.492287 0.000192
6.625053 25.492287 -0.000037
6.939795 25.492287 -0.000234
7.254536 25.492287 -0.000496
7.569277 25.492287 -0.000857
7.884017 25.492287 -0.000762
8.198758 25.492287 -0.000001
8.513499 25.492287 0.000978
8.828240 25.492287 0.002132
9.142982 25.492287 0.002329
9.457723 25.492287 0.006907
9.772464 25.492287 0.010224
10.087205 25.492287 0.014806
10.401946 25.492287 0.017820
10.716687 25.492287 0.015881
11.031426 25.492287 0.024773
11.346168 25.492287 0.031314
11.660909 25.492287 0.036980
11.975650 25.492287 0.027548
12.290391 25.492287 0.021505
12.605132 25.492287 0.008692
12.919873 25.492287 0.007416
13.234614 25.492287 0.018663
13.549356 25.492287 0.012048
13.864097 25.492287 -0.010955
14.178838 25.492287 -0.031036
14.493579 25.492287 -0.043260
14.808320 25.492287 -0.018541
15.123059 25.492287 0.003444
15.437800 25.492287 0.003249
15.752542 25.492287 -0.116065
16.067284 25.492287 0.000000
16.382023 25.492287 0.000000
16.696766 25.492287 0.000000
17.011505 25.492287 0.000000
17.326248 25.492287 0.000000
17.640987 25.492287 0.000000
17.955730 25.492287 0.000000
18.270470 25.492287 0.000000
18.585213 25.492287 0.000000
18.899952 25.492287 0.000000
-7.223550 25.177546 0.000000
-6.908809 25.177546 0.000895
-6.594068 25.177546 0.000669
-6.279327 25.177546 0.000692
-5.964586 25.177546 0.000698
-5.649845 25.177546 0.000644
-5.335104 25.177546 0.000584
-5.020363 25.177546 0.000495
-4.705622 25.177546 0.000506
-4.390881 25.177546 0.000551
-4.076140 25.177546 0.000578
-3.761399 25.177546 0.000516
-3.446658 25.177546 0.000518
-3.131917 25.177546 0.000659
-2.817176 25.177546 0.000727
-2.502435 25.177546 0.000718
-2.187694 25.177546 0.000737
-1.872953 25.177546 0.000676
-1.558212 25.177546 0.000560
-1.243471 25.177546 0.000418
-0.928730 25.177546 0.000438
-0.613989 25.177546 0.000447
-0.299248 25.177546 0.000344
0.015493 25.177546 0.000313
0.330234 25.177546 0.000368
0.644975 25.177546 0.000493
0.959716 25.177546 0.000537
1.274457 25.177546 0.000464
1.589198 25.177546 0.000450
1.903938 25.177546 0.000498
2.218679 25.177546 0.000565
2.533421 25.177546 0.000594
2.848162 25.177546 0.000579
3.162903 25.177546 0.000514
3.477644 25.177546 0.000410
3.792385 25.177546 0.000412
4.107125 25.177546 0.000432
4.421866 25.177546 0.000440
4.736608 25.177546 0.000442
5.051349 25.177546 0.000383
5.366090 25.177546 0.000294
5.680831 25.177546 0.000315
5.995571 25.177546 0.000451
6.310312 25.177546 0.000178
6.625053 25.177546 -0.000062
6.939795 25.177546 -0.000468
7.254536 25.177546 -0.000591
7.569277 25.177546 0.000411
7.884017 25.177546 0.000244
8.198758 25.177546 0.000731
8.513499 25.177546 0.001357
8.828240 25.177546 0.002733
9.142982 25.177546 0.000639
9.457723 25.177546 0.006106
9.772464 25.177546 0.011818
10.087205 25.177546 0.014380
10.401946 25.177546 0.021104
10.716687 25.177546 0.028248
11.031426 25.177546 0.025633
11.346168 25.177546 0.028996
11.660909 25.177546 0.026445
11.975650 25.177546 0.027943
12.290391 25.177546 0.024585
12.605132 25.177546 0.012539
12.919873 25.177546 0.005107
13.234614 25.177546 0.019923
13.549356 25.177546 0.018826
13.864097 25.177546 0.002063
14.178838 25.177546 -0.027555
14.493579 25.177546 -0.037281
14.808320 25.177546 -0.037157
15.123059 25.177546 -0.007389
15.437800 25.177546 -0.002414
15.752542 25.177546 -0.028606
16.067284 25.177546 0.000000
16.382023 25.177546 0.000000
16.696766 25.177546 0.000000
17.011505 25.177546 0.000000
17.326248 25.177546 0.000000
17.640987 25.177546 0.000000
17.955730 25.177546 0.000000
18.270470 25.177546 0.000000
18.585213 25.177546 0.000000
18.899952 25.177546 0.000000
-7.223550 24.862804 0.000000
-6.908809 24.862804 0.000769
-6.594068 24.862804 0.000592
-6.279327 24.862804 0.000617
-5.964586 24.862804 0.000676
-5.649845 24.862804 0.000654
-5.335104 24.862804 0.000570
-5.020363 24.862804 0.000506
-4.705622 24.862804 0.000527
-4.390881 24.862804 0.000587
-4.076140 24.862804 0.000643
-3.761399 24.862804 0.000611
-3.446658 24.862804 0.000647
-3.131917 24.862804 0.000708
-2.817176 24.862804 0.000689
-2.502435 24.862804 0.000674
-2.187694 24.862804 0.000621
-1.872953 24.862804 0.000561
-1.558212 24.862804 0.000483
-1.243471 24.862804 0.000376
-0.928730 24.862804 0.000442
-0.613989 24.862804 0.000450
-0.299248 24.862804 0.000345
0.015493 24.862804 0.000374
0.330234 24.862804 0.000478
0.644975 24.862804 0.000610
0.959716 24.862804 0.000554
1.274457 24.862804 0.000489
1.589198 24.862804 0.000531
1.903938 24.862804 0.000523
2.218679 24.862804 0.000577
2.533421 24.862804 0.000622
2.848162 24.862804 0.000586
3.162903 24.862804 0.000513
3.477644 24.862804 0.000428
3.792385 24.862804 0.000413
4.107125 24.862804 0.000484
4.421866 24.862804 0.000552
4.736608 24.862804 0.000477
5.051349 24.862804 0.000323
5.366090 24.862804 0.000219
5.680831 24.862804 0.000218
5.995571 24.862804 0.000402
6.310312 24.862804 0.000240
6.625053 24.862804 -0.000110
6.939795 24.862804 -0.000375
7.254536 24.862804 -0.000098
7.569277 24.862804 0.001052
7.884017 24.862804 0.001850
8.198758 24.862804 0.002382
8.513499 24.862804 0.002329
8.828240 24.862804 0.001892
9.142982 24.862804 0.003584
9.457723 24.862804 0.007721
9.772464 24.862804 0.010483
10.087205 24.862804 0.013118
10.401946 24.862804 0.018132
10.716687 24.862804 0.028166
11.031426 24.862804 0.034112
11.346168 24.862804 0.025090
11.660909 24.862804 0.022420
11.975650 24.862804 0.022123
12.290391 24.862804 0.023582
12.605132 24.862804 0.009450
12.919873 24.862804 0.013012
13.234614 24.862804 0.023712
13.549356 24.862804 0.011770
13.864097 24.862804 0.000401
14.178838 24.862804 -0.007810
14.493579 24.862804 -0.026490
14.808320 24.862804 -0.023680
15.123059 24.862804 -0.021025
15.437800 24.862804 -0.020521
15.752542 24.862804 -0.046612
16.067284 24.862804 0.000000
16.382023 24.862804 0.000000
16.696766 24.862804 0.000000
17.011505 24.862804 0.000000
17.326248 24.862804 0.000000
17.640987 24.862804 0.000000
17.955730 24.862804 0.000000
18.270470 24.862804 0.000000
18.585213 24.862804 0.000000
18.899952 24.862804 0.000000
-7.223550 24.548063 0.000000
-6.908809 24.548063 0.000863
-6.594068 24.548063 0.000615
-6.279327 24.548063 0.000528
-5.964586 24.548063 0.000588
-5.649845 24.548063 0.000643
-5.335104 24.548063 0.000599
-5.020363 24.548063 0.000553
-4.705622 24.548063 0.000572
-4.390881 24.548063 0.000594
-4.076140 24.548063 0.000671
-3.761399 24.548063 0.000711
-3.446658 24.548063 0.000734
-3.131917 24.548063 0.000694
-2.817176 24.548063 0.000636
-2.502435 24.548063 0.000645
-2.187694 24.548063 0.000523
-1.872953 24.548063 0.000467
-1.558212 24.548063 0.000453
-1.243471 24.548063 0.000382
-0.928730 24.548063 0.000458
-0.613989 24.548063 0.000482
-0.299248 24.548063 0.000380
0.015493 24.548063 0.000445
0.330234 24.548063 0.000589
0.644975 24.548063 0.000694
0.959716 24.548063 0.000579
1.274457 24.548063 0.000484
1.589198 24.548063 0.000571
1.903938 24.548063 0.000541
2.218679 24.548063 0.000566
2.533421 24.548063 0.000608
2.848162 24.548063 0.000556
3.162903 24.548063 0.000516
3.477644 24.548063 0.000429
3.792385 24.548063 0.000403
4.107125 24.548063 0.000507
4.421866 24.548063 0.000556
4.736608 24.548063 0.000462
5.051349 24.548063 0.000328
5.366090 24.548063 0.000212
5.680831 24.548063 0.000210
5.995571 24.548063 0.000314
6.310312 24.548063 0.000374
6.625053 24.548063 0.000216
6.939795 24.548063 -0.000265
7.254536 24.548063 0.000165
7.569277 24.548063 0.000895
7.884017 24.548063 0.001657
8.198758 24.548063 0.001413
8.513499 24.548063 0.003146
8.828240 24.548063 0.001450
9.142982 24.548063 0.003647
9.457723 24.548063 0.007756
9.772464 24.548063 0.009180
10.087205 24.548063 0.008970
10.401946 24.548063 0.017438
10.716687 24.548063 0.023627
11.031426 24.548063 0.033744
11.346168 24.548063 0.029869
11.660909 24.548063 0.026311
11.975650 24.548063 0.028738
12.290391 24.548063 0.026969
12.605132 24.548063 0.008236
12.919873 24.548063 0.021907
13.234614 24.548063 0.028492
13.549356 24.548063 0.008099
13.864097 24.548063 0.011766
14.178838 24.548063 -0.004632
14.493579 24.548063 -0.007079
14.808320 24.548063 -0.005815
15.123059 24.548063 -0.001098
15.437800 24.548063 -0.012693
15.752542 24.548063 -0.070724
16.067284 24.548063 0.000000
16.382023 24.548063 0.000000
16.696766 24.548063 0.000000
17.011505 24.548063 0.000000
17.326248 24.548063 0.000000
17.640987 24.548063 0.000000
17.955730 24.548063 0.000000
18.270470 24.548063 0.000000
18.585213 24.548063 0.000000
18.899952 24.548063 0.000000
-7.223550 24.233322 0.000000
-6.908809 24.233322 0.001031
-6.594068 24.233322 0.000702
-6.279327 24.233322 0.000525
-5.964586 24.233322 0.000579
-5.649845 24.233322 0.000672
-5.335104 24.233322 0.000657
-5.020363 24.233322 0.000596
-4.705622 24.233322 0.000581
-4.390881 24.233322 0.000555
-4.076140 24.233322 0.000661
-3.761399 24.233322 0.000777
-3.446658 24.233322 0.000759
-3.131917 24.233322 0.000676
-2.817176 24.233322 0.000591
-2.502435 24.233322 0.000588
-2.187694 24.233322 0.000466
-1.872953 24.233322 0.000455
-1.558212 24.233322 0.000464
-1.243471 24.233322 0.000391
-0.928730 24.233322 0.000463
-0.613989 24.233322 0.000550
-0.299248 24.233322 0.000479
0.015493 24.233322 0.000495
0.330234 24.233322 0.000608
0.644975 24.233322 0.000685
0.959716 24.233322 0.000599
1.274457 24.233322 0.000470
1.589198 24.233322 0.000538
1.903938 24.233322 0.000522
2.218679 24.233322 0.000541
2.533421 24.233322 0.000571
2.848162 24.233322 0.000542
3.162903 24.233322 0.000509
3.477644 24.233322 0.000437
3.792385 24.233322 0.000416
4.107125 24.233322 0.000479
4.421866 24.233322 0.000499
4.736608 24.233322 0.000385
5.051349 24.233322 0.000317
5.366090 24.233322 0.000225
5.680831 24.233322 0.000297
5.995571 24.233322 0.000382
6.310312 24.233322 0.000508
6.625053 24.233322 0.000473
6.939795 24.233322 0.000006
7.254536 24.233322 -0.000038
7.569277 24.233322 0.000697
7.884017 24.233322 0.001041
8.198758 24.233322 0.001226
8.513499 24.233322 0.002602
8.828240 24.233322 0.002734
9.142982 24.233322 0.004314
9.457723 24.233322 0.008172
9.772464 24.233322 0.008970
10.087205 24.233322 0.010245
10.401946 24.233322 0.016088
10.716687 24.233322 0.021105
11.031426 24.233322 0.026649
11.346168 24.233322 0.033317
11.660909 24.233322 0.025333
11.975650 24.233322 0.024440
12.290391 24.233322 0.014633
12.605132 24.233322 0.013327
12.919873 24.233322 0.004261
13.234614 24.233322 0.014281
13.549356 24.233322 -0.009787
13.864097 24.233322 -0.007701
14.178838 24.233322 0.001106
14.493579 24.233322 -0.001059
14.808320 24.233322 0.013974
15.123059 24.233322 0.014696
15.437800 24.233322 0.007867
15.752542 24.233322 -0.048806
16.067284 24.233322 0.000000
16.382023 24.233322 0.000000
16.696766 24.233322 0.000000
17.011505 24.233322 0.000000
17.326248 24.233322 0.000000
17.640987 24.233322 0.000000
17.955730 24.233322 0.000000
18.270470 24.233322 0.000000
18.585213 24.233322 0.000000
18.899952 24.233322 0.000000
-7.223550 23.918581 0.000000
-6.908809 23.918581 0.001090
-6.594068 23.918581 0.000770
-6.279327 23.918581 0.000618
-5.964586 23.918581 0.000646
-5.649845 23.918581 0.000709
-5.335104 23.918581 0.000695
-5.020363 23.918581 0.000598
-4.705622 23.918581 0.000548
-4.390881 23.918581 0.000512
-4.076140 23.918581 0.000615
-3.761399 23.918581 0.000749
-3.446658 23.918581 0.000726
-3.131917 23.918581 0.000647
-2.817176 23.918581 0.000534
-2.502435 23.918581 0.000473
-2.187694 23.918581 0.000422
-1.872953 23.918581 0.000474
-1.558212 23.918581 0.000478
-1.243471 23.918581 0.000385
-0.928730 23.918581 0.000449
-0.613989 23.918581 0.000605
-0.299248 23.918581 0.000574
0.015493 23.918581 0.000526
0.330234 23.918581 0.000560
0.644975 23.918581 0.000613
0.959716 23.918581 0.000603
1.274457 23.918581 0.000470
1.589198 23.918581 0.000490
1.903938 23.918581 0.000502
2.218679 23.918581 0.000526
2.533421 23.918581 0.000537
2.848162 23.918581 0.000539
3.162903 23.918581 0.000535
3.477644 23.918581 0.000502
3.792385 23.918581 0.000465
4.107125 23.918581 0.000495
4.421866 23.918581 0.000447
4.736608 23.918581 0.000380
5.051349 23.918581 0.000347
5.366090 23.918581 0.000329
5.680831 23.918581 0.000323
5.995571 23.918581 0.000451
6.310312 23.918581 0.000696
6.625053 23.918581 0.000630
6.939795 23.918581 0.000132
7.254536 23.918581 -0.000024
7.569277 23.918581 0.000237
7.884017 23.918581 0.000350
8.198758 23.918581 0.001513
8.513499 23.918581 0.001094
8.828240 23.918581 0.004976
9.142982 23.918581 0.006144
9.457723 23.918581 0.007619
9.772464 23.918581 0.013436
10.087205 23.918581 0.015983
10.401946 23.918581 0.022167
10.716687 23.918581 0.017140
11.031426 23.918581 0.029197
11.346168 23.918581 0.039907
11.660909 23.918581 0.031083
11.975650 23.918581 0.028108
12.290391 23.918581 0.027255
12.605132 23.918581 0.024833
12.919873 23.918581 0.005014
13.234614 23.918581 -0.002566
13.549356 23.918581 -0.017845
13.864097 23.918581 -0.004988
14.178838 23.918581 0.005384
14.493579 23.918581 -0.005581
14.808320 23.918581 -0.001655
15.123059 23.918581 0.019503
15.437800 23.918581 0.010600
15.752542 23.918581 -0.042390
16.067284 23.918581 0.000000
16.382023 23.918581 0.000000
16.696766 23.918581 0.000000
17.011505 23.918581 0.000000
17.326248 23.918581 0.000000
17.640987 23.918581 0.000000
17.955730 23.918581 0.000000
18.270470 23.918581 0.000000
18.585213 23.918581 0.000000
18.899952 23.918581 0.000000
-7.223550 23.603840 0.000000
-6.908809 23.603840 0.000934
-6.594068 23.603840 0.000779
-6.279327 23.603840 0.000723
-5.964586 23.603840 0.000699
-5.649845 23.603840 0.000723
-5.335104 23.603840 0.000730
-5.020363 23.603840 0.000608
-4.705622 23.603840 0.000523
-4.390881 23.603840 0.000491
-4.076140 23.603840 0.000576
-3.761399 23.603840 0.000665
-3.446658 23.603840 0.000643
-3.131917 23.603840 0.000591
-2.817176 23.603840 0.000445
-2.502435 23.603840 0.000340
-2.187694 23.603840 0.000368
-1.872953 23.603840 0.000455
-1.558212 23.603840 0.000469
-1.243471 23.603840 0.000369
-0.928730 23.603840 0.000451
-0.613989 23.603840 0.000619
-0.299248 23.603840 0.000635
0.015493 23.603840 0.000519
0.330234 23.603840 0.000467
0.644975 23.603840 0.000512
0.959716 23.603840 0.000550
1.274457 23.603840 0.000465
1.589198 23.603840 0.000422
1.903938 23.603840 0.000444
2.218679 23.603840 0.000489
2.533421 23.603840 0.000478
2.848162 23.603840 0.000505
3.162903 23.603840 0.000580
3.477644 23.603840 0.000560
3.792385 23.603840 0.000545
4.107125 23.603840 0.000489
4.421866 23.603840 0.000457
4.736608 23.603840 0.000429
5.051349 23.603840 0.000412
5.366090 23.603840 0.000452
5.680831 23.603840 0.000363
5.995571 23.603840 0.000458
6.310312 23.603840 0.000543
6.625053 23.603840 0.000570
6.939795 23.603840 0.000098
7.254536 23.603840 -0.000296
7.569277 23.603840 -0.000411
7.884017 23.603840 -0.000072
8.198758 23.603840 -0.000085
8.513499 23.603840 0.001820
8.828240 23.603840 0.005116
9.142982 23.603840 0.008672
9.457723 23.603840 0.013612
9.772464 23.603840 0.013483
10.087205 23.603840 0.016016
10.401946 23.603840 0.022517
10.716687 23.603840 0.027900
11.031426 23.603840 0.022445
11.346168 23.603840 0.036903
11.660909 23.603840 0.040960
11.975650 23.603840 0.036871
12.290391 23.603840 0.018777
12.605132 23.603840 0.023348
12.919873 23.603840 0.001265
13.234614 23.603840 -0.013933
13.549356 23.603840 -0.019952
13.864097 23.603840 0.011408
14.178838 23.603840 0.001545
14.493579 23.603840 0.000313
14.808320 23.603840 0.006354
15.123059 23.603840 0.017509
15.437800 23.603840 0.022017
15.752542 23.603840 -0.049721
16.067284 23.603840 0.000000
16.382023 23.603840 0.000000
16.696766 23.603840 0.000000
17.011505 23.603840 0.000000
17.326248 23.603840 0.000000
17.640987 23.603840 0.000000
17.955730 23.603840 0.000000
18.270470 23.603840 0.000000
18.585213 23.603840 0.000000
18.899952 23.603840 0.000000
-7.223550 23.289099 0.000000
-6.908809 23.289099 0.000758
-6.594068 23.289099 0.000780
-6.279327 23.289099 0.000793
-5.964586 23.289099 0.000718
-5.649845 23.289099 0.000730
-5.335104 23.289099 0.000744
-5.020363 23.289099 0.000612
-4.705622 23.289099 0.000487
-4.390881 23.289099 0.000479
-4.076140 23.289099 0.000549
-3.761399 23.289099 0.000573
-3.446658 23.289099 0.000556
-3.131917 23.289099 0.000531
-2.817176 23.289099 0.000403
-2.502435 23.289099 0.000301
-2.187694 23.289099 0.000314
-1.872953 23.289099 0.000419
-1.558212 23.289099 0.000471
-1.243471 23.289099 0.000407
-0.928730 23.289099 0.000510
-0.613989 23.289099 0.000637
-0.299248 23.289099 0.000661
0.015493 23.289099 0.000505
0.330234 23.289099 0.000400
0.644975 23.289099 0.000443
0.959716 23.289099 0.000469
1.274457 23.289099 0.000475
1.589198 23.289099 0.000433
1.903938 23.289099 0.000399
2.218679 23.289099 0.000408
2.533421 23.289099 0.000367
2.848162 23.289099 0.000461
3.162903 23.289099 0.000594
3.477644 23.289099 0.000613
3.792385 23.289099 0.000572
4.107125 23.289099 0.000449
4.421866 23.289099 0.000414
4.736608 23.289099 0.000458
5.051349 23.289099 0.000471
5.366090 23.289099 0.000534
5.680831 23.289099 0.000419
5.995571 23.289099 0.000302
6.310312 23.289099 0.000486
6.625053 23.289099 0.000275
6.939795 23.289099 -0.000213
7.254536 23.289099 -0.000394
7.569277 23.289099 -0.000031
7.884017 23.289099 -0.000160
8.198758 23.289099 0.000599
8.513499 23.289099 0.002974
8.828240 23.289099 0.005989
9.142982 23.289099 0.008584
9.457723 23.289099 0.014991
9.772464 23.289099 0.015267
10.087205 23.289099 0.016575
10.401946 23.289099 0.020169
10.716687 23.289099 0.025852
11.031426 23.289099 0.029833
11.346168 23.289099 0.035256
11.660909 23.289099 0.040435
11.975650 23.289099 0.038674
12.290391 23.289099 0.027535
12.605132 23.289099 0.015054
12.919873 23.289099 0.007340
13.234614 23.289099 -0.008590
13.549356 23.289099 -0.006795
13.864097 23.289099 -0.001417
14.178838 23.289099 0.006200
14.493579 23.289099 -0.021683
14.808320 23.289099 -0.018295
15.123059 23.289099 0.006760
15.437800 23.289099 0.038130
15.752542 23.289099 -0.050659
16.067284 23.289099 0.000000
16.382023 23.289099 0.000000
16.696766 23.289099 0.000000
17.011505 23.289099 0.000000
17.326248 23.289099 0.000000
17.640987 23.289099 0.000000
17.955730 23.289099 0.000000
18.270470 23.289099 0.000000
18.585213 23.289099 0.000000
18.899952 23.289099 0.000000
-7.223550 22.974360 0.000000
-6.908809 22.974360 0.000812
-6.594068 22.974360 0.000801
-6.279327 22.974360 0.000772
-5.964586 22.974360 0.000691
-5.649845 22.974360 0.000699
-5.335104 22.974360 0.000712
-5.020363 22.974360 0.000597
-4.705622 22.974360 0.000462
-4.390881 22.974360 0.000480
-4.076140 22.974360 0.000548
-3.761399 22.974360 0.000535
-3.446658 22.974360 0.000488
-3.131917 22.974360 0.000465
-2.817176 22.974360 0.000384
-2.502435 22.974360 0.000303
-2.187694 22.974360 0.000281
-1.872953 22.974360 0.000408
-1.558212 22.974360 0.000503
-1.243471 22.974360 0.000484
-0.928730 22.974360 0.000588
-0.613989 22.974360 0.000636
-0.299248 22.974360 0.000642
0.015493 22.974360 0.000457
0.330234 22.974360 0.000378
0.644975 22.974360 0.000422
0.959716 22.974360 0.000423
1.274457 22.974360 0.000498
1.589198 22.974360 0.000476
1.903938 22.974360 0.000405
2.218679 22.974360 0.000354
2.533421 22.974360 0.000308
2.848162 22.974360 0.000447
3.162903 22.974360 0.000605
3.477644 22.974360 0.000622
3.792385 22.974360 0.000551
4.107125 22.974360 0.000423
4.421866 22.974360 0.000377
4.736608 22.974360 0.000456
5.051349 22.974360 0.000496
5.366090 22.974360 0.000494
5.680831 22.974360 0.000284
5.995571 22.974360 0.000182
6.310312 22.974360 0.000186
6.625053 22.974360 0.000037
6.939795 22.974360 -0.000170
7.254536 22.974360 -0.000066
7.569277 22.974360 -0.000173
7.884017 22.974360 -0.000595
8.198758 22.974360 0.000673
8.513499 22.974360 0.001522
8.828240 22.974360 0.007033
9.142982 22.974360 0.009277
9.457723 22.974360 0.017179
9.772464 22.974360 0.018895
10.087205 22.974360 0.018414
10.401946 22.974360 0.023232
10.716687 22.974360 0.028791
11.031426 22.974360 0.031866
11.346168 22.974360 0.034497
11.660909 22.974360 0.034579
11.975650 22.974360 0.047538
12.290391 22.974360 0.022312
12.605132 22.974360 0.009058
12.919873 22.974360 0.002399
13.234614 22.974360 -0.004189
13.549356 22.974360 -0.014287
13.864097 22.974360 0.000643
14.178838 22.974360 -0.001965
14.493579 22.974360 -0.023067
14.808320 22.974360 -0.029890
15.123059 22.974360 0.003413
15.437800 22.974360 -0.006372
15.752542 22.974360 -0.055513
16.067284 22.974360 0.000000
16.382023 22.974360 0.000000
16.696766 22.974360 0.000000
17.011505 22.974360 0.000000
17.326248 22.974360 0.000000
17.640987 22.974360 0.000000
17.955730 22.974360 0.000000
18.270470 22.974360 0.000000
18.585213 22.974360 0.000000
18.899952 22.974360 0.000000
-7.223550 22.659618 0.000000
-6.908809 22.659618 0.001036
-6.594068 22.659618 0.000795
-6.279327 22.659618 0.000678
-5.964586 22.659618 0.000597
-5.649845 22.659618 0.000615
-5.335104 22.659618 0.000662
-5.020363 22.659618 0.000586
-4.705622 22.659618 0.000469
-4.390881 22.659618 0.000473
-4.076140 22.659618 0.000549
-3.761399 22.659618 0.000535
-3.446658 22.659618 0.000452
-3.131917 22.659618 0.000434
-2.817176 22.659618 0.000398
-2.502435 22.659618 0.000333
-2.187694 22.659618 0.000303
-1.872953 22.659618 0.000440
-1.558212 22.659618 0.000553
-1.243471 22.659618 0.000542
-0.928730 22.659618 0.000642
-0.613989 22.659618 0.000628
-0.299248 22.659618 0.000566
0.015493 22.659618 0.000383
0.330234 22.659618 0.000362
0.644975 22.659618 0.000422
0.959716 22.659618 0.000433
1.274457 22.659618 0.000531
1.589198 22.659618 0.000510
1.903938 22.659618 0.000401
2.218679 22.659618 0.000335
2.533421 22.659618 0.000327
2.848162 22.659618 0.000453
3.162903 22.659618 0.000575
3.477644 22.659618 0.000566
3.792385 22.659618 0.000504
4.107125 22.659618 0.000353
4.421866 22.659618 0.000288
4.736608 22.659618 0.000393
5.051349 22.659618 0.000454
5.366090 22.659618 0.000400
5.680831 22.659618 0.000140
5.995571 22.659618 -0.000038
6.310312 22.659618 -0.000212
6.625053 22.659618 -0.000347
6.939795 22.659618 -0.000581
7.254536 22.659618 -0.000265
7.569277 22.659618 -0.000443
7.884017 22.659618 0.000639
8.198758 22.659618 0.000859
8.513499 22.659618 0.001733
8.828240 22.659618 0.006156
9.142982 22.659618 0.011815
9.457723 22.659618 0.016434
9.772464 22.659618 0.018896
10.087205 22.659618 0.022409
10.401946 22.659618 0.024341
10.716687 22.659618 0.024414
11.031426 22.659618 0.032526
11.346168 22.659618 0.033446
11.660909 22.659618 0.050513
11.975650 22.659618 0.050146
12.290391 22.659618 0.033721
12.605132 22.659618 0.017672
12.919873 22.659618 0.001960
13.234614 22.659618 -0.010096
13.549356 22.659618 0.001087
13.864097 22.659618 -0.011999
14.178838 22.659618 0.002813
14.493579 22.659618 -0.023983
14.808320 22.659618 -0.027625
15.123059 22.659618 -0.007653
15.437800 22.659618 -0.012715
15.752542 22.659618 -0.045131
16.067284 22.659618 0.000000
16.382023 22.659618 0.000000
16.696766 22.659618 0.000000
17.011505 22.659618 0.000000
17.326248 22.659618 0.000000
17.640987 22.659618 0.000000
17.955730 22.659618 0.000000
18.270470 22.659618 0.000000
18.585213 22.659618 0.000000
18.899952 22.659618 0.000000
-7.223550 22.344877 0.000000
-6.908809 22.344877 0.001117
-6.594068 22.344877 0.000732
-6.279327 22.344877 0.000525
-5.964586 22.344877 0.000492
-5.649845 22.344877 0.000520
-5.335104 22.344877 0.000601
-5.020363 22.344877 0.000563
-4.705622 22.344877 0.000482
-4.390881 22.344877 0.000465
-4.076140 22.344877 0.000525
-3.761399 22.344877 0.000507
-3.446658 22.344877 0.000456
-3.131917 22.344877 0.000473
-2.817176 22.344877 0.000472
-2.502435 22.344877 0.000390
-2.187694 22.344877 0.000364
-1.872953 22.344877 0.000476
-1.558212 22.344877 0.000563
-1.243471 22.344877 0.000564
-0.928730 22.344877 0.000622
-0.613989 22.344877 0.000585
-0.299248 22.344877 0.000466
0.015493 22.344877 0.000304
0.330234 22.344877 0.000310
0.644975 22.344877 0.000426
0.959716 22.344877 0.000439
1.274457 22.344877 0.000480
1.589198 22.344877 0.000485
1.903938 22.344877 0.000391
2.218679 22.344877 0.000335
2.533421 22.344877 0.000366
2.848162 22.344877 0.000421
3.162903 22.344877 0.000473
3.477644 22.344877 0.000465
3.792385 22.344877 0.000411
4.107125 22.344877 0.000275
4.421866 22.344877 0.000211
4.736608 22.344877 0.000275
5.051349 22.344877 0.000350
5.366090 22.344877 0.000236
5.680831 22.344877 0.000042
5.995571 22.344877 -0.000043
6.310312 22.344877 -0.000198
6.625053 22.344877 -0.000375
6.939795 22.344877 -0.000532
7.254536 22.344877 -0.000040
7.569277 22.344877 0.000339
7.884017 22.344877 0.000161
8.198758 22.344877 0.001942
8.513499 22.344877 0.002786
8.828240 22.344877 0.005990
9.142982 22.344877 0.011883
9.457723 22.344877 0.012618
9.772464 22.344877 0.019353
10.087205 22.344877 0.024816
10.401946 22.344877 0.022331
10.716687 22.344877 0.019179
11.031426 22.344877 0.030200
11.346168 22.344877 0.030472
11.660909 22.344877 0.038466
11.975650 22.344877 0.047893
12.290391 22.344877 0.044112
12.605132 22.344877 0.015042
12.919873 22.344877 0.011564
13.234614 22.344877 0.000899
13.549356 22.344877 -0.005529
13.864097 22.344877 -0.003257
14.178838 22.344877 -0.017635
14.493579 22.344877 -0.019055
14.808320 22.344877 -0.021023
15.123059 22.344877 -0.017764
15.437800 22.344877 -0.034190
15.752542 22.344877 -0.062869
16.067284 22.344877 0.000000
16.382023 22.344877 0.000000
16.696766 22.344877 0.000000
17.011505 22.344877 0.000000
17.326248 22.344877 0.000000
17.640987 22.344877 0.000000
17.955730 22.344877 0.000000
18.270470 22.344877 0.000000
18.585213 22.344877 0.000000
18.899952 22.344877 0.000000
-7.223550 22.030136 0.000000
-6.908809 22.030136 0.001039
-6.594068 22.030136 0.000621
-6.279327 22.030136 0.000429
-5.964586 22.030136 0.000427
-5.649845 22.030136 0.000470
-5.335104 22.030136 0.000551
-5.020363 22.030136 0.000540
-4.705622 22.030136 0.000517
-4.390881 22.030136 0.000495
-4.076140 22.030136 0.000486
-3.761399 22.030136 0.000468
-3.446658 22.030136 0.000481
-3.131917 22.030136 0.000506
-2.817176 22.030136 0.000522
-2.502435 22.030136 0.000488
-2.187694 22.030136 0.000456
-1.872953 22.030136 0.000496
-1.558212 22.030136 0.000514
-1.243471 22.030136 0.000510
-0.928730 22.030136 0.000553
-0.613989 22.030136 0.000507
-0.299248 22.030136 0.000349
0.015493 22.030136 0.000245
0.330234 22.030136 0.000279
0.644975 22.030136 0.000449
0.959716 22.030136 0.000430
1.274457 22.030136 0.000402
1.589198 22.030136 0.000424
1.903938 22.030136 0.000407
2.218679 22.030136 0.000385
2.533421 22.030136 0.000396
2.848162 22.030136 0.000383
3.162903 22.030136 0.000368
3.477644 22.030136 0.000381
3.792385 22.030136 0.000341
4.107125 22.030136 0.000221
4.421866 22.030136 0.000133
4.736608 22.030136 0.000197
5.051349 22.030136 0.000226
5.366090 22.030136 0.000155
5.680831 22.030136 0.000063
5.995571 22.030136 -0.000038
6.310312 22.030136 -0.000197
6.625053 22.030136 -0.000227
6.939795 22.030136 0.000125
7.254536 22.030136 0.000504
7.569277 22.030136 0.000865
7.884017 22.030136 0.000815
8.198758 22.030136 0.002212
8.513499 22.030136 0.003841
8.828240 22.030136 0.007973
9.142982 22.030136 0.010535
9.457723 22.030136 0.013956
9.772464 22.030136 0.020837
10.087205 22.030136 0.019929
10.401946 22.030136 0.021378
10.716687 22.030136 0.021554
11.031426 22.030136 0.030403
11.346168 22.030136 0.020991
11.660909 22.030136 0.042103
11.975650 22.030136 0.061420
12.290391 22.030136 0.044732
12.605132 22.030136 0.024825
12.919873 22.030136 0.012009
13.234614 22.030136 0.006761
13.549356 22.030136 -0.016828
13.864097 22.030136 -0.004844
14.178838 22.030136 -0.019134
14.493579 22.030136 -0.026585
14.808320 22.030136 -0.024448
15.123059 22.030136 -0.034868
15.437800 22.030136 -0.052521
15.752542 22.030136 -0.068543
16.067284 22.030136 0.000000
16.382023 22.030136 0.000000
16.696766 22.030136 0.000000
17.011505 22.030136 0.000000
17.326248 22.030136 0.000000
17.640987 22.030136 0.000000
17.955730 22.030136 0.000000
18.270470 22.030136 0.000000
18.585213 22.030136 0.000000
18.899952 22.030136 0.000000
-7.223550 21.715395 0.000000
-6.908809 21.715395 0.000908
-6.594068 21.715395 0.000558
-6.279327 21.715395 0.000441
-5.964586 21.715395 0.000460
-5.649845 21.715395 0.000496
-5.335104 21.715395 0.000520
-5.020363 21.715395 0.000536
-4.705622 21.715395 0.000585
-4.390881 21.715395 0.000564
-4.076140 21.715395 0.000494
-3.761399 21.715395 0.000476
-3.446658 21.715395 0.000530
-3.131917 21.715395 0.000522
-2.817176 21.715395 0.000517
-2.502435 21.715395 0.000529
-2.187694 21.715395 0.000514
-1.872953 21.715395 0.000489
-1.558212 21.715395 0.000451
-1.243471 21.715395 0.000434
-0.928730 21.715395 0.000466
-0.613989 21.715395 0.000411
-0.299248 21.715395 0.000273
0.015493 21.715395 0.000207
0.330234 21.715395 0.000279
0.644975 21.715395 0.000478
0.959716 21.715395 0.000422
1.274457 21.715395 0.000359
1.589198 21.715395 0.000422
1.903938 21.715395 0.000467
2.218679 21.715395 0.000411
2.533421 21.715395 0.000377
2.848162 21.715395 0.000309
3.162903 21.715395 0.000314
3.477644 21.715395 0.000377
3.792385 21.715395 0.000314
4.107125 21.715395 0.000216
4.421866 21.715395 0.000141
4.736608 21.715395 0.000184
5.051349 21.715395 0.000197
5.366090 21.715395 0.000155
5.680831 21.715395 0.000180
5.995571 21.715395 0.000175
6.310312 21.715395 0.000085
6.625053 21.715395 -0.000015
6.939795 21.715395 0.000036
7.254536 21.715395 0.000743
7.569277 21.715395 0.001495
7.884017 21.715395 0.001533
8.198758 21.715395 0.001950
8.513499 21.715395 0.003319
8.828240 21.715395 0.009035
9.142982 21.715395 0.011139
9.457723 21.715395 0.013324
9.772464 21.715395 0.017726
10.087205 21.715395 0.020380
10.401946 21.715395 0.020477
10.716687 21.715395 0.020701
11.031426 21.715395 0.027285
11.346168 21.715395 0.032715
11.660909 21.715395 0.043323
11.975650 21.715395 0.063820
12.290391 21.715395 0.051677
12.605132 21.715395 0.034331
12.919873 21.715395 0.002295
13.234614 21.715395 0.001432
13.549356 21.715395 -0.007711
13.864097 21.715395 -0.017433
14.178838 21.715395 -0.038152
14.493579 21.715395 -0.023554
14.808320 21.715395 -0.033218
15.123059 21.715395 -0.024110
15.437800 21.715395 -0.031503
15.752542 21.715395 -0.054718
16.067284 21.715395 0.000000
16.382023 21.715395 0.000000
16.696766 21.715395 0.000000
17.011505 21.715395 0.000000
17.326248 21.715395 0.000000
17.640987 21.715395 0.000000
17.955730 21.715395 0.000000
18.270470 21.715395 0.000000
18.585213 21.715395 0.000000
18.899952 21.715395 0.000000
-7.223550 21.400654 0.000000
-6.908809 21.400654 0.000791
-6.594068 21.400654 0.000571
-6.279327 21.400654 0.000514
-5.964586 21.400654 0.000570
-5.649845 21.400654 0.000575
-5.335104 21.400654 0.000509
-5.020363 21.400654 0.000537
-4.705622 21.400654 0.000606
-4.390881 21.400654 0.000596
-4.076140 21.400654 0.000535
-3.761399 21.400654 0.000490
-3.446658 21.400654 0.000534
-3.131917 21.400654 0.000547
-2.817176 21.400654 0.000515
-2.502435 21.400654 0.000524
-2.187694 21.400654 0.000514
-1.872953 21.400654 0.000463
-1.558212 21.400654 0.000378
-1.243471 21.400654 0.000368
-0.928730 21.400654 0.000388
-0.613989 21.400654 0.000329
-0.299248 21.400654 0.000261
0.015493 21.400654 0.000232
0.330234 21.400654 0.000321
0.644975 21.400654 0.000492
0.959716 21.400654 0.000404
1.274457 21.400654 0.000387
1.589198 21.400654 0.000461
1.903938 21.400654 0.000510
2.218679 21.400654 0.000419
2.533421 21.400654 0.000332
2.848162 21.400654 0.000261
3.162903 21.400654 0.000303
3.477644 21.400654 0.000373
3.792385 21.400654 0.000283
4.107125 21.400654 0.000253
4.421866 21.400654 0.000193
4.736608 21.400654 0.000208
5.051349 21.400654 0.000201
5.366090 21.400654 0.000218
5.680831 21.400654 0.000319
5.995571 21.400654 0.000271
6.310312 21.400654 0.000217
6.625053 21.400654 0.000128
6.939795 21.400654 -0.000291
7.254536 21.400654 0.000460
7.569277 21.400654 0.001119
7.884017 21.400654 0.000713
8.198758 21.400654 0.002562
8.513499 21.400654 0.004298
8.828240 21.400654 0.006723
9.142982 21.400654 0.008136
9.457723 21.400654 0.012201
9.772464 21.400654 0.019582
10.087205 21.400654 0.025633
10.401946 21.400654 0.020350
10.716687 21.400654 0.021522
11.031426 21.400654 0.029729
11.346168 21.400654 0.038686
11.660909 21.400654 0.050890
11.975650 21.400654 0.052441
12.290391 21.400654 0.054578
12.605132 21.400654 0.046720
12.919873 21.400654 0.008928
13.234614 21.400654 -0.017096
13.549356 21.400654 -0.026046
13.864097 21.400654 -0.031804
14.178838 21.400654 -0.026704
14.493579 21.400654 -0.024316
14.808320 21.400654 -0.022427
15.123059 21.400654 -0.003509
15.437800 21.400654 -0.005152
15.752542 21.400654 -0.097931
16.067284 21.400654 0.000000
16.382023 21.400654 0.000000
16.696766 21.400654 0.000000
17.011505 21.400654 0.000000
17.326248 21.400654 0.000000
17.640987 21.400654 0.000000
17.955730 21.400654 0.000000
18.270470 21.400654 0.000000
18.585213 21.400654 0.000000
18.899952 21.400654 0.000000
-7.223550 21.085913 0.000000
-6.908809 21.085913 0.000744
-6.594068 21.085913 0.000612
-6.279327 21.085913 0.000631
-5.964586 21.085913 0.000697
-5.649845 21.085913 0.000663
-5.335104 21.085913 0.000525
-5.020363 21.085913 0.000523
-4.705622 21.085913 0.000542
-4.390881 21.085913 0.000522
-4.076140 21.085913 0.000560
-3.761399 21.085913 0.000508
-3.446658 21.085913 0.000536
-3.131917 21.085913 0.000551
-2.817176 21.085913 0.000523
-2.502435 21.085913 0.000512
-2.187694 21.085913 0.000492
-1.872953 21.085913 0.000442
-1.558212 21.085913 0.000341
-1.243471 21.085913 0.000333
-0.928730 21.085913 0.000355
-0.613989 21.085913 0.000289
-0.299248 21.085913 0.000281
0.015493 21.085913 0.000275
0.330234 21.085913 0.000369
0.644975 21.085913 0.000472
0.959716 21.085913 0.000417
1.274457 21.085913 0.000438
1.589198 21.085913 0.000483
1.903938 21.085913 0.000497
2.218679 21.085913 0.000408
2.533421 21.085913 0.000301
2.848162 21.085913 0.000221
3.162903 21.085913 0.000269
3.477644 21.085913 0.000338
3.792385 21.085913 0.000286
4.107125 21.085913 0.000297
4.421866 21.085913 0.000289
4.736608 21.085913 0.000251
5.051349 21.085913 0.000196
5.366090 21.085913 0.000247
5.680831 21.085913 0.000361
5.995571 21.085913 0.000264
6.310312 21.085913 0.000144
6.625053 21.085913 -0.000235
6.939795 21.085913 -0.000523
7.254536 21.085913 0.000368
7.569277 21.085913 0.000278
7.884017 21.085913 0.000316
8.198758 21.085913 0.001543
8.513499 21.085913 0.003259
8.828240 21.085913 0.005339
9.142982 21.085913 0.008888
9.457723 21.085913 0.011216
9.772464 21.085913 0.014533
10.087205 21.085913 0.022470
10.401946 21.085913 0.021620
10.716687 21.085913 0.014954
11.031426 21.085913 0.024016
11.346168 21.085913 0.034926
11.660909 21.085913 0.049166
11.975650 21.085913 0.050125
12.290391 21.085913 0.046561
12.605132 21.085913 0.035299
12.919873 21.085913 0.002158
13.234614 21.085913 -0.004256
13.549356 21.085913 -0.040929
13.864097 21.085913 -0.055139
14.178838 21.085913 -0.030850
14.493579 21.085913 -0.024361
14.808320 21.085913 -0.021969
15.123059 21.085913 -0.017089
15.437800 21.085913 -0.010741
15.752542 21.085913 -0.057998
16.067284 21.085913 0.000000
16.382023 21.085913 0.000000
16.696766 21.085913 0.000000
17.011505 21.085913 0.000000
17.326248 21.085913 0.000000
17.640987 21.085913 0.000000
17.955730 21.085913 0.000000
18.270470 21.085913 0.000000
18.585213 21.085913 0.000000
18.899952 21.085913 0.000000
-7.223550 20.771172 0.000000
-6.908809 20.771172 0.000848
-6.594068 20.771172 0.000683
-6.279327 20.771172 0.000714
-5.964586 20.771172 0.000757
-5.649845 20.771172 0.000676
-5.335104 20.771172 0.000535
-5.020363 20.771172 0.000505
-4.705622 20.771172 0.000439
-4.390881 20.771172 0.000404
-4.076140 20.771172 0.000525
-3.761399 20.771172 0.000551
-3.446658 20.771172 0.000535
-3.131917 20.771172 0.000526
-2.817176 20.771172 0.000489
-2.502435 20.771172 0.000461
-2.187694 20.771172 0.000449
-1.872953 20.771172 0.000424
-1.558212 20.771172 0.000335
-1.243471 20.771172 0.000362
-0.928730 20.771172 0.000383
-0.613989 20.771172 0.000290
-0.299248 20.771172 0.000292
0.015493 20.771172 0.000306
0.330234 20.771172 0.000374
0.644975 20.771172 0.000426
0.959716 20.771172 0.000440
1.274457 20.771172 0.000482
1.589198 20.771172 0.000485
1.903938 20.771172 0.000460
2.218679 20.771172 0.000388
2.533421 20.771172 0.000292
2.848162 20.771172 0.000210
3.162903 20.771172 0.000206
3.477644 20.771172 0.000237
3.792385 20.771172 0.000280
4.107125 20.771172 0.000337
4.421866 20.771172 0.000376
4.736608 20.771172 0.000309
5.051349 20.771172 0.000188
5.366090 20.771172 0.000253
5.680831 20.771172 0.000337
5.995571 20.771172 0.000188
6.310312 20.771172 -0.000056
6.625053 20.771172 -0.000324
6.939795 20.771172 -0.000322
7.254536 20.771172 0.000104
7.569277 20.771172 -0.000154
7.884017 20.771172 0.000546
8.198758 20.771172 0.002049
8.513499 20.771172 0.005115
8.828240 20.771172 0.008243
9.142982 20.771172 0.007954
9.457723 20.771172 0.012020
9.772464 20.771172 0.017344
10.087205 20.771172 0.016623
10.401946 20.771172 0.012508
10.716687 20.771172 0.011843
11.031426 20.771172 0.021296
11.346168 20.771172 0.033682
11.660909 20.771172 0.042397
11.975650 20.771172 0.033373
12.290391 20.771172 0.031506
12.605132 20.771172 0.026532
12.919873 20.771172 0.008116
13.234614 20.771172 -0.006492
13.549356 20.771172 -0.021145
13.864097 20.771172 -0.046816
14.178838 20.771172 -0.031779
14.493579 20.771172 -0.025009
14.808320 20.771172 -0.020945
15.123059 20.771172 -0.027438
15.437800 20.771172 -0.019012
15.752542 20.771172 -0.088293
16.067284 20.771172 0.000000
16.382023 20.771172 0.000000
16.696766 20.771172 0.000000
17.011505 20.771172 0.000000
17.326248 20.771172 0.000000
17.640987 20.771172 0.000000
17.955730 20.771172 0.000000
18.270470 20.771172 0.000000
18.585213 20.771172 0.000000
18.899952 20.771172 0.000000
-7.223550 20.456430 0.000000
-6.908809 20.456430 0.001050
-6.594068 20.456430 0.000772
-6.279327 20.456430 0.000751
-5.964586 20.456430 0.000758
-5.649845 20.456430 0.000659
-5.335104 20.456430 0.000554
-5.020363 20.456430 0.000511
-4.705622 20.456430 0.000379
-4.390881 20.456430 0.000328
-4.076140 20.456430 0.000489
-3.761399 20.456430 0.000574
-3.446658 20.456430 0.000524
-3.131917 20.456430 0.000484
-2.817176 20.456430 0.000421
-2.502435 20.456430 0.000391
-2.187694 20.456430 0.000418
-1.872953 20.456430 0.000397
-1.558212 20.456430 0.000339
-1.243471 20.456430 0.000390
-0.928730 20.456430 0.000409
-0.613989 20.456430 0.000316
-0.299248 20.456430 0.000305
0.015493 20.456430 0.000312
0.330234 20.456430 0.000339
0.644975 20.456430 0.000382
0.959716 20.456430 0.000444
1.274457 20.456430 0.000482
1.589198 20.456430 0.000440
1.903938 20.456430 0.000386
2.218679 20.456430 0.000340
2.533421 20.456430 0.000277
2.848162 20.456430 0.000215
3.162903 20.456430 0.000195
3.477644 20.456430 0.000225
3.792385 20.456430 0.000307
4.107125 20.456430 0.000352
4.421866 20.456430 0.000381
4.736608 20.456430 0.000359
5.051349 20.456430 0.000163
5.366090 20.456430 0.000149
5.680831 20.456430 0.000157
5.995571 20.456430 -0.000042
6.310312 20.456430 -0.000177
6.625053 20.456430 -0.000515
6.939795 20.456430 -0.000484
7.254536 20.456430 -0.000243
7.569277 20.456430 -0.000359
7.884017 20.456430 0.000575
8.198758 20.456430 0.002999
8.513499 20.456430 0.004648
8.828240 20.456430 0.006219
9.142982 20.456430 0.010634
9.457723 20.456430 0.017410
9.772464 20.456430 0.020406
10.087205 20.456430 0.018418
10.401946 20.456430 0.015955
10.716687 20.456430 0.011171
11.031426 20.456430 0.023408
11.346168 20.456430 0.025847
11.660909 20.456430 0.023943
11.975650 20.456430 0.023092
12.290391 20.456430 0.025315
12.605132 20.456430 0.024177
12.919873 20.456430 0.018462
13.234614 20.456430 0.014096
13.549356 20.456430 0.005826
13.864097 20.456430 -0.015465
14.178838 20.456430 -0.027727
14.493579 20.456430 -0.021749
14.808320 20.456430 -0.022791
15.123059 20.456430 -0.002204
15.437800 20.456430 -0.043596
15.752542 20.456430 -0.080372
16.067284 20.456430 0.000000
16.382023 20.456430 0.000000
16.696766 20.456430 0.000000
17.011505 20.456430 0.000000
17.326248 20.456430 0.000000
17.640987 20.456430 0.000000
17.955730 20.456430 0.000000
18.270470 20.456430 0.000000
18.585213 20.456430 0.000000
18.899952 20.456430 0.000000
-7.223550 20.141689 0.000000
-6.908809 20.141689 0.001195
-6.594068 20.141689 0.000842
-6.279327 20.141689 0.000761
-5.964586 20.141689 0.000710
-5.649845 20.141689 0.000614
-5.335104 20.141689 0.000555
-5.020363 20.141689 0.000487
-4.705622 20.141689 0.000350
-4.390881 20.141689 0.000330
-4.076140 20.141689 0.000481
-3.761399 20.141689 0.000605
-3.446658 20.141689 0.000540
-3.131917 20.141689 0.000461
-2.817176 20.141689 0.000370
-2.502435 20.141689 0.000327
-2.187694 20.141689 0.000380
-1.872953 20.141689 0.000375
-1.558212 20.141689 0.000321
-1.243471 20.141689 0.000377
-0.928730 20.141689 0.000398
-0.613989 20.141689 0.000334
-0.299248 20.141689 0.000340
0.015493 20.141689 0.000309
0.330234 20.141689 0.000296
0.644975 20.141689 0.000328
0.959716 20.141689 0.000398
1.274457 20.141689 0.000411
1.589198 20.141689 0.000354
1.903938 20.141689 0.000307
2.218679 20.141689 0.000278
2.533421 20.141689 0.000270
2.848162 20.141689 0.000257
3.162903 20.141689 0.000268
3.477644 20.141689 0.000304
3.792385 20.141689 0.000337
4.107125 20.141689 0.000328
4.421866 20.141689 0.000350
4.736608 20.141689 0.000294
5.051349 20.141689 0.000142
5.366090 20.141689 -0.000030
5.680831 20.141689 -0.000133
5.995571 20.141689 -0.000087
6.310312 20.141689 -0.000235
6.625053 20.141689 -0.000395
6.939795 20.141689 -0.000485
7.254536 20.141689 -0.000046
7.569277 20.141689 0.000642
7.884017 20.141689 0.001234
8.198758 20.141689 0.002263
8.513499 20.141689 0.004676
8.828240 20.141689 0.005829
9.142982 20.141689 0.010502
9.457723 20.141689 0.017765
9.772464 20.141689 0.020838
10.087205 20.141689 0.022835
10.401946 20.141689 0.019428
10.716687 20.141689 0.018315
11.031426 20.141689 0.016496
11.346168 20.141689 0.016506
11.660909 20.141689 0.023928
11.975650 20.141689 0.019849
12.290391 20.141689 0.009488
12.605132 20.141689 0.005579
12.919873 20.141689 -0.003608
13.234614 20.141689 0.019493
13.549356 20.141689 0.000265
13.864097 20.141689 -0.011980
14.178838 20.141689 -0.024259
14.493579 20.141689 -0.024963
14.808320 20.141689 -0.029128
15.123059 20.141689 -0.007461
15.437800 20.141689 -0.008817
15.752542 20.141689 -0.050531
16.067284 20.141689 0.000000
16.382023 20.141689 0.000000
16.696766 20.141689 0.000000
17.011505 20.141689 0.000000
17.326248 20.141689 0.000000
17.640987 20.141689 0.000000
17.955730 20.141689 0.000000
18.270470 20.141689 0.000000
18.585213 20.141689 0.000000
18.899952 20.141689 0.000000
-7.223550 19.826948 0.000000
-6.908809 19.826948 0.001236
-6.594068 19.826948 0.000840
-6.279327 19.826948 0.000735
-5.964586 19.826948 0.000647
-5.649845 19.826948 0.000566
-5.335104 19.826948 0.000510
-5.020363 19.826948 0.000434
-4.705622 19.826948 0.000347
-4.390881 19.826948 0.000395
-4.076140 19.826948 0.000497
-3.761399 19.826948 0.000579
-3.446658 19.826948 0.000536
-3.131917 19.826948 0.000433
-2.817176 19.826948 0.000342
-2.502435 19.826948 0.000306
-2.187694 19.826948 0.000347
-1.872953 19.826948 0.000373
-1.558212 19.826948 0.000331
-1.243471 19.826948 0.000349
-0.928730 19.826948 0.000382
-0.613989 19.826948 0.000362
-0.299248 19.826948 0.000353
0.015493 19.826948 0.000284
0.330234 19.826948 0.000257
0.644975 19.826948 0.000273
0.959716 19.826948 0.000306
1.274457 19.826948 0.000333
1.589198 19.826948 0.000298
1.903938 19.826948 0.000244
2.218679 19.826948 0.000243
2.533421 19.826948 0.000271
2.848162 19.826948 0.000306
3.162903 19.826948 0.000375
3.477644 19.826948 0.000414
3.792385 19.826948 0.000354
4.107125 19.826948 0.000282
4.421866 19.826948 0.000254
4.736608 19.826948 0.000230
5.051349 19.826948 0.000076
5.366090 19.826948 -0.000141
5.680831 19.826948 -0.000202
5.995571 19.826948 -0.000116
6.310312 19.826948 0.000053
6.625053 19.826948 -0.000081
6.939795 19.826948 0.000085
7.254536 19.826948 0.000202
7.569277 19.826948 0.001166
7.884017 19.826948 0.001813
8.198758 19.826948 0.001564
8.513499 19.826948 0.003050
8.828240 19.826948 0.006100
9.142982 19.826948 0.009918
9.457723 19.826948 0.012913
9.772464 19.826948 0.017030
10.087205 19.826948 0.018909
10.401946 19.826948 0.015292
10.716687 19.826948 0.020844
11.031426 19.826948 0.019671
11.346168 19.826948 0.018776
11.660909 19.826948 0.018173
11.975650 19.826948 0.021582
12.290391 19.826948 0.014802
12.605132 19.826948 0.005725
12.919873 19.826948 0.000802
13.234614 19.826948 -0.002257
13.549356 19.826948 0.000647
13.864097 19.826948 -0.014438
14.178838 19.826948 -0.027321
14.493579 19.826948 -0.026179
14.808320 19.826948 -0.022401
15.123059 19.826948 0.011522
15.437800 19.826948 -0.010898
15.752542 19.826948 -0.058599
16.067284 19.826948 0.000000
16.382023 19.826948 0.000000
16.696766 19.826948 0.000000
17.011505 19.826948 0.000000
17.326248 19.826948 0.000000
17.640987 19.826948 0.000000
17.955730 19.826948 0.000000
18.270470 19.826948 0.000000
18.585213 19.826948 0.000000
18.899952 19.826948 0.000000
-7.223550 19.512207 0.000000
-6.908809 19.512207 0.001168
-6.594068 19.512207 0.000795
-6.279327 19.512207 0.000660
-5.964586 19.512207 0.000607
-5.649845 19.512207 0.000516
-5.335104 19.512207 0.000429
-5.020363 19.512207 0.000369
-4.705622 19.512207 0.000346
-4.390881 19.512207 0.000443
-4.076140 19.512207 0.000506
-3.761399 19.512207 0.000513
-3.446658 19.512207 0.000483
-3.131917 19.512207 0.000393
-2.817176 19.512207 0.000322
-2.502435 19.512207 0.000301
-2.187694 19.512207 0.000346
-1.872953 19.512207 0.000420
-1.558212 19.512207 0.000385
-1.243471 19.512207 0.000358
-0.928730 19.512207 0.000393
-0.613989 19.512207 0.000398
-0.299248 19.512207 0.000353
0.015493 19.512207 0.000243
0.330234 19.512207 0.000190
0.644975 19.512207 0.000174
0.959716 19.512207 0.000206
1.274457 19.512207 0.000286
1.589198 19.512207 0.000278
1.903938 19.512207 0.000217
2.218679 19.512207 0.000234
2.533421 19.512207 0.000279
2.848162 19.512207 0.000316
3.162903 19.512207 0.000413
3.477644 19.512207 0.000418
3.792385 19.512207 0.000258
4.107125 19.512207 0.000185
4.421866 19.512207 0.000140
4.736608 19.512207 0.000132
5.051349 19.512207 0.000076
5.366090 19.512207 -0.000089
5.680831 19.512207 -0.000190
5.995571 19.512207 -0.000103
6.310312 19.512207 0.000164
6.625053 19.512207 0.000420
6.939795 19.512207 0.000620
7.254536 19.512207 0.000795
7.569277 19.512207 0.001366
7.884017 19.512207 0.001995
8.198758 19.512207 0.001872
8.513499 19.512207 0.000857
8.828240 19.512207 0.003448
9.142982 19.512207 0.007964
9.457723 19.512207 0.010436
9.772464 19.512207 0.017822
10.087205 19.512207 0.018127
10.401946 19.512207 0.014427
10.716687 19.512207 0.022830
11.031426 19.512207 0.022374
11.346168 19.512207 0.024529
11.660909 19.512207 0.033677
11.975650 19.512207 0.040259
12.290391 19.512207 0.027983
12.605132 19.512207 0.017264
12.919873 19.512207 0.014348
13.234614 19.512207 0.002015
13.549356 19.512207 -0.006685
13.864097 19.512207 -0.027763
14.178838 19.512207 -0.035506
14.493579 19.512207 -0.015418
14.808320 19.512207 -0.013816
15.123059 19.512207 -0.025081
15.437800 19.512207 -0.029953
15.752542 19.512207 -0.037915
16.067284 19.512207 0.000000
16.382023 19.512207 0.000000
16.696766 19.512207 0.000000
17.011505 19.512207 0.000000
17.326248 19.512207 0.000000
17.640987 19.512207 0.000000
17.955730 19.512207 0.000000
18.270470 19.512207 0.000000
18.585213 19.512207 0.000000
18.899952 19.512207 0.000000
-7.223550 19.197468 0.000000
-6.908809 19.197468 0.001040
-6.594068 19.197468 0.000690
-6.279327 19.197468 0.000568
-5.964586 19.197468 0.000552
-5.649845 19.197468 0.000511
-5.335104 19.197468 0.000410
-5.020363 19.197468 0.000340
-4.705622 19.197468 0.000329
-4.390881 19.197468 0.000430
-4.076140 19.197468 0.000492
-3.761399 19.197468 0.000446
-3.446658 19.197468 0.000403
-3.131917 19.197468 0.000397
-2.817176 19.197468 0.000351
-2.502435 19.197468 0.000318
-2.187694 19.197468 0.000358
-1.872953 19.197468 0.000461
-1.558212 19.197468 0.000441
-1.243471 19.197468 0.000402
-0.928730 19.197468 0.000431
-0.613989 19.197468 0.000414
-0.299248 19.197468 0.000342
0.015493 19.197468 0.000223
0.330234 19.197468 0.000162
0.644975 19.197468 0.000115
0.959716 19.197468 0.000135
1.274457 19.197468 0.000265
1.589198 19.197468 0.000313
1.903938 19.197468 0.000266
2.218679 19.197468 0.000292
2.533421 19.197468 0.000304
2.848162 19.197468 0.000287
3.162903 19.197468 0.000357
3.477644 19.197468 0.000308
3.792385 19.197468 0.000132
4.107125 19.197468 0.000065
4.421866 19.197468 0.000083
4.736608 19.197468 0.000144
5.051349 19.197468 0.000176
5.366090 19.197468 0.000025
5.680831 19.197468 -0.000034
5.995571 19.197468 0.000028
6.310312 19.197468 0.000268
6.625053 19.197468 0.000503
6.939795 19.197468 0.000510
7.254536 19.197468 0.000655
7.569277 19.197468 0.001209
7.884017 19.197468 0.001762
8.198758 19.197468 0.001311
8.513499 19.197468 0.001244
8.828240 19.197468 0.001509
9.142982 19.197468 0.011128
9.457723 19.197468 0.012997
9.772464 19.197468 0.024366
10.087205 19.197468 0.023087
10.401946 19.197468 0.016943
10.716687 19.197468 0.020190
11.031426 19.197468 0.021665
11.346168 19.197468 0.035314
11.660909 19.197468 0.033351
11.975650 19.197468 0.041748
12.290391 19.197468 0.034099
12.605132 19.197468 0.027869
12.919873 19.197468 0.027219
13.234614 19.197468 0.009007
13.549356 19.197468 -0.018382
13.864097 19.197468 -0.028401
14.178838 19.197468 -0.038263
14.493579 19.197468 -0.005669
14.808320 19.197468 -0.010291
15.123059 19.197468 -0.021224
15.437800 19.197468 -0.025561
15.752542 19.197468 -0.058849
16.067284 19.197468 0.000000
16.382023 19.197468 0.000000
16.696766 19.197468 0.000000
17.011505 19.197468 0.000000
17.326248 19.197468 0.000000
17.640987 19.197468 0.000000
17.955730 19.197468 0.000000
18.270470 19.197468 0.000000
18.585213 19.197468 0.000000
18.899952 19.197468 0.000000
-7.223550 18.882727 0.000000
-6.908809 18.882727 0.000915
-6.594068 18.882727 0.000609
-6.279327 18.882727 0.000507
-5.964586 18.882727 0.000521
-5.649845 18.882727 0.000513
-5.335104 18.882727 0.000428
-5.020363 18.882727 0.000393
-4.705622 18.882727 0.000339
-4.390881 18.882727 0.000406
-4.076140 18.882727 0.000454
-3.761399 18.882727 0.000401
-3.446658 18.882727 0.000362
-3.131917 18.882727 0.000408
-2.817176 18.882727 0.000393
-2.502435 18.882727 0.000315
-2.187694 18.882727 0.000359
-1.872953 18.882727 0.000460
-1.558212 18.882727 0.000447
-1.243471 18.882727 0.000424
-0.928730 18.882727 0.000438
-0.613989 18.882727 0.000398
-0.299248 18.882727 0.000318
0.015493 18.882727 0.000237
0.330234 18.882727 0.000209
0.644975 18.882727 0.000154
0.959716 18.882727 0.000157
1.274457 18.882727 0.000283
1.589198 18.882727 0.000334
1.903938 18.882727 0.000317
2.218679 18.882727 0.000322
2.533421 18.882727 0.000277
2.848162 18.882727 0.000219
3.162903 18.882727 0.000240
3.477644 18.882727 0.000157
3.792385 18.882727 0.000056
4.107125 18.882727 -0.000013
4.421866 18.882727 0.000077
4.736608 18.882727 0.000216
5.051349 18.882727 0.000303
5.366090 18.882727 0.000161
5.680831 18.882727 0.000105
5.995571 18.882727 0.000036
6.310312 18.882727 0.000123
6.625053 18.882727 0.000270
6.939795 18.882727 0.000084
7.254536 18.882727 0.000264
7.569277 18.882727 0.000507
7.884017 18.882727 0.001145
8.198758 18.882727 0.002081
8.513499 18.882727 0.002656
8.828240 18.882727 0.004853
9.142982 18.882727 0.012178
9.457723 18.882727 0.018354
9.772464 18.882727 0.023644
10.087205 18.882727 0.023980
10.401946 18.882727 0.023312
10.716687 18.882727 0.023928
11.031426 18.882727 0.018066
11.346168 18.882727 0.026325
11.660909 18.882727 0.038623
11.975650 18.882727 0.043551
12.290391 18.882727 0.039628
12.605132 18.882727 0.027333
12.919873 18.882727 0.034097
13.234614 18.882727 0.030631
13.549356 18.882727 0.001250
13.864097 18.882727 -0.016615
14.178838 18.882727 -0.022648
14.493579 18.882727 0.002959
14.808320 18.882727 -0.000316
15.123059 18.882727 -0.007263
15.437800 18.882727 -0.010731
15.752542 18.882727 -0.056794
16.067284 18.882727 0.000000
16.382023 18.882727 0.000000
16.696766 18.882727 0.000000
17.011505 18.882727 0.000000
17.326248 18.882727 0.000000
17.640987 18.882727 0.000000
17.955730 18.882727 0.000000
18.270470 18.882727 0.000000
18.585213 18.882727 0.000000
18.899952 18.882727 0.000000
-7.223550 18.567986 0.000000
-6.908809 18.567986 0.000820
-6.594068 18.567986 0.000568
-6.279327 18.567986 0.000489
-5.964586 18.567986 0.000512
-5.649845 18.567986 0.000538
-5.335104 18.567986 0.000483
-5.020363 18.567986 0.000489
-4.705622 18.567986 0.000386
-4.390881 18.567986 0.000415
-4.076140 18.567986 0.000436
-3.761399 18.567986 0.000397
-3.446658 18.567986 0.000375
-3.131917 18.567986 0.000434
-2.817176 18.567986 0.000400
-2.502435 18.567986 0.000316
-2.187694 18.567986 0.000327
-1.872953 18.567986 0.000422
-1.558212 18.567986 0.000427
-1.243471 18.567986 0.000410
-0.928730 18.567986 0.000402
-0.613989 18.567986 0.000361
-0.299248 18.567986 0.000299
0.015493 18.567986 0.000237
0.330234 18.567986 0.000280
0.644975 18.567986 0.000261
0.959716 18.567986 0.000229
1.274457 18.567986 0.000293
1.589198 18.567986 0.000314
1.903938 18.567986 0.000319
2.218679 18.567986 0.000277
2.533421 18.567986 0.000201
2.848162 18.567986 0.000140
3.162903 18.567986 0.000131
3.477644 18.567986 0.000070
3.792385 18.567986 0.000016
4.107125 18.567986 -0.000017
4.421866 18.567986 0.000087
4.736608 18.567986 0.000320
5.051349 18.567986 0.000380
5.366090 18.567986 0.000271
5.680831 18.567986 0.000138
5.995571 18.567986 -0.000026
6.310312 18.567986 -0.000038
6.625053 18.567986 0.000010
6.939795 18.567986 -0.000237
7.254536 18.567986 -0.000014
7.569277 18.567986 0.000177
7.884017 18.567986 0.000564
8.198758 18.567986 0.001928
8.513499 18.567986 0.004870
8.828240 18.567986 0.006232
9.142982 18.567986 0.013177
9.457723 18.567986 0.018735
9.772464 18.567986 0.025593
10.087205 18.567986 0.028696
10.401946 18.567986 0.018597
10.716687 18.567986 0.019930
11.031426 18.567986 0.018377
11.346168 18.567986 0.023865
11.660909 18.567986 0.033986
11.975650 18.567986 0.030644
12.290391 18.567986 0.025199
12.605132 18.567986 0.023767
12.919873 18.567986 0.035056
13.234614 18.567986 0.044258
13.549356 18.567986 0.010339
13.864097 18.567986 -0.002639
14.178838 18.567986 -0.011893
14.493579 18.567986 0.005894
14.808320 18.567986 -0.004174
15.123059 18.567986 -0.003608
15.437800 18.567986 0.007830
15.752542 18.567986 -0.052221
16.067284 18.567986 0.000000
16.382023 18.567986 0.000000
16.696766 18.567986 0.000000
17.011505 18.567986 0.000000
17.326248 18.567986 0.000000
17.640987 18.567986 0.000000
17.955730 18.567986 0.000000
18.270470 18.567986 0.000000
18.585213 18.567986 0.000000
18.899952 18.567986 0.000000
-7.223550 18.253244 0.000000
-6.908809 18.253244 0.000743
-6.594068 18.253244 0.000543
-6.279327 18.253244 0.000513
-5.964586 18.253244 0.000516
-5.649845 18.253244 0.000560
-5.335104 18.253244 0.000548
-5.020363 18.253244 0.000563
-4.705622 18.253244 0.000456
-4.390881 18.253244 0.000449
-4.076140 18.253244 0.000411
-3.761399 18.253244 0.000425
-3.446658 18.253244 0.000433
-3.131917 18.253244 0.000454
-2.817176 18.253244 0.000410
-2.502435 18.253244 0.000298
-2.187694 18.253244 0.000283
-1.872953 18.253244 0.000350
-1.558212 18.253244 0.000367
-1.243471 18.253244 0.000385
-0.928730 18.253244 0.000353
-0.613989 18.253244 0.000329
-0.299248 18.253244 0.000277
0.015493 18.253244 0.000237
0.330234 18.253244 0.000348
0.644975 18.253244 0.000358
0.959716 18.253244 0.000288
1.274457 18.253244 0.000295
1.589198 18.253244 0.000284
1.903938 18.253244 0.000268
2.218679 18.253244 0.000190
2.533421 18.253244 0.000117
2.848162 18.253244 0.000057
3.162903 18.253244 0.000071
3.477644 18.253244 0.000083
3.792385 18.253244 0.000038
4.107125 18.253244 -0.000037
4.421866 18.253244 0.000110
4.736608 18.253244 0.000369
5.051349 18.253244 0.000387
5.366090 18.253244 0.000227
5.680831 18.253244 0.000046
5.995571 18.253244 -0.000217
6.310312 18.253244 -0.000371
6.625053 18.253244 -0.000351
6.939795 18.253244 -0.000312
7.254536 18.253244 -0.000021
7.569277 18.253244 0.000615
7.884017 18.253244 0.000485
8.198758 18.253244 0.002149
8.513499 18.253244 0.003927
8.828240 18.253244 0.007228
9.142982 18.253244 0.011441
9.457723 18.253244 0.016163
9.772464 18.253244 0.023056
10.087205 18.253244 0.028002
10.401946 18.253244 0.021912
10.716687 18.253244 0.017940
11.031426 18.253244 0.017069
11.346168 18.253244 0.022423
11.660909 18.253244 0.034427
11.975650 18.253244 0.024943
12.290391 18.253244 0.021492
12.605132 18.253244 0.014069
12.919873 18.253244 0.026635
13.234614 18.253244 0.041102
13.549356 18.253244 0.029558
13.864097 18.253244 0.006199
14.178838 18.253244 0.005126
14.493579 18.253244 -0.000829
14.808320 18.253244 -0.017094
15.123059 18.253244 0.006415
15.437800 18.253244 0.015331
15.752542 18.253244 -0.058976
16.067284 18.253244 0.000000
16.382023 18.253244 0.000000
16.696766 18.253244 0.000000
17.011505 18.253244 0.000000
17.326248 18.253244 0.000000
17.640987 18.253244 0.000000
17.955730 18.253244 0.000000
18.270470 18.253244 0.000000
18.585213 18.253244 0.000000
18.899952 18.253244 0.000000
-7.223550 17.938503 0.000000
-6.908809 17.938503 0.000726
-6.594068 17.938503 0.000559
-6.279327 17.938503 0.000560
-5.964586 17.938503 0.000561
-5.649845 17.938503 0.000564
-5.335104 17.938503 0.000583
-5.020363 17.938503 0.000596
-4.705622 17.938503 0.000508
-4.390881 17.938503 0.000439
-4.076140 17.938503 0.000346
-3.761399 17.938503 0.000421
-3.446658 17.938503 0.000474
-3.131917 17.938503 0.000437
-2.817176 17.938503 0.000397
-2.502435 17.938503 0.000305
-2.187694 17.938503 0.000258
-1.872953 17.938503 0.000308
-1.558212 17.938503 0.000351
-1.243471 17.938503 0.000364
-0.928730 17.938503 0.000309
-0.613989 17.938503 0.000292
-0.299248 17.938503 0.000270
0.015493 17.938503 0.000260
0.330234 17.938503 0.000404
0.644975 17.938503 0.000403
0.959716 17.938503 0.000317
1.274457 17.938503 0.000267
1.589198 17.938503 0.000235
1.903938 17.938503 0.000222
2.218679 17.938503 0.000132
2.533421 17.938503 0.000073
2.848162 17.938503 0.000047
3.162903 17.938503 0.000103
3.477644 17.938503 0.000182
3.792385 17.938503 0.000130
4.107125 17.938503 0.000004
4.421866 17.938503 0.000090
4.736608 17.938503 0.000238
5.051349 17.938503 0.000160
5.366090 17.938503 0.000047
5.680831 17.938503 -0.000094
5.995571 17.938503 -0.000242
6.310312 17.938503 -0.000283
6.625053 17.938503 -0.000447
6.939795 17.938503 -0.000312
7.254536 17.938503 -0.000206
7.569277 17.938503 0.000501
7.884017 17.938503 0.001353
8.198758 17.938503 0.001824
8.513499 17.938503 0.002822
8.828240 17.938503 0.008039
9.142982 17.938503 0.010603
9.457723 17.938503 0.013782
9.772464 17.938503 0.021361
10.087205 17.938503 0.026560
10.401946 17.938503 0.026557
10.716687 17.938503 0.029756
11.031426 17.938503 0.024766
11.346168 17.938503 0.020979
11.660909 17.938503 0.032946
11.975650 17.938503 0.033254
12.290391 17.938503 0.026072
12.605132 17.938503 0.023355
12.919873 17.938503 0.030369
13.234614 17.938503 0.026164
13.549356 17.938503 0.020361
13.864097 17.938503 -0.005061
14.178838 17.938503 -0.002968
14.493579 17.938503 0.000750
14.808320 17.938503 -0.017675
15.123059 17.938503 -0.010109
15.437800 17.938503 -0.012274
15.752542 17.938503 -0.044240
16.067284 17.938503 0.000000
16.382023 17.938503 0.000000
16.696766 17.938503 0.000000
17.011505 17.938503 0.000000
17.326248 17.938503 0.000000
17.640987 17.938503 0.000000
17.955730 17.938503 0.000000
18.270470 17.938503 0.000000
18.585213 17.938503 0.000000
18.899952 17.938503 0.000000
-7.223550 17.623762 0.000000
-6.908809 17.623762 0.000770
-6.594068 17.623762 0.000630
-6.279327 17.623762 0.000617
-5.964586 17.623762 0.000593
-5.649845 17.623762 0.000547
-5.335104 17.623762 0.000530
-5.020363 17.623762 0.000556
-4.705622 17.623762 0.000526
-4.390881 17.623762 0.000427
-4.076140 17.623762 0.000303
-3.761399 17.623762 0.000410
-3.446658 17.623762 0.000498
-3.131917 17.623762 0.000408
-2.817176 17.623762 0.000377
-2.502435 17.623762 0.000340
-2.187694 17.623762 0.000280
-1.872953 17.623762 0.000332
-1.558212 17.623762 0.000368
-1.243471 17.623762 0.000349
-0.928730 17.623762 0.000303
-0.613989 17.623762 0.000265
-0.299248 17.623762 0.000250
0.015493 17.623762 0.000266
0.330234 17.623762 0.000407
0.644975 17.623762 0.000393
0.959716 17.623762 0.000300
1.274457 17.623762 0.000242
1.589198 17.623762 0.000235
1.903938 17.623762 0.000221
2.218679 17.623762 0.000168
2.533421 17.623762 0.000102
2.848162 17.623762 0.000075
3.162903 17.623762 0.000149
3.477644 17.623762 0.000251
3.792385 17.623762 0.000207
4.107125 17.623762 0.000074
4.421866 17.623762 0.000077
4.736608 17.623762 0.000065
5.051349 17.623762 -0.000036
5.366090 17.623762 -0.000050
5.680831 17.623762 -0.000073
5.995571 17.623762 -0.000094
6.310312 17.623762 -0.000126
6.625053 17.623762 -0.000274
6.939795 17.623762 -0.000132
7.254536 17.623762 0.000363
7.569277 17.623762 0.000813
7.884017 17.623762 0.001302
8.198758 17.623762 0.001572
8.513499 17.623762 0.002159
8.828240 17.623762 0.005181
9.142982 17.623762 0.010088
9.457723 17.623762 0.017692
9.772464 17.623762 0.024402
10.087205 17.623762 0.029925
10.401946 17.623762 0.030188
10.716687 17.623762 0.028342
11.031426 17.623762 0.024488
11.346168 17.623762 0.028245
11.660909 17.623762 0.025663
11.975650 17.623762 0.025267
12.290391 17.623762 0.023212
12.605132 17.623762 0.025800
12.919873 17.623762 0.031576
13.234614 17.623762 0.014834
13.549356 17.623762 0.004313
13.864097 17.623762 -0.009497
14.178838 17.623762 0.001503
14.493579 17.623762 -0.003104
14.808320 17.623762 -0.022600
15.123059 17.623762 0.003124
15.437800 17.623762 0.014411
15.752542 17.623762 -0.045370
16.067284 17.623762 0.000000
16.382023 17.623762 0.000000
16.696766 17.623762 0.000000
17.011505 17.623762 0.000000
17.326248 17.623762 0.000000
17.640987 17.623762 0.000000
17.955730 17.623762 0.000000
18.270470 17.623762 0.000000
18.585213 17.623762 0.000000
18.899952 17.623762 0.000000
-7.223550 17.309021 0.000000
-6.908809 17.309021 0.000834
-6.594068 17.309021 0.000662
-6.279327 17.309021 0.000624
-5.964586 17.309021 0.000585
-5.649845 17.309021 0.000498
-5.335104 17.309021 0.000459
-5.020363 17.309021 0.000469
-4.705622 17.309021 0.000515
-4.390881 17.309021 0.000441
-4.076140 17.309021 0.000330
-3.761399 17.309021 0.000412
-3.446658 17.309021 0.000492
-3.131917 17.309021 0.000373
-2.817176 17.309021 0.000374
-2.502435 17.309021 0.000391
-2.187694 17.309021 0.000354
-1.872953 17.309021 0.000396
-1.558212 17.309021 0.000409
-1.243471 17.309021 0.000358
-0.928730 17.309021 0.000325
-0.613989 17.309021 0.000261
-0.299248 17.309021 0.000246
0.015493 17.309021 0.000275
0.330234 17.309021 0.000352
0.644975 17.309021 0.000334
0.959716 17.309021 0.000285
1.274457 17.309021 0.000245
1.589198 17.309021 0.000246
1.903938 17.309021 0.000247
2.218679 17.309021 0.000216
2.533421 17.309021 0.000154
2.848162 17.309021 0.000107
3.162903 17.309021 0.000196
3.477644 17.309021 0.000279
3.792385 17.309021 0.000213
4.107125 17.309021 0.000118
4.421866 17.309021 0.000056
4.736608 17.309021 -0.000087
5.051349 17.309021 -0.000154
5.366090 17.309021 0.000014
5.680831 17.309021 0.000070
5.995571 17.309021 0.000084
6.310312 17.309021 0.000013
6.625053 17.309021 -0.000172
6.939795 17.309021 -0.000439
7.254536 17.309021 0.000131
7.569277 17.309021 0.000683
7.884017 17.309021 0.002131
8.198758 17.309021 0.001750
8.513499 17.309021 0.003095
8.828240 17.309021 0.005189
9.142982 17.309021 0.010318
9.457723 17.309021 0.018234
9.772464 17.309021 0.024326
10.087205 17.309021 0.024933
10.401946 17.309021 0.032900
10.716687 17.309021 0.035009
11.031426 17.309021 0.029936
11.346168 17.309021 0.032720
11.660909 17.309021 0.023316
11.975650 17.309021 0.022417
12.290391 17.309021 0.025758
12.605132 17.309021 0.031825
12.919873 17.309021 0.028250
13.234614 17.309021 0.017853
13.549356 17.309021 0.005894
13.864097 17.309021 -0.004421
14.178838 17.309021 0.004655
14.493579 17.309021 -0.004989
14.808320 17.309021 -0.001499
15.123059 17.309021 0.007041
15.437800 17.309021 0.029103
15.752542 17.309021 -0.064098
16.067284 17.309021 0.000000
16.382023 17.309021 0.000000
16.696766 17.309021 0.000000
17.011505 17.309021 0.000000
17.326248 17.309021 0.000000
17.640987 17.309021 0.000000
17.955730 17.309021 0.000000
18.270470 17.309021 0.000000
18.585213 17.309021 0.000000
18.899952 17.309021 0.000000
-7.223550 16.994282 0.000000
-6.908809 16.994282 0.000814
-6.594068 16.994282 0.000641
-6.279327 16.994282 0.000572
-5.964586 16.994282 0.000534
-5.649845 16.994282 0.000444
-5.335104 16.994282 0.000414
-5.020363 16.994282 0.000401
-4.705622 16.994282 0.000459
-4.390881 16.994282 0.000501
-4.076140 16.994282 0.000422
-3.761399 16.994282 0.000441
-3.446658 16.994282 0.000454
-3.131917 16.994282 0.000351
-2.817176 16.994282 0.000397
-2.502435 16.994282 0.000433
-2.187694 16.994282 0.000443
-1.872953 16.994282 0.000455
-1.558212 16.994282 0.000435
-1.243471 16.994282 0.000381
-0.928730 16.994282 0.000331
-0.613989 16.994282 0.000244
-0.299248 16.994282 0.000247
0.015493 16.994282 0.000293
0.330234 16.994282 0.000347
0.644975 16.994282 0.000313
0.959716 16.994282 0.000313
1.274457 16.994282 0.000298
1.589198 16.994282 0.000303
1.903938 16.994282 0.000281
2.218679 16.994282 0.000270
2.533421 16.994282 0.000183
2.848162 16.994282 0.000094
3.162903 16.994282 0.000177
3.477644 16.994282 0.000226
3.792385 16.994282 0.000171
4.107125 16.994282 0.000122
4.421866 16.994282 0.000067
4.736608 16.994282 -0.000101
5.051349 16.994282 -0.000062
5.366090 16.994282 0.000186
5.680831 16.994282 0.000275
5.995571 16.994282 0.000339
6.310312 16.994282 0.000119
6.625053 16.994282 -0.000299
6.939795 16.994282 -0.000380
7.254536 16.994282 -0.000321
7.569277 16.994282 0.000297
7.884017 16.994282 0.002651
8.198758 16.994282 0.002169
8.513499 16.994282 0.002980
8.828240 16.994282 0.006033
9.142982 16.994282 0.010929
9.457723 16.994282 0.015459
9.772464 16.994282 0.021669
10.087205 16.994282 0.026874
10.401946 16.994282 0.031111
10.716687 16.994282 0.033356
11.031426 16.994282 0.029623
11.346168 16.994282 0.034687
11.660909 16.994282 0.025988
11.975650 16.994282 0.021202
12.290391 16.994282 0.016458
12.605132 16.994282 0.030221
12.919873 16.994282 0.020755
13.234614 16.994282 0.003275
13.549356 16.994282 0.003436
13.864097 16.994282 -0.001892
14.178838 16.994282 0.000455
14.493579 16.994282 0.012971
14.808320 16.994282 0.003820
15.123059 16.994282 0.016660
15.437800 16.994282 0.029089
15.752542 16.994282 -0.033352
16.067284 16.994282 0.000000
16.382023 16.994282 0.000000
16.696766 16.994282 0.000000
17.011505 16.994282 0.000000
17.326248 16.994282 0.000000
17.640987 16.994282 0.000000
17.955730 16.994282 0.000000
18.270470 16.994282 0.000000
18.585213 16.994282 0.000000
18.899952 16.994282 0.000000
-7.223550 16.679539 0.000000
-6.908809 16.679539 0.000758
-6.594068 16.679539 0.000575
-6.279327 16.679539 0.000500
-5.964586 16.679539 0.000469
-5.649845 16.679539 0.000422
-5.335104 16.679539 0.000422
-5.020363 16.679539 0.000375
-4.705622 16.679539 0.000409
-4.390881 16.679539 0.000548
-4.076140 16.679539 0.000528
-3.761399 16.679539 0.000475
-3.446658 16.679539 0.000420
-3.131917 16.679539 0.000354
-2.817176 16.679539 0.000408
-2.502435 16.679539 0.000426
-2.187694 16.679539 0.000492
-1.872953 16.679539 0.000449
-1.558212 16.679539 0.000392
-1.243471 16.679539 0.000368
-0.928730 16.679539 0.000311
-0.613989 16.679539 0.000228
-0.299248 16.679539 0.000233
0.015493 16.679539 0.000294
0.330234 16.679539 0.000345
0.644975 16.679539 0.000315
0.959716 16.679539 0.000375
1.274457 16.679539 0.000360
1.589198 16.679539 0.000298
1.903938 16.679539 0.000290
2.218679 16.679539 0.000274
2.533421 16.679539 0.000192
2.848162 16.679539 0.000068
3.162903 16.679539 0.000097
3.477644 16.679539 0.000129
3.792385 16.679539 0.000116
4.107125 16.679539 0.000126
4.421866 16.679539 0.000094
4.736608 16.679539 -0.000036
5.051349 16.679539 0.000008
5.366090 16.679539 0.000211
5.680831 16.679539 0.000273
5.995571 16.679539 0.000311
6.310312 16.679539 -0.000024
6.625053 16.679539 -0.000608
6.939795 16.679539 -0.000427
7.254536 16.679539 -0.000424
7.569277 16.679539 0.000542
7.884017 16.679539 0.002632
8.198758 16.679539 0.003311
8.513499 16.679539 0.004127
8.828240 16.679539 0.007985
9.142982 16.679539 0.012238
9.457723 16.679539 0.016761
9.772464 16.679539 0.025437
10.087205 16.679539 0.024041
10.401946 16.679539 0.025956
10.716687 16.679539 0.031220
11.031426 16.679539 0.031011
11.346168 16.679539 0.031756
11.660909 16.679539 0.034880
11.975650 16.679539 0.032582
12.290391 16.679539 0.020315
12.605132 16.679539 0.024955
12.919873 16.679539 0.012056
13.234614 16.679539 0.008233
13.549356 16.679539 0.008025
13.864097 16.679539 0.016337
14.178838 16.679539 0.010482
14.493579 16.679539 0.012981
14.808320 16.679539 -0.000231
15.123059 16.679539 0.028027
15.437800 16.679539 0.038759
15.752542 16.679539 -0.009559
16.067284 16.679539 0.000000
16.382023 16.679539 0.000000
16.696766 16.679539 0.000000
17.011505 16.679539 0.000000
17.326248 16.679539 0.000000
17.640987 16.679539 0.000000
17.955730 16.679539 0.000000
18.270470 16.679539 0.000000
18.585213 16.679539 0.000000
18.899952 16.679539 0.000000
-7.223550 16.364799 0.000000
-6.908809 16.364799 0.000719
-6.594068 16.364799 0.000522
-6.279327 16.364799 0.000472
-5.964586 16.364799 0.000462
-5.649845 16.364799 0.000441
-5.335104 16.364799 0.000439
-5.020363 16.364799 0.000379
-4.705622 16.364799 0.000403
-4.390881 16.364799 0.000596
-4.076140 16.364799 0.000599
-3.761399 16.364799 0.000514
-3.446658 16.364799 0.000425
-3.131917 16.364799 0.000354
-2.817176 16.364799 0.000379
-2.502435 16.364799 0.000404
-2.187694 16.364799 0.000458
-1.872953 16.364799 0.000373
-1.558212 16.364799 0.000309
-1.243471 16.364799 0.000338
-0.928730 16.364799 0.000309
-0.613989 16.364799 0.000247
-0.299248 16.364799 0.000247
0.015493 16.364799 0.000293
0.330234 16.364799 0.000342
0.644975 16.364799 0.000338
0.959716 16.364799 0.000387
1.274457 16.364799 0.000350
1.589198 16.364799 0.000246
1.903938 16.364799 0.000253
2.218679 16.364799 0.000264
2.533421 16.364799 0.000181
2.848162 16.364799 0.000035
3.162903 16.364799 0.000069
3.477644 16.364799 0.000078
3.792385 16.364799 0.000099
4.107125 16.364799 0.000187
4.421866 16.364799 0.000152
4.736608 16.364799 0.000032
5.051349 16.364799 0.000032
5.366090 16.364799 0.000094
5.680831 16.364799 0.000112
5.995571 16.364799 0.000010
6.310312 16.364799 -0.000378
6.625053 16.364799 -0.000599
6.939795 16.364799 -0.000388
7.254536 16.364799 -0.000107
7.569277 16.364799 0.001106
7.884017 16.364799 0.003071
8.198758 16.364799 0.005215
8.513499 16.364799 0.004933
8.828240 16.364799 0.007159
9.142982 16.364799 0.013416
9.457723 16.364799 0.019386
9.772464 16.364799 0.019922
10.087205 16.364799 0.022000
10.401946 16.364799 0.018426
10.716687 16.364799 0.032600
11.031426 16.364799 0.028934
11.346168 16.364799 0.031470
11.660909 16.364799 0.039568
11.975650 16.364799 0.041860
12.290391 16.364799 0.027620
12.605132 16.364799 0.018035
12.919873 16.364799 0.019279
13.234614 16.364799 0.011415
13.549356 16.364799 0.007655
13.864097 16.364799 0.011133
14.178838 16.364799 0.003327
14.493579 16.364799 0.000522
14.808320 16.364799 -0.004119
15.123059 16.364799 0.035898
15.437800 16.364799 0.041657
15.752542 16.364799 -0.017381
16.067284 16.364799 0.000000
16.382023 16.364799 0.000000
16.696766 16.364799 0.000000
17.011505 16.364799 0.000000
17.326248 16.364799 0.000000
17.640987 16.364799 0.000000
17.955730 16.364799 0.000000
18.270470 16.364799 0.000000
18.585213 16.364799 0.000000
18.899952 16.364799 0.000000
-7.223550 16.050056 0.000000
-6.908809 16.050056 0.000719
-6.594068 16.050056 0.000512
-6.279327 16.050056 0.000495
-5.964586 16.050056 0.000496
-5.649845 16.050056 0.000448
-5.335104 16.050056 0.000408
-5.020363 16.050056 0.000390
-4.705622 16.050056 0.000435
-4.390881 16.050056 0.000579
-4.076140 16.050056 0.000575
-3.761399 16.050056 0.000507
-3.446658 16.050056 0.000419
-3.131917 16.050056 0.000318
-2.817176 16.050056 0.000310
-2.502435 16.050056 0.000348
-2.187694 16.050056 0.000349
-1.872953 16.050056 0.000289
-1.558212 16.050056 0.000240
-1.243471 16.050056 0.000300
-0.928730 16.050056 0.000323
-0.613989 16.050056 0.000309
-0.299248 16.050056 0.000269
0.015493 16.050056 0.000264
0.330234 16.050056 0.000309
0.644975 16.050056 0.000308
0.959716 16.050056 0.000340
1.274457 16.050056 0.000289
1.589198 16.050056 0.000170
1.903938 16.050056 0.000225
2.218679 16.050056 0.000252
2.533421 16.050056 0.000174
2.848162 16.050056 0.000077
3.162903 16.050056 0.000114
3.477644 16.050056 0.000093
3.792385 16.050056 0.000108
4.107125 16.050056 0.000207
4.421866 16.050056 0.000193
4.736608 16.050056 0.000067
5.051349 16.050056 -0.000075
5.366090 16.050056 -0.000144
5.680831 16.050056 -0.000092
5.995571 16.050056 -0.000158
6.310312 16.050056 -0.000376
6.625053 16.050056 -0.000674
6.939795 16.050056 -0.000347
7.254536 16.050056 -0.000031
7.569277 16.050056 0.001550
7.884017 16.050056 0.003570
8.198758 16.050056 0.004494
8.513499 16.050056 0.002942
8.828240 16.050056 0.007056
9.142982 16.050056 0.014006
9.457723 16.050056 0.024932
9.772464 16.050056 0.027063
10.087205 16.050056 0.023442
10.401946 16.050056 0.024561
10.716687 16.050056 0.030151
11.031426 16.050056 0.030135
11.346168 16.050056 0.033515
11.660909 16.050056 0.040368
11.975650 16.050056 0.040346
12.290391 16.050056 0.040139
12.605132 16.050056 0.024706
12.919873 16.050056 0.030405
13.234614 16.050056 0.025064
13.549356 16.050056 0.004216
13.864097 16.050056 0.016447
14.178838 16.050056 -0.002343
14.493579 16.050056 -0.006002
14.808320 16.050056 0.007077
15.123059 16.050056 0.029991
15.437800 16.050056 0.042926
15.752542 16.050056 -0.034873
16.067284 16.050056 0.000000
16.382023 16.050056 0.000000
16.696766 16.050056 0.000000
17.011505 16.050056 0.000000
17.326248 16.050056 0.000000
17.640987 16.050056 0.000000
17.955730 16.050056 0.000000
18.270470 16.050056 0.000000
18.585213 16.050056 0.000000
18.899952 16.050056 0.000000
-7.223550 15.735317 0.000000
-6.908809 15.735317 0.000778
-6.594068 15.735317 0.000529
-6.279327 15.735317 0.000544
-5.964586 15.735317 0.000537
-5.649845 15.735317 0.000435
-5.335104 15.735317 0.000347
-5.020363 15.735317 0.000387
-4.705622 15.735317 0.000459
-4.390881 15.735317 0.000521
-4.076140 15.735317 0.000484
-3.761399 15.735317 0.000462
-3.446658 15.735317 0.000384
-3.131917 15.735317 0.000255
-2.817176 15.735317 0.000255
-2.502435 15.735317 0.000283
-2.187694 15.735317 0.000290
-1.872953 15.735317 0.000281
-1.558212 15.735317 0.000247
-1.243471 15.735317 0.000289
-0.928730 15.735317 0.000328
-0.613989 15.735317 0.000328
-0.299248 15.735317 0.000259
0.015493 15.735317 0.000222
0.330234 15.735317 0.000231
0.644975 15.735317 0.000234
0.959716 15.735317 0.000266
1.274457 15.735317 0.000214
1.589198 15.735317 0.000140
1.903938 15.735317 0.000202
2.218679 15.735317 0.000267
2.533421 15.735317 0.000195
2.848162 15.735317 0.000167
3.162903 15.735317 0.000206
3.477644 15.735317 0.000115
3.792385 15.735317 0.000105
4.107125 15.735317 0.000169
4.421866 15.735317 0.000148
4.736608 15.735317 0.000013
5.051349 15.735317 -0.000241
5.366090 15.735317 -0.000346
5.680831 15.735317 -0.000273
5.995571 15.735317 -0.000196
6.310312 15.735317 -0.000163
6.625053 15.735317 -0.000022
6.939795 15.735317 -0.000030
7.254536 15.735317 0.000339
7.569277 15.735317 0.001099
7.884017 15.735317 0.002695
8.198758 15.735317 0.004561
8.513499 15.735317 0.006232
8.828240 15.735317 0.008059
9.142982 15.735317 0.012250
9.457723 15.735317 0.023758
9.772464 15.735317 0.029460
10.087205 15.735317 0.026789
10.401946 15.735317 0.025037
10.716687 15.735317 0.032361
11.031426 15.735317 0.033328
11.346168 15.735317 0.028261
11.660909 15.735317 0.029438
11.975650 15.735317 0.029602
12.290391 15.735317 0.031875
12.605132 15.735317 0.032615
12.919873 15.735317 0.024041
13.234614 15.735317 0.023353
13.549356 15.735317 0.007869
13.864097 15.735317 -0.003795
14.178838 15.735317 0.003457
14.493579 15.735317 -0.025854
14.808320 15.735317 0.015933
15.123059 15.735317 0.039249
15.437800 15.735317 0.022395
15.752542 15.735317 -0.031480
16.067284 15.735317 0.000000
16.382023 15.735317 0.000000
16.696766 15.735317 0.000000
17.011505 15.735317 0.000000
17.326248 15.735317 0.000000
17.640987 15.735317 0.000000
17.955730 15.735317 0.000000
18.270470 15.735317 0.000000
18.585213 15.735317 0.000000
18.899952 15.735317 0.000000
-7.223550 15.420574 0.000000
-6.908809 15.420574 0.000831
-6.594068 15.420574 0.000572
-6.279327 15.420574 0.000540
-5.964586 15.420574 0.000543
-5.649845 15.420574 0.000432
-5.335104 15.420574 0.000316
-5.020363 15.420574 0.000367
-4.705622 15.420574 0.000450
-4.390881 15.420574 0.000444
-4.076140 15.420574 0.000404
-3.761399 15.420574 0.000404
-3.446658 15.420574 0.000317
-3.131917 15.420574 0.000236
-2.817176 15.420574 0.000253
-2.502435 15.420574 0.000258
-2.187694 15.420574 0.000328
-1.872953 15.420574 0.000361
-1.558212 15.420574 0.000305
-1.243471 15.420574 0.000318
-0.928730 15.420574 0.000326
-0.613989 15.420574 0.000289
-0.299248 15.420574 0.000229
0.015493 15.420574 0.000176
0.330234 15.420574 0.000170
0.644975 15.420574 0.000189
0.959716 15.420574 0.000225
1.274457 15.420574 0.000174
1.589198 15.420574 0.000144
1.903938 15.420574 0.000212
2.218679 15.420574 0.000297
2.533421 15.420574 0.000253
2.848162 15.420574 0.000268
3.162903 15.420574 0.000255
3.477644 15.420574 0.000101
3.792385 15.420574 0.000077
4.107125 15.420574 0.000073
4.421866 15.420574 0.000066
4.736608 15.420574 -0.000041
5.051349 15.420574 -0.000297
5.366090 15.420574 -0.000395
5.680831 15.420574 -0.000221
5.995571 15.420574 -0.000055
6.310312 15.420574 -0.000001
6.625053 15.420574 0.000078
6.939795 15.420574 -0.000301
7.254536 15.420574 -0.000458
7.569277 15.420574 0.001022
7.884017 15.420574 0.002818
8.198758 15.420574 0.003039
8.513499 15.420574 0.006647
8.828240 15.420574 0.009273
9.142982 15.420574 0.016282
9.457723 15.420574 0.025913
9.772464 15.420574 0.030751
10.087205 15.420574 0.031535
10.401946 15.420574 0.027881
10.716687 15.420574 0.036750
11.031426 15.420574 0.037577
11.346168 15.420574 0.025917
11.660909 15.420574 0.029634
11.975650 15.420574 0.021921
12.290391 15.420574 0.014232
12.605132 15.420574 0.026293
12.919873 15.420574 0.032294
13.234614 15.420574 0.010646
13.549356 15.420574 -0.007075
13.864097 15.420574 -0.010776
14.178838 15.420574 -0.008617
14.493579 15.420574 -0.002995
14.808320 15.420574 0.030098
15.123059 15.420574 0.042280
15.437800 15.420574 0.012235
15.752542 15.420574 -0.024074
16.067284 15.420574 0.000000
16.382023 15.420574 0.000000
16.696766 15.420574 0.000000
17.011505 15.420574 0.000000
17.326248 15.420574 0.000000
17.640987 15.420574 0.000000
17.955730 15.420574 0.000000
18.270470 15.420574 0.000000
18.585213 15.420574 0.000000
18.899952 15.420574 0.000000
-7.223550 15.105835 0.000000
-6.908809 15.105835 0.000895
-6.594068 15.105835 0.000592
-6.279327 15.105835 0.000497
-5.964586 15.105835 0.000499
-5.649845 15.105835 0.000444
-5.335104 15.105835 0.000336
-5.020363 15.105835 0.000332
-4.705622 15.105835 0.000423
-4.390881 15.105835 0.000426
-4.076140 15.105835 0.000364
-3.761399 15.105835 0.000360
-3.446658 15.105835 0.000276
-3.131917 15.105835 0.000287
-2.817176 15.105835 0.000293
-2.502435 15.105835 0.000271
-2.187694 15.105835 0.000376
-1.872953 15.105835 0.000415
-1.558212 15.105835 0.000376
-1.243471 15.105835 0.000347
-0.928730 15.105835 0.000296
-0.613989 15.105835 0.000222
-0.299248 15.105835 0.000207
0.015493 15.105835 0.000174
0.330234 15.105835 0.000168
0.644975 15.105835 0.000208
0.959716 15.105835 0.000252
1.274457 15.105835 0.000193
1.589198 15.105835 0.000190
1.903938 15.105835 0.000243
2.218679 15.105835 0.000317
2.533421 15.105835 0.000307
2.848162 15.105835 0.000305
3.162903 15.105835 0.000216
3.477644 15.105835 0.000054
3.792385 15.105835 -0.000005
4.107125 15.105835 -0.000016
4.421866 15.105835 0.000034
4.736608 15.105835 -0.000060
5.051349 15.105835 -0.000274
5.366090 15.105835 -0.000274
5.680831 15.105835 -0.000191
5.995571 15.105835 -0.000090
6.310312 15.105835 -0.000088
6.625053 15.105835 0.000000
6.939795 15.105835 -0.000635
7.254536 15.105835 -0.000538
7.569277 15.105835 0.001390
7.884017 15.105835 0.003429
8.198758 15.105835 0.004948
8.513499 15.105835 0.008143
8.828240 15.105835 0.009360
9.142982 15.105835 0.016314
9.457723 15.105835 0.026213
9.772464 15.105835 0.030294
10.087205 15.105835 0.031563
10.401946 15.105835 0.029257
10.716687 15.105835 0.037944
11.031426 15.105835 0.042390
11.346168 15.105835 0.037464
11.660909 15.105835 0.022630
11.975650 15.105835 0.018499
12.290391 15.105835 0.022972
12.605132 15.105835 0.026917
12.919873 15.105835 0.007207
13.234614 15.105835 0.002423
13.549356 15.105835 -0.006914
13.864097 15.105835 0.008674
14.178838 15.105835 0.021088
14.493579 15.105835 0.014607
14.808320 15.105835 0.014962
15.123059 15.105835 0.013771
15.437800 15.105835 0.026139
15.752542 15.105835 -0.024757
16.067284 15.105835 0.000000
16.382023 15.105835 0.000000
16.696766 15.105835 0.000000
17.011505 15.105835 0.000000
17.326248 15.105835 0.000000
17.640987 15.105835 0.000000
17.955730 15.105835 0.000000
18.270470 15.105835 0.000000
18.585213 15.105835 0.000000
18.899952 15.105835 0.000000
-7.223550 14.791092 0.000000
-6.908809 14.791092 0.000882
-6.594068 14.791092 0.000536
-6.279327 14.791092 0.000445
-5.964586 14.791092 0.000439
-5.649845 14.791092 0.000461
-5.335104 14.791092 0.000382
-5.020363 14.791092 0.000317
-4.705622 14.791092 0.000420
-4.390881 14.791092 0.000453
-4.076140 14.791092 0.000404
-3.761399 14.791092 0.000386
-3.446658 14.791092 0.000335
-3.131917 14.791092 0.000368
-2.817176 14.791092 0.000348
-2.502435 14.791092 0.000293
-2.187694 14.791092 0.000406
-1.872953 14.791092 0.000422
-1.558212 14.791092 0.000409
-1.243471 14.791092 0.000350
-0.928730 14.791092 0.000254
-0.613989 14.791092 0.000197
-0.299248 14.791092 0.000211
0.015493 14.791092 0.000204
0.330234 14.791092 0.000217
0.644975 14.791092 0.000282
0.959716 14.791092 0.000314
1.274457 14.791092 0.000236
1.589198 14.791092 0.000237
1.903938 14.791092 0.000249
2.218679 14.791092 0.000293
2.533421 14.791092 0.000288
2.848162 14.791092 0.000263
3.162903 14.791092 0.000176
3.477644 14.791092 0.000032
3.792385 14.791092 -0.000053
4.107125 14.791092 -0.000050
4.421866 14.791092 0.000022
4.736608 14.791092 -0.000041
5.051349 14.791092 -0.000132
5.366090 14.791092 -0.000147
5.680831 14.791092 -0.000176
5.995571 14.791092 -0.000229
6.310312 14.791092 -0.000157
6.625053 14.791092 -0.000219
6.939795 14.791092 -0.000190
7.254536 14.791092 0.000265
7.569277 14.791092 0.001479
7.884017 14.791092 0.002878
8.198758 14.791092 0.006056
8.513499 14.791092 0.008564
8.828240 14.791092 0.009203
9.142982 14.791092 0.016957
9.457723 14.791092 0.022832
9.772464 14.791092 0.029147
10.087205 14.791092 0.030090
10.401946 14.791092 0.025519
10.716687 14.791092 0.033133
11.031426 14.791092 0.038166
11.346168 14.791092 0.032373
11.660909 14.791092 0.027953
11.975650 14.791092 0.030015
12.290391 14.791092 0.034654
12.605132 14.791092 0.045589
12.919873 14.791092 0.024688
13.234614 14.791092 -0.017290
13.549356 14.791092 -0.020665
13.864097 14.791092 0.004225
14.178838 14.791092 0.007856
14.493579 14.791092 0.029457
14.808320 14.791092 0.025801
15.123059 14.791092 0.031187
15.437800 14.791092 0.032450
15.752542 14.791092 -0.020288
16.067284 14.791092 0.000000
16.382023 14.791092 0.000000
16.696766 14.791092 0.000000
17.011505 14.791092 0.000000
17.326248 14.791092 0.000000
17.640987 14.791092 0.000000
17.955730 14.791092 0.000000
18.270470 14.791092 0.000000
18.585213 14.791092 0.000000
18.899952 14.791092 0.000000
-7.223550 14.476353 0.000000
-6.908809 14.476353 0.000840
-6.594068 14.476353 0.000475
-6.279327 14.476353 0.000416
-5.964586 14.476353 0.000447
-5.649845 14.476353 0.000488
-5.335104 14.476353 0.000410
-5.020363 14.476353 0.000331
-4.705622 14.476353 0.000423
-4.390881 14.476353 0.000479
-4.076140 14.476353 0.000413
-3.761399 14.476353 0.000454
-3.446658 14.476353 0.000428
-3.131917 14.476353 0.000431
-2.817176 14.476353 0.000346
-2.502435 14.476353 0.000288
-2.187694 14.476353 0.000361
-1.872953 14.476353 0.000375
-1.558212 14.476353 0.000367
-1.243471 14.476353 0.000331
-0.928730 14.476353 0.000234
-0.613989 14.476353 0.000218
-0.299248 14.476353 0.000236
0.015493 14.476353 0.000221
0.330234 14.476353 0.000267
0.644975 14.476353 0.000324
0.959716 14.476353 0.000322
1.274457 14.476353 0.000229
1.589198 14.476353 0.000239
1.903938 14.476353 0.000199
2.218679 14.476353 0.000222
2.533421 14.476353 0.000210
2.848162 14.476353 0.000210
3.162903 14.476353 0.000174
3.477644 14.476353 0.000038
3.792385 14.476353 -0.000041
4.107125 14.476353 -0.000020
4.421866 14.476353 0.000035
4.736608 14.476353 0.000038
5.051349 14.476353 -0.000000
5.366090 14.476353 0.000006
5.680831 14.476353 -0.000199
5.995571 14.476353 -0.000293
6.310312 14.476353 -0.000409
6.625053 14.476353 -0.000388
6.939795 14.476353 -0.000077
7.254536 14.476353 0.000850
7.569277 14.476353 0.002071
7.884017 14.476353 0.002556
8.198758 14.476353 0.005942
8.513499 14.476353 0.007322
8.828240 14.476353 0.008008
9.142982 14.476353 0.015142
9.457723 14.476353 0.021816
9.772464 14.476353 0.028177
10.087205 14.476353 0.026780
10.401946 14.476353 0.029860
10.716687 14.476353 0.024676
11.031426 14.476353 0.024243
11.346168 14.476353 0.026418
11.660909 14.476353 0.023495
11.975650 14.476353 0.028973
12.290391 14.476353 0.038685
12.605132 14.476353 0.041051
12.919873 14.476353 0.026527
13.234614 14.476353 -0.009159
13.549356 14.476353 -0.010826
13.864097 14.476353 -0.000859
14.178838 14.476353 0.007829
14.493579 14.476353 0.015510
14.808320 14.476353 0.020939
15.123059 14.476353 0.037005
15.437800 14.476353 0.027085
15.752542 14.476353 -0.030757
16.067284 14.476353 0.000000
16.382023 14.476353 0.000000
16.696766 14.476353 0.000000
17.011505 14.476353 0.000000
17.326248 14.476353 0.000000
17.640987 14.476353 0.000000
17.955730 14.476353 0.000000
18.270470 14.476353 0.000000
18.585213 14.476353 0.000000
18.899952 14.476353 0.000000
-7.223550 14.161610 0.000000
-6.908809 14.161610 0.000850
-6.594068 14.161610 0.000454
-6.279327 14.161610 0.000430
-5.964586 14.161610 0.000477
-5.649845 14.161610 0.000482
-5.335104 14.161610 0.000425
-5.020363 14.161610 0.000388
-4.705622 14.161610 0.000436
-4.390881 14.161610 0.000439
-4.076140 14.161610 0.000370
-3.761399 14.161610 0.000463
-3.446658 14.161610 0.000469
-3.131917 14.161610 0.000410
-2.817176 14.161610 0.000339
-2.502435 14.161610 0.000272
-2.187694 14.161610 0.000305
-1.872953 14.161610 0.000305
-1.558212 14.161610 0.000312
-1.243471 14.161610 0.000307
-0.928730 14.161610 0.000260
-0.613989 14.161610 0.000275
-0.299248 14.161610 0.000269
0.015493 14.161610 0.000258
0.330234 14.161610 0.000298
0.644975 14.161610 0.000326
0.959716 14.161610 0.000290
1.274457 14.161610 0.000207
1.589198 14.161610 0.000194
1.903938 14.161610 0.000133
2.218679 14.161610 0.000131
2.533421 14.161610 0.000130
2.848162 14.161610 0.000222
3.162903 14.161610 0.000248
3.477644 14.161610 0.000102
3.792385 14.161610 0.000034
4.107125 14.161610 0.000058
4.421866 14.161610 0.000091
4.736608 14.161610 0.000066
5.051349 14.161610 0.000115
5.366090 14.161610 0.000096
5.680831 14.161610 -0.000113
5.995571 14.161610 -0.000315
6.310312 14.161610 -0.000427
6.625053 14.161610 -0.000568
6.939795 14.161610 -0.000353
7.254536 14.161610 0.000942
7.569277 14.161610 0.001937
7.884017 14.161610 0.001892
8.198758 14.161610 0.004379
8.513499 14.161610 0.004999
8.828240 14.161610 0.008449
9.142982 14.161610 0.013247
9.457723 14.161610 0.021044
9.772464 14.161610 0.027762
10.087205 14.161610 0.034636
10.401946 14.161610 0.034864
10.716687 14.161610 0.026722
11.031426 14.161610 0.024801
11.346168 14.161610 0.019140
11.660909 14.161610 0.015387
11.975650 14.161610 0.016107
12.290391 14.161610 0.035002
12.605132 14.161610 0.028379
12.919873 14.161610 0.032143
13.234614 14.161610 0.011159
13.549356 14.161610 0.003982
13.864097 14.161610 0.016712
14.178838 14.161610 -0.003389
14.493579 14.161610 0.002496
14.808320 14.161610 0.007734
15.123059 14.161610 0.011445
15.437800 14.161610 0.033373
15.752542 14.161610 -0.046027
16.067284 14.161610 0.000000
16.382023 14.161610 0.000000
16.696766 14.161610 0.000000
17.011505 14.161610 0.000000
17.326248 14.161610 0.000000
17.640987 14.161610 0.000000
17.955730 14.161610 0.000000
18.270470 14.161610 0.000000
18.585213 14.161610 0.000000
18.899952 14.161610 0.000000
-7.223550 13.846870 0.000000
-6.908809 13.846870 0.000820
-6.594068 13.846870 0.000473
-6.279327 13.846870 0.000475
-5.964586 13.846870 0.000491
-5.649845 13.846870 0.000437
-5.335104 13.846870 0.000413
-5.020363 13.846870 0.000428
-4.705622 13.846870 0.000406
-4.390881 13.846870 0.000340
-4.076140 13.846870 0.000322
-3.761399 13.846870 0.000440
-3.446658 13.846870 0.000426
-3.131917 13.846870 0.000344
-2.817176 13.846870 0.000325
-2.502435 13.846870 0.000277
-2.187694 13.846870 0.000278
-1.872953 13.846870 0.000275
-1.558212 13.846870 0.000301
-1.243471 13.846870 0.000294
-0.928730 13.846870 0.000288
-0.613989 13.846870 0.000318
-0.299248 13.846870 0.000285
0.015493 13.846870 0.000289
0.330234 13.846870 0.000305
0.644975 13.846870 0.000293
0.959716 13.846870 0.000258
1.274457 13.846870 0.000216
1.589198 13.846870 0.000170
1.903938 13.846870 0.000084
2.218679 13.846870 0.000074
2.533421 13.846870 0.000070
2.848162 13.846870 0.000233
3.162903 13.846870 0.000327
3.477644 13.846870 0.000189
3.792385 13.846870 0.000134
4.107125 13.846870 0.000168
4.421866 13.846870 0.000175
4.736608 13.846870 0.000140
5.051349 13.846870 0.000211
5.366090 13.846870 0.000214
5.680831 13.846870 -0.000084
5.995571 13.846870 -0.000251
6.310312 13.846870 -0.000564
6.625053 13.846870 -0.000900
6.939795 13.846870 -0.000285
7.254536 13.846870 0.000306
7.569277 13.846870 0.001713
7.884017 13.846870 0.002789
8.198758 13.846870 0.002930
8.513499 13.846870 0.006395
8.828240 13.846870 0.012215
9.142982 13.846870 0.017257
9.457723 13.846870 0.026804
9.772464 13.846870 0.032729
10.087205 13.846870 0.038901
10.401946 13.846870 0.035806
10.716687 13.846870 0.026933
11.031426 13.846870 0.021739
11.346168 13.846870 0.024617
11.660909 13.846870 0.022659
11.975650 13.846870 0.016670
12.290391 13.846870 0.022947
12.605132 13.846870 0.021530
12.919873 13.846870 0.022994
13.234614 13.846870 0.011696
13.549356 13.846870 0.000621
13.864097 13.846870 -0.013264
14.178838 13.846870 -0.010163
14.493579 13.846870 -0.000172
14.808320 13.846870 -0.003141
15.123059 13.846870 0.012371
15.437800 13.846870 0.030952
15.752542 13.846870 -0.052524
16.067284 13.846870 0.000000
16.382023 13.846870 0.000000
16.696766 13.846870 0.000000
17.011505 13.846870 0.000000
17.326248 13.846870 0.000000
17.640987 13.846870 0.000000
17.955730 13.846870 0.000000
18.270470 13.846870 0.000000
18.585213 13.846870 0.000000
18.899952 13.846870 0.000000
-7.223550 13.532127 0.000000
-6.908809 13.532127 0.000781
-6.594068 13.532127 0.000530
-6.279327 13.532127 0.000517
-5.964586 13.532127 0.000460
-5.649845 13.532127 0.000367
-5.335104 13.532127 0.000399
-5.020363 13.532127 0.000444
-4.705622 13.532127 0.000367
-4.390881 13.532127 0.000289
-4.076140 13.532127 0.000321
-3.761399 13.532127 0.000437
-3.446658 13.532127 0.000375
-3.131917 13.532127 0.000299
-2.817176 13.532127 0.000329
-2.502435 13.532127 0.000324
-2.187694 13.532127 0.000304
-1.872953 13.532127 0.000277
-1.558212 13.532127 0.000316
-1.243471 13.532127 0.000310
-0.928730 13.532127 0.000332
-0.613989 13.532127 0.000352
-0.299248 13.532127 0.000291
0.015493 13.532127 0.000293
0.330234 13.532127 0.000290
0.644975 13.532127 0.000276
0.959716 13.532127 0.000271
1.274457 13.532127 0.000271
1.589198 13.532127 0.000193
1.903938 13.532127 0.000109
2.218679 13.532127 0.000050
2.533421 13.532127 0.000049
2.848162 13.532127 0.000245
3.162903 13.532127 0.000344
3.477644 13.532127 0.000249
3.792385 13.532127 0.000205
4.107125 13.532127 0.000240
4.421866 13.532127 0.000234
4.736608 13.532127 0.000192
5.051349 13.532127 0.000248
5.366090 13.532127 0.000224
5.680831 13.532127 0.000011
5.995571 13.532127 -0.000202
6.310312 13.532127 -0.000499
6.625053 13.532127 -0.000765
6.939795 13.532127 -0.000411
7.254536 13.532127 0.000496
7.569277 13.532127 0.002389
7.884017 13.532127 0.004039
8.198758 13.532127 0.004978
8.513499 13.532127 0.006822
8.828240 13.532127 0.011722
9.142982 13.532127 0.019383
9.457723 13.532127 0.025940
9.772464 13.532127 0.032039
10.087205 13.532127 0.038410
10.401946 13.532127 0.030970
10.716687 13.532127 0.023254
11.031426 13.532127 0.019507
11.346168 13.532127 0.026305
11.660909 13.532127 0.027155
11.975650 13.532127 0.015903
12.290391 13.532127 0.023498
12.605132 13.532127 0.019184
12.919873 13.532127 0.025100
13.234614 13.532127 0.007189
13.549356 13.532127 -0.004537
13.864097 13.532127 -0.024598
14.178838 13.532127 -0.004055
14.493579 13.532127 0.019910
14.808320 13.532127 0.012607
15.123059 13.532127 -0.001554
15.437800 13.532127 0.035651
15.752542 13.532127 -0.043002
16.067284 13.532127 0.000000
16.382023 13.532127 0.000000
16.696766 13.532127 0.000000
17.011505 13.532127 0.000000
17.326248 13.532127 0.000000
17.640987 13.532127 0.000000
17.955730 13.532127 0.000000
18.270470 13.532127 0.000000
18.585213 13.532127 0.000000
18.899952 13.532127 0.000000
-7.223550 13.217388 0.000000
-6.908809 13.217388 0.000770
-6.594068 13.217388 0.000571
-6.279327 13.217388 0.000536
-5.964586 13.217388 0.000426
-5.649845 13.217388 0.000333
-5.335104 13.217388 0.000381
-5.020363 13.217388 0.000431
-4.705622 13.217388 0.000367
-4.390881 13.217388 0.000315
-4.076140 13.217388 0.000372
-3.761399 13.217388 0.000455
-3.446658 13.217388 0.000371
-3.131917 13.217388 0.000320
-2.817176 13.217388 0.000337
-2.502435 13.217388 0.000351
-2.187694 13.217388 0.000337
-1.872953 13.217388 0.000291
-1.558212 13.217388 0.000341
-1.243471 13.217388 0.000372
-0.928730 13.217388 0.000352
-0.613989 13.217388 0.000354
-0.299248 13.217388 0.000286
0.015493 13.217388 0.000298
0.330234 13.217388 0.000308
0.644975 13.217388 0.000317
0.959716 13.217388 0.000358
1.274457 13.217388 0.000353
1.589198 13.217388 0.000261
1.903938 13.217388 0.000184
2.218679 13.217388 0.000065
2.533421 13.217388 0.000026
2.848162 13.217388 0.000234
3.162903 13.217388 0.000324
3.477644 13.217388 0.000269
3.792385 13.217388 0.000258
4.107125 13.217388 0.000260
4.421866 13.217388 0.000294
4.736608 13.217388 0.000281
5.051349 13.217388 0.000288
5.366090 13.217388 0.000212
5.680831 13.217388 -0.000029
5.995571 13.217388 -0.000156
6.310312 13.217388 -0.000473
6.625053 13.217388 -0.000685
6.939795 13.217388 -0.000455
7.254536 13.217388 0.000338
7.569277 13.217388 0.002612
7.884017 13.217388 0.005010
8.198758 13.217388 0.006260
8.513499 13.217388 0.007442
8.828240 13.217388 0.012938
9.142982 13.217388 0.018212
9.457723 13.217388 0.025594
9.772464 13.217388 0.032923
10.087205 13.217388 0.037100
10.401946 13.217388 0.025295
10.716687 13.217388 0.017010
11.031426 13.217388 0.016503
11.346168 13.217388 0.029644
11.660909 13.217388 0.036281
11.975650 13.217388 0.032324
12.290391 13.217388 0.027982
12.605132 13.217388 0.025156
12.919873 13.217388 0.033503
13.234614 13.217388 0.021018
13.549356 13.217388 0.012882
13.864097 13.217388 -0.008825
14.178838 13.217388 -0.012422
14.493579 13.217388 0.019190
14.808320 13.217388 0.014669
15.123059 13.217388 0.021433
15.437800 13.217388 0.032513
15.752542 13.217388 -0.042249
16.067284 13.217388 0.000000
16.382023 13.217388 0.000000
16.696766 13.217388 0.000000
17.011505 13.217388 0.000000
17.326248 13.217388 0.000000
17.640987 13.217388 0.000000
17.955730 13.217388 0.000000
18.270470 13.217388 0.000000
18.585213 13.217388 0.000000
18.899952 13.217388 0.000000
-7.223550 12.902649 0.000000
-6.908809 12.902649 0.000774
-6.594068 12.902649 0.000556
-6.279327 12.902649 0.000510
-5.964586 12.902649 0.000405
-5.649845 12.902649 0.000360
-5.335104 12.902649 0.000406
-5.020363 12.902649 0.000455
-4.705622 12.902649 0.000440
-4.390881 12.902649 0.000422
-4.076140 12.902649 0.000453
-3.761399 12.902649 0.000481
-3.446658 12.902649 0.000393
-3.131917 12.902649 0.000371
-2.817176 12.902649 0.000354
-2.502435 12.902649 0.000346
-2.187694 12.902649 0.000343
-1.872953 12.902649 0.000311
-1.558212 12.902649 0.000379
-1.243471 12.902649 0.000430
-0.928730 12.902649 0.000366
-0.613989 12.902649 0.000332
-0.299248 12.902649 0.000276
0.015493 12.902649 0.000327
0.330234 12.902649 0.000353
0.644975 12.902649 0.000391
0.959716 12.902649 0.000440
1.274457 12.902649 0.000426
1.589198 12.902649 0.000339
1.903938 12.902649 0.000267
2.218679 12.902649 0.000111
2.533421 12.902649 0.000030
2.848162 12.902649 0.000186
3.162903 12.902649 0.000283
3.477644 12.902649 0.000259
3.792385 12.902649 0.000257
4.107125 12.902649 0.000253
4.421866 12.902649 0.000314
4.736608 12.902649 0.000369
5.051349 12.902649 0.000287
5.366090 12.902649 0.000095
5.680831 12.902649 -0.000063
5.995571 12.902649 -0.000268
6.310312 12.902649 -0.000422
6.625053 12.902649 -0.000381
6.939795 12.902649 0.000086
7.254536 12.902649 0.000357
7.569277 12.902649 0.002370
7.884017 12.902649 0.003914
8.198758 12.902649 0.007012
8.513499 12.902649 0.009398
8.828240 12.902649 0.013000
9.142982 12.902649 0.020745
9.457723 12.902649 0.023817
9.772464 12.902649 0.029149
10.087205 12.902649 0.029569
10.401946 12.902649 0.026343
10.716687 12.902649 0.018805
11.031426 12.902649 0.021374
11.346168 12.902649 0.030009
11.660909 12.902649 0.037530
11.975650 12.902649 0.032923
12.290391 12.902649 0.045182
12.605132 12.902649 0.041406
12.919873 12.902649 0.033930
13.234614 12.902649 0.029357
13.549356 12.902649 -0.001031
13.864097 12.902649 -0.005665
14.178838 12.902649 -0.015658
14.493579 12.902649 0.004409
14.808320 12.902649 0.029985
15.123059 12.902649 -0.014678
15.437800 12.902649 -0.010518
15.752542 12.902649 0.003883
16.067284 12.902649 0.000000
16.382023 12.902649 0.000000
16.696766 12.902649 0.000000
17.011505 12.902649 0.000000
17.326248 12.902649 0.000000
17.640987 12.902649 0.000000
17.955730 12.902649 0.000000
18.270470 12.902649 0.000000
18.585213 12.902649 0.000000
18.899952 12.902649 0.000000
-7.223550 12.587906 0.000000
-6.908809 12.587906 0.000763
-6.594068 12.587906 0.000533
-6.279327 12.587906 0.000471
-5.964586 12.587906 0.000383
-5.649845 12.587906 0.000393
-5.335104 12.587906 0.000425
-5.020363 12.587906 0.000479
-4.705622 12.587906 0.000521
-4.390881 12.587906 0.000517
-4.076140 12.587906 0.000511
-3.761399 12.587906 0.000523
-3.446658 12.587906 0.000432
-3.131917 12.587906 0.000389
-2.817176 12.587906 0.000304
-2.502435 12.587906 0.000288
-2.187694 12.587906 0.000321
-1.872953 12.587906 0.000345
-1.558212 12.587906 0.000420
-1.243471 12.587906 0.000475
-0.928730 12.587906 0.000395
-0.613989 12.587906 0.000332
-0.299248 12.587906 0.000296
0.015493 12.587906 0.000354
0.330234 12.587906 0.000386
0.644975 12.587906 0.000434
0.959716 12.587906 0.000452
1.274457 12.587906 0.000433
1.589198 12.587906 0.000365
1.903938 12.587906 0.000293
2.218679 12.587906 0.000156
2.533421 12.587906 0.000051
2.848162 12.587906 0.000151
3.162903 12.587906 0.000224
3.477644 12.587906 0.000229
3.792385 12.587906 0.000229
4.107125 12.587906 0.000215
4.421866 12.587906 0.000321
4.736608 12.587906 0.000360
5.051349 12.587906 0.000211
5.366090 12.587906 0.000101
5.680831 12.587906 0.000037
5.995571 12.587906 -0.000327
6.310312 12.587906 -0.000341
6.625053 12.587906 -0.000263
6.939795 12.587906 -0.000117
7.254536 12.587906 0.000257
7.569277 12.587906 0.002178
7.884017 12.587906 0.002655
8.198758 12.587906 0.006992
8.513499 12.587906 0.009462
8.828240 12.587906 0.014841
9.142982 12.587906 0.020904
9.457723 12.587906 0.024174
9.772464 12.587906 0.029568
10.087205 12.587906 0.030147
10.401946 12.587906 0.029125
10.716687 12.587906 0.019263
11.031426 12.587906 0.017228
11.346168 12.587906 0.040855
11.660909 12.587906 0.032632
11.975650 12.587906 0.027919
12.290391 12.587906 0.039371
12.605132 12.587906 0.027807
12.919873 12.587906 0.029394
13.234614 12.587906 0.015280
13.549356 12.587906 0.008538
13.864097 12.587906 -0.002534
14.178838 12.587906 -0.003643
14.493579 12.587906 0.012711
14.808320 12.587906 0.003311
15.123059 12.587906 0.003050
15.437800 12.587906 -0.003131
15.752542 12.587906 0.008638
16.067284 12.587906 0.000000
16.382023 12.587906 0.000000
16.696766 12.587906 0.000000
17.011505 12.587906 0.000000
17.326248 12.587906 0.000000
17.640987 12.587906 0.000000
17.955730 12.587906 0.000000
18.270470 12.587906 0.000000
18.585213 12.587906 0.000000
18.899952 12.587906 0.000000
-7.223550 12.273167 0.000000
-6.908809 12.273167 0.000748
-6.594068 12.273167 0.000504
-6.279327 12.273167 0.000474
-5.964586 12.273167 0.000390
-5.649845 12.273167 0.000417
-5.335104 12.273167 0.000429
-5.020363 12.273167 0.000463
-4.705622 12.273167 0.000524
-4.390881 12.273167 0.000522
-4.076140 12.273167 0.000497
-3.761399 12.273167 0.000522
-3.446658 12.273167 0.000447
-3.131917 12.273167 0.000351
-2.817176 12.273167 0.000251
-2.502435 12.273167 0.000231
-2.187694 12.273167 0.000323
-1.872953 12.273167 0.000381
-1.558212 12.273167 0.000425
-1.243471 12.273167 0.000491
-0.928730 12.273167 0.000425
-0.613989 12.273167 0.000345
-0.299248 12.273167 0.000302
0.015493 12.273167 0.000341
0.330234 12.273167 0.000368
0.644975 12.273167 0.000402
0.959716 12.273167 0.000392
1.274457 12.273167 0.000365
1.589198 12.273167 0.000326
1.903938 12.273167 0.000280
2.218679 12.273167 0.000184
2.533421 12.273167 0.000104
2.848162 12.273167 0.000138
3.162903 12.273167 0.000169
3.477644 12.273167 0.000204
3.792385 12.273167 0.000252
4.107125 12.273167 0.000213
4.421866 12.273167 0.000300
4.736608 12.273167 0.000285
5.051349 12.273167 0.000112
5.366090 12.273167 0.000105
5.680831 12.273167 0.000102
5.995571 12.273167 -0.000214
6.310312 12.273167 -0.000422
6.625053 12.273167 -0.000264
6.939795 12.273167 -0.000401
7.254536 12.273167 0.000073
7.569277 12.273167 0.001274
7.884017 12.273167 0.002787
8.198758 12.273167 0.005766
8.513499 12.273167 0.008325
8.828240 12.273167 0.016378
9.142982 12.273167 0.022711
9.457723 12.273167 0.024631
9.772464 12.273167 0.024975
10.087205 12.273167 0.025373
10.401946 12.273167 0.031600
10.716687 12.273167 0.022344
11.031426 12.273167 0.020583
11.346168 12.273167 0.034619
11.660909 12.273167 0.032315
11.975650 12.273167 0.026640
12.290391 12.273167 0.032090
12.605132 12.273167 0.033484
12.919873 12.273167 0.016083
13.234614 12.273167 0.012651
13.549356 12.273167 0.012257
13.864097 12.273167 0.006989
14.178838 12.273167 0.000965
14.493579 12.273167 0.006503
14.808320 12.273167 0.032980
15.123059 12.273167 0.028759
15.437800 12.273167 -0.001419
15.752542 12.273167 0.004427
16.067284 12.273167 0.000000
16.382023 12.273167 0.000000
16.696766 12.273167 0.000000
17.011505 12.273167 0.000000
17.326248 12.273167 0.000000
17.640987 12.273167 0.000000
17.955730 12.273167 0.000000
18.270470 12.273167 0.000000
18.585213 12.273167 0.000000
18.899952 12.273167 0.000000
-7.223550 11.958424 0.000000
-6.908809 11.958424 0.000699
-6.594068 11.958424 0.000477
-6.279327 11.958424 0.000475
-5.964586 11.958424 0.000413
-5.649845 11.958424 0.000396
-5.335104 11.958424 0.000404
-5.020363 11.958424 0.000394
-4.705622 11.958424 0.000458
-4.390881 11.958424 0.000446
-4.076140 11.958424 0.000424
-3.761399 11.958424 0.000490
-3.446658 11.958424 0.000440
-3.131917 11.958424 0.000312
-2.817176 11.958424 0.000205
-2.502435 11.958424 0.000189
-2.187694 11.958424 0.000335
-1.872953 11.958424 0.000393
-1.558212 11.958424 0.000389
-1.243471 11.958424 0.000453
-0.928730 11.958424 0.000436
-0.613989 11.958424 0.000354
-0.299248 11.958424 0.000298
0.015493 11.958424 0.000314
0.330234 11.958424 0.000311
0.644975 11.958424 0.000329
0.959716 11.958424 0.000308
1.274457 11.958424 0.000285
1.589198 11.958424 0.000298
1.903938 11.958424 0.000275
2.218679 11.958424 0.000243
2.533421 11.958424 0.000192
2.848162 11.958424 0.000174
3.162903 11.958424 0.000133
3.477644 11.958424 0.000217
3.792385 11.958424 0.000250
4.107125 11.958424 0.000218
4.421866 11.958424 0.000266
4.736608 11.958424 0.000168
5.051349 11.958424 -0.000042
5.366090 11.958424 0.000023
5.680831 11.958424 0.000023
5.995571 11.958424 -0.000179
6.310312 11.958424 -0.000276
6.625053 11.958424 -0.000086
6.939795 11.958424 -0.000724
7.254536 11.958424 0.000477
7.569277 11.958424 0.001419
7.884017 11.958424 0.003527
8.198758 11.958424 0.004863
8.513499 11.958424 0.010062
8.828240 11.958424 0.016384
9.142982 11.958424 0.023438
9.457723 11.958424 0.025902
9.772464 11.958424 0.023350
10.087205 11.958424 0.027634
10.401946 11.958424 0.036412
10.716687 11.958424 0.028069
11.031426 11.958424 0.033353
11.346168 11.958424 0.038852
11.660909 11.958424 0.040642
11.975650 11.958424 0.038332
12.290391 11.958424 0.028081
12.605132 11.958424 0.028776
12.919873 11.958424 0.025676
13.234614 11.958424 0.014632
13.549356 11.958424 -0.001364
13.864097 11.958424 -0.003921
14.178838 11.958424 0.009732
14.493579 11.958424 0.019138
14.808320 11.958424 0.038686
15.123059 11.958424 0.047791
15.437800 11.958424 0.034870
15.752542 11.958424 -0.031440
16.067284 11.958424 0.000000
16.382023 11.958424 0.000000
16.696766 11.958424 0.000000
17.011505 11.958424 0.000000
17.326248 11.958424 0.000000
17.640987 11.958424 0.000000
17.955730 11.958424 0.000000
18.270470 11.958424 0.000000
18.585213 11.958424 0.000000
18.899952 11.958424 0.000000
-7.223550 11.643684 0.000000
-6.908809 11.643684 0.000656
-6.594068 11.643684 0.000449
-6.279327 11.643684 0.000479
-5.964586 11.643684 0.000418
-5.649845 11.643684 0.000345
-5.335104 11.643684 0.000341
-5.020363 11.643684 0.000345
-4.705622 11.643684 0.000402
-4.390881 11.643684 0.000366
-4.076140 11.643684 0.000363
-3.761399 11.643684 0.000447
-3.446658 11.643684 0.000424
-3.131917 11.643684 0.000295
-2.817176 11.643684 0.000171
-2.502435 11.643684 0.000190
-2.187694 11.643684 0.000346
-1.872953 11.643684 0.000362
-1.558212 11.643684 0.000341
-1.243471 11.643684 0.000389
-0.928730 11.643684 0.000400
-0.613989 11.643684 0.000332
-0.299248 11.643684 0.000275
0.015493 11.643684 0.000245
0.330234 11.643684 0.000238
0.644975 11.643684 0.000242
0.959716 11.643684 0.000253
1.274457 11.643684 0.000260
1.589198 11.643684 0.000304
1.903938 11.643684 0.000299
2.218679 11.643684 0.000293
2.533421 11.643684 0.000266
2.848162 11.643684 0.000206
3.162903 11.643684 0.000170
3.477644 11.643684 0.000222
3.792385 11.643684 0.000200
4.107125 11.643684 0.000187
4.421866 11.643684 0.000227
4.736608 11.643684 0.000068
5.051349 11.643684 -0.000103
5.366090 11.643684 -0.000085
5.680831 11.643684 -0.000139
5.995571 11.643684 -0.000205
6.310312 11.643684 -0.000088
6.625053 11.643684 -0.000491
6.939795 11.643684 -0.000586
7.254536 11.643684 0.000292
7.569277 11.643684 0.001386
7.884017 11.643684 0.002191
8.198758 11.643684 0.003160
8.513499 11.643684 0.008979
8.828240 11.643684 0.014172
9.142982 11.643684 0.021384
9.457723 11.643684 0.022168
9.772464 11.643684 0.027333
10.087205 11.643684 0.035678
10.401946 11.643684 0.039957
10.716687 11.643684 0.044519
11.031426 11.643684 0.037634
11.346168 11.643684 0.043926
11.660909 11.643684 0.034758
11.975650 11.643684 0.025654
12.290391 11.643684 0.026669
12.605132 11.643684 0.034126
12.919873 11.643684 0.030676
13.234614 11.643684 0.035824
13.549356 11.643684 0.018667
13.864097 11.643684 -0.009561
14.178838 11.643684 0.001192
14.493579 11.643684 0.030044
14.808320 11.643684 0.033496
15.123059 11.643684 0.033771
15.437800 11.643684 0.031279
15.752542 11.643684 -0.014101
16.067284 11.643684 0.000000
16.382023 11.643684 0.000000
16.696766 11.643684 0.000000
17.011505 11.643684 0.000000
17.326248 11.643684 0.000000
17.640987 11.643684 0.000000
17.955730 11.643684 0.000000
18.270470 11.643684 0.000000
18.585213 11.643684 0.000000
18.899952 11.643684 0.000000
-7.223550 11.328941 0.000000
-6.908809 11.328941 0.000627
-6.594068 11.328941 0.000423
-6.279327 11.328941 0.000454
-5.964586 11.328941 0.000424
-5.649845 11.328941 0.000328
-5.335104 11.328941 0.000313
-5.020363 11.328941 0.000351
-4.705622 11.328941 0.000395
-4.390881 11.328941 0.000345
-4.076140 11.328941 0.000348
-3.761399 11.328941 0.000421
-3.446658 11.328941 0.000412
-3.131917 11.328941 0.000273
-2.817176 11.328941 0.000154
-2.502435 11.328941 0.000219
-2.187694 11.328941 0.000347
-1.872953 11.328941 0.000367
-1.558212 11.328941 0.000308
-1.243471 11.328941 0.000323
-0.928730 11.328941 0.000334
-0.613989 11.328941 0.000293
-0.299248 11.328941 0.000249
0.015493 11.328941 0.000203
0.330234 11.328941 0.000167
0.644975 11.328941 0.000200
0.959716 11.328941 0.000247
1.274457 11.328941 0.000266
1.589198 11.328941 0.000320
1.903938 11.328941 0.000345
2.218679 11.328941 0.000359
2.533421 11.328941 0.000303
2.848162 11.328941 0.000211
3.162903 11.328941 0.000191
3.477644 11.328941 0.000219
3.792385 11.328941 0.000142
4.107125 11.328941 0.000122
4.421866 11.328941 0.000173
4.736608 11.328941 0.000047
5.051349 11.328941 -0.000077
5.366090 11.328941 -0.000106
5.680831 11.328941 -0.000166
5.995571 11.328941 -0.000107
6.310312 11.328941 -0.000130
6.625053 11.328941 -0.000617
6.939795 11.328941 -0.000448
7.254536 11.328941 0.000525
7.569277 11.328941 0.001540
7.884017 11.328941 0.001198
8.198758 11.328941 0.002002
8.513499 11.328941 0.008991
8.828240 11.328941 0.016183
9.142982 11.328941 0.020155
9.457723 11.328941 0.023502
9.772464 11.328941 0.028520
10.087205 11.328941 0.033070
10.401946 11.328941 0.040327
10.716687 11.328941 0.051528
11.031426 11.328941 0.052128
11.346168 11.328941 0.051334
11.660909 11.328941 0.039645
11.975650 11.328941 0.019591
12.290391 11.328941 0.022801
12.605132 11.328941 0.027964
12.919873 11.328941 0.024272
13.234614 11.328941 0.002822
13.549356 11.328941 -0.005025
13.864097 11.328941 0.001186
14.178838 11.328941 0.020668
14.493579 11.328941 0.042327
14.808320 11.328941 0.046830
15.123059 11.328941 0.058941
15.437800 11.328941 0.026918
15.752542 11.328941 0.016142
16.067284 11.328941 0.000000
16.382023 11.328941 0.000000
16.696766 11.328941 0.000000
17.011505 11.328941 0.000000
17.326248 11.328941 0.000000
17.640987 11.328941 0.000000
17.955730 11.328941 0.000000
18.270470 11.328941 0.000000
18.585213 11.328941 0.000000
18.899952 11.328941 0.000000
-7.223550 11.014202 0.000000
-6.908809 11.014202 0.000613
-6.594068 11.014202 0.000414
-6.279327 11.014202 0.000433
-5.964586 11.014202 0.000458
-5.649845 11.014202 0.000356
-5.335104 11.014202 0.000342
-5.020363 11.014202 0.000401
-4.705622 11.014202 0.000423
-4.390881 11.014202 0.000366
-4.076140 11.014202 0.000354
-3.761399 11.014202 0.000395
-3.446658 11.014202 0.000404
-3.131917 11.014202 0.000269
-2.817176 11.014202 0.000165
-2.502435 11.014202 0.000248
-2.187694 11.014202 0.000376
-1.872953 11.014202 0.000365
-1.558212 11.014202 0.000290
-1.243471 11.014202 0.000290
-0.928730 11.014202 0.000299
-0.613989 11.014202 0.000277
-0.299248 11.014202 0.000252
0.015493 11.014202 0.000211
0.330234 11.014202 0.000147
0.644975 11.014202 0.000216
0.959716 11.014202 0.000281
1.274457 11.014202 0.000289
1.589198 11.014202 0.000326
1.903938 11.014202 0.000377
2.218679 11.014202 0.000410
2.533421 11.014202 0.000319
2.848162 11.014202 0.000238
3.162903 11.014202 0.000232
3.477644 11.014202 0.000246
3.792385 11.014202 0.000159
4.107125 11.014202 0.000113
4.421866 11.014202 0.000148
4.736608 11.014202 0.000031
5.051349 11.014202 -0.000036
5.366090 11.014202 -0.000063
5.680831 11.014202 -0.000137
5.995571 11.014202 -0.000178
6.310312 11.014202 -0.000162
6.625053 11.014202 -0.000410
6.939795 11.014202 -0.000159
7.254536 11.014202 0.000625
7.569277 11.014202 0.001714
7.884017 11.014202 0.003076
8.198758 11.014202 0.005171
8.513499 11.014202 0.008620
8.828240 11.014202 0.011807
9.142982 11.014202 0.018685
9.457723 11.014202 0.021953
9.772464 11.014202 0.024393
10.087205 11.014202 0.026265
10.401946 11.014202 0.035923
10.716687 11.014202 0.048000
11.031426 11.014202 0.053498
11.346168 11.014202 0.049115
11.660909 11.014202 0.035575
11.975650 11.014202 0.030413
12.290391 11.014202 0.033637
12.605132 11.014202 0.042096
12.919873 11.014202 0.023000
13.234614 11.014202 -0.004525
13.549356 11.014202 -0.016803
13.864097 11.014202 -0.005225
14.178838 11.014202 0.026342
14.493579 11.014202 0.048479
14.808320 11.014202 0.047002
15.123059 11.014202 0.045769
15.437800 11.014202 0.033334
15.752542 11.014202 0.015469
16.067284 11.014202 0.000000
16.382023 11.014202 0.000000
16.696766 11.014202 0.000000
17.011505 11.014202 0.000000
17.326248 11.014202 0.000000
17.640987 11.014202 0.000000
17.955730 11.014202 0.000000
18.270470 11.014202 0.000000
18.585213 11.014202 0.000000
18.899952 11.014202 0.000000
-7.223550 10.699459 0.000000
-6.908809 10.699459 0.000614
-6.594068 10.699459 0.000451
-6.279327 10.699459 0.000484
-5.964586 10.699459 0.000525
-5.649845 10.699459 0.000426
-5.335104 10.699459 0.000380
-5.020363 10.699459 0.000429
-4.705622 10.699459 0.000467
-4.390881 10.699459 0.000415
-4.076140 10.699459 0.000396
-3.761399 10.699459 0.000392
-3.446658 10.699459 0.000389
-3.131917 10.699459 0.000285
-2.817176 10.699459 0.000170
-2.502435 10.699459 0.000257
-2.187694 10.699459 0.000405
-1.872953 10.699459 0.000398
-1.558212 10.699459 0.000296
-1.243471 10.699459 0.000289
-0.928730 10.699459 0.000288
-0.613989 10.699459 0.000256
-0.299248 10.699459 0.000269
0.015493 10.699459 0.000240
0.330234 10.699459 0.000178
0.644975 10.699459 0.000231
0.959716 10.699459 0.000309
1.274457 10.699459 0.000328
1.589198 10.699459 0.000316
1.903938 10.699459 0.000356
2.218679 10.699459 0.000392
2.533421 10.699459 0.000329
2.848162 10.699459 0.000286
3.162903 10.699459 0.000239
3.477644 10.699459 0.000228
3.792385 10.699459 0.000195
4.107125 10.699459 0.000133
4.421866 10.699459 0.000128
4.736608 10.699459 0.000075
5.051349 10.699459 0.000040
5.366090 10.699459 -0.000072
5.680831 10.699459 -0.000158
5.995571 10.699459 -0.000304
6.310312 10.699459 -0.000522
6.625053 10.699459 -0.000471
6.939795 10.699459 -0.000232
7.254536 10.699459 0.000757
7.569277 10.699459 0.001671
7.884017 10.699459 0.003346
8.198758 10.699459 0.006661
8.513499 10.699459 0.008174
8.828240 10.699459 0.013769
9.142982 10.699459 0.016223
9.457723 10.699459 0.019727
9.772464 10.699459 0.023239
10.087205 10.699459 0.023857
10.401946 10.699459 0.026198
10.716687 10.699459 0.034918
11.031426 10.699459 0.050350
11.346168 10.699459 0.045286
11.660909 10.699459 0.037837
11.975650 10.699459 0.041891
12.290391 10.699459 0.038928
12.605132 10.699459 0.031899
12.919873 10.699459 0.027429
13.234614 10.699459 -0.008547
13.549356 10.699459 -0.013847
13.864097 10.699459 -0.005429
14.178838 10.699459 0.019971
14.493579 10.699459 0.052323
14.808320 10.699459 0.056824
15.123059 10.699459 0.048714
15.437800 10.699459 0.043966
15.752542 10.699459 0.020627
16.067284 10.699459 0.000000
16.382023 10.699459 0.000000
16.696766 10.699459 0.000000
17.011505 10.699459 0.000000
17.326248 10.699459 0.000000
17.640987 10.699459 0.000000
17.955730 10.699459 0.000000
18.270470 10.699459 0.000000
18.585213 10.699459 0.000000
18.899952 10.699459 0.000000
-7.223550 10.384720 0.000000
-6.908809 10.384720 0.000607
-6.594068 10.384720 0.000488
-6.279327 10.384720 0.000525
-5.964586 10.384720 0.000551
-5.649845 10.384720 0.000459
-5.335104 10.384720 0.000363
-5.020363 10.384720 0.000403
-4.705622 10.384720 0.000461
-4.390881 10.384720 0.000428
-4.076140 10.384720 0.000421
-3.761399 10.384720 0.000391
-3.446658 10.384720 0.000359
-3.131917 10.384720 0.000295
-2.817176 10.384720 0.000205
-2.502435 10.384720 0.000297
-2.187694 10.384720 0.000447
-1.872953 10.384720 0.000438
-1.558212 10.384720 0.000303
-1.243471 10.384720 0.000289
-0.928730 10.384720 0.000282
-0.613989 10.384720 0.000235
-0.299248 10.384720 0.000287
0.015493 10.384720 0.000282
0.330234 10.384720 0.000203
0.644975 10.384720 0.000225
0.959716 10.384720 0.000293
1.274457 10.384720 0.000355
1.589198 10.384720 0.000285
1.903938 10.384720 0.000275
2.218679 10.384720 0.000307
2.533421 10.384720 0.000347
2.848162 10.384720 0.000321
3.162903 10.384720 0.000205
3.477644 10.384720 0.000199
3.792385 10.384720 0.000191
4.107125 10.384720 0.000118
4.421866 10.384720 0.000071
4.736608 10.384720 0.000093
5.051349 10.384720 0.000130
5.366090 10.384720 -0.000006
5.680831 10.384720 -0.000082
5.995571 10.384720 -0.000471
6.310312 10.384720 -0.000847
6.625053 10.384720 -0.000801
6.939795 10.384720 -0.000163
7.254536 10.384720 0.000244
7.569277 10.384720 0.000900
7.884017 10.384720 0.004174
8.198758 10.384720 0.007094
8.513499 10.384720 0.006721
8.828240 10.384720 0.010975
9.142982 10.384720 0.015413
9.457723 10.384720 0.019367
9.772464 10.384720 0.020942
10.087205 10.384720 0.020182
10.401946 10.384720 0.023500
10.716687 10.384720 0.027173
11.031426 10.384720 0.045254
11.346168 10.384720 0.051588
11.660909 10.384720 0.048955
11.975650 10.384720 0.048277
12.290391 10.384720 0.044642
12.605132 10.384720 0.046241
12.919873 10.384720 0.027090
13.234614 10.384720 -0.003870
13.549356 10.384720 -0.014939
13.864097 10.384720 -0.001460
14.178838 10.384720 0.012461
14.493579 10.384720 0.043139
14.808320 10.384720 0.065909
15.123059 10.384720 0.051478
15.437800 10.384720 0.055311
15.752542 10.384720 0.004276
16.067284 10.384720 0.000000
16.382023 10.384720 0.000000
16.696766 10.384720 0.000000
17.011505 10.384720 0.000000
17.326248 10.384720 0.000000
17.640987 10.384720 0.000000
17.955730 10.384720 0.000000
18.270470 10.384720 0.000000
18.585213 10.384720 0.000000
18.899952 10.384720 0.000000
-7.223550 10.069977 0.000000
-6.908809 10.069977 0.000587
-6.594068 10.069977 0.000483
-6.279327 10.069977 0.000510
-5.964586 10.069977 0.000506
-5.649845 10.069977 0.000433
-5.335104 10.069977 0.000333
-5.020363 10.069977 0.000343
-4.705622 10.069977 0.000378
-4.390881 10.069977 0.000387
-4.076140 10.069977 0.000422
-3.761399 10.069977 0.000391
-3.446658 10.069977 0.000337
-3.131917 10.069977 0.000299
-2.817176 10.069977 0.000279
-2.502435 10.069977 0.000355
-2.187694 10.069977 0.000456
-1.872953 10.069977 0.000435
-1.558212 10.069977 0.000303
-1.243471 10.069977 0.000292
-0.928730 10.069977 0.000282
-0.613989 10.069977 0.000234
-0.299248 10.069977 0.000323
0.015493 10.069977 0.000324
0.330234 10.069977 0.000242
0.644975 10.069977 0.000216
0.959716 10.069977 0.000278
1.274457 10.069977 0.000360
1.589198 10.069977 0.000267
1.903938 10.069977 0.000210
2.218679 10.069977 0.000239
2.533421 10.069977 0.000335
2.848162 10.069977 0.000340
3.162903 10.069977 0.000176
3.477644 10.069977 0.000169
3.792385 10.069977 0.000169
4.107125 10.069977 0.000090
4.421866 10.069977 0.000012
4.736608 10.069977 0.000133
5.051349 10.069977 0.000210
5.366090 10.069977 0.000024
5.680831 10.069977 -0.000074
5.995571 10.069977 -0.000446
6.310312 10.069977 -0.001032
6.625053 10.069977 -0.001107
6.939795 10.069977 -0.000467
7.254536 10.069977 0.000198
7.569277 10.069977 0.001295
7.884017 10.069977 0.003670
8.198758 10.069977 0.006514
8.513499 10.069977 0.008062
8.828240 10.069977 0.011008
9.142982 10.069977 0.011508
9.457723 10.069977 0.017356
9.772464 10.069977 0.023658
10.087205 10.069977 0.022449
10.401946 10.069977 0.021103
10.716687 10.069977 0.027194
11.031426 10.069977 0.039734
11.346168 10.069977 0.064698
11.660909 10.069977 0.058842
11.975650 10.069977 0.052291
12.290391 10.069977 0.055729
12.605132 10.069977 0.037364
12.919873 10.069977 0.042775
13.234614 10.069977 -0.002287
13.549356 10.069977 -0.022198
13.864097 10.069977 -0.012109
14.178838 10.069977 0.003764
14.493579 10.069977 0.017733
14.808320 10.069977 0.036052
15.123059 10.069977 0.064049
15.437800 10.069977 0.069831
15.752542 10.069977 0.025808
16.067284 10.069977 0.000000
16.382023 10.069977 0.000000
16.696766 10.069977 0.000000
17.011505 10.069977 0.000000
17.326248 10.069977 0.000000
17.640987 10.069977 0.000000
17.955730 10.069977 0.000000
18.270470 10.069977 0.000000
18.585213 10.069977 0.000000
18.899952 10.069977 0.000000
-7.223550 9.755238 0.000000
-6.908809 9.755238 0.000595
-6.594068 9.755238 0.000441
-6.279327 9.755238 0.000442
-5.964586 9.755238 0.000428
-5.649845 9.755238 0.000415
-5.335104 9.755238 0.000350
-5.020363 9.755238 0.000310
-4.705622 9.755238 0.000301
-4.390881 9.755238 0.000352
-4.076140 9.755238 0.000432
-3.761399 9.755238 0.000410
-3.446658 9.755238 0.000358
-3.131917 9.755238 0.000318
-2.817176 9.755238 0.000344
-2.502435 9.755238 0.000394
-2.187694 9.755238 0.000415
-1.872953 9.755238 0.000381
-1.558212 9.755238 0.000275
-1.243471 9.755238 0.000254
-0.928730 9.755238 0.000278
-0.613989 9.755238 0.000283
-0.299248 9.755238 0.000381
0.015493 9.755238 0.000384
0.330234 9.755238 0.000320
0.644975 9.755238 0.000276
0.959716 9.755238 0.000310
1.274457 9.755238 0.000370
1.589198 9.755238 0.000283
1.903938 9.755238 0.000206
2.218679 9.755238 0.000219
2.533421 9.755238 0.000322
2.848162 9.755238 0.000315
3.162903 9.755238 0.000194
3.477644 9.755238 0.000207
3.792385 9.755238 0.000211
4.107125 9.755238 0.000118
4.421866 9.755238 0.000018
4.736608 9.755238 0.000141
5.051349 9.755238 0.000212
5.366090 9.755238 0.000027
5.680831 9.755238 -0.000088
5.995571 9.755238 -0.000496
6.310312 9.755238 -0.000927
6.625053 9.755238 -0.001188
6.939795 9.755238 -0.000472
7.254536 9.755238 0.000108
7.569277 9.755238 0.001928
7.884017 9.755238 0.003564
8.198758 9.755238 0.006683
8.513499 9.755238 0.009320
8.828240 9.755238 0.011414
9.142982 9.755238 0.012093
9.457723 9.755238 0.017920
9.772464 9.755238 0.027147
10.087205 9.755238 0.032062
10.401946 9.755238 0.031975
10.716687 9.755238 0.029918
11.031426 9.755238 0.042182
11.346168 9.755238 0.073266
11.660909 9.755238 0.077011
11.975650 9.755238 0.053128
12.290391 9.755238 0.063612
12.605132 9.755238 0.047684
12.919873 9.755238 0.051908
13.234614 9.755238 0.022696
13.549356 9.755238 -0.009804
13.864097 9.755238 -0.009269
14.178838 9.755238 0.002833
14.493579 9.755238 0.011844
14.808320 9.755238 0.039981
15.123059 9.755238 0.025038
15.437800 9.755238 0.053903
15.752542 9.755238 -0.043701
16.067284 9.755238 0.000000
16.382023 9.755238 0.000000
16.696766 9.755238 0.000000
17.011505 9.755238 0.000000
17.326248 9.755238 0.000000
17.640987 9.755238 0.000000
17.955730 9.755238 0.000000
18.270470 9.755238 0.000000
18.585213 9.755238 0.000000
18.899952 9.755238 0.000000
-7.223550 9.440495 0.000000
-6.908809 9.440495 0.000578
-6.594068 9.440495 0.000399
-6.279327 9.440495 0.000363
-5.964586 9.440495 0.000354
-5.649845 9.440495 0.000388
-5.335104 9.440495 0.000365
-5.020363 9.440495 0.000303
-4.705622 9.440495 0.000293
-4.390881 9.440495 0.000362
-4.076140 9.440495 0.000448
-3.761399 9.440495 0.000428
-3.446658 9.440495 0.000384
-3.131917 9.440495 0.000339
-2.817176 9.440495 0.000379
-2.502435 9.440495 0.000415
-2.187694 9.440495 0.000391
-1.872953 9.440495 0.000309
-1.558212 9.440495 0.000208
-1.243471 9.440495 0.000195
-0.928730 9.440495 0.000280
-0.613989 9.440495 0.000359
-0.299248 9.440495 0.000437
0.015493 9.440495 0.000452
0.330234 9.440495 0.000414
0.644975 9.440495 0.000393
0.959716 9.440495 0.000376
1.274457 9.440495 0.000374
1.589198 9.440495 0.000307
1.903938 9.440495 0.000246
2.218679 9.440495 0.000225
2.533421 9.440495 0.000280
2.848162 9.440495 0.000258
3.162903 9.440495 0.000209
3.477644 9.440495 0.000261
3.792385 9.440495 0.000269
4.107125 9.440495 0.000146
4.421866 9.440495 0.000044
4.736608 9.440495 0.000094
5.051349 9.440495 0.000123
5.366090 9.440495 -0.000110
5.680831 9.440495 -0.000220
5.995571 9.440495 -0.000531
6.310312 9.440495 -0.001072
6.625053 9.440495 -0.001280
6.939795 9.440495 -0.000517
7.254536 9.440495 0.000602
7.569277 9.440495 0.002504
7.884017 9.440495 0.003938
8.198758 9.440495 0.007328
8.513499 9.440495 0.010976
8.828240 9.440495 0.007993
9.142982 9.440495 0.016460
9.457723 9.440495 0.019175
9.772464 9.440495 0.026245
10.087205 9.440495 0.039113
10.401946 9.440495 0.035523
10.716687 9.440495 0.039292
11.031426 9.440495 0.046886
11.346168 9.440495 0.067007
11.660909 9.440495 0.082702
11.975650 9.440495 0.074527
12.290391 9.440495 0.066310
12.605132 9.440495 0.037720
12.919873 9.440495 0.043291
13.234614 9.440495 0.018370
13.549356 9.440495 0.006861
13.864097 9.440495 -0.009002
14.178838 9.440495 0.027950
14.493579 9.440495 0.022425
14.808320 9.440495 0.026028
15.123059 9.440495 0.028710
15.437800 9.440495 0.051075
15.752542 9.440495 -0.065077
16.067284 9.440495 0.000000
16.382023 9.440495 0.000000
16.696766 9.440495 0.000000
17.011505 9.440495 0.000000
17.326248 9.440495 0.000000
17.640987 9.440495 0.000000
17.955730 9.440495 0.000000
18.270470 9.440495 0.000000
18.585213 9.440495 0.000000
18.899952 9.440495 0.000000
-7.223550 9.125755 0.000000
-6.908809 9.125755 0.000563
-6.594068 9.125755 0.000372
-6.279327 9.125755 0.000336
-5.964586 9.125755 0.000320
-5.649845 9.125755 0.000348
-5.335104 9.125755 0.000381
-5.020363 9.125755 0.000321
-4.705622 9.125755 0.000333
-4.390881 9.125755 0.000383
-4.076140 9.125755 0.000449
-3.761399 9.125755 0.000424
-3.446658 9.125755 0.000381
-3.131917 9.125755 0.000372
-2.817176 9.125755 0.000388
-2.502435 9.125755 0.000407
-2.187694 9.125755 0.000359
-1.872953 9.125755 0.000255
-1.558212 9.125755 0.000164
-1.243471 9.125755 0.000180
-0.928730 9.125755 0.000316
-0.613989 9.125755 0.000387
-0.299248 9.125755 0.000448
0.015493 9.125755 0.000484
0.330234 9.125755 0.000461
0.644975 9.125755 0.000475
0.959716 9.125755 0.000411
1.274457 9.125755 0.000359
1.589198 9.125755 0.000320
1.903938 9.125755 0.000281
2.218679 9.125755 0.000235
2.533421 9.125755 0.000233
2.848162 9.125755 0.000204
3.162903 9.125755 0.000205
3.477644 9.125755 0.000316
3.792385 9.125755 0.000303
4.107125 9.125755 0.000148
4.421866 9.125755 0.000020
4.736608 9.125755 -0.000009
5.051349 9.125755 -0.000095
5.366090 9.125755 -0.000292
5.680831 9.125755 -0.000456
5.995571 9.125755 -0.000752
6.310312 9.125755 -0.001022
6.625053 9.125755 -0.001267
6.939795 9.125755 -0.000919
7.254536 9.125755 0.000514
7.569277 9.125755 0.001571
7.884017 9.125755 0.004241
8.198758 9.125755 0.009590
8.513499 9.125755 0.011498
8.828240 9.125755 0.011284
9.142982 9.125755 0.017512
9.457723 9.125755 0.020142
9.772464 9.125755 0.028984
10.087205 9.125755 0.043278
10.401946 9.125755 0.042234
10.716687 9.125755 0.035915
11.031426 9.125755 0.043268
11.346168 9.125755 0.061737
11.660909 9.125755 0.079377
11.975650 9.125755 0.065404
12.290391 9.125755 0.051713
12.605132 9.125755 0.036900
12.919873 9.125755 0.035216
13.234614 9.125755 0.019120
13.549356 9.125755 0.016571
13.864097 9.125755 0.015483
14.178838 9.125755 0.026097
14.493579 9.125755 0.041159
14.808320 9.125755 0.023469
15.123059 9.125755 0.011126
15.437800 9.125755 0.042697
15.752542 9.125755 -0.072632
16.067284 9.125755 0.000000
16.382023 9.125755 0.000000
16.696766 9.125755 0.000000
17.011505 9.125755 0.000000
17.326248 9.125755 0.000000
17.640987 9.125755 0.000000
17.955730 9.125755 0.000000
18.270470 9.125755 0.000000
18.585213 9.125755 0.000000
18.899952 9.125755 0.000000
-7.223550 8.811016 0.000000
-6.908809 8.811016 0.000540
-6.594068 8.811016 0.000374
-6.279327 8.811016 0.000353
-5.964586 8.811016 0.000315
-5.649845 8.811016 0.000321
-5.335104 8.811016 0.000385
-5.020363 8.811016 0.000367
-4.705622 8.811016 0.000380
-4.390881 8.811016 0.000401
-4.076140 8.811016 0.000421
-3.761399 8.811016 0.000382
-3.446658 8.811016 0.000379
-3.131917 8.811016 0.000396
-2.817176 8.811016 0.000380
-2.502435 8.811016 0.000364
-2.187694 8.811016 0.000332
-1.872953 8.811016 0.000283
-1.558212 8.811016 0.000212
-1.243471 8.811016 0.000233
-0.928730 8.811016 0.000350
-0.613989 8.811016 0.000356
-0.299248 8.811016 0.000399
0.015493 8.811016 0.000443
0.330234 8.811016 0.000438
0.644975 8.811016 0.000452
0.959716 8.811016 0.000406
1.274457 8.811016 0.000356
1.589198 8.811016 0.000330
1.903938 8.811016 0.000292
2.218679 8.811016 0.000244
2.533421 8.811016 0.000195
2.848162 8.811016 0.000179
3.162903 8.811016 0.000181
3.477644 8.811016 0.000302
3.792385 8.811016 0.000282
4.107125 8.811016 0.000116
4.421866 8.811016 -0.000030
4.736608 8.811016 -0.000135
5.051349 8.811016 -0.000247
5.366090 8.811016 -0.000328
5.680831 8.811016 -0.000528
5.995571 8.811016 -0.000664
6.310312 8.811016 -0.000614
6.625053 8.811016 -0.000969
6.939795 8.811016 -0.001213
7.254536 8.811016 -0.000624
7.569277 8.811016 0.001504
7.884017 8.811016 0.004945
8.198758 8.811016 0.008168
8.513499 8.811016 0.011225
8.828240 8.811016 0.013653
9.142982 8.811016 0.018348
9.457723 8.811016 0.021088
9.772464 8.811016 0.033084
10.087205 8.811016 0.042569
10.401946 8.811016 0.039793
10.716687 8.811016 0.033514
11.031426 8.811016 0.038858
11.346168 8.811016 0.062002
11.660909 8.811016 0.071614
11.975650 8.811016 0.071971
12.290391 8.811016 0.042214
12.605132 8.811016 0.026191
12.919873 8.811016 0.031069
13.234614 8.811016 0.028169
13.549356 8.811016 0.043783
13.864097 8.811016 0.036249
14.178838 8.811016 0.037438
14.493579 8.811016 0.036490
14.808320 8.811016 0.029538
15.123059 8.811016 0.032862
15.437800 8.811016 0.038861
15.752542 8.811016 -0.116101
16.067284 8.811016 0.000000
16.382023 8.811016 0.000000
16.696766 8.811016 0.000000
17.011505 8.811016 0.000000
17.326248 8.811016 0.000000
17.640987 8.811016 0.000000
17.955730 8.811016 0.000000
18.270470 8.811016 0.000000
18.585213 8.811016 0.000000
18.899952 8.811016 0.000000
-7.223550 8.496273 0.000000
-6.908809 8.496273 0.000568
-6.594068 8.496273 0.000398
-6.279327 8.496273 0.000380
-5.964586 8.496273 0.000338
-5.649845 8.496273 0.000320
-5.335104 8.496273 0.000361
-5.020363 8.496273 0.000402
-4.705622 8.496273 0.000404
-4.390881 8.496273 0.000405
-4.076140 8.496273 0.000396
-3.761399 8.496273 0.000357
-3.446658 8.496273 0.000369
-3.131917 8.496273 0.000400
-2.817176 8.496273 0.000366
-2.502435 8.496273 0.000329
-2.187694 8.496273 0.000344
-1.872953 8.496273 0.000354
-1.558212 8.496273 0.000306
-1.243471 8.496273 0.000302
-0.928730 8.496273 0.000341
-0.613989 8.496273 0.000305
-0.299248 8.496273 0.000330
0.015493 8.496273 0.000377
0.330234 8.496273 0.000362
0.644975 8.496273 0.000323
0.959716 8.496273 0.000331
1.274457 8.496273 0.000340
1.589198 8.496273 0.000327
1.903938 8.496273 0.000287
2.218679 8.496273 0.000241
2.533421 8.496273 0.000194
2.848162 8.496273 0.000189
3.162903 8.496273 0.000200
3.477644 8.496273 0.000272
3.792385 8.496273 0.000229
4.107125 8.496273 0.000075
4.421866 8.496273 -0.000070
4.736608 8.496273 -0.000139
5.051349 8.496273 -0.000246
5.366090 8.496273 -0.000224
5.680831 8.496273 -0.000348
5.995571 8.496273 -0.000635
6.310312 8.496273 -0.000584
6.625053 8.496273 -0.000813
6.939795 8.496273 -0.000952
7.254536 8.496273 -0.000674
7.569277 8.496273 0.002433
7.884017 8.496273 0.005609
8.198758 8.496273 0.007473
8.513499 8.496273 0.011140
8.828240 8.496273 0.018450
9.142982 8.496273 0.022921
9.457723 8.496273 0.025500
9.772464 8.496273 0.035044
10.087205 8.496273 0.038823
10.401946 8.496273 0.041260
10.716687 8.496273 0.035608
11.031426 8.496273 0.046717
11.346168 8.496273 0.058010
11.660909 8.496273 0.069419
11.975650 8.496273 0.055549
12.290391 8.496273 0.050294
12.605132 8.496273 0.034485
12.919873 8.496273 0.031587
13.234614 8.496273 0.031920
13.549356 8.496273 0.023859
13.864097 8.496273 0.023180
14.178838 8.496273 0.035804
14.493579 8.496273 0.016620
14.808320 8.496273 0.015596
15.123059 8.496273 0.018125
15.437800 8.496273 0.025126
15.752542 8.496273 -0.042126
16.067284 8.496273 0.000000
16.382023 8.496273 0.000000
16.696766 8.496273 0.000000
17.011505 8.496273 0.000000
17.326248 8.496273 0.000000
17.640987 8.496273 0.000000
17.955730 8.496273 0.000000
18.270470 8.496273 0.000000
18.585213 8.496273 0.000000
18.899952 8.496273 0.000000
-7.223550 8.181534 0.000000
-6.908809 8.181534 0.000591
-6.594068 8.181534 0.000422
-6.279327 8.181534 0.000387
-5.964586 8.181534 0.000344
-5.649845 8.181534 0.000337
-5.335104 8.181534 0.000351
-5.020363 8.181534 0.000400
-4.705622 8.181534 0.000402
-4.390881 8.181534 0.000392
-4.076140 8.181534 0.000388
-3.761399 8.181534 0.000347
-3.446658 8.181534 0.000325
-3.131917 8.181534 0.000353
-2.817176 8.181534 0.000346
-2.502435 8.181534 0.000301
-2.187694 8.181534 0.000336
-1.872953 8.181534 0.000374
-1.558212 8.181534 0.000399
-1.243471 8.181534 0.000369
-0.928730 8.181534 0.000323
-0.613989 8.181534 0.000266
-0.299248 8.181534 0.000275
0.015493 8.181534 0.000306
0.330234 8.181534 0.000255
0.644975 8.181534 0.000178
0.959716 8.181534 0.000254
1.274457 8.181534 0.000319
1.589198 8.181534 0.000323
1.903938 8.181534 0.000296
2.218679 8.181534 0.000257
2.533421 8.181534 0.000242
2.848162 8.181534 0.000243
3.162903 8.181534 0.000242
3.477644 8.181534 0.000257
3.792385 8.181534 0.000177
4.107125 8.181534 0.000069
4.421866 8.181534 -0.000090
4.736608 8.181534 -0.000145
5.051349 8.181534 -0.000213
5.366090 8.181534 -0.000148
5.680831 8.181534 -0.000217
5.995571 8.181534 -0.000626
6.310312 8.181534 -0.000794
6.625053 8.181534 -0.001007
6.939795 8.181534 -0.000685
7.254536 8.181534 -0.000087
7.569277 8.181534 0.002814
7.884017 8.181534 0.006486
8.198758 8.181534 0.009681
8.513499 8.181534 0.012761
8.828240 8.181534 0.019216
9.142982 8.181534 0.024236
9.457723 8.181534 0.027287
9.772464 8.181534 0.034090
10.087205 8.181534 0.041659
10.401946 8.181534 0.046111
10.716687 8.181534 0.041779
11.031426 8.181534 0.041521
11.346168 8.181534 0.060676
11.660909 8.181534 0.057116
11.975650 8.181534 0.065061
12.290391 8.181534 0.051947
12.605132 8.181534 0.047053
12.919873 8.181534 0.042850
13.234614 8.181534 0.030840
13.549356 8.181534 0.040020
13.864097 8.181534 0.042288
14.178838 8.181534 0.021597
14.493579 8.181534 0.002752
14.808320 8.181534 0.037492
15.123059 8.181534 0.031284
15.437800 8.181534 0.037502
15.752542 8.181534 -0.046764
16.067284 8.181534 0.000000
16.382023 8.181534 0.000000
16.696766 8.181534 0.000000
17.011505 8.181534 0.000000
17.326248 8.181534 0.000000
17.640987 8.181534 0.000000
17.955730 8.181534 0.000000
18.270470 8.181534 0.000000
18.585213 8.181534 0.000000
18.899952 8.181534 0.000000
-7.223550 7.866791 0.000000
-6.908809 7.866791 0.000627
-6.594068 7.866791 0.000442
-6.279327 7.866791 0.000385
-5.964586 7.866791 0.000370
-5.649845 7.866791 0.000394
-5.335104 7.866791 0.000376
-5.020363 7.866791 0.000402
-4.705622 7.866791 0.000367
-4.390881 7.866791 0.000355
-4.076140 7.866791 0.000374
-3.761399 7.866791 0.000337
-3.446658 7.866791 0.000275
-3.131917 7.866791 0.000277
-2.817176 7.866791 0.000299
-2.502435 7.866791 0.000275
-2.187694 7.866791 0.000299
-1.872953 7.866791 0.000352
-1.558212 7.866791 0.000436
-1.243471 7.866791 0.000392
-0.928730 7.866791 0.000315
-0.613989 7.866791 0.000262
-0.299248 7.866791 0.000249
0.015493 7.866791 0.000230
0.330234 7.866791 0.000166
0.644975 7.866791 0.000117
0.959716 7.866791 0.000207
1.274457 7.866791 0.000294
1.589198 7.866791 0.000322
1.903938 7.866791 0.000316
2.218679 7.866791 0.000279
2.533421 7.866791 0.000287
2.848162 7.866791 0.000301
3.162903 7.866791 0.000285
3.477644 7.866791 0.000231
3.792385 7.866791 0.000130
4.107125 7.866791 0.000071
4.421866 7.866791 -0.000063
4.736608 7.866791 -0.000176
5.051349 7.866791 -0.000189
5.366090 7.866791 -0.000131
5.680831 7.866791 -0.000169
5.995571 7.866791 -0.000486
6.310312 7.866791 -0.000852
6.625053 7.866791 -0.000839
6.939795 7.866791 -0.000611
7.254536 7.866791 0.000382
7.569277 7.866791 0.003131
7.884017 7.866791 0.005481
8.198758 7.866791 0.009796
8.513499 7.866791 0.015055
8.828240 7.866791 0.018928
9.142982 7.866791 0.026691
9.457723 7.866791 0.031369
9.772464 7.866791 0.035286
10.087205 7.866791 0.037805
10.401946 7.866791 0.046344
10.716687 7.866791 0.041371
11.031426 7.866791 0.045496
11.346168 7.866791 0.062149
11.660909 7.866791 0.066401
11.975650 7.866791 0.052919
12.290391 7.866791 0.054357
12.605132 7.866791 0.063550
12.919873 7.866791 0.049438
13.234614 7.866791 0.033146
13.549356 7.866791 0.048924
13.864097 7.866791 0.025143
14.178838 7.866791 0.009101
14.493579 7.866791 0.031367
14.808320 7.866791 0.046674
15.123059 7.866791 0.053744
15.437800 7.866791 0.003414
15.752542 7.866791 -0.035898
16.067284 7.866791 0.000000
16.382023 7.866791 0.000000
16.696766 7.866791 0.000000
17.011505 7.866791 0.000000
17.326248 7.866791 0.000000
17.640987 7.866791 0.000000
17.955730 7.866791 0.000000
18.270470 7.866791 0.000000
18.585213 7.866791 0.000000
18.899952 7.866791 0.000000
-7.223550 7.552052 0.000000
-6.908809 7.552052 0.000682
-6.594068 7.552052 0.000468
-6.279327 7.552052 0.000387
-5.964586 7.552052 0.000398
-5.649845 7.552052 0.000442
-5.335104 7.552052 0.000399
-5.020363 7.552052 0.000398
-4.705622 7.552052 0.000352
-4.390881 7.552052 0.000322
-4.076140 7.552052 0.000336
-3.761399 7.552052 0.000307
-3.446658 7.552052 0.000233
-3.131917 7.552052 0.000217
-2.817176 7.552052 0.000274
-2.502435 7.552052 0.000270
-2.187694 7.552052 0.000282
-1.872953 7.552052 0.000317
-1.558212 7.552052 0.000404
-1.243471 7.552052 0.000377
-0.928730 7.552052 0.000340
-0.613989 7.552052 0.000282
-0.299248 7.552052 0.000233
0.015493 7.552052 0.000179
0.330234 7.552052 0.000149
0.644975 7.552052 0.000162
0.959716 7.552052 0.000233
1.274457 7.552052 0.000271
1.589198 7.552052 0.000313
1.903938 7.552052 0.000353
2.218679 7.552052 0.000313
2.533421 7.552052 0.000298
2.848162 7.552052 0.000275
3.162903 7.552052 0.000263
3.477644 7.552052 0.000203
3.792385 7.552052 0.000091
4.107125 7.552052 0.000054
4.421866 7.552052 -0.000042
4.736608 7.552052 -0.000179
5.051349 7.552052 -0.000216
5.366090 7.552052 -0.000222
5.680831 7.552052 -0.000240
5.995571 7.552052 -0.000716
6.310312 7.552052 -0.000893
6.625053 7.552052 -0.000954
6.939795 7.552052 -0.000462
7.254536 7.552052 0.001451
7.569277 7.552052 0.002991
7.884017 7.552052 0.006348
8.198758 7.552052 0.009983
8.513499 7.552052 0.013051
8.828240 7.552052 0.017593
9.142982 7.552052 0.026120
9.457723 7.552052 0.033707
9.772464 7.552052 0.035551
10.087205 7.552052 0.034585
10.401946 7.552052 0.043957
10.716687 7.552052 0.048682
11.031426 7.552052 0.058445
11.346168 7.552052 0.061753
11.660909 7.552052 0.069808
11.975650 7.552052 0.065236
12.290391 7.552052 0.066880
12.605132 7.552052 0.056650
12.919873 7.552052 0.040665
13.234614 7.552052 0.030613
13.549356 7.552052 0.059069
13.864097 7.552052 0.039487
14.178838 7.552052 0.024509
14.493579 7.552052 0.006568
14.808320 7.552052 0.006974
15.123059 7.552052 0.049327
15.437800 7.552052 0.023929
15.752542 7.552052 -0.043862
16.067284 7.552052 0.000000
16.382023 7.552052 0.000000
16.696766 7.552052 0.000000
17.011505 7.552052 0.000000
17.326248 7.552052 0.000000
17.640987 7.552052 0.000000
17.955730 7.552052 0.000000
18.270470 7.552052 0.000000
18.585213 7.552052 0.000000
18.899952 7.552052 0.000000
-7.223550 7.237309 0.000000
-6.908809 7.237309 0.000745
-6.594068 7.237309 0.000487
-6.279327 7.237309 0.000410
-5.964586 7.237309 0.000400
-5.649845 7.237309 0.000419
-5.335104 7.237309 0.000397
-5.020363 7.237309 0.000381
-4.705622 7.237309 0.000363
-4.390881 7.237309 0.000315
-4.076140 7.237309 0.000309
-3.761399 7.237309 0.000295
-3.446658 7.237309 0.000218
-3.131917 7.237309 0.000194
-2.817176 7.237309 0.000266
-2.502435 7.237309 0.000310
-2.187694 7.237309 0.000321
-1.872953 7.237309 0.000328
-1.558212 7.237309 0.000339
-1.243471 7.237309 0.000329
-0.928730 7.237309 0.000346
-0.613989 7.237309 0.000314
-0.299248 7.237309 0.000244
0.015493 7.237309 0.000168
0.330234 7.237309 0.000184
0.644975 7.237309 0.000262
0.959716 7.237309 0.000269
1.274457 7.237309 0.000257
1.589198 7.237309 0.000291
1.903938 7.237309 0.000382
2.218679 7.237309 0.000363
2.533421 7.237309 0.000298
2.848162 7.237309 0.000188
3.162903 7.237309 0.000167
3.477644 7.237309 0.000159
3.792385 7.237309 0.000077
4.107125 7.237309 0.000064
4.421866 7.237309 -0.000025
4.736608 7.237309 -0.000189
5.051349 7.237309 -0.000242
5.366090 7.237309 -0.000233
5.680831 7.237309 -0.000458
5.995571 7.237309 -0.000902
6.310312 7.237309 -0.000960
6.625053 7.237309 -0.000719
6.939795 7.237309 -0.000482
7.254536 7.237309 -0.000237
7.569277 7.237309 0.002600
7.884017 7.237309 0.005899
8.198758 7.237309 0.005641
8.513499 7.237309 0.010938
8.828240 7.237309 0.019456
9.142982 7.237309 0.026437
9.457723 7.237309 0.034656
9.772464 7.237309 0.036100
10.087205 7.237309 0.035773
10.401946 7.237309 0.044067
10.716687 7.237309 0.050126
11.031426 7.237309 0.060702
11.346168 7.237309 0.071370
11.660909 7.237309 0.071898
11.975650 7.237309 0.065238
12.290391 7.237309 0.077596
12.605132 7.237309 0.048014
12.919873 7.237309 0.023303
13.234614 7.237309 0.031988
13.549356 7.237309 0.039946
13.864097 7.237309 0.035074
14.178838 7.237309 0.009932
14.493579 7.237309 -0.002004
14.808320 7.237309 0.007606
15.123059 7.237309 0.026085
15.437800 7.237309 0.035847
15.752542 7.237309 -0.022733
16.067284 7.237309 0.000000
16.382023 7.237309 0.000000
16.696766 7.237309 0.000000
17.011505 7.237309 0.000000
17.326248 7.237309 0.000000
17.640987 7.237309 0.000000
17.955730 7.237309 0.000000
18.270470 7.237309 0.000000
18.585213 7.237309 0.000000
18.899952 7.237309 0.000000
-7.223550 6.922569 0.000000
-6.908809 6.922569 0.000698
-6.594068 6.922569 0.000478
-6.279327 6.922569 0.000434
-5.964586 6.922569 0.000386
-5.649845 6.922569 0.000370
-5.335104 6.922569 0.000358
-5.020363 6.922569 0.000351
-4.705622 6.922569 0.000374
-4.390881 6.922569 0.000356
-4.076140 6.922569 0.000332
-3.761399 6.922569 0.000315
-3.446658 6.922569 0.000229
-3.131917 6.922569 0.000211
-2.817176 6.922569 0.000287
-2.502435 6.922569 0.000335
-2.187694 6.922569 0.000357
-1.872953 6.922569 0.000340
-1.558212 6.922569 0.000286
-1.243471 6.922569 0.000268
-0.928730 6.922569 0.000328
-0.613989 6.922569 0.000320
-0.299248 6.922569 0.000265
0.015493 6.922569 0.000204
0.330234 6.922569 0.000234
0.644975 6.922569 0.000313
0.959716 6.922569 0.000304
1.274457 6.922569 0.000267
1.589198 6.922569 0.000242
1.903938 6.922569 0.000337
2.218679 6.922569 0.000378
2.533421 6.922569 0.000303
2.848162 6.922569 0.000132
3.162903 6.922569 0.000081
3.477644 6.922569 0.000117
3.792385 6.922569 0.000077
4.107125 6.922569 0.000087
4.421866 6.922569 -0.000003
4.736608 6.922569 -0.000169
5.051349 6.922569 -0.000224
5.366090 6.922569 -0.000231
5.680831 6.922569 -0.000707
5.995571 6.922569 -0.001102
6.310312 6.922569 -0.000820
6.625053 6.922569 -0.000960
6.939795 6.922569 -0.001528
7.254536 6.922569 -0.000192
7.569277 6.922569 0.003128
7.884017 6.922569 0.004996
8.198758 6.922569 0.007251
8.513499 6.922569 0.012973
8.828240 6.922569 0.019431
9.142982 6.922569 0.026059
9.457723 6.922569 0.033981
9.772464 6.922569 0.035710
10.087205 6.922569 0.035952
10.401946 6.922569 0.046053
10.716687 6.922569 0.053207
11.031426 6.922569 0.067251
11.346168 6.922569 0.069977
11.660909 6.922569 0.067718
11.975650 6.922569 0.064449
12.290391 6.922569 0.058815
12.605132 6.922569 0.039601
12.919873 6.922569 0.030903
13.234614 6.922569 0.036361
13.549356 6.922569 0.030046
13.864097 6.922569 0.018567
14.178838 6.922569 0.009613
14.493579 6.922569 -0.005869
14.808320 6.922569 0.018134
15.123059 6.922569 0.021869
15.437800 6.922569 0.023430
15.752542 6.922569 -0.024752
16.067284 6.922569 0.000000
16.382023 6.922569 0.000000
16.696766 6.922569 0.000000
17.011505 6.922569 0.000000
17.326248 6.922569 0.000000
17.640987 6.922569 0.000000
17.955730 6.922569 0.000000
18.270470 6.922569 0.000000
18.585213 6.922569 0.000000
18.899952 6.922569 0.000000
-7.223550 6.607826 0.000000
-6.908809 6.607826 0.000574
-6.594068 6.607826 0.000439
-6.279327 6.607826 0.000419
-5.964586 6.607826 0.000377
-5.649845 6.607826 0.000333
-5.335104 6.607826 0.000326
-5.020363 6.607826 0.000351
-4.705622 6.607826 0.000378
-4.390881 6.607826 0.000424
-4.076140 6.607826 0.000409
-3.761399 6.607826 0.000341
-3.446658 6.607826 0.000266
-3.131917 6.607826 0.000256
-2.817176 6.607826 0.000295
-2.502435 6.607826 0.000301
-2.187694 6.607826 0.000354
-1.872953 6.607826 0.000335
-1.558212 6.607826 0.000268
-1.243471 6.607826 0.000252
-0.928730 6.607826 0.000293
-0.613989 6.607826 0.000280
-0.299248 6.607826 0.000257
0.015493 6.607826 0.000257
0.330234 6.607826 0.000268
0.644975 6.607826 0.000289
0.959716 6.607826 0.000308
1.274457 6.607826 0.000259
1.589198 6.607826 0.000172
1.903938 6.607826 0.000261
2.218679 6.607826 0.000358
2.533421 6.607826 0.000310
2.848162 6.607826 0.000140
3.162903 6.607826 0.000051
3.477644 6.607826 0.000101
3.792385 6.607826 0.000106
4.107125 6.607826 0.000101
4.421866 6.607826 -0.000012
4.736608 6.607826 -0.000160
5.051349 6.607826 -0.000181
5.366090 6.607826 -0.000332
5.680831 6.607826 -0.000793
5.995571 6.607826 -0.001247
6.310312 6.607826 -0.001234
6.625053 6.607826 -0.001661
6.939795 6.607826 -0.002014
7.254536 6.607826 -0.000557
7.569277 6.607826 0.003415
7.884017 6.607826 0.003755
8.198758 6.607826 0.007121
8.513499 6.607826 0.014303
8.828240 6.607826 0.017775
9.142982 6.607826 0.024912
9.457723 6.607826 0.033060
9.772464 6.607826 0.036592
10.087205 6.607826 0.040371
10.401946 6.607826 0.047075
10.716687 6.607826 0.052259
11.031426 6.607826 0.064934
11.346168 6.607826 0.071539
11.660909 6.607826 0.064414
11.975650 6.607826 0.059019
12.290391 6.607826 0.054944
12.605132 6.607826 0.031463
12.919873 6.607826 0.021096
13.234614 6.607826 0.022908
13.549356 6.607826 0.030762
13.864097 6.607826 0.010008
14.178838 6.607826 -0.010012
14.493579 6.607826 0.015135
14.808320 6.607826 0.030180
15.123059 6.607826 0.003400
15.437800 6.607826 0.012543
15.752542 6.607826 0.016046
16.067284 6.607826 0.000000
16.382023 6.607826 0.000000
16.696766 6.607826 0.000000
17.011505 6.607826 0.000000
17.326248 6.607826 0.000000
17.640987 6.607826 0.000000
17.955730 6.607826 0.000000
18.270470 6.607826 0.000000
18.585213 6.607826 0.000000
18.899952 6.607826 0.000000
-7.223550 6.293087 0.000000
-6.908809 6.293087 0.000524
-6.594068 6.293087 0.000432
-6.279327 6.293087 0.000407
-5.964586 6.293087 0.000382
-5.649845 6.293087 0.000345
-5.335104 6.293087 0.000340
-5.020363 6.293087 0.000357
-4.705622 6.293087 0.000377
-4.390881 6.293087 0.000454
-4.076140 6.293087 0.000453
-3.761399 6.293087 0.000358
-3.446658 6.293087 0.000321
-3.131917 6.293087 0.000339
-2.817176 6.293087 0.000316
-2.502435 6.293087 0.000269
-2.187694 6.293087 0.000316
-1.872953 6.293087 0.000299
-1.558212 6.293087 0.000281
-1.243471 6.293087 0.000277
-0.928730 6.293087 0.000266
-0.613989 6.293087 0.000240
-0.299248 6.293087 0.000252
0.015493 6.293087 0.000317
0.330234 6.293087 0.000299
0.644975 6.293087 0.000241
0.959716 6.293087 0.000285
1.274457 6.293087 0.000219
1.589198 6.293087 0.000128
1.903938 6.293087 0.000202
2.218679 6.293087 0.000309
2.533421 6.293087 0.000316
2.848162 6.293087 0.000187
3.162903 6.293087 0.000082
3.477644 6.293087 0.000120
3.792385 6.293087 0.000118
4.107125 6.293087 0.000068
4.421866 6.293087 -0.000044
4.736608 6.293087 -0.000144
5.051349 6.293087 -0.000153
5.366090 6.293087 -0.000410
5.680831 6.293087 -0.000906
5.995571 6.293087 -0.001359
6.310312 6.293087 -0.001673
6.625053 6.293087 -0.002241
6.939795 6.293087 -0.002024
7.254536 6.293087 -0.000189
7.569277 6.293087 0.002689
7.884017 6.293087 0.005186
8.198758 6.293087 0.007789
8.513499 6.293087 0.010104
8.828240 6.293087 0.014564
9.142982 6.293087 0.020027
9.457723 6.293087 0.033997
9.772464 6.293087 0.034574
10.087205 6.293087 0.035385
10.401946 6.293087 0.044153
10.716687 6.293087 0.053797
11.031426 6.293087 0.056693
11.346168 6.293087 0.060381
11.660909 6.293087 0.053946
11.975650 6.293087 0.054337
12.290391 6.293087 0.037266
12.605132 6.293087 0.030234
12.919873 6.293087 -0.000437
13.234614 6.293087 0.025211
13.549356 6.293087 0.029745
13.864097 6.293087 0.011358
14.178838 6.293087 -0.013607
14.493579 6.293087 0.029185
14.808320 6.293087 0.027525
15.123059 6.293087 0.022281
15.437800 6.293087 0.031771
15.752542 6.293087 -0.001795
16.067284 6.293087 0.000000
16.382023 6.293087 0.000000
16.696766 6.293087 0.000000
17.011505 6.293087 0.000000
17.326248 6.293087 0.000000
17.640987 6.293087 0.000000
17.955730 6.293087 0.000000
18.270470 6.293087 0.000000
18.585213 6.293087 0.000000
18.899952 6.293087 0.000000
-7.223550 5.978344 0.000000
-6.908809 5.978344 0.000611
-6.594068 5.978344 0.000430
-6.279327 5.978344 0.000387
-5.964586 5.978344 0.000391
-5.649845 5.978344 0.000382
-5.335104 5.978344 0.000357
-5.020363 5.978344 0.000333
-4.705622 5.978344 0.000345
-4.390881 5.978344 0.000441
-4.076140 5.978344 0.000431
-3.761399 5.978344 0.000340
-3.446658 5.978344 0.000372
-3.131917 5.978344 0.000424
-2.817176 5.978344 0.000348
-2.502435 5.978344 0.000274
-2.187694 5.978344 0.000289
-1.872953 5.978344 0.000266
-1.558212 5.978344 0.000299
-1.243471 5.978344 0.000302
-0.928730 5.978344 0.000254
-0.613989 5.978344 0.000244
-0.299248 5.978344 0.000282
0.015493 5.978344 0.000352
0.330234 5.978344 0.000338
0.644975 5.978344 0.000235
0.959716 5.978344 0.000252
1.274457 5.978344 0.000201
1.589198 5.978344 0.000132
1.903938 5.978344 0.000186
2.218679 5.978344 0.000285
2.533421 5.978344 0.000317
2.848162 5.978344 0.000245
3.162903 5.978344 0.000124
3.477644 5.978344 0.000145
3.792385 5.978344 0.000093
4.107125 5.978344 -0.000020
4.421866 5.978344 -0.000140
4.736608 5.978344 -0.000172
5.051349 5.978344 -0.000242
5.366090 5.978344 -0.000483
5.680831 5.978344 -0.000977
5.995571 5.978344 -0.001461
6.310312 5.978344 -0.001799
6.625053 5.978344 -0.002334
6.939795 5.978344 -0.001582
7.254536 5.978344 0.000376
7.569277 5.978344 0.003310
7.884017 5.978344 0.008099
8.198758 5.978344 0.010128
8.513499 5.978344 0.014010
8.828240 5.978344 0.017168
9.142982 5.978344 0.017849
9.457723 5.978344 0.032573
9.772464 5.978344 0.030350
10.087205 5.978344 0.031291
10.401946 5.978344 0.037966
10.716687 5.978344 0.049371
11.031426 5.978344 0.056437
11.346168 5.978344 0.058154
11.660909 5.978344 0.045947
11.975650 5.978344 0.040627
12.290391 5.978344 0.037935
12.605132 5.978344 0.020102
12.919873 5.978344 -0.002955
13.234614 5.978344 0.014296
13.549356 5.978344 0.018249
13.864097 5.978344 0.007210
14.178838 5.978344 0.017014
14.493579 5.978344 0.029726
14.808320 5.978344 0.030479
15.123059 5.978344 0.033112
15.437800 5.978344 0.051435
15.752542 5.978344 -0.005412
16.067284 5.978344 0.000000
16.382023 5.978344 0.000000
16.696766 5.978344 0.000000
17.011505 5.978344 0.000000
17.326248 5.978344 0.000000
17.640987 5.978344 0.000000
17.955730 5.978344 0.000000
18.270470 5.978344 0.000000
18.585213 5.978344 0.000000
18.899952 5.978344 0.000000
-7.223550 5.663605 0.000000
-6.908809 5.663605 0.000689
-6.594068 5.663605 0.000418
-6.279327 5.663605 0.000361
-5.964586 5.663605 0.000393
-5.649845 5.663605 0.000410
-5.335104 5.663605 0.000355
-5.020363 5.663605 0.000335
-4.705622 5.663605 0.000340
-4.390881 5.663605 0.000414
-4.076140 5.663605 0.000391
-3.761399 5.663605 0.000334
-3.446658 5.663605 0.000389
-3.131917 5.663605 0.000457
-2.817176 5.663605 0.000394
-2.502435 5.663605 0.000322
-2.187694 5.663605 0.000301
-1.872953 5.663605 0.000278
-1.558212 5.663605 0.000301
-1.243471 5.663605 0.000308
-0.928730 5.663605 0.000284
-0.613989 5.663605 0.000289
-0.299248 5.663605 0.000343
0.015493 5.663605 0.000374
0.330234 5.663605 0.000384
0.644975 5.663605 0.000250
0.959716 5.663605 0.000231
1.274457 5.663605 0.000202
1.589198 5.663605 0.000168
1.903938 5.663605 0.000200
2.218679 5.663605 0.000258
2.533421 5.663605 0.000295
2.848162 5.663605 0.000253
3.162903 5.663605 0.000159
3.477644 5.663605 0.000134
3.792385 5.663605 0.000046
4.107125 5.663605 -0.000082
4.421866 5.663605 -0.000219
4.736608 5.663605 -0.000261
5.051349 5.663605 -0.000383
5.366090 5.663605 -0.000644
5.680831 5.663605 -0.000945
5.995571 5.663605 -0.001410
6.310312 5.663605 -0.001914
6.625053 5.663605 -0.002378
6.939795 5.663605 -0.001515
7.254536 5.663605 0.000245
7.569277 5.663605 0.002085
7.884017 5.663605 0.006707
8.198758 5.663605 0.011871
8.513499 5.663605 0.016416
8.828240 5.663605 0.020470
9.142982 5.663605 0.020092
9.457723 5.663605 0.031362
9.772464 5.663605 0.035009
10.087205 5.663605 0.028681
10.401946 5.663605 0.035093
10.716687 5.663605 0.044936
11.031426 5.663605 0.055702
11.346168 5.663605 0.044927
11.660909 5.663605 0.053233
11.975650 5.663605 0.042842
12.290391 5.663605 0.054439
12.605132 5.663605 0.042885
12.919873 5.663605 0.018650
13.234614 5.663605 0.011575
13.549356 5.663605 0.022413
13.864097 5.663605 0.014881
14.178838 5.663605 0.025804
14.493579 5.663605 0.039950
14.808320 5.663605 0.034810
15.123059 5.663605 0.047576
15.437800 5.663605 0.078443
15.752542 5.663605 -0.069598
16.067284 5.663605 0.000000
16.382023 5.663605 0.000000
16.696766 5.663605 0.000000
17.011505 5.663605 0.000000
17.326248 5.663605 0.000000
17.640987 5.663605 0.000000
17.955730 5.663605 0.000000
18.270470 5.663605 0.000000
18.585213 5.663605 0.000000
18.899952 5.663605 0.000000
-7.223550 5.348862 0.000000
-6.908809 5.348862 0.000746
-6.594068 5.348862 0.000397
-6.279327 5.348862 0.000324
-5.964586 5.348862 0.000361
-5.649845 5.348862 0.000409
-5.335104 5.348862 0.000368
-5.020363 5.348862 0.000385
-4.705622 5.348862 0.000407
-4.390881 5.348862 0.000430
-4.076140 5.348862 0.000380
-3.761399 5.348862 0.000322
-3.446658 5.348862 0.000379
-3.131917 5.348862 0.000440
-2.817176 5.348862 0.000427
-2.502435 5.348862 0.000399
-2.187694 5.348862 0.000345
-1.872953 5.348862 0.000328
-1.558212 5.348862 0.000310
-1.243471 5.348862 0.000314
-0.928730 5.348862 0.000318
-0.613989 5.348862 0.000348
-0.299248 5.348862 0.000380
0.015493 5.348862 0.000385
0.330234 5.348862 0.000409
0.644975 5.348862 0.000282
0.959716 5.348862 0.000225
1.274457 5.348862 0.000227
1.589198 5.348862 0.000234
1.903938 5.348862 0.000249
2.218679 5.348862 0.000250
2.533421 5.348862 0.000267
2.848162 5.348862 0.000243
3.162903 5.348862 0.000183
3.477644 5.348862 0.000080
3.792385 5.348862 -0.000036
4.107125 5.348862 -0.000111
4.421866 5.348862 -0.000219
4.736608 5.348862 -0.000330
5.051349 5.348862 -0.000494
5.366090 5.348862 -0.000750
5.680831 5.348862 -0.001004
5.995571 5.348862 -0.001518
6.310312 5.348862 -0.001979
6.625053 5.348862 -0.002080
6.939795 5.348862 -0.001200
7.254536 5.348862 0.000185
7.569277 5.348862 0.002669
7.884017 5.348862 0.004374
8.198758 5.348862 0.009112
8.513499 5.348862 0.013924
8.828240 5.348862 0.023306
9.142982 5.348862 0.028958
9.457723 5.348862 0.036580
9.772464 5.348862 0.036541
10.087205 5.348862 0.034066
10.401946 5.348862 0.045884
10.716687 5.348862 0.052384
11.031426 5.348862 0.050993
11.346168 5.348862 0.052803
11.660909 5.348862 0.055373
11.975650 5.348862 0.043442
12.290391 5.348862 0.054773
12.605132 5.348862 0.046324
12.919873 5.348862 0.036031
13.234614 5.348862 0.028153
13.549356 5.348862 0.031046
13.864097 5.348862 0.030992
14.178838 5.348862 0.036689
14.493579 5.348862 0.053400
14.808320 5.348862 0.044258
15.123059 5.348862 0.060628
15.437800 5.348862 0.082520
15.752542 5.348862 -0.059512
16.067284 5.348862 0.000000
16.382023 5.348862 0.000000
16.696766 5.348862 0.000000
17.011505 5.348862 0.000000
17.326248 5.348862 0.000000
17.640987 5.348862 0.000000
17.955730 5.348862 0.000000
18.270470 5.348862 0.000000
18.585213 5.348862 0.000000
18.899952 5.348862 0.000000
-7.223550 5.034122 0.000000
-6.908809 5.034122 0.000774
-6.594068 5.034122 0.000408
-6.279327 5.034122 0.000344
-5.964586 5.034122 0.000346
-5.649845 5.034122 0.000404
-5.335104 5.034122 0.000417
-5.020363 5.034122 0.000473
-4.705622 5.034122 0.000497
-4.390881 5.034122 0.000464
-4.076140 5.034122 0.000415
-3.761399 5.034122 0.000330
-3.446658 5.034122 0.000345
-3.131917 5.034122 0.000421
-2.817176 5.034122 0.000442
-2.502435 5.034122 0.000432
-2.187694 5.034122 0.000398
-1.872953 5.034122 0.000387
-1.558212 5.034122 0.000340
-1.243471 5.034122 0.000333
-0.928730 5.034122 0.000341
-0.613989 5.034122 0.000358
-0.299248 5.034122 0.000371
0.015493 5.034122 0.000354
0.330234 5.034122 0.000365
0.644975 5.034122 0.000293
0.959716 5.034122 0.000240
1.274457 5.034122 0.000254
1.589198 5.034122 0.000259
1.903938 5.034122 0.000256
2.218679 5.034122 0.000212
2.533421 5.034122 0.000205
2.848162 5.034122 0.000211
3.162903 5.034122 0.000169
3.477644 5.034122 0.000038
3.792385 5.034122 -0.000056
4.107125 5.034122 -0.000130
4.421866 5.034122 -0.000176
4.736608 5.034122 -0.000309
5.051349 5.034122 -0.000531
5.366090 5.034122 -0.000724
5.680831 5.034122 -0.001158
5.995571 5.034122 -0.001754
6.310312 5.034122 -0.002144
6.625053 5.034122 -0.001844
6.939795 5.034122 -0.001418
7.254536 5.034122 0.000113
7.569277 5.034122 0.002610
7.884017 5.034122 0.006137
8.198758 5.034122 0.006317
8.513499 5.034122 0.013023
8.828240 5.034122 0.023515
9.142982 5.034122 0.036893
9.457723 5.034122 0.043830
9.772464 5.034122 0.040984
10.087205 5.034122 0.039999
10.401946 5.034122 0.045942
10.716687 5.034122 0.051466
11.031426 5.034122 0.050910
11.346168 5.034122 0.049084
11.660909 5.034122 0.043590
11.975650 5.034122 0.045282
12.290391 5.034122 0.034601
12.605132 5.034122 0.040246
12.919873 5.034122 0.018727
13.234614 5.034122 0.042236
13.549356 5.034122 0.039571
13.864097 5.034122 0.047259
14.178838 5.034122 0.051177
14.493579 5.034122 0.049192
14.808320 5.034122 0.048334
15.123059 5.034122 0.042233
15.437800 5.034122 0.069662
15.752542 5.034122 -0.091045
16.067284 5.034122 0.000000
16.382023 5.034122 0.000000
16.696766 5.034122 0.000000
17.011505 5.034122 0.000000
17.326248 5.034122 0.000000
17.640987 5.034122 0.000000
17.955730 5.034122 0.000000
18.270470 5.034122 0.000000
18.585213 5.034122 0.000000
18.899952 5.034122 0.000000
-7.223550 4.719383 0.000000
-6.908809 4.719383 0.000754
-6.594068 4.719383 0.000435
-6.279327 4.719383 0.000397
-5.964586 4.719383 0.000364
-5.649845 4.719383 0.000432
-5.335104 4.719383 0.000457
-5.020363 4.719383 0.000514
-4.705622 4.719383 0.000530
-4.390881 4.719383 0.000533
-4.076140 4.719383 0.000474
-3.761399 4.719383 0.000365
-3.446658 4.719383 0.000335
-3.131917 4.719383 0.000383
-2.817176 4.719383 0.000406
-2.502435 4.719383 0.000407
-2.187694 4.719383 0.000416
-1.872953 4.719383 0.000415
-1.558212 4.719383 0.000359
-1.243471 4.719383 0.000339
-0.928730 4.719383 0.000320
-0.613989 4.719383 0.000318
-0.299248 4.719383 0.000321
0.015493 4.719383 0.000284
0.330234 4.719383 0.000275
0.644975 4.719383 0.000281
0.959716 4.719383 0.000271
1.274457 4.719383 0.000268
1.589198 4.719383 0.000251
1.903938 4.719383 0.000175
2.218679 4.719383 0.000121
2.533421 4.719383 0.000142
2.848162 4.719383 0.000187
3.162903 4.719383 0.000175
3.477644 4.719383 0.000013
3.792385 4.719383 -0.000067
4.107125 4.719383 -0.000136
4.421866 4.719383 -0.000150
4.736608 4.719383 -0.000292
5.051349 4.719383 -0.000538
5.366090 4.719383 -0.000707
5.680831 4.719383 -0.001144
5.995571 4.719383 -0.001787
6.310312 4.719383 -0.001833
6.625053 4.719383 -0.001453
6.939795 4.719383 -0.001211
7.254536 4.719383 -0.000828
7.569277 4.719383 0.001936
7.884017 4.719383 0.006917
8.198758 4.719383 0.008689
8.513499 4.719383 0.011501
8.828240 4.719383 0.025533
9.142982 4.719383 0.039556
9.457723 4.719383 0.046417
9.772464 4.719383 0.042283
10.087205 4.719383 0.046434
10.401946 4.719383 0.043087
10.716687 4.719383 0.048200
11.031426 4.719383 0.058368
11.346168 4.719383 0.050055
11.660909 4.719383 0.033801
11.975650 4.719383 0.036252
12.290391 4.719383 0.029937
12.605132 4.719383 0.027141
12.919873 4.719383 0.011568
13.234614 4.719383 0.036974
13.549356 4.719383 0.042606
13.864097 4.719383 0.062403
14.178838 4.719383 0.054688
14.493579 4.719383 0.056389
14.808320 4.719383 0.059254
15.123059 4.719383 0.033354
15.437800 4.719383 0.038989
15.752542 4.719383 -0.108980
16.067284 4.719383 0.000000
16.382023 4.719383 0.000000
16.696766 4.719383 0.000000
17.011505 4.719383 0.000000
17.326248 4.719383 0.000000
17.640987 4.719383 0.000000
17.955730 4.719383 0.000000
18.270470 4.719383 0.000000
18.585213 4.719383 0.000000
18.899952 4.719383 0.000000
-7.223550 4.404640 0.000000
-6.908809 4.404640 0.000686
-6.594068 4.404640 0.000446
-6.279327 4.404640 0.000447
-5.964586 4.404640 0.000429
-5.649845 4.404640 0.000454
-5.335104 4.404640 0.000485
-5.020363 4.404640 0.000510
-4.705622 4.404640 0.000519
-4.390881 4.404640 0.000569
-4.076140 4.404640 0.000507
-3.761399 4.404640 0.000416
-3.446658 4.404640 0.000384
-3.131917 4.404640 0.000371
-2.817176 4.404640 0.000345
-2.502435 4.404640 0.000350
-2.187694 4.404640 0.000390
-1.872953 4.404640 0.000417
-1.558212 4.404640 0.000362
-1.243471 4.404640 0.000313
-0.928730 4.404640 0.000247
-0.613989 4.404640 0.000217
-0.299248 4.404640 0.000240
0.015493 4.404640 0.000220
0.330234 4.404640 0.000208
0.644975 4.404640 0.000263
0.959716 4.404640 0.000261
1.274457 4.404640 0.000260
1.589198 4.404640 0.000250
1.903938 4.404640 0.000093
2.218679 4.404640 0.000013
2.533421 4.404640 0.000050
2.848162 4.404640 0.000149
3.162903 4.404640 0.000180
3.477644 4.404640 0.000007
3.792385 4.404640 -0.000109
4.107125 4.404640 -0.000163
4.421866 4.404640 -0.000190
4.736608 4.404640 -0.000415
5.051349 4.404640 -0.000616
5.366090 4.404640 -0.000731
5.680831 4.404640 -0.001116
5.995571 4.404640 -0.001695
6.310312 4.404640 -0.001710
6.625053 4.404640 -0.001227
6.939795 4.404640 -0.001343
7.254536 4.404640 -0.000987
7.569277 4.404640 0.001138
7.884017 4.404640 0.006494
8.198758 4.404640 0.012281
8.513499 4.404640 0.016209
8.828240 4.404640 0.021616
9.142982 4.404640 0.036947
9.457723 4.404640 0.046518
9.772464 4.404640 0.045223
10.087205 4.404640 0.041958
10.401946 4.404640 0.048338
10.716687 4.404640 0.045940
11.031426 4.404640 0.055501
11.346168 4.404640 0.045828
11.660909 4.404640 0.039819
11.975650 4.404640 0.033438
12.290391 4.404640 0.028575
12.605132 4.404640 0.018174
12.919873 4.404640 0.014162
13.234614 4.404640 0.034135
13.549356 4.404640 0.038119
13.864097 4.404640 0.076034
14.178838 4.404640 0.073304
14.493579 4.404640 0.081836
14.808320 4.404640 0.061362
15.123059 4.404640 0.027729
15.437800 4.404640 0.030207
15.752542 4.404640 -0.046599
16.067284 4.404640 0.000000
16.382023 4.404640 0.000000
16.696766 4.404640 0.000000
17.011505 4.404640 0.000000
17.326248 4.404640 0.000000
17.640987 4.404640 0.000000
17.955730 4.404640 0.000000
18.270470 4.404640 0.000000
18.585213 4.404640 0.000000
18.899952 4.404640 0.000000
-7.223550 4.089901 0.000000
-6.908809 4.089901 0.000562
-6.594068 4.089901 0.000433
-6.279327 4.089901 0.000484
-5.964586 4.089901 0.000493
-5.649845 4.089901 0.000453
-5.335104 4.089901 0.000468
-5.020363 4.089901 0.000515
-4.705622 4.089901 0.000496
-4.390881 4.089901 0.000536
-4.076140 4.089901 0.000482
-3.761399 4.089901 0.000446
-3.446658 4.089901 0.000437
-3.131917 4.089901 0.000344
-2.817176 4.089901 0.000296
-2.502435 4.089901 0.000310
-2.187694 4.089901 0.000359
-1.872953 4.089901 0.000381
-1.558212 4.089901 0.000328
-1.243471 4.089901 0.000277
-0.928730 4.089901 0.000197
-0.613989 4.089901 0.000174
-0.299248 4.089901 0.000192
0.015493 4.089901 0.000209
0.330234 4.089901 0.000194
0.644975 4.089901 0.000216
0.959716 4.089901 0.000217
1.274457 4.089901 0.000257
1.589198 4.089901 0.000285
1.903938 4.089901 0.000080
2.218679 4.089901 -0.000052
2.533421 4.089901 0.000007
2.848162 4.089901 0.000113
3.162903 4.089901 0.000173
3.477644 4.089901 -0.000023
3.792385 4.089901 -0.000177
4.107125 4.089901 -0.000243
4.421866 4.089901 -0.000322
4.736608 4.089901 -0.000573
5.051349 4.089901 -0.000719
5.366090 4.089901 -0.000821
5.680831 4.089901 -0.001071
5.995571 4.089901 -0.001731
6.310312 4.089901 -0.001654
6.625053 4.089901 -0.001357
6.939795 4.089901 -0.001525
7.254536 4.089901 -0.000519
7.569277 4.089901 0.001515
7.884017 4.089901 0.008410
8.198758 4.089901 0.014596
8.513499 4.089901 0.020267
8.828240 4.089901 0.027190
9.142982 4.089901 0.037395
9.457723 4.089901 0.045299
9.772464 4.089901 0.049284
10.087205 4.089901 0.045200
10.401946 4.089901 0.044093
10.716687 4.089901 0.037806
11.031426 4.089901 0.045335
11.346168 4.089901 0.047159
11.660909 4.089901 0.037854
11.975650 4.089901 0.040054
12.290391 4.089901 0.036052
12.605132 4.089901 0.017350
12.919873 4.089901 0.017021
13.234614 4.089901 0.010778
13.549356 4.089901 0.025134
13.864097 4.089901 0.043922
14.178838 4.089901 0.062143
14.493579 4.089901 0.054317
14.808320 4.089901 0.047655
15.123059 4.089901 0.050999
15.437800 4.089901 0.019750
15.752542 4.089901 0.000000
16.067284 4.089901 0.000000
16.382023 4.089901 0.000000
16.696766 4.089901 0.000000
17.011505 4.089901 0.000000
17.326248 4.089901 0.000000
17.640987 4.089901 0.000000
17.955730 4.089901 0.000000
18.270470 4.089901 0.000000
18.585213 4.089901 0.000000
18.899952 4.089901 0.000000
-7.223550 3.775158 0.000000
-6.908809 3.775158 0.000507
-6.594068 3.775158 0.000421
-6.279327 3.775158 0.000495
-5.964586 3.775158 0.000529
-5.649845 3.775158 0.000446
-5.335104 3.775158 0.000466
-5.020363 3.775158 0.000562
-4.705622 3.775158 0.000488
-4.390881 3.775158 0.000472
-4.076140 3.775158 0.000411
-3.761399 3.775158 0.000414
-3.446658 3.775158 0.000439
-3.131917 3.775158 0.000321
-2.817176 3.775158 0.000283
-2.502435 3.775158 0.000311
-2.187694 3.775158 0.000334
-1.872953 3.775158 0.000318
-1.558212 3.775158 0.000277
-1.243471 3.775158 0.000247
-0.928730 3.775158 0.000211
-0.613989 3.775158 0.000211
-0.299248 3.775158 0.000197
0.015493 3.775158 0.000234
0.330234 3.775158 0.000201
0.644975 3.775158 0.000158
0.959716 3.775158 0.000173
1.274457 3.775158 0.000236
1.589198 3.775158 0.000275
1.903938 3.775158 0.000068
2.218679 3.775158 -0.000069
2.533421 3.775158 0.000019
2.848162 3.775158 0.000107
3.162903 3.775158 0.000155
3.477644 3.775158 -0.000060
3.792385 3.775158 -0.000225
4.107125 3.775158 -0.000321
4.421866 3.775158 -0.000436
4.736608 3.775158 -0.000682
5.051349 3.775158 -0.000768
5.366090 3.775158 -0.000888
5.680831 3.775158 -0.001374
5.995571 3.775158 -0.001762
6.310312 3.775158 -0.001369
6.625053 3.775158 -0.001546
6.939795 3.775158 -0.002061
7.254536 3.775158 -0.000490
7.569277 3.775158 0.004373
7.884017 3.775158 0.007328
8.198758 3.775158 0.014180
8.513499 3.775158 0.021613
8.828240 3.775158 0.029641
9.142982 3.775158 0.035928
9.457723 3.775158 0.046729
9.772464 3.775158 0.050627
10.087205 3.775158 0.052195
10.401946 3.775158 0.046626
10.716687 3.775158 0.047430
11.031426 3.775158 0.053177
11.346168 3.775158 0.037349
11.660909 3.775158 0.040732
11.975650 3.775158 0.041846
12.290391 3.775158 0.033751
12.605132 3.775158 0.033033
12.919873 3.775158 0.025364
13.234614 3.775158 0.009930
13.549356 3.775158 -0.003576
13.864097 3.775158 0.021856
14.178838 3.775158 0.069752
14.493579 3.775158 0.085359
14.808320 3.775158 0.083121
15.123059 3.775158 0.079515
15.437800 3.775158 0.033319
15.752542 3.775158 0.000000
16.067284 3.775158 0.000000
16.382023 3.775158 0.000000
16.696766 3.775158 0.000000
17.011505 3.775158 0.000000
17.326248 3.775158 0.000000
17.640987 3.775158 0.000000
17.955730 3.775158 0.000000
18.270470 3.775158 0.000000
18.585213 3.775158 0.000000
18.899952 3.775158 0.000000
-7.223550 3.460419 0.000000
-6.908809 3.460419 0.000517
-6.594068 3.460419 0.000449
-6.279327 3.460419 0.000497
-5.964586 3.460419 0.000508
-5.649845 3.460419 0.000434
-5.335104 3.460419 0.000470
-5.020363 3.460419 0.000588
-4.705622 3.460419 0.000499
-4.390881 3.460419 0.000440
-4.076140 3.460419 0.000381
-3.761399 3.460419 0.000337
-3.446658 3.460419 0.000339
-3.131917 3.460419 0.000282
-2.817176 3.460419 0.000339
-2.502435 3.460419 0.000362
-2.187694 3.460419 0.000331
-1.872953 3.460419 0.000263
-1.558212 3.460419 0.000231
-1.243471 3.460419 0.000259
-0.928730 3.460419 0.000276
-0.613989 3.460419 0.000277
-0.299248 3.460419 0.000238
0.015493 3.460419 0.000274
0.330234 3.460419 0.000235
0.644975 3.460419 0.000159
0.959716 3.460419 0.000169
1.274457 3.460419 0.000227
1.589198 3.460419 0.000232
1.903938 3.460419 0.000073
2.218679 3.460419 -0.000029
2.533421 3.460419 0.000059
2.848162 3.460419 0.000127
3.162903 3.460419 0.000096
3.477644 3.460419 -0.000090
3.792385 3.460419 -0.000228
4.107125 3.460419 -0.000380
4.421866 3.460419 -0.000524
4.736608 3.460419 -0.000704
5.051349 3.460419 -0.000786
5.366090 3.460419 -0.001084
5.680831 3.460419 -0.001520
5.995571 3.460419 -0.001724
6.310312 3.460419 -0.001514
6.625053 3.460419 -0.002457
6.939795 3.460419 -0.002563
7.254536 3.460419 0.001285
7.569277 3.460419 0.005148
7.884017 3.460419 0.008442
8.198758 3.460419 0.015624
8.513499 3.460419 0.022299
8.828240 3.460419 0.027536
9.142982 3.460419 0.041536
9.457723 3.460419 0.051644
9.772464 3.460419 0.051699
10.087205 3.460419 0.053178
10.401946 3.460419 0.056074
10.716687 3.460419 0.041496
11.031426 3.460419 0.044984
11.346168 3.460419 0.037337
11.660909 3.460419 0.043679
11.975650 3.460419 0.046584
12.290391 3.460419 0.039076
12.605132 3.460419 0.028621
12.919873 3.460419 0.008255
13.234614 3.460419 -0.003797
13.549356 3.460419 0.008818
13.864097 3.460419 0.033915
14.178838 3.460419 0.068314
14.493579 3.460419 0.076821
14.808320 3.460419 0.081971
15.123059 3.460419 0.073835
15.437800 3.460419 -0.000997
15.752542 3.460419 0.000000
16.067284 3.460419 0.000000
16.382023 3.460419 0.000000
16.696766 3.460419 0.000000
17.011505 3.460419 0.000000
17.326248 3.460419 0.000000
17.640987 3.460419 0.000000
17.955730 3.460419 0.000000
18.270470 3.460419 0.000000
18.585213 3.460419 0.000000
18.899952 3.460419 0.000000
-7.223550 3.145676 0.000000
-6.908809 3.145676 0.000583
-6.594068 3.145676 0.000524
-6.279327 3.145676 0.000519
-5.964586 3.145676 0.000477
-5.649845 3.145676 0.000432
-5.335104 3.145676 0.000465
-5.020363 3.145676 0.000544
-4.705622 3.145676 0.000477
-4.390881 3.145676 0.000416
-4.076140 3.145676 0.000382
-3.761399 3.145676 0.000293
-3.446658 3.145676 0.000257
-3.131917 3.145676 0.000266
-2.817176 3.145676 0.000406
-2.502435 3.145676 0.000417
-2.187694 3.145676 0.000352
-1.872953 3.145676 0.000235
-1.558212 3.145676 0.000219
-1.243471 3.145676 0.000302
-0.928730 3.145676 0.000338
-0.613989 3.145676 0.000306
-0.299248 3.145676 0.000270
0.015493 3.145676 0.000282
0.330234 3.145676 0.000281
0.644975 3.145676 0.000228
0.959716 3.145676 0.000172
1.274457 3.145676 0.000211
1.589198 3.145676 0.000227
1.903938 3.145676 0.000136
2.218679 3.145676 0.000036
2.533421 3.145676 0.000083
2.848162 3.145676 0.000095
3.162903 3.145676 -0.000002
3.477644 3.145676 -0.000058
3.792385 3.145676 -0.000184
4.107125 3.145676 -0.000420
4.421866 3.145676 -0.000580
4.736608 3.145676 -0.000659
5.051349 3.145676 -0.000799
5.366090 3.145676 -0.001290
5.680831 3.145676 -0.001778
5.995571 3.145676 -0.001786
6.310312 3.145676 -0.001853
6.625053 3.145676 -0.002206
6.939795 3.145676 -0.002164
7.254536 3.145676 0.001692
7.569277 3.145676 0.007276
7.884017 3.145676 0.009465
8.198758 3.145676 0.015704
8.513499 3.145676 0.023421
8.828240 3.145676 0.028483
9.142982 3.145676 0.039194
9.457723 3.145676 0.050439
9.772464 3.145676 0.049929
10.087205 3.145676 0.055373
10.401946 3.145676 0.053869
10.716687 3.145676 0.045538
11.031426 3.145676 0.043301
11.346168 3.145676 0.033851
11.660909 3.145676 0.042508
11.975650 3.145676 0.042886
12.290391 3.145676 0.029939
12.605132 3.145676 0.022874
12.919873 3.145676 0.017031
13.234614 3.145676 -0.003340
13.549356 3.145676 0.014852
13.864097 3.145676 0.059260
14.178838 3.145676 0.052401
14.493579 3.145676 0.065437
14.808320 3.145676 0.074426
15.123059 3.145676 0.082604
15.437800 3.145676 -0.050483
15.752542 3.145676 0.000000
16.067284 3.145676 0.000000
16.382023 3.145676 0.000000
16.696766 3.145676 0.000000
17.011505 3.145676 0.000000
17.326248 3.145676 0.000000
17.640987 3.145676 0.000000
17.955730 3.145676 0.000000
18.270470 3.145676 0.000000
18.585213 3.145676 0.000000
18.899952 3.145676 0.000000
-7.223550 2.830936 0.000000
-6.908809 2.830936 0.000632
-6.594068 2.830936 0.000572
-6.279327 2.830936 0.000553
-5.964586 2.830936 0.000486
-5.649845 2.830936 0.000457
-5.335104 2.830936 0.000453
-5.020363 2.830936 0.000460
-4.705622 2.830936 0.000423
-4.390881 2.830936 0.000408
-4.076140 2.830936 0.000405
-3.761399 2.830936 0.000316
-3.446658 2.830936 0.000254
-3.131917 2.830936 0.000289
-2.817176 2.830936 0.000435
-2.502435 2.830936 0.000440
-2.187694 2.830936 0.000347
-1.872953 2.830936 0.000232
-1.558212 2.830936 0.000212
-1.243471 2.830936 0.000311
-0.928730 2.830936 0.000352
-0.613989 2.830936 0.000302
-0.299248 2.830936 0.000297
0.015493 2.830936 0.000291
0.330234 2.830936 0.000280
0.644975 2.830936 0.000244
0.959716 2.830936 0.000137
1.274457 2.830936 0.000160
1.589198 2.830936 0.000195
1.903938 2.830936 0.000145
2.218679 2.830936 0.000079
2.533421 2.830936 0.000056
2.848162 2.830936 0.000001
3.162903 2.830936 -0.000053
3.477644 2.830936 -0.000010
3.792385 2.830936 -0.000134
4.107125 2.830936 -0.000410
4.421866 2.830936 -0.000491
4.736608 2.830936 -0.000564
5.051349 2.830936 -0.000824
5.366090 2.830936 -0.001346
5.680831 2.830936 -0.001779
5.995571 2.830936 -0.002146
6.310312 2.830936 -0.002264
6.625053 2.830936 -0.002220
6.939795 2.830936 -0.001565
7.254536 2.830936 0.002217
7.569277 2.830936 0.006000
7.884017 2.830936 0.010299
8.198758 2.830936 0.018142
8.513499 2.830936 0.025763
8.828240 2.830936 0.028238
9.142982 2.830936 0.034447
9.457723 2.830936 0.042031
9.772464 2.830936 0.047758
10.087205 2.830936 0.054675
10.401946 2.830936 0.061117
10.716687 2.830936 0.045631
11.031426 2.830936 0.041114
11.346168 2.830936 0.035375
11.660909 2.830936 0.044973
11.975650 2.830936 0.036489
12.290391 2.830936 0.030935
12.605132 2.830936 0.021033
12.919873 2.830936 0.026841
13.234614 2.830936 0.014121
13.549356 2.830936 0.026767
13.864097 2.830936 0.061993
14.178838 2.830936 0.081982
14.493579 2.830936 0.068718
14.808320 2.830936 0.080521
15.123059 2.830936 0.065502
15.437800 2.830936 -0.326698
15.752542 2.830936 0.000000
16.067284 2.830936 0.000000
16.382023 2.830936 0.000000
16.696766 2.830936 0.000000
17.011505 2.830936 0.000000
17.326248 2.830936 0.000000
17.640987 2.830936 0.000000
17.955730 2.830936 0.000000
18.270470 2.830936 0.000000
18.585213 2.830936 0.000000
18.899952 2.830936 0.000000
-7.223550 2.516193 0.000000
-6.908809 2.516193 0.000607
-6.594068 2.516193 0.000604
-6.279327 2.516193 0.000618
-5.964586 2.516193 0.000542
-5.649845 2.516193 0.000495
-5.335104 2.516193 0.000442
-5.020363 2.516193 0.000369
-4.705622 2.516193 0.000378
-4.390881 2.516193 0.000421
-4.076140 2.516193 0.000440
-3.761399 2.516193 0.000368
-3.446658 2.516193 0.000315
-3.131917 2.516193 0.000349
-2.817176 2.516193 0.000443
-2.502435 2.516193 0.000420
-2.187694 2.516193 0.000328
-1.872953 2.516193 0.000217
-1.558212 2.516193 0.000229
-1.243471 2.516193 0.000310
-0.928730 2.516193 0.000327
-0.613989 2.516193 0.000301
-0.299248 2.516193 0.000352
0.015493 2.516193 0.000338
0.330234 2.516193 0.000243
0.644975 2.516193 0.000170
0.959716 2.516193 0.000059
1.274457 2.516193 0.000086
1.589198 2.516193 0.000132
1.903938 2.516193 0.000094
2.218679 2.516193 0.000074
2.533421 2.516193 -0.000006
2.848162 2.516193 -0.000065
3.162903 2.516193 -0.000026
3.477644 2.516193 0.000007
3.792385 2.516193 -0.000173
4.107125 2.516193 -0.000338
4.421866 2.516193 -0.000385
4.736608 2.516193 -0.000463
5.051349 2.516193 -0.000894
5.366090 2.516193 -0.001419
5.680831 2.516193 -0.001773
5.995571 2.516193 -0.002429
6.310312 2.516193 -0.002385
6.625053 2.516193 -0.002815
6.939795 2.516193 0.000067
7.254536 2.516193 0.001972
7.569277 2.516193 0.006613
7.884017 2.516193 0.012997
8.198758 2.516193 0.018048
8.513499 2.516193 0.025337
8.828240 2.516193 0.033111
9.142982 2.516193 0.041534
9.457723 2.516193 0.043584
9.772464 2.516193 0.049902
10.087205 2.516193 0.056347
10.401946 2.516193 0.059758
10.716687 2.516193 0.047966
11.031426 2.516193 0.041353
11.346168 2.516193 0.038679
11.660909 2.516193 0.035381
11.975650 2.516193 0.032080
12.290391 2.516193 0.035504
12.605132 2.516193 0.023137
12.919873 2.516193 0.012241
13.234614 2.516193 0.045731
13.549356 2.516193 0.057847
13.864097 2.516193 0.070796
14.178838 2.516193 0.089504
14.493579 2.516193 0.053969
14.808320 2.516193 0.060212
15.123059 2.516193 0.067018
15.437800 2.516193 0.000000
15.752542 2.516193 0.000000
16.067284 2.516193 0.000000
16.382023 2.516193 0.000000
16.696766 2.516193 0.000000
17.011505 2.516193 0.000000
17.326248 2.516193 0.000000
17.640987 2.516193 0.000000
17.955730 2.516193 0.000000
18.270470 2.516193 0.000000
18.585213 2.516193 0.000000
18.899952 2.516193 0.000000
-7.223550 2.201454 0.000000
-6.908809 2.201454 0.000498
-6.594068 2.201454 0.000605
-6.279327 2.201454 0.000677
-5.964586 2.201454 0.000579
-5.649845 2.201454 0.000492
-5.335104 2.201454 0.000388
-5.020363 2.201454 0.000328
-4.705622 2.201454 0.000382
-4.390881 2.201454 0.000430
-4.076140 2.201454 0.000436
-3.761399 2.201454 0.000421
-3.446658 2.201454 0.000394
-3.131917 2.201454 0.000385
-2.817176 2.201454 0.000417
-2.502435 2.201454 0.000380
-2.187694 2.201454 0.000279
-1.872953 2.201454 0.000212
-1.558212 2.201454 0.000259
-1.243471 2.201454 0.000326
-0.928730 2.201454 0.000324
-0.613989 2.201454 0.000308
-0.299248 2.201454 0.000365
0.015493 2.201454 0.000372
0.330234 2.201454 0.000200
0.644975 2.201454 0.000076
0.959716 2.201454 -0.000008
1.274457 2.201454 0.000054
1.589198 2.201454 0.000086
1.903938 2.201454 0.000035
2.218679 2.201454 0.000038
2.533421 2.201454 -0.000065
2.848162 2.201454 -0.000102
3.162903 2.201454 0.000025
3.477644 2.201454 -0.000023
3.792385 2.201454 -0.000278
4.107125 2.201454 -0.000307
4.421866 2.201454 -0.000295
4.736608 2.201454 -0.000532
5.051349 2.201454 -0.001047
5.366090 2.201454 -0.001470
5.680831 2.201454 -0.001832
5.995571 2.201454 -0.002435
6.310312 2.201454 -0.002615
6.625053 2.201454 -0.002274
6.939795 2.201454 -0.000615
7.254536 2.201454 0.001449
7.569277 2.201454 0.005467
7.884017 2.201454 0.011785
8.198758 2.201454 0.018826
8.513499 2.201454 0.022611
8.828240 2.201454 0.032003
9.142982 2.201454 0.044145
9.457723 2.201454 0.049913
9.772464 2.201454 0.054300
10.087205 2.201454 0.062110
10.401946 2.201454 0.051485
10.716687 2.201454 0.038584
11.031426 2.201454 0.040371
11.346168 2.201454 0.038639
11.660909 2.201454 0.032287
11.975650 2.201454 0.040424
12.290391 2.201454 0.040792
12.605132 2.201454 0.019403
12.919873 2.201454 0.035468
13.234614 2.201454 0.067007
13.549356 2.201454 0.072199
13.864097 2.201454 0.066473
14.178838 2.201454 0.073668
14.493579 2.201454 0.073940
14.808320 2.201454 0.067487
15.123059 2.201454 0.054371
15.437800 2.201454 0.000000
15.752542 2.201454 0.000000
16.067284 2.201454 0.000000
16.382023 2.201454 0.000000
16.696766 2.201454 0.000000
17.011505 2.201454 0.000000
17.326248 2.201454 0.000000
17.640987 2.201454 0.000000
17.955730 2.201454 0.000000
18.270470 2.201454 0.000000
18.585213 2.201454 0.000000
18.899952 2.201454 0.000000
-7.223550 1.886711 0.000000
-6.908809 1.886711 0.000474
-6.594068 1.886711 0.000627
-6.279327 1.886711 0.000712
-5.964586 1.886711 0.000581
-5.649845 1.886711 0.000449
-5.335104 1.886711 0.000365
-5.020363 1.886711 0.000348
-4.705622 1.886711 0.000431
-4.390881 1.886711 0.000463
-4.076140 1.886711 0.000408
-3.761399 1.886711 0.000443
-3.446658 1.886711 0.000453
-3.131917 1.886711 0.000378
-2.817176 1.886711 0.000358
-2.502435 1.886711 0.000303
-2.187694 1.886711 0.000192
-1.872953 1.886711 0.000209
-1.558212 1.886711 0.000305
-1.243471 1.886711 0.000343
-0.928730 1.886711 0.000336
-0.613989 1.886711 0.000323
-0.299248 1.886711 0.000322
0.015493 1.886711 0.000321
0.330234 1.886711 0.000168
0.644975 1.886711 0.000037
0.959716 1.886711 -0.000057
1.274457 1.886711 0.000022
1.589198 1.886711 0.000086
1.903938 1.886711 0.000013
2.218679 1.886711 -0.000008
2.533421 1.886711 -0.000107
2.848162 1.886711 -0.000053
3.162903 1.886711 0.000058
3.477644 1.886711 -0.000092
3.792385 1.886711 -0.000365
4.107125 1.886711 -0.000308
4.421866 1.886711 -0.000308
4.736608 1.886711 -0.000665
5.051349 1.886711 -0.001214
5.366090 1.886711 -0.001377
5.680831 1.886711 -0.001735
5.995571 1.886711 -0.002439
6.310312 1.886711 -0.002747
6.625053 1.886711 -0.002703
6.939795 1.886711 -0.001115
7.254536 1.886711 0.001656
7.569277 1.886711 0.003633
7.884017 1.886711 0.010224
8.198758 1.886711 0.016454
8.513499 1.886711 0.022611
8.828240 1.886711 0.028588
9.142982 1.886711 0.047133
9.457723 1.886711 0.050976
9.772464 1.886711 0.054231
10.087205 1.886711 0.058810
10.401946 1.886711 0.057699
10.716687 1.886711 0.040585
11.031426 1.886711 0.039366
11.346168 1.886711 0.043799
11.660909 1.886711 0.046809
11.975650 1.886711 0.035146
12.290391 1.886711 0.050240
12.605132 1.886711 0.037229
12.919873 1.886711 0.046507
13.234614 1.886711 0.079756
13.549356 1.886711 0.074621
13.864097 1.886711 0.079155
14.178838 1.886711 0.061067
14.493579 1.886711 0.043602
14.808320 1.886711 0.033617
15.123059 1.886711 -0.002180
15.437800 1.886711 0.000000
15.752542 1.886711 0.000000
16.067284 1.886711 0.000000
16.382023 1.886711 0.000000
16.696766 1.886711 0.000000
17.011505 1.886711 0.000000
17.326248 1.886711 0.000000
17.640987 1.886711 0.000000
17.955730 1.886711 0.000000
18.270470 1.886711 0.000000
18.585213 1.886711 0.000000
18.899952 1.886711 0.000000
-7.223550 1.571972 0.000000
-6.908809 1.571972 0.000518
-6.594068 1.571972 0.000634
-6.279327 1.571972 0.000690
-5.964586 1.571972 0.000576
-5.649845 1.571972 0.000441
-5.335104 1.571972 0.000384
-5.020363 1.571972 0.000399
-4.705622 1.571972 0.000510
-4.390881 1.571972 0.000502
-4.076140 1.571972 0.000368
-3.761399 1.571972 0.000417
-3.446658 1.571972 0.000438
-3.131917 1.571972 0.000342
-2.817176 1.571972 0.000318
-2.502435 1.571972 0.000229
-2.187694 1.571972 0.000135
-1.872953 1.571972 0.000237
-1.558212 1.571972 0.000344
-1.243471 1.571972 0.000374
-0.928730 1.571972 0.000372
-0.613989 1.571972 0.000351
-0.299248 1.571972 0.000276
0.015493 1.571972 0.000246
0.330234 1.571972 0.000187
0.644975 1.571972 0.000080
0.959716 1.571972 -0.000072
1.274457 1.571972 -0.000017
1.589198 1.571972 0.000067
1.903938 1.571972 0.000012
2.218679 1.571972 -0.000032
2.533421 1.571972 -0.000058
2.848162 1.571972 0.000008
3.162903 1.571972 0.000063
3.477644 1.571972 -0.000168
3.792385 1.571972 -0.000333
4.107125 1.571972 -0.000257
4.421866 1.571972 -0.000319
4.736608 1.571972 -0.000765
5.051349 1.571972 -0.001210
5.366090 1.571972 -0.001380
5.680831 1.571972 -0.001833
5.995571 1.571972 -0.002676
6.310312 1.571972 -0.002752
6.625053 1.571972 -0.002737
6.939795 1.571972 -0.000757
7.254536 1.571972 0.002067
7.569277 1.571972 0.005537
7.884017 1.571972 0.007698
8.198758 1.571972 0.013172
8.513499 1.571972 0.019898
8.828240 1.571972 0.027891
9.142982 1.571972 0.042703
9.457723 1.571972 0.052094
9.772464 1.571972 0.051772
10.087205 1.571972 0.060684
10.401946 1.571972 0.053814
10.716687 1.571972 0.047888
11.031426 1.571972 0.039763
11.346168 1.571972 0.037015
11.660909 1.571972 0.047150
11.975650 1.571972 0.049212
12.290391 1.571972 0.060861
12.605132 1.571972 0.046707
12.919873 1.571972 0.050030
13.234614 1.571972 0.066444
13.549356 1.571972 0.042266
13.864097 1.571972 0.056864
14.178838 1.571972 0.069058
14.493579 1.571972 0.033375
14.808320 1.571972 -0.006837
15.123059 1.571972 0.076559
15.437800 1.571972 0.000000
15.752542 1.571972 0.000000
16.067284 1.571972 0.000000
16.382023 1.571972 0.000000
16.696766 1.571972 0.000000
17.011505 1.571972 0.000000
17.326248 1.571972 0.000000
17.640987 1.571972 0.000000
17.955730 1.571972 0.000000
18.270470 1.571972 0.000000
18.585213 1.571972 0.000000
18.899952 1.571972 0.000000
-7.223550 1.257229 0.000000
-6.908809 1.257229 0.000542
-6.594068 1.257229 0.000577
-6.279327 1.257229 0.000640
-5.964586 1.257229 0.000561
-5.649845 1.257229 0.000455
-5.335104 1.257229 0.000417
-5.020363 1.257229 0.000442
-4.705622 1.257229 0.000540
-4.390881 1.257229 0.000492
-4.076140 1.257229 0.000329
-3.761399 1.257229 0.000370
-3.446658 1.257229 0.000383
-3.131917 1.257229 0.000320
-2.817176 1.257229 0.000319
-2.502435 1.257229 0.000243
-2.187694 1.257229 0.000177
-1.872953 1.257229 0.000261
-1.558212 1.257229 0.000356
-1.243471 1.257229 0.000381
-0.928730 1.257229 0.000403
-0.613989 1.257229 0.000367
-0.299248 1.257229 0.000265
0.015493 1.257229 0.000209
0.330234 1.257229 0.000204
0.644975 1.257229 0.000096
0.959716 1.257229 -0.000064
1.274457 1.257229 -0.000036
1.589198 1.257229 0.000070
1.903938 1.257229 0.000029
2.218679 1.257229 -0.000014
2.533421 1.257229 -0.000014
2.848162 1.257229 0.000032
3.162903 1.257229 -0.000009
3.477644 1.257229 -0.000218
3.792385 1.257229 -0.000187
4.107125 1.257229 -0.000094
4.421866 1.257229 -0.000332
4.736608 1.257229 -0.000906
5.051349 1.257229 -0.001206
5.366090 1.257229 -0.001410
5.680831 1.257229 -0.002143
5.995571 1.257229 -0.002949
6.310312 1.257229 -0.002818
6.625053 1.257229 -0.002501
6.939795 1.257229 -0.000627
7.254536 1.257229 0.002647
7.569277 1.257229 0.005578
7.884017 1.257229 0.008741
8.198758 1.257229 0.016011
8.513499 1.257229 0.021988
8.828240 1.257229 0.033286
9.142982 1.257229 0.042947
9.457723 1.257229 0.047166
9.772464 1.257229 0.043288
10.087205 1.257229 0.051837
10.401946 1.257229 0.055982
10.716687 1.257229 0.041254
11.031426 1.257229 0.043813
11.346168 1.257229 0.044510
11.660909 1.257229 0.040623
11.975650 1.257229 0.051339
12.290391 1.257229 0.056467
12.605132 1.257229 0.073074
12.919873 1.257229 0.054446
13.234614 1.257229 0.053454
13.549356 1.257229 0.055500
13.864097 1.257229 0.054242
14.178838 1.257229 0.030380
14.493579 1.257229 0.018345
14.808320 1.257229 -0.022082
15.123059 1.257229 0.000000
15.437800 1.257229 0.000000
15.752542 1.257229 0.000000
16.067284 1.257229 0.000000
16.382023 1.257229 0.000000
16.696766 1.257229 0.000000
17.011505 1.257229 0.000000
17.326248 1.257229 0.000000
17.640987 1.257229 0.000000
17.955730 1.257229 0.000000
18.270470 1.257229 0.000000
18.585213 1.257229 0.000000
18.899952 1.257229 0.000000
-7.223550 0.942490 0.000000
-6.908809 0.942490 0.000523
-6.594068 0.942490 0.000528
-6.279327 0.942490 0.000585
-5.964586 0.942490 0.000539
-5.649845 0.942490 0.000451
-5.335104 0.942490 0.000427
-5.020363 0.942490 0.000443
-4.705622 0.942490 0.000505
-4.390881 0.942490 0.000444
-4.076140 0.942490 0.000314
-3.761399 0.942490 0.000343
-3.446658 0.942490 0.000357
-3.131917 0.942490 0.000316
-2.817176 0.942490 0.000342
-2.502435 0.942490 0.000308
-2.187694 0.942490 0.000254
-1.872953 0.942490 0.000263
-1.558212 0.942490 0.000324
-1.243471 0.942490 0.000355
-0.928730 0.942490 0.000380
-0.613989 0.942490 0.000340
-0.299248 0.942490 0.000257
0.015493 0.942490 0.000190
0.330234 0.942490 0.000160
0.644975 0.942490 0.000048
0.959716 0.942490 -0.000060
1.274457 0.942490 -0.000016
1.589198 0.942490 0.000050
1.903938 0.942490 0.000014
2.218679 0.942490 0.000013
2.533421 0.942490 0.000052
2.848162 0.942490 0.000016
3.162903 0.942490 -0.000086
3.477644 0.942490 -0.000211
3.792385 0.942490 -0.000072
4.107125 0.942490 -0.000008
4.421866 0.942490 -0.000376
4.736608 0.942490 -0.000912
5.051349 0.942490 -0.001201
5.366090 0.942490 -0.001493
5.680831 0.942490 -0.002209
5.995571 0.942490 -0.002563
6.310312 0.942490 -0.002627
6.625053 0.942490 -0.002105
6.939795 0.942490 -0.000747
7.254536 0.942490 0.002002
7.569277 0.942490 0.006076
7.884017 0.942490 0.008448
8.198758 0.942490 0.017380
8.513499 0.942490 0.026554
8.828240 0.942490 0.032989
9.142982 0.942490 0.043319
9.457723 0.942490 0.040632
9.772464 0.942490 0.044621
10.087205 0.942490 0.045722
10.401946 0.942490 0.048357
10.716687 0.942490 0.037464
11.031426 0.942490 0.042266
11.346168 0.942490 0.037315
11.660909 0.942490 0.039899
11.975650 0.942490 0.047350
12.290391 0.942490 0.062705
12.605132 0.942490 0.073063
12.919873 0.942490 0.048399
13.234614 0.942490 0.067096
13.549356 0.942490 0.074653
13.864097 0.942490 0.057304
14.178838 0.942490 0.025453
14.493579 0.942490 -0.000357
14.808320 0.942490 -0.004530
15.123059 0.942490 0.000000
15.437800 0.942490 0.000000
15.752542 0.942490 0.000000
16.067284 0.942490 0.000000
16.382023 0.942490 0.000000
16.696766 0.942490 0.000000
17.011505 0.942490 0.000000
17.326248 0.942490 0.000000
17.640987 0.942490 0.000000
17.955730 0.942490 0.000000
18.270470 0.942490 0.000000
18.585213 0.942490 0.000000
18.899952 0.942490 0.000000
-7.223550 0.627750 0.000000
-6.908809 0.627750 0.000576
-6.594068 0.627750 0.000530
-6.279327 0.627750 0.000626
-5.964586 0.627750 0.000557
-5.649845 0.627750 0.000445
-5.335104 0.627750 0.000422
-5.020363 0.627750 0.000444
-4.705622 0.627750 0.000466
-4.390881 0.627750 0.000425
-4.076140 0.627750 0.000326
-3.761399 0.627750 0.000337
-3.446658 0.627750 0.000361
-3.131917 0.627750 0.000325
-2.817176 0.627750 0.000354
-2.502435 0.627750 0.000364
-2.187694 0.627750 0.000322
-1.872953 0.627750 0.000279
-1.558212 0.627750 0.000316
-1.243471 0.627750 0.000301
-0.928730 0.627750 0.000309
-0.613989 0.627750 0.000297
-0.299248 0.627750 0.000278
0.015493 0.627750 0.000172
0.330234 0.627750 0.000084
0.644975 0.627750 -0.000015
0.959716 0.627750 -0.000043
1.274457 0.627750 0.000052
1.589198 0.627750 0.000049
1.903938 0.627750 0.000003
2.218679 0.627750 0.000045
2.533421 0.627750 0.000155
2.848162 0.627750 0.000066
3.162903 0.627750 -0.000063
3.477644 0.627750 -0.000118
3.792385 0.627750 -0.000011
4.107125 0.627750 -0.000111
4.421866 0.627750 -0.000527
4.736608 0.627750 -0.000953
5.051349 0.627750 -0.001209
5.366090 0.627750 -0.001645
5.680831 0.627750 -0.002397
5.995571 0.627750 -0.002706
6.310312 0.627750 -0.002556
6.625053 0.627750 -0.002599
6.939795 0.627750 -0.000810
7.254536 0.627750 0.003606
7.569277 0.627750 0.007909
7.884017 0.627750 0.012309
8.198758 0.627750 0.018862
8.513499 0.627750 0.028346
8.828240 0.627750 0.040763
9.142982 0.627750 0.049383
9.457723 0.627750 0.046144
9.772464 0.627750 0.045683
10.087205 0.627750 0.051181
10.401946 0.627750 0.041644
10.716687 0.627750 0.036357
11.031426 0.627750 0.037391
11.346168 0.627750 0.038540
11.660909 0.627750 0.040866
11.975650 0.627750 0.064228
12.290391 0.627750 0.071995
12.605132 0.627750 0.063820
12.919873 0.627750 0.059727
13.234614 0.627750 0.068180
13.549356 0.627750 0.067350
13.864097 0.627750 0.058526
14.178838 0.627750 0.021059
14.493579 0.627750 -0.000649
14.808320 0.627750 0.006514
15.123059 0.627750 0.000000
15.437800 0.627750 0.000000
15.752542 0.627750 0.000000
16.067284 0.627750 0.000000
16.382023 0.627750 0.000000
16.696766 0.627750 0.000000
17.011505 0.627750 0.000000
17.326248 0.627750 0.000000
17.640987 0.627750 0.000000
17.955730 0.627750 0.000000
18.270470 0.627750 0.000000
18.585213 0.627750 0.000000
18.899952 0.627750 0.000000
-7.223550 0.313007 0.000000
-6.908809 0.313007 0.000653
-6.594068 0.313007 0.000641
-6.279327 0.313007 0.000834
-5.964586 0.313007 0.000709
-5.649845 0.313007 0.000460
-5.335104 0.313007 0.000410
-5.020363 0.313007 0.000468
-4.705622 0.313007 0.000489
-4.390881 0.313007 0.000471
-4.076140 0.313007 0.000367
-3.761399 0.313007 0.000334
-3.446658 0.313007 0.000377
-3.131917 0.313007 0.000360
-2.817176 0.313007 0.000390
-2.502435 0.313007 0.000421
-2.187694 0.313007 0.000397
-1.872953 0.313007 0.000350
-1.558212 0.313007 0.000352
-1.243471 0.313007 0.000247
-0.928730 0.313007 0.000236
-0.613989 0.313007 0.000263
-0.299248 0.313007 0.000371
0.015493 0.313007 0.000255
0.330234 0.313007 0.000104
0.644975 0.313007 0.000069
0.959716 0.313007 0.000103
1.274457 0.313007 0.000161
1.589198 0.313007 0.000085
1.903938 0.313007 0.000043
2.218679 0.313007 0.000108
2.533421 0.313007 0.000233
2.848162 0.313007 0.000158
3.162903 0.313007 0.000057
3.477644 0.313007 -0.000006
3.792385 0.313007 -0.000005
4.107125 0.313007 -0.000309
4.421866 0.313007 -0.000763
4.736608 0.313007 -0.001061
5.051349 0.313007 -0.001235
5.366090 0.313007 -0.001857
5.680831 0.313007 -0.002765
5.995571 0.313007 -0.002909
6.310312 0.313007 -0.003086
6.625053 0.313007 -0.003429
6.939795 0.313007 -0.001063
7.254536 0.313007 0.004575
7.569277 0.313007 0.012037
7.884017 0.313007 0.016930
8.198758 0.313007 0.020878
8.513499 0.313007 0.031736
8.828240 0.313007 0.043171
9.142982 0.313007 0.055257
9.457723 0.313007 0.060589
9.772464 0.313007 0.057288
10.087205 0.313007 0.050262
10.401946 0.313007 0.047733
10.716687 0.313007 0.047340
11.031426 0.313007 0.043622
11.346168 0.313007 0.050451
11.660909 0.313007 0.061754
11.975650 0.313007 0.051215
12.290391 0.313007 0.069638
12.605132 0.313007 0.070281
12.919873 0.313007 0.051417
13.234614 0.313007 0.064998
13.549356 0.313007 0.053224
13.864097 0.313007 0.066301
14.178838 0.313007 0.014175
14.493579 0.313007 -0.003941
14.808320 0.313007 0.074288
15.123059 0.313007 0.000000
15.437800 0.313007 0.000000
15.752542 0.313007 0.000000
16.067284 0.313007 0.000000
16.382023 0.313007 0.000000
16.696766 0.313007 0.000000
17.011505 0.313007 0.000000
17.326248 0.313007 0.000000
17.640987 0.313007 0.000000
17.955730 0.313007 0.000000
18.270470 0.313007 0.000000
18.585213 0.313007 0.000000
18.899952 0.313007 0.000000
-7.223550 -0.001732 0.000000
-6.908809 -0.001732 0.000608
-6.594068 -0.001732 0.000824
-6.279327 -0.001732 0.001230
-5.964586 -0.001732 0.001037
-5.649845 -0.001732 0.000514
-5.335104 -0.001732 0.000451
-5.020363 -0.001732 0.000563
-4.705622 -0.001732 0.000592
-4.390881 -0.001732 0.000562
-4.076140 -0.001732 0.000408
-3.761399 -0.001732 0.000348
-3.446658 -0.001732 0.000391
-3.131917 -0.001732 0.000398
-2.817176 -0.001732 0.000466
-2.502435 -0.001732 0.000495
-2.187694 -0.001732 0.000479
-1.872953 -0.001732 0.000488
-1.558212 -0.001732 0.000465
-1.243471 -0.001732 0.000265
-0.928730 -0.001732 0.000225
-0.613989 -0.001732 0.000276
-0.299248 -0.001732 0.000542
0.015493 -0.001732 0.000473
0.330234 -0.001732 0.000261
0.644975 -0.001732 0.000301
0.959716 -0.001732 0.000352
1.274457 -0.001732 0.000289
1.589198 -0.001732 0.000137
1.903938 -0.001732 0.000071
2.218679 -0.001732 0.000120
2.533421 -0.001732 0.000224
2.848162 -0.001732 0.000240
3.162903 -0.001732 0.000176
3.477644 -0.001732 0.000077
3.792385 -0.001732 -0.000056
4.107125 -0.001732 -0.000527
4.421866 -0.001732 -0.001003
4.736608 -0.001732 -0.001182
5.051349 -0.001732 -0.001473
5.366090 -0.001732 -0.002230
5.680831 -0.001732 -0.003228
5.995571 -0.001732 -0.003298
6.310312 -0.001732 -0.003713
6.625053 -0.001732 -0.003287
6.939795 -0.001732 -0.000578
7.254536 -0.001732 0.005068
7.569277 -0.001732 0.013533
7.884017 -0.001732 0.020671
8.198758 -0.001732 0.026732
8.513499 -0.001732 0.033244
8.828240 -0.001732 0.049998
9.142982 -0.001732 0.062316
9.457723 -0.001732 0.071839
9.772464 -0.001732 0.071090
10.087205 -0.001732 0.061841
10.401946 -0.001732 0.056101
10.716687 -0.001732 0.058209
11.031426 -0.001732 0.058386
11.346168 -0.001732 0.056718
11.660909 -0.001732 0.061265
11.975650 -0.001732 0.056433
12.290391 -0.001732 0.069318
12.605132 -0.001732 0.073798
12.919873 -0.001732 0.073460
13.234614 -0.001732 0.072109
13.549356 -0.001732 0.055092
13.864097 -0.001732 0.057133
14.178838 -0.001732 0.024491
14.493579 -0.001732 -0.011477
14.808320 -0.001732 0.000000
15.123059 -0.001732 0.000000
15.437800 -0.001732 0.000000
15.752542 -0.001732 0.000000
16.067284 -0.001732 0.000000
16.382023 -0.001732 0.000000
16.696766 -0.001732 0.000000
17.011505 -0.001732 0.000000
17.326248 -0.001732 0.000000
17.640987 -0.001732 0.000000
17.955730 -0.001732 0.000000
18.270470 -0.001732 0.000000
18.585213 -0.001732 0.000000
18.899952 -0.001732 0.000000
-7.223550 -0.316475 0.000000
-6.908809 -0.316475 0.000000
-6.594068 -0.316475 0.000000
-6.279327 -0.316475 0.000000
-5.964586 -0.316475 0.000000
-5.649845 -0.316475 0.000000
-5.335104 -0.316475 0.000000
-5.020363 -0.316475 0.000000
-4.705622 -0.316475 0.000000
-4.390881 -0.316475 0.000000
-4.076140 -0.316475 0.000000
-3.761399 -0.316475 0.000000
-3.446658 -0.316475 0.000000
-3.131917 -0.316475 0.000000
-2.817176 -0.316475 0.000000
-2.502435 -0.316475 0.000000
-2.187694 -0.316475 0.000000
-1.872953 -0.316475 0.000571
-1.558212 -0.316475 0.000632
-1.243471 -0.316475 0.000463
-0.928730 -0.316475 -0.000281
-0.613989 -0.316475 -0.000439
-0.299248 -0.316475 0.000046
0.015493 -0.316475 0.000346
0.330234 -0.316475 0.000218
0.644975 -0.316475 0.000362
0.959716 -0.316475 0.000420
1.274457 -0.316475 0.000302
1.589198 -0.316475 0.000069
1.903938 -0.316475 0.000027
2.218679 -0.316475 0.000081
2.533421 -0.316475 0.000160
2.848162 -0.316475 0.000289
3.162903 -0.316475 0.000291
3.477644 -0.316475 0.000114
3.792385 -0.316475 -0.000145
4.107125 -0.316475 -0.000667
4.421866 -0.316475 -0.001003
4.736608 -0.316475 -0.001200
5.051349 -0.316475 -0.001580
5.366090 -0.316475 -0.002843
5.680831 -0.316475 -0.003574
5.995571 -0.316475 -0.003807
6.310312 -0.316475 -0.004760
6.625053 -0.316475 -0.004136
6.939795 -0.316475 -0.000917
7.254536 -0.316475 0.006638
7.569277 -0.316475 0.015451
7.884017 -0.316475 0.024545
8.198758 -0.316475 0.030928
8.513499 -0.316475 0.034602
8.828240 -0.316475 0.050915
9.142982 -0.316475 0.064064
9.457723 -0.316475 0.077485
9.772464 -0.316475 0.081200
10.087205 -0.316475 0.078845
10.401946 -0.316475 0.070044
10.716687 -0.316475 0.052707
11.031426 -0.316475 0.066298
11.346168 -0.316475 0.080256
11.660909 -0.316475 0.061062
11.975650 -0.316475 0.093018
12.290391 -0.316475 0.054639
12.605132 -0.316475 0.095015
12.919873 -0.316475 0.085587
13.234614 -0.316475 0.074405
13.549356 -0.316475 0.067891
13.864097 -0.316475 0.060321
14.178838 -0.316475 0.023275
14.493579 -0.316475 0.037371
14.808320 -0.316475 0.000000
15.123059 -0.316475 0.000000
15.437800 -0.316475 0.000000
15.752542 -0.316475 0.000000
16.067284 -0.316475 0.000000
16.382023 -0.316475 0.000000
16.696766 -0.316475 0.000000
17.011505 -0.316475 0.000000
17.326248 -0.316475 0.000000
17.640987 -0.316475 0.000000
17.955730 -0.316475 0.000000
18.270470 -0.316475 0.000000
18.585213 -0.316475 0.000000
18.899952 -0.316475 0.000000
-7.223550 -0.631214 0.000000
-6.908809 -0.631214 0.000000
-6.594068 -0.631214 0.000000
-6.279327 -0.631214 0.000000
-5.964586 -0.631214 0.000000
-5.649845 -0.631214 0.000000
-5.335104 -0.631214 0.000000
-5.020363 -0.631214 0.000000
-4.705622 -0.631214 0.000000
-4.390881 -0.631214 0.000000
-4.076140 -0.631214 0.000000
-3.761399 -0.631214 0.000000
-3.446658 -0.631214 0.000000
-3.131917 -0.631214 0.000000
-2.817176 -0.631214 0.000000
-2.502435 -0.631214 0.000000
-2.187694 -0.631214 0.000000
-1.872953 -0.631214 0.000000
-1.558212 -0.631214 0.000000
-1.243471 -0.631214 0.000000
-0.928730 -0.631214 0.000000
-0.613989 -0.631214 0.000000
-0.299248 -0.631214 0.000000
0.015493 -0.631214 0.000000
0.330234 -0.631214 0.000000
0.644975 -0.631214 0.000000
0.959716 -0.631214 0.000000
1.274457 -0.631214 0.000000
1.589198 -0.631214 0.000000
1.903938 -0.631214 0.000000
2.218679 -0.631214 0.000000
2.533421 -0.631214 0.000000
2.848162 -0.631214 0.000000
3.162903 -0.631214 0.000000
3.477644 -0.631214 0.000000
3.792385 -0.631214 0.000000
4.107125 -0.631214 0.000000
4.421866 -0.631214 0.000000
4.736608 -0.631214 0.000000
5.051349 -0.631214 0.000000
5.366090 -0.631214 0.000000
5.680831 -0.631214 0.000000
5.995571 -0.631214 0.000000
6.310312 -0.631214 0.000000
6.625053 -0.631214 -1.669655
6.939795 -0.631214 -2.706074
7.254536 -0.631214 -1.289434
7.569277 -0.631214 0.163368
7.884017 -0.631214 -0.372538
8.198758 -0.631214 -0.119359
8.513499 -0.631214 -0.027776
8.828240 -0.631214 0.025361
9.142982 -0.631214 -0.029036
9.457723 -0.631214 0.007706
9.772464 -0.631214 0.029506
10.087205 -0.631214 -0.002767
10.401946 -0.631214 -0.023702
10.716687 -0.631214 -0.004669
11.031426 -0.631214 -0.004870
11.346168 -0.631214 0.012828
11.660909 -0.631214 0.028232
11.975650 -0.631214 0.066771
12.290391 -0.631214 0.074389
12.605132 -0.631214 0.094341
12.919873 -0.631214 0.085348
13.234614 -0.631214 0.104929
13.549356 -0.631214 0.088020
13.864097 -0.631214 0.077945
14.178838 -0.631214 0.033604
14.493579 -0.631214 -0.011630
14.808320 -0.631214 0.000000
15.123059 -0.631214 0.000000
15.437800 -0.631214 0.000000
15.752542 -0.631214 0.000000
16.067284 -0.631214 0.000000
16.382023 -0.631214 0.000000
16.696766 -0.631214 0.000000
17.011505 -0.631214 0.000000
17.326248 -0.631214 0.000000
17.640987 -0.631214 0.000000
17.955730 -0.631214 0.000000
18.270470 -0.631214 0.000000
18.585213 -0.631214 0.000000
18.899952 -0.631214 0.000000
-7.223550 -0.945957 0.000000
-6.908809 -0.945957 0.000000
-6.594068 -0.945957 0.000000
-6.279327 -0.945957 0.000000
-5.964586 -0.945957 0.000000
-5.649845 -0.945957 0.000000
-5.335104 -0.945957 0.000000
-5.020363 -0.945957 0.000000
-4.705622 -0.945957 0.000000
-4.390881 -0.945957 0.000000
-4.076140 -0.945957 0.000000
-3.761399 -0.945957 0.000000
-3.446658 -0.945957 0.000000
-3.131917 -0.945957 0.000000
-2.817176 -0.945957 0.000000
-2.502435 -0.945957 0.000000
-2.187694 -0.945957 0.000000
-1.872953 -0.945957 0.000000
-1.558212 -0.945957 0.000000
-1.243471 -0.945957 0.000000
-0.928730 -0.945957 0.000000
-0.613989 -0.945957 0.000000
-0.299248 -0.945957 0.000000
0.015493 -0.945957 0.000000
0.330234 -0.945957 0.000000
0.644975 -0.945957 0.000000
0.959716 -0.945957 0.000000
1.274457 -0.945957 0.000000
1.589198 -0.945957 0.000000
1.903938 -0.945957 0.000000
2.218679 -0.945957 0.000000
2.533421 -0.945957 0.000000
2.848162 -0.945957 0.000000
3.162903 -0.945957 0.000000
3.477644 -0.945957 0.000000
3.792385 -0.945957 0.000000
4.107125 -0.945957 0.000000
4.421866 -0.945957 0.000000
4.736608 -0.945957 0.000000
5.051349 -0.945957 0.000000
5.366090 -0.945957 0.000000
5.680831 -0.945957 0.000000
5.995571 -0.945957 0.000000
6.310312 -0.945957 0.000000
6.625053 -0.945957 0.000000
6.939795 -0.945957 0.000000
7.254536 -0.945957 0.000000
7.569277 -0.945957 0.000000
7.884017 -0.945957 0.000000
8.198758 -0.945957 0.000000
8.513499 -0.945957 0.000000
8.828240 -0.945957 0.000000
9.142982 -0.945957 0.000000
9.457723 -0.945957 0.000000
9.772464 -0.945957 1.016854
10.087205 -0.945957 0.434270
10.401946 -0.945957 -1.872488
10.716687 -0.945957 -0.609179
11.031426 -0.945957 -0.556066
11.346168 -0.945957 -0.729695
11.660909 -0.945957 -0.194380
11.975650 -0.945957 -0.118399
12.290391 -0.945957 -0.118256
12.605132 -0.945957 -0.078246
12.919873 -0.945957 -0.016870
13.234614 -0.945957 -0.006169
13.549356 -0.945957 0.048270
13.864097 -0.945957 0.096858
14.178838 -0.945957 0.115277
14.493579 -0.945957 -0.015054
14.808320 -0.945957 0.000000
15.123059 -0.945957 0.000000
15.437800 -0.945957 0.000000
15.752542 -0.945957 0.000000
16.067284 -0.945957 0.000000
16.382023 -0.945957 0.000000
16.696766 -0.945957 0.000000
17.011505 -0.945957 0.000000
17.326248 -0.945957 0.000000
17.640987 -0.945957 0.000000
17.955730 -0.945957 0.000000
18.270470 -0.945957 0.000000
18.585213 -0.945957 0.000000
18.899952 -0.945957 0.000000
-7.223550 -1.260696 0.000000
-6.908809 -1.260696 0.000000
-6.594068 -1.260696 0.000000
-6.279327 -1.260696 0.000000
-5.964586 -1.260696 0.000000
-5.649845 -1.260696 0.000000
-5.335104 -1.260696 0.000000
-5.020363 -1.260696 0.000000
-4.705622 -1.260696 0.000000
-4.390881 -1.260696 0.000000
-4.076140 -1.260696 0.000000
-3.761399 -1.260696 0.000000
-3.446658 -1.260696 0.000000
-3.131917 -1.260696 0.000000
-2.817176 -1.260696 0.000000
-2.502435 -1.260696 0.000000
-2.187694 -1.260696 0.000000
-1.872953 -1.260696 0.000000
-1.558212 -1.260696 0.000000
-1.243471 -1.260696 0.000000
-0.928730 -1.260696 0.000000
-0.613989 -1.260696 0.000000
-0.299248 -1.260696 0.000000
0.015493 -1.260696 0.000000
0.330234 -1.260696 0.000000
0.644975 -1.260696 0.000000
0.959716 -1.260696 0.000000
1.274457 -1.260696 0.000000
1.589198 -1.260696 0.000000
1.903938 -1.260696 0.000000
2.218679 -1.260696 0.000000
2.533421 -1.260696 0.000000
2.848162 -1.260696 0.000000
3.162903 -1.260696 0.000000
3.477644 -1.260696 0.000000
3.792385 -1.260696 0.000000
4.107125 -1.260696 0.000000
4.421866 -1.260696 0.000000
4.736608 -1.260696 0.000000
5.051349 -1.260696 0.000000
5.366090 -1.260696 0.000000
5.680831 -1.260696 0.000000
5.995571 -1.260696 0.000000
6.310312 -1.260696 0.000000
6.625053 -1.260696 0.000000
6.939795 -1.260696 0.000000
7.254536 -1.260696 0.000000
7.569277 -1.260696 0.000000
7.884017 -1.260696 0.000000
8.198758 -1.260696 0.000000
8.513499 -1.260696 0.000000
8.828240 -1.260696 0.000000
9.142982 -1.260696 0.000000
9.457723 -1.260696 0.000000
9.772464 -1.260696 0.000000
10.087205 -1.260696 0.000000
10.401946 -1.260696 0.000000
10.716687 -1.260696 0.000000
11.031426 -1.260696 0.000000
11.346168 -1.260696 0.000000
11.660909 -1.260696 0.000000
11.975650 -1.260696 0.000000
12.290391 -1.260696 0.000000
12.605132 -1.260696 0.000000
12.919873 -1.260696 0.000000
13.234614 -1.260696 0.000000
13.549356 -1.260696 0.590396
13.864097 -1.260696 1.516807
14.178838 -1.260696 1.211729
14.493579 -1.260696 0.000000
14.808320 -1.260696 0.000000
15.123059 -1.260696 0.000000
15.437800 -1.260696 0.000000
15.752542 -1.260696 0.000000
16.067284 -1.260696 0.000000
16.382023 -1.260696 0.000000
16.696766 -1.260696 0.000000
17.011505 -1.260696 0.000000
17.326248 -1.260696 0.000000
17.640987 -1.260696 0.000000
17.955730 -1.260696 0.000000
18.270470 -1.260696 0.000000
18.585213 -1.260696 0.000000
18.899952 -1.260696 0.000000
-7.223550 -1.575439 0.000000
-6.908809 -1.575439 0.000000
-6.594068 -1.575439 0.000000
-6.279327 -1.575439 0.000000
-5.964586 -1.575439 0.000000
-5.649845 -1.575439 0.000000
-5.335104 -1.575439 0.000000
-5.020363 -1.575439 0.000000
-4.705622 -1.575439 0.000000
-4.390881 -1.575439 0.000000
-4.076140 -1.575439 0.000000
-3.761399 -1.575439 0.000000
-3.446658 -1.575439 0.000000
-3.131917 -1.575439 0.000000
-2.817176 -1.575439 0.000000
-2.502435 -1.575439 0.000000
-2.187694 -1.575439 0.000000
-1.872953 -1.575439 0.000000
-1.558212 -1.575439 0.000000
-1.243471 -1.575439 0.000000
-0.928730 -1.575439 0.000000
-0.613989 -1.575439 0.000000
-0.299248 -1.575439 0.000000
0.015493 -1.575439 0.000000
0.330234 -1.575439 0.000000
0.644975 -1.575439 0.000000
0.959716 -1.575439 0.000000
1.274457 -1.575439 0.000000
1.589198 -1.575439 0.000000
1.903938 -1.575439 0.000000
2.218679 -1.575439 0.000000
2.533421 -1.575439 0.000000
2.848162 -1.575439 0.000000
3.162903 -1.575439 0.000000
3.477644 -1.575439 0.000000
3.792385 -1.575439 0.000000
4.107125 -1.575439 0.000000
4.421866 -1.575439 0.000000
4.736608 -1.575439 0.000000
5.051349 -1.575439 0.000000
5.366090 -1.575439 0.000000
5.680831 -1.575439 0.000000
5.995571 -1.575439 0.000000
6.310312 -1.575439 0.000000
6.625053 -1.575439 0.000000
6.939795 -1.575439 0.000000
7.254536 -1.575439 0.000000
7.569277 -1.575439 0.000000
7.884017 -1.575439 0.000000
8.198758 -1.575439 0.000000
8.513499 -1.575439 0.000000
8.828240 -1.575439 0.000000
9.142982 -1.575439 0.000000
9.457723 -1.575439 0.000000
9.772464 -1.575439 0.000000
10.087205 -1.575439 0.000000
10.401946 -1.575439 0.000000
10.716687 -1.575439 0.000000
11.031426 -1.575439 0.000000
11.346168 -1.575439 0.000000
11.660909 -1.575439 0.000000
11.975650 -1.575439 0.000000
12.290391 -1.575439 0.000000
12.605132 -1.575439 0.000000
12.919873 -1.575439 0.000000
13.234614 -1.575439 0.000000
13.549356 -1.575439 0.000000
13.864097 -1.575439 0.000000
14.178838 -1.575439 0.000000
14.493579 -1.575439 0.000000
14.808320 -1.575439 0.000000
15.123059 -1.575439 0.000000
15.437800 -1.575439 0.000000
15.752542 -1.575439 0.000000
16.067284 -1.575439 0.000000
16.382023 -1.575439 0.000000
16.696766 -1.575439 0.000000
17.011505 -1.575439 0.000000
17.326248 -1.575439 0.000000
17.640987 -1.575439 0.000000
17.955730 -1.575439 0.000000
18.270470 -1.575439 0.000000
18.585213 -1.575439 0.000000
18.899952 -1.575439 0.000000
