TITLE = "B00013"
VARIABLES = "x", "y", "Reynold stress YY"
ZONE T="Frame 1" I=84, J=163, F=POINT
-6.810190 48.562302 0.000000
-6.496367 48.562302 0.000000
-6.182544 48.562302 0.000000
-5.868721 48.562302 0.000000
-5.554898 48.562302 0.000000
-5.241075 48.562302 0.000000
-4.927252 48.562302 0.000000
-4.613429 48.562302 0.000000
-4.299606 48.562302 0.000000
-3.985783 48.562302 0.000000
-3.671960 48.562302 0.000000
-3.358137 48.562302 0.000000
-3.044314 48.562302 0.000000
-2.730491 48.562302 0.000000
-2.416668 48.562302 0.000000
-2.102845 48.562302 0.000000
-1.789022 48.562302 0.000000
-1.475199 48.562302 0.000000
-1.161376 48.562302 0.000000
-0.847553 48.562302 0.000000
-0.533730 48.562302 0.000000
-0.219907 48.562302 0.000000
0.093916 48.562302 0.000000
0.407739 48.562302 0.000000
0.721562 48.562302 0.000000
1.035385 48.562302 0.000000
1.349208 48.562302 0.000000
1.663032 48.562302 0.000000
1.976854 48.562302 0.000000
2.290677 48.562302 0.000000
2.604500 48.562302 0.000000
2.918324 48.562302 0.000000
3.232146 48.562302 0.000000
3.545969 48.562302 0.000000
3.859793 48.562302 0.000000
4.173615 48.562302 0.000000
4.487438 48.562302 0.000000
4.801261 48.562302 0.000000
5.115085 48.562302 0.000000
5.428907 48.562302 0.000000
5.742730 48.562302 0.000000
6.056554 48.562302 0.000000
6.370377 48.562302 0.000000
6.684199 48.562302 0.000000
6.998022 48.562302 0.000000
7.311846 48.562302 0.000000
7.625669 48.562302 0.000000
7.939491 48.562302 0.000000
8.253315 48.562302 0.000000
8.567138 48.562302 0.000000
8.880960 48.562302 0.000000
9.194784 48.562302 0.000000
9.508606 48.562302 0.000000
9.822430 48.562302 0.000000
10.136253 48.562302 0.000000
10.450075 48.562302 0.000000
10.763899 48.562302 0.000000
11.077723 48.562302 0.000000
11.391544 48.562302 0.000000
11.705368 48.562302 0.000000
12.019190 48.562302 0.000000
12.333014 48.562302 0.000000
12.646837 48.562302 0.000000
12.960659 48.562302 0.000000
13.274483 48.562302 0.000000
13.588306 48.562302 0.000000
13.902128 48.562302 0.000000
14.215952 48.562302 0.000000
14.529776 48.562302 0.000000
14.843597 48.562302 0.000000
15.157421 48.562302 0.000000
15.471243 48.562302 0.000000
15.785067 48.562302 0.000000
16.098890 48.562302 0.000000
16.412712 48.562302 0.000000
16.726536 48.562302 0.000000
17.040359 48.562302 0.000000
17.354181 48.562302 0.000000
17.668005 48.562302 0.000000
17.981829 48.562302 0.000000
18.295650 48.562302 0.000000
18.609474 48.562302 0.000000
18.923298 48.562302 0.000000
19.237120 48.562302 0.000000
-6.810190 48.248478 0.000000
-6.496367 48.248478 0.000000
-6.182544 48.248478 0.000000
-5.868721 48.248478 0.000000
-5.554898 48.248478 0.000000
-5.241075 48.248478 0.000000
-4.927252 48.248478 0.000000
-4.613429 48.248478 0.000000
-4.299606 48.248478 0.000000
-3.985783 48.248478 0.000000
-3.671960 48.248478 0.000000
-3.358137 48.248478 0.000000
-3.044314 48.248478 0.000000
-2.730491 48.248478 0.000000
-2.416668 48.248478 0.000000
-2.102845 48.248478 0.000000
-1.789022 48.248478 0.000000
-1.475199 48.248478 0.000000
-1.161376 48.248478 0.000000
-0.847553 48.248478 0.000000
-0.533730 48.248478 0.000000
-0.219907 48.248478 0.000000
0.093916 48.248478 0.000000
0.407739 48.248478 0.000000
0.721562 48.248478 0.000000
1.035385 48.248478 0.000000
1.349208 48.248478 0.000000
1.663032 48.248478 0.000000
1.976854 48.248478 0.000000
2.290677 48.248478 0.000000
2.604500 48.248478 0.000000
2.918324 48.248478 0.000000
3.232146 48.248478 0.000000
3.545969 48.248478 0.000000
3.859793 48.248478 0.000000
4.173615 48.248478 0.000000
4.487438 48.248478 0.000000
4.801261 48.248478 0.000000
5.115085 48.248478 0.000000
5.428907 48.248478 0.000000
5.742730 48.248478 0.000000
6.056554 48.248478 0.000000
6.370377 48.248478 0.000000
6.684199 48.248478 0.000000
6.998022 48.248478 0.000000
7.311846 48.248478 0.000000
7.625669 48.248478 0.000000
7.939491 48.248478 0.000000
8.253315 48.248478 0.000000
8.567138 48.248478 0.000000
8.880960 48.248478 0.000000
9.194784 48.248478 0.000000
9.508606 48.248478 0.000000
9.822430 48.248478 0.000000
10.136253 48.248478 0.000000
10.450075 48.248478 0.000000
10.763899 48.248478 0.000000
11.077723 48.248478 0.000000
11.391544 48.248478 0.000000
11.705368 48.248478 0.000000
12.019190 48.248478 0.000000
12.333014 48.248478 0.000000
12.646837 48.248478 0.000000
12.960659 48.248478 0.000000
13.274483 48.248478 0.000000
13.588306 48.248478 0.000000
13.902128 48.248478 0.000000
14.215952 48.248478 0.000000
14.529776 48.248478 0.000000
14.843597 48.248478 0.000000
15.157421 48.248478 0.000000
15.471243 48.248478 0.000000
15.785067 48.248478 0.000000
16.098890 48.248478 0.000000
16.412712 48.248478 0.000000
16.726536 48.248478 0.000000
17.040359 48.248478 0.000000
17.354181 48.248478 0.000000
17.668005 48.248478 0.000000
17.981829 48.248478 0.000000
18.295650 48.248478 0.000000
18.609474 48.248478 0.000000
18.923298 48.248478 0.000000
19.237120 48.248478 0.000000
-6.810190 47.934654 0.000000
-6.496367 47.934654 0.000000
-6.182544 47.934654 0.000000
-5.868721 47.934654 0.000000
-5.554898 47.934654 0.000000
-5.241075 47.934654 0.000000
-4.927252 47.934654 0.000000
-4.613429 47.934654 0.000000
-4.299606 47.934654 0.000000
-3.985783 47.934654 0.000000
-3.671960 47.934654 0.000000
-3.358137 47.934654 0.000000
-3.044314 47.934654 0.000000
-2.730491 47.934654 0.000000
-2.416668 47.934654 0.000000
-2.102845 47.934654 0.000000
-1.789022 47.934654 0.000000
-1.475199 47.934654 0.000000
-1.161376 47.934654 0.000000
-0.847553 47.934654 0.000000
-0.533730 47.934654 0.000000
-0.219907 47.934654 0.000000
0.093916 47.934654 0.000000
0.407739 47.934654 0.000000
0.721562 47.934654 0.000000
1.035385 47.934654 0.000000
1.349208 47.934654 0.000000
1.663032 47.934654 0.000000
1.976854 47.934654 0.000000
2.290677 47.934654 0.000000
2.604500 47.934654 0.000000
2.918324 47.934654 0.000000
3.232146 47.934654 0.000000
3.545969 47.934654 0.000000
3.859793 47.934654 0.000000
4.173615 47.934654 0.000000
4.487438 47.934654 0.000000
4.801261 47.934654 0.000000
5.115085 47.934654 0.000000
5.428907 47.934654 0.000000
5.742730 47.934654 0.000000
6.056554 47.934654 0.000000
6.370377 47.934654 0.000000
6.684199 47.934654 0.000000
6.998022 47.934654 0.000000
7.311846 47.934654 0.000000
7.625669 47.934654 0.000000
7.939491 47.934654 0.000000
8.253315 47.934654 0.000000
8.567138 47.934654 0.000000
8.880960 47.934654 0.000000
9.194784 47.934654 0.000000
9.508606 47.934654 0.000000
9.822430 47.934654 0.000000
10.136253 47.934654 0.075064
10.450075 47.934654 0.998274
10.763899 47.934654 1.109352
11.077723 47.934654 1.184730
11.391544 47.934654 1.915612
11.705368 47.934654 1.716076
12.019190 47.934654 1.160024
12.333014 47.934654 1.087455
12.646837 47.934654 0.990808
12.960659 47.934654 0.842226
13.274483 47.934654 1.005622
13.588306 47.934654 0.741656
13.902128 47.934654 0.687228
14.215952 47.934654 0.641614
14.529776 47.934654 0.603164
14.843597 47.934654 0.546254
15.157421 47.934654 0.506303
15.471243 47.934654 0.483332
15.785067 47.934654 0.468768
16.098890 47.934654 0.454298
16.412712 47.934654 0.427135
16.726536 47.934654 0.415209
17.040359 47.934654 0.382290
17.354181 47.934654 0.371643
17.668005 47.934654 0.359213
17.981829 47.934654 0.359840
18.295650 47.934654 0.357364
18.609474 47.934654 0.316118
18.923298 47.934654 0.287564
19.237120 47.934654 0.000000
-6.810190 47.620834 0.000000
-6.496367 47.620834 0.000000
-6.182544 47.620834 0.033975
-5.868721 47.620834 0.033579
-5.554898 47.620834 0.035606
-5.241075 47.620834 0.035151
-4.927252 47.620834 0.035562
-4.613429 47.620834 0.036751
-4.299606 47.620834 0.037042
-3.985783 47.620834 0.036038
-3.671960 47.620834 0.035051
-3.358137 47.620834 0.035074
-3.044314 47.620834 0.035724
-2.730491 47.620834 0.036303
-2.416668 47.620834 0.036534
-2.102845 47.620834 0.036047
-1.789022 47.620834 0.035929
-1.475199 47.620834 0.036128
-1.161376 47.620834 0.036236
-0.847553 47.620834 0.036079
-0.533730 47.620834 0.035971
-0.219907 47.620834 0.036345
0.093916 47.620834 0.036857
0.407739 47.620834 0.036862
0.721562 47.620834 0.037091
1.035385 47.620834 0.037240
1.349208 47.620834 0.037400
1.663032 47.620834 0.037879
1.976854 47.620834 0.038787
2.290677 47.620834 0.039432
2.604500 47.620834 0.039512
2.918324 47.620834 0.039649
3.232146 47.620834 0.040504
3.545969 47.620834 0.041227
3.859793 47.620834 0.041408
4.173615 47.620834 0.041971
4.487438 47.620834 0.043166
4.801261 47.620834 0.044498
5.115085 47.620834 0.045960
5.428907 47.620834 0.047685
5.742730 47.620834 0.049681
6.056554 47.620834 0.051798
6.370377 47.620834 0.053531
6.684199 47.620834 0.055742
6.998022 47.620834 0.058232
7.311846 47.620834 0.060545
7.625669 47.620834 0.063567
7.939491 47.620834 0.067396
8.253315 47.620834 0.072669
8.567138 47.620834 0.082331
8.880960 47.620834 0.110432
9.194784 47.620834 0.163349
9.508606 47.620834 0.256392
9.822430 47.620834 0.405372
10.136253 47.620834 0.593421
10.450075 47.620834 0.809573
10.763899 47.620834 1.086492
11.077723 47.620834 1.364670
11.391544 47.620834 1.674285
11.705368 47.620834 1.987133
12.019190 47.620834 2.204707
12.333014 47.620834 2.413535
12.646837 47.620834 2.577201
12.960659 47.620834 2.724993
13.274483 47.620834 2.867743
13.588306 47.620834 2.963660
13.902128 47.620834 2.972973
14.215952 47.620834 2.964375
14.529776 47.620834 2.874413
14.843597 47.620834 2.728647
15.157421 47.620834 2.610471
15.471243 47.620834 2.447142
15.785067 47.620834 2.258676
16.098890 47.620834 2.087109
16.412712 47.620834 1.907074
16.726536 47.620834 1.725455
17.040359 47.620834 1.560089
17.354181 47.620834 1.429645
17.668005 47.620834 1.399878
17.981829 47.620834 1.432542
18.295650 47.620834 1.494051
18.609474 47.620834 1.583436
18.923298 47.620834 1.639003
19.237120 47.620834 0.000000
-6.810190 47.307011 0.000000
-6.496367 47.307011 0.000000
-6.182544 47.307011 0.032745
-5.868721 47.307011 0.033981
-5.554898 47.307011 0.033753
-5.241075 47.307011 0.033194
-4.927252 47.307011 0.033100
-4.613429 47.307011 0.033830
-4.299606 47.307011 0.034103
-3.985783 47.307011 0.033367
-3.671960 47.307011 0.032645
-3.358137 47.307011 0.032676
-3.044314 47.307011 0.033250
-2.730491 47.307011 0.033973
-2.416668 47.307011 0.034204
-2.102845 47.307011 0.033772
-1.789022 47.307011 0.033582
-1.475199 47.307011 0.033614
-1.161376 47.307011 0.033634
-0.847553 47.307011 0.033588
-0.533730 47.307011 0.033483
-0.219907 47.307011 0.033667
0.093916 47.307011 0.034116
0.407739 47.307011 0.034360
0.721562 47.307011 0.034690
1.035385 47.307011 0.034945
1.349208 47.307011 0.035297
1.663032 47.307011 0.035843
1.976854 47.307011 0.036646
2.290677 47.307011 0.037297
2.604500 47.307011 0.037501
2.918324 47.307011 0.037817
3.232146 47.307011 0.038658
3.545969 47.307011 0.039394
3.859793 47.307011 0.039674
4.173615 47.307011 0.040247
4.487438 47.307011 0.041333
4.801261 47.307011 0.042790
5.115085 47.307011 0.044201
5.428907 47.307011 0.045887
5.742730 47.307011 0.048015
6.056554 47.307011 0.050611
6.370377 47.307011 0.053755
6.684199 47.307011 0.057632
6.998022 47.307011 0.062730
7.311846 47.307011 0.069458
7.625669 47.307011 0.078526
7.939491 47.307011 0.090087
8.253315 47.307011 0.102947
8.567138 47.307011 0.122528
8.880960 47.307011 0.157221
9.194784 47.307011 0.213060
9.508606 47.307011 0.306854
9.822430 47.307011 0.443133
10.136253 47.307011 0.651132
10.450075 47.307011 0.885406
10.763899 47.307011 1.161272
11.077723 47.307011 1.464016
11.391544 47.307011 1.791905
11.705368 47.307011 2.091393
12.019190 47.307011 2.330915
12.333014 47.307011 2.529084
12.646837 47.307011 2.687890
12.960659 47.307011 2.823019
13.274483 47.307011 2.925463
13.588306 47.307011 2.990511
13.902128 47.307011 3.002094
14.215952 47.307011 2.955422
14.529776 47.307011 2.848366
14.843597 47.307011 2.721837
15.157421 47.307011 2.573255
15.471243 47.307011 2.422210
15.785067 47.307011 2.222244
16.098890 47.307011 2.037107
16.412712 47.307011 1.853669
16.726536 47.307011 1.674949
17.040359 47.307011 1.492620
17.354181 47.307011 1.363366
17.668005 47.307011 1.325315
17.981829 47.307011 1.359803
18.295650 47.307011 1.463771
18.609474 47.307011 1.629531
18.923298 47.307011 1.830721
19.237120 47.307011 0.000000
-6.810190 46.993187 0.000000
-6.496367 46.993187 0.000000
-6.182544 46.993187 0.034088
-5.868721 46.993187 0.032658
-5.554898 46.993187 0.032298
-5.241075 46.993187 0.031831
-4.927252 46.993187 0.031519
-4.613429 46.993187 0.031925
-4.299606 46.993187 0.032091
-3.985783 46.993187 0.031626
-3.671960 46.993187 0.031095
-3.358137 46.993187 0.031116
-3.044314 46.993187 0.031690
-2.730491 46.993187 0.032454
-2.416668 46.993187 0.032686
-2.102845 46.993187 0.032302
-1.789022 46.993187 0.032094
-1.475199 46.993187 0.032074
-1.161376 46.993187 0.032058
-0.847553 46.993187 0.032059
-0.533730 46.993187 0.031936
-0.219907 46.993187 0.031910
0.093916 46.993187 0.032375
0.407739 46.993187 0.032719
0.721562 46.993187 0.032903
1.035385 46.993187 0.033090
1.349208 46.993187 0.033422
1.663032 46.993187 0.033900
1.976854 46.993187 0.034516
2.290677 46.993187 0.035101
2.604500 46.993187 0.035518
2.918324 46.993187 0.036074
3.232146 46.993187 0.036952
3.545969 46.993187 0.037791
3.859793 46.993187 0.038144
4.173615 46.993187 0.038711
4.487438 46.993187 0.039773
4.801261 46.993187 0.041236
5.115085 46.993187 0.042697
5.428907 46.993187 0.044464
5.742730 46.993187 0.046355
6.056554 46.993187 0.048820
6.370377 46.993187 0.051964
6.684199 46.993187 0.055568
6.998022 46.993187 0.060462
7.311846 46.993187 0.066679
7.625669 46.993187 0.075429
7.939491 46.993187 0.086063
8.253315 46.993187 0.098551
8.567138 46.993187 0.118787
8.880960 46.993187 0.152168
9.194784 46.993187 0.210032
9.508606 46.993187 0.300140
9.822430 46.993187 0.429822
10.136253 46.993187 0.624646
10.450075 46.993187 0.857508
10.763899 46.993187 1.126821
11.077723 46.993187 1.425238
11.391544 46.993187 1.740377
11.705368 46.993187 2.035686
12.019190 46.993187 2.292359
12.333014 46.993187 2.480364
12.646837 46.993187 2.634889
12.960659 46.993187 2.765377
13.274483 46.993187 2.864760
13.588306 46.993187 2.929093
13.902128 46.993187 2.952342
14.215952 46.993187 2.896150
14.529776 46.993187 2.795479
14.843597 46.993187 2.665372
15.157421 46.993187 2.526909
15.471243 46.993187 2.372678
15.785067 46.993187 2.180989
16.098890 46.993187 1.990074
16.412712 46.993187 1.807153
16.726536 46.993187 1.615270
17.040359 46.993187 1.446281
17.354181 46.993187 1.310852
17.668005 46.993187 1.272877
17.981829 46.993187 1.315207
18.295650 46.993187 1.427738
18.609474 46.993187 1.643543
18.923298 46.993187 1.906532
19.237120 46.993187 0.000000
-6.810190 46.679363 0.000000
-6.496367 46.679363 0.000000
-6.182544 46.679363 0.033155
-5.868721 46.679363 0.031889
-5.554898 46.679363 0.031736
-5.241075 46.679363 0.031377
-4.927252 46.679363 0.031008
-4.613429 46.679363 0.031184
-4.299606 46.679363 0.031257
-3.985783 46.679363 0.030916
-3.671960 46.679363 0.030492
-3.358137 46.679363 0.030405
-3.044314 46.679363 0.030948
-2.730491 46.679363 0.031721
-2.416668 46.679363 0.031914
-2.102845 46.679363 0.031685
-1.789022 46.679363 0.031524
-1.475199 46.679363 0.031604
-1.161376 46.679363 0.031670
-0.847553 46.679363 0.031658
-0.533730 46.679363 0.031534
-0.219907 46.679363 0.031443
0.093916 46.679363 0.031902
0.407739 46.679363 0.032345
0.721562 46.679363 0.032305
1.035385 46.679363 0.032300
1.349208 46.679363 0.032514
1.663032 46.679363 0.032833
1.976854 46.679363 0.033322
2.290677 46.679363 0.033887
2.604500 46.679363 0.034462
2.918324 46.679363 0.035175
3.232146 46.679363 0.036127
3.545969 46.679363 0.036927
3.859793 46.679363 0.037445
4.173615 46.679363 0.038096
4.487438 46.679363 0.039212
4.801261 46.679363 0.040685
5.115085 46.679363 0.042199
5.428907 46.679363 0.043910
5.742730 46.679363 0.045792
6.056554 46.679363 0.048170
6.370377 46.679363 0.051301
6.684199 46.679363 0.054698
6.998022 46.679363 0.059380
7.311846 46.679363 0.065345
7.625669 46.679363 0.073314
7.939491 46.679363 0.083361
8.253315 46.679363 0.095939
8.567138 46.679363 0.116728
8.880960 46.679363 0.147995
9.194784 46.679363 0.207512
9.508606 46.679363 0.295501
9.822430 46.679363 0.427963
10.136253 46.679363 0.610221
10.450075 46.679363 0.846986
10.763899 46.679363 1.112935
11.077723 46.679363 1.410247
11.391544 46.679363 1.729016
11.705368 46.679363 2.017158
12.019190 46.679363 2.262723
12.333014 46.679363 2.455801
12.646837 46.679363 2.622533
12.960659 46.679363 2.738875
13.274483 46.679363 2.810383
13.588306 46.679363 2.899611
13.902128 46.679363 2.919119
14.215952 46.679363 2.873251
14.529776 46.679363 2.763858
14.843597 46.679363 2.633416
15.157421 46.679363 2.503516
15.471243 46.679363 2.357246
15.785067 46.679363 2.162245
16.098890 46.679363 1.967597
16.412712 46.679363 1.788627
16.726536 46.679363 1.598269
17.040359 46.679363 1.429011
17.354181 46.679363 1.307540
17.668005 46.679363 1.272828
17.981829 46.679363 1.310977
18.295650 46.679363 1.428745
18.609474 46.679363 1.647070
18.923298 46.679363 1.931629
19.237120 46.679363 0.000000
-6.810190 46.365540 0.000000
-6.496367 46.365540 0.000000
-6.182544 46.365540 0.032749
-5.868721 46.365540 0.031656
-5.554898 46.365540 0.031660
-5.241075 46.365540 0.031444
-4.927252 46.365540 0.031165
-4.613429 46.365540 0.031160
-4.299606 46.365540 0.031204
-3.985783 46.365540 0.030852
-3.671960 46.365540 0.030355
-3.358137 46.365540 0.030099
-3.044314 46.365540 0.030489
-2.730491 46.365540 0.031178
-2.416668 46.365540 0.031395
-2.102845 46.365540 0.031392
-1.789022 46.365540 0.031434
-1.475199 46.365540 0.031659
-1.161376 46.365540 0.031830
-0.847553 46.365540 0.031833
-0.533730 46.365540 0.031752
-0.219907 46.365540 0.031678
0.093916 46.365540 0.031963
0.407739 46.365540 0.032381
0.721562 46.365540 0.032333
1.035385 46.365540 0.032203
1.349208 46.365540 0.032202
1.663032 46.365540 0.032320
1.976854 46.365540 0.032723
2.290677 46.365540 0.033249
2.604500 46.365540 0.033882
2.918324 46.365540 0.034620
3.232146 46.365540 0.035527
3.545969 46.365540 0.036372
3.859793 46.365540 0.037065
4.173615 46.365540 0.037884
4.487438 46.365540 0.039115
4.801261 46.365540 0.040629
5.115085 46.365540 0.042228
5.428907 46.365540 0.043970
5.742730 46.365540 0.045890
6.056554 46.365540 0.048226
6.370377 46.365540 0.051196
6.684199 46.365540 0.054546
6.998022 46.365540 0.059095
7.311846 46.365540 0.064833
7.625669 46.365540 0.072132
7.939491 46.365540 0.081464
8.253315 46.365540 0.094437
8.567138 46.365540 0.113525
8.880960 46.365540 0.145570
9.194784 46.365540 0.203157
9.508606 46.365540 0.292843
9.822430 46.365540 0.424129
10.136253 46.365540 0.606932
10.450075 46.365540 0.854912
10.763899 46.365540 1.108869
11.077723 46.365540 1.409756
11.391544 46.365540 1.737983
11.705368 46.365540 2.023809
12.019190 46.365540 2.263724
12.333014 46.365540 2.453548
12.646837 46.365540 2.613811
12.960659 46.365540 2.737292
13.274483 46.365540 2.813293
13.588306 46.365540 2.888597
13.902128 46.365540 2.917061
14.215952 46.365540 2.864672
14.529776 46.365540 2.750217
14.843597 46.365540 2.637929
15.157421 46.365540 2.517024
15.471243 46.365540 2.355536
15.785067 46.365540 2.169974
16.098890 46.365540 1.976735
16.412712 46.365540 1.796633
16.726536 46.365540 1.601562
17.040359 46.365540 1.436629
17.354181 46.365540 1.316883
17.668005 46.365540 1.288609
17.981829 46.365540 1.332517
18.295650 46.365540 1.426084
18.609474 46.365540 1.636619
18.923298 46.365540 1.941353
19.237120 46.365540 0.000000
-6.810190 46.051716 0.000000
-6.496367 46.051716 0.000000
-6.182544 46.051716 0.032627
-5.868721 46.051716 0.031516
-5.554898 46.051716 0.031605
-5.241075 46.051716 0.031620
-4.927252 46.051716 0.031515
-4.613429 46.051716 0.031472
-4.299606 46.051716 0.031435
-3.985783 46.051716 0.031073
-3.671960 46.051716 0.030407
-3.358137 46.051716 0.029922
-3.044314 46.051716 0.030089
-2.730491 46.051716 0.030578
-2.416668 46.051716 0.030838
-2.102845 46.051716 0.031026
-1.789022 46.051716 0.031345
-1.475199 46.051716 0.031784
-1.161376 46.051716 0.032052
-0.847553 46.051716 0.032074
-0.533730 46.051716 0.032093
-0.219907 46.051716 0.032094
0.093916 46.051716 0.032229
0.407739 46.051716 0.032567
0.721562 46.051716 0.032580
1.035385 46.051716 0.032353
1.349208 46.051716 0.032128
1.663032 46.051716 0.032028
1.976854 46.051716 0.032328
2.290677 46.051716 0.032800
2.604500 46.051716 0.033433
2.918324 46.051716 0.034081
3.232146 46.051716 0.034825
3.545969 46.051716 0.035727
3.859793 46.051716 0.036610
4.173615 46.051716 0.037622
4.487438 46.051716 0.038961
4.801261 46.051716 0.040614
5.115085 46.051716 0.042362
5.428907 46.051716 0.044064
5.742730 46.051716 0.046091
6.056554 46.051716 0.048587
6.370377 46.051716 0.051391
6.684199 46.051716 0.054661
6.998022 46.051716 0.058796
7.311846 46.051716 0.064441
7.625669 46.051716 0.071820
7.939491 46.051716 0.080697
8.253315 46.051716 0.093721
8.567138 46.051716 0.112414
8.880960 46.051716 0.142792
9.194784 46.051716 0.204154
9.508606 46.051716 0.298802
9.822430 46.051716 0.431698
10.136253 46.051716 0.619050
10.450075 46.051716 0.857110
10.763899 46.051716 1.110481
11.077723 46.051716 1.421631
11.391544 46.051716 1.729361
11.705368 46.051716 2.043052
12.019190 46.051716 2.273821
12.333014 46.051716 2.473623
12.646837 46.051716 2.632955
12.960659 46.051716 2.770326
13.274483 46.051716 2.835941
13.588306 46.051716 2.897710
13.902128 46.051716 2.938889
14.215952 46.051716 2.892678
14.529776 46.051716 2.776159
14.843597 46.051716 2.656798
15.157421 46.051716 2.523872
15.471243 46.051716 2.367228
15.785067 46.051716 2.185635
16.098890 46.051716 1.989581
16.412712 46.051716 1.800731
16.726536 46.051716 1.609165
17.040359 46.051716 1.447632
17.354181 46.051716 1.333879
17.668005 46.051716 1.295630
17.981829 46.051716 1.332504
18.295650 46.051716 1.437001
18.609474 46.051716 1.632963
18.923298 46.051716 1.940519
19.237120 46.051716 0.000000
-6.810190 45.737896 0.000000
-6.496367 45.737896 0.000000
-6.182544 45.737896 0.032362
-5.868721 45.737896 0.031211
-5.554898 45.737896 0.031390
-5.241075 45.737896 0.031753
-4.927252 45.737896 0.031814
-4.613429 45.737896 0.031784
-4.299606 45.737896 0.031751
-3.985783 45.737896 0.031319
-3.671960 45.737896 0.030539
-3.358137 45.737896 0.029904
-3.044314 45.737896 0.029802
-2.730491 45.737896 0.030021
-2.416668 45.737896 0.030239
-2.102845 45.737896 0.030529
-1.789022 45.737896 0.031019
-1.475199 45.737896 0.031650
-1.161376 45.737896 0.031954
-0.847553 45.737896 0.031988
-0.533730 45.737896 0.032214
-0.219907 45.737896 0.032356
0.093916 45.737896 0.032485
0.407739 45.737896 0.032754
0.721562 45.737896 0.032864
1.035385 45.737896 0.032599
1.349208 45.737896 0.032251
1.663032 45.737896 0.031950
1.976854 45.737896 0.032051
2.290677 45.737896 0.032464
2.604500 45.737896 0.033082
2.918324 45.737896 0.033548
3.232146 45.737896 0.034054
3.545969 45.737896 0.034969
3.859793 45.737896 0.035969
4.173615 45.737896 0.037195
4.487438 45.737896 0.038642
4.801261 45.737896 0.040404
5.115085 45.737896 0.042285
5.428907 45.737896 0.044043
5.742730 45.737896 0.046209
6.056554 45.737896 0.048853
6.370377 45.737896 0.051575
6.684199 45.737896 0.055106
6.998022 45.737896 0.059309
7.311846 45.737896 0.064854
7.625669 45.737896 0.071923
7.939491 45.737896 0.080939
8.253315 45.737896 0.093894
8.567138 45.737896 0.113033
8.880960 45.737896 0.145160
9.194784 45.737896 0.199454
9.508606 45.737896 0.286996
9.822430 45.737896 0.426326
10.136253 45.737896 0.611295
10.450075 45.737896 0.852401
10.763899 45.737896 1.127595
11.077723 45.737896 1.426998
11.391544 45.737896 1.739703
11.705368 45.737896 2.044016
12.019190 45.737896 2.293100
12.333014 45.737896 2.504230
12.646837 45.737896 2.666611
12.960659 45.737896 2.793219
13.274483 45.737896 2.869210
13.588306 45.737896 2.926497
13.902128 45.737896 2.958469
14.215952 45.737896 2.919711
14.529776 45.737896 2.823258
14.843597 45.737896 2.692959
15.157421 45.737896 2.541497
15.471243 45.737896 2.381464
15.785067 45.737896 2.189661
16.098890 45.737896 2.004215
16.412712 45.737896 1.805090
16.726536 45.737896 1.624830
17.040359 45.737896 1.464545
17.354181 45.737896 1.340620
17.668005 45.737896 1.298204
17.981829 45.737896 1.342529
18.295650 45.737896 1.454052
18.609474 45.737896 1.646882
18.923298 45.737896 1.935241
19.237120 45.737896 0.000000
-6.810190 45.424072 0.000000
-6.496367 45.424072 0.000000
-6.182544 45.424072 0.032181
-5.868721 45.424072 0.030894
-5.554898 45.424072 0.031146
-5.241075 45.424072 0.031621
-4.927252 45.424072 0.031772
-4.613429 45.424072 0.031855
-4.299606 45.424072 0.031926
-3.985783 45.424072 0.031543
-3.671960 45.424072 0.030845
-3.358137 45.424072 0.030187
-3.044314 45.424072 0.029906
-2.730491 45.424072 0.029821
-2.416668 45.424072 0.029856
-2.102845 45.424072 0.030101
-1.789022 45.424072 0.030607
-1.475199 45.424072 0.031266
-1.161376 45.424072 0.031515
-0.847553 45.424072 0.031569
-0.533730 45.424072 0.031965
-0.219907 45.424072 0.032373
0.093916 45.424072 0.032561
0.407739 45.424072 0.032857
0.721562 45.424072 0.033099
1.035385 45.424072 0.032857
1.349208 45.424072 0.032483
1.663032 45.424072 0.032130
1.976854 45.424072 0.032050
2.290677 45.424072 0.032485
2.604500 45.424072 0.033037
2.918324 45.424072 0.033277
3.232146 45.424072 0.033477
3.545969 45.424072 0.034155
3.859793 45.424072 0.035245
4.173615 45.424072 0.036629
4.487438 45.424072 0.038136
4.801261 45.424072 0.039922
5.115085 45.424072 0.041909
5.428907 45.424072 0.043806
5.742730 45.424072 0.046152
6.056554 45.424072 0.048988
6.370377 45.424072 0.052102
6.684199 45.424072 0.055550
6.998022 45.424072 0.059959
7.311846 45.424072 0.065504
7.625669 45.424072 0.073114
7.939491 45.424072 0.081877
8.253315 45.424072 0.093345
8.567138 45.424072 0.112040
8.880960 45.424072 0.145251
9.194784 45.424072 0.198000
9.508606 45.424072 0.283777
9.822430 45.424072 0.427331
10.136253 45.424072 0.617469
10.450075 45.424072 0.863998
10.763899 45.424072 1.130901
11.077723 45.424072 1.433328
11.391544 45.424072 1.741684
11.705368 45.424072 2.045310
12.019190 45.424072 2.302909
12.333014 45.424072 2.519779
12.646837 45.424072 2.673958
12.960659 45.424072 2.806268
13.274483 45.424072 2.888020
13.588306 45.424072 2.959494
13.902128 45.424072 2.975452
14.215952 45.424072 2.949471
14.529776 45.424072 2.841584
14.843597 45.424072 2.714893
15.157421 45.424072 2.561319
15.471243 45.424072 2.395723
15.785067 45.424072 2.196444
16.098890 45.424072 2.003207
16.412712 45.424072 1.808931
16.726536 45.424072 1.632713
17.040359 45.424072 1.461398
17.354181 45.424072 1.353021
17.668005 45.424072 1.289320
17.981829 45.424072 1.338960
18.295650 45.424072 1.462558
18.609474 45.424072 1.652440
18.923298 45.424072 1.922948
19.237120 45.424072 0.000000
-6.810190 45.110249 0.000000
-6.496367 45.110249 0.000000
-6.182544 45.110249 0.032059
-5.868721 45.110249 0.030676
-5.554898 45.110249 0.030878
-5.241075 45.110249 0.031291
-4.927252 45.110249 0.031453
-4.613429 45.110249 0.031690
-4.299606 45.110249 0.031917
-3.985783 45.110249 0.031675
-3.671960 45.110249 0.031231
-3.358137 45.110249 0.030782
-3.044314 45.110249 0.030438
-2.730491 45.110249 0.030057
-2.416668 45.110249 0.029858
-2.102845 45.110249 0.029924
-1.789022 45.110249 0.030283
-1.475199 45.110249 0.030742
-1.161376 45.110249 0.030855
-0.847553 45.110249 0.030948
-0.533730 45.110249 0.031499
-0.219907 45.110249 0.032076
0.093916 45.110249 0.032358
0.407739 45.110249 0.032727
0.721562 45.110249 0.033163
1.035385 45.110249 0.033085
1.349208 45.110249 0.032807
1.663032 45.110249 0.032484
1.976854 45.110249 0.032400
2.290677 45.110249 0.032800
2.604500 45.110249 0.033255
2.918324 45.110249 0.033313
3.232146 45.110249 0.033240
3.545969 45.110249 0.033622
3.859793 45.110249 0.034638
4.173615 45.110249 0.035950
4.487438 45.110249 0.037426
4.801261 45.110249 0.039076
5.115085 45.110249 0.041104
5.428907 45.110249 0.043216
5.742730 45.110249 0.045802
6.056554 45.110249 0.048848
6.370377 45.110249 0.052247
6.684199 45.110249 0.056067
6.998022 45.110249 0.060688
7.311846 45.110249 0.066432
7.625669 45.110249 0.073412
7.939491 45.110249 0.082534
8.253315 45.110249 0.093605
8.567138 45.110249 0.111608
8.880960 45.110249 0.142576
9.194784 45.110249 0.198138
9.508606 45.110249 0.280775
9.822430 45.110249 0.421874
10.136253 45.110249 0.606756
10.450075 45.110249 0.864776
10.763899 45.110249 1.145847
11.077723 45.110249 1.443694
11.391544 45.110249 1.739538
11.705368 45.110249 2.047119
12.019190 45.110249 2.310425
12.333014 45.110249 2.508138
12.646837 45.110249 2.676074
12.960659 45.110249 2.789485
13.274483 45.110249 2.901555
13.588306 45.110249 2.968468
13.902128 45.110249 2.971515
14.215952 45.110249 2.936879
14.529776 45.110249 2.838870
14.843597 45.110249 2.724555
15.157421 45.110249 2.576940
15.471243 45.110249 2.415508
15.785067 45.110249 2.214843
16.098890 45.110249 2.009085
16.412712 45.110249 1.814613
16.726536 45.110249 1.623019
17.040359 45.110249 1.460557
17.354181 45.110249 1.337179
17.668005 45.110249 1.296568
17.981829 45.110249 1.341534
18.295650 45.110249 1.474542
18.609474 45.110249 1.664650
18.923298 45.110249 1.931246
19.237120 45.110249 0.000000
-6.810190 44.796425 0.000000
-6.496367 44.796425 0.000000
-6.182544 44.796425 0.031904
-5.868721 44.796425 0.030442
-5.554898 44.796425 0.030593
-5.241075 44.796425 0.030964
-4.927252 44.796425 0.031056
-4.613429 44.796425 0.031321
-4.299606 44.796425 0.031644
-3.985783 44.796425 0.031668
-3.671960 44.796425 0.031656
-3.358137 44.796425 0.031466
-3.044314 44.796425 0.031181
-2.730491 44.796425 0.030611
-2.416668 44.796425 0.030132
-2.102845 44.796425 0.030078
-1.789022 44.796425 0.030187
-1.475199 44.796425 0.030319
-1.161376 44.796425 0.030275
-0.847553 44.796425 0.030363
-0.533730 44.796425 0.030931
-0.219907 44.796425 0.031472
0.093916 44.796425 0.031758
0.407739 44.796425 0.032247
0.721562 44.796425 0.032882
1.035385 44.796425 0.033082
1.349208 44.796425 0.033015
1.663032 44.796425 0.032890
1.976854 44.796425 0.032926
2.290677 44.796425 0.033293
2.604500 44.796425 0.033635
2.918324 44.796425 0.033606
3.232146 44.796425 0.033371
3.545969 44.796425 0.033572
3.859793 44.796425 0.034246
4.173615 44.796425 0.035363
4.487438 44.796425 0.036645
4.801261 44.796425 0.038101
5.115085 44.796425 0.040019
5.428907 44.796425 0.042261
5.742730 44.796425 0.045078
6.056554 44.796425 0.048424
6.370377 44.796425 0.052078
6.684199 44.796425 0.056480
6.998022 44.796425 0.061210
7.311846 44.796425 0.067193
7.625669 44.796425 0.074543
7.939491 44.796425 0.082973
8.253315 44.796425 0.093937
8.567138 44.796425 0.111391
8.880960 44.796425 0.145258
9.194784 44.796425 0.197568
9.508606 44.796425 0.289415
9.822430 44.796425 0.423714
10.136253 44.796425 0.606649
10.450075 44.796425 0.854796
10.763899 44.796425 1.138201
11.077723 44.796425 1.432674
11.391544 44.796425 1.726342
11.705368 44.796425 2.036961
12.019190 44.796425 2.297398
12.333014 44.796425 2.507881
12.646837 44.796425 2.678244
12.960659 44.796425 2.811384
13.274483 44.796425 2.908707
13.588306 44.796425 2.974214
13.902128 44.796425 2.964518
14.215952 44.796425 2.912605
14.529776 44.796425 2.840031
14.843597 44.796425 2.732063
15.157421 44.796425 2.601787
15.471243 44.796425 2.427183
15.785067 44.796425 2.225299
16.098890 44.796425 2.019623
16.412712 44.796425 1.823668
16.726536 44.796425 1.620753
17.040359 44.796425 1.449072
17.354181 44.796425 1.333564
17.668005 44.796425 1.299275
17.981829 44.796425 1.358667
18.295650 44.796425 1.479930
18.609474 44.796425 1.667815
18.923298 44.796425 1.945864
19.237120 44.796425 0.000000
-6.810190 44.482601 0.000000
-6.496367 44.482601 0.000000
-6.182544 44.482601 0.031878
-5.868721 44.482601 0.030275
-5.554898 44.482601 0.030325
-5.241075 44.482601 0.030586
-4.927252 44.482601 0.030624
-4.613429 44.482601 0.030854
-4.299606 44.482601 0.031244
-3.985783 44.482601 0.031514
-3.671960 44.482601 0.031785
-3.358137 44.482601 0.031956
-3.044314 44.482601 0.031855
-2.730491 44.482601 0.031267
-2.416668 44.482601 0.030696
-2.102845 44.482601 0.030515
-1.789022 44.482601 0.030399
-1.475199 44.482601 0.030215
-1.161376 44.482601 0.029996
-0.847553 44.482601 0.030010
-0.533730 44.482601 0.030372
-0.219907 44.482601 0.030737
0.093916 44.482601 0.030934
0.407739 44.482601 0.031521
0.721562 44.482601 0.032242
1.035385 44.482601 0.032716
1.349208 44.482601 0.032971
1.663032 44.482601 0.033116
1.976854 44.482601 0.033380
2.290677 44.482601 0.033750
2.604500 44.482601 0.033987
2.918324 44.482601 0.034022
3.232146 44.482601 0.033786
3.545969 44.482601 0.033800
3.859793 44.482601 0.034134
4.173615 44.482601 0.034848
4.487438 44.482601 0.035869
4.801261 44.482601 0.037199
5.115085 44.482601 0.038900
5.428907 44.482601 0.041122
5.742730 44.482601 0.044115
6.056554 44.482601 0.047669
6.370377 44.482601 0.051552
6.684199 44.482601 0.056275
6.998022 44.482601 0.061613
7.311846 44.482601 0.067638
7.625669 44.482601 0.074998
7.939491 44.482601 0.083335
8.253315 44.482601 0.095061
8.567138 44.482601 0.112538
8.880960 44.482601 0.142111
9.194784 44.482601 0.198502
9.508606 44.482601 0.290367
9.822430 44.482601 0.423747
10.136253 44.482601 0.617644
10.450075 44.482601 0.859855
10.763899 44.482601 1.132694
11.077723 44.482601 1.432279
11.391544 44.482601 1.732975
11.705368 44.482601 2.030670
12.019190 44.482601 2.294562
12.333014 44.482601 2.505064
12.646837 44.482601 2.677201
12.960659 44.482601 2.819896
13.274483 44.482601 2.923185
13.588306 44.482601 2.979494
13.902128 44.482601 2.961069
14.215952 44.482601 2.908032
14.529776 44.482601 2.836810
14.843597 44.482601 2.739131
15.157421 44.482601 2.612897
15.471243 44.482601 2.452714
15.785067 44.482601 2.252900
16.098890 44.482601 2.043847
16.412712 44.482601 1.828911
16.726536 44.482601 1.623273
17.040359 44.482601 1.437277
17.354181 44.482601 1.329075
17.668005 44.482601 1.303584
17.981829 44.482601 1.360037
18.295650 44.482601 1.468522
18.609474 44.482601 1.669127
18.923298 44.482601 1.937946
19.237120 44.482601 0.000000
-6.810190 44.168777 0.000000
-6.496367 44.168777 0.000000
-6.182544 44.168777 0.031967
-5.868721 44.168777 0.030180
-5.554898 44.168777 0.030072
-5.241075 44.168777 0.030205
-4.927252 44.168777 0.030288
-4.613429 44.168777 0.030466
-4.299606 44.168777 0.030805
-3.985783 44.168777 0.031150
-3.671960 44.168777 0.031623
-3.358137 44.168777 0.032103
-3.044314 44.168777 0.032182
-2.730491 44.168777 0.031809
-2.416668 44.168777 0.031379
-2.102845 44.168777 0.031074
-1.789022 44.168777 0.030756
-1.475199 44.168777 0.030371
-1.161376 44.168777 0.030051
-0.847553 44.168777 0.029881
-0.533730 44.168777 0.029932
-0.219907 44.168777 0.030052
0.093916 44.168777 0.030138
0.407739 44.168777 0.030731
0.721562 44.168777 0.031424
1.035385 44.168777 0.032057
1.349208 44.168777 0.032605
1.663032 44.168777 0.033035
1.976854 44.168777 0.033602
2.290677 44.168777 0.033995
2.604500 44.168777 0.034192
2.918324 44.168777 0.034398
3.232146 44.168777 0.034354
3.545969 44.168777 0.034307
3.859793 44.168777 0.034349
4.173615 44.168777 0.034647
4.487438 44.168777 0.035378
4.801261 44.168777 0.036549
5.115085 44.168777 0.038069
5.428907 44.168777 0.040122
5.742730 44.168777 0.043021
6.056554 44.168777 0.046536
6.370377 44.168777 0.050625
6.684199 44.168777 0.055549
6.998022 44.168777 0.061042
7.311846 44.168777 0.067582
7.625669 44.168777 0.075215
7.939491 44.168777 0.084071
8.253315 44.168777 0.096095
8.567138 44.168777 0.112892
8.880960 44.168777 0.141022
9.194784 44.168777 0.196182
9.508606 44.168777 0.291783
9.822430 44.168777 0.425953
10.136253 44.168777 0.612353
10.450075 44.168777 0.860909
10.763899 44.168777 1.130453
11.077723 44.168777 1.437886
11.391544 44.168777 1.737252
11.705368 44.168777 2.033804
12.019190 44.168777 2.307711
12.333014 44.168777 2.509008
12.646837 44.168777 2.687917
12.960659 44.168777 2.832802
13.274483 44.168777 2.932220
13.588306 44.168777 2.980469
13.902128 44.168777 2.969720
14.215952 44.168777 2.919738
14.529776 44.168777 2.839394
14.843597 44.168777 2.749466
15.157421 44.168777 2.638123
15.471243 44.168777 2.459297
15.785067 44.168777 2.267168
16.098890 44.168777 2.058636
16.412712 44.168777 1.840589
16.726536 44.168777 1.626382
17.040359 44.168777 1.441790
17.354181 44.168777 1.331954
17.668005 44.168777 1.296764
17.981829 44.168777 1.352992
18.295650 44.168777 1.469916
18.609474 44.168777 1.668405
18.923298 44.168777 1.933113
19.237120 44.168777 0.000000
-6.810190 43.854958 0.000000
-6.496367 43.854958 0.000000
-6.182544 43.854958 0.032126
-5.868721 43.854958 0.030161
-5.554898 43.854958 0.029865
-5.241075 43.854958 0.029912
-4.927252 43.854958 0.030004
-4.613429 43.854958 0.030078
-4.299606 43.854958 0.030287
-3.985783 43.854958 0.030653
-3.671960 43.854958 0.031229
-3.358137 43.854958 0.031902
-3.044314 43.854958 0.032210
-2.730491 43.854958 0.032166
-2.416668 43.854958 0.031913
-2.102845 43.854958 0.031669
-1.789022 43.854958 0.031255
-1.475199 43.854958 0.030748
-1.161376 43.854958 0.030370
-0.847553 43.854958 0.029980
-0.533730 43.854958 0.029705
-0.219907 43.854958 0.029607
0.093916 43.854958 0.029541
0.407739 43.854958 0.029965
0.721562 43.854958 0.030610
1.035385 43.854958 0.031328
1.349208 43.854958 0.032070
1.663032 43.854958 0.032741
1.976854 43.854958 0.033532
2.290677 43.854958 0.033981
2.604500 43.854958 0.034219
2.918324 43.854958 0.034655
3.232146 43.854958 0.034911
3.545969 43.854958 0.034988
3.859793 43.854958 0.034845
4.173615 43.854958 0.034766
4.487438 43.854958 0.035301
4.801261 43.854958 0.036303
5.115085 43.854958 0.037630
5.428907 43.854958 0.039509
5.742730 43.854958 0.042023
6.056554 43.854958 0.045408
6.370377 43.854958 0.049430
6.684199 43.854958 0.054130
6.998022 43.854958 0.059957
7.311846 43.854958 0.066688
7.625669 43.854958 0.074582
7.939491 43.854958 0.084453
8.253315 43.854958 0.096543
8.567138 43.854958 0.113677
8.880960 43.854958 0.141066
9.194784 43.854958 0.192113
9.508606 43.854958 0.290305
9.822430 43.854958 0.434084
10.136253 43.854958 0.610264
10.450075 43.854958 0.855548
10.763899 43.854958 1.133842
11.077723 43.854958 1.426032
11.391544 43.854958 1.726672
11.705368 43.854958 2.029787
12.019190 43.854958 2.305328
12.333014 43.854958 2.524339
12.646837 43.854958 2.681743
12.960659 43.854958 2.827435
13.274483 43.854958 2.928374
13.588306 43.854958 2.985633
13.902128 43.854958 2.979492
14.215952 43.854958 2.933690
14.529776 43.854958 2.852023
14.843597 43.854958 2.761525
15.157421 43.854958 2.647981
15.471243 43.854958 2.482214
15.785067 43.854958 2.272945
16.098890 43.854958 2.057367
16.412712 43.854958 1.847815
16.726536 43.854958 1.638631
17.040359 43.854958 1.442177
17.354181 43.854958 1.327376
17.668005 43.854958 1.294313
17.981829 43.854958 1.344521
18.295650 43.854958 1.469588
18.609474 43.854958 1.670507
18.923298 43.854958 1.941357
19.237120 43.854958 0.000000
-6.810190 43.541134 0.000000
-6.496367 43.541134 0.000000
-6.182544 43.541134 0.032554
-5.868721 43.541134 0.030444
-5.554898 43.541134 0.029951
-5.241075 43.541134 0.029858
-4.927252 43.541134 0.029876
-4.613429 43.541134 0.029781
-4.299606 43.541134 0.029764
-3.985783 43.541134 0.030028
-3.671960 43.541134 0.030575
-3.358137 43.541134 0.031337
-3.044314 43.541134 0.031886
-2.730491 43.541134 0.032166
-2.416668 43.541134 0.032236
-2.102845 43.541134 0.032133
-1.789022 43.541134 0.031764
-1.475199 43.541134 0.031246
-1.161376 43.541134 0.030884
-0.847553 43.541134 0.030316
-0.533730 43.541134 0.029785
-0.219907 43.541134 0.029475
0.093916 43.541134 0.029302
0.407739 43.541134 0.029484
0.721562 43.541134 0.030052
1.035385 43.541134 0.030745
1.349208 43.541134 0.031513
1.663032 43.541134 0.032249
1.976854 43.541134 0.033132
2.290677 43.541134 0.033696
2.604500 43.541134 0.034105
2.918324 43.541134 0.034748
3.232146 43.541134 0.035308
3.545969 43.541134 0.035591
3.859793 43.541134 0.035417
4.173615 43.541134 0.035240
4.487438 43.541134 0.035710
4.801261 43.541134 0.036520
5.115085 43.541134 0.037586
5.428907 43.541134 0.039249
5.742730 43.541134 0.041523
6.056554 43.541134 0.044575
6.370377 43.541134 0.048360
6.684199 43.541134 0.052704
6.998022 43.541134 0.058600
7.311846 43.541134 0.065878
7.625669 43.541134 0.074220
7.939491 43.541134 0.084628
8.253315 43.541134 0.096690
8.567138 43.541134 0.113554
8.880960 43.541134 0.141987
9.194784 43.541134 0.194659
9.508606 43.541134 0.290960
9.822430 43.541134 0.429632
10.136253 43.541134 0.610019
10.450075 43.541134 0.847402
10.763899 43.541134 1.131310
11.077723 43.541134 1.435354
11.391544 43.541134 1.730397
11.705368 43.541134 2.035351
12.019190 43.541134 2.310242
12.333014 43.541134 2.518528
12.646837 43.541134 2.678920
12.960659 43.541134 2.823291
13.274483 43.541134 2.929649
13.588306 43.541134 2.983418
13.902128 43.541134 2.989092
14.215952 43.541134 2.951016
14.529776 43.541134 2.870849
14.843597 43.541134 2.767615
15.157421 43.541134 2.640439
15.471243 43.541134 2.485202
15.785067 43.541134 2.277048
16.098890 43.541134 2.068392
16.412712 43.541134 1.836524
16.726536 43.541134 1.635327
17.040359 43.541134 1.453853
17.354181 43.541134 1.332315
17.668005 43.541134 1.287896
17.981829 43.541134 1.338845
18.295650 43.541134 1.458041
18.609474 43.541134 1.659044
18.923298 43.541134 1.949491
19.237120 43.541134 0.000000
-6.810190 43.227310 0.000000
-6.496367 43.227310 0.000000
-6.182544 43.227310 0.033139
-5.868721 43.227310 0.030968
-5.554898 43.227310 0.030280
-5.241075 43.227310 0.030015
-4.927252 43.227310 0.029866
-4.613429 43.227310 0.029665
-4.299606 43.227310 0.029432
-3.985783 43.227310 0.029470
-3.671960 43.227310 0.029827
-3.358137 43.227310 0.030537
-3.044314 43.227310 0.031219
-2.730491 43.227310 0.031802
-2.416668 43.227310 0.032212
-2.102845 43.227310 0.032304
-1.789022 43.227310 0.032112
-1.475199 43.227310 0.031741
-1.161376 43.227310 0.031539
-0.847553 43.227310 0.030916
-0.533730 43.227310 0.030177
-0.219907 43.227310 0.029712
0.093916 43.227310 0.029409
0.407739 43.227310 0.029416
0.721562 43.227310 0.029831
1.035385 43.227310 0.030357
1.349208 43.227310 0.031035
1.663032 43.227310 0.031706
1.976854 43.227310 0.032516
2.290677 43.227310 0.033185
2.604500 43.227310 0.033800
2.918324 43.227310 0.034629
3.232146 43.227310 0.035419
3.545969 43.227310 0.035938
3.859793 43.227310 0.035893
4.173615 43.227310 0.035905
4.487438 43.227310 0.036414
4.801261 43.227310 0.037038
5.115085 43.227310 0.037902
5.428907 43.227310 0.039304
5.742730 43.227310 0.041352
6.056554 43.227310 0.043991
6.370377 43.227310 0.047411
6.684199 43.227310 0.051649
6.998022 43.227310 0.057227
7.311846 43.227310 0.064591
7.625669 43.227310 0.073709
7.939491 43.227310 0.084734
8.253315 43.227310 0.095924
8.567138 43.227310 0.113005
8.880960 43.227310 0.144034
9.194784 43.227310 0.197044
9.508606 43.227310 0.290327
9.822430 43.227310 0.418071
10.136253 43.227310 0.607190
10.450075 43.227310 0.850985
10.763899 43.227310 1.135945
11.077723 43.227310 1.427478
11.391544 43.227310 1.727132
11.705368 43.227310 2.029903
12.019190 43.227310 2.291862
12.333014 43.227310 2.496516
12.646837 43.227310 2.667813
12.960659 43.227310 2.826451
13.274483 43.227310 2.942207
13.588306 43.227310 2.991633
13.902128 43.227310 2.999802
14.215952 43.227310 2.962092
14.529776 43.227310 2.892797
14.843597 43.227310 2.790475
15.157421 43.227310 2.643392
15.471243 43.227310 2.476498
15.785067 43.227310 2.271102
16.098890 43.227310 2.062066
16.412712 43.227310 1.830478
16.726536 43.227310 1.633486
17.040359 43.227310 1.462119
17.354181 43.227310 1.334429
17.668005 43.227310 1.289337
17.981829 43.227310 1.334982
18.295650 43.227310 1.456315
18.609474 43.227310 1.672330
18.923298 43.227310 1.972222
19.237120 43.227310 0.000000
-6.810190 42.913486 0.000000
-6.496367 42.913486 0.000000
-6.182544 42.913486 0.033595
-5.868721 42.913486 0.031466
-5.554898 42.913486 0.030793
-5.241075 42.913486 0.030414
-4.927252 42.913486 0.030091
-4.613429 42.913486 0.029771
-4.299606 42.913486 0.029383
-3.985783 42.913486 0.029134
-3.671960 42.913486 0.029167
-3.358137 42.913486 0.029693
-3.044314 42.913486 0.030380
-2.730491 42.913486 0.031160
-2.416668 42.913486 0.031793
-2.102845 42.913486 0.032149
-1.789022 42.913486 0.032208
-1.475199 42.913486 0.032094
-1.161376 42.913486 0.032147
-0.847553 42.913486 0.031629
-0.533730 42.913486 0.030775
-0.219907 42.913486 0.030256
0.093916 42.913486 0.029852
0.407739 42.913486 0.029736
0.721562 42.913486 0.029866
1.035385 42.913486 0.030135
1.349208 42.913486 0.030588
1.663032 42.913486 0.031060
1.976854 42.913486 0.031775
2.290677 42.913486 0.032520
2.604500 42.913486 0.033295
2.918324 42.913486 0.034260
3.232146 42.913486 0.035206
3.545969 42.913486 0.035946
3.859793 42.913486 0.036184
4.173615 42.913486 0.036601
4.487438 42.913486 0.037243
4.801261 42.913486 0.037721
5.115085 42.913486 0.038388
5.428907 42.913486 0.039589
5.742730 42.913486 0.041365
6.056554 42.913486 0.043758
6.370377 42.913486 0.046787
6.684199 42.913486 0.050915
6.998022 42.913486 0.056278
7.311846 42.913486 0.063649
7.625669 42.913486 0.072522
7.939491 42.913486 0.083319
8.253315 42.913486 0.095549
8.567138 42.913486 0.114879
8.880960 42.913486 0.146640
9.194784 42.913486 0.201364
9.508606 42.913486 0.291221
9.822430 42.913486 0.421954
10.136253 42.913486 0.610617
10.450075 42.913486 0.850602
10.763899 42.913486 1.141727
11.077723 42.913486 1.422258
11.391544 42.913486 1.704084
11.705368 42.913486 2.005574
12.019190 42.913486 2.281295
12.333014 42.913486 2.520105
12.646837 42.913486 2.694188
12.960659 42.913486 2.833352
13.274483 42.913486 2.956519
13.588306 42.913486 3.015981
13.902128 42.913486 3.015401
14.215952 42.913486 2.972029
14.529776 42.913486 2.901710
14.843597 42.913486 2.792349
15.157421 42.913486 2.655441
15.471243 42.913486 2.492097
15.785067 42.913486 2.279197
16.098890 42.913486 2.058419
16.412712 42.913486 1.825496
16.726536 42.913486 1.627290
17.040359 42.913486 1.459270
17.354181 42.913486 1.334284
17.668005 42.913486 1.292409
17.981829 42.913486 1.333214
18.295650 42.913486 1.461552
18.609474 42.913486 1.654782
18.923298 42.913486 1.978008
19.237120 42.913486 0.000000
-6.810190 42.599663 0.000000
-6.496367 42.599663 0.000000
-6.182544 42.599663 0.033697
-5.868721 42.599663 0.031847
-5.554898 42.599663 0.031308
-5.241075 42.599663 0.030933
-4.927252 42.599663 0.030561
-4.613429 42.599663 0.030120
-4.299606 42.599663 0.029597
-3.985783 42.599663 0.029090
-3.671960 42.599663 0.028761
-3.358137 42.599663 0.029009
-3.044314 42.599663 0.029594
-2.730491 42.599663 0.030317
-2.416668 42.599663 0.031106
-2.102845 42.599663 0.031716
-1.789022 42.599663 0.031990
-1.475199 42.599663 0.032088
-1.161376 42.599663 0.032436
-0.847553 42.599663 0.032145
-0.533730 42.599663 0.031401
-0.219907 42.599663 0.030873
0.093916 42.599663 0.030492
0.407739 42.599663 0.030285
0.721562 42.599663 0.030100
1.035385 42.599663 0.030131
1.349208 42.599663 0.030242
1.663032 42.599663 0.030450
1.976854 42.599663 0.031019
2.290677 42.599663 0.031805
2.604500 42.599663 0.032719
2.918324 42.599663 0.033722
3.232146 42.599663 0.034705
3.545969 42.599663 0.035635
3.859793 42.599663 0.036269
4.173615 42.599663 0.037109
4.487438 42.599663 0.037905
4.801261 42.599663 0.038360
5.115085 42.599663 0.038921
5.428907 42.599663 0.039889
5.742730 42.599663 0.041569
6.056554 42.599663 0.043717
6.370377 42.599663 0.046622
6.684199 42.599663 0.050658
6.998022 42.599663 0.055915
7.311846 42.599663 0.062775
7.625669 42.599663 0.071322
7.939491 42.599663 0.081146
8.253315 42.599663 0.094441
8.567138 42.599663 0.112772
8.880960 42.599663 0.143633
9.194784 42.599663 0.198543
9.508606 42.599663 0.295341
9.822430 42.599663 0.422455
10.136253 42.599663 0.613651
10.450075 42.599663 0.850675
10.763899 42.599663 1.128899
11.077723 42.599663 1.427730
11.391544 42.599663 1.707600
11.705368 42.599663 2.010084
12.019190 42.599663 2.284938
12.333014 42.599663 2.524102
12.646837 42.599663 2.702566
12.960659 42.599663 2.850622
13.274483 42.599663 2.964619
13.588306 42.599663 3.042684
13.902128 42.599663 3.036818
14.215952 42.599663 2.981380
14.529776 42.599663 2.894616
14.843597 42.599663 2.782615
15.157421 42.599663 2.654636
15.471243 42.599663 2.484693
15.785067 42.599663 2.276786
16.098890 42.599663 2.053327
16.412712 42.599663 1.820741
16.726536 42.599663 1.630862
17.040359 42.599663 1.453589
17.354181 42.599663 1.333410
17.668005 42.599663 1.294862
17.981829 42.599663 1.338150
18.295650 42.599663 1.460406
18.609474 42.599663 1.650633
18.923298 42.599663 1.963059
19.237120 42.599663 0.000000
-6.810190 42.285843 0.000000
-6.496367 42.285843 0.000000
-6.182544 42.285843 0.033469
-5.868721 42.285843 0.031923
-5.554898 42.285843 0.031721
-5.241075 42.285843 0.031529
-4.927252 42.285843 0.031147
-4.613429 42.285843 0.030673
-4.299606 42.285843 0.030040
-3.985783 42.285843 0.029355
-3.671960 42.285843 0.028806
-3.358137 42.285843 0.028793
-3.044314 42.285843 0.029074
-2.730491 42.285843 0.029580
-2.416668 42.285843 0.030342
-2.102845 42.285843 0.031091
-1.789022 42.285843 0.031472
-1.475199 42.285843 0.031789
-1.161376 42.285843 0.032300
-0.847553 42.285843 0.032358
-0.533730 42.285843 0.031920
-0.219907 42.285843 0.031520
0.093916 42.285843 0.031242
0.407739 42.285843 0.030873
0.721562 42.285843 0.030472
1.035385 42.285843 0.030274
1.349208 42.285843 0.030102
1.663032 42.285843 0.030069
1.976854 42.285843 0.030469
2.290677 42.285843 0.031202
2.604500 42.285843 0.032198
2.918324 42.285843 0.033176
3.232146 42.285843 0.034046
3.545969 42.285843 0.035091
3.859793 42.285843 0.036099
4.173615 42.285843 0.037224
4.487438 42.285843 0.038208
4.801261 42.285843 0.038844
5.115085 42.285843 0.039455
5.428907 42.285843 0.040318
5.742730 42.285843 0.041708
6.056554 42.285843 0.043970
6.370377 42.285843 0.046742
6.684199 42.285843 0.050461
6.998022 42.285843 0.055493
7.311846 42.285843 0.061871
7.625669 42.285843 0.070030
7.939491 42.285843 0.079569
8.253315 42.285843 0.093110
8.567138 42.285843 0.111322
8.880960 42.285843 0.141702
9.194784 42.285843 0.198689
9.508606 42.285843 0.291781
9.822430 42.285843 0.428851
10.136253 42.285843 0.602355
10.450075 42.285843 0.862267
10.763899 42.285843 1.140730
11.077723 42.285843 1.427860
11.391544 42.285843 1.732732
11.705368 42.285843 2.020304
12.019190 42.285843 2.300645
12.333014 42.285843 2.531177
12.646837 42.285843 2.706481
12.960659 42.285843 2.859551
13.274483 42.285843 2.975237
13.588306 42.285843 3.065501
13.902128 42.285843 3.050030
14.215952 42.285843 2.975627
14.529776 42.285843 2.881351
14.843597 42.285843 2.768933
15.157421 42.285843 2.644312
15.471243 42.285843 2.479358
15.785067 42.285843 2.273840
16.098890 42.285843 2.046152
16.412712 42.285843 1.824666
16.726536 42.285843 1.622874
17.040359 42.285843 1.449270
17.354181 42.285843 1.331713
17.668005 42.285843 1.290401
17.981829 42.285843 1.337464
18.295650 42.285843 1.465094
18.609474 42.285843 1.656316
18.923298 42.285843 1.951005
19.237120 42.285843 0.000000
-6.810190 41.972019 0.000000
-6.496367 41.972019 0.000000
-6.182544 41.972019 0.033023
-5.868721 41.972019 0.031742
-5.554898 41.972019 0.031928
-5.241075 41.972019 0.032112
-4.927252 41.972019 0.031768
-4.613429 41.972019 0.031199
-4.299606 41.972019 0.030519
-3.985783 41.972019 0.029814
-3.671960 41.972019 0.029243
-3.358137 41.972019 0.029027
-3.044314 41.972019 0.028923
-2.730491 41.972019 0.029107
-2.416668 41.972019 0.029736
-2.102845 41.972019 0.030404
-1.789022 41.972019 0.030827
-1.475199 41.972019 0.031280
-1.161376 41.972019 0.031926
-0.847553 41.972019 0.032211
-0.533730 41.972019 0.032241
-0.219907 41.972019 0.032123
0.093916 41.972019 0.031935
0.407739 41.972019 0.031389
0.721562 41.972019 0.030844
1.035385 41.972019 0.030520
1.349208 41.972019 0.030208
1.663032 41.972019 0.029992
1.976854 41.972019 0.030196
2.290677 41.972019 0.030749
2.604500 41.972019 0.031681
2.918324 41.972019 0.032652
3.232146 41.972019 0.033365
3.545969 41.972019 0.034418
3.859793 41.972019 0.035703
4.173615 41.972019 0.037002
4.487438 41.972019 0.038155
4.801261 41.972019 0.039067
5.115085 41.972019 0.039876
5.428907 41.972019 0.040792
5.742730 41.972019 0.042202
6.056554 41.972019 0.044291
6.370377 41.972019 0.047057
6.684199 41.972019 0.050679
6.998022 41.972019 0.055379
7.311846 41.972019 0.061228
7.625669 41.972019 0.069039
7.939491 41.972019 0.078778
8.253315 41.972019 0.092392
8.567138 41.972019 0.110806
8.880960 41.972019 0.141613
9.194784 41.972019 0.196110
9.508606 41.972019 0.292985
9.822430 41.972019 0.426099
10.136253 41.972019 0.607839
10.450075 41.972019 0.860880
10.763899 41.972019 1.132457
11.077723 41.972019 1.426442
11.391544 41.972019 1.722831
11.705368 41.972019 2.023437
12.019190 41.972019 2.300787
12.333014 41.972019 2.533542
12.646837 41.972019 2.705760
12.960659 41.972019 2.851396
13.274483 41.972019 2.992515
13.588306 41.972019 3.067704
13.902128 41.972019 3.050931
14.215952 41.972019 2.986077
14.529776 41.972019 2.876493
14.843597 41.972019 2.763365
15.157421 41.972019 2.652565
15.471243 41.972019 2.488719
15.785067 41.972019 2.279619
16.098890 41.972019 2.067458
16.412712 41.972019 1.835099
16.726536 41.972019 1.631738
17.040359 41.972019 1.449904
17.354181 41.972019 1.339151
17.668005 41.972019 1.296342
17.981829 41.972019 1.348597
18.295650 41.972019 1.471045
18.609474 41.972019 1.651321
18.923298 41.972019 1.945472
19.237120 41.972019 0.000000
-6.810190 41.658195 0.000000
-6.496367 41.658195 0.000000
-6.182544 41.658195 0.032326
-5.868721 41.658195 0.031354
-5.554898 41.658195 0.031921
-5.241075 41.658195 0.032414
-4.927252 41.658195 0.032156
-4.613429 41.658195 0.031635
-4.299606 41.658195 0.030982
-3.985783 41.658195 0.030275
-3.671960 41.658195 0.029841
-3.358137 41.658195 0.029464
-3.044314 41.658195 0.029044
-2.730491 41.658195 0.028898
-2.416668 41.658195 0.029292
-2.102845 41.658195 0.029704
-1.789022 41.658195 0.030059
-1.475199 41.658195 0.030631
-1.161376 41.658195 0.031307
-0.847553 41.658195 0.031778
-0.533730 41.658195 0.032275
-0.219907 41.658195 0.032656
0.093916 41.658195 0.032515
0.407739 41.658195 0.031827
0.721562 41.658195 0.031180
1.035385 41.658195 0.030837
1.349208 41.658195 0.030494
1.663032 41.658195 0.030167
1.976854 41.658195 0.030165
2.290677 41.658195 0.030497
2.604500 41.658195 0.031249
2.918324 41.658195 0.032076
3.232146 41.658195 0.032716
3.545969 41.658195 0.033737
3.859793 41.658195 0.035154
4.173615 41.658195 0.036591
4.487438 41.658195 0.037905
4.801261 41.658195 0.039084
5.115085 41.658195 0.040154
5.428907 41.658195 0.041210
5.742730 41.658195 0.042565
6.056554 41.658195 0.044626
6.370377 41.658195 0.047290
6.684199 41.658195 0.050901
6.998022 41.658195 0.055123
7.311846 41.658195 0.061046
7.625669 41.658195 0.068507
7.939491 41.658195 0.078685
8.253315 41.658195 0.090736
8.567138 41.658195 0.109666
8.880960 41.658195 0.138571
9.194784 41.658195 0.193666
9.508606 41.658195 0.286301
9.822430 41.658195 0.425953
10.136253 41.658195 0.608445
10.450075 41.658195 0.856721
10.763899 41.658195 1.135183
11.077723 41.658195 1.427938
11.391544 41.658195 1.722978
11.705368 41.658195 2.002270
12.019190 41.658195 2.295003
12.333014 41.658195 2.517823
12.646837 41.658195 2.716570
12.960659 41.658195 2.867627
13.274483 41.658195 3.017260
13.588306 41.658195 3.069787
13.902128 41.658195 3.053396
14.215952 41.658195 2.988274
14.529776 41.658195 2.878970
14.843597 41.658195 2.763863
15.157421 41.658195 2.649178
15.471243 41.658195 2.488434
15.785067 41.658195 2.295671
16.098890 41.658195 2.081630
16.412712 41.658195 1.854544
16.726536 41.658195 1.639738
17.040359 41.658195 1.467774
17.354181 41.658195 1.350686
17.668005 41.658195 1.304146
17.981829 41.658195 1.354858
18.295650 41.658195 1.486821
18.609474 41.658195 1.672138
18.923298 41.658195 1.956380
19.237120 41.658195 0.000000
-6.810190 41.344372 0.000000
-6.496367 41.344372 0.000000
-6.182544 41.344372 0.031776
-5.868721 41.344372 0.031028
-5.554898 41.344372 0.031736
-5.241075 41.344372 0.032331
-4.927252 41.344372 0.032187
-4.613429 41.344372 0.031854
-4.299606 41.344372 0.031318
-3.985783 41.344372 0.030743
-3.671960 41.344372 0.030332
-3.358137 41.344372 0.029864
-3.044314 41.344372 0.029240
-2.730491 41.344372 0.028885
-2.416668 41.344372 0.029049
-2.102845 41.344372 0.029148
-1.789022 41.344372 0.029434
-1.475199 41.344372 0.030008
-1.161376 41.344372 0.030674
-0.847553 41.344372 0.031243
-0.533730 41.344372 0.032059
-0.219907 41.344372 0.032770
0.093916 41.344372 0.032794
0.407739 41.344372 0.032128
0.721562 41.344372 0.031477
1.035385 41.344372 0.031116
1.349208 41.344372 0.030840
1.663032 41.344372 0.030491
1.976854 41.344372 0.030286
2.290677 41.344372 0.030403
2.604500 41.344372 0.030966
2.918324 41.344372 0.031566
3.232146 41.344372 0.032094
3.545969 41.344372 0.033138
3.859793 41.344372 0.034578
4.173615 41.344372 0.036082
4.487438 41.344372 0.037494
4.801261 41.344372 0.038933
5.115085 41.344372 0.040284
5.428907 41.344372 0.041500
5.742730 41.344372 0.042917
6.056554 41.344372 0.044851
6.370377 41.344372 0.047505
6.684199 41.344372 0.050789
6.998022 41.344372 0.055246
7.311846 41.344372 0.061079
7.625669 41.344372 0.068347
7.939491 41.344372 0.078466
8.253315 41.344372 0.089930
8.567138 41.344372 0.107501
8.880960 41.344372 0.138860
9.194784 41.344372 0.193870
9.508606 41.344372 0.284078
9.822430 41.344372 0.422134
10.136253 41.344372 0.611992
10.450075 41.344372 0.849196
10.763899 41.344372 1.133581
11.077723 41.344372 1.421433
11.391544 41.344372 1.722725
11.705368 41.344372 2.003717
12.019190 41.344372 2.285590
12.333014 41.344372 2.507632
12.646837 41.344372 2.714204
12.960659 41.344372 2.876842
13.274483 41.344372 3.025133
13.588306 41.344372 3.072319
13.902128 41.344372 3.064156
14.215952 41.344372 3.010731
14.529776 41.344372 2.903715
14.843597 41.344372 2.791003
15.157421 41.344372 2.664234
15.471243 41.344372 2.495533
15.785067 41.344372 2.312665
16.098890 41.344372 2.111800
16.412712 41.344372 1.868340
16.726536 41.344372 1.648892
17.040359 41.344372 1.474800
17.354181 41.344372 1.365437
17.668005 41.344372 1.310172
17.981829 41.344372 1.360646
18.295650 41.344372 1.498200
18.609474 41.344372 1.673393
18.923298 41.344372 1.955050
19.237120 41.344372 0.000000
-6.810190 41.030548 0.000000
-6.496367 41.030548 0.000000
-6.182544 41.030548 0.031360
-5.868721 41.030548 0.030794
-5.554898 41.030548 0.031498
-5.241075 41.030548 0.032002
-4.927252 41.030548 0.031936
-4.613429 41.030548 0.031860
-4.299606 41.030548 0.031591
-3.985783 41.030548 0.031216
-3.671960 41.030548 0.030782
-3.358137 41.030548 0.030229
-3.044314 41.030548 0.029493
-2.730491 41.030548 0.028986
-2.416668 41.030548 0.028932
-2.102845 41.030548 0.028830
-1.789022 41.030548 0.028947
-1.475199 41.030548 0.029464
-1.161376 41.030548 0.030109
-0.847553 41.030548 0.030685
-0.533730 41.030548 0.031638
-0.219907 41.030548 0.032547
0.093916 41.030548 0.032757
0.407739 41.030548 0.032283
0.721562 41.030548 0.031673
1.035385 41.030548 0.031334
1.349208 41.030548 0.031153
1.663032 41.030548 0.030879
1.976854 41.030548 0.030584
2.290677 41.030548 0.030497
2.604500 41.030548 0.030826
2.918324 41.030548 0.031217
3.232146 41.030548 0.031646
3.545969 41.030548 0.032573
3.859793 41.030548 0.034033
4.173615 41.030548 0.035519
4.487438 41.030548 0.036978
4.801261 41.030548 0.038648
5.115085 41.030548 0.040254
5.428907 41.030548 0.041575
5.742730 41.030548 0.043128
6.056554 41.030548 0.045117
6.370377 41.030548 0.047740
6.684199 41.030548 0.051194
6.998022 41.030548 0.055608
7.311846 41.030548 0.061042
7.625669 41.030548 0.068236
7.939491 41.030548 0.078385
8.253315 41.030548 0.090850
8.567138 41.030548 0.107537
8.880960 41.030548 0.140333
9.194784 41.030548 0.194981
9.508606 41.030548 0.283774
9.822430 41.030548 0.423815
10.136253 41.030548 0.617586
10.450075 41.030548 0.853019
10.763899 41.030548 1.126783
11.077723 41.030548 1.414643
11.391544 41.030548 1.720598
11.705368 41.030548 2.008668
12.019190 41.030548 2.282847
12.333014 41.030548 2.507153
12.646837 41.030548 2.720896
12.960659 41.030548 2.880927
13.274483 41.030548 3.017686
13.588306 41.030548 3.081973
13.902128 41.030548 3.078953
14.215952 41.030548 3.017799
14.529776 41.030548 2.925453
14.843597 41.030548 2.820040
15.157421 41.030548 2.690724
15.471243 41.030548 2.521060
15.785067 41.030548 2.323831
16.098890 41.030548 2.116176
16.412712 41.030548 1.883455
16.726536 41.030548 1.648343
17.040359 41.030548 1.480082
17.354181 41.030548 1.380578
17.668005 41.030548 1.314221
17.981829 41.030548 1.371527
18.295650 41.030548 1.507101
18.609474 41.030548 1.690482
18.923298 41.030548 1.956621
19.237120 41.030548 0.000000
-6.810190 40.716728 0.000000
-6.496367 40.716728 0.000000
-6.182544 40.716728 0.031020
-5.868721 40.716728 0.030574
-5.554898 40.716728 0.031317
-5.241075 40.716728 0.031651
-4.927252 40.716728 0.031628
-4.613429 40.716728 0.031790
-4.299606 40.716728 0.031875
-3.985783 40.716728 0.031694
-3.671960 40.716728 0.031162
-3.358137 40.716728 0.030563
-3.044314 40.716728 0.029821
-2.730491 40.716728 0.029212
-2.416668 40.716728 0.028992
-2.102845 40.716728 0.028799
-1.789022 40.716728 0.028765
-1.475199 40.716728 0.029138
-1.161376 40.716728 0.029617
-0.847553 40.716728 0.030121
-0.533730 40.716728 0.031017
-0.219907 40.716728 0.031979
0.093916 40.716728 0.032421
0.407739 40.716728 0.032257
0.721562 40.716728 0.031772
1.035385 40.716728 0.031440
1.349208 40.716728 0.031400
1.663032 40.716728 0.031277
1.976854 40.716728 0.030879
2.290677 40.716728 0.030663
2.604500 40.716728 0.030814
2.918324 40.716728 0.031040
3.232146 40.716728 0.031348
3.545969 40.716728 0.032180
3.859793 40.716728 0.033548
4.173615 40.716728 0.034974
4.487438 40.716728 0.036434
4.801261 40.716728 0.038199
5.115085 40.716728 0.040002
5.428907 40.716728 0.041538
5.742730 40.716728 0.043242
6.056554 40.716728 0.045221
6.370377 40.716728 0.047796
6.684199 40.716728 0.051434
6.998022 40.716728 0.055623
7.311846 40.716728 0.061357
7.625669 40.716728 0.067767
7.939491 40.716728 0.077101
8.253315 40.716728 0.090431
8.567138 40.716728 0.108179
8.880960 40.716728 0.139334
9.194784 40.716728 0.193188
9.508606 40.716728 0.280007
9.822430 40.716728 0.421327
10.136253 40.716728 0.608940
10.450075 40.716728 0.850880
10.763899 40.716728 1.132241
11.077723 40.716728 1.434357
11.391544 40.716728 1.723804
11.705368 40.716728 2.019593
12.019190 40.716728 2.286107
12.333014 40.716728 2.507967
12.646837 40.716728 2.717588
12.960659 40.716728 2.902347
13.274483 40.716728 3.046128
13.588306 40.716728 3.107777
13.902128 40.716728 3.098263
14.215952 40.716728 3.036157
14.529776 40.716728 2.937211
14.843597 40.716728 2.837333
15.157421 40.716728 2.698289
15.471243 40.716728 2.514172
15.785067 40.716728 2.318747
16.098890 40.716728 2.110590
16.412712 40.716728 1.878872
16.726536 40.716728 1.652557
17.040359 40.716728 1.482484
17.354181 40.716728 1.368472
17.668005 40.716728 1.315562
17.981829 40.716728 1.385405
18.295650 40.716728 1.518270
18.609474 40.716728 1.698283
18.923298 40.716728 1.964874
19.237120 40.716728 0.000000
-6.810190 40.402905 0.000000
-6.496367 40.402905 0.000000
-6.182544 40.402905 0.030724
-5.868721 40.402905 0.030301
-5.554898 40.402905 0.031079
-5.241075 40.402905 0.031333
-4.927252 40.402905 0.031375
-4.613429 40.402905 0.031793
-4.299606 40.402905 0.032132
-3.985783 40.402905 0.032076
-3.671960 40.402905 0.031566
-3.358137 40.402905 0.030985
-3.044314 40.402905 0.030252
-2.730491 40.402905 0.029551
-2.416668 40.402905 0.029172
-2.102845 40.402905 0.028925
-1.789022 40.402905 0.028814
-1.475199 40.402905 0.028998
-1.161376 40.402905 0.029208
-0.847553 40.402905 0.029555
-0.533730 40.402905 0.030310
-0.219907 40.402905 0.031201
0.093916 40.402905 0.031838
0.407739 40.402905 0.032020
0.721562 40.402905 0.031768
1.035385 40.402905 0.031485
1.349208 40.402905 0.031560
1.663032 40.402905 0.031520
1.976854 40.402905 0.031102
2.290677 40.402905 0.030762
2.604500 40.402905 0.030840
2.918324 40.402905 0.030990
3.232146 40.402905 0.031170
3.545969 40.402905 0.031971
3.859793 40.402905 0.033313
4.173615 40.402905 0.034546
4.487438 40.402905 0.035914
4.801261 40.402905 0.037718
5.115085 40.402905 0.039672
5.428907 40.402905 0.041401
5.742730 40.402905 0.043226
6.056554 40.402905 0.045328
6.370377 40.402905 0.047926
6.684199 40.402905 0.051583
6.998022 40.402905 0.055785
7.311846 40.402905 0.061156
7.625669 40.402905 0.067830
7.939491 40.402905 0.077185
8.253315 40.402905 0.090014
8.567138 40.402905 0.107203
8.880960 40.402905 0.139140
9.194784 40.402905 0.193685
9.508606 40.402905 0.287053
9.822430 40.402905 0.430412
10.136253 40.402905 0.610563
10.450075 40.402905 0.848322
10.763899 40.402905 1.128984
11.077723 40.402905 1.419560
11.391544 40.402905 1.715721
11.705368 40.402905 2.007310
12.019190 40.402905 2.289386
12.333014 40.402905 2.525467
12.646837 40.402905 2.717693
12.960659 40.402905 2.911628
13.274483 40.402905 3.051433
13.588306 40.402905 3.124755
13.902128 40.402905 3.111745
14.215952 40.402905 3.048140
14.529776 40.402905 2.951886
14.843597 40.402905 2.851663
15.157421 40.402905 2.688511
15.471243 40.402905 2.518114
15.785067 40.402905 2.319122
16.098890 40.402905 2.104564
16.412712 40.402905 1.878210
16.726536 40.402905 1.658633
17.040359 40.402905 1.482220
17.354181 40.402905 1.365354
17.668005 40.402905 1.320402
17.981829 40.402905 1.377022
18.295650 40.402905 1.509952
18.609474 40.402905 1.702870
18.923298 40.402905 1.985567
19.237120 40.402905 0.000000
-6.810190 40.089081 0.000000
-6.496367 40.089081 0.000000
-6.182544 40.089081 0.030384
-5.868721 40.089081 0.029896
-5.554898 40.089081 0.030663
-5.241075 40.089081 0.030990
-4.927252 40.089081 0.031170
-4.613429 40.089081 0.031776
-4.299606 40.089081 0.032253
-3.985783 40.089081 0.032294
-3.671960 40.089081 0.031929
-3.358137 40.089081 0.031411
-3.044314 40.089081 0.030694
-2.730491 40.089081 0.029943
-2.416668 40.089081 0.029460
-2.102845 40.089081 0.029225
-1.789022 40.089081 0.028979
-1.475199 40.089081 0.028955
-1.161376 40.089081 0.028950
-0.847553 40.089081 0.029146
-0.533730 40.089081 0.029722
-0.219907 40.089081 0.030511
0.093916 40.089081 0.031254
0.407739 40.089081 0.031692
0.721562 40.089081 0.031680
1.035385 40.089081 0.031534
1.349208 40.089081 0.031627
1.663032 40.089081 0.031600
1.976854 40.089081 0.031190
2.290677 40.089081 0.030790
2.604500 40.089081 0.030855
2.918324 40.089081 0.030930
3.232146 40.089081 0.031143
3.545969 40.089081 0.031917
3.859793 40.089081 0.033038
4.173615 40.089081 0.034192
4.487438 40.089081 0.035477
4.801261 40.089081 0.037291
5.115085 40.089081 0.039381
5.428907 40.089081 0.041277
5.742730 40.089081 0.043198
6.056554 40.089081 0.045418
6.370377 40.089081 0.048131
6.684199 40.089081 0.051742
6.998022 40.089081 0.055725
7.311846 40.089081 0.060924
7.625669 40.089081 0.067819
7.939491 40.089081 0.077082
8.253315 40.089081 0.089557
8.567138 40.089081 0.108279
8.880960 40.089081 0.137448
9.194784 40.089081 0.188812
9.508606 40.089081 0.290851
9.822430 40.089081 0.428340
10.136253 40.089081 0.625143
10.450075 40.089081 0.852592
10.763899 40.089081 1.124308
11.077723 40.089081 1.416262
11.391544 40.089081 1.705850
11.705368 40.089081 1.996825
12.019190 40.089081 2.286727
12.333014 40.089081 2.511967
12.646837 40.089081 2.713074
12.960659 40.089081 2.905950
13.274483 40.089081 3.049365
13.588306 40.089081 3.141039
13.902128 40.089081 3.123555
14.215952 40.089081 3.058679
14.529776 40.089081 2.967808
14.843597 40.089081 2.848794
15.157421 40.089081 2.695368
15.471243 40.089081 2.527101
15.785067 40.089081 2.330208
16.098890 40.089081 2.097709
16.412712 40.089081 1.879544
16.726536 40.089081 1.660247
17.040359 40.089081 1.487255
17.354181 40.089081 1.369457
17.668005 40.089081 1.322247
17.981829 40.089081 1.378667
18.295650 40.089081 1.505135
18.609474 40.089081 1.701792
18.923298 40.089081 2.000627
19.237120 40.089081 0.000000
-6.810190 39.775257 0.000000
-6.496367 39.775257 0.000000
-6.182544 39.775257 0.030154
-5.868721 39.775257 0.029501
-5.554898 39.775257 0.030095
-5.241075 39.775257 0.030500
-4.927252 39.775257 0.030867
-4.613429 39.775257 0.031593
-4.299606 39.775257 0.032154
-3.985783 39.775257 0.032266
-3.671960 39.775257 0.032040
-3.358137 39.775257 0.031607
-3.044314 39.775257 0.031023
-2.730491 39.775257 0.030292
-2.416668 39.775257 0.029764
-2.102845 39.775257 0.029473
-1.789022 39.775257 0.029177
-1.475199 39.775257 0.028994
-1.161376 39.775257 0.028857
-0.847553 39.775257 0.028921
-0.533730 39.775257 0.029335
-0.219907 39.775257 0.030027
0.093916 39.775257 0.030795
0.407739 39.775257 0.031329
0.721562 39.775257 0.031544
1.035385 39.775257 0.031597
1.349208 39.775257 0.031660
1.663032 39.775257 0.031608
1.976854 39.775257 0.031223
2.290677 39.775257 0.030800
2.604500 39.775257 0.030752
2.918324 39.775257 0.030907
3.232146 39.775257 0.031194
3.545969 39.775257 0.031857
3.859793 39.775257 0.032777
4.173615 39.775257 0.033866
4.487438 39.775257 0.035096
4.801261 39.775257 0.036912
5.115085 39.775257 0.039152
5.428907 39.775257 0.041218
5.742730 39.775257 0.043164
6.056554 39.775257 0.045419
6.370377 39.775257 0.048251
6.684199 39.775257 0.051843
6.998022 39.775257 0.055743
7.311846 39.775257 0.060783
7.625669 39.775257 0.068000
7.939491 39.775257 0.077023
8.253315 39.775257 0.089062
8.567138 39.775257 0.108118
8.880960 39.775257 0.138953
9.194784 39.775257 0.189809
9.508606 39.775257 0.288249
9.822430 39.775257 0.421694
10.136253 39.775257 0.617837
10.450075 39.775257 0.848445
10.763899 39.775257 1.118964
11.077723 39.775257 1.420096
11.391544 39.775257 1.706681
11.705368 39.775257 1.990575
12.019190 39.775257 2.282674
12.333014 39.775257 2.526088
12.646837 39.775257 2.717242
12.960659 39.775257 2.904830
13.274483 39.775257 3.052851
13.588306 39.775257 3.135794
13.902128 39.775257 3.137514
14.215952 39.775257 3.083876
14.529776 39.775257 2.977126
14.843597 39.775257 2.852524
15.157421 39.775257 2.702114
15.471243 39.775257 2.541086
15.785067 39.775257 2.342619
16.098890 39.775257 2.123682
16.412712 39.775257 1.894691
16.726536 39.775257 1.672121
17.040359 39.775257 1.493791
17.354181 39.775257 1.370340
17.668005 39.775257 1.323999
17.981829 39.775257 1.377042
18.295650 39.775257 1.502116
18.609474 39.775257 1.702413
18.923298 39.775257 2.001746
19.237120 39.775257 0.000000
-6.810190 39.461433 0.000000
-6.496367 39.461433 0.000000
-6.182544 39.461433 0.030033
-5.868721 39.461433 0.029209
-5.554898 39.461433 0.029570
-5.241075 39.461433 0.029974
-4.927252 39.461433 0.030476
-4.613429 39.461433 0.031261
-4.299606 39.461433 0.031821
-3.985783 39.461433 0.031975
-3.671960 39.461433 0.031793
-3.358137 39.461433 0.031473
-3.044314 39.461433 0.031150
-2.730491 39.461433 0.030554
-2.416668 39.461433 0.030019
-2.102845 39.461433 0.029619
-1.789022 39.461433 0.029233
-1.475199 39.461433 0.028943
-1.161376 39.461433 0.028849
-0.847553 39.461433 0.028830
-0.533730 39.461433 0.029111
-0.219907 39.461433 0.029739
0.093916 39.461433 0.030464
0.407739 39.461433 0.030938
0.721562 39.461433 0.031346
1.035385 39.461433 0.031604
1.349208 39.461433 0.031675
1.663032 39.461433 0.031598
1.976854 39.461433 0.031257
2.290677 39.461433 0.030868
2.604500 39.461433 0.030813
2.918324 39.461433 0.030931
3.232146 39.461433 0.031283
3.545969 39.461433 0.031818
3.859793 39.461433 0.032573
4.173615 39.461433 0.033589
4.487438 39.461433 0.034807
4.801261 39.461433 0.036609
5.115085 39.461433 0.038876
5.428907 39.461433 0.041055
5.742730 39.461433 0.043047
6.056554 39.461433 0.045255
6.370377 39.461433 0.048220
6.684199 39.461433 0.051792
6.998022 39.461433 0.055627
7.311846 39.461433 0.060363
7.625669 39.461433 0.067782
7.939491 39.461433 0.077789
8.253315 39.461433 0.089864
8.567138 39.461433 0.108737
8.880960 39.461433 0.139954
9.194784 39.461433 0.191816
9.508606 39.461433 0.287780
9.822430 39.461433 0.424744
10.136253 39.461433 0.609968
10.450075 39.461433 0.843002
10.763899 39.461433 1.113101
11.077723 39.461433 1.416039
11.391544 39.461433 1.714422
11.705368 39.461433 2.021600
12.019190 39.461433 2.274820
12.333014 39.461433 2.521792
12.646837 39.461433 2.714073
12.960659 39.461433 2.909609
13.274483 39.461433 3.058065
13.588306 39.461433 3.132046
13.902128 39.461433 3.136809
14.215952 39.461433 3.076399
14.529776 39.461433 2.997567
14.843597 39.461433 2.856724
15.157421 39.461433 2.702005
15.471243 39.461433 2.550718
15.785067 39.461433 2.357772
16.098890 39.461433 2.134542
16.412712 39.461433 1.898454
16.726536 39.461433 1.663064
17.040359 39.461433 1.477909
17.354181 39.461433 1.361056
17.668005 39.461433 1.325545
17.981829 39.461433 1.386067
18.295650 39.461433 1.497651
18.609474 39.461433 1.698693
18.923298 39.461433 1.995064
19.237120 39.461433 0.000000
-6.810190 39.147614 0.000000
-6.496367 39.147614 0.000000
-6.182544 39.147614 0.029965
-5.868721 39.147614 0.028960
-5.554898 39.147614 0.029114
-5.241075 39.147614 0.029453
-4.927252 39.147614 0.029996
-4.613429 39.147614 0.030785
-4.299606 39.147614 0.031342
-3.985783 39.147614 0.031455
-3.671960 39.147614 0.031241
-3.358137 39.147614 0.031064
-3.044314 39.147614 0.031021
-2.730491 39.147614 0.030671
-2.416668 39.147614 0.030203
-2.102845 39.147614 0.029683
-1.789022 39.147614 0.029191
-1.475199 39.147614 0.028880
-1.161376 39.147614 0.028927
-0.847553 39.147614 0.028828
-0.533730 39.147614 0.028929
-0.219907 39.147614 0.029479
0.093916 39.147614 0.030137
0.407739 39.147614 0.030545
0.721562 39.147614 0.031094
1.035385 39.147614 0.031531
1.349208 39.147614 0.031659
1.663032 39.147614 0.031585
1.976854 39.147614 0.031311
2.290677 39.147614 0.030992
2.604500 39.147614 0.030883
2.918324 39.147614 0.031063
3.232146 39.147614 0.031369
3.545969 39.147614 0.031783
3.859793 39.147614 0.032365
4.173615 39.147614 0.033403
4.487438 39.147614 0.034595
4.801261 39.147614 0.036320
5.115085 39.147614 0.038515
5.428907 39.147614 0.040717
5.742730 39.147614 0.042752
6.056554 39.147614 0.045030
6.370377 39.147614 0.048100
6.684199 39.147614 0.051574
6.998022 39.147614 0.055434
7.311846 39.147614 0.060551
7.625669 39.147614 0.067698
7.939491 39.147614 0.077891
8.253315 39.147614 0.090069
8.567138 39.147614 0.109203
8.880960 39.147614 0.138784
9.194784 39.147614 0.192395
9.508606 39.147614 0.286250
9.822430 39.147614 0.424736
10.136253 39.147614 0.600506
10.450075 39.147614 0.842884
10.763899 39.147614 1.113842
11.077723 39.147614 1.415386
11.391544 39.147614 1.718310
11.705368 39.147614 2.009277
12.019190 39.147614 2.282800
12.333014 39.147614 2.502490
12.646837 39.147614 2.714627
12.960659 39.147614 2.907598
13.274483 39.147614 3.057997
13.588306 39.147614 3.135971
13.902128 39.147614 3.141038
14.215952 39.147614 3.093379
14.529776 39.147614 2.999386
14.843597 39.147614 2.871608
15.157421 39.147614 2.713684
15.471243 39.147614 2.552328
15.785067 39.147614 2.350045
16.098890 39.147614 2.136425
16.412712 39.147614 1.903348
16.726536 39.147614 1.653429
17.040359 39.147614 1.473112
17.354181 39.147614 1.350769
17.668005 39.147614 1.316007
17.981829 39.147614 1.385798
18.295650 39.147614 1.504225
18.609474 39.147614 1.707762
18.923298 39.147614 1.999115
19.237120 39.147614 0.000000
-6.810190 38.833786 0.000000
-6.496367 38.833786 0.000000
-6.182544 38.833786 0.029956
-5.868721 38.833786 0.028820
-5.554898 38.833786 0.028851
-5.241075 38.833786 0.029083
-4.927252 38.833786 0.029592
-4.613429 38.833786 0.030360
-4.299606 38.833786 0.030852
-3.985783 38.833786 0.030874
-3.671960 38.833786 0.030655
-3.358137 38.833786 0.030691
-3.044314 38.833786 0.030843
-2.730491 38.833786 0.030702
-2.416668 38.833786 0.030269
-2.102845 38.833786 0.029680
-1.789022 38.833786 0.029144
-1.475199 38.833786 0.028863
-1.161376 38.833786 0.029003
-0.847553 38.833786 0.028921
-0.533730 38.833786 0.028870
-0.219907 38.833786 0.029285
0.093916 38.833786 0.029823
0.407739 38.833786 0.030232
0.721562 38.833786 0.030838
1.035385 38.833786 0.031371
1.349208 38.833786 0.031570
1.663032 38.833786 0.031499
1.976854 38.833786 0.031327
2.290677 38.833786 0.031163
2.604500 38.833786 0.031071
2.918324 38.833786 0.031178
3.232146 38.833786 0.031436
3.545969 38.833786 0.031772
3.859793 38.833786 0.032397
4.173615 38.833786 0.033358
4.487438 38.833786 0.034476
4.801261 38.833786 0.036061
5.115085 38.833786 0.038127
5.428907 38.833786 0.040320
5.742730 38.833786 0.042457
6.056554 38.833786 0.044670
6.370377 38.833786 0.047751
6.684199 38.833786 0.051435
6.998022 38.833786 0.055120
7.311846 38.833786 0.060593
7.625669 38.833786 0.067882
7.939491 38.833786 0.077897
8.253315 38.833786 0.090764
8.567138 38.833786 0.108904
8.880960 38.833786 0.138833
9.194784 38.833786 0.192259
9.508606 38.833786 0.286867
9.822430 38.833786 0.427248
10.136253 38.833786 0.599850
10.450075 38.833786 0.843240
10.763899 38.833786 1.113915
11.077723 38.833786 1.412530
11.391544 38.833786 1.710750
11.705368 38.833786 2.000741
12.019190 38.833786 2.296267
12.333014 38.833786 2.521027
12.646837 38.833786 2.734797
12.960659 38.833786 2.907487
13.274483 38.833786 3.060309
13.588306 38.833786 3.152838
13.902128 38.833786 3.143830
14.215952 38.833786 3.086072
14.529776 38.833786 3.005796
14.843597 38.833786 2.881284
15.157421 38.833786 2.719104
15.471243 38.833786 2.547679
15.785067 38.833786 2.349956
16.098890 38.833786 2.136001
16.412712 38.833786 1.912764
16.726536 38.833786 1.656299
17.040359 38.833786 1.469827
17.354181 38.833786 1.349186
17.668005 38.833786 1.322977
17.981829 38.833786 1.385037
18.295650 38.833786 1.505174
18.609474 38.833786 1.741567
18.923298 38.833786 1.981572
19.237120 38.833786 0.000000
-6.810190 38.519966 0.000000
-6.496367 38.519966 0.000000
-6.182544 38.519966 0.029996
-5.868721 38.519966 0.028745
-5.554898 38.519966 0.028698
-5.241075 38.519966 0.028883
-4.927252 38.519966 0.029342
-4.613429 38.519966 0.030001
-4.299606 38.519966 0.030392
-3.985783 38.519966 0.030397
-3.671960 38.519966 0.030312
-3.358137 38.519966 0.030446
-3.044314 38.519966 0.030591
-2.730491 38.519966 0.030579
-2.416668 38.519966 0.030234
-2.102845 38.519966 0.029639
-1.789022 38.519966 0.029112
-1.475199 38.519966 0.028895
-1.161376 38.519966 0.029057
-0.847553 38.519966 0.028999
-0.533730 38.519966 0.028820
-0.219907 38.519966 0.029069
0.093916 38.519966 0.029566
0.407739 38.519966 0.030011
0.721562 38.519966 0.030560
1.035385 38.519966 0.031087
1.349208 38.519966 0.031305
1.663032 38.519966 0.031285
1.976854 38.519966 0.031244
2.290677 38.519966 0.031241
2.604500 38.519966 0.031269
2.918324 38.519966 0.031359
3.232146 38.519966 0.031582
3.545969 38.519966 0.031882
3.859793 38.519966 0.032498
4.173615 38.519966 0.033392
4.487438 38.519966 0.034390
4.801261 38.519966 0.035819
5.115085 38.519966 0.037762
5.428907 38.519966 0.039946
5.742730 38.519966 0.042096
6.056554 38.519966 0.044401
6.370377 38.519966 0.047330
6.684199 38.519966 0.050823
6.998022 38.519966 0.054714
7.311846 38.519966 0.060551
7.625669 38.519966 0.068227
7.939491 38.519966 0.077780
8.253315 38.519966 0.090305
8.567138 38.519966 0.107945
8.880960 38.519966 0.137552
9.194784 38.519966 0.189045
9.508606 38.519966 0.284659
9.822430 38.519966 0.425460
10.136253 38.519966 0.614277
10.450075 38.519966 0.853989
10.763899 38.519966 1.110404
11.077723 38.519966 1.404092
11.391544 38.519966 1.704401
11.705368 38.519966 2.022281
12.019190 38.519966 2.308352
12.333014 38.519966 2.562054
12.646837 38.519966 2.751785
12.960659 38.519966 2.917419
13.274483 38.519966 3.065553
13.588306 38.519966 3.141530
13.902128 38.519966 3.146157
14.215952 38.519966 3.091726
14.529776 38.519966 3.021592
14.843597 38.519966 2.900267
15.157421 38.519966 2.735414
15.471243 38.519966 2.555995
15.785067 38.519966 2.369445
16.098890 38.519966 2.148464
16.412712 38.519966 1.907732
16.726536 38.519966 1.663766
17.040359 38.519966 1.465981
17.354181 38.519966 1.351240
17.668005 38.519966 1.321898
17.981829 38.519966 1.386364
18.295650 38.519966 1.522884
18.609474 38.519966 1.727072
18.923298 38.519966 1.998698
19.237120 38.519966 0.000000
-6.810190 38.206142 0.000000
-6.496367 38.206142 0.000000
-6.182544 38.206142 0.030087
-5.868721 38.206142 0.028717
-5.554898 38.206142 0.028605
-5.241075 38.206142 0.028764
-4.927252 38.206142 0.029167
-4.613429 38.206142 0.029706
-4.299606 38.206142 0.030075
-3.985783 38.206142 0.030139
-3.671960 38.206142 0.030214
-3.358137 38.206142 0.030334
-3.044314 38.206142 0.030392
-2.730491 38.206142 0.030395
-2.416668 38.206142 0.030085
-2.102845 38.206142 0.029551
-1.789022 38.206142 0.029078
-1.475199 38.206142 0.028909
-1.161376 38.206142 0.029050
-0.847553 38.206142 0.029001
-0.533730 38.206142 0.028793
-0.219907 38.206142 0.028908
0.093916 38.206142 0.029397
0.407739 38.206142 0.029874
0.721562 38.206142 0.030332
1.035385 38.206142 0.030732
1.349208 38.206142 0.030916
1.663032 38.206142 0.030967
1.976854 38.206142 0.030992
2.290677 38.206142 0.031125
2.604500 38.206142 0.031345
2.918324 38.206142 0.031541
3.232146 38.206142 0.031727
3.545969 38.206142 0.032012
3.859793 38.206142 0.032631
4.173615 38.206142 0.033454
4.487438 38.206142 0.034345
4.801261 38.206142 0.035652
5.115085 38.206142 0.037507
5.428907 38.206142 0.039615
5.742730 38.206142 0.041817
6.056554 38.206142 0.044072
6.370377 38.206142 0.046832
6.684199 38.206142 0.050301
6.998022 38.206142 0.054523
7.311846 38.206142 0.060220
7.625669 38.206142 0.068007
7.939491 38.206142 0.077817
8.253315 38.206142 0.089764
8.567138 38.206142 0.107337
8.880960 38.206142 0.137673
9.194784 38.206142 0.188401
9.508606 38.206142 0.280800
9.822430 38.206142 0.433796
10.136253 38.206142 0.616729
10.450075 38.206142 0.839255
10.763899 38.206142 1.109133
11.077723 38.206142 1.395417
11.391544 38.206142 1.714074
11.705368 38.206142 2.024058
12.019190 38.206142 2.306350
12.333014 38.206142 2.553914
12.646837 38.206142 2.763695
12.960659 38.206142 2.922591
13.274483 38.206142 3.055965
13.588306 38.206142 3.123377
13.902128 38.206142 3.137802
14.215952 38.206142 3.090688
14.529776 38.206142 3.015412
14.843597 38.206142 2.909390
15.157421 38.206142 2.740427
15.471243 38.206142 2.554807
15.785067 38.206142 2.362992
16.098890 38.206142 2.154516
16.412712 38.206142 1.912418
16.726536 38.206142 1.658680
17.040359 38.206142 1.470667
17.354181 38.206142 1.354619
17.668005 38.206142 1.324936
17.981829 38.206142 1.391806
18.295650 38.206142 1.525670
18.609474 38.206142 1.749000
18.923298 38.206142 2.014926
19.237120 38.206142 0.000000
-6.810190 37.892319 0.000000
-6.496367 37.892319 0.000000
-6.182544 37.892319 0.030162
-5.868721 37.892319 0.028762
-5.554898 37.892319 0.028575
-5.241075 37.892319 0.028701
-4.927252 37.892319 0.029001
-4.613429 37.892319 0.029488
-4.299606 37.892319 0.029907
-3.985783 37.892319 0.030079
-3.671960 37.892319 0.030271
-3.358137 37.892319 0.030314
-3.044314 37.892319 0.030286
-2.730491 37.892319 0.030270
-2.416668 37.892319 0.029993
-2.102845 37.892319 0.029502
-1.789022 37.892319 0.029113
-1.475199 37.892319 0.028944
-1.161376 37.892319 0.028981
-0.847553 37.892319 0.028924
-0.533730 37.892319 0.028742
-0.219907 37.892319 0.028797
0.093916 37.892319 0.029283
0.407739 37.892319 0.029764
0.721562 37.892319 0.030118
1.035385 37.892319 0.030372
1.349208 37.892319 0.030499
1.663032 37.892319 0.030591
1.976854 37.892319 0.030644
2.290677 37.892319 0.030897
2.604500 37.892319 0.031287
2.918324 37.892319 0.031608
3.232146 37.892319 0.031834
3.545969 37.892319 0.032138
3.859793 37.892319 0.032716
4.173615 37.892319 0.033482
4.487438 37.892319 0.034336
4.801261 37.892319 0.035576
5.115085 37.892319 0.037301
5.428907 37.892319 0.039334
5.742730 37.892319 0.041507
6.056554 37.892319 0.043688
6.370377 37.892319 0.046491
6.684199 37.892319 0.049844
6.998022 37.892319 0.054251
7.311846 37.892319 0.060334
7.625669 37.892319 0.068483
7.939491 37.892319 0.077727
8.253315 37.892319 0.089845
8.567138 37.892319 0.108024
8.880960 37.892319 0.138743
9.194784 37.892319 0.188186
9.508606 37.892319 0.280275
9.822430 37.892319 0.425497
10.136253 37.892319 0.614999
10.450075 37.892319 0.835292
10.763899 37.892319 1.100331
11.077723 37.892319 1.413478
11.391544 37.892319 1.708311
11.705368 37.892319 2.006826
12.019190 37.892319 2.277323
12.333014 37.892319 2.542862
12.646837 37.892319 2.759196
12.960659 37.892319 2.936426
13.274483 37.892319 3.066061
13.588306 37.892319 3.135242
13.902128 37.892319 3.138267
14.215952 37.892319 3.082729
14.529776 37.892319 3.003457
14.843597 37.892319 2.894256
15.157421 37.892319 2.744218
15.471243 37.892319 2.578554
15.785067 37.892319 2.367521
16.098890 37.892319 2.161393
16.412712 37.892319 1.923989
16.726536 37.892319 1.665335
17.040359 37.892319 1.476588
17.354181 37.892319 1.355074
17.668005 37.892319 1.331900
17.981829 37.892319 1.402748
18.295650 37.892319 1.532534
18.609474 37.892319 1.742513
18.923298 37.892319 2.014162
19.237120 37.892319 0.000000
-6.810190 37.578495 0.000000
-6.496367 37.578495 0.000000
-6.182544 37.578495 0.030225
-5.868721 37.578495 0.028821
-5.554898 37.578495 0.028564
-5.241075 37.578495 0.028600
-4.927252 37.578495 0.028822
-4.613429 37.578495 0.029314
-4.299606 37.578495 0.029814
-3.985783 37.578495 0.030103
-3.671960 37.578495 0.030352
-3.358137 37.578495 0.030317
-3.044314 37.578495 0.030215
-2.730491 37.578495 0.030131
-2.416668 37.578495 0.029870
-2.102845 37.578495 0.029452
-1.789022 37.578495 0.029154
-1.475199 37.578495 0.028979
-1.161376 37.578495 0.028931
-0.847553 37.578495 0.028884
-0.533730 37.578495 0.028793
-0.219907 37.578495 0.028820
0.093916 37.578495 0.029217
0.407739 37.578495 0.029650
0.721562 37.578495 0.029907
1.035385 37.578495 0.030028
1.349208 37.578495 0.030078
1.663032 37.578495 0.030241
1.976854 37.578495 0.030409
2.290677 37.578495 0.030716
2.604500 37.578495 0.031168
2.918324 37.578495 0.031542
3.232146 37.578495 0.031826
3.545969 37.578495 0.032219
3.859793 37.578495 0.032803
4.173615 37.578495 0.033545
4.487438 37.578495 0.034399
4.801261 37.578495 0.035580
5.115085 37.578495 0.037167
5.428907 37.578495 0.039061
5.742730 37.578495 0.041143
6.056554 37.578495 0.043290
6.370377 37.578495 0.045901
6.684199 37.578495 0.049557
6.998022 37.578495 0.054057
7.311846 37.578495 0.060023
7.625669 37.578495 0.068147
7.939491 37.578495 0.078299
8.253315 37.578495 0.090619
8.567138 37.578495 0.108193
8.880960 37.578495 0.137345
9.194784 37.578495 0.189578
9.508606 37.578495 0.283743
9.822430 37.578495 0.421242
10.136253 37.578495 0.610970
10.450075 37.578495 0.827289
10.763899 37.578495 1.092095
11.077723 37.578495 1.401808
11.391544 37.578495 1.703020
11.705368 37.578495 1.994431
12.019190 37.578495 2.272994
12.333014 37.578495 2.541537
12.646837 37.578495 2.764785
12.960659 37.578495 2.943664
13.274483 37.578495 3.073955
13.588306 37.578495 3.144208
13.902128 37.578495 3.147755
14.215952 37.578495 3.093079
14.529776 37.578495 3.000262
14.843597 37.578495 2.908566
15.157421 37.578495 2.752338
15.471243 37.578495 2.573111
15.785067 37.578495 2.370435
16.098890 37.578495 2.155367
16.412712 37.578495 1.916211
16.726536 37.578495 1.681701
17.040359 37.578495 1.486775
17.354181 37.578495 1.374278
17.668005 37.578495 1.343808
17.981829 37.578495 1.401787
18.295650 37.578495 1.533572
18.609474 37.578495 1.757931
18.923298 37.578495 2.033196
19.237120 37.578495 0.000000
-6.810190 37.264671 0.000000
-6.496367 37.264671 0.000000
-6.182544 37.264671 0.030326
-5.868721 37.264671 0.028944
-5.554898 37.264671 0.028561
-5.241075 37.264671 0.028517
-4.927252 37.264671 0.028736
-4.613429 37.264671 0.029219
-4.299606 37.264671 0.029767
-3.985783 37.264671 0.030116
-3.671960 37.264671 0.030402
-3.358137 37.264671 0.030343
-3.044314 37.264671 0.030108
-2.730491 37.264671 0.029931
-2.416668 37.264671 0.029656
-2.102845 37.264671 0.029380
-1.789022 37.264671 0.029167
-1.475199 37.264671 0.028948
-1.161376 37.264671 0.028872
-0.847553 37.264671 0.028860
-0.533730 37.264671 0.028913
-0.219907 37.264671 0.028957
0.093916 37.264671 0.029239
0.407739 37.264671 0.029601
0.721562 37.264671 0.029750
1.035385 37.264671 0.029767
1.349208 37.264671 0.029770
1.663032 37.264671 0.029950
1.976854 37.264671 0.030164
2.290677 37.264671 0.030566
2.604500 37.264671 0.031033
2.918324 37.264671 0.031369
3.232146 37.264671 0.031765
3.545969 37.264671 0.032285
3.859793 37.264671 0.032885
4.173615 37.264671 0.033691
4.487438 37.264671 0.034531
4.801261 37.264671 0.035648
5.115085 37.264671 0.037087
5.428907 37.264671 0.038792
5.742730 37.264671 0.040754
6.056554 37.264671 0.042771
6.370377 37.264671 0.045311
6.684199 37.264671 0.048994
6.998022 37.264671 0.054133
7.311846 37.264671 0.060260
7.625669 37.264671 0.068536
7.939491 37.264671 0.078714
8.253315 37.264671 0.091045
8.567138 37.264671 0.108919
8.880960 37.264671 0.139233
9.194784 37.264671 0.192339
9.508606 37.264671 0.286629
9.822430 37.264671 0.426852
10.136253 37.264671 0.607283
10.450075 37.264671 0.837864
10.763899 37.264671 1.082077
11.077723 37.264671 1.392303
11.391544 37.264671 1.712619
11.705368 37.264671 1.994780
12.019190 37.264671 2.280447
12.333014 37.264671 2.555505
12.646837 37.264671 2.775636
12.960659 37.264671 2.950230
13.274483 37.264671 3.102548
13.588306 37.264671 3.152989
13.902128 37.264671 3.144733
14.215952 37.264671 3.090850
14.529776 37.264671 3.003972
14.843597 37.264671 2.900655
15.157421 37.264671 2.757080
15.471243 37.264671 2.570498
15.785067 37.264671 2.383494
16.098890 37.264671 2.155351
16.412712 37.264671 1.909567
16.726536 37.264671 1.687521
17.040359 37.264671 1.497947
17.354181 37.264671 1.389894
17.668005 37.264671 1.351346
17.981829 37.264671 1.417042
18.295650 37.264671 1.540649
18.609474 37.264671 1.775471
18.923298 37.264671 2.044797
19.237120 37.264671 0.000000
-6.810190 36.950851 0.000000
-6.496367 36.950851 0.000000
-6.182544 36.950851 0.030453
-5.868721 36.950851 0.029083
-5.554898 36.950851 0.028685
-5.241075 36.950851 0.028609
-4.927252 36.950851 0.028745
-4.613429 36.950851 0.029208
-4.299606 36.950851 0.029745
-3.985783 36.950851 0.030072
-3.671960 36.950851 0.030376
-3.358137 36.950851 0.030369
-3.044314 36.950851 0.030005
-2.730491 36.950851 0.029643
-2.416668 36.950851 0.029351
-2.102845 36.950851 0.029276
-1.789022 36.950851 0.029187
-1.475199 36.950851 0.028957
-1.161376 36.950851 0.028852
-0.847553 36.950851 0.028854
-0.533730 36.950851 0.028996
-0.219907 36.950851 0.029068
0.093916 36.950851 0.029257
0.407739 36.950851 0.029565
0.721562 36.950851 0.029665
1.035385 36.950851 0.029581
1.349208 36.950851 0.029532
1.663032 36.950851 0.029691
1.976854 36.950851 0.029956
2.290677 36.950851 0.030400
2.604500 36.950851 0.030812
2.918324 36.950851 0.031093
3.232146 36.950851 0.031656
3.545969 36.950851 0.032281
3.859793 36.950851 0.033022
4.173615 36.950851 0.033860
4.487438 36.950851 0.034725
4.801261 36.950851 0.035780
5.115085 36.950851 0.037071
5.428907 36.950851 0.038574
5.742730 36.950851 0.040361
6.056554 36.950851 0.042330
6.370377 36.950851 0.045050
6.684199 36.950851 0.048881
6.998022 36.950851 0.054060
7.311846 36.950851 0.060502
7.625669 36.950851 0.068424
7.939491 36.950851 0.078004
8.253315 36.950851 0.090107
8.567138 36.950851 0.108435
8.880960 36.950851 0.138900
9.194784 36.950851 0.189330
9.508606 36.950851 0.286631
9.822430 36.950851 0.427514
10.136253 36.950851 0.619065
10.450075 36.950851 0.845664
10.763899 36.950851 1.085751
11.077723 36.950851 1.384012
11.391544 36.950851 1.715505
11.705368 36.950851 2.008142
12.019190 36.950851 2.289048
12.333014 36.950851 2.544306
12.646837 36.950851 2.775527
12.960659 36.950851 2.961097
13.274483 36.950851 3.103987
13.588306 36.950851 3.183766
13.902128 36.950851 3.155123
14.215952 36.950851 3.101896
14.529776 36.950851 3.023648
14.843597 36.950851 2.905791
15.157421 36.950851 2.775898
15.471243 36.950851 2.604947
15.785067 36.950851 2.395383
16.098890 36.950851 2.173248
16.412712 36.950851 1.917664
16.726536 36.950851 1.692545
17.040359 36.950851 1.508463
17.354181 36.950851 1.390717
17.668005 36.950851 1.355182
17.981829 36.950851 1.429057
18.295650 36.950851 1.560994
18.609474 36.950851 1.789905
18.923298 36.950851 2.060277
19.237120 36.950851 0.000000
-6.810190 36.637028 0.000000
-6.496367 36.637028 0.000000
-6.182544 36.637028 0.030597
-5.868721 36.637028 0.029193
-5.554898 36.637028 0.028968
-5.241075 36.637028 0.028912
-4.927252 36.637028 0.028880
-4.613429 36.637028 0.029216
-4.299606 36.637028 0.029726
-3.985783 36.637028 0.029967
-3.671960 36.637028 0.030223
-3.358137 36.637028 0.030253
-3.044314 36.637028 0.029842
-2.730491 36.637028 0.029376
-2.416668 36.637028 0.029155
-2.102845 36.637028 0.029299
-1.789022 36.637028 0.029298
-1.475199 36.637028 0.029038
-1.161376 36.637028 0.028864
-0.847553 36.637028 0.028899
-0.533730 36.637028 0.029040
-0.219907 36.637028 0.029064
0.093916 36.637028 0.029240
0.407739 36.637028 0.029567
0.721562 36.637028 0.029628
1.035385 36.637028 0.029437
1.349208 36.637028 0.029317
1.663032 36.637028 0.029442
1.976854 36.637028 0.029703
2.290677 36.637028 0.030125
2.604500 36.637028 0.030512
2.918324 36.637028 0.030896
3.232146 36.637028 0.031536
3.545969 36.637028 0.032269
3.859793 36.637028 0.033137
4.173615 36.637028 0.034084
4.487438 36.637028 0.034961
4.801261 36.637028 0.035948
5.115085 36.637028 0.037081
5.428907 36.637028 0.038376
5.742730 36.637028 0.039995
6.056554 36.637028 0.042068
6.370377 36.637028 0.044785
6.684199 36.637028 0.048875
6.998022 36.637028 0.054083
7.311846 36.637028 0.060156
7.625669 36.637028 0.067853
7.939491 36.637028 0.077596
8.253315 36.637028 0.089758
8.567138 36.637028 0.107751
8.880960 36.637028 0.137588
9.194784 36.637028 0.187961
9.508606 36.637028 0.280341
9.822430 36.637028 0.426327
10.136253 36.637028 0.615256
10.450075 36.637028 0.849974
10.763899 36.637028 1.096296
11.077723 36.637028 1.386836
11.391544 36.637028 1.714763
11.705368 36.637028 2.020336
12.019190 36.637028 2.284277
12.333014 36.637028 2.540271
12.646837 36.637028 2.759771
12.960659 36.637028 2.968611
13.274483 36.637028 3.119255
13.588306 36.637028 3.188133
13.902128 36.637028 3.182106
14.215952 36.637028 3.113422
14.529776 36.637028 3.031447
14.843597 36.637028 2.924860
15.157421 36.637028 2.789077
15.471243 36.637028 2.610759
15.785067 36.637028 2.400879
16.098890 36.637028 2.178446
16.412712 36.637028 1.914778
16.726536 36.637028 1.701715
17.040359 36.637028 1.513093
17.354181 36.637028 1.394468
17.668005 36.637028 1.365030
17.981829 36.637028 1.425917
18.295650 36.637028 1.566658
18.609474 36.637028 1.786496
18.923298 36.637028 2.063280
19.237120 36.637028 0.000000
-6.810190 36.323204 0.000000
-6.496367 36.323204 0.000000
-6.182544 36.323204 0.030664
-5.868721 36.323204 0.029382
-5.554898 36.323204 0.029291
-5.241075 36.323204 0.029197
-4.927252 36.323204 0.029032
-4.613429 36.323204 0.029160
-4.299606 36.323204 0.029514
-3.985783 36.323204 0.029810
-3.671960 36.323204 0.030002
-3.358137 36.323204 0.030035
-3.044314 36.323204 0.029671
-2.730491 36.323204 0.029171
-2.416668 36.323204 0.029034
-2.102845 36.323204 0.029290
-1.789022 36.323204 0.029353
-1.475199 36.323204 0.029164
-1.161376 36.323204 0.028967
-0.847553 36.323204 0.028957
-0.533730 36.323204 0.029005
-0.219907 36.323204 0.028989
0.093916 36.323204 0.029193
0.407739 36.323204 0.029556
0.721562 36.323204 0.029600
1.035385 36.323204 0.029341
1.349208 36.323204 0.029151
1.663032 36.323204 0.029210
1.976854 36.323204 0.029402
2.290677 36.323204 0.029747
2.604500 36.323204 0.030168
2.918324 36.323204 0.030729
3.232146 36.323204 0.031475
3.545969 36.323204 0.032259
3.859793 36.323204 0.033222
4.173615 36.323204 0.034213
4.487438 36.323204 0.035086
4.801261 36.323204 0.036099
5.115085 36.323204 0.037123
5.428907 36.323204 0.038237
5.742730 36.323204 0.039706
6.056554 36.323204 0.041688
6.370377 36.323204 0.044654
6.684199 36.323204 0.048663
6.998022 36.323204 0.053945
7.311846 36.323204 0.059779
7.625669 36.323204 0.066984
7.939491 36.323204 0.076673
8.253315 36.323204 0.088624
8.567138 36.323204 0.108014
8.880960 36.323204 0.137663
9.194784 36.323204 0.187599
9.508606 36.323204 0.280572
9.822430 36.323204 0.423707
10.136253 36.323204 0.620555
10.450075 36.323204 0.852200
10.763899 36.323204 1.102062
11.077723 36.323204 1.397353
11.391544 36.323204 1.720733
11.705368 36.323204 2.008664
12.019190 36.323204 2.259341
12.333014 36.323204 2.528164
12.646837 36.323204 2.764524
12.960659 36.323204 2.974831
13.274483 36.323204 3.121992
13.588306 36.323204 3.198816
13.902128 36.323204 3.197933
14.215952 36.323204 3.138608
14.529776 36.323204 3.047968
14.843597 36.323204 2.934651
15.157421 36.323204 2.788008
15.471243 36.323204 2.604897
15.785067 36.323204 2.412263
16.098890 36.323204 2.177110
16.412712 36.323204 1.925652
16.726536 36.323204 1.690415
17.040359 36.323204 1.516141
17.354181 36.323204 1.389989
17.668005 36.323204 1.362264
17.981829 36.323204 1.426115
18.295650 36.323204 1.562062
18.609474 36.323204 1.782591
18.923298 36.323204 2.048113
19.237120 36.323204 0.000000
-6.810190 36.009380 0.000000
-6.496367 36.009380 0.000000
-6.182544 36.009380 0.030655
-5.868721 36.009380 0.029480
-5.554898 36.009380 0.029445
-5.241075 36.009380 0.029344
-4.927252 36.009380 0.029162
-4.613429 36.009380 0.029170
-4.299606 36.009380 0.029384
-3.985783 36.009380 0.029717
-3.671960 36.009380 0.029825
-3.358137 36.009380 0.029759
-3.044314 36.009380 0.029413
-2.730491 36.009380 0.028996
-2.416668 36.009380 0.028905
-2.102845 36.009380 0.029115
-1.789022 36.009380 0.029205
-1.475199 36.009380 0.029171
-1.161376 36.009380 0.029082
-0.847553 36.009380 0.029009
-0.533730 36.009380 0.028967
-0.219907 36.009380 0.028918
0.093916 36.009380 0.029150
0.407739 36.009380 0.029560
0.721562 36.009380 0.029627
1.035385 36.009380 0.029269
1.349208 36.009380 0.028996
1.663032 36.009380 0.029033
1.976854 36.009380 0.029160
2.290677 36.009380 0.029362
2.604500 36.009380 0.029870
2.918324 36.009380 0.030640
3.232146 36.009380 0.031508
3.545969 36.009380 0.032344
3.859793 36.009380 0.033275
4.173615 36.009380 0.034245
4.487438 36.009380 0.035088
4.801261 36.009380 0.036136
5.115085 36.009380 0.037116
5.428907 36.009380 0.038062
5.742730 36.009380 0.039370
6.056554 36.009380 0.041403
6.370377 36.009380 0.044390
6.684199 36.009380 0.048286
6.998022 36.009380 0.053301
7.311846 36.009380 0.059302
7.625669 36.009380 0.067031
7.939491 36.009380 0.076783
8.253315 36.009380 0.089757
8.567138 36.009380 0.107323
8.880960 36.009380 0.139004
9.194784 36.009380 0.187231
9.508606 36.009380 0.279911
9.822430 36.009380 0.424715
10.136253 36.009380 0.613390
10.450075 36.009380 0.839725
10.763899 36.009380 1.088718
11.077723 36.009380 1.402288
11.391544 36.009380 1.707656
11.705368 36.009380 2.012380
12.019190 36.009380 2.268574
12.333014 36.009380 2.543879
12.646837 36.009380 2.767520
12.960659 36.009380 2.973726
13.274483 36.009380 3.127955
13.588306 36.009380 3.213011
13.902128 36.009380 3.205407
14.215952 36.009380 3.152749
14.529776 36.009380 3.065810
14.843597 36.009380 2.940044
15.157421 36.009380 2.781413
15.471243 36.009380 2.614422
15.785067 36.009380 2.403282
16.098890 36.009380 2.176881
16.412712 36.009380 1.941377
16.726536 36.009380 1.696999
17.040359 36.009380 1.504202
17.354181 36.009380 1.386358
17.668005 36.009380 1.354036
17.981829 36.009380 1.414392
18.295650 36.009380 1.562162
18.609474 36.009380 1.788081
18.923298 36.009380 2.055774
19.237120 36.009380 0.000000
-6.810190 35.695557 0.000000
-6.496367 35.695557 0.000000
-6.182544 35.695557 0.030684
-5.868721 35.695557 0.029565
-5.554898 35.695557 0.029519
-5.241075 35.695557 0.029414
-4.927252 35.695557 0.029266
-4.613429 35.695557 0.029239
-4.299606 35.695557 0.029385
-3.985783 35.695557 0.029596
-3.671960 35.695557 0.029606
-3.358137 35.695557 0.029437
-3.044314 35.695557 0.029169
-2.730491 35.695557 0.028859
-2.416668 35.695557 0.028762
-2.102845 35.695557 0.028834
-1.789022 35.695557 0.028918
-1.475199 35.695557 0.029055
-1.161376 35.695557 0.029138
-0.847553 35.695557 0.029048
-0.533730 35.695557 0.028930
-0.219907 35.695557 0.028897
0.093916 35.695557 0.029126
0.407739 35.695557 0.029615
0.721562 35.695557 0.029640
1.035385 35.695557 0.029241
1.349208 35.695557 0.028824
1.663032 35.695557 0.028813
1.976854 35.695557 0.028908
2.290677 35.695557 0.029061
2.604500 35.695557 0.029649
2.918324 35.695557 0.030578
3.232146 35.695557 0.031557
3.545969 35.695557 0.032392
3.859793 35.695557 0.033217
4.173615 35.695557 0.034172
4.487438 35.695557 0.035063
4.801261 35.695557 0.036080
5.115085 35.695557 0.037015
5.428907 35.695557 0.037877
5.742730 35.695557 0.039046
6.056554 35.695557 0.041074
6.370377 35.695557 0.044108
6.684199 35.695557 0.048136
6.998022 35.695557 0.052905
7.311846 35.695557 0.058981
7.625669 35.695557 0.066727
7.939491 35.695557 0.077458
8.253315 35.695557 0.089622
8.567138 35.695557 0.109410
8.880960 35.695557 0.138764
9.194784 35.695557 0.190859
9.508606 35.695557 0.283734
9.822430 35.695557 0.420194
10.136253 35.695557 0.617369
10.450075 35.695557 0.840623
10.763899 35.695557 1.096283
11.077723 35.695557 1.400569
11.391544 35.695557 1.705931
11.705368 35.695557 2.002476
12.019190 35.695557 2.292968
12.333014 35.695557 2.569063
12.646837 35.695557 2.779734
12.960659 35.695557 2.996485
13.274483 35.695557 3.145812
13.588306 35.695557 3.222977
13.902128 35.695557 3.208871
14.215952 35.695557 3.149100
14.529776 35.695557 3.045038
14.843597 35.695557 2.927952
15.157421 35.695557 2.773287
15.471243 35.695557 2.619895
15.785067 35.695557 2.413509
16.098890 35.695557 2.185050
16.412712 35.695557 1.941188
16.726536 35.695557 1.698368
17.040359 35.695557 1.510581
17.354181 35.695557 1.385001
17.668005 35.695557 1.351699
17.981829 35.695557 1.413561
18.295650 35.695557 1.561540
18.609474 35.695557 1.799436
18.923298 35.695557 2.081219
19.237120 35.695557 0.000000
-6.810190 35.381737 0.000000
-6.496367 35.381737 0.000000
-6.182544 35.381737 0.030802
-5.868721 35.381737 0.029660
-5.554898 35.381737 0.029541
-5.241075 35.381737 0.029433
-4.927252 35.381737 0.029362
-4.613429 35.381737 0.029457
-4.299606 35.381737 0.029511
-3.985783 35.381737 0.029521
-3.671960 35.381737 0.029398
-3.358137 35.381737 0.029100
-3.044314 35.381737 0.028884
-2.730491 35.381737 0.028722
-2.416668 35.381737 0.028556
-2.102845 35.381737 0.028512
-1.789022 35.381737 0.028608
-1.475199 35.381737 0.028906
-1.161376 35.381737 0.029136
-0.847553 35.381737 0.029014
-0.533730 35.381737 0.028917
-0.219907 35.381737 0.029002
0.093916 35.381737 0.029230
0.407739 35.381737 0.029682
0.721562 35.381737 0.029677
1.035385 35.381737 0.029250
1.349208 35.381737 0.028732
1.663032 35.381737 0.028621
1.976854 35.381737 0.028699
2.290677 35.381737 0.028892
2.604500 35.381737 0.029522
2.918324 35.381737 0.030523
3.232146 35.381737 0.031553
3.545969 35.381737 0.032387
3.859793 35.381737 0.033194
4.173615 35.381737 0.034092
4.487438 35.381737 0.035029
4.801261 35.381737 0.036017
5.115085 35.381737 0.036893
5.428907 35.381737 0.037724
5.742730 35.381737 0.038730
6.056554 35.381737 0.040628
6.370377 35.381737 0.043562
6.684199 35.381737 0.047457
6.998022 35.381737 0.051988
7.311846 35.381737 0.058613
7.625669 35.381737 0.066846
7.939491 35.381737 0.077488
8.253315 35.381737 0.090536
8.567138 35.381737 0.108913
8.880960 35.381737 0.138958
9.194784 35.381737 0.191588
9.508606 35.381737 0.283364
9.822430 35.381737 0.427933
10.136253 35.381737 0.621676
10.450075 35.381737 0.844378
10.763899 35.381737 1.108307
11.077723 35.381737 1.380398
11.391544 35.381737 1.705689
11.705368 35.381737 1.995380
12.019190 35.381737 2.286966
12.333014 35.381737 2.585239
12.646837 35.381737 2.798020
12.960659 35.381737 3.001688
13.274483 35.381737 3.150803
13.588306 35.381737 3.232883
13.902128 35.381737 3.216115
14.215952 35.381737 3.145268
14.529776 35.381737 3.061261
14.843597 35.381737 2.923443
15.157421 35.381737 2.780472
15.471243 35.381737 2.618011
15.785067 35.381737 2.426867
16.098890 35.381737 2.197577
16.412712 35.381737 1.943195
16.726536 35.381737 1.701444
17.040359 35.381737 1.506579
17.354181 35.381737 1.391267
17.668005 35.381737 1.353438
17.981829 35.381737 1.413820
18.295650 35.381737 1.561933
18.609474 35.381737 1.809474
18.923298 35.381737 2.071414
19.237120 35.381737 0.000000
-6.810190 35.067913 0.000000
-6.496367 35.067913 0.000000
-6.182544 35.067913 0.030793
-5.868721 35.067913 0.029757
-5.554898 35.067913 0.029551
-5.241075 35.067913 0.029369
-4.927252 35.067913 0.029420
-4.613429 35.067913 0.029719
-4.299606 35.067913 0.029668
-3.985783 35.067913 0.029439
-3.671960 35.067913 0.029134
-3.358137 35.067913 0.028750
-3.044314 35.067913 0.028611
-2.730491 35.067913 0.028574
-2.416668 35.067913 0.028337
-2.102845 35.067913 0.028232
-1.789022 35.067913 0.028375
-1.475199 35.067913 0.028745
-1.161376 35.067913 0.029036
-0.847553 35.067913 0.028963
-0.533730 35.067913 0.028950
-0.219907 35.067913 0.029152
0.093916 35.067913 0.029422
0.407739 35.067913 0.029760
0.721562 35.067913 0.029669
1.035385 35.067913 0.029190
1.349208 35.067913 0.028627
1.663032 35.067913 0.028426
1.976854 35.067913 0.028472
2.290677 35.067913 0.028720
2.604500 35.067913 0.029430
2.918324 35.067913 0.030486
3.232146 35.067913 0.031539
3.545969 35.067913 0.032367
3.859793 35.067913 0.033134
4.173615 35.067913 0.034004
4.487438 35.067913 0.034999
4.801261 35.067913 0.035913
5.115085 35.067913 0.036740
5.428907 35.067913 0.037503
5.742730 35.067913 0.038527
6.056554 35.067913 0.040384
6.370377 35.067913 0.043246
6.684199 35.067913 0.047040
6.998022 35.067913 0.051717
7.311846 35.067913 0.058584
7.625669 35.067913 0.066845
7.939491 35.067913 0.077419
8.253315 35.067913 0.090374
8.567138 35.067913 0.109000
8.880960 35.067913 0.136942
9.194784 35.067913 0.190233
9.508606 35.067913 0.283479
9.822430 35.067913 0.429676
10.136253 35.067913 0.613987
10.450075 35.067913 0.855427
10.763899 35.067913 1.108062
11.077723 35.067913 1.389282
11.391544 35.067913 1.690348
11.705368 35.067913 1.992836
12.019190 35.067913 2.295435
12.333014 35.067913 2.560437
12.646837 35.067913 2.807464
12.960659 35.067913 2.999751
13.274483 35.067913 3.148983
13.588306 35.067913 3.209598
13.902128 35.067913 3.207291
14.215952 35.067913 3.154974
14.529776 35.067913 3.070018
14.843597 35.067913 2.939101
15.157421 35.067913 2.801212
15.471243 35.067913 2.628722
15.785067 35.067913 2.431890
16.098890 35.067913 2.208666
16.412712 35.067913 1.939796
16.726536 35.067913 1.708116
17.040359 35.067913 1.508644
17.354181 35.067913 1.386780
17.668005 35.067913 1.352874
17.981829 35.067913 1.414444
18.295650 35.067913 1.570026
18.609474 35.067913 1.833084
18.923298 35.067913 2.093262
19.237120 35.067913 0.000000
-6.810190 34.754089 0.000000
-6.496367 34.754089 0.007166
-6.182544 34.754089 0.030663
-5.868721 34.754089 0.029742
-5.554898 34.754089 0.029535
-5.241075 34.754089 0.029274
-4.927252 34.754089 0.029498
-4.613429 34.754089 0.029852
-4.299606 34.754089 0.029738
-3.985783 34.754089 0.029256
-3.671960 34.754089 0.028812
-3.358137 34.754089 0.028416
-3.044314 34.754089 0.028349
-2.730491 34.754089 0.028377
-2.416668 34.754089 0.028101
-2.102845 34.754089 0.028008
-1.789022 34.754089 0.028182
-1.475199 34.754089 0.028635
-1.161376 34.754089 0.028947
-0.847553 34.754089 0.028959
-0.533730 34.754089 0.028967
-0.219907 34.754089 0.029263
0.093916 34.754089 0.029595
0.407739 34.754089 0.029756
0.721562 34.754089 0.029514
1.035385 34.754089 0.029008
1.349208 34.754089 0.028459
1.663032 34.754089 0.028169
1.976854 34.754089 0.028227
2.290677 34.754089 0.028620
2.604500 34.754089 0.029397
2.918324 34.754089 0.030440
3.232146 34.754089 0.031532
3.545969 34.754089 0.032414
3.859793 34.754089 0.033227
4.173615 34.754089 0.034064
4.487438 34.754089 0.034966
4.801261 34.754089 0.035780
5.115085 34.754089 0.036532
5.428907 34.754089 0.037326
5.742730 34.754089 0.038389
6.056554 34.754089 0.040231
6.370377 34.754089 0.042992
6.684199 34.754089 0.046654
6.998022 34.754089 0.051605
7.311846 34.754089 0.058470
7.625669 34.754089 0.066801
7.939491 34.754089 0.077634
8.253315 34.754089 0.090631
8.567138 34.754089 0.108162
8.880960 34.754089 0.136259
9.194784 34.754089 0.184360
9.508606 34.754089 0.280329
9.822430 34.754089 0.425760
10.136253 34.754089 0.622045
10.450075 34.754089 0.849773
10.763899 34.754089 1.115810
11.077723 34.754089 1.402706
11.391544 34.754089 1.691349
11.705368 34.754089 1.995315
12.019190 34.754089 2.286402
12.333014 34.754089 2.554085
12.646837 34.754089 2.794004
12.960659 34.754089 3.001023
13.274483 34.754089 3.141279
13.588306 34.754089 3.209658
13.902128 34.754089 3.210222
14.215952 34.754089 3.178182
14.529776 34.754089 3.091410
14.843597 34.754089 2.953357
15.157421 34.754089 2.811513
15.471243 34.754089 2.639671
15.785067 34.754089 2.444258
16.098890 34.754089 2.220550
16.412712 34.754089 1.957428
16.726536 34.754089 1.705358
17.040359 34.754089 1.519936
17.354181 34.754089 1.393806
17.668005 34.754089 1.361227
17.981829 34.754089 1.419593
18.295650 34.754089 1.587063
18.609474 34.754089 1.829051
18.923298 34.754089 2.102545
19.237120 34.754089 0.000000
-6.810190 34.440266 0.000000
-6.496367 34.440266 0.036561
-6.182544 34.440266 0.030465
-5.868721 34.440266 0.029671
-5.554898 34.440266 0.029484
-5.241075 34.440266 0.029259
-4.927252 34.440266 0.029500
-4.613429 34.440266 0.029876
-4.299606 34.440266 0.029720
-3.985783 34.440266 0.029136
-3.671960 34.440266 0.028570
-3.358137 34.440266 0.028229
-3.044314 34.440266 0.028151
-2.730491 34.440266 0.028153
-2.416668 34.440266 0.027868
-2.102845 34.440266 0.027826
-1.789022 34.440266 0.028174
-1.475199 34.440266 0.028622
-1.161376 34.440266 0.028990
-0.847553 34.440266 0.029006
-0.533730 34.440266 0.028987
-0.219907 34.440266 0.029294
0.093916 34.440266 0.029603
0.407739 34.440266 0.029566
0.721562 34.440266 0.029217
1.035385 34.440266 0.028734
1.349208 34.440266 0.028259
1.663032 34.440266 0.027947
1.976854 34.440266 0.028050
2.290677 34.440266 0.028596
2.604500 34.440266 0.029467
2.918324 34.440266 0.030520
3.232146 34.440266 0.031612
3.545969 34.440266 0.032563
3.859793 34.440266 0.033387
4.173615 34.440266 0.034115
4.487438 34.440266 0.034866
4.801261 34.440266 0.035531
5.115085 34.440266 0.036201
5.428907 34.440266 0.037062
5.742730 34.440266 0.038190
6.056554 34.440266 0.040098
6.370377 34.440266 0.042772
6.684199 34.440266 0.046659
6.998022 34.440266 0.051956
7.311846 34.440266 0.058217
7.625669 34.440266 0.066768
7.939491 34.440266 0.077192
8.253315 34.440266 0.090134
8.567138 34.440266 0.106981
8.880960 34.440266 0.136101
9.194784 34.440266 0.183208
9.508606 34.440266 0.278200
9.822430 34.440266 0.429404
10.136253 34.440266 0.627406
10.450075 34.440266 0.854125
10.763899 34.440266 1.111924
11.077723 34.440266 1.413041
11.391544 34.440266 1.698441
11.705368 34.440266 1.991015
12.019190 34.440266 2.284364
12.333014 34.440266 2.558738
12.646837 34.440266 2.802633
12.960659 34.440266 3.003706
13.274483 34.440266 3.137218
13.588306 34.440266 3.203842
13.902128 34.440266 3.210206
14.215952 34.440266 3.174298
14.529776 34.440266 3.101310
14.843597 34.440266 2.984739
15.157421 34.440266 2.838629
15.471243 34.440266 2.653454
15.785067 34.440266 2.442815
16.098890 34.440266 2.233501
16.412712 34.440266 1.961478
16.726536 34.440266 1.713894
17.040359 34.440266 1.531264
17.354181 34.440266 1.404653
17.668005 34.440266 1.368667
17.981829 34.440266 1.444107
18.295650 34.440266 1.598969
18.609474 34.440266 1.845068
18.923298 34.440266 2.108176
19.237120 34.440266 0.000000
-6.810190 34.126442 0.000000
-6.496367 34.126442 0.035972
-6.182544 34.126442 0.030397
-5.868721 34.126442 0.029604
-5.554898 34.126442 0.029435
-5.241075 34.126442 0.029248
-4.927252 34.126442 0.029418
-4.613429 34.126442 0.029749
-4.299606 34.126442 0.029600
-3.985783 34.126442 0.028974
-3.671960 34.126442 0.028411
-3.358137 34.126442 0.028130
-3.044314 34.126442 0.027994
-2.730491 34.126442 0.027921
-2.416668 34.126442 0.027633
-2.102845 34.126442 0.027650
-1.789022 34.126442 0.028150
-1.475199 34.126442 0.028691
-1.161376 34.126442 0.029047
-0.847553 34.126442 0.029108
-0.533730 34.126442 0.029094
-0.219907 34.126442 0.029286
0.093916 34.126442 0.029443
0.407739 34.126442 0.029243
0.721562 34.126442 0.028852
1.035385 34.126442 0.028403
1.349208 34.126442 0.028028
1.663032 34.126442 0.027781
1.976854 34.126442 0.027977
2.290677 34.126442 0.028635
2.604500 34.126442 0.029632
2.918324 34.126442 0.030727
3.232146 34.126442 0.031864
3.545969 34.126442 0.032870
3.859793 34.126442 0.033620
4.173615 34.126442 0.034158
4.487438 34.126442 0.034674
4.801261 34.126442 0.035157
5.115085 34.126442 0.035741
5.428907 34.126442 0.036635
5.742730 34.126442 0.037955
6.056554 34.126442 0.039905
6.370377 34.126442 0.042781
6.684199 34.126442 0.046698
6.998022 34.126442 0.051797
7.311846 34.126442 0.058686
7.625669 34.126442 0.067510
7.939491 34.126442 0.077731
8.253315 34.126442 0.090653
8.567138 34.126442 0.106256
8.880960 34.126442 0.135998
9.194784 34.126442 0.185398
9.508606 34.126442 0.279503
9.822430 34.126442 0.425300
10.136253 34.126442 0.623282
10.450075 34.126442 0.845334
10.763899 34.126442 1.098796
11.077723 34.126442 1.404067
11.391544 34.126442 1.703882
11.705368 34.126442 2.003257
12.019190 34.126442 2.280830
12.333014 34.126442 2.556957
12.646837 34.126442 2.829127
12.960659 34.126442 3.032133
13.274483 34.126442 3.144200
13.588306 34.126442 3.208861
13.902128 34.126442 3.205397
14.215952 34.126442 3.172277
14.529776 34.126442 3.106946
14.843597 34.126442 3.009419
15.157421 34.126442 2.859731
15.471243 34.126442 2.668908
15.785067 34.126442 2.460990
16.098890 34.126442 2.226287
16.412712 34.126442 1.965155
16.726536 34.126442 1.708454
17.040359 34.126442 1.526506
17.354181 34.126442 1.416812
17.668005 34.126442 1.377023
17.981829 34.126442 1.444945
18.295650 34.126442 1.588349
18.609474 34.126442 1.867954
18.923298 34.126442 2.105771
19.237120 34.126442 0.000000
-6.810190 33.812622 0.000000
-6.496367 33.812622 0.034589
-6.182544 33.812622 0.030341
-5.868721 33.812622 0.029523
-5.554898 33.812622 0.029382
-5.241075 33.812622 0.029258
-4.927252 33.812622 0.029343
-4.613429 33.812622 0.029607
-4.299606 33.812622 0.029421
-3.985783 33.812622 0.028887
-3.671960 33.812622 0.028363
-3.358137 33.812622 0.028075
-3.044314 33.812622 0.027861
-2.730491 33.812622 0.027675
-2.416668 33.812622 0.027450
-2.102845 33.812622 0.027563
-1.789022 33.812622 0.028179
-1.475199 33.812622 0.028780
-1.161376 33.812622 0.029141
-0.847553 33.812622 0.029285
-0.533730 33.812622 0.029285
-0.219907 33.812622 0.029267
0.093916 33.812622 0.029200
0.407739 33.812622 0.028901
0.721562 33.812622 0.028520
1.035385 33.812622 0.028103
1.349208 33.812622 0.027814
1.663032 33.812622 0.027677
1.976854 33.812622 0.027945
2.290677 33.812622 0.028698
2.604500 33.812622 0.029760
2.918324 33.812622 0.030900
3.232146 33.812622 0.032131
3.545969 33.812622 0.033173
3.859793 33.812622 0.033743
4.173615 33.812622 0.034037
4.487438 33.812622 0.034359
4.801261 33.812622 0.034693
5.115085 33.812622 0.035208
5.428907 33.812622 0.036127
5.742730 33.812622 0.037671
6.056554 33.812622 0.039841
6.370377 33.812622 0.042851
6.684199 33.812622 0.046926
6.998022 33.812622 0.052638
7.311846 33.812622 0.059517
7.625669 33.812622 0.068072
7.939491 33.812622 0.078074
8.253315 33.812622 0.090321
8.567138 33.812622 0.107024
8.880960 33.812622 0.136771
9.194784 33.812622 0.183957
9.508606 33.812622 0.276408
9.822430 33.812622 0.421050
10.136253 33.812622 0.620494
10.450075 33.812622 0.849777
10.763899 33.812622 1.105125
11.077723 33.812622 1.403352
11.391544 33.812622 1.704448
11.705368 33.812622 1.998654
12.019190 33.812622 2.277155
12.333014 33.812622 2.579576
12.646837 33.812622 2.831490
12.960659 33.812622 3.035838
13.274483 33.812622 3.154148
13.588306 33.812622 3.202974
13.902128 33.812622 3.224177
14.215952 33.812622 3.171441
14.529776 33.812622 3.103079
14.843597 33.812622 3.020001
15.157421 33.812622 2.880578
15.471243 33.812622 2.688704
15.785067 33.812622 2.453069
16.098890 33.812622 2.201894
16.412712 33.812622 1.944380
16.726536 33.812622 1.703999
17.040359 33.812622 1.515387
17.354181 33.812622 1.416609
17.668005 33.812622 1.385872
17.981829 33.812622 1.442068
18.295650 33.812622 1.603382
18.609474 33.812622 1.866671
18.923298 33.812622 2.114701
19.237120 33.812622 0.000000
-6.810190 33.498795 0.000000
-6.496367 33.498795 0.030985
-6.182544 33.498795 0.030328
-5.868721 33.498795 0.029511
-5.554898 33.498795 0.029433
-5.241075 33.498795 0.029329
-4.927252 33.498795 0.029308
-4.613429 33.498795 0.029457
-4.299606 33.498795 0.029250
-3.985783 33.498795 0.028720
-3.671960 33.498795 0.028258
-3.358137 33.498795 0.027942
-3.044314 33.498795 0.027680
-2.730491 33.498795 0.027447
-2.416668 33.498795 0.027351
-2.102845 33.498795 0.027606
-1.789022 33.498795 0.028274
-1.475199 33.498795 0.028873
-1.161376 33.498795 0.029279
-0.847553 33.498795 0.029545
-0.533730 33.498795 0.029514
-0.219907 33.498795 0.029275
0.093916 33.498795 0.028973
0.407739 33.498795 0.028586
0.721562 33.498795 0.028179
1.035385 33.498795 0.027802
1.349208 33.498795 0.027573
1.663032 33.498795 0.027564
1.976854 33.498795 0.027939
2.290677 33.498795 0.028725
2.604500 33.498795 0.029867
2.918324 33.498795 0.031044
3.232146 33.498795 0.032319
3.545969 33.498795 0.033337
3.859793 33.498795 0.033735
4.173615 33.498795 0.033829
4.487438 33.498795 0.033999
4.801261 33.498795 0.034246
5.115085 33.498795 0.034716
5.428907 33.498795 0.035670
5.742730 33.498795 0.037316
6.056554 33.498795 0.039685
6.370377 33.498795 0.043024
6.684199 33.498795 0.047469
6.998022 33.498795 0.053272
7.311846 33.498795 0.060448
7.625669 33.498795 0.069270
7.939491 33.498795 0.078719
8.253315 33.498795 0.090949
8.567138 33.498795 0.107903
8.880960 33.498795 0.136890
9.194784 33.498795 0.183378
9.508606 33.498795 0.278213
9.822430 33.498795 0.429288
10.136253 33.498795 0.626805
10.450075 33.498795 0.850076
10.763899 33.498795 1.109123
11.077723 33.498795 1.407131
11.391544 33.498795 1.711431
11.705368 33.498795 2.010790
12.019190 33.498795 2.291523
12.333014 33.498795 2.577304
12.646837 33.498795 2.839830
12.960659 33.498795 3.034311
13.274483 33.498795 3.160580
13.588306 33.498795 3.223011
13.902128 33.498795 3.213623
14.215952 33.498795 3.171592
14.529776 33.498795 3.118176
14.843597 33.498795 3.033203
15.157421 33.498795 2.895205
15.471243 33.498795 2.688673
15.785067 33.498795 2.451140
16.098890 33.498795 2.189881
16.412712 33.498795 1.929704
16.726536 33.498795 1.702477
17.040359 33.498795 1.523685
17.354181 33.498795 1.420784
17.668005 33.498795 1.387425
17.981829 33.498795 1.459042
18.295650 33.498795 1.624855
18.609474 33.498795 1.883314
18.923298 33.498795 2.104350
19.237120 33.498795 0.000000
-6.810190 33.184975 0.000000
-6.496367 33.184975 0.031043
-6.182544 33.184975 0.030377
-5.868721 33.184975 0.029615
-5.554898 33.184975 0.029517
-5.241075 33.184975 0.029401
-4.927252 33.184975 0.029304
-4.613429 33.184975 0.029278
-4.299606 33.184975 0.029009
-3.985783 33.184975 0.028509
-3.671960 33.184975 0.028046
-3.358137 33.184975 0.027705
-3.044314 33.184975 0.027404
-2.730491 33.184975 0.027245
-2.416668 33.184975 0.027352
-2.102845 33.184975 0.027744
-1.789022 33.184975 0.028408
-1.475199 33.184975 0.028955
-1.161376 33.184975 0.029377
-0.847553 33.184975 0.029720
-0.533730 33.184975 0.029678
-0.219907 33.184975 0.029241
0.093916 33.184975 0.028742
0.407739 33.184975 0.028253
0.721562 33.184975 0.027795
1.035385 33.184975 0.027513
1.349208 33.184975 0.027351
1.663032 33.184975 0.027462
1.976854 33.184975 0.027962
2.290677 33.184975 0.028830
2.604500 33.184975 0.029971
2.918324 33.184975 0.031192
3.232146 33.184975 0.032455
3.545969 33.184975 0.033356
3.859793 33.184975 0.033609
4.173615 33.184975 0.033530
4.487438 33.184975 0.033589
4.801261 33.184975 0.033797
5.115085 33.184975 0.034273
5.428907 33.184975 0.035228
5.742730 33.184975 0.036990
6.056554 33.184975 0.039556
6.370377 33.184975 0.043194
6.684199 33.184975 0.048187
6.998022 33.184975 0.054223
7.311846 33.184975 0.061173
7.625669 33.184975 0.069255
7.939491 33.184975 0.078835
8.253315 33.184975 0.090589
8.567138 33.184975 0.106762
8.880960 33.184975 0.136778
9.194784 33.184975 0.185103
9.508606 33.184975 0.281142
9.822430 33.184975 0.432727
10.136253 33.184975 0.631123
10.450075 33.184975 0.863476
10.763899 33.184975 1.116521
11.077723 33.184975 1.402821
11.391544 33.184975 1.712785
11.705368 33.184975 2.015687
12.019190 33.184975 2.278369
12.333014 33.184975 2.560607
12.646837 33.184975 2.828222
12.960659 33.184975 3.022890
13.274483 33.184975 3.167603
13.588306 33.184975 3.240398
13.902128 33.184975 3.236570
14.215952 33.184975 3.184380
14.529776 33.184975 3.123466
14.843597 33.184975 3.040096
15.157421 33.184975 2.901932
15.471243 33.184975 2.705792
15.785067 33.184975 2.457490
16.098890 33.184975 2.196743
16.412712 33.184975 1.944767
16.726536 33.184975 1.716914
17.040359 33.184975 1.537919
17.354181 33.184975 1.415602
17.668005 33.184975 1.390059
17.981829 33.184975 1.459167
18.295650 33.184975 1.630791
18.609474 33.184975 1.896439
18.923298 33.184975 2.139536
19.237120 33.184975 0.000000
-6.810190 32.871151 0.000000
-6.496367 32.871151 0.031705
-6.182544 32.871151 0.030430
-5.868721 32.871151 0.029799
-5.554898 32.871151 0.029643
-5.241075 32.871151 0.029469
-4.927252 32.871151 0.029326
-4.613429 32.871151 0.029120
-4.299606 32.871151 0.028764
-3.985783 32.871151 0.028289
-3.671960 32.871151 0.027852
-3.358137 32.871151 0.027478
-3.044314 32.871151 0.027177
-2.730491 32.871151 0.027172
-2.416668 32.871151 0.027466
-2.102845 32.871151 0.027985
-1.789022 32.871151 0.028638
-1.475199 32.871151 0.029077
-1.161376 32.871151 0.029440
-0.847553 32.871151 0.029757
-0.533730 32.871151 0.029641
-0.219907 32.871151 0.029063
0.093916 32.871151 0.028435
0.407739 32.871151 0.027854
0.721562 32.871151 0.027421
1.035385 32.871151 0.027250
1.349208 32.871151 0.027155
1.663032 32.871151 0.027386
1.976854 32.871151 0.028000
2.290677 32.871151 0.028939
2.604500 32.871151 0.030107
2.918324 32.871151 0.031394
3.232146 32.871151 0.032587
3.545969 32.871151 0.033244
3.859793 32.871151 0.033338
4.173615 32.871151 0.033199
4.487438 32.871151 0.033175
4.801261 32.871151 0.033371
5.115085 32.871151 0.033859
5.428907 32.871151 0.034876
5.742730 32.871151 0.036755
6.056554 32.871151 0.039573
6.370377 32.871151 0.043421
6.684199 32.871151 0.048734
6.998022 32.871151 0.054698
7.311846 32.871151 0.061603
7.625669 32.871151 0.069226
7.939491 32.871151 0.077856
8.253315 32.871151 0.089363
8.567138 32.871151 0.103517
8.880960 32.871151 0.133870
9.194784 32.871151 0.185992
9.508606 32.871151 0.284050
9.822430 32.871151 0.437613
10.136253 32.871151 0.629311
10.450075 32.871151 0.871595
10.763899 32.871151 1.126514
11.077723 32.871151 1.411151
11.391544 32.871151 1.703203
11.705368 32.871151 2.004483
12.019190 32.871151 2.276244
12.333014 32.871151 2.557360
12.646837 32.871151 2.813409
12.960659 32.871151 3.016491
13.274483 32.871151 3.173891
13.588306 32.871151 3.254344
13.902128 32.871151 3.255491
14.215952 32.871151 3.208866
14.529776 32.871151 3.119785
14.843597 32.871151 3.053875
15.157421 32.871151 2.914633
15.471243 32.871151 2.722902
15.785067 32.871151 2.476356
16.098890 32.871151 2.200803
16.412712 32.871151 1.952729
16.726536 32.871151 1.733333
17.040359 32.871151 1.551283
17.354181 32.871151 1.423248
17.668005 32.871151 1.382116
17.981829 32.871151 1.461942
18.295650 32.871151 1.625220
18.609474 32.871151 1.898332
18.923298 32.871151 2.122252
19.237120 32.871151 0.000000
-6.810190 32.557327 0.000000
-6.496367 32.557327 0.031998
-6.182544 32.557327 0.030580
-5.868721 32.557327 0.030016
-5.554898 32.557327 0.029774
-5.241075 32.557327 0.029535
-4.927252 32.557327 0.029356
-4.613429 32.557327 0.028995
-4.299606 32.557327 0.028518
-3.985783 32.557327 0.028029
-3.671960 32.557327 0.027638
-3.358137 32.557327 0.027303
-3.044314 32.557327 0.027036
-2.730491 32.557327 0.027200
-2.416668 32.557327 0.027665
-2.102845 32.557327 0.028259
-1.789022 32.557327 0.028890
-1.475199 32.557327 0.029225
-1.161376 32.557327 0.029420
-0.847553 32.557327 0.029641
-0.533730 32.557327 0.029454
-0.219907 32.557327 0.028773
0.093916 32.557327 0.028048
0.407739 32.557327 0.027432
0.721562 32.557327 0.027103
1.035385 32.557327 0.027036
1.349208 32.557327 0.027091
1.663032 32.557327 0.027442
1.976854 32.557327 0.028153
2.290677 32.557327 0.029135
2.604500 32.557327 0.030342
2.918324 32.557327 0.031594
3.232146 32.557327 0.032627
3.545969 32.557327 0.033078
3.859793 32.557327 0.033001
4.173615 32.557327 0.032807
4.487438 32.557327 0.032779
4.801261 32.557327 0.032993
5.115085 32.557327 0.033473
5.428907 32.557327 0.034657
5.742730 32.557327 0.036692
6.056554 32.557327 0.039678
6.370377 32.557327 0.043780
6.684199 32.557327 0.049000
6.998022 32.557327 0.055034
7.311846 32.557327 0.061327
7.625669 32.557327 0.068403
7.939491 32.557327 0.076974
8.253315 32.557327 0.087613
8.567138 32.557327 0.102666
8.880960 32.557327 0.130952
9.194784 32.557327 0.183794
9.508606 32.557327 0.280108
9.822430 32.557327 0.430762
10.136253 32.557327 0.634800
10.450075 32.557327 0.850538
10.763899 32.557327 1.112262
11.077723 32.557327 1.398485
11.391544 32.557327 1.719526
11.705368 32.557327 2.015648
12.019190 32.557327 2.276702
12.333014 32.557327 2.566028
12.646837 32.557327 2.814995
12.960659 32.557327 3.024855
13.274483 32.557327 3.181997
13.588306 32.557327 3.257280
13.902128 32.557327 3.260875
14.215952 32.557327 3.218443
14.529776 32.557327 3.137187
14.843597 32.557327 3.041889
15.157421 32.557327 2.924299
15.471243 32.557327 2.733485
15.785067 32.557327 2.487313
16.098890 32.557327 2.219033
16.412712 32.557327 1.949634
16.726536 32.557327 1.736480
17.040359 32.557327 1.566101
17.354181 32.557327 1.429748
17.668005 32.557327 1.389122
17.981829 32.557327 1.463695
18.295650 32.557327 1.618003
18.609474 32.557327 1.901098
18.923298 32.557327 2.137577
19.237120 32.557327 0.000000
-6.810190 32.243507 0.000000
-6.496367 32.243507 0.032707
-6.182544 32.243507 0.030764
-5.868721 32.243507 0.030137
-5.554898 32.243507 0.029835
-5.241075 32.243507 0.029571
-4.927252 32.243507 0.029290
-4.613429 32.243507 0.028769
-4.299606 32.243507 0.028183
-3.985783 32.243507 0.027650
-3.671960 32.243507 0.027342
-3.358137 32.243507 0.027130
-3.044314 32.243507 0.027052
-2.730491 32.243507 0.027345
-2.416668 32.243507 0.027880
-2.102845 32.243507 0.028493
-1.789022 32.243507 0.029076
-1.475199 32.243507 0.029336
-1.161376 32.243507 0.029341
-0.847553 32.243507 0.029356
-0.533730 32.243507 0.029078
-0.219907 32.243507 0.028339
0.093916 32.243507 0.027624
0.407739 32.243507 0.027059
0.721562 32.243507 0.026869
1.035385 32.243507 0.026876
1.349208 32.243507 0.027074
1.663032 32.243507 0.027605
1.976854 32.243507 0.028413
2.290677 32.243507 0.029457
2.604500 32.243507 0.030618
2.918324 32.243507 0.031736
3.232146 32.243507 0.032509
3.545969 32.243507 0.032829
3.859793 32.243507 0.032538
4.173615 32.243507 0.032256
4.487438 32.243507 0.032391
4.801261 32.243507 0.032646
5.115085 32.243507 0.033280
5.428907 32.243507 0.034637
5.742730 32.243507 0.036899
6.056554 32.243507 0.040070
6.370377 32.243507 0.044117
6.684199 32.243507 0.049102
6.998022 32.243507 0.055021
7.311846 32.243507 0.060794
7.625669 32.243507 0.067611
7.939491 32.243507 0.076450
8.253315 32.243507 0.086122
8.567138 32.243507 0.101702
8.880960 32.243507 0.129992
9.194784 32.243507 0.181019
9.508606 32.243507 0.276981
9.822430 32.243507 0.431382
10.136253 32.243507 0.628163
10.450075 32.243507 0.846404
10.763899 32.243507 1.104005
11.077723 32.243507 1.395283
11.391544 32.243507 1.713960
11.705368 32.243507 2.020271
12.019190 32.243507 2.286291
12.333014 32.243507 2.572150
12.646837 32.243507 2.819345
12.960659 32.243507 3.034257
13.274483 32.243507 3.174075
13.588306 32.243507 3.269354
13.902128 32.243507 3.262551
14.215952 32.243507 3.215491
14.529776 32.243507 3.129306
14.843597 32.243507 3.056814
15.157421 32.243507 2.924502
15.471243 32.243507 2.742274
15.785067 32.243507 2.494033
16.098890 32.243507 2.239509
16.412712 32.243507 1.969485
16.726536 32.243507 1.742668
17.040359 32.243507 1.564257
17.354181 32.243507 1.438448
17.668005 32.243507 1.403749
17.981829 32.243507 1.479256
18.295650 32.243507 1.632763
18.609474 32.243507 1.903244
18.923298 32.243507 2.151645
19.237120 32.243507 0.000000
-6.810190 31.929682 0.000000
-6.496367 31.929682 0.033219
-6.182544 31.929682 0.030923
-5.868721 31.929682 0.030204
-5.554898 31.929682 0.029824
-5.241075 31.929682 0.029504
-4.927252 31.929682 0.029082
-4.613429 31.929682 0.028428
-4.299606 31.929682 0.027783
-3.985783 31.929682 0.027259
-3.671960 31.929682 0.027011
-3.358137 31.929682 0.026970
-3.044314 31.929682 0.027090
-2.730491 31.929682 0.027469
-2.416668 31.929682 0.028050
-2.102845 31.929682 0.028662
-1.789022 31.929682 0.029203
-1.475199 31.929682 0.029446
-1.161376 31.929682 0.029267
-0.847553 31.929682 0.028991
-0.533730 31.929682 0.028556
-0.219907 31.929682 0.027845
0.093916 31.929682 0.027218
0.407739 31.929682 0.026786
0.721562 31.929682 0.026737
1.035385 31.929682 0.026818
1.349208 31.929682 0.027165
1.663032 31.929682 0.027872
1.976854 31.929682 0.028784
2.290677 31.929682 0.029871
2.604500 31.929682 0.030916
2.918324 31.929682 0.031805
3.232146 31.929682 0.032288
3.545969 31.929682 0.032361
3.859793 31.929682 0.032027
4.173615 31.929682 0.031789
4.487438 31.929682 0.032037
4.801261 31.929682 0.032481
5.115085 31.929682 0.033302
5.428907 31.929682 0.034841
5.742730 31.929682 0.037326
6.056554 31.929682 0.040662
6.370377 31.929682 0.044674
6.684199 31.929682 0.049557
6.998022 31.929682 0.054655
7.311846 31.929682 0.060306
7.625669 31.929682 0.066980
7.939491 31.929682 0.075359
8.253315 31.929682 0.086253
8.567138 31.929682 0.102809
8.880960 31.929682 0.132632
9.194784 31.929682 0.183450
9.508606 31.929682 0.276037
9.822430 31.929682 0.426440
10.136253 31.929682 0.624230
10.450075 31.929682 0.848940
10.763899 31.929682 1.095407
11.077723 31.929682 1.380794
11.391544 31.929682 1.707728
11.705368 31.929682 2.003468
12.019190 31.929682 2.278170
12.333014 31.929682 2.578519
12.646837 31.929682 2.837392
12.960659 31.929682 3.030178
13.274483 31.929682 3.184546
13.588306 31.929682 3.257108
13.902128 31.929682 3.257864
14.215952 31.929682 3.223789
14.529776 31.929682 3.136158
14.843597 31.929682 3.039820
15.157421 31.929682 2.923792
15.471243 31.929682 2.735327
15.785067 31.929682 2.494239
16.098890 31.929682 2.235807
16.412712 31.929682 1.981326
16.726536 31.929682 1.753762
17.040359 31.929682 1.570603
17.354181 31.929682 1.445726
17.668005 31.929682 1.412241
17.981829 31.929682 1.492325
18.295650 31.929682 1.658125
18.609474 31.929682 1.927912
18.923298 31.929682 2.157889
19.237120 31.929682 0.000000
-6.810190 31.615858 0.000000
-6.496367 31.615858 0.033283
-6.182544 31.615858 0.031047
-5.868721 31.615858 0.030282
-5.554898 31.615858 0.029812
-5.241075 31.615858 0.029356
-4.927252 31.615858 0.028730
-4.613429 31.615858 0.027952
-4.299606 31.615858 0.027342
-3.985783 31.615858 0.026880
-3.671960 31.615858 0.026687
-3.358137 31.615858 0.026801
-3.044314 31.615858 0.027086
-2.730491 31.615858 0.027551
-2.416668 31.615858 0.028221
-2.102845 31.615858 0.028827
-1.789022 31.615858 0.029325
-1.475199 31.615858 0.029550
-1.161376 31.615858 0.029145
-0.847553 31.615858 0.028636
-0.533730 31.615858 0.028053
-0.219907 31.615858 0.027356
0.093916 31.615858 0.026870
0.407739 31.615858 0.026607
0.721562 31.615858 0.026656
1.035385 31.615858 0.026822
1.349208 31.615858 0.027303
1.663032 31.615858 0.028177
1.976854 31.615858 0.029200
2.290677 31.615858 0.030281
2.604500 31.615858 0.031180
2.918324 31.615858 0.031758
3.232146 31.615858 0.031888
3.545969 31.615858 0.031699
3.859793 31.615858 0.031367
4.173615 31.615858 0.031276
4.487438 31.615858 0.031686
4.801261 31.615858 0.032355
5.115085 31.615858 0.033426
5.428907 31.615858 0.035161
5.742730 31.615858 0.037855
6.056554 31.615858 0.041197
6.370377 31.615858 0.045368
6.684199 31.615858 0.049916
6.998022 31.615858 0.054376
7.311846 31.615858 0.059935
7.625669 31.615858 0.065884
7.939491 31.615858 0.074373
8.253315 31.615858 0.086100
8.567138 31.615858 0.101542
8.880960 31.615858 0.132174
9.194784 31.615858 0.183725
9.508606 31.615858 0.278878
9.822430 31.615858 0.430764
10.136253 31.615858 0.623937
10.450075 31.615858 0.862011
10.763899 31.615858 1.100139
11.077723 31.615858 1.395425
11.391544 31.615858 1.686566
11.705368 31.615858 2.000245
12.019190 31.615858 2.291360
12.333014 31.615858 2.587120
12.646837 31.615858 2.835738
12.960659 31.615858 3.033005
13.274483 31.615858 3.179890
13.588306 31.615858 3.260818
13.902128 31.615858 3.273675
14.215952 31.615858 3.229699
14.529776 31.615858 3.142543
14.843597 31.615858 3.051628
15.157421 31.615858 2.937161
15.471243 31.615858 2.727746
15.785067 31.615858 2.486669
16.098890 31.615858 2.236746
16.412712 31.615858 1.990803
16.726536 31.615858 1.765264
17.040359 31.615858 1.577231
17.354181 31.615858 1.443066
17.668005 31.615858 1.405763
17.981829 31.615858 1.484915
18.295650 31.615858 1.658429
18.609474 31.615858 1.947932
18.923298 31.615858 2.159970
19.237120 31.615858 0.000000
-6.810190 31.302036 0.000000
-6.496367 31.302036 0.033252
-6.182544 31.302036 0.031079
-5.868721 31.302036 0.030231
-5.554898 31.302036 0.029714
-5.241075 31.302036 0.029083
-4.927252 31.302036 0.028336
-4.613429 31.302036 0.027529
-4.299606 31.302036 0.026975
-3.985783 31.302036 0.026626
-3.671960 31.302036 0.026487
-3.358137 31.302036 0.026656
-3.044314 31.302036 0.027076
-2.730491 31.302036 0.027674
-2.416668 31.302036 0.028389
-2.102845 31.302036 0.028976
-1.789022 31.302036 0.029387
-1.475199 31.302036 0.029498
-1.161376 31.302036 0.028904
-0.847553 31.302036 0.028110
-0.533730 31.302036 0.027424
-0.219907 31.302036 0.026863
0.093916 31.302036 0.026595
0.407739 31.302036 0.026525
0.721562 31.302036 0.026582
1.035385 31.302036 0.026855
1.349208 31.302036 0.027448
1.663032 31.302036 0.028479
1.976854 31.302036 0.029631
2.290677 31.302036 0.030654
2.604500 31.302036 0.031315
2.918324 31.302036 0.031530
3.232146 31.302036 0.031292
3.545969 31.302036 0.030909
3.859793 31.302036 0.030722
4.173615 31.302036 0.030835
4.487438 31.302036 0.031356
4.801261 31.302036 0.032220
5.115085 31.302036 0.033580
5.428907 31.302036 0.035574
5.742730 31.302036 0.038349
6.056554 31.302036 0.041778
6.370377 31.302036 0.045764
6.684199 31.302036 0.049603
6.998022 31.302036 0.053799
7.311846 31.302036 0.058940
7.625669 31.302036 0.064689
7.939491 31.302036 0.073499
8.253315 31.302036 0.085337
8.567138 31.302036 0.101408
8.880960 31.302036 0.130810
9.194784 31.302036 0.185996
9.508606 31.302036 0.281516
9.822430 31.302036 0.434137
10.136253 31.302036 0.625506
10.450075 31.302036 0.866294
10.763899 31.302036 1.111359
11.077723 31.302036 1.396246
11.391544 31.302036 1.685362
11.705368 31.302036 1.990263
12.019190 31.302036 2.287400
12.333014 31.302036 2.569979
12.646837 31.302036 2.826181
12.960659 31.302036 3.014998
13.274483 31.302036 3.169990
13.588306 31.302036 3.255331
13.902128 31.302036 3.264981
14.215952 31.302036 3.234503
14.529776 31.302036 3.156857
14.843597 31.302036 3.078570
15.157421 31.302036 2.941262
15.471243 31.302036 2.721976
15.785067 31.302036 2.500630
16.098890 31.302036 2.246941
16.412712 31.302036 2.008216
16.726536 31.302036 1.786063
17.040359 31.302036 1.581304
17.354181 31.302036 1.444394
17.668005 31.302036 1.412865
17.981829 31.302036 1.482880
18.295650 31.302036 1.663929
18.609474 31.302036 1.955663
18.923298 31.302036 2.110636
19.237120 31.302036 0.000000
-6.810190 30.988213 0.000000
-6.496367 30.988213 0.033186
-6.182544 30.988213 0.030958
-5.868721 30.988213 0.030100
-5.554898 30.988213 0.029514
-5.241075 30.988213 0.028708
-4.927252 30.988213 0.027949
-4.613429 30.988213 0.027217
-4.299606 30.988213 0.026755
-3.985783 30.988213 0.026535
-3.671960 30.988213 0.026458
-3.358137 30.988213 0.026688
-3.044314 30.988213 0.027253
-2.730491 30.988213 0.027963
-2.416668 30.988213 0.028637
-2.102845 30.988213 0.029161
-1.789022 30.988213 0.029425
-1.475199 30.988213 0.029299
-1.161376 30.988213 0.028565
-0.847553 30.988213 0.027572
-0.533730 30.988213 0.026856
-0.219907 30.988213 0.026501
0.093916 30.988213 0.026452
0.407739 30.988213 0.026571
0.721562 30.988213 0.026706
1.035385 30.988213 0.027063
1.349208 30.988213 0.027724
1.663032 30.988213 0.028862
1.976854 30.988213 0.030053
2.290677 30.988213 0.030933
2.604500 30.988213 0.031296
2.918324 30.988213 0.031134
3.232146 30.988213 0.030537
3.545969 30.988213 0.030073
3.859793 30.988213 0.030137
4.173615 30.988213 0.030497
4.487438 30.988213 0.031153
4.801261 30.988213 0.032189
5.115085 30.988213 0.033796
5.428907 30.988213 0.036024
5.742730 30.988213 0.038884
6.056554 30.988213 0.042268
6.370377 30.988213 0.045858
6.684199 30.988213 0.049518
6.998022 30.988213 0.053192
7.311846 30.988213 0.057871
7.625669 30.988213 0.063681
7.939491 30.988213 0.071965
8.253315 30.988213 0.083878
8.567138 30.988213 0.100535
8.880960 30.988213 0.131262
9.194784 30.988213 0.184311
9.508606 30.988213 0.280100
9.822430 30.988213 0.430440
10.136253 30.988213 0.620686
10.450075 30.988213 0.856147
10.763899 30.988213 1.118227
11.077723 30.988213 1.408491
11.391544 30.988213 1.703784
11.705368 30.988213 2.015457
12.019190 30.988213 2.304703
12.333014 30.988213 2.574225
12.646837 30.988213 2.825708
12.960659 30.988213 3.009413
13.274483 30.988213 3.170512
13.588306 30.988213 3.254658
13.902128 30.988213 3.272352
14.215952 30.988213 3.247682
14.529776 30.988213 3.185257
14.843597 30.988213 3.099487
15.157421 30.988213 2.937919
15.471243 30.988213 2.740674
15.785067 30.988213 2.494658
16.098890 30.988213 2.260911
16.412712 30.988213 2.012129
16.726536 30.988213 1.777047
17.040359 30.988213 1.583580
17.354181 30.988213 1.453294
17.668005 30.988213 1.418178
17.981829 30.988213 1.495332
18.295650 30.988213 1.670558
18.609474 30.988213 1.949975
18.923298 30.988213 2.075920
19.237120 30.988213 0.000000
-6.810190 30.674389 0.000000
-6.496367 30.674389 0.032962
-6.182544 30.674389 0.030688
-5.868721 30.674389 0.029786
-5.554898 30.674389 0.029126
-5.241075 30.674389 0.028281
-4.927252 30.674389 0.027628
-4.613429 30.674389 0.027091
-4.299606 30.674389 0.026737
-3.985783 30.674389 0.026593
-3.671960 30.674389 0.026610
-3.358137 30.674389 0.026952
-3.044314 30.674389 0.027641
-2.730491 30.674389 0.028346
-2.416668 30.674389 0.028927
-2.102845 30.674389 0.029304
-1.789022 30.674389 0.029351
-1.475199 30.674389 0.028956
-1.161376 30.674389 0.028101
-0.847553 30.674389 0.027038
-0.533730 30.674389 0.026455
-0.219907 30.674389 0.026290
0.093916 30.674389 0.026389
0.407739 30.674389 0.026658
0.721562 30.674389 0.026978
1.035385 30.674389 0.027398
1.349208 30.674389 0.028163
1.663032 30.674389 0.029329
1.976854 30.674389 0.030437
2.290677 30.674389 0.031070
2.604500 30.674389 0.031093
2.918324 30.674389 0.030564
3.232146 30.674389 0.029722
3.545969 30.674389 0.029324
3.859793 30.674389 0.029677
4.173615 30.674389 0.030275
4.487438 30.674389 0.031114
4.801261 30.674389 0.032358
5.115085 30.674389 0.034177
5.428907 30.674389 0.036576
5.742730 30.674389 0.039406
6.056554 30.674389 0.042588
6.370377 30.674389 0.045933
6.684199 30.674389 0.049157
6.998022 30.674389 0.052586
7.311846 30.674389 0.056969
7.625669 30.674389 0.062769
7.939491 30.674389 0.071306
8.253315 30.674389 0.082743
8.567138 30.674389 0.101154
8.880960 30.674389 0.131457
9.194784 30.674389 0.185406
9.508606 30.674389 0.282962
9.822430 30.674389 0.427021
10.136253 30.674389 0.621093
10.450075 30.674389 0.846076
10.763899 30.674389 1.121295
11.077723 30.674389 1.400898
11.391544 30.674389 1.701856
11.705368 30.674389 2.017241
12.019190 30.674389 2.295051
12.333014 30.674389 2.572249
12.646837 30.674389 2.809106
12.960659 30.674389 3.002933
13.274483 30.674389 3.156837
13.588306 30.674389 3.235805
13.902128 30.674389 3.271263
14.215952 30.674389 3.238372
14.529776 30.674389 3.191566
14.843597 30.674389 3.101699
15.157421 30.674389 2.956357
15.471243 30.674389 2.735127
15.785067 30.674389 2.507367
16.098890 30.674389 2.259896
16.412712 30.674389 2.023026
16.726536 30.674389 1.779014
17.040359 30.674389 1.581675
17.354181 30.674389 1.447968
17.668005 30.674389 1.435660
17.981829 30.674389 1.499795
18.295650 30.674389 1.680911
18.609474 30.674389 1.948714
18.923298 30.674389 2.082425
19.237120 30.674389 0.000000
-6.810190 30.360567 0.000000
-6.496367 30.360567 0.032698
-6.182544 30.360567 0.030261
-5.868721 30.360567 0.029206
-5.554898 30.360567 0.028562
-5.241075 30.360567 0.027778
-4.927252 30.360567 0.027314
-4.613429 30.360567 0.026973
-4.299606 30.360567 0.026723
-3.985783 30.360567 0.026671
-3.671960 30.360567 0.026910
-3.358137 30.360567 0.027399
-3.044314 30.360567 0.028129
-2.730491 30.360567 0.028726
-2.416668 30.360567 0.029114
-2.102845 30.360567 0.029318
-1.789022 30.360567 0.029113
-1.475199 30.360567 0.028510
-1.161376 30.360567 0.027559
-0.847553 30.360567 0.026563
-0.533730 30.360567 0.026146
-0.219907 30.360567 0.026171
0.093916 30.360567 0.026403
0.407739 30.360567 0.026794
0.721562 30.360567 0.027284
1.035385 30.360567 0.027854
1.349208 30.360567 0.028741
1.663032 30.360567 0.029835
1.976854 30.360567 0.030659
2.290677 30.360567 0.030958
2.604500 30.360567 0.030659
2.918324 30.360567 0.029897
3.232146 30.360567 0.029066
3.545969 30.360567 0.028823
3.859793 30.360567 0.029377
4.173615 30.360567 0.030239
4.487438 30.360567 0.031266
4.801261 30.360567 0.032724
5.115085 30.360567 0.034677
5.428907 30.360567 0.037088
5.742730 30.360567 0.039883
6.056554 30.360567 0.042767
6.370377 30.360567 0.045755
6.684199 30.360567 0.048558
6.998022 30.360567 0.051781
7.311846 30.360567 0.056325
7.625669 30.360567 0.062039
7.939491 30.360567 0.070828
8.253315 30.360567 0.083108
8.567138 30.360567 0.101778
8.880960 30.360567 0.131515
9.194784 30.360567 0.186758
9.508606 30.360567 0.281908
9.822430 30.360567 0.427103
10.136253 30.360567 0.632115
10.450075 30.360567 0.842422
10.763899 30.360567 1.113631
11.077723 30.360567 1.402503
11.391544 30.360567 1.697864
11.705368 30.360567 2.016588
12.019190 30.360567 2.301544
12.333014 30.360567 2.591605
12.646837 30.360567 2.823620
12.960659 30.360567 3.012396
13.274483 30.360567 3.140000
13.588306 30.360567 3.227366
13.902128 30.360567 3.269807
14.215952 30.360567 3.266094
14.529776 30.360567 3.199220
14.843597 30.360567 3.114459
15.157421 30.360567 2.967010
15.471243 30.360567 2.760756
15.785067 30.360567 2.525405
16.098890 30.360567 2.277733
16.412712 30.360567 2.029145
16.726536 30.360567 1.796637
17.040359 30.360567 1.586616
17.354181 30.360567 1.449669
17.668005 30.360567 1.426197
17.981829 30.360567 1.493471
18.295650 30.360567 1.677478
18.609474 30.360567 1.963567
18.923298 30.360567 2.076919
19.237120 30.360567 0.000000
-6.810190 30.046743 0.000000
-6.496367 30.046743 0.032482
-6.182544 30.046743 0.029726
-5.868721 30.046743 0.028492
-5.554898 30.046743 0.027842
-5.241075 30.046743 0.027260
-4.927252 30.046743 0.027005
-4.613429 30.046743 0.026881
-4.299606 30.046743 0.026718
-3.985783 30.046743 0.026850
-3.671960 30.046743 0.027336
-3.358137 30.046743 0.027988
-3.044314 30.046743 0.028648
-2.730491 30.046743 0.029093
-2.416668 30.046743 0.029170
-2.102845 30.046743 0.029080
-1.789022 30.046743 0.028645
-1.475199 30.046743 0.027899
-1.161376 30.046743 0.026973
-0.847553 30.046743 0.026183
-0.533730 30.046743 0.025962
-0.219907 30.046743 0.026145
0.093916 30.046743 0.026508
0.407739 30.046743 0.027052
0.721562 30.046743 0.027682
1.035385 30.046743 0.028429
1.349208 30.046743 0.029371
1.663032 30.046743 0.030250
1.976854 30.046743 0.030659
2.290677 30.046743 0.030581
2.604500 30.046743 0.030038
2.918324 30.046743 0.029212
3.232146 30.046743 0.028550
3.545969 30.046743 0.028527
3.859793 30.046743 0.029236
4.173615 30.046743 0.030311
4.487438 30.046743 0.031628
4.801261 30.046743 0.033241
5.115085 30.046743 0.035267
5.428907 30.046743 0.037530
5.742730 30.046743 0.040031
6.056554 30.046743 0.042738
6.370377 30.046743 0.045176
6.684199 30.046743 0.047545
6.998022 30.046743 0.051089
7.311846 30.046743 0.055491
7.625669 30.046743 0.061900
7.939491 30.046743 0.070810
8.253315 30.046743 0.084147
8.567138 30.046743 0.103567
8.880960 30.046743 0.132746
9.194784 30.046743 0.186416
9.508606 30.046743 0.279920
9.822430 30.046743 0.436569
10.136253 30.046743 0.637884
10.450075 30.046743 0.854949
10.763899 30.046743 1.117923
11.077723 30.046743 1.403325
11.391544 30.046743 1.701404
11.705368 30.046743 2.011324
12.019190 30.046743 2.309398
12.333014 30.046743 2.579380
12.646837 30.046743 2.822900
12.960659 30.046743 2.999962
13.274483 30.046743 3.130705
13.588306 30.046743 3.227694
13.902128 30.046743 3.266282
14.215952 30.046743 3.272240
14.529776 30.046743 3.208050
14.843597 30.046743 3.141969
15.157421 30.046743 2.980789
15.471243 30.046743 2.772918
15.785067 30.046743 2.534335
16.098890 30.046743 2.282248
16.412712 30.046743 2.035913
16.726536 30.046743 1.798735
17.040359 30.046743 1.593376
17.354181 30.046743 1.458916
17.668005 30.046743 1.435554
17.981829 30.046743 1.511740
18.295650 30.046743 1.662134
18.609474 30.046743 1.959281
18.923298 30.046743 2.031149
19.237120 30.046743 0.000000
-6.810190 29.732922 0.000000
-6.496367 29.732922 0.032140
-6.182544 29.732922 0.029158
-5.868721 29.732922 0.027837
-5.554898 29.732922 0.027184
-5.241075 29.732922 0.026842
-4.927252 29.732922 0.026820
-4.613429 29.732922 0.026850
-4.299606 29.732922 0.026824
-3.985783 29.732922 0.027134
-3.671960 29.732922 0.027809
-3.358137 29.732922 0.028577
-3.044314 29.732922 0.029131
-2.730491 29.732922 0.029320
-2.416668 29.732922 0.029067
-2.102845 29.732922 0.028642
-1.789022 29.732922 0.027979
-1.475199 29.732922 0.027178
-1.161376 29.732922 0.026429
-0.847553 29.732922 0.025956
-0.533730 29.732922 0.025903
-0.219907 29.732922 0.026205
0.093916 29.732922 0.026760
0.407739 29.732922 0.027426
0.721562 29.732922 0.028138
1.035385 29.732922 0.029020
1.349208 29.732922 0.029919
1.663032 29.732922 0.030444
1.976854 29.732922 0.030400
2.290677 29.732922 0.029958
2.604500 29.732922 0.029311
2.918324 29.732922 0.028616
3.232146 29.732922 0.028288
3.545969 29.732922 0.028523
3.859793 29.732922 0.029350
4.173615 29.732922 0.030539
4.487438 29.732922 0.032030
4.801261 29.732922 0.033813
5.115085 29.732922 0.035785
5.428907 29.732922 0.037772
5.742730 29.732922 0.039873
6.056554 29.732922 0.042173
6.370377 29.732922 0.044372
6.684199 29.732922 0.046778
6.998022 29.732922 0.050520
7.311846 29.732922 0.055406
7.625669 29.732922 0.062134
7.939491 29.732922 0.071536
8.253315 29.732922 0.085567
8.567138 29.732922 0.103352
8.880960 29.732922 0.134196
9.194784 29.732922 0.188097
9.508606 29.732922 0.284327
9.822430 29.732922 0.435850
10.136253 29.732922 0.636362
10.450075 29.732922 0.862165
10.763899 29.732922 1.116536
11.077723 29.732922 1.406363
11.391544 29.732922 1.703052
11.705368 29.732922 2.016347
12.019190 29.732922 2.313199
12.333014 29.732922 2.590173
12.646837 29.732922 2.811407
12.960659 29.732922 3.003057
13.274483 29.732922 3.135547
13.588306 29.732922 3.227100
13.902128 29.732922 3.261841
14.215952 29.732922 3.267818
14.529776 29.732922 3.229798
14.843597 29.732922 3.139089
15.157421 29.732922 2.993020
15.471243 29.732922 2.786794
15.785067 29.732922 2.535968
16.098890 29.732922 2.281455
16.412712 29.732922 2.044246
16.726536 29.732922 1.812252
17.040359 29.732922 1.595120
17.354181 29.732922 1.475195
17.668005 29.732922 1.453269
17.981829 29.732922 1.529387
18.295650 29.732922 1.677048
18.609474 29.732922 1.963445
18.923298 29.732922 2.045289
19.237120 29.732922 0.000000
-6.810190 29.419098 0.000000
-6.496367 29.419098 0.031636
-6.182544 29.419098 0.028553
-5.868721 29.419098 0.027189
-5.554898 29.419098 0.026642
-5.241075 29.419098 0.026470
-4.927252 29.419098 0.026703
-4.613429 29.419098 0.026921
-4.299606 29.419098 0.027100
-3.985783 29.419098 0.027579
-3.671960 29.419098 0.028339
-3.358137 29.419098 0.029064
-3.044314 29.419098 0.029395
-2.730491 29.419098 0.029307
-2.416668 29.419098 0.028793
-2.102845 29.419098 0.028076
-1.789022 29.419098 0.027244
-1.475199 29.419098 0.026487
-1.161376 29.419098 0.026008
-0.847553 29.419098 0.025869
-0.533730 29.419098 0.026013
-0.219907 29.419098 0.026444
0.093916 29.419098 0.027176
0.407739 29.419098 0.027858
0.721562 29.419098 0.028580
1.035385 29.419098 0.029464
1.349208 29.419098 0.030168
1.663032 29.419098 0.030243
1.976854 29.419098 0.029830
2.290677 29.419098 0.029188
2.604500 29.419098 0.028583
2.918324 29.419098 0.028211
3.232146 29.419098 0.028233
3.545969 29.419098 0.028773
3.859793 29.419098 0.029728
4.173615 29.419098 0.030947
4.487438 29.419098 0.032471
4.801261 29.419098 0.034300
5.115085 29.419098 0.036082
5.428907 29.419098 0.037731
5.742730 29.419098 0.039434
6.056554 29.419098 0.041338
6.370377 29.419098 0.043439
6.684199 29.419098 0.046178
6.998022 29.419098 0.050117
7.311846 29.419098 0.055574
7.625669 29.419098 0.062377
7.939491 29.419098 0.072061
8.253315 29.419098 0.085703
8.567138 29.419098 0.104871
8.880960 29.419098 0.133334
9.194784 29.419098 0.188831
9.508606 29.419098 0.285881
9.822430 29.419098 0.437301
10.136253 29.419098 0.635360
10.450075 29.419098 0.855852
10.763899 29.419098 1.110012
11.077723 29.419098 1.421596
11.391544 29.419098 1.717025
11.705368 29.419098 2.012064
12.019190 29.419098 2.311790
12.333014 29.419098 2.579901
12.646837 29.419098 2.823987
12.960659 29.419098 2.997589
13.274483 29.419098 3.135489
13.588306 29.419098 3.230340
13.902128 29.419098 3.253192
14.215952 29.419098 3.264910
14.529776 29.419098 3.228621
14.843597 29.419098 3.146204
15.157421 29.419098 3.007355
15.471243 29.419098 2.791312
15.785067 29.419098 2.544833
16.098890 29.419098 2.287606
16.412712 29.419098 2.033394
16.726536 29.419098 1.806007
17.040359 29.419098 1.608923
17.354181 29.419098 1.478109
17.668005 29.419098 1.479549
17.981829 29.419098 1.540079
18.295650 29.419098 1.697549
18.609474 29.419098 1.978810
18.923298 29.419098 2.052860
19.237120 29.419098 0.000000
-6.810190 29.105274 0.000000
-6.496367 29.105274 0.031027
-6.182544 29.105274 0.028067
-5.868721 29.105274 0.026750
-5.554898 29.105274 0.026324
-5.241075 29.105274 0.026325
-4.927252 29.105274 0.026723
-4.613429 29.105274 0.027171
-4.299606 29.105274 0.027591
-3.985783 29.105274 0.028194
-3.671960 29.105274 0.028879
-3.358137 29.105274 0.029325
-3.044314 29.105274 0.029360
-2.730491 29.105274 0.029022
-2.416668 29.105274 0.028307
-2.102845 29.105274 0.027479
-1.789022 29.105274 0.026610
-1.475199 29.105274 0.025915
-1.161376 29.105274 0.025738
-0.847553 29.105274 0.025935
-0.533730 29.105274 0.026293
-0.219907 29.105274 0.026855
0.093916 29.105274 0.027667
0.407739 29.105274 0.028293
0.721562 29.105274 0.028903
1.035385 29.105274 0.029607
1.349208 29.105274 0.029952
1.663032 29.105274 0.029612
1.976854 29.105274 0.029017
2.290677 29.105274 0.028400
2.604500 29.105274 0.027995
2.918324 29.105274 0.027995
3.232146 29.105274 0.028370
3.545969 29.105274 0.029181
3.859793 29.105274 0.030244
4.173615 29.105274 0.031452
4.487438 29.105274 0.032891
4.801261 29.105274 0.034615
5.115085 29.105274 0.036108
5.428907 29.105274 0.037432
5.742730 29.105274 0.038839
6.056554 29.105274 0.040398
6.370377 29.105274 0.042508
6.684199 29.105274 0.045562
6.998022 29.105274 0.049845
7.311846 29.105274 0.055426
7.625669 29.105274 0.063044
7.939491 29.105274 0.072975
8.253315 29.105274 0.086123
8.567138 29.105274 0.101943
8.880960 29.105274 0.132822
9.194784 29.105274 0.187551
9.508606 29.105274 0.282311
9.822430 29.105274 0.439553
10.136253 29.105274 0.637571
10.450075 29.105274 0.879348
10.763899 29.105274 1.116709
11.077723 29.105274 1.420807
11.391544 29.105274 1.726790
11.705368 29.105274 2.022673
12.019190 29.105274 2.303594
12.333014 29.105274 2.577686
12.646837 29.105274 2.827274
12.960659 29.105274 2.993343
13.274483 29.105274 3.119427
13.588306 29.105274 3.229878
13.902128 29.105274 3.256696
14.215952 29.105274 3.265965
14.529776 29.105274 3.244791
14.843597 29.105274 3.155849
15.157421 29.105274 3.016927
15.471243 29.105274 2.792020
15.785067 29.105274 2.553940
16.098890 29.105274 2.300499
16.412712 29.105274 2.037484
16.726536 29.105274 1.795609
17.040359 29.105274 1.602232
17.354181 29.105274 1.485535
17.668005 29.105274 1.466648
17.981829 29.105274 1.545677
18.295650 29.105274 1.696606
18.609474 29.105274 1.982881
18.923298 29.105274 2.045071
19.237120 29.105274 0.000000
-6.810190 28.791452 0.000000
-6.496367 28.791452 0.030395
-6.182544 28.791452 0.027647
-5.868721 28.791452 0.026592
-5.554898 28.791452 0.026330
-5.241075 28.791452 0.026421
-4.927252 28.791452 0.026938
-4.613429 28.791452 0.027585
-4.299606 28.791452 0.028243
-3.985783 28.791452 0.028873
-3.671960 28.791452 0.029312
-3.358137 28.791452 0.029335
-3.044314 28.791452 0.029012
-2.730491 28.791452 0.028461
-2.416668 28.791452 0.027699
-2.102845 28.791452 0.026948
-1.789022 28.791452 0.026172
-1.475199 28.791452 0.025623
-1.161376 28.791452 0.025658
-0.847553 28.791452 0.026133
-0.533730 28.791452 0.026687
-0.219907 28.791452 0.027319
0.093916 28.791452 0.028105
0.407739 28.791452 0.028644
0.721562 28.791452 0.029036
1.035385 28.791452 0.029414
1.349208 28.791452 0.029314
1.663032 28.791452 0.028724
1.976854 28.791452 0.028144
2.290677 28.791452 0.027758
2.604500 28.791452 0.027635
2.918324 28.791452 0.027953
3.232146 28.791452 0.028641
3.545969 28.791452 0.029668
3.859793 28.791452 0.030785
4.173615 28.791452 0.031924
4.487438 28.791452 0.033249
4.801261 28.791452 0.034702
5.115085 28.791452 0.035872
5.428907 28.791452 0.036930
5.742730 28.791452 0.038187
6.056554 28.791452 0.039681
6.370377 28.791452 0.041952
6.684199 28.791452 0.045387
6.998022 28.791452 0.050023
7.311846 28.791452 0.055516
7.625669 28.791452 0.063187
7.939491 28.791452 0.073390
8.253315 28.791452 0.085823
8.567138 28.791452 0.103083
8.880960 28.791452 0.132069
9.194784 28.791452 0.186822
9.508606 28.791452 0.282993
9.822430 28.791452 0.437606
10.136253 28.791452 0.635865
10.450075 28.791452 0.876679
10.763899 28.791452 1.124131
11.077723 28.791452 1.415716
11.391544 28.791452 1.728998
11.705368 28.791452 2.030640
12.019190 28.791452 2.306238
12.333014 28.791452 2.580553
12.646837 28.791452 2.822663
12.960659 28.791452 2.994118
13.274483 28.791452 3.115380
13.588306 28.791452 3.218127
13.902128 28.791452 3.267309
14.215952 28.791452 3.285490
14.529776 28.791452 3.267251
14.843597 28.791452 3.184417
15.157421 28.791452 3.023654
15.471243 28.791452 2.819656
15.785067 28.791452 2.572824
16.098890 28.791452 2.314139
16.412712 28.791452 2.033635
16.726536 28.791452 1.793150
17.040359 28.791452 1.585165
17.354181 28.791452 1.484269
17.668005 28.791452 1.476765
17.981829 28.791452 1.531553
18.295650 28.791452 1.689384
18.609474 28.791452 1.997506
18.923298 28.791452 2.044805
19.237120 28.791452 0.000000
-6.810190 28.477629 0.000000
-6.496367 28.477629 0.029828
-6.182544 28.477629 0.027371
-5.868721 28.477629 0.026631
-5.554898 28.477629 0.026559
-5.241075 28.477629 0.026706
-4.927252 28.477629 0.027264
-4.613429 28.477629 0.028044
-4.299606 28.477629 0.028854
-3.985783 28.477629 0.029369
-3.671960 28.477629 0.029484
-3.358137 28.477629 0.029051
-3.044314 28.477629 0.028429
-2.730491 28.477629 0.027737
-2.416668 28.477629 0.027059
-2.102845 28.477629 0.026553
-1.789022 28.477629 0.025994
-1.475199 28.477629 0.025643
-1.161376 28.477629 0.025786
-0.847553 28.477629 0.026429
-0.533730 28.477629 0.027140
-0.219907 28.477629 0.027796
0.093916 28.477629 0.028485
0.407739 28.477629 0.028833
0.721562 28.477629 0.028938
1.035385 28.477629 0.028890
1.349208 28.477629 0.028458
1.663032 28.477629 0.027818
1.976854 28.477629 0.027411
2.290677 28.477629 0.027367
2.604500 28.477629 0.027555
2.918324 28.477629 0.028096
3.232146 28.477629 0.028996
3.545969 28.477629 0.030141
3.859793 28.477629 0.031215
4.173615 28.477629 0.032244
4.487438 28.477629 0.033339
4.801261 28.477629 0.034515
5.115085 28.477629 0.035426
5.428907 28.477629 0.036309
5.742730 28.477629 0.037591
6.056554 28.477629 0.039202
6.370377 28.477629 0.041786
6.684199 28.477629 0.045419
6.998022 28.477629 0.050358
7.311846 28.477629 0.056096
7.625669 28.477629 0.063583
7.939491 28.477629 0.073311
8.253315 28.477629 0.085500
8.567138 28.477629 0.101882
8.880960 28.477629 0.131493
9.194784 28.477629 0.184816
9.508606 28.477629 0.283901
9.822430 28.477629 0.434708
10.136253 28.477629 0.641873
10.450075 28.477629 0.877748
10.763899 28.477629 1.124187
11.077723 28.477629 1.422120
11.391544 28.477629 1.736045
11.705368 28.477629 2.031858
12.019190 28.477629 2.319943
12.333014 28.477629 2.591226
12.646837 28.477629 2.833547
12.960659 28.477629 2.965940
13.274483 28.477629 3.095857
13.588306 28.477629 3.199398
13.902128 28.477629 3.254910
14.215952 28.477629 3.276787
14.529776 28.477629 3.268997
14.843597 28.477629 3.195328
15.157421 28.477629 3.036796
15.471243 28.477629 2.815531
15.785067 28.477629 2.585150
16.098890 28.477629 2.326263
16.412712 28.477629 2.049235
16.726536 28.477629 1.816889
17.040359 28.477629 1.606215
17.354181 28.477629 1.504777
17.668005 28.477629 1.479533
17.981829 28.477629 1.537012
18.295650 28.477629 1.710952
18.609474 28.477629 2.010759
18.923298 28.477629 1.991425
19.237120 28.477629 0.000000
-6.810190 28.163805 0.000000
-6.496367 28.163805 0.029454
-6.182544 28.163805 0.027280
-5.868721 28.163805 0.026853
-5.554898 28.163805 0.026938
-5.241075 28.163805 0.027134
-4.927252 28.163805 0.027651
-4.613429 28.163805 0.028484
-4.299606 28.163805 0.029240
-3.985783 28.163805 0.029544
-3.671960 28.163805 0.029296
-3.358137 28.163805 0.028531
-3.044314 28.163805 0.027704
-2.730491 28.163805 0.026988
-2.416668 28.163805 0.026466
-2.102845 28.163805 0.026248
-1.789022 28.163805 0.026012
-1.475199 28.163805 0.025909
-1.161376 28.163805 0.026145
-0.847553 28.163805 0.026851
-0.533730 28.163805 0.027586
-0.219907 28.163805 0.028193
0.093916 28.163805 0.028671
0.407739 28.163805 0.028776
0.721562 28.163805 0.028596
1.035385 28.163805 0.028192
1.349208 28.163805 0.027634
1.663032 28.163805 0.027138
1.976854 28.163805 0.027003
2.290677 28.163805 0.027259
2.604500 28.163805 0.027699
2.918324 28.163805 0.028404
3.232146 28.163805 0.029414
3.545969 28.163805 0.030481
3.859793 28.163805 0.031425
4.173615 28.163805 0.032318
4.487438 28.163805 0.033195
4.801261 28.163805 0.034122
5.115085 28.163805 0.034866
5.428907 28.163805 0.035756
5.742730 28.163805 0.037126
6.056554 28.163805 0.039006
6.370377 28.163805 0.041855
6.684199 28.163805 0.045604
6.998022 28.163805 0.050378
7.311846 28.163805 0.056194
7.625669 28.163805 0.063406
7.939491 28.163805 0.072657
8.253315 28.163805 0.084827
8.567138 28.163805 0.102022
8.880960 28.163805 0.132713
9.194784 28.163805 0.189279
9.508606 28.163805 0.281518
9.822430 28.163805 0.436016
10.136253 28.163805 0.632876
10.450075 28.163805 0.868110
10.763899 28.163805 1.128449
11.077723 28.163805 1.426080
11.391544 28.163805 1.721926
11.705368 28.163805 2.034344
12.019190 28.163805 2.326607
12.333014 28.163805 2.602998
12.646837 28.163805 2.821718
12.960659 28.163805 2.970128
13.274483 28.163805 3.088312
13.588306 28.163805 3.191264
13.902128 28.163805 3.244340
14.215952 28.163805 3.264796
14.529776 28.163805 3.271471
14.843597 28.163805 3.215389
15.157421 28.163805 3.052676
15.471243 28.163805 2.838821
15.785067 28.163805 2.582202
16.098890 28.163805 2.313052
16.412712 28.163805 2.065568
16.726536 28.163805 1.821359
17.040359 28.163805 1.622633
17.354181 28.163805 1.516797
17.668005 28.163805 1.475780
17.981829 28.163805 1.557421
18.295650 28.163805 1.696437
18.609474 28.163805 2.026890
18.923298 28.163805 2.064086
19.237120 28.163805 0.000000
-6.810190 27.849983 0.000000
-6.496367 27.849983 0.029369
-6.182544 27.849983 0.027422
-5.868721 27.849983 0.027188
-5.554898 27.849983 0.027453
-5.241075 27.849983 0.027691
-4.927252 27.849983 0.028090
-4.613429 27.849983 0.028753
-4.299606 27.849983 0.029273
-3.985783 27.849983 0.029276
-3.671960 27.849983 0.028703
-3.358137 27.849983 0.027804
-3.044314 27.849983 0.026987
-2.730491 27.849983 0.026368
-2.416668 27.849983 0.026021
-2.102845 27.849983 0.026051
-1.789022 27.849983 0.026196
-1.475199 27.849983 0.026395
-1.161376 27.849983 0.026696
-0.847553 27.849983 0.027341
-0.533730 27.849983 0.027961
-0.219907 27.849983 0.028386
0.093916 27.849983 0.028604
0.407739 27.849983 0.028458
0.721562 27.849983 0.028078
1.035385 27.849983 0.027468
1.349208 27.849983 0.026969
1.663032 27.849983 0.026799
1.976854 27.849983 0.026987
2.290677 27.849983 0.027469
2.604500 27.849983 0.028026
2.918324 27.849983 0.028812
3.232146 27.849983 0.029748
3.545969 27.849983 0.030650
3.859793 27.849983 0.031425
4.173615 27.849983 0.032184
4.487438 27.849983 0.032914
4.801261 27.849983 0.033657
5.115085 27.849983 0.034310
5.428907 27.849983 0.035300
5.742730 27.849983 0.036905
6.056554 27.849983 0.039064
6.370377 27.849983 0.041937
6.684199 27.849983 0.045795
6.998022 27.849983 0.050395
7.311846 27.849983 0.056230
7.625669 27.849983 0.063434
7.939491 27.849983 0.072824
8.253315 27.849983 0.085115
8.567138 27.849983 0.102367
8.880960 27.849983 0.133987
9.194784 27.849983 0.194371
9.508606 27.849983 0.287770
9.822430 27.849983 0.435547
10.136253 27.849983 0.633221
10.450075 27.849983 0.870124
10.763899 27.849983 1.139783
11.077723 27.849983 1.433917
11.391544 27.849983 1.729591
11.705368 27.849983 2.036719
12.019190 27.849983 2.327441
12.333014 27.849983 2.603637
12.646837 27.849983 2.810545
12.960659 27.849983 2.965980
13.274483 27.849983 3.088461
13.588306 27.849983 3.197216
13.902128 27.849983 3.254283
14.215952 27.849983 3.275413
14.529776 27.849983 3.297641
14.843597 27.849983 3.249205
15.157421 27.849983 3.083519
15.471243 27.849983 2.838141
15.785067 27.849983 2.606067
16.098890 27.849983 2.323532
16.412712 27.849983 2.060929
16.726536 27.849983 1.834210
17.040359 27.849983 1.642937
17.354181 27.849983 1.533538
17.668005 27.849983 1.484475
17.981829 27.849983 1.544823
18.295650 27.849983 1.713479
18.609474 27.849983 2.053909
18.923298 27.849983 2.052789
19.237120 27.849983 0.000000
-6.810190 27.536160 0.000000
-6.496367 27.536160 0.029540
-6.182544 27.536160 0.027795
-5.868721 27.536160 0.027687
-5.554898 27.536160 0.028050
-5.241075 27.536160 0.028270
-4.927252 27.536160 0.028449
-4.613429 27.536160 0.028829
-4.299606 27.536160 0.028931
-3.985783 27.536160 0.028587
-3.671960 27.536160 0.027824
-3.358137 27.536160 0.026978
-3.044314 27.536160 0.026378
-2.730491 27.536160 0.025981
-2.416668 27.536160 0.025822
-2.102845 27.536160 0.026059
-1.789022 27.536160 0.026563
-1.475199 27.536160 0.026996
-1.161376 27.536160 0.027329
-0.847553 27.536160 0.027791
-0.533730 27.536160 0.028170
-0.219907 27.536160 0.028328
0.093916 27.536160 0.028273
0.407739 27.536160 0.027903
0.721562 27.536160 0.027431
1.035385 27.536160 0.026854
1.349208 27.536160 0.026579
1.663032 27.536160 0.026775
1.976854 27.536160 0.027238
2.290677 27.536160 0.027827
2.604500 27.536160 0.028439
2.918324 27.536160 0.029179
3.232146 27.536160 0.029880
3.545969 27.536160 0.030608
3.859793 27.536160 0.031264
4.173615 27.536160 0.031893
4.487438 27.536160 0.032540
4.801261 27.536160 0.033242
5.115085 27.536160 0.033922
5.428907 27.536160 0.035092
5.742730 27.536160 0.036936
6.056554 27.536160 0.039191
6.370377 27.536160 0.042089
6.684199 27.536160 0.045752
6.998022 27.536160 0.050330
7.311846 27.536160 0.055847
7.625669 27.536160 0.063211
7.939491 27.536160 0.073075
8.253315 27.536160 0.084567
8.567138 27.536160 0.103457
8.880960 27.536160 0.134425
9.194784 27.536160 0.196816
9.508606 27.536160 0.291818
9.822430 27.536160 0.438787
10.136253 27.536160 0.625655
10.450075 27.536160 0.879111
10.763899 27.536160 1.134599
11.077723 27.536160 1.433077
11.391544 27.536160 1.725253
11.705368 27.536160 2.041147
12.019190 27.536160 2.317914
12.333014 27.536160 2.602885
12.646837 27.536160 2.807734
12.960659 27.536160 2.967926
13.274483 27.536160 3.103141
13.588306 27.536160 3.208337
13.902128 27.536160 3.270243
14.215952 27.536160 3.280799
14.529776 27.536160 3.320265
14.843597 27.536160 3.273987
15.157421 27.536160 3.098282
15.471243 27.536160 2.862664
15.785067 27.536160 2.592029
16.098890 27.536160 2.325476
16.412712 27.536160 2.079696
16.726536 27.536160 1.842827
17.040359 27.536160 1.642724
17.354181 27.536160 1.538581
17.668005 27.536160 1.479923
17.981829 27.536160 1.540744
18.295650 27.536160 1.728901
18.609474 27.536160 2.049405
18.923298 27.536160 2.035268
19.237120 27.536160 0.000000
-6.810190 27.222336 0.000000
-6.496367 27.222336 0.029938
-6.182544 27.222336 0.028286
-5.868721 27.222336 0.028187
-5.554898 27.222336 0.028559
-5.241075 27.222336 0.028736
-4.927252 27.222336 0.028703
-4.613429 27.222336 0.028644
-4.299606 27.222336 0.028268
-3.985783 27.222336 0.027619
-3.671960 27.222336 0.026793
-3.358137 27.222336 0.026183
-3.044314 27.222336 0.025965
-2.730491 27.222336 0.025865
-2.416668 27.222336 0.025923
-2.102845 27.222336 0.026302
-1.789022 27.222336 0.026972
-1.475199 27.222336 0.027509
-1.161376 27.222336 0.027824
-0.847553 27.222336 0.028044
-0.533730 27.222336 0.028115
-0.219907 27.222336 0.028040
0.093916 27.222336 0.027786
0.407739 27.222336 0.027272
0.721562 27.222336 0.026834
1.035385 27.222336 0.026485
1.349208 27.222336 0.026500
1.663032 27.222336 0.026997
1.976854 27.222336 0.027622
2.290677 27.222336 0.028231
2.604500 27.222336 0.028806
2.918324 27.222336 0.029360
3.232146 27.222336 0.029760
3.545969 27.222336 0.030354
3.859793 27.222336 0.030962
4.173615 27.222336 0.031526
4.487438 27.222336 0.032170
4.801261 27.222336 0.032891
5.115085 27.222336 0.033702
5.428907 27.222336 0.035082
5.742730 27.222336 0.037123
6.056554 27.222336 0.039516
6.370377 27.222336 0.042285
6.684199 27.222336 0.045589
6.998022 27.222336 0.049821
7.311846 27.222336 0.055384
7.625669 27.222336 0.062662
7.939491 27.222336 0.072610
8.253315 27.222336 0.085937
8.567138 27.222336 0.103991
8.880960 27.222336 0.136380
9.194784 27.222336 0.193941
9.508606 27.222336 0.292366
9.822430 27.222336 0.440315
10.136253 27.222336 0.631532
10.450075 27.222336 0.876769
10.763899 27.222336 1.137596
11.077723 27.222336 1.428522
11.391544 27.222336 1.737045
11.705368 27.222336 2.044285
12.019190 27.222336 2.311215
12.333014 27.222336 2.581887
12.646837 27.222336 2.815095
12.960659 27.222336 2.981093
13.274483 27.222336 3.109821
13.588306 27.222336 3.225195
13.902128 27.222336 3.257449
14.215952 27.222336 3.300059
14.529776 27.222336 3.341757
14.843597 27.222336 3.276938
15.157421 27.222336 3.103832
15.471243 27.222336 2.876046
15.785067 27.222336 2.608367
16.098890 27.222336 2.334877
16.412712 27.222336 2.078855
16.726536 27.222336 1.849911
17.040359 27.222336 1.651663
17.354181 27.222336 1.526133
17.668005 27.222336 1.481617
17.981829 27.222336 1.571641
18.295650 27.222336 1.746689
18.609474 27.222336 2.063458
18.923298 27.222336 2.002456
19.237120 27.222336 0.000000
-6.810190 26.908514 0.000000
-6.496367 26.908514 0.030408
-6.182544 26.908514 0.028783
-5.868721 26.908514 0.028595
-5.554898 26.908514 0.028852
-5.241075 26.908514 0.028897
-4.927252 26.908514 0.028639
-4.613429 26.908514 0.028150
-4.299606 26.908514 0.027420
-3.985783 26.908514 0.026631
-3.671960 26.908514 0.025928
-3.358137 26.908514 0.025695
-3.044314 26.908514 0.025848
-2.730491 26.908514 0.026029
-2.416668 26.908514 0.026289
-2.102845 26.908514 0.026741
-1.789022 26.908514 0.027364
-1.475199 26.908514 0.027870
-1.161376 26.908514 0.028069
-0.847553 26.908514 0.028019
-0.533730 26.908514 0.027789
-0.219907 26.908514 0.027574
0.093916 26.908514 0.027253
0.407739 26.908514 0.026771
0.721562 26.908514 0.026464
1.035385 26.908514 0.026445
1.349208 26.908514 0.026682
1.663032 26.908514 0.027319
1.976854 26.908514 0.027949
2.290677 26.908514 0.028507
2.604500 26.908514 0.028990
2.918324 26.908514 0.029352
3.232146 26.908514 0.029512
3.545969 26.908514 0.030005
3.859793 26.908514 0.030610
4.173615 26.908514 0.031207
4.487438 26.908514 0.031874
4.801261 26.908514 0.032665
5.115085 26.908514 0.033652
5.428907 26.908514 0.035211
5.742730 26.908514 0.037349
6.056554 26.908514 0.039688
6.370377 26.908514 0.042345
6.684199 26.908514 0.045500
6.998022 26.908514 0.049589
7.311846 26.908514 0.055195
7.625669 26.908514 0.062600
7.939491 26.908514 0.072377
8.253315 26.908514 0.086458
8.567138 26.908514 0.105844
8.880960 26.908514 0.136199
9.194784 26.908514 0.195306
9.508606 26.908514 0.287597
9.822430 26.908514 0.440799
10.136253 26.908514 0.640276
10.450075 26.908514 0.885705
10.763899 26.908514 1.135617
11.077723 26.908514 1.423360
11.391544 26.908514 1.728197
11.705368 26.908514 2.028066
12.019190 26.908514 2.306386
12.333014 26.908514 2.579952
12.646837 26.908514 2.836183
12.960659 26.908514 2.986791
13.274483 26.908514 3.108870
13.588306 26.908514 3.222652
13.902128 26.908514 3.266662
14.215952 26.908514 3.306672
14.529776 26.908514 3.340746
14.843597 26.908514 3.292674
15.157421 26.908514 3.117496
15.471243 26.908514 2.886449
15.785067 26.908514 2.620242
16.098890 26.908514 2.357896
16.412712 26.908514 2.091556
16.726536 26.908514 1.847842
17.040359 26.908514 1.649961
17.354181 26.908514 1.520552
17.668005 26.908514 1.480019
17.981829 26.908514 1.573326
18.295650 26.908514 1.769155
18.609474 26.908514 2.090782
18.923298 26.908514 1.991208
19.237120 26.908514 0.000000
-6.810190 26.594690 0.000000
-6.496367 26.594690 0.030750
-6.182544 26.594690 0.029154
-5.868721 26.594690 0.028839
-5.554898 26.594690 0.028855
-5.241075 26.594690 0.028689
-4.927252 26.594690 0.028237
-4.613429 26.594690 0.027511
-4.299606 26.594690 0.026656
-3.985783 26.594690 0.025945
-3.671960 26.594690 0.025491
-3.358137 26.594690 0.025514
-3.044314 26.594690 0.026008
-2.730491 26.594690 0.026433
-2.416668 26.594690 0.026782
-2.102845 26.594690 0.027173
-1.789022 26.594690 0.027619
-1.475199 26.594690 0.027956
-1.161376 26.594690 0.028005
-0.847553 26.594690 0.027712
-0.533730 26.594690 0.027291
-0.219907 26.594690 0.027048
0.093916 26.594690 0.026790
0.407739 26.594690 0.026525
0.721562 26.594690 0.026451
1.035385 26.594690 0.026651
1.349208 26.594690 0.026972
1.663032 26.594690 0.027585
1.976854 26.594690 0.028136
2.290677 26.594690 0.028596
2.604500 26.594690 0.028971
2.918324 26.594690 0.029195
3.232146 26.594690 0.029263
3.545969 26.594690 0.029660
3.859793 26.594690 0.030287
4.173615 26.594690 0.030945
4.487438 26.594690 0.031677
4.801261 26.594690 0.032563
5.115085 26.594690 0.033726
5.428907 26.594690 0.035311
5.742730 26.594690 0.037414
6.056554 26.594690 0.039687
6.370377 26.594690 0.042209
6.684199 26.594690 0.045405
6.998022 26.594690 0.049791
7.311846 26.594690 0.055373
7.625669 26.594690 0.062672
7.939491 26.594690 0.072240
8.253315 26.594690 0.085893
8.567138 26.594690 0.106890
8.880960 26.594690 0.136749
9.194784 26.594690 0.191560
9.508606 26.594690 0.287334
9.822430 26.594690 0.427488
10.136253 26.594690 0.640108
10.450075 26.594690 0.882695
10.763899 26.594690 1.147301
11.077723 26.594690 1.433324
11.391544 26.594690 1.734008
11.705368 26.594690 2.030077
12.019190 26.594690 2.301058
12.333014 26.594690 2.573542
12.646837 26.594690 2.819610
12.960659 26.594690 3.005133
13.274483 26.594690 3.114022
13.588306 26.594690 3.213417
13.902128 26.594690 3.279546
14.215952 26.594690 3.306428
14.529776 26.594690 3.340695
14.843597 26.594690 3.279993
15.157421 26.594690 3.114093
15.471243 26.594690 2.892613
15.785067 26.594690 2.641032
16.098890 26.594690 2.368499
16.412712 26.594690 2.087386
16.726536 26.594690 1.856951
17.040359 26.594690 1.636626
17.354181 26.594690 1.499558
17.668005 26.594690 1.472708
17.981829 26.594690 1.574186
18.295650 26.594690 1.768170
18.609474 26.594690 2.079510
18.923298 26.594690 1.969311
19.237120 26.594690 0.000000
-6.810190 26.280869 0.000000
-6.496367 26.280869 0.031104
-6.182544 26.280869 0.029392
-5.868721 26.280869 0.028825
-5.554898 26.280869 0.028558
-5.241075 26.280869 0.028155
-4.927252 26.280869 0.027599
-4.613429 26.280869 0.026852
-4.299606 26.280869 0.026152
-3.985783 26.280869 0.025701
-3.671960 26.280869 0.025621
-3.358137 26.280869 0.025829
-3.044314 26.280869 0.026374
-2.730491 26.280869 0.026873
-2.416668 26.280869 0.027209
-2.102845 26.280869 0.027495
-1.789022 26.280869 0.027662
-1.475199 26.280869 0.027736
-1.161376 26.280869 0.027657
-0.847553 26.280869 0.027277
-0.533730 26.280869 0.026771
-0.219907 26.280869 0.026601
0.093916 26.280869 0.026539
0.407739 26.280869 0.026560
0.721562 26.280869 0.026674
1.035385 26.280869 0.026953
1.349208 26.280869 0.027231
1.663032 26.280869 0.027688
1.976854 26.280869 0.028144
2.290677 26.280869 0.028533
2.604500 26.280869 0.028853
2.918324 26.280869 0.029035
3.232146 26.280869 0.029113
3.545969 26.280869 0.029446
3.859793 26.280869 0.030069
4.173615 26.280869 0.030741
4.487438 26.280869 0.031511
4.801261 26.280869 0.032531
5.115085 26.280869 0.033781
5.428907 26.280869 0.035290
5.742730 26.280869 0.037263
6.056554 26.280869 0.039534
6.370377 26.280869 0.042305
6.684199 26.280869 0.045616
6.998022 26.280869 0.049926
7.311846 26.280869 0.055536
7.625669 26.280869 0.062720
7.939491 26.280869 0.072575
8.253315 26.280869 0.085748
8.567138 26.280869 0.106304
8.880960 26.280869 0.136092
9.194784 26.280869 0.191915
9.508606 26.280869 0.282423
9.822430 26.280869 0.435566
10.136253 26.280869 0.634615
10.450075 26.280869 0.884454
10.763899 26.280869 1.143131
11.077723 26.280869 1.438205
11.391544 26.280869 1.736528
11.705368 26.280869 2.011804
12.019190 26.280869 2.301302
12.333014 26.280869 2.581082
12.646837 26.280869 2.804248
12.960659 26.280869 3.006857
13.274483 26.280869 3.117214
13.588306 26.280869 3.199164
13.902128 26.280869 3.271167
14.215952 26.280869 3.318156
14.529776 26.280869 3.341640
14.843597 26.280869 3.279716
15.157421 26.280869 3.146457
15.471243 26.280869 2.895660
15.785067 26.280869 2.644363
16.098890 26.280869 2.363197
16.412712 26.280869 2.099471
16.726536 26.280869 1.843230
17.040359 26.280869 1.638973
17.354181 26.280869 1.509164
17.668005 26.280869 1.483230
17.981829 26.280869 1.572181
18.295650 26.280869 1.765590
18.609474 26.280869 2.097801
18.923298 26.280869 1.979614
19.237120 26.280869 0.000000
-6.810190 25.967045 0.000000
-6.496367 25.967045 0.031393
-6.182544 25.967045 0.029413
-5.868721 25.967045 0.028506
-5.554898 25.967045 0.028032
-5.241075 25.967045 0.027493
-4.927252 25.967045 0.026942
-4.613429 25.967045 0.026373
-4.299606 25.967045 0.025932
-3.985783 25.967045 0.025873
-3.671960 25.967045 0.026085
-3.358137 25.967045 0.026361
-3.044314 25.967045 0.026812
-2.730491 25.967045 0.027244
-2.416668 25.967045 0.027484
-2.102845 25.967045 0.027584
-1.789022 25.967045 0.027495
-1.475199 25.967045 0.027342
-1.161376 25.967045 0.027171
-0.847553 25.967045 0.026801
-0.533730 25.967045 0.026364
-0.219907 25.967045 0.026305
0.093916 25.967045 0.026491
0.407739 25.967045 0.026737
0.721562 25.967045 0.026933
1.035385 25.967045 0.027180
1.349208 25.967045 0.027380
1.663032 25.967045 0.027666
1.976854 25.967045 0.028006
2.290677 25.967045 0.028365
2.604500 25.967045 0.028707
2.918324 25.967045 0.028917
3.232146 25.967045 0.029114
3.545969 25.967045 0.029416
3.859793 25.967045 0.030021
4.173615 25.967045 0.030664
4.487438 25.967045 0.031386
4.801261 25.967045 0.032412
5.115085 25.967045 0.033656
5.428907 25.967045 0.035084
5.742730 25.967045 0.036928
6.056554 25.967045 0.039351
6.370377 25.967045 0.042296
6.684199 25.967045 0.045764
6.998022 25.967045 0.050418
7.311846 25.967045 0.056087
7.625669 25.967045 0.063145
7.939491 25.967045 0.072544
8.253315 25.967045 0.085634
8.567138 25.967045 0.103329
8.880960 25.967045 0.133958
9.194784 25.967045 0.189944
9.508606 25.967045 0.288616
9.822430 25.967045 0.443268
10.136253 25.967045 0.640372
10.450075 25.967045 0.875792
10.763899 25.967045 1.134617
11.077723 25.967045 1.433144
11.391544 25.967045 1.724905
11.705368 25.967045 2.017993
12.019190 25.967045 2.309919
12.333014 25.967045 2.578808
12.646837 25.967045 2.803131
12.960659 25.967045 2.995756
13.274483 25.967045 3.122797
13.588306 25.967045 3.209989
13.902128 25.967045 3.283505
14.215952 25.967045 3.340728
14.529776 25.967045 3.336015
14.843597 25.967045 3.305704
15.157421 25.967045 3.148081
15.471243 25.967045 2.903653
15.785067 25.967045 2.657118
16.098890 25.967045 2.380725
16.412712 25.967045 2.119248
16.726536 25.967045 1.846088
17.040359 25.967045 1.653445
17.354181 25.967045 1.513297
17.668005 25.967045 1.485827
17.981829 25.967045 1.586496
18.295650 25.967045 1.796176
18.609474 25.967045 2.109881
18.923298 25.967045 2.002387
19.237120 25.967045 0.000000
-6.810190 25.653221 0.000000
-6.496367 25.653221 0.031492
-6.182544 25.653221 0.029140
-5.868721 25.653221 0.027963
-5.554898 25.653221 0.027373
-5.241075 25.653221 0.026892
-4.927252 25.653221 0.026527
-4.613429 25.653221 0.026203
-4.299606 25.653221 0.026128
-3.985783 25.653221 0.026356
-3.671960 25.653221 0.026639
-3.358137 25.653221 0.026876
-3.044314 25.653221 0.027209
-2.730491 25.653221 0.027470
-2.416668 25.653221 0.027499
-2.102845 25.653221 0.027424
-1.789022 25.653221 0.027177
-1.475199 25.653221 0.026898
-1.161376 25.653221 0.026718
-0.847553 25.653221 0.026451
-0.533730 25.653221 0.026166
-0.219907 25.653221 0.026206
0.093916 25.653221 0.026568
0.407739 25.653221 0.026917
0.721562 25.653221 0.027072
1.035385 25.653221 0.027242
1.349208 25.653221 0.027375
1.663032 25.653221 0.027585
1.976854 25.653221 0.027856
2.290677 25.653221 0.028171
2.604500 25.653221 0.028527
2.918324 25.653221 0.028868
3.232146 25.653221 0.029169
3.545969 25.653221 0.029555
3.859793 25.653221 0.030050
4.173615 25.653221 0.030598
4.487438 25.653221 0.031258
4.801261 25.653221 0.032181
5.115085 25.653221 0.033368
5.428907 25.653221 0.034733
5.742730 25.653221 0.036621
6.056554 25.653221 0.039148
6.370377 25.653221 0.042449
6.684199 25.653221 0.046277
6.998022 25.653221 0.050725
7.311846 25.653221 0.056480
7.625669 25.653221 0.063466
7.939491 25.653221 0.072964
8.253315 25.653221 0.085185
8.567138 25.653221 0.100769
8.880960 25.653221 0.132885
9.194784 25.653221 0.191216
9.508606 25.653221 0.293520
9.822430 25.653221 0.447361
10.136253 25.653221 0.651739
10.450075 25.653221 0.878091
10.763899 25.653221 1.125323
11.077723 25.653221 1.430707
11.391544 25.653221 1.713265
11.705368 25.653221 2.006416
12.019190 25.653221 2.313115
12.333014 25.653221 2.602043
12.646837 25.653221 2.810504
12.960659 25.653221 2.990332
13.274483 25.653221 3.109262
13.588306 25.653221 3.227835
13.902128 25.653221 3.303898
14.215952 25.653221 3.351796
14.529776 25.653221 3.365423
14.843597 25.653221 3.318596
15.157421 25.653221 3.160074
15.471243 25.653221 2.923006
15.785067 25.653221 2.674782
16.098890 25.653221 2.405881
16.412712 25.653221 2.116757
16.726536 25.653221 1.858808
17.040359 25.653221 1.661365
17.354181 25.653221 1.526359
17.668005 25.653221 1.489105
17.981829 25.653221 1.587936
18.295650 25.653221 1.820337
18.609474 25.653221 2.133927
18.923298 25.653221 1.988993
19.237120 25.653221 0.000000
-6.810190 25.339399 0.000000
-6.496367 25.339399 0.031085
-6.182544 25.339399 0.028532
-5.868721 25.339399 0.027291
-5.554898 25.339399 0.026804
-5.241075 25.339399 0.026519
-4.927252 25.339399 0.026369
-4.613429 25.339399 0.026345
-4.299606 25.339399 0.026539
-3.985783 25.339399 0.026928
-3.671960 25.339399 0.027139
-3.358137 25.339399 0.027278
-3.044314 25.339399 0.027442
-2.730491 25.339399 0.027473
-2.416668 25.339399 0.027312
-2.102845 25.339399 0.027086
-1.789022 25.339399 0.026769
-1.475199 25.339399 0.026459
-1.161376 25.339399 0.026382
-0.847553 25.339399 0.026332
-0.533730 25.339399 0.026220
-0.219907 25.339399 0.026301
0.093916 25.339399 0.026682
0.407739 25.339399 0.026985
0.721562 25.339399 0.027086
1.035385 25.339399 0.027172
1.349208 25.339399 0.027277
1.663032 25.339399 0.027523
1.976854 25.339399 0.027772
2.290677 25.339399 0.028010
2.604500 25.339399 0.028348
2.918324 25.339399 0.028825
3.232146 25.339399 0.029284
3.545969 25.339399 0.029677
3.859793 25.339399 0.029992
4.173615 25.339399 0.030418
4.487438 25.339399 0.031049
4.801261 25.339399 0.031925
5.115085 25.339399 0.033055
5.428907 25.339399 0.034477
5.742730 25.339399 0.036490
6.056554 25.339399 0.039215
6.370377 25.339399 0.042681
6.684199 25.339399 0.046667
6.998022 25.339399 0.051055
7.311846 25.339399 0.056070
7.625669 25.339399 0.063136
7.939491 25.339399 0.072095
8.253315 25.339399 0.084333
8.567138 25.339399 0.100412
8.880960 25.339399 0.133146
9.194784 25.339399 0.190565
9.508606 25.339399 0.293244
9.822430 25.339399 0.444701
10.136253 25.339399 0.659613
10.450075 25.339399 0.879706
10.763899 25.339399 1.129255
11.077723 25.339399 1.421401
11.391544 25.339399 1.709748
11.705368 25.339399 2.031694
12.019190 25.339399 2.324587
12.333014 25.339399 2.605475
12.646837 25.339399 2.842898
12.960659 25.339399 2.996179
13.274483 25.339399 3.109148
13.588306 25.339399 3.220404
13.902128 25.339399 3.327882
14.215952 25.339399 3.379362
14.529776 25.339399 3.378259
14.843597 25.339399 3.314042
15.157421 25.339399 3.170107
15.471243 25.339399 2.951474
15.785067 25.339399 2.702998
16.098890 25.339399 2.417109
16.412712 25.339399 2.135280
16.726536 25.339399 1.874522
17.040359 25.339399 1.668292
17.354181 25.339399 1.532679
17.668005 25.339399 1.497084
17.981829 25.339399 1.614968
18.295650 25.339399 1.842172
18.609474 25.339399 2.181374
18.923298 25.339399 2.012455
19.237120 25.339399 0.000000
-6.810190 25.025576 0.000000
-6.496367 25.025576 0.030189
-6.182544 25.025576 0.027782
-5.868721 25.025576 0.026776
-5.554898 25.025576 0.026520
-5.241075 25.025576 0.026492
-4.927252 25.025576 0.026499
-4.613429 25.025576 0.026710
-4.299606 25.025576 0.027073
-3.985783 25.025576 0.027400
-3.671960 25.025576 0.027432
-3.358137 25.025576 0.027377
-3.044314 25.025576 0.027403
-2.730491 25.025576 0.027265
-2.416668 25.025576 0.026995
-2.102845 25.025576 0.026699
-1.789022 25.025576 0.026434
-1.475199 25.025576 0.026194
-1.161376 25.025576 0.026236
-0.847553 25.025576 0.026380
-0.533730 25.025576 0.026393
-0.219907 25.025576 0.026437
0.093916 25.025576 0.026720
0.407739 25.025576 0.026942
0.721562 25.025576 0.027044
1.035385 25.025576 0.027079
1.349208 25.025576 0.027218
1.663032 25.025576 0.027570
1.976854 25.025576 0.027786
2.290677 25.025576 0.027939
2.604500 25.025576 0.028243
2.918324 25.025576 0.028742
3.232146 25.025576 0.029212
3.545969 25.025576 0.029540
3.859793 25.025576 0.029765
4.173615 25.025576 0.030122
4.487438 25.025576 0.030801
4.801261 25.025576 0.031726
5.115085 25.025576 0.032941
5.428907 25.025576 0.034511
5.742730 25.025576 0.036743
6.056554 25.025576 0.039643
6.370377 25.025576 0.042965
6.684199 25.025576 0.046676
6.998022 25.025576 0.050846
7.311846 25.025576 0.055589
7.625669 25.025576 0.062022
7.939491 25.025576 0.071204
8.253315 25.025576 0.083117
8.567138 25.025576 0.101257
8.880960 25.025576 0.134368
9.194784 25.025576 0.195069
9.508606 25.025576 0.298341
9.822430 25.025576 0.445625
10.136253 25.025576 0.658792
10.450075 25.025576 0.888645
10.763899 25.025576 1.139477
11.077723 25.025576 1.428968
11.391544 25.025576 1.723418
11.705368 25.025576 2.030237
12.019190 25.025576 2.332093
12.333014 25.025576 2.595485
12.646837 25.025576 2.823337
12.960659 25.025576 3.017579
13.274483 25.025576 3.127407
13.588306 25.025576 3.237568
13.902128 25.025576 3.321309
14.215952 25.025576 3.382061
14.529776 25.025576 3.367685
14.843597 25.025576 3.312785
15.157421 25.025576 3.171738
15.471243 25.025576 2.985563
15.785067 25.025576 2.726110
16.098890 25.025576 2.455963
16.412712 25.025576 2.151003
16.726536 25.025576 1.897672
17.040359 25.025576 1.678855
17.354181 25.025576 1.538070
17.668005 25.025576 1.510225
17.981829 25.025576 1.608778
18.295650 25.025576 1.822065
18.609474 25.025576 2.203034
18.923298 25.025576 1.977984
19.237120 25.025576 0.000000
-6.810190 24.711752 0.000000
-6.496367 24.711752 0.029195
-6.182544 24.711752 0.027174
-5.868721 24.711752 0.026570
-5.554898 24.711752 0.026560
-5.241075 24.711752 0.026714
-4.927252 24.711752 0.026807
-4.613429 24.711752 0.027126
-4.299606 24.711752 0.027459
-3.985783 24.711752 0.027576
-3.671960 24.711752 0.027444
-3.358137 24.711752 0.027238
-3.044314 24.711752 0.027118
-2.730491 24.711752 0.026921
-2.416668 24.711752 0.026660
-2.102845 24.711752 0.026469
-1.789022 24.711752 0.026310
-1.475199 24.711752 0.026149
-1.161376 24.711752 0.026247
-0.847553 24.711752 0.026458
-0.533730 24.711752 0.026494
-0.219907 24.711752 0.026500
0.093916 24.711752 0.026664
0.407739 24.711752 0.026881
0.721562 24.711752 0.027047
1.035385 24.711752 0.027117
1.349208 24.711752 0.027307
1.663032 24.711752 0.027697
1.976854 24.711752 0.027843
2.290677 24.711752 0.027909
2.604500 24.711752 0.028163
2.918324 24.711752 0.028571
3.232146 24.711752 0.028959
3.545969 24.711752 0.029221
3.859793 24.711752 0.029376
4.173615 24.711752 0.029805
4.487438 24.711752 0.030639
4.801261 24.711752 0.031749
5.115085 24.711752 0.033119
5.428907 24.711752 0.034860
5.742730 24.711752 0.037215
6.056554 24.711752 0.040029
6.370377 24.711752 0.043038
6.684199 24.711752 0.046461
6.998022 24.711752 0.050255
7.311846 24.711752 0.054829
7.625669 24.711752 0.061350
7.939491 24.711752 0.069914
8.253315 24.711752 0.082726
8.567138 24.711752 0.102847
8.880960 24.711752 0.135620
9.194784 24.711752 0.194479
9.508606 24.711752 0.295805
9.822430 24.711752 0.449279
10.136253 24.711752 0.652006
10.450075 24.711752 0.904224
10.763899 24.711752 1.162585
11.077723 24.711752 1.438190
11.391544 24.711752 1.735032
11.705368 24.711752 2.010763
12.019190 24.711752 2.312831
12.333014 24.711752 2.570739
12.646837 24.711752 2.805178
12.960659 24.711752 3.018161
13.274483 24.711752 3.142718
13.588306 24.711752 3.246681
13.902128 24.711752 3.316999
14.215952 24.711752 3.375527
14.529776 24.711752 3.387124
14.843597 24.711752 3.328243
15.157421 24.711752 3.189967
15.471243 24.711752 2.995131
15.785067 24.711752 2.753560
16.098890 24.711752 2.444562
16.412712 24.711752 2.165771
16.726536 24.711752 1.912057
17.040359 24.711752 1.690332
17.354181 24.711752 1.551972
17.668005 24.711752 1.515999
17.981829 24.711752 1.617308
18.295650 24.711752 1.829648
18.609474 24.711752 2.180691
18.923298 24.711752 2.041322
19.237120 24.711752 0.000000
-6.810190 24.397930 0.000000
-6.496367 24.397930 0.028369
-6.182544 24.397930 0.026809
-5.868721 24.397930 0.026611
-5.554898 24.397930 0.026798
-5.241075 24.397930 0.026990
-4.927252 24.397930 0.027097
-4.613429 24.397930 0.027376
-4.299606 24.397930 0.027538
-3.985783 24.397930 0.027434
-3.671960 24.397930 0.027230
-3.358137 24.397930 0.026964
-3.044314 24.397930 0.026745
-2.730491 24.397930 0.026523
-2.416668 24.397930 0.026371
-2.102845 24.397930 0.026340
-1.789022 24.397930 0.026315
-1.475199 24.397930 0.026249
-1.161376 24.397930 0.026316
-0.847553 24.397930 0.026481
-0.533730 24.397930 0.026466
-0.219907 24.397930 0.026446
0.093916 24.397930 0.026609
0.407739 24.397930 0.026898
0.721562 24.397930 0.027153
1.035385 24.397930 0.027321
1.349208 24.397930 0.027538
1.663032 24.397930 0.027842
1.976854 24.397930 0.027884
2.290677 24.397930 0.027862
2.604500 24.397930 0.028020
2.918324 24.397930 0.028301
3.232146 24.397930 0.028607
3.545969 24.397930 0.028837
3.859793 24.397930 0.029025
4.173615 24.397930 0.029648
4.487438 24.397930 0.030784
4.801261 24.397930 0.032113
5.115085 24.397930 0.033627
5.428907 24.397930 0.035392
5.742730 24.397930 0.037625
6.056554 24.397930 0.040104
6.370377 24.397930 0.042698
6.684199 24.397930 0.045509
6.998022 24.397930 0.049136
7.311846 24.397930 0.053836
7.625669 24.397930 0.060605
7.939491 24.397930 0.070029
8.253315 24.397930 0.082677
8.567138 24.397930 0.103882
8.880960 24.397930 0.136659
9.194784 24.397930 0.197450
9.508606 24.397930 0.296841
9.822430 24.397930 0.449774
10.136253 24.397930 0.648762
10.450075 24.397930 0.904226
10.763899 24.397930 1.171511
11.077723 24.397930 1.459145
11.391544 24.397930 1.737406
11.705368 24.397930 2.012163
12.019190 24.397930 2.303579
12.333014 24.397930 2.590548
12.646837 24.397930 2.833944
12.960659 24.397930 3.030329
13.274483 24.397930 3.165863
13.588306 24.397930 3.243253
13.902128 24.397930 3.328569
14.215952 24.397930 3.374837
14.529776 24.397930 3.376722
14.843597 24.397930 3.327481
15.157421 24.397930 3.200934
15.471243 24.397930 3.006586
15.785067 24.397930 2.749330
16.098890 24.397930 2.457352
16.412712 24.397930 2.167166
16.726536 24.397930 1.911873
17.040359 24.397930 1.690156
17.354181 24.397930 1.554908
17.668005 24.397930 1.527781
17.981829 24.397930 1.615689
18.295650 24.397930 1.848537
18.609474 24.397930 2.196788
18.923298 24.397930 2.001382
19.237120 24.397930 0.000000
-6.810190 24.084106 0.000000
-6.496367 24.084106 0.028132
-6.182544 24.084106 0.026772
-5.868721 24.084106 0.026810
-5.554898 24.084106 0.027096
-5.241075 24.084106 0.027218
-4.927252 24.084106 0.027204
-4.613429 24.084106 0.027375
-4.299606 24.084106 0.027367
-3.985783 24.084106 0.027124
-3.671960 24.084106 0.026960
-3.358137 24.084106 0.026703
-3.044314 24.084106 0.026438
-2.730491 24.084106 0.026229
-2.416668 24.084106 0.026182
-2.102845 24.084106 0.026286
-1.789022 24.084106 0.026374
-1.475199 24.084106 0.026332
-1.161376 24.084106 0.026342
-0.847553 24.084106 0.026413
-0.533730 24.084106 0.026346
-0.219907 24.084106 0.026360
0.093916 24.084106 0.026615
0.407739 24.084106 0.027039
0.721562 24.084106 0.027369
1.035385 24.084106 0.027592
1.349208 24.084106 0.027757
1.663032 24.084106 0.027888
1.976854 24.084106 0.027821
2.290677 24.084106 0.027712
2.604500 24.084106 0.027802
2.918324 24.084106 0.027928
3.232146 24.084106 0.028232
3.545969 24.084106 0.028570
3.859793 24.084106 0.028998
4.173615 24.084106 0.029917
4.487438 24.084106 0.031279
4.801261 24.084106 0.032744
5.115085 24.084106 0.034181
5.428907 24.084106 0.035739
5.742730 24.084106 0.037640
6.056554 24.084106 0.039679
6.370377 24.084106 0.041858
6.684199 24.084106 0.044512
6.998022 24.084106 0.048093
7.311846 24.084106 0.053241
7.625669 24.084106 0.060290
7.939491 24.084106 0.070870
8.253315 24.084106 0.084290
8.567138 24.084106 0.104186
8.880960 24.084106 0.139451
9.194784 24.084106 0.198736
9.508606 24.084106 0.299913
9.822430 24.084106 0.454710
10.136253 24.084106 0.662031
10.450075 24.084106 0.910225
10.763899 24.084106 1.174528
11.077723 24.084106 1.460029
11.391544 24.084106 1.740355
11.705368 24.084106 2.030504
12.019190 24.084106 2.297640
12.333014 24.084106 2.604816
12.646837 24.084106 2.823385
12.960659 24.084106 3.022869
13.274483 24.084106 3.160221
13.588306 24.084106 3.236658
13.902128 24.084106 3.332021
14.215952 24.084106 3.392010
14.529776 24.084106 3.388940
14.843597 24.084106 3.327604
15.157421 24.084106 3.201148
15.471243 24.084106 3.014913
15.785067 24.084106 2.759648
16.098890 24.084106 2.494159
16.412712 24.084106 2.194571
16.726536 24.084106 1.911770
17.040359 24.084106 1.681926
17.354181 24.084106 1.552292
17.668005 24.084106 1.541780
17.981829 24.084106 1.623505
18.295650 24.084106 1.859702
18.609474 24.084106 2.221891
18.923298 24.084106 1.999659
19.237120 24.084106 0.000000
-6.810190 23.770283 0.000000
-6.496367 23.770283 0.028364
-6.182544 23.770283 0.026953
-5.868721 23.770283 0.027012
-5.554898 23.770283 0.027291
-5.241075 23.770283 0.027311
-4.927252 23.770283 0.027163
-4.613429 23.770283 0.027149
-4.299606 23.770283 0.027000
-3.985783 23.770283 0.026796
-3.671960 23.770283 0.026685
-3.358137 23.770283 0.026463
-3.044314 23.770283 0.026241
-2.730491 23.770283 0.026079
-2.416668 23.770283 0.026065
-2.102845 23.770283 0.026267
-1.789022 23.770283 0.026419
-1.475199 23.770283 0.026366
-1.161376 23.770283 0.026279
-0.847553 23.770283 0.026306
-0.533730 23.770283 0.026245
-0.219907 23.770283 0.026329
0.093916 23.770283 0.026723
0.407739 23.770283 0.027234
0.721562 23.770283 0.027553
1.035385 23.770283 0.027761
1.349208 23.770283 0.027802
1.663032 23.770283 0.027724
1.976854 23.770283 0.027544
2.290677 23.770283 0.027411
2.604500 23.770283 0.027509
2.918324 23.770283 0.027606
3.232146 23.770283 0.028008
3.545969 23.770283 0.028601
3.859793 23.770283 0.029414
4.173615 23.770283 0.030624
4.487438 23.770283 0.032022
4.801261 23.770283 0.033321
5.115085 23.770283 0.034476
5.428907 23.770283 0.035591
5.742730 23.770283 0.037053
6.056554 23.770283 0.038771
6.370377 23.770283 0.040855
6.684199 23.770283 0.043774
6.998022 23.770283 0.047693
7.311846 23.770283 0.053455
7.625669 23.770283 0.061015
7.939491 23.770283 0.072070
8.253315 23.770283 0.085700
8.567138 23.770283 0.106351
8.880960 23.770283 0.139725
9.194784 23.770283 0.201413
9.508606 23.770283 0.304675
9.822430 23.770283 0.461027
10.136253 23.770283 0.672481
10.450075 23.770283 0.909426
10.763899 23.770283 1.172227
11.077723 23.770283 1.445995
11.391544 23.770283 1.733632
11.705368 23.770283 2.023580
12.019190 23.770283 2.305672
12.333014 23.770283 2.577050
12.646837 23.770283 2.817151
12.960659 23.770283 3.021751
13.274483 23.770283 3.148972
13.588306 23.770283 3.249135
13.902128 23.770283 3.340339
14.215952 23.770283 3.393024
14.529776 23.770283 3.394322
14.843597 23.770283 3.349372
15.157421 23.770283 3.219122
15.471243 23.770283 3.038092
15.785067 23.770283 2.786863
16.098890 23.770283 2.510873
16.412712 23.770283 2.187352
16.726536 23.770283 1.908151
17.040359 23.770283 1.682616
17.354181 23.770283 1.557441
17.668005 23.770283 1.545136
17.981829 23.770283 1.618741
18.295650 23.770283 1.865870
18.609474 23.770283 2.226782
18.923298 23.770283 1.925490
19.237120 23.770283 0.000000
-6.810190 23.456461 0.000000
-6.496367 23.456461 0.028890
-6.182544 23.456461 0.027130
-5.868721 23.456461 0.027077
-5.554898 23.456461 0.027311
-5.241075 23.456461 0.027261
-4.927252 23.456461 0.026996
-4.613429 23.456461 0.026790
-4.299606 23.456461 0.026557
-3.985783 23.456461 0.026472
-3.671960 23.456461 0.026447
-3.358137 23.456461 0.026279
-3.044314 23.456461 0.026127
-2.730491 23.456461 0.026015
-2.416668 23.456461 0.026013
-2.102845 23.456461 0.026221
-1.789022 23.456461 0.026372
-1.475199 23.456461 0.026297
-1.161376 23.456461 0.026187
-0.847553 23.456461 0.026246
-0.533730 23.456461 0.026307
-0.219907 23.456461 0.026474
0.093916 23.456461 0.026901
0.407739 23.456461 0.027366
0.721562 23.456461 0.027615
1.035385 23.456461 0.027694
1.349208 23.456461 0.027585
1.663032 23.456461 0.027351
1.976854 23.456461 0.027126
2.290677 23.456461 0.027063
2.604500 23.456461 0.027272
2.918324 23.456461 0.027518
3.232146 23.456461 0.028108
3.545969 23.456461 0.029031
3.859793 23.456461 0.030151
4.173615 23.456461 0.031386
4.487438 23.456461 0.032492
4.801261 23.456461 0.033405
5.115085 23.456461 0.034174
5.428907 23.456461 0.034913
5.742730 23.456461 0.036099
6.056554 23.456461 0.037839
6.370377 23.456461 0.040166
6.684199 23.456461 0.043574
6.998022 23.456461 0.048273
7.311846 23.456461 0.054488
7.625669 23.456461 0.062918
7.939491 23.456461 0.073657
8.253315 23.456461 0.087076
8.567138 23.456461 0.106237
8.880960 23.456461 0.140889
9.194784 23.456461 0.203358
9.508606 23.456461 0.305160
9.822430 23.456461 0.461379
10.136253 23.456461 0.669569
10.450075 23.456461 0.905028
10.763899 23.456461 1.168225
11.077723 23.456461 1.437291
11.391544 23.456461 1.722314
11.705368 23.456461 2.002744
12.019190 23.456461 2.294447
12.333014 23.456461 2.572641
12.646837 23.456461 2.792697
12.960659 23.456461 2.994683
13.274483 23.456461 3.145305
13.588306 23.456461 3.253396
13.902128 23.456461 3.339660
14.215952 23.456461 3.403018
14.529776 23.456461 3.412524
14.843597 23.456461 3.342048
15.157421 23.456461 3.221594
15.471243 23.456461 3.048664
15.785067 23.456461 2.792546
16.098890 23.456461 2.508192
16.412712 23.456461 2.185940
16.726536 23.456461 1.910539
17.040359 23.456461 1.702521
17.354181 23.456461 1.567490
17.668005 23.456461 1.548322
17.981829 23.456461 1.639438
18.295650 23.456461 1.896179
18.609474 23.456461 2.236154
18.923298 23.456461 1.857003
19.237120 23.456461 0.000000
-6.810190 23.142637 0.000000
-6.496367 23.142637 0.029203
-6.182544 23.142637 0.027181
-5.868721 23.142637 0.027025
-5.554898 23.142637 0.027143
-5.241075 23.142637 0.027057
-4.927252 23.142637 0.026782
-4.613429 23.142637 0.026462
-4.299606 23.142637 0.026214
-3.985783 23.142637 0.026255
-3.671960 23.142637 0.026290
-3.358137 23.142637 0.026167
-3.044314 23.142637 0.026050
-2.730491 23.142637 0.025960
-2.416668 23.142637 0.025948
-2.102845 23.142637 0.026086
-1.789022 23.142637 0.026230
-1.475199 23.142637 0.026235
-1.161376 23.142637 0.026203
-0.847553 23.142637 0.026350
-0.533730 23.142637 0.026529
-0.219907 23.142637 0.026726
0.093916 23.142637 0.027037
0.407739 23.142637 0.027338
0.721562 23.142637 0.027405
1.035385 23.142637 0.027327
1.349208 23.142637 0.027104
1.663032 23.142637 0.026897
1.976854 23.142637 0.026762
2.290677 23.142637 0.026907
2.604500 23.142637 0.027283
2.918324 23.142637 0.027759
3.232146 23.142637 0.028565
3.545969 23.142637 0.029649
3.859793 23.142637 0.030758
4.173615 23.142637 0.031740
4.487438 23.142637 0.032361
4.801261 23.142637 0.032862
5.115085 23.142637 0.033360
5.428907 23.142637 0.033982
5.742730 23.142637 0.035260
6.056554 23.142637 0.037380
6.370377 23.142637 0.040258
6.684199 23.142637 0.044087
6.998022 23.142637 0.049392
7.311846 23.142637 0.056078
7.625669 23.142637 0.064382
7.939491 23.142637 0.074683
8.253315 23.142637 0.088417
8.567138 23.142637 0.107121
8.880960 23.142637 0.141186
9.194784 23.142637 0.203346
9.508606 23.142637 0.305326
9.822430 23.142637 0.461595
10.136253 23.142637 0.669890
10.450075 23.142637 0.903564
10.763899 23.142637 1.152792
11.077723 23.142637 1.442104
11.391544 23.142637 1.727170
11.705368 23.142637 2.023716
12.019190 23.142637 2.314469
12.333014 23.142637 2.559185
12.646837 23.142637 2.809636
12.960659 23.142637 2.970050
13.274483 23.142637 3.153007
13.588306 23.142637 3.276634
13.902128 23.142637 3.353654
14.215952 23.142637 3.416113
14.529776 23.142637 3.419097
14.843597 23.142637 3.335196
15.157421 23.142637 3.245173
15.471243 23.142637 3.054376
15.785067 23.142637 2.808220
16.098890 23.142637 2.524929
16.412712 23.142637 2.214880
16.726536 23.142637 1.926214
17.040359 23.142637 1.704334
17.354181 23.142637 1.578838
17.668005 23.142637 1.569872
17.981829 23.142637 1.663118
18.295650 23.142637 1.900494
18.609474 23.142637 2.241399
18.923298 23.142637 1.833489
19.237120 23.142637 0.000000
-6.810190 22.828814 0.000000
-6.496367 22.828814 0.029439
-6.182544 22.828814 0.027219
-5.868721 22.828814 0.026916
-5.554898 22.828814 0.026928
-5.241075 22.828814 0.026839
-4.927252 22.828814 0.026593
-4.613429 22.828814 0.026282
-4.299606 22.828814 0.026027
-3.985783 22.828814 0.026141
-3.671960 22.828814 0.026239
-3.358137 22.828814 0.026155
-3.044314 22.828814 0.026022
-2.730491 22.828814 0.025912
-2.416668 22.828814 0.025876
-2.102845 22.828814 0.025948
-1.789022 22.828814 0.026136
-1.475199 22.828814 0.026286
-1.161376 22.828814 0.026416
-0.847553 22.828814 0.026642
-0.533730 22.828814 0.026831
-0.219907 22.828814 0.026907
0.093916 22.828814 0.026976
0.407739 22.828814 0.027046
0.721562 22.828814 0.026933
1.035385 22.828814 0.026728
1.349208 22.828814 0.026548
1.663032 22.828814 0.026554
1.976854 22.828814 0.026695
2.290677 22.828814 0.027112
2.604500 22.828814 0.027616
2.918324 22.828814 0.028240
3.232146 22.828814 0.029137
3.545969 22.828814 0.030085
3.859793 22.828814 0.030902
4.173615 22.828814 0.031414
4.487438 22.828814 0.031590
4.801261 22.828814 0.031909
5.115085 22.828814 0.032466
5.428907 22.828814 0.033384
5.742730 22.828814 0.035070
6.056554 22.828814 0.037605
6.370377 22.828814 0.041113
6.684199 22.828814 0.045360
6.998022 22.828814 0.050817
7.311846 22.828814 0.057091
7.625669 22.828814 0.064150
7.939491 22.828814 0.073781
8.253315 22.828814 0.086670
8.567138 22.828814 0.106897
8.880960 22.828814 0.138303
9.194784 22.828814 0.198259
9.508606 22.828814 0.308366
9.822430 22.828814 0.469062
10.136253 22.828814 0.667822
10.450075 22.828814 0.909275
10.763899 22.828814 1.148673
11.077723 22.828814 1.424187
11.391544 22.828814 1.737324
11.705368 22.828814 2.037269
12.019190 22.828814 2.313284
12.333014 22.828814 2.580448
12.646837 22.828814 2.811578
12.960659 22.828814 2.969788
13.274483 22.828814 3.145615
13.588306 22.828814 3.302975
13.902128 22.828814 3.370332
14.215952 22.828814 3.408405
14.529776 22.828814 3.410633
14.843597 22.828814 3.364269
15.157421 22.828814 3.255941
15.471243 22.828814 3.056501
15.785067 22.828814 2.815993
16.098890 22.828814 2.537583
16.412712 22.828814 2.218997
16.726536 22.828814 1.937559
17.040359 22.828814 1.704960
17.354181 22.828814 1.568795
17.668005 22.828814 1.560336
17.981829 22.828814 1.684723
18.295650 22.828814 1.917598
18.609474 22.828814 2.265636
18.923298 22.828814 1.853076
19.237120 22.828814 0.000000
-6.810190 22.514992 0.000000
-6.496367 22.514992 0.029514
-6.182544 22.514992 0.027227
-5.868721 22.514992 0.026818
-5.554898 22.514992 0.026757
-5.241075 22.514992 0.026688
-4.927252 22.514992 0.026507
-4.613429 22.514992 0.026223
-4.299606 22.514992 0.025944
-3.985783 22.514992 0.026044
-3.671960 22.514992 0.026194
-3.358137 22.514992 0.026141
-3.044314 22.514992 0.025992
-2.730491 22.514992 0.025858
-2.416668 22.514992 0.025848
-2.102845 22.514992 0.025956
-1.789022 22.514992 0.026205
-1.475199 22.514992 0.026457
-1.161376 22.514992 0.026698
-0.847553 22.514992 0.026895
-0.533730 22.514992 0.026934
-0.219907 22.514992 0.026819
0.093916 22.514992 0.026631
0.407739 22.514992 0.026481
0.721562 22.514992 0.026297
1.035385 22.514992 0.026191
1.349208 22.514992 0.026213
1.663032 22.514992 0.026513
1.976854 22.514992 0.027021
2.290677 22.514992 0.027629
2.604500 22.514992 0.028145
2.918324 22.514992 0.028708
3.232146 22.514992 0.029425
3.545969 22.514992 0.030034
3.859793 22.514992 0.030396
4.173615 22.514992 0.030524
4.487438 22.514992 0.030529
4.801261 22.514992 0.030999
5.115085 22.514992 0.031946
5.428907 22.514992 0.033420
5.742730 22.514992 0.035628
6.056554 22.514992 0.038574
6.370377 22.514992 0.042274
6.684199 22.514992 0.046682
6.998022 22.514992 0.051338
7.311846 22.514992 0.056873
7.625669 22.514992 0.063539
7.939491 22.514992 0.071941
8.253315 22.514992 0.084037
8.567138 22.514992 0.104169
8.880960 22.514992 0.141343
9.194784 22.514992 0.201326
9.508606 22.514992 0.313549
9.822430 22.514992 0.478352
10.136253 22.514992 0.677699
10.450075 22.514992 0.910074
10.763899 22.514992 1.148092
11.077723 22.514992 1.438565
11.391544 22.514992 1.742725
11.705368 22.514992 2.034641
12.019190 22.514992 2.326294
12.333014 22.514992 2.563676
12.646837 22.514992 2.793660
12.960659 22.514992 2.966508
13.274483 22.514992 3.144438
13.588306 22.514992 3.292747
13.902128 22.514992 3.391789
14.215952 22.514992 3.440221
14.529776 22.514992 3.424185
14.843597 22.514992 3.373812
15.157421 22.514992 3.276278
15.471243 22.514992 3.082269
15.785067 22.514992 2.852976
16.098890 22.514992 2.559641
16.412712 22.514992 2.248866
16.726536 22.514992 1.950188
17.040359 22.514992 1.706275
17.354181 22.514992 1.576020
17.668005 22.514992 1.569253
17.981829 22.514992 1.689962
18.295650 22.514992 1.930394
18.609474 22.514992 2.261232
18.923298 22.514992 1.873677
19.237120 22.514992 0.000000
-6.810190 22.201168 0.000000
-6.496367 22.201168 0.029417
-6.182544 22.201168 0.027198
-5.868721 22.201168 0.026806
-5.554898 22.201168 0.026726
-5.241075 22.201168 0.026651
-4.927252 22.201168 0.026487
-4.613429 22.201168 0.026205
-4.299606 22.201168 0.025902
-3.985783 22.201168 0.025960
-3.671960 22.201168 0.026090
-3.358137 22.201168 0.026120
-3.044314 22.201168 0.026015
-2.730491 22.201168 0.025916
-2.416668 22.201168 0.025953
-2.102845 22.201168 0.026144
-1.789022 22.201168 0.026403
-1.475199 22.201168 0.026639
-1.161376 22.201168 0.026833
-0.847553 22.201168 0.026856
-0.533730 22.201168 0.026701
-0.219907 22.201168 0.026427
0.093916 22.201168 0.026115
0.407739 22.201168 0.025901
0.721562 22.201168 0.025810
1.035385 22.201168 0.025916
1.349208 22.201168 0.026285
1.663032 22.201168 0.026857
1.976854 22.201168 0.027545
2.290677 22.201168 0.028181
2.604500 22.201168 0.028550
2.918324 22.201168 0.028860
3.232146 22.201168 0.029202
3.545969 22.201168 0.029409
3.859793 22.201168 0.029471
4.173615 22.201168 0.029437
4.487438 22.201168 0.029675
4.801261 22.201168 0.030614
5.115085 22.201168 0.032150
5.428907 22.201168 0.034204
5.742730 22.201168 0.036788
6.056554 22.201168 0.039715
6.370377 22.201168 0.043173
6.684199 22.201168 0.047051
6.998022 22.201168 0.050632
7.311846 22.201168 0.055541
7.625669 22.201168 0.061902
7.939491 22.201168 0.070694
8.253315 22.201168 0.083793
8.567138 22.201168 0.104045
8.880960 22.201168 0.139466
9.194784 22.201168 0.205796
9.508606 22.201168 0.323274
9.822430 22.201168 0.483098
10.136253 22.201168 0.686770
10.450075 22.201168 0.916050
10.763899 22.201168 1.155939
11.077723 22.201168 1.457631
11.391544 22.201168 1.747685
11.705368 22.201168 2.044432
12.019190 22.201168 2.323525
12.333014 22.201168 2.567266
12.646837 22.201168 2.798094
12.960659 22.201168 2.982448
13.274483 22.201168 3.155681
13.588306 22.201168 3.293711
13.902128 22.201168 3.413852
14.215952 22.201168 3.460449
14.529776 22.201168 3.486431
14.843597 22.201168 3.417481
15.157421 22.201168 3.284931
15.471243 22.201168 3.129234
15.785067 22.201168 2.869680
16.098890 22.201168 2.588594
16.412712 22.201168 2.268132
16.726536 22.201168 1.970266
17.040359 22.201168 1.715249
17.354181 22.201168 1.584049
17.668005 22.201168 1.562860
17.981829 22.201168 1.684139
18.295650 22.201168 1.933139
18.609474 22.201168 2.255234
18.923298 22.201168 1.922898
19.237120 22.201168 0.000000
-6.810190 21.887346 0.000000
-6.496367 21.887346 0.029268
-6.182544 21.887346 0.027152
-5.868721 21.887346 0.026847
-5.554898 21.887346 0.026774
-5.241075 21.887346 0.026672
-4.927252 21.887346 0.026463
-4.613429 21.887346 0.026140
-4.299606 21.887346 0.025887
-3.985783 21.887346 0.025906
-3.671960 21.887346 0.025981
-3.358137 21.887346 0.026110
-3.044314 21.887346 0.026180
-2.730491 21.887346 0.026174
-2.416668 21.887346 0.026236
-2.102845 21.887346 0.026426
-1.789022 21.887346 0.026581
-1.475199 21.887346 0.026623
-1.161376 21.887346 0.026610
-0.847553 21.887346 0.026488
-0.533730 21.887346 0.026205
-0.219907 21.887346 0.025960
0.093916 21.887346 0.025717
0.407739 21.887346 0.025567
0.721562 21.887346 0.025682
1.035385 21.887346 0.026142
1.349208 21.887346 0.026709
1.663032 21.887346 0.027350
1.976854 21.887346 0.027973
2.290677 21.887346 0.028399
2.604500 21.887346 0.028492
2.918324 21.887346 0.028485
3.232146 21.887346 0.028464
3.545969 21.887346 0.028533
3.859793 21.887346 0.028608
4.173615 21.887346 0.028818
4.487438 21.887346 0.029513
4.801261 21.887346 0.030938
5.115085 21.887346 0.032893
5.428907 21.887346 0.035226
5.742730 21.887346 0.037808
6.056554 21.887346 0.040263
6.370377 21.887346 0.043114
6.684199 21.887346 0.046159
6.998022 21.887346 0.049564
7.311846 21.887346 0.053927
7.625669 21.887346 0.060624
7.939491 21.887346 0.069929
8.253315 21.887346 0.083430
8.567138 21.887346 0.104692
8.880960 21.887346 0.140664
9.194784 21.887346 0.204566
9.508606 21.887346 0.325123
9.822430 21.887346 0.489181
10.136253 21.887346 0.687816
10.450075 21.887346 0.909023
10.763899 21.887346 1.165244
11.077723 21.887346 1.457186
11.391544 21.887346 1.761674
11.705368 21.887346 2.048805
12.019190 21.887346 2.328714
12.333014 21.887346 2.577284
12.646837 21.887346 2.782955
12.960659 21.887346 2.979465
13.274483 21.887346 3.143506
13.588306 21.887346 3.307271
13.902128 21.887346 3.396484
14.215952 21.887346 3.485937
14.529776 21.887346 3.494248
14.843597 21.887346 3.446856
15.157421 21.887346 3.314977
15.471243 21.887346 3.162247
15.785067 21.887346 2.909358
16.098890 21.887346 2.586054
16.412712 21.887346 2.278183
16.726536 21.887346 1.961950
17.040359 21.887346 1.723359
17.354181 21.887346 1.578639
17.668005 21.887346 1.564378
17.981829 21.887346 1.689842
18.295650 21.887346 1.930615
18.609474 21.887346 2.286204
18.923298 21.887346 1.806511
19.237120 21.887346 0.000000
-6.810190 21.573523 0.000000
-6.496367 21.573523 0.029065
-6.182544 21.573523 0.027074
-5.868721 21.573523 0.026781
-5.554898 21.573523 0.026719
-5.241075 21.573523 0.026614
-4.927252 21.573523 0.026420
-4.613429 21.573523 0.026149
-4.299606 21.573523 0.025983
-3.985783 21.573523 0.025990
-3.671960 21.573523 0.025994
-3.358137 21.573523 0.026191
-3.044314 21.573523 0.026425
-2.730491 21.573523 0.026506
-2.416668 21.573523 0.026557
-2.102845 21.573523 0.026599
-1.789022 21.573523 0.026523
-1.475199 21.573523 0.026312
-1.161376 21.573523 0.026131
-0.847553 21.573523 0.025976
-0.533730 21.573523 0.025745
-0.219907 21.573523 0.025667
0.093916 21.573523 0.025678
0.407739 21.573523 0.025706
0.721562 21.573523 0.026063
1.035385 21.573523 0.026675
1.349208 21.573523 0.027260
1.663032 21.573523 0.027710
1.976854 21.573523 0.028035
2.290677 21.573523 0.028100
2.604500 21.573523 0.027946
2.918324 21.573523 0.027767
3.232146 21.573523 0.027658
3.545969 21.573523 0.027836
3.859793 21.573523 0.028239
4.173615 21.573523 0.028971
4.487438 21.573523 0.030085
4.801261 21.573523 0.031747
5.115085 21.573523 0.033743
5.428907 21.573523 0.035924
5.742730 21.573523 0.037983
6.056554 21.573523 0.039855
6.370377 21.573523 0.042168
6.684199 21.573523 0.044825
6.998022 21.573523 0.048062
7.311846 21.573523 0.052919
7.625669 21.573523 0.060389
7.939491 21.573523 0.070424
8.253315 21.573523 0.085055
8.567138 21.573523 0.106844
8.880960 21.573523 0.145372
9.194784 21.573523 0.212104
9.508606 21.573523 0.325459
9.822430 21.573523 0.483540
10.136253 21.573523 0.691669
10.450075 21.573523 0.917217
10.763899 21.573523 1.168096
11.077723 21.573523 1.447344
11.391544 21.573523 1.763817
11.705368 21.573523 2.059580
12.019190 21.573523 2.346870
12.333014 21.573523 2.579951
12.646837 21.573523 2.777452
12.960659 21.573523 2.972087
13.274483 21.573523 3.151298
13.588306 21.573523 3.291697
13.902128 21.573523 3.401340
14.215952 21.573523 3.472996
14.529776 21.573523 3.496684
14.843597 21.573523 3.463763
15.157421 21.573523 3.329781
15.471243 21.573523 3.155791
15.785067 21.573523 2.921879
16.098890 21.573523 2.610196
16.412712 21.573523 2.272423
16.726536 21.573523 1.962204
17.040359 21.573523 1.726965
17.354181 21.573523 1.581426
17.668005 21.573523 1.569163
17.981829 21.573523 1.668250
18.295650 21.573523 1.944075
18.609474 21.573523 2.304181
18.923298 21.573523 1.844621
19.237120 21.573523 0.000000
-6.810190 21.259699 0.000000
-6.496367 21.259699 0.028848
-6.182544 21.259699 0.026859
-5.868721 21.259699 0.026557
-5.554898 21.259699 0.026517
-5.241075 21.259699 0.026506
-4.927252 21.259699 0.026424
-4.613429 21.259699 0.026301
-4.299606 21.259699 0.026249
-3.985783 21.259699 0.026246
-3.671960 21.259699 0.026206
-3.358137 21.259699 0.026367
-3.044314 21.259699 0.026627
-2.730491 21.259699 0.026671
-2.416668 21.259699 0.026587
-2.102845 21.259699 0.026403
-1.789022 21.259699 0.026155
-1.475199 21.259699 0.025815
-1.161376 21.259699 0.025594
-0.847553 21.259699 0.025553
-0.533730 21.259699 0.025560
-0.219907 21.259699 0.025753
0.093916 21.259699 0.026065
0.407739 21.259699 0.026275
0.721562 21.259699 0.026671
1.035385 21.259699 0.027195
1.349208 21.259699 0.027527
1.663032 21.259699 0.027608
1.976854 21.259699 0.027551
2.290677 21.259699 0.027326
2.604500 21.259699 0.027129
2.918324 21.259699 0.027090
3.232146 21.259699 0.027292
3.545969 21.259699 0.027761
3.859793 21.259699 0.028567
4.173615 21.259699 0.029689
4.487438 21.259699 0.031035
4.801261 21.259699 0.032545
5.115085 21.259699 0.034162
5.428907 21.259699 0.035763
5.742730 21.259699 0.037218
6.056554 21.259699 0.038722
6.370377 21.259699 0.040833
6.684199 21.259699 0.043798
6.998022 21.259699 0.047712
7.311846 21.259699 0.053335
7.625669 21.259699 0.061424
7.939491 21.259699 0.072099
8.253315 21.259699 0.086652
8.567138 21.259699 0.109291
8.880960 21.259699 0.146137
9.194784 21.259699 0.214132
9.508606 21.259699 0.322740
9.822430 21.259699 0.485489
10.136253 21.259699 0.693121
10.450075 21.259699 0.920286
10.763899 21.259699 1.189162
11.077723 21.259699 1.464631
11.391544 21.259699 1.771138
11.705368 21.259699 2.050660
12.019190 21.259699 2.347259
12.333014 21.259699 2.573870
12.646837 21.259699 2.786037
12.960659 21.259699 2.969530
13.274483 21.259699 3.133154
13.588306 21.259699 3.303217
13.902128 21.259699 3.427516
14.215952 21.259699 3.494794
14.529776 21.259699 3.509975
14.843597 21.259699 3.462394
15.157421 21.259699 3.348060
15.471243 21.259699 3.182796
15.785067 21.259699 2.925042
16.098890 21.259699 2.593039
16.412712 21.259699 2.279308
16.726536 21.259699 1.967143
17.040359 21.259699 1.715059
17.354181 21.259699 1.587002
17.668005 21.259699 1.597684
17.981829 21.259699 1.674700
18.295650 21.259699 1.918045
18.609474 21.259699 2.313504
18.923298 21.259699 0.000000
19.237120 21.259699 0.000000
-6.810190 20.945877 0.000000
-6.496367 20.945877 0.028562
-6.182544 20.945877 0.026582
-5.868721 20.945877 0.026269
-5.554898 20.945877 0.026276
-5.241075 20.945877 0.026356
-4.927252 20.945877 0.026449
-4.613429 20.945877 0.026551
-4.299606 20.945877 0.026585
-3.985783 20.945877 0.026595
-3.671960 20.945877 0.026493
-3.358137 20.945877 0.026480
-3.044314 20.945877 0.026549
-2.730491 20.945877 0.026474
-2.416668 20.945877 0.026228
-2.102845 20.945877 0.025906
-1.789022 20.945877 0.025587
-1.475199 20.945877 0.025343
-1.161376 20.945877 0.025265
-0.847553 20.945877 0.025446
-0.533730 20.945877 0.025775
-0.219907 20.945877 0.026223
0.093916 20.945877 0.026648
0.407739 20.945877 0.026914
0.721562 20.945877 0.027130
1.035385 20.945877 0.027272
1.349208 20.945877 0.027212
1.663032 20.945877 0.026993
1.976854 20.945877 0.026729
2.290677 20.945877 0.026479
2.604500 20.945877 0.026486
2.918324 20.945877 0.026824
3.232146 20.945877 0.027491
3.545969 20.945877 0.028311
3.859793 20.945877 0.029315
4.173615 20.945877 0.030560
4.487438 20.945877 0.031789
4.801261 20.945877 0.032845
5.115085 20.945877 0.033836
5.428907 20.945877 0.034875
5.742730 20.945877 0.036060
6.056554 20.945877 0.037638
6.370377 20.945877 0.039989
6.684199 20.945877 0.043488
6.998022 20.945877 0.048242
7.311846 20.945877 0.054485
7.625669 20.945877 0.063107
7.939491 20.945877 0.073888
8.253315 20.945877 0.087856
8.567138 20.945877 0.108450
8.880960 20.945877 0.144321
9.194784 20.945877 0.212542
9.508606 20.945877 0.325003
9.822430 20.945877 0.481624
10.136253 20.945877 0.699839
10.450075 20.945877 0.937304
10.763899 20.945877 1.195126
11.077723 20.945877 1.476942
11.391544 20.945877 1.770917
11.705368 20.945877 2.062495
12.019190 20.945877 2.334865
12.333014 20.945877 2.577378
12.646837 20.945877 2.783456
12.960659 20.945877 2.953391
13.274483 20.945877 3.118958
13.588306 20.945877 3.295400
13.902128 20.945877 3.427383
14.215952 20.945877 3.489975
14.529776 20.945877 3.496353
14.843597 20.945877 3.453495
15.157421 20.945877 3.362369
15.471243 20.945877 3.204104
15.785067 20.945877 2.947158
16.098890 20.945877 2.600603
16.412712 20.945877 2.277304
16.726536 20.945877 1.977881
17.040359 20.945877 1.702998
17.354181 20.945877 1.573803
17.668005 20.945877 1.575795
17.981829 20.945877 1.679344
18.295650 20.945877 1.940295
18.609474 20.945877 2.320976
18.923298 20.945877 0.000000
19.237120 20.945877 0.000000
-6.810190 20.632053 0.000000
-6.496367 20.632053 0.028276
-6.182544 20.632053 0.026363
-5.868721 20.632053 0.026093
-5.554898 20.632053 0.026134
-5.241075 20.632053 0.026225
-4.927252 20.632053 0.026460
-4.613429 20.632053 0.026747
-4.299606 20.632053 0.026860
-3.985783 20.632053 0.026786
-3.671960 20.632053 0.026543
-3.358137 20.632053 0.026308
-3.044314 20.632053 0.026120
-2.730491 20.632053 0.025922
-2.416668 20.632053 0.025659
-2.102845 20.632053 0.025423
-1.789022 20.632053 0.025265
-1.475199 20.632053 0.025214
-1.161376 20.632053 0.025343
-0.847553 20.632053 0.025725
-0.533730 20.632053 0.026290
-0.219907 20.632053 0.026794
0.093916 20.632053 0.027139
0.407739 20.632053 0.027227
0.721562 20.632053 0.027085
1.035385 20.632053 0.026809
1.349208 20.632053 0.026459
1.663032 20.632053 0.026171
1.976854 20.632053 0.026029
2.290677 20.632053 0.026013
2.604500 20.632053 0.026411
2.918324 20.632053 0.027180
3.232146 20.632053 0.028183
3.545969 20.632053 0.029122
3.859793 20.632053 0.029977
4.173615 20.632053 0.030939
4.487438 20.632053 0.031760
4.801261 20.632053 0.032374
5.115085 20.632053 0.032932
5.428907 20.632053 0.033815
5.742730 20.632053 0.035154
6.056554 20.632053 0.037163
6.370377 20.632053 0.040074
6.684199 20.632053 0.044127
6.998022 20.632053 0.049243
7.311846 20.632053 0.055631
7.625669 20.632053 0.063754
7.939491 20.632053 0.073761
8.253315 20.632053 0.087387
8.567138 20.632053 0.107220
8.880960 20.632053 0.143643
9.194784 20.632053 0.213848
9.508606 20.632053 0.328643
9.822430 20.632053 0.490216
10.136253 20.632053 0.713168
10.450075 20.632053 0.936543
10.763899 20.632053 1.191418
11.077723 20.632053 1.472574
11.391544 20.632053 1.795830
11.705368 20.632053 2.068632
12.019190 20.632053 2.339313
12.333014 20.632053 2.574831
12.646837 20.632053 2.793814
12.960659 20.632053 2.956365
13.274483 20.632053 3.110829
13.588306 20.632053 3.328788
13.902128 20.632053 3.432917
14.215952 20.632053 3.491265
14.529776 20.632053 3.478344
14.843597 20.632053 3.474909
15.157421 20.632053 3.362477
15.471243 20.632053 3.190436
15.785067 20.632053 2.915131
16.098890 20.632053 2.618773
16.412712 20.632053 2.298915
16.726536 20.632053 1.962130
17.040359 20.632053 1.697387
17.354181 20.632053 1.558560
17.668005 20.632053 1.555957
17.981829 20.632053 1.674189
18.295650 20.632053 1.933327
18.609474 20.632053 2.331588
18.923298 20.632053 0.000000
19.237120 20.632053 0.000000
-6.810190 20.318230 0.000000
-6.496367 20.318230 0.028077
-6.182544 20.318230 0.026316
-5.868721 20.318230 0.026131
-5.554898 20.318230 0.026202
-5.241075 20.318230 0.026284
-4.927252 20.318230 0.026556
-4.613429 20.318230 0.026834
-4.299606 20.318230 0.026871
-3.985783 20.318230 0.026618
-3.671960 20.318230 0.026258
-3.358137 20.318230 0.025856
-3.044314 20.318230 0.025498
-2.730491 20.318230 0.025296
-2.416668 20.318230 0.025222
-2.102845 20.318230 0.025291
-1.789022 20.318230 0.025382
-1.475199 20.318230 0.025504
-1.161376 20.318230 0.025784
-0.847553 20.318230 0.026245
-0.533730 20.318230 0.026781
-0.219907 20.318230 0.027082
0.093916 20.318230 0.027129
0.407739 20.318230 0.026918
0.721562 20.318230 0.026505
1.035385 20.318230 0.026073
1.349208 20.318230 0.025739
1.663032 20.318230 0.025676
1.976854 20.318230 0.025899
2.290677 20.318230 0.026241
2.604500 20.318230 0.026921
2.918324 20.318230 0.027903
3.232146 20.318230 0.028885
3.545969 20.318230 0.029616
3.859793 20.318230 0.030069
4.173615 20.318230 0.030542
4.487438 20.318230 0.031009
4.801261 20.318230 0.031439
5.115085 20.318230 0.031962
5.428907 20.318230 0.033127
5.742730 20.318230 0.034980
6.056554 20.318230 0.037558
6.370377 20.318230 0.040913
6.684199 20.318230 0.045039
6.998022 20.318230 0.049929
7.311846 20.318230 0.056224
7.625669 20.318230 0.064047
7.939491 20.318230 0.073730
8.253315 20.318230 0.086452
8.567138 20.318230 0.105608
8.880960 20.318230 0.142195
9.194784 20.318230 0.215402
9.508606 20.318230 0.328143
9.822430 20.318230 0.494018
10.136253 20.318230 0.702497
10.450075 20.318230 0.935369
10.763899 20.318230 1.198073
11.077723 20.318230 1.488156
11.391544 20.318230 1.796174
11.705368 20.318230 2.056302
12.019190 20.318230 2.338762
12.333014 20.318230 2.583104
12.646837 20.318230 2.789970
12.960659 20.318230 2.948080
13.274483 20.318230 3.138100
13.588306 20.318230 3.304548
13.902128 20.318230 3.452631
14.215952 20.318230 3.516444
14.529776 20.318230 3.502047
14.843597 20.318230 3.463961
15.157421 20.318230 3.368676
15.471243 20.318230 3.184869
15.785067 20.318230 2.927709
16.098890 20.318230 2.626345
16.412712 20.318230 2.298743
16.726536 20.318230 1.973615
17.040359 20.318230 1.721017
17.354181 20.318230 1.554280
17.668005 20.318230 1.543882
17.981829 20.318230 1.665814
18.295650 20.318230 1.963389
18.609474 20.318230 2.408585
18.923298 20.318230 0.000000
19.237120 20.318230 0.000000
-6.810190 20.004408 0.000000
-6.496367 20.004408 0.028039
-6.182544 20.004408 0.026478
-5.868721 20.004408 0.026350
-5.554898 20.004408 0.026342
-5.241075 20.004408 0.026333
-4.927252 20.004408 0.026526
-4.613429 20.004408 0.026653
-4.299606 20.004408 0.026519
-3.985783 20.004408 0.026102
-3.671960 20.004408 0.025679
-3.358137 20.004408 0.025288
-3.044314 20.004408 0.024990
-2.730491 20.004408 0.024971
-2.416668 20.004408 0.025205
-2.102845 20.004408 0.025612
-1.789022 20.004408 0.025892
-1.475199 20.004408 0.026080
-1.161376 20.004408 0.026287
-0.847553 20.004408 0.026579
-0.533730 20.004408 0.026827
-0.219907 20.004408 0.026828
0.093916 20.004408 0.026579
0.407739 20.004408 0.026191
0.721562 20.004408 0.025796
1.035385 20.004408 0.025532
1.349208 20.004408 0.025534
1.663032 20.004408 0.025858
1.976854 20.004408 0.026393
2.290677 20.004408 0.026933
2.604500 20.004408 0.027620
2.918324 20.004408 0.028386
3.232146 20.004408 0.029066
3.545969 20.004408 0.029385
3.859793 20.004408 0.029443
4.173615 20.004408 0.029616
4.487438 20.004408 0.030029
4.801261 20.004408 0.030693
5.115085 20.004408 0.031603
5.428907 20.004408 0.033168
5.742730 20.004408 0.035584
6.056554 20.004408 0.038456
6.370377 20.004408 0.041772
6.684199 20.004408 0.045648
6.998022 20.004408 0.049924
7.311846 20.004408 0.055574
7.625669 20.004408 0.062877
7.939491 20.004408 0.072701
8.253315 20.004408 0.085071
8.567138 20.004408 0.106228
8.880960 20.004408 0.144472
9.194784 20.004408 0.215333
9.508606 20.004408 0.332217
9.822430 20.004408 0.494167
10.136253 20.004408 0.704832
10.450075 20.004408 0.940636
10.763899 20.004408 1.207976
11.077723 20.004408 1.492596
11.391544 20.004408 1.799155
11.705368 20.004408 2.050780
12.019190 20.004408 2.327564
12.333014 20.004408 2.555757
12.646837 20.004408 2.776312
12.960659 20.004408 2.944958
13.274483 20.004408 3.151630
13.588306 20.004408 3.341515
13.902128 20.004408 3.445012
14.215952 20.004408 3.491082
14.529776 20.004408 3.507575
14.843597 20.004408 3.494179
15.157421 20.004408 3.389902
15.471243 20.004408 3.197461
15.785067 20.004408 2.938293
16.098890 20.004408 2.650681
16.412712 20.004408 2.297103
16.726536 20.004408 1.981145
17.040359 20.004408 1.726436
17.354181 20.004408 1.584733
17.668005 20.004408 1.550231
17.981829 20.004408 1.671163
18.295650 20.004408 1.975627
18.609474 20.004408 2.427461
18.923298 20.004408 0.000000
19.237120 20.004408 0.000000
-6.810190 19.690584 0.000000
-6.496367 19.690584 0.028176
-6.182544 19.690584 0.026762
-5.868721 19.690584 0.026598
-5.554898 19.690584 0.026397
-5.241075 19.690584 0.026187
-4.927252 19.690584 0.026187
-4.613429 19.690584 0.026135
-4.299606 19.690584 0.025913
-3.985783 19.690584 0.025516
-3.671960 19.690584 0.025184
-3.358137 19.690584 0.024985
-3.044314 19.690584 0.024926
-2.730491 19.690584 0.025129
-2.416668 19.690584 0.025561
-2.102845 19.690584 0.026142
-1.789022 19.690584 0.026419
-1.475199 19.690584 0.026467
-1.161376 19.690584 0.026462
-0.847553 19.690584 0.026386
-0.533730 19.690584 0.026271
-0.219907 19.690584 0.026067
0.093916 19.690584 0.025796
0.407739 19.690584 0.025537
0.721562 19.690584 0.025412
1.035385 19.690584 0.025559
1.349208 19.690584 0.025957
1.663032 19.690584 0.026559
1.976854 19.690584 0.027136
2.290677 19.690584 0.027579
2.604500 19.690584 0.027914
2.918324 19.690584 0.028187
3.232146 19.690584 0.028541
3.545969 19.690584 0.028600
3.859793 19.690584 0.028555
4.173615 19.690584 0.028779
4.487438 19.690584 0.029474
4.801261 19.690584 0.030584
5.115085 19.690584 0.031933
5.428907 19.690584 0.033871
5.742730 19.690584 0.036424
6.056554 19.690584 0.039164
6.370377 19.690584 0.042039
6.684199 19.690584 0.045396
6.998022 19.690584 0.049355
7.311846 19.690584 0.054594
7.625669 19.690584 0.061715
7.939491 19.690584 0.071696
8.253315 19.690584 0.085954
8.567138 19.690584 0.108223
8.880960 19.690584 0.147947
9.194784 19.690584 0.219398
9.508606 19.690584 0.336959
9.822430 19.690584 0.502759
10.136253 19.690584 0.709195
10.450075 19.690584 0.944961
10.763899 19.690584 1.214189
11.077723 19.690584 1.497576
11.391544 19.690584 1.787381
11.705368 19.690584 2.050663
12.019190 19.690584 2.310935
12.333014 19.690584 2.556690
12.646837 19.690584 2.760905
12.960659 19.690584 2.943629
13.274483 19.690584 3.138607
13.588306 19.690584 3.303403
13.902128 19.690584 3.428547
14.215952 19.690584 3.483858
14.529776 19.690584 3.510499
14.843597 19.690584 3.514656
15.157421 19.690584 3.425330
15.471243 19.690584 3.238142
15.785067 19.690584 2.961707
16.098890 19.690584 2.644915
16.412712 19.690584 2.311937
16.726536 19.690584 1.989970
17.040359 19.690584 1.731326
17.354181 19.690584 1.572545
17.668005 19.690584 1.571232
17.981829 19.690584 1.682035
18.295650 19.690584 2.028254
18.609474 19.690584 2.476949
18.923298 19.690584 0.000000
19.237120 19.690584 0.000000
-6.810190 19.376760 0.000000
-6.496367 19.376760 0.028317
-6.182544 19.376760 0.026872
-5.868721 19.376760 0.026586
-5.554898 19.376760 0.026199
-5.241075 19.376760 0.025771
-4.927252 19.376760 0.025604
-4.613429 19.376760 0.025509
-4.299606 19.376760 0.025384
-3.985783 19.376760 0.025200
-3.671960 19.376760 0.025103
-3.358137 19.376760 0.025189
-3.044314 19.376760 0.025364
-2.730491 19.376760 0.025645
-2.416668 19.376760 0.026101
-2.102845 19.376760 0.026533
-1.789022 19.376760 0.026559
-1.475199 19.376760 0.026336
-1.161376 19.376760 0.026015
-0.847553 19.376760 0.025709
-0.533730 19.376760 0.025455
-0.219907 19.376760 0.025318
0.093916 19.376760 0.025288
0.407739 19.376760 0.025373
0.721562 19.376760 0.025614
1.035385 19.376760 0.026094
1.349208 19.376760 0.026696
1.663032 19.376760 0.027304
1.976854 19.376760 0.027606
2.290677 19.376760 0.027687
2.604500 19.376760 0.027545
2.918324 19.376760 0.027414
3.232146 19.376760 0.027663
3.545969 19.376760 0.027853
3.859793 19.376760 0.028057
4.173615 19.376760 0.028603
4.487438 19.376760 0.029669
4.801261 19.376760 0.031115
5.115085 19.376760 0.032650
5.428907 19.376760 0.034540
5.742730 19.376760 0.036851
6.056554 19.376760 0.039193
6.370377 19.376760 0.041707
6.684199 19.376760 0.044489
6.998022 19.376760 0.048373
7.311846 19.376760 0.053872
7.625669 19.376760 0.061426
7.939491 19.376760 0.072208
8.253315 19.376760 0.086416
8.567138 19.376760 0.110934
8.880960 19.376760 0.151291
9.194784 19.376760 0.221551
9.508606 19.376760 0.342342
9.822430 19.376760 0.510659
10.136253 19.376760 0.715438
10.450075 19.376760 0.952800
10.763899 19.376760 1.205522
11.077723 19.376760 1.495970
11.391544 19.376760 1.792656
11.705368 19.376760 2.047811
12.019190 19.376760 2.294887
12.333014 19.376760 2.545389
12.646837 19.376760 2.756826
12.960659 19.376760 2.942505
13.274483 19.376760 3.132912
13.588306 19.376760 3.295416
13.902128 19.376760 3.419352
14.215952 19.376760 3.482569
14.529776 19.376760 3.521007
14.843597 19.376760 3.522165
15.157421 19.376760 3.459362
15.471243 19.376760 3.263365
15.785067 19.376760 2.985389
16.098890 19.376760 2.668235
16.412712 19.376760 2.338042
16.726536 19.376760 1.991043
17.040359 19.376760 1.720758
17.354181 19.376760 1.594524
17.668005 19.376760 1.586815
17.981829 19.376760 1.722141
18.295650 19.376760 2.089996
18.609474 19.376760 2.559741
18.923298 19.376760 0.000000
19.237120 19.376760 0.000000
-6.810190 19.062939 0.000000
-6.496367 19.062939 0.028235
-6.182544 19.062939 0.026670
-5.868721 19.062939 0.026267
-5.554898 19.062939 0.025808
-5.241075 19.062939 0.025330
-4.927252 19.062939 0.025122
-4.613429 19.062939 0.025155
-4.299606 19.062939 0.025246
-3.985783 19.062939 0.025386
-3.671960 19.062939 0.025527
-3.358137 19.062939 0.025790
-3.044314 19.062939 0.026008
-2.730491 19.062939 0.026148
-2.416668 19.062939 0.026321
-2.102845 19.062939 0.026401
-1.789022 19.062939 0.026155
-1.475199 19.062939 0.025743
-1.161376 19.062939 0.025339
-0.847553 19.062939 0.025049
-0.533730 19.062939 0.024935
-0.219907 19.062939 0.025045
0.093916 19.062939 0.025323
0.407739 19.062939 0.025727
0.721562 19.062939 0.026181
1.035385 19.062939 0.026699
1.349208 19.062939 0.027193
1.663032 19.062939 0.027516
1.976854 19.062939 0.027449
2.290677 19.062939 0.027181
2.604500 19.062939 0.026813
2.918324 19.062939 0.026605
3.232146 19.062939 0.027000
3.545969 19.062939 0.027587
3.859793 19.062939 0.028216
4.173615 19.062939 0.029074
4.487438 19.062939 0.030363
4.801261 19.062939 0.031831
5.115085 19.062939 0.033221
5.428907 19.062939 0.034743
5.742730 19.062939 0.036581
6.056554 19.062939 0.038624
6.370377 19.062939 0.040886
6.684199 19.062939 0.043884
6.998022 19.062939 0.048215
7.311846 19.062939 0.054027
7.625669 19.062939 0.062083
7.939491 19.062939 0.072955
8.253315 19.062939 0.088038
8.567138 19.062939 0.111449
8.880960 19.062939 0.151269
9.194784 19.062939 0.226701
9.508606 19.062939 0.348259
9.822430 19.062939 0.515566
10.136253 19.062939 0.720550
10.450075 19.062939 0.953794
10.763899 19.062939 1.211679
11.077723 19.062939 1.493784
11.391544 19.062939 1.780449
11.705368 19.062939 2.021604
12.019190 19.062939 2.281322
12.333014 19.062939 2.525482
12.646837 19.062939 2.746895
12.960659 19.062939 2.935953
13.274483 19.062939 3.126536
13.588306 19.062939 3.293019
13.902128 19.062939 3.403718
14.215952 19.062939 3.463460
14.529776 19.062939 3.506348
14.843597 19.062939 3.523598
15.157421 19.062939 3.467929
15.471243 19.062939 3.266097
15.785067 19.062939 3.005038
16.098890 19.062939 2.670678
16.412712 19.062939 2.345630
16.726536 19.062939 1.996307
17.040359 19.062939 1.735465
17.354181 19.062939 1.585247
17.668005 19.062939 1.591401
17.981829 19.062939 1.749621
18.295650 19.062939 2.113095
18.609474 19.062939 2.560127
18.923298 19.062939 0.000000
19.237120 19.062939 0.000000
-6.810190 18.749115 0.000000
-6.496367 18.749115 0.027897
-6.182544 18.749115 0.026210
-5.868721 18.749115 0.025808
-5.554898 18.749115 0.025485
-5.241075 18.749115 0.025117
-4.927252 18.749115 0.025033
-4.613429 18.749115 0.025259
-4.299606 18.749115 0.025558
-3.985783 18.749115 0.025898
-3.671960 18.749115 0.026154
-3.358137 18.749115 0.026343
-3.044314 18.749115 0.026358
-2.730491 18.749115 0.026186
-2.416668 18.749115 0.026035
-2.102845 18.749115 0.025811
-1.789022 18.749115 0.025455
-1.475199 18.749115 0.025134
-1.161376 18.749115 0.024923
-0.847553 18.749115 0.024902
-0.533730 18.749115 0.025027
-0.219907 18.749115 0.025321
0.093916 18.749115 0.025754
0.407739 18.749115 0.026190
0.721562 18.749115 0.026574
1.035385 18.749115 0.026836
1.349208 18.749115 0.027057
1.663032 18.749115 0.027091
1.976854 18.749115 0.026853
2.290677 18.749115 0.026496
2.604500 18.749115 0.026204
2.918324 18.749115 0.026247
3.232146 18.749115 0.026917
3.545969 18.749115 0.027879
3.859793 18.749115 0.028819
4.173615 18.749115 0.029793
4.487438 18.749115 0.030976
4.801261 18.749115 0.032111
5.115085 18.749115 0.033103
5.428907 18.749115 0.034280
5.742730 18.749115 0.035888
6.056554 18.749115 0.037906
6.370377 18.749115 0.040378
6.684199 18.749115 0.043798
6.998022 18.749115 0.048581
7.311846 18.749115 0.054856
7.625669 18.749115 0.063303
7.939491 18.749115 0.073560
8.253315 18.749115 0.089505
8.567138 18.749115 0.110528
8.880960 18.749115 0.152169
9.194784 18.749115 0.230613
9.508606 18.749115 0.353784
9.822430 18.749115 0.521245
10.136253 18.749115 0.726398
10.450075 18.749115 0.954596
10.763899 18.749115 1.216988
11.077723 18.749115 1.499873
11.391544 18.749115 1.764059
11.705368 18.749115 2.025218
12.019190 18.749115 2.274652
12.333014 18.749115 2.526971
12.646837 18.749115 2.754202
12.960659 18.749115 2.948192
13.274483 18.749115 3.118422
13.588306 18.749115 3.285218
13.902128 18.749115 3.398115
14.215952 18.749115 3.492616
14.529776 18.749115 3.550803
14.843597 18.749115 3.527186
15.157421 18.749115 3.473919
15.471243 18.749115 3.260175
15.785067 18.749115 3.000185
16.098890 18.749115 2.675057
16.412712 18.749115 2.340207
16.726536 18.749115 1.997982
17.040359 18.749115 1.742740
17.354181 18.749115 1.588216
17.668005 18.749115 1.587599
17.981829 18.749115 1.763036
18.295650 18.749115 2.122929
18.609474 18.749115 2.578838
18.923298 18.749115 0.000000
19.237120 18.749115 0.000000
-6.810190 18.435291 0.000000
-6.496367 18.435291 0.027459
-6.182544 18.435291 0.025791
-5.868721 18.435291 0.025568
-5.554898 18.435291 0.025497
-5.241075 18.435291 0.025301
-4.927252 18.435291 0.025334
-4.613429 18.435291 0.025677
-4.299606 18.435291 0.026056
-3.985783 18.435291 0.026379
-3.671960 18.435291 0.026511
-3.358137 18.435291 0.026399
-3.044314 18.435291 0.026124
-2.730491 18.435291 0.025699
-2.416668 18.435291 0.025393
-2.102845 18.435291 0.025160
-1.789022 18.435291 0.025005
-1.475199 18.435291 0.024985
-1.161376 18.435291 0.025083
-0.847553 18.435291 0.025341
-0.533730 18.435291 0.025620
-0.219907 18.435291 0.025897
0.093916 18.435291 0.026218
0.407739 18.435291 0.026396
0.721562 18.435291 0.026463
1.035385 18.435291 0.026416
1.349208 18.435291 0.026433
1.663032 18.435291 0.026407
1.976854 18.435291 0.026292
2.290677 18.435291 0.026142
2.604500 18.435291 0.026155
2.918324 18.435291 0.026509
3.232146 18.435291 0.027349
3.545969 18.435291 0.028412
3.859793 18.435291 0.029369
4.173615 18.435291 0.030158
4.487438 18.435291 0.031040
4.801261 18.435291 0.031821
5.115085 18.435291 0.032564
5.428907 18.435291 0.033666
5.742730 18.435291 0.035363
6.056554 18.435291 0.037740
6.370377 18.435291 0.040681
6.684199 18.435291 0.044348
6.998022 18.435291 0.049309
7.311846 18.435291 0.055683
7.625669 18.435291 0.063783
7.939491 18.435291 0.074361
8.253315 18.435291 0.088463
8.567138 18.435291 0.110744
8.880960 18.435291 0.151290
9.194784 18.435291 0.230963
9.508606 18.435291 0.352668
9.822430 18.435291 0.525943
10.136253 18.435291 0.732133
10.450075 18.435291 0.965451
10.763899 18.435291 1.220348
11.077723 18.435291 1.503013
11.391544 18.435291 1.790545
11.705368 18.435291 2.031895
12.019190 18.435291 2.285088
12.333014 18.435291 2.516376
12.646837 18.435291 2.755629
12.960659 18.435291 2.942152
13.274483 18.435291 3.128950
13.588306 18.435291 3.293260
13.902128 18.435291 3.437556
14.215952 18.435291 3.542388
14.529776 18.435291 3.556516
14.843597 18.435291 3.535363
15.157421 18.435291 3.456197
15.471243 18.435291 3.289250
15.785067 18.435291 3.011553
16.098890 18.435291 2.715550
16.412712 18.435291 2.357887
16.726536 18.435291 2.046909
17.040359 18.435291 1.741840
17.354181 18.435291 1.599024
17.668005 18.435291 1.577043
17.981829 18.435291 1.746290
18.295650 18.435291 2.118830
18.609474 18.435291 2.584078
18.923298 18.435291 0.000000
19.237120 18.435291 0.000000
-6.810190 18.121469 0.000000
-6.496367 18.121469 0.027258
-6.182544 18.121469 0.025700
-5.868721 18.121469 0.025675
-5.554898 18.121469 0.025836
-5.241075 18.121469 0.025781
-4.927252 18.121469 0.025794
-4.613429 18.121469 0.026055
-4.299606 18.121469 0.026310
-3.985783 18.121469 0.026407
-3.671960 18.121469 0.026286
-3.358137 18.121469 0.025929
-3.044314 18.121469 0.025494
-2.730491 18.121469 0.025074
-2.416668 18.121469 0.024895
-2.102845 18.121469 0.024878
-1.789022 18.121469 0.025031
-1.475199 18.121469 0.025330
-1.161376 18.121469 0.025660
-0.847553 18.121469 0.025998
-0.533730 18.121469 0.026197
-0.219907 18.121469 0.026233
0.093916 18.121469 0.026196
0.407739 18.121469 0.026026
0.721562 18.121469 0.025865
1.035385 18.121469 0.025759
1.349208 18.121469 0.025798
1.663032 18.121469 0.025940
1.976854 18.121469 0.026122
2.290677 18.121469 0.026314
2.604500 18.121469 0.026633
2.918324 18.121469 0.027061
3.232146 18.121469 0.027813
3.545969 18.121469 0.028650
3.859793 18.121469 0.029381
4.173615 18.121469 0.029888
4.487438 18.121469 0.030537
4.801261 18.121469 0.031206
5.115085 18.121469 0.032009
5.428907 18.121469 0.033325
5.742730 18.121469 0.035295
6.056554 18.121469 0.038014
6.370377 18.121469 0.041388
6.684199 18.121469 0.045180
6.998022 18.121469 0.049929
7.311846 18.121469 0.056017
7.625669 18.121469 0.063626
7.939491 18.121469 0.073853
8.253315 18.121469 0.087543
8.567138 18.121469 0.112014
8.880960 18.121469 0.153185
9.194784 18.121469 0.231570
9.508606 18.121469 0.357685
9.822430 18.121469 0.527406
10.136253 18.121469 0.738191
10.450075 18.121469 0.971798
10.763899 18.121469 1.227997
11.077723 18.121469 1.511083
11.391544 18.121469 1.798975
11.705368 18.121469 2.052606
12.019190 18.121469 2.282668
12.333014 18.121469 2.508614
12.646837 18.121469 2.747729
12.960659 18.121469 2.956112
13.274483 18.121469 3.139404
13.588306 18.121469 3.299887
13.902128 18.121469 3.455662
14.215952 18.121469 3.567993
14.529776 18.121469 3.596668
14.843597 18.121469 3.545594
15.157421 18.121469 3.454019
15.471243 18.121469 3.308838
15.785067 18.121469 3.020314
16.098890 18.121469 2.719299
16.412712 18.121469 2.397732
16.726536 18.121469 2.064141
17.040359 18.121469 1.778265
17.354181 18.121469 1.602473
17.668005 18.121469 1.578434
17.981829 18.121469 1.752996
18.295650 18.121469 2.121825
18.609474 18.121469 2.571262
18.923298 18.121469 0.000000
19.237120 18.121469 0.000000
-6.810190 17.807646 0.000000
-6.496367 17.807646 0.027468
-6.182544 17.807646 0.026006
-5.868721 17.807646 0.026063
-5.554898 17.807646 0.026283
-5.241075 17.807646 0.026220
-4.927252 17.807646 0.026076
-4.613429 17.807646 0.026043
-4.299606 17.807646 0.026033
-3.985783 17.807646 0.025899
-3.671960 17.807646 0.025659
-3.358137 17.807646 0.025347
-3.044314 17.807646 0.025048
-2.730491 17.807646 0.024857
-2.416668 17.807646 0.024882
-2.102845 17.807646 0.025088
-1.789022 17.807646 0.025453
-1.475199 17.807646 0.025889
-1.161376 17.807646 0.026182
-0.847553 17.807646 0.026305
-0.533730 17.807646 0.026268
-0.219907 17.807646 0.025989
0.093916 17.807646 0.025677
0.407739 17.807646 0.025361
0.721562 17.807646 0.025241
1.035385 17.807646 0.025332
1.349208 17.807646 0.025546
1.663032 17.807646 0.025938
1.976854 17.807646 0.026363
2.290677 17.807646 0.026772
2.604500 17.807646 0.027161
2.918324 17.807646 0.027467
3.232146 17.807646 0.027897
3.545969 17.807646 0.028370
3.859793 17.807646 0.028874
4.173615 17.807646 0.029303
4.487438 17.807646 0.029952
4.801261 17.807646 0.030790
5.115085 17.807646 0.031889
5.428907 17.807646 0.033539
5.742730 17.807646 0.035674
6.056554 17.807646 0.038449
6.370377 17.807646 0.041687
6.684199 17.807646 0.045353
6.998022 17.807646 0.049977
7.311846 17.807646 0.055747
7.625669 17.807646 0.063685
7.939491 17.807646 0.073345
8.253315 17.807646 0.088693
8.567138 17.807646 0.112627
8.880960 17.807646 0.154962
9.194784 17.807646 0.235676
9.508606 17.807646 0.365470
9.822430 17.807646 0.529526
10.136253 17.807646 0.736326
10.450075 17.807646 0.975357
10.763899 17.807646 1.223495
11.077723 17.807646 1.510415
11.391544 17.807646 1.799056
11.705368 17.807646 2.045979
12.019190 17.807646 2.288041
12.333014 17.807646 2.525326
12.646837 17.807646 2.748034
12.960659 17.807646 2.947575
13.274483 17.807646 3.128366
13.588306 17.807646 3.305615
13.902128 17.807646 3.471177
14.215952 17.807646 3.575149
14.529776 17.807646 3.594763
14.843597 17.807646 3.560027
15.157421 17.807646 3.498379
15.471243 17.807646 3.293753
15.785067 17.807646 3.032700
16.098890 17.807646 2.742187
16.412712 17.807646 2.415452
16.726536 17.807646 2.095038
17.040359 17.807646 1.788512
17.354181 17.807646 1.629145
17.668005 17.807646 1.586692
17.981829 17.807646 1.770622
18.295650 17.807646 2.135260
18.609474 17.807646 2.650900
18.923298 17.807646 0.000000
19.237120 17.807646 0.000000
-6.810190 17.493824 0.000000
-6.496367 17.493824 0.027831
-6.182544 17.493824 0.026346
-5.868721 17.493824 0.026317
-5.554898 17.493824 0.026414
-5.241075 17.493824 0.026189
-4.927252 17.493824 0.025852
-4.613429 17.493824 0.025596
-4.299606 17.493824 0.025425
-3.985783 17.493824 0.025261
-3.671960 17.493824 0.025126
-3.358137 17.493824 0.025055
-3.044314 17.493824 0.025072
-2.730491 17.493824 0.025153
-2.416668 17.493824 0.025274
-2.102845 17.493824 0.025508
-1.789022 17.493824 0.025820
-1.475199 17.493824 0.026118
-1.161376 17.493824 0.026191
-0.847553 17.493824 0.026065
-0.533730 17.493824 0.025836
-0.219907 17.493824 0.025474
0.093916 17.493824 0.025145
0.407739 17.493824 0.024937
0.721562 17.493824 0.025013
1.035385 17.493824 0.025364
1.349208 17.493824 0.025810
1.663032 17.493824 0.026249
1.976854 17.493824 0.026674
2.290677 17.493824 0.027070
2.604500 17.493824 0.027326
2.918324 17.493824 0.027443
3.232146 17.493824 0.027544
3.545969 17.493824 0.027809
3.859793 17.493824 0.028266
4.173615 17.493824 0.028889
4.487438 17.493824 0.029718
4.801261 17.493824 0.030814
5.115085 17.493824 0.032231
5.428907 17.493824 0.034005
5.742730 17.493824 0.036042
6.056554 17.493824 0.038597
6.370377 17.493824 0.041599
6.684199 17.493824 0.045246
6.998022 17.493824 0.049783
7.311846 17.493824 0.055541
7.625669 17.493824 0.063567
7.939491 17.493824 0.073069
8.253315 17.493824 0.088263
8.567138 17.493824 0.114591
8.880960 17.493824 0.160685
9.194784 17.493824 0.240277
9.508606 17.493824 0.369221
9.822430 17.493824 0.540898
10.136253 17.493824 0.749118
10.450075 17.493824 0.985955
10.763899 17.493824 1.232434
11.077723 17.493824 1.527252
11.391544 17.493824 1.800468
11.705368 17.493824 2.052089
12.019190 17.493824 2.294935
12.333014 17.493824 2.533352
12.646837 17.493824 2.727588
12.960659 17.493824 2.945560
13.274483 17.493824 3.147672
13.588306 17.493824 3.315180
13.902128 17.493824 3.449371
14.215952 17.493824 3.585878
14.529776 17.493824 3.622023
14.843597 17.493824 3.591327
15.157421 17.493824 3.526622
15.471243 17.493824 3.313367
15.785067 17.493824 3.057312
16.098890 17.493824 2.765719
16.412712 17.493824 2.436848
16.726536 17.493824 2.089799
17.040359 17.493824 1.800683
17.354181 17.493824 1.634086
17.668005 17.493824 1.611777
17.981829 17.493824 1.771751
18.295650 17.493824 2.170385
18.609474 17.493824 2.626856
18.923298 17.493824 0.000000
19.237120 17.493824 0.000000
-6.810190 17.180000 0.000000
-6.496367 17.180000 0.027990
-6.182544 17.180000 0.026385
-5.868721 17.180000 0.026129
-5.554898 17.180000 0.026054
-5.241075 17.180000 0.025754
-4.927252 17.180000 0.025419
-4.613429 17.180000 0.025141
-4.299606 17.180000 0.024971
-3.985783 17.180000 0.024952
-3.671960 17.180000 0.025037
-3.358137 17.180000 0.025250
-3.044314 17.180000 0.025531
-2.730491 17.180000 0.025678
-2.416668 17.180000 0.025693
-2.102845 17.180000 0.025712
-1.789022 17.180000 0.025759
-1.475199 17.180000 0.025828
-1.161376 17.180000 0.025710
-0.847553 17.180000 0.025526
-0.533730 17.180000 0.025350
-0.219907 17.180000 0.025178
0.093916 17.180000 0.025053
0.407739 17.180000 0.025051
0.721562 17.180000 0.025342
1.035385 17.180000 0.025762
1.349208 17.180000 0.026186
1.663032 17.180000 0.026461
1.976854 17.180000 0.026674
2.290677 17.180000 0.026926
2.604500 17.180000 0.027057
2.918324 17.180000 0.027056
3.232146 17.180000 0.027162
3.545969 17.180000 0.027473
3.859793 17.180000 0.028028
4.173615 17.180000 0.028886
4.487438 17.180000 0.029872
4.801261 17.180000 0.031087
5.115085 17.180000 0.032621
5.428907 17.180000 0.034349
5.742730 17.180000 0.036124
6.056554 17.180000 0.038286
6.370377 17.180000 0.041097
6.684199 17.180000 0.044605
6.998022 17.180000 0.049391
7.311846 17.180000 0.055246
7.625669 17.180000 0.063188
7.939491 17.180000 0.073384
8.253315 17.180000 0.089604
8.567138 17.180000 0.114166
8.880960 17.180000 0.160703
9.194784 17.180000 0.244233
9.508606 17.180000 0.376667
9.822430 17.180000 0.548533
10.136253 17.180000 0.765268
10.450075 17.180000 1.004434
10.763899 17.180000 1.260877
11.077723 17.180000 1.539281
11.391544 17.180000 1.811741
11.705368 17.180000 2.062613
12.019190 17.180000 2.313846
12.333014 17.180000 2.520114
12.646837 17.180000 2.718453
12.960659 17.180000 2.952450
13.274483 17.180000 3.146256
13.588306 17.180000 3.318184
13.902128 17.180000 3.444126
14.215952 17.180000 3.561359
14.529776 17.180000 3.625957
14.843597 17.180000 3.623387
15.157421 17.180000 3.547543
15.471243 17.180000 3.332433
15.785067 17.180000 3.079086
16.098890 17.180000 2.773510
16.412712 17.180000 2.443949
16.726536 17.180000 2.100015
17.040359 17.180000 1.822506
17.354181 17.180000 1.659865
17.668005 17.180000 1.624603
17.981829 17.180000 1.804424
18.295650 17.180000 2.143838
18.609474 17.180000 2.682538
18.923298 17.180000 0.000000
19.237120 17.180000 0.000000
-6.810190 16.866177 0.000000
-6.496367 16.866177 0.027748
-6.182544 16.866177 0.026019
-5.868721 16.866177 0.025635
-5.554898 16.866177 0.025523
-5.241075 16.866177 0.025326
-4.927252 16.866177 0.025181
-4.613429 16.866177 0.025039
-4.299606 16.866177 0.024969
-3.985783 16.866177 0.025083
-3.671960 16.866177 0.025318
-3.358137 16.866177 0.025678
-3.044314 16.866177 0.025981
-2.730491 16.866177 0.025932
-2.416668 16.866177 0.025685
-2.102845 16.866177 0.025453
-1.789022 16.866177 0.025314
-1.475199 16.866177 0.025284
-1.161376 16.866177 0.025177
-0.847553 16.866177 0.025124
-0.533730 16.866177 0.025169
-0.219907 16.866177 0.025312
0.093916 16.866177 0.025436
0.407739 16.866177 0.025546
0.721562 16.866177 0.025824
1.035385 16.866177 0.026091
1.349208 16.866177 0.026267
1.663032 16.866177 0.026267
1.976854 16.866177 0.026300
2.290677 16.866177 0.026486
2.604500 16.866177 0.026664
2.918324 16.866177 0.026781
3.232146 16.866177 0.027088
3.545969 16.866177 0.027582
3.859793 16.866177 0.028256
4.173615 16.866177 0.029191
4.487438 16.866177 0.030149
4.801261 16.866177 0.031227
5.115085 16.866177 0.032707
5.428907 16.866177 0.034281
5.742730 16.866177 0.035848
6.056554 16.866177 0.037796
6.370377 16.866177 0.040602
6.684199 16.866177 0.044297
6.998022 16.866177 0.048953
7.311846 16.866177 0.055290
7.625669 16.866177 0.063296
7.939491 16.866177 0.073526
8.253315 16.866177 0.090139
8.567138 16.866177 0.115182
8.880960 16.866177 0.160440
9.194784 16.866177 0.249557
9.508606 16.866177 0.377931
9.822430 16.866177 0.558187
10.136253 16.866177 0.772030
10.450075 16.866177 1.020975
10.763899 16.866177 1.271155
11.077723 16.866177 1.549963
11.391544 16.866177 1.826523
11.705368 16.866177 2.087704
12.019190 16.866177 2.327174
12.333014 16.866177 2.529415
12.646837 16.866177 2.733814
12.960659 16.866177 2.947411
13.274483 16.866177 3.133802
13.588306 16.866177 3.323417
13.902128 16.866177 3.453996
14.215952 16.866177 3.553850
14.529776 16.866177 3.652175
14.843597 16.866177 3.665578
15.157421 16.866177 3.573816
15.471243 16.866177 3.382331
15.785067 16.866177 3.104033
16.098890 16.866177 2.793599
16.412712 16.866177 2.459804
16.726536 16.866177 2.109030
17.040359 16.866177 1.825492
17.354181 16.866177 1.673923
17.668005 16.866177 1.633612
17.981829 16.866177 1.805516
18.295650 16.866177 2.201715
18.609474 16.866177 2.732517
18.923298 16.866177 0.000000
19.237120 16.866177 0.000000
-6.810190 16.552353 0.000000
-6.496367 16.552353 0.027249
-6.182544 16.552353 0.025532
-5.868721 16.552353 0.025153
-5.554898 16.552353 0.025183
-5.241075 16.552353 0.025215
-4.927252 16.552353 0.025336
-4.613429 16.552353 0.025309
-4.299606 16.552353 0.025280
-3.985783 16.552353 0.025387
-3.671960 16.552353 0.025581
-3.358137 16.552353 0.025826
-3.044314 16.552353 0.025944
-2.730491 16.552353 0.025676
-2.416668 16.552353 0.025285
-2.102845 16.552353 0.025004
-1.789022 16.552353 0.024871
-1.475199 16.552353 0.024942
-1.161376 16.552353 0.024974
-0.847553 16.552353 0.025111
-0.533730 16.552353 0.025391
-0.219907 16.552353 0.025763
0.093916 16.552353 0.025955
0.407739 16.552353 0.025957
0.721562 16.552353 0.026061
1.035385 16.552353 0.026086
1.349208 16.552353 0.025974
1.663032 16.552353 0.025846
1.976854 16.552353 0.025902
2.290677 16.552353 0.026159
2.604500 16.552353 0.026517
2.918324 16.552353 0.026892
3.232146 16.552353 0.027396
3.545969 16.552353 0.027974
3.859793 16.552353 0.028657
4.173615 16.552353 0.029472
4.487438 16.552353 0.030236
4.801261 16.552353 0.031058
5.115085 16.552353 0.032374
5.428907 16.552353 0.033887
5.742730 16.552353 0.035492
6.056554 16.552353 0.037402
6.370377 16.552353 0.040462
6.684199 16.552353 0.044446
6.998022 16.552353 0.048874
7.311846 16.552353 0.055197
7.625669 16.552353 0.063667
7.939491 16.552353 0.074462
8.253315 16.552353 0.090953
8.567138 16.552353 0.115693
8.880960 16.552353 0.163239
9.194784 16.552353 0.253257
9.508606 16.552353 0.385016
9.822430 16.552353 0.555601
10.136253 16.552353 0.777161
10.450075 16.552353 1.015699
10.763899 16.552353 1.281075
11.077723 16.552353 1.564944
11.391544 16.552353 1.850685
11.705368 16.552353 2.097814
12.019190 16.552353 2.326592
12.333014 16.552353 2.531266
12.646837 16.552353 2.739270
12.960659 16.552353 2.947412
13.274483 16.552353 3.179611
13.588306 16.552353 3.336319
13.902128 16.552353 3.470172
14.215952 16.552353 3.582635
14.529776 16.552353 3.663980
14.843597 16.552353 3.671315
15.157421 16.552353 3.615474
15.471243 16.552353 3.400979
15.785067 16.552353 3.087432
16.098890 16.552353 2.794310
16.412712 16.552353 2.466498
16.726536 16.552353 2.112525
17.040359 16.552353 1.826509
17.354181 16.552353 1.695432
17.668005 16.552353 1.634454
17.981829 16.552353 1.814397
18.295650 16.552353 2.238392
18.609474 16.552353 2.835047
18.923298 16.552353 0.000000
19.237120 16.552353 0.000000
-6.810190 16.238533 0.000000
-6.496367 16.238533 0.026916
-6.182544 16.238533 0.025305
-5.868721 16.238533 0.025053
-5.554898 16.238533 0.025219
-5.241075 16.238533 0.025444
-4.927252 16.238533 0.025682
-4.613429 16.238533 0.025656
-4.299606 16.238533 0.025520
-3.985783 16.238533 0.025460
-3.671960 16.238533 0.025462
-3.358137 16.238533 0.025541
-3.044314 16.238533 0.025472
-2.730491 16.238533 0.025184
-2.416668 16.238533 0.024926
-2.102845 16.238533 0.024807
-1.789022 16.238533 0.024837
-1.475199 16.238533 0.025047
-1.161376 16.238533 0.025205
-0.847553 16.238533 0.025431
-0.533730 16.238533 0.025736
-0.219907 16.238533 0.026070
0.093916 16.238533 0.026121
0.407739 16.238533 0.025920
0.721562 16.238533 0.025892
1.035385 16.238533 0.025777
1.349208 16.238533 0.025591
1.663032 16.238533 0.025604
1.976854 16.238533 0.025834
2.290677 16.238533 0.026214
2.604500 16.238533 0.026726
2.918324 16.238533 0.027273
3.232146 16.238533 0.027791
3.545969 16.238533 0.028254
3.859793 16.238533 0.028825
4.173615 16.238533 0.029482
4.487438 16.238533 0.030041
4.801261 16.238533 0.030667
5.115085 16.238533 0.031896
5.428907 16.238533 0.033531
5.742730 16.238533 0.035391
6.056554 16.238533 0.037726
6.370377 16.238533 0.040909
6.684199 16.238533 0.044911
6.998022 16.238533 0.049447
7.311846 16.238533 0.055598
7.625669 16.238533 0.064170
7.939491 16.238533 0.075100
8.253315 16.238533 0.091410
8.567138 16.238533 0.115982
8.880960 16.238533 0.164077
9.194784 16.238533 0.249645
9.508606 16.238533 0.391341
9.822430 16.238533 0.564536
10.136253 16.238533 0.771682
10.450075 16.238533 1.011203
10.763899 16.238533 1.282087
11.077723 16.238533 1.564739
11.391544 16.238533 1.843842
11.705368 16.238533 2.102757
12.019190 16.238533 2.338091
12.333014 16.238533 2.547932
12.646837 16.238533 2.747795
12.960659 16.238533 2.933171
13.274483 16.238533 3.147379
13.588306 16.238533 3.342401
13.902128 16.238533 3.474941
14.215952 16.238533 3.571732
14.529776 16.238533 3.646071
14.843597 16.238533 3.714658
15.157421 16.238533 3.614287
15.471243 16.238533 3.396571
15.785067 16.238533 3.101287
16.098890 16.238533 2.806010
16.412712 16.238533 2.487240
16.726536 16.238533 2.140178
17.040359 16.238533 1.862234
17.354181 16.238533 1.697202
17.668005 16.238533 1.668393
17.981829 16.238533 1.841030
18.295650 16.238533 2.297183
18.609474 16.238533 2.874308
18.923298 16.238533 0.000000
19.237120 16.238533 0.000000
-6.810190 15.924709 0.000000
-6.496367 15.924709 0.026961
-6.182544 15.924709 0.025507
-5.868721 15.924709 0.025294
-5.554898 15.924709 0.025424
-5.241075 15.924709 0.025687
-4.927252 15.924709 0.025825
-4.613429 15.924709 0.025656
-4.299606 15.924709 0.025393
-3.985783 15.924709 0.025175
-3.671960 15.924709 0.025058
-3.358137 15.924709 0.025073
-3.044314 15.924709 0.024995
-2.730491 15.924709 0.024875
-2.416668 15.924709 0.024920
-2.102845 15.924709 0.025017
-1.789022 15.924709 0.025182
-1.475199 15.924709 0.025441
-1.161376 15.924709 0.025564
-0.847553 15.924709 0.025665
-0.533730 15.924709 0.025835
-0.219907 15.924709 0.025956
0.093916 15.924709 0.025857
0.407739 15.924709 0.025603
0.721562 15.924709 0.025586
1.035385 15.924709 0.025526
1.349208 15.924709 0.025464
1.663032 15.924709 0.025688
1.976854 15.924709 0.026093
2.290677 15.924709 0.026500
2.604500 15.924709 0.026992
2.918324 15.924709 0.027552
3.232146 15.924709 0.027941
3.545969 15.924709 0.028204
3.859793 15.924709 0.028660
4.173615 15.924709 0.029169
4.487438 15.924709 0.029701
4.801261 15.924709 0.030374
5.115085 15.924709 0.031638
5.428907 15.924709 0.033429
5.742730 15.924709 0.035552
6.056554 15.924709 0.038140
6.370377 15.924709 0.041414
6.684199 15.924709 0.045292
6.998022 15.924709 0.049906
7.311846 15.924709 0.055691
7.625669 15.924709 0.064510
7.939491 15.924709 0.075678
8.253315 15.924709 0.092115
8.567138 15.924709 0.116348
8.880960 15.924709 0.166224
9.194784 15.924709 0.254146
9.508606 15.924709 0.391462
9.822430 15.924709 0.573425
10.136253 15.924709 0.768845
10.450075 15.924709 1.012886
10.763899 15.924709 1.286103
11.077723 15.924709 1.567572
11.391544 15.924709 1.858610
11.705368 15.924709 2.094434
12.019190 15.924709 2.341488
12.333014 15.924709 2.542579
12.646837 15.924709 2.743935
12.960659 15.924709 2.961495
13.274483 15.924709 3.142819
13.588306 15.924709 3.308661
13.902128 15.924709 3.464186
14.215952 15.924709 3.585289
14.529776 15.924709 3.683443
14.843597 15.924709 3.730628
15.157421 15.924709 3.648328
15.471243 15.924709 3.411639
15.785067 15.924709 3.126215
16.098890 15.924709 2.783391
16.412712 15.924709 2.502486
16.726536 15.924709 2.151720
17.040359 15.924709 1.896434
17.354181 15.924709 1.700523
17.668005 15.924709 1.684500
17.981829 15.924709 1.885006
18.295650 15.924709 2.333998
18.609474 15.924709 2.887936
18.923298 15.924709 0.000000
19.237120 15.924709 0.000000
-6.810190 15.610886 0.000000
-6.496367 15.610886 0.027197
-6.182544 15.610886 0.025870
-5.868721 15.610886 0.025553
-5.554898 15.610886 0.025494
-5.241075 15.610886 0.025623
-4.927252 15.610886 0.025598
-4.613429 15.610886 0.025292
-4.299606 15.610886 0.025033
-3.985783 15.610886 0.024819
-3.671960 15.610886 0.024753
-3.358137 15.610886 0.024870
-3.044314 15.610886 0.024901
-2.730491 15.610886 0.024959
-2.416668 15.610886 0.025221
-2.102845 15.610886 0.025413
-1.789022 15.610886 0.025505
-1.475199 15.610886 0.025661
-1.161376 15.610886 0.025646
-0.847553 15.610886 0.025546
-0.533730 15.610886 0.025533
-0.219907 15.610886 0.025519
0.093916 15.610886 0.025470
0.407739 15.610886 0.025379
0.721562 15.610886 0.025504
1.035385 15.610886 0.025615
1.349208 15.610886 0.025725
1.663032 15.610886 0.026018
1.976854 15.610886 0.026385
2.290677 15.610886 0.026672
2.604500 15.610886 0.026991
2.918324 15.610886 0.027435
3.232146 15.610886 0.027739
3.545969 15.610886 0.027935
3.859793 15.610886 0.028370
4.173615 15.610886 0.028882
4.487438 15.610886 0.029494
4.801261 15.610886 0.030327
5.115085 15.610886 0.031687
5.428907 15.610886 0.033586
5.742730 15.610886 0.035860
6.056554 15.610886 0.038582
6.370377 15.610886 0.041897
6.684199 15.610886 0.045493
6.998022 15.610886 0.050041
7.311846 15.610886 0.056041
7.625669 15.610886 0.064957
7.939491 15.610886 0.076158
8.253315 15.610886 0.092523
8.567138 15.610886 0.118472
8.880960 15.610886 0.168130
9.194784 15.610886 0.254457
9.508606 15.610886 0.395926
9.822430 15.610886 0.579345
10.136253 15.610886 0.781616
10.450075 15.610886 1.028345
10.763899 15.610886 1.298337
11.077723 15.610886 1.585089
11.391544 15.610886 1.852124
11.705368 15.610886 2.118520
12.019190 15.610886 2.341226
12.333014 15.610886 2.540999
12.646837 15.610886 2.755187
12.960659 15.610886 2.951262
13.274483 15.610886 3.149046
13.588306 15.610886 3.324115
13.902128 15.610886 3.454545
14.215952 15.610886 3.584318
14.529776 15.610886 3.677584
14.843597 15.610886 3.717393
15.157421 15.610886 3.652247
15.471243 15.610886 3.426363
15.785067 15.610886 3.142970
16.098890 15.610886 2.805130
16.412712 15.610886 2.503648
16.726536 15.610886 2.177043
17.040359 15.610886 1.878563
17.354181 15.610886 1.695039
17.668005 15.610886 1.702520
17.981829 15.610886 1.906519
18.295650 15.610886 2.337274
18.609474 15.610886 2.918676
18.923298 15.610886 0.000000
19.237120 15.610886 0.000000
-6.810190 15.297062 0.000000
-6.496367 15.297062 0.027256
-6.182544 15.297062 0.026003
-5.868721 15.297062 0.025533
-5.554898 15.297062 0.025247
-5.241075 15.297062 0.025224
-4.927252 15.297062 0.025183
-4.613429 15.297062 0.024979
-4.299606 15.297062 0.024810
-3.985783 15.297062 0.024720
-3.671960 15.297062 0.024803
-3.358137 15.297062 0.025028
-3.044314 15.297062 0.025139
-2.730491 15.297062 0.025242
-2.416668 15.297062 0.025475
-2.102845 15.297062 0.025556
-1.789022 15.297062 0.025458
-1.475199 15.297062 0.025476
-1.161376 15.297062 0.025375
-0.847553 15.297062 0.025209
-0.533730 15.297062 0.025142
-0.219907 15.297062 0.025150
0.093916 15.297062 0.025331
0.407739 15.297062 0.025468
0.721562 15.297062 0.025698
1.035385 15.297062 0.025926
1.349208 15.297062 0.026086
1.663032 15.297062 0.026274
1.976854 15.297062 0.026424
2.290677 15.297062 0.026534
2.604500 15.297062 0.026683
2.918324 15.297062 0.027013
3.232146 15.297062 0.027376
3.545969 15.297062 0.027695
3.859793 15.297062 0.028230
4.173615 15.297062 0.028817
4.487438 15.297062 0.029555
4.801261 15.297062 0.030544
5.115085 15.297062 0.031966
5.428907 15.297062 0.033862
5.742730 15.297062 0.036135
6.056554 15.297062 0.038849
6.370377 15.297062 0.042032
6.684199 15.297062 0.045261
6.998022 15.297062 0.049996
7.311846 15.297062 0.056281
7.625669 15.297062 0.064861
7.939491 15.297062 0.075902
8.253315 15.297062 0.093295
8.567138 15.297062 0.120638
8.880960 15.297062 0.170394
9.194784 15.297062 0.260749
9.508606 15.297062 0.401100
9.822430 15.297062 0.585281
10.136253 15.297062 0.797370
10.450075 15.297062 1.033674
10.763899 15.297062 1.311451
11.077723 15.297062 1.588138
11.391544 15.297062 1.857470
11.705368 15.297062 2.122308
12.019190 15.297062 2.351167
12.333014 15.297062 2.542767
12.646837 15.297062 2.733482
12.960659 15.297062 2.920044
13.274483 15.297062 3.125965
13.588306 15.297062 3.309691
13.902128 15.297062 3.442923
14.215952 15.297062 3.578554
14.529776 15.297062 3.664837
14.843597 15.297062 3.749185
15.157421 15.297062 3.702920
15.471243 15.297062 3.455720
15.785067 15.297062 3.165126
16.098890 15.297062 2.851147
16.412712 15.297062 2.539951
16.726536 15.297062 2.172508
17.040359 15.297062 1.878355
17.354181 15.297062 1.722103
17.668005 15.297062 1.717058
17.981829 15.297062 1.937645
18.295650 15.297062 2.387641
18.609474 15.297062 2.951872
18.923298 15.297062 0.000000
19.237120 15.297062 0.000000
-6.810190 14.983238 0.000000
-6.496367 14.983238 0.026984
-6.182544 14.983238 0.025774
-5.868721 14.983238 0.025296
-5.554898 14.983238 0.024932
-5.241075 14.983238 0.024835
-4.927252 14.983238 0.024906
-4.613429 14.983238 0.024918
-4.299606 14.983238 0.024941
-3.985783 14.983238 0.025030
-3.671960 14.983238 0.025188
-3.358137 14.983238 0.025360
-3.044314 14.983238 0.025346
-2.730491 14.983238 0.025327
-2.416668 14.983238 0.025391
-2.102845 14.983238 0.025298
-1.789022 14.983238 0.025103
-1.475199 14.983238 0.025073
-1.161376 14.983238 0.025045
-0.847553 14.983238 0.024968
-0.533730 14.983238 0.024976
-0.219907 14.983238 0.025132
0.093916 14.983238 0.025451
0.407739 14.983238 0.025717
0.721562 14.983238 0.025913
1.035385 14.983238 0.026100
1.349208 14.983238 0.026187
1.663032 14.983238 0.026205
1.976854 14.983238 0.026196
2.290677 14.983238 0.026237
2.604500 14.983238 0.026338
2.918324 14.983238 0.026651
3.232146 14.983238 0.027128
3.545969 14.983238 0.027661
3.859793 14.983238 0.028281
4.173615 14.983238 0.028922
4.487438 14.983238 0.029751
4.801261 14.983238 0.030835
5.115085 14.983238 0.032224
5.428907 14.983238 0.033965
5.742730 14.983238 0.036128
6.056554 14.983238 0.038814
6.370377 14.983238 0.041834
6.684199 14.983238 0.045200
6.998022 14.983238 0.049743
7.311846 14.983238 0.056157
7.625669 14.983238 0.064522
7.939491 14.983238 0.075863
8.253315 14.983238 0.093224
8.567138 14.983238 0.121291
8.880960 14.983238 0.172774
9.194784 14.983238 0.265370
9.508606 14.983238 0.410546
9.822430 14.983238 0.590386
10.136253 14.983238 0.811046
10.450075 14.983238 1.046397
10.763899 14.983238 1.316132
11.077723 14.983238 1.595648
11.391544 14.983238 1.870271
11.705368 14.983238 2.128221
12.019190 14.983238 2.338421
12.333014 14.983238 2.525004
12.646837 14.983238 2.738679
12.960659 14.983238 2.925318
13.274483 14.983238 3.105617
13.588306 14.983238 3.269796
13.902128 14.983238 3.428228
14.215952 14.983238 3.585245
14.529776 14.983238 3.718616
14.843597 14.983238 3.786159
15.157421 14.983238 3.686885
15.471243 14.983238 3.481842
15.785067 14.983238 3.169042
16.098890 14.983238 2.859636
16.412712 14.983238 2.555353
16.726536 14.983238 2.186898
17.040359 14.983238 1.879148
17.354181 14.983238 1.729722
17.668005 14.983238 1.742967
17.981829 14.983238 1.958220
18.295650 14.983238 2.432861
18.609474 14.983238 2.998255
18.923298 14.983238 0.000000
19.237120 14.983238 0.000000
-6.810190 14.669415 0.000000
-6.496367 14.669415 0.026493
-6.182544 14.669415 0.025455
-5.868721 14.669415 0.025164
-5.554898 14.669415 0.024887
-5.241075 14.669415 0.024783
-4.927252 14.669415 0.024943
-4.613429 14.669415 0.025151
-4.299606 14.669415 0.025299
-3.985783 14.669415 0.025393
-3.671960 14.669415 0.025475
-3.358137 14.669415 0.025425
-3.044314 14.669415 0.025216
-2.730491 14.669415 0.025079
-2.416668 14.669415 0.025055
-2.102845 14.669415 0.024915
-1.789022 14.669415 0.024761
-1.475199 14.669415 0.024829
-1.161376 14.669415 0.024952
-0.847553 14.669415 0.025003
-0.533730 14.669415 0.025090
-0.219907 14.669415 0.025280
0.093916 14.669415 0.025541
0.407739 14.669415 0.025809
0.721562 14.669415 0.025886
1.035385 14.669415 0.025957
1.349208 14.669415 0.025981
1.663032 14.669415 0.025930
1.976854 14.669415 0.025908
2.290677 14.669415 0.026031
2.604500 14.669415 0.026221
2.918324 14.669415 0.026568
3.232146 14.669415 0.027119
3.545969 14.669415 0.027759
3.859793 14.669415 0.028364
4.173615 14.669415 0.029035
4.487438 14.669415 0.029929
4.801261 14.669415 0.031020
5.115085 14.669415 0.032330
5.428907 14.669415 0.033868
5.742730 14.669415 0.035910
6.056554 14.669415 0.038555
6.370377 14.669415 0.041642
6.684199 14.669415 0.045268
6.998022 14.669415 0.049973
7.311846 14.669415 0.056230
7.625669 14.669415 0.065038
7.939491 14.669415 0.076477
8.253315 14.669415 0.094511
8.567138 14.669415 0.122137
8.880960 14.669415 0.175070
9.194784 14.669415 0.271703
9.508606 14.669415 0.412589
9.822430 14.669415 0.591152
10.136253 14.669415 0.815735
10.450075 14.669415 1.061251
10.763899 14.669415 1.329380
11.077723 14.669415 1.612864
11.391544 14.669415 1.875345
11.705368 14.669415 2.138267
12.019190 14.669415 2.352413
12.333014 14.669415 2.545680
12.646837 14.669415 2.721959
12.960659 14.669415 2.929812
13.274483 14.669415 3.087438
13.588306 14.669415 3.259367
13.902128 14.669415 3.428564
14.215952 14.669415 3.599681
14.529776 14.669415 3.733499
14.843597 14.669415 3.785667
15.157421 14.669415 3.717673
15.471243 14.669415 3.452360
15.785067 14.669415 3.159724
16.098890 14.669415 2.864473
16.412712 14.669415 2.568763
16.726536 14.669415 2.188822
17.040359 14.669415 1.892530
17.354181 14.669415 1.738276
17.668005 14.669415 1.765541
17.981829 14.669415 1.985692
18.295650 14.669415 2.485463
18.609474 14.669415 3.084483
18.923298 14.669415 0.000000
19.237120 14.669415 0.000000
-6.810190 14.355595 0.000000
-6.496367 14.355595 0.026198
-6.182544 14.355595 0.025341
-5.868721 14.355595 0.025335
-5.554898 14.355595 0.025197
-5.241075 14.355595 0.025088
-4.927252 14.355595 0.025192
-4.613429 14.355595 0.025393
-4.299606 14.355595 0.025494
-3.985783 14.355595 0.025483
-3.671960 14.355595 0.025418
-3.358137 14.355595 0.025219
-3.044314 14.355595 0.024915
-2.730491 14.355595 0.024791
-2.416668 14.355595 0.024833
-2.102845 14.355595 0.024746
-1.789022 14.355595 0.024705
-1.475199 14.355595 0.024885
-1.161376 14.355595 0.025104
-0.847553 14.355595 0.025193
-0.533730 14.355595 0.025239
-0.219907 14.355595 0.025309
0.093916 14.355595 0.025440
0.407739 14.355595 0.025611
0.721562 14.355595 0.025643
1.035385 14.355595 0.025668
1.349208 14.355595 0.025709
1.663032 14.355595 0.025708
1.976854 14.355595 0.025797
2.290677 14.355595 0.026045
2.604500 14.355595 0.026342
2.918324 14.355595 0.026667
3.232146 14.355595 0.027222
3.545969 14.355595 0.027864
3.859793 14.355595 0.028407
4.173615 14.355595 0.029061
4.487438 14.355595 0.029992
4.801261 14.355595 0.031059
5.115085 14.355595 0.032276
5.428907 14.355595 0.033689
5.742730 14.355595 0.035669
6.056554 14.355595 0.038418
6.370377 14.355595 0.041570
6.684199 14.355595 0.045263
6.998022 14.355595 0.050133
7.311846 14.355595 0.056447
7.625669 14.355595 0.066025
7.939491 14.355595 0.077934
8.253315 14.355595 0.094195
8.567138 14.355595 0.123894
8.880960 14.355595 0.176790
9.194784 14.355595 0.276095
9.508606 14.355595 0.423988
9.822430 14.355595 0.607557
10.136253 14.355595 0.834100
10.450075 14.355595 1.081465
10.763899 14.355595 1.339276
11.077723 14.355595 1.620559
11.391544 14.355595 1.890023
11.705368 14.355595 2.141449
12.019190 14.355595 2.367577
12.333014 14.355595 2.532617
12.646837 14.355595 2.713617
12.960659 14.355595 2.931256
13.274483 14.355595 3.102271
13.588306 14.355595 3.271967
13.902128 14.355595 3.448040
14.215952 14.355595 3.597502
14.529776 14.355595 3.728202
14.843597 14.355595 3.803985
15.157421 14.355595 3.739856
15.471243 14.355595 3.481884
15.785067 14.355595 3.171468
16.098890 14.355595 2.856753
16.412712 14.355595 2.575260
16.726536 14.355595 2.205681
17.040359 14.355595 1.917251
17.354181 14.355595 1.758460
17.668005 14.355595 1.757230
17.981829 14.355595 1.960784
18.295650 14.355595 2.439257
18.609474 14.355595 3.092561
18.923298 14.355595 0.000000
19.237120 14.355595 0.000000
-6.810190 14.041771 0.000000
-6.496367 14.041771 0.026240
-6.182544 14.041771 0.025497
-5.868721 14.041771 0.025641
-5.554898 14.041771 0.025576
-5.241075 14.041771 0.025335
-4.927252 14.041771 0.025213
-4.613429 14.041771 0.025268
-4.299606 14.041771 0.025312
-3.985783 14.041771 0.025265
-3.671960 14.041771 0.025165
-3.358137 14.041771 0.024961
-3.044314 14.041771 0.024745
-2.730491 14.041771 0.024726
-2.416668 14.041771 0.024858
-2.102845 14.041771 0.024865
-1.789022 14.041771 0.024889
-1.475199 14.041771 0.025100
-1.161376 14.041771 0.025304
-0.847553 14.041771 0.025313
-0.533730 14.041771 0.025211
-0.219907 14.041771 0.025142
0.093916 14.041771 0.025157
0.407739 14.041771 0.025260
0.721562 14.041771 0.025335
1.035385 14.041771 0.025437
1.349208 14.041771 0.025540
1.663032 14.041771 0.025682
1.976854 14.041771 0.025871
2.290677 14.041771 0.026214
2.604500 14.041771 0.026526
2.918324 14.041771 0.026812
3.232146 14.041771 0.027280
3.545969 14.041771 0.027857
3.859793 14.041771 0.028343
4.173615 14.041771 0.029003
4.487438 14.041771 0.029954
4.801261 14.041771 0.030991
5.115085 14.041771 0.032198
5.428907 14.041771 0.033621
5.742730 14.041771 0.035596
6.056554 14.041771 0.038267
6.370377 14.041771 0.041622
6.684199 14.041771 0.045287
6.998022 14.041771 0.050400
7.311846 14.041771 0.057045
7.625669 14.041771 0.066024
7.939491 14.041771 0.078351
8.253315 14.041771 0.095502
8.567138 14.041771 0.126926
8.880960 14.041771 0.183484
9.194784 14.041771 0.279303
9.508606 14.041771 0.429859
9.822430 14.041771 0.617373
10.136253 14.041771 0.835339
10.450075 14.041771 1.092058
10.763899 14.041771 1.352848
11.077723 14.041771 1.622117
11.391544 14.041771 1.895170
11.705368 14.041771 2.150212
12.019190 14.041771 2.363374
12.333014 14.041771 2.536522
12.646837 14.041771 2.715580
12.960659 14.041771 2.935843
13.274483 14.041771 3.113979
13.588306 14.041771 3.273156
13.902128 14.041771 3.464628
14.215952 14.041771 3.633573
14.529776 14.041771 3.760545
14.843597 14.041771 3.837245
15.157421 14.041771 3.740931
15.471243 14.041771 3.519372
15.785067 14.041771 3.221318
16.098890 14.041771 2.912233
16.412712 14.041771 2.573193
16.726536 14.041771 2.273436
17.040359 14.041771 1.968477
17.354181 14.041771 1.789456
17.668005 14.041771 1.792305
17.981829 14.041771 2.004714
18.295650 14.041771 2.522260
18.609474 14.041771 3.199525
18.923298 14.041771 0.000000
19.237120 14.041771 0.000000
-6.810190 13.727947 0.000000
-6.496367 13.727947 0.026395
-6.182544 13.727947 0.025642
-5.868721 13.727947 0.025782
-5.554898 13.727947 0.025686
-5.241075 13.727947 0.025333
-4.927252 13.727947 0.025041
-4.613429 13.727947 0.024975
-4.299606 13.727947 0.024991
-3.985783 13.727947 0.025019
-3.671960 13.727947 0.025027
-3.358137 13.727947 0.024929
-3.044314 13.727947 0.024850
-2.730491 13.727947 0.024887
-2.416668 13.727947 0.025022
-2.102845 13.727947 0.025044
-1.789022 13.727947 0.025046
-1.475199 13.727947 0.025208
-1.161376 13.727947 0.025310
-0.847553 13.727947 0.025243
-0.533730 13.727947 0.025067
-0.219907 13.727947 0.024957
0.093916 13.727947 0.024937
0.407739 13.727947 0.025050
0.721562 13.727947 0.025204
1.035385 13.727947 0.025374
1.349208 13.727947 0.025556
1.663032 13.727947 0.025767
1.976854 13.727947 0.026005
2.290677 13.727947 0.026329
2.604500 13.727947 0.026643
2.918324 13.727947 0.026901
3.232146 13.727947 0.027242
3.545969 13.727947 0.027737
3.859793 13.727947 0.028243
4.173615 13.727947 0.028909
4.487438 13.727947 0.029878
4.801261 13.727947 0.030930
5.115085 13.727947 0.032187
5.428907 13.727947 0.033666
5.742730 13.727947 0.035632
6.056554 13.727947 0.038249
6.370377 13.727947 0.041641
6.684199 13.727947 0.045488
6.998022 13.727947 0.050784
7.311846 13.727947 0.057324
7.625669 13.727947 0.066322
7.939491 13.727947 0.078740
8.253315 13.727947 0.097046
8.567138 13.727947 0.130322
8.880960 13.727947 0.187977
9.194784 13.727947 0.280911
9.508606 13.727947 0.429004
9.822430 13.727947 0.626672
10.136253 13.727947 0.854472
10.450075 13.727947 1.098639
10.763899 13.727947 1.362098
11.077723 13.727947 1.621461
11.391544 13.727947 1.907914
11.705368 13.727947 2.144926
12.019190 13.727947 2.354867
12.333014 13.727947 2.542165
12.646837 13.727947 2.730496
12.960659 13.727947 2.908940
13.274483 13.727947 3.098968
13.588306 13.727947 3.269898
13.902128 13.727947 3.461337
14.215952 13.727947 3.605004
14.529776 13.727947 3.782166
14.843597 13.727947 3.850893
15.157421 13.727947 3.754100
15.471243 13.727947 3.519301
15.785067 13.727947 3.247827
16.098890 13.727947 2.945184
16.412712 13.727947 2.613276
16.726536 13.727947 2.252435
17.040359 13.727947 2.000776
17.354181 13.727947 1.800910
17.668005 13.727947 1.789459
17.981829 13.727947 2.016288
18.295650 13.727947 2.572593
18.609474 13.727947 3.223585
18.923298 13.727947 0.000000
19.237120 13.727947 0.000000
-6.810190 13.414124 0.000000
-6.496367 13.414124 0.026334
-6.182544 13.414124 0.025507
-5.868721 13.414124 0.025603
-5.554898 13.414124 0.025500
-5.241075 13.414124 0.025177
-4.927252 13.414124 0.024914
-4.613429 13.414124 0.024808
-4.299606 13.414124 0.024828
-3.985783 13.414124 0.024936
-3.671960 13.414124 0.025037
-3.358137 13.414124 0.025076
-3.044314 13.414124 0.025086
-2.730491 13.414124 0.025029
-2.416668 13.414124 0.025070
-2.102845 13.414124 0.025058
-1.789022 13.414124 0.025016
-1.475199 13.414124 0.025094
-1.161376 13.414124 0.025190
-0.847553 13.414124 0.025163
-0.533730 13.414124 0.025018
-0.219907 13.414124 0.024950
0.093916 13.414124 0.024987
0.407739 13.414124 0.025100
0.721562 13.414124 0.025287
1.035385 13.414124 0.025506
1.349208 13.414124 0.025706
1.663032 13.414124 0.025846
1.976854 13.414124 0.026050
2.290677 13.414124 0.026319
2.604500 13.414124 0.026608
2.918324 13.414124 0.026883
3.232146 13.414124 0.027217
3.545969 13.414124 0.027658
3.859793 13.414124 0.028187
4.173615 13.414124 0.028868
4.487438 13.414124 0.029850
4.801261 13.414124 0.030954
5.115085 13.414124 0.032263
5.428907 13.414124 0.033791
5.742730 13.414124 0.035621
6.056554 13.414124 0.038162
6.370377 13.414124 0.041503
6.684199 13.414124 0.045407
6.998022 13.414124 0.050491
7.311846 13.414124 0.057229
7.625669 13.414124 0.066335
7.939491 13.414124 0.077927
8.253315 13.414124 0.096789
8.567138 13.414124 0.128571
8.880960 13.414124 0.188799
9.194784 13.414124 0.289892
9.508606 13.414124 0.441535
9.822430 13.414124 0.625256
10.136253 13.414124 0.856143
10.450075 13.414124 1.114031
10.763899 13.414124 1.363995
11.077723 13.414124 1.632575
11.391544 13.414124 1.911839
11.705368 13.414124 2.151727
12.019190 13.414124 2.358001
12.333014 13.414124 2.549623
12.646837 13.414124 2.745956
12.960659 13.414124 2.903159
13.274483 13.414124 3.093019
13.588306 13.414124 3.259601
13.902128 13.414124 3.424026
14.215952 13.414124 3.589994
14.529776 13.414124 3.736410
14.843597 13.414124 3.817472
15.157421 13.414124 3.749312
15.471243 13.414124 3.498921
15.785067 13.414124 3.253182
16.098890 13.414124 2.985057
16.412712 13.414124 2.629418
16.726536 13.414124 2.291740
17.040359 13.414124 2.050093
17.354181 13.414124 1.846857
17.668005 13.414124 1.839633
17.981829 13.414124 2.067105
18.295650 13.414124 2.636867
18.609474 13.414124 3.357487
18.923298 13.414124 0.000000
19.237120 13.414124 0.000000
-6.810190 13.100300 0.000000
-6.496367 13.100300 0.026181
-6.182544 13.100300 0.025194
-5.868721 13.100300 0.025277
-5.554898 13.100300 0.025254
-5.241075 13.100300 0.025093
-4.927252 13.100300 0.024958
-4.613429 13.100300 0.024870
-4.299606 13.100300 0.024854
-3.985783 13.100300 0.024947
-3.671960 13.100300 0.025069
-3.358137 13.100300 0.025142
-3.044314 13.100300 0.025171
-2.730491 13.100300 0.025004
-2.416668 13.100300 0.024900
-2.102845 13.100300 0.024853
-1.789022 13.100300 0.024825
-1.475199 13.100300 0.024920
-1.161376 13.100300 0.025071
-0.847553 13.100300 0.025171
-0.533730 13.100300 0.025117
-0.219907 13.100300 0.025143
0.093916 13.100300 0.025238
0.407739 13.100300 0.025314
0.721562 13.100300 0.025461
1.035385 13.100300 0.025644
1.349208 13.100300 0.025779
1.663032 13.100300 0.025850
1.976854 13.100300 0.025989
2.290677 13.100300 0.026190
2.604500 13.100300 0.026519
2.918324 13.100300 0.026899
3.232146 13.100300 0.027307
3.545969 13.100300 0.027752
3.859793 13.100300 0.028279
4.173615 13.100300 0.028925
4.487438 13.100300 0.029876
4.801261 13.100300 0.031038
5.115085 13.100300 0.032339
5.428907 13.100300 0.033811
5.742730 13.100300 0.035609
6.056554 13.100300 0.037990
6.370377 13.100300 0.041401
6.684199 13.100300 0.045037
6.998022 13.100300 0.050159
7.311846 13.100300 0.057088
7.625669 13.100300 0.066206
7.939491 13.100300 0.077100
8.253315 13.100300 0.097639
8.567138 13.100300 0.130046
8.880960 13.100300 0.189200
9.194784 13.100300 0.292697
9.508606 13.100300 0.449127
9.822430 13.100300 0.637623
10.136253 13.100300 0.868888
10.450075 13.100300 1.126437
10.763899 13.100300 1.377257
11.077723 13.100300 1.655867
11.391544 13.100300 1.916990
11.705368 13.100300 2.141783
12.019190 13.100300 2.336404
12.333014 13.100300 2.547161
12.646837 13.100300 2.744584
12.960659 13.100300 2.931545
13.274483 13.100300 3.089220
13.588306 13.100300 3.250438
13.902128 13.100300 3.412911
14.215952 13.100300 3.600493
14.529776 13.100300 3.712039
14.843597 13.100300 3.778564
15.157421 13.100300 3.757895
15.471243 13.100300 3.556702
15.785067 13.100300 3.273278
16.098890 13.100300 2.992288
16.412712 13.100300 2.644219
16.726536 13.100300 2.329110
17.040359 13.100300 2.084231
17.354181 13.100300 1.910792
17.668005 13.100300 1.861586
17.981829 13.100300 2.101499
18.295650 13.100300 2.689210
18.609474 13.100300 3.446701
18.923298 13.100300 0.000000
19.237120 13.100300 0.000000
-6.810190 12.786476 0.000000
-6.496367 12.786476 0.026076
-6.182544 12.786476 0.025031
-5.868721 12.786476 0.025082
-5.554898 12.786476 0.025185
-5.241075 12.786476 0.025147
-4.927252 12.786476 0.025103
-4.613429 12.786476 0.024997
-4.299606 12.786476 0.024917
-3.985783 12.786476 0.024887
-3.671960 12.786476 0.024918
-3.358137 12.786476 0.024987
-3.044314 12.786476 0.025044
-2.730491 12.786476 0.024865
-2.416668 12.786476 0.024735
-2.102845 12.786476 0.024714
-1.789022 12.786476 0.024733
-1.475199 12.786476 0.024858
-1.161376 12.786476 0.025069
-0.847553 12.786476 0.025212
-0.533730 12.786476 0.025273
-0.219907 12.786476 0.025369
0.093916 12.786476 0.025444
0.407739 12.786476 0.025453
0.721562 12.786476 0.025532
1.035385 12.786476 0.025641
1.349208 12.786476 0.025715
1.663032 12.786476 0.025771
1.976854 12.786476 0.025897
2.290677 12.786476 0.026112
2.604500 12.786476 0.026505
2.918324 12.786476 0.027010
3.232146 12.786476 0.027499
3.545969 12.786476 0.027954
3.859793 12.786476 0.028413
4.173615 12.786476 0.028971
4.487438 12.786476 0.029820
4.801261 12.786476 0.031008
5.115085 12.786476 0.032298
5.428907 12.786476 0.033726
5.742730 12.786476 0.035569
6.056554 12.786476 0.037989
6.370377 12.786476 0.041306
6.684199 12.786476 0.045328
6.998022 12.786476 0.050333
7.311846 12.786476 0.056916
7.625669 12.786476 0.066583
7.939491 12.786476 0.078753
8.253315 12.786476 0.098239
8.567138 12.786476 0.130302
8.880960 12.786476 0.193546
9.194784 12.786476 0.304322
9.508606 12.786476 0.457232
9.822430 12.786476 0.644823
10.136253 12.786476 0.881442
10.450075 12.786476 1.133548
10.763899 12.786476 1.397787
11.077723 12.786476 1.654563
11.391544 12.786476 1.914216
11.705368 12.786476 2.150784
12.019190 12.786476 2.350537
12.333014 12.786476 2.547065
12.646837 12.786476 2.768332
12.960659 12.786476 2.956784
13.274483 12.786476 3.075289
13.588306 12.786476 3.246583
13.902128 12.786476 3.408360
14.215952 12.786476 3.575346
14.529776 12.786476 3.737002
14.843597 12.786476 3.783890
15.157421 12.786476 3.743330
15.471243 12.786476 3.572066
15.785067 12.786476 3.305162
16.098890 12.786476 3.022002
16.412712 12.786476 2.694719
16.726536 12.786476 2.350233
17.040359 12.786476 2.137456
17.354181 12.786476 1.946127
17.668005 12.786476 1.914768
17.981829 12.786476 2.168097
18.295650 12.786476 2.816657
18.609474 12.786476 3.601510
18.923298 12.786476 0.000000
19.237120 12.786476 0.000000
-6.810190 12.472656 0.000000
-6.496367 12.472656 0.026100
-6.182544 12.472656 0.025049
-5.868721 12.472656 0.025026
-5.554898 12.472656 0.025163
-5.241075 12.472656 0.025234
-4.927252 12.472656 0.025208
-4.613429 12.472656 0.025056
-4.299606 12.472656 0.024856
-3.985783 12.472656 0.024686
-3.671960 12.472656 0.024616
-3.358137 12.472656 0.024727
-3.044314 12.472656 0.024884
-2.730491 12.472656 0.024813
-2.416668 12.472656 0.024740
-2.102845 12.472656 0.024740
-1.789022 12.472656 0.024773
-1.475199 12.472656 0.024924
-1.161376 12.472656 0.025117
-0.847553 12.472656 0.025290
-0.533730 12.472656 0.025389
-0.219907 12.472656 0.025479
0.093916 12.472656 0.025482
0.407739 12.472656 0.025452
0.721562 12.472656 0.025499
1.035385 12.472656 0.025591
1.349208 12.472656 0.025655
1.663032 12.472656 0.025773
1.976854 12.472656 0.025921
2.290677 12.472656 0.026162
2.604500 12.472656 0.026581
2.918324 12.472656 0.027139
3.232146 12.472656 0.027683
3.545969 12.472656 0.028102
3.859793 12.472656 0.028454
4.173615 12.472656 0.028882
4.487438 12.472656 0.029655
4.801261 12.472656 0.030868
5.115085 12.472656 0.032274
5.428907 12.472656 0.033772
5.742730 12.472656 0.035660
6.056554 12.472656 0.038131
6.370377 12.472656 0.041465
6.684199 12.472656 0.045525
6.998022 12.472656 0.050725
7.311846 12.472656 0.057743
7.625669 12.472656 0.067636
7.939491 12.472656 0.079242
8.253315 12.472656 0.098833
8.567138 12.472656 0.133906
8.880960 12.472656 0.198019
9.194784 12.472656 0.303891
9.508606 12.472656 0.460644
9.822430 12.472656 0.663450
10.136253 12.472656 0.889702
10.450075 12.472656 1.145210
10.763899 12.472656 1.402814
11.077723 12.472656 1.654746
11.391544 12.472656 1.904441
11.705368 12.472656 2.150500
12.019190 12.472656 2.356311
12.333014 12.472656 2.581690
12.646837 12.472656 2.768669
12.960659 12.472656 2.965856
13.274483 12.472656 3.102162
13.588306 12.472656 3.256281
13.902128 12.472656 3.458609
14.215952 12.472656 3.614419
14.529776 12.472656 3.724660
14.843597 12.472656 3.760385
15.157421 12.472656 3.731102
15.471243 12.472656 3.591468
15.785067 12.472656 3.353307
16.098890 12.472656 3.058767
16.412712 12.472656 2.759471
16.726536 12.472656 2.414829
17.040359 12.472656 2.120626
17.354181 12.472656 1.974680
17.668005 12.472656 1.952119
17.981829 12.472656 2.185275
18.295650 12.472656 2.870961
18.609474 12.472656 3.763166
18.923298 12.472656 0.000000
19.237120 12.472656 0.000000
-6.810190 12.158833 0.000000
-6.496367 12.158833 0.026154
-6.182544 12.158833 0.025108
-5.868721 12.158833 0.024958
-5.554898 12.158833 0.025033
-5.241075 12.158833 0.025174
-4.927252 12.158833 0.025171
-4.613429 12.158833 0.025022
-4.299606 12.158833 0.024752
-3.985783 12.158833 0.024484
-3.671960 12.158833 0.024391
-3.358137 12.158833 0.024516
-3.044314 12.158833 0.024780
-2.730491 12.158833 0.024866
-2.416668 12.158833 0.024903
-2.102845 12.158833 0.024904
-1.789022 12.158833 0.024873
-1.475199 12.158833 0.024965
-1.161376 12.158833 0.025076
-0.847553 12.158833 0.025251
-0.533730 12.158833 0.025399
-0.219907 12.158833 0.025502
0.093916 12.158833 0.025465
0.407739 12.158833 0.025430
0.721562 12.158833 0.025462
1.035385 12.158833 0.025567
1.349208 12.158833 0.025700
1.663032 12.158833 0.025894
1.976854 12.158833 0.026008
2.290677 12.158833 0.026204
2.604500 12.158833 0.026657
2.918324 12.158833 0.027224
3.232146 12.158833 0.027718
3.545969 12.158833 0.028059
3.859793 12.158833 0.028357
4.173615 12.158833 0.028756
4.487438 12.158833 0.029540
4.801261 12.158833 0.030807
5.115085 12.158833 0.032301
5.428907 12.158833 0.033899
5.742730 12.158833 0.035850
6.056554 12.158833 0.038535
6.370377 12.158833 0.041827
6.684199 12.158833 0.045846
6.998022 12.158833 0.051111
7.311846 12.158833 0.058275
7.625669 12.158833 0.068257
7.939491 12.158833 0.080506
8.253315 12.158833 0.101188
8.567138 12.158833 0.138092
8.880960 12.158833 0.202677
9.194784 12.158833 0.306490
9.508606 12.158833 0.462882
9.822430 12.158833 0.671044
10.136253 12.158833 0.905988
10.450075 12.158833 1.154822
10.763899 12.158833 1.421980
11.077723 12.158833 1.661259
11.391544 12.158833 1.909007
11.705368 12.158833 2.151333
12.019190 12.158833 2.372900
12.333014 12.158833 2.577544
12.646837 12.158833 2.772039
12.960659 12.158833 2.963967
13.274483 12.158833 3.128350
13.588306 12.158833 3.294317
13.902128 12.158833 3.475692
14.215952 12.158833 3.650839
14.529776 12.158833 3.747141
14.843597 12.158833 3.802064
15.157421 12.158833 3.747938
15.471243 12.158833 3.595926
15.785067 12.158833 3.355304
16.098890 12.158833 3.080980
16.412712 12.158833 2.769685
16.726536 12.158833 2.424775
17.040359 12.158833 2.150056
17.354181 12.158833 1.996595
17.668005 12.158833 1.998451
17.981829 12.158833 2.197279
18.295650 12.158833 2.883963
18.609474 12.158833 3.790527
18.923298 12.158833 0.000000
19.237120 12.158833 0.000000
-6.810190 11.845009 0.000000
-6.496367 11.845009 0.026130
-6.182544 11.845009 0.025053
-5.868721 11.845009 0.024779
-5.554898 11.845009 0.024734
-5.241075 11.845009 0.024962
-4.927252 11.845009 0.025051
-4.613429 11.845009 0.024973
-4.299606 11.845009 0.024738
-3.985783 11.845009 0.024463
-3.671960 11.845009 0.024356
-3.358137 11.845009 0.024463
-3.044314 11.845009 0.024752
-2.730491 11.845009 0.024977
-2.416668 11.845009 0.025064
-2.102845 11.845009 0.024983
-1.789022 11.845009 0.024880
-1.475199 11.845009 0.024928
-1.161376 11.845009 0.025008
-0.847553 11.845009 0.025197
-0.533730 11.845009 0.025365
-0.219907 11.845009 0.025465
0.093916 11.845009 0.025444
0.407739 11.845009 0.025422
0.721562 11.845009 0.025468
1.035385 11.845009 0.025633
1.349208 11.845009 0.025830
1.663032 11.845009 0.025996
1.976854 11.845009 0.026017
2.290677 11.845009 0.026157
2.604500 11.845009 0.026637
2.918324 11.845009 0.027210
3.232146 11.845009 0.027635
3.545969 11.845009 0.027938
3.859793 11.845009 0.028288
4.173615 11.845009 0.028757
4.487438 11.845009 0.029523
4.801261 11.845009 0.030772
5.115085 11.845009 0.032374
5.428907 11.845009 0.034057
5.742730 11.845009 0.036072
6.056554 11.845009 0.038750
6.370377 11.845009 0.041916
6.684199 11.845009 0.045864
6.998022 11.845009 0.051496
7.311846 11.845009 0.058895
7.625669 11.845009 0.068503
7.939491 11.845009 0.082134
8.253315 11.845009 0.102733
8.567138 11.845009 0.141713
8.880960 11.845009 0.206237
9.194784 11.845009 0.314118
9.508606 11.845009 0.476245
9.822430 11.845009 0.672480
10.136253 11.845009 0.913376
10.450075 11.845009 1.160185
10.763899 11.845009 1.416732
11.077723 11.845009 1.660063
11.391544 11.845009 1.908048
11.705368 11.845009 2.137443
12.019190 11.845009 2.337762
12.333014 11.845009 2.588474
12.646837 11.845009 2.767997
12.960659 11.845009 2.984570
13.274483 11.845009 3.148767
13.588306 11.845009 3.342784
13.902128 11.845009 3.470822
14.215952 11.845009 3.637531
14.529776 11.845009 3.753575
14.843597 11.845009 3.783338
15.157421 11.845009 3.736516
15.471243 11.845009 3.593889
15.785067 11.845009 3.359007
16.098890 11.845009 3.108142
16.412712 11.845009 2.762132
16.726536 11.845009 2.435418
17.040359 11.845009 2.182821
17.354181 11.845009 2.014176
17.668005 11.845009 2.006484
17.981829 11.845009 2.246143
18.295650 11.845009 2.937313
18.609474 11.845009 3.839818
18.923298 11.845009 0.000000
19.237120 11.845009 0.000000
-6.810190 11.531185 0.000000
-6.496367 11.531185 0.026015
-6.182544 11.531185 0.024909
-5.868721 11.531185 0.024599
-5.554898 11.531185 0.024554
-5.241075 11.531185 0.024788
-4.927252 11.531185 0.024960
-4.613429 11.531185 0.024983
-4.299606 11.531185 0.024834
-3.985783 11.531185 0.024617
-3.671960 11.531185 0.024477
-3.358137 11.531185 0.024499
-3.044314 11.531185 0.024729
-2.730491 11.531185 0.025000
-2.416668 11.531185 0.025107
-2.102845 11.531185 0.024960
-1.789022 11.531185 0.024851
-1.475199 11.531185 0.024867
-1.161376 11.531185 0.024950
-0.847553 11.531185 0.025129
-0.533730 11.531185 0.025303
-0.219907 11.531185 0.025442
0.093916 11.531185 0.025438
0.407739 11.531185 0.025426
0.721562 11.531185 0.025464
1.035385 11.531185 0.025689
1.349208 11.531185 0.025916
1.663032 11.531185 0.025998
1.976854 11.531185 0.025940
2.290677 11.531185 0.026050
2.604500 11.531185 0.026530
2.918324 11.531185 0.027102
3.232146 11.531185 0.027491
3.545969 11.531185 0.027811
3.859793 11.531185 0.028224
4.173615 11.531185 0.028851
4.487438 11.531185 0.029613
4.801261 11.531185 0.030819
5.115085 11.531185 0.032443
5.428907 11.531185 0.034123
5.742730 11.531185 0.036157
6.056554 11.531185 0.038839
6.370377 11.531185 0.042013
6.684199 11.531185 0.046159
6.998022 11.531185 0.051354
7.311846 11.531185 0.058804
7.625669 11.531185 0.068679
7.939491 11.531185 0.082142
8.253315 11.531185 0.104706
8.567138 11.531185 0.142360
8.880960 11.531185 0.211791
9.194784 11.531185 0.319788
9.508606 11.531185 0.489193
9.822430 11.531185 0.681514
10.136253 11.531185 0.929070
10.450075 11.531185 1.182347
10.763899 11.531185 1.436475
11.077723 11.531185 1.699335
11.391544 11.531185 1.929145
11.705368 11.531185 2.143033
12.019190 11.531185 2.338012
12.333014 11.531185 2.584758
12.646837 11.531185 2.782495
12.960659 11.531185 2.980825
13.274483 11.531185 3.168009
13.588306 11.531185 3.312514
13.902128 11.531185 3.484650
14.215952 11.531185 3.639680
14.529776 11.531185 3.765159
14.843597 11.531185 3.770418
15.157421 11.531185 3.703672
15.471243 11.531185 3.575104
15.785067 11.531185 3.341504
16.098890 11.531185 3.115185
16.412712 11.531185 2.801406
16.726536 11.531185 2.440640
17.040359 11.531185 2.182162
17.354181 11.531185 2.017681
17.668005 11.531185 2.038828
17.981829 11.531185 2.325922
18.295650 11.531185 3.050016
18.609474 11.531185 3.966797
18.923298 11.531185 0.000000
19.237120 11.531185 0.000000
-6.810190 11.217361 0.000000
-6.496367 11.217361 0.025984
-6.182544 11.217361 0.024888
-5.868721 11.217361 0.024598
-5.554898 11.217361 0.024514
-5.241075 11.217361 0.024666
-4.927252 11.217361 0.024887
-4.613429 11.217361 0.024998
-4.299606 11.217361 0.024950
-3.985783 11.217361 0.024769
-3.671960 11.217361 0.024588
-3.358137 11.217361 0.024507
-3.044314 11.217361 0.024653
-2.730491 11.217361 0.024957
-2.416668 11.217361 0.025079
-2.102845 11.217361 0.024906
-1.789022 11.217361 0.024862
-1.475199 11.217361 0.024879
-1.161376 11.217361 0.024921
-0.847553 11.217361 0.025062
-0.533730 11.217361 0.025214
-0.219907 11.217361 0.025373
0.093916 11.217361 0.025376
0.407739 11.217361 0.025286
0.721562 11.217361 0.025342
1.035385 11.217361 0.025630
1.349208 11.217361 0.025858
1.663032 11.217361 0.025882
1.976854 11.217361 0.025818
2.290677 11.217361 0.025941
2.604500 11.217361 0.026398
2.918324 11.217361 0.026914
3.232146 11.217361 0.027274
3.545969 11.217361 0.027721
3.859793 11.217361 0.028243
4.173615 11.217361 0.028958
4.487438 11.217361 0.029738
4.801261 11.217361 0.030835
5.115085 11.217361 0.032355
5.428907 11.217361 0.034116
5.742730 11.217361 0.036175
6.056554 11.217361 0.038817
6.370377 11.217361 0.042165
6.684199 11.217361 0.046422
6.998022 11.217361 0.051626
7.311846 11.217361 0.058850
7.625669 11.217361 0.068388
7.939491 11.217361 0.082357
8.253315 11.217361 0.104120
8.567138 11.217361 0.140785
8.880960 11.217361 0.215095
9.194784 11.217361 0.333568
9.508606 11.217361 0.496688
9.822430 11.217361 0.689918
10.136253 11.217361 0.936651
10.450075 11.217361 1.206023
10.763899 11.217361 1.459004
11.077723 11.217361 1.711979
11.391544 11.217361 1.942534
11.705368 11.217361 2.138012
12.019190 11.217361 2.353826
12.333014 11.217361 2.563300
12.646837 11.217361 2.776095
12.960659 11.217361 2.997800
13.274483 11.217361 3.171634
13.588306 11.217361 3.293131
13.902128 11.217361 3.481755
14.215952 11.217361 3.619671
14.529776 11.217361 3.757485
14.843597 11.217361 3.799083
15.157421 11.217361 3.752690
15.471243 11.217361 3.594897
15.785067 11.217361 3.414999
16.098890 11.217361 3.175878
16.412712 11.217361 2.828905
16.726536 11.217361 2.470509
17.040359 11.217361 2.215381
17.354181 11.217361 2.011125
17.668005 11.217361 2.033737
17.981829 11.217361 2.361502
18.295650 11.217361 3.105077
18.609474 11.217361 4.104003
18.923298 11.217361 0.000000
19.237120 11.217361 0.000000
-6.810190 10.903542 0.000000
-6.496367 10.903542 0.026058
-6.182544 10.903542 0.025029
-5.868721 10.903542 0.024773
-5.554898 10.903542 0.024621
-5.241075 10.903542 0.024621
-4.927252 10.903542 0.024790
-4.613429 10.903542 0.024915
-4.299606 10.903542 0.024933
-3.985783 10.903542 0.024838
-3.671960 10.903542 0.024638
-3.358137 10.903542 0.024485
-3.044314 10.903542 0.024594
-2.730491 10.903542 0.024897
-2.416668 10.903542 0.025043
-2.102845 10.903542 0.024926
-1.789022 10.903542 0.024888
-1.475199 10.903542 0.024902
-1.161376 10.903542 0.024897
-0.847553 10.903542 0.024963
-0.533730 10.903542 0.025109
-0.219907 10.903542 0.025257
0.093916 10.903542 0.025227
0.407739 10.903542 0.025137
0.721562 10.903542 0.025205
1.035385 10.903542 0.025457
1.349208 10.903542 0.025676
1.663032 10.903542 0.025765
1.976854 10.903542 0.025768
2.290677 10.903542 0.025873
2.604500 10.903542 0.026236
2.918324 10.903542 0.026682
3.232146 10.903542 0.027125
3.545969 10.903542 0.027674
3.859793 10.903542 0.028286
4.173615 10.903542 0.029042
4.487438 10.903542 0.029813
4.801261 10.903542 0.030840
5.115085 10.903542 0.032267
5.428907 10.903542 0.034092
5.742730 10.903542 0.036239
6.056554 10.903542 0.038820
6.370377 10.903542 0.042155
6.684199 10.903542 0.046628
6.998022 10.903542 0.051982
7.311846 10.903542 0.059147
7.625669 10.903542 0.069079
7.939491 10.903542 0.082500
8.253315 10.903542 0.104688
8.567138 10.903542 0.143809
8.880960 10.903542 0.216062
9.194784 10.903542 0.340275
9.508606 10.903542 0.515189
9.822430 10.903542 0.718505
10.136253 10.903542 0.946615
10.450075 10.903542 1.210697
10.763899 10.903542 1.479629
11.077723 10.903542 1.721955
11.391544 10.903542 1.956247
11.705368 10.903542 2.158383
12.019190 10.903542 2.371200
12.333014 10.903542 2.583026
12.646837 10.903542 2.791321
12.960659 10.903542 2.967890
13.274483 10.903542 3.132450
13.588306 10.903542 3.296720
13.902128 10.903542 3.462479
14.215952 10.903542 3.598022
14.529776 10.903542 3.738429
14.843597 10.903542 3.807506
15.157421 10.903542 3.773614
15.471243 10.903542 3.651156
15.785067 10.903542 3.508507
16.098890 10.903542 3.199040
16.412712 10.903542 2.893632
16.726536 10.903542 2.554306
17.040359 10.903542 2.252511
17.354181 10.903542 2.095114
17.668005 10.903542 2.076424
17.981829 10.903542 2.478780
18.295650 10.903542 3.298800
18.609474 10.903542 4.332338
18.923298 10.903542 0.000000
19.237120 10.903542 0.000000
-6.810190 10.589718 0.000000
-6.496367 10.589718 0.026149
-6.182544 10.589718 0.025185
-5.868721 10.589718 0.024966
-5.554898 10.589718 0.024753
-5.241075 10.589718 0.024582
-4.927252 10.589718 0.024634
-4.613429 10.589718 0.024736
-4.299606 10.589718 0.024806
-3.985783 10.589718 0.024814
-3.671960 10.589718 0.024658
-3.358137 10.589718 0.024518
-3.044314 10.589718 0.024603
-2.730491 10.589718 0.024887
-2.416668 10.589718 0.025017
-2.102845 10.589718 0.024935
-1.789022 10.589718 0.024905
-1.475199 10.589718 0.024893
-1.161376 10.589718 0.024841
-0.847553 10.589718 0.024826
-0.533730 10.589718 0.024925
-0.219907 10.589718 0.025024
0.093916 10.589718 0.025065
0.407739 10.589718 0.025028
0.721562 10.589718 0.025109
1.035385 10.589718 0.025291
1.349208 10.589718 0.025491
1.663032 10.589718 0.025688
1.976854 10.589718 0.025758
2.290677 10.589718 0.025804
2.604500 10.589718 0.026032
2.918324 10.589718 0.026434
3.232146 10.589718 0.027003
3.545969 10.589718 0.027633
3.859793 10.589718 0.028361
4.173615 10.589718 0.029119
4.487438 10.589718 0.029847
4.801261 10.589718 0.030841
5.115085 10.589718 0.032227
5.428907 10.589718 0.033943
5.742730 10.589718 0.036172
6.056554 10.589718 0.038810
6.370377 10.589718 0.042334
6.684199 10.589718 0.046917
6.998022 10.589718 0.052441
7.311846 10.589718 0.060087
7.625669 10.589718 0.069751
7.939491 10.589718 0.082876
8.253315 10.589718 0.105064
8.567138 10.589718 0.148546
8.880960 10.589718 0.221745
9.194784 10.589718 0.346928
9.508606 10.589718 0.527576
9.822430 10.589718 0.733847
10.136253 10.589718 0.952257
10.450075 10.589718 1.211065
10.763899 10.589718 1.488418
11.077723 10.589718 1.733578
11.391544 10.589718 1.972597
11.705368 10.589718 2.175874
12.019190 10.589718 2.398103
12.333014 10.589718 2.604015
12.646837 10.589718 2.782418
12.960659 10.589718 2.986409
13.274483 10.589718 3.139761
13.588306 10.589718 3.268229
13.902128 10.589718 3.439988
14.215952 10.589718 3.625485
14.529776 10.589718 3.751301
14.843597 10.589718 3.784124
15.157421 10.589718 3.720859
15.471243 10.589718 3.655013
15.785067 10.589718 3.484905
16.098890 10.589718 3.260565
16.412712 10.589718 2.934235
16.726536 10.589718 2.616049
17.040359 10.589718 2.300714
17.354181 10.589718 2.117224
17.668005 10.589718 2.188770
17.981829 10.589718 2.576083
18.295650 10.589718 3.513267
18.609474 10.589718 4.478202
18.923298 10.589718 0.000000
19.237120 10.589718 0.000000
-6.810190 10.275894 0.000000
-6.496367 10.275894 0.026122
-6.182544 10.275894 0.025235
-5.868721 10.275894 0.025070
-5.554898 10.275894 0.024794
-5.241075 10.275894 0.024519
-4.927252 10.275894 0.024495
-4.613429 10.275894 0.024616
-4.299606 10.275894 0.024701
-3.985783 10.275894 0.024767
-3.671960 10.275894 0.024697
-3.358137 10.275894 0.024610
-3.044314 10.275894 0.024626
-2.730491 10.275894 0.024847
-2.416668 10.275894 0.024959
-2.102845 10.275894 0.024909
-1.789022 10.275894 0.024884
-1.475199 10.275894 0.024853
-1.161376 10.275894 0.024798
-0.847553 10.275894 0.024755
-0.533730 10.275894 0.024798
-0.219907 10.275894 0.024906
0.093916 10.275894 0.024978
0.407739 10.275894 0.025004
0.721562 10.275894 0.025072
1.035385 10.275894 0.025173
1.349208 10.275894 0.025348
1.663032 10.275894 0.025647
1.976854 10.275894 0.025747
2.290677 10.275894 0.025725
2.604500 10.275894 0.025854
2.918324 10.275894 0.026307
3.232146 10.275894 0.026927
3.545969 10.275894 0.027625
3.859793 10.275894 0.028402
4.173615 10.275894 0.029149
4.487438 10.275894 0.029867
4.801261 10.275894 0.030866
5.115085 10.275894 0.032182
5.428907 10.275894 0.033829
5.742730 10.275894 0.035954
6.056554 10.275894 0.038681
6.370377 10.275894 0.042322
6.684199 10.275894 0.046891
6.998022 10.275894 0.052578
7.311846 10.275894 0.060419
7.625669 10.275894 0.069537
7.939491 10.275894 0.083653
8.253315 10.275894 0.107997
8.567138 10.275894 0.152417
8.880960 10.275894 0.227015
9.194784 10.275894 0.354077
9.508606 10.275894 0.529725
9.822430 10.275894 0.743642
10.136253 10.275894 0.972059
10.450075 10.275894 1.231021
10.763899 10.275894 1.488992
11.077723 10.275894 1.751582
11.391544 10.275894 1.996247
11.705368 10.275894 2.199864
12.019190 10.275894 2.403634
12.333014 10.275894 2.604911
12.646837 10.275894 2.792577
12.960659 10.275894 2.975814
13.274483 10.275894 3.136199
13.588306 10.275894 3.289719
13.902128 10.275894 3.457400
14.215952 10.275894 3.636165
14.529776 10.275894 3.713527
14.843597 10.275894 3.788998
15.157421 10.275894 3.744963
15.471243 10.275894 3.625405
15.785067 10.275894 3.462821
16.098890 10.275894 3.278988
16.412712 10.275894 3.020854
16.726536 10.275894 2.674082
17.040359 10.275894 2.333083
17.354181 10.275894 2.198171
17.668005 10.275894 2.245475
17.981829 10.275894 2.698292
18.295650 10.275894 3.751111
18.609474 10.275894 4.732290
18.923298 10.275894 0.000000
19.237120 10.275894 0.000000
-6.810190 9.962070 0.000000
-6.496367 9.962070 0.025959
-6.182544 9.962070 0.025183
-5.868721 9.962070 0.025087
-5.554898 9.962070 0.024819
-5.241075 9.962070 0.024507
-4.927252 9.962070 0.024482
-4.613429 9.962070 0.024621
-4.299606 9.962070 0.024700
-3.985783 9.962070 0.024746
-3.671960 9.962070 0.024758
-3.358137 9.962070 0.024698
-3.044314 9.962070 0.024619
-2.730491 9.962070 0.024728
-2.416668 9.962070 0.024853
-2.102845 9.962070 0.024888
-1.789022 9.962070 0.024880
-1.475199 9.962070 0.024847
-1.161376 9.962070 0.024849
-0.847553 9.962070 0.024822
-0.533730 9.962070 0.024805
-0.219907 9.962070 0.024870
0.093916 9.962070 0.025003
0.407739 9.962070 0.025064
0.721562 9.962070 0.025079
1.035385 9.962070 0.025122
1.349208 9.962070 0.025280
1.663032 9.962070 0.025622
1.976854 9.962070 0.025762
2.290677 9.962070 0.025684
2.604500 9.962070 0.025788
2.918324 9.962070 0.026274
3.232146 9.962070 0.026926
3.545969 9.962070 0.027652
3.859793 9.962070 0.028440
4.173615 9.962070 0.029171
4.487438 9.962070 0.029944
4.801261 9.962070 0.030951
5.115085 9.962070 0.032173
5.428907 9.962070 0.033732
5.742730 9.962070 0.035870
6.056554 9.962070 0.038644
6.370377 9.962070 0.042361
6.684199 9.962070 0.047155
6.998022 9.962070 0.053197
7.311846 9.962070 0.060642
7.625669 9.962070 0.070249
7.939491 9.962070 0.084623
8.253315 9.962070 0.109438
8.567138 9.962070 0.152195
8.880960 9.962070 0.232729
9.194784 9.962070 0.359764
9.508606 9.962070 0.537163
9.822430 9.962070 0.752677
10.136253 9.962070 0.985496
10.450075 9.962070 1.223669
10.763899 9.962070 1.496178
11.077723 9.962070 1.740675
11.391544 9.962070 2.015336
11.705368 9.962070 2.215049
12.019190 9.962070 2.425714
12.333014 9.962070 2.606208
12.646837 9.962070 2.810058
12.960659 9.962070 2.988281
13.274483 9.962070 3.192856
13.588306 9.962070 3.348533
13.902128 9.962070 3.474266
14.215952 9.962070 3.618642
14.529776 9.962070 3.691822
14.843597 9.962070 3.743019
15.157421 9.962070 3.728568
15.471243 9.962070 3.636171
15.785067 9.962070 3.490352
16.098890 9.962070 3.285703
16.412712 9.962070 3.070934
16.726536 9.962070 2.700899
17.040359 9.962070 2.377520
17.354181 9.962070 2.242575
17.668005 9.962070 2.333722
17.981829 9.962070 2.809497
18.295650 9.962070 3.929823
18.609474 9.962070 4.917814
18.923298 9.962070 0.000000
19.237120 9.962070 0.000000
-6.810190 9.648247 0.000000
-6.496367 9.648247 0.025805
-6.182544 9.648247 0.025106
-5.868721 9.648247 0.025086
-5.554898 9.648247 0.024857
-5.241075 9.648247 0.024572
-4.927252 9.648247 0.024579
-4.613429 9.648247 0.024715
-4.299606 9.648247 0.024713
-3.985783 9.648247 0.024688
-3.671960 9.648247 0.024753
-3.358137 9.648247 0.024731
-3.044314 9.648247 0.024583
-2.730491 9.648247 0.024591
-2.416668 9.648247 0.024728
-2.102845 9.648247 0.024889
-1.789022 9.648247 0.024949
-1.475199 9.648247 0.024932
-1.161376 9.648247 0.025011
-0.847553 9.648247 0.024983
-0.533730 9.648247 0.024897
-0.219907 9.648247 0.024900
0.093916 9.648247 0.025014
0.407739 9.648247 0.025071
0.721562 9.648247 0.025112
1.035385 9.648247 0.025190
1.349208 9.648247 0.025311
1.663032 9.648247 0.025609
1.976854 9.648247 0.025781
2.290677 9.648247 0.025749
2.604500 9.648247 0.025877
2.918324 9.648247 0.026357
3.232146 9.648247 0.026978
3.545969 9.648247 0.027692
3.859793 9.648247 0.028435
4.173615 9.648247 0.029184
4.487438 9.648247 0.030044
4.801261 9.648247 0.031096
5.115085 9.648247 0.032221
5.428907 9.648247 0.033595
5.742730 9.648247 0.035753
6.056554 9.648247 0.038488
6.370377 9.648247 0.042357
6.684199 9.648247 0.047049
6.998022 9.648247 0.053201
7.311846 9.648247 0.060697
7.625669 9.648247 0.070764
7.939491 9.648247 0.085618
8.253315 9.648247 0.112833
8.567138 9.648247 0.155674
8.880960 9.648247 0.234258
9.194784 9.648247 0.368047
9.508606 9.648247 0.545504
9.822430 9.648247 0.768380
10.136253 9.648247 0.992134
10.450075 9.648247 1.245427
10.763899 9.648247 1.502096
11.077723 9.648247 1.761778
11.391544 9.648247 2.016773
11.705368 9.648247 2.222559
12.019190 9.648247 2.422724
12.333014 9.648247 2.606300
12.646837 9.648247 2.786453
12.960659 9.648247 2.999337
13.274483 9.648247 3.222627
13.588306 9.648247 3.386661
13.902128 9.648247 3.497932
14.215952 9.648247 3.600340
14.529776 9.648247 3.649916
14.843597 9.648247 3.717362
15.157421 9.648247 3.711246
15.471243 9.648247 3.671637
15.785067 9.648247 3.499382
16.098890 9.648247 3.325532
16.412712 9.648247 3.110533
16.726536 9.648247 2.713971
17.040359 9.648247 2.404233
17.354181 9.648247 2.237448
17.668005 9.648247 2.415602
17.981829 9.648247 2.939087
18.295650 9.648247 3.951503
18.609474 9.648247 5.155411
18.923298 9.648247 0.000000
19.237120 9.648247 0.000000
-6.810190 9.334423 0.000000
-6.496367 9.334423 0.025778
-6.182544 9.334423 0.025080
-5.868721 9.334423 0.025102
-5.554898 9.334423 0.024902
-5.241075 9.334423 0.024702
-4.927252 9.334423 0.024729
-4.613429 9.334423 0.024788
-4.299606 9.334423 0.024686
-3.985783 9.334423 0.024583
-3.671960 9.334423 0.024673
-3.358137 9.334423 0.024706
-3.044314 9.334423 0.024563
-2.730491 9.334423 0.024522
-2.416668 9.334423 0.024670
-2.102845 9.334423 0.024921
-1.789022 9.334423 0.025009
-1.475199 9.334423 0.025011
-1.161376 9.334423 0.025124
-0.847553 9.334423 0.025122
-0.533730 9.334423 0.025002
-0.219907 9.334423 0.024952
0.093916 9.334423 0.025018
0.407739 9.334423 0.025068
0.721562 9.334423 0.025154
1.035385 9.334423 0.025271
1.349208 9.334423 0.025360
1.663032 9.334423 0.025604
1.976854 9.334423 0.025823
2.290677 9.334423 0.025879
2.604500 9.334423 0.026079
2.918324 9.334423 0.026539
3.232146 9.334423 0.027115
3.545969 9.334423 0.027771
3.859793 9.334423 0.028435
4.173615 9.334423 0.029134
4.487438 9.334423 0.030075
4.801261 9.334423 0.031188
5.115085 9.334423 0.032195
5.428907 9.334423 0.033525
5.742730 9.334423 0.035697
6.056554 9.334423 0.038535
6.370377 9.334423 0.042391
6.684199 9.334423 0.047256
6.998022 9.334423 0.052890
7.311846 9.334423 0.060553
7.625669 9.334423 0.070514
7.939491 9.334423 0.086600
8.253315 9.334423 0.111103
8.567138 9.334423 0.154604
8.880960 9.334423 0.239081
9.194784 9.334423 0.372881
9.508606 9.334423 0.549197
9.822430 9.334423 0.772270
10.136253 9.334423 1.010036
10.450075 9.334423 1.268115
10.763899 9.334423 1.527643
11.077723 9.334423 1.780478
11.391544 9.334423 2.017035
11.705368 9.334423 2.239177
12.019190 9.334423 2.444853
12.333014 9.334423 2.637792
12.646837 9.334423 2.794440
12.960659 9.334423 3.021050
13.274483 9.334423 3.201264
13.588306 9.334423 3.397781
13.902128 9.334423 3.504599
14.215952 9.334423 3.618850
14.529776 9.334423 3.681511
14.843597 9.334423 3.731505
15.157421 9.334423 3.712771
15.471243 9.334423 3.683919
15.785067 9.334423 3.539527
16.098890 9.334423 3.388296
16.412712 9.334423 3.113656
16.726536 9.334423 2.777924
17.040359 9.334423 2.407411
17.354181 9.334423 2.280194
17.668005 9.334423 2.475678
17.981829 9.334423 3.026773
18.295650 9.334423 4.268206
18.609474 9.334423 5.402955
18.923298 9.334423 0.000000
19.237120 9.334423 0.000000
-6.810190 9.020603 0.000000
-6.496367 9.020603 0.025798
-6.182544 9.020603 0.025017
-5.868721 9.020603 0.025036
-5.554898 9.020603 0.024888
-5.241075 9.020603 0.024806
-4.927252 9.020603 0.024813
-4.613429 9.020603 0.024756
-4.299606 9.020603 0.024587
-3.985783 9.020603 0.024463
-3.671960 9.020603 0.024577
-3.358137 9.020603 0.024683
-3.044314 9.020603 0.024588
-2.730491 9.020603 0.024481
-2.416668 9.020603 0.024577
-2.102845 9.020603 0.024886
-1.789022 9.020603 0.024995
-1.475199 9.020603 0.025001
-1.161376 9.020603 0.025163
-0.847553 9.020603 0.025215
-0.533730 9.020603 0.025090
-0.219907 9.020603 0.024997
0.093916 9.020603 0.024998
0.407739 9.020603 0.025078
0.721562 9.020603 0.025187
1.035385 9.020603 0.025320
1.349208 9.020603 0.025381
1.663032 9.020603 0.025590
1.976854 9.020603 0.025859
2.290677 9.020603 0.026095
2.604500 9.020603 0.026370
2.918324 9.020603 0.026772
3.232146 9.020603 0.027286
3.545969 9.020603 0.027809
3.859793 9.020603 0.028331
4.173615 9.020603 0.028978
4.487438 9.020603 0.030013
4.801261 9.020603 0.031197
5.115085 9.020603 0.032161
5.428907 9.020603 0.033625
5.742730 9.020603 0.035836
6.056554 9.020603 0.038642
6.370377 9.020603 0.042402
6.684199 9.020603 0.046924
6.998022 9.020603 0.053110
7.311846 9.020603 0.061279
7.625669 9.020603 0.071899
7.939491 9.020603 0.087320
8.253315 9.020603 0.112663
8.567138 9.020603 0.159298
8.880960 9.020603 0.244203
9.194784 9.020603 0.379491
9.508606 9.020603 0.565401
9.822430 9.020603 0.781781
10.136253 9.020603 1.021432
10.450075 9.020603 1.284343
10.763899 9.020603 1.554936
11.077723 9.020603 1.787957
11.391544 9.020603 2.042381
11.705368 9.020603 2.244861
12.019190 9.020603 2.452317
12.333014 9.020603 2.649363
12.646837 9.020603 2.840389
12.960659 9.020603 3.030317
13.274483 9.020603 3.216014
13.588306 9.020603 3.401709
13.902128 9.020603 3.530419
14.215952 9.020603 3.617745
14.529776 9.020603 3.682517
14.843597 9.020603 3.760668
15.157421 9.020603 3.725181
15.471243 9.020603 3.719617
15.785067 9.020603 3.543163
16.098890 9.020603 3.386658
16.412712 9.020603 3.111560
16.726536 9.020603 2.811618
17.040359 9.020603 2.448200
17.354181 9.020603 2.361636
17.668005 9.020603 2.520547
17.981829 9.020603 3.182789
18.295650 9.020603 4.425809
18.609474 9.020603 5.906419
18.923298 9.020603 0.000000
19.237120 9.020603 0.000000
-6.810190 8.706779 0.000000
-6.496367 8.706779 0.025814
-6.182544 8.706779 0.024952
-5.868721 8.706779 0.024884
-5.554898 8.706779 0.024789
-5.241075 8.706779 0.024796
-4.927252 8.706779 0.024784
-4.613429 8.706779 0.024656
-4.299606 8.706779 0.024493
-3.985783 8.706779 0.024401
-3.671960 8.706779 0.024531
-3.358137 8.706779 0.024674
-3.044314 8.706779 0.024618
-2.730491 8.706779 0.024475
-2.416668 8.706779 0.024503
-2.102845 8.706779 0.024771
-1.789022 8.706779 0.024904
-1.475199 8.706779 0.024943
-1.161376 8.706779 0.025130
-0.847553 8.706779 0.025273
-0.533730 8.706779 0.025204
-0.219907 8.706779 0.025077
0.093916 8.706779 0.025048
0.407739 8.706779 0.025103
0.721562 8.706779 0.025199
1.035385 8.706779 0.025256
1.349208 8.706779 0.025333
1.663032 8.706779 0.025546
1.976854 8.706779 0.025901
2.290677 8.706779 0.026309
2.604500 8.706779 0.026612
2.918324 8.706779 0.026970
3.232146 8.706779 0.027401
3.545969 8.706779 0.027760
3.859793 8.706779 0.028151
4.173615 8.706779 0.028800
4.487438 8.706779 0.029898
4.801261 8.706779 0.031183
5.115085 8.706779 0.032280
5.428907 8.706779 0.033848
5.742730 8.706779 0.036089
6.056554 8.706779 0.038947
6.370377 8.706779 0.042654
6.684199 8.706779 0.047051
6.998022 8.706779 0.053354
7.311846 8.706779 0.062161
7.625669 8.706779 0.073667
7.939491 8.706779 0.089627
8.253315 8.706779 0.115996
8.567138 8.706779 0.165779
8.880960 8.706779 0.256462
9.194784 8.706779 0.389789
9.508606 8.706779 0.577142
9.822430 8.706779 0.794823
10.136253 8.706779 1.037096
10.450075 8.706779 1.296287
10.763899 8.706779 1.555379
11.077723 8.706779 1.809015
11.391544 8.706779 2.034502
11.705368 8.706779 2.265720
12.019190 8.706779 2.477259
12.333014 8.706779 2.662258
12.646837 8.706779 2.833171
12.960659 8.706779 3.046957
13.274483 8.706779 3.231573
13.588306 8.706779 3.364933
13.902128 8.706779 3.513274
14.215952 8.706779 3.604422
14.529776 8.706779 3.669735
14.843597 8.706779 3.739797
15.157421 8.706779 3.664810
15.471243 8.706779 3.690613
15.785067 8.706779 3.542385
16.098890 8.706779 3.395049
16.412712 8.706779 3.160203
16.726536 8.706779 2.868981
17.040359 8.706779 2.508728
17.354181 8.706779 2.440902
17.668005 8.706779 2.634369
17.981829 8.706779 3.419871
18.295650 8.706779 5.009221
18.609474 8.706779 6.185293
18.923298 8.706779 0.000000
19.237120 8.706779 0.000000
-6.810190 8.392956 0.000000
-6.496367 8.392956 0.025751
-6.182544 8.392956 0.024810
-5.868721 8.392956 0.024717
-5.554898 8.392956 0.024637
-5.241075 8.392956 0.024717
-4.927252 8.392956 0.024736
-4.613429 8.392956 0.024582
-4.299606 8.392956 0.024410
-3.985783 8.392956 0.024349
-3.671960 8.392956 0.024497
-3.358137 8.392956 0.024677
-3.044314 8.392956 0.024663
-2.730491 8.392956 0.024471
-2.416668 8.392956 0.024424
-2.102845 8.392956 0.024603
-1.789022 8.392956 0.024755
-1.475199 8.392956 0.024847
-1.161376 8.392956 0.025097
-0.847553 8.392956 0.025253
-0.533730 8.392956 0.025227
-0.219907 8.392956 0.025120
0.093916 8.392956 0.025134
0.407739 8.392956 0.025121
0.721562 8.392956 0.025183
1.035385 8.392956 0.025182
1.349208 8.392956 0.025225
1.663032 8.392956 0.025482
1.976854 8.392956 0.025864
2.290677 8.392956 0.026371
2.604500 8.392956 0.026719
2.918324 8.392956 0.027001
3.232146 8.392956 0.027346
3.545969 8.392956 0.027618
3.859793 8.392956 0.027972
4.173615 8.392956 0.028645
4.487438 8.392956 0.029833
4.801261 8.392956 0.031192
5.115085 8.392956 0.032469
5.428907 8.392956 0.034151
5.742730 8.392956 0.036409
6.056554 8.392956 0.039396
6.370377 8.392956 0.042955
6.684199 8.392956 0.047199
6.998022 8.392956 0.053981
7.311846 8.392956 0.063060
7.625669 8.392956 0.074532
7.939491 8.392956 0.091387
8.253315 8.392956 0.118918
8.567138 8.392956 0.165986
8.880960 8.392956 0.261326
9.194784 8.392956 0.401176
9.508606 8.392956 0.589175
9.822430 8.392956 0.806064
10.136253 8.392956 1.048731
10.450075 8.392956 1.305466
10.763899 8.392956 1.556415
11.077723 8.392956 1.815244
11.391544 8.392956 2.056382
11.705368 8.392956 2.278378
12.019190 8.392956 2.473579
12.333014 8.392956 2.669396
12.646837 8.392956 2.826059
12.960659 8.392956 3.028064
13.274483 8.392956 3.213952
13.588306 8.392956 3.405291
13.902128 8.392956 3.534069
14.215952 8.392956 3.616823
14.529776 8.392956 3.663626
14.843597 8.392956 3.661443
15.157421 8.392956 3.664207
15.471243 8.392956 3.639277
15.785067 8.392956 3.572860
16.098890 8.392956 3.430515
16.412712 8.392956 3.185925
16.726536 8.392956 2.926293
17.040359 8.392956 2.597523
17.354181 8.392956 2.503202
17.668005 8.392956 2.744216
17.981829 8.392956 3.608186
18.295650 8.392956 5.425406
18.609474 8.392956 6.867716
18.923298 8.392956 0.000000
19.237120 8.392956 0.000000
-6.810190 8.079132 0.000000
-6.496367 8.079132 0.025687
-6.182544 8.079132 0.024746
-5.868721 8.079132 0.024597
-5.554898 8.079132 0.024533
-5.241075 8.079132 0.024608
-4.927252 8.079132 0.024675
-4.613429 8.079132 0.024534
-4.299606 8.079132 0.024354
-3.985783 8.079132 0.024290
-3.671960 8.079132 0.024400
-3.358137 8.079132 0.024601
-3.044314 8.079132 0.024622
-2.730491 8.079132 0.024487
-2.416668 8.079132 0.024404
-2.102845 8.079132 0.024475
-1.789022 8.079132 0.024568
-1.475199 8.079132 0.024686
-1.161376 8.079132 0.024986
-0.847553 8.079132 0.025190
-0.533730 8.079132 0.025146
-0.219907 8.079132 0.025085
0.093916 8.079132 0.025135
0.407739 8.079132 0.025075
0.721562 8.079132 0.025129
1.035385 8.079132 0.025112
1.349208 8.079132 0.025144
1.663032 8.079132 0.025391
1.976854 8.079132 0.025759
2.290677 8.079132 0.026291
2.604500 8.079132 0.026656
2.918324 8.079132 0.026942
3.232146 8.079132 0.027245
3.545969 8.079132 0.027513
3.859793 8.079132 0.027923
4.173615 8.079132 0.028615
4.487438 8.079132 0.029771
4.801261 8.079132 0.031172
5.115085 8.079132 0.032558
5.428907 8.079132 0.034308
5.742730 8.079132 0.036775
6.056554 8.079132 0.039746
6.370377 8.079132 0.043232
6.684199 8.079132 0.047747
6.998022 8.079132 0.054594
7.311846 8.079132 0.063850
7.625669 8.079132 0.075166
7.939491 8.079132 0.091921
8.253315 8.079132 0.120477
8.567138 8.079132 0.171245
8.880960 8.079132 0.266442
9.194784 8.079132 0.417001
9.508606 8.079132 0.595796
9.822430 8.079132 0.823139
10.136253 8.079132 1.064835
10.450075 8.079132 1.326678
10.763899 8.079132 1.576686
11.077723 8.079132 1.829778
11.391544 8.079132 2.050088
11.705368 8.079132 2.283498
12.019190 8.079132 2.498327
12.333014 8.079132 2.676112
12.646837 8.079132 2.841457
12.960659 8.079132 3.000100
13.274483 8.079132 3.203731
13.588306 8.079132 3.431584
13.902128 8.079132 3.519271
14.215952 8.079132 3.582389
14.529776 8.079132 3.630646
14.843597 8.079132 3.637567
15.157421 8.079132 3.602216
15.471243 8.079132 3.629576
15.785067 8.079132 3.572270
16.098890 8.079132 3.512683
16.412712 8.079132 3.314766
16.726536 8.079132 2.978533
17.040359 8.079132 2.676588
17.354181 8.079132 2.586215
17.668005 8.079132 2.873889
17.981829 8.079132 3.944774
18.295650 8.079132 5.695999
18.609474 8.079132 7.562435
18.923298 8.079132 0.000000
19.237120 8.079132 0.000000
-6.810190 7.765308 0.000000
-6.496367 7.765308 0.025621
-6.182544 7.765308 0.024721
-5.868721 7.765308 0.024600
-5.554898 7.765308 0.024487
-5.241075 7.765308 0.024520
-4.927252 7.765308 0.024585
-4.613429 7.765308 0.024485
-4.299606 7.765308 0.024304
-3.985783 7.765308 0.024206
-3.671960 7.765308 0.024285
-3.358137 7.765308 0.024489
-3.044314 7.765308 0.024611
-2.730491 7.765308 0.024578
-2.416668 7.765308 0.024456
-2.102845 7.765308 0.024420
-1.789022 7.765308 0.024427
-1.475199 7.765308 0.024516
-1.161376 7.765308 0.024826
-0.847553 7.765308 0.025041
-0.533730 7.765308 0.025020
-0.219907 7.765308 0.024994
0.093916 7.765308 0.025073
0.407739 7.765308 0.025031
0.721562 7.765308 0.025079
1.035385 7.765308 0.025070
1.349208 7.765308 0.025101
1.663032 7.765308 0.025284
1.976854 7.765308 0.025573
2.290677 7.765308 0.026091
2.604500 7.765308 0.026553
2.918324 7.765308 0.026879
3.232146 7.765308 0.027188
3.545969 7.765308 0.027523
3.859793 7.765308 0.027981
4.173615 7.765308 0.028652
4.487438 7.765308 0.029708
4.801261 7.765308 0.031067
5.115085 7.765308 0.032584
5.428907 7.765308 0.034546
5.742730 7.765308 0.037032
6.056554 7.765308 0.040111
6.370377 7.765308 0.043602
6.684199 7.765308 0.048426
6.998022 7.765308 0.055014
7.311846 7.765308 0.063778
7.625669 7.765308 0.075436
7.939491 7.765308 0.093082
8.253315 7.765308 0.121302
8.567138 7.765308 0.175264
8.880960 7.765308 0.275685
9.194784 7.765308 0.421706
9.508606 7.765308 0.611351
9.822430 7.765308 0.837988
10.136253 7.765308 1.081906
10.450075 7.765308 1.333496
10.763899 7.765308 1.600156
11.077723 7.765308 1.857136
11.391544 7.765308 2.056677
11.705368 7.765308 2.283404
12.019190 7.765308 2.488368
12.333014 7.765308 2.673621
12.646837 7.765308 2.848179
12.960659 7.765308 3.010641
13.274483 7.765308 3.216512
13.588306 7.765308 3.411341
13.902128 7.765308 3.520265
14.215952 7.765308 3.600819
14.529776 7.765308 3.631557
14.843597 7.765308 3.613542
15.157421 7.765308 3.588782
15.471243 7.765308 3.620568
15.785067 7.765308 3.593913
16.098890 7.765308 3.551330
16.412712 7.765308 3.364253
16.726536 7.765308 3.082766
17.040359 7.765308 2.806026
17.354181 7.765308 2.754521
17.668005 7.765308 3.102003
17.981829 7.765308 4.034241
18.295650 7.765308 6.153375
18.609474 7.765308 8.082618
18.923298 7.765308 0.000000
19.237120 7.765308 0.000000
-6.810190 7.451488 0.000000
-6.496367 7.451488 0.025572
-6.182544 7.451488 0.024704
-5.868721 7.451488 0.024607
-5.554898 7.451488 0.024489
-5.241075 7.451488 0.024469
-4.927252 7.451488 0.024535
-4.613429 7.451488 0.024483
-4.299606 7.451488 0.024339
-3.985783 7.451488 0.024201
-3.671960 7.451488 0.024192
-3.358137 7.451488 0.024388
-3.044314 7.451488 0.024637
-2.730491 7.451488 0.024669
-2.416668 7.451488 0.024530
-2.102845 7.451488 0.024429
-1.789022 7.451488 0.024371
-1.475199 7.451488 0.024414
-1.161376 7.451488 0.024629
-0.847553 7.451488 0.024839
-0.533730 7.451488 0.024893
-0.219907 7.451488 0.024910
0.093916 7.451488 0.025020
0.407739 7.451488 0.025043
0.721562 7.451488 0.025112
1.035385 7.451488 0.025131
1.349208 7.451488 0.025143
1.663032 7.451488 0.025242
1.976854 7.451488 0.025468
2.290677 7.451488 0.025905
2.604500 7.451488 0.026435
2.918324 7.451488 0.026844
3.232146 7.451488 0.027219
3.545969 7.451488 0.027615
3.859793 7.451488 0.028098
4.173615 7.451488 0.028725
4.487438 7.451488 0.029681
4.801261 7.451488 0.030964
5.115085 7.451488 0.032640
5.428907 7.451488 0.034689
5.742730 7.451488 0.037289
6.056554 7.451488 0.040371
6.370377 7.451488 0.044086
6.684199 7.451488 0.048838
6.998022 7.451488 0.055028
7.311846 7.451488 0.063607
7.625669 7.451488 0.074675
7.939491 7.451488 0.093983
8.253315 7.451488 0.123395
8.567138 7.451488 0.180994
8.880960 7.451488 0.287325
9.194784 7.451488 0.433681
9.508606 7.451488 0.635853
9.822430 7.451488 0.855385
10.136253 7.451488 1.096626
10.450075 7.451488 1.344755
10.763899 7.451488 1.615177
11.077723 7.451488 1.868391
11.391544 7.451488 2.089599
11.705368 7.451488 2.279711
12.019190 7.451488 2.489235
12.333014 7.451488 2.682367
12.646837 7.451488 2.851572
12.960659 7.451488 3.032190
13.274483 7.451488 3.201644
13.588306 7.451488 3.396818
13.902128 7.451488 3.508689
14.215952 7.451488 3.592911
14.529776 7.451488 3.662419
14.843597 7.451488 3.654830
15.157421 7.451488 3.675447
15.471243 7.451488 3.693853
15.785067 7.451488 3.633018
16.098890 7.451488 3.566766
16.412712 7.451488 3.459548
16.726536 7.451488 3.174066
17.040359 7.451488 2.986746
17.354181 7.451488 3.009684
17.668005 7.451488 3.255455
17.981829 7.451488 4.502547
18.295650 7.451488 6.446540
18.609474 7.451488 8.524906
18.923298 7.451488 0.000000
19.237120 7.451488 0.000000
-6.810190 7.137665 0.000000
-6.496367 7.137665 0.025558
-6.182544 7.137665 0.024679
-5.868721 7.137665 0.024618
-5.554898 7.137665 0.024517
-5.241075 7.137665 0.024496
-4.927252 7.137665 0.024552
-4.613429 7.137665 0.024535
-4.299606 7.137665 0.024460
-3.985783 7.137665 0.024281
-3.671960 7.137665 0.024184
-3.358137 7.137665 0.024350
-3.044314 7.137665 0.024664
-2.730491 7.137665 0.024747
-2.416668 7.137665 0.024605
-2.102845 7.137665 0.024471
-1.789022 7.137665 0.024399
-1.475199 7.137665 0.024410
-1.161376 7.137665 0.024516
-0.847553 7.137665 0.024677
-0.533730 7.137665 0.024771
-0.219907 7.137665 0.024833
0.093916 7.137665 0.024961
0.407739 7.137665 0.025031
0.721562 7.137665 0.025152
1.035385 7.137665 0.025221
1.349208 7.137665 0.025270
1.663032 7.137665 0.025289
1.976854 7.137665 0.025400
2.290677 7.137665 0.025714
2.604500 7.137665 0.026244
2.918324 7.137665 0.026781
3.232146 7.137665 0.027264
3.545969 7.137665 0.027722
3.859793 7.137665 0.028214
4.173615 7.137665 0.028809
4.487438 7.137665 0.029692
4.801261 7.137665 0.030935
5.115085 7.137665 0.032600
5.428907 7.137665 0.034709
5.742730 7.137665 0.037227
6.056554 7.137665 0.040336
6.370377 7.137665 0.043994
6.684199 7.137665 0.048810
6.998022 7.137665 0.055157
7.311846 7.137665 0.064128
7.625669 7.137665 0.075717
7.939491 7.137665 0.094127
8.253315 7.137665 0.127002
8.567138 7.137665 0.189177
8.880960 7.137665 0.296904
9.194784 7.137665 0.448792
9.508606 7.137665 0.652327
9.822430 7.137665 0.879165
10.136253 7.137665 1.113959
10.450075 7.137665 1.359390
10.763899 7.137665 1.630684
11.077723 7.137665 1.880549
11.391544 7.137665 2.087057
11.705368 7.137665 2.285611
12.019190 7.137665 2.497438
12.333014 7.137665 2.693184
12.646837 7.137665 2.888898
12.960659 7.137665 3.054408
13.274483 7.137665 3.225402
13.588306 7.137665 3.374603
13.902128 7.137665 3.497995
14.215952 7.137665 3.581239
14.529776 7.137665 3.656261
14.843597 7.137665 3.646718
15.157421 7.137665 3.687922
15.471243 7.137665 3.637075
15.785067 7.137665 3.690350
16.098890 7.137665 3.599277
16.412712 7.137665 3.479899
16.726536 7.137665 3.273382
17.040359 7.137665 3.102719
17.354181 7.137665 3.119335
17.668005 7.137665 3.409867
17.981829 7.137665 4.537519
18.295650 7.137665 6.713476
18.609474 7.137665 8.774149
18.923298 7.137665 0.000000
19.237120 7.137665 0.000000
-6.810190 6.823841 0.000000
-6.496367 6.823841 0.025539
-6.182544 6.823841 0.024680
-5.868721 6.823841 0.024618
-5.554898 6.823841 0.024554
-5.241075 6.823841 0.024559
-4.927252 6.823841 0.024621
-4.613429 6.823841 0.024652
-4.299606 6.823841 0.024597
-3.985783 6.823841 0.024389
-3.671960 6.823841 0.024214
-3.358137 6.823841 0.024332
-3.044314 6.823841 0.024610
-2.730491 6.823841 0.024730
-2.416668 6.823841 0.024624
-2.102845 6.823841 0.024480
-1.789022 6.823841 0.024423
-1.475199 6.823841 0.024435
-1.161376 6.823841 0.024464
-0.847553 6.823841 0.024575
-0.533730 6.823841 0.024621
-0.219907 6.823841 0.024727
0.093916 6.823841 0.024907
0.407739 6.823841 0.025042
0.721562 6.823841 0.025173
1.035385 6.823841 0.025272
1.349208 6.823841 0.025352
1.663032 6.823841 0.025329
1.976854 6.823841 0.025330
2.290677 6.823841 0.025532
2.604500 6.823841 0.025969
2.918324 6.823841 0.026595
3.232146 6.823841 0.027241
3.545969 6.823841 0.027744
3.859793 6.823841 0.028278
4.173615 6.823841 0.028861
4.487438 6.823841 0.029677
4.801261 6.823841 0.030833
5.115085 6.823841 0.032496
5.428907 6.823841 0.034540
5.742730 6.823841 0.037000
6.056554 6.823841 0.040199
6.370377 6.823841 0.044131
6.684199 6.823841 0.048899
6.998022 6.823841 0.055729
7.311846 6.823841 0.065292
7.625669 6.823841 0.076203
7.939491 6.823841 0.095914
8.253315 6.823841 0.130063
8.567138 6.823841 0.193495
8.880960 6.823841 0.313794
9.194784 6.823841 0.464245
9.508606 6.823841 0.664099
9.822430 6.823841 0.893473
10.136253 6.823841 1.132784
10.450075 6.823841 1.369903
10.763899 6.823841 1.639804
11.077723 6.823841 1.877365
11.391544 6.823841 2.080402
11.705368 6.823841 2.292260
12.019190 6.823841 2.520338
12.333014 6.823841 2.711010
12.646837 6.823841 2.906926
12.960659 6.823841 3.067539
13.274483 6.823841 3.235241
13.588306 6.823841 3.362792
13.902128 6.823841 3.512697
14.215952 6.823841 3.615645
14.529776 6.823841 3.605139
14.843597 6.823841 3.643562
15.157421 6.823841 3.664053
15.471243 6.823841 3.669191
15.785067 6.823841 3.701554
16.098890 6.823841 3.611664
16.412712 6.823841 3.551086
16.726536 6.823841 3.386766
17.040359 6.823841 3.246027
17.354181 6.823841 3.250954
17.668005 6.823841 3.630750
17.981829 6.823841 4.950115
18.295650 6.823841 7.173356
18.609474 6.823841 9.255635
18.923298 6.823841 0.000000
19.237120 6.823841 0.000000
-6.810190 6.510017 0.000000
-6.496367 6.510017 0.025529
-6.182544 6.510017 0.024695
-5.868721 6.510017 0.024590
-5.554898 6.510017 0.024512
-5.241075 6.510017 0.024555
-4.927252 6.510017 0.024679
-4.613429 6.510017 0.024764
-4.299606 6.510017 0.024702
-3.985783 6.510017 0.024451
-3.671960 6.510017 0.024266
-3.358137 6.510017 0.024333
-3.044314 6.510017 0.024506
-2.730491 6.510017 0.024605
-2.416668 6.510017 0.024547
-2.102845 6.510017 0.024442
-1.789022 6.510017 0.024450
-1.475199 6.510017 0.024489
-1.161376 6.510017 0.024455
-0.847553 6.510017 0.024473
-0.533730 6.510017 0.024501
-0.219907 6.510017 0.024625
0.093916 6.510017 0.024843
0.407739 6.510017 0.025034
0.721562 6.510017 0.025153
1.035385 6.510017 0.025269
1.349208 6.510017 0.025362
1.663032 6.510017 0.025337
1.976854 6.510017 0.025266
2.290677 6.510017 0.025360
2.604500 6.510017 0.025734
2.918324 6.510017 0.026417
3.232146 6.510017 0.027160
3.545969 6.510017 0.027697
3.859793 6.510017 0.028261
4.173615 6.510017 0.028863
4.487438 6.510017 0.029634
4.801261 6.510017 0.030733
5.115085 6.510017 0.032316
5.428907 6.510017 0.034384
5.742730 6.510017 0.036856
6.056554 6.510017 0.040171
6.370377 6.510017 0.044182
6.684199 6.510017 0.049158
6.998022 6.510017 0.055986
7.311846 6.510017 0.065867
7.625669 6.510017 0.077077
7.939491 6.510017 0.097617
8.253315 6.510017 0.132335
8.567138 6.510017 0.199879
8.880960 6.510017 0.319798
9.194784 6.510017 0.475450
9.508606 6.510017 0.678764
9.822430 6.510017 0.898670
10.136253 6.510017 1.140530
10.450075 6.510017 1.393024
10.763899 6.510017 1.652644
11.077723 6.510017 1.884239
11.391544 6.510017 2.099851
11.705368 6.510017 2.311914
12.019190 6.510017 2.536431
12.333014 6.510017 2.746217
12.646837 6.510017 2.910290
12.960659 6.510017 3.051493
13.274483 6.510017 3.213670
13.588306 6.510017 3.398732
13.902128 6.510017 3.529800
14.215952 6.510017 3.604794
14.529776 6.510017 3.630720
14.843597 6.510017 3.637660
15.157421 6.510017 3.615671
15.471243 6.510017 3.686262
15.785067 6.510017 3.710413
16.098890 6.510017 3.676813
16.412712 6.510017 3.634903
16.726536 6.510017 3.469334
17.040359 6.510017 3.322086
17.354181 6.510017 3.312268
17.668005 6.510017 3.863594
17.981829 6.510017 5.311898
18.295650 6.510017 7.564405
18.609474 6.510017 9.578312
18.923298 6.510017 0.000000
19.237120 6.510017 0.000000
-6.810190 6.196194 0.000000
-6.496367 6.196194 0.025537
-6.182544 6.196194 0.024679
-5.868721 6.196194 0.024493
-5.554898 6.196194 0.024356
-5.241075 6.196194 0.024446
-4.927252 6.196194 0.024667
-4.613429 6.196194 0.024781
-4.299606 6.196194 0.024711
-3.985783 6.196194 0.024492
-3.671960 6.196194 0.024344
-3.358137 6.196194 0.024334
-3.044314 6.196194 0.024394
-2.730491 6.196194 0.024459
-2.416668 6.196194 0.024441
-2.102845 6.196194 0.024421
-1.789022 6.196194 0.024501
-1.475199 6.196194 0.024567
-1.161376 6.196194 0.024458
-0.847553 6.196194 0.024427
-0.533730 6.196194 0.024430
-0.219907 6.196194 0.024552
0.093916 6.196194 0.024800
0.407739 6.196194 0.025032
0.721562 6.196194 0.025196
1.035385 6.196194 0.025214
1.349208 6.196194 0.025296
1.663032 6.196194 0.025366
1.976854 6.196194 0.025292
2.290677 6.196194 0.025324
2.604500 6.196194 0.025635
2.918324 6.196194 0.026272
3.232146 6.196194 0.027010
3.545969 6.196194 0.027608
3.859793 6.196194 0.028198
4.173615 6.196194 0.028842
4.487438 6.196194 0.029666
4.801261 6.196194 0.030767
5.115085 6.196194 0.032314
5.428907 6.196194 0.034361
5.742730 6.196194 0.036917
6.056554 6.196194 0.040357
6.370377 6.196194 0.044220
6.684199 6.196194 0.049292
6.998022 6.196194 0.056745
7.311846 6.196194 0.065948
7.625669 6.196194 0.078329
7.939491 6.196194 0.098817
8.253315 6.196194 0.133456
8.567138 6.196194 0.203211
8.880960 6.196194 0.321539
9.194784 6.196194 0.490295
9.508606 6.196194 0.688989
9.822430 6.196194 0.913653
10.136253 6.196194 1.162224
10.450075 6.196194 1.405228
10.763899 6.196194 1.669263
11.077723 6.196194 1.904032
11.391544 6.196194 2.104766
11.705368 6.196194 2.339207
12.019190 6.196194 2.562119
12.333014 6.196194 2.769716
12.646837 6.196194 2.929568
12.960659 6.196194 3.050524
13.274483 6.196194 3.253666
13.588306 6.196194 3.407468
13.902128 6.196194 3.542487
14.215952 6.196194 3.567770
14.529776 6.196194 3.597120
14.843597 6.196194 3.604114
15.157421 6.196194 3.653626
15.471243 6.196194 3.697117
15.785067 6.196194 3.660600
16.098890 6.196194 3.707503
16.412712 6.196194 3.693549
16.726536 6.196194 3.648261
17.040359 6.196194 3.452481
17.354181 6.196194 3.494653
17.668005 6.196194 4.077959
17.981829 6.196194 5.432965
18.295650 6.196194 7.692729
18.609474 6.196194 9.836262
18.923298 6.196194 0.000000
19.237120 6.196194 0.000000
-6.810190 5.882370 0.000000
-6.496367 5.882370 0.025552
-6.182544 5.882370 0.024655
-5.868721 5.882370 0.024384
-5.554898 5.882370 0.024204
-5.241075 5.882370 0.024307
-4.927252 5.882370 0.024580
-4.613429 5.882370 0.024721
-4.299606 5.882370 0.024654
-3.985783 5.882370 0.024484
-3.671960 5.882370 0.024414
-3.358137 5.882370 0.024346
-3.044314 5.882370 0.024312
-2.730491 5.882370 0.024366
-2.416668 5.882370 0.024350
-2.102845 5.882370 0.024396
-1.789022 5.882370 0.024526
-1.475199 5.882370 0.024600
-1.161376 5.882370 0.024481
-0.847553 5.882370 0.024437
-0.533730 5.882370 0.024459
-0.219907 5.882370 0.024566
0.093916 5.882370 0.024804
0.407739 5.882370 0.025078
0.721562 5.882370 0.025234
1.035385 5.882370 0.025186
1.349208 5.882370 0.025256
1.663032 5.882370 0.025419
1.976854 5.882370 0.025422
2.290677 5.882370 0.025418
2.604500 5.882370 0.025651
2.918324 5.882370 0.026195
3.232146 5.882370 0.026924
3.545969 5.882370 0.027550
3.859793 5.882370 0.028144
4.173615 5.882370 0.028834
4.487438 5.882370 0.029783
4.801261 5.882370 0.030895
5.115085 5.882370 0.032401
5.428907 5.882370 0.034388
5.742730 5.882370 0.037073
6.056554 5.882370 0.040414
6.370377 5.882370 0.044528
6.684199 5.882370 0.049842
6.998022 5.882370 0.056933
7.311846 5.882370 0.066367
7.625669 5.882370 0.079257
7.939491 5.882370 0.100937
8.253315 5.882370 0.137164
8.567138 5.882370 0.207412
8.880960 5.882370 0.327682
9.194784 5.882370 0.497742
9.508606 5.882370 0.702136
9.822430 5.882370 0.935496
10.136253 5.882370 1.182407
10.450075 5.882370 1.425240
10.763899 5.882370 1.665879
11.077723 5.882370 1.925068
11.391544 5.882370 2.134434
11.705368 5.882370 2.356467
12.019190 5.882370 2.587387
12.333014 5.882370 2.767631
12.646837 5.882370 2.936804
12.960659 5.882370 3.089220
13.274483 5.882370 3.262345
13.588306 5.882370 3.399159
13.902128 5.882370 3.518820
14.215952 5.882370 3.557092
14.529776 5.882370 3.601027
14.843597 5.882370 3.563114
15.157421 5.882370 3.666813
15.471243 5.882370 3.692105
15.785067 5.882370 3.728499
16.098890 5.882370 3.790177
16.412712 5.882370 3.820013
16.726536 5.882370 3.740213
17.040359 5.882370 3.622385
17.354181 5.882370 3.657536
17.668005 5.882370 4.262287
17.981829 5.882370 5.723050
18.295650 5.882370 8.107797
18.609474 5.882370 10.342102
18.923298 5.882370 0.000000
19.237120 5.882370 0.000000
-6.810190 5.568550 0.000000
-6.496367 5.568550 0.025482
-6.182544 5.568550 0.024615
-5.868721 5.568550 0.024336
-5.554898 5.568550 0.024161
-5.241075 5.568550 0.024230
-4.927252 5.568550 0.024457
-4.613429 5.568550 0.024621
-4.299606 5.568550 0.024559
-3.985783 5.568550 0.024439
-3.671960 5.568550 0.024425
-3.358137 5.568550 0.024340
-3.044314 5.568550 0.024285
-2.730491 5.568550 0.024325
-2.416668 5.568550 0.024373
-2.102845 5.568550 0.024412
-1.789022 5.568550 0.024562
-1.475199 5.568550 0.024629
-1.161376 5.568550 0.024500
-0.847553 5.568550 0.024478
-0.533730 5.568550 0.024540
-0.219907 5.568550 0.024668
0.093916 5.568550 0.024900
0.407739 5.568550 0.025174
0.721562 5.568550 0.025268
1.035385 5.568550 0.025175
1.349208 5.568550 0.025243
1.663032 5.568550 0.025491
1.976854 5.568550 0.025607
2.290677 5.568550 0.025659
2.604500 5.568550 0.025848
2.918324 5.568550 0.026240
3.232146 5.568550 0.026879
3.545969 5.568550 0.027502
3.859793 5.568550 0.028096
4.173615 5.568550 0.028878
4.487438 5.568550 0.029921
4.801261 5.568550 0.031067
5.115085 5.568550 0.032421
5.428907 5.568550 0.034331
5.742730 5.568550 0.037109
6.056554 5.568550 0.040603
6.370377 5.568550 0.044768
6.684199 5.568550 0.050156
6.998022 5.568550 0.057343
7.311846 5.568550 0.066551
7.625669 5.568550 0.080765
7.939491 5.568550 0.103671
8.253315 5.568550 0.143536
8.567138 5.568550 0.216962
8.880960 5.568550 0.339762
9.194784 5.568550 0.515374
9.508606 5.568550 0.724801
9.822430 5.568550 0.947919
10.136253 5.568550 1.196499
10.450075 5.568550 1.433700
10.763899 5.568550 1.681887
11.077723 5.568550 1.921401
11.391544 5.568550 2.138151
11.705368 5.568550 2.373189
12.019190 5.568550 2.576896
12.333014 5.568550 2.735767
12.646837 5.568550 2.920624
12.960659 5.568550 3.100018
13.274483 5.568550 3.251743
13.588306 5.568550 3.384931
13.902128 5.568550 3.535771
14.215952 5.568550 3.561347
14.529776 5.568550 3.580646
14.843597 5.568550 3.594828
15.157421 5.568550 3.622056
15.471243 5.568550 3.700708
15.785067 5.568550 3.758015
16.098890 5.568550 3.857392
16.412712 5.568550 3.895135
16.726536 5.568550 3.892745
17.040359 5.568550 3.852064
17.354181 5.568550 3.907519
17.668005 5.568550 4.643521
17.981829 5.568550 5.928350
18.295650 5.568550 8.594525
18.609474 5.568550 10.578991
18.923298 5.568550 0.000000
19.237120 5.568550 0.000000
-6.810190 5.254726 0.000000
-6.496367 5.254726 0.025387
-6.182544 5.254726 0.024557
-5.868721 5.254726 0.024342
-5.554898 5.254726 0.024197
-5.241075 5.254726 0.024191
-4.927252 5.254726 0.024349
-4.613429 5.254726 0.024499
-4.299606 5.254726 0.024427
-3.985783 5.254726 0.024316
-3.671960 5.254726 0.024344
-3.358137 5.254726 0.024321
-3.044314 5.254726 0.024237
-2.730491 5.254726 0.024324
-2.416668 5.254726 0.024458
-2.102845 5.254726 0.024505
-1.789022 5.254726 0.024614
-1.475199 5.254726 0.024651
-1.161376 5.254726 0.024563
-0.847553 5.254726 0.024558
-0.533730 5.254726 0.024653
-0.219907 5.254726 0.024794
0.093916 5.254726 0.025026
0.407739 5.254726 0.025219
0.721562 5.254726 0.025249
1.035385 5.254726 0.025163
1.349208 5.254726 0.025293
1.663032 5.254726 0.025586
1.976854 5.254726 0.025842
2.290677 5.254726 0.026003
2.604500 5.254726 0.026153
2.918324 5.254726 0.026405
3.232146 5.254726 0.026923
3.545969 5.254726 0.027502
3.859793 5.254726 0.028091
4.173615 5.254726 0.028942
4.487438 5.254726 0.030030
4.801261 5.254726 0.031223
5.115085 5.254726 0.032449
5.428907 5.254726 0.034295
5.742730 5.254726 0.037117
6.056554 5.254726 0.040615
6.370377 5.254726 0.044729
6.684199 5.254726 0.050047
6.998022 5.254726 0.057901
7.311846 5.254726 0.068040
7.625669 5.254726 0.082674
7.939491 5.254726 0.105429
8.253315 5.254726 0.145595
8.567138 5.254726 0.228922
8.880960 5.254726 0.350597
9.194784 5.254726 0.534202
9.508606 5.254726 0.735151
9.822430 5.254726 0.979024
10.136253 5.254726 1.211196
10.450075 5.254726 1.448448
10.763899 5.254726 1.685645
11.077723 5.254726 1.915964
11.391544 5.254726 2.140203
11.705368 5.254726 2.369600
12.019190 5.254726 2.575220
12.333014 5.254726 2.721101
12.646837 5.254726 2.881895
12.960659 5.254726 3.079531
13.274483 5.254726 3.236634
13.588306 5.254726 3.374346
13.902128 5.254726 3.530621
14.215952 5.254726 3.566172
14.529776 5.254726 3.547575
14.843597 5.254726 3.558583
15.157421 5.254726 3.640439
15.471243 5.254726 3.706729
15.785067 5.254726 3.804263
16.098890 5.254726 3.885534
16.412712 5.254726 3.923536
16.726536 5.254726 3.990627
17.040359 5.254726 3.954585
17.354181 5.254726 4.240194
17.668005 5.254726 4.748270
17.981829 5.254726 6.377987
18.295650 5.254726 8.739321
18.609474 5.254726 10.475311
18.923298 5.254726 0.000000
19.237120 5.254726 0.000000
-6.810190 4.940903 0.000000
-6.496367 4.940903 0.025247
-6.182544 4.940903 0.024484
-5.868721 4.940903 0.024394
-5.554898 4.940903 0.024260
-5.241075 4.940903 0.024129
-4.927252 4.940903 0.024204
-4.613429 4.940903 0.024335
-4.299606 4.940903 0.024267
-3.985783 4.940903 0.024221
-3.671960 4.940903 0.024292
-3.358137 4.940903 0.024285
-3.044314 4.940903 0.024207
-2.730491 4.940903 0.024308
-2.416668 4.940903 0.024538
-2.102845 4.940903 0.024568
-1.789022 4.940903 0.024611
-1.475199 4.940903 0.024648
-1.161376 4.940903 0.024619
-0.847553 4.940903 0.024650
-0.533730 4.940903 0.024784
-0.219907 4.940903 0.024957
0.093916 4.940903 0.025140
0.407739 4.940903 0.025246
0.721562 4.940903 0.025244
1.035385 4.940903 0.025183
1.349208 4.940903 0.025346
1.663032 4.940903 0.025683
1.976854 4.940903 0.026019
2.290677 4.940903 0.026277
2.604500 4.940903 0.026443
2.918324 4.940903 0.026604
3.232146 4.940903 0.026999
3.545969 4.940903 0.027495
3.859793 4.940903 0.028076
4.173615 4.940903 0.028989
4.487438 4.940903 0.030140
4.801261 4.940903 0.031373
5.115085 4.940903 0.032581
5.428907 4.940903 0.034333
5.742730 4.940903 0.037144
6.056554 4.940903 0.040610
6.370377 4.940903 0.044910
6.684199 4.940903 0.050495
6.998022 4.940903 0.058458
7.311846 4.940903 0.068739
7.625669 4.940903 0.083744
7.939491 4.940903 0.106803
8.253315 4.940903 0.149588
8.567138 4.940903 0.236729
8.880960 4.940903 0.369205
9.194784 4.940903 0.541923
9.508606 4.940903 0.760992
9.822430 4.940903 1.002817
10.136253 4.940903 1.234024
10.450075 4.940903 1.452417
10.763899 4.940903 1.699514
11.077723 4.940903 1.933138
11.391544 4.940903 2.139292
11.705368 4.940903 2.369183
12.019190 4.940903 2.585070
12.333014 4.940903 2.747785
12.646837 4.940903 2.887932
12.960659 4.940903 3.077526
13.274483 4.940903 3.262848
13.588306 4.940903 3.381938
13.902128 4.940903 3.520508
14.215952 4.940903 3.543348
14.529776 4.940903 3.577228
14.843597 4.940903 3.559787
15.157421 4.940903 3.647265
15.471243 4.940903 3.677853
15.785067 4.940903 3.801853
16.098890 4.940903 3.968174
16.412712 4.940903 3.975133
16.726536 4.940903 4.107652
17.040359 4.940903 4.147555
17.354181 4.940903 4.249938
17.668005 4.940903 5.022715
17.981829 4.940903 6.521430
18.295650 4.940903 8.796291
18.609474 4.940903 10.707737
18.923298 4.940903 0.000000
19.237120 4.940903 0.000000
-6.810190 4.627079 0.000000
-6.496367 4.627079 0.025132
-6.182544 4.627079 0.024433
-5.868721 4.627079 0.024458
-5.554898 4.627079 0.024307
-5.241075 4.627079 0.024093
-4.927252 4.627079 0.024105
-4.613429 4.627079 0.024217
-4.299606 4.627079 0.024161
-3.985783 4.627079 0.024145
-3.671960 4.627079 0.024257
-3.358137 4.627079 0.024268
-3.044314 4.627079 0.024194
-2.730491 4.627079 0.024292
-2.416668 4.627079 0.024518
-2.102845 4.627079 0.024524
-1.789022 4.627079 0.024489
-1.475199 4.627079 0.024632
-1.161376 4.627079 0.024719
-0.847553 4.627079 0.024824
-0.533730 4.627079 0.024934
-0.219907 4.627079 0.025070
0.093916 4.627079 0.025176
0.407739 4.627079 0.025232
0.721562 4.627079 0.025269
1.035385 4.627079 0.025264
1.349208 4.627079 0.025432
1.663032 4.627079 0.025743
1.976854 4.627079 0.026124
2.290677 4.627079 0.026449
2.604500 4.627079 0.026648
2.918324 4.627079 0.026805
3.232146 4.627079 0.027082
3.545969 4.627079 0.027561
3.859793 4.627079 0.028116
4.173615 4.627079 0.029006
4.487438 4.627079 0.030190
4.801261 4.627079 0.031574
5.115085 4.627079 0.032784
5.428907 4.627079 0.034611
5.742730 4.627079 0.037374
6.056554 4.627079 0.040924
6.370377 4.627079 0.045146
6.684199 4.627079 0.050947
6.998022 4.627079 0.058680
7.311846 4.627079 0.069748
7.625669 4.627079 0.084359
7.939491 4.627079 0.108956
8.253315 4.627079 0.151710
8.567138 4.627079 0.240196
8.880960 4.627079 0.379202
9.194784 4.627079 0.556460
9.508606 4.627079 0.783858
9.822430 4.627079 1.031029
10.136253 4.627079 1.264274
10.450075 4.627079 1.472820
10.763899 4.627079 1.715444
11.077723 4.627079 1.953612
11.391544 4.627079 2.167836
11.705368 4.627079 2.390275
12.019190 4.627079 2.597044
12.333014 4.627079 2.782611
12.646837 4.627079 2.934762
12.960659 4.627079 3.121605
13.274483 4.627079 3.264825
13.588306 4.627079 3.406410
13.902128 4.627079 3.492803
14.215952 4.627079 3.549032
14.529776 4.627079 3.587204
14.843597 4.627079 3.575316
15.157421 4.627079 3.648115
15.471243 4.627079 3.663789
15.785067 4.627079 3.791857
16.098890 4.627079 3.933410
16.412712 4.627079 3.983252
16.726536 4.627079 4.053763
17.040359 4.627079 4.215600
17.354181 4.627079 4.478816
17.668005 4.627079 5.251179
17.981829 4.627079 6.778731
18.295650 4.627079 9.090063
18.609474 4.627079 10.867729
18.923298 4.627079 0.000000
19.237120 4.627079 0.000000
-6.810190 4.313255 0.000000
-6.496367 4.313255 0.025051
-6.182544 4.313255 0.024396
-5.868721 4.313255 0.024542
-5.554898 4.313255 0.024396
-5.241075 4.313255 0.024136
-4.927252 4.313255 0.024071
-4.613429 4.313255 0.024104
-4.299606 4.313255 0.024055
-3.985783 4.313255 0.024064
-3.671960 4.313255 0.024160
-3.358137 4.313255 0.024193
-3.044314 4.313255 0.024200
-2.730491 4.313255 0.024280
-2.416668 4.313255 0.024457
-2.102845 4.313255 0.024418
-1.789022 4.313255 0.024418
-1.475199 4.313255 0.024633
-1.161376 4.313255 0.024838
-0.847553 4.313255 0.024983
-0.533730 4.313255 0.025053
-0.219907 4.313255 0.025112
0.093916 4.313255 0.025119
0.407739 4.313255 0.025178
0.721562 4.313255 0.025336
1.035385 4.313255 0.025407
1.349208 4.313255 0.025539
1.663032 4.313255 0.025776
1.976854 4.313255 0.026157
2.290677 4.313255 0.026544
2.604500 4.313255 0.026788
2.918324 4.313255 0.026986
3.232146 4.313255 0.027239
3.545969 4.313255 0.027667
3.859793 4.313255 0.028165
4.173615 4.313255 0.028980
4.487438 4.313255 0.030172
4.801261 4.313255 0.031665
5.115085 4.313255 0.033084
5.428907 4.313255 0.035073
5.742730 4.313255 0.037826
6.056554 4.313255 0.041288
6.370377 4.313255 0.045533
6.684199 4.313255 0.051538
6.998022 4.313255 0.059804
7.311846 4.313255 0.070141
7.625669 4.313255 0.085828
7.939491 4.313255 0.111726
8.253315 4.313255 0.161123
8.567138 4.313255 0.249465
8.880960 4.313255 0.392931
9.194784 4.313255 0.573490
9.508606 4.313255 0.803878
9.822430 4.313255 1.057916
10.136253 4.313255 1.287863
10.450075 4.313255 1.507076
10.763899 4.313255 1.732495
11.077723 4.313255 1.978081
11.391544 4.313255 2.192683
11.705368 4.313255 2.410558
12.019190 4.313255 2.594868
12.333014 4.313255 2.766560
12.646837 4.313255 2.962467
12.960659 4.313255 3.111216
13.274483 4.313255 3.256552
13.588306 4.313255 3.435234
13.902128 4.313255 3.450014
14.215952 4.313255 3.521080
14.529776 4.313255 3.536542
14.843597 4.313255 3.600876
15.157421 4.313255 3.690090
15.471243 4.313255 3.682488
15.785067 4.313255 3.784556
16.098890 4.313255 3.916906
16.412712 4.313255 3.995942
16.726536 4.313255 4.132741
17.040359 4.313255 4.468565
17.354181 4.313255 4.604662
17.668005 4.313255 5.321815
17.981829 4.313255 6.714669
18.295650 4.313255 8.907853
18.609474 4.313255 10.608302
18.923298 4.313255 0.000000
19.237120 4.313255 0.000000
-6.810190 3.999435 0.000000
-6.496367 3.999435 0.025035
-6.182544 3.999435 0.024413
-5.868721 3.999435 0.024577
-5.554898 3.999435 0.024465
-5.241075 3.999435 0.024217
-4.927252 3.999435 0.024060
-4.613429 3.999435 0.024004
-4.299606 3.999435 0.023952
-3.985783 3.999435 0.023966
-3.671960 3.999435 0.024044
-3.358137 3.999435 0.024123
-3.044314 3.999435 0.024229
-2.730491 3.999435 0.024300
-2.416668 3.999435 0.024428
-2.102845 3.999435 0.024400
-1.789022 3.999435 0.024397
-1.475199 3.999435 0.024621
-1.161376 3.999435 0.024916
-0.847553 3.999435 0.025109
-0.533730 3.999435 0.025128
-0.219907 3.999435 0.025127
0.093916 3.999435 0.025066
0.407739 3.999435 0.025172
0.721562 3.999435 0.025426
1.035385 3.999435 0.025528
1.349208 3.999435 0.025585
1.663032 3.999435 0.025770
1.976854 3.999435 0.026118
2.290677 3.999435 0.026514
2.604500 3.999435 0.026825
2.918324 3.999435 0.027114
3.232146 3.999435 0.027381
3.545969 3.999435 0.027810
3.859793 3.999435 0.028256
4.173615 3.999435 0.029014
4.487438 3.999435 0.030231
4.801261 3.999435 0.031763
5.115085 3.999435 0.033410
5.428907 3.999435 0.035572
5.742730 3.999435 0.038344
6.056554 3.999435 0.041815
6.370377 3.999435 0.046059
6.684199 3.999435 0.052244
6.998022 3.999435 0.059853
7.311846 3.999435 0.070161
7.625669 3.999435 0.087415
7.939491 3.999435 0.115984
8.253315 3.999435 0.169453
8.567138 3.999435 0.261136
8.880960 3.999435 0.398531
9.194784 3.999435 0.593307
9.508606 3.999435 0.820341
9.822430 3.999435 1.072432
10.136253 3.999435 1.318390
10.450075 3.999435 1.526740
10.763899 3.999435 1.761811
11.077723 3.999435 1.985240
11.391544 3.999435 2.216298
11.705368 3.999435 2.418248
12.019190 3.999435 2.594986
12.333014 3.999435 2.785019
12.646837 3.999435 2.975113
12.960659 3.999435 3.146350
13.274483 3.999435 3.281041
13.588306 3.999435 3.377795
13.902128 3.999435 3.489075
14.215952 3.999435 3.491969
14.529776 3.999435 3.516377
14.843597 3.999435 3.596962
15.157421 3.999435 3.683095
15.471243 3.999435 3.705765
15.785067 3.999435 3.787180
16.098890 3.999435 3.932698
16.412712 3.999435 4.011593
16.726536 3.999435 4.270228
17.040359 3.999435 4.497181
17.354181 3.999435 4.908120
17.668005 3.999435 5.494585
17.981829 3.999435 6.801247
18.295650 3.999435 8.587973
18.609474 3.999435 9.802004
18.923298 3.999435 0.000000
19.237120 3.999435 0.000000
-6.810190 3.685612 0.000000
-6.496367 3.685612 0.025133
-6.182544 3.685612 0.024425
-5.868721 3.685612 0.024555
-5.554898 3.685612 0.024508
-5.241075 3.685612 0.024306
-4.927252 3.685612 0.024077
-4.613429 3.685612 0.023935
-4.299606 3.685612 0.023898
-3.985783 3.685612 0.023924
-3.671960 3.685612 0.024004
-3.358137 3.685612 0.024144
-3.044314 3.685612 0.024279
-2.730491 3.685612 0.024353
-2.416668 3.685612 0.024455
-2.102845 3.685612 0.024427
-1.789022 3.685612 0.024411
-1.475199 3.685612 0.024547
-1.161376 3.685612 0.024875
-0.847553 3.685612 0.025162
-0.533730 3.685612 0.025166
-0.219907 3.685612 0.025106
0.093916 3.685612 0.025062
0.407739 3.685612 0.025231
0.721562 3.685612 0.025489
1.035385 3.685612 0.025577
1.349208 3.685612 0.025571
1.663032 3.685612 0.025712
1.976854 3.685612 0.026016
2.290677 3.685612 0.026390
2.604500 3.685612 0.026759
2.918324 3.685612 0.027156
3.232146 3.685612 0.027465
3.545969 3.685612 0.027947
3.859793 3.685612 0.028418
4.173615 3.685612 0.029072
4.487438 3.685612 0.030254
4.801261 3.685612 0.031772
5.115085 3.685612 0.033692
5.428907 3.685612 0.035919
5.742730 3.685612 0.038647
6.056554 3.685612 0.042263
6.370377 3.685612 0.046845
6.684199 3.685612 0.052350
6.998022 3.685612 0.060199
7.311846 3.685612 0.070677
7.625669 3.685612 0.089699
7.939491 3.685612 0.119068
8.253315 3.685612 0.173654
8.567138 3.685612 0.270222
8.880960 3.685612 0.415875
9.194784 3.685612 0.617754
9.508606 3.685612 0.838075
9.822430 3.685612 1.092897
10.136253 3.685612 1.325797
10.450075 3.685612 1.558806
10.763899 3.685612 1.776532
11.077723 3.685612 2.018698
11.391544 3.685612 2.239128
11.705368 3.685612 2.448855
12.019190 3.685612 2.610608
12.333014 3.685612 2.783709
12.646837 3.685612 3.000171
12.960659 3.685612 3.166930
13.274483 3.685612 3.275553
13.588306 3.685612 3.373358
13.902128 3.685612 3.425406
14.215952 3.685612 3.496289
14.529776 3.685612 3.511050
14.843597 3.685612 3.535450
15.157421 3.685612 3.647819
15.471243 3.685612 3.693702
15.785067 3.685612 3.804819
16.098890 3.685612 4.007171
16.412712 3.685612 4.018586
16.726536 3.685612 4.324759
17.040359 3.685612 4.541808
17.354181 3.685612 5.208851
17.668005 3.685612 5.969427
17.981829 3.685612 7.129413
18.295650 3.685612 7.430331
18.609474 3.685612 7.820780
18.923298 3.685612 0.000000
19.237120 3.685612 0.000000
-6.810190 3.371788 0.000000
-6.496367 3.371788 0.025260
-6.182544 3.371788 0.024435
-5.868721 3.371788 0.024526
-5.554898 3.371788 0.024526
-5.241075 3.371788 0.024418
-4.927252 3.371788 0.024143
-4.613429 3.371788 0.023916
-4.299606 3.371788 0.023889
-3.985783 3.371788 0.023918
-3.671960 3.371788 0.024014
-3.358137 3.371788 0.024189
-3.044314 3.371788 0.024333
-2.730491 3.371788 0.024384
-2.416668 3.371788 0.024463
-2.102845 3.371788 0.024448
-1.789022 3.371788 0.024432
-1.475199 3.371788 0.024468
-1.161376 3.371788 0.024749
-0.847553 3.371788 0.025088
-0.533730 3.371788 0.025103
-0.219907 3.371788 0.025019
0.093916 3.371788 0.025040
0.407739 3.371788 0.025254
0.721562 3.371788 0.025500
1.035385 3.371788 0.025568
1.349208 3.371788 0.025573
1.663032 3.371788 0.025718
1.976854 3.371788 0.025941
2.290677 3.371788 0.026238
2.604500 3.371788 0.026622
2.918324 3.371788 0.027110
3.232146 3.371788 0.027539
3.545969 3.371788 0.028065
3.859793 3.371788 0.028589
4.173615 3.371788 0.029141
4.487438 3.371788 0.030223
4.801261 3.371788 0.031865
5.115085 3.371788 0.033748
5.428907 3.371788 0.035975
5.742730 3.371788 0.038841
6.056554 3.371788 0.042540
6.370377 3.371788 0.047216
6.684199 3.371788 0.052904
6.998022 3.371788 0.060739
7.311846 3.371788 0.072218
7.625669 3.371788 0.091332
7.939491 3.371788 0.123401
8.253315 3.371788 0.182103
8.567138 3.371788 0.278497
8.880960 3.371788 0.427985
9.194784 3.371788 0.630699
9.508606 3.371788 0.859323
9.822430 3.371788 1.107092
10.136253 3.371788 1.350866
10.450075 3.371788 1.568314
10.763899 3.371788 1.801881
11.077723 3.371788 2.036114
11.391544 3.371788 2.256349
11.705368 3.371788 2.459821
12.019190 3.371788 2.636212
12.333014 3.371788 2.817887
12.646837 3.371788 2.976431
12.960659 3.371788 3.149875
13.274483 3.371788 3.260176
13.588306 3.371788 3.369958
13.902128 3.371788 3.408738
14.215952 3.371788 3.510790
14.529776 3.371788 3.528695
14.843597 3.371788 3.552999
15.157421 3.371788 3.565547
15.471243 3.371788 3.640666
15.785067 3.371788 3.858576
16.098890 3.371788 4.014291
16.412712 3.371788 4.134334
16.726536 3.371788 4.295484
17.040359 3.371788 4.671779
17.354181 3.371788 5.279546
17.668005 3.371788 6.357695
17.981829 3.371788 6.638899
18.295650 3.371788 8.549163
18.609474 3.371788 6.145638
18.923298 3.371788 0.000000
19.237120 3.371788 0.000000
-6.810190 3.057964 0.000000
-6.496367 3.057964 0.025356
-6.182544 3.057964 0.024450
-5.868721 3.057964 0.024475
-5.554898 3.057964 0.024461
-5.241075 3.057964 0.024449
-4.927252 3.057964 0.024239
-4.613429 3.057964 0.023985
-4.299606 3.057964 0.023937
-3.985783 3.057964 0.023931
-3.671960 3.057964 0.024047
-3.358137 3.057964 0.024290
-3.044314 3.057964 0.024404
-2.730491 3.057964 0.024386
-2.416668 3.057964 0.024435
-2.102845 3.057964 0.024458
-1.789022 3.057964 0.024458
-1.475199 3.057964 0.024423
-1.161376 3.057964 0.024591
-0.847553 3.057964 0.024850
-0.533730 3.057964 0.024912
-0.219907 3.057964 0.024920
0.093916 3.057964 0.025013
0.407739 3.057964 0.025272
0.721562 3.057964 0.025480
1.035385 3.057964 0.025547
1.349208 3.057964 0.025592
1.663032 3.057964 0.025753
1.976854 3.057964 0.025913
2.290677 3.057964 0.026103
2.604500 3.057964 0.026489
2.918324 3.057964 0.026980
3.232146 3.057964 0.027498
3.545969 3.057964 0.028102
3.859793 3.057964 0.028674
4.173615 3.057964 0.029193
4.487438 3.057964 0.030219
4.801261 3.057964 0.031748
5.115085 3.057964 0.033662
5.428907 3.057964 0.035850
5.742730 3.057964 0.038833
6.056554 3.057964 0.042715
6.370377 3.057964 0.047447
6.684199 3.057964 0.053460
6.998022 3.057964 0.061194
7.311846 3.057964 0.073273
7.625669 3.057964 0.093210
7.939491 3.057964 0.124671
8.253315 3.057964 0.185792
8.567138 3.057964 0.294917
8.880960 3.057964 0.450612
9.194784 3.057964 0.645744
9.508606 3.057964 0.883387
9.822430 3.057964 1.140352
10.136253 3.057964 1.370212
10.450075 3.057964 1.587076
10.763899 3.057964 1.813871
11.077723 3.057964 2.053162
11.391544 3.057964 2.272895
11.705368 3.057964 2.480822
12.019190 3.057964 2.642967
12.333014 3.057964 2.825094
12.646837 3.057964 2.996530
12.960659 3.057964 3.149352
13.274483 3.057964 3.267618
13.588306 3.057964 3.399485
13.902128 3.057964 3.453931
14.215952 3.057964 3.482701
14.529776 3.057964 3.538634
14.843597 3.057964 3.500604
15.157421 3.057964 3.523569
15.471243 3.057964 3.676376
15.785067 3.057964 3.842785
16.098890 3.057964 4.039604
16.412712 3.057964 4.159712
16.726536 3.057964 4.430906
17.040359 3.057964 4.871476
17.354181 3.057964 5.574532
17.668005 3.057964 6.169063
17.981829 3.057964 5.831045
18.295650 3.057964 0.000000
18.609474 3.057964 0.000000
18.923298 3.057964 0.000000
19.237120 3.057964 0.000000
-6.810190 2.744141 0.000000
-6.496367 2.744141 0.025402
-6.182544 2.744141 0.024456
-5.868721 2.744141 0.024405
-5.554898 2.744141 0.024403
-5.241075 2.744141 0.024424
-4.927252 2.744141 0.024291
-4.613429 2.744141 0.024043
-4.299606 2.744141 0.024013
-3.985783 2.744141 0.024011
-3.671960 2.744141 0.024111
-3.358137 2.744141 0.024378
-3.044314 2.744141 0.024466
-2.730491 2.744141 0.024364
-2.416668 2.744141 0.024348
-2.102845 2.744141 0.024417
-1.789022 2.744141 0.024454
-1.475199 2.744141 0.024413
-1.161376 2.744141 0.024430
-0.847553 2.744141 0.024565
-0.533730 2.744141 0.024735
-0.219907 2.744141 0.024916
0.093916 2.744141 0.025056
0.407739 2.744141 0.025274
0.721562 2.744141 0.025438
1.035385 2.744141 0.025510
1.349208 2.744141 0.025604
1.663032 2.744141 0.025761
1.976854 2.744141 0.025832
2.290677 2.744141 0.025925
2.604500 2.744141 0.026322
2.918324 2.744141 0.026915
3.232146 2.744141 0.027535
3.545969 2.744141 0.028142
3.859793 2.744141 0.028730
4.173615 2.744141 0.029280
4.487438 2.744141 0.030173
4.801261 2.744141 0.031703
5.115085 2.744141 0.033579
5.428907 2.744141 0.035763
5.742730 2.744141 0.038786
6.056554 2.744141 0.042684
6.370377 2.744141 0.047622
6.684199 2.744141 0.053773
6.998022 2.744141 0.062173
7.311846 2.744141 0.075100
7.625669 2.744141 0.095467
7.939491 2.744141 0.127830
8.253315 2.744141 0.192760
8.567138 2.744141 0.306466
8.880960 2.744141 0.466327
9.194784 2.744141 0.666357
9.508606 2.744141 0.904739
9.822430 2.744141 1.162816
10.136253 2.744141 1.381991
10.450075 2.744141 1.609802
10.763899 2.744141 1.822236
11.077723 2.744141 2.068049
11.391544 2.744141 2.288292
11.705368 2.744141 2.505168
12.019190 2.744141 2.667604
12.333014 2.744141 2.835039
12.646837 2.744141 2.996413
12.960659 2.744141 3.156152
13.274483 2.744141 3.287104
13.588306 2.744141 3.373737
13.902128 2.744141 3.490114
14.215952 2.744141 3.452258
14.529776 2.744141 3.494859
14.843597 2.744141 3.504125
15.157421 2.744141 3.550700
15.471243 2.744141 3.639789
15.785067 2.744141 3.818444
16.098890 2.744141 4.044447
16.412712 2.744141 4.185982
16.726536 2.744141 4.492595
17.040359 2.744141 4.985449
17.354181 2.744141 5.840624
17.668005 2.744141 5.166036
17.981829 2.744141 0.000000
18.295650 2.744141 0.000000
18.609474 2.744141 0.000000
18.923298 2.744141 0.000000
19.237120 2.744141 0.000000
-6.810190 2.430317 0.000000
-6.496367 2.430317 0.025501
-6.182544 2.430317 0.024387
-5.868721 2.430317 0.024254
-5.554898 2.430317 0.024279
-5.241075 2.430317 0.024366
-4.927252 2.430317 0.024366
-4.613429 2.430317 0.024209
-4.299606 2.430317 0.024161
-3.985783 2.430317 0.024118
-3.671960 2.430317 0.024129
-3.358137 2.430317 0.024364
-3.044314 2.430317 0.024427
-2.730491 2.430317 0.024291
-2.416668 2.430317 0.024251
-2.102845 2.430317 0.024364
-1.789022 2.430317 0.024481
-1.475199 2.430317 0.024467
-1.161376 2.430317 0.024342
-0.847553 2.430317 0.024403
-0.533730 2.430317 0.024650
-0.219907 2.430317 0.024951
0.093916 2.430317 0.025115
0.407739 2.430317 0.025251
0.721562 2.430317 0.025314
1.035385 2.430317 0.025367
1.349208 2.430317 0.025539
1.663032 2.430317 0.025728
1.976854 2.430317 0.025787
2.290677 2.430317 0.025883
2.604500 2.430317 0.026343
2.918324 2.430317 0.027000
3.232146 2.430317 0.027654
3.545969 2.430317 0.028231
3.859793 2.430317 0.028785
4.173615 2.430317 0.029414
4.487438 2.430317 0.030268
4.801261 2.430317 0.031714
5.115085 2.430317 0.033426
5.428907 2.430317 0.035679
5.742730 2.430317 0.038734
6.056554 2.430317 0.042671
6.370377 2.430317 0.048077
6.684199 2.430317 0.054520
6.998022 2.430317 0.063183
7.311846 2.430317 0.075658
7.625669 2.430317 0.097503
7.939491 2.430317 0.131720
8.253315 2.430317 0.197173
8.567138 2.430317 0.315898
8.880960 2.430317 0.488812
9.194784 2.430317 0.688410
9.508606 2.430317 0.920102
9.822430 2.430317 1.180039
10.136253 2.430317 1.402137
10.450075 2.430317 1.620496
10.763899 2.430317 1.846480
11.077723 2.430317 2.083254
11.391544 2.430317 2.293660
11.705368 2.430317 2.505446
12.019190 2.430317 2.667228
12.333014 2.430317 2.837088
12.646837 2.430317 3.002565
12.960659 2.430317 3.166132
13.274483 2.430317 3.282066
13.588306 2.430317 3.401278
13.902128 2.430317 3.466799
14.215952 2.430317 3.510123
14.529776 2.430317 3.558123
14.843597 2.430317 3.533733
15.157421 2.430317 3.587750
15.471243 2.430317 3.661574
15.785067 2.430317 3.869543
16.098890 2.430317 4.094327
16.412712 2.430317 4.337802
16.726536 2.430317 4.714239
17.040359 2.430317 5.295219
17.354181 2.430317 5.647000
17.668005 2.430317 0.000000
17.981829 2.430317 0.000000
18.295650 2.430317 0.000000
18.609474 2.430317 0.000000
18.923298 2.430317 0.000000
19.237120 2.430317 0.000000
-6.810190 2.116497 0.000000
-6.496367 2.116497 0.025566
-6.182544 2.116497 0.024329
-5.868721 2.116497 0.024120
-5.554898 2.116497 0.024160
-5.241075 2.116497 0.024336
-4.927252 2.116497 0.024431
-4.613429 2.116497 0.024323
-4.299606 2.116497 0.024271
-3.985783 2.116497 0.024204
-3.671960 2.116497 0.024088
-3.358137 2.116497 0.024251
-3.044314 2.116497 0.024355
-2.730491 2.116497 0.024256
-2.416668 2.116497 0.024250
-2.102845 2.116497 0.024426
-1.789022 2.116497 0.024571
-1.475199 2.116497 0.024557
-1.161376 2.116497 0.024385
-0.847553 2.116497 0.024385
-0.533730 2.116497 0.024641
-0.219907 2.116497 0.024945
0.093916 2.116497 0.025086
0.407739 2.116497 0.025189
0.721562 2.116497 0.025178
1.035385 2.116497 0.025251
1.349208 2.116497 0.025505
1.663032 2.116497 0.025760
1.976854 2.116497 0.025818
2.290677 2.116497 0.025971
2.604500 2.116497 0.026465
2.918324 2.116497 0.027171
3.232146 2.116497 0.027772
3.545969 2.116497 0.028274
3.859793 2.116497 0.028867
4.173615 2.116497 0.029648
4.487438 2.116497 0.030524
4.801261 2.116497 0.031832
5.115085 2.116497 0.033530
5.428907 2.116497 0.035832
5.742730 2.116497 0.038908
6.056554 2.116497 0.043029
6.370377 2.116497 0.048644
6.684199 2.116497 0.055356
6.998022 2.116497 0.064218
7.311846 2.116497 0.077460
7.625669 2.116497 0.098758
7.939491 2.116497 0.135488
8.253315 2.116497 0.203842
8.567138 2.116497 0.323446
8.880960 2.116497 0.488907
9.194784 2.116497 0.709499
9.508606 2.116497 0.951550
9.822430 2.116497 1.186113
10.136253 2.116497 1.408743
10.450075 2.116497 1.646557
10.763899 2.116497 1.866219
11.077723 2.116497 2.086249
11.391544 2.116497 2.325617
11.705368 2.116497 2.495060
12.019190 2.116497 2.664270
12.333014 2.116497 2.834008
12.646837 2.116497 3.013905
12.960659 2.116497 3.183708
13.274483 2.116497 3.316229
13.588306 2.116497 3.405059
13.902128 2.116497 3.514940
14.215952 2.116497 3.536501
14.529776 2.116497 3.555782
14.843597 2.116497 3.529906
15.157421 2.116497 3.633346
15.471243 2.116497 3.810409
15.785067 2.116497 4.016673
16.098890 2.116497 4.174081
16.412712 2.116497 4.544224
16.726536 2.116497 4.976701
17.040359 2.116497 5.682336
17.354181 2.116497 6.396315
17.668005 2.116497 0.000000
17.981829 2.116497 0.000000
18.295650 2.116497 0.000000
18.609474 2.116497 0.000000
18.923298 2.116497 0.000000
19.237120 2.116497 0.000000
-6.810190 1.802673 0.000000
-6.496367 1.802673 0.025626
-6.182544 1.802673 0.024308
-5.868721 1.802673 0.024013
-5.554898 1.802673 0.024081
-5.241075 1.802673 0.024317
-4.927252 1.802673 0.024477
-4.613429 1.802673 0.024395
-4.299606 1.802673 0.024326
-3.985783 1.802673 0.024289
-3.671960 1.802673 0.024118
-3.358137 1.802673 0.024202
-3.044314 1.802673 0.024306
-2.730491 1.802673 0.024266
-2.416668 1.802673 0.024333
-2.102845 1.802673 0.024548
-1.789022 1.802673 0.024680
-1.475199 1.802673 0.024614
-1.161376 1.802673 0.024435
-0.847553 1.802673 0.024426
-0.533730 1.802673 0.024681
-0.219907 1.802673 0.024902
0.093916 1.802673 0.025040
0.407739 1.802673 0.025198
0.721562 1.802673 0.025221
1.035385 1.802673 0.025332
1.349208 1.802673 0.025637
1.663032 1.802673 0.025901
1.976854 1.802673 0.025912
2.290677 1.802673 0.026073
2.604500 1.802673 0.026554
2.918324 1.802673 0.027277
3.232146 1.802673 0.027840
3.545969 1.802673 0.028340
3.859793 1.802673 0.029004
4.173615 1.802673 0.029912
4.487438 1.802673 0.030786
4.801261 1.802673 0.031927
5.115085 1.802673 0.033656
5.428907 1.802673 0.036216
5.742730 1.802673 0.039135
6.056554 1.802673 0.043510
6.370377 1.802673 0.049101
6.684199 1.802673 0.056187
6.998022 1.802673 0.065230
7.311846 1.802673 0.079337
7.625669 1.802673 0.101330
7.939491 1.802673 0.139430
8.253315 1.802673 0.212458
8.567138 1.802673 0.334620
8.880960 1.802673 0.507849
9.194784 1.802673 0.726825
9.508606 1.802673 0.962653
9.822430 1.802673 1.194504
10.136253 1.802673 1.430158
10.450075 1.802673 1.674722
10.763899 1.802673 1.889846
11.077723 1.802673 2.113105
11.391544 1.802673 2.318321
11.705368 1.802673 2.504015
12.019190 1.802673 2.694879
12.333014 1.802673 2.852774
12.646837 1.802673 3.048574
12.960659 1.802673 3.201839
13.274483 1.802673 3.332918
13.588306 1.802673 3.461782
13.902128 1.802673 3.589357
14.215952 1.802673 3.616569
14.529776 1.802673 3.628671
14.843597 1.802673 3.616178
15.157421 1.802673 3.670937
15.471243 1.802673 3.840586
15.785067 1.802673 4.102947
16.098890 1.802673 4.372344
16.412712 1.802673 4.766858
16.726536 1.802673 5.269976
17.040359 1.802673 5.786613
17.354181 1.802673 0.000000
17.668005 1.802673 0.000000
17.981829 1.802673 0.000000
18.295650 1.802673 0.000000
18.609474 1.802673 0.000000
18.923298 1.802673 0.000000
19.237120 1.802673 0.000000
-6.810190 1.488850 0.000000
-6.496367 1.488850 0.025624
-6.182544 1.488850 0.024329
-5.868721 1.488850 0.023993
-5.554898 1.488850 0.024037
-5.241075 1.488850 0.024273
-4.927252 1.488850 0.024462
-4.613429 1.488850 0.024427
-4.299606 1.488850 0.024359
-3.985783 1.488850 0.024375
-3.671960 1.488850 0.024225
-3.358137 1.488850 0.024242
-3.044314 1.488850 0.024325
-2.730491 1.488850 0.024307
-2.416668 1.488850 0.024367
-2.102845 1.488850 0.024593
-1.789022 1.488850 0.024718
-1.475199 1.488850 0.024679
-1.161376 1.488850 0.024531
-0.847553 1.488850 0.024588
-0.533730 1.488850 0.024801
-0.219907 1.488850 0.024922
0.093916 1.488850 0.025051
0.407739 1.488850 0.025284
0.721562 1.488850 0.025359
1.035385 1.488850 0.025504
1.349208 1.488850 0.025778
1.663032 1.488850 0.025934
1.976854 1.488850 0.025980
2.290677 1.488850 0.026187
2.604500 1.488850 0.026662
2.918324 1.488850 0.027322
3.232146 1.488850 0.027883
3.545969 1.488850 0.028425
3.859793 1.488850 0.029112
4.173615 1.488850 0.030098
4.487438 1.488850 0.030929
4.801261 1.488850 0.031919
5.115085 1.488850 0.033759
5.428907 1.488850 0.036326
5.742730 1.488850 0.039495
6.056554 1.488850 0.043808
6.370377 1.488850 0.049578
6.684199 1.488850 0.056812
6.998022 1.488850 0.066713
7.311846 1.488850 0.081370
7.625669 1.488850 0.104113
7.939491 1.488850 0.145826
8.253315 1.488850 0.223880
8.567138 1.488850 0.353811
8.880960 1.488850 0.540583
9.194784 1.488850 0.751220
9.508606 1.488850 0.983862
9.822430 1.488850 1.208068
10.136253 1.488850 1.450090
10.450075 1.488850 1.674261
10.763899 1.488850 1.907952
11.077723 1.488850 2.114768
11.391544 1.488850 2.327145
11.705368 1.488850 2.512360
12.019190 1.488850 2.706897
12.333014 1.488850 2.864214
12.646837 1.488850 3.064678
12.960659 1.488850 3.243434
13.274483 1.488850 3.384243
13.588306 1.488850 3.515735
13.902128 1.488850 3.602755
14.215952 1.488850 3.620620
14.529776 1.488850 3.641480
14.843597 1.488850 3.662628
15.157421 1.488850 3.776283
15.471243 1.488850 3.903950
15.785067 1.488850 4.171673
16.098890 1.488850 4.411928
16.412712 1.488850 4.833014
16.726536 1.488850 5.258648
17.040359 1.488850 5.706389
17.354181 1.488850 0.000000
17.668005 1.488850 0.000000
17.981829 1.488850 0.000000
18.295650 1.488850 0.000000
18.609474 1.488850 0.000000
18.923298 1.488850 0.000000
19.237120 1.488850 0.000000
-6.810190 1.175026 0.000000
-6.496367 1.175026 0.025592
-6.182544 1.175026 0.024403
-5.868721 1.175026 0.024118
-5.554898 1.175026 0.024122
-5.241075 1.175026 0.024257
-4.927252 1.175026 0.024402
-4.613429 1.175026 0.024387
-4.299606 1.175026 0.024305
-3.985783 1.175026 0.024376
-3.671960 1.175026 0.024277
-3.358137 1.175026 0.024235
-3.044314 1.175026 0.024296
-2.730491 1.175026 0.024338
-2.416668 1.175026 0.024425
-2.102845 1.175026 0.024594
-1.789022 1.175026 0.024753
-1.475199 1.175026 0.024729
-1.161376 1.175026 0.024656
-0.847553 1.175026 0.024789
-0.533730 1.175026 0.024926
-0.219907 1.175026 0.024936
0.093916 1.175026 0.025022
0.407739 1.175026 0.025264
0.721562 1.175026 0.025455
1.035385 1.175026 0.025636
1.349208 1.175026 0.025887
1.663032 1.175026 0.025976
1.976854 1.175026 0.026084
2.290677 1.175026 0.026375
2.604500 1.175026 0.026810
2.918324 1.175026 0.027331
3.232146 1.175026 0.027852
3.545969 1.175026 0.028353
3.859793 1.175026 0.029009
4.173615 1.175026 0.030073
4.487438 1.175026 0.030940
4.801261 1.175026 0.031972
5.115085 1.175026 0.033864
5.428907 1.175026 0.036613
5.742730 1.175026 0.039878
6.056554 1.175026 0.044067
6.370377 1.175026 0.049877
6.684199 1.175026 0.057466
6.998022 1.175026 0.067905
7.311846 1.175026 0.082816
7.625669 1.175026 0.106746
7.939491 1.175026 0.150190
8.253315 1.175026 0.232683
8.567138 1.175026 0.372424
8.880960 1.175026 0.552764
9.194784 1.175026 0.779128
9.508606 1.175026 1.010724
9.822430 1.175026 1.238395
10.136253 1.175026 1.478567
10.450075 1.175026 1.688110
10.763899 1.175026 1.905784
11.077723 1.175026 2.126721
11.391544 1.175026 2.350531
11.705368 1.175026 2.532654
12.019190 1.175026 2.700017
12.333014 1.175026 2.905833
12.646837 1.175026 3.075172
12.960659 1.175026 3.243613
13.274483 1.175026 3.422486
13.588306 1.175026 3.530725
13.902128 1.175026 3.639297
14.215952 1.175026 3.681648
14.529776 1.175026 3.693165
14.843597 1.175026 3.738559
15.157421 1.175026 3.871511
15.471243 1.175026 4.023773
15.785067 1.175026 4.303555
16.098890 1.175026 4.587738
16.412712 1.175026 4.804542
16.726536 1.175026 5.282847
17.040359 1.175026 5.378157
17.354181 1.175026 0.000000
17.668005 1.175026 0.000000
17.981829 1.175026 0.000000
18.295650 1.175026 0.000000
18.609474 1.175026 0.000000
18.923298 1.175026 0.000000
19.237120 1.175026 0.000000
-6.810190 0.861202 0.000000
-6.496367 0.861202 0.025567
-6.182544 0.861202 0.024501
-5.868721 0.861202 0.024286
-5.554898 0.861202 0.024183
-5.241075 0.861202 0.024168
-4.927252 0.861202 0.024220
-4.613429 0.861202 0.024241
-4.299606 0.861202 0.024212
-3.985783 0.861202 0.024330
-3.671960 0.861202 0.024329
-3.358137 0.861202 0.024286
-3.044314 0.861202 0.024367
-2.730491 0.861202 0.024425
-2.416668 0.861202 0.024451
-2.102845 0.861202 0.024618
-1.789022 0.861202 0.024740
-1.475199 0.861202 0.024795
-1.161376 0.861202 0.024784
-0.847553 0.861202 0.024894
-0.533730 0.861202 0.024989
-0.219907 0.861202 0.024989
0.093916 0.861202 0.025050
0.407739 0.861202 0.025283
0.721562 0.861202 0.025578
1.035385 0.861202 0.025798
1.349208 0.861202 0.025968
1.663032 0.861202 0.026086
1.976854 0.861202 0.026247
2.290677 0.861202 0.026545
2.604500 0.861202 0.026904
2.918324 0.861202 0.027298
3.232146 0.861202 0.027738
3.545969 0.861202 0.028213
3.859793 0.861202 0.028925
4.173615 0.861202 0.030042
4.487438 0.861202 0.031109
4.801261 0.861202 0.032243
5.115085 0.861202 0.034230
5.428907 0.861202 0.037076
5.742730 0.861202 0.040222
6.056554 0.861202 0.044351
6.370377 0.861202 0.050344
6.684199 0.861202 0.058074
6.998022 0.861202 0.068780
7.311846 0.861202 0.084596
7.625669 0.861202 0.108862
7.939491 0.861202 0.157681
8.253315 0.861202 0.239060
8.567138 0.861202 0.388175
8.880960 0.861202 0.576426
9.194784 0.861202 0.791118
9.508606 0.861202 1.028173
9.822430 0.861202 1.258618
10.136253 0.861202 1.490843
10.450075 0.861202 1.701604
10.763899 0.861202 1.928005
11.077723 0.861202 2.130694
11.391544 0.861202 2.360163
11.705368 0.861202 2.560316
12.019190 0.861202 2.751984
12.333014 0.861202 2.928346
12.646837 0.861202 3.095135
12.960659 0.861202 3.263218
13.274483 0.861202 3.440179
13.588306 0.861202 3.539411
13.902128 0.861202 3.606333
14.215952 0.861202 3.670406
14.529776 0.861202 3.777765
14.843597 0.861202 3.835960
15.157421 0.861202 3.978470
15.471243 0.861202 4.093373
15.785067 0.861202 4.368940
16.098890 0.861202 4.685562
16.412712 0.861202 4.986444
16.726536 0.861202 5.426565
17.040359 0.861202 1.854290
17.354181 0.861202 0.000000
17.668005 0.861202 0.000000
17.981829 0.861202 0.000000
18.295650 0.861202 0.000000
18.609474 0.861202 0.000000
18.923298 0.861202 0.000000
19.237120 0.861202 0.000000
-6.810190 0.547379 0.000000
-6.496367 0.547379 0.025519
-6.182544 0.547379 0.024593
-5.868721 0.547379 0.024475
-5.554898 0.547379 0.024248
-5.241075 0.547379 0.024061
-4.927252 0.547379 0.024030
-4.613429 0.547379 0.024078
-4.299606 0.547379 0.024154
-3.985783 0.547379 0.024359
-3.671960 0.547379 0.024436
-3.358137 0.547379 0.024438
-3.044314 0.547379 0.024494
-2.730491 0.547379 0.024495
-2.416668 0.547379 0.024481
-2.102845 0.547379 0.024531
-1.789022 0.547379 0.024689
-1.475199 0.547379 0.024833
-1.161376 0.547379 0.024873
-0.847553 0.547379 0.024949
-0.533730 0.547379 0.025078
-0.219907 0.547379 0.025120
0.093916 0.547379 0.025191
0.407739 0.547379 0.025369
0.721562 0.547379 0.025677
1.035385 0.547379 0.025904
1.349208 0.547379 0.026003
1.663032 0.547379 0.026196
1.976854 0.547379 0.026422
2.290677 0.547379 0.026680
2.604500 0.547379 0.026970
2.918324 0.547379 0.027267
3.232146 0.547379 0.027714
3.545969 0.547379 0.028205
3.859793 0.547379 0.028968
4.173615 0.547379 0.030132
4.487438 0.547379 0.031335
4.801261 0.547379 0.032674
5.115085 0.547379 0.034682
5.428907 0.547379 0.037540
5.742730 0.547379 0.040494
6.056554 0.547379 0.044656
6.370377 0.547379 0.050505
6.684199 0.547379 0.058516
6.998022 0.547379 0.069234
7.311846 0.547379 0.085836
7.625669 0.547379 0.110665
7.939491 0.547379 0.162826
8.253315 0.547379 0.248564
8.567138 0.547379 0.393783
8.880960 0.547379 0.587534
9.194784 0.547379 0.809898
9.508606 0.547379 1.050325
9.822430 0.547379 1.278933
10.136253 0.547379 1.519110
10.450075 0.547379 1.722836
10.763899 0.547379 1.932752
11.077723 0.547379 2.151810
11.391544 0.547379 2.392897
11.705368 0.547379 2.595456
12.019190 0.547379 2.768347
12.333014 0.547379 2.979959
12.646837 0.547379 3.127385
12.960659 0.547379 3.256573
13.274483 0.547379 3.359353
13.588306 0.547379 3.457704
13.902128 0.547379 3.605843
14.215952 0.547379 3.635988
14.529776 0.547379 3.778533
14.843597 0.547379 3.953177
15.157421 0.547379 4.135467
15.471243 0.547379 4.271918
15.785067 0.547379 4.467013
16.098890 0.547379 4.809365
16.412712 0.547379 5.173910
16.726536 0.547379 5.009737
17.040359 0.547379 0.000000
17.354181 0.547379 0.000000
17.668005 0.547379 0.000000
17.981829 0.547379 0.000000
18.295650 0.547379 0.000000
18.609474 0.547379 0.000000
18.923298 0.547379 0.000000
19.237120 0.547379 0.000000
-6.810190 0.233559 0.000000
-6.496367 0.233559 0.025586
-6.182544 0.233559 0.024676
-5.868721 0.233559 0.024665
-5.554898 0.233559 0.024429
-5.241075 0.233559 0.024093
-4.927252 0.233559 0.023955
-4.613429 0.233559 0.023969
-4.299606 0.233559 0.024093
-3.985783 0.233559 0.024358
-3.671960 0.233559 0.024488
-3.358137 0.233559 0.024517
-3.044314 0.233559 0.024567
-2.730491 0.233559 0.024468
-2.416668 0.233559 0.024380
-2.102845 0.233559 0.024435
-1.789022 0.233559 0.024618
-1.475199 0.233559 0.024893
-1.161376 0.233559 0.024967
-0.847553 0.233559 0.025010
-0.533730 0.233559 0.025095
-0.219907 0.233559 0.025193
0.093916 0.233559 0.025292
0.407739 0.233559 0.025361
0.721562 0.233559 0.025593
1.035385 0.233559 0.025805
1.349208 0.233559 0.025964
1.663032 0.233559 0.026274
1.976854 0.233559 0.026639
2.290677 0.233559 0.026882
2.604500 0.233559 0.027139
2.918324 0.233559 0.027412
3.232146 0.233559 0.027804
3.545969 0.233559 0.028250
3.859793 0.233559 0.029003
4.173615 0.233559 0.030156
4.487438 0.233559 0.031483
4.801261 0.233559 0.033053
5.115085 0.233559 0.035134
5.428907 0.233559 0.037884
5.742730 0.233559 0.040834
6.056554 0.233559 0.044939
6.370377 0.233559 0.051018
6.684199 0.233559 0.058900
6.998022 0.233559 0.069847
7.311846 0.233559 0.087040
7.625669 0.233559 0.114694
7.939491 0.233559 0.167624
8.253315 0.233559 0.259304
8.567138 0.233559 0.402436
8.880960 0.233559 0.605724
9.194784 0.233559 0.838244
9.508606 0.233559 1.066199
9.822430 0.233559 1.301422
10.136253 0.233559 1.532545
10.450075 0.233559 1.735007
10.763899 0.233559 1.938634
11.077723 0.233559 2.160815
11.391544 0.233559 2.411711
11.705368 0.233559 2.609519
12.019190 0.233559 2.776159
12.333014 0.233559 2.980130
12.646837 0.233559 3.121933
12.960659 0.233559 3.272995
13.274483 0.233559 3.377770
13.588306 0.233559 3.437329
13.902128 0.233559 3.545153
14.215952 0.233559 3.667337
14.529776 0.233559 3.764588
14.843597 0.233559 3.975042
15.157421 0.233559 4.211318
15.471243 0.233559 4.388492
15.785067 0.233559 4.587686
16.098890 0.233559 4.950555
16.412712 0.233559 5.375618
16.726536 0.233559 4.311822
17.040359 0.233559 0.000000
17.354181 0.233559 0.000000
17.668005 0.233559 0.000000
17.981829 0.233559 0.000000
18.295650 0.233559 0.000000
18.609474 0.233559 0.000000
18.923298 0.233559 0.000000
19.237120 0.233559 0.000000
-6.810190 -0.080265 0.000000
-6.496367 -0.080265 0.025963
-6.182544 -0.080265 0.024873
-5.868721 -0.080265 0.024858
-5.554898 -0.080265 0.024668
-5.241075 -0.080265 0.024255
-4.927252 -0.080265 0.024005
-4.613429 -0.080265 0.023984
-4.299606 -0.080265 0.024094
-3.985783 -0.080265 0.024382
-3.671960 -0.080265 0.024572
-3.358137 -0.080265 0.024635
-3.044314 -0.080265 0.024634
-2.730491 -0.080265 0.024505
-2.416668 -0.080265 0.024344
-2.102845 -0.080265 0.024422
-1.789022 -0.080265 0.024651
-1.475199 -0.080265 0.024991
-1.161376 -0.080265 0.025076
-0.847553 -0.080265 0.025022
-0.533730 -0.080265 0.025087
-0.219907 -0.080265 0.025243
0.093916 -0.080265 0.025386
0.407739 -0.080265 0.025360
0.721562 -0.080265 0.025491
1.035385 -0.080265 0.025697
1.349208 -0.080265 0.025968
1.663032 -0.080265 0.026381
1.976854 -0.080265 0.026805
2.290677 -0.080265 0.027057
2.604500 -0.080265 0.027381
2.918324 -0.080265 0.027660
3.232146 -0.080265 0.027992
3.545969 -0.080265 0.028330
3.859793 -0.080265 0.028993
4.173615 -0.080265 0.030088
4.487438 -0.080265 0.031605
4.801261 -0.080265 0.033409
5.115085 -0.080265 0.035589
5.428907 -0.080265 0.038246
5.742730 -0.080265 0.041481
6.056554 -0.080265 0.045853
6.370377 -0.080265 0.051504
6.684199 -0.080265 0.059617
6.998022 -0.080265 0.070241
7.311846 -0.080265 0.087523
7.625669 -0.080265 0.118170
7.939491 -0.080265 0.171896
8.253315 -0.080265 0.266906
8.567138 -0.080265 0.419122
8.880960 -0.080265 0.623208
9.194784 -0.080265 0.853830
9.508606 -0.080265 1.091352
9.822430 -0.080265 1.327338
10.136253 -0.080265 1.546633
10.450075 -0.080265 1.758869
10.763899 -0.080265 1.963686
11.077723 -0.080265 2.194472
11.391544 -0.080265 2.426316
11.705368 -0.080265 2.614516
12.019190 -0.080265 2.805450
12.333014 -0.080265 3.024738
12.646837 -0.080265 3.161560
12.960659 -0.080265 3.312711
13.274483 -0.080265 3.394385
13.588306 -0.080265 3.482889
13.902128 -0.080265 3.559737
14.215952 -0.080265 3.687819
14.529776 -0.080265 3.860395
14.843597 -0.080265 4.060324
15.157421 -0.080265 4.363252
15.471243 -0.080265 4.627662
15.785067 -0.080265 4.744467
16.098890 -0.080265 5.139853
16.412712 -0.080265 5.150099
16.726536 -0.080265 0.000000
17.040359 -0.080265 0.000000
17.354181 -0.080265 0.000000
17.668005 -0.080265 0.000000
17.981829 -0.080265 0.000000
18.295650 -0.080265 0.000000
18.609474 -0.080265 0.000000
18.923298 -0.080265 0.000000
19.237120 -0.080265 0.000000
-6.810190 -0.394089 0.000000
-6.496367 -0.394089 0.026465
-6.182544 -0.394089 0.025366
-5.868721 -0.394089 0.025355
-5.554898 -0.394089 0.025204
-5.241075 -0.394089 0.024781
-4.927252 -0.394089 0.024490
-4.613429 -0.394089 0.024440
-4.299606 -0.394089 0.024493
-3.985783 -0.394089 0.024749
-3.671960 -0.394089 0.024981
-3.358137 -0.394089 0.024991
-3.044314 -0.394089 0.024889
-2.730491 -0.394089 0.024723
-2.416668 -0.394089 0.024508
-2.102845 -0.394089 0.024614
-1.789022 -0.394089 0.024930
-1.475199 -0.394089 0.025334
-1.161376 -0.394089 0.025520
-0.847553 -0.394089 0.025417
-0.533730 -0.394089 0.025488
-0.219907 -0.394089 0.025746
0.093916 -0.394089 0.025891
0.407739 -0.394089 0.025713
0.721562 -0.394089 0.025631
1.035385 -0.394089 0.025768
1.349208 -0.394089 0.026063
1.663032 -0.394089 0.026529
1.976854 -0.394089 0.027062
2.290677 -0.394089 0.027404
2.604500 -0.394089 0.027829
2.918324 -0.394089 0.028294
3.232146 -0.394089 0.028640
3.545969 -0.394089 0.028821
3.859793 -0.394089 0.029228
4.173615 -0.394089 0.030211
4.487438 -0.394089 0.031757
4.801261 -0.394089 0.033806
5.115085 -0.394089 0.035946
5.428907 -0.394089 0.038777
5.742730 -0.394089 0.042445
6.056554 -0.394089 0.046985
6.370377 -0.394089 0.053197
6.684199 -0.394089 0.061197
6.998022 -0.394089 0.072096
7.311846 -0.394089 0.090937
7.625669 -0.394089 0.122185
7.939491 -0.394089 0.181688
8.253315 -0.394089 0.282642
8.567138 -0.394089 0.438223
8.880960 -0.394089 0.653547
9.194784 -0.394089 0.878757
9.508606 -0.394089 1.118224
9.822430 -0.394089 1.351202
10.136253 -0.394089 1.590053
10.450075 -0.394089 1.792718
10.763899 -0.394089 2.019837
11.077723 -0.394089 2.266823
11.391544 -0.394089 2.491390
11.705368 -0.394089 2.647272
12.019190 -0.394089 2.837802
12.333014 -0.394089 3.007964
12.646837 -0.394089 3.212857
12.960659 -0.394089 3.375783
13.274483 -0.394089 3.480380
13.588306 -0.394089 3.523536
13.902128 -0.394089 3.638367
14.215952 -0.394089 3.804615
14.529776 -0.394089 4.011741
14.843597 -0.394089 4.223720
15.157421 -0.394089 4.568207
15.471243 -0.394089 4.819851
15.785067 -0.394089 5.004764
16.098890 -0.394089 5.363710
16.412712 -0.394089 4.641764
16.726536 -0.394089 0.000000
17.040359 -0.394089 0.000000
17.354181 -0.394089 0.000000
17.668005 -0.394089 0.000000
17.981829 -0.394089 0.000000
18.295650 -0.394089 0.000000
18.609474 -0.394089 0.000000
18.923298 -0.394089 0.000000
19.237120 -0.394089 0.000000
-6.810190 -0.707912 0.000000
-6.496367 -0.707912 0.025535
-6.182544 -0.707912 0.026392
-5.868721 -0.707912 0.026627
-5.554898 -0.707912 0.026455
-5.241075 -0.707912 0.026016
-4.927252 -0.707912 0.025659
-4.613429 -0.707912 0.025538
-4.299606 -0.707912 0.025520
-3.985783 -0.707912 0.025682
-3.671960 -0.707912 0.025849
-3.358137 -0.707912 0.025743
-3.044314 -0.707912 0.025462
-2.730491 -0.707912 0.025416
-2.416668 -0.707912 0.025267
-2.102845 -0.707912 0.025463
-1.789022 -0.707912 0.025901
-1.475199 -0.707912 0.026357
-1.161376 -0.707912 0.026626
-0.847553 -0.707912 0.026474
-0.533730 -0.707912 0.026577
-0.219907 -0.707912 0.026887
0.093916 -0.707912 0.026962
0.407739 -0.707912 0.026591
0.721562 -0.707912 0.026377
1.035385 -0.707912 0.026425
1.349208 -0.707912 0.026706
1.663032 -0.707912 0.027243
1.976854 -0.707912 0.027954
2.290677 -0.707912 0.028483
2.604500 -0.707912 0.029033
2.918324 -0.707912 0.029707
3.232146 -0.707912 0.030035
3.545969 -0.707912 0.029956
3.859793 -0.707912 0.030013
4.173615 -0.707912 0.030874
4.487438 -0.707912 0.032629
4.801261 -0.707912 0.034777
5.115085 -0.707912 0.036952
5.428907 -0.707912 0.039842
5.742730 -0.707912 0.043995
6.056554 -0.707912 0.048866
6.370377 -0.707912 0.055374
6.684199 -0.707912 0.064161
6.998022 -0.707912 0.076083
7.311846 -0.707912 0.095515
7.625669 -0.707912 0.131335
7.939491 -0.707912 0.195684
8.253315 -0.707912 0.306464
8.567138 -0.707912 0.474222
8.880960 -0.707912 0.695527
9.194784 -0.707912 0.914346
9.508606 -0.707912 1.167366
9.822430 -0.707912 1.399724
10.136253 -0.707912 1.658869
10.450075 -0.707912 1.882312
10.763899 -0.707912 2.118123
11.077723 -0.707912 2.362349
11.391544 -0.707912 2.595051
11.705368 -0.707912 2.770425
12.019190 -0.707912 2.957439
12.333014 -0.707912 3.170214
12.646837 -0.707912 3.347405
12.960659 -0.707912 3.548013
13.274483 -0.707912 3.652629
13.588306 -0.707912 3.753849
13.902128 -0.707912 3.854118
14.215952 -0.707912 4.035745
14.529776 -0.707912 4.193723
14.843597 -0.707912 4.436882
15.157421 -0.707912 4.677069
15.471243 -0.707912 5.114821
15.785067 -0.707912 5.361863
16.098890 -0.707912 5.452177
16.412712 -0.707912 3.476894
16.726536 -0.707912 0.000000
17.040359 -0.707912 0.000000
17.354181 -0.707912 0.000000
17.668005 -0.707912 0.000000
17.981829 -0.707912 0.000000
18.295650 -0.707912 0.000000
18.609474 -0.707912 0.000000
18.923298 -0.707912 0.000000
19.237120 -0.707912 0.000000
-6.810190 -1.021736 0.000000
-6.496367 -1.021736 0.000000
-6.182544 -1.021736 0.000000
-5.868721 -1.021736 0.000000
-5.554898 -1.021736 0.000000
-5.241075 -1.021736 0.000000
-4.927252 -1.021736 0.000000
-4.613429 -1.021736 0.000000
-4.299606 -1.021736 0.000000
-3.985783 -1.021736 0.000000
-3.671960 -1.021736 0.000000
-3.358137 -1.021736 0.000000
-3.044314 -1.021736 0.000000
-2.730491 -1.021736 0.000000
-2.416668 -1.021736 0.000000
-2.102845 -1.021736 0.000685
-1.789022 -1.021736 0.002304
-1.475199 -1.021736 0.002706
-1.161376 -1.021736 0.003261
-0.847553 -1.021736 0.004561
-0.533730 -1.021736 0.005545
-0.219907 -1.021736 0.007478
0.093916 -1.021736 0.009774
0.407739 -1.021736 0.012462
0.721562 -1.021736 0.016016
1.035385 -1.021736 0.019963
1.349208 -1.021736 0.023470
1.663032 -1.021736 0.026853
1.976854 -1.021736 0.029128
2.290677 -1.021736 0.030202
2.604500 -1.021736 0.030986
2.918324 -1.021736 0.031704
3.232146 -1.021736 0.032000
3.545969 -1.021736 0.031758
3.859793 -1.021736 0.031491
4.173615 -1.021736 0.032368
4.487438 -1.021736 0.034381
4.801261 -1.021736 0.036589
5.115085 -1.021736 0.038821
5.428907 -1.021736 0.041843
5.742730 -1.021736 0.046634
6.056554 -1.021736 0.051988
6.370377 -1.021736 0.058971
6.684199 -1.021736 0.068435
6.998022 -1.021736 0.081680
7.311846 -1.021736 0.101980
7.625669 -1.021736 0.138754
7.939491 -1.021736 0.210404
8.253315 -1.021736 0.328649
8.567138 -1.021736 0.511571
8.880960 -1.021736 0.739325
9.194784 -1.021736 0.969985
9.508606 -1.021736 1.220176
9.822430 -1.021736 1.471187
10.136253 -1.021736 1.719393
10.450075 -1.021736 1.974059
10.763899 -1.021736 2.220603
11.077723 -1.021736 2.503230
11.391544 -1.021736 2.709172
11.705368 -1.021736 2.955176
12.019190 -1.021736 3.145911
12.333014 -1.021736 3.350998
12.646837 -1.021736 3.577201
12.960659 -1.021736 3.816361
13.274483 -1.021736 3.990291
13.588306 -1.021736 4.086040
13.902128 -1.021736 4.184407
14.215952 -1.021736 4.284842
14.529776 -1.021736 4.476438
14.843597 -1.021736 4.648271
15.157421 -1.021736 5.035303
15.471243 -1.021736 5.310130
15.785067 -1.021736 5.532037
16.098890 -1.021736 5.163880
16.412712 -1.021736 0.000000
16.726536 -1.021736 0.000000
17.040359 -1.021736 0.000000
17.354181 -1.021736 0.000000
17.668005 -1.021736 0.000000
17.981829 -1.021736 0.000000
18.295650 -1.021736 0.000000
18.609474 -1.021736 0.000000
18.923298 -1.021736 0.000000
19.237120 -1.021736 0.000000
-6.810190 -1.335556 0.000000
-6.496367 -1.335556 0.000000
-6.182544 -1.335556 0.000000
-5.868721 -1.335556 0.000000
-5.554898 -1.335556 0.000000
-5.241075 -1.335556 0.000000
-4.927252 -1.335556 0.000000
-4.613429 -1.335556 0.000000
-4.299606 -1.335556 0.000000
-3.985783 -1.335556 0.000000
-3.671960 -1.335556 0.000000
-3.358137 -1.335556 0.000000
-3.044314 -1.335556 0.000000
-2.730491 -1.335556 0.000000
-2.416668 -1.335556 0.000000
-2.102845 -1.335556 0.000000
-1.789022 -1.335556 0.000000
-1.475199 -1.335556 0.000000
-1.161376 -1.335556 0.000000
-0.847553 -1.335556 0.000000
-0.533730 -1.335556 0.000000
-0.219907 -1.335556 0.000000
0.093916 -1.335556 0.000000
0.407739 -1.335556 0.000000
0.721562 -1.335556 0.000000
1.035385 -1.335556 0.000000
1.349208 -1.335556 0.000000
1.663032 -1.335556 0.000000
1.976854 -1.335556 0.000000
2.290677 -1.335556 0.000000
2.604500 -1.335556 0.000000
2.918324 -1.335556 0.000000
3.232146 -1.335556 0.000000
3.545969 -1.335556 0.000000
3.859793 -1.335556 0.000000
4.173615 -1.335556 0.000000
4.487438 -1.335556 0.000000
4.801261 -1.335556 0.000000
5.115085 -1.335556 0.000000
5.428907 -1.335556 0.000000
5.742730 -1.335556 0.000000
6.056554 -1.335556 0.000000
6.370377 -1.335556 0.000000
6.684199 -1.335556 0.000000
6.998022 -1.335556 0.000000
7.311846 -1.335556 0.000000
7.625669 -1.335556 0.000000
7.939491 -1.335556 0.000000
8.253315 -1.335556 0.501192
8.567138 -1.335556 0.624841
8.880960 -1.335556 1.475032
9.194784 -1.335556 0.901027
9.508606 -1.335556 0.763127
9.822430 -1.335556 0.746349
10.136253 -1.335556 0.944542
10.450075 -1.335556 1.011175
10.763899 -1.335556 1.184914
11.077723 -1.335556 1.414907
11.391544 -1.335556 1.706780
11.705368 -1.335556 2.083642
12.019190 -1.335556 2.459926
12.333014 -1.335556 2.828512
12.646837 -1.335556 3.199136
12.960659 -1.335556 3.477259
13.274483 -1.335556 3.793259
13.588306 -1.335556 3.947913
13.902128 -1.335556 4.097353
14.215952 -1.335556 4.231110
14.529776 -1.335556 4.398918
14.843597 -1.335556 4.658170
15.157421 -1.335556 4.851659
15.471243 -1.335556 5.113315
15.785067 -1.335556 5.208517
16.098890 -1.335556 5.508282
16.412712 -1.335556 0.000000
16.726536 -1.335556 0.000000
17.040359 -1.335556 0.000000
17.354181 -1.335556 0.000000
17.668005 -1.335556 0.000000
17.981829 -1.335556 0.000000
18.295650 -1.335556 0.000000
18.609474 -1.335556 0.000000
18.923298 -1.335556 0.000000
19.237120 -1.335556 0.000000
-6.810190 -1.649380 0.000000
-6.496367 -1.649380 0.000000
-6.182544 -1.649380 0.000000
-5.868721 -1.649380 0.000000
-5.554898 -1.649380 0.000000
-5.241075 -1.649380 0.000000
-4.927252 -1.649380 0.000000
-4.613429 -1.649380 0.000000
-4.299606 -1.649380 0.000000
-3.985783 -1.649380 0.000000
-3.671960 -1.649380 0.000000
-3.358137 -1.649380 0.000000
-3.044314 -1.649380 0.000000
-2.730491 -1.649380 0.000000
-2.416668 -1.649380 0.000000
-2.102845 -1.649380 0.000000
-1.789022 -1.649380 0.000000
-1.475199 -1.649380 0.000000
-1.161376 -1.649380 0.000000
-0.847553 -1.649380 0.000000
-0.533730 -1.649380 0.000000
-0.219907 -1.649380 0.000000
0.093916 -1.649380 0.000000
0.407739 -1.649380 0.000000
0.721562 -1.649380 0.000000
1.035385 -1.649380 0.000000
1.349208 -1.649380 0.000000
1.663032 -1.649380 0.000000
1.976854 -1.649380 0.000000
2.290677 -1.649380 0.000000
2.604500 -1.649380 0.000000
2.918324 -1.649380 0.000000
3.232146 -1.649380 0.000000
3.545969 -1.649380 0.000000
3.859793 -1.649380 0.000000
4.173615 -1.649380 0.000000
4.487438 -1.649380 0.000000
4.801261 -1.649380 0.000000
5.115085 -1.649380 0.000000
5.428907 -1.649380 0.000000
5.742730 -1.649380 0.000000
6.056554 -1.649380 0.000000
6.370377 -1.649380 0.000000
6.684199 -1.649380 0.000000
6.998022 -1.649380 0.000000
7.311846 -1.649380 0.000000
7.625669 -1.649380 0.000000
7.939491 -1.649380 0.000000
8.253315 -1.649380 0.000000
8.567138 -1.649380 0.000000
8.880960 -1.649380 0.000000
9.194784 -1.649380 0.000000
9.508606 -1.649380 0.000000
9.822430 -1.649380 0.000000
10.136253 -1.649380 0.000000
10.450075 -1.649380 0.000000
10.763899 -1.649380 4.045874
11.077723 -1.649380 2.474195
11.391544 -1.649380 3.683315
11.705368 -1.649380 4.033474
12.019190 -1.649380 2.961022
12.333014 -1.649380 1.704948
12.646837 -1.649380 1.846866
12.960659 -1.649380 2.319692
13.274483 -1.649380 2.137331
13.588306 -1.649380 2.036895
13.902128 -1.649380 1.941399
14.215952 -1.649380 1.958341
14.529776 -1.649380 2.221817
14.843597 -1.649380 2.504236
15.157421 -1.649380 2.905655
15.471243 -1.649380 3.123800
15.785067 -1.649380 3.217196
16.098890 -1.649380 0.759967
16.412712 -1.649380 0.000000
16.726536 -1.649380 0.000000
17.040359 -1.649380 0.000000
17.354181 -1.649380 0.000000
17.668005 -1.649380 0.000000
17.981829 -1.649380 0.000000
18.295650 -1.649380 0.000000
18.609474 -1.649380 0.000000
18.923298 -1.649380 0.000000
19.237120 -1.649380 0.000000
-6.810190 -1.963203 0.000000
-6.496367 -1.963203 0.000000
-6.182544 -1.963203 0.000000
-5.868721 -1.963203 0.000000
-5.554898 -1.963203 0.000000
-5.241075 -1.963203 0.000000
-4.927252 -1.963203 0.000000
-4.613429 -1.963203 0.000000
-4.299606 -1.963203 0.000000
-3.985783 -1.963203 0.000000
-3.671960 -1.963203 0.000000
-3.358137 -1.963203 0.000000
-3.044314 -1.963203 0.000000
-2.730491 -1.963203 0.000000
-2.416668 -1.963203 0.000000
-2.102845 -1.963203 0.000000
-1.789022 -1.963203 0.000000
-1.475199 -1.963203 0.000000
-1.161376 -1.963203 0.000000
-0.847553 -1.963203 0.000000
-0.533730 -1.963203 0.000000
-0.219907 -1.963203 0.000000
0.093916 -1.963203 0.000000
0.407739 -1.963203 0.000000
0.721562 -1.963203 0.000000
1.035385 -1.963203 0.000000
1.349208 -1.963203 0.000000
1.663032 -1.963203 0.000000
1.976854 -1.963203 0.000000
2.290677 -1.963203 0.000000
2.604500 -1.963203 0.000000
2.918324 -1.963203 0.000000
3.232146 -1.963203 0.000000
3.545969 -1.963203 0.000000
3.859793 -1.963203 0.000000
4.173615 -1.963203 0.000000
4.487438 -1.963203 0.000000
4.801261 -1.963203 0.000000
5.115085 -1.963203 0.000000
5.428907 -1.963203 0.000000
5.742730 -1.963203 0.000000
6.056554 -1.963203 0.000000
6.370377 -1.963203 0.000000
6.684199 -1.963203 0.000000
6.998022 -1.963203 0.000000
7.311846 -1.963203 0.000000
7.625669 -1.963203 0.000000
7.939491 -1.963203 0.000000
8.253315 -1.963203 0.000000
8.567138 -1.963203 0.000000
8.880960 -1.963203 0.000000
9.194784 -1.963203 0.000000
9.508606 -1.963203 0.000000
9.822430 -1.963203 0.000000
10.136253 -1.963203 0.000000
10.450075 -1.963203 0.000000
10.763899 -1.963203 0.000000
11.077723 -1.963203 0.000000
11.391544 -1.963203 0.000000
11.705368 -1.963203 0.000000
12.019190 -1.963203 0.000000
12.333014 -1.963203 0.000000
12.646837 -1.963203 0.000000
12.960659 -1.963203 0.000000
13.274483 -1.963203 0.006395
13.588306 -1.963203 2.137316
13.902128 -1.963203 5.572724
14.215952 -1.963203 4.269999
14.529776 -1.963203 8.199007
14.843597 -1.963203 7.328560
15.157421 -1.963203 2.765612
15.471243 -1.963203 2.922267
15.785067 -1.963203 4.037039
16.098890 -1.963203 0.000000
16.412712 -1.963203 0.000000
16.726536 -1.963203 0.000000
17.040359 -1.963203 0.000000
17.354181 -1.963203 0.000000
17.668005 -1.963203 0.000000
17.981829 -1.963203 0.000000
18.295650 -1.963203 0.000000
18.609474 -1.963203 0.000000
18.923298 -1.963203 0.000000
19.237120 -1.963203 0.000000
-6.810190 -2.277027 0.000000
-6.496367 -2.277027 0.000000
-6.182544 -2.277027 0.000000
-5.868721 -2.277027 0.000000
-5.554898 -2.277027 0.000000
-5.241075 -2.277027 0.000000
-4.927252 -2.277027 0.000000
-4.613429 -2.277027 0.000000
-4.299606 -2.277027 0.000000
-3.985783 -2.277027 0.000000
-3.671960 -2.277027 0.000000
-3.358137 -2.277027 0.000000
-3.044314 -2.277027 0.000000
-2.730491 -2.277027 0.000000
-2.416668 -2.277027 0.000000
-2.102845 -2.277027 0.000000
-1.789022 -2.277027 0.000000
-1.475199 -2.277027 0.000000
-1.161376 -2.277027 0.000000
-0.847553 -2.277027 0.000000
-0.533730 -2.277027 0.000000
-0.219907 -2.277027 0.000000
0.093916 -2.277027 0.000000
0.407739 -2.277027 0.000000
0.721562 -2.277027 0.000000
1.035385 -2.277027 0.000000
1.349208 -2.277027 0.000000
1.663032 -2.277027 0.000000
1.976854 -2.277027 0.000000
2.290677 -2.277027 0.000000
2.604500 -2.277027 0.000000
2.918324 -2.277027 0.000000
3.232146 -2.277027 0.000000
3.545969 -2.277027 0.000000
3.859793 -2.277027 0.000000
4.173615 -2.277027 0.000000
4.487438 -2.277027 0.000000
4.801261 -2.277027 0.000000
5.115085 -2.277027 0.000000
5.428907 -2.277027 0.000000
5.742730 -2.277027 0.000000
6.056554 -2.277027 0.000000
6.370377 -2.277027 0.000000
6.684199 -2.277027 0.000000
6.998022 -2.277027 0.000000
7.311846 -2.277027 0.000000
7.625669 -2.277027 0.000000
7.939491 -2.277027 0.000000
8.253315 -2.277027 0.000000
8.567138 -2.277027 0.000000
8.880960 -2.277027 0.000000
9.194784 -2.277027 0.000000
9.508606 -2.277027 0.000000
9.822430 -2.277027 0.000000
10.136253 -2.277027 0.000000
10.450075 -2.277027 0.000000
10.763899 -2.277027 0.000000
11.077723 -2.277027 0.000000
11.391544 -2.277027 0.000000
11.705368 -2.277027 0.000000
12.019190 -2.277027 0.000000
12.333014 -2.277027 0.000000
12.646837 -2.277027 0.000000
12.960659 -2.277027 0.000000
13.274483 -2.277027 0.000000
13.588306 -2.277027 0.000000
13.902128 -2.277027 0.000000
14.215952 -2.277027 0.000000
14.529776 -2.277027 0.000000
14.843597 -2.277027 0.000000
15.157421 -2.277027 0.000000
15.471243 -2.277027 0.000000
15.785067 -2.277027 0.000000
16.098890 -2.277027 0.000000
16.412712 -2.277027 0.000000
16.726536 -2.277027 0.000000
17.040359 -2.277027 0.000000
17.354181 -2.277027 0.000000
17.668005 -2.277027 0.000000
17.981829 -2.277027 0.000000
18.295650 -2.277027 0.000000
18.609474 -2.277027 0.000000
18.923298 -2.277027 0.000000
19.237120 -2.277027 0.000000
