TITLE = "B00011"
VARIABLES = "x", "y", "Reynold stress YZ"
ZONE T="Frame 1" I=84, J=163, F=POINT
-6.810190 48.562302 0.000000
-6.496367 48.562302 0.000000
-6.182544 48.562302 0.000000
-5.868721 48.562302 0.000000
-5.554898 48.562302 0.000000
-5.241075 48.562302 0.000000
-4.927252 48.562302 0.000000
-4.613429 48.562302 0.000000
-4.299606 48.562302 0.000000
-3.985783 48.562302 0.000000
-3.671960 48.562302 0.000000
-3.358137 48.562302 0.000000
-3.044314 48.562302 0.000000
-2.730491 48.562302 0.000000
-2.416668 48.562302 0.000000
-2.102845 48.562302 0.000000
-1.789022 48.562302 0.000000
-1.475199 48.562302 0.000000
-1.161376 48.562302 0.000000
-0.847553 48.562302 0.000000
-0.533730 48.562302 0.000000
-0.219907 48.562302 0.000000
0.093916 48.562302 0.000000
0.407739 48.562302 0.000000
0.721562 48.562302 0.000000
1.035385 48.562302 0.000000
1.349208 48.562302 0.000000
1.663032 48.562302 0.000000
1.976854 48.562302 0.000000
2.290677 48.562302 0.000000
2.604500 48.562302 0.000000
2.918324 48.562302 0.000000
3.232146 48.562302 0.000000
3.545969 48.562302 0.000000
3.859793 48.562302 0.000000
4.173615 48.562302 0.000000
4.487438 48.562302 0.000000
4.801261 48.562302 0.000000
5.115085 48.562302 0.000000
5.428907 48.562302 0.000000
5.742730 48.562302 0.000000
6.056554 48.562302 0.000000
6.370377 48.562302 0.000000
6.684199 48.562302 0.000000
6.998022 48.562302 0.000000
7.311846 48.562302 0.000000
7.625669 48.562302 0.000000
7.939491 48.562302 0.000000
8.253315 48.562302 0.000000
8.567138 48.562302 0.000000
8.880960 48.562302 0.000000
9.194784 48.562302 0.000000
9.508606 48.562302 0.000000
9.822430 48.562302 0.000000
10.136253 48.562302 0.000000
10.450075 48.562302 0.000000
10.763899 48.562302 0.000000
11.077723 48.562302 0.000000
11.391544 48.562302 0.000000
11.705368 48.562302 0.000000
12.019190 48.562302 0.000000
12.333014 48.562302 0.000000
12.646837 48.562302 0.000000
12.960659 48.562302 0.000000
13.274483 48.562302 0.000000
13.588306 48.562302 0.000000
13.902128 48.562302 0.000000
14.215952 48.562302 0.000000
14.529776 48.562302 0.000000
14.843597 48.562302 0.000000
15.157421 48.562302 0.000000
15.471243 48.562302 0.000000
15.785067 48.562302 0.000000
16.098890 48.562302 0.000000
16.412712 48.562302 0.000000
16.726536 48.562302 0.000000
17.040359 48.562302 0.000000
17.354181 48.562302 0.000000
17.668005 48.562302 0.000000
17.981829 48.562302 0.000000
18.295650 48.562302 0.000000
18.609474 48.562302 0.000000
18.923298 48.562302 0.000000
19.237120 48.562302 0.000000
-6.810190 48.248478 0.000000
-6.496367 48.248478 0.000000
-6.182544 48.248478 0.000000
-5.868721 48.248478 0.000000
-5.554898 48.248478 0.000000
-5.241075 48.248478 0.000000
-4.927252 48.248478 0.000000
-4.613429 48.248478 0.000000
-4.299606 48.248478 0.000000
-3.985783 48.248478 0.000000
-3.671960 48.248478 0.000000
-3.358137 48.248478 0.000000
-3.044314 48.248478 0.000000
-2.730491 48.248478 0.000000
-2.416668 48.248478 0.000000
-2.102845 48.248478 0.000000
-1.789022 48.248478 0.000000
-1.475199 48.248478 0.000000
-1.161376 48.248478 0.000000
-0.847553 48.248478 0.000000
-0.533730 48.248478 0.000000
-0.219907 48.248478 0.000000
0.093916 48.248478 0.000000
0.407739 48.248478 0.000000
0.721562 48.248478 0.000000
1.035385 48.248478 0.000000
1.349208 48.248478 0.000000
1.663032 48.248478 0.000000
1.976854 48.248478 0.000000
2.290677 48.248478 0.000000
2.604500 48.248478 0.000000
2.918324 48.248478 0.000000
3.232146 48.248478 0.000000
3.545969 48.248478 0.000000
3.859793 48.248478 0.000000
4.173615 48.248478 0.000000
4.487438 48.248478 0.000000
4.801261 48.248478 0.000000
5.115085 48.248478 0.000000
5.428907 48.248478 0.000000
5.742730 48.248478 0.000000
6.056554 48.248478 0.000000
6.370377 48.248478 0.000000
6.684199 48.248478 0.000000
6.998022 48.248478 0.000000
7.311846 48.248478 0.000000
7.625669 48.248478 0.000000
7.939491 48.248478 0.000000
8.253315 48.248478 0.000000
8.567138 48.248478 0.000000
8.880960 48.248478 0.000000
9.194784 48.248478 0.000000
9.508606 48.248478 0.000000
9.822430 48.248478 0.000000
10.136253 48.248478 0.000000
10.450075 48.248478 0.000000
10.763899 48.248478 0.000000
11.077723 48.248478 0.000000
11.391544 48.248478 0.000000
11.705368 48.248478 0.000000
12.019190 48.248478 0.000000
12.333014 48.248478 0.000000
12.646837 48.248478 0.000000
12.960659 48.248478 0.000000
13.274483 48.248478 0.000000
13.588306 48.248478 0.000000
13.902128 48.248478 0.000000
14.215952 48.248478 0.000000
14.529776 48.248478 0.000000
14.843597 48.248478 0.000000
15.157421 48.248478 0.000000
15.471243 48.248478 0.000000
15.785067 48.248478 0.000000
16.098890 48.248478 0.000000
16.412712 48.248478 0.000000
16.726536 48.248478 0.000000
17.040359 48.248478 0.000000
17.354181 48.248478 0.000000
17.668005 48.248478 0.000000
17.981829 48.248478 0.000000
18.295650 48.248478 0.000000
18.609474 48.248478 0.000000
18.923298 48.248478 0.000000
19.237120 48.248478 0.000000
-6.810190 47.934654 0.000000
-6.496367 47.934654 0.000000
-6.182544 47.934654 0.000000
-5.868721 47.934654 0.000000
-5.554898 47.934654 0.000000
-5.241075 47.934654 0.000000
-4.927252 47.934654 0.000000
-4.613429 47.934654 0.000000
-4.299606 47.934654 0.000000
-3.985783 47.934654 0.000000
-3.671960 47.934654 0.000000
-3.358137 47.934654 0.000000
-3.044314 47.934654 0.000000
-2.730491 47.934654 0.000000
-2.416668 47.934654 0.000000
-2.102845 47.934654 0.000000
-1.789022 47.934654 0.000000
-1.475199 47.934654 0.000000
-1.161376 47.934654 0.000000
-0.847553 47.934654 0.000000
-0.533730 47.934654 0.000000
-0.219907 47.934654 0.000000
0.093916 47.934654 0.000000
0.407739 47.934654 0.000000
0.721562 47.934654 0.000000
1.035385 47.934654 0.000000
1.349208 47.934654 0.000000
1.663032 47.934654 0.000000
1.976854 47.934654 0.000000
2.290677 47.934654 0.000000
2.604500 47.934654 0.000000
2.918324 47.934654 0.000000
3.232146 47.934654 0.000000
3.545969 47.934654 0.000000
3.859793 47.934654 0.000000
4.173615 47.934654 0.000000
4.487438 47.934654 0.000000
4.801261 47.934654 0.000000
5.115085 47.934654 0.000000
5.428907 47.934654 0.000000
5.742730 47.934654 0.000000
6.056554 47.934654 0.000000
6.370377 47.934654 0.000000
6.684199 47.934654 0.000000
6.998022 47.934654 0.000000
7.311846 47.934654 0.000000
7.625669 47.934654 0.000000
7.939491 47.934654 0.000000
8.253315 47.934654 0.000000
8.567138 47.934654 0.000000
8.880960 47.934654 0.000000
9.194784 47.934654 0.000000
9.508606 47.934654 0.000000
9.822430 47.934654 0.000000
10.136253 47.934654 -0.258467
10.450075 47.934654 1.885740
10.763899 47.934654 0.470377
11.077723 47.934654 -0.553715
11.391544 47.934654 0.018310
11.705368 47.934654 0.575053
12.019190 47.934654 0.784309
12.333014 47.934654 -0.075391
12.646837 47.934654 -0.094873
12.960659 47.934654 -0.027671
13.274483 47.934654 -0.085538
13.588306 47.934654 -0.180279
13.902128 47.934654 -0.133237
14.215952 47.934654 -0.173114
14.529776 47.934654 -0.235595
14.843597 47.934654 -0.208104
15.157421 47.934654 -0.311437
15.471243 47.934654 -0.276439
15.785067 47.934654 -0.266343
16.098890 47.934654 -0.244834
16.412712 47.934654 -0.193526
16.726536 47.934654 -0.182395
17.040359 47.934654 -0.181691
17.354181 47.934654 -0.178214
17.668005 47.934654 -0.184838
17.981829 47.934654 -0.190483
18.295650 47.934654 -0.174936
18.609474 47.934654 -0.097948
18.923298 47.934654 -0.111692
19.237120 47.934654 0.000000
-6.810190 47.620834 0.000000
-6.496367 47.620834 0.000000
-6.182544 47.620834 -0.000419
-5.868721 47.620834 -0.000786
-5.554898 47.620834 -0.000962
-5.241075 47.620834 -0.001134
-4.927252 47.620834 -0.000722
-4.613429 47.620834 -0.000161
-4.299606 47.620834 0.000005
-3.985783 47.620834 0.000263
-3.671960 47.620834 -0.000007
-3.358137 47.620834 0.000729
-3.044314 47.620834 0.001007
-2.730491 47.620834 -0.000197
-2.416668 47.620834 -0.000721
-2.102845 47.620834 -0.000090
-1.789022 47.620834 0.000237
-1.475199 47.620834 0.000026
-1.161376 47.620834 0.000315
-0.847553 47.620834 0.000423
-0.533730 47.620834 0.000748
-0.219907 47.620834 0.001376
0.093916 47.620834 0.002171
0.407739 47.620834 0.001927
0.721562 47.620834 0.000629
1.035385 47.620834 0.000176
1.349208 47.620834 -0.000027
1.663032 47.620834 0.000487
1.976854 47.620834 0.001610
2.290677 47.620834 0.001815
2.604500 47.620834 0.001138
2.918324 47.620834 -0.000012
3.232146 47.620834 -0.000481
3.545969 47.620834 -0.000225
3.859793 47.620834 -0.000109
4.173615 47.620834 0.000568
4.487438 47.620834 0.001357
4.801261 47.620834 0.002226
5.115085 47.620834 0.002944
5.428907 47.620834 0.002547
5.742730 47.620834 0.001725
6.056554 47.620834 0.001457
6.370377 47.620834 0.000942
6.684199 47.620834 0.000773
6.998022 47.620834 -0.000712
7.311846 47.620834 -0.002941
7.625669 47.620834 -0.004252
7.939491 47.620834 -0.005683
8.253315 47.620834 -0.006985
8.567138 47.620834 -0.009768
8.880960 47.620834 -0.010480
9.194784 47.620834 -0.007785
9.508606 47.620834 -0.012385
9.822430 47.620834 -0.011525
10.136253 47.620834 -0.013626
10.450075 47.620834 -0.024553
10.763899 47.620834 -0.022780
11.077723 47.620834 -0.041145
11.391544 47.620834 -0.025621
11.705368 47.620834 -0.070594
12.019190 47.620834 -0.074124
12.333014 47.620834 -0.110121
12.646837 47.620834 -0.123647
12.960659 47.620834 -0.127951
13.274483 47.620834 -0.088082
13.588306 47.620834 -0.036357
13.902128 47.620834 -0.051453
14.215952 47.620834 -0.056412
14.529776 47.620834 -0.083010
14.843597 47.620834 -0.078075
15.157421 47.620834 -0.035773
15.471243 47.620834 -0.046370
15.785067 47.620834 -0.048215
16.098890 47.620834 -0.013664
16.412712 47.620834 0.019094
16.726536 47.620834 0.065513
17.040359 47.620834 0.048044
17.354181 47.620834 0.056360
17.668005 47.620834 0.077175
17.981829 47.620834 0.088596
18.295650 47.620834 0.095555
18.609474 47.620834 0.083872
18.923298 47.620834 0.044518
19.237120 47.620834 0.000000
-6.810190 47.307011 0.000000
-6.496367 47.307011 0.000000
-6.182544 47.307011 0.000543
-5.868721 47.307011 -0.000420
-5.554898 47.307011 -0.000846
-5.241075 47.307011 -0.001025
-4.927252 47.307011 -0.001249
-4.613429 47.307011 -0.001335
-4.299606 47.307011 -0.001157
-3.985783 47.307011 -0.000673
-3.671960 47.307011 -0.000694
-3.358137 47.307011 -0.000397
-3.044314 47.307011 -0.000252
-2.730491 47.307011 -0.000884
-2.416668 47.307011 -0.001285
-2.102845 47.307011 -0.000952
-1.789022 47.307011 -0.000925
-1.475199 47.307011 -0.001225
-1.161376 47.307011 -0.000949
-0.847553 47.307011 -0.000588
-0.533730 47.307011 -0.000130
-0.219907 47.307011 0.000351
0.093916 47.307011 0.001093
0.407739 47.307011 0.001275
0.721562 47.307011 0.000351
1.035385 47.307011 0.000099
1.349208 47.307011 0.000259
1.663032 47.307011 0.000857
1.976854 47.307011 0.001544
2.290677 47.307011 0.001568
2.604500 47.307011 0.000883
2.918324 47.307011 0.000052
3.232146 47.307011 -0.000332
3.545969 47.307011 -0.000421
3.859793 47.307011 -0.000406
4.173615 47.307011 0.000277
4.487438 47.307011 0.001189
4.801261 47.307011 0.002065
5.115085 47.307011 0.002692
5.428907 47.307011 0.002365
5.742730 47.307011 0.001643
6.056554 47.307011 0.001574
6.370377 47.307011 0.001272
6.684199 47.307011 0.001029
6.998022 47.307011 0.000454
7.311846 47.307011 -0.000552
7.625669 47.307011 -0.000154
7.939491 47.307011 0.000620
8.253315 47.307011 0.000408
8.567138 47.307011 -0.000369
8.880960 47.307011 -0.000441
9.194784 47.307011 0.004034
9.508606 47.307011 -0.000330
9.822430 47.307011 0.000080
10.136253 47.307011 0.006040
10.450075 47.307011 0.015334
10.763899 47.307011 0.004316
11.077723 47.307011 0.001086
11.391544 47.307011 -0.007792
11.705368 47.307011 -0.010585
12.019190 47.307011 -0.040712
12.333014 47.307011 -0.066493
12.646837 47.307011 -0.105355
12.960659 47.307011 -0.095198
13.274483 47.307011 -0.052426
13.588306 47.307011 -0.027980
13.902128 47.307011 -0.061908
14.215952 47.307011 -0.074934
14.529776 47.307011 -0.098054
14.843597 47.307011 -0.098329
15.157421 47.307011 -0.080134
15.471243 47.307011 -0.066361
15.785067 47.307011 -0.072286
16.098890 47.307011 -0.045472
16.412712 47.307011 -0.013674
16.726536 47.307011 0.011990
17.040359 47.307011 0.004486
17.354181 47.307011 0.016649
17.668005 47.307011 0.022391
17.981829 47.307011 0.046070
18.295650 47.307011 0.064464
18.609474 47.307011 0.072707
18.923298 47.307011 0.085746
19.237120 47.307011 0.000000
-6.810190 46.993187 0.000000
-6.496367 46.993187 0.000000
-6.182544 46.993187 0.002909
-5.868721 46.993187 -0.000706
-5.554898 46.993187 -0.001373
-5.241075 46.993187 -0.001115
-4.927252 46.993187 -0.001052
-4.613429 46.993187 -0.001155
-4.299606 46.993187 -0.001067
-3.985783 46.993187 -0.000641
-3.671960 46.993187 -0.000455
-3.358137 46.993187 -0.000468
-3.044314 46.993187 -0.000429
-2.730491 46.993187 -0.000708
-2.416668 46.993187 -0.000962
-2.102845 46.993187 -0.001024
-1.789022 46.993187 -0.001250
-1.475199 46.993187 -0.001726
-1.161376 46.993187 -0.001573
-0.847553 46.993187 -0.001040
-0.533730 46.993187 -0.000499
-0.219907 46.993187 -0.000138
0.093916 46.993187 0.000613
0.407739 46.993187 0.000995
0.721562 46.993187 0.000309
1.035385 46.993187 -0.000067
1.349208 46.993187 0.000353
1.663032 46.993187 0.000734
1.976854 46.993187 0.000913
2.290677 46.993187 0.000674
2.604500 46.993187 -0.000019
2.918324 46.993187 -0.000574
3.232146 46.993187 -0.000777
3.545969 46.993187 -0.001151
3.859793 46.993187 -0.001514
4.173615 46.993187 -0.000892
4.487438 46.993187 -0.000152
4.801261 46.993187 0.000708
5.115085 46.993187 0.001346
5.428907 46.993187 0.001181
5.742730 46.993187 0.000744
6.056554 46.993187 0.000812
6.370377 46.993187 0.000677
6.684199 46.993187 0.000310
6.998022 46.993187 -0.000224
7.311846 46.993187 -0.000993
7.625669 46.993187 -0.000605
7.939491 46.993187 -0.000089
8.253315 46.993187 -0.001432
8.567138 46.993187 -0.002644
8.880960 46.993187 -0.002508
9.194784 46.993187 -0.000379
9.508606 46.993187 -0.005357
9.822430 46.993187 -0.005421
10.136253 46.993187 -0.006157
10.450075 46.993187 0.004028
10.763899 46.993187 -0.015151
11.077723 46.993187 -0.029911
11.391544 46.993187 -0.049039
11.705368 46.993187 -0.060854
12.019190 46.993187 -0.074552
12.333014 46.993187 -0.099141
12.646837 46.993187 -0.135554
12.960659 46.993187 -0.113129
13.274483 46.993187 -0.093965
13.588306 46.993187 -0.095283
13.902128 46.993187 -0.101109
14.215952 46.993187 -0.126626
14.529776 46.993187 -0.155111
14.843597 46.993187 -0.156517
15.157421 46.993187 -0.129196
15.471243 46.993187 -0.101242
15.785067 46.993187 -0.100171
16.098890 46.993187 -0.083187
16.412712 46.993187 -0.055959
16.726536 46.993187 -0.035079
17.040359 46.993187 -0.028480
17.354181 46.993187 -0.031948
17.668005 46.993187 -0.020736
17.981829 46.993187 -0.005598
18.295650 46.993187 0.024356
18.609474 46.993187 0.046608
18.923298 46.993187 0.080157
19.237120 46.993187 0.000000
-6.810190 46.679363 0.000000
-6.496367 46.679363 0.000000
-6.182544 46.679363 0.002039
-5.868721 46.679363 -0.001686
-5.554898 46.679363 -0.001901
-5.241075 46.679363 -0.001314
-4.927252 46.679363 -0.000973
-4.613429 46.679363 -0.000856
-4.299606 46.679363 -0.000801
-3.985783 46.679363 -0.000281
-3.671960 46.679363 -0.000170
-3.358137 46.679363 -0.000389
-3.044314 46.679363 -0.000409
-2.730491 46.679363 -0.000446
-2.416668 46.679363 -0.000691
-2.102845 46.679363 -0.000977
-1.789022 46.679363 -0.001454
-1.475199 46.679363 -0.002026
-1.161376 46.679363 -0.001918
-0.847553 46.679363 -0.001353
-0.533730 46.679363 -0.000710
-0.219907 46.679363 -0.000390
0.093916 46.679363 0.000351
0.407739 46.679363 0.000867
0.721562 46.679363 0.000241
1.035385 46.679363 -0.000048
1.349208 46.679363 0.000540
1.663032 46.679363 0.000866
1.976854 46.679363 0.000700
2.290677 46.679363 0.000158
2.604500 46.679363 -0.000353
2.918324 46.679363 -0.000704
3.232146 46.679363 -0.000971
3.545969 46.679363 -0.001672
3.859793 46.679363 -0.002421
4.173615 46.679363 -0.001821
4.487438 46.679363 -0.001181
4.801261 46.679363 -0.000486
5.115085 46.679363 0.000024
5.428907 46.679363 -0.000153
5.742730 46.679363 -0.000136
6.056554 46.679363 0.000137
6.370377 46.679363 0.000296
6.684199 46.679363 0.000231
6.998022 46.679363 -0.000212
7.311846 46.679363 -0.000587
7.625669 46.679363 -0.000144
7.939491 46.679363 -0.000104
8.253315 46.679363 -0.001265
8.567138 46.679363 -0.003682
8.880960 46.679363 -0.003349
9.194784 46.679363 -0.001464
9.508606 46.679363 -0.008345
9.822430 46.679363 -0.009438
10.136253 46.679363 -0.008965
10.450075 46.679363 -0.016884
10.763899 46.679363 -0.029573
11.077723 46.679363 -0.056256
11.391544 46.679363 -0.080442
11.705368 46.679363 -0.095737
12.019190 46.679363 -0.111469
12.333014 46.679363 -0.110823
12.646837 46.679363 -0.136500
12.960659 46.679363 -0.152282
13.274483 46.679363 -0.135099
13.588306 46.679363 -0.139310
13.902128 46.679363 -0.151477
14.215952 46.679363 -0.164911
14.529776 46.679363 -0.189159
14.843597 46.679363 -0.173239
15.157421 46.679363 -0.164947
15.471243 46.679363 -0.140043
15.785067 46.679363 -0.131759
16.098890 46.679363 -0.101456
16.412712 46.679363 -0.082875
16.726536 46.679363 -0.076476
17.040359 46.679363 -0.062837
17.354181 46.679363 -0.060972
17.668005 46.679363 -0.047643
17.981829 46.679363 -0.028809
18.295650 46.679363 -0.018110
18.609474 46.679363 0.029906
18.923298 46.679363 0.070099
19.237120 46.679363 0.000000
-6.810190 46.365540 0.000000
-6.496367 46.365540 0.000000
-6.182544 46.365540 0.000886
-5.868721 46.365540 -0.002496
-5.554898 46.365540 -0.002359
-5.241075 46.365540 -0.001723
-4.927252 46.365540 -0.001096
-4.613429 46.365540 -0.000726
-4.299606 46.365540 -0.000676
-3.985783 46.365540 -0.000281
-3.671960 46.365540 -0.000118
-3.358137 46.365540 -0.000419
-3.044314 46.365540 -0.000366
-2.730491 46.365540 -0.000276
-2.416668 46.365540 -0.000401
-2.102845 46.365540 -0.000743
-1.789022 46.365540 -0.001337
-1.475199 46.365540 -0.001979
-1.161376 46.365540 -0.001945
-0.847553 46.365540 -0.001632
-0.533730 46.365540 -0.001072
-0.219907 46.365540 -0.000794
0.093916 46.365540 -0.000135
0.407739 46.365540 0.000420
0.721562 46.365540 0.000064
1.035385 46.365540 -0.000159
1.349208 46.365540 0.000552
1.663032 46.365540 0.000923
1.976854 46.365540 0.000702
2.290677 46.365540 0.000205
2.604500 46.365540 -0.000228
2.918324 46.365540 -0.000388
3.232146 46.365540 -0.000683
3.545969 46.365540 -0.001627
3.859793 46.365540 -0.002651
4.173615 46.365540 -0.002305
4.487438 46.365540 -0.001840
4.801261 46.365540 -0.001468
5.115085 46.365540 -0.001225
5.428907 46.365540 -0.001466
5.742730 46.365540 -0.001105
6.056554 46.365540 -0.000699
6.370377 46.365540 -0.000507
6.684199 46.365540 0.000002
6.998022 46.365540 0.000048
7.311846 46.365540 0.000031
7.625669 46.365540 0.000585
7.939491 46.365540 0.000678
8.253315 46.365540 -0.000875
8.567138 46.365540 -0.002927
8.880960 46.365540 -0.002883
9.194784 46.365540 -0.002204
9.508606 46.365540 -0.006373
9.822430 46.365540 -0.011003
10.136253 46.365540 -0.012506
10.450075 46.365540 -0.018735
10.763899 46.365540 -0.045672
11.077723 46.365540 -0.079928
11.391544 46.365540 -0.101043
11.705368 46.365540 -0.123493
12.019190 46.365540 -0.131459
12.333014 46.365540 -0.146310
12.646837 46.365540 -0.155658
12.960659 46.365540 -0.167353
13.274483 46.365540 -0.163068
13.588306 46.365540 -0.169459
13.902128 46.365540 -0.174496
14.215952 46.365540 -0.197388
14.529776 46.365540 -0.195640
14.843597 46.365540 -0.188232
15.157421 46.365540 -0.167604
15.471243 46.365540 -0.149059
15.785067 46.365540 -0.141451
16.098890 46.365540 -0.105000
16.412712 46.365540 -0.096255
16.726536 46.365540 -0.099866
17.040359 46.365540 -0.083796
17.354181 46.365540 -0.064695
17.668005 46.365540 -0.044866
17.981829 46.365540 -0.035436
18.295650 46.365540 -0.035743
18.609474 46.365540 -0.005587
18.923298 46.365540 0.038593
19.237120 46.365540 0.000000
-6.810190 46.051716 0.000000
-6.496367 46.051716 0.000000
-6.182544 46.051716 0.000498
-5.868721 46.051716 -0.002894
-5.554898 46.051716 -0.002786
-5.241075 46.051716 -0.002095
-4.927252 46.051716 -0.001291
-4.613429 46.051716 -0.000778
-4.299606 46.051716 -0.000687
-3.985783 46.051716 -0.000512
-3.671960 46.051716 -0.000372
-3.358137 46.051716 -0.000422
-3.044314 46.051716 -0.000174
-2.730491 46.051716 -0.000059
-2.416668 46.051716 -0.000213
-2.102845 46.051716 -0.000400
-1.789022 46.051716 -0.000931
-1.475199 46.051716 -0.001550
-1.161376 46.051716 -0.001755
-0.847553 46.051716 -0.001740
-0.533730 46.051716 -0.001482
-0.219907 46.051716 -0.001417
0.093916 46.051716 -0.000893
0.407739 46.051716 -0.000483
0.721562 46.051716 -0.000661
1.035385 46.051716 -0.000683
1.349208 46.051716 0.000166
1.663032 46.051716 0.000720
1.976854 46.051716 0.000761
2.290677 46.051716 0.000401
2.604500 46.051716 0.000239
2.918324 46.051716 0.000409
3.232146 46.051716 -0.000067
3.545969 46.051716 -0.001049
3.859793 46.051716 -0.002133
4.173615 46.051716 -0.002166
4.487438 46.051716 -0.002083
4.801261 46.051716 -0.002102
5.115085 46.051716 -0.002197
5.428907 46.051716 -0.002586
5.742730 46.051716 -0.002245
6.056554 46.051716 -0.001982
6.370377 46.051716 -0.001652
6.684199 46.051716 -0.000774
6.998022 46.051716 -0.000408
7.311846 46.051716 -0.000313
7.625669 46.051716 0.000837
7.939491 46.051716 0.001114
8.253315 46.051716 0.000047
8.567138 46.051716 -0.001847
8.880960 46.051716 -0.002921
9.194784 46.051716 -0.004242
9.508606 46.051716 -0.007091
9.822430 46.051716 -0.008725
10.136253 46.051716 -0.011321
10.450075 46.051716 -0.025113
10.763899 46.051716 -0.053191
11.077723 46.051716 -0.082381
11.391544 46.051716 -0.121052
11.705368 46.051716 -0.147609
12.019190 46.051716 -0.151326
12.333014 46.051716 -0.153711
12.646837 46.051716 -0.171082
12.960659 46.051716 -0.183738
13.274483 46.051716 -0.170149
13.588306 46.051716 -0.182096
13.902128 46.051716 -0.199768
14.215952 46.051716 -0.216508
14.529776 46.051716 -0.196687
14.843597 46.051716 -0.187056
15.157421 46.051716 -0.169335
15.471243 46.051716 -0.153760
15.785067 46.051716 -0.145429
16.098890 46.051716 -0.123077
16.412712 46.051716 -0.102717
16.726536 46.051716 -0.104972
17.040359 46.051716 -0.094934
17.354181 46.051716 -0.065561
17.668005 46.051716 -0.041438
17.981829 46.051716 -0.035394
18.295650 46.051716 -0.032768
18.609474 46.051716 -0.011379
18.923298 46.051716 0.050239
19.237120 46.051716 0.000000
-6.810190 45.737896 0.000000
-6.496367 45.737896 0.000000
-6.182544 45.737896 0.000501
-5.868721 45.737896 -0.002761
-5.554898 45.737896 -0.002865
-5.241075 45.737896 -0.002397
-4.927252 45.737896 -0.001449
-4.613429 45.737896 -0.001024
-4.299606 45.737896 -0.001086
-3.985783 45.737896 -0.001091
-3.671960 45.737896 -0.000729
-3.358137 45.737896 -0.000397
-3.044314 45.737896 -0.000018
-2.730491 45.737896 0.000145
-2.416668 45.737896 0.000066
-2.102845 45.737896 -0.000018
-1.789022 45.737896 -0.000266
-1.475199 45.737896 -0.000735
-1.161376 45.737896 -0.001129
-0.847553 45.737896 -0.001417
-0.533730 45.737896 -0.001524
-0.219907 45.737896 -0.001817
0.093916 45.737896 -0.001767
0.407739 45.737896 -0.001484
0.721562 45.737896 -0.001580
1.035385 45.737896 -0.001386
1.349208 45.737896 -0.000475
1.663032 45.737896 0.000320
1.976854 45.737896 0.000637
2.290677 45.737896 0.000388
2.604500 45.737896 0.000835
2.918324 45.737896 0.001311
3.232146 45.737896 0.000703
3.545969 45.737896 -0.000026
3.859793 45.737896 -0.000950
4.173615 45.737896 -0.001464
4.487438 45.737896 -0.001825
4.801261 45.737896 -0.002121
5.115085 45.737896 -0.002598
5.428907 45.737896 -0.003192
5.742730 45.737896 -0.003273
6.056554 45.737896 -0.003292
6.370377 45.737896 -0.003030
6.684199 45.737896 -0.002096
6.998022 45.737896 -0.001654
7.311846 45.737896 -0.001233
7.625669 45.737896 0.000354
7.939491 45.737896 0.000738
8.253315 45.737896 0.000226
8.567138 45.737896 -0.000595
8.880960 45.737896 -0.001511
9.194784 45.737896 -0.005143
9.508606 45.737896 -0.006965
9.822430 45.737896 -0.008768
10.136253 45.737896 -0.013097
10.450075 45.737896 -0.025113
10.763899 45.737896 -0.052220
11.077723 45.737896 -0.072792
11.391544 45.737896 -0.110324
11.705368 45.737896 -0.148442
12.019190 45.737896 -0.151913
12.333014 45.737896 -0.147883
12.646837 45.737896 -0.156692
12.960659 45.737896 -0.170431
13.274483 45.737896 -0.180058
13.588306 45.737896 -0.182455
13.902128 45.737896 -0.202872
14.215952 45.737896 -0.233503
14.529776 45.737896 -0.206664
14.843597 45.737896 -0.197930
15.157421 45.737896 -0.173159
15.471243 45.737896 -0.150449
15.785067 45.737896 -0.148310
16.098890 45.737896 -0.132519
16.412712 45.737896 -0.103607
16.726536 45.737896 -0.100224
17.040359 45.737896 -0.092323
17.354181 45.737896 -0.063415
17.668005 45.737896 -0.049848
17.981829 45.737896 -0.026637
18.295650 45.737896 -0.017645
18.609474 45.737896 0.002261
18.923298 45.737896 0.028808
19.237120 45.737896 0.000000
-6.810190 45.424072 0.000000
-6.496367 45.424072 0.000000
-6.182544 45.424072 0.001153
-5.868721 45.424072 -0.002162
-5.554898 45.424072 -0.002625
-5.241075 45.424072 -0.002377
-4.927252 45.424072 -0.001724
-4.613429 45.424072 -0.001571
-4.299606 45.424072 -0.001888
-3.985783 45.424072 -0.001942
-3.671960 45.424072 -0.001314
-3.358137 45.424072 -0.000603
-3.044314 45.424072 -0.000245
-2.730491 45.424072 -0.000041
-2.416668 45.424072 0.000012
-2.102845 45.424072 0.000288
-1.789022 45.424072 0.000431
-1.475199 45.424072 0.000190
-1.161376 45.424072 -0.000203
-0.847553 45.424072 -0.000685
-0.533730 45.424072 -0.001106
-0.219907 45.424072 -0.001925
0.093916 45.424072 -0.002420
0.407739 45.424072 -0.002282
0.721562 45.424072 -0.002288
1.035385 45.424072 -0.002121
1.349208 45.424072 -0.001322
1.663032 45.424072 -0.000565
1.976854 45.424072 -0.000131
2.290677 45.424072 0.000057
2.604500 45.424072 0.001095
2.918324 45.424072 0.001840
3.232146 45.424072 0.001290
3.545969 45.424072 0.000772
3.859793 45.424072 0.000199
4.173615 45.424072 -0.000462
4.487438 45.424072 -0.001086
4.801261 45.424072 -0.001664
5.115085 45.424072 -0.002399
5.428907 45.424072 -0.003350
5.742730 45.424072 -0.003841
6.056554 45.424072 -0.004178
6.370377 45.424072 -0.004150
6.684199 45.424072 -0.003616
6.998022 45.424072 -0.003417
7.311846 45.424072 -0.002777
7.625669 45.424072 -0.001320
7.939491 45.424072 -0.000396
8.253315 45.424072 0.000026
8.567138 45.424072 0.000196
8.880960 45.424072 0.000388
9.194784 45.424072 -0.001058
9.508606 45.424072 -0.004783
9.822430 45.424072 -0.007803
10.136253 45.424072 -0.017043
10.450075 45.424072 -0.026748
10.763899 45.424072 -0.050258
11.077723 45.424072 -0.072525
11.391544 45.424072 -0.108753
11.705368 45.424072 -0.129381
12.019190 45.424072 -0.139128
12.333014 45.424072 -0.151247
12.646837 45.424072 -0.165116
12.960659 45.424072 -0.163886
13.274483 45.424072 -0.166792
13.588306 45.424072 -0.182981
13.902128 45.424072 -0.196789
14.215952 45.424072 -0.216678
14.529776 45.424072 -0.219377
14.843597 45.424072 -0.200494
15.157421 45.424072 -0.177373
15.471243 45.424072 -0.145182
15.785067 45.424072 -0.134925
16.098890 45.424072 -0.120275
16.412712 45.424072 -0.105084
16.726536 45.424072 -0.099987
17.040359 45.424072 -0.089480
17.354181 45.424072 -0.069645
17.668005 45.424072 -0.048242
17.981829 45.424072 -0.031132
18.295650 45.424072 -0.002416
18.609474 45.424072 0.011598
18.923298 45.424072 0.039625
19.237120 45.424072 0.000000
-6.810190 45.110249 0.000000
-6.496367 45.110249 0.000000
-6.182544 45.110249 0.002070
-5.868721 45.110249 -0.001248
-5.554898 45.110249 -0.001966
-5.241075 45.110249 -0.002192
-4.927252 45.110249 -0.002096
-4.613429 45.110249 -0.002315
-4.299606 45.110249 -0.002810
-3.985783 45.110249 -0.002765
-3.671960 45.110249 -0.001981
-3.358137 45.110249 -0.001243
-3.044314 45.110249 -0.000904
-2.730491 45.110249 -0.000627
-2.416668 45.110249 -0.000294
-2.102845 45.110249 0.000352
-1.789022 45.110249 0.000998
-1.475199 45.110249 0.001034
-1.161376 45.110249 0.000746
-0.847553 45.110249 0.000166
-0.533730 45.110249 -0.000436
-0.219907 45.110249 -0.001474
0.093916 45.110249 -0.002498
0.407739 45.110249 -0.002504
0.721562 45.110249 -0.002615
1.035385 45.110249 -0.002603
1.349208 45.110249 -0.002107
1.663032 45.110249 -0.001563
1.976854 45.110249 -0.001293
2.290677 45.110249 -0.000699
2.604500 45.110249 0.000751
2.918324 45.110249 0.001670
3.232146 45.110249 0.001369
3.545969 45.110249 0.001127
3.859793 45.110249 0.000998
4.173615 45.110249 0.000412
4.487438 45.110249 -0.000255
4.801261 45.110249 -0.000942
5.115085 45.110249 -0.001842
5.428907 45.110249 -0.002893
5.742730 45.110249 -0.003630
6.056554 45.110249 -0.004340
6.370377 45.110249 -0.004728
6.684199 45.110249 -0.004829
6.998022 45.110249 -0.004971
7.311846 45.110249 -0.004485
7.625669 45.110249 -0.003092
7.939491 45.110249 -0.001807
8.253315 45.110249 -0.000683
8.567138 45.110249 0.000109
8.880960 45.110249 0.000233
9.194784 45.110249 0.000120
9.508606 45.110249 -0.002876
9.822430 45.110249 -0.008067
10.136253 45.110249 -0.016744
10.450075 45.110249 -0.024710
10.763899 45.110249 -0.045204
11.077723 45.110249 -0.073239
11.391544 45.110249 -0.100155
11.705368 45.110249 -0.117916
12.019190 45.110249 -0.129710
12.333014 45.110249 -0.150932
12.646837 45.110249 -0.150174
12.960659 45.110249 -0.164323
13.274483 45.110249 -0.174599
13.588306 45.110249 -0.182763
13.902128 45.110249 -0.189268
14.215952 45.110249 -0.214111
14.529776 45.110249 -0.229266
14.843597 45.110249 -0.200218
15.157421 45.110249 -0.170722
15.471243 45.110249 -0.135783
15.785067 45.110249 -0.132239
16.098890 45.110249 -0.127809
16.412712 45.110249 -0.111078
16.726536 45.110249 -0.104379
17.040359 45.110249 -0.088173
17.354181 45.110249 -0.076720
17.668005 45.110249 -0.058699
17.981829 45.110249 -0.039142
18.295650 45.110249 -0.004768
18.609474 45.110249 0.026670
18.923298 45.110249 0.048355
19.237120 45.110249 0.000000
-6.810190 44.796425 0.000000
-6.496367 44.796425 0.000000
-6.182544 44.796425 0.002742
-5.868721 44.796425 -0.000314
-5.554898 44.796425 -0.001073
-5.241075 44.796425 -0.001776
-4.927252 44.796425 -0.002215
-4.613429 44.796425 -0.002654
-4.299606 44.796425 -0.003244
-3.985783 44.796425 -0.003223
-3.671960 44.796425 -0.002456
-3.358137 44.796425 -0.001958
-3.044314 44.796425 -0.001770
-2.730491 44.796425 -0.001438
-2.416668 44.796425 -0.000837
-2.102845 44.796425 0.000122
-1.789022 44.796425 0.001106
-1.475199 44.796425 0.001400
-1.161376 44.796425 0.001191
-0.847553 44.796425 0.000736
-0.533730 44.796425 0.000254
-0.219907 44.796425 -0.000667
0.093916 44.796425 -0.001983
0.407739 44.796425 -0.002339
0.721562 44.796425 -0.002530
1.035385 44.796425 -0.002743
1.349208 44.796425 -0.002825
1.663032 44.796425 -0.002670
1.976854 44.796425 -0.002458
2.290677 44.796425 -0.001808
2.604500 44.796425 -0.000294
2.918324 44.796425 0.000807
3.232146 44.796425 0.000855
3.545969 44.796425 0.001051
3.859793 44.796425 0.001275
4.173615 44.796425 0.001060
4.487438 44.796425 0.000539
4.801261 44.796425 -0.000097
5.115085 44.796425 -0.000981
5.428907 44.796425 -0.001939
5.742730 44.796425 -0.002832
6.056554 44.796425 -0.003794
6.370377 44.796425 -0.004618
6.684199 44.796425 -0.005315
6.998022 44.796425 -0.006249
7.311846 44.796425 -0.005995
7.625669 44.796425 -0.004877
7.939491 44.796425 -0.003470
8.253315 44.796425 -0.002147
8.567138 44.796425 -0.000685
8.880960 44.796425 -0.000092
9.194784 44.796425 0.001721
9.508606 44.796425 -0.002204
9.822430 44.796425 -0.007935
10.136253 44.796425 -0.014886
10.450075 44.796425 -0.028754
10.763899 44.796425 -0.050169
11.077723 44.796425 -0.081734
11.391544 44.796425 -0.100605
11.705368 44.796425 -0.123156
12.019190 44.796425 -0.147891
12.333014 44.796425 -0.159894
12.646837 44.796425 -0.152718
12.960659 44.796425 -0.174414
13.274483 44.796425 -0.177337
13.588306 44.796425 -0.175195
13.902128 44.796425 -0.184332
14.215952 44.796425 -0.201808
14.529776 44.796425 -0.205338
14.843597 44.796425 -0.184581
15.157421 44.796425 -0.167889
15.471243 44.796425 -0.140109
15.785067 44.796425 -0.138697
16.098890 44.796425 -0.131620
16.412712 44.796425 -0.126624
16.726536 44.796425 -0.109191
17.040359 44.796425 -0.103530
17.354181 44.796425 -0.081293
17.668005 44.796425 -0.067671
17.981829 44.796425 -0.046433
18.295650 44.796425 -0.016807
18.609474 44.796425 0.026830
18.923298 44.796425 0.062438
19.237120 44.796425 0.000000
-6.810190 44.482601 0.000000
-6.496367 44.482601 0.000000
-6.182544 44.482601 0.002883
-5.868721 44.482601 0.000326
-5.554898 44.482601 -0.000128
-5.241075 44.482601 -0.001001
-4.927252 44.482601 -0.001766
-4.613429 44.482601 -0.002400
-4.299606 44.482601 -0.003085
-3.985783 44.482601 -0.003254
-3.671960 44.482601 -0.002721
-3.358137 44.482601 -0.002675
-3.044314 44.482601 -0.002799
-2.730491 44.482601 -0.002434
-2.416668 44.482601 -0.001617
-2.102845 44.482601 -0.000442
-1.789022 44.482601 0.000727
-1.475199 44.482601 0.001259
-1.161376 44.482601 0.001194
-0.847553 44.482601 0.001112
-0.533730 44.482601 0.000916
-0.219907 44.482601 0.000228
0.093916 44.482601 -0.000995
0.407739 44.482601 -0.001681
0.721562 44.482601 -0.002109
1.035385 44.482601 -0.002615
1.349208 44.482601 -0.003122
1.663032 44.482601 -0.003343
1.976854 44.482601 -0.003391
2.290677 44.482601 -0.002988
2.604500 44.482601 -0.001725
2.918324 44.482601 -0.000647
3.232146 44.482601 -0.000191
3.545969 44.482601 0.000385
3.859793 44.482601 0.001072
4.173615 44.482601 0.001274
4.487438 44.482601 0.001081
4.801261 44.482601 0.000688
5.115085 44.482601 0.000074
5.428907 44.482601 -0.000789
5.742730 44.482601 -0.001648
6.056554 44.482601 -0.002656
6.370377 44.482601 -0.003878
6.684199 44.482601 -0.005131
6.998022 44.482601 -0.006309
7.311846 44.482601 -0.006788
7.625669 44.482601 -0.006383
7.939491 44.482601 -0.005471
8.253315 44.482601 -0.004269
8.567138 44.482601 -0.001623
8.880960 44.482601 0.000309
9.194784 44.482601 -0.002224
9.508606 44.482601 -0.006098
9.822430 44.482601 -0.006400
10.136253 44.482601 -0.011477
10.450075 44.482601 -0.036945
10.763899 44.482601 -0.049095
11.077723 44.482601 -0.080141
11.391544 44.482601 -0.106255
11.705368 44.482601 -0.124963
12.019190 44.482601 -0.145715
12.333014 44.482601 -0.172848
12.646837 44.482601 -0.179222
12.960659 44.482601 -0.190945
13.274483 44.482601 -0.190135
13.588306 44.482601 -0.178639
13.902128 44.482601 -0.181514
14.215952 44.482601 -0.193354
14.529776 44.482601 -0.183172
14.843597 44.482601 -0.174205
15.157421 44.482601 -0.163601
15.471243 44.482601 -0.151696
15.785067 44.482601 -0.148278
16.098890 44.482601 -0.143164
16.412712 44.482601 -0.127378
16.726536 44.482601 -0.115741
17.040359 44.482601 -0.103452
17.354181 44.482601 -0.086992
17.668005 44.482601 -0.068489
17.981829 44.482601 -0.052399
18.295650 44.482601 -0.028489
18.609474 44.482601 0.017859
18.923298 44.482601 0.032051
19.237120 44.482601 0.000000
-6.810190 44.168777 0.000000
-6.496367 44.168777 0.000000
-6.182544 44.168777 0.003004
-5.868721 44.168777 0.000671
-5.554898 44.168777 0.000540
-5.241075 44.168777 0.000058
-4.927252 44.168777 -0.000925
-4.613429 44.168777 -0.001633
-4.299606 44.168777 -0.002325
-3.985783 44.168777 -0.002812
-3.671960 44.168777 -0.002618
-3.358137 44.168777 -0.003067
-3.044314 44.168777 -0.003509
-2.730491 44.168777 -0.003217
-2.416668 44.168777 -0.002576
-2.102845 44.168777 -0.001345
-1.789022 44.168777 -0.000038
-1.475199 44.168777 0.000626
-1.161376 44.168777 0.000901
-0.847553 44.168777 0.001038
-0.533730 44.168777 0.001159
-0.219907 44.168777 0.000864
0.093916 44.168777 0.000125
0.407739 44.168777 -0.000626
0.721562 44.168777 -0.001275
1.035385 44.168777 -0.001919
1.349208 44.168777 -0.002698
1.663032 44.168777 -0.003279
1.976854 44.168777 -0.003505
2.290677 44.168777 -0.003570
2.604500 44.168777 -0.002994
2.918324 44.168777 -0.002184
3.232146 44.168777 -0.001505
3.545969 44.168777 -0.000707
3.859793 44.168777 0.000258
4.173615 44.168777 0.000909
4.487438 44.168777 0.001089
4.801261 44.168777 0.001247
5.115085 44.168777 0.001123
5.428907 44.168777 0.000412
5.742730 44.168777 -0.000347
6.056554 44.168777 -0.001230
6.370377 44.168777 -0.002599
6.684199 44.168777 -0.004217
6.998022 44.168777 -0.005618
7.311846 44.168777 -0.006457
7.625669 44.168777 -0.007062
7.939491 44.168777 -0.006832
8.253315 44.168777 -0.006296
8.567138 44.168777 -0.003778
8.880960 44.168777 -0.002396
9.194784 44.168777 -0.005552
9.508606 44.168777 -0.007718
9.822430 44.168777 -0.012499
10.136253 44.168777 -0.020665
10.450075 44.168777 -0.039383
10.763899 44.168777 -0.064004
11.077723 44.168777 -0.074239
11.391544 44.168777 -0.093757
11.705368 44.168777 -0.127022
12.019190 44.168777 -0.150489
12.333014 44.168777 -0.180089
12.646837 44.168777 -0.199933
12.960659 44.168777 -0.199919
13.274483 44.168777 -0.201306
13.588306 44.168777 -0.189480
13.902128 44.168777 -0.181266
14.215952 44.168777 -0.188740
14.529776 44.168777 -0.167902
14.843597 44.168777 -0.160572
15.157421 44.168777 -0.161459
15.471243 44.168777 -0.148512
15.785067 44.168777 -0.150379
16.098890 44.168777 -0.149079
16.412712 44.168777 -0.128354
16.726536 44.168777 -0.111683
17.040359 44.168777 -0.107828
17.354181 44.168777 -0.082462
17.668005 44.168777 -0.064563
17.981829 44.168777 -0.052466
18.295650 44.168777 -0.028259
18.609474 44.168777 0.008907
18.923298 44.168777 0.028078
19.237120 44.168777 0.000000
-6.810190 43.854958 0.000000
-6.496367 43.854958 0.000000
-6.182544 43.854958 0.002641
-5.868721 43.854958 0.000477
-5.554898 43.854958 0.000649
-5.241075 43.854958 0.000798
-4.927252 43.854958 0.000144
-4.613429 43.854958 -0.000556
-4.299606 43.854958 -0.001083
-3.985783 43.854958 -0.001699
-3.671960 43.854958 -0.002073
-3.358137 43.854958 -0.003018
-3.044314 43.854958 -0.003619
-2.730491 43.854958 -0.003661
-2.416668 43.854958 -0.003259
-2.102845 43.854958 -0.002249
-1.789022 43.854958 -0.001116
-1.475199 43.854958 -0.000315
-1.161376 43.854958 0.000069
-0.847553 43.854958 0.000461
-0.533730 43.854958 0.001017
-0.219907 43.854958 0.001279
0.093916 43.854958 0.001064
0.407739 43.854958 0.000582
0.721562 43.854958 -0.000098
1.035385 43.854958 -0.000826
1.349208 43.854958 -0.001570
1.663032 43.854958 -0.002331
1.976854 43.854958 -0.002921
2.290677 43.854958 -0.003410
2.604500 43.854958 -0.003487
2.918324 43.854958 -0.003324
3.232146 43.854958 -0.002872
3.545969 43.854958 -0.002019
3.859793 43.854958 -0.000894
4.173615 43.854958 0.000075
4.487438 43.854958 0.000708
4.801261 43.854958 0.001522
5.115085 43.854958 0.001907
5.428907 43.854958 0.001476
5.742730 43.854958 0.000992
6.056554 43.854958 0.000180
6.370377 43.854958 -0.001131
6.684199 43.854958 -0.002835
6.998022 43.854958 -0.004550
7.311846 43.854958 -0.005589
7.625669 43.854958 -0.006705
7.939491 43.854958 -0.007659
8.253315 43.854958 -0.007221
8.567138 43.854958 -0.004699
8.880960 43.854958 -0.004353
9.194784 43.854958 -0.007334
9.508606 43.854958 -0.010203
9.822430 43.854958 -0.012611
10.136253 43.854958 -0.021672
10.450075 43.854958 -0.033690
10.763899 43.854958 -0.054352
11.077723 43.854958 -0.073298
11.391544 43.854958 -0.103956
11.705368 43.854958 -0.132356
12.019190 43.854958 -0.153698
12.333014 43.854958 -0.170376
12.646837 43.854958 -0.188109
12.960659 43.854958 -0.202235
13.274483 43.854958 -0.189406
13.588306 43.854958 -0.184282
13.902128 43.854958 -0.182494
14.215952 43.854958 -0.179226
14.529776 43.854958 -0.153217
14.843597 43.854958 -0.136576
15.157421 43.854958 -0.146308
15.471243 43.854958 -0.153503
15.785067 43.854958 -0.157829
16.098890 43.854958 -0.148903
16.412712 43.854958 -0.119954
16.726536 43.854958 -0.108002
17.040359 43.854958 -0.111367
17.354181 43.854958 -0.089701
17.668005 43.854958 -0.064819
17.981829 43.854958 -0.046592
18.295650 43.854958 -0.026572
18.609474 43.854958 0.007001
18.923298 43.854958 0.019134
19.237120 43.854958 0.000000
-6.810190 43.541134 0.000000
-6.496367 43.541134 0.000000
-6.182544 43.541134 0.001733
-5.868721 43.541134 -0.000300
-5.554898 43.541134 0.000169
-5.241075 43.541134 0.000832
-4.927252 43.541134 0.000830
-4.613429 43.541134 0.000523
-4.299606 43.541134 0.000239
-3.985783 43.541134 -0.000286
-3.671960 43.541134 -0.001174
-3.358137 43.541134 -0.002508
-3.044314 43.541134 -0.003186
-2.730491 43.541134 -0.003502
-2.416668 43.541134 -0.003714
-2.102845 43.541134 -0.002969
-1.789022 43.541134 -0.002158
-1.475199 43.541134 -0.001539
-1.161376 43.541134 -0.001084
-0.847553 43.541134 -0.000451
-0.533730 43.541134 0.000526
-0.219907 43.541134 0.001386
0.093916 43.541134 0.001650
0.407739 43.541134 0.001670
0.721562 43.541134 0.001190
1.035385 43.541134 0.000466
1.349208 43.541134 -0.000119
1.663032 43.541134 -0.000852
1.976854 43.541134 -0.001657
2.290677 43.541134 -0.002585
2.604500 43.541134 -0.003391
2.918324 43.541134 -0.003817
3.232146 43.541134 -0.003870
3.545969 43.541134 -0.003235
3.859793 43.541134 -0.002165
4.173615 43.541134 -0.001036
4.487438 43.541134 0.000147
4.801261 43.541134 0.001463
5.115085 43.541134 0.002302
5.428907 43.541134 0.002249
5.742730 43.541134 0.001964
6.056554 43.541134 0.001308
6.370377 43.541134 0.000103
6.684199 43.541134 -0.001345
6.998022 43.541134 -0.002806
7.311846 43.541134 -0.004247
7.625669 43.541134 -0.005929
7.939491 43.541134 -0.007610
8.253315 43.541134 -0.007410
8.567138 43.541134 -0.006849
8.880960 43.541134 -0.006654
9.194784 43.541134 -0.006784
9.508606 43.541134 -0.008244
9.822430 43.541134 -0.013837
10.136253 43.541134 -0.024323
10.450075 43.541134 -0.028771
10.763899 43.541134 -0.043907
11.077723 43.541134 -0.072180
11.391544 43.541134 -0.104413
11.705368 43.541134 -0.128252
12.019190 43.541134 -0.148796
12.333014 43.541134 -0.169878
12.646837 43.541134 -0.189393
12.960659 43.541134 -0.195092
13.274483 43.541134 -0.179146
13.588306 43.541134 -0.177295
13.902128 43.541134 -0.170597
14.215952 43.541134 -0.174646
14.529776 43.541134 -0.167490
14.843597 43.541134 -0.139864
15.157421 43.541134 -0.143430
15.471243 43.541134 -0.137708
15.785067 43.541134 -0.156006
16.098890 43.541134 -0.139850
16.412712 43.541134 -0.118428
16.726536 43.541134 -0.108082
17.040359 43.541134 -0.109350
17.354181 43.541134 -0.091520
17.668005 43.541134 -0.070407
17.981829 43.541134 -0.039055
18.295650 43.541134 -0.031190
18.609474 43.541134 -0.005840
18.923298 43.541134 0.024202
19.237120 43.541134 0.000000
-6.810190 43.227310 0.000000
-6.496367 43.227310 0.000000
-6.182544 43.227310 0.000597
-5.868721 43.227310 -0.001411
-5.554898 43.227310 -0.000652
-5.241075 43.227310 0.000233
-4.927252 43.227310 0.000865
-4.613429 43.227310 0.001084
-4.299606 43.227310 0.001223
-3.985783 43.227310 0.000855
-3.671960 43.227310 -0.000047
-3.358137 43.227310 -0.001540
-3.044314 43.227310 -0.002374
-2.730491 43.227310 -0.002931
-2.416668 43.227310 -0.003591
-2.102845 43.227310 -0.003263
-1.789022 43.227310 -0.003078
-1.475199 43.227310 -0.002845
-1.161376 43.227310 -0.002379
-0.847553 43.227310 -0.001621
-0.533730 43.227310 -0.000292
-0.219907 43.227310 0.001012
0.093916 43.227310 0.001627
0.407739 43.227310 0.002215
0.721562 43.227310 0.002129
1.035385 43.227310 0.001561
1.349208 43.227310 0.001236
1.663032 43.227310 0.000660
1.976854 43.227310 -0.000178
2.290677 43.227310 -0.001343
2.604500 43.227310 -0.002756
2.918324 43.227310 -0.003683
3.232146 43.227310 -0.004114
3.545969 43.227310 -0.003899
3.859793 43.227310 -0.003293
4.173615 43.227310 -0.002286
4.487438 43.227310 -0.000762
4.801261 43.227310 0.000870
5.115085 43.227310 0.002017
5.428907 43.227310 0.002388
5.742730 43.227310 0.002257
6.056554 43.227310 0.001835
6.370377 43.227310 0.000909
6.684199 43.227310 0.000032
6.998022 43.227310 -0.001144
7.311846 43.227310 -0.002660
7.625669 43.227310 -0.004650
7.939491 43.227310 -0.006557
8.253315 43.227310 -0.007336
8.567138 43.227310 -0.007824
8.880960 43.227310 -0.007473
9.194784 43.227310 -0.006226
9.508606 43.227310 -0.007993
9.822430 43.227310 -0.008505
10.136253 43.227310 -0.015893
10.450075 43.227310 -0.023452
10.763899 43.227310 -0.045854
11.077723 43.227310 -0.072747
11.391544 43.227310 -0.095495
11.705368 43.227310 -0.132489
12.019190 43.227310 -0.149088
12.333014 43.227310 -0.168340
12.646837 43.227310 -0.196934
12.960659 43.227310 -0.172080
13.274483 43.227310 -0.172825
13.588306 43.227310 -0.177031
13.902128 43.227310 -0.173091
14.215952 43.227310 -0.178332
14.529776 43.227310 -0.176804
14.843597 43.227310 -0.147270
15.157421 43.227310 -0.133446
15.471243 43.227310 -0.141022
15.785067 43.227310 -0.144127
16.098890 43.227310 -0.135685
16.412712 43.227310 -0.116175
16.726536 43.227310 -0.116669
17.040359 43.227310 -0.101876
17.354181 43.227310 -0.087277
17.668005 43.227310 -0.071403
17.981829 43.227310 -0.045492
18.295650 43.227310 -0.022378
18.609474 43.227310 0.004713
18.923298 43.227310 0.030152
19.237120 43.227310 0.000000
-6.810190 42.913486 0.000000
-6.496367 42.913486 0.000000
-6.182544 42.913486 -0.000588
-5.868721 42.913486 -0.002680
-5.554898 42.913486 -0.001828
-5.241075 42.913486 -0.000880
-4.927252 42.913486 0.000045
-4.613429 42.913486 0.000949
-4.299606 42.913486 0.001598
-3.985783 42.913486 0.001616
-3.671960 42.913486 0.000961
-3.358137 42.913486 -0.000390
-3.044314 42.913486 -0.001310
-2.730491 42.913486 -0.002053
-2.416668 42.913486 -0.002898
-2.102845 42.913486 -0.003176
-1.789022 42.913486 -0.003701
-1.475199 42.913486 -0.004004
-1.161376 42.913486 -0.003644
-0.847553 42.913486 -0.002768
-0.533730 42.913486 -0.001339
-0.219907 42.913486 0.000108
0.093916 42.913486 0.001137
0.407739 42.913486 0.002010
0.721562 42.913486 0.002446
1.035385 42.913486 0.002219
1.349208 42.913486 0.002098
1.663032 42.913486 0.001797
1.976854 42.913486 0.001057
2.290677 42.913486 -0.000231
2.604500 42.913486 -0.001802
2.918324 42.913486 -0.002926
3.232146 42.913486 -0.003715
3.545969 42.913486 -0.003974
3.859793 42.913486 -0.004044
4.173615 42.913486 -0.003417
4.487438 42.913486 -0.001922
4.801261 42.913486 -0.000325
5.115085 42.913486 0.000994
5.428907 42.913486 0.001757
5.742730 42.913486 0.002021
6.056554 42.913486 0.001856
6.370377 42.913486 0.001321
6.684199 42.913486 0.001123
6.998022 42.913486 0.000404
7.311846 42.913486 -0.001117
7.625669 42.913486 -0.003035
7.939491 42.913486 -0.005196
8.253315 42.913486 -0.007311
8.567138 42.913486 -0.007587
8.880960 42.913486 -0.007370
9.194784 42.913486 -0.004856
9.508606 42.913486 -0.005084
9.822430 42.913486 -0.006463
10.136253 42.913486 -0.010608
10.450075 42.913486 -0.025229
10.763899 42.913486 -0.049701
11.077723 42.913486 -0.067343
11.391544 42.913486 -0.098838
11.705368 42.913486 -0.129858
12.019190 42.913486 -0.165335
12.333014 42.913486 -0.171445
12.646837 42.913486 -0.173202
12.960659 42.913486 -0.161195
13.274483 42.913486 -0.154799
13.588306 42.913486 -0.180253
13.902128 42.913486 -0.184893
14.215952 42.913486 -0.182559
14.529776 42.913486 -0.181949
14.843597 42.913486 -0.161149
15.157421 42.913486 -0.122758
15.471243 42.913486 -0.128691
15.785067 42.913486 -0.131905
16.098890 42.913486 -0.119295
16.412712 42.913486 -0.109535
16.726536 42.913486 -0.122907
17.040359 42.913486 -0.099823
17.354181 42.913486 -0.078721
17.668005 42.913486 -0.060452
17.981829 42.913486 -0.045819
18.295650 42.913486 -0.021214
18.609474 42.913486 0.025119
18.923298 42.913486 0.062585
19.237120 42.913486 0.000000
-6.810190 42.599663 0.000000
-6.496367 42.599663 0.000000
-6.182544 42.599663 -0.001536
-5.868721 42.599663 -0.003838
-5.554898 42.599663 -0.002949
-5.241075 42.599663 -0.002162
-4.927252 42.599663 -0.001086
-4.613429 42.599663 0.000264
-4.299606 42.599663 0.001430
-3.985783 42.599663 0.001958
-3.671960 42.599663 0.001647
-3.358137 42.599663 0.000788
-3.044314 42.599663 -0.000045
-2.730491 42.599663 -0.000778
-2.416668 42.599663 -0.001685
-2.102845 42.599663 -0.002575
-1.789022 42.599663 -0.003722
-1.475199 42.599663 -0.004488
-1.161376 42.599663 -0.004351
-0.847553 42.599663 -0.003591
-0.533730 42.599663 -0.002391
-0.219907 42.599663 -0.001018
0.093916 42.599663 0.000133
0.407739 42.599663 0.001234
0.721562 42.599663 0.002155
1.035385 42.599663 0.002413
1.349208 42.599663 0.002522
1.663032 42.599663 0.002420
1.976854 42.599663 0.001797
2.290677 42.599663 0.000533
2.604500 42.599663 -0.000815
2.918324 42.599663 -0.001862
3.232146 42.599663 -0.002927
3.545969 42.599663 -0.003740
3.859793 42.599663 -0.004396
4.173615 42.599663 -0.004101
4.487438 42.599663 -0.002939
4.801261 42.599663 -0.001739
5.115085 42.599663 -0.000383
5.428907 42.599663 0.000656
5.742730 42.599663 0.001317
6.056554 42.599663 0.001453
6.370377 42.599663 0.001274
6.684199 42.599663 0.001730
6.998022 42.599663 0.001511
7.311846 42.599663 0.000329
7.625669 42.599663 -0.001495
7.939491 42.599663 -0.003761
8.253315 42.599663 -0.006340
8.567138 42.599663 -0.007672
8.880960 42.599663 -0.008289
9.194784 42.599663 -0.007112
9.508606 42.599663 -0.003811
9.822430 42.599663 -0.009148
10.136253 42.599663 -0.017423
10.450075 42.599663 -0.024008
10.763899 42.599663 -0.055842
11.077723 42.599663 -0.072757
11.391544 42.599663 -0.095378
11.705368 42.599663 -0.126200
12.019190 42.599663 -0.156566
12.333014 42.599663 -0.157600
12.646837 42.599663 -0.159962
12.960659 42.599663 -0.144802
13.274483 42.599663 -0.149012
13.588306 42.599663 -0.164985
13.902128 42.599663 -0.176248
14.215952 42.599663 -0.185645
14.529776 42.599663 -0.165642
14.843597 42.599663 -0.157939
15.157421 42.599663 -0.135887
15.471243 42.599663 -0.129254
15.785067 42.599663 -0.119589
16.098890 42.599663 -0.111480
16.412712 42.599663 -0.110801
16.726536 42.599663 -0.115362
17.040359 42.599663 -0.093975
17.354181 42.599663 -0.073248
17.668005 42.599663 -0.055356
17.981829 42.599663 -0.042535
18.295650 42.599663 -0.013625
18.609474 42.599663 0.036255
18.923298 42.599663 0.072617
19.237120 42.599663 0.000000
-6.810190 42.285843 0.000000
-6.496367 42.285843 0.000000
-6.182544 42.285843 -0.001905
-5.868721 42.285843 -0.004450
-5.554898 42.285843 -0.003869
-5.241075 42.285843 -0.003178
-4.927252 42.285843 -0.002131
-4.613429 42.285843 -0.000685
-4.299606 42.285843 0.000827
-3.985783 42.285843 0.001797
-3.671960 42.285843 0.002134
-3.358137 42.285843 0.001818
-3.044314 42.285843 0.001235
-2.730491 42.285843 0.000545
-2.416668 42.285843 -0.000458
-2.102845 42.285843 -0.001664
-1.789022 42.285843 -0.003096
-1.475199 42.285843 -0.004226
-1.161376 42.285843 -0.004345
-0.847553 42.285843 -0.003987
-0.533730 42.285843 -0.003262
-0.219907 42.285843 -0.002203
0.093916 42.285843 -0.001051
0.407739 42.285843 0.000173
0.721562 42.285843 0.001451
1.035385 42.285843 0.002214
1.349208 42.285843 0.002556
1.663032 42.285843 0.002561
1.976854 42.285843 0.002139
2.290677 42.285843 0.001142
2.604500 42.285843 0.000241
2.918324 42.285843 -0.000619
3.232146 42.285843 -0.001935
3.545969 42.285843 -0.003275
3.859793 42.285843 -0.004198
4.173615 42.285843 -0.004226
4.487438 42.285843 -0.003634
4.801261 42.285843 -0.002899
5.115085 42.285843 -0.001818
5.428907 42.285843 -0.000622
5.742730 42.285843 0.000318
6.056554 42.285843 0.000790
6.370377 42.285843 0.000992
6.684199 42.285843 0.001861
6.998022 42.285843 0.001975
7.311846 42.285843 0.001186
7.625669 42.285843 -0.000059
7.939491 42.285843 -0.002107
8.253315 42.285843 -0.004884
8.567138 42.285843 -0.007131
8.880960 42.285843 -0.008871
9.194784 42.285843 -0.007397
9.508606 42.285843 -0.004540
9.822430 42.285843 -0.008569
10.136253 42.285843 -0.014152
10.450075 42.285843 -0.026255
10.763899 42.285843 -0.051250
11.077723 42.285843 -0.074898
11.391544 42.285843 -0.092532
11.705368 42.285843 -0.115241
12.019190 42.285843 -0.141635
12.333014 42.285843 -0.129315
12.646837 42.285843 -0.138642
12.960659 42.285843 -0.131008
13.274483 42.285843 -0.143802
13.588306 42.285843 -0.168004
13.902128 42.285843 -0.168880
14.215952 42.285843 -0.172980
14.529776 42.285843 -0.179834
14.843597 42.285843 -0.154523
15.157421 42.285843 -0.143763
15.471243 42.285843 -0.130454
15.785067 42.285843 -0.118310
16.098890 42.285843 -0.109603
16.412712 42.285843 -0.111587
16.726536 42.285843 -0.116371
17.040359 42.285843 -0.092080
17.354181 42.285843 -0.067454
17.668005 42.285843 -0.040782
17.981829 42.285843 -0.030717
18.295650 42.285843 -0.015206
18.609474 42.285843 0.008804
18.923298 42.285843 0.054613
19.237120 42.285843 0.000000
-6.810190 41.972019 0.000000
-6.496367 41.972019 0.000000
-6.182544 41.972019 -0.001495
-5.868721 41.972019 -0.004359
-5.554898 41.972019 -0.004186
-5.241075 41.972019 -0.003771
-4.927252 41.972019 -0.002859
-4.613429 41.972019 -0.001504
-4.299606 41.972019 0.000044
-3.985783 41.972019 0.001354
-3.671960 41.972019 0.002362
-3.358137 41.972019 0.002577
-3.044314 41.972019 0.002264
-2.730491 41.972019 0.001453
-2.416668 41.972019 0.000302
-2.102845 41.972019 -0.000779
-1.789022 41.972019 -0.001998
-1.475199 41.972019 -0.003108
-1.161376 41.972019 -0.003605
-0.847553 41.972019 -0.003790
-0.533730 41.972019 -0.003766
-0.219907 41.972019 -0.003077
0.093916 41.972019 -0.001983
0.407739 41.972019 -0.000796
0.721562 41.972019 0.000541
1.035385 41.972019 0.001673
1.349208 41.972019 0.002258
1.663032 41.972019 0.002384
1.976854 41.972019 0.002228
2.290677 41.972019 0.001577
2.604500 41.972019 0.001148
2.918324 41.972019 0.000393
3.232146 41.972019 -0.001094
3.545969 41.972019 -0.002493
3.859793 41.972019 -0.003555
4.173615 41.972019 -0.003967
4.487438 41.972019 -0.003998
4.801261 41.972019 -0.003788
5.115085 41.972019 -0.002933
5.428907 41.972019 -0.001776
5.742730 41.972019 -0.000731
6.056554 41.972019 -0.000090
6.370377 41.972019 0.000560
6.684199 41.972019 0.001820
6.998022 41.972019 0.002194
7.311846 41.972019 0.001653
7.625669 41.972019 0.001041
7.939491 41.972019 -0.000576
8.253315 41.972019 -0.003585
8.567138 41.972019 -0.004845
8.880960 41.972019 -0.006162
9.194784 41.972019 -0.007253
9.508606 41.972019 -0.006810
9.822430 41.972019 -0.009679
10.136253 41.972019 -0.014431
10.450075 41.972019 -0.024967
10.763899 41.972019 -0.047150
11.077723 41.972019 -0.069140
11.391544 41.972019 -0.083304
11.705368 41.972019 -0.106415
12.019190 41.972019 -0.131118
12.333014 41.972019 -0.128045
12.646837 41.972019 -0.134882
12.960659 41.972019 -0.153564
13.274483 41.972019 -0.144448
13.588306 41.972019 -0.164092
13.902128 41.972019 -0.164151
14.215952 41.972019 -0.166139
14.529776 41.972019 -0.184865
14.843597 41.972019 -0.160338
15.157421 41.972019 -0.133482
15.471243 41.972019 -0.120927
15.785067 41.972019 -0.107379
16.098890 41.972019 -0.117061
16.412712 41.972019 -0.122746
16.726536 41.972019 -0.108602
17.040359 41.972019 -0.084149
17.354181 41.972019 -0.074010
17.668005 41.972019 -0.045895
17.981829 41.972019 -0.021352
18.295650 41.972019 -0.018555
18.609474 41.972019 -0.006618
18.923298 41.972019 0.039702
19.237120 41.972019 0.000000
-6.810190 41.658195 0.000000
-6.496367 41.658195 0.000000
-6.182544 41.658195 -0.000501
-5.868721 41.658195 -0.003731
-5.554898 41.658195 -0.004098
-5.241075 41.658195 -0.003970
-4.927252 41.658195 -0.003340
-4.613429 41.658195 -0.002152
-4.299606 41.658195 -0.000722
-3.985783 41.658195 0.000738
-3.671960 41.658195 0.002121
-3.358137 41.658195 0.002891
-3.044314 41.658195 0.002785
-2.730491 41.658195 0.002002
-2.416668 41.658195 0.000777
-2.102845 41.658195 0.000033
-1.789022 41.658195 -0.000590
-1.475199 41.658195 -0.001517
-1.161376 41.658195 -0.002399
-0.847553 41.658195 -0.003256
-0.533730 41.658195 -0.003924
-0.219907 41.658195 -0.003690
0.093916 41.658195 -0.002632
0.407739 41.658195 -0.001580
0.721562 41.658195 -0.000359
1.035385 41.658195 0.000863
1.349208 41.658195 0.001807
1.663032 41.658195 0.002123
1.976854 41.658195 0.002201
2.290677 41.658195 0.001876
2.604500 41.658195 0.001817
2.918324 41.658195 0.001163
3.232146 41.658195 -0.000247
3.545969 41.658195 -0.001485
3.859793 41.658195 -0.002607
4.173615 41.658195 -0.003507
4.487438 41.658195 -0.004141
4.801261 41.658195 -0.004451
5.115085 41.658195 -0.003818
5.428907 41.658195 -0.002770
5.742730 41.658195 -0.001851
6.056554 41.658195 -0.000974
6.370377 41.658195 0.000125
6.684199 41.658195 0.001625
6.998022 41.658195 0.002176
7.311846 41.658195 0.001973
7.625669 41.658195 0.001537
7.939491 41.658195 0.000516
8.253315 41.658195 -0.001755
8.567138 41.658195 -0.003500
8.880960 41.658195 -0.004249
9.194784 41.658195 -0.008035
9.508606 41.658195 -0.007369
9.822430 41.658195 -0.012583
10.136253 41.658195 -0.014834
10.450075 41.658195 -0.019284
10.763899 41.658195 -0.036831
11.077723 41.658195 -0.061596
11.391544 41.658195 -0.083322
11.705368 41.658195 -0.115605
12.019190 41.658195 -0.129582
12.333014 41.658195 -0.145159
12.646837 41.658195 -0.146625
12.960659 41.658195 -0.169133
13.274483 41.658195 -0.148162
13.588306 41.658195 -0.141481
13.902128 41.658195 -0.158033
14.215952 41.658195 -0.166889
14.529776 41.658195 -0.172418
14.843597 41.658195 -0.153936
15.157421 41.658195 -0.126819
15.471243 41.658195 -0.114466
15.785067 41.658195 -0.101707
16.098890 41.658195 -0.116918
16.412712 41.658195 -0.117968
16.726536 41.658195 -0.102852
17.040359 41.658195 -0.077595
17.354181 41.658195 -0.069339
17.668005 41.658195 -0.056882
17.981829 41.658195 -0.039370
18.295650 41.658195 -0.029693
18.609474 41.658195 -0.004615
18.923298 41.658195 0.033759
19.237120 41.658195 0.000000
-6.810190 41.344372 0.000000
-6.496367 41.344372 0.000000
-6.182544 41.344372 0.000565
-5.868721 41.344372 -0.002866
-5.554898 41.344372 -0.003637
-5.241075 41.344372 -0.003958
-4.927252 41.344372 -0.003683
-4.613429 41.344372 -0.002614
-4.299606 41.344372 -0.001488
-3.985783 41.344372 -0.000210
-3.671960 41.344372 0.001292
-3.358137 41.344372 0.002557
-3.044314 41.344372 0.002637
-2.730491 41.344372 0.002022
-2.416668 41.344372 0.001042
-2.102845 41.344372 0.000793
-1.789022 41.344372 0.000590
-1.475199 41.344372 0.000102
-1.161376 41.344372 -0.001112
-0.847553 41.344372 -0.002530
-0.533730 41.344372 -0.003699
-0.219907 41.344372 -0.003887
0.093916 41.344372 -0.003058
0.407739 41.344372 -0.002261
0.721562 41.344372 -0.001221
1.035385 41.344372 -0.000043
1.349208 41.344372 0.001183
1.663032 41.344372 0.001881
1.976854 41.344372 0.002152
2.290677 41.344372 0.002039
2.604500 41.344372 0.002285
2.918324 41.344372 0.001733
3.232146 41.344372 0.000660
3.545969 41.344372 -0.000304
3.859793 41.344372 -0.001538
4.173615 41.344372 -0.002930
4.487438 41.344372 -0.003991
4.801261 41.344372 -0.004751
5.115085 41.344372 -0.004384
5.428907 41.344372 -0.003600
5.742730 41.344372 -0.002837
6.056554 41.344372 -0.001892
6.370377 41.344372 -0.000387
6.684199 41.344372 0.001205
6.998022 41.344372 0.001863
7.311846 41.344372 0.001651
7.625669 41.344372 0.001683
7.939491 41.344372 0.001090
8.253315 41.344372 -0.000544
8.567138 41.344372 -0.002421
8.880960 41.344372 -0.003114
9.194784 41.344372 -0.004930
9.508606 41.344372 -0.005093
9.822430 41.344372 -0.011715
10.136253 41.344372 -0.019107
10.450075 41.344372 -0.031825
10.763899 41.344372 -0.040230
11.077723 41.344372 -0.072033
11.391544 41.344372 -0.082198
11.705368 41.344372 -0.106703
12.019190 41.344372 -0.140010
12.333014 41.344372 -0.156306
12.646837 41.344372 -0.165591
12.960659 41.344372 -0.173594
13.274483 41.344372 -0.156635
13.588306 41.344372 -0.158090
13.902128 41.344372 -0.154801
14.215952 41.344372 -0.157090
14.529776 41.344372 -0.172174
14.843597 41.344372 -0.146727
15.157421 41.344372 -0.134721
15.471243 41.344372 -0.109324
15.785067 41.344372 -0.109268
16.098890 41.344372 -0.107783
16.412712 41.344372 -0.113013
16.726536 41.344372 -0.094210
17.040359 41.344372 -0.067780
17.354181 41.344372 -0.065828
17.668005 41.344372 -0.060281
17.981829 41.344372 -0.047049
18.295650 41.344372 -0.037693
18.609474 41.344372 0.005290
18.923298 41.344372 0.047928
19.237120 41.344372 0.000000
-6.810190 41.030548 0.000000
-6.496367 41.030548 0.000000
-6.182544 41.030548 0.001823
-5.868721 41.030548 -0.001647
-5.554898 41.030548 -0.002905
-5.241075 41.030548 -0.003796
-4.927252 41.030548 -0.003849
-4.613429 41.030548 -0.003065
-4.299606 41.030548 -0.002295
-3.985783 41.030548 -0.001330
-3.671960 41.030548 0.000112
-3.358137 41.030548 0.001597
-3.044314 41.030548 0.001980
-2.730491 41.030548 0.001805
-2.416668 41.030548 0.001380
-2.102845 41.030548 0.001356
-1.789022 41.030548 0.001352
-1.475199 41.030548 0.001164
-1.161376 41.030548 0.000062
-0.847553 41.030548 -0.001635
-0.533730 41.030548 -0.003130
-0.219907 41.030548 -0.003616
0.093916 41.030548 -0.003351
0.407739 41.030548 -0.002944
0.721562 41.030548 -0.002039
1.035385 41.030548 -0.000988
1.349208 41.030548 0.000374
1.663032 41.030548 0.001530
1.976854 41.030548 0.002019
2.290677 41.030548 0.002091
2.604500 41.030548 0.002314
2.918324 41.030548 0.002057
3.232146 41.030548 0.001468
3.545969 41.030548 0.000824
3.859793 41.030548 -0.000526
4.173615 41.030548 -0.002250
4.487438 41.030548 -0.003571
4.801261 41.030548 -0.004685
5.115085 41.030548 -0.004551
5.428907 41.030548 -0.004074
5.742730 41.030548 -0.003600
6.056554 41.030548 -0.002642
6.370377 41.030548 -0.001065
6.684199 41.030548 0.000562
6.998022 41.030548 0.001208
7.311846 41.030548 0.001169
7.625669 41.030548 0.001015
7.939491 41.030548 0.000729
8.253315 41.030548 0.000549
8.567138 41.030548 -0.000932
8.880960 41.030548 -0.003032
9.194784 41.030548 -0.005196
9.508606 41.030548 -0.005616
9.822430 41.030548 -0.010347
10.136253 41.030548 -0.018987
10.450075 41.030548 -0.027782
10.763899 41.030548 -0.045845
11.077723 41.030548 -0.076858
11.391544 41.030548 -0.084231
11.705368 41.030548 -0.106795
12.019190 41.030548 -0.136567
12.333014 41.030548 -0.166731
12.646837 41.030548 -0.168493
12.960659 41.030548 -0.167952
13.274483 41.030548 -0.151117
13.588306 41.030548 -0.150167
13.902128 41.030548 -0.152670
14.215952 41.030548 -0.166870
14.529776 41.030548 -0.163331
14.843597 41.030548 -0.142514
15.157421 41.030548 -0.127657
15.471243 41.030548 -0.108282
15.785067 41.030548 -0.102165
16.098890 41.030548 -0.105658
16.412712 41.030548 -0.114954
16.726536 41.030548 -0.096462
17.040359 41.030548 -0.071586
17.354181 41.030548 -0.058563
17.668005 41.030548 -0.062483
17.981829 41.030548 -0.054341
18.295650 41.030548 -0.040265
18.609474 41.030548 0.008224
18.923298 41.030548 0.055998
19.237120 41.030548 0.000000
-6.810190 40.716728 0.000000
-6.496367 40.716728 0.000000
-6.182544 40.716728 0.002904
-5.868721 40.716728 -0.000498
-5.554898 40.716728 -0.001995
-5.241075 40.716728 -0.003362
-4.927252 40.716728 -0.003705
-4.613429 40.716728 -0.003371
-4.299606 40.716728 -0.003010
-3.985783 40.716728 -0.002341
-3.671960 40.716728 -0.001083
-3.358137 40.716728 0.000304
-3.044314 40.716728 0.001054
-2.730491 40.716728 0.001353
-2.416668 40.716728 0.001511
-2.102845 40.716728 0.001633
-1.789022 40.716728 0.001661
-1.475199 40.716728 0.001692
-1.161376 40.716728 0.000948
-0.847553 40.716728 -0.000644
-0.533730 40.716728 -0.002191
-0.219907 40.716728 -0.003135
0.093916 40.716728 -0.003420
0.407739 40.716728 -0.003469
0.721562 40.716728 -0.002854
1.035385 40.716728 -0.001807
1.349208 40.716728 -0.000528
1.663032 40.716728 0.000894
1.976854 40.716728 0.001563
2.290677 40.716728 0.001846
2.604500 40.716728 0.002056
2.918324 40.716728 0.002090
3.232146 40.716728 0.001988
3.545969 40.716728 0.001720
3.859793 40.716728 0.000411
4.173615 40.716728 -0.001427
4.487438 40.716728 -0.002961
4.801261 40.716728 -0.004190
5.115085 40.716728 -0.004336
5.428907 40.716728 -0.004182
5.742730 40.716728 -0.003923
6.056554 40.716728 -0.002998
6.370377 40.716728 -0.001588
6.684199 40.716728 -0.000264
6.998022 40.716728 0.000528
7.311846 40.716728 0.000551
7.625669 40.716728 0.000432
7.939491 40.716728 0.000326
8.253315 40.716728 0.000378
8.567138 40.716728 -0.001032
8.880960 40.716728 -0.002892
9.194784 40.716728 -0.005923
9.508606 40.716728 -0.004558
9.822430 40.716728 -0.005639
10.136253 40.716728 -0.021458
10.450075 40.716728 -0.028667
10.763899 40.716728 -0.047811
11.077723 40.716728 -0.076369
11.391544 40.716728 -0.084965
11.705368 40.716728 -0.098262
12.019190 40.716728 -0.123533
12.333014 40.716728 -0.145699
12.646837 40.716728 -0.164308
12.960659 40.716728 -0.168455
13.274483 40.716728 -0.162711
13.588306 40.716728 -0.139916
13.902128 40.716728 -0.162519
14.215952 40.716728 -0.167756
14.529776 40.716728 -0.165887
14.843597 40.716728 -0.131705
15.157421 40.716728 -0.119578
15.471243 40.716728 -0.115315
15.785067 40.716728 -0.110868
16.098890 40.716728 -0.107525
16.412712 40.716728 -0.097439
16.726536 40.716728 -0.089311
17.040359 40.716728 -0.059824
17.354181 40.716728 -0.058895
17.668005 40.716728 -0.059206
17.981829 40.716728 -0.047808
18.295650 40.716728 -0.025316
18.609474 40.716728 0.014653
18.923298 40.716728 0.043089
19.237120 40.716728 0.000000
-6.810190 40.402905 0.000000
-6.496367 40.402905 0.000000
-6.182544 40.402905 0.003469
-5.868721 40.402905 0.000274
-5.554898 40.402905 -0.001408
-5.241075 40.402905 -0.002815
-4.927252 40.402905 -0.003301
-4.613429 40.402905 -0.003468
-4.299606 40.402905 -0.003577
-3.985783 40.402905 -0.003176
-3.671960 40.402905 -0.002235
-3.358137 40.402905 -0.001075
-3.044314 40.402905 -0.000189
-2.730491 40.402905 0.000616
-2.416668 40.402905 0.001502
-2.102845 40.402905 0.001864
-1.789022 40.402905 0.001844
-1.475199 40.402905 0.001882
-1.161376 40.402905 0.001535
-0.847553 40.402905 0.000354
-0.533730 40.402905 -0.001080
-0.219907 40.402905 -0.002237
0.093916 40.402905 -0.003043
0.407739 40.402905 -0.003500
0.721562 40.402905 -0.003244
1.035385 40.402905 -0.002469
1.349208 40.402905 -0.001346
1.663032 40.402905 0.000064
1.976854 40.402905 0.000864
2.290677 40.402905 0.001305
2.604500 40.402905 0.001637
2.918324 40.402905 0.001972
3.232146 40.402905 0.002141
3.545969 40.402905 0.002094
3.859793 40.402905 0.001059
4.173615 40.402905 -0.000628
4.487438 40.402905 -0.002142
4.801261 40.402905 -0.003497
5.115085 40.402905 -0.003865
5.428907 40.402905 -0.003904
5.742730 40.402905 -0.003768
6.056554 40.402905 -0.003177
6.370377 40.402905 -0.002109
6.684199 40.402905 -0.001069
6.998022 40.402905 -0.000420
7.311846 40.402905 -0.000137
7.625669 40.402905 -0.000101
7.939491 40.402905 -0.000353
8.253315 40.402905 -0.000227
8.567138 40.402905 -0.001369
8.880960 40.402905 -0.001618
9.194784 40.402905 -0.004437
9.508606 40.402905 -0.007383
9.822430 40.402905 -0.013754
10.136253 40.402905 -0.022781
10.450075 40.402905 -0.031393
10.763899 40.402905 -0.048798
11.077723 40.402905 -0.071623
11.391544 40.402905 -0.090929
11.705368 40.402905 -0.101017
12.019190 40.402905 -0.107076
12.333014 40.402905 -0.126635
12.646837 40.402905 -0.165131
12.960659 40.402905 -0.173586
13.274483 40.402905 -0.159519
13.588306 40.402905 -0.142285
13.902128 40.402905 -0.148343
14.215952 40.402905 -0.171663
14.529776 40.402905 -0.160341
14.843597 40.402905 -0.128974
15.157421 40.402905 -0.138494
15.471243 40.402905 -0.116937
15.785067 40.402905 -0.106239
16.098890 40.402905 -0.104829
16.412712 40.402905 -0.095046
16.726536 40.402905 -0.076727
17.040359 40.402905 -0.064993
17.354181 40.402905 -0.054160
17.668005 40.402905 -0.047870
17.981829 40.402905 -0.037137
18.295650 40.402905 -0.022790
18.609474 40.402905 0.016170
18.923298 40.402905 0.058334
19.237120 40.402905 0.000000
-6.810190 40.089081 0.000000
-6.496367 40.089081 0.000000
-6.182544 40.089081 0.003654
-5.868721 40.089081 0.000741
-5.554898 40.089081 -0.000910
-5.241075 40.089081 -0.002020
-4.927252 40.089081 -0.002672
-4.613429 40.089081 -0.003360
-4.299606 40.089081 -0.003897
-3.985783 40.089081 -0.003886
-3.671960 40.089081 -0.003091
-3.358137 40.089081 -0.002132
-3.044314 40.089081 -0.001225
-2.730491 40.089081 -0.000200
-2.416668 40.089081 0.001218
-2.102845 40.089081 0.002112
-1.789022 40.089081 0.002103
-1.475199 40.089081 0.001932
-1.161376 40.089081 0.001901
-0.847553 40.089081 0.001149
-0.533730 40.089081 -0.000126
-0.219907 40.089081 -0.001230
0.093916 40.089081 -0.002324
0.407739 40.089081 -0.003037
0.721562 40.089081 -0.003140
1.035385 40.089081 -0.002725
1.349208 40.089081 -0.001918
1.663032 40.089081 -0.000704
1.976854 40.089081 0.000099
2.290677 40.089081 0.000690
2.604500 40.089081 0.001180
2.918324 40.089081 0.001611
3.232146 40.089081 0.001903
3.545969 40.089081 0.002010
3.859793 40.089081 0.001437
4.173615 40.089081 0.000201
4.487438 40.089081 -0.001291
4.801261 40.089081 -0.002744
5.115085 40.089081 -0.003297
5.428907 40.089081 -0.003376
5.742730 40.089081 -0.003359
6.056554 40.089081 -0.003020
6.370377 40.089081 -0.002447
6.684199 40.089081 -0.001715
6.998022 40.089081 -0.001140
7.311846 40.089081 -0.000682
7.625669 40.089081 -0.000536
7.939491 40.089081 -0.000447
8.253315 40.089081 -0.000537
8.567138 40.089081 -0.001655
8.880960 40.089081 -0.002061
9.194784 40.089081 -0.004445
9.508606 40.089081 -0.008613
9.822430 40.089081 -0.015424
10.136253 40.089081 -0.029695
10.450075 40.089081 -0.036845
10.763899 40.089081 -0.056102
11.077723 40.089081 -0.078689
11.391544 40.089081 -0.095933
11.705368 40.089081 -0.103760
12.019190 40.089081 -0.103928
12.333014 40.089081 -0.125611
12.646837 40.089081 -0.163568
12.960659 40.089081 -0.172666
13.274483 40.089081 -0.166887
13.588306 40.089081 -0.158189
13.902128 40.089081 -0.155009
14.215952 40.089081 -0.159814
14.529776 40.089081 -0.169984
14.843597 40.089081 -0.141639
15.157421 40.089081 -0.130202
15.471243 40.089081 -0.130567
15.785067 40.089081 -0.112094
16.098890 40.089081 -0.093882
16.412712 40.089081 -0.080669
16.726536 40.089081 -0.067621
17.040359 40.089081 -0.059210
17.354181 40.089081 -0.058796
17.668005 40.089081 -0.045877
17.981829 40.089081 -0.026202
18.295650 40.089081 -0.024481
18.609474 40.089081 -0.010173
18.923298 40.089081 0.061989
19.237120 40.089081 0.000000
-6.810190 39.775257 0.000000
-6.496367 39.775257 0.000000
-6.182544 39.775257 0.003610
-5.868721 39.775257 0.001029
-5.554898 39.775257 -0.000298
-5.241075 39.775257 -0.001162
-4.927252 39.775257 -0.001952
-4.613429 39.775257 -0.002882
-4.299606 39.775257 -0.003773
-3.985783 39.775257 -0.004111
-3.671960 39.775257 -0.003497
-3.358137 39.775257 -0.002676
-3.044314 39.775257 -0.001783
-2.730491 39.775257 -0.000769
-2.416668 39.775257 0.000720
-2.102845 39.775257 0.002073
-1.789022 39.775257 0.002203
-1.475199 39.775257 0.001965
-1.161376 39.775257 0.002105
-0.847553 39.775257 0.001723
-0.533730 39.775257 0.000782
-0.219907 39.775257 -0.000174
0.093916 39.775257 -0.001486
0.407739 39.775257 -0.002423
0.721562 39.775257 -0.002673
1.035385 39.775257 -0.002612
1.349208 39.775257 -0.002172
1.663032 39.775257 -0.001336
1.976854 39.775257 -0.000531
2.290677 39.775257 0.000181
2.604500 39.775257 0.000836
2.918324 39.775257 0.001145
3.232146 39.775257 0.001461
3.545969 39.775257 0.001721
3.859793 39.775257 0.001557
4.173615 39.775257 0.000709
4.487438 39.775257 -0.000536
4.801261 39.775257 -0.001978
5.115085 39.775257 -0.002702
5.428907 39.775257 -0.002863
5.742730 39.775257 -0.002965
6.056554 39.775257 -0.002817
6.370377 39.775257 -0.002529
6.684199 39.775257 -0.002216
6.998022 39.775257 -0.001729
7.311846 39.775257 -0.001063
7.625669 39.775257 -0.000895
7.939491 39.775257 -0.000575
8.253315 39.775257 -0.000859
8.567138 39.775257 -0.001927
8.880960 39.775257 -0.002320
9.194784 39.775257 -0.003717
9.508606 39.775257 -0.010338
9.822430 39.775257 -0.020736
10.136253 39.775257 -0.031809
10.450075 39.775257 -0.038716
10.763899 39.775257 -0.058140
11.077723 39.775257 -0.076498
11.391544 39.775257 -0.094622
11.705368 39.775257 -0.110507
12.019190 39.775257 -0.106851
12.333014 39.775257 -0.116834
12.646837 39.775257 -0.143825
12.960659 39.775257 -0.158484
13.274483 39.775257 -0.170275
13.588306 39.775257 -0.159509
13.902128 39.775257 -0.152092
14.215952 39.775257 -0.161171
14.529776 39.775257 -0.160130
14.843597 39.775257 -0.142764
15.157421 39.775257 -0.115710
15.471243 39.775257 -0.130640
15.785067 39.775257 -0.106567
16.098890 39.775257 -0.087228
16.412712 39.775257 -0.081311
16.726536 39.775257 -0.068672
17.040359 39.775257 -0.057728
17.354181 39.775257 -0.048846
17.668005 39.775257 -0.037946
17.981829 39.775257 -0.022152
18.295650 39.775257 -0.017246
18.609474 39.775257 0.000884
18.923298 39.775257 0.022984
19.237120 39.775257 0.000000
-6.810190 39.461433 0.000000
-6.496367 39.461433 0.000000
-6.182544 39.461433 0.003365
-5.868721 39.461433 0.001199
-5.554898 39.461433 0.000383
-5.241075 39.461433 -0.000510
-4.927252 39.461433 -0.001283
-4.613429 39.461433 -0.002172
-4.299606 39.461433 -0.003177
-3.985783 39.461433 -0.003786
-3.671960 39.461433 -0.003384
-3.358137 39.461433 -0.002678
-3.044314 39.461433 -0.002010
-2.730491 39.461433 -0.001057
-2.416668 39.461433 0.000261
-2.102845 39.461433 0.001724
-1.789022 39.461433 0.001984
-1.475199 39.461433 0.001862
-1.161376 39.461433 0.002206
-0.847553 39.461433 0.002204
-0.533730 39.461433 0.001466
-0.219907 39.461433 0.000594
0.093916 39.461433 -0.000743
0.407739 39.461433 -0.001796
0.721562 39.461433 -0.002166
1.035385 39.461433 -0.002363
1.349208 39.461433 -0.002236
1.663032 39.461433 -0.001637
1.976854 39.461433 -0.000881
2.290677 39.461433 -0.000239
2.604500 39.461433 0.000419
2.918324 39.461433 0.000805
3.232146 39.461433 0.001102
3.545969 39.461433 0.001416
3.859793 39.461433 0.001394
4.173615 39.461433 0.000951
4.487438 39.461433 0.000042
4.801261 39.461433 -0.001273
5.115085 39.461433 -0.002138
5.428907 39.461433 -0.002462
5.742730 39.461433 -0.002689
6.056554 39.461433 -0.002629
6.370377 39.461433 -0.002534
6.684199 39.461433 -0.002399
6.998022 39.461433 -0.001974
7.311846 39.461433 -0.001477
7.625669 39.461433 -0.001360
7.939491 39.461433 -0.000963
8.253315 39.461433 -0.001150
8.567138 39.461433 -0.002166
8.880960 39.461433 -0.002138
9.194784 39.461433 -0.003748
9.508606 39.461433 -0.008936
9.822430 39.461433 -0.018861
10.136253 39.461433 -0.028443
10.450075 39.461433 -0.037926
10.763899 39.461433 -0.056401
11.077723 39.461433 -0.077084
11.391544 39.461433 -0.108390
11.705368 39.461433 -0.130375
12.019190 39.461433 -0.131523
12.333014 39.461433 -0.116260
12.646837 39.461433 -0.135387
12.960659 39.461433 -0.157547
13.274483 39.461433 -0.167081
13.588306 39.461433 -0.169366
13.902128 39.461433 -0.138524
14.215952 39.461433 -0.141564
14.529776 39.461433 -0.153950
14.843597 39.461433 -0.133020
15.157421 39.461433 -0.112324
15.471243 39.461433 -0.132785
15.785067 39.461433 -0.113462
16.098890 39.461433 -0.092650
16.412712 39.461433 -0.083067
16.726536 39.461433 -0.074020
17.040359 39.461433 -0.056890
17.354181 39.461433 -0.052854
17.668005 39.461433 -0.031715
17.981829 39.461433 -0.012543
18.295650 39.461433 -0.001333
18.609474 39.461433 0.026412
18.923298 39.461433 0.060024
19.237120 39.461433 0.000000
-6.810190 39.147614 0.000000
-6.496367 39.147614 0.000000
-6.182544 39.147614 0.002924
-5.868721 39.147614 0.001165
-5.554898 39.147614 0.000796
-5.241075 39.147614 -0.000033
-4.927252 39.147614 -0.000724
-4.613429 39.147614 -0.001401
-4.299606 39.147614 -0.002331
-3.985783 39.147614 -0.003004
-3.671960 39.147614 -0.002942
-3.358137 39.147614 -0.002510
-3.044314 39.147614 -0.001968
-2.730491 39.147614 -0.001136
-2.416668 39.147614 -0.000166
-2.102845 39.147614 0.000979
-1.789022 39.147614 0.001321
-1.475199 39.147614 0.001607
-1.161376 39.147614 0.002170
-0.847553 39.147614 0.002530
-0.533730 39.147614 0.001917
-0.219907 39.147614 0.000988
0.093916 39.147614 -0.000224
0.407739 39.147614 -0.001266
0.721562 39.147614 -0.001635
1.035385 39.147614 -0.002043
1.349208 39.147614 -0.002086
1.663032 39.147614 -0.001595
1.976854 39.147614 -0.001004
2.290677 39.147614 -0.000615
2.604500 39.147614 0.000050
2.918324 39.147614 0.000498
3.232146 39.147614 0.000859
3.545969 39.147614 0.001153
3.859793 39.147614 0.001243
4.173615 39.147614 0.000948
4.487438 39.147614 0.000380
4.801261 39.147614 -0.000649
5.115085 39.147614 -0.001675
5.428907 39.147614 -0.002142
5.742730 39.147614 -0.002408
6.056554 39.147614 -0.002386
6.370377 39.147614 -0.002390
6.684199 39.147614 -0.002423
6.998022 39.147614 -0.002061
7.311846 39.147614 -0.001789
7.625669 39.147614 -0.001513
7.939491 39.147614 -0.001189
8.253315 39.147614 -0.001179
8.567138 39.147614 -0.002463
8.880960 39.147614 -0.003307
9.194784 39.147614 -0.003552
9.508606 39.147614 -0.009299
9.822430 39.147614 -0.014223
10.136253 39.147614 -0.024473
10.450075 39.147614 -0.040275
10.763899 39.147614 -0.056426
11.077723 39.147614 -0.080449
11.391544 39.147614 -0.111841
11.705368 39.147614 -0.134201
12.019190 39.147614 -0.145942
12.333014 39.147614 -0.129967
12.646837 39.147614 -0.137669
12.960659 39.147614 -0.151607
13.274483 39.147614 -0.173041
13.588306 39.147614 -0.160913
13.902128 39.147614 -0.131826
14.215952 39.147614 -0.120542
14.529776 39.147614 -0.140816
14.843597 39.147614 -0.130502
15.157421 39.147614 -0.112177
15.471243 39.147614 -0.119381
15.785067 39.147614 -0.113313
16.098890 39.147614 -0.099779
16.412712 39.147614 -0.085289
16.726536 39.147614 -0.073381
17.040359 39.147614 -0.053430
17.354181 39.147614 -0.045810
17.668005 39.147614 -0.029261
17.981829 39.147614 -0.008478
18.295650 39.147614 0.002792
18.609474 39.147614 0.036580
18.923298 39.147614 0.074889
19.237120 39.147614 0.000000
-6.810190 38.833786 0.000000
-6.496367 38.833786 0.000000
-6.182544 38.833786 0.002452
-5.868721 38.833786 0.000985
-5.554898 38.833786 0.001003
-5.241075 38.833786 0.000260
-4.927252 38.833786 -0.000215
-4.613429 38.833786 -0.000720
-4.299606 38.833786 -0.001587
-3.985783 38.833786 -0.002310
-3.671960 38.833786 -0.002521
-3.358137 38.833786 -0.002319
-3.044314 38.833786 -0.001779
-2.730491 38.833786 -0.001216
-2.416668 38.833786 -0.000596
-2.102845 38.833786 0.000215
-1.789022 38.833786 0.000604
-1.475199 38.833786 0.001232
-1.161376 38.833786 0.002074
-0.847553 38.833786 0.002558
-0.533730 38.833786 0.002100
-0.219907 38.833786 0.001164
0.093916 38.833786 0.000149
0.407739 38.833786 -0.000843
0.721562 38.833786 -0.001189
1.035385 38.833786 -0.001645
1.349208 38.833786 -0.001774
1.663032 38.833786 -0.001275
1.976854 38.833786 -0.000922
2.290677 38.833786 -0.000784
2.604500 38.833786 -0.000201
2.918324 38.833786 0.000305
3.232146 38.833786 0.000693
3.545969 38.833786 0.000898
3.859793 38.833786 0.001101
4.173615 38.833786 0.000971
4.487438 38.833786 0.000575
4.801261 38.833786 -0.000238
5.115085 38.833786 -0.001295
5.428907 38.833786 -0.001829
5.742730 38.833786 -0.001978
6.056554 38.833786 -0.001902
6.370377 38.833786 -0.002182
6.684199 38.833786 -0.002207
6.998022 38.833786 -0.002011
7.311846 38.833786 -0.001832
7.625669 38.833786 -0.001761
7.939491 38.833786 -0.001599
8.253315 38.833786 -0.001785
8.567138 38.833786 -0.002817
8.880960 38.833786 -0.004038
9.194784 38.833786 -0.005052
9.508606 38.833786 -0.007605
9.822430 38.833786 -0.017318
10.136253 38.833786 -0.027336
10.450075 38.833786 -0.041266
10.763899 38.833786 -0.057273
11.077723 38.833786 -0.083211
11.391544 38.833786 -0.100590
11.705368 38.833786 -0.127663
12.019190 38.833786 -0.132620
12.333014 38.833786 -0.130577
12.646837 38.833786 -0.143286
12.960659 38.833786 -0.153799
13.274483 38.833786 -0.173246
13.588306 38.833786 -0.155612
13.902128 38.833786 -0.146220
14.215952 38.833786 -0.141167
14.529776 38.833786 -0.141904
14.843597 38.833786 -0.130423
15.157421 38.833786 -0.119704
15.471243 38.833786 -0.129890
15.785067 38.833786 -0.128613
16.098890 38.833786 -0.117867
16.412712 38.833786 -0.097589
16.726536 38.833786 -0.070090
17.040359 38.833786 -0.057011
17.354181 38.833786 -0.044323
17.668005 38.833786 -0.017731
17.981829 38.833786 -0.009174
18.295650 38.833786 -0.003850
18.609474 38.833786 0.046337
18.923298 38.833786 0.086971
19.237120 38.833786 0.000000
-6.810190 38.519966 0.000000
-6.496367 38.519966 0.000000
-6.182544 38.519966 0.002198
-5.868721 38.519966 0.000950
-5.554898 38.519966 0.001261
-5.241075 38.519966 0.000636
-4.927252 38.519966 0.000139
-4.613429 38.519966 -0.000172
-4.299606 38.519966 -0.000955
-3.985783 38.519966 -0.001768
-3.671960 38.519966 -0.002245
-3.358137 38.519966 -0.002162
-3.044314 38.519966 -0.001683
-2.730491 38.519966 -0.001247
-2.416668 38.519966 -0.000883
-2.102845 38.519966 -0.000299
-1.789022 38.519966 0.000159
-1.475199 38.519966 0.000869
-1.161376 38.519966 0.001760
-0.847553 38.519966 0.002345
-0.533730 38.519966 0.002012
-0.219907 38.519966 0.001164
0.093916 38.519966 0.000295
0.407739 38.519966 -0.000460
0.721562 38.519966 -0.000792
1.035385 38.519966 -0.001294
1.349208 38.519966 -0.001350
1.663032 38.519966 -0.000855
1.976854 38.519966 -0.000713
2.290677 38.519966 -0.000689
2.604500 38.519966 -0.000155
2.918324 38.519966 0.000349
3.232146 38.519966 0.000525
3.545969 38.519966 0.000700
3.859793 38.519966 0.001077
4.173615 38.519966 0.001050
4.487438 38.519966 0.000637
4.801261 38.519966 -0.000119
5.115085 38.519966 -0.001061
5.428907 38.519966 -0.001533
5.742730 38.519966 -0.001497
6.056554 38.519966 -0.001499
6.370377 38.519966 -0.001800
6.684199 38.519966 -0.001876
6.998022 38.519966 -0.001814
7.311846 38.519966 -0.001806
7.625669 38.519966 -0.001907
7.939491 38.519966 -0.001617
8.253315 38.519966 -0.002011
8.567138 38.519966 -0.003042
8.880960 38.519966 -0.004193
9.194784 38.519966 -0.007549
9.508606 38.519966 -0.009162
9.822430 38.519966 -0.014825
10.136253 38.519966 -0.031157
10.450075 38.519966 -0.036544
10.763899 38.519966 -0.061276
11.077723 38.519966 -0.082400
11.391544 38.519966 -0.094216
11.705368 38.519966 -0.119762
12.019190 38.519966 -0.125201
12.333014 38.519966 -0.112022
12.646837 38.519966 -0.136394
12.960659 38.519966 -0.148725
13.274483 38.519966 -0.155275
13.588306 38.519966 -0.145443
13.902128 38.519966 -0.152470
14.215952 38.519966 -0.144285
14.529776 38.519966 -0.136196
14.843597 38.519966 -0.139125
15.157421 38.519966 -0.130235
15.471243 38.519966 -0.134673
15.785067 38.519966 -0.135675
16.098890 38.519966 -0.115362
16.412712 38.519966 -0.103944
16.726536 38.519966 -0.092171
17.040359 38.519966 -0.077382
17.354181 38.519966 -0.056277
17.668005 38.519966 -0.027242
17.981829 38.519966 -0.006335
18.295650 38.519966 0.006041
18.609474 38.519966 0.043367
18.923298 38.519966 0.094795
19.237120 38.519966 0.000000
-6.810190 38.206142 0.000000
-6.496367 38.206142 0.000000
-6.182544 38.206142 0.002090
-5.868721 38.206142 0.001003
-5.554898 38.206142 0.001459
-5.241075 38.206142 0.001108
-4.927252 38.206142 0.000724
-4.613429 38.206142 0.000423
-4.299606 38.206142 -0.000468
-3.985783 38.206142 -0.001466
-3.671960 38.206142 -0.002018
-3.358137 38.206142 -0.002018
-3.044314 38.206142 -0.001672
-2.730491 38.206142 -0.001493
-2.416668 38.206142 -0.001225
-2.102845 38.206142 -0.000627
-1.789022 38.206142 -0.000063
-1.475199 38.206142 0.000587
-1.161376 38.206142 0.001379
-0.847553 38.206142 0.001939
-0.533730 38.206142 0.001776
-0.219907 38.206142 0.001208
0.093916 38.206142 0.000549
0.407739 38.206142 -0.000116
0.721562 38.206142 -0.000514
1.035385 38.206142 -0.000942
1.349208 38.206142 -0.000931
1.663032 38.206142 -0.000571
1.976854 38.206142 -0.000604
2.290677 38.206142 -0.000455
2.604500 38.206142 0.000032
2.918324 38.206142 0.000399
3.232146 38.206142 0.000418
3.545969 38.206142 0.000567
3.859793 38.206142 0.000960
4.173615 38.206142 0.000985
4.487438 38.206142 0.000543
4.801261 38.206142 -0.000191
5.115085 38.206142 -0.000983
5.428907 38.206142 -0.001337
5.742730 38.206142 -0.001132
6.056554 38.206142 -0.001022
6.370377 38.206142 -0.001343
6.684199 38.206142 -0.001403
6.998022 38.206142 -0.001572
7.311846 38.206142 -0.001672
7.625669 38.206142 -0.001567
7.939491 38.206142 -0.001404
8.253315 38.206142 -0.002020
8.567138 38.206142 -0.003568
8.880960 38.206142 -0.006139
9.194784 38.206142 -0.008012
9.508606 38.206142 -0.011603
9.822430 38.206142 -0.016875
10.136253 38.206142 -0.033615
10.450075 38.206142 -0.047348
10.763899 38.206142 -0.056914
11.077723 38.206142 -0.080792
11.391544 38.206142 -0.093841
11.705368 38.206142 -0.106891
12.019190 38.206142 -0.109980
12.333014 38.206142 -0.112230
12.646837 38.206142 -0.124908
12.960659 38.206142 -0.127458
13.274483 38.206142 -0.137940
13.588306 38.206142 -0.131426
13.902128 38.206142 -0.147956
14.215952 38.206142 -0.156536
14.529776 38.206142 -0.151148
14.843597 38.206142 -0.137424
15.157421 38.206142 -0.125912
15.471243 38.206142 -0.119414
15.785067 38.206142 -0.130069
16.098890 38.206142 -0.120432
16.412712 38.206142 -0.104808
16.726536 38.206142 -0.094320
17.040359 38.206142 -0.074607
17.354181 38.206142 -0.059062
17.668005 38.206142 -0.038438
17.981829 38.206142 -0.008654
18.295650 38.206142 -0.005274
18.609474 38.206142 0.033866
18.923298 38.206142 0.059867
19.237120 38.206142 0.000000
-6.810190 37.892319 0.000000
-6.496367 37.892319 0.000000
-6.182544 37.892319 0.001962
-5.868721 37.892319 0.001143
-5.554898 37.892319 0.001608
-5.241075 37.892319 0.001398
-4.927252 37.892319 0.001298
-4.613429 37.892319 0.000897
-4.299606 37.892319 -0.000189
-3.985783 37.892319 -0.001365
-3.671960 37.892319 -0.001818
-3.358137 37.892319 -0.001731
-3.044314 37.892319 -0.001629
-2.730491 37.892319 -0.001679
-2.416668 37.892319 -0.001510
-2.102845 37.892319 -0.000758
-1.789022 37.892319 -0.000027
-1.475199 37.892319 0.000454
-1.161376 37.892319 0.001012
-0.847553 37.892319 0.001389
-0.533730 37.892319 0.001373
-0.219907 37.892319 0.001156
0.093916 37.892319 0.000705
0.407739 37.892319 0.000083
0.721562 37.892319 -0.000409
1.035385 37.892319 -0.000645
1.349208 37.892319 -0.000627
1.663032 37.892319 -0.000442
1.976854 37.892319 -0.000600
2.290677 37.892319 -0.000308
2.604500 37.892319 0.000139
2.918324 37.892319 0.000303
3.232146 37.892319 0.000272
3.545969 37.892319 0.000441
3.859793 37.892319 0.000713
4.173615 37.892319 0.000680
4.487438 37.892319 0.000252
4.801261 37.892319 -0.000344
5.115085 37.892319 -0.000990
5.428907 37.892319 -0.001218
5.742730 37.892319 -0.000914
6.056554 37.892319 -0.000628
6.370377 37.892319 -0.000748
6.684199 37.892319 -0.000902
6.998022 37.892319 -0.001362
7.311846 37.892319 -0.001642
7.625669 37.892319 -0.001791
7.939491 37.892319 -0.001429
8.253315 37.892319 -0.002635
8.567138 37.892319 -0.004478
8.880960 37.892319 -0.007064
9.194784 37.892319 -0.008870
9.508606 37.892319 -0.013070
9.822430 37.892319 -0.020295
10.136253 37.892319 -0.034408
10.450075 37.892319 -0.043526
10.763899 37.892319 -0.065189
11.077723 37.892319 -0.073934
11.391544 37.892319 -0.100884
11.705368 37.892319 -0.108667
12.019190 37.892319 -0.109936
12.333014 37.892319 -0.101634
12.646837 37.892319 -0.111143
12.960659 37.892319 -0.125554
13.274483 37.892319 -0.130692
13.588306 37.892319 -0.119765
13.902128 37.892319 -0.143553
14.215952 37.892319 -0.153693
14.529776 37.892319 -0.137828
14.843597 37.892319 -0.136729
15.157421 37.892319 -0.104710
15.471243 37.892319 -0.098999
15.785067 37.892319 -0.112105
16.098890 37.892319 -0.113298
16.412712 37.892319 -0.107556
16.726536 37.892319 -0.099729
17.040359 37.892319 -0.078339
17.354181 37.892319 -0.063643
17.668005 37.892319 -0.035631
17.981829 37.892319 -0.008283
18.295650 37.892319 -0.001003
18.609474 37.892319 0.021128
18.923298 37.892319 0.078755
19.237120 37.892319 0.000000
-6.810190 37.578495 0.000000
-6.496367 37.578495 0.000000
-6.182544 37.578495 0.001827
-5.868721 37.578495 0.001113
-5.554898 37.578495 0.001606
-5.241075 37.578495 0.001672
-4.927252 37.578495 0.001749
-4.613429 37.578495 0.001189
-4.299606 37.578495 -0.000060
-3.985783 37.578495 -0.001275
-3.671960 37.578495 -0.001704
-3.358137 37.578495 -0.001557
-3.044314 37.578495 -0.001499
-2.730491 37.578495 -0.001646
-2.416668 37.578495 -0.001504
-2.102845 37.578495 -0.000710
-1.789022 37.578495 0.000105
-1.475199 37.578495 0.000403
-1.161376 37.578495 0.000531
-0.847553 37.578495 0.000862
-0.533730 37.578495 0.001014
-0.219907 37.578495 0.000981
0.093916 37.578495 0.000685
0.407739 37.578495 0.000166
0.721562 37.578495 -0.000330
1.035385 37.578495 -0.000471
1.349208 37.578495 -0.000398
1.663032 37.578495 -0.000367
1.976854 37.578495 -0.000507
2.290677 37.578495 -0.000242
2.604500 37.578495 0.000110
2.918324 37.578495 0.000093
3.232146 37.578495 0.000122
3.545969 37.578495 0.000312
3.859793 37.578495 0.000245
4.173615 37.578495 0.000077
4.487438 37.578495 -0.000275
4.801261 37.578495 -0.000652
5.115085 37.578495 -0.001079
5.428907 37.578495 -0.001215
5.742730 37.578495 -0.000847
6.056554 37.578495 -0.000370
6.370377 37.578495 -0.000225
6.684199 37.578495 -0.000480
6.998022 37.578495 -0.001252
7.311846 37.578495 -0.001862
7.625669 37.578495 -0.002006
7.939491 37.578495 -0.001875
8.253315 37.578495 -0.003080
8.567138 37.578495 -0.005374
8.880960 37.578495 -0.006950
9.194784 37.578495 -0.007630
9.508606 37.578495 -0.011017
9.822430 37.578495 -0.015765
10.136253 37.578495 -0.025733
10.450075 37.578495 -0.043419
10.763899 37.578495 -0.066789
11.077723 37.578495 -0.070254
11.391544 37.578495 -0.096184
11.705368 37.578495 -0.120291
12.019190 37.578495 -0.117172
12.333014 37.578495 -0.096631
12.646837 37.578495 -0.112175
12.960659 37.578495 -0.119004
13.274483 37.578495 -0.116850
13.588306 37.578495 -0.104469
13.902128 37.578495 -0.143257
14.215952 37.578495 -0.132750
14.529776 37.578495 -0.140322
14.843597 37.578495 -0.126605
15.157421 37.578495 -0.093129
15.471243 37.578495 -0.088977
15.785067 37.578495 -0.091726
16.098890 37.578495 -0.104134
16.412712 37.578495 -0.106784
16.726536 37.578495 -0.100946
17.040359 37.578495 -0.082670
17.354181 37.578495 -0.064731
17.668005 37.578495 -0.035403
17.981829 37.578495 -0.014972
18.295650 37.578495 -0.006820
18.609474 37.578495 0.028657
18.923298 37.578495 0.079091
19.237120 37.578495 0.000000
-6.810190 37.264671 0.000000
-6.496367 37.264671 0.000000
-6.182544 37.264671 0.001722
-5.868721 37.264671 0.000940
-5.554898 37.264671 0.001514
-5.241075 37.264671 0.001635
-4.927252 37.264671 0.001894
-4.613429 37.264671 0.001299
-4.299606 37.264671 0.000135
-3.985783 37.264671 -0.001091
-3.671960 37.264671 -0.001565
-3.358137 37.264671 -0.001577
-3.044314 37.264671 -0.001417
-2.730491 37.264671 -0.001402
-2.416668 37.264671 -0.001273
-2.102845 37.264671 -0.000454
-1.789022 37.264671 0.000193
-1.475199 37.264671 0.000219
-1.161376 37.264671 0.000063
-0.847553 37.264671 0.000349
-0.533730 37.264671 0.000645
-0.219907 37.264671 0.000664
0.093916 37.264671 0.000487
0.407739 37.264671 0.000129
0.721562 37.264671 -0.000342
1.035385 37.264671 -0.000400
1.349208 37.264671 -0.000270
1.663032 37.264671 -0.000265
1.976854 37.264671 -0.000337
2.290677 37.264671 -0.000215
2.604500 37.264671 -0.000027
2.918324 37.264671 -0.000128
3.232146 37.264671 -0.000048
3.545969 37.264671 0.000087
3.859793 37.264671 -0.000224
4.173615 37.264671 -0.000616
4.487438 37.264671 -0.000922
4.801261 37.264671 -0.001035
5.115085 37.264671 -0.001179
5.428907 37.264671 -0.001300
5.742730 37.264671 -0.000987
6.056554 37.264671 -0.000225
6.370377 37.264671 0.000201
6.684199 37.264671 -0.000012
6.998022 37.264671 -0.000936
7.311846 37.264671 -0.001931
7.625669 37.264671 -0.002375
7.939491 37.264671 -0.002823
8.253315 37.264671 -0.003868
8.567138 37.264671 -0.006841
8.880960 37.264671 -0.007016
9.194784 37.264671 -0.008296
9.508606 37.264671 -0.010462
9.822430 37.264671 -0.015161
10.136253 37.264671 -0.025097
10.450075 37.264671 -0.041447
10.763899 37.264671 -0.057721
11.077723 37.264671 -0.062181
11.391544 37.264671 -0.093679
11.705368 37.264671 -0.118676
12.019190 37.264671 -0.130728
12.333014 37.264671 -0.109404
12.646837 37.264671 -0.095994
12.960659 37.264671 -0.108642
13.274483 37.264671 -0.120068
13.588306 37.264671 -0.122499
13.902128 37.264671 -0.135547
14.215952 37.264671 -0.140265
14.529776 37.264671 -0.131295
14.843597 37.264671 -0.121652
15.157421 37.264671 -0.091671
15.471243 37.264671 -0.089211
15.785067 37.264671 -0.095035
16.098890 37.264671 -0.104571
16.412712 37.264671 -0.109352
16.726536 37.264671 -0.099313
17.040359 37.264671 -0.085951
17.354181 37.264671 -0.064867
17.668005 37.264671 -0.052401
17.981829 37.264671 -0.027463
18.295650 37.264671 -0.019276
18.609474 37.264671 0.007629
18.923298 37.264671 0.061358
19.237120 37.264671 0.000000
-6.810190 36.950851 0.000000
-6.496367 36.950851 0.000000
-6.182544 36.950851 0.001641
-5.868721 36.950851 0.000699
-5.554898 36.950851 0.001230
-5.241075 36.950851 0.001244
-4.927252 36.950851 0.001543
-4.613429 36.950851 0.001207
-4.299606 36.950851 0.000283
-3.985783 36.950851 -0.000840
-3.671960 36.950851 -0.001487
-3.358137 36.950851 -0.001655
-3.044314 36.950851 -0.001341
-2.730491 36.950851 -0.001156
-2.416668 36.950851 -0.000884
-2.102845 36.950851 -0.000144
-1.789022 36.950851 0.000285
-1.475199 36.950851 0.000075
-1.161376 36.950851 -0.000273
-0.847553 36.950851 -0.000045
-0.533730 36.950851 0.000242
-0.219907 36.950851 0.000219
0.093916 36.950851 0.000168
0.407739 36.950851 -0.000023
0.721562 36.950851 -0.000419
1.035385 36.950851 -0.000306
1.349208 36.950851 -0.000108
1.663032 36.950851 -0.000081
1.976854 36.950851 -0.000101
2.290677 36.950851 -0.000148
2.604500 36.950851 -0.000105
2.918324 36.950851 -0.000257
3.232146 36.950851 -0.000238
3.545969 36.950851 -0.000217
3.859793 36.950851 -0.000623
4.173615 36.950851 -0.001110
4.487438 36.950851 -0.001438
4.801261 36.950851 -0.001416
5.115085 36.950851 -0.001251
5.428907 36.950851 -0.001268
5.742730 36.950851 -0.000970
6.056554 36.950851 -0.000154
6.370377 36.950851 0.000474
6.684199 36.950851 0.000487
6.998022 36.950851 -0.000357
7.311846 36.950851 -0.001544
7.625669 36.950851 -0.002620
7.939491 36.950851 -0.003464
8.253315 36.950851 -0.005159
8.567138 36.950851 -0.007769
8.880960 36.950851 -0.008703
9.194784 36.950851 -0.008975
9.508606 36.950851 -0.008910
9.822430 36.950851 -0.014741
10.136253 36.950851 -0.024531
10.450075 36.950851 -0.038298
10.763899 36.950851 -0.047391
11.077723 36.950851 -0.060887
11.391544 36.950851 -0.096710
11.705368 36.950851 -0.113332
12.019190 36.950851 -0.126553
12.333014 36.950851 -0.118277
12.646837 36.950851 -0.110950
12.960659 36.950851 -0.126995
13.274483 36.950851 -0.143963
13.588306 36.950851 -0.123221
13.902128 36.950851 -0.137505
14.215952 36.950851 -0.109205
14.529776 36.950851 -0.124637
14.843597 36.950851 -0.123235
15.157421 36.950851 -0.107764
15.471243 36.950851 -0.100145
15.785067 36.950851 -0.089591
16.098890 36.950851 -0.106529
16.412712 36.950851 -0.097217
16.726536 36.950851 -0.088381
17.040359 36.950851 -0.087626
17.354181 36.950851 -0.068615
17.668005 36.950851 -0.048264
17.981829 36.950851 -0.031886
18.295650 36.950851 -0.018370
18.609474 36.950851 0.010320
18.923298 36.950851 0.073166
19.237120 36.950851 0.000000
-6.810190 36.637028 0.000000
-6.496367 36.637028 0.000000
-6.182544 36.637028 0.001712
-5.868721 36.637028 0.000397
-5.554898 36.637028 0.000790
-5.241075 36.637028 0.000690
-4.927252 36.637028 0.000780
-4.613429 36.637028 0.000772
-4.299606 36.637028 0.000325
-3.985783 36.637028 -0.000565
-3.671960 36.637028 -0.001333
-3.358137 36.637028 -0.001618
-3.044314 36.637028 -0.001316
-2.730491 36.637028 -0.000974
-2.416668 36.637028 -0.000464
-2.102845 36.637028 0.000164
-1.789022 36.637028 0.000306
-1.475199 36.637028 -0.000035
-1.161376 36.637028 -0.000424
-0.847553 36.637028 -0.000276
-0.533730 36.637028 -0.000130
-0.219907 36.637028 -0.000223
0.093916 36.637028 -0.000232
0.407739 36.637028 -0.000295
0.721562 36.637028 -0.000399
1.035385 36.637028 -0.000245
1.349208 36.637028 -0.000023
1.663032 36.637028 0.000101
1.976854 36.637028 0.000121
2.290677 36.637028 -0.000043
2.604500 36.637028 -0.000080
2.918324 36.637028 -0.000372
3.232146 36.637028 -0.000447
3.545969 36.637028 -0.000513
3.859793 36.637028 -0.000867
4.173615 36.637028 -0.001399
4.487438 36.637028 -0.001806
4.801261 36.637028 -0.001703
5.115085 36.637028 -0.001311
5.428907 36.637028 -0.001196
5.742730 36.637028 -0.000807
6.056554 36.637028 -0.000029
6.370377 36.637028 0.000775
6.684199 36.637028 0.000890
6.998022 36.637028 0.000174
7.311846 36.637028 -0.001067
7.625669 36.637028 -0.002352
7.939491 36.637028 -0.004066
8.253315 36.637028 -0.006017
8.567138 36.637028 -0.008394
8.880960 36.637028 -0.009695
9.194784 36.637028 -0.011820
9.508606 36.637028 -0.011740
9.822430 36.637028 -0.013807
10.136253 36.637028 -0.026835
10.450075 36.637028 -0.033111
10.763899 36.637028 -0.043094
11.077723 36.637028 -0.057825
11.391544 36.637028 -0.087142
11.705368 36.637028 -0.116565
12.019190 36.637028 -0.134995
12.333014 36.637028 -0.133726
12.646837 36.637028 -0.123329
12.960659 36.637028 -0.138705
13.274483 36.637028 -0.154692
13.588306 36.637028 -0.141190
13.902128 36.637028 -0.134969
14.215952 36.637028 -0.106881
14.529776 36.637028 -0.099156
14.843597 36.637028 -0.109370
15.157421 36.637028 -0.111323
15.471243 36.637028 -0.093158
15.785067 36.637028 -0.106529
16.098890 36.637028 -0.126117
16.412712 36.637028 -0.106588
16.726536 36.637028 -0.087779
17.040359 36.637028 -0.092127
17.354181 36.637028 -0.073057
17.668005 36.637028 -0.050123
17.981829 36.637028 -0.026810
18.295650 36.637028 -0.034798
18.609474 36.637028 0.006294
18.923298 36.637028 0.074341
19.237120 36.637028 0.000000
-6.810190 36.323204 0.000000
-6.496367 36.323204 0.000000
-6.182544 36.323204 0.001879
-5.868721 36.323204 0.000275
-5.554898 36.323204 0.000329
-5.241075 36.323204 -0.000002
-4.927252 36.323204 0.000068
-4.613429 36.323204 0.000214
-4.299606 36.323204 0.000059
-3.985783 36.323204 -0.000371
-3.671960 36.323204 -0.001048
-3.358137 36.323204 -0.001477
-3.044314 36.323204 -0.001196
-2.730491 36.323204 -0.000801
-2.416668 36.323204 -0.000160
-2.102845 36.323204 0.000318
-1.789022 36.323204 0.000273
-1.475199 36.323204 -0.000149
-1.161376 36.323204 -0.000430
-0.847553 36.323204 -0.000401
-0.533730 36.323204 -0.000333
-0.219907 36.323204 -0.000534
0.093916 36.323204 -0.000597
0.407739 36.323204 -0.000471
0.721562 36.323204 -0.000422
1.035385 36.323204 -0.000198
1.349208 36.323204 0.000110
1.663032 36.323204 0.000316
1.976854 36.323204 0.000277
2.290677 36.323204 0.000046
2.604500 36.323204 -0.000085
2.918324 36.323204 -0.000509
3.232146 36.323204 -0.000649
3.545969 36.323204 -0.000720
3.859793 36.323204 -0.001065
4.173615 36.323204 -0.001581
4.487438 36.323204 -0.001995
4.801261 36.323204 -0.001864
5.115085 36.323204 -0.001269
5.428907 36.323204 -0.000967
5.742730 36.323204 -0.000432
6.056554 36.323204 0.000394
6.370377 36.323204 0.001109
6.684199 36.323204 0.001365
6.998022 36.323204 0.000539
7.311846 36.323204 -0.000542
7.625669 36.323204 -0.001979
7.939491 36.323204 -0.004360
8.253315 36.323204 -0.006657
8.567138 36.323204 -0.008869
8.880960 36.323204 -0.012234
9.194784 36.323204 -0.013771
9.508606 36.323204 -0.015276
9.822430 36.323204 -0.017038
10.136253 36.323204 -0.022694
10.450075 36.323204 -0.035370
10.763899 36.323204 -0.049315
11.077723 36.323204 -0.067773
11.391544 36.323204 -0.086018
11.705368 36.323204 -0.111567
12.019190 36.323204 -0.127934
12.333014 36.323204 -0.129334
12.646837 36.323204 -0.129200
12.960659 36.323204 -0.134255
13.274483 36.323204 -0.159323
13.588306 36.323204 -0.156362
13.902128 36.323204 -0.119262
14.215952 36.323204 -0.078816
14.529776 36.323204 -0.091101
14.843597 36.323204 -0.108662
15.157421 36.323204 -0.116256
15.471243 36.323204 -0.120361
15.785067 36.323204 -0.120199
16.098890 36.323204 -0.127994
16.412712 36.323204 -0.104185
16.726536 36.323204 -0.092838
17.040359 36.323204 -0.081666
17.354181 36.323204 -0.069759
17.668005 36.323204 -0.048358
17.981829 36.323204 -0.027611
18.295650 36.323204 -0.033522
18.609474 36.323204 0.007763
18.923298 36.323204 0.092774
19.237120 36.323204 0.000000
-6.810190 36.009380 0.000000
-6.496367 36.009380 0.000000
-6.182544 36.009380 0.001852
-5.868721 36.009380 0.000090
-5.554898 36.009380 -0.000141
-5.241075 36.009380 -0.000521
-4.927252 36.009380 -0.000454
-4.613429 36.009380 -0.000257
-4.299606 36.009380 -0.000197
-3.985783 36.009380 -0.000226
-3.671960 36.009380 -0.000636
-3.358137 36.009380 -0.001008
-3.044314 36.009380 -0.000774
-2.730491 36.009380 -0.000403
-2.416668 36.009380 0.000062
-2.102845 36.009380 0.000362
-1.789022 36.009380 0.000145
-1.475199 36.009380 -0.000295
-1.161376 36.009380 -0.000433
-0.847553 36.009380 -0.000408
-0.533730 36.009380 -0.000493
-0.219907 36.009380 -0.000800
0.093916 36.009380 -0.000860
0.407739 36.009380 -0.000588
0.721562 36.009380 -0.000504
1.035385 36.009380 -0.000088
1.349208 36.009380 0.000325
1.663032 36.009380 0.000536
1.976854 36.009380 0.000467
2.290677 36.009380 0.000244
2.604500 36.009380 -0.000069
2.918324 36.009380 -0.000541
3.232146 36.009380 -0.000753
3.545969 36.009380 -0.000902
3.859793 36.009380 -0.001279
4.173615 36.009380 -0.001769
4.487438 36.009380 -0.002097
4.801261 36.009380 -0.001954
5.115085 36.009380 -0.001223
5.428907 36.009380 -0.000682
5.742730 36.009380 0.000081
6.056554 36.009380 0.000896
6.370377 36.009380 0.001463
6.684199 36.009380 0.001602
6.998022 36.009380 0.000854
7.311846 36.009380 -0.000573
7.625669 36.009380 -0.002171
7.939491 36.009380 -0.004337
8.253315 36.009380 -0.007113
8.567138 36.009380 -0.009476
8.880960 36.009380 -0.012864
9.194784 36.009380 -0.014727
9.508606 36.009380 -0.016724
9.822430 36.009380 -0.018345
10.136253 36.009380 -0.025416
10.450075 36.009380 -0.034676
10.763899 36.009380 -0.048317
11.077723 36.009380 -0.070930
11.391544 36.009380 -0.093582
11.705368 36.009380 -0.114031
12.019190 36.009380 -0.123060
12.333014 36.009380 -0.122671
12.646837 36.009380 -0.133710
12.960659 36.009380 -0.132250
13.274483 36.009380 -0.136211
13.588306 36.009380 -0.135401
13.902128 36.009380 -0.114176
14.215952 36.009380 -0.067093
14.529776 36.009380 -0.070861
14.843597 36.009380 -0.100719
15.157421 36.009380 -0.116498
15.471243 36.009380 -0.109863
15.785067 36.009380 -0.122165
16.098890 36.009380 -0.122438
16.412712 36.009380 -0.095644
16.726536 36.009380 -0.079714
17.040359 36.009380 -0.072480
17.354181 36.009380 -0.065804
17.668005 36.009380 -0.043173
17.981829 36.009380 -0.026350
18.295650 36.009380 -0.022975
18.609474 36.009380 0.029768
18.923298 36.009380 0.115907
19.237120 36.009380 0.000000
-6.810190 35.695557 0.000000
-6.496367 35.695557 0.000000
-6.182544 35.695557 0.001467
-5.868721 35.695557 -0.000219
-5.554898 35.695557 -0.000506
-5.241075 35.695557 -0.000836
-4.927252 35.695557 -0.000837
-4.613429 35.695557 -0.000635
-4.299606 35.695557 -0.000373
-3.985783 35.695557 -0.000136
-3.671960 35.695557 -0.000249
-3.358137 35.695557 -0.000371
-3.044314 35.695557 -0.000154
-2.730491 35.695557 0.000131
-2.416668 35.695557 0.000402
-2.102845 35.695557 0.000489
-1.789022 35.695557 0.000149
-1.475199 35.695557 -0.000371
-1.161376 35.695557 -0.000428
-0.847553 35.695557 -0.000322
-0.533730 35.695557 -0.000566
-0.219907 35.695557 -0.001015
0.093916 35.695557 -0.001070
0.407739 35.695557 -0.000784
0.721562 35.695557 -0.000511
1.035385 35.695557 0.000189
1.349208 35.695557 0.000611
1.663032 35.695557 0.000794
1.976854 35.695557 0.000741
2.290677 35.695557 0.000528
2.604500 35.695557 0.000107
2.918324 35.695557 -0.000547
3.232146 35.695557 -0.000856
3.545969 35.695557 -0.001151
3.859793 35.695557 -0.001608
4.173615 35.695557 -0.001962
4.487438 35.695557 -0.002164
4.801261 35.695557 -0.001966
5.115085 35.695557 -0.001194
5.428907 35.695557 -0.000327
5.742730 35.695557 0.000735
6.056554 35.695557 0.001483
6.370377 35.695557 0.001811
6.684199 35.695557 0.001748
6.998022 35.695557 0.000930
7.311846 35.695557 -0.000635
7.625669 35.695557 -0.002618
7.939491 35.695557 -0.005106
8.253315 35.695557 -0.007624
8.567138 35.695557 -0.009278
8.880960 35.695557 -0.011461
9.194784 35.695557 -0.012671
9.508606 35.695557 -0.016856
9.822430 35.695557 -0.016157
10.136253 35.695557 -0.027491
10.450075 35.695557 -0.034614
10.763899 35.695557 -0.046586
11.077723 35.695557 -0.070419
11.391544 35.695557 -0.095798
11.705368 35.695557 -0.110925
12.019190 35.695557 -0.119045
12.333014 35.695557 -0.139241
12.646837 35.695557 -0.150449
12.960659 35.695557 -0.144124
13.274483 35.695557 -0.147542
13.588306 35.695557 -0.140846
13.902128 35.695557 -0.121515
14.215952 35.695557 -0.092727
14.529776 35.695557 -0.092379
14.843597 35.695557 -0.104122
15.157421 35.695557 -0.104452
15.471243 35.695557 -0.101641
15.785067 35.695557 -0.128307
16.098890 35.695557 -0.116596
16.412712 35.695557 -0.085325
16.726536 35.695557 -0.068582
17.040359 35.695557 -0.055012
17.354181 35.695557 -0.053838
17.668005 35.695557 -0.041291
17.981829 35.695557 -0.038947
18.295650 35.695557 -0.026307
18.609474 35.695557 0.041787
18.923298 35.695557 0.135084
19.237120 35.695557 0.000000
-6.810190 35.381737 0.000000
-6.496367 35.381737 0.000000
-6.182544 35.381737 0.001009
-5.868721 35.381737 -0.000571
-5.554898 35.381737 -0.000707
-5.241075 35.381737 -0.001108
-4.927252 35.381737 -0.001245
-4.613429 35.381737 -0.001042
-4.299606 35.381737 -0.000613
-3.985783 35.381737 -0.000305
-3.671960 35.381737 -0.000212
-3.358137 35.381737 0.000086
-3.044314 35.381737 0.000531
-2.730491 35.381737 0.000726
-2.416668 35.381737 0.000901
-2.102845 35.381737 0.000777
-1.789022 35.381737 0.000147
-1.475199 35.381737 -0.000412
-1.161376 35.381737 -0.000409
-0.847553 35.381737 -0.000318
-0.533730 35.381737 -0.000652
-0.219907 35.381737 -0.001184
0.093916 35.381737 -0.001270
0.407739 35.381737 -0.000918
0.721562 35.381737 -0.000437
1.035385 35.381737 0.000439
1.349208 35.381737 0.000952
1.663032 35.381737 0.001125
1.976854 35.381737 0.001120
2.290677 35.381737 0.000921
2.604500 35.381737 0.000353
2.918324 35.381737 -0.000449
3.232146 35.381737 -0.000922
3.545969 35.381737 -0.001487
3.859793 35.381737 -0.002089
4.173615 35.381737 -0.002243
4.487438 35.381737 -0.002165
4.801261 35.381737 -0.001846
5.115085 35.381737 -0.001102
5.428907 35.381737 0.000057
5.742730 35.381737 0.001298
6.056554 35.381737 0.001938
6.370377 35.381737 0.002025
6.684199 35.381737 0.001888
6.998022 35.381737 0.000892
7.311846 35.381737 -0.000935
7.625669 35.381737 -0.003249
7.939491 35.381737 -0.005737
8.253315 35.381737 -0.008185
8.567138 35.381737 -0.009864
8.880960 35.381737 -0.010239
9.194784 35.381737 -0.011977
9.508606 35.381737 -0.010983
9.822430 35.381737 -0.013465
10.136253 35.381737 -0.023461
10.450075 35.381737 -0.031220
10.763899 35.381737 -0.042806
11.077723 35.381737 -0.060826
11.391544 35.381737 -0.092367
11.705368 35.381737 -0.114467
12.019190 35.381737 -0.132120
12.333014 35.381737 -0.145406
12.646837 35.381737 -0.147908
12.960659 35.381737 -0.140020
13.274483 35.381737 -0.129866
13.588306 35.381737 -0.132527
13.902128 35.381737 -0.100099
14.215952 35.381737 -0.089046
14.529776 35.381737 -0.115453
14.843597 35.381737 -0.105085
15.157421 35.381737 -0.100536
15.471243 35.381737 -0.099558
15.785067 35.381737 -0.117264
16.098890 35.381737 -0.111831
16.412712 35.381737 -0.082832
16.726536 35.381737 -0.056594
17.040359 35.381737 -0.055469
17.354181 35.381737 -0.045536
17.668005 35.381737 -0.035131
17.981829 35.381737 -0.042475
18.295650 35.381737 -0.026777
18.609474 35.381737 0.039161
18.923298 35.381737 0.136037
19.237120 35.381737 0.000000
-6.810190 35.067913 0.000000
-6.496367 35.067913 0.000000
-6.182544 35.067913 0.000645
-5.868721 35.067913 -0.001054
-5.554898 35.067913 -0.001067
-5.241075 35.067913 -0.001370
-4.927252 35.067913 -0.001611
-4.613429 35.067913 -0.001454
-4.299606 35.067913 -0.000919
-3.985783 35.067913 -0.000681
-3.671960 35.067913 -0.000265
-3.358137 35.067913 0.000392
-3.044314 35.067913 0.001071
-2.730491 35.067913 0.001194
-2.416668 35.067913 0.001210
-2.102845 35.067913 0.000905
-1.789022 35.067913 0.000141
-1.475199 35.067913 -0.000382
-1.161376 35.067913 -0.000353
-0.847553 35.067913 -0.000402
-0.533730 35.067913 -0.000858
-0.219907 35.067913 -0.001417
0.093916 35.067913 -0.001402
0.407739 35.067913 -0.000987
0.721562 35.067913 -0.000226
1.035385 35.067913 0.000729
1.349208 35.067913 0.001246
1.663032 35.067913 0.001524
1.976854 35.067913 0.001585
2.290677 35.067913 0.001314
2.604500 35.067913 0.000691
2.918324 35.067913 -0.000243
3.232146 35.067913 -0.001069
3.545969 35.067913 -0.001878
3.859793 35.067913 -0.002558
4.173615 35.067913 -0.002650
4.487438 35.067913 -0.002225
4.801261 35.067913 -0.001679
5.115085 35.067913 -0.000888
5.428907 35.067913 0.000385
5.742730 35.067913 0.001745
6.056554 35.067913 0.002350
6.370377 35.067913 0.002282
6.684199 35.067913 0.001866
6.998022 35.067913 0.000781
7.311846 35.067913 -0.001320
7.625669 35.067913 -0.003967
7.939491 35.067913 -0.006903
8.253315 35.067913 -0.008753
8.567138 35.067913 -0.009851
8.880960 35.067913 -0.009886
9.194784 35.067913 -0.011301
9.508606 35.067913 -0.008875
9.822430 35.067913 -0.011939
10.136253 35.067913 -0.022783
10.450075 35.067913 -0.029392
10.763899 35.067913 -0.038612
11.077723 35.067913 -0.063400
11.391544 35.067913 -0.088858
11.705368 35.067913 -0.097036
12.019190 35.067913 -0.126350
12.333014 35.067913 -0.141897
12.646837 35.067913 -0.145917
12.960659 35.067913 -0.127358
13.274483 35.067913 -0.138078
13.588306 35.067913 -0.137250
13.902128 35.067913 -0.124506
14.215952 35.067913 -0.113155
14.529776 35.067913 -0.127740
14.843597 35.067913 -0.098590
15.157421 35.067913 -0.084837
15.471243 35.067913 -0.081289
15.785067 35.067913 -0.095807
16.098890 35.067913 -0.097035
16.412712 35.067913 -0.089723
16.726536 35.067913 -0.060873
17.040359 35.067913 -0.047146
17.354181 35.067913 -0.045650
17.668005 35.067913 -0.039501
17.981829 35.067913 -0.044127
18.295650 35.067913 -0.010190
18.609474 35.067913 0.059585
18.923298 35.067913 0.157554
19.237120 35.067913 0.000000
-6.810190 34.754089 0.000000
-6.496367 34.754089 -0.000235
-6.182544 34.754089 0.000434
-5.868721 34.754089 -0.001363
-5.554898 34.754089 -0.001368
-5.241075 34.754089 -0.001609
-4.927252 34.754089 -0.001869
-4.613429 34.754089 -0.001614
-4.299606 34.754089 -0.001215
-3.985783 34.754089 -0.000981
-3.671960 34.754089 -0.000228
-3.358137 34.754089 0.000688
-3.044314 34.754089 0.001467
-2.730491 34.754089 0.001473
-2.416668 34.754089 0.001362
-2.102845 34.754089 0.000856
-1.789022 34.754089 0.000074
-1.475199 34.754089 -0.000406
-1.161376 34.754089 -0.000436
-0.847553 34.754089 -0.000657
-0.533730 34.754089 -0.001211
-0.219907 34.754089 -0.001599
0.093916 34.754089 -0.001379
0.407739 34.754089 -0.000741
0.721562 34.754089 0.000142
1.035385 34.754089 0.001075
1.349208 34.754089 0.001557
1.663032 34.754089 0.001971
1.976854 34.754089 0.002019
2.290677 34.754089 0.001637
2.604500 34.754089 0.000977
2.918324 34.754089 -0.000041
3.232146 34.754089 -0.001168
3.545969 34.754089 -0.002274
3.859793 34.754089 -0.003006
4.173615 34.754089 -0.002976
4.487438 34.754089 -0.002285
4.801261 34.754089 -0.001545
5.115085 34.754089 -0.000611
5.428907 34.754089 0.000723
5.742730 34.754089 0.002049
6.056554 34.754089 0.002701
6.370377 34.754089 0.002507
6.684199 34.754089 0.001802
6.998022 34.754089 0.000513
7.311846 34.754089 -0.001835
7.625669 34.754089 -0.004657
7.939491 34.754089 -0.007389
8.253315 34.754089 -0.009093
8.567138 34.754089 -0.009756
8.880960 34.754089 -0.008737
9.194784 34.754089 -0.010079
9.508606 34.754089 -0.011156
9.822430 34.754089 -0.012779
10.136253 34.754089 -0.019992
10.450075 34.754089 -0.032821
10.763899 34.754089 -0.030920
11.077723 34.754089 -0.054909
11.391544 34.754089 -0.081577
11.705368 34.754089 -0.101747
12.019190 34.754089 -0.111318
12.333014 34.754089 -0.141152
12.646837 34.754089 -0.140291
12.960659 34.754089 -0.120864
13.274483 34.754089 -0.121320
13.588306 34.754089 -0.141102
13.902128 34.754089 -0.124732
14.215952 34.754089 -0.117136
14.529776 34.754089 -0.122826
14.843597 34.754089 -0.117649
15.157421 34.754089 -0.098610
15.471243 34.754089 -0.080401
15.785067 34.754089 -0.082296
16.098890 34.754089 -0.092471
16.412712 34.754089 -0.074313
16.726536 34.754089 -0.061457
17.040359 34.754089 -0.032470
17.354181 34.754089 -0.044430
17.668005 34.754089 -0.035154
17.981829 34.754089 -0.027774
18.295650 34.754089 -0.025104
18.609474 34.754089 0.061830
18.923298 34.754089 0.149897
19.237120 34.754089 0.000000
-6.810190 34.440266 0.000000
-6.496367 34.440266 0.021412
-6.182544 34.440266 0.000357
-5.868721 34.440266 -0.001561
-5.554898 34.440266 -0.001522
-5.241075 34.440266 -0.001693
-4.927252 34.440266 -0.001805
-4.613429 34.440266 -0.001665
-4.299606 34.440266 -0.001429
-3.985783 34.440266 -0.001025
-3.671960 34.440266 -0.000062
-3.358137 34.440266 0.000987
-3.044314 34.440266 0.001666
-2.730491 34.440266 0.001585
-2.416668 34.440266 0.001284
-2.102845 34.440266 0.000717
-1.789022 34.440266 -0.000005
-1.475199 34.440266 -0.000459
-1.161376 34.440266 -0.000737
-0.847553 34.440266 -0.001088
-0.533730 34.440266 -0.001441
-0.219907 34.440266 -0.001550
0.093916 34.440266 -0.001095
0.407739 34.440266 -0.000328
0.721562 34.440266 0.000578
1.035385 34.440266 0.001345
1.349208 34.440266 0.001856
1.663032 34.440266 0.002327
1.976854 34.440266 0.002332
2.290677 34.440266 0.001817
2.604500 34.440266 0.001071
2.918324 34.440266 0.000049
3.232146 34.440266 -0.001358
3.545969 34.440266 -0.002749
3.859793 34.440266 -0.003455
4.173615 34.440266 -0.003203
4.487438 34.440266 -0.002366
4.801261 34.440266 -0.001439
5.115085 34.440266 -0.000262
5.428907 34.440266 0.001068
5.742730 34.440266 0.002380
6.056554 34.440266 0.002978
6.370377 34.440266 0.002730
6.684199 34.440266 0.001787
6.998022 34.440266 -0.000019
7.311846 34.440266 -0.002665
7.625669 34.440266 -0.005533
7.939491 34.440266 -0.007548
8.253315 34.440266 -0.009448
8.567138 34.440266 -0.010507
8.880960 34.440266 -0.009699
9.194784 34.440266 -0.008723
9.508606 34.440266 -0.010221
9.822430 34.440266 -0.016492
10.136253 34.440266 -0.023199
10.450075 34.440266 -0.032141
10.763899 34.440266 -0.029378
11.077723 34.440266 -0.050407
11.391544 34.440266 -0.076537
11.705368 34.440266 -0.091313
12.019190 34.440266 -0.102765
12.333014 34.440266 -0.118996
12.646837 34.440266 -0.125836
12.960659 34.440266 -0.110792
13.274483 34.440266 -0.115100
13.588306 34.440266 -0.133485
13.902128 34.440266 -0.128726
14.215952 34.440266 -0.137748
14.529776 34.440266 -0.122806
14.843597 34.440266 -0.123026
15.157421 34.440266 -0.115658
15.471243 34.440266 -0.083297
15.785067 34.440266 -0.077599
16.098890 34.440266 -0.088729
16.412712 34.440266 -0.086546
16.726536 34.440266 -0.062101
17.040359 34.440266 -0.052905
17.354181 34.440266 -0.046451
17.668005 34.440266 -0.035403
17.981829 34.440266 -0.034258
18.295650 34.440266 -0.021585
18.609474 34.440266 0.057520
18.923298 34.440266 0.127295
19.237120 34.440266 0.000000
-6.810190 34.126442 0.000000
-6.496367 34.126442 0.012153
-6.182544 34.126442 0.000263
-5.868721 34.126442 -0.001672
-5.554898 34.126442 -0.001655
-5.241075 34.126442 -0.001615
-4.927252 34.126442 -0.001499
-4.613429 34.126442 -0.001438
-4.299606 34.126442 -0.001383
-3.985783 34.126442 -0.000900
-3.671960 34.126442 0.000154
-3.358137 34.126442 0.001226
-3.044314 34.126442 0.001733
-2.730491 34.126442 0.001594
-2.416668 34.126442 0.001203
-2.102845 34.126442 0.000610
-1.789022 34.126442 -0.000149
-1.475199 34.126442 -0.000789
-1.161376 34.126442 -0.001207
-0.847553 34.126442 -0.001672
-0.533730 34.126442 -0.001759
-0.219907 34.126442 -0.001485
0.093916 34.126442 -0.000832
0.407739 34.126442 -0.000021
0.721562 34.126442 0.000930
1.035385 34.126442 0.001604
1.349208 34.126442 0.002066
1.663032 34.126442 0.002632
1.976854 34.126442 0.002522
2.290677 34.126442 0.001849
2.604500 34.126442 0.001003
2.918324 34.126442 -0.000085
3.232146 34.126442 -0.001659
3.545969 34.126442 -0.003243
3.859793 34.126442 -0.003894
4.173615 34.126442 -0.003341
4.487438 34.126442 -0.002349
4.801261 34.126442 -0.001251
5.115085 34.126442 0.000137
5.428907 34.126442 0.001489
5.742730 34.126442 0.002751
6.056554 34.126442 0.003247
6.370377 34.126442 0.002831
6.684199 34.126442 0.001574
6.998022 34.126442 -0.000740
7.311846 34.126442 -0.003565
7.625669 34.126442 -0.006142
7.939491 34.126442 -0.007969
8.253315 34.126442 -0.009210
8.567138 34.126442 -0.009372
8.880960 34.126442 -0.007920
9.194784 34.126442 -0.008927
9.508606 34.126442 -0.011655
9.822430 34.126442 -0.016798
10.136253 34.126442 -0.021302
10.450075 34.126442 -0.033185
10.763899 34.126442 -0.039339
11.077723 34.126442 -0.055698
11.391544 34.126442 -0.079212
11.705368 34.126442 -0.089292
12.019190 34.126442 -0.107960
12.333014 34.126442 -0.115728
12.646837 34.126442 -0.128352
12.960659 34.126442 -0.096668
13.274483 34.126442 -0.115668
13.588306 34.126442 -0.128273
13.902128 34.126442 -0.136655
14.215952 34.126442 -0.114447
14.529776 34.126442 -0.124800
14.843597 34.126442 -0.143535
15.157421 34.126442 -0.131851
15.471243 34.126442 -0.090147
15.785067 34.126442 -0.070030
16.098890 34.126442 -0.092297
16.412712 34.126442 -0.090887
16.726536 34.126442 -0.072274
17.040359 34.126442 -0.061926
17.354181 34.126442 -0.046221
17.668005 34.126442 -0.035161
17.981829 34.126442 -0.037325
18.295650 34.126442 -0.021544
18.609474 34.126442 0.048435
18.923298 34.126442 0.145628
19.237120 34.126442 0.000000
-6.810190 33.812622 0.000000
-6.496367 33.812622 0.007269
-6.182544 33.812622 0.000221
-5.868721 33.812622 -0.001753
-5.554898 33.812622 -0.001742
-5.241075 33.812622 -0.001563
-4.927252 33.812622 -0.001222
-4.613429 33.812622 -0.001176
-4.299606 33.812622 -0.001175
-3.985783 33.812622 -0.000677
-3.671960 33.812622 0.000378
-3.358137 33.812622 0.001409
-3.044314 33.812622 0.001828
-2.730491 33.812622 0.001676
-2.416668 33.812622 0.001249
-2.102845 33.812622 0.000605
-1.789022 33.812622 -0.000270
-1.475199 33.812622 -0.001135
-1.161376 33.812622 -0.001750
-0.847553 33.812622 -0.002271
-0.533730 33.812622 -0.002145
-0.219907 33.812622 -0.001533
0.093916 33.812622 -0.000703
0.407739 33.812622 0.000172
0.721562 33.812622 0.001106
1.035385 33.812622 0.001840
1.349208 33.812622 0.002298
1.663032 33.812622 0.002816
1.976854 33.812622 0.002585
2.290677 33.812622 0.001880
2.604500 33.812622 0.000804
2.918324 33.812622 -0.000375
3.232146 33.812622 -0.001948
3.545969 33.812622 -0.003573
3.859793 33.812622 -0.004108
4.173615 33.812622 -0.003277
4.487438 33.812622 -0.002190
4.801261 33.812622 -0.000885
5.115085 33.812622 0.000577
5.428907 33.812622 0.001948
5.742730 33.812622 0.003101
6.056554 33.812622 0.003409
6.370377 33.812622 0.002695
6.684199 33.812622 0.001105
6.998022 33.812622 -0.001602
7.311846 33.812622 -0.004565
7.625669 33.812622 -0.006957
7.939491 33.812622 -0.008419
8.253315 33.812622 -0.009009
8.567138 33.812622 -0.008669
8.880960 33.812622 -0.007362
9.194784 33.812622 -0.006762
9.508606 33.812622 -0.010861
9.822430 33.812622 -0.017771
10.136253 33.812622 -0.021585
10.450075 33.812622 -0.028252
10.763899 33.812622 -0.049021
11.077723 33.812622 -0.069128
11.391544 33.812622 -0.073902
11.705368 33.812622 -0.088898
12.019190 33.812622 -0.121341
12.333014 33.812622 -0.124185
12.646837 33.812622 -0.124092
12.960659 33.812622 -0.083305
13.274483 33.812622 -0.113937
13.588306 33.812622 -0.130992
13.902128 33.812622 -0.126114
14.215952 33.812622 -0.108417
14.529776 33.812622 -0.136635
14.843597 33.812622 -0.160080
15.157421 33.812622 -0.128347
15.471243 33.812622 -0.084641
15.785067 33.812622 -0.085757
16.098890 33.812622 -0.094729
16.412712 33.812622 -0.101886
16.726536 33.812622 -0.085233
17.040359 33.812622 -0.072271
17.354181 33.812622 -0.061315
17.668005 33.812622 -0.044587
17.981829 33.812622 -0.037823
18.295650 33.812622 -0.005807
18.609474 33.812622 0.043814
18.923298 33.812622 0.167618
19.237120 33.812622 0.000000
-6.810190 33.498795 0.000000
-6.496367 33.498795 0.006127
-6.182544 33.498795 0.000075
-5.868721 33.498795 -0.001853
-5.554898 33.498795 -0.001822
-5.241075 33.498795 -0.001480
-4.927252 33.498795 -0.001099
-4.613429 33.498795 -0.001126
-4.299606 33.498795 -0.001051
-3.985783 33.498795 -0.000578
-3.671960 33.498795 0.000495
-3.358137 33.498795 0.001527
-3.044314 33.498795 0.001946
-2.730491 33.498795 0.001838
-2.416668 33.498795 0.001390
-2.102845 33.498795 0.000620
-1.789022 33.498795 -0.000436
-1.475199 33.498795 -0.001502
-1.161376 33.498795 -0.002370
-0.847553 33.498795 -0.002877
-0.533730 33.498795 -0.002548
-0.219907 33.498795 -0.001738
0.093916 33.498795 -0.000744
0.407739 33.498795 0.000288
0.721562 33.498795 0.001273
1.035385 33.498795 0.002094
1.349208 33.498795 0.002570
1.663032 33.498795 0.002952
1.976854 33.498795 0.002636
2.290677 33.498795 0.001804
2.604500 33.498795 0.000468
2.918324 33.498795 -0.000880
3.232146 33.498795 -0.002371
3.545969 33.498795 -0.003814
3.859793 33.498795 -0.004143
4.173615 33.498795 -0.003113
4.487438 33.498795 -0.001815
4.801261 33.498795 -0.000349
5.115085 33.498795 0.001129
5.428907 33.498795 0.002327
5.742730 33.498795 0.003288
6.056554 33.498795 0.003322
6.370377 33.498795 0.002206
6.684199 33.498795 0.000197
6.998022 33.498795 -0.002594
7.311846 33.498795 -0.005613
7.625669 33.498795 -0.008093
7.939491 33.498795 -0.008916
8.253315 33.498795 -0.008698
8.567138 33.498795 -0.007367
8.880960 33.498795 -0.005764
9.194784 33.498795 -0.006693
9.508606 33.498795 -0.009688
9.822430 33.498795 -0.015942
10.136253 33.498795 -0.017993
10.450075 33.498795 -0.025976
10.763899 33.498795 -0.043051
11.077723 33.498795 -0.059135
11.391544 33.498795 -0.083676
11.705368 33.498795 -0.096863
12.019190 33.498795 -0.131181
12.333014 33.498795 -0.124395
12.646837 33.498795 -0.110662
12.960659 33.498795 -0.092831
13.274483 33.498795 -0.103901
13.588306 33.498795 -0.125417
13.902128 33.498795 -0.127317
14.215952 33.498795 -0.104502
14.529776 33.498795 -0.131857
14.843597 33.498795 -0.166925
15.157421 33.498795 -0.140685
15.471243 33.498795 -0.109275
15.785067 33.498795 -0.095775
16.098890 33.498795 -0.098933
16.412712 33.498795 -0.094798
16.726536 33.498795 -0.087732
17.040359 33.498795 -0.077002
17.354181 33.498795 -0.064073
17.668005 33.498795 -0.038386
17.981829 33.498795 -0.026754
18.295650 33.498795 -0.004966
18.609474 33.498795 0.066129
18.923298 33.498795 0.142116
19.237120 33.498795 0.000000
-6.810190 33.184975 0.000000
-6.496367 33.184975 0.004396
-6.182544 33.184975 -0.000106
-5.868721 33.184975 -0.002035
-5.554898 33.184975 -0.001980
-5.241075 33.184975 -0.001573
-4.927252 33.184975 -0.001157
-4.613429 33.184975 -0.001114
-4.299606 33.184975 -0.001041
-3.985783 33.184975 -0.000546
-3.671960 33.184975 0.000586
-3.358137 33.184975 0.001618
-3.044314 33.184975 0.001967
-2.730491 33.184975 0.001863
-2.416668 33.184975 0.001486
-2.102845 33.184975 0.000656
-1.789022 33.184975 -0.000587
-1.475199 33.184975 -0.001827
-1.161376 33.184975 -0.002776
-0.847553 33.184975 -0.003174
-0.533730 33.184975 -0.002794
-0.219907 33.184975 -0.001914
0.093916 33.184975 -0.000762
0.407739 33.184975 0.000451
0.721562 33.184975 0.001486
1.035385 33.184975 0.002268
1.349208 33.184975 0.002803
1.663032 33.184975 0.003064
1.976854 33.184975 0.002671
2.290677 33.184975 0.001509
2.604500 33.184975 -0.000121
2.918324 33.184975 -0.001644
3.232146 33.184975 -0.002930
3.545969 33.184975 -0.003886
3.859793 33.184975 -0.003899
4.173615 33.184975 -0.002720
4.487438 33.184975 -0.001270
4.801261 33.184975 0.000294
5.115085 33.184975 0.001670
5.428907 33.184975 0.002627
5.742730 33.184975 0.003317
6.056554 33.184975 0.002986
6.370377 33.184975 0.001385
6.684199 33.184975 -0.001042
6.998022 33.184975 -0.003772
7.311846 33.184975 -0.006580
7.625669 33.184975 -0.008551
7.939491 33.184975 -0.009264
8.253315 33.184975 -0.008789
8.567138 33.184975 -0.006968
8.880960 33.184975 -0.005182
9.194784 33.184975 -0.004141
9.508606 33.184975 -0.008011
9.822430 33.184975 -0.014615
10.136253 33.184975 -0.016768
10.450075 33.184975 -0.023267
10.763899 33.184975 -0.029368
11.077723 33.184975 -0.054088
11.391544 33.184975 -0.085653
11.705368 33.184975 -0.112386
12.019190 33.184975 -0.120224
12.333014 33.184975 -0.117401
12.646837 33.184975 -0.089282
12.960659 33.184975 -0.084156
13.274483 33.184975 -0.117932
13.588306 33.184975 -0.131889
13.902128 33.184975 -0.107907
14.215952 33.184975 -0.099526
14.529776 33.184975 -0.122808
14.843597 33.184975 -0.148795
15.157421 33.184975 -0.126573
15.471243 33.184975 -0.130388
15.785067 33.184975 -0.100786
16.098890 33.184975 -0.094075
16.412712 33.184975 -0.100810
16.726536 33.184975 -0.082698
17.040359 33.184975 -0.072504
17.354181 33.184975 -0.064443
17.668005 33.184975 -0.037158
17.981829 33.184975 -0.029706
18.295650 33.184975 -0.011401
18.609474 33.184975 0.065996
18.923298 33.184975 0.175367
19.237120 33.184975 0.000000
-6.810190 32.871151 0.000000
-6.496367 32.871151 0.003871
-6.182544 32.871151 -0.000247
-5.868721 32.871151 -0.002307
-5.554898 32.871151 -0.002280
-5.241075 32.871151 -0.001807
-4.927252 32.871151 -0.001343
-4.613429 32.871151 -0.001149
-4.299606 32.871151 -0.000828
-3.985783 32.871151 -0.000251
-3.671960 32.871151 0.000788
-3.358137 32.871151 0.001675
-3.044314 32.871151 0.001962
-2.730491 32.871151 0.001791
-2.416668 32.871151 0.001420
-2.102845 32.871151 0.000610
-1.789022 32.871151 -0.000749
-1.475199 32.871151 -0.002045
-1.161376 32.871151 -0.002880
-0.847553 32.871151 -0.003103
-0.533730 32.871151 -0.002686
-0.219907 32.871151 -0.001880
0.093916 32.871151 -0.000538
0.407739 32.871151 0.000779
0.721562 32.871151 0.001812
1.035385 32.871151 0.002544
1.349208 32.871151 0.002963
1.663032 32.871151 0.003049
1.976854 32.871151 0.002405
2.290677 32.871151 0.000898
2.604500 32.871151 -0.001002
2.918324 32.871151 -0.002573
3.232146 32.871151 -0.003488
3.545969 32.871151 -0.003781
3.859793 32.871151 -0.003389
4.173615 32.871151 -0.002085
4.487438 32.871151 -0.000552
4.801261 32.871151 0.001009
5.115085 32.871151 0.002160
5.428907 32.871151 0.002839
5.742730 32.871151 0.003084
6.056554 32.871151 0.002314
6.370377 32.871151 0.000416
6.684199 32.871151 -0.002162
6.998022 32.871151 -0.004778
7.311846 32.871151 -0.007126
7.625669 32.871151 -0.008980
7.939491 32.871151 -0.009283
8.253315 32.871151 -0.008368
8.567138 32.871151 -0.006089
8.880960 32.871151 -0.003834
9.194784 32.871151 -0.003434
9.508606 32.871151 -0.009264
9.822430 32.871151 -0.021434
10.136253 32.871151 -0.022061
10.450075 32.871151 -0.025682
10.763899 32.871151 -0.036835
11.077723 32.871151 -0.058727
11.391544 32.871151 -0.082284
11.705368 32.871151 -0.111322
12.019190 32.871151 -0.127282
12.333014 32.871151 -0.114753
12.646837 32.871151 -0.086026
12.960659 32.871151 -0.106655
13.274483 32.871151 -0.117890
13.588306 32.871151 -0.131271
13.902128 32.871151 -0.110999
14.215952 32.871151 -0.082822
14.529776 32.871151 -0.115928
14.843597 32.871151 -0.122891
15.157421 32.871151 -0.121240
15.471243 32.871151 -0.131272
15.785067 32.871151 -0.128092
16.098890 32.871151 -0.114248
16.412712 32.871151 -0.103531
16.726536 32.871151 -0.086411
17.040359 32.871151 -0.077220
17.354181 32.871151 -0.059828
17.668005 32.871151 -0.046362
17.981829 32.871151 -0.041311
18.295650 32.871151 -0.011578
18.609474 32.871151 0.083465
18.923298 32.871151 0.160482
19.237120 32.871151 0.000000
-6.810190 32.557327 0.000000
-6.496367 32.557327 0.003459
-6.182544 32.557327 -0.000543
-5.868721 32.557327 -0.002850
-5.554898 32.557327 -0.002634
-5.241075 32.557327 -0.002099
-4.927252 32.557327 -0.001503
-4.613429 32.557327 -0.000922
-4.299606 32.557327 -0.000185
-3.985783 32.557327 0.000511
-3.671960 32.557327 0.001231
-3.358137 32.557327 0.001746
-3.044314 32.557327 0.001819
-2.730491 32.557327 0.001575
-2.416668 32.557327 0.001066
-2.102845 32.557327 0.000217
-1.789022 32.557327 -0.001026
-1.475199 32.557327 -0.002169
-1.161376 32.557327 -0.002793
-0.847553 32.557327 -0.002883
-0.533730 32.557327 -0.002459
-0.219907 32.557327 -0.001529
0.093916 32.557327 0.000004
0.407739 32.557327 0.001286
0.721562 32.557327 0.002249
1.035385 32.557327 0.002861
1.349208 32.557327 0.003028
1.663032 32.557327 0.002865
1.976854 32.557327 0.001894
2.290677 32.557327 -0.000049
2.604500 32.557327 -0.002015
2.918324 32.557327 -0.003508
3.232146 32.557327 -0.003957
3.545969 32.557327 -0.003517
3.859793 32.557327 -0.002690
4.173615 32.557327 -0.001306
4.487438 32.557327 0.000375
4.801261 32.557327 0.001830
5.115085 32.557327 0.002683
5.428907 32.557327 0.002881
5.742730 32.557327 0.002608
6.056554 32.557327 0.001367
6.370377 32.557327 -0.000583
6.684199 32.557327 -0.003144
6.998022 32.557327 -0.005649
7.311846 32.557327 -0.007575
7.625669 32.557327 -0.008874
7.939491 32.557327 -0.008818
8.253315 32.557327 -0.007045
8.567138 32.557327 -0.004540
8.880960 32.557327 -0.002617
9.194784 32.557327 -0.004536
9.508606 32.557327 -0.011941
9.822430 32.557327 -0.019304
10.136253 32.557327 -0.021469
10.450075 32.557327 -0.022039
10.763899 32.557327 -0.039022
11.077723 32.557327 -0.062028
11.391544 32.557327 -0.079611
11.705368 32.557327 -0.109933
12.019190 32.557327 -0.120691
12.333014 32.557327 -0.125140
12.646837 32.557327 -0.099154
12.960659 32.557327 -0.116740
13.274483 32.557327 -0.125822
13.588306 32.557327 -0.137775
13.902128 32.557327 -0.109483
14.215952 32.557327 -0.090619
14.529776 32.557327 -0.095041
14.843597 32.557327 -0.119790
15.157421 32.557327 -0.116612
15.471243 32.557327 -0.134766
15.785067 32.557327 -0.128757
16.098890 32.557327 -0.125396
16.412712 32.557327 -0.112136
16.726536 32.557327 -0.103455
17.040359 32.557327 -0.080890
17.354181 32.557327 -0.059089
17.668005 32.557327 -0.046688
17.981829 32.557327 -0.058971
18.295650 32.557327 -0.020118
18.609474 32.557327 0.072030
18.923298 32.557327 0.176437
19.237120 32.557327 0.000000
-6.810190 32.243507 0.000000
-6.496367 32.243507 0.003252
-6.182544 32.243507 -0.000930
-5.868721 32.243507 -0.003242
-5.554898 32.243507 -0.003009
-5.241075 32.243507 -0.002315
-4.927252 32.243507 -0.001553
-4.613429 32.243507 -0.000498
-4.299606 32.243507 0.000603
-3.985783 32.243507 0.001355
-3.671960 32.243507 0.001653
-3.358137 32.243507 0.001764
-3.044314 32.243507 0.001591
-2.730491 32.243507 0.001193
-2.416668 32.243507 0.000559
-2.102845 32.243507 -0.000333
-1.789022 32.243507 -0.001477
-1.475199 32.243507 -0.002433
-1.161376 32.243507 -0.002738
-0.847553 32.243507 -0.002560
-0.533730 32.243507 -0.001956
-0.219907 32.243507 -0.000802
0.093916 32.243507 0.000715
0.407739 32.243507 0.001907
0.721562 32.243507 0.002682
1.035385 32.243507 0.003116
1.349208 32.243507 0.003010
1.663032 32.243507 0.002511
1.976854 32.243507 0.001141
2.290677 32.243507 -0.001084
2.604500 32.243507 -0.003007
2.918324 32.243507 -0.004179
3.232146 32.243507 -0.004171
3.545969 32.243507 -0.003178
3.859793 32.243507 -0.001887
4.173615 32.243507 -0.000363
4.487438 32.243507 0.001339
4.801261 32.243507 0.002704
5.115085 32.243507 0.003190
5.428907 32.243507 0.002929
5.742730 32.243507 0.002073
6.056554 32.243507 0.000444
6.370377 32.243507 -0.001600
6.684199 32.243507 -0.003976
6.998022 32.243507 -0.006233
7.311846 32.243507 -0.007731
7.625669 32.243507 -0.008332
7.939491 32.243507 -0.007434
8.253315 32.243507 -0.005351
8.567138 32.243507 -0.002501
8.880960 32.243507 -0.002280
9.194784 32.243507 -0.005487
9.508606 32.243507 -0.013433
9.822430 32.243507 -0.019021
10.136253 32.243507 -0.025873
10.450075 32.243507 -0.027750
10.763899 32.243507 -0.039219
11.077723 32.243507 -0.065640
11.391544 32.243507 -0.084873
11.705368 32.243507 -0.105647
12.019190 32.243507 -0.111765
12.333014 32.243507 -0.114275
12.646837 32.243507 -0.112011
12.960659 32.243507 -0.126110
13.274483 32.243507 -0.126791
13.588306 32.243507 -0.147738
13.902128 32.243507 -0.126852
14.215952 32.243507 -0.111387
14.529776 32.243507 -0.102343
14.843597 32.243507 -0.094730
15.157421 32.243507 -0.099070
15.471243 32.243507 -0.115946
15.785067 32.243507 -0.133372
16.098890 32.243507 -0.129209
16.412712 32.243507 -0.104197
16.726536 32.243507 -0.104549
17.040359 32.243507 -0.082621
17.354181 32.243507 -0.074353
17.668005 32.243507 -0.069649
17.981829 32.243507 -0.067721
18.295650 32.243507 -0.034002
18.609474 32.243507 0.056655
18.923298 32.243507 0.186473
19.237120 32.243507 0.000000
-6.810190 31.929682 0.000000
-6.496367 31.929682 0.003012
-6.182544 31.929682 -0.001288
-5.868721 31.929682 -0.003478
-5.554898 31.929682 -0.003203
-5.241075 31.929682 -0.002376
-4.927252 31.929682 -0.001390
-4.613429 31.929682 0.000063
-4.299606 31.929682 0.001426
-3.985783 31.929682 0.002067
-3.671960 31.929682 0.002042
-3.358137 31.929682 0.001856
-3.044314 31.929682 0.001429
-2.730491 31.929682 0.000803
-2.416668 31.929682 0.000078
-2.102845 31.929682 -0.000932
-1.789022 31.929682 -0.002066
-1.475199 31.929682 -0.002871
-1.161376 31.929682 -0.002660
-0.847553 31.929682 -0.002161
-0.533730 31.929682 -0.001184
-0.219907 31.929682 0.000092
0.093916 31.929682 0.001436
0.407739 31.929682 0.002439
0.721562 31.929682 0.002985
1.035385 31.929682 0.003177
1.349208 31.929682 0.002879
1.663032 31.929682 0.001978
1.976854 31.929682 0.000175
2.290677 31.929682 -0.002100
2.604500 31.929682 -0.003727
2.918324 31.929682 -0.004579
3.232146 31.929682 -0.004172
3.545969 31.929682 -0.002690
3.859793 31.929682 -0.001027
4.173615 31.929682 0.000643
4.487438 31.929682 0.002232
4.801261 31.929682 0.003379
5.115085 31.929682 0.003581
5.428907 31.929682 0.002895
5.742730 31.929682 0.001562
6.056554 31.929682 -0.000435
6.370377 31.929682 -0.002594
6.684199 31.929682 -0.004828
6.998022 31.929682 -0.006608
7.311846 31.929682 -0.007512
7.625669 31.929682 -0.007251
7.939491 31.929682 -0.005715
8.253315 31.929682 -0.003471
8.567138 31.929682 -0.001276
8.880960 31.929682 -0.001865
9.194784 31.929682 -0.004717
9.508606 31.929682 -0.013043
9.822430 31.929682 -0.021745
10.136253 31.929682 -0.024505
10.450075 31.929682 -0.026818
10.763899 31.929682 -0.039152
11.077723 31.929682 -0.063343
11.391544 31.929682 -0.081108
11.705368 31.929682 -0.093653
12.019190 31.929682 -0.104403
12.333014 31.929682 -0.104037
12.646837 31.929682 -0.109125
12.960659 31.929682 -0.107883
13.274483 31.929682 -0.117654
13.588306 31.929682 -0.137965
13.902128 31.929682 -0.136955
14.215952 31.929682 -0.130970
14.529776 31.929682 -0.118336
14.843597 31.929682 -0.091842
15.157421 31.929682 -0.096399
15.471243 31.929682 -0.099323
15.785067 31.929682 -0.118079
16.098890 31.929682 -0.111892
16.412712 31.929682 -0.114082
16.726536 31.929682 -0.091943
17.040359 31.929682 -0.087747
17.354181 31.929682 -0.065421
17.668005 31.929682 -0.074329
17.981829 31.929682 -0.070840
18.295650 31.929682 -0.043803
18.609474 31.929682 0.080798
18.923298 31.929682 0.191476
19.237120 31.929682 0.000000
-6.810190 31.615858 0.000000
-6.496367 31.615858 0.002248
-6.182544 31.615858 -0.001922
-5.868721 31.615858 -0.003586
-5.554898 31.615858 -0.003169
-5.241075 31.615858 -0.002215
-4.927252 31.615858 -0.000918
-4.613429 31.615858 0.000787
-4.299606 31.615858 0.002187
-3.985783 31.615858 0.002614
-3.671960 31.615858 0.002422
-3.358137 31.615858 0.001966
-3.044314 31.615858 0.001349
-2.730491 31.615858 0.000482
-2.416668 31.615858 -0.000425
-2.102845 31.615858 -0.001589
-1.789022 31.615858 -0.002731
-1.475199 31.615858 -0.003218
-1.161376 31.615858 -0.002540
-0.847553 31.615858 -0.001615
-0.533730 31.615858 -0.000414
-0.219907 31.615858 0.000895
0.093916 31.615858 0.002068
0.407739 31.615858 0.002867
0.721562 31.615858 0.003162
1.035385 31.615858 0.003046
1.349208 31.615858 0.002526
1.663032 31.615858 0.001282
1.976854 31.615858 -0.000769
2.290677 31.615858 -0.002903
2.604500 31.615858 -0.004206
2.918324 31.615858 -0.004557
3.232146 31.615858 -0.003789
3.545969 31.615858 -0.002038
3.859793 31.615858 -0.000045
4.173615 31.615858 0.001685
4.487438 31.615858 0.003034
4.801261 31.615858 0.003824
5.115085 31.615858 0.003658
5.428907 31.615858 0.002603
5.742730 31.615858 0.000870
6.056554 31.615858 -0.001370
6.370377 31.615858 -0.003656
6.684199 31.615858 -0.005566
6.998022 31.615858 -0.006720
7.311846 31.615858 -0.006862
7.625669 31.615858 -0.005574
7.939491 31.615858 -0.003537
8.253315 31.615858 -0.001414
8.567138 31.615858 -0.000690
8.880960 31.615858 -0.001931
9.194784 31.615858 -0.005578
9.508606 31.615858 -0.014879
9.822430 31.615858 -0.024713
10.136253 31.615858 -0.026632
10.450075 31.615858 -0.029257
10.763899 31.615858 -0.040800
11.077723 31.615858 -0.065755
11.391544 31.615858 -0.088601
11.705368 31.615858 -0.091570
12.019190 31.615858 -0.098825
12.333014 31.615858 -0.108861
12.646837 31.615858 -0.117434
12.960659 31.615858 -0.094953
13.274483 31.615858 -0.087891
13.588306 31.615858 -0.123175
13.902128 31.615858 -0.134386
14.215952 31.615858 -0.144622
14.529776 31.615858 -0.119887
14.843597 31.615858 -0.088220
15.157421 31.615858 -0.083053
15.471243 31.615858 -0.100050
15.785067 31.615858 -0.121179
16.098890 31.615858 -0.105679
16.412712 31.615858 -0.092306
16.726536 31.615858 -0.086645
17.040359 31.615858 -0.076312
17.354181 31.615858 -0.051461
17.668005 31.615858 -0.071430
17.981829 31.615858 -0.080317
18.295650 31.615858 -0.062926
18.609474 31.615858 0.053869
18.923298 31.615858 0.176322
19.237120 31.615858 0.000000
-6.810190 31.302036 0.000000
-6.496367 31.302036 0.000840
-6.182544 31.302036 -0.002542
-5.868721 31.302036 -0.003549
-5.554898 31.302036 -0.002918
-5.241075 31.302036 -0.001813
-4.927252 31.302036 -0.000283
-4.613429 31.302036 0.001535
-4.299606 31.302036 0.002753
-3.985783 31.302036 0.003015
-3.671960 31.302036 0.002683
-3.358137 31.302036 0.001908
-3.044314 31.302036 0.001049
-2.730491 31.302036 -0.000021
-2.416668 31.302036 -0.001057
-2.102845 31.302036 -0.002267
-1.789022 31.302036 -0.003273
-1.475199 31.302036 -0.003275
-1.161376 31.302036 -0.002245
-0.847553 31.302036 -0.001022
-0.533730 31.302036 0.000388
-0.219907 31.302036 0.001575
0.093916 31.302036 0.002567
0.407739 31.302036 0.003174
0.721562 31.302036 0.003199
1.035385 31.302036 0.002648
1.349208 31.302036 0.001899
1.663032 31.302036 0.000431
1.976854 31.302036 -0.001696
2.290677 31.302036 -0.003517
2.604500 31.302036 -0.004249
2.918324 31.302036 -0.004107
3.232146 31.302036 -0.002985
3.545969 31.302036 -0.001192
3.859793 31.302036 0.000864
4.173615 31.302036 0.002559
4.487438 31.302036 0.003603
4.801261 31.302036 0.003929
5.115085 31.302036 0.003393
5.428907 31.302036 0.001922
5.742730 31.302036 0.000008
6.056554 31.302036 -0.002359
6.370377 31.302036 -0.004596
6.684199 31.302036 -0.005936
6.998022 31.302036 -0.006298
7.311846 31.302036 -0.005405
7.625669 31.302036 -0.003716
7.939491 31.302036 -0.001714
8.253315 31.302036 0.000163
8.567138 31.302036 -0.000113
8.880960 31.302036 -0.000843
9.194784 31.302036 -0.005905
9.508606 31.302036 -0.016168
9.822430 31.302036 -0.024969
10.136253 31.302036 -0.027537
10.450075 31.302036 -0.038634
10.763899 31.302036 -0.046527
11.077723 31.302036 -0.064059
11.391544 31.302036 -0.085347
11.705368 31.302036 -0.081126
12.019190 31.302036 -0.084749
12.333014 31.302036 -0.103930
12.646837 31.302036 -0.124069
12.960659 31.302036 -0.093730
13.274483 31.302036 -0.085553
13.588306 31.302036 -0.124429
13.902128 31.302036 -0.140375
14.215952 31.302036 -0.133837
14.529776 31.302036 -0.135482
14.843597 31.302036 -0.093976
15.157421 31.302036 -0.078670
15.471243 31.302036 -0.103018
15.785067 31.302036 -0.111755
16.098890 31.302036 -0.118334
16.412712 31.302036 -0.094453
16.726536 31.302036 -0.087431
17.040359 31.302036 -0.067392
17.354181 31.302036 -0.043771
17.668005 31.302036 -0.062269
17.981829 31.302036 -0.086852
18.295650 31.302036 -0.060609
18.609474 31.302036 0.041229
18.923298 31.302036 0.166654
19.237120 31.302036 0.000000
-6.810190 30.988213 0.000000
-6.496367 30.988213 -0.000218
-6.182544 30.988213 -0.002774
-5.868721 30.988213 -0.003139
-5.554898 30.988213 -0.002254
-5.241075 30.988213 -0.001176
-4.927252 30.988213 0.000484
-4.613429 30.988213 0.002202
-4.299606 30.988213 0.003241
-3.985783 30.988213 0.003220
-3.671960 30.988213 0.002687
-3.358137 30.988213 0.001686
-3.044314 30.988213 0.000551
-2.730491 30.988213 -0.000727
-2.416668 30.988213 -0.001870
-2.102845 30.988213 -0.002888
-1.789022 30.988213 -0.003507
-1.475199 30.988213 -0.002961
-1.161376 30.988213 -0.001713
-0.847553 30.988213 -0.000244
-0.533730 30.988213 0.001188
-0.219907 30.988213 0.002257
0.093916 30.988213 0.002962
0.407739 30.988213 0.003359
0.721562 30.988213 0.003091
1.035385 30.988213 0.002099
1.349208 30.988213 0.001068
1.663032 30.988213 -0.000531
1.976854 30.988213 -0.002403
2.290677 30.988213 -0.003773
2.604500 30.988213 -0.003980
2.918324 30.988213 -0.003305
3.232146 30.988213 -0.001967
3.545969 30.988213 -0.000173
3.859793 30.988213 0.001749
4.173615 30.988213 0.003150
4.487438 30.988213 0.003725
4.801261 30.988213 0.003485
5.115085 30.988213 0.002491
5.428907 30.988213 0.000830
5.742730 30.988213 -0.001160
6.056554 30.988213 -0.003419
6.370377 30.988213 -0.005217
6.684199 30.988213 -0.005929
6.998022 30.988213 -0.005491
7.311846 30.988213 -0.003954
7.625669 30.988213 -0.002003
7.939491 30.988213 -0.000026
8.253315 30.988213 0.001155
8.567138 30.988213 -0.000196
8.880960 30.988213 -0.001722
9.194784 30.988213 -0.008390
9.508606 30.988213 -0.013298
9.822430 30.988213 -0.021621
10.136253 30.988213 -0.025175
10.450075 30.988213 -0.032474
10.763899 30.988213 -0.037017
11.077723 30.988213 -0.059620
11.391544 30.988213 -0.077265
11.705368 30.988213 -0.084623
12.019190 30.988213 -0.087784
12.333014 30.988213 -0.106627
12.646837 30.988213 -0.137147
12.960659 30.988213 -0.106982
13.274483 30.988213 -0.090502
13.588306 30.988213 -0.112746
13.902128 30.988213 -0.137973
14.215952 30.988213 -0.138451
14.529776 30.988213 -0.135610
14.843597 30.988213 -0.109018
15.157421 30.988213 -0.079153
15.471243 30.988213 -0.109956
15.785067 30.988213 -0.122677
16.098890 30.988213 -0.119074
16.412712 30.988213 -0.107760
16.726536 30.988213 -0.088689
17.040359 30.988213 -0.051912
17.354181 30.988213 -0.045166
17.668005 30.988213 -0.065246
17.981829 30.988213 -0.067326
18.295650 30.988213 -0.022244
18.609474 30.988213 0.077721
18.923298 30.988213 0.153939
19.237120 30.988213 0.000000
-6.810190 30.674389 0.000000
-6.496367 30.674389 -0.000836
-6.182544 30.674389 -0.002611
-5.868721 30.674389 -0.002421
-5.554898 30.674389 -0.001378
-5.241075 30.674389 -0.000309
-4.927252 30.674389 0.001378
-4.613429 30.674389 0.002932
-4.299606 30.674389 0.003641
-3.985783 30.674389 0.003357
-3.671960 30.674389 0.002418
-3.358137 30.674389 0.001192
-3.044314 30.674389 -0.000015
-2.730491 30.674389 -0.001425
-2.416668 30.674389 -0.002634
-2.102845 30.674389 -0.003363
-1.789022 30.674389 -0.003371
-1.475199 30.674389 -0.002334
-1.161376 30.674389 -0.000924
-0.847553 30.674389 0.000584
-0.533730 30.674389 0.001977
-0.219907 30.674389 0.002843
0.093916 30.674389 0.003316
0.407739 30.674389 0.003436
0.721562 30.674389 0.002789
1.035385 30.674389 0.001408
1.349208 30.674389 0.000027
1.663032 30.674389 -0.001492
1.976854 30.674389 -0.002871
2.290677 30.674389 -0.003671
2.604500 30.674389 -0.003319
2.918324 30.674389 -0.002175
3.232146 30.674389 -0.000729
3.545969 30.674389 0.000965
3.859793 30.674389 0.002518
4.173615 30.674389 0.003398
4.487438 30.674389 0.003393
4.801261 30.674389 0.002547
5.115085 30.674389 0.001089
5.428907 30.674389 -0.000650
5.742730 30.674389 -0.002460
6.056554 30.674389 -0.004174
6.370377 30.674389 -0.005202
6.684199 30.674389 -0.005209
6.998022 30.674389 -0.004207
7.311846 30.674389 -0.002389
7.625669 30.674389 -0.000338
7.939491 30.674389 0.001476
8.253315 30.674389 0.001272
8.567138 30.674389 -0.000514
8.880960 30.674389 -0.002785
9.194784 30.674389 -0.007420
9.508606 30.674389 -0.012631
9.822430 30.674389 -0.018635
10.136253 30.674389 -0.019866
10.450075 30.674389 -0.030443
10.763899 30.674389 -0.042406
11.077723 30.674389 -0.057844
11.391544 30.674389 -0.067473
11.705368 30.674389 -0.080570
12.019190 30.674389 -0.083578
12.333014 30.674389 -0.122557
12.646837 30.674389 -0.142040
12.960659 30.674389 -0.120559
13.274483 30.674389 -0.102811
13.588306 30.674389 -0.112551
13.902128 30.674389 -0.134317
14.215952 30.674389 -0.159890
14.529776 30.674389 -0.146136
14.843597 30.674389 -0.121955
15.157421 30.674389 -0.090106
15.471243 30.674389 -0.116365
15.785067 30.674389 -0.131418
16.098890 30.674389 -0.134679
16.412712 30.674389 -0.121631
16.726536 30.674389 -0.087674
17.040359 30.674389 -0.061693
17.354181 30.674389 -0.058331
17.668005 30.674389 -0.077559
17.981829 30.674389 -0.064280
18.295650 30.674389 -0.015486
18.609474 30.674389 0.069438
18.923298 30.674389 0.183333
19.237120 30.674389 0.000000
-6.810190 30.360567 0.000000
-6.496367 30.360567 -0.000911
-6.182544 30.360567 -0.002098
-5.868721 30.360567 -0.001557
-5.554898 30.360567 -0.000273
-5.241075 30.360567 0.000820
-4.927252 30.360567 0.002282
-4.613429 30.360567 0.003445
-4.299606 30.360567 0.003729
-3.985783 30.360567 0.003119
-3.671960 30.360567 0.001844
-3.358137 30.360567 0.000464
-3.044314 30.360567 -0.000734
-2.730491 30.360567 -0.002116
-2.416668 30.360567 -0.003252
-2.102845 30.360567 -0.003546
-1.789022 30.360567 -0.002923
-1.475199 30.360567 -0.001546
-1.161376 30.360567 -0.000007
-0.847553 30.360567 0.001424
-0.533730 30.360567 0.002658
-0.219907 30.360567 0.003301
0.093916 30.360567 0.003434
0.407739 30.360567 0.003232
0.721562 30.360567 0.002264
1.035385 30.360567 0.000514
1.349208 30.360567 -0.001132
1.663032 30.360567 -0.002439
1.976854 30.360567 -0.003173
2.290677 30.360567 -0.003267
2.604500 30.360567 -0.002321
2.918324 30.360567 -0.000774
3.232146 30.360567 0.000645
3.545969 30.360567 0.001972
3.859793 30.360567 0.002981
4.173615 30.360567 0.003229
4.487438 30.360567 0.002620
4.801261 30.360567 0.001208
5.115085 30.360567 -0.000622
5.428907 30.360567 -0.002252
5.742730 30.360567 -0.003569
6.056554 30.360567 -0.004454
6.370377 30.360567 -0.004673
6.684199 30.360567 -0.004079
6.998022 30.360567 -0.002838
7.311846 30.360567 -0.000837
7.625669 30.360567 0.000906
7.939491 30.360567 0.001529
8.253315 30.360567 0.000386
8.567138 30.360567 -0.001973
8.880960 30.360567 -0.004048
9.194784 30.360567 -0.008137
9.508606 30.360567 -0.015092
9.822430 30.360567 -0.021600
10.136253 30.360567 -0.018781
10.450075 30.360567 -0.029153
10.763899 30.360567 -0.040368
11.077723 30.360567 -0.054644
11.391544 30.360567 -0.075326
11.705368 30.360567 -0.083399
12.019190 30.360567 -0.099077
12.333014 30.360567 -0.122581
12.646837 30.360567 -0.137923
12.960659 30.360567 -0.116472
13.274483 30.360567 -0.109791
13.588306 30.360567 -0.123952
13.902128 30.360567 -0.146132
14.215952 30.360567 -0.167204
14.529776 30.360567 -0.135015
14.843597 30.360567 -0.117252
15.157421 30.360567 -0.091779
15.471243 30.360567 -0.107038
15.785067 30.360567 -0.124821
16.098890 30.360567 -0.132232
16.412712 30.360567 -0.116497
16.726536 30.360567 -0.082074
17.040359 30.360567 -0.053465
17.354181 30.360567 -0.067658
17.668005 30.360567 -0.084872
17.981829 30.360567 -0.064458
18.295650 30.360567 -0.011376
18.609474 30.360567 0.092132
18.923298 30.360567 0.196130
19.237120 30.360567 0.000000
-6.810190 30.046743 0.000000
-6.496367 30.046743 -0.000660
-6.182544 30.046743 -0.001298
-5.868721 30.046743 -0.000508
-5.554898 30.046743 0.000934
-5.241075 30.046743 0.001958
-4.927252 30.046743 0.002967
-4.613429 30.046743 0.003515
-4.299606 30.046743 0.003369
-3.985783 30.046743 0.002517
-3.671960 30.046743 0.001050
-3.358137 30.046743 -0.000499
-3.044314 30.046743 -0.001653
-2.730491 30.046743 -0.002831
-2.416668 30.046743 -0.003453
-2.102845 30.046743 -0.003180
-1.789022 30.046743 -0.002142
-1.475199 30.046743 -0.000605
-1.161376 30.046743 0.000905
-0.847553 30.046743 0.002184
-0.533730 30.046743 0.003162
-0.219907 30.046743 0.003500
0.093916 30.046743 0.003202
0.407739 30.046743 0.002573
0.721562 30.046743 0.001222
1.035385 30.046743 -0.000644
1.349208 30.046743 -0.002240
1.663032 30.046743 -0.003139
1.976854 30.046743 -0.003197
2.290677 30.046743 -0.002587
2.604500 30.046743 -0.001099
2.918324 30.046743 0.000656
3.232146 30.046743 0.001863
3.545969 30.046743 0.002678
3.859793 30.046743 0.002936
4.173615 30.046743 0.002638
4.487438 30.046743 0.001604
4.801261 30.046743 -0.000250
5.115085 30.046743 -0.002234
5.428907 30.046743 -0.003539
5.742730 30.046743 -0.004110
6.056554 30.046743 -0.004254
6.370377 30.046743 -0.003799
6.684199 30.046743 -0.002734
6.998022 30.046743 -0.001527
7.311846 30.046743 0.000293
7.625669 30.046743 0.001317
7.939491 30.046743 0.000752
8.253315 30.046743 -0.000827
8.567138 30.046743 -0.002572
8.880960 30.046743 -0.005298
9.194784 30.046743 -0.009785
9.508606 30.046743 -0.014523
9.822430 30.046743 -0.021400
10.136253 30.046743 -0.019401
10.450075 30.046743 -0.026295
10.763899 30.046743 -0.034646
11.077723 30.046743 -0.057970
11.391544 30.046743 -0.074329
11.705368 30.046743 -0.092205
12.019190 30.046743 -0.104570
12.333014 30.046743 -0.115222
12.646837 30.046743 -0.128950
12.960659 30.046743 -0.122121
13.274483 30.046743 -0.112337
13.588306 30.046743 -0.125001
13.902128 30.046743 -0.144515
14.215952 30.046743 -0.150941
14.529776 30.046743 -0.139862
14.843597 30.046743 -0.099911
15.157421 30.046743 -0.109157
15.471243 30.046743 -0.097305
15.785067 30.046743 -0.113421
16.098890 30.046743 -0.118131
16.412712 30.046743 -0.107267
16.726536 30.046743 -0.078025
17.040359 30.046743 -0.049332
17.354181 30.046743 -0.067983
17.668005 30.046743 -0.085014
17.981829 30.046743 -0.066302
18.295650 30.046743 -0.013907
18.609474 30.046743 0.106958
18.923298 30.046743 0.210946
19.237120 30.046743 0.000000
-6.810190 29.732922 0.000000
-6.496367 29.732922 0.000004
-6.182544 29.732922 -0.000338
-5.868721 29.732922 0.000687
-5.554898 29.732922 0.002076
-5.241075 29.732922 0.002940
-4.927252 29.732922 0.003351
-4.613429 29.732922 0.003247
-4.299606 29.732922 0.002689
-3.985783 29.732922 0.001526
-3.671960 29.732922 0.000034
-3.358137 29.732922 -0.001487
-3.044314 29.732922 -0.002609
-2.730491 29.732922 -0.003280
-2.416668 29.732922 -0.003113
-2.102845 29.732922 -0.002239
-1.789022 29.732922 -0.001067
-1.475199 29.732922 0.000376
-1.161376 29.732922 0.001736
-0.847553 29.732922 0.002758
-0.533730 29.732922 0.003405
-0.219907 29.732922 0.003284
0.093916 29.732922 0.002635
0.407739 29.732922 0.001598
0.721562 29.732922 -0.000112
1.035385 29.732922 -0.001811
1.349208 29.732922 -0.003031
1.663032 29.732922 -0.003347
1.976854 29.732922 -0.002788
2.290677 29.732922 -0.001662
2.604500 29.732922 0.000088
2.918324 29.732922 0.001914
3.232146 29.732922 0.002850
3.545969 29.732922 0.002979
3.859793 29.732922 0.002496
4.173615 29.732922 0.001765
4.487438 29.732922 0.000415
4.801261 29.732922 -0.001522
5.115085 29.732922 -0.003389
5.428907 29.732922 -0.004204
5.742730 29.732922 -0.004046
6.056554 29.732922 -0.003625
6.370377 29.732922 -0.002676
6.684199 29.732922 -0.001558
6.998022 29.732922 -0.000542
7.311846 29.732922 0.000578
7.625669 29.732922 0.000995
7.939491 29.732922 -0.000572
8.253315 29.732922 -0.002797
8.567138 29.732922 -0.004780
8.880960 29.732922 -0.004598
9.194784 29.732922 -0.006211
9.508606 29.732922 -0.012802
9.822430 29.732922 -0.019577
10.136253 29.732922 -0.022630
10.450075 29.732922 -0.025490
10.763899 29.732922 -0.043556
11.077723 29.732922 -0.055108
11.391544 29.732922 -0.073851
11.705368 29.732922 -0.094219
12.019190 29.732922 -0.095052
12.333014 29.732922 -0.119309
12.646837 29.732922 -0.119921
12.960659 29.732922 -0.118774
13.274483 29.732922 -0.133860
13.588306 29.732922 -0.144388
13.902128 29.732922 -0.163486
14.215952 29.732922 -0.142618
14.529776 29.732922 -0.116142
14.843597 29.732922 -0.099910
15.157421 29.732922 -0.094096
15.471243 29.732922 -0.095828
15.785067 29.732922 -0.098455
16.098890 29.732922 -0.095048
16.412712 29.732922 -0.084175
16.726536 29.732922 -0.067518
17.040359 29.732922 -0.052364
17.354181 29.732922 -0.048929
17.668005 29.732922 -0.072710
17.981829 29.732922 -0.064728
18.295650 29.732922 -0.023394
18.609474 29.732922 0.105122
18.923298 29.732922 0.231229
19.237120 29.732922 0.000000
-6.810190 29.419098 0.000000
-6.496367 29.419098 0.001058
-6.182544 29.419098 0.000766
-5.868721 29.419098 0.001603
-5.554898 29.419098 0.002861
-5.241075 29.419098 0.003558
-4.927252 29.419098 0.003411
-4.613429 29.419098 0.002738
-4.299606 29.419098 0.001708
-3.985783 29.419098 0.000262
-3.671960 29.419098 -0.001107
-3.358137 29.419098 -0.002503
-3.044314 29.419098 -0.003290
-2.730491 29.419098 -0.003223
-2.416668 29.419098 -0.002337
-2.102845 29.419098 -0.000997
-1.789022 29.419098 0.000133
-1.475199 29.419098 0.001319
-1.161376 29.419098 0.002496
-0.847553 29.419098 0.003216
-0.533730 29.419098 0.003318
-0.219907 29.419098 0.002680
0.093916 29.419098 0.001705
0.407739 29.419098 0.000378
0.721562 29.419098 -0.001325
1.035385 29.419098 -0.002654
1.349208 29.419098 -0.003234
1.663032 29.419098 -0.002947
1.976854 29.419098 -0.001945
2.290677 29.419098 -0.000560
2.604500 29.419098 0.001081
2.918324 29.419098 0.002650
3.232146 29.419098 0.003339
3.545969 29.419098 0.002864
3.859793 29.419098 0.001837
4.173615 29.419098 0.000793
4.487438 29.419098 -0.000670
4.801261 29.419098 -0.002412
5.115085 29.419098 -0.003852
5.428907 29.419098 -0.004142
5.742730 29.419098 -0.003475
6.056554 29.419098 -0.002688
6.370377 29.419098 -0.001551
6.684199 29.419098 -0.000532
6.998022 29.419098 0.000072
7.311846 29.419098 0.000466
7.625669 29.419098 -0.000009
7.939491 29.419098 -0.002142
8.253315 29.419098 -0.004316
8.567138 29.419098 -0.005804
8.880960 29.419098 -0.005371
9.194784 29.419098 -0.005294
9.508606 29.419098 -0.012894
9.822430 29.419098 -0.018514
10.136253 29.419098 -0.022818
10.450075 29.419098 -0.029458
10.763899 29.419098 -0.041779
11.077723 29.419098 -0.052718
11.391544 29.419098 -0.065673
11.705368 29.419098 -0.075319
12.019190 29.419098 -0.092392
12.333014 29.419098 -0.129043
12.646837 29.419098 -0.114312
12.960659 29.419098 -0.111100
13.274483 29.419098 -0.116194
13.588306 29.419098 -0.144773
13.902128 29.419098 -0.148539
14.215952 29.419098 -0.133020
14.529776 29.419098 -0.118618
14.843597 29.419098 -0.098361
15.157421 29.419098 -0.099579
15.471243 29.419098 -0.090743
15.785067 29.419098 -0.083561
16.098890 29.419098 -0.095722
16.412712 29.419098 -0.086244
16.726536 29.419098 -0.078710
17.040359 29.419098 -0.038202
17.354181 29.419098 -0.039247
17.668005 29.419098 -0.061023
17.981829 29.419098 -0.066595
18.295650 29.419098 -0.014658
18.609474 29.419098 0.097552
18.923298 29.419098 0.246183
19.237120 29.419098 0.000000
-6.810190 29.105274 0.000000
-6.496367 29.105274 0.002763
-6.182544 29.105274 0.001894
-5.868721 29.105274 0.002154
-5.554898 29.105274 0.003129
-5.241075 29.105274 0.003534
-4.927252 29.105274 0.003087
-4.613429 29.105274 0.001927
-4.299606 29.105274 0.000563
-3.985783 29.105274 -0.001046
-3.671960 29.105274 -0.002273
-3.358137 29.105274 -0.003277
-3.044314 29.105274 -0.003481
-2.730491 29.105274 -0.002734
-2.416668 29.105274 -0.001230
-2.102845 29.105274 0.000410
-1.789022 29.105274 0.001371
-1.475199 29.105274 0.002214
-1.161376 29.105274 0.002994
-0.847553 29.105274 0.003299
-0.533730 29.105274 0.002842
-0.219907 29.105274 0.001787
0.093916 29.105274 0.000555
0.407739 29.105274 -0.000803
0.721562 29.105274 -0.002194
1.035385 29.105274 -0.002962
1.349208 29.105274 -0.002923
1.663032 29.105274 -0.002103
1.976854 29.105274 -0.000776
2.290677 29.105274 0.000549
2.604500 29.105274 0.001778
2.918324 29.105274 0.002858
3.232146 29.105274 0.003147
3.545969 29.105274 0.002293
3.859793 29.105274 0.000993
4.173615 29.105274 -0.000186
4.487438 29.105274 -0.001493
4.801261 29.105274 -0.002712
5.115085 29.105274 -0.003539
5.428907 29.105274 -0.003464
5.742730 29.105274 -0.002602
6.056554 29.105274 -0.001629
6.370377 29.105274 -0.000518
6.684199 29.105274 0.000146
6.998022 29.105274 0.000232
7.311846 29.105274 0.000026
7.625669 29.105274 -0.001152
7.939491 29.105274 -0.003134
8.253315 29.105274 -0.004834
8.567138 29.105274 -0.005358
8.880960 29.105274 -0.005625
9.194784 29.105274 -0.006591
9.508606 29.105274 -0.011033
9.822430 29.105274 -0.016989
10.136253 29.105274 -0.025463
10.450075 29.105274 -0.029444
10.763899 29.105274 -0.044405
11.077723 29.105274 -0.056280
11.391544 29.105274 -0.070881
11.705368 29.105274 -0.088532
12.019190 29.105274 -0.091581
12.333014 29.105274 -0.125496
12.646837 29.105274 -0.112043
12.960659 29.105274 -0.115694
13.274483 29.105274 -0.107998
13.588306 29.105274 -0.133376
13.902128 29.105274 -0.160585
14.215952 29.105274 -0.131538
14.529776 29.105274 -0.111425
14.843597 29.105274 -0.087957
15.157421 29.105274 -0.086350
15.471243 29.105274 -0.090494
15.785067 29.105274 -0.086081
16.098890 29.105274 -0.065622
16.412712 29.105274 -0.077461
16.726536 29.105274 -0.062599
17.040359 29.105274 -0.040368
17.354181 29.105274 -0.036498
17.668005 29.105274 -0.055916
17.981829 29.105274 -0.053224
18.295650 29.105274 -0.015765
18.609474 29.105274 0.097137
18.923298 29.105274 0.239995
19.237120 29.105274 0.000000
-6.810190 28.791452 0.000000
-6.496367 28.791452 0.004304
-6.182544 28.791452 0.002849
-5.868721 28.791452 0.002455
-5.554898 28.791452 0.002972
-5.241075 28.791452 0.003036
-4.927252 28.791452 0.002313
-4.613429 28.791452 0.000885
-4.299606 28.791452 -0.000662
-3.985783 28.791452 -0.002120
-3.671960 28.791452 -0.003138
-3.358137 28.791452 -0.003598
-3.044314 28.791452 -0.003083
-2.730491 28.791452 -0.001781
-2.416668 28.791452 0.000033
-2.102845 28.791452 0.001773
-1.789022 28.791452 0.002510
-1.475199 28.791452 0.002892
-1.161376 28.791452 0.003164
-0.847553 28.791452 0.002907
-0.533730 28.791452 0.001949
-0.219907 28.791452 0.000637
0.093916 28.791452 -0.000687
0.407739 28.791452 -0.001769
0.721562 28.791452 -0.002607
1.035385 28.791452 -0.002689
1.349208 28.791452 -0.002114
1.663032 28.791452 -0.000927
1.976854 28.791452 0.000562
2.290677 28.791452 0.001588
2.604500 28.791452 0.002157
2.918324 28.791452 0.002561
3.232146 28.791452 0.002517
3.545969 28.791452 0.001483
3.859793 28.791452 0.000060
4.173615 28.791452 -0.000999
4.487438 28.791452 -0.001937
4.801261 28.791452 -0.002534
5.115085 28.791452 -0.002754
5.428907 28.791452 -0.002470
5.742730 28.791452 -0.001666
6.056554 28.791452 -0.000681
6.370377 28.791452 0.000202
6.684199 28.791452 0.000488
6.998022 28.791452 0.000160
7.311846 28.791452 -0.000671
7.625669 28.791452 -0.002043
7.939491 28.791452 -0.003915
8.253315 28.791452 -0.004985
8.567138 28.791452 -0.004913
8.880960 28.791452 -0.005873
9.194784 28.791452 -0.005679
9.508606 28.791452 -0.010225
9.822430 28.791452 -0.017719
10.136253 28.791452 -0.026073
10.450075 28.791452 -0.039839
10.763899 28.791452 -0.048361
11.077723 28.791452 -0.063292
11.391544 28.791452 -0.077798
11.705368 28.791452 -0.079737
12.019190 28.791452 -0.096209
12.333014 28.791452 -0.119655
12.646837 28.791452 -0.108235
12.960659 28.791452 -0.098638
13.274483 28.791452 -0.096277
13.588306 28.791452 -0.110940
13.902128 28.791452 -0.147100
14.215952 28.791452 -0.131796
14.529776 28.791452 -0.097248
14.843597 28.791452 -0.092721
15.157421 28.791452 -0.080081
15.471243 28.791452 -0.071645
15.785067 28.791452 -0.075618
16.098890 28.791452 -0.053568
16.412712 28.791452 -0.075227
16.726536 28.791452 -0.079636
17.040359 28.791452 -0.048447
17.354181 28.791452 -0.047416
17.668005 28.791452 -0.051523
17.981829 28.791452 -0.041950
18.295650 28.791452 -0.002062
18.609474 28.791452 0.093322
18.923298 28.791452 0.225194
19.237120 28.791452 0.000000
-6.810190 28.477629 0.000000
-6.496367 28.477629 0.005477
-6.182544 28.477629 0.003460
-5.868721 28.477629 0.002490
-5.554898 28.477629 0.002468
-5.241075 28.477629 0.002220
-4.927252 28.477629 0.001242
-4.613429 28.477629 -0.000442
-4.299606 28.477629 -0.001880
-3.985783 28.477629 -0.002974
-3.671960 28.477629 -0.003566
-3.358137 28.477629 -0.003272
-3.044314 28.477629 -0.002044
-2.730491 28.477629 -0.000410
-2.416668 28.477629 0.001272
-2.102845 28.477629 0.002831
-1.789022 28.477629 0.003290
-1.475199 28.477629 0.003183
-1.161376 28.477629 0.002865
-0.847553 28.477629 0.002049
-0.533730 28.477629 0.000702
-0.219907 28.477629 -0.000669
0.093916 28.477629 -0.001798
0.407739 28.477629 -0.002363
0.721562 28.477629 -0.002495
1.035385 28.477629 -0.001986
1.349208 28.477629 -0.001011
1.663032 28.477629 0.000257
1.976854 28.477629 0.001630
2.290677 28.477629 0.002301
2.604500 28.477629 0.002200
2.918324 28.477629 0.001967
3.232146 28.477629 0.001592
3.545969 28.477629 0.000628
3.859793 28.477629 -0.000691
4.173615 28.477629 -0.001536
4.487438 28.477629 -0.001987
4.801261 28.477629 -0.002009
5.115085 28.477629 -0.001773
5.428907 28.477629 -0.001342
5.742730 28.477629 -0.000784
6.056554 28.477629 -0.000058
6.370377 28.477629 0.000455
6.684199 28.477629 0.000525
6.998022 28.477629 -0.000163
7.311846 28.477629 -0.001333
7.625669 28.477629 -0.002974
7.939491 28.477629 -0.004131
8.253315 28.477629 -0.004472
8.567138 28.477629 -0.004684
8.880960 28.477629 -0.005641
9.194784 28.477629 -0.007452
9.508606 28.477629 -0.012341
9.822430 28.477629 -0.021602
10.136253 28.477629 -0.033830
10.450075 28.477629 -0.037380
10.763899 28.477629 -0.052663
11.077723 28.477629 -0.074436
11.391544 28.477629 -0.084724
11.705368 28.477629 -0.085440
12.019190 28.477629 -0.098285
12.333014 28.477629 -0.111503
12.646837 28.477629 -0.095960
12.960659 28.477629 -0.099707
13.274483 28.477629 -0.102157
13.588306 28.477629 -0.097950
13.902128 28.477629 -0.125991
14.215952 28.477629 -0.136076
14.529776 28.477629 -0.092410
14.843597 28.477629 -0.082319
15.157421 28.477629 -0.081514
15.471243 28.477629 -0.082946
15.785067 28.477629 -0.069313
16.098890 28.477629 -0.063152
16.412712 28.477629 -0.073824
16.726536 28.477629 -0.063979
17.040359 28.477629 -0.050653
17.354181 28.477629 -0.041827
17.668005 28.477629 -0.036863
17.981829 28.477629 -0.042637
18.295650 28.477629 0.010498
18.609474 28.477629 0.102213
18.923298 28.477629 0.240189
19.237120 28.477629 0.000000
-6.810190 28.163805 0.000000
-6.496367 28.163805 0.005934
-6.182544 28.163805 0.003530
-5.868721 28.163805 0.002165
-5.554898 28.163805 0.001718
-5.241075 28.163805 0.000992
-4.927252 28.163805 -0.000213
-4.613429 28.163805 -0.001740
-4.299606 28.163805 -0.002837
-3.985783 28.163805 -0.003393
-3.671960 28.163805 -0.003222
-3.358137 28.163805 -0.002254
-3.044314 28.163805 -0.000596
-2.730491 28.163805 0.001046
-2.416668 28.163805 0.002301
-2.102845 28.163805 0.003402
-1.789022 28.163805 0.003508
-1.475199 28.163805 0.002907
-1.161376 28.163805 0.002063
-0.847553 28.163805 0.000896
-0.533730 28.163805 -0.000509
-0.219907 28.163805 -0.001774
0.093916 28.163805 -0.002458
0.407739 28.163805 -0.002468
0.721562 28.163805 -0.001996
1.035385 28.163805 -0.001021
1.349208 28.163805 0.000135
1.663032 28.163805 0.001281
1.976854 28.163805 0.002278
2.290677 28.163805 0.002546
2.604500 28.163805 0.001929
2.918324 28.163805 0.001198
3.232146 28.163805 0.000620
3.545969 28.163805 -0.000121
3.859793 28.163805 -0.001084
4.173615 28.163805 -0.001640
4.487438 28.163805 -0.001639
4.801261 28.163805 -0.001264
5.115085 28.163805 -0.000796
5.428907 28.163805 -0.000453
5.742730 28.163805 -0.000160
6.056554 28.163805 0.000170
6.370377 28.163805 0.000262
6.684199 28.163805 0.000098
6.998022 28.163805 -0.000618
7.311846 28.163805 -0.001783
7.625669 28.163805 -0.003344
7.939491 28.163805 -0.004156
8.253315 28.163805 -0.003835
8.567138 28.163805 -0.004520
8.880960 28.163805 -0.006116
9.194784 28.163805 -0.008321
9.508606 28.163805 -0.013509
9.822430 28.163805 -0.022249
10.136253 28.163805 -0.037333
10.450075 28.163805 -0.039439
10.763899 28.163805 -0.050565
11.077723 28.163805 -0.071458
11.391544 28.163805 -0.076786
11.705368 28.163805 -0.085361
12.019190 28.163805 -0.078283
12.333014 28.163805 -0.088515
12.646837 28.163805 -0.087804
12.960659 28.163805 -0.083756
13.274483 28.163805 -0.100378
13.588306 28.163805 -0.103931
13.902128 28.163805 -0.129654
14.215952 28.163805 -0.122927
14.529776 28.163805 -0.083411
14.843597 28.163805 -0.070916
15.157421 28.163805 -0.069627
15.471243 28.163805 -0.082243
15.785067 28.163805 -0.070339
16.098890 28.163805 -0.063181
16.412712 28.163805 -0.062902
16.726536 28.163805 -0.068335
17.040359 28.163805 -0.052058
17.354181 28.163805 -0.050575
17.668005 28.163805 -0.026382
17.981829 28.163805 -0.018727
18.295650 28.163805 -0.010819
18.609474 28.163805 0.122029
18.923298 28.163805 0.248790
19.237120 28.163805 0.000000
-6.810190 27.849983 0.000000
-6.496367 27.849983 0.005792
-6.182544 27.849983 0.003071
-5.868721 27.849983 0.001456
-5.554898 27.849983 0.000742
-5.241075 27.849983 -0.000382
-4.927252 27.849983 -0.001623
-4.613429 27.849983 -0.002683
-4.299606 27.849983 -0.003035
-3.985783 27.849983 -0.002932
-3.671960 27.849983 -0.002138
-3.358137 27.849983 -0.000828
-3.044314 27.849983 0.000729
-2.730491 27.849983 0.002093
-2.416668 27.849983 0.002908
-2.102845 27.849983 0.003426
-1.789022 27.849983 0.003086
-1.475199 27.849983 0.002107
-1.161376 27.849983 0.000934
-0.847553 27.849983 -0.000319
-0.533730 27.849983 -0.001522
-0.219907 27.849983 -0.002333
0.093916 27.849983 -0.002385
0.407739 27.849983 -0.001893
0.721562 27.849983 -0.001043
1.035385 27.849983 0.000071
1.349208 27.849983 0.001108
1.663032 27.849983 0.001960
1.976854 27.849983 0.002488
2.290677 27.849983 0.002313
2.604500 27.849983 0.001290
2.918324 27.849983 0.000298
3.232146 27.849983 -0.000252
3.545969 27.849983 -0.000540
3.859793 27.849983 -0.001067
4.173615 27.849983 -0.001336
4.487438 27.849983 -0.001146
4.801261 27.849983 -0.000565
5.115085 27.849983 -0.000008
5.428907 27.849983 0.000148
5.742730 27.849983 0.000142
6.056554 27.849983 0.000097
6.370377 27.849983 -0.000147
6.684199 27.849983 -0.000502
6.998022 27.849983 -0.001164
7.311846 27.849983 -0.002023
7.625669 27.849983 -0.003276
7.939491 27.849983 -0.003734
8.253315 27.849983 -0.003279
8.567138 27.849983 -0.004275
8.880960 27.849983 -0.006367
9.194784 27.849983 -0.008102
9.508606 27.849983 -0.016997
9.822430 27.849983 -0.023621
10.136253 27.849983 -0.030783
10.450075 27.849983 -0.044346
10.763899 27.849983 -0.057217
11.077723 27.849983 -0.075772
11.391544 27.849983 -0.078731
11.705368 27.849983 -0.080281
12.019190 27.849983 -0.075557
12.333014 27.849983 -0.060631
12.646837 27.849983 -0.078881
12.960659 27.849983 -0.063716
13.274483 27.849983 -0.105438
13.588306 27.849983 -0.110923
13.902128 27.849983 -0.114380
14.215952 27.849983 -0.108765
14.529776 27.849983 -0.085001
14.843597 27.849983 -0.063948
15.157421 27.849983 -0.055880
15.471243 27.849983 -0.076048
15.785067 27.849983 -0.072257
16.098890 27.849983 -0.074755
16.412712 27.849983 -0.062530
16.726536 27.849983 -0.062812
17.040359 27.849983 -0.051735
17.354181 27.849983 -0.043369
17.668005 27.849983 -0.032758
17.981829 27.849983 -0.032159
18.295650 27.849983 -0.009985
18.609474 27.849983 0.152343
18.923298 27.849983 0.248526
19.237120 27.849983 0.000000
-6.810190 27.536160 0.000000
-6.496367 27.536160 0.005516
-6.182544 27.536160 0.002378
-5.868721 27.536160 0.000483
-5.554898 27.536160 -0.000502
-5.241075 27.536160 -0.001760
-4.927252 27.536160 -0.002728
-4.613429 27.536160 -0.002996
-4.299606 27.536160 -0.002586
-3.985783 27.536160 -0.001799
-3.671960 27.536160 -0.000597
-3.358137 27.536160 0.000657
-3.044314 27.536160 0.001861
-2.730491 27.536160 0.002718
-2.416668 27.536160 0.003052
-2.102845 27.536160 0.002918
-1.789022 27.536160 0.002115
-1.475199 27.536160 0.001044
-1.161376 27.536160 -0.000134
-0.847553 27.536160 -0.001238
-0.533730 27.536160 -0.002040
-0.219907 27.536160 -0.002232
0.093916 27.536160 -0.001686
0.407739 27.536160 -0.000853
0.721562 27.536160 0.000145
1.035385 27.536160 0.001070
1.349208 27.536160 0.001724
1.663032 27.536160 0.002155
1.976854 27.536160 0.002213
2.290677 27.536160 0.001600
2.604500 27.536160 0.000336
2.918324 27.536160 -0.000646
3.232146 27.536160 -0.000813
3.545969 27.536160 -0.000657
3.859793 27.536160 -0.000746
4.173615 27.536160 -0.000890
4.487438 27.536160 -0.000605
4.801261 27.536160 0.000038
5.115085 27.536160 0.000540
5.428907 27.536160 0.000407
5.742730 27.536160 0.000027
6.056554 27.536160 -0.000175
6.370377 27.536160 -0.000506
6.684199 27.536160 -0.000870
6.998022 27.536160 -0.001443
7.311846 27.536160 -0.001922
7.625669 27.536160 -0.002844
7.939491 27.536160 -0.003526
8.253315 27.536160 -0.003673
8.567138 27.536160 -0.005112
8.880960 27.536160 -0.006715
9.194784 27.536160 -0.010353
9.508606 27.536160 -0.016606
9.822430 27.536160 -0.018825
10.136253 27.536160 -0.025052
10.450075 27.536160 -0.041258
10.763899 27.536160 -0.059655
11.077723 27.536160 -0.085761
11.391544 27.536160 -0.071278
11.705368 27.536160 -0.075867
12.019190 27.536160 -0.082100
12.333014 27.536160 -0.070104
12.646837 27.536160 -0.079184
12.960659 27.536160 -0.066791
13.274483 27.536160 -0.073191
13.588306 27.536160 -0.103777
13.902128 27.536160 -0.132845
14.215952 27.536160 -0.137654
14.529776 27.536160 -0.088181
14.843597 27.536160 -0.062081
15.157421 27.536160 -0.082014
15.471243 27.536160 -0.088755
15.785067 27.536160 -0.102199
16.098890 27.536160 -0.077674
16.412712 27.536160 -0.053456
16.726536 27.536160 -0.059241
17.040359 27.536160 -0.041842
17.354181 27.536160 -0.044733
17.668005 27.536160 -0.041546
17.981829 27.536160 -0.031543
18.295650 27.536160 0.000483
18.609474 27.536160 0.141425
18.923298 27.536160 0.258492
19.237120 27.536160 0.000000
-6.810190 27.222336 0.000000
-6.496367 27.222336 0.005042
-6.182544 27.222336 0.001496
-5.868721 27.222336 -0.000734
-5.554898 27.222336 -0.001882
-5.241075 27.222336 -0.002941
-4.927252 27.222336 -0.003304
-4.613429 27.222336 -0.002768
-4.299606 27.222336 -0.001597
-3.985783 27.222336 -0.000378
-3.671960 27.222336 0.000843
-3.358137 27.222336 0.001847
-3.044314 27.222336 0.002669
-2.730491 27.222336 0.002940
-2.416668 27.222336 0.002654
-2.102845 27.222336 0.001980
-1.789022 27.222336 0.000990
-1.475199 27.222336 0.000046
-1.161376 27.222336 -0.000981
-0.847553 27.222336 -0.001716
-0.533730 27.222336 -0.001986
-0.219907 27.222336 -0.001645
0.093916 27.222336 -0.000664
0.407739 27.222336 0.000281
0.721562 27.222336 0.001155
1.035385 27.222336 0.001725
1.349208 27.222336 0.001806
1.663032 27.222336 0.001856
1.976854 27.222336 0.001604
2.290677 27.222336 0.000767
2.604500 27.222336 -0.000544
2.918324 27.222336 -0.001366
3.232146 27.222336 -0.001103
3.545969 27.222336 -0.000596
3.859793 27.222336 -0.000441
4.173615 27.222336 -0.000455
4.487438 27.222336 -0.000163
4.801261 27.222336 0.000346
5.115085 27.222336 0.000695
5.428907 27.222336 0.000314
5.742730 27.222336 -0.000278
6.056554 27.222336 -0.000553
6.370377 27.222336 -0.000704
6.684199 27.222336 -0.000940
6.998022 27.222336 -0.001310
7.311846 27.222336 -0.001750
7.625669 27.222336 -0.002559
7.939491 27.222336 -0.003445
8.253315 27.222336 -0.004631
8.567138 27.222336 -0.005902
8.880960 27.222336 -0.008594
9.194784 27.222336 -0.009996
9.508606 27.222336 -0.015533
9.822430 27.222336 -0.018576
10.136253 27.222336 -0.021670
10.450075 27.222336 -0.038757
10.763899 27.222336 -0.054123
11.077723 27.222336 -0.080117
11.391544 27.222336 -0.056604
11.705368 27.222336 -0.067379
12.019190 27.222336 -0.091728
12.333014 27.222336 -0.078357
12.646837 27.222336 -0.068594
12.960659 27.222336 -0.062958
13.274483 27.222336 -0.089210
13.588306 27.222336 -0.093979
13.902128 27.222336 -0.140146
14.215952 27.222336 -0.129803
14.529776 27.222336 -0.090137
14.843597 27.222336 -0.056792
15.157421 27.222336 -0.091518
15.471243 27.222336 -0.092438
15.785067 27.222336 -0.104181
16.098890 27.222336 -0.080856
16.412712 27.222336 -0.070789
16.726536 27.222336 -0.071632
17.040359 27.222336 -0.057197
17.354181 27.222336 -0.036418
17.668005 27.222336 -0.046877
17.981829 27.222336 -0.018532
18.295650 27.222336 0.016560
18.609474 27.222336 0.136492
18.923298 27.222336 0.206238
19.237120 27.222336 0.000000
-6.810190 26.908514 0.000000
-6.496367 26.908514 0.003929
-6.182544 26.908514 0.000256
-5.868721 26.908514 -0.001970
-5.554898 26.908514 -0.002941
-5.241075 26.908514 -0.003454
-4.927252 26.908514 -0.003064
-4.613429 26.908514 -0.001844
-4.299606 26.908514 -0.000368
-3.985783 26.908514 0.000903
-3.671960 26.908514 0.001873
-3.358137 26.908514 0.002543
-3.044314 26.908514 0.002979
-2.730491 26.908514 0.002578
-2.416668 26.908514 0.001672
-2.102845 26.908514 0.000822
-1.789022 26.908514 -0.000024
-1.475199 26.908514 -0.000705
-1.161376 26.908514 -0.001392
-0.847553 26.908514 -0.001685
-0.533730 26.908514 -0.001412
-0.219907 26.908514 -0.000705
0.093916 26.908514 0.000275
0.407739 26.908514 0.001155
0.721562 26.908514 0.001777
1.035385 26.908514 0.001854
1.349208 26.908514 0.001567
1.663032 26.908514 0.001302
1.976854 26.908514 0.000858
2.290677 26.908514 0.000082
2.604500 26.908514 -0.000967
2.918324 26.908514 -0.001554
3.232146 26.908514 -0.001076
3.545969 26.908514 -0.000434
3.859793 26.908514 -0.000182
4.173615 26.908514 -0.000158
4.487438 26.908514 -0.000002
4.801261 26.908514 0.000412
5.115085 26.908514 0.000558
5.428907 26.908514 0.000109
5.742730 26.908514 -0.000481
6.056554 26.908514 -0.000649
6.370377 26.908514 -0.000643
6.684199 26.908514 -0.000754
6.998022 26.908514 -0.000964
7.311846 26.908514 -0.001456
7.625669 26.908514 -0.002530
7.939491 26.908514 -0.003895
8.253315 26.908514 -0.005384
8.567138 26.908514 -0.007155
8.880960 26.908514 -0.009414
9.194784 26.908514 -0.011304
9.508606 26.908514 -0.013192
9.822430 26.908514 -0.015384
10.136253 26.908514 -0.017322
10.450075 26.908514 -0.028603
10.763899 26.908514 -0.045689
11.077723 26.908514 -0.063962
11.391544 26.908514 -0.052257
11.705368 26.908514 -0.067104
12.019190 26.908514 -0.064676
12.333014 26.908514 -0.067848
12.646837 26.908514 -0.062205
12.960659 26.908514 -0.083228
13.274483 26.908514 -0.083366
13.588306 26.908514 -0.109231
13.902128 26.908514 -0.121040
14.215952 26.908514 -0.130634
14.529776 26.908514 -0.103021
14.843597 26.908514 -0.065998
15.157421 26.908514 -0.074582
15.471243 26.908514 -0.091848
15.785067 26.908514 -0.094224
16.098890 26.908514 -0.079317
16.412712 26.908514 -0.077410
16.726536 26.908514 -0.066930
17.040359 26.908514 -0.049700
17.354181 26.908514 -0.021541
17.668005 26.908514 -0.050928
17.981829 26.908514 -0.047043
18.295650 26.908514 0.011983
18.609474 26.908514 0.155148
18.923298 26.908514 0.262503
19.237120 26.908514 0.000000
-6.810190 26.594690 0.000000
-6.496367 26.594690 0.002208
-6.182544 26.594690 -0.001035
-5.868721 26.594690 -0.002825
-5.554898 26.594690 -0.003294
-5.241075 26.594690 -0.003106
-4.927252 26.594690 -0.001996
-4.613429 26.594690 -0.000499
-4.299606 26.594690 0.000868
-3.985783 26.594690 0.001889
-3.671960 26.594690 0.002444
-3.358137 26.594690 0.002682
-3.044314 26.594690 0.002717
-2.730491 26.594690 0.001792
-2.416668 26.594690 0.000519
-2.102845 26.594690 -0.000235
-1.789022 26.594690 -0.000739
-1.475199 26.594690 -0.001090
-1.161376 26.594690 -0.001361
-0.847553 26.594690 -0.001123
-0.533730 26.594690 -0.000440
-0.219907 26.594690 0.000406
0.093916 26.594690 0.001106
0.407739 26.594690 0.001605
0.721562 26.594690 0.001849
1.035385 26.594690 0.001629
1.349208 26.594690 0.001160
1.663032 26.594690 0.000760
1.976854 26.594690 0.000277
2.290677 26.594690 -0.000218
2.604500 26.594690 -0.000835
2.918324 26.594690 -0.001087
3.232146 26.594690 -0.000658
3.545969 26.594690 -0.000192
3.859793 26.594690 -0.000032
4.173615 26.594690 -0.000109
4.487438 26.594690 -0.000168
4.801261 26.594690 0.000119
5.115085 26.594690 0.000335
5.428907 26.594690 0.000101
5.742730 26.594690 -0.000250
6.056554 26.594690 -0.000300
6.370377 26.594690 -0.000260
6.684199 26.594690 -0.000510
6.998022 26.594690 -0.000948
7.311846 26.594690 -0.001721
7.625669 26.594690 -0.002902
7.939491 26.594690 -0.004668
8.253315 26.594690 -0.006069
8.567138 26.594690 -0.007524
8.880960 26.594690 -0.010130
9.194784 26.594690 -0.012139
9.508606 26.594690 -0.012265
9.822430 26.594690 -0.014099
10.136253 26.594690 -0.018666
10.450075 26.594690 -0.024844
10.763899 26.594690 -0.032822
11.077723 26.594690 -0.050650
11.391544 26.594690 -0.065036
11.705368 26.594690 -0.075627
12.019190 26.594690 -0.070241
12.333014 26.594690 -0.075307
12.646837 26.594690 -0.083361
12.960659 26.594690 -0.080011
13.274483 26.594690 -0.088015
13.588306 26.594690 -0.100131
13.902128 26.594690 -0.130538
14.215952 26.594690 -0.130020
14.529776 26.594690 -0.109833
14.843597 26.594690 -0.066924
15.157421 26.594690 -0.078234
15.471243 26.594690 -0.083105
15.785067 26.594690 -0.072593
16.098890 26.594690 -0.069464
16.412712 26.594690 -0.063502
16.726536 26.594690 -0.057101
17.040359 26.594690 -0.038786
17.354181 26.594690 -0.031940
17.668005 26.594690 -0.035451
17.981829 26.594690 -0.037748
18.295650 26.594690 0.025414
18.609474 26.594690 0.130341
18.923298 26.594690 0.252906
19.237120 26.594690 0.000000
-6.810190 26.280869 0.000000
-6.496367 26.280869 0.000717
-6.182544 26.280869 -0.001928
-5.868721 26.280869 -0.002971
-5.554898 26.280869 -0.002730
-5.241075 26.280869 -0.001970
-4.927252 26.280869 -0.000434
-4.613429 26.280869 0.000957
-4.299606 26.280869 0.001907
-3.985783 26.280869 0.002326
-3.671960 26.280869 0.002403
-3.358137 26.280869 0.002240
-3.044314 26.280869 0.001862
-2.730491 26.280869 0.000774
-2.416668 26.280869 -0.000479
-2.102845 26.280869 -0.000935
-1.789022 26.280869 -0.001111
-1.475199 26.280869 -0.001086
-1.161376 26.280869 -0.000889
-0.847553 26.280869 -0.000286
-0.533730 26.280869 0.000594
-0.219907 26.280869 0.001235
0.093916 26.280869 0.001532
0.407739 26.280869 0.001586
0.721562 26.280869 0.001573
1.035385 26.280869 0.001203
1.349208 26.280869 0.000776
1.663032 26.280869 0.000368
1.976854 26.280869 0.000014
2.290677 26.280869 -0.000188
2.604500 26.280869 -0.000414
2.918324 26.280869 -0.000401
3.232146 26.280869 -0.000215
3.545969 26.280869 -0.000044
3.859793 26.280869 -0.000061
4.173615 26.280869 -0.000276
4.487438 26.280869 -0.000524
4.801261 26.280869 -0.000346
5.115085 26.280869 0.000175
5.428907 26.280869 0.000480
5.742730 26.280869 0.000437
6.056554 26.280869 0.000348
6.370377 26.280869 -0.000008
6.684199 26.280869 -0.000608
6.998022 26.280869 -0.001486
7.311846 26.280869 -0.002407
7.625669 26.280869 -0.003803
7.939491 26.280869 -0.005657
8.253315 26.280869 -0.006280
8.567138 26.280869 -0.006354
8.880960 26.280869 -0.008260
9.194784 26.280869 -0.010045
9.508606 26.280869 -0.011111
9.822430 26.280869 -0.019154
10.136253 26.280869 -0.021499
10.450075 26.280869 -0.020903
10.763899 26.280869 -0.027704
11.077723 26.280869 -0.046180
11.391544 26.280869 -0.073740
11.705368 26.280869 -0.071589
12.019190 26.280869 -0.073078
12.333014 26.280869 -0.076850
12.646837 26.280869 -0.089207
12.960659 26.280869 -0.068745
13.274483 26.280869 -0.084085
13.588306 26.280869 -0.091400
13.902128 26.280869 -0.113615
14.215952 26.280869 -0.142563
14.529776 26.280869 -0.100056
14.843597 26.280869 -0.103405
15.157421 26.280869 -0.052575
15.471243 26.280869 -0.073664
15.785067 26.280869 -0.078720
16.098890 26.280869 -0.073566
16.412712 26.280869 -0.060198
16.726536 26.280869 -0.045925
17.040359 26.280869 -0.033208
17.354181 26.280869 -0.032054
17.668005 26.280869 -0.034263
17.981829 26.280869 -0.031334
18.295650 26.280869 0.002064
18.609474 26.280869 0.126273
18.923298 26.280869 0.213670
19.237120 26.280869 0.000000
-6.810190 25.967045 0.000000
-6.496367 25.967045 -0.000089
-6.182544 25.967045 -0.002047
-5.868721 25.967045 -0.002332
-5.554898 25.967045 -0.001511
-5.241075 25.967045 -0.000406
-4.927252 25.967045 0.001006
-4.613429 25.967045 0.002083
-4.299606 25.967045 0.002404
-3.985783 25.967045 0.002203
-3.671960 25.967045 0.001841
-3.358137 25.967045 0.001393
-3.044314 25.967045 0.000705
-2.730491 25.967045 -0.000227
-2.416668 25.967045 -0.001069
-2.102845 25.967045 -0.001194
-1.789022 25.967045 -0.001136
-1.475199 25.967045 -0.000724
-1.161376 25.967045 -0.000151
-0.847553 25.967045 0.000544
-0.533730 25.967045 0.001317
-0.219907 25.967045 0.001713
0.093916 25.967045 0.001639
0.407739 25.967045 0.001368
0.721562 25.967045 0.001191
1.035385 25.967045 0.000882
1.349208 25.967045 0.000527
1.663032 25.967045 0.000224
1.976854 25.967045 0.000052
2.290677 25.967045 0.000031
2.604500 25.967045 -0.000037
2.918324 25.967045 0.000045
3.232146 25.967045 0.000020
3.545969 25.967045 -0.000074
3.859793 25.967045 -0.000249
4.173615 25.967045 -0.000456
4.487438 25.967045 -0.000754
4.801261 25.967045 -0.000573
5.115085 25.967045 0.000240
5.428907 25.967045 0.001015
5.742730 25.967045 0.001111
6.056554 25.967045 0.000710
6.370377 25.967045 -0.000116
6.684199 25.967045 -0.001284
6.998022 25.967045 -0.002581
7.311846 25.967045 -0.003599
7.625669 25.967045 -0.004826
7.939491 25.967045 -0.005769
8.253315 25.967045 -0.006093
8.567138 25.967045 -0.005341
8.880960 25.967045 -0.005602
9.194784 25.967045 -0.007173
9.508606 25.967045 -0.008945
9.822430 25.967045 -0.019195
10.136253 25.967045 -0.018124
10.450075 25.967045 -0.018257
10.763899 25.967045 -0.024504
11.077723 25.967045 -0.049296
11.391544 25.967045 -0.071082
11.705368 25.967045 -0.058461
12.019190 25.967045 -0.079083
12.333014 25.967045 -0.082560
12.646837 25.967045 -0.077684
12.960659 25.967045 -0.056711
13.274483 25.967045 -0.058742
13.588306 25.967045 -0.087065
13.902128 25.967045 -0.102914
14.215952 25.967045 -0.131037
14.529776 25.967045 -0.124303
14.843597 25.967045 -0.087502
15.157421 25.967045 -0.057472
15.471243 25.967045 -0.057681
15.785067 25.967045 -0.094164
16.098890 25.967045 -0.079944
16.412712 25.967045 -0.041757
16.726536 25.967045 -0.025545
17.040359 25.967045 -0.031139
17.354181 25.967045 -0.031226
17.668005 25.967045 -0.035040
17.981829 25.967045 -0.014456
18.295650 25.967045 0.017839
18.609474 25.967045 0.141130
18.923298 25.967045 0.229359
19.237120 25.967045 0.000000
-6.810190 25.653221 0.000000
-6.496367 25.653221 0.000127
-6.182544 25.653221 -0.001343
-5.868721 25.653221 -0.001120
-5.554898 25.653221 0.000058
-5.241075 25.653221 0.001118
-4.927252 25.653221 0.002023
-4.613429 25.653221 0.002516
-4.299606 25.653221 0.002254
-3.985783 25.653221 0.001586
-3.671960 25.653221 0.000972
-3.358137 25.653221 0.000391
-3.044314 25.653221 -0.000310
-2.730491 25.653221 -0.000898
-2.416668 25.653221 -0.001150
-2.102845 25.653221 -0.001056
-1.789022 25.653221 -0.000845
-1.475199 25.653221 -0.000081
-1.161376 25.653221 0.000627
-0.847553 25.653221 0.001128
-0.533730 25.653221 0.001598
-0.219907 25.653221 0.001800
0.093916 25.653221 0.001581
0.407739 25.653221 0.001149
0.721562 25.653221 0.000923
1.035385 25.653221 0.000727
1.349208 25.653221 0.000499
1.663032 25.653221 0.000289
1.976854 25.653221 0.000256
2.290677 25.653221 0.000172
2.604500 25.653221 0.000089
2.918324 25.653221 0.000148
3.232146 25.653221 0.000016
3.545969 25.653221 -0.000272
3.859793 25.653221 -0.000449
4.173615 25.653221 -0.000467
4.487438 25.653221 -0.000625
4.801261 25.653221 -0.000381
5.115085 25.653221 0.000491
5.428907 25.653221 0.001317
5.742730 25.653221 0.001256
6.056554 25.653221 0.000370
6.370377 25.653221 -0.000866
6.684199 25.653221 -0.002323
6.998022 25.653221 -0.003601
7.311846 25.653221 -0.004300
7.625669 25.653221 -0.004717
7.939491 25.653221 -0.004914
8.253315 25.653221 -0.004504
8.567138 25.653221 -0.003566
8.880960 25.653221 -0.004259
9.194784 25.653221 -0.005599
9.508606 25.653221 -0.008825
9.822430 25.653221 -0.022374
10.136253 25.653221 -0.019305
10.450075 25.653221 -0.014566
10.763899 25.653221 -0.021733
11.077723 25.653221 -0.054601
11.391544 25.653221 -0.061482
11.705368 25.653221 -0.061369
12.019190 25.653221 -0.080896
12.333014 25.653221 -0.080099
12.646837 25.653221 -0.078052
12.960659 25.653221 -0.061939
13.274483 25.653221 -0.044682
13.588306 25.653221 -0.054367
13.902128 25.653221 -0.096670
14.215952 25.653221 -0.133915
14.529776 25.653221 -0.114024
14.843597 25.653221 -0.091249
15.157421 25.653221 -0.031804
15.471243 25.653221 -0.063419
15.785067 25.653221 -0.072315
16.098890 25.653221 -0.066973
16.412712 25.653221 -0.041825
16.726536 25.653221 -0.023588
17.040359 25.653221 -0.031348
17.354181 25.653221 -0.011714
17.668005 25.653221 -0.033882
17.981829 25.653221 -0.026961
18.295650 25.653221 0.052170
18.609474 25.653221 0.146226
18.923298 25.653221 0.197554
19.237120 25.653221 0.000000
-6.810190 25.339399 0.000000
-6.496367 25.339399 0.001139
-6.182544 25.339399 -0.000014
-5.868721 25.339399 0.000255
-5.554898 25.339399 0.001455
-5.241075 25.339399 0.002187
-4.927252 25.339399 0.002429
-4.613429 25.339399 0.002279
-4.299606 25.339399 0.001622
-3.985783 25.339399 0.000674
-3.671960 25.339399 -0.000024
-3.358137 25.339399 -0.000516
-3.044314 25.339399 -0.000993
-2.730491 25.339399 -0.001076
-2.416668 25.339399 -0.000840
-2.102845 25.339399 -0.000553
-1.789022 25.339399 -0.000278
-1.475199 25.339399 0.000555
-1.161376 25.339399 0.001255
-0.847553 25.339399 0.001361
-0.533730 25.339399 0.001442
-0.219907 25.339399 0.001521
0.093916 25.339399 0.001409
0.407739 25.339399 0.001103
0.721562 25.339399 0.000905
1.035385 25.339399 0.000810
1.349208 25.339399 0.000608
1.663032 25.339399 0.000429
1.976854 25.339399 0.000323
2.290677 25.339399 0.000072
2.604500 25.339399 -0.000103
2.918324 25.339399 -0.000021
3.232146 25.339399 -0.000114
3.545969 25.339399 -0.000374
3.859793 25.339399 -0.000460
4.173615 25.339399 -0.000215
4.487438 25.339399 -0.000133
4.801261 25.339399 0.000139
5.115085 25.339399 0.000731
5.428907 25.339399 0.001076
5.742730 25.339399 0.000530
6.056554 25.339399 -0.000801
6.370377 25.339399 -0.002263
6.684199 25.339399 -0.003510
6.998022 25.339399 -0.004256
7.311846 25.339399 -0.004347
7.625669 25.339399 -0.003933
7.939491 25.339399 -0.003322
8.253315 25.339399 -0.001986
8.567138 25.339399 -0.001169
8.880960 25.339399 -0.003375
9.194784 25.339399 -0.004902
9.508606 25.339399 -0.009386
9.822430 25.339399 -0.021925
10.136253 25.339399 -0.020674
10.450075 25.339399 -0.018761
10.763899 25.339399 -0.027610
11.077723 25.339399 -0.049214
11.391544 25.339399 -0.059696
11.705368 25.339399 -0.057090
12.019190 25.339399 -0.064188
12.333014 25.339399 -0.081943
12.646837 25.339399 -0.068438
12.960659 25.339399 -0.057160
13.274483 25.339399 -0.053604
13.588306 25.339399 -0.059091
13.902128 25.339399 -0.092468
14.215952 25.339399 -0.092907
14.529776 25.339399 -0.077552
14.843597 25.339399 -0.070648
15.157421 25.339399 -0.049999
15.471243 25.339399 -0.058777
15.785067 25.339399 -0.041024
16.098890 25.339399 -0.055105
16.412712 25.339399 -0.039639
16.726536 25.339399 -0.031192
17.040359 25.339399 -0.031404
17.354181 25.339399 -0.022286
17.668005 25.339399 -0.026307
17.981829 25.339399 0.010502
18.295650 25.339399 0.062189
18.609474 25.339399 0.153197
18.923298 25.339399 0.189855
19.237120 25.339399 0.000000
-6.810190 25.025576 0.000000
-6.496367 25.025576 0.002347
-6.182544 25.025576 0.001286
-5.868721 25.025576 0.001350
-5.554898 25.025576 0.002207
-5.241075 25.025576 0.002485
-4.927252 25.025576 0.002159
-4.613429 25.025576 0.001632
-4.299606 25.025576 0.000826
-3.985783 25.025576 -0.000093
-3.671960 25.025576 -0.000717
-3.358137 25.025576 -0.000999
-3.044314 25.025576 -0.001114
-2.730491 25.025576 -0.000787
-2.416668 25.025576 -0.000286
-2.102845 25.025576 0.000105
-1.789022 25.025576 0.000351
-1.475199 25.025576 0.001034
-1.161376 25.025576 0.001532
-0.847553 25.025576 0.001310
-0.533730 25.025576 0.001016
-0.219907 25.025576 0.001117
0.093916 25.025576 0.001215
0.407739 25.025576 0.001165
0.721562 25.025576 0.001046
1.035385 25.025576 0.000975
1.349208 25.025576 0.000678
1.663032 25.025576 0.000365
1.976854 25.025576 0.000126
2.290677 25.025576 -0.000254
2.604500 25.025576 -0.000368
2.918324 25.025576 -0.000137
3.232146 25.025576 -0.000074
3.545969 25.025576 -0.000104
3.859793 25.025576 -0.000124
4.173615 25.025576 0.000313
4.487438 25.025576 0.000556
4.801261 25.025576 0.000667
5.115085 25.025576 0.000690
5.428907 25.025576 0.000313
5.742730 25.025576 -0.000877
6.056554 25.025576 -0.002459
6.370377 25.025576 -0.003650
6.684199 25.025576 -0.004114
6.998022 25.025576 -0.003993
7.311846 25.025576 -0.003288
7.625669 25.025576 -0.002223
7.939491 25.025576 -0.001196
8.253315 25.025576 -0.000414
8.567138 25.025576 -0.000352
8.880960 25.025576 -0.002912
9.194784 25.025576 -0.005303
9.508606 25.025576 -0.011693
9.822430 25.025576 -0.020098
10.136253 25.025576 -0.021081
10.450075 25.025576 -0.021065
10.763899 25.025576 -0.033114
11.077723 25.025576 -0.051351
11.391544 25.025576 -0.054547
11.705368 25.025576 -0.062314
12.019190 25.025576 -0.073687
12.333014 25.025576 -0.075675
12.646837 25.025576 -0.066167
12.960659 25.025576 -0.057369
13.274483 25.025576 -0.049624
13.588306 25.025576 -0.084984
13.902128 25.025576 -0.077968
14.215952 25.025576 -0.105944
14.529776 25.025576 -0.083253
14.843597 25.025576 -0.054147
15.157421 25.025576 -0.049869
15.471243 25.025576 -0.045569
15.785067 25.025576 -0.032878
16.098890 25.025576 -0.025739
16.412712 25.025576 -0.032319
16.726536 25.025576 -0.019716
17.040359 25.025576 -0.020291
17.354181 25.025576 -0.017569
17.668005 25.025576 -0.027809
17.981829 25.025576 -0.004128
18.295650 25.025576 0.053551
18.609474 25.025576 0.199222
18.923298 25.025576 0.206017
19.237120 25.025576 0.000000
-6.810190 24.711752 0.000000
-6.496367 24.711752 0.003333
-6.182544 24.711752 0.002125
-5.868721 24.711752 0.001870
-5.554898 24.711752 0.002183
-5.241075 24.711752 0.002040
-4.927252 24.711752 0.001439
-4.613429 24.711752 0.000864
-4.299606 24.711752 0.000246
-3.985783 24.711752 -0.000446
-3.671960 24.711752 -0.000843
-3.358137 24.711752 -0.000915
-3.044314 24.711752 -0.000704
-2.730491 24.711752 -0.000300
-2.416668 24.711752 0.000377
-2.102845 24.711752 0.000713
-1.789022 24.711752 0.000792
-1.475199 24.711752 0.001178
-1.161376 24.711752 0.001464
-0.847553 24.711752 0.001164
-0.533730 24.711752 0.000776
-0.219907 24.711752 0.000898
0.093916 24.711752 0.001108
0.407739 24.711752 0.001247
0.721562 24.711752 0.001179
1.035385 24.711752 0.000978
1.349208 24.711752 0.000645
1.663032 24.711752 0.000241
1.976854 24.711752 -0.000117
2.290677 24.711752 -0.000498
2.604500 24.711752 -0.000377
2.918324 24.711752 0.000067
3.232146 24.711752 0.000399
3.545969 24.711752 0.000575
3.859793 24.711752 0.000634
4.173615 24.711752 0.001036
4.487438 24.711752 0.001145
4.801261 24.711752 0.000824
5.115085 24.711752 0.000143
5.428907 24.711752 -0.000965
5.742730 24.711752 -0.002407
6.056554 24.711752 -0.003664
6.370377 24.711752 -0.004126
6.684199 24.711752 -0.003809
6.998022 24.711752 -0.002737
7.311846 24.711752 -0.001486
7.625669 24.711752 -0.000402
7.939491 24.711752 0.000449
8.253315 24.711752 -0.000106
8.567138 24.711752 -0.001687
8.880960 24.711752 -0.004064
9.194784 24.711752 -0.008710
9.508606 24.711752 -0.013893
9.822430 24.711752 -0.020073
10.136253 24.711752 -0.024797
10.450075 24.711752 -0.026442
10.763899 24.711752 -0.032210
11.077723 24.711752 -0.054859
11.391544 24.711752 -0.050077
11.705368 24.711752 -0.061252
12.019190 24.711752 -0.072466
12.333014 24.711752 -0.067088
12.646837 24.711752 -0.062265
12.960659 24.711752 -0.053776
13.274483 24.711752 -0.048490
13.588306 24.711752 -0.057898
13.902128 24.711752 -0.086706
14.215952 24.711752 -0.122107
14.529776 24.711752 -0.089055
14.843597 24.711752 -0.070255
15.157421 24.711752 -0.050276
15.471243 24.711752 -0.065884
15.785067 24.711752 -0.040019
16.098890 24.711752 -0.026874
16.412712 24.711752 -0.005119
16.726536 24.711752 -0.013805
17.040359 24.711752 -0.030291
17.354181 24.711752 -0.019940
17.668005 24.711752 -0.023312
17.981829 24.711752 -0.007042
18.295650 24.711752 0.067944
18.609474 24.711752 0.180847
18.923298 24.711752 0.214987
19.237120 24.711752 0.000000
-6.810190 24.397930 0.000000
-6.496367 24.397930 0.003834
-6.182544 24.397930 0.002416
-5.868721 24.397930 0.001763
-5.554898 24.397930 0.001623
-5.241075 24.397930 0.001193
-4.927252 24.397930 0.000672
-4.613429 24.397930 0.000277
-4.299606 24.397930 -0.000081
-3.985783 24.397930 -0.000400
-3.671960 24.397930 -0.000501
-3.358137 24.397930 -0.000370
-3.044314 24.397930 -0.000061
-2.730491 24.397930 0.000382
-2.416668 24.397930 0.000916
-2.102845 24.397930 0.001076
-1.789022 24.397930 0.000995
-1.475199 24.397930 0.001152
-1.161376 24.397930 0.001230
-0.847553 24.397930 0.001101
-0.533730 24.397930 0.000888
-0.219907 24.397930 0.000996
0.093916 24.397930 0.001201
0.407739 24.397930 0.001307
0.721562 24.397930 0.001119
1.035385 24.397930 0.000789
1.349208 24.397930 0.000463
1.663032 24.397930 0.000143
1.976854 24.397930 -0.000161
2.290677 24.397930 -0.000293
2.604500 24.397930 0.000067
2.918324 24.397930 0.000622
3.232146 24.397930 0.001206
3.545969 24.397930 0.001498
3.859793 24.397930 0.001449
4.173615 24.397930 0.001487
4.487438 24.397930 0.001142
4.801261 24.397930 0.000311
5.115085 24.397930 -0.000884
5.428907 24.397930 -0.002287
5.742730 24.397930 -0.003411
6.056554 24.397930 -0.003775
6.370377 24.397930 -0.003370
6.684199 24.397930 -0.002347
6.998022 24.397930 -0.000839
7.311846 24.397930 0.000391
7.625669 24.397930 0.000803
7.939491 24.397930 0.000776
8.253315 24.397930 -0.001101
8.567138 24.397930 -0.004191
8.880960 24.397930 -0.007839
9.194784 24.397930 -0.011504
9.508606 24.397930 -0.014775
9.822430 24.397930 -0.017713
10.136253 24.397930 -0.022359
10.450075 24.397930 -0.024002
10.763899 24.397930 -0.039547
11.077723 24.397930 -0.064114
11.391544 24.397930 -0.063219
11.705368 24.397930 -0.068894
12.019190 24.397930 -0.085251
12.333014 24.397930 -0.075996
12.646837 24.397930 -0.050886
12.960659 24.397930 -0.032762
13.274483 24.397930 -0.019649
13.588306 24.397930 -0.043852
13.902128 24.397930 -0.063069
14.215952 24.397930 -0.102921
14.529776 24.397930 -0.094854
14.843597 24.397930 -0.063754
15.157421 24.397930 -0.046736
15.471243 24.397930 -0.053367
15.785067 24.397930 -0.015790
16.098890 24.397930 -0.012943
16.412712 24.397930 -0.009916
16.726536 24.397930 -0.024588
17.040359 24.397930 -0.032502
17.354181 24.397930 -0.015426
17.668005 24.397930 -0.024433
17.981829 24.397930 -0.015982
18.295650 24.397930 0.038547
18.609474 24.397930 0.131381
18.923298 24.397930 0.130459
19.237120 24.397930 0.000000
-6.810190 24.084106 0.000000
-6.496367 24.084106 0.004062
-6.182544 24.084106 0.002147
-5.868721 24.084106 0.001214
-5.554898 24.084106 0.000797
-5.241075 24.084106 0.000326
-4.927252 24.084106 0.000085
-4.613429 24.084106 0.000031
-4.299606 24.084106 -0.000012
-3.985783 24.084106 -0.000063
-3.671960 24.084106 0.000084
-3.358137 24.084106 0.000271
-3.044314 24.084106 0.000568
-2.730491 24.084106 0.000864
-2.416668 24.084106 0.001131
-2.102845 24.084106 0.001195
-1.789022 24.084106 0.001209
-1.475199 24.084106 0.001215
-1.161376 24.084106 0.001091
-0.847553 24.084106 0.001110
-0.533730 24.084106 0.001106
-0.219907 24.084106 0.001189
0.093916 24.084106 0.001252
0.407739 24.084106 0.001118
0.721562 24.084106 0.000786
1.035385 24.084106 0.000358
1.349208 24.084106 0.000129
1.663032 24.084106 0.000105
1.976854 24.084106 0.000087
2.290677 24.084106 0.000291
2.604500 24.084106 0.000833
2.918324 24.084106 0.001382
3.232146 24.084106 0.001922
3.545969 24.084106 0.002093
3.859793 24.084106 0.001727
4.173615 24.084106 0.001183
4.487438 24.084106 0.000332
4.801261 24.084106 -0.000728
5.115085 24.084106 -0.001958
5.428907 24.084106 -0.003068
5.742730 24.084106 -0.003292
6.056554 24.084106 -0.002600
6.370377 24.084106 -0.001433
6.684199 24.084106 -0.000319
6.998022 24.084106 0.000926
7.311846 24.084106 0.001397
7.625669 24.084106 0.000717
7.939491 24.084106 -0.000621
8.253315 24.084106 -0.003395
8.567138 24.084106 -0.006946
8.880960 24.084106 -0.011251
9.194784 24.084106 -0.015403
9.508606 24.084106 -0.016673
9.822430 24.084106 -0.013978
10.136253 24.084106 -0.019411
10.450075 24.084106 -0.029920
10.763899 24.084106 -0.043261
11.077723 24.084106 -0.071165
11.391544 24.084106 -0.070915
11.705368 24.084106 -0.082611
12.019190 24.084106 -0.093139
12.333014 24.084106 -0.079693
12.646837 24.084106 -0.066884
12.960659 24.084106 -0.033326
13.274483 24.084106 -0.020995
13.588306 24.084106 -0.031646
13.902128 24.084106 -0.077993
14.215952 24.084106 -0.081372
14.529776 24.084106 -0.094307
14.843597 24.084106 -0.056196
15.157421 24.084106 -0.034696
15.471243 24.084106 -0.037087
15.785067 24.084106 -0.016861
16.098890 24.084106 -0.007161
16.412712 24.084106 -0.017360
16.726536 24.084106 -0.043297
17.040359 24.084106 -0.046994
17.354181 24.084106 -0.037484
17.668005 24.084106 -0.032492
17.981829 24.084106 -0.021113
18.295650 24.084106 0.029781
18.609474 24.084106 0.146559
18.923298 24.084106 0.205645
19.237120 24.084106 0.000000
-6.810190 23.770283 0.000000
-6.496367 23.770283 0.003858
-6.182544 23.770283 0.001592
-5.868721 23.770283 0.000466
-5.554898 23.770283 0.000012
-5.241075 23.770283 -0.000329
-4.927252 23.770283 -0.000328
-4.613429 23.770283 -0.000094
-4.299606 23.770283 0.000161
-3.985783 23.770283 0.000350
-3.671960 23.770283 0.000639
-3.358137 23.770283 0.000887
-3.044314 23.770283 0.001022
-2.730491 23.770283 0.001075
-2.416668 23.770283 0.001158
-2.102845 23.770283 0.001253
-1.789022 23.770283 0.001415
-1.475199 23.770283 0.001405
-1.161376 23.770283 0.001138
-0.847553 23.770283 0.001091
-0.533730 23.770283 0.001211
-0.219907 23.770283 0.001187
0.093916 23.770283 0.000992
0.407739 23.770283 0.000526
0.721562 23.770283 0.000112
1.035385 23.770283 -0.000166
1.349208 23.770283 -0.000103
1.663032 23.770283 0.000296
1.976854 23.770283 0.000731
2.290677 23.770283 0.001115
2.604500 23.770283 0.001599
2.918324 23.770283 0.001903
3.232146 23.770283 0.002074
3.545969 23.770283 0.001904
3.859793 23.770283 0.001068
4.173615 23.770283 0.000071
4.487438 23.770283 -0.000908
4.801261 23.770283 -0.001824
5.115085 23.770283 -0.002521
5.428907 23.770283 -0.002801
5.742730 23.770283 -0.002009
6.056554 23.770283 -0.000500
6.370377 23.770283 0.000740
6.684199 23.770283 0.001506
6.998022 23.770283 0.001774
7.311846 23.770283 0.000976
7.625669 23.770283 -0.001007
7.939491 23.770283 -0.003469
8.253315 23.770283 -0.005817
8.567138 23.770283 -0.008877
8.880960 23.770283 -0.011769
9.194784 23.770283 -0.015636
9.508606 23.770283 -0.014326
9.822430 23.770283 -0.018067
10.136253 23.770283 -0.020826
10.450075 23.770283 -0.029150
10.763899 23.770283 -0.046908
11.077723 23.770283 -0.070331
11.391544 23.770283 -0.085474
11.705368 23.770283 -0.085954
12.019190 23.770283 -0.095547
12.333014 23.770283 -0.094035
12.646837 23.770283 -0.050569
12.960659 23.770283 -0.033851
13.274483 23.770283 -0.029032
13.588306 23.770283 -0.038547
13.902128 23.770283 -0.061366
14.215952 23.770283 -0.093628
14.529776 23.770283 -0.097497
14.843597 23.770283 -0.054713
15.157421 23.770283 -0.037522
15.471243 23.770283 -0.046945
15.785067 23.770283 -0.046271
16.098890 23.770283 -0.022388
16.412712 23.770283 -0.028050
16.726536 23.770283 -0.045468
17.040359 23.770283 -0.037354
17.354181 23.770283 -0.042030
17.668005 23.770283 -0.039255
17.981829 23.770283 -0.012431
18.295650 23.770283 0.042206
18.609474 23.770283 0.172895
18.923298 23.770283 0.115706
19.237120 23.770283 0.000000
-6.810190 23.456461 0.000000
-6.496367 23.456461 0.003606
-6.182544 23.456461 0.001033
-5.868721 23.456461 -0.000081
-5.554898 23.456461 -0.000447
-5.241075 23.456461 -0.000544
-4.927252 23.456461 -0.000384
-4.613429 23.456461 -0.000081
-4.299606 23.456461 0.000222
-3.985783 23.456461 0.000555
-3.671960 23.456461 0.000990
-3.358137 23.456461 0.001269
-3.044314 23.456461 0.001290
-2.730491 23.456461 0.001158
-2.416668 23.456461 0.001114
-2.102845 23.456461 0.001295
-1.789022 23.456461 0.001645
-1.475199 23.456461 0.001618
-1.161376 23.456461 0.001154
-0.847553 23.456461 0.000963
-0.533730 23.456461 0.000995
-0.219907 23.456461 0.000856
0.093916 23.456461 0.000460
0.407739 23.456461 -0.000199
0.721562 23.456461 -0.000422
1.035385 23.456461 -0.000363
1.349208 23.456461 0.000059
1.663032 23.456461 0.000844
1.976854 23.456461 0.001523
2.290677 23.456461 0.001884
2.604500 23.456461 0.002010
2.918324 23.456461 0.001847
3.232146 23.456461 0.001506
3.545969 23.456461 0.000905
3.859793 23.456461 -0.000191
4.173615 23.456461 -0.001237
4.487438 23.456461 -0.001962
4.801261 23.456461 -0.002264
5.115085 23.456461 -0.002003
5.428907 23.456461 -0.001361
5.742730 23.456461 -0.000022
6.056554 23.456461 0.001513
6.370377 23.456461 0.002233
6.684199 23.456461 0.002150
6.998022 23.456461 0.001122
7.311846 23.456461 -0.000936
7.625669 23.456461 -0.003621
7.939491 23.456461 -0.005988
8.253315 23.456461 -0.007655
8.567138 23.456461 -0.009495
8.880960 23.456461 -0.010278
9.194784 23.456461 -0.012988
9.508606 23.456461 -0.013992
9.822430 23.456461 -0.018941
10.136253 23.456461 -0.024992
10.450075 23.456461 -0.026217
10.763899 23.456461 -0.046156
11.077723 23.456461 -0.063969
11.391544 23.456461 -0.076783
11.705368 23.456461 -0.088131
12.019190 23.456461 -0.098107
12.333014 23.456461 -0.086599
12.646837 23.456461 -0.062096
12.960659 23.456461 -0.052193
13.274483 23.456461 -0.044184
13.588306 23.456461 -0.058680
13.902128 23.456461 -0.066100
14.215952 23.456461 -0.101984
14.529776 23.456461 -0.105604
14.843597 23.456461 -0.053740
15.157421 23.456461 -0.035710
15.471243 23.456461 -0.049621
15.785067 23.456461 -0.055282
16.098890 23.456461 -0.036578
16.412712 23.456461 -0.028152
16.726536 23.456461 -0.040506
17.040359 23.456461 -0.030654
17.354181 23.456461 -0.039839
17.668005 23.456461 -0.046420
17.981829 23.456461 -0.018207
18.295650 23.456461 0.080974
18.609474 23.456461 0.197366
18.923298 23.456461 0.110189
19.237120 23.456461 0.000000
-6.810190 23.142637 0.000000
-6.496367 23.142637 0.003301
-6.182544 23.142637 0.000604
-5.868721 23.142637 -0.000384
-5.554898 23.142637 -0.000509
-5.241075 23.142637 -0.000365
-4.927252 23.142637 -0.000113
-4.613429 23.142637 0.000082
-4.299606 23.142637 0.000245
-3.985783 23.142637 0.000611
-3.671960 23.142637 0.001158
-3.358137 23.142637 0.001421
-3.044314 23.142637 0.001364
-2.730491 23.142637 0.001246
-2.416668 23.142637 0.001199
-2.102845 23.142637 0.001422
-1.789022 23.142637 0.001784
-1.475199 23.142637 0.001658
-1.161376 23.142637 0.001032
-0.847553 23.142637 0.000605
-0.533730 23.142637 0.000448
-0.219907 23.142637 0.000177
0.093916 23.142637 -0.000199
0.407739 23.142637 -0.000521
0.721562 23.142637 -0.000342
1.035385 23.142637 0.000074
1.349208 23.142637 0.000706
1.663032 23.142637 0.001584
1.976854 23.142637 0.002086
2.290677 23.142637 0.002179
2.604500 23.142637 0.001771
2.918324 23.142637 0.001106
3.232146 23.142637 0.000383
3.545969 23.142637 -0.000419
3.859793 23.142637 -0.001421
4.173615 23.142637 -0.002061
4.487438 23.142637 -0.002131
4.801261 23.142637 -0.001601
5.115085 23.142637 -0.000503
5.428907 23.142637 0.000530
5.742730 23.142637 0.001625
6.056554 23.142637 0.002533
6.370377 23.142637 0.002197
6.684199 23.142637 0.000992
6.998022 23.142637 -0.000831
7.311846 23.142637 -0.003288
7.625669 23.142637 -0.005599
7.939491 23.142637 -0.007059
8.253315 23.142637 -0.007608
8.567138 23.142637 -0.007715
8.880960 23.142637 -0.006840
9.194784 23.142637 -0.008832
9.508606 23.142637 -0.013121
9.822430 23.142637 -0.017791
10.136253 23.142637 -0.030676
10.450075 23.142637 -0.029535
10.763899 23.142637 -0.044499
11.077723 23.142637 -0.067486
11.391544 23.142637 -0.075537
11.705368 23.142637 -0.069447
12.019190 23.142637 -0.086559
12.333014 23.142637 -0.084973
12.646837 23.142637 -0.073570
12.960659 23.142637 -0.064743
13.274483 23.142637 -0.071411
13.588306 23.142637 -0.058245
13.902128 23.142637 -0.053352
14.215952 23.142637 -0.050936
14.529776 23.142637 -0.097356
14.843597 23.142637 -0.054639
15.157421 23.142637 -0.049424
15.471243 23.142637 -0.044856
15.785067 23.142637 -0.044558
16.098890 23.142637 -0.006202
16.412712 23.142637 -0.016144
16.726536 23.142637 -0.024967
17.040359 23.142637 -0.018614
17.354181 23.142637 -0.040923
17.668005 23.142637 -0.042317
17.981829 23.142637 -0.000949
18.295650 23.142637 0.095326
18.609474 23.142637 0.230193
18.923298 23.142637 0.167537
19.237120 23.142637 0.000000
-6.810190 22.828814 0.000000
-6.496367 22.828814 0.003148
-6.182544 22.828814 0.000430
-5.868721 22.828814 -0.000330
-5.554898 22.828814 -0.000321
-5.241075 22.828814 -0.000055
-4.927252 22.828814 0.000172
-4.613429 22.828814 0.000310
-4.299606 22.828814 0.000310
-3.985783 22.828814 0.000645
-3.671960 22.828814 0.001196
-3.358137 22.828814 0.001413
-3.044314 22.828814 0.001346
-2.730491 22.828814 0.001305
-2.416668 22.828814 0.001349
-2.102845 22.828814 0.001430
-1.789022 22.828814 0.001639
-1.475199 22.828814 0.001320
-1.161376 22.828814 0.000556
-0.847553 22.828814 0.000030
-0.533730 22.828814 -0.000174
-0.219907 22.828814 -0.000417
0.093916 22.828814 -0.000465
0.407739 22.828814 -0.000201
0.721562 22.828814 0.000397
1.035385 22.828814 0.000946
1.349208 22.828814 0.001572
1.663032 22.828814 0.002143
1.976854 22.828814 0.002120
2.290677 22.828814 0.001757
2.604500 22.828814 0.000856
2.918324 22.828814 -0.000138
3.232146 22.828814 -0.000876
3.545969 22.828814 -0.001434
3.859793 22.828814 -0.001894
4.173615 22.828814 -0.001821
4.487438 22.828814 -0.001251
4.801261 22.828814 -0.000139
5.115085 22.828814 0.001201
5.428907 22.828814 0.001899
5.742730 22.828814 0.002202
6.056554 22.828814 0.001944
6.370377 22.828814 0.000621
6.684199 22.828814 -0.001461
6.998022 22.828814 -0.003287
7.311846 22.828814 -0.004786
7.625669 22.828814 -0.005869
7.939491 22.828814 -0.005899
8.253315 22.828814 -0.005258
8.567138 22.828814 -0.004449
8.880960 22.828814 -0.004255
9.194784 22.828814 -0.005896
9.508606 22.828814 -0.010229
9.822430 22.828814 -0.020910
10.136253 22.828814 -0.032178
10.450075 22.828814 -0.038050
10.763899 22.828814 -0.044805
11.077723 22.828814 -0.065202
11.391544 22.828814 -0.071021
11.705368 22.828814 -0.064951
12.019190 22.828814 -0.076653
12.333014 22.828814 -0.090423
12.646837 22.828814 -0.082434
12.960659 22.828814 -0.064509
13.274483 22.828814 -0.072762
13.588306 22.828814 -0.067527
13.902128 22.828814 -0.058322
14.215952 22.828814 -0.069907
14.529776 22.828814 -0.088097
14.843597 22.828814 -0.058693
15.157421 22.828814 -0.057714
15.471243 22.828814 -0.033403
15.785067 22.828814 -0.025423
16.098890 22.828814 -0.017823
16.412712 22.828814 -0.008190
16.726536 22.828814 -0.025377
17.040359 22.828814 -0.016950
17.354181 22.828814 -0.022039
17.668005 22.828814 -0.030590
17.981829 22.828814 0.022519
18.295650 22.828814 0.136696
18.609474 22.828814 0.262548
18.923298 22.828814 0.218954
19.237120 22.828814 0.000000
-6.810190 22.514992 0.000000
-6.496367 22.514992 0.003154
-6.182544 22.514992 0.000497
-5.868721 22.514992 -0.000048
-5.554898 22.514992 -0.000045
-5.241075 22.514992 0.000225
-4.927252 22.514992 0.000484
-4.613429 22.514992 0.000512
-4.299606 22.514992 0.000495
-3.985783 22.514992 0.000762
-3.671960 22.514992 0.001179
-3.358137 22.514992 0.001300
-3.044314 22.514992 0.001241
-2.730491 22.514992 0.001345
-2.416668 22.514992 0.001355
-2.102845 22.514992 0.001213
-1.789022 22.514992 0.001141
-1.475199 22.514992 0.000673
-1.161376 22.514992 -0.000017
-0.847553 22.514992 -0.000450
-0.533730 22.514992 -0.000532
-0.219907 22.514992 -0.000464
0.093916 22.514992 -0.000025
0.407739 22.514992 0.000721
0.721562 22.514992 0.001453
1.035385 22.514992 0.001890
1.349208 22.514992 0.002155
1.663032 22.514992 0.002051
1.976854 22.514992 0.001553
2.290677 22.514992 0.000722
2.604500 22.514992 -0.000408
2.918324 22.514992 -0.001272
3.232146 22.514992 -0.001605
3.545969 22.514992 -0.001591
3.859793 22.514992 -0.001235
4.173615 22.514992 -0.000559
4.487438 22.514992 0.000262
4.801261 22.514992 0.001260
5.115085 22.514992 0.002130
5.428907 22.514992 0.002037
5.742730 22.514992 0.001233
6.056554 22.514992 0.000032
6.370377 22.514992 -0.001768
6.684199 22.514992 -0.003708
6.998022 22.514992 -0.004674
7.311846 22.514992 -0.004744
7.625669 22.514992 -0.004246
7.939491 22.514992 -0.003390
8.253315 22.514992 -0.002376
8.567138 22.514992 -0.002780
8.880960 22.514992 -0.003278
9.194784 22.514992 -0.004311
9.508606 22.514992 -0.009138
9.822430 22.514992 -0.017238
10.136253 22.514992 -0.030109
10.450075 22.514992 -0.041728
10.763899 22.514992 -0.054996
11.077723 22.514992 -0.060410
11.391544 22.514992 -0.061549
11.705368 22.514992 -0.062835
12.019190 22.514992 -0.074229
12.333014 22.514992 -0.077544
12.646837 22.514992 -0.062040
12.960659 22.514992 -0.066922
13.274483 22.514992 -0.082755
13.588306 22.514992 -0.093870
13.902128 22.514992 -0.047841
14.215952 22.514992 -0.047551
14.529776 22.514992 -0.080487
14.843597 22.514992 -0.084604
15.157421 22.514992 -0.041575
15.471243 22.514992 -0.028698
15.785067 22.514992 0.011310
16.098890 22.514992 0.008760
16.412712 22.514992 -0.008583
16.726536 22.514992 0.006137
17.040359 22.514992 0.001768
17.354181 22.514992 -0.026020
17.668005 22.514992 -0.019907
17.981829 22.514992 0.030795
18.295650 22.514992 0.148272
18.609474 22.514992 0.264300
18.923298 22.514992 0.123392
19.237120 22.514992 0.000000
-6.810190 22.201168 0.000000
-6.496367 22.201168 0.003182
-6.182544 22.201168 0.000659
-5.868721 22.201168 0.000220
-5.554898 22.201168 0.000231
-5.241075 22.201168 0.000480
-4.927252 22.201168 0.000803
-4.613429 22.201168 0.000840
-4.299606 22.201168 0.000836
-3.985783 22.201168 0.000957
-3.671960 22.201168 0.001111
-3.358137 22.201168 0.001097
-3.044314 22.201168 0.001037
-2.730491 22.201168 0.001154
-2.416668 22.201168 0.001019
-2.102845 22.201168 0.000656
-1.789022 22.201168 0.000343
-1.475199 22.201168 0.000037
-1.161376 22.201168 -0.000296
-0.847553 22.201168 -0.000424
-0.533730 22.201168 -0.000205
-0.219907 22.201168 0.000228
0.093916 22.201168 0.000987
0.407739 22.201168 0.001886
0.721562 22.201168 0.002324
1.035385 22.201168 0.002285
1.349208 22.201168 0.001956
1.663032 22.201168 0.001278
1.976854 22.201168 0.000414
2.290677 22.201168 -0.000519
2.604500 22.201168 -0.001358
2.918324 22.201168 -0.001645
3.232146 22.201168 -0.001315
3.545969 22.201168 -0.000681
3.859793 22.201168 0.000153
4.173615 22.201168 0.000992
4.487438 22.201168 0.001511
4.801261 22.201168 0.001781
5.115085 22.201168 0.001834
5.428907 22.201168 0.000815
5.742730 22.201168 -0.000789
6.056554 22.201168 -0.002213
6.370377 22.201168 -0.003524
6.684199 22.201168 -0.004526
6.998022 22.201168 -0.004089
7.311846 22.201168 -0.002875
7.625669 22.201168 -0.001541
7.939491 22.201168 -0.000724
8.253315 22.201168 -0.001033
8.567138 22.201168 -0.001923
8.880960 22.201168 -0.004323
9.194784 22.201168 -0.007324
9.508606 22.201168 -0.008545
9.822430 22.201168 -0.017625
10.136253 22.201168 -0.029867
10.450075 22.201168 -0.044174
10.763899 22.201168 -0.059763
11.077723 22.201168 -0.062428
11.391544 22.201168 -0.051275
11.705368 22.201168 -0.059541
12.019190 22.201168 -0.069158
12.333014 22.201168 -0.068427
12.646837 22.201168 -0.062441
12.960659 22.201168 -0.084912
13.274483 22.201168 -0.092205
13.588306 22.201168 -0.078960
13.902128 22.201168 -0.051412
14.215952 22.201168 -0.046198
14.529776 22.201168 -0.059037
14.843597 22.201168 -0.062641
15.157421 22.201168 -0.044865
15.471243 22.201168 -0.039054
15.785067 22.201168 0.009078
16.098890 22.201168 0.003197
16.412712 22.201168 -0.010810
16.726536 22.201168 0.019942
17.040359 22.201168 0.000533
17.354181 22.201168 -0.001319
17.668005 22.201168 -0.001188
17.981829 22.201168 0.030641
18.295650 22.201168 0.142637
18.609474 22.201168 0.267207
18.923298 22.201168 0.153614
19.237120 22.201168 0.000000
-6.810190 21.887346 0.000000
-6.496367 21.887346 0.003141
-6.182544 21.887346 0.000727
-5.868721 21.887346 0.000390
-5.554898 21.887346 0.000418
-5.241075 21.887346 0.000689
-4.927252 21.887346 0.001113
-4.613429 21.887346 0.001149
-4.299606 21.887346 0.001109
-3.985783 21.887346 0.001091
-3.671960 21.887346 0.000929
-3.358137 21.887346 0.000700
-3.044314 21.887346 0.000623
-2.730491 21.887346 0.000677
-2.416668 21.887346 0.000387
-2.102845 21.887346 -0.000086
-1.789022 21.887346 -0.000343
-1.475199 21.887346 -0.000220
-1.161376 21.887346 -0.000018
-0.847553 21.887346 0.000287
-0.533730 21.887346 0.000730
-0.219907 21.887346 0.001215
0.093916 21.887346 0.001908
0.407739 21.887346 0.002426
0.721562 21.887346 0.002380
1.035385 21.887346 0.001788
1.349208 21.887346 0.000887
1.663032 21.887346 -0.000035
1.976854 21.887346 -0.000746
2.290677 21.887346 -0.001262
2.604500 21.887346 -0.001373
2.918324 21.887346 -0.000938
3.232146 21.887346 -0.000186
3.545969 21.887346 0.000741
3.859793 21.887346 0.001500
4.173615 21.887346 0.001906
4.487438 21.887346 0.001709
4.801261 21.887346 0.001208
5.115085 21.887346 0.000380
5.428907 21.887346 -0.001153
5.742730 21.887346 -0.002761
6.056554 21.887346 -0.003591
6.370377 21.887346 -0.003657
6.684199 21.887346 -0.003342
6.998022 21.887346 -0.001993
7.311846 21.887346 -0.000414
7.625669 21.887346 0.000328
7.939491 21.887346 0.000284
8.253315 21.887346 -0.000823
8.567138 21.887346 -0.003769
8.880960 21.887346 -0.005767
9.194784 21.887346 -0.008168
9.508606 21.887346 -0.008927
9.822430 21.887346 -0.017307
10.136253 21.887346 -0.027867
10.450075 21.887346 -0.042786
10.763899 21.887346 -0.059760
11.077723 21.887346 -0.054381
11.391544 21.887346 -0.055530
11.705368 21.887346 -0.070080
12.019190 21.887346 -0.073247
12.333014 21.887346 -0.079196
12.646837 21.887346 -0.053827
12.960659 21.887346 -0.066296
13.274483 21.887346 -0.089774
13.588306 21.887346 -0.078829
13.902128 21.887346 -0.075667
14.215952 21.887346 -0.059028
14.529776 21.887346 -0.060853
14.843597 21.887346 -0.036965
15.157421 21.887346 -0.059059
15.471243 21.887346 -0.049839
15.785067 21.887346 -0.018378
16.098890 21.887346 -0.000173
16.412712 21.887346 -0.013341
16.726536 21.887346 -0.006848
17.040359 21.887346 0.006350
17.354181 21.887346 -0.002723
17.668005 21.887346 0.009311
17.981829 21.887346 0.027399
18.295650 21.887346 0.127859
18.609474 21.887346 0.317042
18.923298 21.887346 -0.000447
19.237120 21.887346 0.000000
-6.810190 21.573523 0.000000
-6.496367 21.573523 0.002979
-6.182544 21.573523 0.000793
-5.868721 21.573523 0.000473
-5.554898 21.573523 0.000615
-5.241075 21.573523 0.000887
-4.927252 21.573523 0.001299
-4.613429 21.573523 0.001329
-4.299606 21.573523 0.001162
-3.985783 21.573523 0.000997
-3.671960 21.573523 0.000580
-3.358137 21.573523 0.000096
-3.044314 21.573523 -0.000080
-2.730491 21.573523 -0.000023
-2.416668 21.573523 -0.000250
-2.102845 21.573523 -0.000463
-1.789022 21.573523 -0.000379
-1.475199 21.573523 0.000210
-1.161376 21.573523 0.000863
-0.847553 21.573523 0.001395
-0.533730 21.573523 0.001813
-0.219907 21.573523 0.001999
0.093916 21.573523 0.002190
0.407739 21.573523 0.002023
0.721562 21.573523 0.001463
1.035385 21.573523 0.000470
1.349208 21.573523 -0.000541
1.663032 21.573523 -0.001129
1.976854 21.573523 -0.001212
2.290677 21.573523 -0.000934
2.604500 21.573523 -0.000393
2.918324 21.573523 0.000462
3.232146 21.573523 0.001182
3.545969 21.573523 0.001717
3.859793 21.573523 0.001879
4.173615 21.573523 0.001566
4.487438 21.573523 0.000713
4.801261 21.573523 -0.000306
5.115085 21.573523 -0.001402
5.428907 21.573523 -0.002738
5.742730 21.573523 -0.003626
6.056554 21.573523 -0.003309
6.370377 21.573523 -0.002160
6.684199 21.573523 -0.000871
6.998022 21.573523 0.000389
7.311846 21.573523 0.001003
7.625669 21.573523 0.000709
7.939491 21.573523 -0.000686
8.253315 21.573523 -0.002795
8.567138 21.573523 -0.005744
8.880960 21.573523 -0.006241
9.194784 21.573523 -0.008649
9.508606 21.573523 -0.012192
9.822430 21.573523 -0.022500
10.136253 21.573523 -0.031167
10.450075 21.573523 -0.037515
10.763899 21.573523 -0.053329
11.077723 21.573523 -0.056080
11.391544 21.573523 -0.068786
11.705368 21.573523 -0.074504
12.019190 21.573523 -0.074104
12.333014 21.573523 -0.072661
12.646837 21.573523 -0.066331
12.960659 21.573523 -0.059202
13.274483 21.573523 -0.079558
13.588306 21.573523 -0.094071
13.902128 21.573523 -0.070202
14.215952 21.573523 -0.077870
14.529776 21.573523 -0.051649
14.843597 21.573523 -0.030811
15.157421 21.573523 -0.067662
15.471243 21.573523 -0.055278
15.785067 21.573523 -0.008982
16.098890 21.573523 -0.001667
16.412712 21.573523 -0.009766
16.726536 21.573523 0.010372
17.040359 21.573523 -0.001919
17.354181 21.573523 -0.037482
17.668005 21.573523 -0.015464
17.981829 21.573523 0.018823
18.295650 21.573523 0.145474
18.609474 21.573523 0.301738
18.923298 21.573523 0.344501
19.237120 21.573523 0.000000
-6.810190 21.259699 0.000000
-6.496367 21.259699 0.002754
-6.182544 21.259699 0.000811
-5.868721 21.259699 0.000553
-5.554898 21.259699 0.000766
-5.241075 21.259699 0.000919
-4.927252 21.259699 0.001273
-4.613429 21.259699 0.001315
-4.299606 21.259699 0.001015
-3.985783 21.259699 0.000651
-3.671960 21.259699 -0.000006
-3.358137 21.259699 -0.000625
-3.044314 21.259699 -0.000720
-2.730491 21.259699 -0.000478
-2.416668 21.259699 -0.000386
-2.102845 21.259699 -0.000093
-1.789022 21.259699 0.000396
-1.475199 21.259699 0.001262
-1.161376 21.259699 0.001989
-0.847553 21.259699 0.002321
-0.533730 21.259699 0.002331
-0.219907 21.259699 0.002006
0.093916 21.259699 0.001599
0.407739 21.259699 0.000952
0.721562 21.259699 0.000056
1.035385 21.259699 -0.000880
1.349208 21.259699 -0.001402
1.663032 21.259699 -0.001215
1.976854 21.259699 -0.000565
2.290677 21.259699 0.000323
2.604500 21.259699 0.001168
2.918324 21.259699 0.001815
3.232146 21.259699 0.001980
3.545969 21.259699 0.001675
3.859793 21.259699 0.000999
4.173615 21.259699 0.000108
4.487438 21.259699 -0.000888
4.801261 21.259699 -0.001745
5.115085 21.259699 -0.002349
5.428907 21.259699 -0.002807
5.742730 21.259699 -0.002747
6.056554 21.259699 -0.001579
6.370377 21.259699 -0.000041
6.684199 21.259699 0.001032
6.998022 21.259699 0.001220
7.311846 21.259699 0.000492
7.625669 21.259699 -0.001108
7.939491 21.259699 -0.003173
8.253315 21.259699 -0.005013
8.567138 21.259699 -0.007580
8.880960 21.259699 -0.006529
9.194784 21.259699 -0.009084
9.508606 21.259699 -0.014336
9.822430 21.259699 -0.021839
10.136253 21.259699 -0.030772
10.450075 21.259699 -0.036328
10.763899 21.259699 -0.053748
11.077723 21.259699 -0.057874
11.391544 21.259699 -0.062493
11.705368 21.259699 -0.074200
12.019190 21.259699 -0.090304
12.333014 21.259699 -0.088081
12.646837 21.259699 -0.068719
12.960659 21.259699 -0.058594
13.274483 21.259699 -0.077772
13.588306 21.259699 -0.098350
13.902128 21.259699 -0.080451
14.215952 21.259699 -0.067107
14.529776 21.259699 -0.035881
14.843597 21.259699 -0.054184
15.157421 21.259699 -0.046474
15.471243 21.259699 -0.056916
15.785067 21.259699 -0.028204
16.098890 21.259699 -0.021728
16.412712 21.259699 -0.003302
16.726536 21.259699 -0.007021
17.040359 21.259699 -0.008979
17.354181 21.259699 -0.035103
17.668005 21.259699 -0.011752
17.981829 21.259699 0.036218
18.295650 21.259699 0.113318
18.609474 21.259699 0.299324
18.923298 21.259699 0.000000
19.237120 21.259699 0.000000
-6.810190 20.945877 0.000000
-6.496367 20.945877 0.002704
-6.182544 20.945877 0.000843
-5.868721 20.945877 0.000620
-5.554898 20.945877 0.000774
-5.241075 20.945877 0.000725
-4.927252 20.945877 0.000856
-4.613429 20.945877 0.000915
-4.299606 20.945877 0.000619
-3.985783 20.945877 0.000169
-3.671960 20.945877 -0.000572
-3.358137 20.945877 -0.001032
-3.044314 20.945877 -0.000852
-2.730491 20.945877 -0.000288
-2.416668 20.945877 0.000260
-2.102845 20.945877 0.000948
-1.789022 20.945877 0.001597
-1.475199 20.945877 0.002278
-1.161376 20.945877 0.002662
-0.847553 20.945877 0.002469
-0.533730 20.945877 0.001927
-0.219907 20.945877 0.001159
0.093916 20.945877 0.000466
0.407739 20.945877 -0.000337
0.721562 20.945877 -0.000996
1.035385 20.945877 -0.001357
1.349208 20.945877 -0.001049
1.663032 20.945877 -0.000141
1.976854 20.945877 0.000899
2.290677 20.945877 0.001749
2.604500 20.945877 0.002314
2.918324 20.945877 0.002297
3.232146 20.945877 0.001648
3.545969 20.945877 0.000616
3.859793 20.945877 -0.000637
4.173615 20.945877 -0.001573
4.487438 20.945877 -0.002014
4.801261 20.945877 -0.002079
5.115085 20.945877 -0.001775
5.428907 20.945877 -0.001463
5.742730 20.945877 -0.000774
6.056554 20.945877 0.000365
6.370377 20.945877 0.001241
6.684199 20.945877 0.001259
6.998022 20.945877 0.000241
7.311846 20.945877 -0.001464
7.625669 20.945877 -0.003528
7.939491 20.945877 -0.005446
8.253315 20.945877 -0.007060
8.567138 20.945877 -0.008119
8.880960 20.945877 -0.007483
9.194784 20.945877 -0.008289
9.508606 20.945877 -0.016038
9.822430 20.945877 -0.019996
10.136253 20.945877 -0.026311
10.450075 20.945877 -0.036021
10.763899 20.945877 -0.044793
11.077723 20.945877 -0.059783
11.391544 20.945877 -0.069842
11.705368 20.945877 -0.077069
12.019190 20.945877 -0.095562
12.333014 20.945877 -0.113378
12.646837 20.945877 -0.065029
12.960659 20.945877 -0.048797
13.274483 20.945877 -0.065803
13.588306 20.945877 -0.074915
13.902128 20.945877 -0.080184
14.215952 20.945877 -0.076964
14.529776 20.945877 -0.068042
14.843597 20.945877 -0.042292
15.157421 20.945877 -0.038256
15.471243 20.945877 -0.040156
15.785067 20.945877 -0.044051
16.098890 20.945877 -0.020778
16.412712 20.945877 0.000129
16.726536 20.945877 -0.010740
17.040359 20.945877 -0.023727
17.354181 20.945877 -0.020491
17.668005 20.945877 0.001078
17.981829 20.945877 0.050097
18.295650 20.945877 0.133791
18.609474 20.945877 0.286174
18.923298 20.945877 0.000000
19.237120 20.945877 0.000000
-6.810190 20.632053 0.000000
-6.496367 20.632053 0.002802
-6.182544 20.632053 0.000843
-5.868721 20.632053 0.000555
-5.554898 20.632053 0.000599
-5.241075 20.632053 0.000306
-4.927252 20.632053 0.000188
-4.613429 20.632053 0.000140
-4.299606 20.632053 0.000018
-3.985783 20.632053 -0.000257
-3.671960 20.632053 -0.000664
-3.358137 20.632053 -0.000690
-3.044314 20.632053 -0.000186
-2.730491 20.632053 0.000618
-2.416668 20.632053 0.001358
-2.102845 20.632053 0.002073
-1.789022 20.632053 0.002484
-1.475199 20.632053 0.002595
-1.161376 20.632053 0.002343
-0.847553 20.632053 0.001606
-0.533730 20.632053 0.000773
-0.219907 20.632053 -0.000016
0.093916 20.632053 -0.000531
0.407739 20.632053 -0.000891
0.721562 20.632053 -0.000903
1.035385 20.632053 -0.000492
1.349208 20.632053 0.000427
1.663032 20.632053 0.001456
1.976854 20.632053 0.002178
2.290677 20.632053 0.002484
2.604500 20.632053 0.002302
2.918324 20.632053 0.001578
3.232146 20.632053 0.000370
3.545969 20.632053 -0.000941
3.859793 20.632053 -0.002025
4.173615 20.632053 -0.002289
4.487438 20.632053 -0.001814
4.801261 20.632053 -0.001077
5.115085 20.632053 -0.000222
5.428907 20.632053 0.000276
5.742730 20.632053 0.000765
6.056554 20.632053 0.001199
6.370377 20.632053 0.000985
6.684199 20.632053 -0.000061
6.998022 20.632053 -0.001843
7.311846 20.632053 -0.003708
7.625669 20.632053 -0.005147
7.939491 20.632053 -0.005941
8.253315 20.632053 -0.006439
8.567138 20.632053 -0.006345
8.880960 20.632053 -0.007613
9.194784 20.632053 -0.010926
9.508606 20.632053 -0.012201
9.822430 20.632053 -0.016025
10.136253 20.632053 -0.022189
10.450075 20.632053 -0.029387
10.763899 20.632053 -0.044796
11.077723 20.632053 -0.058056
11.391544 20.632053 -0.075059
11.705368 20.632053 -0.078420
12.019190 20.632053 -0.099516
12.333014 20.632053 -0.119775
12.646837 20.632053 -0.069173
12.960659 20.632053 -0.043570
13.274483 20.632053 -0.060655
13.588306 20.632053 -0.077574
13.902128 20.632053 -0.082365
14.215952 20.632053 -0.090308
14.529776 20.632053 -0.067756
14.843597 20.632053 -0.043767
15.157421 20.632053 -0.037385
15.471243 20.632053 -0.034462
15.785067 20.632053 -0.056084
16.098890 20.632053 -0.021393
16.412712 20.632053 -0.005724
16.726536 20.632053 -0.021386
17.040359 20.632053 -0.037850
17.354181 20.632053 -0.020444
17.668005 20.632053 0.010774
17.981829 20.632053 0.049591
18.295650 20.632053 0.148849
18.609474 20.632053 0.317933
18.923298 20.632053 0.000000
19.237120 20.632053 0.000000
-6.810190 20.318230 0.000000
-6.496367 20.318230 0.002912
-6.182544 20.318230 0.000700
-5.868721 20.318230 0.000272
-5.554898 20.318230 0.000125
-5.241075 20.318230 -0.000323
-4.927252 20.318230 -0.000596
-4.613429 20.318230 -0.000554
-4.299606 20.318230 -0.000376
-3.985783 20.318230 -0.000236
-3.671960 20.318230 -0.000037
-3.358137 20.318230 0.000453
-3.044314 20.318230 0.001016
-2.730491 20.318230 0.001676
-2.416668 20.318230 0.002163
-2.102845 20.318230 0.002475
-1.789022 20.318230 0.002445
-1.475199 20.318230 0.001972
-1.161376 20.318230 0.001183
-0.847553 20.318230 0.000216
-0.533730 20.318230 -0.000423
-0.219907 20.318230 -0.000679
0.093916 20.318230 -0.000624
0.407739 20.318230 -0.000293
0.721562 20.318230 0.000316
1.035385 20.318230 0.001123
1.349208 20.318230 0.001983
1.663032 20.318230 0.002447
1.976854 20.318230 0.002380
2.290677 20.318230 0.001933
2.604500 20.318230 0.001164
2.918324 20.318230 0.000168
3.232146 20.318230 -0.000965
3.545969 20.318230 -0.001902
3.859793 20.318230 -0.002210
4.173615 20.318230 -0.001546
4.487438 20.318230 -0.000434
4.801261 20.318230 0.000547
5.115085 20.318230 0.001083
5.428907 20.318230 0.001115
5.742730 20.318230 0.000948
6.056554 20.318230 0.000528
6.370377 20.318230 -0.000543
6.684199 20.318230 -0.002115
6.998022 20.318230 -0.003500
7.311846 20.318230 -0.004603
7.625669 20.318230 -0.004829
7.939491 20.318230 -0.004624
8.253315 20.318230 -0.004452
8.567138 20.318230 -0.004288
8.880960 20.318230 -0.006506
9.194784 20.318230 -0.008632
9.508606 20.318230 -0.009750
9.822430 20.318230 -0.013743
10.136253 20.318230 -0.014491
10.450075 20.318230 -0.017812
10.763899 20.318230 -0.039724
11.077723 20.318230 -0.053320
11.391544 20.318230 -0.069312
11.705368 20.318230 -0.076409
12.019190 20.318230 -0.092093
12.333014 20.318230 -0.099504
12.646837 20.318230 -0.057138
12.960659 20.318230 -0.048413
13.274483 20.318230 -0.053475
13.588306 20.318230 -0.065323
13.902128 20.318230 -0.079779
14.215952 20.318230 -0.071056
14.529776 20.318230 -0.058755
14.843597 20.318230 -0.025412
15.157421 20.318230 0.007637
15.471243 20.318230 -0.030796
15.785067 20.318230 -0.060775
16.098890 20.318230 -0.028873
16.412712 20.318230 -0.029246
16.726536 20.318230 -0.032983
17.040359 20.318230 -0.031512
17.354181 20.318230 -0.033192
17.668005 20.318230 0.001769
17.981829 20.318230 0.036436
18.295650 20.318230 0.162979
18.609474 20.318230 0.350048
18.923298 20.318230 0.000000
19.237120 20.318230 0.000000
-6.810190 20.004408 0.000000
-6.496367 20.004408 0.002709
-6.182544 20.004408 0.000313
-5.868721 20.004408 -0.000303
-5.554898 20.004408 -0.000532
-5.241075 20.004408 -0.000936
-4.927252 20.004408 -0.001087
-4.613429 20.004408 -0.000684
-4.299606 20.004408 -0.000107
-3.985783 20.004408 0.000386
-3.671960 20.004408 0.000992
-3.358137 20.004408 0.001708
-3.044314 20.004408 0.002026
-2.730491 20.004408 0.002114
-2.416668 20.004408 0.002014
-2.102845 20.004408 0.001764
-1.789022 20.004408 0.001425
-1.475199 20.004408 0.000720
-1.161376 20.004408 -0.000171
-0.847553 20.004408 -0.000768
-0.533730 20.004408 -0.000763
-0.219907 20.004408 -0.000345
0.093916 20.004408 0.000332
0.407739 20.004408 0.001046
0.721562 20.004408 0.001744
1.035385 20.004408 0.002304
1.349208 20.004408 0.002502
1.663032 20.004408 0.002156
1.976854 20.004408 0.001333
2.290677 20.004408 0.000360
2.604500 20.004408 -0.000449
2.918324 20.004408 -0.001010
3.232146 20.004408 -0.001384
3.545969 20.004408 -0.001485
3.859793 20.004408 -0.000953
4.173615 20.004408 0.000155
4.487438 20.004408 0.001209
4.801261 20.004408 0.001645
5.115085 20.004408 0.001328
5.428907 20.004408 0.000551
5.742730 20.004408 -0.000144
6.056554 20.004408 -0.000982
6.370377 20.004408 -0.002214
6.684199 20.004408 -0.003227
6.998022 20.004408 -0.003591
7.311846 20.004408 -0.003460
7.625669 20.004408 -0.002812
7.939491 20.004408 -0.002529
8.253315 20.004408 -0.003103
8.567138 20.004408 -0.003936
8.880960 20.004408 -0.004838
9.194784 20.004408 -0.008411
9.508606 20.004408 -0.009500
9.822430 20.004408 -0.012137
10.136253 20.004408 -0.012241
10.450075 20.004408 -0.017514
10.763899 20.004408 -0.041463
11.077723 20.004408 -0.054592
11.391544 20.004408 -0.050205
11.705368 20.004408 -0.066086
12.019190 20.004408 -0.071522
12.333014 20.004408 -0.090394
12.646837 20.004408 -0.052260
12.960659 20.004408 -0.055240
13.274483 20.004408 -0.046846
13.588306 20.004408 -0.019884
13.902128 20.004408 -0.044346
14.215952 20.004408 -0.067235
14.529776 20.004408 -0.012721
14.843597 20.004408 -0.010023
15.157421 20.004408 0.013969
15.471243 20.004408 -0.055007
15.785067 20.004408 -0.080991
16.098890 20.004408 -0.046621
16.412712 20.004408 -0.033389
16.726536 20.004408 -0.021151
17.040359 20.004408 -0.032448
17.354181 20.004408 -0.014412
17.668005 20.004408 0.004676
17.981829 20.004408 0.033913
18.295650 20.004408 0.135421
18.609474 20.004408 0.322761
18.923298 20.004408 0.000000
19.237120 20.004408 0.000000
-6.810190 19.690584 0.000000
-6.496367 19.690584 0.002231
-6.182544 19.690584 -0.000218
-5.868721 19.690584 -0.000900
-5.554898 19.690584 -0.000968
-5.241075 19.690584 -0.001058
-4.927252 19.690584 -0.000846
-4.613429 19.690584 -0.000100
-4.299606 19.690584 0.000743
-3.985783 19.690584 0.001309
-3.671960 19.690584 0.001855
-3.358137 19.690584 0.002337
-3.044314 19.690584 0.002210
-2.730491 19.690584 0.001683
-2.416668 19.690584 0.000991
-2.102845 19.690584 0.000425
-1.789022 19.690584 0.000066
-1.475199 19.690584 -0.000364
-1.161376 19.690584 -0.000797
-0.847553 19.690584 -0.000670
-0.533730 19.690584 0.000012
-0.219907 19.690584 0.000857
0.093916 19.690584 0.001594
0.407739 19.690584 0.002118
0.721562 19.690584 0.002314
1.035385 19.690584 0.002250
1.349208 19.690584 0.001717
1.663032 19.690584 0.000881
1.976854 19.690584 -0.000243
2.290677 19.690584 -0.001199
2.604500 19.690584 -0.001403
2.918324 19.690584 -0.000959
3.232146 19.690584 -0.000405
3.545969 19.690584 0.000126
3.859793 19.690584 0.000834
4.173615 19.690584 0.001607
4.487438 19.690584 0.001986
4.801261 19.690584 0.001494
5.115085 19.690584 0.000369
5.428907 19.690584 -0.000824
5.742730 19.690584 -0.001642
6.056554 19.690584 -0.002222
6.370377 19.690584 -0.002776
6.684199 19.690584 -0.002773
6.998022 19.690584 -0.002135
7.311846 19.690584 -0.001347
7.625669 19.690584 -0.000613
7.939491 19.690584 -0.001218
8.253315 19.690584 -0.001976
8.567138 19.690584 -0.004004
8.880960 19.690584 -0.005473
9.194784 19.690584 -0.008573
9.508606 19.690584 -0.012837
9.822430 19.690584 -0.009312
10.136253 19.690584 -0.011119
10.450075 19.690584 -0.020884
10.763899 19.690584 -0.036933
11.077723 19.690584 -0.060275
11.391544 19.690584 -0.059368
11.705368 19.690584 -0.054315
12.019190 19.690584 -0.079680
12.333014 19.690584 -0.079236
12.646837 19.690584 -0.054574
12.960659 19.690584 -0.050060
13.274483 19.690584 -0.042200
13.588306 19.690584 -0.017957
13.902128 19.690584 -0.046481
14.215952 19.690584 -0.028146
14.529776 19.690584 -0.028756
14.843597 19.690584 -0.013223
15.157421 19.690584 -0.017482
15.471243 19.690584 -0.046359
15.785067 19.690584 -0.079331
16.098890 19.690584 -0.044991
16.412712 19.690584 -0.040078
16.726536 19.690584 -0.021970
17.040359 19.690584 -0.018455
17.354181 19.690584 -0.001234
17.668005 19.690584 0.007400
17.981829 19.690584 0.043517
18.295650 19.690584 0.155332
18.609474 19.690584 0.369383
18.923298 19.690584 0.000000
19.237120 19.690584 0.000000
-6.810190 19.376760 0.000000
-6.496367 19.376760 0.001665
-6.182544 19.376760 -0.000571
-5.868721 19.376760 -0.001079
-5.554898 19.376760 -0.000808
-5.241075 19.376760 -0.000519
-4.927252 19.376760 -0.000078
-4.613429 19.376760 0.000763
-4.299606 19.376760 0.001529
-3.985783 19.376760 0.001847
-3.671960 19.376760 0.001973
-3.358137 19.376760 0.001936
-3.044314 19.376760 0.001431
-2.730491 19.376760 0.000653
-2.416668 19.376760 -0.000117
-2.102845 19.376760 -0.000520
-1.789022 19.376760 -0.000499
-1.475199 19.376760 -0.000397
-1.161376 19.376760 -0.000169
-0.847553 19.376760 0.000480
-0.533730 19.376760 0.001369
-0.219907 19.376760 0.001918
0.093916 19.376760 0.002220
0.407739 19.376760 0.002142
0.721562 19.376760 0.001754
1.035385 19.376760 0.001103
1.349208 19.376760 0.000257
1.663032 19.376760 -0.000543
1.976854 19.376760 -0.001193
2.290677 19.376760 -0.001565
2.604500 19.376760 -0.000992
2.918324 19.376760 0.000147
3.232146 19.376760 0.001141
3.545969 19.376760 0.001707
3.859793 19.376760 0.001892
4.173615 19.376760 0.001858
4.487438 19.376760 0.001428
4.801261 19.376760 0.000299
5.115085 19.376760 -0.001101
5.428907 19.376760 -0.002033
5.742730 19.376760 -0.002290
6.056554 19.376760 -0.002089
6.370377 19.376760 -0.001773
6.684199 19.376760 -0.001210
6.998022 19.376760 -0.000240
7.311846 19.376760 0.000431
7.625669 19.376760 0.000073
7.939491 19.376760 -0.000920
8.253315 19.376760 -0.002279
8.567138 19.376760 -0.004133
8.880960 19.376760 -0.006725
9.194784 19.376760 -0.008163
9.508606 19.376760 -0.012990
9.822430 19.376760 -0.013941
10.136253 19.376760 -0.013311
10.450075 19.376760 -0.021953
10.763899 19.376760 -0.036796
11.077723 19.376760 -0.059623
11.391544 19.376760 -0.055732
11.705368 19.376760 -0.060142
12.019190 19.376760 -0.070666
12.333014 19.376760 -0.072816
12.646837 19.376760 -0.062306
12.960659 19.376760 -0.033041
13.274483 19.376760 -0.030745
13.588306 19.376760 0.000768
13.902128 19.376760 -0.020412
14.215952 19.376760 -0.004255
14.529776 19.376760 -0.012917
14.843597 19.376760 -0.014187
15.157421 19.376760 -0.026322
15.471243 19.376760 -0.083888
15.785067 19.376760 -0.059687
16.098890 19.376760 -0.033195
16.412712 19.376760 -0.057066
16.726536 19.376760 -0.015089
17.040359 19.376760 -0.005898
17.354181 19.376760 0.022402
17.668005 19.376760 0.024550
17.981829 19.376760 0.073488
18.295650 19.376760 0.198469
18.609474 19.376760 0.392349
18.923298 19.376760 0.000000
19.237120 19.376760 0.000000
-6.810190 19.062939 0.000000
-6.496367 19.062939 0.001584
-6.182544 19.062939 -0.000336
-5.868721 19.062939 -0.000427
-5.554898 19.062939 0.000113
-5.241075 19.062939 0.000530
-4.927252 19.062939 0.000886
-4.613429 19.062939 0.001328
-4.299606 19.062939 0.001621
-3.985783 19.062939 0.001598
-3.671960 19.062939 0.001293
-3.358137 19.062939 0.000945
-3.044314 19.062939 0.000399
-2.730491 19.062939 -0.000169
-2.416668 19.062939 -0.000537
-2.102845 19.062939 -0.000393
-1.789022 19.062939 0.000115
-1.475199 19.062939 0.000660
-1.161376 19.062939 0.001184
-0.847553 19.062939 0.001794
-0.533730 19.062939 0.002196
-0.219907 19.062939 0.002067
0.093916 19.062939 0.001705
0.407739 19.062939 0.001118
0.721562 19.062939 0.000437
1.035385 19.062939 -0.000226
1.349208 19.062939 -0.000748
1.663032 19.062939 -0.000961
1.976854 19.062939 -0.000881
2.290677 19.062939 -0.000633
2.604500 19.062939 0.000282
2.918324 19.062939 0.001313
3.232146 19.062939 0.001995
3.545969 19.062939 0.002127
3.859793 19.062939 0.001649
4.173615 19.062939 0.000925
4.487438 19.062939 0.000058
4.801261 19.062939 -0.000970
5.115085 19.062939 -0.001838
5.428907 19.062939 -0.002062
5.742730 19.062939 -0.001579
6.056554 19.062939 -0.000809
6.370377 19.062939 -0.000257
6.684199 19.062939 0.000287
6.998022 19.062939 0.000593
7.311846 19.062939 0.000595
7.625669 19.062939 -0.000806
7.939491 19.062939 -0.002267
8.253315 19.062939 -0.003234
8.567138 19.062939 -0.005558
8.880960 19.062939 -0.006700
9.194784 19.062939 -0.010480
9.508606 19.062939 -0.016127
9.822430 19.062939 -0.018022
10.136253 19.062939 -0.018399
10.450075 19.062939 -0.019735
10.763899 19.062939 -0.042175
11.077723 19.062939 -0.059039
11.391544 19.062939 -0.058289
11.705368 19.062939 -0.056131
12.019190 19.062939 -0.077476
12.333014 19.062939 -0.078239
12.646837 19.062939 -0.064965
12.960659 19.062939 -0.035302
13.274483 19.062939 -0.016032
13.588306 19.062939 -0.006851
13.902128 19.062939 -0.027004
14.215952 19.062939 -0.013586
14.529776 19.062939 -0.026388
14.843597 19.062939 -0.012909
15.157421 19.062939 -0.025094
15.471243 19.062939 -0.070082
15.785067 19.062939 -0.050541
16.098890 19.062939 -0.051902
16.412712 19.062939 -0.031874
16.726536 19.062939 -0.002508
17.040359 19.062939 0.017900
17.354181 19.062939 0.020013
17.668005 19.062939 0.029062
17.981829 19.062939 0.068322
18.295650 19.062939 0.206070
18.609474 19.062939 0.420583
18.923298 19.062939 0.000000
19.237120 19.062939 0.000000
-6.810190 18.749115 0.000000
-6.496367 18.749115 0.002182
-6.182544 18.749115 0.000581
-5.868721 18.749115 0.000704
-5.554898 18.749115 0.001230
-5.241075 18.749115 0.001434
-4.927252 18.749115 0.001323
-4.613429 18.749115 0.001130
-4.299606 18.749115 0.000892
-3.985783 18.749115 0.000632
-3.671960 18.749115 0.000265
-3.358137 18.749115 -0.000043
-3.044314 18.749115 -0.000244
-2.730491 18.749115 -0.000112
-2.416668 18.749115 0.000116
-2.102845 18.749115 0.000669
-1.789022 18.749115 0.001348
-1.475199 18.749115 0.001867
-1.161376 18.749115 0.002111
-0.847553 18.749115 0.002216
-0.533730 18.749115 0.001957
-0.219907 18.749115 0.001224
0.093916 18.749115 0.000463
0.407739 18.749115 -0.000167
0.721562 18.749115 -0.000556
1.035385 18.749115 -0.000658
1.349208 18.749115 -0.000499
1.663032 18.749115 -0.000128
1.976854 18.749115 0.000334
2.290677 18.749115 0.000810
2.604500 18.749115 0.001386
2.918324 18.749115 0.001650
3.232146 18.749115 0.001630
3.545969 18.749115 0.001278
3.859793 18.749115 0.000436
4.173615 18.749115 -0.000443
4.487438 18.749115 -0.001042
4.801261 18.749115 -0.001334
5.115085 18.749115 -0.001323
5.428907 18.749115 -0.000861
5.742730 18.749115 -0.000137
6.056554 18.749115 0.000403
6.370377 18.749115 0.000617
6.684199 18.749115 0.000528
6.998022 18.749115 0.000029
7.311846 18.749115 -0.000874
7.625669 18.749115 -0.002291
7.939491 18.749115 -0.003986
8.253315 18.749115 -0.004327
8.567138 18.749115 -0.005569
8.880960 18.749115 -0.006779
9.194784 18.749115 -0.011572
9.508606 18.749115 -0.013868
9.822430 18.749115 -0.015400
10.136253 18.749115 -0.017012
10.450075 18.749115 -0.026131
10.763899 18.749115 -0.041937
11.077723 18.749115 -0.048784
11.391544 18.749115 -0.045765
11.705368 18.749115 -0.064304
12.019190 18.749115 -0.071284
12.333014 18.749115 -0.061817
12.646837 18.749115 -0.053753
12.960659 18.749115 -0.033118
13.274483 18.749115 -0.024263
13.588306 18.749115 -0.055713
13.902128 18.749115 -0.045016
14.215952 18.749115 -0.029580
14.529776 18.749115 -0.002131
14.843597 18.749115 -0.025231
15.157421 18.749115 -0.017210
15.471243 18.749115 -0.070929
15.785067 18.749115 -0.053216
16.098890 18.749115 -0.060601
16.412712 18.749115 -0.012251
16.726536 18.749115 0.031427
17.040359 18.749115 0.024509
17.354181 18.749115 0.038407
17.668005 18.749115 0.036893
17.981829 18.749115 0.081019
18.295650 18.749115 0.218387
18.609474 18.749115 0.398382
18.923298 18.749115 0.000000
19.237120 18.749115 0.000000
-6.810190 18.435291 0.000000
-6.496367 18.435291 0.003010
-6.182544 18.435291 0.001427
-5.868721 18.435291 0.001401
-5.554898 18.435291 0.001653
-5.241075 18.435291 0.001478
-4.927252 18.435291 0.001069
-4.613429 18.435291 0.000355
-4.299606 18.435291 -0.000205
-3.985783 18.435291 -0.000374
-3.671960 18.435291 -0.000400
-3.358137 18.435291 -0.000322
-3.044314 18.435291 0.000108
-2.730491 18.435291 0.000798
-2.416668 18.435291 0.001336
-2.102845 18.435291 0.001816
-1.789022 18.435291 0.002125
-1.475199 18.435291 0.002141
-1.161376 18.435291 0.001861
-0.847553 18.435291 0.001470
-0.533730 18.435291 0.000852
-0.219907 18.435291 0.000031
0.093916 18.435291 -0.000545
0.407739 18.435291 -0.000695
0.721562 18.435291 -0.000432
1.035385 18.435291 0.000095
1.349208 18.435291 0.000668
1.663032 18.435291 0.001109
1.976854 18.435291 0.001429
2.290677 18.435291 0.001628
2.604500 18.435291 0.001503
2.918324 18.435291 0.000961
3.232146 18.435291 0.000302
3.545969 18.435291 -0.000158
3.859793 18.435291 -0.000740
4.173615 18.435291 -0.001164
4.487438 18.435291 -0.001087
4.801261 18.435291 -0.000555
5.115085 18.435291 0.000005
5.428907 18.435291 0.000439
5.742730 18.435291 0.000796
6.056554 18.435291 0.000695
6.370377 18.435291 0.000161
6.684199 18.435291 -0.000567
6.998022 18.435291 -0.001376
7.311846 18.435291 -0.002339
7.625669 18.435291 -0.003473
7.939491 18.435291 -0.004690
8.253315 18.435291 -0.004819
8.567138 18.435291 -0.005616
8.880960 18.435291 -0.006015
9.194784 18.435291 -0.009315
9.508606 18.435291 -0.013806
9.822430 18.435291 -0.011601
10.136253 18.435291 -0.011539
10.450075 18.435291 -0.019601
10.763899 18.435291 -0.037216
11.077723 18.435291 -0.055579
11.391544 18.435291 -0.057111
11.705368 18.435291 -0.049692
12.019190 18.435291 -0.061294
12.333014 18.435291 -0.044968
12.646837 18.435291 -0.053355
12.960659 18.435291 -0.036777
13.274483 18.435291 -0.014365
13.588306 18.435291 -0.053089
13.902128 18.435291 -0.031296
14.215952 18.435291 0.010523
14.529776 18.435291 0.000523
14.843597 18.435291 -0.015064
15.157421 18.435291 0.008710
15.471243 18.435291 -0.029457
15.785067 18.435291 -0.060209
16.098890 18.435291 -0.059302
16.412712 18.435291 -0.000721
16.726536 18.435291 0.073480
17.040359 18.435291 0.049150
17.354181 18.435291 0.047774
17.668005 18.435291 0.031477
17.981829 18.435291 0.076720
18.295650 18.435291 0.187794
18.609474 18.435291 0.436927
18.923298 18.435291 0.000000
19.237120 18.435291 0.000000
-6.810190 18.121469 0.000000
-6.496367 18.121469 0.003432
-6.182544 18.121469 0.001599
-5.868721 18.121469 0.001216
-5.554898 18.121469 0.001082
-5.241075 18.121469 0.000726
-4.927252 18.121469 0.000259
-4.613429 18.121469 -0.000423
-4.299606 18.121469 -0.000832
-3.985783 18.121469 -0.000606
-3.671960 18.121469 -0.000152
-3.358137 18.121469 0.000338
-3.044314 18.121469 0.001111
-2.730491 18.121469 0.001781
-2.416668 18.121469 0.002077
-2.102845 18.121469 0.002083
-1.789022 18.121469 0.001785
-1.475199 18.121469 0.001282
-1.161376 18.121469 0.000685
-0.847553 18.121469 0.000193
-0.533730 18.121469 -0.000189
-0.219907 18.121469 -0.000569
0.093916 18.121469 -0.000535
0.407739 18.121469 -0.000010
0.721562 18.121469 0.000683
1.035385 18.121469 0.001345
1.349208 18.121469 0.001692
1.663032 18.121469 0.001789
1.976854 18.121469 0.001628
2.290677 18.121469 0.001325
2.604500 18.121469 0.000711
2.918324 18.121469 -0.000253
3.232146 18.121469 -0.000980
3.545969 18.121469 -0.001064
3.859793 18.121469 -0.000976
4.173615 18.121469 -0.000846
4.487438 18.121469 -0.000307
4.801261 18.121469 0.000545
5.115085 18.121469 0.001003
5.428907 18.121469 0.000937
5.742730 18.121469 0.000613
6.056554 18.121469 -0.000178
6.370377 18.121469 -0.001123
6.684199 18.121469 -0.001943
6.998022 18.121469 -0.002325
7.311846 18.121469 -0.002977
7.625669 18.121469 -0.003508
7.939491 18.121469 -0.004172
8.253315 18.121469 -0.004304
8.567138 18.121469 -0.005780
8.880960 18.121469 -0.006160
9.194784 18.121469 -0.009992
9.508606 18.121469 -0.016994
9.822430 18.121469 -0.013242
10.136253 18.121469 -0.008971
10.450075 18.121469 -0.015094
10.763899 18.121469 -0.037122
11.077723 18.121469 -0.056450
11.391544 18.121469 -0.058147
11.705368 18.121469 -0.055833
12.019190 18.121469 -0.060324
12.333014 18.121469 -0.053381
12.646837 18.121469 -0.048939
12.960659 18.121469 -0.058043
13.274483 18.121469 -0.019119
13.588306 18.121469 -0.022100
13.902128 18.121469 -0.027764
14.215952 18.121469 -0.014028
14.529776 18.121469 0.008668
14.843597 18.121469 0.003877
15.157421 18.121469 0.004471
15.471243 18.121469 -0.016198
15.785067 18.121469 -0.041281
16.098890 18.121469 -0.029194
16.412712 18.121469 0.016471
16.726536 18.121469 0.063364
17.040359 18.121469 0.061480
17.354181 18.121469 0.066823
17.668005 18.121469 0.068845
17.981829 18.121469 0.077399
18.295650 18.121469 0.244046
18.609474 18.121469 0.488571
18.923298 18.121469 0.000000
19.237120 18.121469 0.000000
-6.810190 17.807646 0.000000
-6.496367 17.807646 0.003003
-6.182544 17.807646 0.001026
-5.868721 17.807646 0.000410
-5.554898 17.807646 0.000126
-5.241075 17.807646 -0.000040
-4.927252 17.807646 -0.000183
-4.613429 17.807646 -0.000407
-4.299606 17.807646 -0.000397
-3.985783 17.807646 0.000110
-3.671960 17.807646 0.000709
-3.358137 17.807646 0.001295
-3.044314 17.807646 0.001850
-2.730491 17.807646 0.002018
-2.416668 17.807646 0.001804
-2.102845 17.807646 0.001293
-1.789022 17.807646 0.000622
-1.475199 17.807646 -0.000039
-1.161376 17.807646 -0.000420
-0.847553 17.807646 -0.000430
-0.533730 17.807646 -0.000315
-0.219907 17.807646 -0.000060
0.093916 17.807646 0.000533
0.407739 17.807646 0.001274
0.721562 17.807646 0.001830
1.035385 17.807646 0.002003
1.349208 17.807646 0.001753
1.663032 17.807646 0.001376
1.976854 17.807646 0.000849
2.290677 17.807646 0.000359
2.604500 17.807646 -0.000251
2.918324 17.807646 -0.000983
3.232146 17.807646 -0.001260
3.545969 17.807646 -0.000882
3.859793 17.807646 -0.000329
4.173615 17.807646 0.000061
4.487438 17.807646 0.000505
4.801261 17.807646 0.001078
5.115085 17.807646 0.000996
5.428907 17.807646 0.000310
5.742730 17.807646 -0.000511
6.056554 17.807646 -0.001489
6.370377 17.807646 -0.002243
6.684199 17.807646 -0.002692
6.998022 17.807646 -0.002657
7.311846 17.807646 -0.002557
7.625669 17.807646 -0.002883
7.939491 17.807646 -0.003988
8.253315 17.807646 -0.004164
8.567138 17.807646 -0.005147
8.880960 17.807646 -0.005846
9.194784 17.807646 -0.008908
9.508606 17.807646 -0.014348
9.822430 17.807646 -0.015066
10.136253 17.807646 -0.011966
10.450075 17.807646 -0.017755
10.763899 17.807646 -0.037465
11.077723 17.807646 -0.054410
11.391544 17.807646 -0.056222
11.705368 17.807646 -0.056428
12.019190 17.807646 -0.056117
12.333014 17.807646 -0.062200
12.646837 17.807646 -0.055530
12.960659 17.807646 -0.063406
13.274483 17.807646 -0.034356
13.588306 17.807646 -0.008764
13.902128 17.807646 -0.037718
14.215952 17.807646 -0.036352
14.529776 17.807646 0.003424
14.843597 17.807646 0.004214
15.157421 17.807646 -0.013112
15.471243 17.807646 -0.017656
15.785067 17.807646 -0.023301
16.098890 17.807646 -0.025616
16.412712 17.807646 0.024044
16.726536 17.807646 0.066587
17.040359 17.807646 0.060720
17.354181 17.807646 0.080322
17.668005 17.807646 0.079797
17.981829 17.807646 0.125560
18.295650 17.807646 0.256146
18.609474 17.807646 0.544540
18.923298 17.807646 0.000000
19.237120 17.807646 0.000000
-6.810190 17.493824 0.000000
-6.496367 17.493824 0.002091
-6.182544 17.493824 0.000079
-5.868721 17.493824 -0.000401
-5.554898 17.493824 -0.000388
-5.241075 17.493824 -0.000086
-4.927252 17.493824 0.000305
-4.613429 17.493824 0.000477
-4.299606 17.493824 0.000727
-3.985783 17.493824 0.001121
-3.671960 17.493824 0.001425
-3.358137 17.493824 0.001655
-3.044314 17.493824 0.001739
-2.730491 17.493824 0.001338
-2.416668 17.493824 0.000679
-2.102845 17.493824 0.000055
-1.789022 17.493824 -0.000421
-1.475199 17.493824 -0.000579
-1.161376 17.493824 -0.000444
-0.847553 17.493824 0.000067
-0.533730 17.493824 0.000555
-0.219907 17.493824 0.000980
0.093916 17.493824 0.001608
0.407739 17.493824 0.002022
0.721562 17.493824 0.002020
1.035385 17.493824 0.001569
1.349208 17.493824 0.000867
1.663032 17.493824 0.000243
1.976854 17.493824 -0.000120
2.290677 17.493824 -0.000294
2.604500 17.493824 -0.000401
2.918324 17.493824 -0.000624
3.232146 17.493824 -0.000563
3.545969 17.493824 -0.000052
3.859793 17.493824 0.000446
4.173615 17.493824 0.000687
4.487438 17.493824 0.000645
4.801261 17.493824 0.000545
5.115085 17.493824 0.000045
5.428907 17.493824 -0.000940
5.742730 17.493824 -0.001716
6.056554 17.493824 -0.002309
6.370377 17.493824 -0.002459
6.684199 17.493824 -0.002342
6.998022 17.493824 -0.002216
7.311846 17.493824 -0.001879
7.625669 17.493824 -0.002059
7.939491 17.493824 -0.003147
8.253315 17.493824 -0.004073
8.567138 17.493824 -0.004322
8.880960 17.493824 -0.005537
9.194784 17.493824 -0.008827
9.508606 17.493824 -0.016093
9.822430 17.493824 -0.020948
10.136253 17.493824 -0.021430
10.450075 17.493824 -0.025543
10.763899 17.493824 -0.035617
11.077723 17.493824 -0.057959
11.391544 17.493824 -0.057489
11.705368 17.493824 -0.061301
12.019190 17.493824 -0.051325
12.333014 17.493824 -0.063978
12.646837 17.493824 -0.087706
12.960659 17.493824 -0.084311
13.274483 17.493824 -0.033340
13.588306 17.493824 -0.027911
13.902128 17.493824 -0.031809
14.215952 17.493824 -0.044542
14.529776 17.493824 -0.010756
14.843597 17.493824 0.010120
15.157421 17.493824 -0.009246
15.471243 17.493824 -0.007993
15.785067 17.493824 -0.010546
16.098890 17.493824 -0.014622
16.412712 17.493824 0.011077
16.726536 17.493824 0.045050
17.040359 17.493824 0.069004
17.354181 17.493824 0.091461
17.668005 17.493824 0.094730
17.981829 17.493824 0.147780
18.295650 17.493824 0.298854
18.609474 17.493824 0.501614
18.923298 17.493824 0.000000
19.237120 17.493824 0.000000
-6.810190 17.180000 0.000000
-6.496367 17.180000 0.001368
-6.182544 17.180000 -0.000325
-5.868721 17.180000 -0.000376
-5.554898 17.180000 -0.000027
-5.241075 17.180000 0.000594
-4.927252 17.180000 0.001186
-4.613429 17.180000 0.001439
-4.299606 17.180000 0.001565
-3.985783 17.180000 0.001541
-3.671960 17.180000 0.001380
-3.358137 17.180000 0.001151
-3.044314 17.180000 0.000867
-2.730491 17.180000 0.000310
-2.416668 17.180000 -0.000311
-2.102845 17.180000 -0.000558
-1.789022 17.180000 -0.000435
-1.475199 17.180000 0.000079
-1.161376 17.180000 0.000560
-0.847553 17.180000 0.001111
-0.533730 17.180000 0.001433
-0.219907 17.180000 0.001613
0.093916 17.180000 0.001896
0.407739 17.180000 0.001757
0.721562 17.180000 0.001199
1.035385 17.180000 0.000481
1.349208 17.180000 -0.000210
1.663032 17.180000 -0.000519
1.976854 17.180000 -0.000357
2.290677 17.180000 0.000026
2.604500 17.180000 0.000361
2.918324 17.180000 0.000278
3.232146 17.180000 0.000313
3.545969 17.180000 0.000522
3.859793 17.180000 0.000683
4.173615 17.180000 0.000573
4.487438 17.180000 0.000109
4.801261 17.180000 -0.000456
5.115085 17.180000 -0.001043
5.428907 17.180000 -0.001850
5.742730 17.180000 -0.002205
6.056554 17.180000 -0.002119
6.370377 17.180000 -0.001764
6.684199 17.180000 -0.001425
6.998022 17.180000 -0.001439
7.311846 17.180000 -0.001386
7.625669 17.180000 -0.001845
7.939491 17.180000 -0.002868
8.253315 17.180000 -0.004017
8.567138 17.180000 -0.004827
8.880960 17.180000 -0.006704
9.194784 17.180000 -0.011823
9.508606 17.180000 -0.014468
9.822430 17.180000 -0.018902
10.136253 17.180000 -0.026015
10.450075 17.180000 -0.025736
10.763899 17.180000 -0.042126
11.077723 17.180000 -0.054783
11.391544 17.180000 -0.056910
11.705368 17.180000 -0.067408
12.019190 17.180000 -0.064253
12.333014 17.180000 -0.071258
12.646837 17.180000 -0.095389
12.960659 17.180000 -0.082520
13.274483 17.180000 -0.042716
13.588306 17.180000 -0.055343
13.902128 17.180000 -0.052207
14.215952 17.180000 -0.043925
14.529776 17.180000 -0.025252
14.843597 17.180000 0.000975
15.157421 17.180000 0.011781
15.471243 17.180000 -0.003271
15.785067 17.180000 -0.008723
16.098890 17.180000 -0.008950
16.412712 17.180000 0.006964
16.726536 17.180000 0.030205
17.040359 17.180000 0.066931
17.354181 17.180000 0.102008
17.668005 17.180000 0.104450
17.981829 17.180000 0.185228
18.295650 17.180000 0.293239
18.609474 17.180000 0.541481
18.923298 17.180000 0.000000
19.237120 17.180000 0.000000
-6.810190 16.866177 0.000000
-6.496367 16.866177 0.001530
-6.182544 16.866177 0.000116
-5.868721 16.866177 0.000252
-5.554898 16.866177 0.000725
-5.241075 16.866177 0.001257
-4.927252 16.866177 0.001626
-4.613429 16.866177 0.001652
-4.299606 16.866177 0.001472
-3.985783 16.866177 0.001054
-3.671960 16.866177 0.000598
-3.358137 16.866177 0.000229
-3.044314 16.866177 0.000030
-2.730491 16.866177 -0.000152
-2.416668 16.866177 -0.000288
-2.102845 16.866177 -0.000023
-1.789022 16.866177 0.000552
-1.475199 16.866177 0.001226
-1.161376 16.866177 0.001595
-0.847553 16.866177 0.001758
-0.533730 16.866177 0.001576
-0.219907 16.866177 0.001274
0.093916 16.866177 0.001149
0.407739 16.866177 0.000743
0.721562 16.866177 0.000164
1.035385 16.866177 -0.000314
1.349208 16.866177 -0.000513
1.663032 16.866177 -0.000268
1.976854 16.866177 0.000372
2.290677 16.866177 0.000927
2.604500 16.866177 0.001235
2.918324 16.866177 0.000959
3.232146 16.866177 0.000580
3.545969 16.866177 0.000325
3.859793 16.866177 0.000133
4.173615 16.866177 -0.000135
4.487438 16.866177 -0.000587
4.801261 16.866177 -0.001053
5.115085 16.866177 -0.001413
5.428907 16.866177 -0.001762
5.742730 16.866177 -0.001724
6.056554 16.866177 -0.001251
6.370377 16.866177 -0.000732
6.684199 16.866177 -0.000574
6.998022 16.866177 -0.000917
7.311846 16.866177 -0.001505
7.625669 16.866177 -0.001903
7.939491 16.866177 -0.003242
8.253315 16.866177 -0.004048
8.567138 16.866177 -0.005922
8.880960 16.866177 -0.008589
9.194784 16.866177 -0.014330
9.508606 16.866177 -0.016324
9.822430 16.866177 -0.018202
10.136253 16.866177 -0.024993
10.450075 16.866177 -0.024353
10.763899 16.866177 -0.040377
11.077723 16.866177 -0.048150
11.391544 16.866177 -0.042505
11.705368 16.866177 -0.065732
12.019190 16.866177 -0.066049
12.333014 16.866177 -0.050712
12.646837 16.866177 -0.067575
12.960659 16.866177 -0.073807
13.274483 16.866177 -0.021228
13.588306 16.866177 -0.026604
13.902128 16.866177 -0.019217
14.215952 16.866177 -0.039515
14.529776 16.866177 -0.015291
14.843597 16.866177 -0.010485
15.157421 16.866177 0.046182
15.471243 16.866177 0.055601
15.785067 16.866177 0.023812
16.098890 16.866177 0.024056
16.412712 16.866177 0.019078
16.726536 16.866177 0.058764
17.040359 16.866177 0.064047
17.354181 16.866177 0.097616
17.668005 16.866177 0.110964
17.981829 16.866177 0.197839
18.295650 16.866177 0.351893
18.609474 16.866177 0.666115
18.923298 16.866177 0.000000
19.237120 16.866177 0.000000
-6.810190 16.552353 0.000000
-6.496367 16.552353 0.002390
-6.182544 16.552353 0.000999
-5.868721 16.552353 0.000900
-5.554898 16.552353 0.001080
-5.241075 16.552353 0.001230
-4.927252 16.552353 0.001158
-4.613429 16.552353 0.000930
-4.299606 16.552353 0.000634
-3.985783 16.552353 0.000233
-3.671960 16.552353 -0.000073
-3.358137 16.552353 -0.000143
-3.044314 16.552353 0.000103
-2.730491 16.552353 0.000421
-2.416668 16.552353 0.000657
-2.102845 16.552353 0.001104
-1.789022 16.552353 0.001584
-1.475199 16.552353 0.001916
-1.161376 16.552353 0.001771
-0.847553 16.552353 0.001458
-0.533730 16.552353 0.000912
-0.219907 16.552353 0.000402
0.093916 16.552353 0.000174
0.407739 16.552353 -0.000007
0.721562 16.552353 -0.000178
1.035385 16.552353 -0.000198
1.349208 16.552353 0.000074
1.663032 16.552353 0.000622
1.976854 16.552353 0.001231
2.290677 16.552353 0.001477
2.604500 16.552353 0.001408
2.918324 16.552353 0.000919
3.232146 16.552353 0.000210
3.545969 16.552353 -0.000367
3.859793 16.552353 -0.000634
4.173615 16.552353 -0.000776
4.487438 16.552353 -0.000854
4.801261 16.552353 -0.000972
5.115085 16.552353 -0.000957
5.428907 16.552353 -0.000947
5.742730 16.552353 -0.000812
6.056554 16.552353 -0.000466
6.370377 16.552353 -0.000206
6.684199 16.552353 -0.000378
6.998022 16.552353 -0.000933
7.311846 16.552353 -0.001921
7.625669 16.552353 -0.002425
7.939491 16.552353 -0.003542
8.253315 16.552353 -0.005290
8.567138 16.552353 -0.007415
8.880960 16.552353 -0.009825
9.194784 16.552353 -0.014412
9.508606 16.552353 -0.017433
9.822430 16.552353 -0.018904
10.136253 16.552353 -0.019656
10.450075 16.552353 -0.014389
10.763899 16.552353 -0.026978
11.077723 16.552353 -0.028529
11.391544 16.552353 -0.030298
11.705368 16.552353 -0.050979
12.019190 16.552353 -0.053024
12.333014 16.552353 -0.051345
12.646837 16.552353 -0.050193
12.960659 16.552353 -0.049010
13.274483 16.552353 -0.025789
13.588306 16.552353 -0.029891
13.902128 16.552353 -0.036049
14.215952 16.552353 -0.021831
14.529776 16.552353 -0.016725
14.843597 16.552353 0.036322
15.157421 16.552353 0.076361
15.471243 16.552353 0.063720
15.785067 16.552353 0.016995
16.098890 16.552353 0.037466
16.412712 16.552353 0.051452
16.726536 16.552353 0.054951
17.040359 16.552353 0.061411
17.354181 16.552353 0.084609
17.668005 16.552353 0.101700
17.981829 16.552353 0.178207
18.295650 16.552353 0.364665
18.609474 16.552353 0.742056
18.923298 16.552353 0.000000
19.237120 16.552353 0.000000
-6.810190 16.238533 0.000000
-6.496367 16.238533 0.002988
-6.182544 16.238533 0.001320
-5.868721 16.238533 0.000901
-5.554898 16.238533 0.000664
-5.241075 16.238533 0.000447
-4.927252 16.238533 0.000188
-4.613429 16.238533 0.000080
-4.299606 16.238533 0.000025
-3.985783 16.238533 0.000006
-3.671960 16.238533 0.000132
-3.358137 16.238533 0.000399
-3.044314 16.238533 0.000917
-2.730491 16.238533 0.001328
-2.416668 16.238533 0.001599
-2.102845 16.238533 0.001873
-1.789022 16.238533 0.001918
-1.475199 16.238533 0.001667
-1.161376 16.238533 0.001077
-0.847553 16.238533 0.000555
-0.533730 16.238533 0.000144
-0.219907 16.238533 -0.000181
0.093916 16.238533 -0.000130
0.407739 16.238533 0.000073
0.721562 16.238533 0.000305
1.035385 16.238533 0.000474
1.349208 16.238533 0.000882
1.663032 16.238533 0.001296
1.976854 16.238533 0.001442
2.290677 16.238533 0.001175
2.604500 16.238533 0.000803
2.918324 16.238533 0.000304
3.232146 16.238533 -0.000339
3.545969 16.238533 -0.000792
3.859793 16.238533 -0.000916
4.173615 16.238533 -0.000792
4.487438 16.238533 -0.000596
4.801261 16.238533 -0.000389
5.115085 16.238533 -0.000182
5.428907 16.238533 -0.000056
5.742730 16.238533 -0.000107
6.056554 16.238533 -0.000302
6.370377 16.238533 -0.000432
6.684199 16.238533 -0.000631
6.998022 16.238533 -0.001455
7.311846 16.238533 -0.002385
7.625669 16.238533 -0.002993
7.939491 16.238533 -0.003896
8.253315 16.238533 -0.005177
8.567138 16.238533 -0.007407
8.880960 16.238533 -0.009666
9.194784 16.238533 -0.015434
9.508606 16.238533 -0.017578
9.822430 16.238533 -0.019387
10.136253 16.238533 -0.013732
10.450075 16.238533 -0.008143
10.763899 16.238533 -0.017520
11.077723 16.238533 -0.026863
11.391544 16.238533 -0.029668
11.705368 16.238533 -0.032267
12.019190 16.238533 -0.036909
12.333014 16.238533 -0.052041
12.646837 16.238533 -0.041296
12.960659 16.238533 -0.024538
13.274483 16.238533 -0.015465
13.588306 16.238533 -0.017191
13.902128 16.238533 -0.047368
14.215952 16.238533 -0.017818
14.529776 16.238533 0.001274
14.843597 16.238533 0.040665
15.157421 16.238533 0.080265
15.471243 16.238533 0.072785
15.785067 16.238533 0.024960
16.098890 16.238533 0.039252
16.412712 16.238533 0.035794
16.726536 16.238533 0.044169
17.040359 16.238533 0.060899
17.354181 16.238533 0.076312
17.668005 16.238533 0.096509
17.981829 16.238533 0.185021
18.295650 16.238533 0.399049
18.609474 16.238533 0.781391
18.923298 16.238533 0.000000
19.237120 16.238533 0.000000
-6.810190 15.924709 0.000000
-6.496367 15.924709 0.002636
-6.182544 15.924709 0.000778
-5.868721 15.924709 0.000213
-5.554898 15.924709 -0.000120
-5.241075 15.924709 -0.000343
-4.927252 15.924709 -0.000365
-4.613429 15.924709 -0.000120
-4.299606 15.924709 0.000247
-3.985783 15.924709 0.000659
-3.671960 15.924709 0.001003
-3.358137 15.924709 0.001227
-3.044314 15.924709 0.001562
-2.730491 15.924709 0.001778
-2.416668 15.924709 0.001791
-2.102845 15.924709 0.001735
-1.789022 15.924709 0.001434
-1.475199 15.924709 0.000866
-1.161376 15.924709 0.000277
-0.847553 15.924709 0.000024
-0.533730 15.924709 -0.000015
-0.219907 15.924709 -0.000035
0.093916 15.924709 0.000284
0.407739 15.924709 0.000753
0.721562 15.924709 0.000989
1.035385 15.924709 0.001001
1.349208 15.924709 0.001162
1.663032 15.924709 0.001230
1.976854 15.924709 0.000870
2.290677 15.924709 0.000351
2.604500 15.924709 0.000032
2.918324 15.924709 -0.000176
3.232146 15.924709 -0.000453
3.545969 15.924709 -0.000609
3.859793 15.924709 -0.000606
4.173615 15.924709 -0.000346
4.487438 15.924709 -0.000116
4.801261 15.924709 0.000059
5.115085 15.924709 0.000197
5.428907 15.924709 0.000310
5.742730 15.924709 0.000029
6.056554 15.924709 -0.000547
6.370377 15.924709 -0.000893
6.684199 15.924709 -0.001102
6.998022 15.924709 -0.001794
7.311846 15.924709 -0.002502
7.625669 15.924709 -0.003224
7.939491 15.924709 -0.003744
8.253315 15.924709 -0.004020
8.567138 15.924709 -0.005912
8.880960 15.924709 -0.007856
9.194784 15.924709 -0.011648
9.508606 15.924709 -0.012711
9.822430 15.924709 -0.018434
10.136253 15.924709 -0.012582
10.450075 15.924709 -0.013624
10.763899 15.924709 -0.013197
11.077723 15.924709 -0.029447
11.391544 15.924709 -0.027298
11.705368 15.924709 -0.029825
12.019190 15.924709 -0.036988
12.333014 15.924709 -0.050805
12.646837 15.924709 -0.043794
12.960659 15.924709 -0.020643
13.274483 15.924709 -0.048788
13.588306 15.924709 -0.015184
13.902128 15.924709 -0.014513
14.215952 15.924709 -0.037697
14.529776 15.924709 0.003317
14.843597 15.924709 0.039535
15.157421 15.924709 0.094994
15.471243 15.924709 0.093013
15.785067 15.924709 0.040185
16.098890 15.924709 0.013401
16.412712 15.924709 0.058155
16.726536 15.924709 0.040522
17.040359 15.924709 0.068364
17.354181 15.924709 0.066234
17.668005 15.924709 0.113921
17.981829 15.924709 0.230427
18.295650 15.924709 0.433277
18.609474 15.924709 0.759547
18.923298 15.924709 0.000000
19.237120 15.924709 0.000000
-6.810190 15.610886 0.000000
-6.496367 15.610886 0.001650
-6.182544 15.610886 -0.000097
-5.868721 15.610886 -0.000394
-5.554898 15.610886 -0.000358
-5.241075 15.610886 -0.000251
-4.927252 15.610886 0.000002
-4.613429 15.610886 0.000478
-4.299606 15.610886 0.001018
-3.985783 15.610886 0.001455
-3.671960 15.610886 0.001622
-3.358137 15.610886 0.001541
-3.044314 15.610886 0.001475
-2.730491 15.610886 0.001449
-2.416668 15.610886 0.001265
-2.102845 15.610886 0.001073
-1.789022 15.610886 0.000761
-1.475199 15.610886 0.000355
-1.161376 15.610886 0.000182
-0.847553 15.610886 0.000304
-0.533730 15.610886 0.000471
-0.219907 15.610886 0.000502
0.093916 15.610886 0.000837
0.407739 15.610886 0.001216
0.721562 15.610886 0.001226
1.035385 15.610886 0.000956
1.349208 15.610886 0.000832
1.663032 15.610886 0.000671
1.976854 15.610886 0.000203
2.290677 15.610886 -0.000206
2.604500 15.610886 -0.000298
2.918324 15.610886 -0.000148
3.232146 15.610886 -0.000034
3.545969 15.610886 -0.000077
3.859793 15.610886 -0.000131
4.173615 15.610886 0.000035
4.487438 15.610886 0.000124
4.801261 15.610886 0.000109
5.115085 15.610886 0.000106
5.428907 15.610886 0.000128
5.742730 15.610886 -0.000176
6.056554 15.610886 -0.000882
6.370377 15.610886 -0.001318
6.684199 15.610886 -0.001336
6.998022 15.610886 -0.001671
7.311846 15.610886 -0.002219
7.625669 15.610886 -0.002781
7.939491 15.610886 -0.002957
8.253315 15.610886 -0.003487
8.567138 15.610886 -0.003876
8.880960 15.610886 -0.006566
9.194784 15.610886 -0.009339
9.508606 15.610886 -0.010498
9.822430 15.610886 -0.017370
10.136253 15.610886 -0.012858
10.450075 15.610886 -0.007990
10.763899 15.610886 -0.021579
11.077723 15.610886 -0.028634
11.391544 15.610886 -0.035875
11.705368 15.610886 -0.036285
12.019190 15.610886 -0.049939
12.333014 15.610886 -0.051182
12.646837 15.610886 -0.039552
12.960659 15.610886 -0.035321
13.274483 15.610886 -0.019289
13.588306 15.610886 0.012354
13.902128 15.610886 0.010251
14.215952 15.610886 -0.012911
14.529776 15.610886 0.011540
14.843597 15.610886 0.046938
15.157421 15.610886 0.082464
15.471243 15.610886 0.065826
15.785067 15.610886 0.035346
16.098890 15.610886 0.016538
16.412712 15.610886 0.038067
16.726536 15.610886 0.026449
17.040359 15.610886 0.028245
17.354181 15.610886 0.077537
17.668005 15.610886 0.133484
17.981829 15.610886 0.210881
18.295650 15.610886 0.446710
18.609474 15.610886 0.774553
18.923298 15.610886 0.000000
19.237120 15.610886 0.000000
-6.810190 15.297062 0.000000
-6.496367 15.297062 0.000980
-6.182544 15.297062 -0.000398
-5.868721 15.297062 -0.000249
-5.554898 15.297062 0.000207
-5.241075 15.297062 0.000542
-4.927252 15.297062 0.000830
-4.613429 15.297062 0.001187
-4.299606 15.297062 0.001465
-3.985783 15.297062 0.001583
-3.671960 15.297062 0.001473
-3.358137 15.297062 0.001065
-3.044314 15.297062 0.000757
-2.730491 15.297062 0.000744
-2.416668 15.297062 0.000786
-2.102845 15.297062 0.000783
-1.789022 15.297062 0.000702
-1.475199 15.297062 0.000632
-1.161376 15.297062 0.000752
-0.847553 15.297062 0.000963
-0.533730 15.297062 0.001006
-0.219907 15.297062 0.000848
0.093916 15.297062 0.000934
0.407739 15.297062 0.001063
0.721562 15.297062 0.000871
1.035385 15.297062 0.000448
1.349208 15.297062 0.000326
1.663032 15.297062 0.000198
1.976854 15.297062 -0.000029
2.290677 15.297062 -0.000212
2.604500 15.297062 -0.000179
2.918324 15.297062 0.000126
3.232146 15.297062 0.000417
3.545969 15.297062 0.000276
3.859793 15.297062 0.000059
4.173615 15.297062 0.000060
4.487438 15.297062 0.000014
4.801261 15.297062 -0.000152
5.115085 15.297062 -0.000266
5.428907 15.297062 -0.000291
5.742730 15.297062 -0.000515
6.056554 15.297062 -0.001061
6.370377 15.297062 -0.001432
6.684199 15.297062 -0.001262
6.998022 15.297062 -0.001327
7.311846 15.297062 -0.001653
7.625669 15.297062 -0.002063
7.939491 15.297062 -0.002428
8.253315 15.297062 -0.003158
8.567138 15.297062 -0.003317
8.880960 15.297062 -0.004961
9.194784 15.297062 -0.007645
9.508606 15.297062 -0.010334
9.822430 15.297062 -0.015711
10.136253 15.297062 -0.013864
10.450075 15.297062 -0.009423
10.763899 15.297062 -0.024123
11.077723 15.297062 -0.031709
11.391544 15.297062 -0.048725
11.705368 15.297062 -0.049292
12.019190 15.297062 -0.039504
12.333014 15.297062 -0.031071
12.646837 15.297062 -0.051477
12.960659 15.297062 -0.046545
13.274483 15.297062 -0.045757
13.588306 15.297062 0.002255
13.902128 15.297062 0.008937
14.215952 15.297062 -0.033017
14.529776 15.297062 0.031902
14.843597 15.297062 0.074485
15.157421 15.297062 0.098647
15.471243 15.297062 0.073167
15.785067 15.297062 0.038575
16.098890 15.297062 0.004685
16.412712 15.297062 0.050441
16.726536 15.297062 0.029980
17.040359 15.297062 0.046741
17.354181 15.297062 0.088877
17.668005 15.297062 0.141762
17.981829 15.297062 0.209482
18.295650 15.297062 0.452195
18.609474 15.297062 0.808198
18.923298 15.297062 0.000000
19.237120 15.297062 0.000000
-6.810190 14.983238 0.000000
-6.496367 14.983238 0.001273
-6.182544 14.983238 0.000078
-5.868721 14.983238 0.000422
-5.554898 14.983238 0.000957
-5.241075 14.983238 0.001263
-4.927252 14.983238 0.001289
-4.613429 14.983238 0.001241
-4.299606 14.983238 0.001150
-3.985783 14.983238 0.001037
-3.671960 14.983238 0.000780
-3.358137 14.983238 0.000378
-3.044314 14.983238 0.000191
-2.730491 14.983238 0.000475
-2.416668 14.983238 0.000804
-2.102845 14.983238 0.001075
-1.789022 14.983238 0.001141
-1.475199 14.983238 0.001247
-1.161376 14.983238 0.001323
-0.847553 14.983238 0.001325
-0.533730 14.983238 0.001100
-0.219907 14.983238 0.000686
0.093916 14.983238 0.000550
0.407739 14.983238 0.000524
0.721562 14.983238 0.000293
1.035385 14.983238 0.000059
1.349208 14.983238 0.000158
1.663032 14.983238 0.000228
1.976854 14.983238 0.000178
2.290677 14.983238 0.000091
2.604500 14.983238 -0.000018
2.918324 14.983238 0.000204
3.232146 14.983238 0.000432
3.545969 14.983238 0.000179
3.859793 14.983238 -0.000170
4.173615 14.983238 -0.000284
4.487438 14.983238 -0.000281
4.801261 14.983238 -0.000425
5.115085 14.983238 -0.000609
5.428907 14.983238 -0.000632
5.742730 14.983238 -0.000641
6.056554 14.983238 -0.000977
6.370377 14.983238 -0.001275
6.684199 14.983238 -0.001147
6.998022 14.983238 -0.001128
7.311846 14.983238 -0.001539
7.625669 14.983238 -0.001794
7.939491 14.983238 -0.002128
8.253315 14.983238 -0.003838
8.567138 14.983238 -0.004403
8.880960 14.983238 -0.005444
9.194784 14.983238 -0.009339
9.508606 14.983238 -0.007459
9.822430 14.983238 -0.009028
10.136253 14.983238 -0.013197
10.450075 14.983238 -0.013801
10.763899 14.983238 -0.023497
11.077723 14.983238 -0.030396
11.391544 14.983238 -0.039196
11.705368 14.983238 -0.054428
12.019190 14.983238 -0.053869
12.333014 14.983238 -0.038701
12.646837 14.983238 -0.050438
12.960659 14.983238 -0.054236
13.274483 14.983238 -0.028318
13.588306 14.983238 -0.024091
13.902128 14.983238 -0.027796
14.215952 14.983238 -0.016162
14.529776 14.983238 0.045102
14.843597 14.983238 0.106412
15.157421 14.983238 0.120773
15.471243 14.983238 0.095680
15.785067 14.983238 0.035390
16.098890 14.983238 0.001962
16.412712 14.983238 0.068537
16.726536 14.983238 0.043692
17.040359 14.983238 0.029516
17.354181 14.983238 0.065455
17.668005 14.983238 0.129850
17.981829 14.983238 0.254332
18.295650 14.983238 0.534532
18.609474 14.983238 0.856770
18.923298 14.983238 0.000000
19.237120 14.983238 0.000000
-6.810190 14.669415 0.000000
-6.496367 14.669415 0.002025
-6.182544 14.669415 0.000738
-5.868721 14.669415 0.000860
-5.554898 14.669415 0.001217
-5.241075 14.669415 0.001231
-4.927252 14.669415 0.000992
-4.613429 14.669415 0.000675
-4.299606 14.669415 0.000434
-3.985783 14.669415 0.000351
-3.671960 14.669415 0.000319
-3.358137 14.669415 0.000221
-3.044314 14.669415 0.000394
-2.730491 14.669415 0.000806
-2.416668 14.669415 0.001203
-2.102845 14.669415 0.001523
-1.789022 14.669415 0.001543
-1.475199 14.669415 0.001480
-1.161376 14.669415 0.001356
-0.847553 14.669415 0.001163
-0.533730 14.669415 0.000754
-0.219907 14.669415 0.000317
0.093916 14.669415 0.000173
0.407739 14.669415 0.000173
0.721562 14.669415 0.000025
1.035385 14.669415 0.000102
1.349208 14.669415 0.000355
1.663032 14.669415 0.000517
1.976854 14.669415 0.000477
2.290677 14.669415 0.000196
2.604500 14.669415 -0.000182
2.918324 14.669415 -0.000054
3.232146 14.669415 0.000104
3.545969 14.669415 -0.000198
3.859793 14.669415 -0.000658
4.173615 14.669415 -0.000738
4.487438 14.669415 -0.000531
4.801261 14.669415 -0.000491
5.115085 14.669415 -0.000598
5.428907 14.669415 -0.000623
5.742730 14.669415 -0.000579
6.056554 14.669415 -0.000901
6.370377 14.669415 -0.001210
6.684199 14.669415 -0.001179
6.998022 14.669415 -0.001352
7.311846 14.669415 -0.001716
7.625669 14.669415 -0.001877
7.939491 14.669415 -0.002774
8.253315 14.669415 -0.004637
8.567138 14.669415 -0.006061
8.880960 14.669415 -0.006720
9.194784 14.669415 -0.010193
9.508606 14.669415 -0.009795
9.822430 14.669415 -0.010263
10.136253 14.669415 -0.015621
10.450075 14.669415 -0.019670
10.763899 14.669415 -0.023426
11.077723 14.669415 -0.025683
11.391544 14.669415 -0.047806
11.705368 14.669415 -0.052628
12.019190 14.669415 -0.055188
12.333014 14.669415 -0.051704
12.646837 14.669415 -0.054456
12.960659 14.669415 -0.039946
13.274483 14.669415 -0.019072
13.588306 14.669415 -0.011197
13.902128 14.669415 -0.013441
14.215952 14.669415 -0.020456
14.529776 14.669415 0.055180
14.843597 14.669415 0.075918
15.157421 14.669415 0.091378
15.471243 14.669415 0.066947
15.785067 14.669415 0.026139
16.098890 14.669415 0.046840
16.412712 14.669415 0.080732
16.726536 14.669415 0.050943
17.040359 14.669415 0.042442
17.354181 14.669415 0.068754
17.668005 14.669415 0.143177
17.981829 14.669415 0.235077
18.295650 14.669415 0.551647
18.609474 14.669415 0.910621
18.923298 14.669415 0.000000
19.237120 14.669415 0.000000
-6.810190 14.355595 0.000000
-6.496367 14.355595 0.002438
-6.182544 14.355595 0.000907
-5.868721 14.355595 0.000664
-5.554898 14.355595 0.000655
-5.241075 14.355595 0.000588
-4.927252 14.355595 0.000391
-4.613429 14.355595 0.000136
-4.299606 14.355595 0.000047
-3.985783 14.355595 0.000216
-3.671960 14.355595 0.000488
-3.358137 14.355595 0.000743
-3.044314 14.355595 0.001012
-2.730491 14.355595 0.001253
-2.416668 14.355595 0.001408
-2.102845 14.355595 0.001492
-1.789022 14.355595 0.001379
-1.475199 14.355595 0.001095
-1.161376 14.355595 0.000874
-0.847553 14.355595 0.000779
-0.533730 14.355595 0.000530
-0.219907 14.355595 0.000290
0.093916 14.355595 0.000301
0.407739 14.355595 0.000384
0.721562 14.355595 0.000286
1.035385 14.355595 0.000417
1.349208 14.355595 0.000607
1.663032 14.355595 0.000670
1.976854 14.355595 0.000482
2.290677 14.355595 0.000007
2.604500 14.355595 -0.000441
2.918324 14.355595 -0.000411
3.232146 14.355595 -0.000317
3.545969 14.355595 -0.000575
3.859793 14.355595 -0.000957
4.173615 14.355595 -0.000906
4.487438 14.355595 -0.000497
4.801261 14.355595 -0.000337
5.115085 14.355595 -0.000353
5.428907 14.355595 -0.000511
5.742730 14.355595 -0.000629
6.056554 14.355595 -0.001020
6.370377 14.355595 -0.001482
6.684199 14.355595 -0.001542
6.998022 14.355595 -0.001909
7.311846 14.355595 -0.002375
7.625669 14.355595 -0.002726
7.939491 14.355595 -0.003552
8.253315 14.355595 -0.005104
8.567138 14.355595 -0.005805
8.880960 14.355595 -0.007469
9.194784 14.355595 -0.010788
9.508606 14.355595 -0.012299
9.822430 14.355595 -0.014598
10.136253 14.355595 -0.025286
10.450075 14.355595 -0.026910
10.763899 14.355595 -0.021927
11.077723 14.355595 -0.034559
11.391544 14.355595 -0.048431
11.705368 14.355595 -0.043221
12.019190 14.355595 -0.036862
12.333014 14.355595 -0.032633
12.646837 14.355595 -0.039752
12.960659 14.355595 -0.047237
13.274483 14.355595 -0.030514
13.588306 14.355595 -0.007306
13.902128 14.355595 -0.008602
14.215952 14.355595 0.003754
14.529776 14.355595 0.009844
14.843597 14.355595 0.078198
15.157421 14.355595 0.119703
15.471243 14.355595 0.074762
15.785067 14.355595 0.049648
16.098890 14.355595 0.047500
16.412712 14.355595 0.068086
16.726536 14.355595 0.060096
17.040359 14.355595 0.066798
17.354181 14.355595 0.068565
17.668005 14.355595 0.149811
17.981829 14.355595 0.291229
18.295650 14.355595 0.523254
18.609474 14.355595 0.950023
18.923298 14.355595 0.000000
19.237120 14.355595 0.000000
-6.810190 14.041771 0.000000
-6.496367 14.041771 0.002152
-6.182544 14.041771 0.000543
-5.868721 14.041771 0.000153
-5.554898 14.041771 0.000040
-5.241075 14.041771 0.000093
-4.927252 14.041771 0.000165
-4.613429 14.041771 0.000205
-4.299606 14.041771 0.000381
-3.985783 14.041771 0.000659
-3.671960 14.041771 0.001001
-3.358137 14.041771 0.001260
-3.044314 14.041771 0.001317
-2.730491 14.041771 0.001238
-2.416668 14.041771 0.001069
-2.102845 14.041771 0.000934
-1.789022 14.041771 0.000795
-1.475199 14.041771 0.000554
-1.161376 14.041771 0.000505
-0.847553 14.041771 0.000718
-0.533730 14.041771 0.000813
-0.219907 14.041771 0.000787
0.093916 14.041771 0.000801
0.407739 14.041771 0.000790
0.721562 14.041771 0.000545
1.035385 14.041771 0.000593
1.349208 14.041771 0.000566
1.663032 14.041771 0.000455
1.976854 14.041771 0.000238
2.290677 14.041771 -0.000190
2.604500 14.041771 -0.000551
2.918324 14.041771 -0.000608
3.232146 14.041771 -0.000540
3.545969 14.041771 -0.000673
3.859793 14.041771 -0.000846
4.173615 14.041771 -0.000652
4.487438 14.041771 -0.000253
4.801261 14.041771 -0.000131
5.115085 14.041771 -0.000233
5.428907 14.041771 -0.000536
5.742730 14.041771 -0.000785
6.056554 14.041771 -0.001307
6.370377 14.041771 -0.001701
6.684199 14.041771 -0.001868
6.998022 14.041771 -0.002389
7.311846 14.041771 -0.002919
7.625669 14.041771 -0.003167
7.939491 14.041771 -0.004228
8.253315 14.041771 -0.004914
8.567138 14.041771 -0.004253
8.880960 14.041771 -0.005299
9.194784 14.041771 -0.011182
9.508606 14.041771 -0.012847
9.822430 14.041771 -0.017674
10.136253 14.041771 -0.026992
10.450075 14.041771 -0.029533
10.763899 14.041771 -0.030172
11.077723 14.041771 -0.040257
11.391544 14.041771 -0.042436
11.705368 14.041771 -0.041879
12.019190 14.041771 -0.031728
12.333014 14.041771 -0.033894
12.646837 14.041771 -0.045352
12.960659 14.041771 -0.049110
13.274483 14.041771 -0.054059
13.588306 14.041771 -0.042282
13.902128 14.041771 -0.018497
14.215952 14.041771 -0.014943
14.529776 14.041771 0.007900
14.843597 14.041771 0.054868
15.157421 14.041771 0.108959
15.471243 14.041771 0.092805
15.785067 14.041771 0.098430
16.098890 14.041771 0.098161
16.412712 14.041771 0.124158
16.726536 14.041771 0.074592
17.040359 14.041771 0.101656
17.354181 14.041771 0.125734
17.668005 14.041771 0.126771
17.981829 14.041771 0.321087
18.295650 14.041771 0.683477
18.609474 14.041771 1.112866
18.923298 14.041771 0.000000
19.237120 14.041771 0.000000
-6.810190 13.727947 0.000000
-6.496367 13.727947 0.001563
-6.182544 13.727947 0.000149
-5.868721 13.727947 -0.000033
-5.554898 13.727947 -0.000019
-5.241075 13.727947 0.000176
-4.927252 13.727947 0.000417
-4.613429 13.727947 0.000637
-4.299606 13.727947 0.000888
-3.985783 13.727947 0.001006
-3.671960 13.727947 0.001166
-3.358137 13.727947 0.001232
-3.044314 13.727947 0.001056
-2.730491 13.727947 0.000758
-2.416668 13.727947 0.000387
-2.102845 13.727947 0.000230
-1.789022 13.727947 0.000361
-1.475199 13.727947 0.000438
-1.161376 13.727947 0.000680
-0.847553 13.727947 0.001072
-0.533730 13.727947 0.001289
-0.219907 13.727947 0.001234
0.093916 13.727947 0.001034
0.407739 13.727947 0.000881
0.721562 13.727947 0.000598
1.035385 13.727947 0.000494
1.349208 13.727947 0.000256
1.663032 13.727947 0.000069
1.976854 13.727947 -0.000005
2.290677 13.727947 -0.000233
2.604500 13.727947 -0.000409
2.918324 13.727947 -0.000447
3.232146 13.727947 -0.000408
3.545969 13.727947 -0.000481
3.859793 13.727947 -0.000504
4.173615 13.727947 -0.000224
4.487438 13.727947 -0.000088
4.801261 13.727947 -0.000143
5.115085 13.727947 -0.000483
5.428907 13.727947 -0.000904
5.742730 13.727947 -0.001246
6.056554 13.727947 -0.001612
6.370377 13.727947 -0.001747
6.684199 13.727947 -0.002014
6.998022 13.727947 -0.002345
7.311846 13.727947 -0.002640
7.625669 13.727947 -0.003130
7.939491 13.727947 -0.004036
8.253315 13.727947 -0.004686
8.567138 13.727947 -0.004666
8.880960 13.727947 -0.005338
9.194784 13.727947 -0.011902
9.508606 13.727947 -0.012139
9.822430 13.727947 -0.015645
10.136253 13.727947 -0.024325
10.450075 13.727947 -0.034070
10.763899 13.727947 -0.033818
11.077723 13.727947 -0.032386
11.391544 13.727947 -0.032957
11.705368 13.727947 -0.051097
12.019190 13.727947 -0.046431
12.333014 13.727947 -0.040990
12.646837 13.727947 -0.045731
12.960659 13.727947 -0.055326
13.274483 13.727947 -0.047124
13.588306 13.727947 -0.025348
13.902128 13.727947 -0.019174
14.215952 13.727947 0.002978
14.529776 13.727947 0.054293
14.843597 13.727947 0.056256
15.157421 13.727947 0.103288
15.471243 13.727947 0.112279
15.785067 13.727947 0.099472
16.098890 13.727947 0.120683
16.412712 13.727947 0.125204
16.726536 13.727947 0.082199
17.040359 13.727947 0.075125
17.354181 13.727947 0.095724
17.668005 13.727947 0.175883
17.981829 13.727947 0.382824
18.295650 13.727947 0.767202
18.609474 13.727947 1.168199
18.923298 13.727947 0.000000
19.237120 13.727947 0.000000
-6.810190 13.414124 0.000000
-6.496367 13.414124 0.001315
-6.182544 13.414124 0.000228
-5.868721 13.414124 0.000316
-5.554898 13.414124 0.000469
-5.241075 13.414124 0.000611
-4.927252 13.414124 0.000779
-4.613429 13.414124 0.000891
-4.299606 13.414124 0.000995
-3.985783 13.414124 0.000914
-3.671960 13.414124 0.000830
-3.358137 13.414124 0.000734
-3.044314 13.414124 0.000502
-2.730491 13.414124 0.000258
-2.416668 13.414124 -0.000019
-2.102845 13.414124 0.000010
-1.789022 13.414124 0.000478
-1.475199 13.414124 0.000760
-1.161376 13.414124 0.001041
-0.847553 13.414124 0.001400
-0.533730 13.414124 0.001439
-0.219907 13.414124 0.001193
0.093916 13.414124 0.000830
0.407739 13.414124 0.000596
0.721562 13.414124 0.000448
1.035385 13.414124 0.000277
1.349208 13.414124 -0.000058
1.663032 13.414124 -0.000154
1.976854 13.414124 -0.000054
2.290677 13.414124 0.000023
2.604500 13.414124 -0.000053
2.918324 13.414124 -0.000127
3.232146 13.414124 -0.000124
3.545969 13.414124 -0.000237
3.859793 13.414124 -0.000216
4.173615 13.414124 -0.000020
4.487438 13.414124 -0.000116
4.801261 13.414124 -0.000396
5.115085 13.414124 -0.000983
5.428907 13.414124 -0.001464
5.742730 13.414124 -0.001512
6.056554 13.414124 -0.001679
6.370377 13.414124 -0.001525
6.684199 13.414124 -0.001528
6.998022 13.414124 -0.001565
7.311846 13.414124 -0.001918
7.625669 13.414124 -0.002699
7.939491 13.414124 -0.003668
8.253315 13.414124 -0.005399
8.567138 13.414124 -0.004755
8.880960 13.414124 -0.006340
9.194784 13.414124 -0.008122
9.508606 13.414124 -0.010920
9.822430 13.414124 -0.014120
10.136253 13.414124 -0.022086
10.450075 13.414124 -0.026029
10.763899 13.414124 -0.027748
11.077723 13.414124 -0.022608
11.391544 13.414124 -0.046485
11.705368 13.414124 -0.061074
12.019190 13.414124 -0.063901
12.333014 13.414124 -0.046346
12.646837 13.414124 -0.048352
12.960659 13.414124 -0.051007
13.274483 13.414124 -0.032320
13.588306 13.414124 -0.035746
13.902128 13.414124 -0.030838
14.215952 13.414124 0.015793
14.529776 13.414124 0.057627
14.843597 13.414124 0.075452
15.157421 13.414124 0.100935
15.471243 13.414124 0.081330
15.785067 13.414124 0.093703
16.098890 13.414124 0.137716
16.412712 13.414124 0.107837
16.726536 13.414124 0.113603
17.040359 13.414124 0.069011
17.354181 13.414124 0.093859
17.668005 13.414124 0.184334
17.981829 13.414124 0.400465
18.295650 13.414124 0.791251
18.609474 13.414124 1.292332
18.923298 13.414124 0.000000
19.237120 13.414124 0.000000
-6.810190 13.100300 0.000000
-6.496367 13.100300 0.001581
-6.182544 13.100300 0.000549
-5.868721 13.100300 0.000724
-5.554898 13.100300 0.000863
-5.241075 13.100300 0.000881
-4.927252 13.100300 0.000900
-4.613429 13.100300 0.000857
-4.299606 13.100300 0.000786
-3.985783 13.100300 0.000584
-3.671960 13.100300 0.000432
-3.358137 13.100300 0.000383
-3.044314 13.100300 0.000345
-2.730491 13.100300 0.000280
-2.416668 13.100300 0.000128
-2.102845 13.100300 0.000298
-1.789022 13.100300 0.000843
-1.475199 13.100300 0.001104
-1.161376 13.100300 0.001193
-0.847553 13.100300 0.001331
-0.533730 13.100300 0.001177
-0.219907 13.100300 0.000759
0.093916 13.100300 0.000387
0.407739 13.100300 0.000244
0.721562 13.100300 0.000242
1.035385 13.100300 0.000224
1.349208 13.100300 -0.000007
1.663032 13.100300 -0.000051
1.976854 13.100300 0.000129
2.290677 13.100300 0.000344
2.604500 13.100300 0.000270
2.918324 13.100300 0.000078
3.232146 13.100300 -0.000003
3.545969 13.100300 -0.000178
3.859793 13.100300 -0.000235
4.173615 13.100300 -0.000143
4.487438 13.100300 -0.000418
4.801261 13.100300 -0.000809
5.115085 13.100300 -0.001394
5.428907 13.100300 -0.001651
5.742730 13.100300 -0.001379
6.056554 13.100300 -0.001302
6.370377 13.100300 -0.001107
6.684199 13.100300 -0.001083
6.998022 13.100300 -0.001160
7.311846 13.100300 -0.001602
7.625669 13.100300 -0.003044
7.939491 13.100300 -0.004321
8.253315 13.100300 -0.005532
8.567138 13.100300 -0.006416
8.880960 13.100300 -0.008364
9.194784 13.100300 -0.011078
9.508606 13.100300 -0.012723
9.822430 13.100300 -0.013716
10.136253 13.100300 -0.021801
10.450075 13.100300 -0.027873
10.763899 13.100300 -0.024860
11.077723 13.100300 -0.020703
11.391544 13.100300 -0.041219
11.705368 13.100300 -0.052892
12.019190 13.100300 -0.054504
12.333014 13.100300 -0.050132
12.646837 13.100300 -0.064959
12.960659 13.100300 -0.071189
13.274483 13.100300 -0.034662
13.588306 13.100300 -0.038175
13.902128 13.100300 -0.030781
14.215952 13.100300 0.044041
14.529776 13.100300 0.052007
14.843597 13.100300 0.107137
15.157421 13.100300 0.132145
15.471243 13.100300 0.138698
15.785067 13.100300 0.092020
16.098890 13.100300 0.129938
16.412712 13.100300 0.102415
16.726536 13.100300 0.087175
17.040359 13.100300 0.081547
17.354181 13.100300 0.128625
17.668005 13.100300 0.219616
17.981829 13.100300 0.418736
18.295650 13.100300 0.844861
18.609474 13.100300 1.425926
18.923298 13.100300 0.000000
19.237120 13.100300 0.000000
-6.810190 12.786476 0.000000
-6.496367 12.786476 0.001795
-6.182544 12.786476 0.000719
-5.868721 12.786476 0.000754
-5.554898 12.786476 0.000731
-5.241075 12.786476 0.000713
-4.927252 12.786476 0.000713
-4.613429 12.786476 0.000685
-4.299606 12.786476 0.000591
-3.985783 12.786476 0.000445
-3.671960 12.786476 0.000433
-3.358137 12.786476 0.000581
-3.044314 12.786476 0.000704
-2.730491 12.786476 0.000660
-2.416668 12.786476 0.000507
-2.102845 12.786476 0.000603
-1.789022 12.786476 0.001003
-1.475199 12.786476 0.001136
-1.161376 12.786476 0.001030
-0.847553 12.786476 0.000973
-0.533730 12.786476 0.000760
-0.219907 12.786476 0.000365
0.093916 12.786476 0.000173
0.407739 12.786476 0.000164
0.721562 12.786476 0.000221
1.035385 12.786476 0.000282
1.349208 12.786476 0.000215
1.663032 12.786476 0.000233
1.976854 12.786476 0.000362
2.290677 12.786476 0.000481
2.604500 12.786476 0.000438
2.918324 12.786476 0.000222
3.232146 12.786476 0.000009
3.545969 12.786476 -0.000240
3.859793 12.786476 -0.000414
4.173615 12.786476 -0.000406
4.487438 12.786476 -0.000636
4.801261 12.786476 -0.000998
5.115085 12.786476 -0.001353
5.428907 12.786476 -0.001296
5.742730 12.786476 -0.000917
6.056554 12.786476 -0.000822
6.370377 12.786476 -0.000872
6.684199 12.786476 -0.001056
6.998022 12.786476 -0.001210
7.311846 12.786476 -0.001776
7.625669 12.786476 -0.003381
7.939491 12.786476 -0.004796
8.253315 12.786476 -0.006291
8.567138 12.786476 -0.007682
8.880960 12.786476 -0.010842
9.194784 12.786476 -0.012011
9.508606 12.786476 -0.010155
9.822430 12.786476 -0.017105
10.136253 12.786476 -0.026655
10.450075 12.786476 -0.028223
10.763899 12.786476 -0.024062
11.077723 12.786476 -0.025114
11.391544 12.786476 -0.038753
11.705368 12.786476 -0.039555
12.019190 12.786476 -0.041790
12.333014 12.786476 -0.045756
12.646837 12.786476 -0.080033
12.960659 12.786476 -0.073367
13.274483 12.786476 -0.059984
13.588306 12.786476 -0.024244
13.902128 12.786476 -0.035662
14.215952 12.786476 0.038277
14.529776 12.786476 0.073895
14.843597 12.786476 0.076451
15.157421 12.786476 0.112430
15.471243 12.786476 0.115433
15.785067 12.786476 0.109065
16.098890 12.786476 0.106853
16.412712 12.786476 0.085782
16.726536 12.786476 0.081045
17.040359 12.786476 0.110698
17.354181 12.786476 0.188011
17.668005 12.786476 0.283161
17.981829 12.786476 0.416177
18.295650 12.786476 0.946431
18.609474 12.786476 1.482377
18.923298 12.786476 0.000000
19.237120 12.786476 0.000000
-6.810190 12.472656 0.000000
-6.496367 12.472656 0.001597
-6.182544 12.472656 0.000533
-5.868721 12.472656 0.000453
-5.554898 12.472656 0.000390
-5.241075 12.472656 0.000438
-4.927252 12.472656 0.000579
-4.613429 12.472656 0.000713
-4.299606 12.472656 0.000730
-3.985783 12.472656 0.000716
-3.671960 12.472656 0.000811
-3.358137 12.472656 0.001011
-3.044314 12.472656 0.001108
-2.730491 12.472656 0.000987
-2.416668 12.472656 0.000738
-2.102845 12.472656 0.000693
-1.789022 12.472656 0.000904
-1.475199 12.472656 0.000876
-1.161376 12.472656 0.000721
-0.847553 12.472656 0.000722
-0.533730 12.472656 0.000580
-0.219907 12.472656 0.000382
0.093916 12.472656 0.000400
0.407739 12.472656 0.000391
0.721562 12.472656 0.000290
1.035385 12.472656 0.000316
1.349208 12.472656 0.000375
1.663032 12.472656 0.000403
1.976854 12.472656 0.000393
2.290677 12.472656 0.000389
2.604500 12.472656 0.000431
2.918324 12.472656 0.000307
3.232146 12.472656 0.000009
3.545969 12.472656 -0.000275
3.859793 12.472656 -0.000519
4.173615 12.472656 -0.000484
4.487438 12.472656 -0.000601
4.801261 12.472656 -0.000834
5.115085 12.472656 -0.000927
5.428907 12.472656 -0.000788
5.742730 12.472656 -0.000533
6.056554 12.472656 -0.000665
6.370377 12.472656 -0.000955
6.684199 12.472656 -0.001333
6.998022 12.472656 -0.001781
7.311846 12.472656 -0.002183
7.625669 12.472656 -0.003636
7.939491 12.472656 -0.004588
8.253315 12.472656 -0.005349
8.567138 12.472656 -0.006318
8.880960 12.472656 -0.010588
9.194784 12.472656 -0.014252
9.508606 12.472656 -0.014404
9.822430 12.472656 -0.018350
10.136253 12.472656 -0.026656
10.450075 12.472656 -0.031556
10.763899 12.472656 -0.014095
11.077723 12.472656 -0.020582
11.391544 12.472656 -0.036793
11.705368 12.472656 -0.032822
12.019190 12.472656 -0.027286
12.333014 12.472656 -0.030405
12.646837 12.472656 -0.061390
12.960659 12.472656 -0.051153
13.274483 12.472656 -0.069107
13.588306 12.472656 -0.039682
13.902128 12.472656 -0.018725
14.215952 12.472656 0.034718
14.529776 12.472656 0.038644
14.843597 12.472656 0.060111
15.157421 12.472656 0.068655
15.471243 12.472656 0.097233
15.785067 12.472656 0.152598
16.098890 12.472656 0.129192
16.412712 12.472656 0.144532
16.726536 12.472656 0.069797
17.040359 12.472656 0.083852
17.354181 12.472656 0.169376
17.668005 12.472656 0.273128
17.981829 12.472656 0.450818
18.295650 12.472656 0.979263
18.609474 12.472656 1.569305
18.923298 12.472656 0.000000
19.237120 12.472656 0.000000
-6.810190 12.158833 0.000000
-6.496367 12.158833 0.001291
-6.182544 12.158833 0.000278
-5.868721 12.158833 0.000150
-5.554898 12.158833 0.000228
-5.241075 12.158833 0.000462
-4.927252 12.158833 0.000761
-4.613429 12.158833 0.000970
-4.299606 12.158833 0.001064
-3.985783 12.158833 0.001054
-3.671960 12.158833 0.001050
-3.358137 12.158833 0.001180
-3.044314 12.158833 0.001287
-2.730491 12.158833 0.001070
-2.416668 12.158833 0.000743
-2.102845 12.158833 0.000669
-1.789022 12.158833 0.000784
-1.475199 12.158833 0.000650
-1.161376 12.158833 0.000602
-0.847553 12.158833 0.000712
-0.533730 12.158833 0.000692
-0.219907 12.158833 0.000651
0.093916 12.158833 0.000766
0.407739 12.158833 0.000605
0.721562 12.158833 0.000298
1.035385 12.158833 0.000223
1.349208 12.158833 0.000265
1.663032 12.158833 0.000343
1.976854 12.158833 0.000204
2.290677 12.158833 0.000095
2.604500 12.158833 0.000288
2.918324 12.158833 0.000325
3.232146 12.158833 0.000106
3.545969 12.158833 -0.000199
3.859793 12.158833 -0.000374
4.173615 12.158833 -0.000353
4.487438 12.158833 -0.000464
4.801261 12.158833 -0.000661
5.115085 12.158833 -0.000627
5.428907 12.158833 -0.000541
5.742730 12.158833 -0.000467
6.056554 12.158833 -0.000747
6.370377 12.158833 -0.001197
6.684199 12.158833 -0.001584
6.998022 12.158833 -0.001865
7.311846 12.158833 -0.002365
7.625669 12.158833 -0.003469
7.939491 12.158833 -0.003945
8.253315 12.158833 -0.004311
8.567138 12.158833 -0.006559
8.880960 12.158833 -0.010164
9.194784 12.158833 -0.014046
9.508606 12.158833 -0.015913
9.822430 12.158833 -0.024140
10.136253 12.158833 -0.027653
10.450075 12.158833 -0.032291
10.763899 12.158833 -0.012916
11.077723 12.158833 -0.014526
11.391544 12.158833 -0.028798
11.705368 12.158833 -0.026343
12.019190 12.158833 -0.023081
12.333014 12.158833 -0.013415
12.646837 12.158833 -0.012626
12.960659 12.158833 -0.036688
13.274483 12.158833 -0.030355
13.588306 12.158833 0.009820
13.902128 12.158833 -0.013385
14.215952 12.158833 0.062965
14.529776 12.158833 0.082184
14.843597 12.158833 0.080072
15.157421 12.158833 0.097557
15.471243 12.158833 0.125939
15.785067 12.158833 0.110325
16.098890 12.158833 0.147353
16.412712 12.158833 0.117204
16.726536 12.158833 0.113394
17.040359 12.158833 0.092012
17.354181 12.158833 0.201062
17.668005 12.158833 0.282244
17.981829 12.158833 0.411351
18.295650 12.158833 0.951052
18.609474 12.158833 1.630853
18.923298 12.158833 0.000000
19.237120 12.158833 0.000000
-6.810190 11.845009 0.000000
-6.496367 11.845009 0.001196
-6.182544 11.845009 0.000235
-5.868721 11.845009 0.000168
-5.554898 11.845009 0.000319
-5.241075 11.845009 0.000626
-4.927252 11.845009 0.000950
-4.613429 11.845009 0.001104
-4.299606 11.845009 0.001192
-3.985783 11.845009 0.001087
-3.671960 11.845009 0.000970
-3.358137 11.845009 0.001057
-3.044314 11.845009 0.001169
-2.730491 11.845009 0.000977
-2.416668 11.845009 0.000728
-2.102845 11.845009 0.000714
-1.789022 11.845009 0.000749
-1.475199 11.845009 0.000630
-1.161376 11.845009 0.000643
-0.847553 11.845009 0.000856
-0.533730 11.845009 0.000793
-0.219907 11.845009 0.000831
0.093916 11.845009 0.000911
0.407739 11.845009 0.000578
0.721562 11.845009 0.000176
1.035385 11.845009 -0.000020
1.349208 11.845009 0.000026
1.663032 11.845009 0.000161
1.976854 11.845009 -0.000014
2.290677 11.845009 -0.000184
2.604500 11.845009 0.000100
2.918324 11.845009 0.000324
3.232146 11.845009 0.000266
3.545969 11.845009 0.000015
3.859793 11.845009 -0.000173
4.173615 11.845009 -0.000253
4.487438 11.845009 -0.000423
4.801261 11.845009 -0.000664
5.115085 11.845009 -0.000640
5.428907 11.845009 -0.000601
5.742730 11.845009 -0.000669
6.056554 11.845009 -0.000939
6.370377 11.845009 -0.001300
6.684199 11.845009 -0.001542
6.998022 11.845009 -0.001764
7.311846 11.845009 -0.002202
7.625669 11.845009 -0.002899
7.939491 11.845009 -0.003427
8.253315 11.845009 -0.004202
8.567138 11.845009 -0.005577
8.880960 11.845009 -0.009855
9.194784 11.845009 -0.014029
9.508606 11.845009 -0.015868
9.822430 11.845009 -0.020946
10.136253 11.845009 -0.025023
10.450075 11.845009 -0.026712
10.763899 11.845009 -0.013970
11.077723 11.845009 -0.004567
11.391544 11.845009 -0.012834
11.705368 11.845009 -0.027764
12.019190 11.845009 -0.028986
12.333014 11.845009 0.013272
12.646837 11.845009 -0.006729
12.960659 11.845009 -0.003455
13.274483 11.845009 0.004806
13.588306 11.845009 0.048970
13.902128 11.845009 0.017643
14.215952 11.845009 0.085322
14.529776 11.845009 0.086392
14.843597 11.845009 0.083722
15.157421 11.845009 0.101648
15.471243 11.845009 0.119019
15.785067 11.845009 0.148424
16.098890 11.845009 0.136175
16.412712 11.845009 0.139455
16.726536 11.845009 0.107987
17.040359 11.845009 0.131656
17.354181 11.845009 0.187462
17.668005 11.845009 0.283583
17.981829 11.845009 0.443527
18.295650 11.845009 1.054309
18.609474 11.845009 1.650075
18.923298 11.845009 0.000000
19.237120 11.845009 0.000000
-6.810190 11.531185 0.000000
-6.496367 11.531185 0.001354
-6.182544 11.531185 0.000342
-5.868721 11.531185 0.000311
-5.554898 11.531185 0.000450
-5.241075 11.531185 0.000613
-4.927252 11.531185 0.000852
-4.613429 11.531185 0.001046
-4.299606 11.531185 0.001102
-3.985783 11.531185 0.000901
-3.671960 11.531185 0.000714
-3.358137 11.531185 0.000864
-3.044314 11.531185 0.001048
-2.730491 11.531185 0.000936
-2.416668 11.531185 0.000859
-2.102845 11.531185 0.000762
-1.789022 11.531185 0.000709
-1.475199 11.531185 0.000653
-1.161376 11.531185 0.000768
-0.847553 11.531185 0.000851
-0.533730 11.531185 0.000688
-0.219907 11.531185 0.000641
0.093916 11.531185 0.000759
0.407739 11.531185 0.000494
0.721562 11.531185 0.000089
1.035385 11.531185 -0.000166
1.349208 11.531185 -0.000147
1.663032 11.531185 0.000046
1.976854 11.531185 -0.000143
2.290677 11.531185 -0.000337
2.604500 11.531185 -0.000062
2.918324 11.531185 0.000250
3.232146 11.531185 0.000293
3.545969 11.531185 0.000040
3.859793 11.531185 -0.000222
4.173615 11.531185 -0.000427
4.487438 11.531185 -0.000669
4.801261 11.531185 -0.000859
5.115085 11.531185 -0.000851
5.428907 11.531185 -0.000731
5.742730 11.531185 -0.000673
6.056554 11.531185 -0.000884
6.370377 11.531185 -0.001121
6.684199 11.531185 -0.001181
6.998022 11.531185 -0.001532
7.311846 11.531185 -0.002274
7.625669 11.531185 -0.002579
7.939491 11.531185 -0.002788
8.253315 11.531185 -0.004597
8.567138 11.531185 -0.006669
8.880960 11.531185 -0.009651
9.194784 11.531185 -0.013888
9.508606 11.531185 -0.014907
9.822430 11.531185 -0.018221
10.136253 11.531185 -0.027894
10.450075 11.531185 -0.027712
10.763899 11.531185 -0.003882
11.077723 11.531185 -0.005123
11.391544 11.531185 -0.016434
11.705368 11.531185 -0.026044
12.019190 11.531185 -0.020200
12.333014 11.531185 0.005926
12.646837 11.531185 0.015096
12.960659 11.531185 -0.000032
13.274483 11.531185 0.037477
13.588306 11.531185 0.052533
13.902128 11.531185 0.066032
14.215952 11.531185 0.116143
14.529776 11.531185 0.098298
14.843597 11.531185 0.097174
15.157421 11.531185 0.124615
15.471243 11.531185 0.129380
15.785067 11.531185 0.155484
16.098890 11.531185 0.164380
16.412712 11.531185 0.136098
16.726536 11.531185 0.112938
17.040359 11.531185 0.129252
17.354181 11.531185 0.227167
17.668005 11.531185 0.308171
17.981829 11.531185 0.537318
18.295650 11.531185 1.082395
18.609474 11.531185 1.834239
18.923298 11.531185 0.000000
19.237120 11.531185 0.000000
-6.810190 11.217361 0.000000
-6.496367 11.217361 0.001441
-6.182544 11.217361 0.000336
-5.868721 11.217361 0.000255
-5.554898 11.217361 0.000391
-5.241075 11.217361 0.000445
-4.927252 11.217361 0.000665
-4.613429 11.217361 0.000935
-4.299606 11.217361 0.001011
-3.985783 11.217361 0.000857
-3.671960 11.217361 0.000686
-3.358137 11.217361 0.000824
-3.044314 11.217361 0.001023
-2.730491 11.217361 0.000989
-2.416668 11.217361 0.000935
-2.102845 11.217361 0.000726
-1.789022 11.217361 0.000518
-1.475199 11.217361 0.000560
-1.161376 11.217361 0.000666
-0.847553 11.217361 0.000623
-0.533730 11.217361 0.000404
-0.219907 11.217361 0.000331
0.093916 11.217361 0.000506
0.407739 11.217361 0.000341
0.721562 11.217361 0.000174
1.035385 11.217361 -0.000084
1.349208 11.217361 -0.000120
1.663032 11.217361 0.000005
1.976854 11.217361 -0.000208
2.290677 11.217361 -0.000459
2.604500 11.217361 -0.000295
2.918324 11.217361 0.000098
3.232146 11.217361 0.000173
3.545969 11.217361 -0.000174
3.859793 11.217361 -0.000582
4.173615 11.217361 -0.000766
4.487438 11.217361 -0.000921
4.801261 11.217361 -0.001000
5.115085 11.217361 -0.000916
5.428907 11.217361 -0.000691
5.742730 11.217361 -0.000494
6.056554 11.217361 -0.000738
6.370377 11.217361 -0.001059
6.684199 11.217361 -0.001260
6.998022 11.217361 -0.001700
7.311846 11.217361 -0.002424
7.625669 11.217361 -0.003059
7.939491 11.217361 -0.003451
8.253315 11.217361 -0.004333
8.567138 11.217361 -0.006376
8.880960 11.217361 -0.008235
9.194784 11.217361 -0.009188
9.508606 11.217361 -0.010241
9.822430 11.217361 -0.015259
10.136253 11.217361 -0.020553
10.450075 11.217361 -0.026445
10.763899 11.217361 -0.006251
11.077723 11.217361 -0.012307
11.391544 11.217361 -0.021297
11.705368 11.217361 -0.019745
12.019190 11.217361 -0.024482
12.333014 11.217361 0.014736
12.646837 11.217361 -0.001868
12.960659 11.217361 -0.008971
13.274483 11.217361 0.051933
13.588306 11.217361 0.068498
13.902128 11.217361 0.102420
14.215952 11.217361 0.111479
14.529776 11.217361 0.109022
14.843597 11.217361 0.124056
15.157421 11.217361 0.132669
15.471243 11.217361 0.106366
15.785067 11.217361 0.153556
16.098890 11.217361 0.217708
16.412712 11.217361 0.209791
16.726536 11.217361 0.100761
17.040359 11.217361 0.145046
17.354181 11.217361 0.159984
17.668005 11.217361 0.298681
17.981829 11.217361 0.585479
18.295650 11.217361 1.151008
18.609474 11.217361 1.914663
18.923298 11.217361 0.000000
19.237120 11.217361 0.000000
-6.810190 10.903542 0.000000
-6.496367 10.903542 0.001296
-6.182544 10.903542 0.000200
-5.868721 10.903542 0.000108
-5.554898 10.903542 0.000232
-5.241075 10.903542 0.000272
-4.927252 10.903542 0.000524
-4.613429 10.903542 0.000859
-4.299606 10.903542 0.001053
-3.985783 10.903542 0.000989
-3.671960 10.903542 0.000839
-3.358137 10.903542 0.000854
-3.044314 10.903542 0.000971
-2.730491 10.903542 0.000961
-2.416668 10.903542 0.000845
-2.102845 10.903542 0.000496
-1.789022 10.903542 0.000261
-1.475199 10.903542 0.000343
-1.161376 10.903542 0.000446
-0.847553 10.903542 0.000357
-0.533730 10.903542 0.000181
-0.219907 10.903542 0.000082
0.093916 10.903542 0.000269
0.407739 10.903542 0.000342
0.721562 10.903542 0.000353
1.035385 10.903542 0.000160
1.349208 10.903542 0.000039
1.663032 10.903542 -0.000010
1.976854 10.903542 -0.000343
2.290677 10.903542 -0.000607
2.604500 10.903542 -0.000558
2.918324 10.903542 -0.000208
3.232146 10.903542 -0.000042
3.545969 10.903542 -0.000482
3.859793 10.903542 -0.000928
4.173615 10.903542 -0.000976
4.487438 10.903542 -0.000994
4.801261 10.903542 -0.000899
5.115085 10.903542 -0.000721
5.428907 10.903542 -0.000489
5.742730 10.903542 -0.000437
6.056554 10.903542 -0.000811
6.370377 10.903542 -0.001327
6.684199 10.903542 -0.001791
6.998022 10.903542 -0.002226
7.311846 10.903542 -0.002738
7.625669 10.903542 -0.003318
7.939491 10.903542 -0.004162
8.253315 10.903542 -0.004555
8.567138 10.903542 -0.005566
8.880960 10.903542 -0.006542
9.194784 10.903542 -0.007988
9.508606 10.903542 -0.007810
9.822430 10.903542 -0.009465
10.136253 10.903542 -0.017957
10.450075 10.903542 -0.028556
10.763899 10.903542 -0.018701
11.077723 10.903542 -0.022312
11.391544 10.903542 -0.026961
11.705368 10.903542 -0.019274
12.019190 10.903542 -0.025225
12.333014 10.903542 -0.008130
12.646837 10.903542 -0.000784
12.960659 10.903542 -0.011946
13.274483 10.903542 0.012832
13.588306 10.903542 0.033270
13.902128 10.903542 0.057678
14.215952 10.903542 0.086674
14.529776 10.903542 0.157832
14.843597 10.903542 0.163540
15.157421 10.903542 0.190018
15.471243 10.903542 0.178704
15.785067 10.903542 0.220158
16.098890 10.903542 0.192156
16.412712 10.903542 0.186245
16.726536 10.903542 0.123786
17.040359 10.903542 0.156226
17.354181 10.903542 0.239770
17.668005 10.903542 0.338048
17.981829 10.903542 0.553833
18.295650 10.903542 1.300601
18.609474 10.903542 2.018713
18.923298 10.903542 0.000000
19.237120 10.903542 0.000000
-6.810190 10.589718 0.000000
-6.496367 10.589718 0.001088
-6.182544 10.589718 0.000107
-5.868721 10.589718 0.000096
-5.554898 10.589718 0.000286
-5.241075 10.589718 0.000310
-4.927252 10.589718 0.000531
-4.613429 10.589718 0.000820
-4.299606 10.589718 0.001034
-3.985783 10.589718 0.001067
-3.671960 10.589718 0.000924
-3.358137 10.589718 0.000802
-3.044314 10.589718 0.000753
-2.730491 10.589718 0.000735
-2.416668 10.589718 0.000595
-2.102845 10.589718 0.000328
-1.789022 10.589718 0.000176
-1.475199 10.589718 0.000295
-1.161376 10.589718 0.000323
-0.847553 10.589718 0.000208
-0.533730 10.589718 0.000045
-0.219907 10.589718 0.000001
0.093916 10.589718 0.000261
0.407739 10.589718 0.000319
0.721562 10.589718 0.000394
1.035385 10.589718 0.000261
1.349208 10.589718 0.000104
1.663032 10.589718 -0.000037
1.976854 10.589718 -0.000480
2.290677 10.589718 -0.000782
2.604500 10.589718 -0.000785
2.918324 10.589718 -0.000466
3.232146 10.589718 -0.000232
3.545969 10.589718 -0.000684
3.859793 10.589718 -0.001015
4.173615 10.589718 -0.000944
4.487438 10.589718 -0.000865
4.801261 10.589718 -0.000748
5.115085 10.589718 -0.000623
5.428907 10.589718 -0.000440
5.742730 10.589718 -0.000565
6.056554 10.589718 -0.001098
6.370377 10.589718 -0.001638
6.684199 10.589718 -0.002235
6.998022 10.589718 -0.002698
7.311846 10.589718 -0.002678
7.625669 10.589718 -0.003285
7.939491 10.589718 -0.004405
8.253315 10.589718 -0.004586
8.567138 10.589718 -0.004425
8.880960 10.589718 -0.006425
9.194784 10.589718 -0.008422
9.508606 10.589718 -0.006068
9.822430 10.589718 -0.012042
10.136253 10.589718 -0.021239
10.450075 10.589718 -0.029550
10.763899 10.589718 -0.030966
11.077723 10.589718 -0.032415
11.391544 10.589718 -0.034134
11.705368 10.589718 -0.035088
12.019190 10.589718 -0.007326
12.333014 10.589718 0.000936
12.646837 10.589718 -0.017782
12.960659 10.589718 -0.038874
13.274483 10.589718 -0.001799
13.588306 10.589718 0.000957
13.902128 10.589718 0.059207
14.215952 10.589718 0.093903
14.529776 10.589718 0.123792
14.843597 10.589718 0.165799
15.157421 10.589718 0.214145
15.471243 10.589718 0.221973
15.785067 10.589718 0.218813
16.098890 10.589718 0.242110
16.412712 10.589718 0.154438
16.726536 10.589718 0.132900
17.040359 10.589718 0.174543
17.354181 10.589718 0.258449
17.668005 10.589718 0.395629
17.981829 10.589718 0.687942
18.295650 10.589718 1.391343
18.609474 10.589718 2.142486
18.923298 10.589718 0.000000
19.237120 10.589718 0.000000
-6.810190 10.275894 0.000000
-6.496367 10.275894 0.001198
-6.182544 10.275894 0.000286
-5.868721 10.275894 0.000342
-5.554898 10.275894 0.000516
-5.241075 10.275894 0.000474
-4.927252 10.275894 0.000590
-4.613429 10.275894 0.000779
-4.299606 10.275894 0.000882
-3.985783 10.275894 0.000903
-3.671960 10.275894 0.000806
-3.358137 10.275894 0.000602
-3.044314 10.275894 0.000465
-2.730491 10.275894 0.000450
-2.416668 10.275894 0.000407
-2.102845 10.275894 0.000320
-1.789022 10.275894 0.000313
-1.475199 10.275894 0.000412
-1.161376 10.275894 0.000406
-0.847553 10.275894 0.000200
-0.533730 10.275894 0.000018
-0.219907 10.275894 0.000081
0.093916 10.275894 0.000225
0.407739 10.275894 0.000199
0.721562 10.275894 0.000266
1.035385 10.275894 0.000261
1.349208 10.275894 0.000111
1.663032 10.275894 -0.000051
1.976854 10.275894 -0.000497
2.290677 10.275894 -0.000824
2.604500 10.275894 -0.000911
2.918324 10.275894 -0.000599
3.232146 10.275894 -0.000419
3.545969 10.275894 -0.000784
3.859793 10.275894 -0.000938
4.173615 10.275894 -0.000817
4.487438 10.275894 -0.000776
4.801261 10.275894 -0.000688
5.115085 10.275894 -0.000631
5.428907 10.275894 -0.000696
5.742730 10.275894 -0.000963
6.056554 10.275894 -0.001393
6.370377 10.275894 -0.001561
6.684199 10.275894 -0.002220
6.998022 10.275894 -0.002586
7.311846 10.275894 -0.002685
7.625669 10.275894 -0.002920
7.939491 10.275894 -0.004728
8.253315 10.275894 -0.004832
8.567138 10.275894 -0.005100
8.880960 10.275894 -0.007051
9.194784 10.275894 -0.009408
9.508606 10.275894 -0.008799
9.822430 10.275894 -0.009142
10.136253 10.275894 -0.013131
10.450075 10.275894 -0.023300
10.763899 10.275894 -0.028355
11.077723 10.275894 -0.033804
11.391544 10.275894 -0.042394
11.705368 10.275894 -0.044257
12.019190 10.275894 -0.024672
12.333014 10.275894 -0.000889
12.646837 10.275894 0.007046
12.960659 10.275894 -0.018458
13.274483 10.275894 0.009084
13.588306 10.275894 0.016858
13.902128 10.275894 0.071655
14.215952 10.275894 0.091988
14.529776 10.275894 0.145098
14.843597 10.275894 0.200785
15.157421 10.275894 0.250990
15.471243 10.275894 0.206842
15.785067 10.275894 0.230586
16.098890 10.275894 0.190682
16.412712 10.275894 0.123212
16.726536 10.275894 0.102158
17.040359 10.275894 0.144693
17.354181 10.275894 0.322916
17.668005 10.275894 0.454983
17.981829 10.275894 0.828991
18.295650 10.275894 1.642213
18.609474 10.275894 2.434711
18.923298 10.275894 0.000000
19.237120 10.275894 0.000000
-6.810190 9.962070 0.000000
-6.496367 9.962070 0.001573
-6.182544 9.962070 0.000593
-5.868721 9.962070 0.000590
-5.554898 9.962070 0.000741
-5.241075 9.962070 0.000560
-4.927252 9.962070 0.000541
-4.613429 9.962070 0.000577
-4.299606 9.962070 0.000581
-3.985783 9.962070 0.000593
-3.671960 9.962070 0.000555
-3.358137 9.962070 0.000399
-3.044314 9.962070 0.000255
-2.730491 9.962070 0.000269
-2.416668 9.962070 0.000374
-2.102845 9.962070 0.000439
-1.789022 9.962070 0.000427
-1.475199 9.962070 0.000581
-1.161376 9.962070 0.000562
-0.847553 9.962070 0.000224
-0.533730 9.962070 -0.000075
-0.219907 9.962070 0.000019
0.093916 9.962070 0.000103
0.407739 9.962070 0.000011
0.721562 9.962070 0.000109
1.035385 9.962070 0.000162
1.349208 9.962070 0.000028
1.663032 9.962070 -0.000029
1.976854 9.962070 -0.000319
2.290677 9.962070 -0.000648
2.604500 9.962070 -0.000851
2.918324 9.962070 -0.000671
3.232146 9.962070 -0.000554
3.545969 9.962070 -0.000763
3.859793 9.962070 -0.000862
4.173615 9.962070 -0.000904
4.487438 9.962070 -0.000984
4.801261 9.962070 -0.000871
5.115085 9.962070 -0.000888
5.428907 9.962070 -0.001067
5.742730 9.962070 -0.001386
6.056554 9.962070 -0.001506
6.370377 9.962070 -0.001414
6.684199 9.962070 -0.001905
6.998022 9.962070 -0.002458
7.311846 9.962070 -0.002703
7.625669 9.962070 -0.003000
7.939491 9.962070 -0.004663
8.253315 9.962070 -0.006101
8.567138 9.962070 -0.005840
8.880960 9.962070 -0.006504
9.194784 9.962070 -0.009159
9.508606 9.962070 -0.008842
9.822430 9.962070 -0.006297
10.136253 9.962070 -0.007588
10.450075 9.962070 -0.012833
10.763899 9.962070 -0.024097
11.077723 9.962070 -0.024612
11.391544 9.962070 -0.035480
11.705368 9.962070 -0.055046
12.019190 9.962070 -0.027993
12.333014 9.962070 0.005630
12.646837 9.962070 -0.002561
12.960659 9.962070 -0.006154
13.274483 9.962070 0.039886
13.588306 9.962070 0.027180
13.902128 9.962070 0.069349
14.215952 9.962070 0.120107
14.529776 9.962070 0.145233
14.843597 9.962070 0.148367
15.157421 9.962070 0.187805
15.471243 9.962070 0.168772
15.785067 9.962070 0.169319
16.098890 9.962070 0.187627
16.412712 9.962070 0.143199
16.726536 9.962070 0.008382
17.040359 9.962070 0.117008
17.354181 9.962070 0.306498
17.668005 9.962070 0.598380
17.981829 9.962070 0.935902
18.295650 9.962070 1.831472
18.609474 9.962070 2.581081
18.923298 9.962070 0.000000
19.237120 9.962070 0.000000
-6.810190 9.648247 0.000000
-6.496367 9.648247 0.001766
-6.182544 9.648247 0.000685
-5.868721 9.648247 0.000642
-5.554898 9.648247 0.000785
-5.241075 9.648247 0.000557
-4.927252 9.648247 0.000404
-4.613429 9.648247 0.000367
-4.299606 9.648247 0.000321
-3.985783 9.648247 0.000353
-3.671960 9.648247 0.000424
-3.358137 9.648247 0.000319
-3.044314 9.648247 0.000192
-2.730491 9.648247 0.000190
-2.416668 9.648247 0.000440
-2.102845 9.648247 0.000470
-1.789022 9.648247 0.000354
-1.475199 9.648247 0.000570
-1.161376 9.648247 0.000615
-0.847553 9.648247 0.000208
-0.533730 9.648247 -0.000138
-0.219907 9.648247 -0.000157
0.093916 9.648247 -0.000194
0.407739 9.648247 -0.000228
0.721562 9.648247 -0.000056
1.035385 9.648247 0.000018
1.349208 9.648247 -0.000066
1.663032 9.648247 0.000008
1.976854 9.648247 -0.000076
2.290677 9.648247 -0.000387
2.604500 9.648247 -0.000637
2.918324 9.648247 -0.000705
3.232146 9.648247 -0.000638
3.545969 9.648247 -0.000721
3.859793 9.648247 -0.000850
4.173615 9.648247 -0.001072
4.487438 9.648247 -0.001260
4.801261 9.648247 -0.001127
5.115085 9.648247 -0.001061
5.428907 9.648247 -0.001289
5.742730 9.648247 -0.001637
6.056554 9.648247 -0.001581
6.370377 9.648247 -0.001357
6.684199 9.648247 -0.001875
6.998022 9.648247 -0.002441
7.311846 9.648247 -0.002850
7.625669 9.648247 -0.003269
7.939491 9.648247 -0.004681
8.253315 9.648247 -0.005816
8.567138 9.648247 -0.006332
8.880960 9.648247 -0.007768
9.194784 9.648247 -0.008717
9.508606 9.648247 -0.008596
9.822430 9.648247 -0.004336
10.136253 9.648247 -0.004643
10.450075 9.648247 -0.007943
10.763899 9.648247 -0.014073
11.077723 9.648247 -0.032504
11.391544 9.648247 -0.048698
11.705368 9.648247 -0.059590
12.019190 9.648247 -0.025445
12.333014 9.648247 -0.001013
12.646837 9.648247 0.003288
12.960659 9.648247 0.008671
13.274483 9.648247 0.038979
13.588306 9.648247 0.056521
13.902128 9.648247 0.052640
14.215952 9.648247 0.071646
14.529776 9.648247 0.098001
14.843597 9.648247 0.126733
15.157421 9.648247 0.144287
15.471243 9.648247 0.117243
15.785067 9.648247 0.175635
16.098890 9.648247 0.173384
16.412712 9.648247 0.138172
16.726536 9.648247 0.011399
17.040359 9.648247 0.100233
17.354181 9.648247 0.345925
17.668005 9.648247 0.520246
17.981829 9.648247 0.977014
18.295650 9.648247 1.759192
18.609474 9.648247 2.778981
18.923298 9.648247 0.000000
19.237120 9.648247 0.000000
-6.810190 9.334423 0.000000
-6.496367 9.334423 0.001684
-6.182544 9.334423 0.000489
-5.868721 9.334423 0.000454
-5.554898 9.334423 0.000728
-5.241075 9.334423 0.000564
-4.927252 9.334423 0.000333
-4.613429 9.334423 0.000267
-4.299606 9.334423 0.000198
-3.985783 9.334423 0.000317
-3.671960 9.334423 0.000432
-3.358137 9.334423 0.000338
-3.044314 9.334423 0.000189
-2.730491 9.334423 0.000144
-2.416668 9.334423 0.000420
-2.102845 9.334423 0.000402
-1.789022 9.334423 0.000267
-1.475199 9.334423 0.000543
-1.161376 9.334423 0.000630
-0.847553 9.334423 0.000254
-0.533730 9.334423 -0.000034
-0.219907 9.334423 -0.000259
0.093916 9.334423 -0.000420
0.407739 9.334423 -0.000303
0.721562 9.334423 -0.000096
1.035385 9.334423 -0.000070
1.349208 9.334423 -0.000166
1.663032 9.334423 -0.000042
1.976854 9.334423 0.000057
2.290677 9.334423 -0.000154
2.604500 9.334423 -0.000444
2.918324 9.334423 -0.000675
3.232146 9.334423 -0.000650
3.545969 9.334423 -0.000704
3.859793 9.334423 -0.000861
4.173615 9.334423 -0.001098
4.487438 9.334423 -0.001308
4.801261 9.334423 -0.001279
5.115085 9.334423 -0.001188
5.428907 9.334423 -0.001416
5.742730 9.334423 -0.001769
6.056554 9.334423 -0.001611
6.370377 9.334423 -0.001547
6.684199 9.334423 -0.001925
6.998022 9.334423 -0.002547
7.311846 9.334423 -0.002943
7.625669 9.334423 -0.003644
7.939491 9.334423 -0.004909
8.253315 9.334423 -0.005190
8.567138 9.334423 -0.007142
8.880960 9.334423 -0.006129
9.194784 9.334423 -0.005566
9.508606 9.334423 -0.004214
9.822430 9.334423 -0.008441
10.136253 9.334423 -0.010207
10.450075 9.334423 -0.006936
10.763899 9.334423 -0.011446
11.077723 9.334423 -0.030986
11.391544 9.334423 -0.044944
11.705368 9.334423 -0.053897
12.019190 9.334423 -0.035562
12.333014 9.334423 -0.004800
12.646837 9.334423 0.007111
12.960659 9.334423 0.018205
13.274483 9.334423 0.037856
13.588306 9.334423 0.041543
13.902128 9.334423 0.050770
14.215952 9.334423 0.086627
14.529776 9.334423 0.097298
14.843597 9.334423 0.125561
15.157421 9.334423 0.133345
15.471243 9.334423 0.134835
15.785067 9.334423 0.132363
16.098890 9.334423 0.243534
16.412712 9.334423 0.112816
16.726536 9.334423 0.054062
17.040359 9.334423 0.173224
17.354181 9.334423 0.334748
17.668005 9.334423 0.642611
17.981829 9.334423 1.070263
18.295650 9.334423 2.122380
18.609474 9.334423 3.314274
18.923298 9.334423 0.000000
19.237120 9.334423 0.000000
-6.810190 9.020603 0.000000
-6.496367 9.020603 0.001471
-6.182544 9.020603 0.000151
-5.868721 9.020603 0.000108
-5.554898 9.020603 0.000615
-5.241075 9.020603 0.000625
-4.927252 9.020603 0.000374
-4.613429 9.020603 0.000290
-4.299606 9.020603 0.000279
-3.985783 9.020603 0.000410
-3.671960 9.020603 0.000482
-3.358137 9.020603 0.000386
-3.044314 9.020603 0.000218
-2.730491 9.020603 0.000135
-2.416668 9.020603 0.000417
-2.102845 9.020603 0.000345
-1.789022 9.020603 0.000209
-1.475199 9.020603 0.000434
-1.161376 9.020603 0.000608
-0.847553 9.020603 0.000366
-0.533730 9.020603 0.000154
-0.219907 9.020603 -0.000206
0.093916 9.020603 -0.000387
0.407739 9.020603 -0.000180
0.721562 9.020603 0.000058
1.035385 9.020603 -0.000041
1.349208 9.020603 -0.000216
1.663032 9.020603 -0.000125
1.976854 9.020603 0.000012
2.290677 9.020603 -0.000022
2.604500 9.020603 -0.000268
2.918324 9.020603 -0.000664
3.232146 9.020603 -0.000724
3.545969 9.020603 -0.000637
3.859793 9.020603 -0.000681
4.173615 9.020603 -0.000905
4.487438 9.020603 -0.001167
4.801261 9.020603 -0.001180
5.115085 9.020603 -0.001202
5.428907 9.020603 -0.001536
5.742730 9.020603 -0.001762
6.056554 9.020603 -0.001495
6.370377 9.020603 -0.001506
6.684199 9.020603 -0.001878
6.998022 9.020603 -0.002595
7.311846 9.020603 -0.002980
7.625669 9.020603 -0.004021
7.939491 9.020603 -0.005403
8.253315 9.020603 -0.005767
8.567138 9.020603 -0.008519
8.880960 9.020603 -0.008739
9.194784 9.020603 -0.006291
9.508606 9.020603 -0.005021
9.822430 9.020603 -0.004842
10.136253 9.020603 -0.009610
10.450075 9.020603 -0.013637
10.763899 9.020603 -0.015600
11.077723 9.020603 -0.018835
11.391544 9.020603 -0.025379
11.705368 9.020603 -0.039165
12.019190 9.020603 -0.044024
12.333014 9.020603 -0.018108
12.646837 9.020603 0.035580
12.960659 9.020603 0.030699
13.274483 9.020603 0.042075
13.588306 9.020603 0.075696
13.902128 9.020603 0.063940
14.215952 9.020603 0.102967
14.529776 9.020603 0.115853
14.843597 9.020603 0.158396
15.157421 9.020603 0.164785
15.471243 9.020603 0.171375
15.785067 9.020603 0.166483
16.098890 9.020603 0.267448
16.412712 9.020603 0.220429
16.726536 9.020603 0.193203
17.040359 9.020603 0.228566
17.354181 9.020603 0.438986
17.668005 9.020603 0.699453
17.981829 9.020603 1.185761
18.295650 9.020603 2.221302
18.609474 9.020603 3.546733
18.923298 9.020603 0.000000
19.237120 9.020603 0.000000
-6.810190 8.706779 0.000000
-6.496367 8.706779 0.001391
-6.182544 8.706779 -0.000007
-5.868721 8.706779 -0.000099
-5.554898 8.706779 0.000507
-5.241075 8.706779 0.000638
-4.927252 8.706779 0.000391
-4.613429 8.706779 0.000340
-4.299606 8.706779 0.000411
-3.985783 8.706779 0.000516
-3.671960 8.706779 0.000581
-3.358137 8.706779 0.000496
-3.044314 8.706779 0.000321
-2.730491 8.706779 0.000193
-2.416668 8.706779 0.000370
-2.102845 8.706779 0.000316
-1.789022 8.706779 0.000238
-1.475199 8.706779 0.000369
-1.161376 8.706779 0.000506
-0.847553 8.706779 0.000397
-0.533730 8.706779 0.000216
-0.219907 8.706779 -0.000124
0.093916 8.706779 -0.000164
0.407739 8.706779 0.000058
0.721562 8.706779 0.000215
1.035385 8.706779 0.000065
1.349208 8.706779 -0.000205
1.663032 8.706779 -0.000229
1.976854 8.706779 -0.000113
2.290677 8.706779 0.000070
2.604500 8.706779 -0.000056
2.918324 8.706779 -0.000593
3.232146 8.706779 -0.000783
3.545969 8.706779 -0.000592
3.859793 8.706779 -0.000459
4.173615 8.706779 -0.000665
4.487438 8.706779 -0.000887
4.801261 8.706779 -0.000988
5.115085 8.706779 -0.001189
5.428907 8.706779 -0.001659
5.742730 8.706779 -0.001666
6.056554 8.706779 -0.001283
6.370377 8.706779 -0.001348
6.684199 8.706779 -0.001965
6.998022 8.706779 -0.002553
7.311846 8.706779 -0.003074
7.625669 8.706779 -0.004045
7.939491 8.706779 -0.004299
8.253315 8.706779 -0.006818
8.567138 8.706779 -0.007992
8.880960 8.706779 -0.008914
9.194784 8.706779 -0.006102
9.508606 8.706779 -0.006810
9.822430 8.706779 -0.002672
10.136253 8.706779 -0.011550
10.450075 8.706779 -0.009830
10.763899 8.706779 -0.027943
11.077723 8.706779 -0.018732
11.391544 8.706779 -0.020468
11.705368 8.706779 -0.022489
12.019190 8.706779 -0.029402
12.333014 8.706779 -0.023449
12.646837 8.706779 -0.001006
12.960659 8.706779 0.032604
13.274483 8.706779 0.057249
13.588306 8.706779 0.060469
13.902128 8.706779 0.084273
14.215952 8.706779 0.105894
14.529776 8.706779 0.119030
14.843597 8.706779 0.175217
15.157421 8.706779 0.134471
15.471243 8.706779 0.194628
15.785067 8.706779 0.210077
16.098890 8.706779 0.295069
16.412712 8.706779 0.286710
16.726536 8.706779 0.285067
17.040359 8.706779 0.331047
17.354181 8.706779 0.535525
17.668005 8.706779 0.845249
17.981829 8.706779 1.403372
18.295650 8.706779 2.783599
18.609474 8.706779 3.659727
18.923298 8.706779 0.000000
19.237120 8.706779 0.000000
-6.810190 8.392956 0.000000
-6.496367 8.392956 0.001358
-6.182544 8.392956 -0.000004
-5.868721 8.392956 -0.000186
-5.554898 8.392956 0.000303
-5.241075 8.392956 0.000490
-4.927252 8.392956 0.000319
-4.613429 8.392956 0.000364
-4.299606 8.392956 0.000486
-3.985783 8.392956 0.000626
-3.671960 8.392956 0.000679
-3.358137 8.392956 0.000602
-3.044314 8.392956 0.000464
-2.730491 8.392956 0.000307
-2.416668 8.392956 0.000419
-2.102845 8.392956 0.000437
-1.789022 8.392956 0.000327
-1.475199 8.392956 0.000292
-1.161376 8.392956 0.000369
-0.847553 8.392956 0.000357
-0.533730 8.392956 0.000273
-0.219907 8.392956 0.000041
0.093916 8.392956 0.000108
0.407739 8.392956 0.000175
0.721562 8.392956 0.000171
1.035385 8.392956 0.000003
1.349208 8.392956 -0.000241
1.663032 8.392956 -0.000297
1.976854 8.392956 -0.000238
2.290677 8.392956 0.000029
2.604500 8.392956 -0.000056
2.918324 8.392956 -0.000584
3.232146 8.392956 -0.000813
3.545969 8.392956 -0.000576
3.859793 8.392956 -0.000432
4.173615 8.392956 -0.000626
4.487438 8.392956 -0.000773
4.801261 8.392956 -0.000817
5.115085 8.392956 -0.001140
5.428907 8.392956 -0.001609
5.742730 8.392956 -0.001514
6.056554 8.392956 -0.001020
6.370377 8.392956 -0.001114
6.684199 8.392956 -0.001801
6.998022 8.392956 -0.002706
7.311846 8.392956 -0.003531
7.625669 8.392956 -0.003939
7.939491 8.392956 -0.004010
8.253315 8.392956 -0.005770
8.567138 8.392956 -0.008031
8.880960 8.392956 -0.007606
9.194784 8.392956 -0.005534
9.508606 8.392956 -0.009154
9.822430 8.392956 -0.010592
10.136253 8.392956 -0.010201
10.450075 8.392956 -0.019755
10.763899 8.392956 -0.035663
11.077723 8.392956 -0.026905
11.391544 8.392956 -0.014224
11.705368 8.392956 -0.020899
12.019190 8.392956 0.010370
12.333014 8.392956 -0.002139
12.646837 8.392956 -0.006161
12.960659 8.392956 0.016119
13.274483 8.392956 0.066248
13.588306 8.392956 0.083045
13.902128 8.392956 0.085966
14.215952 8.392956 0.102951
14.529776 8.392956 0.128083
14.843597 8.392956 0.164633
15.157421 8.392956 0.175880
15.471243 8.392956 0.195446
15.785067 8.392956 0.247918
16.098890 8.392956 0.339339
16.412712 8.392956 0.318110
16.726536 8.392956 0.383285
17.040359 8.392956 0.442380
17.354181 8.392956 0.639672
17.668005 8.392956 0.965634
17.981829 8.392956 1.819291
18.295650 8.392956 3.306310
18.609474 8.392956 4.679246
18.923298 8.392956 0.000000
19.237120 8.392956 0.000000
-6.810190 8.079132 0.000000
-6.496367 8.079132 0.001304
-6.182544 8.079132 -0.000010
-5.868721 8.079132 -0.000299
-5.554898 8.079132 0.000071
-5.241075 8.079132 0.000372
-4.927252 8.079132 0.000350
-4.613429 8.079132 0.000384
-4.299606 8.079132 0.000509
-3.985783 8.079132 0.000672
-3.671960 8.079132 0.000785
-3.358137 8.079132 0.000721
-3.044314 8.079132 0.000575
-2.730491 8.079132 0.000386
-2.416668 8.079132 0.000410
-2.102845 8.079132 0.000441
-1.789022 8.079132 0.000345
-1.475199 8.079132 0.000284
-1.161376 8.079132 0.000319
-0.847553 8.079132 0.000326
-0.533730 8.079132 0.000232
-0.219907 8.079132 0.000143
0.093916 8.079132 0.000226
0.407739 8.079132 0.000171
0.721562 8.079132 0.000046
1.035385 8.079132 -0.000086
1.349208 8.079132 -0.000271
1.663032 8.079132 -0.000288
1.976854 8.079132 -0.000276
2.290677 8.079132 -0.000202
2.604500 8.079132 -0.000201
2.918324 8.079132 -0.000581
3.232146 8.079132 -0.000783
3.545969 8.079132 -0.000617
3.859793 8.079132 -0.000668
4.173615 8.079132 -0.000772
4.487438 8.079132 -0.000692
4.801261 8.079132 -0.000592
5.115085 8.079132 -0.000872
5.428907 8.079132 -0.001342
5.742730 8.079132 -0.001316
6.056554 8.079132 -0.000963
6.370377 8.079132 -0.001097
6.684199 8.079132 -0.001837
6.998022 8.079132 -0.003169
7.311846 8.079132 -0.004330
7.625669 8.079132 -0.004056
7.939491 8.079132 -0.003874
8.253315 8.079132 -0.004711
8.567138 8.079132 -0.006956
8.880960 8.079132 -0.008069
9.194784 8.079132 -0.004884
9.508606 8.079132 -0.006425
9.822430 8.079132 -0.008387
10.136253 8.079132 -0.014203
10.450075 8.079132 -0.023343
10.763899 8.079132 -0.038267
11.077723 8.079132 -0.030570
11.391544 8.079132 -0.028972
11.705368 8.079132 -0.019711
12.019190 8.079132 -0.001502
12.333014 8.079132 -0.002625
12.646837 8.079132 -0.013809
12.960659 8.079132 0.011354
13.274483 8.079132 0.075296
13.588306 8.079132 0.103294
13.902128 8.079132 0.095990
14.215952 8.079132 0.095103
14.529776 8.079132 0.163478
14.843597 8.079132 0.150166
15.157421 8.079132 0.165449
15.471243 8.079132 0.214930
15.785067 8.079132 0.226976
16.098890 8.079132 0.368961
16.412712 8.079132 0.452032
16.726536 8.079132 0.462115
17.040359 8.079132 0.527362
17.354181 8.079132 0.598092
17.668005 8.079132 1.022909
17.981829 8.079132 2.165110
18.295650 8.079132 3.601372
18.609474 8.079132 5.711055
18.923298 8.079132 0.000000
19.237120 8.079132 0.000000
-6.810190 7.765308 0.000000
-6.496367 7.765308 0.001270
-6.182544 7.765308 0.000064
-5.868721 7.765308 -0.000255
-5.554898 7.765308 -0.000004
-5.241075 7.765308 0.000345
-4.927252 7.765308 0.000471
-4.613429 7.765308 0.000485
-4.299606 7.765308 0.000498
-3.985783 7.765308 0.000681
-3.671960 7.765308 0.000796
-3.358137 7.765308 0.000676
-3.044314 7.765308 0.000552
-2.730491 7.765308 0.000428
-2.416668 7.765308 0.000373
-2.102845 7.765308 0.000378
-1.789022 7.765308 0.000328
-1.475199 7.765308 0.000294
-1.161376 7.765308 0.000311
-0.847553 7.765308 0.000213
-0.533730 7.765308 0.000159
-0.219907 7.765308 0.000238
0.093916 7.765308 0.000273
0.407739 7.765308 0.000075
0.721562 7.765308 -0.000083
1.035385 7.765308 -0.000151
1.349208 7.765308 -0.000307
1.663032 7.765308 -0.000300
1.976854 7.765308 -0.000380
2.290677 7.765308 -0.000530
2.604500 7.765308 -0.000523
2.918324 7.765308 -0.000570
3.232146 7.765308 -0.000625
3.545969 7.765308 -0.000681
3.859793 7.765308 -0.000843
4.173615 7.765308 -0.000897
4.487438 7.765308 -0.000720
4.801261 7.765308 -0.000475
5.115085 7.765308 -0.000672
5.428907 7.765308 -0.001108
5.742730 7.765308 -0.001174
6.056554 7.765308 -0.001029
6.370377 7.765308 -0.001122
6.684199 7.765308 -0.001802
6.998022 7.765308 -0.003185
7.311846 7.765308 -0.004257
7.625669 7.765308 -0.003596
7.939491 7.765308 -0.004108
8.253315 7.765308 -0.005238
8.567138 7.765308 -0.006061
8.880960 7.765308 -0.008901
9.194784 7.765308 -0.006361
9.508606 7.765308 -0.002753
9.822430 7.765308 -0.005416
10.136253 7.765308 -0.011837
10.450075 7.765308 -0.025836
10.763899 7.765308 -0.040235
11.077723 7.765308 -0.026946
11.391544 7.765308 -0.011832
11.705368 7.765308 -0.000735
12.019190 7.765308 0.008974
12.333014 7.765308 -0.012218
12.646837 7.765308 -0.019695
12.960659 7.765308 0.010959
13.274483 7.765308 0.047810
13.588306 7.765308 0.124078
13.902128 7.765308 0.105663
14.215952 7.765308 0.075048
14.529776 7.765308 0.074997
14.843597 7.765308 0.105603
15.157421 7.765308 0.127996
15.471243 7.765308 0.246146
15.785067 7.765308 0.245239
16.098890 7.765308 0.370899
16.412712 7.765308 0.452732
16.726536 7.765308 0.479520
17.040359 7.765308 0.611373
17.354181 7.765308 0.793623
17.668005 7.765308 1.162357
17.981829 7.765308 2.118901
18.295650 7.765308 4.258043
18.609474 7.765308 6.193587
18.923298 7.765308 0.000000
19.237120 7.765308 0.000000
-6.810190 7.451488 0.000000
-6.496367 7.451488 0.001296
-6.182544 7.451488 0.000160
-5.868721 7.451488 -0.000105
-5.554898 7.451488 0.000093
-5.241075 7.451488 0.000434
-4.927252 7.451488 0.000600
-4.613429 7.451488 0.000587
-4.299606 7.451488 0.000476
-3.985783 7.451488 0.000589
-3.671960 7.451488 0.000681
-3.358137 7.451488 0.000596
-3.044314 7.451488 0.000507
-2.730491 7.451488 0.000480
-2.416668 7.451488 0.000338
-2.102845 7.451488 0.000305
-1.789022 7.451488 0.000302
-1.475199 7.451488 0.000348
-1.161376 7.451488 0.000311
-0.847553 7.451488 0.000188
-0.533730 7.451488 0.000132
-0.219907 7.451488 0.000271
0.093916 7.451488 0.000319
0.407739 7.451488 0.000082
0.721562 7.451488 -0.000129
1.035385 7.451488 -0.000223
1.349208 7.451488 -0.000347
1.663032 7.451488 -0.000336
1.976854 7.451488 -0.000485
2.290677 7.451488 -0.000772
2.604500 7.451488 -0.000708
2.918324 7.451488 -0.000481
3.232146 7.451488 -0.000413
3.545969 7.451488 -0.000608
3.859793 7.451488 -0.000844
4.173615 7.451488 -0.001007
4.487438 7.451488 -0.000870
4.801261 7.451488 -0.000567
5.115085 7.451488 -0.000547
5.428907 7.451488 -0.000925
5.742730 7.451488 -0.001101
6.056554 7.451488 -0.001138
6.370377 7.451488 -0.001156
6.684199 7.451488 -0.001546
6.998022 7.451488 -0.002979
7.311846 7.451488 -0.003690
7.625669 7.451488 -0.003546
7.939491 7.451488 -0.005095
8.253315 7.451488 -0.006138
8.567138 7.451488 -0.004752
8.880960 7.451488 -0.008627
9.194784 7.451488 -0.009652
9.508606 7.451488 -0.002829
9.822430 7.451488 -0.004364
10.136253 7.451488 -0.013916
10.450075 7.451488 -0.020929
10.763899 7.451488 -0.034108
11.077723 7.451488 -0.028950
11.391544 7.451488 0.004816
11.705368 7.451488 0.006588
12.019190 7.451488 0.012332
12.333014 7.451488 -0.021544
12.646837 7.451488 -0.013658
12.960659 7.451488 0.028990
13.274483 7.451488 0.082608
13.588306 7.451488 0.125243
13.902128 7.451488 0.114590
14.215952 7.451488 0.084780
14.529776 7.451488 0.096195
14.843597 7.451488 0.119081
15.157421 7.451488 0.155031
15.471243 7.451488 0.221869
15.785067 7.451488 0.282206
16.098890 7.451488 0.327986
16.412712 7.451488 0.507469
16.726536 7.451488 0.507755
17.040359 7.451488 0.683969
17.354181 7.451488 0.988488
17.668005 7.451488 1.321148
17.981829 7.451488 2.431215
18.295650 7.451488 4.406133
18.609474 7.451488 6.805945
18.923298 7.451488 0.000000
19.237120 7.451488 0.000000
-6.810190 7.137665 0.000000
-6.496367 7.137665 0.001389
-6.182544 7.137665 0.000319
-5.868721 7.137665 0.000116
-5.554898 7.137665 0.000243
-5.241075 7.137665 0.000488
-4.927252 7.137665 0.000668
-4.613429 7.137665 0.000672
-4.299606 7.137665 0.000513
-3.985783 7.137665 0.000468
-3.671960 7.137665 0.000450
-3.358137 7.137665 0.000415
-3.044314 7.137665 0.000428
-2.730491 7.137665 0.000477
-2.416668 7.137665 0.000346
-2.102845 7.137665 0.000319
-1.789022 7.137665 0.000345
-1.475199 7.137665 0.000359
-1.161376 7.137665 0.000222
-0.847553 7.137665 0.000119
-0.533730 7.137665 0.000103
-0.219907 7.137665 0.000276
0.093916 7.137665 0.000335
0.407739 7.137665 0.000145
0.721562 7.137665 -0.000101
1.035385 7.137665 -0.000297
1.349208 7.137665 -0.000442
1.663032 7.137665 -0.000396
1.976854 7.137665 -0.000543
2.290677 7.137665 -0.000813
2.604500 7.137665 -0.000711
2.918324 7.137665 -0.000329
3.232146 7.137665 -0.000256
3.545969 7.137665 -0.000606
3.859793 7.137665 -0.000856
4.173615 7.137665 -0.001095
4.487438 7.137665 -0.000992
4.801261 7.137665 -0.000712
5.115085 7.137665 -0.000537
5.428907 7.137665 -0.000817
5.742730 7.137665 -0.001020
6.056554 7.137665 -0.001098
6.370377 7.137665 -0.001061
6.684199 7.137665 -0.001412
6.998022 7.137665 -0.002451
7.311846 7.137665 -0.002998
7.625669 7.137665 -0.003834
7.939491 7.137665 -0.005422
8.253315 7.137665 -0.006421
8.567138 7.137665 -0.005718
8.880960 7.137665 -0.007746
9.194784 7.137665 -0.006926
9.508606 7.137665 0.000252
9.822430 7.137665 -0.001045
10.136253 7.137665 -0.016080
10.450075 7.137665 -0.013690
10.763899 7.137665 -0.016985
11.077723 7.137665 -0.007863
11.391544 7.137665 0.000536
11.705368 7.137665 0.013330
12.019190 7.137665 -0.005686
12.333014 7.137665 -0.002716
12.646837 7.137665 0.023445
12.960659 7.137665 0.033488
13.274483 7.137665 0.067199
13.588306 7.137665 0.120330
13.902128 7.137665 0.123847
14.215952 7.137665 0.095584
14.529776 7.137665 0.107511
14.843597 7.137665 0.071932
15.157421 7.137665 0.197612
15.471243 7.137665 0.190428
15.785067 7.137665 0.278138
16.098890 7.137665 0.357135
16.412712 7.137665 0.493338
16.726536 7.137665 0.593064
17.040359 7.137665 0.779620
17.354181 7.137665 0.946302
17.668005 7.137665 1.475280
17.981829 7.137665 2.657764
18.295650 7.137665 4.706146
18.609474 7.137665 6.843380
18.923298 7.137665 0.000000
19.237120 7.137665 0.000000
-6.810190 6.823841 0.000000
-6.496367 6.823841 0.001469
-6.182544 6.823841 0.000515
-5.868721 6.823841 0.000345
-5.554898 6.823841 0.000384
-5.241075 6.823841 0.000457
-4.927252 6.823841 0.000599
-4.613429 6.823841 0.000693
-4.299606 6.823841 0.000514
-3.985783 6.823841 0.000335
-3.671960 6.823841 0.000179
-3.358137 6.823841 0.000172
-3.044314 6.823841 0.000301
-2.730491 6.823841 0.000418
-2.416668 6.823841 0.000348
-2.102845 6.823841 0.000375
-1.789022 6.823841 0.000373
-1.475199 6.823841 0.000294
-1.161376 6.823841 0.000202
-0.847553 6.823841 0.000081
-0.533730 6.823841 0.000064
-0.219907 6.823841 0.000233
0.093916 6.823841 0.000285
0.407739 6.823841 0.000181
0.721562 6.823841 -0.000106
1.035385 6.823841 -0.000348
1.349208 6.823841 -0.000478
1.663032 6.823841 -0.000454
1.976854 6.823841 -0.000572
2.290677 6.823841 -0.000738
2.604500 6.823841 -0.000647
2.918324 6.823841 -0.000304
3.232146 6.823841 -0.000387
3.545969 6.823841 -0.000767
3.859793 6.823841 -0.000942
4.173615 6.823841 -0.001184
4.487438 6.823841 -0.001124
4.801261 6.823841 -0.000861
5.115085 6.823841 -0.000648
5.428907 6.823841 -0.000900
5.742730 6.823841 -0.001151
6.056554 6.823841 -0.001226
6.370377 6.823841 -0.001149
6.684199 6.823841 -0.001526
6.998022 6.823841 -0.002206
7.311846 6.823841 -0.002631
7.625669 6.823841 -0.003449
7.939491 6.823841 -0.005143
8.253315 6.823841 -0.006099
8.567138 6.823841 -0.006374
8.880960 6.823841 -0.009576
9.194784 6.823841 -0.003504
9.508606 6.823841 0.004412
9.822430 6.823841 0.000275
10.136253 6.823841 -0.006781
10.450075 6.823841 -0.010623
10.763899 6.823841 -0.000554
11.077723 6.823841 0.010513
11.391544 6.823841 0.000018
11.705368 6.823841 0.017323
12.019190 6.823841 0.002912
12.333014 6.823841 0.024518
12.646837 6.823841 0.061053
12.960659 6.823841 0.048741
13.274483 6.823841 0.064590
13.588306 6.823841 0.082547
13.902128 6.823841 0.101306
14.215952 6.823841 0.126014
14.529776 6.823841 0.088189
14.843597 6.823841 0.133923
15.157421 6.823841 0.158071
15.471243 6.823841 0.172692
15.785067 6.823841 0.236605
16.098890 6.823841 0.370917
16.412712 6.823841 0.530649
16.726536 6.823841 0.626679
17.040359 6.823841 0.784735
17.354181 6.823841 1.058583
17.668005 6.823841 1.605511
17.981829 6.823841 2.815454
18.295650 6.823841 5.164021
18.609474 6.823841 7.277798
18.923298 6.823841 0.000000
19.237120 6.823841 0.000000
-6.810190 6.510017 0.000000
-6.496367 6.510017 0.001529
-6.182544 6.510017 0.000772
-5.868721 6.510017 0.000563
-5.554898 6.510017 0.000419
-5.241075 6.510017 0.000302
-4.927252 6.510017 0.000387
-4.613429 6.510017 0.000635
-4.299606 6.510017 0.000485
-3.985783 6.510017 0.000190
-3.671960 6.510017 -0.000035
-3.358137 6.510017 -0.000127
-3.044314 6.510017 0.000136
-2.730491 6.510017 0.000278
-2.416668 6.510017 0.000260
-2.102845 6.510017 0.000345
-1.789022 6.510017 0.000326
-1.475199 6.510017 0.000210
-1.161376 6.510017 0.000196
-0.847553 6.510017 0.000104
-0.533730 6.510017 0.000011
-0.219907 6.510017 0.000168
0.093916 6.510017 0.000247
0.407739 6.510017 0.000180
0.721562 6.510017 -0.000077
1.035385 6.510017 -0.000371
1.349208 6.510017 -0.000551
1.663032 6.510017 -0.000532
1.976854 6.510017 -0.000621
2.290677 6.510017 -0.000700
2.604500 6.510017 -0.000606
2.918324 6.510017 -0.000424
3.232146 6.510017 -0.000713
3.545969 6.510017 -0.000877
3.859793 6.510017 -0.000818
4.173615 6.510017 -0.001073
4.487438 6.510017 -0.001078
4.801261 6.510017 -0.000831
5.115085 6.510017 -0.000857
5.428907 6.510017 -0.001194
5.742730 6.510017 -0.001479
6.056554 6.510017 -0.001461
6.370377 6.510017 -0.001363
6.684199 6.510017 -0.001724
6.998022 6.510017 -0.002258
7.311846 6.510017 -0.002763
7.625669 6.510017 -0.003580
7.939491 6.510017 -0.005001
8.253315 6.510017 -0.005873
8.567138 6.510017 -0.007980
8.880960 6.510017 -0.011079
9.194784 6.510017 -0.006344
9.508606 6.510017 0.004985
9.822430 6.510017 -0.004380
10.136253 6.510017 -0.004564
10.450075 6.510017 -0.003841
10.763899 6.510017 0.005103
11.077723 6.510017 0.010115
11.391544 6.510017 -0.002541
11.705368 6.510017 -0.019821
12.019190 6.510017 0.004371
12.333014 6.510017 0.043022
12.646837 6.510017 0.066810
12.960659 6.510017 0.046684
13.274483 6.510017 0.051320
13.588306 6.510017 0.065289
13.902128 6.510017 0.122704
14.215952 6.510017 0.120445
14.529776 6.510017 0.102825
14.843597 6.510017 0.078389
15.157421 6.510017 0.131119
15.471243 6.510017 0.231968
15.785067 6.510017 0.248811
16.098890 6.510017 0.348288
16.412712 6.510017 0.476703
16.726536 6.510017 0.628088
17.040359 6.510017 0.831722
17.354181 6.510017 1.054991
17.668005 6.510017 1.766109
17.981829 6.510017 3.111798
18.295650 6.510017 5.510257
18.609474 6.510017 7.352355
18.923298 6.510017 0.000000
19.237120 6.510017 0.000000
-6.810190 6.196194 0.000000
-6.496367 6.196194 0.001504
-6.182544 6.196194 0.000868
-5.868721 6.196194 0.000658
-5.554898 6.196194 0.000384
-5.241075 6.196194 0.000100
-4.927252 6.196194 0.000167
-4.613429 6.196194 0.000533
-4.299606 6.196194 0.000397
-3.985783 6.196194 0.000145
-3.671960 6.196194 -0.000139
-3.358137 6.196194 -0.000322
-3.044314 6.196194 -0.000054
-2.730491 6.196194 0.000094
-2.416668 6.196194 0.000125
-2.102845 6.196194 0.000175
-1.789022 6.196194 0.000163
-1.475199 6.196194 0.000204
-1.161376 6.196194 0.000246
-0.847553 6.196194 0.000092
-0.533730 6.196194 -0.000027
-0.219907 6.196194 0.000141
0.093916 6.196194 0.000153
0.407739 6.196194 0.000051
0.721562 6.196194 -0.000089
1.035385 6.196194 -0.000382
1.349208 6.196194 -0.000578
1.663032 6.196194 -0.000612
1.976854 6.196194 -0.000786
2.290677 6.196194 -0.000742
2.604500 6.196194 -0.000613
2.918324 6.196194 -0.000640
3.232146 6.196194 -0.000932
3.545969 6.196194 -0.000924
3.859793 6.196194 -0.000812
4.173615 6.196194 -0.000959
4.487438 6.196194 -0.000983
4.801261 6.196194 -0.000907
5.115085 6.196194 -0.001078
5.428907 6.196194 -0.001597
5.742730 6.196194 -0.001910
6.056554 6.196194 -0.001683
6.370377 6.196194 -0.001422
6.684199 6.196194 -0.001914
6.998022 6.196194 -0.002635
7.311846 6.196194 -0.003160
7.625669 6.196194 -0.003952
7.939491 6.196194 -0.005436
8.253315 6.196194 -0.006145
8.567138 6.196194 -0.007738
8.880960 6.196194 -0.012136
9.194784 6.196194 -0.007200
9.508606 6.196194 -0.001384
9.822430 6.196194 -0.003218
10.136253 6.196194 0.002394
10.450075 6.196194 -0.000895
10.763899 6.196194 0.005652
11.077723 6.196194 0.016418
11.391544 6.196194 -0.003001
11.705368 6.196194 -0.009987
12.019190 6.196194 -0.007079
12.333014 6.196194 0.041721
12.646837 6.196194 0.051568
12.960659 6.196194 0.055168
13.274483 6.196194 0.083856
13.588306 6.196194 0.076985
13.902128 6.196194 0.126506
14.215952 6.196194 0.100465
14.529776 6.196194 0.103532
14.843597 6.196194 0.120021
15.157421 6.196194 0.123475
15.471243 6.196194 0.234211
15.785067 6.196194 0.232361
16.098890 6.196194 0.351593
16.412712 6.196194 0.481591
16.726536 6.196194 0.652908
17.040359 6.196194 0.828360
17.354181 6.196194 1.202804
17.668005 6.196194 1.901260
17.981829 6.196194 3.154454
18.295650 6.196194 5.357624
18.609474 6.196194 7.564703
18.923298 6.196194 0.000000
19.237120 6.196194 0.000000
-6.810190 5.882370 0.000000
-6.496367 5.882370 0.001391
-6.182544 5.882370 0.000761
-5.868721 5.882370 0.000615
-5.554898 5.882370 0.000353
-5.241075 5.882370 0.000017
-4.927252 5.882370 0.000038
-4.613429 5.882370 0.000337
-4.299606 5.882370 0.000231
-3.985783 5.882370 0.000104
-3.671960 5.882370 -0.000137
-3.358137 5.882370 -0.000343
-3.044314 5.882370 -0.000230
-2.730491 5.882370 -0.000062
-2.416668 5.882370 -0.000005
-2.102845 5.882370 0.000017
-1.789022 5.882370 -0.000063
-1.475199 5.882370 0.000175
-1.161376 5.882370 0.000282
-0.847553 5.882370 0.000128
-0.533730 5.882370 -0.000058
-0.219907 5.882370 -0.000047
0.093916 5.882370 -0.000031
0.407739 5.882370 -0.000176
0.721562 5.882370 -0.000275
1.035385 5.882370 -0.000435
1.349208 5.882370 -0.000577
1.663032 5.882370 -0.000620
1.976854 5.882370 -0.000753
2.290677 5.882370 -0.000695
2.604500 5.882370 -0.000662
2.918324 5.882370 -0.000788
3.232146 5.882370 -0.001082
3.545969 5.882370 -0.001016
3.859793 5.882370 -0.000840
4.173615 5.882370 -0.000892
4.487438 5.882370 -0.000853
4.801261 5.882370 -0.000997
5.115085 5.882370 -0.001322
5.428907 5.882370 -0.001885
5.742730 5.882370 -0.002244
6.056554 5.882370 -0.001837
6.370377 5.882370 -0.001451
6.684199 5.882370 -0.001955
6.998022 5.882370 -0.002987
7.311846 5.882370 -0.003863
7.625669 5.882370 -0.004711
7.939491 5.882370 -0.005240
8.253315 5.882370 -0.007302
8.567138 5.882370 -0.008630
8.880960 5.882370 -0.011261
9.194784 5.882370 -0.007100
9.508606 5.882370 -0.006036
9.822430 5.882370 0.000340
10.136253 5.882370 0.013077
10.450075 5.882370 0.012514
10.763899 5.882370 0.010841
11.077723 5.882370 0.015253
11.391544 5.882370 -0.005500
11.705368 5.882370 -0.013813
12.019190 5.882370 0.003119
12.333014 5.882370 0.044909
12.646837 5.882370 0.098519
12.960659 5.882370 0.072974
13.274483 5.882370 0.083930
13.588306 5.882370 0.082440
13.902128 5.882370 0.111476
14.215952 5.882370 0.139953
14.529776 5.882370 0.136744
14.843597 5.882370 0.110182
15.157421 5.882370 0.156061
15.471243 5.882370 0.222142
15.785067 5.882370 0.257039
16.098890 5.882370 0.370887
16.412712 5.882370 0.512983
16.726536 5.882370 0.686349
17.040359 5.882370 0.873206
17.354181 5.882370 1.208188
17.668005 5.882370 2.057561
17.981829 5.882370 3.491406
18.295650 5.882370 5.698030
18.609474 5.882370 8.029076
18.923298 5.882370 0.000000
19.237120 5.882370 0.000000
-6.810190 5.568550 0.000000
-6.496367 5.568550 0.001077
-6.182544 5.568550 0.000417
-5.868721 5.568550 0.000368
-5.554898 5.568550 0.000239
-5.241075 5.568550 -0.000001
-4.927252 5.568550 0.000055
-4.613429 5.568550 0.000203
-4.299606 5.568550 0.000110
-3.985783 5.568550 0.000058
-3.671960 5.568550 -0.000072
-3.358137 5.568550 -0.000164
-3.044314 5.568550 -0.000147
-2.730491 5.568550 -0.000047
-2.416668 5.568550 0.000015
-2.102845 5.568550 -0.000081
-1.789022 5.568550 -0.000205
-1.475199 5.568550 0.000093
-1.161376 5.568550 0.000302
-0.847553 5.568550 0.000173
-0.533730 5.568550 -0.000119
-0.219907 5.568550 -0.000359
0.093916 5.568550 -0.000407
0.407739 5.568550 -0.000466
0.721562 5.568550 -0.000547
1.035385 5.568550 -0.000490
1.349208 5.568550 -0.000504
1.663032 5.568550 -0.000456
1.976854 5.568550 -0.000617
2.290677 5.568550 -0.000739
2.604500 5.568550 -0.000802
2.918324 5.568550 -0.000935
3.232146 5.568550 -0.001153
3.545969 5.568550 -0.001108
3.859793 5.568550 -0.000937
4.173615 5.568550 -0.000884
4.487438 5.568550 -0.000838
4.801261 5.568550 -0.001023
5.115085 5.568550 -0.001431
5.428907 5.568550 -0.002041
5.742730 5.568550 -0.002314
6.056554 5.568550 -0.001887
6.370377 5.568550 -0.001518
6.684199 5.568550 -0.002036
6.998022 5.568550 -0.003414
7.311846 5.568550 -0.004400
7.625669 5.568550 -0.005128
7.939491 5.568550 -0.005643
8.253315 5.568550 -0.006058
8.567138 5.568550 -0.009224
8.880960 5.568550 -0.009262
9.194784 5.568550 -0.006421
9.508606 5.568550 -0.002279
9.822430 5.568550 0.000294
10.136253 5.568550 0.008078
10.450075 5.568550 0.009840
10.763899 5.568550 -0.000878
11.077723 5.568550 0.003787
11.391544 5.568550 -0.018410
11.705368 5.568550 -0.013464
12.019190 5.568550 -0.020435
12.333014 5.568550 0.018913
12.646837 5.568550 0.069531
12.960659 5.568550 0.084286
13.274483 5.568550 0.057975
13.588306 5.568550 0.024907
13.902128 5.568550 0.066306
14.215952 5.568550 0.131438
14.529776 5.568550 0.156146
14.843597 5.568550 0.152112
15.157421 5.568550 0.123087
15.471243 5.568550 0.236250
15.785067 5.568550 0.324283
16.098890 5.568550 0.348527
16.412712 5.568550 0.500775
16.726536 5.568550 0.697212
17.040359 5.568550 0.907788
17.354181 5.568550 1.291233
17.668005 5.568550 2.210476
17.981829 5.568550 3.346027
18.295650 5.568550 6.217035
18.609474 5.568550 8.097647
18.923298 5.568550 0.000000
19.237120 5.568550 0.000000
-6.810190 5.254726 0.000000
-6.496367 5.254726 0.000551
-6.182544 5.254726 -0.000002
-5.868721 5.254726 -0.000001
-5.554898 5.254726 0.000087
-5.241075 5.254726 0.000069
-4.927252 5.254726 0.000053
-4.613429 5.254726 0.000082
-4.299606 5.254726 0.000068
-3.985783 5.254726 0.000104
-3.671960 5.254726 0.000032
-3.358137 5.254726 -0.000007
-3.044314 5.254726 0.000027
-2.730491 5.254726 0.000044
-2.416668 5.254726 -0.000052
-2.102845 5.254726 -0.000167
-1.789022 5.254726 -0.000271
-1.475199 5.254726 -0.000037
-1.161376 5.254726 0.000232
-0.847553 5.254726 0.000177
-0.533730 5.254726 -0.000257
-0.219907 5.254726 -0.000640
0.093916 5.254726 -0.000663
0.407739 5.254726 -0.000612
0.721562 5.254726 -0.000635
1.035385 5.254726 -0.000447
1.349208 5.254726 -0.000352
1.663032 5.254726 -0.000246
1.976854 5.254726 -0.000509
2.290677 5.254726 -0.000818
2.604500 5.254726 -0.000926
2.918324 5.254726 -0.001020
3.232146 5.254726 -0.001229
3.545969 5.254726 -0.001231
3.859793 5.254726 -0.001167
4.173615 5.254726 -0.001087
4.487438 5.254726 -0.000888
4.801261 5.254726 -0.001001
5.115085 5.254726 -0.001415
5.428907 5.254726 -0.001925
5.742730 5.254726 -0.002143
6.056554 5.254726 -0.001966
6.370377 5.254726 -0.001780
6.684199 5.254726 -0.002177
6.998022 5.254726 -0.003533
7.311846 5.254726 -0.004590
7.625669 5.254726 -0.005261
7.939491 5.254726 -0.005317
8.253315 5.254726 -0.006472
8.567138 5.254726 -0.010545
8.880960 5.254726 -0.011555
9.194784 5.254726 -0.007236
9.508606 5.254726 -0.002791
9.822430 5.254726 0.001145
10.136253 5.254726 0.010475
10.450075 5.254726 0.000890
10.763899 5.254726 -0.004536
11.077723 5.254726 -0.026510
11.391544 5.254726 -0.025016
11.705368 5.254726 -0.052057
12.019190 5.254726 -0.045205
12.333014 5.254726 -0.002767
12.646837 5.254726 0.011346
12.960659 5.254726 0.052538
13.274483 5.254726 0.029490
13.588306 5.254726 0.006432
13.902128 5.254726 0.074386
14.215952 5.254726 0.158259
14.529776 5.254726 0.143029
14.843597 5.254726 0.157823
15.157421 5.254726 0.156593
15.471243 5.254726 0.245985
15.785067 5.254726 0.311847
16.098890 5.254726 0.410883
16.412712 5.254726 0.518659
16.726536 5.254726 0.669977
17.040359 5.254726 0.835658
17.354181 5.254726 1.431018
17.668005 5.254726 2.040474
17.981829 5.254726 3.578153
18.295650 5.254726 6.072049
18.609474 5.254726 7.772346
18.923298 5.254726 0.000000
19.237120 5.254726 0.000000
-6.810190 4.940903 0.000000
-6.496367 4.940903 0.000105
-6.182544 4.940903 -0.000408
-5.868721 4.940903 -0.000361
-5.554898 4.940903 -0.000057
-5.241075 4.940903 0.000135
-4.927252 4.940903 0.000003
-4.613429 4.940903 -0.000057
-4.299606 4.940903 0.000045
-3.985783 4.940903 0.000168
-3.671960 4.940903 0.000152
-3.358137 4.940903 0.000131
-3.044314 4.940903 0.000101
-2.730491 4.940903 0.000067
-2.416668 4.940903 -0.000049
-2.102845 4.940903 -0.000128
-1.789022 4.940903 -0.000193
-1.475199 4.940903 -0.000018
-1.161376 4.940903 0.000266
-0.847553 4.940903 0.000214
-0.533730 4.940903 -0.000368
-0.219907 4.940903 -0.000746
0.093916 4.940903 -0.000710
0.407739 4.940903 -0.000627
0.721562 4.940903 -0.000567
1.035385 4.940903 -0.000360
1.349208 4.940903 -0.000114
1.663032 4.940903 0.000020
1.976854 4.940903 -0.000301
2.290677 4.940903 -0.000741
2.604500 4.940903 -0.000925
2.918324 4.940903 -0.001111
3.232146 4.940903 -0.001271
3.545969 4.940903 -0.001362
3.859793 4.940903 -0.001407
4.173615 4.940903 -0.001278
4.487438 4.940903 -0.000992
4.801261 4.940903 -0.001035
5.115085 4.940903 -0.001325
5.428907 4.940903 -0.001622
5.742730 4.940903 -0.002025
6.056554 4.940903 -0.002092
6.370377 4.940903 -0.002051
6.684199 4.940903 -0.002429
6.998022 4.940903 -0.003425
7.311846 4.940903 -0.004145
7.625669 4.940903 -0.005206
7.939491 4.940903 -0.005495
8.253315 4.940903 -0.006120
8.567138 4.940903 -0.009085
8.880960 4.940903 -0.010162
9.194784 4.940903 -0.004234
9.508606 4.940903 0.001661
9.822430 4.940903 0.006887
10.136253 4.940903 0.009545
10.450075 4.940903 -0.002117
10.763899 4.940903 -0.012981
11.077723 4.940903 -0.024009
11.391544 4.940903 -0.030980
11.705368 4.940903 -0.055340
12.019190 4.940903 -0.039460
12.333014 4.940903 -0.015896
12.646837 4.940903 0.045647
12.960659 4.940903 0.067652
13.274483 4.940903 0.047946
13.588306 4.940903 0.060725
13.902128 4.940903 0.084189
14.215952 4.940903 0.137012
14.529776 4.940903 0.176395
14.843597 4.940903 0.171681
15.157421 4.940903 0.201894
15.471243 4.940903 0.240699
15.785067 4.940903 0.306145
16.098890 4.940903 0.455484
16.412712 4.940903 0.501716
16.726536 4.940903 0.689014
17.040359 4.940903 0.947888
17.354181 4.940903 1.367225
17.668005 4.940903 2.241485
17.981829 4.940903 3.631087
18.295650 4.940903 5.735676
18.609474 4.940903 7.908369
18.923298 4.940903 0.000000
19.237120 4.940903 0.000000
-6.810190 4.627079 0.000000
-6.496367 4.627079 -0.000111
-6.182544 4.627079 -0.000527
-5.868721 4.627079 -0.000525
-5.554898 4.627079 -0.000124
-5.241075 4.627079 0.000127
-4.927252 4.627079 -0.000092
-4.613429 4.627079 -0.000250
-4.299606 4.627079 0.000000
-3.985783 4.627079 0.000281
-3.671960 4.627079 0.000314
-3.358137 4.627079 0.000251
-3.044314 4.627079 0.000155
-2.730491 4.627079 0.000086
-2.416668 4.627079 0.000044
-2.102845 4.627079 0.000070
-1.789022 4.627079 0.000068
-1.475199 4.627079 0.000138
-1.161376 4.627079 0.000323
-0.847553 4.627079 0.000167
-0.533730 4.627079 -0.000373
-0.219907 4.627079 -0.000548
0.093916 4.627079 -0.000512
0.407739 4.627079 -0.000426
0.721562 4.627079 -0.000354
1.035385 4.627079 -0.000212
1.349208 4.627079 0.000093
1.663032 4.627079 0.000298
1.976854 4.627079 -0.000080
2.290677 4.627079 -0.000580
2.604500 4.627079 -0.000913
2.918324 4.627079 -0.001153
3.232146 4.627079 -0.001251
3.545969 4.627079 -0.001375
3.859793 4.627079 -0.001491
4.173615 4.627079 -0.001336
4.487438 4.627079 -0.000921
4.801261 4.627079 -0.000897
5.115085 4.627079 -0.001124
5.428907 4.627079 -0.001340
5.742730 4.627079 -0.001900
6.056554 4.627079 -0.002188
6.370377 4.627079 -0.002403
6.684199 4.627079 -0.002750
6.998022 4.627079 -0.003376
7.311846 4.627079 -0.003973
7.625669 4.627079 -0.004542
7.939491 4.627079 -0.005192
8.253315 4.627079 -0.006116
8.567138 4.627079 -0.009503
8.880960 4.627079 -0.009234
9.194784 4.627079 -0.005322
9.508606 4.627079 -0.003763
9.822430 4.627079 0.011347
10.136253 4.627079 0.015088
10.450075 4.627079 0.005524
10.763899 4.627079 -0.012305
11.077723 4.627079 -0.011988
11.391544 4.627079 -0.027169
11.705368 4.627079 -0.030591
12.019190 4.627079 -0.025979
12.333014 4.627079 0.016909
12.646837 4.627079 0.034611
12.960659 4.627079 0.046111
13.274483 4.627079 0.104371
13.588306 4.627079 0.114453
13.902128 4.627079 0.121444
14.215952 4.627079 0.161240
14.529776 4.627079 0.172931
14.843597 4.627079 0.207421
15.157421 4.627079 0.228079
15.471243 4.627079 0.266577
15.785067 4.627079 0.339957
16.098890 4.627079 0.436779
16.412712 4.627079 0.520828
16.726536 4.627079 0.746710
17.040359 4.627079 1.079719
17.354181 4.627079 1.619567
17.668005 4.627079 2.454644
17.981829 4.627079 3.966864
18.295650 4.627079 6.132078
18.609474 4.627079 7.781191
18.923298 4.627079 0.000000
19.237120 4.627079 0.000000
-6.810190 4.313255 0.000000
-6.496367 4.313255 0.000001
-6.182544 4.313255 -0.000459
-5.868721 4.313255 -0.000477
-5.554898 4.313255 -0.000061
-5.241075 4.313255 0.000144
-4.927252 4.313255 -0.000113
-4.613429 4.313255 -0.000254
-4.299606 4.313255 -0.000032
-3.985783 4.313255 0.000337
-3.671960 4.313255 0.000531
-3.358137 4.313255 0.000487
-3.044314 4.313255 0.000246
-2.730491 4.313255 0.000105
-2.416668 4.313255 0.000084
-2.102845 4.313255 0.000207
-1.789022 4.313255 0.000231
-1.475199 4.313255 0.000243
-1.161376 4.313255 0.000322
-0.847553 4.313255 0.000164
-0.533730 4.313255 -0.000229
-0.219907 4.313255 -0.000214
0.093916 4.313255 -0.000132
0.407739 4.313255 -0.000164
0.721562 4.313255 -0.000226
1.035385 4.313255 -0.000243
1.349208 4.313255 0.000045
1.663032 4.313255 0.000288
1.976854 4.313255 -0.000048
2.290677 4.313255 -0.000475
2.604500 4.313255 -0.000810
2.918324 4.313255 -0.001053
3.232146 4.313255 -0.001025
3.545969 4.313255 -0.001200
3.859793 4.313255 -0.001389
4.173615 4.313255 -0.001198
4.487438 4.313255 -0.000822
4.801261 4.313255 -0.000775
5.115085 4.313255 -0.001003
5.428907 4.313255 -0.001223
5.742730 4.313255 -0.001871
6.056554 4.313255 -0.002365
6.370377 4.313255 -0.002647
6.684199 4.313255 -0.002790
6.998022 4.313255 -0.002944
7.311846 4.313255 -0.003074
7.625669 4.313255 -0.003782
7.939491 4.313255 -0.005414
8.253315 4.313255 -0.005798
8.567138 4.313255 -0.010715
8.880960 4.313255 -0.008107
9.194784 4.313255 -0.002660
9.508606 4.313255 -0.003109
9.822430 4.313255 0.003888
10.136253 4.313255 0.007078
10.450075 4.313255 0.011800
10.763899 4.313255 -0.010543
11.077723 4.313255 0.006251
11.391544 4.313255 -0.001924
11.705368 4.313255 -0.014497
12.019190 4.313255 -0.009094
12.333014 4.313255 0.054800
12.646837 4.313255 0.068106
12.960659 4.313255 0.041252
13.274483 4.313255 0.051650
13.588306 4.313255 0.131004
13.902128 4.313255 0.149738
14.215952 4.313255 0.174428
14.529776 4.313255 0.255415
14.843597 4.313255 0.236548
15.157421 4.313255 0.292276
15.471243 4.313255 0.257939
15.785067 4.313255 0.420350
16.098890 4.313255 0.430242
16.412712 4.313255 0.546829
16.726536 4.313255 0.811425
17.040359 4.313255 1.176947
17.354181 4.313255 1.721372
17.668005 4.313255 2.500337
17.981829 4.313255 3.715596
18.295650 4.313255 5.917747
18.609474 4.313255 7.885705
18.923298 4.313255 0.000000
19.237120 4.313255 0.000000
-6.810190 3.999435 0.000000
-6.496367 3.999435 0.000132
-6.182544 3.999435 -0.000262
-5.868721 3.999435 -0.000183
-5.554898 3.999435 0.000075
-5.241075 3.999435 0.000131
-4.927252 3.999435 -0.000052
-4.613429 3.999435 -0.000176
-4.299606 3.999435 0.000015
-3.985783 3.999435 0.000438
-3.671960 3.999435 0.000636
-3.358137 3.999435 0.000612
-3.044314 3.999435 0.000313
-2.730491 3.999435 -0.000021
-2.416668 3.999435 -0.000066
-2.102845 3.999435 0.000119
-1.789022 3.999435 0.000230
-1.475199 3.999435 0.000236
-1.161376 3.999435 0.000203
-0.847553 3.999435 0.000105
-0.533730 3.999435 0.000010
-0.219907 3.999435 0.000129
0.093916 3.999435 0.000186
0.407739 3.999435 -0.000023
0.721562 3.999435 -0.000205
1.035385 3.999435 -0.000357
1.349208 3.999435 -0.000121
1.663032 3.999435 0.000020
1.976854 3.999435 -0.000164
2.290677 3.999435 -0.000360
2.604500 3.999435 -0.000520
2.918324 3.999435 -0.000664
3.232146 3.999435 -0.000628
3.545969 3.999435 -0.000943
3.859793 3.999435 -0.001343
4.173615 3.999435 -0.001165
4.487438 3.999435 -0.000905
4.801261 3.999435 -0.000732
5.115085 3.999435 -0.000995
5.428907 3.999435 -0.001362
5.742730 3.999435 -0.001983
6.056554 3.999435 -0.002516
6.370377 3.999435 -0.002624
6.684199 3.999435 -0.002740
6.998022 3.999435 -0.002913
7.311846 3.999435 -0.002783
7.625669 3.999435 -0.003481
7.939491 3.999435 -0.003532
8.253315 3.999435 -0.005267
8.567138 3.999435 -0.008835
8.880960 3.999435 -0.011263
9.194784 3.999435 -0.002803
9.508606 3.999435 -0.001007
9.822430 3.999435 0.000115
10.136253 3.999435 0.005618
10.450075 3.999435 -0.000603
10.763899 3.999435 0.015431
11.077723 3.999435 0.016916
11.391544 3.999435 0.020534
11.705368 3.999435 0.007358
12.019190 3.999435 0.011585
12.333014 3.999435 0.063647
12.646837 3.999435 0.050423
12.960659 3.999435 0.044089
13.274483 3.999435 0.049156
13.588306 3.999435 0.100124
13.902128 3.999435 0.183460
14.215952 3.999435 0.179755
14.529776 3.999435 0.198715
14.843597 3.999435 0.259381
15.157421 3.999435 0.331022
15.471243 3.999435 0.343836
15.785067 3.999435 0.369186
16.098890 3.999435 0.501040
16.412712 3.999435 0.528765
16.726536 3.999435 0.823428
17.040359 3.999435 1.075343
17.354181 3.999435 1.729621
17.668005 3.999435 2.647757
17.981829 3.999435 3.901470
18.295650 3.999435 6.088467
18.609474 3.999435 7.523876
18.923298 3.999435 0.000000
19.237120 3.999435 0.000000
-6.810190 3.685612 0.000000
-6.496367 3.685612 0.000208
-6.182544 3.685612 -0.000046
-5.868721 3.685612 0.000085
-5.554898 3.685612 0.000285
-5.241075 3.685612 0.000193
-4.927252 3.685612 0.000089
-4.613429 3.685612 -0.000041
-4.299606 3.685612 0.000070
-3.985783 3.685612 0.000372
-3.671960 3.685612 0.000578
-3.358137 3.685612 0.000618
-3.044314 3.685612 0.000336
-2.730491 3.685612 -0.000205
-2.416668 3.685612 -0.000246
-2.102845 3.685612 0.000093
-1.789022 3.685612 0.000187
-1.475199 3.685612 0.000149
-1.161376 3.685612 -0.000053
-0.847553 3.685612 0.000017
-0.533730 3.685612 0.000128
-0.219907 3.685612 0.000185
0.093916 3.685612 0.000160
0.407739 3.685612 -0.000103
0.721562 3.685612 -0.000258
1.035385 3.685612 -0.000450
1.349208 3.685612 -0.000346
1.663032 3.685612 -0.000300
1.976854 3.685612 -0.000287
2.290677 3.685612 -0.000270
2.604500 3.685612 -0.000237
2.918324 3.685612 -0.000328
3.232146 3.685612 -0.000302
3.545969 3.685612 -0.000820
3.859793 3.685612 -0.001410
4.173615 3.685612 -0.001365
4.487438 3.685612 -0.001054
4.801261 3.685612 -0.000785
5.115085 3.685612 -0.001059
5.428907 3.685612 -0.001536
5.742730 3.685612 -0.001915
6.056554 3.685612 -0.002236
6.370377 3.685612 -0.002345
6.684199 3.685612 -0.002601
6.998022 3.685612 -0.002846
7.311846 3.685612 -0.002809
7.625669 3.685612 -0.003316
7.939491 3.685612 -0.004186
8.253315 3.685612 -0.004135
8.567138 3.685612 -0.007643
8.880960 3.685612 -0.009040
9.194784 3.685612 -0.003044
9.508606 3.685612 -0.002587
9.822430 3.685612 -0.004999
10.136253 3.685612 -0.002863
10.450075 3.685612 0.003199
10.763899 3.685612 0.007555
11.077723 3.685612 0.027982
11.391544 3.685612 0.033161
11.705368 3.685612 0.024388
12.019190 3.685612 0.029125
12.333014 3.685612 0.042066
12.646837 3.685612 0.066034
12.960659 3.685612 0.079222
13.274483 3.685612 0.097622
13.588306 3.685612 0.107389
13.902128 3.685612 0.171945
14.215952 3.685612 0.151192
14.529776 3.685612 0.192624
14.843597 3.685612 0.218177
15.157421 3.685612 0.224556
15.471243 3.685612 0.316013
15.785067 3.685612 0.407402
16.098890 3.685612 0.537570
16.412712 3.685612 0.538095
16.726536 3.685612 0.717090
17.040359 3.685612 1.024945
17.354181 3.685612 1.704054
17.668005 3.685612 2.781801
17.981829 3.685612 4.310929
18.295650 3.685612 6.737804
18.609474 3.685612 7.525298
18.923298 3.685612 0.000000
19.237120 3.685612 0.000000
-6.810190 3.371788 0.000000
-6.496367 3.371788 0.000305
-6.182544 3.371788 0.000135
-5.868721 3.371788 0.000236
-5.554898 3.371788 0.000301
-5.241075 3.371788 0.000235
-4.927252 3.371788 0.000214
-4.613429 3.371788 0.000097
-4.299606 3.371788 0.000117
-3.985783 3.371788 0.000258
-3.671960 3.371788 0.000442
-3.358137 3.371788 0.000665
-3.044314 3.371788 0.000461
-2.730491 3.371788 -0.000178
-2.416668 3.371788 -0.000242
-2.102845 3.371788 0.000120
-1.789022 3.371788 0.000134
-1.475199 3.371788 -0.000063
-1.161376 3.371788 -0.000292
-0.847553 3.371788 -0.000114
-0.533730 3.371788 0.000152
-0.219907 3.371788 0.000171
0.093916 3.371788 0.000144
0.407739 3.371788 -0.000141
0.721562 3.371788 -0.000285
1.035385 3.371788 -0.000459
1.349208 3.371788 -0.000537
1.663032 3.371788 -0.000610
1.976854 3.371788 -0.000478
2.290677 3.371788 -0.000238
2.604500 3.371788 -0.000092
2.918324 3.371788 -0.000208
3.232146 3.371788 -0.000326
3.545969 3.371788 -0.000850
3.859793 3.371788 -0.001561
4.173615 3.371788 -0.001508
4.487438 3.371788 -0.001129
4.801261 3.371788 -0.000918
5.115085 3.371788 -0.001322
5.428907 3.371788 -0.001777
5.742730 3.371788 -0.001891
6.056554 3.371788 -0.001965
6.370377 3.371788 -0.001994
6.684199 3.371788 -0.002531
6.998022 3.371788 -0.002819
7.311846 3.371788 -0.003429
7.625669 3.371788 -0.004049
7.939491 3.371788 -0.004369
8.253315 3.371788 -0.003974
8.567138 3.371788 -0.005917
8.880960 3.371788 -0.003908
9.194784 3.371788 -0.000032
9.508606 3.371788 -0.006629
9.822430 3.371788 -0.010860
10.136253 3.371788 -0.013515
10.450075 3.371788 -0.002720
10.763899 3.371788 0.015312
11.077723 3.371788 0.035738
11.391544 3.371788 0.038167
11.705368 3.371788 0.024983
12.019190 3.371788 0.031307
12.333014 3.371788 0.056070
12.646837 3.371788 0.068708
12.960659 3.371788 0.085211
13.274483 3.371788 0.139141
13.588306 3.371788 0.136389
13.902128 3.371788 0.151093
14.215952 3.371788 0.107123
14.529776 3.371788 0.155848
14.843597 3.371788 0.202551
15.157421 3.371788 0.196957
15.471243 3.371788 0.222103
15.785067 3.371788 0.401577
16.098890 3.371788 0.490588
16.412712 3.371788 0.606548
16.726536 3.371788 0.587112
17.040359 3.371788 0.922270
17.354181 3.371788 1.527609
17.668005 3.371788 2.762216
17.981829 3.371788 4.922448
18.295650 3.371788 9.641483
18.609474 3.371788 7.808953
18.923298 3.371788 0.000000
19.237120 3.371788 0.000000
-6.810190 3.057964 0.000000
-6.496367 3.057964 0.000300
-6.182544 3.057964 0.000076
-5.868721 3.057964 0.000135
-5.554898 3.057964 0.000126
-5.241075 3.057964 0.000210
-4.927252 3.057964 0.000296
-4.613429 3.057964 0.000221
-4.299606 3.057964 0.000121
-3.985783 3.057964 0.000129
-3.671960 3.057964 0.000259
-3.358137 3.057964 0.000573
-3.044314 3.057964 0.000454
-2.730491 3.057964 -0.000155
-2.416668 3.057964 -0.000210
-2.102845 3.057964 0.000064
-1.789022 3.057964 0.000070
-1.475199 3.057964 -0.000210
-1.161376 3.057964 -0.000418
-0.847553 3.057964 -0.000160
-0.533730 3.057964 0.000199
-0.219907 3.057964 0.000298
0.093916 3.057964 0.000213
0.407739 3.057964 -0.000178
0.721562 3.057964 -0.000350
1.035385 3.057964 -0.000471
1.349208 3.057964 -0.000710
1.663032 3.057964 -0.000795
1.976854 3.057964 -0.000710
2.290677 3.057964 -0.000361
2.604500 3.057964 -0.000201
2.918324 3.057964 -0.000229
3.232146 3.057964 -0.000377
3.545969 3.057964 -0.000911
3.859793 3.057964 -0.001676
4.173615 3.057964 -0.001592
4.487438 3.057964 -0.001251
4.801261 3.057964 -0.001087
5.115085 3.057964 -0.001611
5.428907 3.057964 -0.001966
5.742730 3.057964 -0.001956
6.056554 3.057964 -0.001835
6.370377 3.057964 -0.001999
6.684199 3.057964 -0.002713
6.998022 3.057964 -0.003404
7.311846 3.057964 -0.003864
7.625669 3.057964 -0.005816
7.939491 3.057964 -0.005656
8.253315 3.057964 -0.005998
8.567138 3.057964 -0.007141
8.880960 3.057964 -0.001751
9.194784 3.057964 -0.000493
9.508606 3.057964 -0.010189
9.822430 3.057964 -0.019413
10.136253 3.057964 -0.021709
10.450075 3.057964 -0.006875
10.763899 3.057964 0.006041
11.077723 3.057964 0.020704
11.391544 3.057964 0.026080
11.705368 3.057964 0.007436
12.019190 3.057964 0.022365
12.333014 3.057964 0.071195
12.646837 3.057964 0.070967
12.960659 3.057964 0.080331
13.274483 3.057964 0.133263
13.588306 3.057964 0.152612
13.902128 3.057964 0.105124
14.215952 3.057964 0.106213
14.529776 3.057964 0.144782
14.843597 3.057964 0.193889
15.157421 3.057964 0.125817
15.471243 3.057964 0.262391
15.785067 3.057964 0.331943
16.098890 3.057964 0.423667
16.412712 3.057964 0.521083
16.726536 3.057964 0.535860
17.040359 3.057964 0.770131
17.354181 3.057964 1.374844
17.668005 3.057964 2.931479
17.981829 3.057964 5.048988
18.295650 3.057964 0.000000
18.609474 3.057964 0.000000
18.923298 3.057964 0.000000
19.237120 3.057964 0.000000
-6.810190 2.744141 0.000000
-6.496367 2.744141 0.000300
-6.182544 2.744141 -0.000051
-5.868721 2.744141 -0.000087
-5.554898 2.744141 -0.000060
-5.241075 2.744141 0.000159
-4.927252 2.744141 0.000328
-4.613429 2.744141 0.000251
-4.299606 2.744141 0.000007
-3.985783 2.744141 -0.000089
-3.671960 2.744141 -0.000035
-3.358137 2.744141 0.000251
-3.044314 2.744141 0.000262
-2.730491 2.744141 -0.000094
-2.416668 2.744141 -0.000118
-2.102845 2.744141 0.000038
-1.789022 2.744141 0.000076
-1.475199 2.744141 -0.000187
-1.161376 2.744141 -0.000309
-0.847553 2.744141 -0.000069
-0.533730 2.744141 0.000302
-0.219907 2.744141 0.000398
0.093916 2.744141 0.000220
0.407739 2.744141 -0.000212
0.721562 2.744141 -0.000452
1.035385 2.744141 -0.000533
1.349208 2.744141 -0.000737
1.663032 2.744141 -0.000808
1.976854 2.744141 -0.000817
2.290677 2.744141 -0.000537
2.604500 2.744141 -0.000377
2.918324 2.744141 -0.000359
3.232146 2.744141 -0.000492
3.545969 2.744141 -0.000955
3.859793 2.744141 -0.001750
4.173615 2.744141 -0.001771
4.487438 2.744141 -0.001489
4.801261 2.744141 -0.001432
5.115085 2.744141 -0.001807
5.428907 2.744141 -0.002004
5.742730 2.744141 -0.002011
6.056554 2.744141 -0.001950
6.370377 2.744141 -0.002315
6.684199 2.744141 -0.003002
6.998022 2.744141 -0.003792
7.311846 2.744141 -0.004065
7.625669 2.744141 -0.005844
7.939491 2.744141 -0.007289
8.253315 2.744141 -0.005337
8.567138 2.744141 -0.004886
8.880960 2.744141 -0.003946
9.194784 2.744141 -0.007826
9.508606 2.744141 -0.017581
9.822430 2.744141 -0.023413
10.136253 2.744141 -0.022653
10.450075 2.744141 -0.015946
10.763899 2.744141 -0.004522
11.077723 2.744141 0.004192
11.391544 2.744141 0.013121
11.705368 2.744141 0.011865
12.019190 2.744141 0.010297
12.333014 2.744141 0.056997
12.646837 2.744141 0.039332
12.960659 2.744141 0.045895
13.274483 2.744141 0.103120
13.588306 2.744141 0.144896
13.902128 2.744141 0.160157
14.215952 2.744141 0.118093
14.529776 2.744141 0.199258
14.843597 2.744141 0.170751
15.157421 2.744141 0.149663
15.471243 2.744141 0.275677
15.785067 2.744141 0.369504
16.098890 2.744141 0.427129
16.412712 2.744141 0.275652
16.726536 2.744141 0.375495
17.040359 2.744141 0.615369
17.354181 2.744141 1.553583
17.668005 2.744141 3.417198
17.981829 2.744141 0.000000
18.295650 2.744141 0.000000
18.609474 2.744141 0.000000
18.923298 2.744141 0.000000
19.237120 2.744141 0.000000
-6.810190 2.430317 0.000000
-6.496367 2.430317 0.000291
-6.182544 2.430317 -0.000110
-5.868721 2.430317 -0.000208
-5.554898 2.430317 -0.000205
-5.241075 2.430317 0.000089
-4.927252 2.430317 0.000284
-4.613429 2.430317 0.000184
-4.299606 2.430317 -0.000184
-3.985783 2.430317 -0.000356
-3.671960 2.430317 -0.000402
-3.358137 2.430317 -0.000116
-3.044314 2.430317 0.000091
-2.730491 2.430317 0.000056
-2.416668 2.430317 0.000036
-2.102845 2.430317 0.000036
-1.789022 2.430317 0.000114
-1.475199 2.430317 -0.000063
-1.161376 2.430317 -0.000181
-0.847553 2.430317 -0.000061
-0.533730 2.430317 0.000248
-0.219907 2.430317 0.000313
0.093916 2.430317 0.000091
0.407739 2.430317 -0.000292
0.721562 2.430317 -0.000488
1.035385 2.430317 -0.000369
1.349208 2.430317 -0.000488
1.663032 2.430317 -0.000684
1.976854 2.430317 -0.000887
2.290677 2.430317 -0.000729
2.604500 2.430317 -0.000807
2.918324 2.430317 -0.000799
3.232146 2.430317 -0.000882
3.545969 2.430317 -0.001239
3.859793 2.430317 -0.001802
4.173615 2.430317 -0.001948
4.487438 2.430317 -0.001614
4.801261 2.430317 -0.001620
5.115085 2.430317 -0.001913
5.428907 2.430317 -0.002018
5.742730 2.430317 -0.002204
6.056554 2.430317 -0.002391
6.370377 2.430317 -0.002877
6.684199 2.430317 -0.003580
6.998022 2.430317 -0.004215
7.311846 2.430317 -0.004403
7.625669 2.430317 -0.006273
7.939491 2.430317 -0.008336
8.253315 2.430317 -0.004943
8.567138 2.430317 -0.005683
8.880960 2.430317 -0.008291
9.194784 2.430317 -0.011752
9.508606 2.430317 -0.020700
9.822430 2.430317 -0.017533
10.136253 2.430317 -0.021013
10.450075 2.430317 -0.022863
10.763899 2.430317 -0.018022
11.077723 2.430317 -0.007972
11.391544 2.430317 -0.017317
11.705368 2.430317 0.005892
12.019190 2.430317 0.017217
12.333014 2.430317 0.037087
12.646837 2.430317 0.041693
12.960659 2.430317 0.056918
13.274483 2.430317 0.103609
13.588306 2.430317 0.059800
13.902128 2.430317 0.099905
14.215952 2.430317 0.096601
14.529776 2.430317 0.200336
14.843597 2.430317 0.230357
15.157421 2.430317 0.237560
15.471243 2.430317 0.213227
15.785067 2.430317 0.353225
16.098890 2.430317 0.325935
16.412712 2.430317 0.267325
16.726536 2.430317 0.238644
17.040359 2.430317 0.503973
17.354181 2.430317 1.571400
17.668005 2.430317 0.000000
17.981829 2.430317 0.000000
18.295650 2.430317 0.000000
18.609474 2.430317 0.000000
18.923298 2.430317 0.000000
19.237120 2.430317 0.000000
-6.810190 2.116497 0.000000
-6.496367 2.116497 0.000321
-6.182544 2.116497 -0.000144
-5.868721 2.116497 -0.000385
-5.554898 2.116497 -0.000383
-5.241075 2.116497 -0.000104
-4.927252 2.116497 0.000178
-4.613429 2.116497 0.000084
-4.299606 2.116497 -0.000259
-3.985783 2.116497 -0.000493
-3.671960 2.116497 -0.000620
-3.358137 2.116497 -0.000422
-3.044314 2.116497 -0.000084
-2.730491 2.116497 0.000079
-2.416668 2.116497 0.000031
-2.102845 2.116497 -0.000086
-1.789022 2.116497 0.000011
-1.475199 2.116497 -0.000018
-1.161376 2.116497 -0.000206
-0.847553 2.116497 -0.000146
-0.533730 2.116497 0.000084
-0.219907 2.116497 0.000190
0.093916 2.116497 0.000043
0.407739 2.116497 -0.000355
0.721562 2.116497 -0.000504
1.035385 2.116497 -0.000328
1.349208 2.116497 -0.000302
1.663032 2.116497 -0.000635
1.976854 2.116497 -0.001029
2.290677 2.116497 -0.000979
2.604500 2.116497 -0.001311
2.918324 2.116497 -0.001418
3.232146 2.116497 -0.001342
3.545969 2.116497 -0.001482
3.859793 2.116497 -0.001792
4.173615 2.116497 -0.002037
4.487438 2.116497 -0.001674
4.801261 2.116497 -0.001690
5.115085 2.116497 -0.002093
5.428907 2.116497 -0.002333
5.742730 2.116497 -0.002651
6.056554 2.116497 -0.003057
6.370377 2.116497 -0.003683
6.684199 2.116497 -0.004054
6.998022 2.116497 -0.004590
7.311846 2.116497 -0.005033
7.625669 2.116497 -0.007542
7.939491 2.116497 -0.007526
8.253315 2.116497 -0.004851
8.567138 2.116497 -0.003703
8.880960 2.116497 -0.006112
9.194784 2.116497 -0.009417
9.508606 2.116497 -0.014954
9.822430 2.116497 -0.014516
10.136253 2.116497 -0.017011
10.450075 2.116497 -0.023489
10.763899 2.116497 -0.026412
11.077723 2.116497 0.004550
11.391544 2.116497 -0.000587
11.705368 2.116497 0.013019
12.019190 2.116497 0.016135
12.333014 2.116497 0.028804
12.646837 2.116497 -0.001179
12.960659 2.116497 0.067286
13.274483 2.116497 0.117894
13.588306 2.116497 0.036009
13.902128 2.116497 0.063800
14.215952 2.116497 0.107420
14.529776 2.116497 0.147349
14.843597 2.116497 0.269411
15.157421 2.116497 0.275192
15.471243 2.116497 0.304031
15.785067 2.116497 0.340461
16.098890 2.116497 0.111280
16.412712 2.116497 0.083635
16.726536 2.116497 -0.052628
17.040359 2.116497 0.308787
17.354181 2.116497 0.484861
17.668005 2.116497 0.000000
17.981829 2.116497 0.000000
18.295650 2.116497 0.000000
18.609474 2.116497 0.000000
18.923298 2.116497 0.000000
19.237120 2.116497 0.000000
-6.810190 1.802673 0.000000
-6.496367 1.802673 0.000319
-6.182544 1.802673 -0.000164
-5.868721 1.802673 -0.000396
-5.554898 1.802673 -0.000536
-5.241075 1.802673 -0.000313
-4.927252 1.802673 0.000039
-4.613429 1.802673 0.000060
-4.299606 1.802673 -0.000177
-3.985783 1.802673 -0.000475
-3.671960 1.802673 -0.000731
-3.358137 1.802673 -0.000704
-3.044314 1.802673 -0.000377
-2.730491 1.802673 -0.000019
-2.416668 1.802673 -0.000189
-2.102845 1.802673 -0.000351
-1.789022 1.802673 -0.000138
-1.475199 1.802673 0.000040
-1.161376 1.802673 -0.000065
-0.847553 1.802673 -0.000166
-0.533730 1.802673 -0.000178
-0.219907 1.802673 -0.000024
0.093916 1.802673 -0.000052
0.407739 1.802673 -0.000451
0.721562 1.802673 -0.000616
1.035385 1.802673 -0.000460
1.349208 1.802673 -0.000225
1.663032 1.802673 -0.000543
1.976854 1.802673 -0.001037
2.290677 1.802673 -0.001040
2.604500 1.802673 -0.001532
2.918324 1.802673 -0.001779
3.232146 1.802673 -0.001605
3.545969 1.802673 -0.001718
3.859793 1.802673 -0.001859
4.173615 1.802673 -0.002113
4.487438 1.802673 -0.001789
4.801261 1.802673 -0.001769
5.115085 1.802673 -0.002323
5.428907 1.802673 -0.002733
5.742730 1.802673 -0.003042
6.056554 1.802673 -0.003419
6.370377 1.802673 -0.004001
6.684199 1.802673 -0.004416
6.998022 1.802673 -0.004729
7.311846 1.802673 -0.005403
7.625669 1.802673 -0.007865
7.939491 1.802673 -0.007034
8.253315 1.802673 -0.004029
8.567138 1.802673 -0.005383
8.880960 1.802673 -0.005227
9.194784 1.802673 -0.007374
9.508606 1.802673 -0.011316
9.822430 1.802673 -0.009818
10.136253 1.802673 -0.016590
10.450075 1.802673 -0.019506
10.763899 1.802673 -0.015261
11.077723 1.802673 0.006396
11.391544 1.802673 0.029313
11.705368 1.802673 0.023186
12.019190 1.802673 0.001144
12.333014 1.802673 0.010176
12.646837 1.802673 0.014849
12.960659 1.802673 0.061779
13.274483 1.802673 0.083016
13.588306 1.802673 0.049386
13.902128 1.802673 0.093363
14.215952 1.802673 0.119710
14.529776 1.802673 0.182251
14.843597 1.802673 0.233845
15.157421 1.802673 0.266841
15.471243 1.802673 0.217520
15.785067 1.802673 0.178729
16.098890 1.802673 0.030438
16.412712 1.802673 -0.186391
16.726536 1.802673 -0.406921
17.040359 1.802673 -0.079639
17.354181 1.802673 0.000000
17.668005 1.802673 0.000000
17.981829 1.802673 0.000000
18.295650 1.802673 0.000000
18.609474 1.802673 0.000000
18.923298 1.802673 0.000000
19.237120 1.802673 0.000000
-6.810190 1.488850 0.000000
-6.496367 1.488850 0.000334
-6.182544 1.488850 -0.000112
-5.868721 1.488850 -0.000259
-5.554898 1.488850 -0.000573
-5.241075 1.488850 -0.000506
-4.927252 1.488850 -0.000167
-4.613429 1.488850 -0.000094
-4.299606 1.488850 -0.000114
-3.985783 1.488850 -0.000385
-3.671960 1.488850 -0.000681
-3.358137 1.488850 -0.000824
-3.044314 1.488850 -0.000469
-2.730491 1.488850 -0.000082
-2.416668 1.488850 -0.000311
-2.102845 1.488850 -0.000473
-1.789022 1.488850 -0.000129
-1.475199 1.488850 0.000138
-1.161376 1.488850 -0.000017
-0.847553 1.488850 -0.000320
-0.533730 1.488850 -0.000560
-0.219907 1.488850 -0.000385
0.093916 1.488850 -0.000188
0.407739 1.488850 -0.000534
0.721562 1.488850 -0.000757
1.035385 1.488850 -0.000583
1.349208 1.488850 -0.000050
1.663032 1.488850 -0.000249
1.976854 1.488850 -0.000782
2.290677 1.488850 -0.000930
2.604500 1.488850 -0.001535
2.918324 1.488850 -0.001920
3.232146 1.488850 -0.001762
3.545969 1.488850 -0.001801
3.859793 1.488850 -0.001817
4.173615 1.488850 -0.002083
4.487438 1.488850 -0.001837
4.801261 1.488850 -0.001782
5.115085 1.488850 -0.002407
5.428907 1.488850 -0.002899
5.742730 1.488850 -0.003231
6.056554 1.488850 -0.003438
6.370377 1.488850 -0.003932
6.684199 1.488850 -0.004528
6.998022 1.488850 -0.004816
7.311846 1.488850 -0.006265
7.625669 1.488850 -0.008231
7.939491 1.488850 -0.007761
8.253315 1.488850 -0.005263
8.567138 1.488850 -0.007240
8.880960 1.488850 -0.006665
9.194784 1.488850 -0.007143
9.508606 1.488850 -0.006937
9.822430 1.488850 -0.006664
10.136253 1.488850 -0.009907
10.450075 1.488850 -0.012939
10.763899 1.488850 -0.008739
11.077723 1.488850 0.008496
11.391544 1.488850 0.021688
11.705368 1.488850 0.013447
12.019190 1.488850 0.009796
12.333014 1.488850 -0.024693
12.646837 1.488850 0.015912
12.960659 1.488850 -0.003388
13.274483 1.488850 0.009560
13.588306 1.488850 -0.013882
13.902128 1.488850 0.066913
14.215952 1.488850 0.074776
14.529776 1.488850 0.095668
14.843597 1.488850 0.081999
15.157421 1.488850 0.161391
15.471243 1.488850 0.178801
15.785067 1.488850 0.141495
16.098890 1.488850 -0.069759
16.412712 1.488850 -0.528330
16.726536 1.488850 -0.707440
17.040359 1.488850 -0.213791
17.354181 1.488850 0.000000
17.668005 1.488850 0.000000
17.981829 1.488850 0.000000
18.295650 1.488850 0.000000
18.609474 1.488850 0.000000
18.923298 1.488850 0.000000
19.237120 1.488850 0.000000
-6.810190 1.175026 0.000000
-6.496367 1.175026 0.000401
-6.182544 1.175026 0.000010
-5.868721 1.175026 -0.000080
-5.554898 1.175026 -0.000568
-5.241075 1.175026 -0.000696
-4.927252 1.175026 -0.000397
-4.613429 1.175026 -0.000220
-4.299606 1.175026 -0.000058
-3.985783 1.175026 -0.000132
-3.671960 1.175026 -0.000347
-3.358137 1.175026 -0.000537
-3.044314 1.175026 -0.000299
-2.730491 1.175026 -0.000027
-2.416668 1.175026 -0.000273
-2.102845 1.175026 -0.000420
-1.789022 1.175026 -0.000104
-1.475199 1.175026 0.000092
-1.161376 1.175026 -0.000123
-0.847553 1.175026 -0.000574
-0.533730 1.175026 -0.000851
-0.219907 1.175026 -0.000536
0.093916 1.175026 -0.000147
0.407739 1.175026 -0.000270
0.721562 1.175026 -0.000547
1.035385 1.175026 -0.000595
1.349208 1.175026 0.000046
1.663032 1.175026 -0.000064
1.976854 1.175026 -0.000563
2.290677 1.175026 -0.000834
2.604500 1.175026 -0.001322
2.918324 1.175026 -0.001789
3.232146 1.175026 -0.001719
3.545969 1.175026 -0.001528
3.859793 1.175026 -0.001423
4.173615 1.175026 -0.001663
4.487438 1.175026 -0.001750
4.801261 1.175026 -0.001859
5.115085 1.175026 -0.002558
5.428907 1.175026 -0.003024
5.742730 1.175026 -0.003236
6.056554 1.175026 -0.003462
6.370377 1.175026 -0.004019
6.684199 1.175026 -0.004399
6.998022 1.175026 -0.004903
7.311846 1.175026 -0.006521
7.625669 1.175026 -0.007340
7.939491 1.175026 -0.008246
8.253315 1.175026 -0.008182
8.567138 1.175026 -0.010343
8.880960 1.175026 -0.010781
9.194784 1.175026 -0.012506
9.508606 1.175026 -0.005612
9.822430 1.175026 -0.002963
10.136253 1.175026 -0.009783
10.450075 1.175026 -0.019651
10.763899 1.175026 -0.020563
11.077723 1.175026 0.008710
11.391544 1.175026 0.015342
11.705368 1.175026 0.009187
12.019190 1.175026 -0.016386
12.333014 1.175026 -0.010663
12.646837 1.175026 -0.006808
12.960659 1.175026 0.010765
13.274483 1.175026 0.015073
13.588306 1.175026 0.014400
13.902128 1.175026 0.006303
14.215952 1.175026 0.062584
14.529776 1.175026 0.049749
14.843597 1.175026 -0.063601
15.157421 1.175026 -0.006746
15.471243 1.175026 0.146929
15.785067 1.175026 0.187092
16.098890 1.175026 0.055006
16.412712 1.175026 -0.287841
16.726536 1.175026 -0.392329
17.040359 1.175026 -0.635559
17.354181 1.175026 0.000000
17.668005 1.175026 0.000000
17.981829 1.175026 0.000000
18.295650 1.175026 0.000000
18.609474 1.175026 0.000000
18.923298 1.175026 0.000000
19.237120 1.175026 0.000000
-6.810190 0.861202 0.000000
-6.496367 0.861202 0.000359
-6.182544 0.861202 0.000130
-5.868721 0.861202 0.000065
-5.554898 0.861202 -0.000400
-5.241075 0.861202 -0.000632
-4.927252 0.861202 -0.000440
-4.613429 0.861202 -0.000252
-4.299606 0.861202 0.000072
-3.985783 0.861202 0.000160
-3.671960 0.861202 0.000006
-3.358137 0.861202 -0.000226
-3.044314 0.861202 -0.000166
-2.730491 0.861202 -0.000077
-2.416668 0.861202 -0.000301
-2.102845 0.861202 -0.000365
-1.789022 0.861202 -0.000085
-1.475199 0.861202 0.000013
-1.161376 0.861202 -0.000176
-0.847553 0.861202 -0.000626
-0.533730 0.861202 -0.000808
-0.219907 0.861202 -0.000438
0.093916 0.861202 -0.000029
0.407739 0.861202 -0.000069
0.721562 0.861202 -0.000415
1.035385 0.861202 -0.000668
1.349208 0.861202 -0.000181
1.663032 0.861202 -0.000204
1.976854 0.861202 -0.000487
2.290677 0.861202 -0.000649
2.604500 0.861202 -0.001010
2.918324 0.861202 -0.001442
3.232146 0.861202 -0.001305
3.545969 0.861202 -0.001128
3.859793 0.861202 -0.001055
4.173615 0.861202 -0.001271
4.487438 0.861202 -0.001726
4.801261 0.861202 -0.002171
5.115085 0.861202 -0.002927
5.428907 0.861202 -0.003224
5.742730 0.861202 -0.003245
6.056554 0.861202 -0.003296
6.370377 0.861202 -0.003674
6.684199 0.861202 -0.003983
6.998022 0.861202 -0.004758
7.311846 0.861202 -0.006522
7.625669 0.861202 -0.007890
7.939491 0.861202 -0.007443
8.253315 0.861202 -0.007010
8.567138 0.861202 -0.007649
8.880960 0.861202 -0.008971
9.194784 0.861202 -0.013860
9.508606 0.861202 -0.006762
9.822430 0.861202 -0.014382
10.136253 0.861202 -0.005421
10.450075 0.861202 -0.015044
10.763899 0.861202 -0.021914
11.077723 0.861202 -0.009698
11.391544 0.861202 0.010223
11.705368 0.861202 0.023619
12.019190 0.861202 0.036850
12.333014 0.861202 -0.009119
12.646837 0.861202 -0.024834
12.960659 0.861202 -0.050464
13.274483 0.861202 0.015331
13.588306 0.861202 0.009856
13.902128 0.861202 -0.021074
14.215952 0.861202 0.027294
14.529776 0.861202 -0.068183
14.843597 0.861202 -0.285863
15.157421 0.861202 -0.197781
15.471243 0.861202 0.186654
15.785067 0.861202 0.554254
16.098890 0.861202 0.717408
16.412712 0.861202 0.582894
16.726536 0.861202 0.503587
17.040359 0.861202 0.905874
17.354181 0.861202 0.000000
17.668005 0.861202 0.000000
17.981829 0.861202 0.000000
18.295650 0.861202 0.000000
18.609474 0.861202 0.000000
18.923298 0.861202 0.000000
19.237120 0.861202 0.000000
-6.810190 0.547379 0.000000
-6.496367 0.547379 0.000421
-6.182544 0.547379 0.000236
-5.868721 0.547379 0.000180
-5.554898 0.547379 -0.000228
-5.241075 0.547379 -0.000407
-4.927252 0.547379 -0.000327
-4.613429 0.547379 -0.000184
-4.299606 0.547379 0.000137
-3.985783 0.547379 0.000273
-3.671960 0.547379 0.000131
-3.358137 0.547379 -0.000157
-3.044314 0.547379 -0.000194
-2.730491 0.547379 -0.000145
-2.416668 0.547379 -0.000238
-2.102845 0.547379 -0.000153
-1.789022 0.547379 0.000067
-1.475199 0.547379 -0.000006
-1.161376 0.547379 -0.000158
-0.847553 0.547379 -0.000449
-0.533730 0.547379 -0.000678
-0.219907 0.547379 -0.000462
0.093916 0.547379 -0.000082
0.407739 0.547379 -0.000085
0.721562 0.547379 -0.000384
1.035385 0.547379 -0.000732
1.349208 0.547379 -0.000362
1.663032 0.547379 -0.000302
1.976854 0.547379 -0.000440
2.290677 0.547379 -0.000442
2.604500 0.547379 -0.000755
2.918324 0.547379 -0.001112
3.232146 0.547379 -0.001104
3.545969 0.547379 -0.001037
3.859793 0.547379 -0.001074
4.173615 0.547379 -0.001281
4.487438 0.547379 -0.001740
4.801261 0.547379 -0.002417
5.115085 0.547379 -0.003076
5.428907 0.547379 -0.003323
5.742730 0.547379 -0.003131
6.056554 0.547379 -0.003135
6.370377 0.547379 -0.003568
6.684199 0.547379 -0.003987
6.998022 0.547379 -0.004730
7.311846 0.547379 -0.006439
7.625669 0.547379 -0.007477
7.939491 0.547379 -0.007726
8.253315 0.547379 -0.007972
8.567138 0.547379 -0.004095
8.880960 0.547379 -0.009074
9.194784 0.547379 -0.010452
9.508606 0.547379 -0.016411
9.822430 0.547379 -0.016224
10.136253 0.547379 -0.003876
10.450075 0.547379 -0.017008
10.763899 0.547379 -0.016070
11.077723 0.547379 -0.001201
11.391544 0.547379 0.018476
11.705368 0.547379 0.038454
12.019190 0.547379 0.030630
12.333014 0.547379 0.010957
12.646837 0.547379 -0.041221
12.960659 0.547379 -0.041207
13.274483 0.547379 -0.036320
13.588306 0.547379 -0.128016
13.902128 0.547379 -0.061927
14.215952 0.547379 -0.076326
14.529776 0.547379 -0.212404
14.843597 0.547379 -0.354721
15.157421 0.547379 -0.295598
15.471243 0.547379 0.223627
15.785067 0.547379 0.967708
16.098890 0.547379 1.461560
16.412712 0.547379 1.795245
16.726536 0.547379 0.908625
17.040359 0.547379 0.000000
17.354181 0.547379 0.000000
17.668005 0.547379 0.000000
17.981829 0.547379 0.000000
18.295650 0.547379 0.000000
18.609474 0.547379 0.000000
18.923298 0.547379 0.000000
19.237120 0.547379 0.000000
-6.810190 0.233559 0.000000
-6.496367 0.233559 0.000406
-6.182544 0.233559 0.000149
-5.868721 0.233559 0.000116
-5.554898 0.233559 -0.000179
-5.241075 0.233559 -0.000216
-4.927252 0.233559 -0.000223
-4.613429 0.233559 -0.000128
-4.299606 0.233559 0.000174
-3.985783 0.233559 0.000348
-3.671960 0.233559 0.000210
-3.358137 0.233559 -0.000111
-3.044314 0.233559 -0.000254
-2.730491 0.233559 -0.000151
-2.416668 0.233559 -0.000154
-2.102845 0.233559 -0.000048
-1.789022 0.233559 0.000063
-1.475199 0.233559 -0.000063
-1.161376 0.233559 -0.000176
-0.847553 0.233559 -0.000365
-0.533730 0.233559 -0.000540
-0.219907 0.233559 -0.000504
0.093916 0.233559 -0.000205
0.407739 0.233559 -0.000059
0.721562 0.233559 -0.000251
1.035385 0.233559 -0.000588
1.349208 0.233559 -0.000376
1.663032 0.233559 -0.000378
1.976854 0.233559 -0.000519
2.290677 0.233559 -0.000612
2.604500 0.233559 -0.001012
2.918324 0.233559 -0.001270
3.232146 0.233559 -0.001249
3.545969 0.233559 -0.001226
3.859793 0.233559 -0.001299
4.173615 0.233559 -0.001427
4.487438 0.233559 -0.001759
4.801261 0.233559 -0.002428
5.115085 0.233559 -0.003113
5.428907 0.233559 -0.003505
5.742730 0.233559 -0.003301
6.056554 0.233559 -0.003288
6.370377 0.233559 -0.003646
6.684199 0.233559 -0.004216
6.998022 0.233559 -0.004806
7.311846 0.233559 -0.006487
7.625669 0.233559 -0.006732
7.939491 0.233559 -0.007578
8.253315 0.233559 -0.008914
8.567138 0.233559 -0.003977
8.880960 0.233559 -0.007215
9.194784 0.233559 -0.011000
9.508606 0.233559 -0.018358
9.822430 0.233559 -0.012853
10.136253 0.233559 -0.008310
10.450075 0.233559 -0.011478
10.763899 0.233559 0.005595
11.077723 0.233559 -0.000581
11.391544 0.233559 0.023699
11.705368 0.233559 0.042527
12.019190 0.233559 0.043515
12.333014 0.233559 0.043023
12.646837 0.233559 0.008377
12.960659 0.233559 -0.019007
13.274483 0.233559 0.003267
13.588306 0.233559 -0.032803
13.902128 0.233559 -0.027148
14.215952 0.233559 -0.070774
14.529776 0.233559 -0.254680
14.843597 0.233559 -0.468158
15.157421 0.233559 -0.365536
15.471243 0.233559 0.226943
15.785067 0.233559 1.138391
16.098890 0.233559 2.074919
16.412712 0.233559 2.303451
16.726536 0.233559 0.502950
17.040359 0.233559 0.000000
17.354181 0.233559 0.000000
17.668005 0.233559 0.000000
17.981829 0.233559 0.000000
18.295650 0.233559 0.000000
18.609474 0.233559 0.000000
18.923298 0.233559 0.000000
19.237120 0.233559 0.000000
-6.810190 -0.080265 0.000000
-6.496367 -0.080265 0.000374
-6.182544 -0.080265 0.000113
-5.868721 -0.080265 0.000004
-5.554898 -0.080265 -0.000073
-5.241075 -0.080265 0.000063
-4.927252 -0.080265 0.000064
-4.613429 -0.080265 0.000118
-4.299606 -0.080265 0.000393
-3.985783 -0.080265 0.000533
-3.671960 -0.080265 0.000280
-3.358137 -0.080265 -0.000155
-3.044314 -0.080265 -0.000337
-2.730491 -0.080265 -0.000270
-2.416668 -0.080265 -0.000123
-2.102845 -0.080265 0.000015
-1.789022 -0.080265 0.000062
-1.475199 -0.080265 -0.000081
-1.161376 -0.080265 0.000008
-0.847553 -0.080265 0.000005
-0.533730 -0.080265 -0.000187
-0.219907 -0.080265 -0.000223
0.093916 -0.080265 -0.000058
0.407739 -0.080265 0.000131
0.721562 -0.080265 -0.000175
1.035385 -0.080265 -0.000498
1.349208 -0.080265 -0.000490
1.663032 -0.080265 -0.000655
1.976854 -0.080265 -0.000728
2.290677 -0.080265 -0.000881
2.604500 -0.080265 -0.001398
2.918324 -0.080265 -0.001473
3.232146 -0.080265 -0.001435
3.545969 -0.080265 -0.001422
3.859793 -0.080265 -0.001493
4.173615 -0.080265 -0.001676
4.487438 -0.080265 -0.001893
4.801261 -0.080265 -0.002417
5.115085 -0.080265 -0.003194
5.428907 -0.080265 -0.003777
5.742730 -0.080265 -0.003794
6.056554 -0.080265 -0.003806
6.370377 -0.080265 -0.003782
6.684199 -0.080265 -0.003923
6.998022 -0.080265 -0.004456
7.311846 -0.080265 -0.006315
7.625669 -0.080265 -0.006175
7.939491 -0.080265 -0.007423
8.253315 -0.080265 -0.007051
8.567138 -0.080265 -0.001428
8.880960 -0.080265 -0.003320
9.194784 -0.080265 -0.003049
9.508606 -0.080265 -0.004629
9.822430 -0.080265 0.009754
10.136253 -0.080265 0.006424
10.450075 -0.080265 0.003664
10.763899 -0.080265 0.016094
11.077723 -0.080265 0.031448
11.391544 -0.080265 0.010988
11.705368 -0.080265 0.051348
12.019190 -0.080265 0.061691
12.333014 -0.080265 0.138366
12.646837 -0.080265 0.090131
12.960659 -0.080265 0.050707
13.274483 -0.080265 0.022439
13.588306 -0.080265 0.059865
13.902128 -0.080265 0.010956
14.215952 -0.080265 -0.036425
14.529776 -0.080265 -0.243479
14.843597 -0.080265 -0.434487
15.157421 -0.080265 -0.379522
15.471243 -0.080265 0.275931
15.785067 -0.080265 1.181318
16.098890 -0.080265 2.197414
16.412712 -0.080265 1.899968
16.726536 -0.080265 0.000000
17.040359 -0.080265 0.000000
17.354181 -0.080265 0.000000
17.668005 -0.080265 0.000000
17.981829 -0.080265 0.000000
18.295650 -0.080265 0.000000
18.609474 -0.080265 0.000000
18.923298 -0.080265 0.000000
19.237120 -0.080265 0.000000
-6.810190 -0.394089 0.000000
-6.496367 -0.394089 0.000356
-6.182544 -0.394089 0.000366
-5.868721 -0.394089 0.000287
-5.554898 -0.394089 0.000302
-5.241075 -0.394089 0.000508
-4.927252 -0.394089 0.000518
-4.613429 -0.394089 0.000495
-4.299606 -0.394089 0.000672
-3.985783 -0.394089 0.000801
-3.671960 -0.394089 0.000536
-3.358137 -0.394089 0.000097
-3.044314 -0.394089 -0.000178
-2.730491 -0.394089 -0.000062
-2.416668 -0.394089 0.000225
-2.102845 -0.394089 0.000378
-1.789022 -0.394089 0.000344
-1.475199 -0.394089 0.000175
-1.161376 -0.394089 0.000342
-0.847553 -0.394089 0.000442
-0.533730 -0.394089 0.000207
-0.219907 -0.394089 0.000164
0.093916 -0.394089 0.000238
0.407739 -0.394089 0.000360
0.721562 -0.394089 0.000080
1.035385 -0.394089 -0.000215
1.349208 -0.394089 -0.000256
1.663032 -0.394089 -0.000553
1.976854 -0.394089 -0.000803
2.290677 -0.394089 -0.001028
2.604500 -0.394089 -0.001674
2.918324 -0.394089 -0.001788
3.232146 -0.394089 -0.001932
3.545969 -0.394089 -0.001836
3.859793 -0.394089 -0.001603
4.173615 -0.394089 -0.001743
4.487438 -0.394089 -0.001876
4.801261 -0.394089 -0.002227
5.115085 -0.394089 -0.002846
5.428907 -0.394089 -0.003854
5.742730 -0.394089 -0.004350
6.056554 -0.394089 -0.004232
6.370377 -0.394089 -0.004059
6.684199 -0.394089 -0.003645
6.998022 -0.394089 -0.004545
7.311846 -0.394089 -0.006579
7.625669 -0.394089 -0.005688
7.939491 -0.394089 -0.005831
8.253315 -0.394089 -0.005378
8.567138 -0.394089 0.000886
8.880960 -0.394089 0.001046
9.194784 -0.394089 0.014890
9.508606 -0.394089 0.022620
9.822430 -0.394089 0.028189
10.136253 -0.394089 0.031873
10.450075 -0.394089 0.007030
10.763899 -0.394089 0.050886
11.077723 -0.394089 0.067126
11.391544 -0.394089 0.069639
11.705368 -0.394089 0.080541
12.019190 -0.394089 0.125037
12.333014 -0.394089 0.129034
12.646837 -0.394089 0.102177
12.960659 -0.394089 0.148148
13.274483 -0.394089 0.080511
13.588306 -0.394089 0.114136
13.902128 -0.394089 -0.015820
14.215952 -0.394089 -0.079072
14.529776 -0.394089 -0.351825
14.843597 -0.394089 -0.486090
15.157421 -0.394089 -0.242615
15.471243 -0.394089 0.327943
15.785067 -0.394089 1.374279
16.098890 -0.394089 2.209295
16.412712 -0.394089 0.942262
16.726536 -0.394089 0.000000
17.040359 -0.394089 0.000000
17.354181 -0.394089 0.000000
17.668005 -0.394089 0.000000
17.981829 -0.394089 0.000000
18.295650 -0.394089 0.000000
18.609474 -0.394089 0.000000
18.923298 -0.394089 0.000000
19.237120 -0.394089 0.000000
-6.810190 -0.707912 0.000000
-6.496367 -0.707912 0.000421
-6.182544 -0.707912 0.000720
-5.868721 -0.707912 0.001073
-5.554898 -0.707912 0.001064
-5.241075 -0.707912 0.001121
-4.927252 -0.707912 0.001117
-4.613429 -0.707912 0.001100
-4.299606 -0.707912 0.001321
-3.985783 -0.707912 0.001545
-3.671960 -0.707912 0.001332
-3.358137 -0.707912 0.000950
-3.044314 -0.707912 0.000598
-2.730491 -0.707912 0.000565
-2.416668 -0.707912 0.000778
-2.102845 -0.707912 0.000839
-1.789022 -0.707912 0.000541
-1.475199 -0.707912 0.000294
-1.161376 -0.707912 0.000543
-0.847553 -0.707912 0.000665
-0.533730 -0.707912 0.000580
-0.219907 -0.707912 0.000719
0.093916 -0.707912 0.000941
0.407739 -0.707912 0.001193
0.721562 -0.707912 0.000864
1.035385 -0.707912 0.000494
1.349208 -0.707912 0.000396
1.663032 -0.707912 -0.000132
1.976854 -0.707912 -0.000922
2.290677 -0.707912 -0.001363
2.604500 -0.707912 -0.002080
2.918324 -0.707912 -0.002291
3.232146 -0.707912 -0.002527
3.545969 -0.707912 -0.002223
3.859793 -0.707912 -0.001533
4.173615 -0.707912 -0.001292
4.487438 -0.707912 -0.001381
4.801261 -0.707912 -0.001692
5.115085 -0.707912 -0.002257
5.428907 -0.707912 -0.003579
5.742730 -0.707912 -0.004895
6.056554 -0.707912 -0.004878
6.370377 -0.707912 -0.004624
6.684199 -0.707912 -0.004328
6.998022 -0.707912 -0.004728
7.311846 -0.707912 -0.006667
7.625669 -0.707912 -0.007022
7.939491 -0.707912 -0.005508
8.253315 -0.707912 -0.002327
8.567138 -0.707912 0.005111
8.880960 -0.707912 0.013508
9.194784 -0.707912 0.033710
9.508606 -0.707912 0.050082
9.822430 -0.707912 0.058096
10.136253 -0.707912 0.056630
10.450075 -0.707912 0.065105
10.763899 -0.707912 0.107890
11.077723 -0.707912 0.132751
11.391544 -0.707912 0.143628
11.705368 -0.707912 0.190899
12.019190 -0.707912 0.212239
12.333014 -0.707912 0.233306
12.646837 -0.707912 0.188049
12.960659 -0.707912 0.320388
13.274483 -0.707912 0.257509
13.588306 -0.707912 0.207668
13.902128 -0.707912 0.152216
14.215952 -0.707912 -0.030489
14.529776 -0.707912 -0.255576
14.843597 -0.707912 -0.418077
15.157421 -0.707912 -0.137021
15.471243 -0.707912 0.590872
15.785067 -0.707912 1.723814
16.098890 -0.707912 2.031437
16.412712 -0.707912 0.112987
16.726536 -0.707912 0.000000
17.040359 -0.707912 0.000000
17.354181 -0.707912 0.000000
17.668005 -0.707912 0.000000
17.981829 -0.707912 0.000000
18.295650 -0.707912 0.000000
18.609474 -0.707912 0.000000
18.923298 -0.707912 0.000000
19.237120 -0.707912 0.000000
-6.810190 -1.021736 0.000000
-6.496367 -1.021736 0.000000
-6.182544 -1.021736 0.000000
-5.868721 -1.021736 0.000000
-5.554898 -1.021736 0.000000
-5.241075 -1.021736 0.000000
-4.927252 -1.021736 0.000000
-4.613429 -1.021736 0.000000
-4.299606 -1.021736 0.000000
-3.985783 -1.021736 0.000000
-3.671960 -1.021736 0.000000
-3.358137 -1.021736 0.000000
-3.044314 -1.021736 0.000000
-2.730491 -1.021736 0.000000
-2.416668 -1.021736 0.000000
-2.102845 -1.021736 -0.001532
-1.789022 -1.021736 -0.002966
-1.475199 -1.021736 -0.004576
-1.161376 -1.021736 -0.004849
-0.847553 -1.021736 -0.005071
-0.533730 -1.021736 -0.004201
-0.219907 -1.021736 -0.004086
0.093916 -1.021736 -0.002393
0.407739 -1.021736 -0.001535
0.721562 -1.021736 -0.001429
1.035385 -1.021736 -0.001047
1.349208 -1.021736 -0.000425
1.663032 -1.021736 -0.000704
1.976854 -1.021736 -0.001452
2.290677 -1.021736 -0.001895
2.604500 -1.021736 -0.002196
2.918324 -1.021736 -0.002529
3.232146 -1.021736 -0.002711
3.545969 -1.021736 -0.002352
3.859793 -1.021736 -0.001416
4.173615 -1.021736 -0.000868
4.487438 -1.021736 -0.000850
4.801261 -1.021736 -0.001142
5.115085 -1.021736 -0.001863
5.428907 -1.021736 -0.003472
5.742730 -1.021736 -0.005442
6.056554 -1.021736 -0.005570
6.370377 -1.021736 -0.005206
6.684199 -1.021736 -0.004844
6.998022 -1.021736 -0.005356
7.311846 -1.021736 -0.007195
7.625669 -1.021736 -0.006346
7.939491 -1.021736 -0.001716
8.253315 -1.021736 0.002903
8.567138 -1.021736 0.007216
8.880960 -1.021736 0.021734
9.194784 -1.021736 0.045761
9.508606 -1.021736 0.068227
9.822430 -1.021736 0.077419
10.136253 -1.021736 0.084208
10.450075 -1.021736 0.102575
10.763899 -1.021736 0.149730
11.077723 -1.021736 0.210400
11.391544 -1.021736 0.233549
11.705368 -1.021736 0.336710
12.019190 -1.021736 0.347392
12.333014 -1.021736 0.308655
12.646837 -1.021736 0.315155
12.960659 -1.021736 0.439511
13.274483 -1.021736 0.391078
13.588306 -1.021736 0.434429
13.902128 -1.021736 0.355217
14.215952 -1.021736 0.228910
14.529776 -1.021736 -0.025436
14.843597 -1.021736 -0.079136
15.157421 -1.021736 0.197748
15.471243 -1.021736 0.815519
15.785067 -1.021736 1.893605
16.098890 -1.021736 1.618916
16.412712 -1.021736 0.000000
16.726536 -1.021736 0.000000
17.040359 -1.021736 0.000000
17.354181 -1.021736 0.000000
17.668005 -1.021736 0.000000
17.981829 -1.021736 0.000000
18.295650 -1.021736 0.000000
18.609474 -1.021736 0.000000
18.923298 -1.021736 0.000000
19.237120 -1.021736 0.000000
-6.810190 -1.335556 0.000000
-6.496367 -1.335556 0.000000
-6.182544 -1.335556 0.000000
-5.868721 -1.335556 0.000000
-5.554898 -1.335556 0.000000
-5.241075 -1.335556 0.000000
-4.927252 -1.335556 0.000000
-4.613429 -1.335556 0.000000
-4.299606 -1.335556 0.000000
-3.985783 -1.335556 0.000000
-3.671960 -1.335556 0.000000
-3.358137 -1.335556 0.000000
-3.044314 -1.335556 0.000000
-2.730491 -1.335556 0.000000
-2.416668 -1.335556 0.000000
-2.102845 -1.335556 0.000000
-1.789022 -1.335556 0.000000
-1.475199 -1.335556 0.000000
-1.161376 -1.335556 0.000000
-0.847553 -1.335556 0.000000
-0.533730 -1.335556 0.000000
-0.219907 -1.335556 0.000000
0.093916 -1.335556 0.000000
0.407739 -1.335556 0.000000
0.721562 -1.335556 0.000000
1.035385 -1.335556 0.000000
1.349208 -1.335556 0.000000
1.663032 -1.335556 0.000000
1.976854 -1.335556 0.000000
2.290677 -1.335556 0.000000
2.604500 -1.335556 0.000000
2.918324 -1.335556 0.000000
3.232146 -1.335556 0.000000
3.545969 -1.335556 0.000000
3.859793 -1.335556 0.000000
4.173615 -1.335556 0.000000
4.487438 -1.335556 0.000000
4.801261 -1.335556 0.000000
5.115085 -1.335556 0.000000
5.428907 -1.335556 0.000000
5.742730 -1.335556 0.000000
6.056554 -1.335556 0.000000
6.370377 -1.335556 0.000000
6.684199 -1.335556 0.000000
6.998022 -1.335556 0.000000
7.311846 -1.335556 0.000000
7.625669 -1.335556 0.000000
7.939491 -1.335556 0.000000
8.253315 -1.335556 -0.939474
8.567138 -1.335556 -0.872353
8.880960 -1.335556 -0.517763
9.194784 -1.335556 0.023369
9.508606 -1.335556 -0.080781
9.822430 -1.335556 -0.089970
10.136253 -1.335556 -0.042132
10.450075 -1.335556 -0.089537
10.763899 -1.335556 0.000272
11.077723 -1.335556 0.038083
11.391544 -1.335556 0.086410
11.705368 -1.335556 0.212275
12.019190 -1.335556 0.219872
12.333014 -1.335556 0.230269
12.646837 -1.335556 0.338257
12.960659 -1.335556 0.402604
13.274483 -1.335556 0.567195
13.588306 -1.335556 0.608884
13.902128 -1.335556 0.557532
14.215952 -1.335556 0.374787
14.529776 -1.335556 0.312518
14.843597 -1.335556 0.303223
15.157421 -1.335556 0.624047
15.471243 -1.335556 1.038595
15.785067 -1.335556 1.775607
16.098890 -1.335556 2.259273
16.412712 -1.335556 0.000000
16.726536 -1.335556 0.000000
17.040359 -1.335556 0.000000
17.354181 -1.335556 0.000000
17.668005 -1.335556 0.000000
17.981829 -1.335556 0.000000
18.295650 -1.335556 0.000000
18.609474 -1.335556 0.000000
18.923298 -1.335556 0.000000
19.237120 -1.335556 0.000000
-6.810190 -1.649380 0.000000
-6.496367 -1.649380 0.000000
-6.182544 -1.649380 0.000000
-5.868721 -1.649380 0.000000
-5.554898 -1.649380 0.000000
-5.241075 -1.649380 0.000000
-4.927252 -1.649380 0.000000
-4.613429 -1.649380 0.000000
-4.299606 -1.649380 0.000000
-3.985783 -1.649380 0.000000
-3.671960 -1.649380 0.000000
-3.358137 -1.649380 0.000000
-3.044314 -1.649380 0.000000
-2.730491 -1.649380 0.000000
-2.416668 -1.649380 0.000000
-2.102845 -1.649380 0.000000
-1.789022 -1.649380 0.000000
-1.475199 -1.649380 0.000000
-1.161376 -1.649380 0.000000
-0.847553 -1.649380 0.000000
-0.533730 -1.649380 0.000000
-0.219907 -1.649380 0.000000
0.093916 -1.649380 0.000000
0.407739 -1.649380 0.000000
0.721562 -1.649380 0.000000
1.035385 -1.649380 0.000000
1.349208 -1.649380 0.000000
1.663032 -1.649380 0.000000
1.976854 -1.649380 0.000000
2.290677 -1.649380 0.000000
2.604500 -1.649380 0.000000
2.918324 -1.649380 0.000000
3.232146 -1.649380 0.000000
3.545969 -1.649380 0.000000
3.859793 -1.649380 0.000000
4.173615 -1.649380 0.000000
4.487438 -1.649380 0.000000
4.801261 -1.649380 0.000000
5.115085 -1.649380 0.000000
5.428907 -1.649380 0.000000
5.742730 -1.649380 0.000000
6.056554 -1.649380 0.000000
6.370377 -1.649380 0.000000
6.684199 -1.649380 0.000000
6.998022 -1.649380 0.000000
7.311846 -1.649380 0.000000
7.625669 -1.649380 0.000000
7.939491 -1.649380 0.000000
8.253315 -1.649380 0.000000
8.567138 -1.649380 0.000000
8.880960 -1.649380 0.000000
9.194784 -1.649380 0.000000
9.508606 -1.649380 0.000000
9.822430 -1.649380 0.000000
10.136253 -1.649380 0.000000
10.450075 -1.649380 0.000000
10.763899 -1.649380 2.831491
11.077723 -1.649380 -0.052124
11.391544 -1.649380 3.821525
11.705368 -1.649380 5.734804
12.019190 -1.649380 3.433857
12.333014 -1.649380 0.625751
12.646837 -1.649380 0.538154
12.960659 -1.649380 1.082634
13.274483 -1.649380 1.141266
13.588306 -1.649380 0.749652
13.902128 -1.649380 0.547810
14.215952 -1.649380 0.283969
14.529776 -1.649380 0.355594
14.843597 -1.649380 0.196440
15.157421 -1.649380 0.423909
15.471243 -1.649380 0.879897
15.785067 -1.649380 1.033642
16.098890 -1.649380 -0.651508
16.412712 -1.649380 0.000000
16.726536 -1.649380 0.000000
17.040359 -1.649380 0.000000
17.354181 -1.649380 0.000000
17.668005 -1.649380 0.000000
17.981829 -1.649380 0.000000
18.295650 -1.649380 0.000000
18.609474 -1.649380 0.000000
18.923298 -1.649380 0.000000
19.237120 -1.649380 0.000000
-6.810190 -1.963203 0.000000
-6.496367 -1.963203 0.000000
-6.182544 -1.963203 0.000000
-5.868721 -1.963203 0.000000
-5.554898 -1.963203 0.000000
-5.241075 -1.963203 0.000000
-4.927252 -1.963203 0.000000
-4.613429 -1.963203 0.000000
-4.299606 -1.963203 0.000000
-3.985783 -1.963203 0.000000
-3.671960 -1.963203 0.000000
-3.358137 -1.963203 0.000000
-3.044314 -1.963203 0.000000
-2.730491 -1.963203 0.000000
-2.416668 -1.963203 0.000000
-2.102845 -1.963203 0.000000
-1.789022 -1.963203 0.000000
-1.475199 -1.963203 0.000000
-1.161376 -1.963203 0.000000
-0.847553 -1.963203 0.000000
-0.533730 -1.963203 0.000000
-0.219907 -1.963203 0.000000
0.093916 -1.963203 0.000000
0.407739 -1.963203 0.000000
0.721562 -1.963203 0.000000
1.035385 -1.963203 0.000000
1.349208 -1.963203 0.000000
1.663032 -1.963203 0.000000
1.976854 -1.963203 0.000000
2.290677 -1.963203 0.000000
2.604500 -1.963203 0.000000
2.918324 -1.963203 0.000000
3.232146 -1.963203 0.000000
3.545969 -1.963203 0.000000
3.859793 -1.963203 0.000000
4.173615 -1.963203 0.000000
4.487438 -1.963203 0.000000
4.801261 -1.963203 0.000000
5.115085 -1.963203 0.000000
5.428907 -1.963203 0.000000
5.742730 -1.963203 0.000000
6.056554 -1.963203 0.000000
6.370377 -1.963203 0.000000
6.684199 -1.963203 0.000000
6.998022 -1.963203 0.000000
7.311846 -1.963203 0.000000
7.625669 -1.963203 0.000000
7.939491 -1.963203 0.000000
8.253315 -1.963203 0.000000
8.567138 -1.963203 0.000000
8.880960 -1.963203 0.000000
9.194784 -1.963203 0.000000
9.508606 -1.963203 0.000000
9.822430 -1.963203 0.000000
10.136253 -1.963203 0.000000
10.450075 -1.963203 0.000000
10.763899 -1.963203 0.000000
11.077723 -1.963203 0.000000
11.391544 -1.963203 0.000000
11.705368 -1.963203 0.000000
12.019190 -1.963203 0.000000
12.333014 -1.963203 0.000000
12.646837 -1.963203 0.000000
12.960659 -1.963203 0.000000
13.274483 -1.963203 -0.202863
13.588306 -1.963203 4.170375
13.902128 -1.963203 4.950444
14.215952 -1.963203 3.785547
14.529776 -1.963203 -0.939943
14.843597 -1.963203 2.458384
15.157421 -1.963203 2.982799
15.471243 -1.963203 2.455792
15.785067 -1.963203 3.774067
16.098890 -1.963203 0.000000
16.412712 -1.963203 0.000000
16.726536 -1.963203 0.000000
17.040359 -1.963203 0.000000
17.354181 -1.963203 0.000000
17.668005 -1.963203 0.000000
17.981829 -1.963203 0.000000
18.295650 -1.963203 0.000000
18.609474 -1.963203 0.000000
18.923298 -1.963203 0.000000
19.237120 -1.963203 0.000000
-6.810190 -2.277027 0.000000
-6.496367 -2.277027 0.000000
-6.182544 -2.277027 0.000000
-5.868721 -2.277027 0.000000
-5.554898 -2.277027 0.000000
-5.241075 -2.277027 0.000000
-4.927252 -2.277027 0.000000
-4.613429 -2.277027 0.000000
-4.299606 -2.277027 0.000000
-3.985783 -2.277027 0.000000
-3.671960 -2.277027 0.000000
-3.358137 -2.277027 0.000000
-3.044314 -2.277027 0.000000
-2.730491 -2.277027 0.000000
-2.416668 -2.277027 0.000000
-2.102845 -2.277027 0.000000
-1.789022 -2.277027 0.000000
-1.475199 -2.277027 0.000000
-1.161376 -2.277027 0.000000
-0.847553 -2.277027 0.000000
-0.533730 -2.277027 0.000000
-0.219907 -2.277027 0.000000
0.093916 -2.277027 0.000000
0.407739 -2.277027 0.000000
0.721562 -2.277027 0.000000
1.035385 -2.277027 0.000000
1.349208 -2.277027 0.000000
1.663032 -2.277027 0.000000
1.976854 -2.277027 0.000000
2.290677 -2.277027 0.000000
2.604500 -2.277027 0.000000
2.918324 -2.277027 0.000000
3.232146 -2.277027 0.000000
3.545969 -2.277027 0.000000
3.859793 -2.277027 0.000000
4.173615 -2.277027 0.000000
4.487438 -2.277027 0.000000
4.801261 -2.277027 0.000000
5.115085 -2.277027 0.000000
5.428907 -2.277027 0.000000
5.742730 -2.277027 0.000000
6.056554 -2.277027 0.000000
6.370377 -2.277027 0.000000
6.684199 -2.277027 0.000000
6.998022 -2.277027 0.000000
7.311846 -2.277027 0.000000
7.625669 -2.277027 0.000000
7.939491 -2.277027 0.000000
8.253315 -2.277027 0.000000
8.567138 -2.277027 0.000000
8.880960 -2.277027 0.000000
9.194784 -2.277027 0.000000
9.508606 -2.277027 0.000000
9.822430 -2.277027 0.000000
10.136253 -2.277027 0.000000
10.450075 -2.277027 0.000000
10.763899 -2.277027 0.000000
11.077723 -2.277027 0.000000
11.391544 -2.277027 0.000000
11.705368 -2.277027 0.000000
12.019190 -2.277027 0.000000
12.333014 -2.277027 0.000000
12.646837 -2.277027 0.000000
12.960659 -2.277027 0.000000
13.274483 -2.277027 0.000000
13.588306 -2.277027 0.000000
13.902128 -2.277027 0.000000
14.215952 -2.277027 0.000000
14.529776 -2.277027 0.000000
14.843597 -2.277027 0.000000
15.157421 -2.277027 0.000000
15.471243 -2.277027 0.000000
15.785067 -2.277027 0.000000
16.098890 -2.277027 0.000000
16.412712 -2.277027 0.000000
16.726536 -2.277027 0.000000
17.040359 -2.277027 0.000000
17.354181 -2.277027 0.000000
17.668005 -2.277027 0.000000
17.981829 -2.277027 0.000000
18.295650 -2.277027 0.000000
18.609474 -2.277027 0.000000
18.923298 -2.277027 0.000000
19.237120 -2.277027 0.000000
