TITLE = "B00010"
VARIABLES = "x", "y", "Reynold stress XZ"
ZONE T="Frame 1" I=84, J=163, F=POINT
-6.810190 48.562302 0.000000
-6.496367 48.562302 0.000000
-6.182544 48.562302 0.000000
-5.868721 48.562302 0.000000
-5.554898 48.562302 0.000000
-5.241075 48.562302 0.000000
-4.927252 48.562302 0.000000
-4.613429 48.562302 0.000000
-4.299606 48.562302 0.000000
-3.985783 48.562302 0.000000
-3.671960 48.562302 0.000000
-3.358137 48.562302 0.000000
-3.044314 48.562302 0.000000
-2.730491 48.562302 0.000000
-2.416668 48.562302 0.000000
-2.102845 48.562302 0.000000
-1.789022 48.562302 0.000000
-1.475199 48.562302 0.000000
-1.161376 48.562302 0.000000
-0.847553 48.562302 0.000000
-0.533730 48.562302 0.000000
-0.219907 48.562302 0.000000
0.093916 48.562302 0.000000
0.407739 48.562302 0.000000
0.721562 48.562302 0.000000
1.035385 48.562302 0.000000
1.349208 48.562302 0.000000
1.663032 48.562302 0.000000
1.976854 48.562302 0.000000
2.290677 48.562302 0.000000
2.604500 48.562302 0.000000
2.918324 48.562302 0.000000
3.232146 48.562302 0.000000
3.545969 48.562302 0.000000
3.859793 48.562302 0.000000
4.173615 48.562302 0.000000
4.487438 48.562302 0.000000
4.801261 48.562302 0.000000
5.115085 48.562302 0.000000
5.428907 48.562302 0.000000
5.742730 48.562302 0.000000
6.056554 48.562302 0.000000
6.370377 48.562302 0.000000
6.684199 48.562302 0.000000
6.998022 48.562302 0.000000
7.311846 48.562302 0.000000
7.625669 48.562302 0.000000
7.939491 48.562302 0.000000
8.253315 48.562302 0.000000
8.567138 48.562302 0.000000
8.880960 48.562302 0.000000
9.194784 48.562302 0.000000
9.508606 48.562302 0.000000
9.822430 48.562302 0.000000
10.136253 48.562302 0.000000
10.450075 48.562302 0.000000
10.763899 48.562302 0.000000
11.077723 48.562302 0.000000
11.391544 48.562302 0.000000
11.705368 48.562302 0.000000
12.019190 48.562302 0.000000
12.333014 48.562302 0.000000
12.646837 48.562302 0.000000
12.960659 48.562302 0.000000
13.274483 48.562302 0.000000
13.588306 48.562302 0.000000
13.902128 48.562302 0.000000
14.215952 48.562302 0.000000
14.529776 48.562302 0.000000
14.843597 48.562302 0.000000
15.157421 48.562302 0.000000
15.471243 48.562302 0.000000
15.785067 48.562302 0.000000
16.098890 48.562302 0.000000
16.412712 48.562302 0.000000
16.726536 48.562302 0.000000
17.040359 48.562302 0.000000
17.354181 48.562302 0.000000
17.668005 48.562302 0.000000
17.981829 48.562302 0.000000
18.295650 48.562302 0.000000
18.609474 48.562302 0.000000
18.923298 48.562302 0.000000
19.237120 48.562302 0.000000
-6.810190 48.248478 0.000000
-6.496367 48.248478 0.000000
-6.182544 48.248478 0.000000
-5.868721 48.248478 0.000000
-5.554898 48.248478 0.000000
-5.241075 48.248478 0.000000
-4.927252 48.248478 0.000000
-4.613429 48.248478 0.000000
-4.299606 48.248478 0.000000
-3.985783 48.248478 0.000000
-3.671960 48.248478 0.000000
-3.358137 48.248478 0.000000
-3.044314 48.248478 0.000000
-2.730491 48.248478 0.000000
-2.416668 48.248478 0.000000
-2.102845 48.248478 0.000000
-1.789022 48.248478 0.000000
-1.475199 48.248478 0.000000
-1.161376 48.248478 0.000000
-0.847553 48.248478 0.000000
-0.533730 48.248478 0.000000
-0.219907 48.248478 0.000000
0.093916 48.248478 0.000000
0.407739 48.248478 0.000000
0.721562 48.248478 0.000000
1.035385 48.248478 0.000000
1.349208 48.248478 0.000000
1.663032 48.248478 0.000000
1.976854 48.248478 0.000000
2.290677 48.248478 0.000000
2.604500 48.248478 0.000000
2.918324 48.248478 0.000000
3.232146 48.248478 0.000000
3.545969 48.248478 0.000000
3.859793 48.248478 0.000000
4.173615 48.248478 0.000000
4.487438 48.248478 0.000000
4.801261 48.248478 0.000000
5.115085 48.248478 0.000000
5.428907 48.248478 0.000000
5.742730 48.248478 0.000000
6.056554 48.248478 0.000000
6.370377 48.248478 0.000000
6.684199 48.248478 0.000000
6.998022 48.248478 0.000000
7.311846 48.248478 0.000000
7.625669 48.248478 0.000000
7.939491 48.248478 0.000000
8.253315 48.248478 0.000000
8.567138 48.248478 0.000000
8.880960 48.248478 0.000000
9.194784 48.248478 0.000000
9.508606 48.248478 0.000000
9.822430 48.248478 0.000000
10.136253 48.248478 0.000000
10.450075 48.248478 0.000000
10.763899 48.248478 0.000000
11.077723 48.248478 0.000000
11.391544 48.248478 0.000000
11.705368 48.248478 0.000000
12.019190 48.248478 0.000000
12.333014 48.248478 0.000000
12.646837 48.248478 0.000000
12.960659 48.248478 0.000000
13.274483 48.248478 0.000000
13.588306 48.248478 0.000000
13.902128 48.248478 0.000000
14.215952 48.248478 0.000000
14.529776 48.248478 0.000000
14.843597 48.248478 0.000000
15.157421 48.248478 0.000000
15.471243 48.248478 0.000000
15.785067 48.248478 0.000000
16.098890 48.248478 0.000000
16.412712 48.248478 0.000000
16.726536 48.248478 0.000000
17.040359 48.248478 0.000000
17.354181 48.248478 0.000000
17.668005 48.248478 0.000000
17.981829 48.248478 0.000000
18.295650 48.248478 0.000000
18.609474 48.248478 0.000000
18.923298 48.248478 0.000000
19.237120 48.248478 0.000000
-6.810190 47.934654 0.000000
-6.496367 47.934654 0.000000
-6.182544 47.934654 0.000000
-5.868721 47.934654 0.000000
-5.554898 47.934654 0.000000
-5.241075 47.934654 0.000000
-4.927252 47.934654 0.000000
-4.613429 47.934654 0.000000
-4.299606 47.934654 0.000000
-3.985783 47.934654 0.000000
-3.671960 47.934654 0.000000
-3.358137 47.934654 0.000000
-3.044314 47.934654 0.000000
-2.730491 47.934654 0.000000
-2.416668 47.934654 0.000000
-2.102845 47.934654 0.000000
-1.789022 47.934654 0.000000
-1.475199 47.934654 0.000000
-1.161376 47.934654 0.000000
-0.847553 47.934654 0.000000
-0.533730 47.934654 0.000000
-0.219907 47.934654 0.000000
0.093916 47.934654 0.000000
0.407739 47.934654 0.000000
0.721562 47.934654 0.000000
1.035385 47.934654 0.000000
1.349208 47.934654 0.000000
1.663032 47.934654 0.000000
1.976854 47.934654 0.000000
2.290677 47.934654 0.000000
2.604500 47.934654 0.000000
2.918324 47.934654 0.000000
3.232146 47.934654 0.000000
3.545969 47.934654 0.000000
3.859793 47.934654 0.000000
4.173615 47.934654 0.000000
4.487438 47.934654 0.000000
4.801261 47.934654 0.000000
5.115085 47.934654 0.000000
5.428907 47.934654 0.000000
5.742730 47.934654 0.000000
6.056554 47.934654 0.000000
6.370377 47.934654 0.000000
6.684199 47.934654 0.000000
6.998022 47.934654 0.000000
7.311846 47.934654 0.000000
7.625669 47.934654 0.000000
7.939491 47.934654 0.000000
8.253315 47.934654 0.000000
8.567138 47.934654 0.000000
8.880960 47.934654 0.000000
9.194784 47.934654 0.000000
9.508606 47.934654 0.000000
9.822430 47.934654 0.000000
10.136253 47.934654 -1.948177
10.450075 47.934654 -0.918482
10.763899 47.934654 -0.680412
11.077723 47.934654 -0.213621
11.391544 47.934654 -1.169408
11.705368 47.934654 -1.134783
12.019190 47.934654 -0.519721
12.333014 47.934654 -0.360332
12.646837 47.934654 -0.382526
12.960659 47.934654 -0.003071
13.274483 47.934654 -0.172363
13.588306 47.934654 -0.311027
13.902128 47.934654 -0.216549
14.215952 47.934654 -0.224454
14.529776 47.934654 -0.167139
14.843597 47.934654 -0.165035
15.157421 47.934654 -0.177631
15.471243 47.934654 -0.107640
15.785067 47.934654 -0.093008
16.098890 47.934654 -0.103870
16.412712 47.934654 -0.092860
16.726536 47.934654 -0.086354
17.040359 47.934654 -0.054972
17.354181 47.934654 -0.048831
17.668005 47.934654 -0.038760
17.981829 47.934654 0.000349
18.295650 47.934654 0.027754
18.609474 47.934654 0.036511
18.923298 47.934654 0.099213
19.237120 47.934654 0.000000
-6.810190 47.620834 0.000000
-6.496367 47.620834 0.000000
-6.182544 47.620834 0.000899
-5.868721 47.620834 0.000933
-5.554898 47.620834 0.001256
-5.241075 47.620834 0.001564
-4.927252 47.620834 0.001528
-4.613429 47.620834 0.000935
-4.299606 47.620834 0.000327
-3.985783 47.620834 0.000535
-3.671960 47.620834 0.001309
-3.358137 47.620834 0.001311
-3.044314 47.620834 0.001083
-2.730491 47.620834 0.000746
-2.416668 47.620834 0.000883
-2.102845 47.620834 0.001276
-1.789022 47.620834 0.001238
-1.475199 47.620834 0.001295
-1.161376 47.620834 0.001018
-0.847553 47.620834 0.000412
-0.533730 47.620834 0.000244
-0.219907 47.620834 0.000318
0.093916 47.620834 -0.000088
0.407739 47.620834 -0.000246
0.721562 47.620834 0.000700
1.035385 47.620834 0.001087
1.349208 47.620834 0.000694
1.663032 47.620834 0.000600
1.976854 47.620834 0.000052
2.290677 47.620834 -0.000713
2.604500 47.620834 -0.000492
2.918324 47.620834 0.000741
3.232146 47.620834 0.000777
3.545969 47.620834 0.000183
3.859793 47.620834 -0.000016
4.173615 47.620834 0.000267
4.487438 47.620834 -0.000007
4.801261 47.620834 -0.000178
5.115085 47.620834 -0.000464
5.428907 47.620834 -0.000157
5.742730 47.620834 0.000049
6.056554 47.620834 0.000006
6.370377 47.620834 0.000580
6.684199 47.620834 -0.000239
6.998022 47.620834 -0.002306
7.311846 47.620834 -0.004003
7.625669 47.620834 -0.005024
7.939491 47.620834 -0.004299
8.253315 47.620834 -0.003097
8.567138 47.620834 -0.005503
8.880960 47.620834 -0.003695
9.194784 47.620834 -0.005238
9.508606 47.620834 -0.004536
9.822430 47.620834 -0.000635
10.136253 47.620834 -0.001622
10.450075 47.620834 0.002015
10.763899 47.620834 0.002563
11.077723 47.620834 0.001450
11.391544 47.620834 0.001217
11.705368 47.620834 -0.006495
12.019190 47.620834 -0.023613
12.333014 47.620834 -0.035006
12.646837 47.620834 -0.045444
12.960659 47.620834 -0.055230
13.274483 47.620834 -0.049892
13.588306 47.620834 -0.018493
13.902128 47.620834 -0.032723
14.215952 47.620834 -0.026134
14.529776 47.620834 -0.023921
14.843597 47.620834 -0.037124
15.157421 47.620834 -0.040279
15.471243 47.620834 -0.030471
15.785067 47.620834 -0.026969
16.098890 47.620834 -0.029779
16.412712 47.620834 -0.058506
16.726536 47.620834 -0.036743
17.040359 47.620834 -0.033335
17.354181 47.620834 -0.043595
17.668005 47.620834 -0.047712
17.981829 47.620834 -0.027904
18.295650 47.620834 -0.029310
18.609474 47.620834 -0.026121
18.923298 47.620834 -0.012436
19.237120 47.620834 0.000000
-6.810190 47.307011 0.000000
-6.496367 47.307011 0.000000
-6.182544 47.307011 0.000748
-5.868721 47.307011 0.000904
-5.554898 47.307011 0.000984
-5.241075 47.307011 0.001193
-4.927252 47.307011 0.001134
-4.613429 47.307011 0.000843
-4.299606 47.307011 0.000391
-3.985783 47.307011 0.000358
-3.671960 47.307011 0.000763
-3.358137 47.307011 0.000823
-3.044314 47.307011 0.000713
-2.730491 47.307011 0.000440
-2.416668 47.307011 0.000337
-2.102845 47.307011 0.000731
-1.789022 47.307011 0.000803
-1.475199 47.307011 0.000815
-1.161376 47.307011 0.000647
-0.847553 47.307011 0.000397
-0.533730 47.307011 0.000335
-0.219907 47.307011 0.000369
0.093916 47.307011 0.000034
0.407739 47.307011 -0.000339
0.721562 47.307011 0.000338
1.035385 47.307011 0.000688
1.349208 47.307011 0.000470
1.663032 47.307011 0.000248
1.976854 47.307011 -0.000059
2.290677 47.307011 -0.000640
2.604500 47.307011 -0.000520
2.918324 47.307011 0.000360
3.232146 47.307011 0.000338
3.545969 47.307011 -0.000016
3.859793 47.307011 -0.000098
4.173615 47.307011 -0.000041
4.487438 47.307011 -0.000087
4.801261 47.307011 -0.000252
5.115085 47.307011 -0.000600
5.428907 47.307011 -0.000399
5.742730 47.307011 -0.000207
6.056554 47.307011 -0.000222
6.370377 47.307011 0.000189
6.684199 47.307011 -0.000698
6.998022 47.307011 -0.002528
7.311846 47.307011 -0.003960
7.625669 47.307011 -0.004388
7.939491 47.307011 -0.004554
8.253315 47.307011 -0.004291
8.567138 47.307011 -0.005529
8.880960 47.307011 -0.005228
9.194784 47.307011 -0.004857
9.508606 47.307011 -0.004884
9.822430 47.307011 -0.004339
10.136253 47.307011 -0.000864
10.450075 47.307011 0.001820
10.763899 47.307011 0.001077
11.077723 47.307011 0.008246
11.391544 47.307011 0.000627
11.705368 47.307011 0.002916
12.019190 47.307011 -0.015919
12.333014 47.307011 -0.008675
12.646837 47.307011 -0.022496
12.960659 47.307011 -0.028495
13.274483 47.307011 -0.012303
13.588306 47.307011 -0.005925
13.902128 47.307011 -0.010800
14.215952 47.307011 -0.013761
14.529776 47.307011 -0.023569
14.843597 47.307011 -0.037005
15.157421 47.307011 -0.047112
15.471243 47.307011 -0.022412
15.785067 47.307011 -0.036345
16.098890 47.307011 -0.020405
16.412712 47.307011 -0.034743
16.726536 47.307011 -0.031588
17.040359 47.307011 -0.037577
17.354181 47.307011 -0.044093
17.668005 47.307011 -0.052181
17.981829 47.307011 -0.037694
18.295650 47.307011 -0.021437
18.609474 47.307011 -0.022565
18.923298 47.307011 -0.023258
19.237120 47.307011 0.000000
-6.810190 46.993187 0.000000
-6.496367 46.993187 0.000000
-6.182544 46.993187 0.001086
-5.868721 46.993187 0.000600
-5.554898 46.993187 0.000659
-5.241075 46.993187 0.000853
-4.927252 46.993187 0.000922
-4.613429 46.993187 0.000954
-4.299606 46.993187 0.000598
-3.985783 46.993187 0.000434
-3.671960 46.993187 0.000538
-3.358137 46.993187 0.000534
-3.044314 46.993187 0.000559
-2.730491 46.993187 0.000318
-2.416668 46.993187 0.000205
-2.102845 46.993187 0.000617
-1.789022 46.993187 0.000727
-1.475199 46.993187 0.000680
-1.161376 46.993187 0.000639
-0.847553 46.993187 0.000533
-0.533730 46.993187 0.000505
-0.219907 46.993187 0.000539
0.093916 46.993187 0.000230
0.407739 46.993187 -0.000216
0.721562 46.993187 0.000069
1.035385 46.993187 0.000338
1.349208 46.993187 0.000231
1.663032 46.993187 -0.000001
1.976854 46.993187 -0.000118
2.290677 46.993187 -0.000385
2.604500 46.993187 -0.000377
2.918324 46.993187 -0.000030
3.232146 46.993187 -0.000155
3.545969 46.993187 -0.000290
3.859793 46.993187 -0.000302
4.173615 46.993187 -0.000266
4.487438 46.993187 -0.000190
4.801261 46.993187 -0.000308
5.115085 46.993187 -0.000715
5.428907 46.993187 -0.000820
5.742730 46.993187 -0.000718
6.056554 46.993187 -0.000640
6.370377 46.993187 -0.000423
6.684199 46.993187 -0.001084
6.998022 46.993187 -0.002328
7.311846 46.993187 -0.003194
7.625669 46.993187 -0.003572
7.939491 46.993187 -0.003654
8.253315 46.993187 -0.004668
8.567138 46.993187 -0.005752
8.880960 46.993187 -0.004702
9.194784 46.993187 -0.005224
9.508606 46.993187 -0.004852
9.822430 46.993187 -0.004765
10.136253 46.993187 -0.004243
10.450075 46.993187 -0.002319
10.763899 46.993187 -0.010337
11.077723 46.993187 -0.008995
11.391544 46.993187 -0.011290
11.705368 46.993187 -0.016711
12.019190 46.993187 -0.020846
12.333014 46.993187 -0.023545
12.646837 46.993187 -0.017160
12.960659 46.993187 -0.020041
13.274483 46.993187 -0.010416
13.588306 46.993187 -0.016368
13.902128 46.993187 -0.020465
14.215952 46.993187 -0.020566
14.529776 46.993187 -0.038193
14.843597 46.993187 -0.056483
15.157421 46.993187 -0.056460
15.471243 46.993187 -0.027932
15.785067 46.993187 -0.036704
16.098890 46.993187 -0.025280
16.412712 46.993187 -0.026032
16.726536 46.993187 -0.029000
17.040359 46.993187 -0.038806
17.354181 46.993187 -0.051449
17.668005 46.993187 -0.044883
17.981829 46.993187 -0.024246
18.295650 46.993187 -0.010209
18.609474 46.993187 -0.016590
18.923298 46.993187 -0.026471
19.237120 46.993187 0.000000
-6.810190 46.679363 0.000000
-6.496367 46.679363 0.000000
-6.182544 46.679363 0.000927
-5.868721 46.679363 0.000476
-5.554898 46.679363 0.000491
-5.241075 46.679363 0.000723
-4.927252 46.679363 0.000885
-4.613429 46.679363 0.000965
-4.299606 46.679363 0.000621
-3.985783 46.679363 0.000466
-3.671960 46.679363 0.000464
-3.358137 46.679363 0.000419
-3.044314 46.679363 0.000502
-2.730491 46.679363 0.000358
-2.416668 46.679363 0.000273
-2.102845 46.679363 0.000697
-1.789022 46.679363 0.000745
-1.475199 46.679363 0.000644
-1.161376 46.679363 0.000717
-0.847553 46.679363 0.000593
-0.533730 46.679363 0.000565
-0.219907 46.679363 0.000728
0.093916 46.679363 0.000459
0.407739 46.679363 -0.000046
0.721562 46.679363 -0.000018
1.035385 46.679363 0.000178
1.349208 46.679363 0.000135
1.663032 46.679363 -0.000079
1.976854 46.679363 -0.000031
2.290677 46.679363 -0.000055
2.604500 46.679363 -0.000104
2.918324 46.679363 -0.000161
3.232146 46.679363 -0.000383
3.545969 46.679363 -0.000384
3.859793 46.679363 -0.000384
4.173615 46.679363 -0.000355
4.487438 46.679363 -0.000289
4.801261 46.679363 -0.000515
5.115085 46.679363 -0.000846
5.428907 46.679363 -0.001109
5.742730 46.679363 -0.001113
6.056554 46.679363 -0.001230
6.370377 46.679363 -0.000957
6.684199 46.679363 -0.001234
6.998022 46.679363 -0.002180
7.311846 46.679363 -0.002821
7.625669 46.679363 -0.002685
7.939491 46.679363 -0.002865
8.253315 46.679363 -0.004292
8.567138 46.679363 -0.006425
8.880960 46.679363 -0.005475
9.194784 46.679363 -0.003083
9.508606 46.679363 -0.005109
9.822430 46.679363 -0.004024
10.136253 46.679363 -0.006292
10.450075 46.679363 -0.008882
10.763899 46.679363 -0.008475
11.077723 46.679363 -0.021924
11.391544 46.679363 -0.024100
11.705368 46.679363 -0.024233
12.019190 46.679363 -0.015946
12.333014 46.679363 -0.013845
12.646837 46.679363 -0.023589
12.960659 46.679363 -0.030823
13.274483 46.679363 -0.018572
13.588306 46.679363 -0.020340
13.902128 46.679363 -0.014053
14.215952 46.679363 -0.030921
14.529776 46.679363 -0.041001
14.843597 46.679363 -0.055491
15.157421 46.679363 -0.053390
15.471243 46.679363 -0.043347
15.785067 46.679363 -0.041818
16.098890 46.679363 -0.034860
16.412712 46.679363 -0.031132
16.726536 46.679363 -0.036040
17.040359 46.679363 -0.043728
17.354181 46.679363 -0.046836
17.668005 46.679363 -0.035861
17.981829 46.679363 -0.009063
18.295650 46.679363 0.002625
18.609474 46.679363 -0.004376
18.923298 46.679363 -0.022014
19.237120 46.679363 0.000000
-6.810190 46.365540 0.000000
-6.496367 46.365540 0.000000
-6.182544 46.365540 0.000918
-5.868721 46.365540 0.000456
-5.554898 46.365540 0.000438
-5.241075 46.365540 0.000648
-4.927252 46.365540 0.000818
-4.613429 46.365540 0.000867
-4.299606 46.365540 0.000493
-3.985783 46.365540 0.000409
-3.671960 46.365540 0.000506
-3.358137 46.365540 0.000484
-3.044314 46.365540 0.000538
-2.730491 46.365540 0.000419
-2.416668 46.365540 0.000404
-2.102845 46.365540 0.000723
-1.789022 46.365540 0.000652
-1.475199 46.365540 0.000599
-1.161376 46.365540 0.000637
-0.847553 46.365540 0.000504
-0.533730 46.365540 0.000463
-0.219907 46.365540 0.000770
0.093916 46.365540 0.000648
0.407739 46.365540 0.000179
0.721562 46.365540 0.000019
1.035385 46.365540 -0.000010
1.349208 46.365540 0.000015
1.663032 46.365540 -0.000013
1.976854 46.365540 0.000183
2.290677 46.365540 0.000193
2.604500 46.365540 0.000093
2.918324 46.365540 -0.000125
3.232146 46.365540 -0.000344
3.545969 46.365540 -0.000383
3.859793 46.365540 -0.000325
4.173615 46.365540 -0.000316
4.487438 46.365540 -0.000353
4.801261 46.365540 -0.000731
5.115085 46.365540 -0.001066
5.428907 46.365540 -0.001339
5.742730 46.365540 -0.001476
6.056554 46.365540 -0.001559
6.370377 46.365540 -0.001306
6.684199 46.365540 -0.001337
6.998022 46.365540 -0.002119
7.311846 46.365540 -0.002472
7.625669 46.365540 -0.002811
7.939491 46.365540 -0.002891
8.253315 46.365540 -0.004497
8.567138 46.365540 -0.007139
8.880960 46.365540 -0.005070
9.194784 46.365540 -0.003331
9.508606 46.365540 -0.003213
9.822430 46.365540 -0.003422
10.136253 46.365540 -0.000635
10.450075 46.365540 -0.007112
10.763899 46.365540 -0.012993
11.077723 46.365540 -0.027599
11.391544 46.365540 -0.032881
11.705368 46.365540 -0.032625
12.019190 46.365540 -0.023017
12.333014 46.365540 -0.022356
12.646837 46.365540 -0.030750
12.960659 46.365540 -0.035353
13.274483 46.365540 -0.027479
13.588306 46.365540 -0.017094
13.902128 46.365540 -0.020258
14.215952 46.365540 -0.029917
14.529776 46.365540 -0.029381
14.843597 46.365540 -0.044647
15.157421 46.365540 -0.041856
15.471243 46.365540 -0.040715
15.785067 46.365540 -0.044531
16.098890 46.365540 -0.030401
16.412712 46.365540 -0.033630
16.726536 46.365540 -0.046397
17.040359 46.365540 -0.042417
17.354181 46.365540 -0.042083
17.668005 46.365540 -0.030403
17.981829 46.365540 -0.007480
18.295650 46.365540 0.012727
18.609474 46.365540 0.001228
18.923298 46.365540 -0.017391
19.237120 46.365540 0.000000
-6.810190 46.051716 0.000000
-6.496367 46.051716 0.000000
-6.182544 46.051716 0.000853
-5.868721 46.051716 0.000474
-5.554898 46.051716 0.000358
-5.241075 46.051716 0.000577
-4.927252 46.051716 0.000883
-4.613429 46.051716 0.000718
-4.299606 46.051716 0.000364
-3.985783 46.051716 0.000381
-3.671960 46.051716 0.000571
-3.358137 46.051716 0.000600
-3.044314 46.051716 0.000617
-2.730491 46.051716 0.000477
-2.416668 46.051716 0.000451
-2.102845 46.051716 0.000525
-1.789022 46.051716 0.000361
-1.475199 46.051716 0.000541
-1.161376 46.051716 0.000586
-0.847553 46.051716 0.000384
-0.533730 46.051716 0.000382
-0.219907 46.051716 0.000783
0.093916 46.051716 0.000808
0.407739 46.051716 0.000416
0.721562 46.051716 0.000159
1.035385 46.051716 -0.000143
1.349208 46.051716 -0.000170
1.663032 46.051716 -0.000007
1.976854 46.051716 0.000317
2.290677 46.051716 0.000323
2.604500 46.051716 0.000201
2.918324 46.051716 0.000061
3.232146 46.051716 -0.000201
3.545969 46.051716 -0.000216
3.859793 46.051716 -0.000248
4.173615 46.051716 -0.000222
4.487438 46.051716 -0.000409
4.801261 46.051716 -0.000964
5.115085 46.051716 -0.001225
5.428907 46.051716 -0.001404
5.742730 46.051716 -0.001709
6.056554 46.051716 -0.001870
6.370377 46.051716 -0.001556
6.684199 46.051716 -0.001579
6.998022 46.051716 -0.002126
7.311846 46.051716 -0.002393
7.625669 46.051716 -0.002997
7.939491 46.051716 -0.003684
8.253315 46.051716 -0.004932
8.567138 46.051716 -0.007114
8.880960 46.051716 -0.006400
9.194784 46.051716 -0.004924
9.508606 46.051716 -0.004695
9.822430 46.051716 -0.001157
10.136253 46.051716 0.001094
10.450075 46.051716 -0.007124
10.763899 46.051716 -0.016008
11.077723 46.051716 -0.023996
11.391544 46.051716 -0.036478
11.705368 46.051716 -0.034171
12.019190 46.051716 -0.028930
12.333014 46.051716 -0.020884
12.646837 46.051716 -0.027848
12.960659 46.051716 -0.033003
13.274483 46.051716 -0.032515
13.588306 46.051716 -0.016720
13.902128 46.051716 -0.011643
14.215952 46.051716 -0.021625
14.529776 46.051716 -0.035641
14.843597 46.051716 -0.030836
15.157421 46.051716 -0.037340
15.471243 46.051716 -0.044053
15.785067 46.051716 -0.038743
16.098890 46.051716 -0.033357
16.412712 46.051716 -0.026954
16.726536 46.051716 -0.031960
17.040359 46.051716 -0.039303
17.354181 46.051716 -0.042715
17.668005 46.051716 -0.027907
17.981829 46.051716 -0.006679
18.295650 46.051716 -0.001588
18.609474 46.051716 -0.002469
18.923298 46.051716 -0.027649
19.237120 46.051716 0.000000
-6.810190 45.737896 0.000000
-6.496367 45.737896 0.000000
-6.182544 45.737896 0.000848
-5.868721 45.737896 0.000379
-5.554898 45.737896 0.000195
-5.241075 45.737896 0.000414
-4.927252 45.737896 0.000882
-4.613429 45.737896 0.000683
-4.299606 45.737896 0.000362
-3.985783 45.737896 0.000420
-3.671960 45.737896 0.000649
-3.358137 45.737896 0.000725
-3.044314 45.737896 0.000703
-2.730491 45.737896 0.000504
-2.416668 45.737896 0.000394
-2.102845 45.737896 0.000221
-1.789022 45.737896 0.000136
-1.475199 45.737896 0.000525
-1.161376 45.737896 0.000537
-0.847553 45.737896 0.000322
-0.533730 45.737896 0.000325
-0.219907 45.737896 0.000679
0.093916 45.737896 0.000894
0.407739 45.737896 0.000587
0.721562 45.737896 0.000283
1.035385 45.737896 -0.000256
1.349208 45.737896 -0.000358
1.663032 45.737896 -0.000041
1.976854 45.737896 0.000231
2.290677 45.737896 0.000182
2.604500 45.737896 0.000115
2.918324 45.737896 0.000168
3.232146 45.737896 -0.000055
3.545969 45.737896 -0.000125
3.859793 45.737896 -0.000145
4.173615 45.737896 -0.000158
4.487438 45.737896 -0.000421
4.801261 45.737896 -0.000977
5.115085 45.737896 -0.001217
5.428907 45.737896 -0.001328
5.742730 45.737896 -0.001696
6.056554 45.737896 -0.001840
6.370377 45.737896 -0.001705
6.684199 45.737896 -0.001840
6.998022 45.737896 -0.002271
7.311846 45.737896 -0.002754
7.625669 45.737896 -0.003547
7.939491 45.737896 -0.004694
8.253315 45.737896 -0.005666
8.567138 45.737896 -0.005667
8.880960 45.737896 -0.006291
9.194784 45.737896 -0.007215
9.508606 45.737896 -0.006493
9.822430 45.737896 -0.004936
10.136253 45.737896 -0.002573
10.450075 45.737896 -0.002763
10.763899 45.737896 -0.011032
11.077723 45.737896 -0.015107
11.391544 45.737896 -0.019600
11.705368 45.737896 -0.029980
12.019190 45.737896 -0.027962
12.333014 45.737896 -0.024066
12.646837 45.737896 -0.022839
12.960659 45.737896 -0.034233
13.274483 45.737896 -0.028181
13.588306 45.737896 -0.012906
13.902128 45.737896 -0.004895
14.215952 45.737896 -0.023177
14.529776 45.737896 -0.028823
14.843597 45.737896 -0.030949
15.157421 45.737896 -0.026140
15.471243 45.737896 -0.036613
15.785067 45.737896 -0.031547
16.098890 45.737896 -0.031890
16.412712 45.737896 -0.031219
16.726536 45.737896 -0.026874
17.040359 45.737896 -0.045937
17.354181 45.737896 -0.053506
17.668005 45.737896 -0.041954
17.981829 45.737896 -0.016920
18.295650 45.737896 -0.017751
18.609474 45.737896 -0.010930
18.923298 45.737896 -0.022883
19.237120 45.737896 0.000000
-6.810190 45.424072 0.000000
-6.496367 45.424072 0.000000
-6.182544 45.424072 0.000828
-5.868721 45.424072 0.000305
-5.554898 45.424072 0.000071
-5.241075 45.424072 0.000243
-4.927252 45.424072 0.000793
-4.613429 45.424072 0.000662
-4.299606 45.424072 0.000409
-3.985783 45.424072 0.000492
-3.671960 45.424072 0.000716
-3.358137 45.424072 0.000859
-3.044314 45.424072 0.000754
-2.730491 45.424072 0.000530
-2.416668 45.424072 0.000285
-2.102845 45.424072 0.000098
-1.789022 45.424072 0.000162
-1.475199 45.424072 0.000604
-1.161376 45.424072 0.000565
-0.847553 45.424072 0.000300
-0.533730 45.424072 0.000276
-0.219907 45.424072 0.000496
0.093916 45.424072 0.000800
0.407739 45.424072 0.000681
0.721562 45.424072 0.000370
1.035385 45.424072 -0.000206
1.349208 45.424072 -0.000401
1.663032 45.424072 -0.000154
1.976854 45.424072 -0.000024
2.290677 45.424072 -0.000094
2.604500 45.424072 -0.000055
2.918324 45.424072 0.000084
3.232146 45.424072 -0.000045
3.545969 45.424072 -0.000135
3.859793 45.424072 -0.000091
4.173615 45.424072 -0.000087
4.487438 45.424072 -0.000309
4.801261 45.424072 -0.000807
5.115085 45.424072 -0.001053
5.428907 45.424072 -0.001132
5.742730 45.424072 -0.001675
6.056554 45.424072 -0.001887
6.370377 45.424072 -0.001811
6.684199 45.424072 -0.001936
6.998022 45.424072 -0.002435
7.311846 45.424072 -0.003081
7.625669 45.424072 -0.004083
7.939491 45.424072 -0.005089
8.253315 45.424072 -0.005607
8.567138 45.424072 -0.005355
8.880960 45.424072 -0.006208
9.194784 45.424072 -0.006819
9.508606 45.424072 -0.006523
9.822430 45.424072 0.000440
10.136253 45.424072 -0.004672
10.450075 45.424072 -0.004116
10.763899 45.424072 -0.012113
11.077723 45.424072 -0.012884
11.391544 45.424072 -0.011044
11.705368 45.424072 -0.016016
12.019190 45.424072 -0.024728
12.333014 45.424072 -0.026052
12.646837 45.424072 -0.029603
12.960659 45.424072 -0.024743
13.274483 45.424072 -0.016022
13.588306 45.424072 -0.018180
13.902128 45.424072 -0.011612
14.215952 45.424072 -0.026073
14.529776 45.424072 -0.037172
14.843597 45.424072 -0.031479
15.157421 45.424072 -0.036116
15.471243 45.424072 -0.022559
15.785067 45.424072 -0.026549
16.098890 45.424072 -0.027694
16.412712 45.424072 -0.036843
16.726536 45.424072 -0.032063
17.040359 45.424072 -0.042071
17.354181 45.424072 -0.060915
17.668005 45.424072 -0.043770
17.981829 45.424072 -0.022390
18.295650 45.424072 -0.022890
18.609474 45.424072 -0.013281
18.923298 45.424072 -0.002353
19.237120 45.424072 0.000000
-6.810190 45.110249 0.000000
-6.496367 45.110249 0.000000
-6.182544 45.110249 0.000870
-5.868721 45.110249 0.000338
-5.554898 45.110249 0.000071
-5.241075 45.110249 0.000186
-4.927252 45.110249 0.000615
-4.613429 45.110249 0.000683
-4.299606 45.110249 0.000527
-3.985783 45.110249 0.000560
-3.671960 45.110249 0.000730
-3.358137 45.110249 0.000880
-3.044314 45.110249 0.000760
-2.730491 45.110249 0.000579
-2.416668 45.110249 0.000238
-2.102845 45.110249 0.000134
-1.789022 45.110249 0.000290
-1.475199 45.110249 0.000638
-1.161376 45.110249 0.000570
-0.847553 45.110249 0.000328
-0.533730 45.110249 0.000193
-0.219907 45.110249 0.000271
0.093916 45.110249 0.000582
0.407739 45.110249 0.000614
0.721562 45.110249 0.000363
1.035385 45.110249 -0.000091
1.349208 45.110249 -0.000301
1.663032 45.110249 -0.000230
1.976854 45.110249 -0.000149
2.290677 45.110249 -0.000230
2.604500 45.110249 -0.000215
2.918324 45.110249 -0.000146
3.232146 45.110249 -0.000175
3.545969 45.110249 -0.000162
3.859793 45.110249 -0.000079
4.173615 45.110249 -0.000030
4.487438 45.110249 -0.000173
4.801261 45.110249 -0.000595
5.115085 45.110249 -0.000831
5.428907 45.110249 -0.000891
5.742730 45.110249 -0.001541
6.056554 45.110249 -0.001792
6.370377 45.110249 -0.001842
6.684199 45.110249 -0.001913
6.998022 45.110249 -0.002462
7.311846 45.110249 -0.003312
7.625669 45.110249 -0.004451
7.939491 45.110249 -0.005378
8.253315 45.110249 -0.005399
8.567138 45.110249 -0.006316
8.880960 45.110249 -0.006006
9.194784 45.110249 -0.007589
9.508606 45.110249 -0.006483
9.822430 45.110249 -0.000793
10.136253 45.110249 -0.000399
10.450075 45.110249 -0.001664
10.763899 45.110249 -0.010128
11.077723 45.110249 -0.020222
11.391544 45.110249 -0.016506
11.705368 45.110249 -0.018792
12.019190 45.110249 -0.025036
12.333014 45.110249 -0.032680
12.646837 45.110249 -0.024653
12.960659 45.110249 -0.020645
13.274483 45.110249 -0.011214
13.588306 45.110249 -0.013893
13.902128 45.110249 -0.017906
14.215952 45.110249 -0.032127
14.529776 45.110249 -0.039754
14.843597 45.110249 -0.033685
15.157421 45.110249 -0.034060
15.471243 45.110249 -0.022794
15.785067 45.110249 -0.024476
16.098890 45.110249 -0.031110
16.412712 45.110249 -0.038627
16.726536 45.110249 -0.046149
17.040359 45.110249 -0.045635
17.354181 45.110249 -0.056930
17.668005 45.110249 -0.046111
17.981829 45.110249 -0.030749
18.295650 45.110249 -0.024996
18.609474 45.110249 -0.022967
18.923298 45.110249 -0.005913
19.237120 45.110249 0.000000
-6.810190 44.796425 0.000000
-6.496367 44.796425 0.000000
-6.182544 44.796425 0.000922
-5.868721 44.796425 0.000501
-5.554898 44.796425 0.000250
-5.241075 44.796425 0.000216
-4.927252 44.796425 0.000547
-4.613429 44.796425 0.000715
-4.299606 44.796425 0.000590
-3.985783 44.796425 0.000610
-3.671960 44.796425 0.000669
-3.358137 44.796425 0.000774
-3.044314 44.796425 0.000695
-2.730491 44.796425 0.000614
-2.416668 44.796425 0.000256
-2.102845 44.796425 0.000193
-1.789022 44.796425 0.000364
-1.475199 44.796425 0.000607
-1.161376 44.796425 0.000604
-0.847553 44.796425 0.000321
-0.533730 44.796425 0.000172
-0.219907 44.796425 0.000097
0.093916 44.796425 0.000366
0.407739 44.796425 0.000408
0.721562 44.796425 0.000236
1.035385 44.796425 0.000006
1.349208 44.796425 -0.000126
1.663032 44.796425 -0.000200
1.976854 44.796425 -0.000151
2.290677 44.796425 -0.000146
2.604500 44.796425 -0.000186
2.918324 44.796425 -0.000209
3.232146 44.796425 -0.000199
3.545969 44.796425 -0.000211
3.859793 44.796425 -0.000147
4.173615 44.796425 -0.000094
4.487438 44.796425 -0.000122
4.801261 44.796425 -0.000403
5.115085 44.796425 -0.000569
5.428907 44.796425 -0.000728
5.742730 44.796425 -0.001177
6.056554 44.796425 -0.001573
6.370377 44.796425 -0.001548
6.684199 44.796425 -0.001906
6.998022 44.796425 -0.002421
7.311846 44.796425 -0.003630
7.625669 44.796425 -0.004594
7.939491 44.796425 -0.005274
8.253315 44.796425 -0.006294
8.567138 44.796425 -0.006001
8.880960 44.796425 -0.004695
9.194784 44.796425 -0.006532
9.508606 44.796425 -0.008011
9.822430 44.796425 -0.002845
10.136253 44.796425 0.000876
10.450075 44.796425 -0.000316
10.763899 44.796425 -0.012189
11.077723 44.796425 -0.025452
11.391544 44.796425 -0.019291
11.705368 44.796425 -0.018810
12.019190 44.796425 -0.030757
12.333014 44.796425 -0.029131
12.646837 44.796425 -0.021855
12.960659 44.796425 -0.016465
13.274483 44.796425 -0.003624
13.588306 44.796425 -0.010458
13.902128 44.796425 -0.018672
14.215952 44.796425 -0.030373
14.529776 44.796425 -0.036329
14.843597 44.796425 -0.030451
15.157421 44.796425 -0.018882
15.471243 44.796425 -0.021594
15.785067 44.796425 -0.027111
16.098890 44.796425 -0.032056
16.412712 44.796425 -0.036171
16.726536 44.796425 -0.039249
17.040359 44.796425 -0.044367
17.354181 44.796425 -0.046213
17.668005 44.796425 -0.042366
17.981829 44.796425 -0.030745
18.295650 44.796425 -0.016954
18.609474 44.796425 -0.011789
18.923298 44.796425 -0.017024
19.237120 44.796425 0.000000
-6.810190 44.482601 0.000000
-6.496367 44.482601 0.000000
-6.182544 44.482601 0.001049
-5.868721 44.482601 0.000627
-5.554898 44.482601 0.000429
-5.241075 44.482601 0.000348
-4.927252 44.482601 0.000576
-4.613429 44.482601 0.000715
-4.299606 44.482601 0.000562
-3.985783 44.482601 0.000496
-3.671960 44.482601 0.000519
-3.358137 44.482601 0.000594
-3.044314 44.482601 0.000570
-2.730491 44.482601 0.000605
-2.416668 44.482601 0.000346
-2.102845 44.482601 0.000279
-1.789022 44.482601 0.000458
-1.475199 44.482601 0.000616
-1.161376 44.482601 0.000626
-0.847553 44.482601 0.000393
-0.533730 44.482601 0.000164
-0.219907 44.482601 0.000130
0.093916 44.482601 0.000220
0.407739 44.482601 0.000218
0.721562 44.482601 0.000058
1.035385 44.482601 0.000044
1.349208 44.482601 -0.000015
1.663032 44.482601 -0.000101
1.976854 44.482601 0.000032
2.290677 44.482601 0.000083
2.604500 44.482601 0.000110
2.918324 44.482601 -0.000033
3.232146 44.482601 -0.000155
3.545969 44.482601 -0.000233
3.859793 44.482601 -0.000277
4.173615 44.482601 -0.000231
4.487438 44.482601 -0.000109
4.801261 44.482601 -0.000237
5.115085 44.482601 -0.000358
5.428907 44.482601 -0.000551
5.742730 44.482601 -0.000894
6.056554 44.482601 -0.001169
6.370377 44.482601 -0.001325
6.684199 44.482601 -0.001683
6.998022 44.482601 -0.002497
7.311846 44.482601 -0.003440
7.625669 44.482601 -0.004708
7.939491 44.482601 -0.005398
8.253315 44.482601 -0.005974
8.567138 44.482601 -0.005769
8.880960 44.482601 -0.005061
9.194784 44.482601 -0.006440
9.508606 44.482601 -0.008602
9.822430 44.482601 -0.003069
10.136253 44.482601 0.000971
10.450075 44.482601 -0.008327
10.763899 44.482601 -0.012185
11.077723 44.482601 -0.020343
11.391544 44.482601 -0.014896
11.705368 44.482601 -0.016790
12.019190 44.482601 -0.028351
12.333014 44.482601 -0.034922
12.646837 44.482601 -0.028741
12.960659 44.482601 -0.009460
13.274483 44.482601 -0.009487
13.588306 44.482601 -0.009088
13.902128 44.482601 -0.006501
14.215952 44.482601 -0.025021
14.529776 44.482601 -0.033659
14.843597 44.482601 -0.024970
15.157421 44.482601 -0.015858
15.471243 44.482601 -0.020539
15.785067 44.482601 -0.025592
16.098890 44.482601 -0.029069
16.412712 44.482601 -0.030617
16.726536 44.482601 -0.035978
17.040359 44.482601 -0.043227
17.354181 44.482601 -0.036372
17.668005 44.482601 -0.029881
17.981829 44.482601 -0.024567
18.295650 44.482601 -0.014506
18.609474 44.482601 -0.009070
18.923298 44.482601 -0.020668
19.237120 44.482601 0.000000
-6.810190 44.168777 0.000000
-6.496367 44.168777 0.000000
-6.182544 44.168777 0.001148
-5.868721 44.168777 0.000687
-5.554898 44.168777 0.000530
-5.241075 44.168777 0.000502
-4.927252 44.168777 0.000685
-4.613429 44.168777 0.000708
-4.299606 44.168777 0.000490
-3.985783 44.168777 0.000336
-3.671960 44.168777 0.000400
-3.358137 44.168777 0.000404
-3.044314 44.168777 0.000475
-2.730491 44.168777 0.000522
-2.416668 44.168777 0.000460
-2.102845 44.168777 0.000355
-1.789022 44.168777 0.000513
-1.475199 44.168777 0.000706
-1.161376 44.168777 0.000638
-0.847553 44.168777 0.000488
-0.533730 44.168777 0.000289
-0.219907 44.168777 0.000236
0.093916 44.168777 0.000205
0.407739 44.168777 0.000135
0.721562 44.168777 0.000015
1.035385 44.168777 0.000059
1.349208 44.168777 0.000066
1.663032 44.168777 0.000047
1.976854 44.168777 0.000173
2.290677 44.168777 0.000232
2.604500 44.168777 0.000290
2.918324 44.168777 0.000178
3.232146 44.168777 -0.000043
3.545969 44.168777 -0.000189
3.859793 44.168777 -0.000319
4.173615 44.168777 -0.000254
4.487438 44.168777 -0.000128
4.801261 44.168777 -0.000225
5.115085 44.168777 -0.000172
5.428907 44.168777 -0.000369
5.742730 44.168777 -0.000617
6.056554 44.168777 -0.000857
6.370377 44.168777 -0.001209
6.684199 44.168777 -0.001782
6.998022 44.168777 -0.002428
7.311846 44.168777 -0.003320
7.625669 44.168777 -0.004603
7.939491 44.168777 -0.005203
8.253315 44.168777 -0.006194
8.567138 44.168777 -0.006583
8.880960 44.168777 -0.006029
9.194784 44.168777 -0.007781
9.508606 44.168777 -0.007762
9.822430 44.168777 -0.006811
10.136253 44.168777 -0.005298
10.450075 44.168777 -0.005855
10.763899 44.168777 -0.012342
11.077723 44.168777 -0.017162
11.391544 44.168777 -0.009209
11.705368 44.168777 -0.015829
12.019190 44.168777 -0.026321
12.333014 44.168777 -0.028413
12.646837 44.168777 -0.032288
12.960659 44.168777 -0.025455
13.274483 44.168777 -0.012977
13.588306 44.168777 -0.014412
13.902128 44.168777 -0.014266
14.215952 44.168777 -0.017243
14.529776 44.168777 -0.021553
14.843597 44.168777 -0.019642
15.157421 44.168777 -0.017748
15.471243 44.168777 -0.019597
15.785067 44.168777 -0.022929
16.098890 44.168777 -0.023439
16.412712 44.168777 -0.019709
16.726536 44.168777 -0.039369
17.040359 44.168777 -0.047426
17.354181 44.168777 -0.031847
17.668005 44.168777 -0.024118
17.981829 44.168777 -0.013589
18.295650 44.168777 -0.009842
18.609474 44.168777 -0.017725
18.923298 44.168777 -0.030580
19.237120 44.168777 0.000000
-6.810190 43.854958 0.000000
-6.496367 43.854958 0.000000
-6.182544 43.854958 0.001147
-5.868721 43.854958 0.000661
-5.554898 43.854958 0.000545
-5.241075 43.854958 0.000564
-4.927252 43.854958 0.000743
-4.613429 43.854958 0.000727
-4.299606 43.854958 0.000462
-3.985783 43.854958 0.000339
-3.671960 43.854958 0.000357
-3.358137 43.854958 0.000361
-3.044314 43.854958 0.000526
-2.730491 43.854958 0.000588
-2.416668 43.854958 0.000498
-2.102845 43.854958 0.000325
-1.789022 43.854958 0.000504
-1.475199 43.854958 0.000736
-1.161376 43.854958 0.000609
-0.847553 43.854958 0.000592
-0.533730 43.854958 0.000486
-0.219907 43.854958 0.000402
0.093916 43.854958 0.000209
0.407739 43.854958 0.000082
0.721562 43.854958 0.000077
1.035385 43.854958 0.000094
1.349208 43.854958 0.000102
1.663032 43.854958 0.000126
1.976854 43.854958 0.000222
2.290677 43.854958 0.000221
2.604500 43.854958 0.000290
2.918324 43.854958 0.000243
3.232146 43.854958 0.000104
3.545969 43.854958 -0.000071
3.859793 43.854958 -0.000294
4.173615 43.854958 -0.000295
4.487438 43.854958 -0.000224
4.801261 43.854958 -0.000292
5.115085 43.854958 -0.000183
5.428907 43.854958 -0.000285
5.742730 43.854958 -0.000525
6.056554 43.854958 -0.000731
6.370377 43.854958 -0.001181
6.684199 43.854958 -0.001791
6.998022 43.854958 -0.002307
7.311846 43.854958 -0.003198
7.625669 43.854958 -0.004239
7.939491 43.854958 -0.005081
8.253315 43.854958 -0.006082
8.567138 43.854958 -0.006206
8.880960 43.854958 -0.007883
9.194784 43.854958 -0.007795
9.508606 43.854958 -0.005672
9.822430 43.854958 -0.006243
10.136253 43.854958 -0.004197
10.450075 43.854958 -0.002691
10.763899 43.854958 -0.006023
11.077723 43.854958 -0.015851
11.391544 43.854958 -0.014806
11.705368 43.854958 -0.018564
12.019190 43.854958 -0.025988
12.333014 43.854958 -0.022186
12.646837 43.854958 -0.024582
12.960659 43.854958 -0.014642
13.274483 43.854958 -0.014348
13.588306 43.854958 -0.012604
13.902128 43.854958 -0.022952
14.215952 43.854958 -0.013333
14.529776 43.854958 -0.022890
14.843597 43.854958 -0.015043
15.157421 43.854958 -0.018304
15.471243 43.854958 -0.023545
15.785067 43.854958 -0.025402
16.098890 43.854958 -0.020749
16.412712 43.854958 -0.020927
16.726536 43.854958 -0.030480
17.040359 43.854958 -0.039090
17.354181 43.854958 -0.031341
17.668005 43.854958 -0.025938
17.981829 43.854958 -0.016491
18.295650 43.854958 -0.008966
18.609474 43.854958 -0.006484
18.923298 43.854958 -0.013372
19.237120 43.854958 0.000000
-6.810190 43.541134 0.000000
-6.496367 43.541134 0.000000
-6.182544 43.541134 0.001024
-5.868721 43.541134 0.000640
-5.554898 43.541134 0.000501
-5.241075 43.541134 0.000496
-4.927252 43.541134 0.000731
-4.613429 43.541134 0.000710
-4.299606 43.541134 0.000492
-3.985783 43.541134 0.000507
-3.671960 43.541134 0.000448
-3.358137 43.541134 0.000459
-3.044314 43.541134 0.000667
-2.730491 43.541134 0.000641
-2.416668 43.541134 0.000532
-2.102845 43.541134 0.000370
-1.789022 43.541134 0.000507
-1.475199 43.541134 0.000760
-1.161376 43.541134 0.000619
-0.847553 43.541134 0.000684
-0.533730 43.541134 0.000615
-0.219907 43.541134 0.000440
0.093916 43.541134 0.000187
0.407739 43.541134 0.000088
0.721562 43.541134 0.000166
1.035385 43.541134 0.000144
1.349208 43.541134 0.000079
1.663032 43.541134 0.000085
1.976854 43.541134 0.000173
2.290677 43.541134 0.000209
2.604500 43.541134 0.000261
2.918324 43.541134 0.000216
3.232146 43.541134 0.000139
3.545969 43.541134 0.000021
3.859793 43.541134 -0.000260
4.173615 43.541134 -0.000450
4.487438 43.541134 -0.000501
4.801261 43.541134 -0.000502
5.115085 43.541134 -0.000382
5.428907 43.541134 -0.000430
5.742730 43.541134 -0.000704
6.056554 43.541134 -0.000890
6.370377 43.541134 -0.001228
6.684199 43.541134 -0.001672
6.998022 43.541134 -0.002027
7.311846 43.541134 -0.002755
7.625669 43.541134 -0.003787
7.939491 43.541134 -0.004670
8.253315 43.541134 -0.005838
8.567138 43.541134 -0.006968
8.880960 43.541134 -0.008039
9.194784 43.541134 -0.007783
9.508606 43.541134 -0.004553
9.822430 43.541134 -0.004020
10.136253 43.541134 -0.004837
10.450075 43.541134 -0.000573
10.763899 43.541134 -0.001806
11.077723 43.541134 -0.016979
11.391544 43.541134 -0.022235
11.705368 43.541134 -0.024909
12.019190 43.541134 -0.023469
12.333014 43.541134 -0.025010
12.646837 43.541134 -0.019375
12.960659 43.541134 -0.007852
13.274483 43.541134 -0.011561
13.588306 43.541134 -0.025594
13.902128 43.541134 -0.026409
14.215952 43.541134 -0.021797
14.529776 43.541134 -0.020434
14.843597 43.541134 -0.022372
15.157421 43.541134 -0.022464
15.471243 43.541134 -0.026059
15.785067 43.541134 -0.027984
16.098890 43.541134 -0.030784
16.412712 43.541134 -0.017596
16.726536 43.541134 -0.020262
17.040359 43.541134 -0.021580
17.354181 43.541134 -0.031484
17.668005 43.541134 -0.028717
17.981829 43.541134 -0.023054
18.295650 43.541134 -0.014976
18.609474 43.541134 -0.002390
18.923298 43.541134 0.004749
19.237120 43.541134 0.000000
-6.810190 43.227310 0.000000
-6.496367 43.227310 0.000000
-6.182544 43.227310 0.000952
-5.868721 43.227310 0.000610
-5.554898 43.227310 0.000412
-5.241075 43.227310 0.000359
-4.927252 43.227310 0.000602
-4.613429 43.227310 0.000590
-4.299606 43.227310 0.000459
-3.985783 43.227310 0.000589
-3.671960 43.227310 0.000576
-3.358137 43.227310 0.000583
-3.044314 43.227310 0.000795
-2.730491 43.227310 0.000725
-2.416668 43.227310 0.000585
-2.102845 43.227310 0.000482
-1.789022 43.227310 0.000525
-1.475199 43.227310 0.000708
-1.161376 43.227310 0.000662
-0.847553 43.227310 0.000662
-0.533730 43.227310 0.000548
-0.219907 43.227310 0.000357
0.093916 43.227310 0.000249
0.407739 43.227310 0.000156
0.721562 43.227310 0.000236
1.035385 43.227310 0.000147
1.349208 43.227310 0.000030
1.663032 43.227310 -0.000004
1.976854 43.227310 0.000067
2.290677 43.227310 0.000181
2.604500 43.227310 0.000292
2.918324 43.227310 0.000178
3.232146 43.227310 0.000094
3.545969 43.227310 -0.000016
3.859793 43.227310 -0.000271
4.173615 43.227310 -0.000619
4.487438 43.227310 -0.000787
4.801261 43.227310 -0.000772
5.115085 43.227310 -0.000667
5.428907 43.227310 -0.000616
5.742730 43.227310 -0.000709
6.056554 43.227310 -0.000937
6.370377 43.227310 -0.001129
6.684199 43.227310 -0.001482
6.998022 43.227310 -0.001752
7.311846 43.227310 -0.002290
7.625669 43.227310 -0.003161
7.939491 43.227310 -0.004185
8.253315 43.227310 -0.006062
8.567138 43.227310 -0.006688
8.880960 43.227310 -0.006964
9.194784 43.227310 -0.006052
9.508606 43.227310 -0.004789
9.822430 43.227310 -0.001162
10.136253 43.227310 0.000737
10.450075 43.227310 0.002746
10.763899 43.227310 -0.001440
11.077723 43.227310 -0.008141
11.391544 43.227310 -0.016250
11.705368 43.227310 -0.027375
12.019190 43.227310 -0.026601
12.333014 43.227310 -0.021739
12.646837 43.227310 -0.023619
12.960659 43.227310 -0.007558
13.274483 43.227310 -0.013007
13.588306 43.227310 -0.010896
13.902128 43.227310 -0.009149
14.215952 43.227310 -0.014933
14.529776 43.227310 -0.020216
14.843597 43.227310 -0.022625
15.157421 43.227310 -0.015285
15.471243 43.227310 -0.012815
15.785067 43.227310 -0.024749
16.098890 43.227310 -0.027840
16.412712 43.227310 -0.023489
16.726536 43.227310 -0.015686
17.040359 43.227310 -0.016615
17.354181 43.227310 -0.023616
17.668005 43.227310 -0.023119
17.981829 43.227310 -0.021472
18.295650 43.227310 -0.018492
18.609474 43.227310 -0.005801
18.923298 43.227310 0.001578
19.237120 43.227310 0.000000
-6.810190 42.913486 0.000000
-6.496367 42.913486 0.000000
-6.182544 42.913486 0.000994
-5.868721 42.913486 0.000616
-5.554898 42.913486 0.000504
-5.241075 42.913486 0.000334
-4.927252 42.913486 0.000491
-4.613429 42.913486 0.000563
-4.299606 42.913486 0.000482
-3.985783 42.913486 0.000557
-3.671960 42.913486 0.000530
-3.358137 42.913486 0.000522
-3.044314 42.913486 0.000694
-2.730491 42.913486 0.000645
-2.416668 42.913486 0.000591
-2.102845 42.913486 0.000570
-1.789022 42.913486 0.000482
-1.475199 42.913486 0.000564
-1.161376 42.913486 0.000630
-0.847553 42.913486 0.000502
-0.533730 42.913486 0.000311
-0.219907 42.913486 0.000241
0.093916 42.913486 0.000297
0.407739 42.913486 0.000348
0.721562 42.913486 0.000342
1.035385 42.913486 0.000147
1.349208 42.913486 -0.000068
1.663032 42.913486 -0.000159
1.976854 42.913486 -0.000001
2.290677 42.913486 0.000176
2.604500 42.913486 0.000293
2.918324 42.913486 0.000139
3.232146 42.913486 -0.000022
3.545969 42.913486 -0.000063
3.859793 42.913486 -0.000266
4.173615 42.913486 -0.000699
4.487438 42.913486 -0.000915
4.801261 42.913486 -0.000944
5.115085 42.913486 -0.000839
5.428907 42.913486 -0.000696
5.742730 42.913486 -0.000701
6.056554 42.913486 -0.000866
6.370377 42.913486 -0.001094
6.684199 42.913486 -0.001428
6.998022 42.913486 -0.001627
7.311846 42.913486 -0.002041
7.625669 42.913486 -0.003093
7.939491 42.913486 -0.003736
8.253315 42.913486 -0.006184
8.567138 42.913486 -0.006826
8.880960 42.913486 -0.006111
9.194784 42.913486 -0.004325
9.508606 42.913486 -0.002293
9.822430 42.913486 0.000111
10.136253 42.913486 0.004378
10.450075 42.913486 -0.002356
10.763899 42.913486 -0.007715
11.077723 42.913486 -0.010947
11.391544 42.913486 -0.019943
11.705368 42.913486 -0.027016
12.019190 42.913486 -0.028459
12.333014 42.913486 -0.034101
12.646837 42.913486 -0.025534
12.960659 42.913486 -0.009865
13.274483 42.913486 0.003037
13.588306 42.913486 0.000202
13.902128 42.913486 -0.007332
14.215952 42.913486 -0.022812
14.529776 42.913486 -0.031308
14.843597 42.913486 -0.022535
15.157421 42.913486 -0.017753
15.471243 42.913486 -0.006835
15.785067 42.913486 -0.019764
16.098890 42.913486 -0.020276
16.412712 42.913486 -0.020729
16.726536 42.913486 -0.015672
17.040359 42.913486 -0.019403
17.354181 42.913486 -0.015373
17.668005 42.913486 -0.015674
17.981829 42.913486 -0.015299
18.295650 42.913486 -0.020051
18.609474 42.913486 -0.010256
18.923298 42.913486 -0.004205
19.237120 42.913486 0.000000
-6.810190 42.599663 0.000000
-6.496367 42.599663 0.000000
-6.182544 42.599663 0.001146
-5.868721 42.599663 0.000731
-5.554898 42.599663 0.000661
-5.241075 42.599663 0.000422
-4.927252 42.599663 0.000488
-4.613429 42.599663 0.000585
-4.299606 42.599663 0.000561
-3.985783 42.599663 0.000528
-3.671960 42.599663 0.000450
-3.358137 42.599663 0.000350
-3.044314 42.599663 0.000375
-2.730491 42.599663 0.000413
-2.416668 42.599663 0.000521
-2.102845 42.599663 0.000577
-1.789022 42.599663 0.000422
-1.475199 42.599663 0.000432
-1.161376 42.599663 0.000479
-0.847553 42.599663 0.000253
-0.533730 42.599663 0.000094
-0.219907 42.599663 0.000136
0.093916 42.599663 0.000389
0.407739 42.599663 0.000469
0.721562 42.599663 0.000377
1.035385 42.599663 0.000135
1.349208 42.599663 -0.000188
1.663032 42.599663 -0.000257
1.976854 42.599663 -0.000037
2.290677 42.599663 0.000202
2.604500 42.599663 0.000331
2.918324 42.599663 0.000127
3.232146 42.599663 -0.000107
3.545969 42.599663 -0.000148
3.859793 42.599663 -0.000250
4.173615 42.599663 -0.000588
4.487438 42.599663 -0.000826
4.801261 42.599663 -0.000916
5.115085 42.599663 -0.000825
5.428907 42.599663 -0.000733
5.742730 42.599663 -0.000686
6.056554 42.599663 -0.000791
6.370377 42.599663 -0.001031
6.684199 42.599663 -0.001363
6.998022 42.599663 -0.001527
7.311846 42.599663 -0.002130
7.625669 42.599663 -0.002781
7.939491 42.599663 -0.003618
8.253315 42.599663 -0.005306
8.567138 42.599663 -0.005887
8.880960 42.599663 -0.006746
9.194784 42.599663 -0.004961
9.508606 42.599663 -0.002370
9.822430 42.599663 0.000336
10.136253 42.599663 0.000505
10.450075 42.599663 -0.003510
10.763899 42.599663 -0.012073
11.077723 42.599663 -0.012358
11.391544 42.599663 -0.020841
11.705368 42.599663 -0.023952
12.019190 42.599663 -0.031378
12.333014 42.599663 -0.030293
12.646837 42.599663 -0.026938
12.960659 42.599663 -0.006451
13.274483 42.599663 -0.000544
13.588306 42.599663 0.004530
13.902128 42.599663 0.001055
14.215952 42.599663 -0.020652
14.529776 42.599663 -0.022763
14.843597 42.599663 -0.025507
15.157421 42.599663 -0.022019
15.471243 42.599663 -0.015903
15.785067 42.599663 -0.013820
16.098890 42.599663 -0.023692
16.412712 42.599663 -0.023644
16.726536 42.599663 -0.018336
17.040359 42.599663 -0.014533
17.354181 42.599663 -0.019465
17.668005 42.599663 -0.016633
17.981829 42.599663 -0.019021
18.295650 42.599663 -0.023121
18.609474 42.599663 -0.007000
18.923298 42.599663 0.003252
19.237120 42.599663 0.000000
-6.810190 42.285843 0.000000
-6.496367 42.285843 0.000000
-6.182544 42.285843 0.001287
-5.868721 42.285843 0.000804
-5.554898 42.285843 0.000784
-5.241075 42.285843 0.000558
-4.927252 42.285843 0.000591
-4.613429 42.285843 0.000571
-4.299606 42.285843 0.000523
-3.985783 42.285843 0.000484
-3.671960 42.285843 0.000403
-3.358137 42.285843 0.000314
-3.044314 42.285843 0.000191
-2.730491 42.285843 0.000159
-2.416668 42.285843 0.000414
-2.102845 42.285843 0.000548
-1.789022 42.285843 0.000431
-1.475199 42.285843 0.000406
-1.161376 42.285843 0.000344
-0.847553 42.285843 0.000078
-0.533730 42.285843 0.000015
-0.219907 42.285843 0.000189
0.093916 42.285843 0.000470
0.407739 42.285843 0.000482
0.721562 42.285843 0.000388
1.035385 42.285843 0.000154
1.349208 42.285843 -0.000216
1.663032 42.285843 -0.000259
1.976854 42.285843 0.000005
2.290677 42.285843 0.000214
2.604500 42.285843 0.000360
2.918324 42.285843 0.000159
3.232146 42.285843 -0.000030
3.545969 42.285843 -0.000162
3.859793 42.285843 -0.000279
4.173615 42.285843 -0.000444
4.487438 42.285843 -0.000616
4.801261 42.285843 -0.000777
5.115085 42.285843 -0.000766
5.428907 42.285843 -0.000732
5.742730 42.285843 -0.000680
6.056554 42.285843 -0.000700
6.370377 42.285843 -0.001045
6.684199 42.285843 -0.001086
6.998022 42.285843 -0.001398
7.311846 42.285843 -0.002069
7.625669 42.285843 -0.003018
7.939491 42.285843 -0.003472
8.253315 42.285843 -0.004110
8.567138 42.285843 -0.004746
8.880960 42.285843 -0.005538
9.194784 42.285843 -0.004982
9.508606 42.285843 -0.003330
9.822430 42.285843 -0.000346
10.136253 42.285843 -0.000483
10.450075 42.285843 -0.004732
10.763899 42.285843 -0.014641
11.077723 42.285843 -0.014677
11.391544 42.285843 -0.007909
11.705368 42.285843 -0.008407
12.019190 42.285843 -0.020104
12.333014 42.285843 -0.025583
12.646837 42.285843 -0.027558
12.960659 42.285843 -0.005674
13.274483 42.285843 -0.003614
13.588306 42.285843 -0.002551
13.902128 42.285843 -0.007000
14.215952 42.285843 -0.019469
14.529776 42.285843 -0.028564
14.843597 42.285843 -0.033950
15.157421 42.285843 -0.020506
15.471243 42.285843 -0.019009
15.785067 42.285843 -0.023948
16.098890 42.285843 -0.016761
16.412712 42.285843 -0.013732
16.726536 42.285843 -0.022110
17.040359 42.285843 -0.016036
17.354181 42.285843 -0.015852
17.668005 42.285843 -0.018279
17.981829 42.285843 -0.022622
18.295650 42.285843 -0.019159
18.609474 42.285843 0.000791
18.923298 42.285843 0.009486
19.237120 42.285843 0.000000
-6.810190 41.972019 0.000000
-6.496367 41.972019 0.000000
-6.182544 41.972019 0.001276
-5.868721 41.972019 0.000795
-5.554898 41.972019 0.000802
-5.241075 41.972019 0.000643
-4.927252 41.972019 0.000631
-4.613429 41.972019 0.000453
-4.299606 41.972019 0.000332
-3.985783 41.972019 0.000422
-3.671960 41.972019 0.000431
-3.358137 41.972019 0.000423
-3.044314 41.972019 0.000173
-2.730491 41.972019 -0.000035
-2.416668 41.972019 0.000269
-2.102845 41.972019 0.000488
-1.789022 41.972019 0.000464
-1.475199 41.972019 0.000448
-1.161376 41.972019 0.000244
-0.847553 41.972019 0.000015
-0.533730 41.972019 0.000086
-0.219907 41.972019 0.000305
0.093916 41.972019 0.000530
0.407739 41.972019 0.000440
0.721562 41.972019 0.000367
1.035385 41.972019 0.000154
1.349208 41.972019 -0.000184
1.663032 41.972019 -0.000195
1.976854 41.972019 0.000059
2.290677 41.972019 0.000160
2.604500 41.972019 0.000231
2.918324 41.972019 0.000112
3.232146 41.972019 0.000056
3.545969 41.972019 -0.000104
3.859793 41.972019 -0.000311
4.173615 41.972019 -0.000308
4.487438 41.972019 -0.000424
4.801261 41.972019 -0.000600
5.115085 41.972019 -0.000610
5.428907 41.972019 -0.000663
5.742730 41.972019 -0.000717
6.056554 41.972019 -0.000720
6.370377 41.972019 -0.000920
6.684199 41.972019 -0.001168
6.998022 41.972019 -0.001606
7.311846 41.972019 -0.002194
7.625669 41.972019 -0.002926
7.939491 41.972019 -0.003381
8.253315 41.972019 -0.003572
8.567138 41.972019 -0.002700
8.880960 41.972019 -0.004057
9.194784 41.972019 -0.004961
9.508606 41.972019 -0.003855
9.822430 41.972019 -0.004603
10.136253 41.972019 -0.000222
10.450075 41.972019 0.000292
10.763899 41.972019 -0.005325
11.077723 41.972019 -0.008898
11.391544 41.972019 -0.001502
11.705368 41.972019 -0.005731
12.019190 41.972019 -0.015809
12.333014 41.972019 -0.018619
12.646837 41.972019 -0.029278
12.960659 41.972019 -0.007841
13.274483 41.972019 -0.002963
13.588306 41.972019 -0.007892
13.902128 41.972019 -0.013827
14.215952 41.972019 -0.018110
14.529776 41.972019 -0.039390
14.843597 41.972019 -0.032458
15.157421 41.972019 -0.010995
15.471243 41.972019 -0.004312
15.785067 41.972019 -0.013743
16.098890 41.972019 -0.007381
16.412712 41.972019 -0.009353
16.726536 41.972019 -0.019839
17.040359 41.972019 -0.006944
17.354181 41.972019 -0.012698
17.668005 41.972019 -0.019816
17.981829 41.972019 -0.021087
18.295650 41.972019 -0.010346
18.609474 41.972019 0.008218
18.923298 41.972019 0.016531
19.237120 41.972019 0.000000
-6.810190 41.658195 0.000000
-6.496367 41.658195 0.000000
-6.182544 41.658195 0.001189
-5.868721 41.658195 0.000690
-5.554898 41.658195 0.000667
-5.241075 41.658195 0.000626
-4.927252 41.658195 0.000739
-4.613429 41.658195 0.000451
-4.299606 41.658195 0.000258
-3.985783 41.658195 0.000531
-3.671960 41.658195 0.000627
-3.358137 41.658195 0.000587
-3.044314 41.658195 0.000235
-2.730491 41.658195 -0.000069
-2.416668 41.658195 0.000254
-2.102845 41.658195 0.000442
-1.789022 41.658195 0.000484
-1.475199 41.658195 0.000485
-1.161376 41.658195 0.000206
-0.847553 41.658195 0.000047
-0.533730 41.658195 0.000178
-0.219907 41.658195 0.000404
0.093916 41.658195 0.000576
0.407739 41.658195 0.000393
0.721562 41.658195 0.000294
1.035385 41.658195 0.000073
1.349208 41.658195 -0.000170
1.663032 41.658195 -0.000098
1.976854 41.658195 0.000060
2.290677 41.658195 0.000032
2.604500 41.658195 0.000020
2.918324 41.658195 0.000014
3.232146 41.658195 0.000063
3.545969 41.658195 -0.000088
3.859793 41.658195 -0.000293
4.173615 41.658195 -0.000262
4.487438 41.658195 -0.000359
4.801261 41.658195 -0.000486
5.115085 41.658195 -0.000488
5.428907 41.658195 -0.000652
5.742730 41.658195 -0.000742
6.056554 41.658195 -0.000741
6.370377 41.658195 -0.000842
6.684199 41.658195 -0.001249
6.998022 41.658195 -0.001710
7.311846 41.658195 -0.002081
7.625669 41.658195 -0.002756
7.939491 41.658195 -0.003456
8.253315 41.658195 -0.003655
8.567138 41.658195 -0.002955
8.880960 41.658195 -0.003986
9.194784 41.658195 -0.006534
9.508606 41.658195 -0.003956
9.822430 41.658195 -0.003828
10.136253 41.658195 0.003109
10.450075 41.658195 0.006005
10.763899 41.658195 -0.003638
11.077723 41.658195 -0.007188
11.391544 41.658195 -0.005694
11.705368 41.658195 -0.008088
12.019190 41.658195 -0.011987
12.333014 41.658195 -0.019272
12.646837 41.658195 -0.025075
12.960659 41.658195 -0.018422
13.274483 41.658195 0.005126
13.588306 41.658195 0.002843
13.902128 41.658195 -0.022950
14.215952 41.658195 -0.027532
14.529776 41.658195 -0.037817
14.843597 41.658195 -0.027438
15.157421 41.658195 -0.008742
15.471243 41.658195 -0.001391
15.785067 41.658195 -0.014658
16.098890 41.658195 -0.002573
16.412712 41.658195 -0.006471
16.726536 41.658195 -0.013126
17.040359 41.658195 -0.011174
17.354181 41.658195 -0.016396
17.668005 41.658195 -0.012381
17.981829 41.658195 -0.012733
18.295650 41.658195 -0.007462
18.609474 41.658195 0.007246
18.923298 41.658195 0.015246
19.237120 41.658195 0.000000
-6.810190 41.344372 0.000000
-6.496367 41.344372 0.000000
-6.182544 41.344372 0.000923
-5.868721 41.344372 0.000573
-5.554898 41.344372 0.000476
-5.241075 41.344372 0.000521
-4.927252 41.344372 0.000739
-4.613429 41.344372 0.000478
-4.299606 41.344372 0.000380
-3.985783 41.344372 0.000688
-3.671960 41.344372 0.000857
-3.358137 41.344372 0.000760
-3.044314 41.344372 0.000365
-2.730491 41.344372 -0.000001
-2.416668 41.344372 0.000242
-2.102845 41.344372 0.000420
-1.789022 41.344372 0.000519
-1.475199 41.344372 0.000513
-1.161376 41.344372 0.000248
-0.847553 41.344372 0.000175
-0.533730 41.344372 0.000297
-0.219907 41.344372 0.000431
0.093916 41.344372 0.000562
0.407739 41.344372 0.000350
0.721562 41.344372 0.000182
1.035385 41.344372 -0.000069
1.349208 41.344372 -0.000216
1.663032 41.344372 -0.000068
1.976854 41.344372 0.000032
2.290677 41.344372 -0.000082
2.604500 41.344372 -0.000086
2.918324 41.344372 -0.000004
3.232146 41.344372 0.000026
3.545969 41.344372 -0.000094
3.859793 41.344372 -0.000223
4.173615 41.344372 -0.000320
4.487438 41.344372 -0.000421
4.801261 41.344372 -0.000399
5.115085 41.344372 -0.000437
5.428907 41.344372 -0.000704
5.742730 41.344372 -0.000827
6.056554 41.344372 -0.000795
6.370377 41.344372 -0.000905
6.684199 41.344372 -0.001367
6.998022 41.344372 -0.001762
7.311846 41.344372 -0.001882
7.625669 41.344372 -0.002623
7.939491 41.344372 -0.003598
8.253315 41.344372 -0.004189
8.567138 41.344372 -0.003565
8.880960 41.344372 -0.003847
9.194784 41.344372 -0.003818
9.508606 41.344372 -0.001900
9.822430 41.344372 -0.002584
10.136253 41.344372 0.000971
10.450075 41.344372 0.001801
10.763899 41.344372 -0.002035
11.077723 41.344372 -0.011381
11.391544 41.344372 -0.009841
11.705368 41.344372 -0.007506
12.019190 41.344372 -0.015152
12.333014 41.344372 -0.017735
12.646837 41.344372 -0.017064
12.960659 41.344372 -0.009026
13.274483 41.344372 0.007739
13.588306 41.344372 -0.002263
13.902128 41.344372 -0.017421
14.215952 41.344372 -0.028268
14.529776 41.344372 -0.038853
14.843597 41.344372 -0.026910
15.157421 41.344372 -0.009728
15.471243 41.344372 -0.002516
15.785067 41.344372 -0.011390
16.098890 41.344372 0.006689
16.412712 41.344372 -0.003868
16.726536 41.344372 -0.014818
17.040359 41.344372 -0.010342
17.354181 41.344372 -0.013302
17.668005 41.344372 -0.009132
17.981829 41.344372 -0.004880
18.295650 41.344372 -0.002117
18.609474 41.344372 0.013286
18.923298 41.344372 0.019005
19.237120 41.344372 0.000000
-6.810190 41.030548 0.000000
-6.496367 41.030548 0.000000
-6.182544 41.030548 0.000813
-5.868721 41.030548 0.000558
-5.554898 41.030548 0.000545
-5.241075 41.030548 0.000386
-4.927252 41.030548 0.000600
-4.613429 41.030548 0.000506
-4.299606 41.030548 0.000477
-3.985783 41.030548 0.000739
-3.671960 41.030548 0.000892
-3.358137 41.030548 0.000776
-3.044314 41.030548 0.000534
-2.730491 41.030548 0.000171
-2.416668 41.030548 0.000229
-2.102845 41.030548 0.000402
-1.789022 41.030548 0.000468
-1.475199 41.030548 0.000399
-1.161376 41.030548 0.000235
-0.847553 41.030548 0.000198
-0.533730 41.030548 0.000365
-0.219907 41.030548 0.000510
0.093916 41.030548 0.000493
0.407739 41.030548 0.000284
0.721562 41.030548 0.000072
1.035385 41.030548 -0.000140
1.349208 41.030548 -0.000202
1.663032 41.030548 -0.000017
1.976854 41.030548 0.000076
2.290677 41.030548 -0.000091
2.604500 41.030548 -0.000071
2.918324 41.030548 -0.000036
3.232146 41.030548 -0.000112
3.545969 41.030548 -0.000169
3.859793 41.030548 -0.000272
4.173615 41.030548 -0.000455
4.487438 41.030548 -0.000517
4.801261 41.030548 -0.000382
5.115085 41.030548 -0.000423
5.428907 41.030548 -0.000733
5.742730 41.030548 -0.000878
6.056554 41.030548 -0.000846
6.370377 41.030548 -0.001095
6.684199 41.030548 -0.001584
6.998022 41.030548 -0.001689
7.311846 41.030548 -0.002073
7.625669 41.030548 -0.002508
7.939491 41.030548 -0.003546
8.253315 41.030548 -0.003792
8.567138 41.030548 -0.003725
8.880960 41.030548 -0.003675
9.194784 41.030548 -0.003260
9.508606 41.030548 -0.000794
9.822430 41.030548 -0.000158
10.136253 41.030548 -0.001159
10.450075 41.030548 0.001467
10.763899 41.030548 -0.003803
11.077723 41.030548 -0.014406
11.391544 41.030548 -0.009717
11.705368 41.030548 -0.007486
12.019190 41.030548 -0.016587
12.333014 41.030548 -0.022191
12.646837 41.030548 -0.008509
12.960659 41.030548 -0.001610
13.274483 41.030548 0.006626
13.588306 41.030548 0.001902
13.902128 41.030548 -0.014566
14.215952 41.030548 -0.033597
14.529776 41.030548 -0.034747
14.843597 41.030548 -0.028520
15.157421 41.030548 -0.011286
15.471243 41.030548 -0.007740
15.785067 41.030548 -0.000985
16.098890 41.030548 0.000165
16.412712 41.030548 0.003099
16.726536 41.030548 -0.013375
17.040359 41.030548 -0.008684
17.354181 41.030548 -0.009626
17.668005 41.030548 -0.011275
17.981829 41.030548 -0.004587
18.295650 41.030548 -0.009547
18.609474 41.030548 0.006227
18.923298 41.030548 0.002707
19.237120 41.030548 0.000000
-6.810190 40.716728 0.000000
-6.496367 40.716728 0.000000
-6.182544 40.716728 0.000817
-5.868721 40.716728 0.000662
-5.554898 40.716728 0.000716
-5.241075 40.716728 0.000419
-4.927252 40.716728 0.000512
-4.613429 40.716728 0.000589
-4.299606 40.716728 0.000592
-3.985783 40.716728 0.000740
-3.671960 40.716728 0.000750
-3.358137 40.716728 0.000629
-3.044314 40.716728 0.000502
-2.730491 40.716728 0.000241
-2.416668 40.716728 0.000213
-2.102845 40.716728 0.000337
-1.789022 40.716728 0.000355
-1.475199 40.716728 0.000231
-1.161376 40.716728 0.000177
-0.847553 40.716728 0.000171
-0.533730 40.716728 0.000319
-0.219907 40.716728 0.000527
0.093916 40.716728 0.000444
0.407739 40.716728 0.000224
0.721562 40.716728 0.000052
1.035385 40.716728 -0.000051
1.349208 40.716728 -0.000040
1.663032 40.716728 0.000120
1.976854 40.716728 0.000108
2.290677 40.716728 -0.000078
2.604500 40.716728 -0.000094
2.918324 40.716728 -0.000118
3.232146 40.716728 -0.000259
3.545969 40.716728 -0.000283
3.859793 40.716728 -0.000325
4.173615 40.716728 -0.000482
4.487438 40.716728 -0.000547
4.801261 40.716728 -0.000337
5.115085 40.716728 -0.000336
5.428907 40.716728 -0.000629
5.742730 40.716728 -0.000775
6.056554 40.716728 -0.000892
6.370377 40.716728 -0.001203
6.684199 40.716728 -0.001711
6.998022 40.716728 -0.001872
7.311846 40.716728 -0.002331
7.625669 40.716728 -0.002356
7.939491 40.716728 -0.003539
8.253315 40.716728 -0.004154
8.567138 40.716728 -0.005045
8.880960 40.716728 -0.004638
9.194784 40.716728 -0.005486
9.508606 40.716728 -0.001279
9.822430 40.716728 0.003411
10.136253 40.716728 -0.000825
10.450075 40.716728 -0.003826
10.763899 40.716728 -0.003399
11.077723 40.716728 -0.013981
11.391544 40.716728 -0.010861
11.705368 40.716728 -0.003490
12.019190 40.716728 -0.007558
12.333014 40.716728 -0.010127
12.646837 40.716728 -0.005686
12.960659 40.716728 0.005290
13.274483 40.716728 -0.010176
13.588306 40.716728 -0.004800
13.902128 40.716728 -0.020008
14.215952 40.716728 -0.027535
14.529776 40.716728 -0.025199
14.843597 40.716728 -0.015469
15.157421 40.716728 -0.018434
15.471243 40.716728 -0.024412
15.785067 40.716728 -0.014988
16.098890 40.716728 -0.002208
16.412712 40.716728 -0.001880
16.726536 40.716728 -0.011492
17.040359 40.716728 0.003833
17.354181 40.716728 -0.007442
17.668005 40.716728 -0.008884
17.981829 40.716728 -0.013130
18.295650 40.716728 -0.010686
18.609474 40.716728 -0.006939
18.923298 40.716728 -0.003848
19.237120 40.716728 0.000000
-6.810190 40.402905 0.000000
-6.496367 40.402905 0.000000
-6.182544 40.402905 0.000876
-5.868721 40.402905 0.000741
-5.554898 40.402905 0.000842
-5.241075 40.402905 0.000557
-4.927252 40.402905 0.000615
-4.613429 40.402905 0.000676
-4.299606 40.402905 0.000684
-3.985783 40.402905 0.000676
-3.671960 40.402905 0.000608
-3.358137 40.402905 0.000473
-3.044314 40.402905 0.000430
-2.730491 40.402905 0.000272
-2.416668 40.402905 0.000234
-2.102845 40.402905 0.000279
-1.789022 40.402905 0.000319
-1.475199 40.402905 0.000222
-1.161376 40.402905 0.000165
-0.847553 40.402905 0.000111
-0.533730 40.402905 0.000244
-0.219907 40.402905 0.000461
0.093916 40.402905 0.000324
0.407739 40.402905 0.000142
0.721562 40.402905 0.000064
1.035385 40.402905 0.000138
1.349208 40.402905 0.000203
1.663032 40.402905 0.000190
1.976854 40.402905 0.000093
2.290677 40.402905 -0.000100
2.604500 40.402905 -0.000103
2.918324 40.402905 -0.000209
3.232146 40.402905 -0.000396
3.545969 40.402905 -0.000450
3.859793 40.402905 -0.000466
4.173615 40.402905 -0.000464
4.487438 40.402905 -0.000524
4.801261 40.402905 -0.000313
5.115085 40.402905 -0.000274
5.428907 40.402905 -0.000491
5.742730 40.402905 -0.000674
6.056554 40.402905 -0.000936
6.370377 40.402905 -0.001395
6.684199 40.402905 -0.001759
6.998022 40.402905 -0.002098
7.311846 40.402905 -0.002642
7.625669 40.402905 -0.002866
7.939491 40.402905 -0.003621
8.253315 40.402905 -0.004483
8.567138 40.402905 -0.006009
8.880960 40.402905 -0.004863
9.194784 40.402905 -0.004889
9.508606 40.402905 -0.003675
9.822430 40.402905 -0.000734
10.136253 40.402905 -0.002776
10.450075 40.402905 -0.001080
10.763899 40.402905 -0.003815
11.077723 40.402905 -0.006807
11.391544 40.402905 -0.004446
11.705368 40.402905 -0.002528
12.019190 40.402905 -0.004441
12.333014 40.402905 -0.006152
12.646837 40.402905 -0.012895
12.960659 40.402905 -0.009932
13.274483 40.402905 -0.013174
13.588306 40.402905 -0.013182
13.902128 40.402905 -0.025560
14.215952 40.402905 -0.026019
14.529776 40.402905 -0.028458
14.843597 40.402905 -0.022376
15.157421 40.402905 -0.026034
15.471243 40.402905 -0.032503
15.785067 40.402905 -0.020369
16.098890 40.402905 -0.014235
16.412712 40.402905 -0.014150
16.726536 40.402905 -0.005362
17.040359 40.402905 0.000067
17.354181 40.402905 -0.002988
17.668005 40.402905 -0.011599
17.981829 40.402905 -0.014172
18.295650 40.402905 -0.007292
18.609474 40.402905 -0.001180
18.923298 40.402905 0.002645
19.237120 40.402905 0.000000
-6.810190 40.089081 0.000000
-6.496367 40.089081 0.000000
-6.182544 40.089081 0.000891
-5.868721 40.089081 0.000731
-5.554898 40.089081 0.000818
-5.241075 40.089081 0.000623
-4.927252 40.089081 0.000671
-4.613429 40.089081 0.000705
-4.299606 40.089081 0.000702
-3.985783 40.089081 0.000639
-3.671960 40.089081 0.000544
-3.358137 40.089081 0.000445
-3.044314 40.089081 0.000408
-2.730491 40.089081 0.000328
-2.416668 40.089081 0.000250
-2.102845 40.089081 0.000212
-1.789022 40.089081 0.000312
-1.475199 40.089081 0.000383
-1.161376 40.089081 0.000249
-0.847553 40.089081 0.000101
-0.533730 40.089081 0.000227
-0.219907 40.089081 0.000469
0.093916 40.089081 0.000253
0.407739 40.089081 0.000055
0.721562 40.089081 0.000136
1.035385 40.089081 0.000291
1.349208 40.089081 0.000331
1.663032 40.089081 0.000197
1.976854 40.089081 -0.000068
2.290677 40.089081 -0.000232
2.604500 40.089081 -0.000162
2.918324 40.089081 -0.000306
3.232146 40.089081 -0.000492
3.545969 40.089081 -0.000556
3.859793 40.089081 -0.000544
4.173615 40.089081 -0.000458
4.487438 40.089081 -0.000441
4.801261 40.089081 -0.000301
5.115085 40.089081 -0.000240
5.428907 40.089081 -0.000443
5.742730 40.089081 -0.000662
6.056554 40.089081 -0.001029
6.370377 40.089081 -0.001459
6.684199 40.089081 -0.001605
6.998022 40.089081 -0.002116
7.311846 40.089081 -0.002676
7.625669 40.089081 -0.003097
7.939491 40.089081 -0.003262
8.253315 40.089081 -0.004155
8.567138 40.089081 -0.004867
8.880960 40.089081 -0.005456
9.194784 40.089081 -0.005798
9.508606 40.089081 -0.004886
9.822430 40.089081 -0.000914
10.136253 40.089081 -0.002502
10.450075 40.089081 -0.002615
10.763899 40.089081 -0.001949
11.077723 40.089081 -0.003644
11.391544 40.089081 -0.001918
11.705368 40.089081 -0.004814
12.019190 40.089081 0.004990
12.333014 40.089081 -0.001160
12.646837 40.089081 -0.018226
12.960659 40.089081 -0.023774
13.274483 40.089081 -0.025525
13.588306 40.089081 -0.032006
13.902128 40.089081 -0.023801
14.215952 40.089081 -0.021206
14.529776 40.089081 -0.028938
14.843597 40.089081 -0.033536
15.157421 40.089081 -0.026570
15.471243 40.089081 -0.018728
15.785067 40.089081 -0.016321
16.098890 40.089081 -0.014286
16.412712 40.089081 -0.013952
16.726536 40.089081 -0.005860
17.040359 40.089081 -0.003245
17.354181 40.089081 -0.011156
17.668005 40.089081 -0.016318
17.981829 40.089081 -0.019944
18.295650 40.089081 -0.020358
18.609474 40.089081 0.001517
18.923298 40.089081 0.008345
19.237120 40.089081 0.000000
-6.810190 39.775257 0.000000
-6.496367 39.775257 0.000000
-6.182544 39.775257 0.000860
-5.868721 39.775257 0.000568
-5.554898 39.775257 0.000677
-5.241075 39.775257 0.000645
-4.927252 39.775257 0.000747
-4.613429 39.775257 0.000682
-4.299606 39.775257 0.000697
-3.985783 39.775257 0.000573
-3.671960 39.775257 0.000513
-3.358137 39.775257 0.000495
-3.044314 39.775257 0.000412
-2.730491 39.775257 0.000405
-2.416668 39.775257 0.000314
-2.102845 39.775257 0.000235
-1.789022 39.775257 0.000336
-1.475199 39.775257 0.000521
-1.161376 39.775257 0.000360
-0.847553 39.775257 0.000129
-0.533730 39.775257 0.000261
-0.219907 39.775257 0.000500
0.093916 39.775257 0.000234
0.407739 39.775257 0.000058
0.721562 39.775257 0.000214
1.035385 39.775257 0.000303
1.349208 39.775257 0.000289
1.663032 39.775257 0.000071
1.976854 39.775257 -0.000259
2.290677 39.775257 -0.000365
2.604500 39.775257 -0.000257
2.918324 39.775257 -0.000350
3.232146 39.775257 -0.000441
3.545969 39.775257 -0.000487
3.859793 39.775257 -0.000541
4.173615 39.775257 -0.000460
4.487438 39.775257 -0.000397
4.801261 39.775257 -0.000270
5.115085 39.775257 -0.000233
5.428907 39.775257 -0.000426
5.742730 39.775257 -0.000635
6.056554 39.775257 -0.001024
6.370377 39.775257 -0.001413
6.684199 39.775257 -0.001405
6.998022 39.775257 -0.002023
7.311846 39.775257 -0.002573
7.625669 39.775257 -0.002610
7.939491 39.775257 -0.002763
8.253315 39.775257 -0.003884
8.567138 39.775257 -0.005088
8.880960 39.775257 -0.005772
9.194784 39.775257 -0.005426
9.508606 39.775257 -0.006099
9.822430 39.775257 -0.003871
10.136253 39.775257 -0.003293
10.450075 39.775257 -0.001094
10.763899 39.775257 -0.005648
11.077723 39.775257 -0.005867
11.391544 39.775257 -0.000661
11.705368 39.775257 -0.010353
12.019190 39.775257 0.003261
12.333014 39.775257 -0.001184
12.646837 39.775257 -0.016874
12.960659 39.775257 -0.027520
13.274483 39.775257 -0.033004
13.588306 39.775257 -0.030941
13.902128 39.775257 -0.026330
14.215952 39.775257 -0.013961
14.529776 39.775257 -0.034397
14.843597 39.775257 -0.038630
15.157421 39.775257 -0.018028
15.471243 39.775257 -0.026719
15.785067 39.775257 -0.020817
16.098890 39.775257 -0.008330
16.412712 39.775257 -0.019311
16.726536 39.775257 -0.006931
17.040359 39.775257 -0.000510
17.354181 39.775257 -0.012653
17.668005 39.775257 -0.018041
17.981829 39.775257 -0.030395
18.295650 39.775257 -0.027181
18.609474 39.775257 -0.004660
18.923298 39.775257 0.010740
19.237120 39.775257 0.000000
-6.810190 39.461433 0.000000
-6.496367 39.461433 0.000000
-6.182544 39.461433 0.000730
-5.868721 39.461433 0.000334
-5.554898 39.461433 0.000403
-5.241075 39.461433 0.000633
-4.927252 39.461433 0.000826
-4.613429 39.461433 0.000712
-4.299606 39.461433 0.000584
-3.985783 39.461433 0.000435
-3.671960 39.461433 0.000492
-3.358137 39.461433 0.000518
-3.044314 39.461433 0.000348
-2.730491 39.461433 0.000410
-2.416668 39.461433 0.000407
-2.102845 39.461433 0.000315
-1.789022 39.461433 0.000385
-1.475199 39.461433 0.000611
-1.161376 39.461433 0.000461
-0.847553 39.461433 0.000220
-0.533730 39.461433 0.000311
-0.219907 39.461433 0.000495
0.093916 39.461433 0.000253
0.407739 39.461433 0.000100
0.721562 39.461433 0.000289
1.035385 39.461433 0.000250
1.349208 39.461433 0.000156
1.663032 39.461433 -0.000081
1.976854 39.461433 -0.000314
2.290677 39.461433 -0.000384
2.604500 39.461433 -0.000273
2.918324 39.461433 -0.000260
3.232146 39.461433 -0.000318
3.545969 39.461433 -0.000297
3.859793 39.461433 -0.000428
4.173615 39.461433 -0.000537
4.487438 39.461433 -0.000397
4.801261 39.461433 -0.000307
5.115085 39.461433 -0.000301
5.428907 39.461433 -0.000438
5.742730 39.461433 -0.000641
6.056554 39.461433 -0.001035
6.370377 39.461433 -0.001258
6.684199 39.461433 -0.001175
6.998022 39.461433 -0.001731
7.311846 39.461433 -0.002309
7.625669 39.461433 -0.002481
7.939491 39.461433 -0.002720
8.253315 39.461433 -0.003977
8.567138 39.461433 -0.005262
8.880960 39.461433 -0.004823
9.194784 39.461433 -0.005005
9.508606 39.461433 -0.003725
9.822430 39.461433 -0.002443
10.136253 39.461433 -0.003550
10.450075 39.461433 -0.001482
10.763899 39.461433 -0.008705
11.077723 39.461433 -0.005706
11.391544 39.461433 -0.006219
11.705368 39.461433 -0.009348
12.019190 39.461433 -0.007303
12.333014 39.461433 0.002973
12.646837 39.461433 -0.005849
12.960659 39.461433 -0.012556
13.274483 39.461433 -0.019571
13.588306 39.461433 -0.024872
13.902128 39.461433 -0.005624
14.215952 39.461433 -0.003369
14.529776 39.461433 -0.019612
14.843597 39.461433 -0.026956
15.157421 39.461433 -0.011728
15.471243 39.461433 -0.024990
15.785067 39.461433 -0.021483
16.098890 39.461433 -0.015086
16.412712 39.461433 -0.020741
16.726536 39.461433 -0.006652
17.040359 39.461433 0.008619
17.354181 39.461433 -0.003475
17.668005 39.461433 -0.014456
17.981829 39.461433 -0.026545
18.295650 39.461433 -0.032714
18.609474 39.461433 -0.020789
18.923298 39.461433 0.003077
19.237120 39.461433 0.000000
-6.810190 39.147614 0.000000
-6.496367 39.147614 0.000000
-6.182544 39.147614 0.000478
-5.868721 39.147614 0.000157
-5.554898 39.147614 0.000236
-5.241075 39.147614 0.000518
-4.927252 39.147614 0.000821
-4.613429 39.147614 0.000698
-4.299606 39.147614 0.000422
-3.985783 39.147614 0.000311
-3.671960 39.147614 0.000473
-3.358137 39.147614 0.000524
-3.044314 39.147614 0.000370
-2.730491 39.147614 0.000418
-2.416668 39.147614 0.000429
-2.102845 39.147614 0.000335
-1.789022 39.147614 0.000437
-1.475199 39.147614 0.000687
-1.161376 39.147614 0.000566
-0.847553 39.147614 0.000288
-0.533730 39.147614 0.000324
-0.219907 39.147614 0.000489
0.093916 39.147614 0.000281
0.407739 39.147614 0.000216
0.721562 39.147614 0.000309
1.035385 39.147614 0.000172
1.349208 39.147614 0.000002
1.663032 39.147614 -0.000117
1.976854 39.147614 -0.000207
2.290677 39.147614 -0.000256
2.604500 39.147614 -0.000225
2.918324 39.147614 -0.000225
3.232146 39.147614 -0.000234
3.545969 39.147614 -0.000136
3.859793 39.147614 -0.000290
4.173615 39.147614 -0.000545
4.487438 39.147614 -0.000408
4.801261 39.147614 -0.000313
5.115085 39.147614 -0.000360
5.428907 39.147614 -0.000470
5.742730 39.147614 -0.000645
6.056554 39.147614 -0.000809
6.370377 39.147614 -0.000922
6.684199 39.147614 -0.001063
6.998022 39.147614 -0.001480
7.311846 39.147614 -0.001945
7.625669 39.147614 -0.002358
7.939491 39.147614 -0.002999
8.253315 39.147614 -0.004267
8.567138 39.147614 -0.006164
8.880960 39.147614 -0.004247
9.194784 39.147614 -0.004129
9.508606 39.147614 -0.003375
9.822430 39.147614 -0.000848
10.136253 39.147614 -0.001316
10.450075 39.147614 -0.003826
10.763899 39.147614 -0.011445
11.077723 39.147614 -0.010190
11.391544 39.147614 -0.012806
11.705368 39.147614 -0.019272
12.019190 39.147614 -0.013919
12.333014 39.147614 0.003494
12.646837 39.147614 0.006338
12.960659 39.147614 -0.008738
13.274483 39.147614 -0.016028
13.588306 39.147614 -0.013943
13.902128 39.147614 -0.006462
14.215952 39.147614 0.013341
14.529776 39.147614 -0.006363
14.843597 39.147614 -0.012269
15.157421 39.147614 -0.005692
15.471243 39.147614 0.000394
15.785067 39.147614 -0.002900
16.098890 39.147614 -0.009621
16.412712 39.147614 -0.018892
16.726536 39.147614 -0.002148
17.040359 39.147614 0.011960
17.354181 39.147614 0.002419
17.668005 39.147614 -0.010446
17.981829 39.147614 -0.021390
18.295650 39.147614 -0.030414
18.609474 39.147614 -0.010764
18.923298 39.147614 0.008277
19.237120 39.147614 0.000000
-6.810190 38.833786 0.000000
-6.496367 38.833786 0.000000
-6.182544 38.833786 0.000255
-5.868721 38.833786 0.000133
-5.554898 38.833786 0.000223
-5.241075 38.833786 0.000354
-4.927252 38.833786 0.000617
-4.613429 38.833786 0.000569
-4.299606 38.833786 0.000356
-3.985783 38.833786 0.000287
-3.671960 38.833786 0.000468
-3.358137 38.833786 0.000452
-3.044314 38.833786 0.000402
-2.730491 38.833786 0.000451
-2.416668 38.833786 0.000448
-2.102845 38.833786 0.000318
-1.789022 38.833786 0.000436
-1.475199 38.833786 0.000587
-1.161376 38.833786 0.000488
-0.847553 38.833786 0.000278
-0.533730 38.833786 0.000317
-0.219907 38.833786 0.000472
0.093916 38.833786 0.000299
0.407739 38.833786 0.000220
0.721562 38.833786 0.000249
1.035385 38.833786 0.000107
1.349208 38.833786 -0.000127
1.663032 38.833786 -0.000062
1.976854 38.833786 -0.000056
2.290677 38.833786 -0.000085
2.604500 38.833786 -0.000113
2.918324 38.833786 -0.000232
3.232146 38.833786 -0.000206
3.545969 38.833786 -0.000083
3.859793 38.833786 -0.000233
4.173615 38.833786 -0.000433
4.487438 38.833786 -0.000364
4.801261 38.833786 -0.000353
5.115085 38.833786 -0.000373
5.428907 38.833786 -0.000491
5.742730 38.833786 -0.000580
6.056554 38.833786 -0.000619
6.370377 38.833786 -0.000764
6.684199 38.833786 -0.001033
6.998022 38.833786 -0.001640
7.311846 38.833786 -0.001851
7.625669 38.833786 -0.002201
7.939491 38.833786 -0.003142
8.253315 38.833786 -0.004242
8.567138 38.833786 -0.005191
8.880960 38.833786 -0.004190
9.194784 38.833786 -0.003306
9.508606 38.833786 -0.002609
9.822430 38.833786 -0.004986
10.136253 38.833786 -0.005780
10.450075 38.833786 -0.006359
10.763899 38.833786 -0.010177
11.077723 38.833786 -0.011472
11.391544 38.833786 -0.011817
11.705368 38.833786 -0.016196
12.019190 38.833786 -0.011016
12.333014 38.833786 0.002320
12.646837 38.833786 0.000697
12.960659 38.833786 -0.009068
13.274483 38.833786 -0.011782
13.588306 38.833786 -0.012418
13.902128 38.833786 -0.012740
14.215952 38.833786 -0.007365
14.529776 38.833786 -0.004459
14.843597 38.833786 -0.007668
15.157421 38.833786 -0.005254
15.471243 38.833786 0.002577
15.785067 38.833786 -0.000188
16.098890 38.833786 -0.012377
16.412712 38.833786 -0.017298
16.726536 38.833786 -0.002322
17.040359 38.833786 0.016358
17.354181 38.833786 0.006211
17.668005 38.833786 -0.006358
17.981829 38.833786 -0.016711
18.295650 38.833786 -0.022653
18.609474 38.833786 -0.013744
18.923298 38.833786 0.013020
19.237120 38.833786 0.000000
-6.810190 38.519966 0.000000
-6.496367 38.519966 0.000000
-6.182544 38.519966 0.000232
-5.868721 38.519966 0.000222
-5.554898 38.519966 0.000291
-5.241075 38.519966 0.000252
-4.927252 38.519966 0.000393
-4.613429 38.519966 0.000418
-4.299606 38.519966 0.000318
-3.985783 38.519966 0.000300
-3.671960 38.519966 0.000502
-3.358137 38.519966 0.000379
-3.044314 38.519966 0.000394
-2.730491 38.519966 0.000455
-2.416668 38.519966 0.000453
-2.102845 38.519966 0.000316
-1.789022 38.519966 0.000393
-1.475199 38.519966 0.000459
-1.161376 38.519966 0.000360
-0.847553 38.519966 0.000261
-0.533730 38.519966 0.000307
-0.219907 38.519966 0.000446
0.093916 38.519966 0.000307
0.407739 38.519966 0.000170
0.721562 38.519966 0.000115
1.035385 38.519966 0.000063
1.349208 38.519966 -0.000137
1.663032 38.519966 -0.000022
1.976854 38.519966 0.000008
2.290677 38.519966 0.000026
2.604500 38.519966 -0.000087
2.918324 38.519966 -0.000265
3.232146 38.519966 -0.000237
3.545969 38.519966 -0.000028
3.859793 38.519966 -0.000133
4.173615 38.519966 -0.000287
4.487438 38.519966 -0.000249
4.801261 38.519966 -0.000360
5.115085 38.519966 -0.000433
5.428907 38.519966 -0.000530
5.742730 38.519966 -0.000601
6.056554 38.519966 -0.000404
6.370377 38.519966 -0.000522
6.684199 38.519966 -0.000804
6.998022 38.519966 -0.001366
7.311846 38.519966 -0.001979
7.625669 38.519966 -0.002715
7.939491 38.519966 -0.003489
8.253315 38.519966 -0.004585
8.567138 38.519966 -0.005433
8.880960 38.519966 -0.003442
9.194784 38.519966 -0.002905
9.508606 38.519966 -0.000653
9.822430 38.519966 -0.004202
10.136253 38.519966 -0.006599
10.450075 38.519966 -0.002802
10.763899 38.519966 -0.011399
11.077723 38.519966 -0.015075
11.391544 38.519966 -0.010271
11.705368 38.519966 -0.007504
12.019190 38.519966 -0.006111
12.333014 38.519966 -0.001124
12.646837 38.519966 -0.003702
12.960659 38.519966 -0.010746
13.274483 38.519966 -0.012504
13.588306 38.519966 -0.024231
13.902128 38.519966 -0.023069
14.215952 38.519966 -0.014969
14.529776 38.519966 -0.015347
14.843597 38.519966 -0.015048
15.157421 38.519966 -0.009716
15.471243 38.519966 -0.011868
15.785067 38.519966 -0.014218
16.098890 38.519966 -0.015358
16.412712 38.519966 -0.016718
16.726536 38.519966 -0.012721
17.040359 38.519966 0.008846
17.354181 38.519966 -0.000698
17.668005 38.519966 -0.011056
17.981829 38.519966 -0.018478
18.295650 38.519966 -0.018337
18.609474 38.519966 0.000928
18.923298 38.519966 0.013989
19.237120 38.519966 0.000000
-6.810190 38.206142 0.000000
-6.496367 38.206142 0.000000
-6.182544 38.206142 0.000466
-5.868721 38.206142 0.000407
-5.554898 38.206142 0.000440
-5.241075 38.206142 0.000227
-4.927252 38.206142 0.000171
-4.613429 38.206142 0.000231
-4.299606 38.206142 0.000330
-3.985783 38.206142 0.000327
-3.671960 38.206142 0.000566
-3.358137 38.206142 0.000549
-3.044314 38.206142 0.000449
-2.730491 38.206142 0.000472
-2.416668 38.206142 0.000450
-2.102845 38.206142 0.000367
-1.789022 38.206142 0.000371
-1.475199 38.206142 0.000382
-1.161376 38.206142 0.000332
-0.847553 38.206142 0.000244
-0.533730 38.206142 0.000312
-0.219907 38.206142 0.000396
0.093916 38.206142 0.000222
0.407739 38.206142 0.000046
0.721562 38.206142 -0.000008
1.035385 38.206142 0.000001
1.349208 38.206142 -0.000089
1.663032 38.206142 -0.000043
1.976854 38.206142 0.000036
2.290677 38.206142 0.000049
2.604500 38.206142 -0.000087
2.918324 38.206142 -0.000285
3.232146 38.206142 -0.000258
3.545969 38.206142 -0.000003
3.859793 38.206142 -0.000044
4.173615 38.206142 -0.000120
4.487438 38.206142 -0.000153
4.801261 38.206142 -0.000409
5.115085 38.206142 -0.000502
5.428907 38.206142 -0.000589
5.742730 38.206142 -0.000572
6.056554 38.206142 -0.000401
6.370377 38.206142 -0.000467
6.684199 38.206142 -0.000771
6.998022 38.206142 -0.001501
7.311846 38.206142 -0.002293
7.625669 38.206142 -0.002707
7.939491 38.206142 -0.003902
8.253315 38.206142 -0.004236
8.567138 38.206142 -0.004900
8.880960 38.206142 -0.005093
9.194784 38.206142 -0.003880
9.508606 38.206142 -0.002692
9.822430 38.206142 -0.000300
10.136253 38.206142 -0.002607
10.450075 38.206142 -0.006513
10.763899 38.206142 -0.007866
11.077723 38.206142 -0.015832
11.391544 38.206142 -0.014366
11.705368 38.206142 -0.002063
12.019190 38.206142 0.001095
12.333014 38.206142 -0.006801
12.646837 38.206142 -0.010133
12.960659 38.206142 -0.018470
13.274483 38.206142 -0.011890
13.588306 38.206142 -0.024282
13.902128 38.206142 -0.021669
14.215952 38.206142 -0.015251
14.529776 38.206142 -0.019127
14.843597 38.206142 -0.007622
15.157421 38.206142 -0.011557
15.471243 38.206142 -0.006509
15.785067 38.206142 -0.015952
16.098890 38.206142 -0.015705
16.412712 38.206142 -0.009777
16.726536 38.206142 -0.001300
17.040359 38.206142 0.007497
17.354181 38.206142 0.005019
17.668005 38.206142 -0.007678
17.981829 38.206142 -0.017848
18.295650 38.206142 -0.011214
18.609474 38.206142 -0.001174
18.923298 38.206142 0.004463
19.237120 38.206142 0.000000
-6.810190 37.892319 0.000000
-6.496367 37.892319 0.000000
-6.182544 37.892319 0.000724
-5.868721 37.892319 0.000612
-5.554898 37.892319 0.000597
-5.241075 37.892319 0.000296
-4.927252 37.892319 0.000073
-4.613429 37.892319 0.000139
-4.299606 37.892319 0.000326
-3.985783 37.892319 0.000393
-3.671960 37.892319 0.000675
-3.358137 37.892319 0.000684
-3.044314 37.892319 0.000499
-2.730491 37.892319 0.000467
-2.416668 37.892319 0.000495
-2.102845 37.892319 0.000436
-1.789022 37.892319 0.000380
-1.475199 37.892319 0.000354
-1.161376 37.892319 0.000275
-0.847553 37.892319 0.000198
-0.533730 37.892319 0.000223
-0.219907 37.892319 0.000234
0.093916 37.892319 0.000064
0.407739 37.892319 -0.000038
0.721562 37.892319 -0.000014
1.035385 37.892319 0.000009
1.349208 37.892319 -0.000041
1.663032 37.892319 -0.000076
1.976854 37.892319 0.000060
2.290677 37.892319 0.000042
2.604500 37.892319 -0.000113
2.918324 37.892319 -0.000247
3.232146 37.892319 -0.000226
3.545969 37.892319 0.000018
3.859793 37.892319 -0.000028
4.173615 37.892319 -0.000032
4.487438 37.892319 -0.000091
4.801261 37.892319 -0.000393
5.115085 37.892319 -0.000578
5.428907 37.892319 -0.000668
5.742730 37.892319 -0.000632
6.056554 37.892319 -0.000536
6.370377 37.892319 -0.000532
6.684199 37.892319 -0.000927
6.998022 37.892319 -0.001523
7.311846 37.892319 -0.002450
7.625669 37.892319 -0.002996
7.939491 37.892319 -0.003470
8.253315 37.892319 -0.003975
8.567138 37.892319 -0.004505
8.880960 37.892319 -0.006025
9.194784 37.892319 -0.005489
9.508606 37.892319 -0.003881
9.822430 37.892319 -0.001625
10.136253 37.892319 -0.002697
10.450075 37.892319 -0.002496
10.763899 37.892319 -0.005775
11.077723 37.892319 -0.010307
11.391544 37.892319 -0.014563
11.705368 37.892319 -0.002549
12.019190 37.892319 -0.001178
12.333014 37.892319 -0.000884
12.646837 37.892319 0.002876
12.960659 37.892319 -0.012714
13.274483 37.892319 -0.021807
13.588306 37.892319 -0.019470
13.902128 37.892319 -0.018708
14.215952 37.892319 -0.014314
14.529776 37.892319 -0.003361
14.843597 37.892319 0.003644
15.157421 37.892319 0.020144
15.471243 37.892319 0.003824
15.785067 37.892319 -0.004038
16.098890 37.892319 -0.012197
16.412712 37.892319 -0.002673
16.726536 37.892319 -0.000871
17.040359 37.892319 0.010719
17.354181 37.892319 0.006599
17.668005 37.892319 -0.004926
17.981829 37.892319 -0.016753
18.295650 37.892319 -0.004085
18.609474 37.892319 0.009301
18.923298 37.892319 0.011749
19.237120 37.892319 0.000000
-6.810190 37.578495 0.000000
-6.496367 37.578495 0.000000
-6.182544 37.578495 0.000874
-5.868721 37.578495 0.000691
-5.554898 37.578495 0.000637
-5.241075 37.578495 0.000395
-4.927252 37.578495 0.000214
-4.613429 37.578495 0.000170
-4.299606 37.578495 0.000315
-3.985783 37.578495 0.000431
-3.671960 37.578495 0.000741
-3.358137 37.578495 0.000708
-3.044314 37.578495 0.000470
-2.730491 37.578495 0.000387
-2.416668 37.578495 0.000434
-2.102845 37.578495 0.000448
-1.789022 37.578495 0.000371
-1.475199 37.578495 0.000317
-1.161376 37.578495 0.000205
-0.847553 37.578495 0.000091
-0.533730 37.578495 0.000122
-0.219907 37.578495 0.000085
0.093916 37.578495 -0.000046
0.407739 37.578495 0.000015
0.721562 37.578495 0.000089
1.035385 37.578495 0.000118
1.349208 37.578495 0.000038
1.663032 37.578495 -0.000013
1.976854 37.578495 0.000065
2.290677 37.578495 -0.000022
2.604500 37.578495 -0.000103
2.918324 37.578495 -0.000118
3.232146 37.578495 -0.000164
3.545969 37.578495 -0.000038
3.859793 37.578495 -0.000048
4.173615 37.578495 -0.000063
4.487438 37.578495 -0.000143
4.801261 37.578495 -0.000313
5.115085 37.578495 -0.000488
5.428907 37.578495 -0.000660
5.742730 37.578495 -0.000702
6.056554 37.578495 -0.000611
6.370377 37.578495 -0.000642
6.684199 37.578495 -0.000926
6.998022 37.578495 -0.001495
7.311846 37.578495 -0.002658
7.625669 37.578495 -0.003048
7.939491 37.578495 -0.003687
8.253315 37.578495 -0.004250
8.567138 37.578495 -0.004617
8.880960 37.578495 -0.005706
9.194784 37.578495 -0.003962
9.508606 37.578495 -0.002868
9.822430 37.578495 0.002328
10.136253 37.578495 0.001801
10.450075 37.578495 -0.001724
10.763899 37.578495 -0.008558
11.077723 37.578495 -0.009292
11.391544 37.578495 -0.010861
11.705368 37.578495 -0.009769
12.019190 37.578495 0.001858
12.333014 37.578495 0.011668
12.646837 37.578495 0.007046
12.960659 37.578495 -0.001242
13.274483 37.578495 -0.018068
13.588306 37.578495 -0.009134
13.902128 37.578495 -0.026677
14.215952 37.578495 -0.008010
14.529776 37.578495 0.000535
14.843597 37.578495 0.019110
15.157421 37.578495 0.029369
15.471243 37.578495 0.019630
15.785067 37.578495 0.003797
16.098890 37.578495 -0.000602
16.412712 37.578495 0.001464
16.726536 37.578495 0.016628
17.040359 37.578495 0.007959
17.354181 37.578495 0.010480
17.668005 37.578495 -0.005710
17.981829 37.578495 -0.014764
18.295650 37.578495 -0.000111
18.609474 37.578495 0.003535
18.923298 37.578495 -0.003129
19.237120 37.578495 0.000000
-6.810190 37.264671 0.000000
-6.496367 37.264671 0.000000
-6.182544 37.264671 0.000804
-5.868721 37.264671 0.000612
-5.554898 37.264671 0.000566
-5.241075 37.264671 0.000469
-4.927252 37.264671 0.000404
-4.613429 37.264671 0.000257
-4.299606 37.264671 0.000332
-3.985783 37.264671 0.000417
-3.671960 37.264671 0.000699
-3.358137 37.264671 0.000642
-3.044314 37.264671 0.000411
-2.730491 37.264671 0.000273
-2.416668 37.264671 0.000285
-2.102845 37.264671 0.000372
-1.789022 37.264671 0.000372
-1.475199 37.264671 0.000370
-1.161376 37.264671 0.000189
-0.847553 37.264671 0.000044
-0.533730 37.264671 0.000051
-0.219907 37.264671 -0.000004
0.093916 37.264671 -0.000000
0.407739 37.264671 0.000205
0.721562 37.264671 0.000301
1.035385 37.264671 0.000278
1.349208 37.264671 0.000150
1.663032 37.264671 0.000059
1.976854 37.264671 0.000120
2.290677 37.264671 -0.000026
2.604500 37.264671 -0.000020
2.918324 37.264671 0.000062
3.232146 37.264671 -0.000050
3.545969 37.264671 -0.000114
3.859793 37.264671 -0.000167
4.173615 37.264671 -0.000139
4.487438 37.264671 -0.000160
4.801261 37.264671 -0.000188
5.115085 37.264671 -0.000343
5.428907 37.264671 -0.000630
5.742730 37.264671 -0.000723
6.056554 37.264671 -0.000618
6.370377 37.264671 -0.000576
6.684199 37.264671 -0.000822
6.998022 37.264671 -0.001367
7.311846 37.264671 -0.002354
7.625669 37.264671 -0.003155
7.939491 37.264671 -0.003962
8.253315 37.264671 -0.004395
8.567138 37.264671 -0.005474
8.880960 37.264671 -0.004728
9.194784 37.264671 -0.004073
9.508606 37.264671 -0.001822
9.822430 37.264671 0.000188
10.136253 37.264671 0.000143
10.450075 37.264671 -0.003073
10.763899 37.264671 -0.002689
11.077723 37.264671 -0.005719
11.391544 37.264671 -0.008342
11.705368 37.264671 -0.002855
12.019190 37.264671 -0.011217
12.333014 37.264671 0.002660
12.646837 37.264671 0.016579
12.960659 37.264671 0.011181
13.274483 37.264671 -0.006110
13.588306 37.264671 -0.005850
13.902128 37.264671 -0.012713
14.215952 37.264671 0.004706
14.529776 37.264671 0.001279
14.843597 37.264671 0.022973
15.157421 37.264671 0.036058
15.471243 37.264671 0.022744
15.785067 37.264671 0.011616
16.098890 37.264671 0.006629
16.412712 37.264671 0.015621
16.726536 37.264671 0.020811
17.040359 37.264671 0.015762
17.354181 37.264671 0.010269
17.668005 37.264671 -0.008431
17.981829 37.264671 -0.014886
18.295650 37.264671 -0.000146
18.609474 37.264671 -0.000267
18.923298 37.264671 -0.033514
19.237120 37.264671 0.000000
-6.810190 36.950851 0.000000
-6.496367 36.950851 0.000000
-6.182544 36.950851 0.000689
-5.868721 36.950851 0.000496
-5.554898 36.950851 0.000525
-5.241075 36.950851 0.000472
-4.927252 36.950851 0.000490
-4.613429 36.950851 0.000402
-4.299606 36.950851 0.000450
-3.985783 36.950851 0.000384
-3.671960 36.950851 0.000575
-3.358137 36.950851 0.000568
-3.044314 36.950851 0.000379
-2.730491 36.950851 0.000173
-2.416668 36.950851 0.000134
-2.102845 36.950851 0.000295
-1.789022 36.950851 0.000414
-1.475199 36.950851 0.000434
-1.161376 36.950851 0.000241
-0.847553 36.950851 0.000064
-0.533730 36.950851 0.000090
-0.219907 36.950851 0.000076
0.093916 36.950851 0.000165
0.407739 36.950851 0.000368
0.721562 36.950851 0.000371
1.035385 36.950851 0.000380
1.349208 36.950851 0.000217
1.663032 36.950851 0.000158
1.976854 36.950851 0.000136
2.290677 36.950851 0.000017
2.604500 36.950851 0.000085
2.918324 36.950851 0.000187
3.232146 36.950851 0.000050
3.545969 36.950851 -0.000188
3.859793 36.950851 -0.000234
4.173615 36.950851 -0.000111
4.487438 36.950851 -0.000109
4.801261 36.950851 -0.000113
5.115085 36.950851 -0.000236
5.428907 36.950851 -0.000618
5.742730 36.950851 -0.000715
6.056554 36.950851 -0.000655
6.370377 36.950851 -0.000527
6.684199 36.950851 -0.000769
6.998022 36.950851 -0.001401
7.311846 36.950851 -0.001984
7.625669 36.950851 -0.003082
7.939491 36.950851 -0.003755
8.253315 36.950851 -0.004829
8.567138 36.950851 -0.005656
8.880960 36.950851 -0.005945
9.194784 36.950851 -0.003544
9.508606 36.950851 -0.000178
9.822430 36.950851 -0.002501
10.136253 36.950851 -0.003612
10.450075 36.950851 -0.001714
10.763899 36.950851 0.000035
11.077723 36.950851 -0.000895
11.391544 36.950851 -0.001169
11.705368 36.950851 -0.001822
12.019190 36.950851 -0.017983
12.333014 36.950851 -0.000548
12.646837 36.950851 0.007216
12.960659 36.950851 0.010465
13.274483 36.950851 -0.010688
13.588306 36.950851 -0.018552
13.902128 36.950851 -0.003903
14.215952 36.950851 0.024815
14.529776 36.950851 0.011415
14.843597 36.950851 0.010499
15.157421 36.950851 0.017918
15.471243 36.950851 0.014608
15.785067 36.950851 0.017801
16.098890 36.950851 0.009859
16.412712 36.950851 0.023202
16.726536 36.950851 0.032202
17.040359 36.950851 0.024271
17.354181 36.950851 0.010191
17.668005 36.950851 -0.001094
17.981829 36.950851 -0.003190
18.295650 36.950851 -0.002939
18.609474 36.950851 0.006105
18.923298 36.950851 -0.011109
19.237120 36.950851 0.000000
-6.810190 36.637028 0.000000
-6.496367 36.637028 0.000000
-6.182544 36.637028 0.000603
-5.868721 36.637028 0.000443
-5.554898 36.637028 0.000515
-5.241075 36.637028 0.000522
-4.927252 36.637028 0.000524
-4.613429 36.637028 0.000552
-4.299606 36.637028 0.000564
-3.985783 36.637028 0.000403
-3.671960 36.637028 0.000529
-3.358137 36.637028 0.000508
-3.044314 36.637028 0.000369
-2.730491 36.637028 0.000137
-2.416668 36.637028 0.000105
-2.102845 36.637028 0.000238
-1.789022 36.637028 0.000356
-1.475199 36.637028 0.000476
-1.161376 36.637028 0.000306
-0.847553 36.637028 0.000102
-0.533730 36.637028 0.000146
-0.219907 36.637028 0.000210
0.093916 36.637028 0.000322
0.407739 36.637028 0.000473
0.721562 36.637028 0.000431
1.035385 36.637028 0.000435
1.349208 36.637028 0.000272
1.663032 36.637028 0.000189
1.976854 36.637028 0.000086
2.290677 36.637028 0.000033
2.604500 36.637028 0.000158
2.918324 36.637028 0.000184
3.232146 36.637028 0.000032
3.545969 36.637028 -0.000235
3.859793 36.637028 -0.000274
4.173615 36.637028 -0.000060
4.487438 36.637028 -0.000024
4.801261 36.637028 -0.000022
5.115085 36.637028 -0.000155
5.428907 36.637028 -0.000562
5.742730 36.637028 -0.000719
6.056554 36.637028 -0.000649
6.370377 36.637028 -0.000600
6.684199 36.637028 -0.000679
6.998022 36.637028 -0.001331
7.311846 36.637028 -0.001910
7.625669 36.637028 -0.002431
7.939491 36.637028 -0.003475
8.253315 36.637028 -0.004462
8.567138 36.637028 -0.005785
8.880960 36.637028 -0.005085
9.194784 36.637028 -0.005117
9.508606 36.637028 0.000425
9.822430 36.637028 0.000099
10.136253 36.637028 -0.003655
10.450075 36.637028 0.000856
10.763899 36.637028 -0.000409
11.077723 36.637028 0.003460
11.391544 36.637028 -0.000992
11.705368 36.637028 -0.007254
12.019190 36.637028 -0.020403
12.333014 36.637028 -0.017542
12.646837 36.637028 -0.006889
12.960659 36.637028 -0.006199
13.274483 36.637028 -0.027836
13.588306 36.637028 -0.026407
13.902128 36.637028 -0.001731
14.215952 36.637028 0.020873
14.529776 36.637028 0.018623
14.843597 36.637028 0.005638
15.157421 36.637028 0.006964
15.471243 36.637028 0.003895
15.785067 36.637028 0.002580
16.098890 36.637028 -0.001857
16.412712 36.637028 0.017214
16.726536 36.637028 0.026739
17.040359 36.637028 0.022496
17.354181 36.637028 0.015030
17.668005 36.637028 0.007733
17.981829 36.637028 0.004310
18.295650 36.637028 0.007443
18.609474 36.637028 -0.003999
18.923298 36.637028 -0.016631
19.237120 36.637028 0.000000
-6.810190 36.323204 0.000000
-6.496367 36.323204 0.000000
-6.182544 36.323204 0.000632
-5.868721 36.323204 0.000524
-5.554898 36.323204 0.000592
-5.241075 36.323204 0.000580
-4.927252 36.323204 0.000483
-4.613429 36.323204 0.000586
-4.299606 36.323204 0.000579
-3.985783 36.323204 0.000406
-3.671960 36.323204 0.000539
-3.358137 36.323204 0.000527
-3.044314 36.323204 0.000384
-2.730491 36.323204 0.000212
-2.416668 36.323204 0.000191
-2.102845 36.323204 0.000289
-1.789022 36.323204 0.000341
-1.475199 36.323204 0.000473
-1.161376 36.323204 0.000395
-0.847553 36.323204 0.000185
-0.533730 36.323204 0.000240
-0.219907 36.323204 0.000302
0.093916 36.323204 0.000360
0.407739 36.323204 0.000519
0.721562 36.323204 0.000478
1.035385 36.323204 0.000475
1.349208 36.323204 0.000322
1.663032 36.323204 0.000191
1.976854 36.323204 0.000020
2.290677 36.323204 0.000026
2.604500 36.323204 0.000110
2.918324 36.323204 0.000076
3.232146 36.323204 -0.000046
3.545969 36.323204 -0.000258
3.859793 36.323204 -0.000264
4.173615 36.323204 -0.000081
4.487438 36.323204 0.000009
4.801261 36.323204 0.000028
5.115085 36.323204 -0.000110
5.428907 36.323204 -0.000485
5.742730 36.323204 -0.000587
6.056554 36.323204 -0.000647
6.370377 36.323204 -0.000594
6.684199 36.323204 -0.000629
6.998022 36.323204 -0.001116
7.311846 36.323204 -0.001782
7.625669 36.323204 -0.002318
7.939491 36.323204 -0.002731
8.253315 36.323204 -0.003869
8.567138 36.323204 -0.006207
8.880960 36.323204 -0.007369
9.194784 36.323204 -0.005914
9.508606 36.323204 -0.001810
9.822430 36.323204 0.001076
10.136253 36.323204 -0.000049
10.450075 36.323204 -0.002246
10.763899 36.323204 0.000333
11.077723 36.323204 -0.000546
11.391544 36.323204 -0.004686
11.705368 36.323204 -0.013233
12.019190 36.323204 -0.022770
12.333014 36.323204 -0.012356
12.646837 36.323204 -0.012809
12.960659 36.323204 -0.012035
13.274483 36.323204 -0.025513
13.588306 36.323204 -0.020054
13.902128 36.323204 0.000106
14.215952 36.323204 0.027954
14.529776 36.323204 0.021747
14.843597 36.323204 -0.002445
15.157421 36.323204 -0.003074
15.471243 36.323204 -0.010927
15.785067 36.323204 0.000681
16.098890 36.323204 0.000762
16.412712 36.323204 0.014194
16.726536 36.323204 0.028114
17.040359 36.323204 0.022247
17.354181 36.323204 0.008933
17.668005 36.323204 0.001707
17.981829 36.323204 -0.004438
18.295650 36.323204 -0.012061
18.609474 36.323204 -0.008839
18.923298 36.323204 -0.026417
19.237120 36.323204 0.000000
-6.810190 36.009380 0.000000
-6.496367 36.009380 0.000000
-6.182544 36.009380 0.000758
-5.868721 36.009380 0.000605
-5.554898 36.009380 0.000690
-5.241075 36.009380 0.000643
-4.927252 36.009380 0.000390
-4.613429 36.009380 0.000489
-4.299606 36.009380 0.000498
-3.985783 36.009380 0.000465
-3.671960 36.009380 0.000573
-3.358137 36.009380 0.000582
-3.044314 36.009380 0.000413
-2.730491 36.009380 0.000313
-2.416668 36.009380 0.000304
-2.102845 36.009380 0.000371
-1.789022 36.009380 0.000400
-1.475199 36.009380 0.000506
-1.161376 36.009380 0.000497
-0.847553 36.009380 0.000298
-0.533730 36.009380 0.000354
-0.219907 36.009380 0.000295
0.093916 36.009380 0.000286
0.407739 36.009380 0.000511
0.721562 36.009380 0.000493
1.035385 36.009380 0.000419
1.349208 36.009380 0.000272
1.663032 36.009380 0.000147
1.976854 36.009380 0.000024
2.290677 36.009380 0.000016
2.604500 36.009380 0.000069
2.918324 36.009380 -0.000017
3.232146 36.009380 -0.000129
3.545969 36.009380 -0.000266
3.859793 36.009380 -0.000239
4.173615 36.009380 -0.000167
4.487438 36.009380 -0.000066
4.801261 36.009380 -0.000021
5.115085 36.009380 -0.000050
5.428907 36.009380 -0.000330
5.742730 36.009380 -0.000482
6.056554 36.009380 -0.000687
6.370377 36.009380 -0.000670
6.684199 36.009380 -0.000573
6.998022 36.009380 -0.000900
7.311846 36.009380 -0.001592
7.625669 36.009380 -0.002040
7.939491 36.009380 -0.002163
8.253315 36.009380 -0.003503
8.567138 36.009380 -0.005289
8.880960 36.009380 -0.007875
9.194784 36.009380 -0.005569
9.508606 36.009380 -0.002357
9.822430 36.009380 0.001036
10.136253 36.009380 0.004332
10.450075 36.009380 0.001218
10.763899 36.009380 0.000759
11.077723 36.009380 -0.006601
11.391544 36.009380 -0.010386
11.705368 36.009380 -0.019381
12.019190 36.009380 -0.022020
12.333014 36.009380 -0.017939
12.646837 36.009380 -0.021324
12.960659 36.009380 -0.010150
13.274483 36.009380 -0.009322
13.588306 36.009380 -0.003047
13.902128 36.009380 0.008913
14.215952 36.009380 0.025547
14.529776 36.009380 0.034001
14.843597 36.009380 0.007743
15.157421 36.009380 -0.003514
15.471243 36.009380 -0.004562
15.785067 36.009380 0.003294
16.098890 36.009380 -0.000480
16.412712 36.009380 0.019139
16.726536 36.009380 0.034015
17.040359 36.009380 0.034723
17.354181 36.009380 0.019917
17.668005 36.009380 0.003372
17.981829 36.009380 -0.006345
18.295650 36.009380 -0.015587
18.609474 36.009380 -0.020727
18.923298 36.009380 -0.035078
19.237120 36.009380 0.000000
-6.810190 35.695557 0.000000
-6.496367 35.695557 0.000000
-6.182544 35.695557 0.000796
-5.868721 35.695557 0.000628
-5.554898 35.695557 0.000769
-5.241075 35.695557 0.000680
-4.927252 35.695557 0.000412
-4.613429 35.695557 0.000416
-4.299606 35.695557 0.000484
-3.985783 35.695557 0.000505
-3.671960 35.695557 0.000582
-3.358137 35.695557 0.000601
-3.044314 35.695557 0.000434
-2.730491 35.695557 0.000350
-2.416668 35.695557 0.000389
-2.102845 35.695557 0.000454
-1.789022 35.695557 0.000489
-1.475199 35.695557 0.000623
-1.161376 35.695557 0.000557
-0.847553 35.695557 0.000323
-0.533730 35.695557 0.000330
-0.219907 35.695557 0.000255
0.093916 35.695557 0.000240
0.407739 35.695557 0.000500
0.721562 35.695557 0.000484
1.035385 35.695557 0.000300
1.349208 35.695557 0.000142
1.663032 35.695557 0.000035
1.976854 35.695557 0.000067
2.290677 35.695557 0.000083
2.604500 35.695557 0.000067
2.918324 35.695557 -0.000018
3.232146 35.695557 -0.000136
3.545969 35.695557 -0.000226
3.859793 35.695557 -0.000209
4.173615 35.695557 -0.000210
4.487438 35.695557 -0.000205
4.801261 35.695557 -0.000163
5.115085 35.695557 -0.000145
5.428907 35.695557 -0.000246
5.742730 35.695557 -0.000446
6.056554 35.695557 -0.000677
6.370377 35.695557 -0.000787
6.684199 35.695557 -0.000557
6.998022 35.695557 -0.000654
7.311846 35.695557 -0.001044
7.625669 35.695557 -0.001639
7.939491 35.695557 -0.002222
8.253315 35.695557 -0.003479
8.567138 35.695557 -0.004938
8.880960 35.695557 -0.007148
9.194784 35.695557 -0.005848
9.508606 35.695557 -0.004833
9.822430 35.695557 0.000840
10.136253 35.695557 0.001974
10.450075 35.695557 0.002329
10.763899 35.695557 0.002354
11.077723 35.695557 -0.008465
11.391544 35.695557 -0.011854
11.705368 35.695557 -0.016316
12.019190 35.695557 -0.017933
12.333014 35.695557 -0.016736
12.646837 35.695557 -0.020780
12.960659 35.695557 -0.009662
13.274483 35.695557 -0.012157
13.588306 35.695557 -0.004296
13.902128 35.695557 0.004399
14.215952 35.695557 0.028243
14.529776 35.695557 0.025609
14.843597 35.695557 0.009439
15.157421 35.695557 0.000286
15.471243 35.695557 0.002994
15.785067 35.695557 -0.005063
16.098890 35.695557 -0.005582
16.412712 35.695557 0.016431
16.726536 35.695557 0.032543
17.040359 35.695557 0.031103
17.354181 35.695557 0.017085
17.668005 35.695557 0.004938
17.981829 35.695557 -0.000458
18.295650 35.695557 -0.008889
18.609474 35.695557 -0.024089
18.923298 35.695557 -0.008057
19.237120 35.695557 0.000000
-6.810190 35.381737 0.000000
-6.496367 35.381737 0.000000
-6.182544 35.381737 0.000730
-5.868721 35.381737 0.000476
-5.554898 35.381737 0.000644
-5.241075 35.381737 0.000702
-4.927252 35.381737 0.000481
-4.613429 35.381737 0.000412
-4.299606 35.381737 0.000478
-3.985783 35.381737 0.000539
-3.671960 35.381737 0.000531
-3.358137 35.381737 0.000551
-3.044314 35.381737 0.000434
-2.730491 35.381737 0.000360
-2.416668 35.381737 0.000489
-2.102845 35.381737 0.000483
-1.789022 35.381737 0.000571
-1.475199 35.381737 0.000717
-1.161376 35.381737 0.000550
-0.847553 35.381737 0.000256
-0.533730 35.381737 0.000225
-0.219907 35.381737 0.000273
0.093916 35.381737 0.000314
0.407739 35.381737 0.000484
0.721562 35.381737 0.000398
1.035385 35.381737 0.000175
1.349208 35.381737 0.000011
1.663032 35.381737 -0.000027
1.976854 35.381737 0.000133
2.290677 35.381737 0.000207
2.604500 35.381737 0.000119
2.918324 35.381737 0.000019
3.232146 35.381737 -0.000058
3.545969 35.381737 -0.000177
3.859793 35.381737 -0.000232
4.173615 35.381737 -0.000265
4.487438 35.381737 -0.000342
4.801261 35.381737 -0.000268
5.115085 35.381737 -0.000181
5.428907 35.381737 -0.000269
5.742730 35.381737 -0.000367
6.056554 35.381737 -0.000596
6.370377 35.381737 -0.000611
6.684199 35.381737 -0.000545
6.998022 35.381737 -0.000427
7.311846 35.381737 -0.000734
7.625669 35.381737 -0.001399
7.939491 35.381737 -0.002214
8.253315 35.381737 -0.003828
8.567138 35.381737 -0.005145
8.880960 35.381737 -0.005383
9.194784 35.381737 -0.006005
9.508606 35.381737 -0.001646
9.822430 35.381737 0.000496
10.136253 35.381737 0.003698
10.450075 35.381737 0.002945
10.763899 35.381737 0.002544
11.077723 35.381737 -0.000934
11.391544 35.381737 -0.013959
11.705368 35.381737 -0.015452
12.019190 35.381737 -0.009538
12.333014 35.381737 -0.012890
12.646837 35.381737 -0.007024
12.960659 35.381737 0.002628
13.274483 35.381737 -0.005927
13.588306 35.381737 -0.016345
13.902128 35.381737 0.005647
14.215952 35.381737 0.022337
14.529776 35.381737 0.013810
14.843597 35.381737 0.008714
15.157421 35.381737 0.005435
15.471243 35.381737 0.005384
15.785067 35.381737 -0.007308
16.098890 35.381737 -0.009372
16.412712 35.381737 0.013039
16.726536 35.381737 0.028781
17.040359 35.381737 0.027541
17.354181 35.381737 0.023262
17.668005 35.381737 0.006974
17.981829 35.381737 0.001027
18.295650 35.381737 -0.005750
18.609474 35.381737 -0.015547
18.923298 35.381737 -0.016989
19.237120 35.381737 0.000000
-6.810190 35.067913 0.000000
-6.496367 35.067913 0.000000
-6.182544 35.067913 0.000602
-5.868721 35.067913 0.000353
-5.554898 35.067913 0.000547
-5.241075 35.067913 0.000637
-4.927252 35.067913 0.000525
-4.613429 35.067913 0.000412
-4.299606 35.067913 0.000436
-3.985783 35.067913 0.000507
-3.671960 35.067913 0.000459
-3.358137 35.067913 0.000431
-3.044314 35.067913 0.000366
-2.730491 35.067913 0.000407
-2.416668 35.067913 0.000604
-2.102845 35.067913 0.000536
-1.789022 35.067913 0.000551
-1.475199 35.067913 0.000673
-1.161376 35.067913 0.000491
-0.847553 35.067913 0.000203
-0.533730 35.067913 0.000120
-0.219907 35.067913 0.000267
0.093916 35.067913 0.000315
0.407739 35.067913 0.000356
0.721562 35.067913 0.000192
1.035385 35.067913 0.000095
1.349208 35.067913 0.000032
1.663032 35.067913 0.000016
1.976854 35.067913 0.000161
2.290677 35.067913 0.000271
2.604500 35.067913 0.000151
2.918324 35.067913 0.000038
3.232146 35.067913 -0.000029
3.545969 35.067913 -0.000130
3.859793 35.067913 -0.000225
4.173615 35.067913 -0.000244
4.487438 35.067913 -0.000383
4.801261 35.067913 -0.000312
5.115085 35.067913 -0.000268
5.428907 35.067913 -0.000364
5.742730 35.067913 -0.000370
6.056554 35.067913 -0.000508
6.370377 35.067913 -0.000594
6.684199 35.067913 -0.000484
6.998022 35.067913 -0.000403
7.311846 35.067913 -0.000712
7.625669 35.067913 -0.001251
7.939491 35.067913 -0.002292
8.253315 35.067913 -0.003556
8.567138 35.067913 -0.004978
8.880960 35.067913 -0.004981
9.194784 35.067913 -0.005797
9.508606 35.067913 -0.003198
9.822430 35.067913 0.000184
10.136253 35.067913 0.000472
10.450075 35.067913 0.003053
10.763899 35.067913 0.004684
11.077723 35.067913 -0.001855
11.391544 35.067913 -0.005814
11.705368 35.067913 -0.002233
12.019190 35.067913 -0.008211
12.333014 35.067913 -0.002601
12.646837 35.067913 -0.003996
12.960659 35.067913 0.009496
13.274483 35.067913 -0.001513
13.588306 35.067913 -0.002212
13.902128 35.067913 -0.000360
14.215952 35.067913 0.011733
14.529776 35.067913 0.001512
14.843597 35.067913 0.012341
15.157421 35.067913 0.006601
15.471243 35.067913 0.001255
15.785067 35.067913 0.004258
16.098890 35.067913 -0.004401
16.412712 35.067913 0.015907
16.726536 35.067913 0.025209
17.040359 35.067913 0.022171
17.354181 35.067913 0.017039
17.668005 35.067913 0.004825
17.981829 35.067913 -0.005539
18.295650 35.067913 -0.008816
18.609474 35.067913 -0.013254
18.923298 35.067913 0.002022
19.237120 35.067913 0.000000
-6.810190 34.754089 0.000000
-6.496367 34.754089 0.010462
-6.182544 34.754089 0.000567
-5.868721 34.754089 0.000347
-5.554898 34.754089 0.000533
-5.241075 34.754089 0.000577
-4.927252 34.754089 0.000479
-4.613429 34.754089 0.000403
-4.299606 34.754089 0.000383
-3.985783 34.754089 0.000446
-3.671960 34.754089 0.000368
-3.358137 34.754089 0.000269
-3.044314 34.754089 0.000241
-2.730491 34.754089 0.000373
-2.416668 34.754089 0.000690
-2.102845 34.754089 0.000536
-1.789022 34.754089 0.000433
-1.475199 34.754089 0.000534
-1.161376 34.754089 0.000399
-0.847553 34.754089 0.000176
-0.533730 34.754089 0.000134
-0.219907 34.754089 0.000236
0.093916 34.754089 0.000268
0.407739 34.754089 0.000196
0.721562 34.754089 0.000033
1.035385 34.754089 0.000043
1.349208 34.754089 0.000062
1.663032 34.754089 0.000054
1.976854 34.754089 0.000129
2.290677 34.754089 0.000212
2.604500 34.754089 0.000125
2.918324 34.754089 0.000022
3.232146 34.754089 0.000002
3.545969 34.754089 -0.000083
3.859793 34.754089 -0.000145
4.173615 34.754089 -0.000131
4.487438 34.754089 -0.000319
4.801261 34.754089 -0.000360
5.115085 34.754089 -0.000400
5.428907 34.754089 -0.000450
5.742730 34.754089 -0.000404
6.056554 34.754089 -0.000446
6.370377 34.754089 -0.000547
6.684199 34.754089 -0.000587
6.998022 34.754089 -0.000467
7.311846 34.754089 -0.000923
7.625669 34.754089 -0.001410
7.939491 34.754089 -0.002497
8.253315 34.754089 -0.003536
8.567138 34.754089 -0.004334
8.880960 34.754089 -0.004053
9.194784 34.754089 -0.004934
9.508606 34.754089 -0.003695
9.822430 34.754089 -0.001488
10.136253 34.754089 -0.001522
10.450075 34.754089 -0.002802
10.763899 34.754089 0.005022
11.077723 34.754089 0.003840
11.391544 34.754089 -0.001843
11.705368 34.754089 -0.003015
12.019190 34.754089 0.001405
12.333014 34.754089 -0.003301
12.646837 34.754089 0.002832
12.960659 34.754089 0.021870
13.274483 34.754089 0.007966
13.588306 34.754089 0.003573
13.902128 34.754089 0.006318
14.215952 34.754089 0.006732
14.529776 34.754089 0.006677
14.843597 34.754089 0.010495
15.157421 34.754089 0.005701
15.471243 34.754089 0.003041
15.785067 34.754089 0.017836
16.098890 34.754089 0.014165
16.412712 34.754089 0.015860
16.726536 34.754089 0.027095
17.040359 34.754089 0.019547
17.354181 34.754089 0.015572
17.668005 34.754089 0.003619
17.981829 34.754089 -0.012723
18.295650 34.754089 -0.014829
18.609474 34.754089 -0.005813
18.923298 34.754089 0.007970
19.237120 34.754089 0.000000
-6.810190 34.440266 0.000000
-6.496367 34.440266 -0.000970
-6.182544 34.440266 0.000601
-5.868721 34.440266 0.000451
-5.554898 34.440266 0.000588
-5.241075 34.440266 0.000568
-4.927252 34.440266 0.000439
-4.613429 34.440266 0.000327
-4.299606 34.440266 0.000264
-3.985783 34.440266 0.000346
-3.671960 34.440266 0.000318
-3.358137 34.440266 0.000137
-3.044314 34.440266 0.000098
-2.730491 34.440266 0.000283
-2.416668 34.440266 0.000588
-2.102845 34.440266 0.000437
-1.789022 34.440266 0.000301
-1.475199 34.440266 0.000389
-1.161376 34.440266 0.000291
-0.847553 34.440266 0.000139
-0.533730 34.440266 0.000175
-0.219907 34.440266 0.000209
0.093916 34.440266 0.000206
0.407739 34.440266 0.000124
0.721562 34.440266 -0.000032
1.035385 34.440266 0.000054
1.349208 34.440266 0.000081
1.663032 34.440266 0.000046
1.976854 34.440266 0.000031
2.290677 34.440266 0.000091
2.604500 34.440266 0.000057
2.918324 34.440266 0.000010
3.232146 34.440266 0.000025
3.545969 34.440266 -0.000025
3.859793 34.440266 -0.000065
4.173615 34.440266 -0.000087
4.487438 34.440266 -0.000229
4.801261 34.440266 -0.000378
5.115085 34.440266 -0.000467
5.428907 34.440266 -0.000497
5.742730 34.440266 -0.000389
6.056554 34.440266 -0.000429
6.370377 34.440266 -0.000536
6.684199 34.440266 -0.000705
6.998022 34.440266 -0.000875
7.311846 34.440266 -0.001470
7.625669 34.440266 -0.002081
7.939491 34.440266 -0.002516
8.253315 34.440266 -0.002836
8.567138 34.440266 -0.003427
8.880960 34.440266 -0.004127
9.194784 34.440266 -0.004446
9.508606 34.440266 -0.004329
9.822430 34.440266 -0.004146
10.136253 34.440266 -0.002415
10.450075 34.440266 0.000919
10.763899 34.440266 0.006766
11.077723 34.440266 0.002678
11.391544 34.440266 -0.004701
11.705368 34.440266 -0.001969
12.019190 34.440266 0.010553
12.333014 34.440266 0.006349
12.646837 34.440266 0.008665
12.960659 34.440266 0.009617
13.274483 34.440266 0.002005
13.588306 34.440266 -0.001153
13.902128 34.440266 0.004993
14.215952 34.440266 0.000764
14.529776 34.440266 0.007886
14.843597 34.440266 0.002214
15.157421 34.440266 -0.007713
15.471243 34.440266 0.004917
15.785067 34.440266 0.020047
16.098890 34.440266 0.016446
16.412712 34.440266 0.015530
16.726536 34.440266 0.024823
17.040359 34.440266 0.023894
17.354181 34.440266 0.013184
17.668005 34.440266 0.008347
17.981829 34.440266 -0.007876
18.295650 34.440266 -0.008179
18.609474 34.440266 -0.005135
18.923298 34.440266 -0.000351
19.237120 34.440266 0.000000
-6.810190 34.126442 0.000000
-6.496367 34.126442 -0.000532
-6.182544 34.126442 0.000845
-5.868721 34.126442 0.000615
-5.554898 34.126442 0.000639
-5.241075 34.126442 0.000551
-4.927252 34.126442 0.000370
-4.613429 34.126442 0.000244
-4.299606 34.126442 0.000235
-3.985783 34.126442 0.000386
-3.671960 34.126442 0.000388
-3.358137 34.126442 0.000138
-3.044314 34.126442 0.000034
-2.730491 34.126442 0.000160
-2.416668 34.126442 0.000359
-2.102845 34.126442 0.000299
-1.789022 34.126442 0.000151
-1.475199 34.126442 0.000271
-1.161376 34.126442 0.000216
-0.847553 34.126442 0.000100
-0.533730 34.126442 0.000215
-0.219907 34.126442 0.000182
0.093916 34.126442 0.000114
0.407739 34.126442 0.000061
0.721562 34.126442 -0.000065
1.035385 34.126442 0.000042
1.349208 34.126442 0.000100
1.663032 34.126442 0.000038
1.976854 34.126442 0.000002
2.290677 34.126442 -0.000015
2.604500 34.126442 0.000006
2.918324 34.126442 0.000030
3.232146 34.126442 0.000052
3.545969 34.126442 0.000021
3.859793 34.126442 -0.000016
4.173615 34.126442 -0.000091
4.487438 34.126442 -0.000198
4.801261 34.126442 -0.000338
5.115085 34.126442 -0.000452
5.428907 34.126442 -0.000507
5.742730 34.126442 -0.000368
6.056554 34.126442 -0.000425
6.370377 34.126442 -0.000458
6.684199 34.126442 -0.000703
6.998022 34.126442 -0.001175
7.311846 34.126442 -0.001760
7.625669 34.126442 -0.002148
7.939491 34.126442 -0.002682
8.253315 34.126442 -0.002393
8.567138 34.126442 -0.003073
8.880960 34.126442 -0.003900
9.194784 34.126442 -0.004779
9.508606 34.126442 -0.003986
9.822430 34.126442 -0.003308
10.136253 34.126442 -0.000414
10.450075 34.126442 -0.001223
10.763899 34.126442 0.004266
11.077723 34.126442 -0.001293
11.391544 34.126442 -0.004697
11.705368 34.126442 -0.005784
12.019190 34.126442 0.002266
12.333014 34.126442 0.012740
12.646837 34.126442 0.006332
12.960659 34.126442 0.012162
13.274483 34.126442 -0.003606
13.588306 34.126442 0.001210
13.902128 34.126442 -0.007452
14.215952 34.126442 0.006353
14.529776 34.126442 0.002392
14.843597 34.126442 -0.003201
15.157421 34.126442 -0.006994
15.471243 34.126442 0.000782
15.785067 34.126442 0.009243
16.098890 34.126442 0.014262
16.412712 34.126442 0.020539
16.726536 34.126442 0.023624
17.040359 34.126442 0.025662
17.354181 34.126442 0.015764
17.668005 34.126442 0.000777
17.981829 34.126442 -0.006135
18.295650 34.126442 -0.011738
18.609474 34.126442 -0.024436
18.923298 34.126442 -0.018148
19.237120 34.126442 0.000000
-6.810190 33.812622 0.000000
-6.496367 33.812622 0.001725
-6.182544 33.812622 0.001054
-5.868721 33.812622 0.000731
-5.554898 33.812622 0.000657
-5.241075 33.812622 0.000486
-4.927252 33.812622 0.000294
-4.613429 33.812622 0.000260
-4.299606 33.812622 0.000339
-3.985783 33.812622 0.000488
-3.671960 33.812622 0.000488
-3.358137 33.812622 0.000227
-3.044314 33.812622 0.000077
-2.730491 33.812622 0.000102
-2.416668 33.812622 0.000169
-2.102845 33.812622 0.000177
-1.789022 33.812622 0.000134
-1.475199 33.812622 0.000188
-1.161376 33.812622 0.000147
-0.847553 33.812622 0.000113
-0.533730 33.812622 0.000271
-0.219907 33.812622 0.000243
0.093916 33.812622 0.000109
0.407739 33.812622 -0.000037
0.721562 33.812622 -0.000104
1.035385 33.812622 0.000041
1.349208 33.812622 0.000112
1.663032 33.812622 0.000077
1.976854 33.812622 0.000038
2.290677 33.812622 -0.000013
2.604500 33.812622 0.000014
2.918324 33.812622 0.000073
3.232146 33.812622 0.000048
3.545969 33.812622 0.000017
3.859793 33.812622 -0.000027
4.173615 33.812622 -0.000155
4.487438 33.812622 -0.000242
4.801261 33.812622 -0.000305
5.115085 33.812622 -0.000412
5.428907 33.812622 -0.000530
5.742730 33.812622 -0.000427
6.056554 33.812622 -0.000435
6.370377 33.812622 -0.000359
6.684199 33.812622 -0.000583
6.998022 33.812622 -0.001307
7.311846 33.812622 -0.002054
7.625669 33.812622 -0.002750
7.939491 33.812622 -0.003265
8.253315 33.812622 -0.002688
8.567138 33.812622 -0.003229
8.880960 33.812622 -0.002931
9.194784 33.812622 -0.003464
9.508606 33.812622 -0.002279
9.822430 33.812622 -0.001394
10.136253 33.812622 0.001306
10.450075 33.812622 0.001716
10.763899 33.812622 -0.000562
11.077723 33.812622 -0.003176
11.391544 33.812622 -0.000311
11.705368 33.812622 -0.004471
12.019190 33.812622 -0.003465
12.333014 33.812622 0.009093
12.646837 33.812622 0.005243
12.960659 33.812622 0.027772
13.274483 33.812622 0.007595
13.588306 33.812622 -0.009416
13.902128 33.812622 -0.004230
14.215952 33.812622 0.005778
14.529776 33.812622 0.007496
14.843597 33.812622 0.003195
15.157421 33.812622 -0.004033
15.471243 33.812622 0.008663
15.785067 33.812622 0.000904
16.098890 33.812622 0.002627
16.412712 33.812622 0.018906
16.726536 33.812622 0.028619
17.040359 33.812622 0.024351
17.354181 33.812622 0.010338
17.668005 33.812622 0.008587
17.981829 33.812622 0.006508
18.295650 33.812622 -0.019954
18.609474 33.812622 -0.026611
18.923298 33.812622 -0.017577
19.237120 33.812622 0.000000
-6.810190 33.498795 0.000000
-6.496367 33.498795 0.001768
-6.182544 33.498795 0.001042
-5.868721 33.498795 0.000700
-5.554898 33.498795 0.000576
-5.241075 33.498795 0.000466
-4.927252 33.498795 0.000288
-4.613429 33.498795 0.000331
-4.299606 33.498795 0.000457
-3.985783 33.498795 0.000534
-3.671960 33.498795 0.000537
-3.358137 33.498795 0.000315
-3.044314 33.498795 0.000138
-2.730491 33.498795 0.000080
-2.416668 33.498795 0.000081
-2.102845 33.498795 0.000169
-1.789022 33.498795 0.000211
-1.475199 33.498795 0.000148
-1.161376 33.498795 0.000099
-0.847553 33.498795 0.000139
-0.533730 33.498795 0.000216
-0.219907 33.498795 0.000277
0.093916 33.498795 0.000161
0.407739 33.498795 -0.000029
0.721562 33.498795 -0.000132
1.035385 33.498795 -0.000011
1.349208 33.498795 0.000140
1.663032 33.498795 0.000174
1.976854 33.498795 0.000075
2.290677 33.498795 -0.000004
2.604500 33.498795 0.000007
2.918324 33.498795 0.000084
3.232146 33.498795 0.000020
3.545969 33.498795 -0.000029
3.859793 33.498795 -0.000101
4.173615 33.498795 -0.000187
4.487438 33.498795 -0.000244
4.801261 33.498795 -0.000288
5.115085 33.498795 -0.000344
5.428907 33.498795 -0.000468
5.742730 33.498795 -0.000447
6.056554 33.498795 -0.000332
6.370377 33.498795 -0.000208
6.684199 33.498795 -0.000397
6.998022 33.498795 -0.001158
7.311846 33.498795 -0.002110
7.625669 33.498795 -0.003084
7.939491 33.498795 -0.003634
8.253315 33.498795 -0.003264
8.567138 33.498795 -0.003950
8.880960 33.498795 -0.002785
9.194784 33.498795 -0.003383
9.508606 33.498795 -0.001357
9.822430 33.498795 0.001871
10.136253 33.498795 0.005947
10.450075 33.498795 0.004158
10.763899 33.498795 0.000620
11.077723 33.498795 0.001328
11.391544 33.498795 -0.005720
11.705368 33.498795 -0.003820
12.019190 33.498795 -0.006621
12.333014 33.498795 -0.000486
12.646837 33.498795 0.019415
12.960659 33.498795 0.022007
13.274483 33.498795 0.022679
13.588306 33.498795 0.000570
13.902128 33.498795 -0.001028
14.215952 33.498795 0.007462
14.529776 33.498795 0.012933
14.843597 33.498795 0.009666
15.157421 33.498795 0.005625
15.471243 33.498795 -0.013073
15.785067 33.498795 -0.003286
16.098890 33.498795 -0.000395
16.412712 33.498795 0.018197
16.726536 33.498795 0.023724
17.040359 33.498795 0.027846
17.354181 33.498795 0.020272
17.668005 33.498795 0.013949
17.981829 33.498795 0.012930
18.295650 33.498795 -0.012857
18.609474 33.498795 -0.021323
18.923298 33.498795 -0.004385
19.237120 33.498795 0.000000
-6.810190 33.184975 0.000000
-6.496367 33.184975 0.001078
-6.182544 33.184975 0.000970
-5.868721 33.184975 0.000651
-5.554898 33.184975 0.000547
-5.241075 33.184975 0.000500
-4.927252 33.184975 0.000330
-4.613429 33.184975 0.000417
-4.299606 33.184975 0.000492
-3.985783 33.184975 0.000493
-3.671960 33.184975 0.000513
-3.358137 33.184975 0.000372
-3.044314 33.184975 0.000222
-2.730491 33.184975 0.000142
-2.416668 33.184975 0.000115
-2.102845 33.184975 0.000208
-1.789022 33.184975 0.000298
-1.475199 33.184975 0.000188
-1.161376 33.184975 0.000214
-0.847553 33.184975 0.000218
-0.533730 33.184975 0.000130
-0.219907 33.184975 0.000253
0.093916 33.184975 0.000240
0.407739 33.184975 0.000036
0.721562 33.184975 -0.000122
1.035385 33.184975 -0.000058
1.349208 33.184975 0.000133
1.663032 33.184975 0.000233
1.976854 33.184975 0.000101
2.290677 33.184975 -0.000010
2.604500 33.184975 -0.000006
2.918324 33.184975 0.000067
3.232146 33.184975 -0.000001
3.545969 33.184975 -0.000058
3.859793 33.184975 -0.000138
4.173615 33.184975 -0.000217
4.487438 33.184975 -0.000259
4.801261 33.184975 -0.000244
5.115085 33.184975 -0.000263
5.428907 33.184975 -0.000405
5.742730 33.184975 -0.000472
6.056554 33.184975 -0.000339
6.370377 33.184975 -0.000171
6.684199 33.184975 -0.000276
6.998022 33.184975 -0.000798
7.311846 33.184975 -0.001810
7.625669 33.184975 -0.002945
7.939491 33.184975 -0.003929
8.253315 33.184975 -0.003746
8.567138 33.184975 -0.003460
8.880960 33.184975 -0.002882
9.194784 33.184975 -0.001482
9.508606 33.184975 -0.001268
9.822430 33.184975 0.002062
10.136253 33.184975 0.005502
10.450075 33.184975 0.006811
10.763899 33.184975 0.009896
11.077723 33.184975 0.009597
11.391544 33.184975 -0.001336
11.705368 33.184975 -0.006615
12.019190 33.184975 0.000415
12.333014 33.184975 0.003794
12.646837 33.184975 0.028903
12.960659 33.184975 0.032707
13.274483 33.184975 0.023254
13.588306 33.184975 0.017340
13.902128 33.184975 -0.000845
14.215952 33.184975 -0.004907
14.529776 33.184975 0.019636
14.843597 33.184975 0.021323
15.157421 33.184975 0.010541
15.471243 33.184975 -0.019108
15.785067 33.184975 -0.013925
16.098890 33.184975 0.002460
16.412712 33.184975 0.007973
16.726536 33.184975 0.026294
17.040359 33.184975 0.026317
17.354181 33.184975 0.025433
17.668005 33.184975 0.019233
17.981829 33.184975 0.011331
18.295650 33.184975 -0.003977
18.609474 33.184975 -0.011051
18.923298 33.184975 -0.006193
19.237120 33.184975 0.000000
-6.810190 32.871151 0.000000
-6.496367 32.871151 0.000880
-6.182544 32.871151 0.000808
-5.868721 32.871151 0.000612
-5.554898 32.871151 0.000594
-5.241075 32.871151 0.000511
-4.927252 32.871151 0.000409
-4.613429 32.871151 0.000482
-4.299606 32.871151 0.000473
-3.985783 32.871151 0.000455
-3.671960 32.871151 0.000443
-3.358137 32.871151 0.000386
-3.044314 32.871151 0.000314
-2.730491 32.871151 0.000237
-2.416668 32.871151 0.000264
-2.102845 32.871151 0.000246
-1.789022 32.871151 0.000281
-1.475199 32.871151 0.000309
-1.161376 32.871151 0.000379
-0.847553 32.871151 0.000288
-0.533730 32.871151 0.000061
-0.219907 32.871151 0.000228
0.093916 32.871151 0.000341
0.407739 32.871151 0.000080
0.721562 32.871151 -0.000076
1.035385 32.871151 -0.000046
1.349208 32.871151 0.000153
1.663032 32.871151 0.000206
1.976854 32.871151 0.000024
2.290677 32.871151 -0.000081
2.604500 32.871151 -0.000077
2.918324 32.871151 -0.000036
3.232146 32.871151 -0.000121
3.545969 32.871151 -0.000114
3.859793 32.871151 -0.000159
4.173615 32.871151 -0.000220
4.487438 32.871151 -0.000295
4.801261 32.871151 -0.000208
5.115085 32.871151 -0.000191
5.428907 32.871151 -0.000404
5.742730 32.871151 -0.000495
6.056554 32.871151 -0.000393
6.370377 32.871151 -0.000197
6.684199 32.871151 -0.000305
6.998022 32.871151 -0.000713
7.311846 32.871151 -0.001652
7.625669 32.871151 -0.002809
7.939491 32.871151 -0.003362
8.253315 32.871151 -0.003501
8.567138 32.871151 -0.003034
8.880960 32.871151 -0.002786
9.194784 32.871151 -0.002386
9.508606 32.871151 -0.003761
9.822430 32.871151 -0.004227
10.136253 32.871151 0.000583
10.450075 32.871151 0.006805
10.763899 32.871151 0.008554
11.077723 32.871151 0.004997
11.391544 32.871151 0.004936
11.705368 32.871151 0.001806
12.019190 32.871151 -0.000169
12.333014 32.871151 0.010911
12.646837 32.871151 0.023631
12.960659 32.871151 0.023891
13.274483 32.871151 0.026888
13.588306 32.871151 0.021422
13.902128 32.871151 0.000986
14.215952 32.871151 0.007133
14.529776 32.871151 0.031349
14.843597 32.871151 0.042345
15.157421 32.871151 0.010225
15.471243 32.871151 -0.013844
15.785067 32.871151 -0.014040
16.098890 32.871151 0.007755
16.412712 32.871151 0.007197
16.726536 32.871151 0.013644
17.040359 32.871151 0.024868
17.354181 32.871151 0.028270
17.668005 32.871151 0.013589
17.981829 32.871151 0.008070
18.295650 32.871151 -0.015083
18.609474 32.871151 -0.007851
18.923298 32.871151 -0.007306
19.237120 32.871151 0.000000
-6.810190 32.557327 0.000000
-6.496367 32.557327 0.000641
-6.182544 32.557327 0.000691
-5.868721 32.557327 0.000655
-5.554898 32.557327 0.000644
-5.241075 32.557327 0.000504
-4.927252 32.557327 0.000457
-4.613429 32.557327 0.000482
-4.299606 32.557327 0.000392
-3.985783 32.557327 0.000410
-3.671960 32.557327 0.000455
-3.358137 32.557327 0.000438
-3.044314 32.557327 0.000363
-2.730491 32.557327 0.000346
-2.416668 32.557327 0.000341
-2.102845 32.557327 0.000182
-1.789022 32.557327 0.000166
-1.475199 32.557327 0.000385
-1.161376 32.557327 0.000467
-0.847553 32.557327 0.000290
-0.533730 32.557327 0.000106
-0.219907 32.557327 0.000240
0.093916 32.557327 0.000371
0.407739 32.557327 0.000153
0.721562 32.557327 -0.000003
1.035385 32.557327 0.000009
1.349208 32.557327 0.000199
1.663032 32.557327 0.000173
1.976854 32.557327 -0.000037
2.290677 32.557327 -0.000173
2.604500 32.557327 -0.000163
2.918324 32.557327 -0.000143
3.232146 32.557327 -0.000230
3.545969 32.557327 -0.000183
3.859793 32.557327 -0.000185
4.173615 32.557327 -0.000165
4.487438 32.557327 -0.000306
4.801261 32.557327 -0.000197
5.115085 32.557327 -0.000147
5.428907 32.557327 -0.000362
5.742730 32.557327 -0.000482
6.056554 32.557327 -0.000431
6.370377 32.557327 -0.000303
6.684199 32.557327 -0.000425
6.998022 32.557327 -0.000868
7.311846 32.557327 -0.001640
7.625669 32.557327 -0.002529
7.939491 32.557327 -0.003129
8.253315 32.557327 -0.003391
8.567138 32.557327 -0.002690
8.880960 32.557327 -0.002857
9.194784 32.557327 -0.003332
9.508606 32.557327 -0.005578
9.822430 32.557327 -0.004707
10.136253 32.557327 0.000440
10.450075 32.557327 0.006386
10.763899 32.557327 0.009252
11.077723 32.557327 0.007885
11.391544 32.557327 0.004136
11.705368 32.557327 -0.000513
12.019190 32.557327 -0.004570
12.333014 32.557327 0.008165
12.646837 32.557327 0.021737
12.960659 32.557327 0.030101
13.274483 32.557327 0.026272
13.588306 32.557327 0.011656
13.902128 32.557327 -0.001298
14.215952 32.557327 0.000758
14.529776 32.557327 0.026426
14.843597 32.557327 0.032468
15.157421 32.557327 0.004225
15.471243 32.557327 -0.009065
15.785067 32.557327 -0.008483
16.098890 32.557327 0.005823
16.412712 32.557327 0.018282
16.726536 32.557327 0.022783
17.040359 32.557327 0.026447
17.354181 32.557327 0.029136
17.668005 32.557327 0.008986
17.981829 32.557327 -0.003949
18.295650 32.557327 -0.019425
18.609474 32.557327 -0.023791
18.923298 32.557327 -0.026688
19.237120 32.557327 0.000000
-6.810190 32.243507 0.000000
-6.496367 32.243507 0.000733
-6.182544 32.243507 0.000744
-5.868721 32.243507 0.000709
-5.554898 32.243507 0.000661
-5.241075 32.243507 0.000509
-4.927252 32.243507 0.000507
-4.613429 32.243507 0.000460
-4.299606 32.243507 0.000329
-3.985783 32.243507 0.000412
-3.671960 32.243507 0.000474
-3.358137 32.243507 0.000448
-3.044314 32.243507 0.000381
-2.730491 32.243507 0.000365
-2.416668 32.243507 0.000350
-2.102845 32.243507 0.000121
-1.789022 32.243507 0.000086
-1.475199 32.243507 0.000375
-1.161376 32.243507 0.000424
-0.847553 32.243507 0.000268
-0.533730 32.243507 0.000218
-0.219907 32.243507 0.000256
0.093916 32.243507 0.000321
0.407739 32.243507 0.000191
0.721562 32.243507 0.000051
1.035385 32.243507 0.000090
1.349208 32.243507 0.000228
1.663032 32.243507 0.000160
1.976854 32.243507 -0.000027
2.290677 32.243507 -0.000164
2.604500 32.243507 -0.000168
2.918324 32.243507 -0.000208
3.232146 32.243507 -0.000271
3.545969 32.243507 -0.000164
3.859793 32.243507 -0.000137
4.173615 32.243507 -0.000098
4.487438 32.243507 -0.000264
4.801261 32.243507 -0.000149
5.115085 32.243507 -0.000135
5.428907 32.243507 -0.000314
5.742730 32.243507 -0.000403
6.056554 32.243507 -0.000464
6.370377 32.243507 -0.000487
6.684199 32.243507 -0.000655
6.998022 32.243507 -0.000825
7.311846 32.243507 -0.001633
7.625669 32.243507 -0.002309
7.939491 32.243507 -0.002243
8.253315 32.243507 -0.002626
8.567138 32.243507 -0.002065
8.880960 32.243507 -0.003862
9.194784 32.243507 -0.005793
9.508606 32.243507 -0.006590
9.822430 32.243507 -0.004625
10.136253 32.243507 -0.002772
10.450075 32.243507 0.004297
10.763899 32.243507 0.005958
11.077723 32.243507 -0.000606
11.391544 32.243507 -0.001021
11.705368 32.243507 -0.000895
12.019190 32.243507 -0.003264
12.333014 32.243507 0.006591
12.646837 32.243507 0.020445
12.960659 32.243507 0.019117
13.274483 32.243507 0.031734
13.588306 32.243507 0.007508
13.902128 32.243507 -0.007849
14.215952 32.243507 -0.003714
14.529776 32.243507 0.022735
14.843597 32.243507 0.044851
15.157421 32.243507 0.021036
15.471243 32.243507 -0.006959
15.785067 32.243507 0.004417
16.098890 32.243507 0.015472
16.412712 32.243507 0.023688
16.726536 32.243507 0.033996
17.040359 32.243507 0.038699
17.354181 32.243507 0.023489
17.668005 32.243507 0.013598
17.981829 32.243507 -0.010385
18.295650 32.243507 -0.024804
18.609474 32.243507 -0.032072
18.923298 32.243507 -0.035108
19.237120 32.243507 0.000000
-6.810190 31.929682 0.000000
-6.496367 31.929682 0.001128
-6.182544 31.929682 0.000921
-5.868721 31.929682 0.000717
-5.554898 31.929682 0.000658
-5.241075 31.929682 0.000485
-4.927252 31.929682 0.000555
-4.613429 31.929682 0.000484
-4.299606 31.929682 0.000395
-3.985783 31.929682 0.000459
-3.671960 31.929682 0.000489
-3.358137 31.929682 0.000394
-3.044314 31.929682 0.000388
-2.730491 31.929682 0.000374
-2.416668 31.929682 0.000304
-2.102845 31.929682 0.000133
-1.789022 31.929682 0.000088
-1.475199 31.929682 0.000276
-1.161376 31.929682 0.000356
-0.847553 31.929682 0.000270
-0.533730 31.929682 0.000295
-0.219907 31.929682 0.000215
0.093916 31.929682 0.000204
0.407739 31.929682 0.000185
0.721562 31.929682 0.000031
1.035385 31.929682 0.000134
1.349208 31.929682 0.000264
1.663032 31.929682 0.000223
1.976854 31.929682 0.000090
2.290677 31.929682 -0.000041
2.604500 31.929682 -0.000083
2.918324 31.929682 -0.000185
3.232146 31.929682 -0.000231
3.545969 31.929682 -0.000089
3.859793 31.929682 0.000010
4.173615 31.929682 -0.000021
4.487438 31.929682 -0.000111
4.801261 31.929682 -0.000035
5.115085 31.929682 -0.000105
5.428907 31.929682 -0.000244
5.742730 31.929682 -0.000327
6.056554 31.929682 -0.000426
6.370377 31.929682 -0.000610
6.684199 31.929682 -0.000700
6.998022 31.929682 -0.000836
7.311846 31.929682 -0.001308
7.625669 31.929682 -0.001550
7.939491 31.929682 -0.002101
8.253315 31.929682 -0.002169
8.567138 31.929682 -0.002438
8.880960 31.929682 -0.003563
9.194784 31.929682 -0.004041
9.508606 31.929682 -0.006305
9.822430 31.929682 -0.004723
10.136253 31.929682 0.000124
10.450075 31.929682 0.005862
10.763899 31.929682 0.007345
11.077723 31.929682 0.001957
11.391544 31.929682 -0.004668
11.705368 31.929682 0.000307
12.019190 31.929682 0.000581
12.333014 31.929682 0.011052
12.646837 31.929682 0.021261
12.960659 31.929682 0.026353
13.274483 31.929682 0.024283
13.588306 31.929682 0.010932
13.902128 31.929682 -0.012018
14.215952 31.929682 -0.011615
14.529776 31.929682 0.021767
14.843597 31.929682 0.034556
15.157421 31.929682 0.019459
15.471243 31.929682 -0.004928
15.785067 31.929682 0.004190
16.098890 31.929682 0.022266
16.412712 31.929682 0.023510
16.726536 31.929682 0.041531
17.040359 31.929682 0.039590
17.354181 31.929682 0.035296
17.668005 31.929682 0.021550
17.981829 31.929682 -0.003705
18.295650 31.929682 -0.011343
18.609474 31.929682 -0.017210
18.923298 31.929682 -0.039731
19.237120 31.929682 0.000000
-6.810190 31.615858 0.000000
-6.496367 31.615858 0.001425
-6.182544 31.615858 0.001012
-5.868721 31.615858 0.000679
-5.554898 31.615858 0.000619
-5.241075 31.615858 0.000538
-4.927252 31.615858 0.000533
-4.613429 31.615858 0.000489
-4.299606 31.615858 0.000447
-3.985783 31.615858 0.000465
-3.671960 31.615858 0.000485
-3.358137 31.615858 0.000397
-3.044314 31.615858 0.000401
-2.730491 31.615858 0.000408
-2.416668 31.615858 0.000293
-2.102845 31.615858 0.000223
-1.789022 31.615858 0.000198
-1.475199 31.615858 0.000200
-1.161376 31.615858 0.000244
-0.847553 31.615858 0.000244
-0.533730 31.615858 0.000264
-0.219907 31.615858 0.000172
0.093916 31.615858 0.000083
0.407739 31.615858 0.000124
0.721562 31.615858 -0.000002
1.035385 31.615858 0.000103
1.349208 31.615858 0.000252
1.663032 31.615858 0.000262
1.976854 31.615858 0.000186
2.290677 31.615858 0.000035
2.604500 31.615858 -0.000010
2.918324 31.615858 -0.000106
3.232146 31.615858 -0.000104
3.545969 31.615858 0.000014
3.859793 31.615858 0.000133
4.173615 31.615858 0.000081
4.487438 31.615858 0.000008
4.801261 31.615858 0.000067
5.115085 31.615858 -0.000093
5.428907 31.615858 -0.000262
5.742730 31.615858 -0.000296
6.056554 31.615858 -0.000357
6.370377 31.615858 -0.000618
6.684199 31.615858 -0.000799
6.998022 31.615858 -0.000837
7.311846 31.615858 -0.001091
7.625669 31.615858 -0.001233
7.939491 31.615858 -0.001432
8.253315 31.615858 -0.001705
8.567138 31.615858 -0.002685
8.880960 31.615858 -0.003408
9.194784 31.615858 -0.003671
9.508606 31.615858 -0.004899
9.822430 31.615858 -0.004046
10.136253 31.615858 0.001475
10.450075 31.615858 0.005750
10.763899 31.615858 0.007331
11.077723 31.615858 0.003157
11.391544 31.615858 -0.000406
11.705368 31.615858 0.001747
12.019190 31.615858 0.000805
12.333014 31.615858 0.009088
12.646837 31.615858 0.012695
12.960659 31.615858 0.029525
13.274483 31.615858 0.026244
13.588306 31.615858 0.002360
13.902128 31.615858 -0.013287
14.215952 31.615858 -0.003982
14.529776 31.615858 0.019743
14.843597 31.615858 0.032101
15.157421 31.615858 0.011555
15.471243 31.615858 0.006315
15.785067 31.615858 -0.000128
16.098890 31.615858 0.007836
16.412712 31.615858 0.017141
16.726536 31.615858 0.027538
17.040359 31.615858 0.035346
17.354181 31.615858 0.037613
17.668005 31.615858 0.028975
17.981829 31.615858 0.003408
18.295650 31.615858 0.002629
18.609474 31.615858 -0.012486
18.923298 31.615858 -0.036496
19.237120 31.615858 0.000000
-6.810190 31.302036 0.000000
-6.496367 31.302036 0.001468
-6.182544 31.302036 0.000954
-5.868721 31.302036 0.000589
-5.554898 31.302036 0.000565
-5.241075 31.302036 0.000535
-4.927252 31.302036 0.000451
-4.613429 31.302036 0.000369
-4.299606 31.302036 0.000322
-3.985783 31.302036 0.000350
-3.671960 31.302036 0.000468
-3.358137 31.302036 0.000394
-3.044314 31.302036 0.000461
-2.730491 31.302036 0.000466
-2.416668 31.302036 0.000322
-2.102845 31.302036 0.000310
-1.789022 31.302036 0.000300
-1.475199 31.302036 0.000200
-1.161376 31.302036 0.000208
-0.847553 31.302036 0.000258
-0.533730 31.302036 0.000204
-0.219907 31.302036 0.000101
0.093916 31.302036 0.000047
0.407739 31.302036 0.000104
0.721562 31.302036 -0.000008
1.035385 31.302036 0.000061
1.349208 31.302036 0.000207
1.663032 31.302036 0.000237
1.976854 31.302036 0.000184
2.290677 31.302036 0.000053
2.604500 31.302036 0.000032
2.918324 31.302036 -0.000004
3.232146 31.302036 0.000042
3.545969 31.302036 0.000108
3.859793 31.302036 0.000200
4.173615 31.302036 0.000156
4.487438 31.302036 0.000059
4.801261 31.302036 0.000056
5.115085 31.302036 -0.000153
5.428907 31.302036 -0.000353
5.742730 31.302036 -0.000311
6.056554 31.302036 -0.000320
6.370377 31.302036 -0.000521
6.684199 31.302036 -0.000758
6.998022 31.302036 -0.000928
7.311846 31.302036 -0.000999
7.625669 31.302036 -0.000738
7.939491 31.302036 -0.001297
8.253315 31.302036 -0.001398
8.567138 31.302036 -0.002672
8.880960 31.302036 -0.003090
9.194784 31.302036 -0.003713
9.508606 31.302036 -0.002532
9.822430 31.302036 -0.003349
10.136253 31.302036 -0.000900
10.450075 31.302036 0.002971
10.763899 31.302036 0.006349
11.077723 31.302036 0.007265
11.391544 31.302036 -0.000023
11.705368 31.302036 0.002914
12.019190 31.302036 0.002167
12.333014 31.302036 0.003491
12.646837 31.302036 0.008161
12.960659 31.302036 0.030812
13.274483 31.302036 0.029470
13.588306 31.302036 -0.002840
13.902128 31.302036 -0.013474
14.215952 31.302036 0.005245
14.529776 31.302036 0.016396
14.843597 31.302036 0.021994
15.157421 31.302036 0.012956
15.471243 31.302036 -0.000155
15.785067 31.302036 -0.003934
16.098890 31.302036 0.014344
16.412712 31.302036 0.014359
16.726536 31.302036 0.019814
17.040359 31.302036 0.026309
17.354181 31.302036 0.041209
17.668005 31.302036 0.030208
17.981829 31.302036 0.012055
18.295650 31.302036 -0.000179
18.609474 31.302036 0.009810
18.923298 31.302036 -0.014095
19.237120 31.302036 0.000000
-6.810190 30.988213 0.000000
-6.496367 30.988213 0.001198
-6.182544 30.988213 0.000749
-5.868721 30.988213 0.000518
-5.554898 30.988213 0.000523
-5.241075 30.988213 0.000522
-4.927252 30.988213 0.000372
-4.613429 30.988213 0.000264
-4.299606 30.988213 0.000134
-3.985783 30.988213 0.000245
-3.671960 30.988213 0.000378
-3.358137 30.988213 0.000376
-3.044314 30.988213 0.000446
-2.730491 30.988213 0.000474
-2.416668 30.988213 0.000334
-2.102845 30.988213 0.000304
-1.789022 30.988213 0.000305
-1.475199 30.988213 0.000206
-1.161376 30.988213 0.000216
-0.847553 30.988213 0.000281
-0.533730 30.988213 0.000180
-0.219907 30.988213 0.000074
0.093916 30.988213 0.000067
0.407739 30.988213 0.000153
0.721562 30.988213 0.000107
1.035385 30.988213 0.000078
1.349208 30.988213 0.000206
1.663032 30.988213 0.000218
1.976854 30.988213 0.000155
2.290677 30.988213 0.000091
2.604500 30.988213 0.000074
2.918324 30.988213 0.000072
3.232146 30.988213 0.000190
3.545969 30.988213 0.000191
3.859793 30.988213 0.000241
4.173615 30.988213 0.000169
4.487438 30.988213 0.000073
4.801261 30.988213 0.000004
5.115085 30.988213 -0.000245
5.428907 30.988213 -0.000483
5.742730 30.988213 -0.000341
6.056554 30.988213 -0.000297
6.370377 30.988213 -0.000412
6.684199 30.988213 -0.000691
6.998022 30.988213 -0.000956
7.311846 30.988213 -0.000702
7.625669 30.988213 -0.000446
7.939491 30.988213 -0.001215
8.253315 30.988213 -0.001968
8.567138 30.988213 -0.002799
8.880960 30.988213 -0.002789
9.194784 30.988213 -0.002075
9.508606 30.988213 -0.000309
9.822430 30.988213 -0.000144
10.136253 30.988213 0.002685
10.450075 30.988213 0.004613
10.763899 30.988213 0.012084
11.077723 30.988213 0.007324
11.391544 30.988213 0.002425
11.705368 30.988213 0.003783
12.019190 30.988213 0.001794
12.333014 30.988213 0.003322
12.646837 30.988213 0.002526
12.960659 30.988213 0.017879
13.274483 30.988213 0.023969
13.588306 30.988213 0.000802
13.902128 30.988213 -0.000858
14.215952 30.988213 -0.010541
14.529776 30.988213 0.006129
14.843597 30.988213 0.016457
15.157421 30.988213 0.020524
15.471243 30.988213 -0.006398
15.785067 30.988213 0.002918
16.098890 30.988213 0.009441
16.412712 30.988213 0.007109
16.726536 30.988213 0.017214
17.040359 30.988213 0.029227
17.354181 30.988213 0.028636
17.668005 30.988213 0.022383
17.981829 30.988213 0.000994
18.295650 30.988213 -0.019288
18.609474 30.988213 -0.000178
18.923298 30.988213 -0.027446
19.237120 30.988213 0.000000
-6.810190 30.674389 0.000000
-6.496367 30.674389 0.000962
-6.182544 30.674389 0.000572
-5.868721 30.674389 0.000473
-5.554898 30.674389 0.000477
-5.241075 30.674389 0.000499
-4.927252 30.674389 0.000386
-4.613429 30.674389 0.000184
-4.299606 30.674389 0.000037
-3.985783 30.674389 0.000192
-3.671960 30.674389 0.000349
-3.358137 30.674389 0.000335
-3.044314 30.674389 0.000353
-2.730491 30.674389 0.000410
-2.416668 30.674389 0.000387
-2.102845 30.674389 0.000293
-1.789022 30.674389 0.000301
-1.475199 30.674389 0.000252
-1.161376 30.674389 0.000208
-0.847553 30.674389 0.000266
-0.533730 30.674389 0.000201
-0.219907 30.674389 0.000105
0.093916 30.674389 0.000159
0.407739 30.674389 0.000234
0.721562 30.674389 0.000253
1.035385 30.674389 0.000143
1.349208 30.674389 0.000223
1.663032 30.674389 0.000208
1.976854 30.674389 0.000134
2.290677 30.674389 0.000162
2.604500 30.674389 0.000126
2.918324 30.674389 0.000127
3.232146 30.674389 0.000239
3.545969 30.674389 0.000203
3.859793 30.674389 0.000171
4.173615 30.674389 0.000117
4.487438 30.674389 0.000022
4.801261 30.674389 -0.000098
5.115085 30.674389 -0.000338
5.428907 30.674389 -0.000516
5.742730 30.674389 -0.000371
6.056554 30.674389 -0.000215
6.370377 30.674389 -0.000209
6.684199 30.674389 -0.000613
6.998022 30.674389 -0.000987
7.311846 30.674389 -0.000782
7.625669 30.674389 -0.000849
7.939491 30.674389 -0.001098
8.253315 30.674389 -0.001954
8.567138 30.674389 -0.002547
8.880960 30.674389 -0.002431
9.194784 30.674389 -0.001193
9.508606 30.674389 -0.000789
9.822430 30.674389 0.000749
10.136253 30.674389 0.007379
10.450075 30.674389 0.005247
10.763899 30.674389 0.006824
11.077723 30.674389 0.010495
11.391544 30.674389 0.009087
11.705368 30.674389 0.011019
12.019190 30.674389 0.019145
12.333014 30.674389 0.000256
12.646837 30.674389 0.006629
12.960659 30.674389 0.018305
13.274483 30.674389 0.006214
13.588306 30.674389 0.001831
13.902128 30.674389 -0.005282
14.215952 30.674389 -0.020694
14.529776 30.674389 -0.006743
14.843597 30.674389 0.006371
15.157421 30.674389 0.012487
15.471243 30.674389 0.000284
15.785067 30.674389 0.005744
16.098890 30.674389 0.000593
16.412712 30.674389 -0.005559
16.726536 30.674389 0.006912
17.040359 30.674389 0.014452
17.354181 30.674389 0.028674
17.668005 30.674389 0.017318
17.981829 30.674389 -0.012879
18.295650 30.674389 -0.026607
18.609474 30.674389 -0.001044
18.923298 30.674389 -0.016060
19.237120 30.674389 0.000000
-6.810190 30.360567 0.000000
-6.496367 30.360567 0.000847
-6.182544 30.360567 0.000448
-5.868721 30.360567 0.000401
-5.554898 30.360567 0.000416
-5.241075 30.360567 0.000470
-4.927252 30.360567 0.000400
-4.613429 30.360567 0.000187
-4.299606 30.360567 0.000055
-3.985783 30.360567 0.000241
-3.671960 30.360567 0.000405
-3.358137 30.360567 0.000275
-3.044314 30.360567 0.000220
-2.730491 30.360567 0.000335
-2.416668 30.360567 0.000412
-2.102845 30.360567 0.000307
-1.789022 30.360567 0.000300
-1.475199 30.360567 0.000284
-1.161376 30.360567 0.000200
-0.847553 30.360567 0.000225
-0.533730 30.360567 0.000243
-0.219907 30.360567 0.000163
0.093916 30.360567 0.000212
0.407739 30.360567 0.000312
0.721562 30.360567 0.000336
1.035385 30.360567 0.000211
1.349208 30.360567 0.000248
1.663032 30.360567 0.000237
1.976854 30.360567 0.000153
2.290677 30.360567 0.000217
2.604500 30.360567 0.000222
2.918324 30.360567 0.000202
3.232146 30.360567 0.000246
3.545969 30.360567 0.000111
3.859793 30.360567 -0.000034
4.173615 30.360567 0.000021
4.487438 30.360567 -0.000059
4.801261 30.360567 -0.000180
5.115085 30.360567 -0.000360
5.428907 30.360567 -0.000473
5.742730 30.360567 -0.000469
6.056554 30.360567 -0.000210
6.370377 30.360567 -0.000125
6.684199 30.360567 -0.000493
6.998022 30.360567 -0.000799
7.311846 30.360567 -0.001003
7.625669 30.360567 -0.001113
7.939491 30.360567 -0.001852
8.253315 30.360567 -0.002626
8.567138 30.360567 -0.002665
8.880960 30.360567 -0.002912
9.194784 30.360567 -0.001239
9.508606 30.360567 -0.001284
9.822430 30.360567 -0.001052
10.136253 30.360567 0.006390
10.450075 30.360567 0.004659
10.763899 30.360567 0.009863
11.077723 30.360567 0.014629
11.391544 30.360567 0.001756
11.705368 30.360567 0.009011
12.019190 30.360567 0.017319
12.333014 30.360567 0.010036
12.646837 30.360567 0.005445
12.960659 30.360567 0.016513
13.274483 30.360567 0.014107
13.588306 30.360567 -0.005161
13.902128 30.360567 -0.012033
14.215952 30.360567 -0.030008
14.529776 30.360567 -0.019243
14.843597 30.360567 -0.003701
15.157421 30.360567 0.008382
15.471243 30.360567 0.014211
15.785067 30.360567 0.014457
16.098890 30.360567 0.005067
16.412712 30.360567 -0.014467
16.726536 30.360567 0.004712
17.040359 30.360567 0.023586
17.354181 30.360567 0.027405
17.668005 30.360567 0.023447
17.981829 30.360567 0.000151
18.295650 30.360567 -0.006686
18.609474 30.360567 0.004371
18.923298 30.360567 -0.013408
19.237120 30.360567 0.000000
-6.810190 30.046743 0.000000
-6.496367 30.046743 0.000948
-6.182544 30.046743 0.000435
-5.868721 30.046743 0.000351
-5.554898 30.046743 0.000368
-5.241075 30.046743 0.000430
-4.927252 30.046743 0.000423
-4.613429 30.046743 0.000257
-4.299606 30.046743 0.000194
-3.985783 30.046743 0.000363
-3.671960 30.046743 0.000457
-3.358137 30.046743 0.000260
-3.044314 30.046743 0.000223
-2.730491 30.046743 0.000359
-2.416668 30.046743 0.000368
-2.102845 30.046743 0.000317
-1.789022 30.046743 0.000270
-1.475199 30.046743 0.000227
-1.161376 30.046743 0.000188
-0.847553 30.046743 0.000180
-0.533730 30.046743 0.000283
-0.219907 30.046743 0.000168
0.093916 30.046743 0.000204
0.407739 30.046743 0.000305
0.721562 30.046743 0.000274
1.035385 30.046743 0.000201
1.349208 30.046743 0.000279
1.663032 30.046743 0.000267
1.976854 30.046743 0.000154
2.290677 30.046743 0.000204
2.604500 30.046743 0.000249
2.918324 30.046743 0.000239
3.232146 30.046743 0.000262
3.545969 30.046743 0.000047
3.859793 30.046743 -0.000180
4.173615 30.046743 -0.000112
4.487438 30.046743 -0.000168
4.801261 30.046743 -0.000245
5.115085 30.046743 -0.000300
5.428907 30.046743 -0.000413
5.742730 30.046743 -0.000460
6.056554 30.046743 -0.000132
6.370377 30.046743 0.000026
6.684199 30.046743 -0.000313
6.998022 30.046743 -0.000622
7.311846 30.046743 -0.001094
7.625669 30.046743 -0.001644
7.939491 30.046743 -0.002312
8.253315 30.046743 -0.002456
8.567138 30.046743 -0.002579
8.880960 30.046743 -0.002880
9.194784 30.046743 -0.001490
9.508606 30.046743 -0.000449
9.822430 30.046743 -0.000670
10.136253 30.046743 0.007799
10.450075 30.046743 0.007608
10.763899 30.046743 0.008553
11.077723 30.046743 0.004116
11.391544 30.046743 0.004362
11.705368 30.046743 0.002092
12.019190 30.046743 0.009183
12.333014 30.046743 0.008640
12.646837 30.046743 0.011621
12.960659 30.046743 0.024113
13.274483 30.046743 0.007057
13.588306 30.046743 -0.022226
13.902128 30.046743 -0.029660
14.215952 30.046743 -0.028945
14.529776 30.046743 -0.016438
14.843597 30.046743 -0.002318
15.157421 30.046743 -0.002233
15.471243 30.046743 0.023948
15.785067 30.046743 0.013255
16.098890 30.046743 0.009809
16.412712 30.046743 -0.001405
16.726536 30.046743 0.008209
17.040359 30.046743 0.015092
17.354181 30.046743 0.027621
17.668005 30.046743 0.022906
17.981829 30.046743 0.005850
18.295650 30.046743 -0.000726
18.609474 30.046743 -0.000342
18.923298 30.046743 -0.014988
19.237120 30.046743 0.000000
-6.810190 29.732922 0.000000
-6.496367 29.732922 0.001105
-6.182544 29.732922 0.000511
-5.868721 29.732922 0.000295
-5.554898 29.732922 0.000372
-5.241075 29.732922 0.000433
-4.927252 29.732922 0.000434
-4.613429 29.732922 0.000370
-4.299606 29.732922 0.000388
-3.985783 29.732922 0.000457
-3.671960 29.732922 0.000466
-3.358137 29.732922 0.000301
-3.044314 29.732922 0.000325
-2.730491 29.732922 0.000392
-2.416668 29.732922 0.000331
-2.102845 29.732922 0.000320
-1.789022 29.732922 0.000246
-1.475199 29.732922 0.000187
-1.161376 29.732922 0.000185
-0.847553 29.732922 0.000222
-0.533730 29.732922 0.000339
-0.219907 29.732922 0.000212
0.093916 29.732922 0.000190
0.407739 29.732922 0.000269
0.721562 29.732922 0.000158
1.035385 29.732922 0.000131
1.349208 29.732922 0.000241
1.663032 29.732922 0.000256
1.976854 29.732922 0.000168
2.290677 29.732922 0.000149
2.604500 29.732922 0.000215
2.918324 29.732922 0.000239
3.232146 29.732922 0.000268
3.545969 29.732922 0.000038
3.859793 29.732922 -0.000227
4.173615 29.732922 -0.000212
4.487438 29.732922 -0.000210
4.801261 29.732922 -0.000160
5.115085 29.732922 -0.000185
5.428907 29.732922 -0.000334
5.742730 29.732922 -0.000439
6.056554 29.732922 -0.000186
6.370377 29.732922 0.000035
6.684199 29.732922 -0.000052
6.998022 29.732922 -0.000365
7.311846 29.732922 -0.001137
7.625669 29.732922 -0.002096
7.939491 29.732922 -0.002204
8.253315 29.732922 -0.001850
8.567138 29.732922 -0.002003
8.880960 29.732922 -0.001479
9.194784 29.732922 -0.001106
9.508606 29.732922 -0.001042
9.822430 29.732922 -0.000921
10.136253 29.732922 0.006257
10.450075 29.732922 0.008208
10.763899 29.732922 0.004657
11.077723 29.732922 0.006857
11.391544 29.732922 0.004439
11.705368 29.732922 0.004366
12.019190 29.732922 0.012442
12.333014 29.732922 0.004374
12.646837 29.732922 0.009808
12.960659 29.732922 0.029181
13.274483 29.732922 0.008800
13.588306 29.732922 -0.023666
13.902128 29.732922 -0.031290
14.215952 29.732922 -0.023141
14.529776 29.732922 -0.001150
14.843597 29.732922 0.017274
15.157421 29.732922 0.009817
15.471243 29.732922 0.016951
15.785067 29.732922 0.025112
16.098890 29.732922 0.026135
16.412712 29.732922 0.020001
16.726536 29.732922 0.008353
17.040359 29.732922 0.011520
17.354181 29.732922 0.010734
17.668005 29.732922 0.022116
17.981829 29.732922 0.001714
18.295650 29.732922 -0.002997
18.609474 29.732922 0.008090
18.923298 29.732922 -0.026940
19.237120 29.732922 0.000000
-6.810190 29.419098 0.000000
-6.496367 29.419098 0.001152
-6.182544 29.419098 0.000595
-5.868721 29.419098 0.000323
-5.554898 29.419098 0.000423
-5.241075 29.419098 0.000476
-4.927252 29.419098 0.000431
-4.613429 29.419098 0.000446
-4.299606 29.419098 0.000526
-3.985783 29.419098 0.000538
-3.671960 29.419098 0.000462
-3.358137 29.419098 0.000344
-3.044314 29.419098 0.000385
-2.730491 29.419098 0.000440
-2.416668 29.419098 0.000330
-2.102845 29.419098 0.000270
-1.789022 29.419098 0.000198
-1.475199 29.419098 0.000148
-1.161376 29.419098 0.000271
-0.847553 29.419098 0.000344
-0.533730 29.419098 0.000432
-0.219907 29.419098 0.000293
0.093916 29.419098 0.000192
0.407739 29.419098 0.000183
0.721562 29.419098 0.000063
1.035385 29.419098 0.000089
1.349208 29.419098 0.000193
1.663032 29.419098 0.000231
1.976854 29.419098 0.000103
2.290677 29.419098 -0.000038
2.604500 29.419098 0.000079
2.918324 29.419098 0.000182
3.232146 29.419098 0.000249
3.545969 29.419098 0.000039
3.859793 29.419098 -0.000191
4.173615 29.419098 -0.000238
4.487438 29.419098 -0.000133
4.801261 29.419098 0.000006
5.115085 29.419098 -0.000003
5.428907 29.419098 -0.000190
5.742730 29.419098 -0.000413
6.056554 29.419098 -0.000262
6.370377 29.419098 -0.000121
6.684199 29.419098 -0.000123
6.998022 29.419098 -0.000209
7.311846 29.419098 -0.000969
7.625669 29.419098 -0.002308
7.939491 29.419098 -0.002214
8.253315 29.419098 -0.001674
8.567138 29.419098 -0.001832
8.880960 29.419098 -0.000426
9.194784 29.419098 -0.000011
9.508606 29.419098 -0.001928
9.822430 29.419098 0.000261
10.136253 29.419098 0.004418
10.450075 29.419098 0.008686
10.763899 29.419098 0.008474
11.077723 29.419098 0.007830
11.391544 29.419098 0.013720
11.705368 29.419098 0.016893
12.019190 29.419098 0.005452
12.333014 29.419098 0.003947
12.646837 29.419098 0.016019
12.960659 29.419098 0.022841
13.274483 29.419098 0.007154
13.588306 29.419098 -0.008039
13.902128 29.419098 -0.016337
14.215952 29.419098 -0.002511
14.529776 29.419098 0.020338
14.843597 29.419098 0.027112
15.157421 29.419098 0.013100
15.471243 29.419098 0.010990
15.785067 29.419098 0.024033
16.098890 29.419098 0.029205
16.412712 29.419098 0.022743
16.726536 29.419098 0.004680
17.040359 29.419098 0.008841
17.354181 29.419098 0.010429
17.668005 29.419098 0.012584
17.981829 29.419098 0.017853
18.295650 29.419098 0.008350
18.609474 29.419098 0.016238
18.923298 29.419098 -0.017211
19.237120 29.419098 0.000000
-6.810190 29.105274 0.000000
-6.496367 29.105274 0.001121
-6.182544 29.105274 0.000640
-5.868721 29.105274 0.000450
-5.554898 29.105274 0.000465
-5.241075 29.105274 0.000480
-4.927252 29.105274 0.000479
-4.613429 29.105274 0.000492
-4.299606 29.105274 0.000510
-3.985783 29.105274 0.000550
-3.671960 29.105274 0.000510
-3.358137 29.105274 0.000426
-3.044314 29.105274 0.000470
-2.730491 29.105274 0.000475
-2.416668 29.105274 0.000313
-2.102845 29.105274 0.000216
-1.789022 29.105274 0.000150
-1.475199 29.105274 0.000163
-1.161376 29.105274 0.000332
-0.847553 29.105274 0.000457
-0.533730 29.105274 0.000457
-0.219907 29.105274 0.000315
0.093916 29.105274 0.000165
0.407739 29.105274 0.000126
0.721562 29.105274 0.000048
1.035385 29.105274 0.000121
1.349208 29.105274 0.000195
1.663032 29.105274 0.000176
1.976854 29.105274 -0.000029
2.290677 29.105274 -0.000208
2.604500 29.105274 -0.000091
2.918324 29.105274 0.000137
3.232146 29.105274 0.000226
3.545969 29.105274 0.000028
3.859793 29.105274 -0.000100
4.173615 29.105274 -0.000157
4.487438 29.105274 -0.000047
4.801261 29.105274 0.000110
5.115085 29.105274 0.000100
5.428907 29.105274 -0.000081
5.742730 29.105274 -0.000318
6.056554 29.105274 -0.000303
6.370377 29.105274 -0.000371
6.684199 29.105274 -0.000198
6.998022 29.105274 -0.000217
7.311846 29.105274 -0.000945
7.625669 29.105274 -0.001920
7.939491 29.105274 -0.002038
8.253315 29.105274 -0.001224
8.567138 29.105274 -0.001144
8.880960 29.105274 -0.000138
9.194784 29.105274 -0.000126
9.508606 29.105274 -0.000232
9.822430 29.105274 -0.000396
10.136253 29.105274 0.000882
10.450075 29.105274 0.008844
10.763899 29.105274 0.010297
11.077723 29.105274 0.012007
11.391544 29.105274 0.013638
11.705368 29.105274 0.006285
12.019190 29.105274 0.007070
12.333014 29.105274 0.002371
12.646837 29.105274 0.019365
12.960659 29.105274 0.022251
13.274483 29.105274 0.016106
13.588306 29.105274 0.001266
13.902128 29.105274 -0.010820
14.215952 29.105274 0.007158
14.529776 29.105274 0.032461
14.843597 29.105274 0.028515
15.157421 29.105274 0.011050
15.471243 29.105274 0.012605
15.785067 29.105274 0.025788
16.098890 29.105274 0.031857
16.412712 29.105274 0.012735
16.726536 29.105274 0.008721
17.040359 29.105274 0.007167
17.354181 29.105274 0.010479
17.668005 29.105274 0.014287
17.981829 29.105274 0.004183
18.295650 29.105274 0.005860
18.609474 29.105274 0.023433
18.923298 29.105274 0.001222
19.237120 29.105274 0.000000
-6.810190 28.791452 0.000000
-6.496367 28.791452 0.000996
-6.182544 28.791452 0.000639
-5.868721 28.791452 0.000627
-5.554898 28.791452 0.000537
-5.241075 28.791452 0.000531
-4.927252 28.791452 0.000541
-4.613429 28.791452 0.000514
-4.299606 28.791452 0.000457
-3.985783 28.791452 0.000478
-3.671960 28.791452 0.000494
-3.358137 28.791452 0.000451
-3.044314 28.791452 0.000488
-2.730491 28.791452 0.000478
-2.416668 28.791452 0.000318
-2.102845 28.791452 0.000184
-1.789022 28.791452 0.000108
-1.475199 28.791452 0.000161
-1.161376 28.791452 0.000309
-0.847553 28.791452 0.000472
-0.533730 28.791452 0.000442
-0.219907 28.791452 0.000256
0.093916 28.791452 0.000108
0.407739 28.791452 0.000041
0.721562 28.791452 0.000106
1.035385 28.791452 0.000210
1.349208 28.791452 0.000228
1.663032 28.791452 0.000140
1.976854 28.791452 -0.000071
2.290677 28.791452 -0.000255
2.604500 28.791452 -0.000172
2.918324 28.791452 0.000060
3.232146 28.791452 0.000144
3.545969 28.791452 -0.000028
3.859793 28.791452 -0.000056
4.173615 28.791452 0.000009
4.487438 28.791452 0.000116
4.801261 28.791452 0.000157
5.115085 28.791452 0.000120
5.428907 28.791452 0.000033
5.742730 28.791452 -0.000178
6.056554 28.791452 -0.000295
6.370377 28.791452 -0.000496
6.684199 28.791452 -0.000397
6.998022 28.791452 -0.000510
7.311846 28.791452 -0.000839
7.625669 28.791452 -0.001460
7.939491 28.791452 -0.001848
8.253315 28.791452 -0.001284
8.567138 28.791452 0.000161
8.880960 28.791452 -0.000596
9.194784 28.791452 0.000847
9.508606 28.791452 0.000132
9.822430 28.791452 -0.001505
10.136253 28.791452 -0.000985
10.450075 28.791452 0.004226
10.763899 28.791452 0.012249
11.077723 28.791452 0.007574
11.391544 28.791452 0.005717
11.705368 28.791452 0.008353
12.019190 28.791452 0.000397
12.333014 28.791452 -0.002329
12.646837 28.791452 0.007443
12.960659 28.791452 0.021837
13.274483 28.791452 0.018736
13.588306 28.791452 0.001662
13.902128 28.791452 -0.000720
14.215952 28.791452 0.022761
14.529776 28.791452 0.038011
14.843597 28.791452 0.027446
15.157421 28.791452 0.007682
15.471243 28.791452 0.018886
15.785067 28.791452 0.037182
16.098890 28.791452 0.042818
16.412712 28.791452 0.015438
16.726536 28.791452 0.020209
17.040359 28.791452 0.014965
17.354181 28.791452 0.011193
17.668005 28.791452 0.004424
17.981829 28.791452 0.000191
18.295650 28.791452 0.003626
18.609474 28.791452 0.021064
18.923298 28.791452 -0.005403
19.237120 28.791452 0.000000
-6.810190 28.477629 0.000000
-6.496367 28.477629 0.000859
-6.182544 28.477629 0.000683
-5.868721 28.477629 0.000779
-5.554898 28.477629 0.000606
-5.241075 28.477629 0.000583
-4.927252 28.477629 0.000577
-4.613429 28.477629 0.000461
-4.299606 28.477629 0.000392
-3.985783 28.477629 0.000437
-3.671960 28.477629 0.000468
-3.358137 28.477629 0.000408
-3.044314 28.477629 0.000440
-2.730491 28.477629 0.000451
-2.416668 28.477629 0.000348
-2.102845 28.477629 0.000192
-1.789022 28.477629 0.000115
-1.475199 28.477629 0.000205
-1.161376 28.477629 0.000283
-0.847553 28.477629 0.000420
-0.533730 28.477629 0.000410
-0.219907 28.477629 0.000228
0.093916 28.477629 0.000080
0.407739 28.477629 0.000055
0.721562 28.477629 0.000184
1.035385 28.477629 0.000277
1.349208 28.477629 0.000263
1.663032 28.477629 0.000123
1.976854 28.477629 -0.000048
2.290677 28.477629 -0.000200
2.604500 28.477629 -0.000214
2.918324 28.477629 -0.000060
3.232146 28.477629 -0.000001
3.545969 28.477629 -0.000116
3.859793 28.477629 -0.000042
4.173615 28.477629 0.000136
4.487438 28.477629 0.000229
4.801261 28.477629 0.000215
5.115085 28.477629 0.000147
5.428907 28.477629 0.000080
5.742730 28.477629 -0.000061
6.056554 28.477629 -0.000238
6.370377 28.477629 -0.000531
6.684199 28.477629 -0.000705
6.998022 28.477629 -0.000737
7.311846 28.477629 -0.000912
7.625669 28.477629 -0.001124
7.939491 28.477629 -0.001494
8.253315 28.477629 -0.001443
8.567138 28.477629 -0.001446
8.880960 28.477629 -0.000813
9.194784 28.477629 -0.000356
9.508606 28.477629 -0.000012
9.822430 28.477629 -0.004194
10.136253 28.477629 -0.003933
10.450075 28.477629 0.002118
10.763899 28.477629 0.005806
11.077723 28.477629 0.004552
11.391544 28.477629 0.004817
11.705368 28.477629 0.001804
12.019190 28.477629 -0.001477
12.333014 28.477629 0.000897
12.646837 28.477629 0.015571
12.960659 28.477629 0.017279
13.274483 28.477629 0.015947
13.588306 28.477629 0.000855
13.902128 28.477629 0.001203
14.215952 28.477629 0.020091
14.529776 28.477629 0.034716
14.843597 28.477629 0.023076
15.157421 28.477629 0.014065
15.471243 28.477629 0.021719
15.785067 28.477629 0.044942
16.098890 28.477629 0.038198
16.412712 28.477629 0.019613
16.726536 28.477629 0.008356
17.040359 28.477629 0.016693
17.354181 28.477629 0.016250
17.668005 28.477629 0.008823
17.981829 28.477629 -0.008619
18.295650 28.477629 -0.002586
18.609474 28.477629 0.004880
18.923298 28.477629 -0.037033
19.237120 28.477629 0.000000
-6.810190 28.163805 0.000000
-6.496367 28.163805 0.000864
-6.182544 28.163805 0.000755
-5.868721 28.163805 0.000875
-5.554898 28.163805 0.000678
-5.241075 28.163805 0.000644
-4.927252 28.163805 0.000568
-4.613429 28.163805 0.000439
-4.299606 28.163805 0.000379
-3.985783 28.163805 0.000425
-3.671960 28.163805 0.000436
-3.358137 28.163805 0.000328
-3.044314 28.163805 0.000343
-2.730491 28.163805 0.000395
-2.416668 28.163805 0.000357
-2.102845 28.163805 0.000294
-1.789022 28.163805 0.000236
-1.475199 28.163805 0.000304
-1.161376 28.163805 0.000261
-0.847553 28.163805 0.000350
-0.533730 28.163805 0.000342
-0.219907 28.163805 0.000227
0.093916 28.163805 0.000159
0.407739 28.163805 0.000179
0.721562 28.163805 0.000275
1.035385 28.163805 0.000332
1.349208 28.163805 0.000318
1.663032 28.163805 0.000159
1.976854 28.163805 0.000007
2.290677 28.163805 -0.000121
2.604500 28.163805 -0.000206
2.918324 28.163805 -0.000122
3.232146 28.163805 -0.000045
3.545969 28.163805 -0.000106
3.859793 28.163805 -0.000015
4.173615 28.163805 0.000198
4.487438 28.163805 0.000232
4.801261 28.163805 0.000207
5.115085 28.163805 0.000140
5.428907 28.163805 0.000055
5.742730 28.163805 0.000039
6.056554 28.163805 -0.000162
6.370377 28.163805 -0.000652
6.684199 28.163805 -0.000814
6.998022 28.163805 -0.000845
7.311846 28.163805 -0.000909
7.625669 28.163805 -0.000741
7.939491 28.163805 -0.001197
8.253315 28.163805 -0.001303
8.567138 28.163805 -0.002557
8.880960 28.163805 -0.003493
9.194784 28.163805 -0.001081
9.508606 28.163805 0.000560
9.822430 28.163805 -0.002871
10.136253 28.163805 -0.002385
10.450075 28.163805 0.001860
10.763899 28.163805 0.005857
11.077723 28.163805 0.007441
11.391544 28.163805 0.004522
11.705368 28.163805 0.003080
12.019190 28.163805 0.008183
12.333014 28.163805 0.003667
12.646837 28.163805 0.030038
12.960659 28.163805 0.035661
13.274483 28.163805 0.011502
13.588306 28.163805 -0.009715
13.902128 28.163805 -0.003695
14.215952 28.163805 0.007607
14.529776 28.163805 0.031795
14.843597 28.163805 0.028124
15.157421 28.163805 0.009089
15.471243 28.163805 0.018065
15.785067 28.163805 0.037531
16.098890 28.163805 0.034894
16.412712 28.163805 0.022971
16.726536 28.163805 0.001492
17.040359 28.163805 0.008510
17.354181 28.163805 0.013258
17.668005 28.163805 0.018079
17.981829 28.163805 -0.000973
18.295650 28.163805 -0.005497
18.609474 28.163805 -0.003404
18.923298 28.163805 -0.046267
19.237120 28.163805 0.000000
-6.810190 27.849983 0.000000
-6.496367 27.849983 0.000935
-6.182544 27.849983 0.000802
-5.868721 27.849983 0.000843
-5.554898 27.849983 0.000746
-5.241075 27.849983 0.000749
-4.927252 27.849983 0.000592
-4.613429 27.849983 0.000443
-4.299606 27.849983 0.000436
-3.985783 27.849983 0.000423
-3.671960 27.849983 0.000390
-3.358137 27.849983 0.000232
-3.044314 27.849983 0.000277
-2.730491 27.849983 0.000348
-2.416668 27.849983 0.000365
-2.102845 27.849983 0.000394
-1.789022 27.849983 0.000349
-1.475199 27.849983 0.000338
-1.161376 27.849983 0.000256
-0.847553 27.849983 0.000311
-0.533730 27.849983 0.000297
-0.219907 27.849983 0.000222
0.093916 27.849983 0.000255
0.407739 27.849983 0.000267
0.721562 27.849983 0.000284
1.035385 27.849983 0.000307
1.349208 27.849983 0.000316
1.663032 27.849983 0.000225
1.976854 27.849983 0.000105
2.290677 27.849983 -0.000035
2.604500 27.849983 -0.000136
2.918324 27.849983 -0.000104
3.232146 27.849983 -0.000020
3.545969 27.849983 -0.000007
3.859793 27.849983 0.000014
4.173615 27.849983 0.000182
4.487438 27.849983 0.000220
4.801261 27.849983 0.000166
5.115085 27.849983 0.000080
5.428907 27.849983 -0.000032
5.742730 27.849983 0.000005
6.056554 27.849983 -0.000117
6.370377 27.849983 -0.000632
6.684199 27.849983 -0.000825
6.998022 27.849983 -0.000774
7.311846 27.849983 -0.000636
7.625669 27.849983 -0.000658
7.939491 27.849983 -0.000821
8.253315 27.849983 -0.000962
8.567138 27.849983 -0.002324
8.880960 27.849983 -0.003574
9.194784 27.849983 -0.003000
9.508606 27.849983 -0.001950
9.822430 27.849983 -0.000512
10.136253 27.849983 0.002377
10.450075 27.849983 0.006485
10.763899 27.849983 0.004493
11.077723 27.849983 0.000646
11.391544 27.849983 0.004116
11.705368 27.849983 0.002179
12.019190 27.849983 0.007901
12.333014 27.849983 0.019425
12.646837 27.849983 0.037091
12.960659 27.849983 0.052262
13.274483 27.849983 0.007573
13.588306 27.849983 -0.002244
13.902128 27.849983 -0.005968
14.215952 27.849983 -0.000683
14.529776 27.849983 0.017333
14.843597 27.849983 0.021305
15.157421 27.849983 0.015536
15.471243 27.849983 0.007333
15.785067 27.849983 0.025485
16.098890 27.849983 0.019897
16.412712 27.849983 0.017435
16.726536 27.849983 -0.002423
17.040359 27.849983 0.006895
17.354181 27.849983 0.019165
17.668005 27.849983 0.019718
17.981829 27.849983 -0.004894
18.295650 27.849983 -0.005605
18.609474 27.849983 -0.011140
18.923298 27.849983 -0.043636
19.237120 27.849983 0.000000
-6.810190 27.536160 0.000000
-6.496367 27.536160 0.000973
-6.182544 27.536160 0.000734
-5.868721 27.536160 0.000682
-5.554898 27.536160 0.000721
-5.241075 27.536160 0.000764
-4.927252 27.536160 0.000570
-4.613429 27.536160 0.000461
-4.299606 27.536160 0.000449
-3.985783 27.536160 0.000436
-3.671960 27.536160 0.000335
-3.358137 27.536160 0.000189
-3.044314 27.536160 0.000277
-2.730491 27.536160 0.000330
-2.416668 27.536160 0.000337
-2.102845 27.536160 0.000468
-1.789022 27.536160 0.000399
-1.475199 27.536160 0.000327
-1.161376 27.536160 0.000248
-0.847553 27.536160 0.000295
-0.533730 27.536160 0.000278
-0.219907 27.536160 0.000224
0.093916 27.536160 0.000281
0.407739 27.536160 0.000274
0.721562 27.536160 0.000215
1.035385 27.536160 0.000223
1.349208 27.536160 0.000225
1.663032 27.536160 0.000255
1.976854 27.536160 0.000212
2.290677 27.536160 0.000082
2.604500 27.536160 -0.000011
2.918324 27.536160 -0.000037
3.232146 27.536160 0.000013
3.545969 27.536160 0.000038
3.859793 27.536160 -0.000003
4.173615 27.536160 0.000096
4.487438 27.536160 0.000157
4.801261 27.536160 0.000128
5.115085 27.536160 -0.000085
5.428907 27.536160 -0.000157
5.742730 27.536160 -0.000001
6.056554 27.536160 -0.000123
6.370377 27.536160 -0.000590
6.684199 27.536160 -0.000766
6.998022 27.536160 -0.000766
7.311846 27.536160 -0.000508
7.625669 27.536160 -0.000569
7.939491 27.536160 -0.000557
8.253315 27.536160 -0.001452
8.567138 27.536160 -0.003044
8.880960 27.536160 -0.002014
9.194784 27.536160 -0.003337
9.508606 27.536160 -0.002949
9.822430 27.536160 0.000867
10.136253 27.536160 0.007504
10.450075 27.536160 0.007368
10.763899 27.536160 0.010718
11.077723 27.536160 0.001766
11.391544 27.536160 0.004208
11.705368 27.536160 0.006519
12.019190 27.536160 0.012173
12.333014 27.536160 0.027772
12.646837 27.536160 0.038827
12.960659 27.536160 0.060098
13.274483 27.536160 0.037653
13.588306 27.536160 0.008878
13.902128 27.536160 -0.003887
14.215952 27.536160 0.003091
14.529776 27.536160 0.026433
14.843597 27.536160 0.031236
15.157421 27.536160 0.005403
15.471243 27.536160 -0.007461
15.785067 27.536160 -0.002018
16.098890 27.536160 0.012257
16.412712 27.536160 0.021175
16.726536 27.536160 -0.002494
17.040359 27.536160 -0.003831
17.354181 27.536160 0.013053
17.668005 27.536160 0.015284
17.981829 27.536160 0.011546
18.295650 27.536160 0.003537
18.609474 27.536160 -0.001907
18.923298 27.536160 -0.041124
19.237120 27.536160 0.000000
-6.810190 27.222336 0.000000
-6.496367 27.222336 0.000986
-6.182544 27.222336 0.000674
-5.868721 27.222336 0.000579
-5.554898 27.222336 0.000643
-5.241075 27.222336 0.000652
-4.927252 27.222336 0.000491
-4.613429 27.222336 0.000396
-4.299606 27.222336 0.000349
-3.985783 27.222336 0.000400
-3.671960 27.222336 0.000304
-3.358137 27.222336 0.000204
-3.044314 27.222336 0.000317
-2.730491 27.222336 0.000367
-2.416668 27.222336 0.000334
-2.102845 27.222336 0.000502
-1.789022 27.222336 0.000393
-1.475199 27.222336 0.000309
-1.161376 27.222336 0.000284
-0.847553 27.222336 0.000323
-0.533730 27.222336 0.000250
-0.219907 27.222336 0.000242
0.093916 27.222336 0.000286
0.407739 27.222336 0.000237
0.721562 27.222336 0.000195
1.035385 27.222336 0.000183
1.349208 27.222336 0.000168
1.663032 27.222336 0.000281
1.976854 27.222336 0.000309
2.290677 27.222336 0.000190
2.604500 27.222336 0.000080
2.918324 27.222336 0.000034
3.232146 27.222336 0.000037
3.545969 27.222336 0.000006
3.859793 27.222336 -0.000089
4.173615 27.222336 -0.000029
4.487438 27.222336 0.000061
4.801261 27.222336 0.000017
5.115085 27.222336 -0.000205
5.428907 27.222336 -0.000252
5.742730 27.222336 -0.000113
6.056554 27.222336 -0.000161
6.370377 27.222336 -0.000539
6.684199 27.222336 -0.000669
6.998022 27.222336 -0.000645
7.311846 27.222336 -0.000506
7.625669 27.222336 -0.000295
7.939491 27.222336 -0.001161
8.253315 27.222336 -0.001722
8.567138 27.222336 -0.002391
8.880960 27.222336 -0.001829
9.194784 27.222336 -0.001978
9.508606 27.222336 -0.002402
9.822430 27.222336 -0.000013
10.136253 27.222336 0.006842
10.450075 27.222336 0.006698
10.763899 27.222336 0.010118
11.077723 27.222336 -0.001867
11.391544 27.222336 0.012828
11.705368 27.222336 0.017534
12.019190 27.222336 0.020721
12.333014 27.222336 0.026926
12.646837 27.222336 0.046817
12.960659 27.222336 0.054948
13.274483 27.222336 0.039267
13.588306 27.222336 0.020475
13.902128 27.222336 0.000666
14.215952 27.222336 0.000886
14.529776 27.222336 0.028096
14.843597 27.222336 0.046731
15.157421 27.222336 0.012032
15.471243 27.222336 -0.011718
15.785067 27.222336 -0.018032
16.098890 27.222336 0.005607
16.412712 27.222336 0.018847
16.726536 27.222336 0.000817
17.040359 27.222336 0.001482
17.354181 27.222336 0.012673
17.668005 27.222336 0.016531
17.981829 27.222336 0.003787
18.295650 27.222336 -0.014980
18.609474 27.222336 0.004393
18.923298 27.222336 -0.050326
19.237120 27.222336 0.000000
-6.810190 26.908514 0.000000
-6.496367 26.908514 0.000997
-6.182544 26.908514 0.000672
-5.868721 26.908514 0.000560
-5.554898 26.908514 0.000538
-5.241075 26.908514 0.000483
-4.927252 26.908514 0.000333
-4.613429 26.908514 0.000222
-4.299606 26.908514 0.000174
-3.985783 26.908514 0.000321
-3.671960 26.908514 0.000305
-3.358137 26.908514 0.000292
-3.044314 26.908514 0.000378
-2.730491 26.908514 0.000413
-2.416668 26.908514 0.000375
-2.102845 26.908514 0.000467
-1.789022 26.908514 0.000351
-1.475199 26.908514 0.000236
-1.161376 26.908514 0.000255
-0.847553 26.908514 0.000327
-0.533730 26.908514 0.000263
-0.219907 26.908514 0.000264
0.093916 26.908514 0.000230
0.407739 26.908514 0.000198
0.721562 26.908514 0.000201
1.035385 26.908514 0.000193
1.349208 26.908514 0.000177
1.663032 26.908514 0.000315
1.976854 26.908514 0.000360
2.290677 26.908514 0.000249
2.604500 26.908514 0.000110
2.918324 26.908514 0.000109
3.232146 26.908514 0.000074
3.545969 26.908514 -0.000046
3.859793 26.908514 -0.000189
4.173615 26.908514 -0.000126
4.487438 26.908514 -0.000017
4.801261 26.908514 -0.000070
5.115085 26.908514 -0.000188
5.428907 26.908514 -0.000274
5.742730 26.908514 -0.000125
6.056554 26.908514 -0.000106
6.370377 26.908514 -0.000338
6.684199 26.908514 -0.000553
6.998022 26.908514 -0.000600
7.311846 26.908514 -0.000557
7.625669 26.908514 -0.000538
7.939491 26.908514 -0.001073
8.253315 26.908514 -0.001811
8.567138 26.908514 -0.001856
8.880960 26.908514 -0.001962
9.194784 26.908514 -0.000508
9.508606 26.908514 -0.000730
9.822430 26.908514 0.001428
10.136253 26.908514 0.006331
10.450075 26.908514 0.010228
10.763899 26.908514 0.009078
11.077723 26.908514 0.006863
11.391544 26.908514 0.014216
11.705368 26.908514 0.019411
12.019190 26.908514 0.017820
12.333014 26.908514 0.028851
12.646837 26.908514 0.053218
12.960659 26.908514 0.044988
13.274483 26.908514 0.039272
13.588306 26.908514 0.021779
13.902128 26.908514 0.015940
14.215952 26.908514 0.009629
14.529776 26.908514 0.027931
14.843597 26.908514 0.041056
15.157421 26.908514 0.019110
15.471243 26.908514 -0.006619
15.785067 26.908514 -0.012630
16.098890 26.908514 0.016044
16.412712 26.908514 0.018259
16.726536 26.908514 0.017033
17.040359 26.908514 0.008177
17.354181 26.908514 0.004729
17.668005 26.908514 0.016759
17.981829 26.908514 0.000506
18.295650 26.908514 -0.003563
18.609474 26.908514 0.002975
18.923298 26.908514 -0.045035
19.237120 26.908514 0.000000
-6.810190 26.594690 0.000000
-6.496367 26.594690 0.000913
-6.182544 26.594690 0.000662
-5.868721 26.594690 0.000593
-5.554898 26.594690 0.000440
-5.241075 26.594690 0.000364
-4.927252 26.594690 0.000200
-4.613429 26.594690 0.000130
-4.299606 26.594690 0.000084
-3.985783 26.594690 0.000300
-3.671960 26.594690 0.000325
-3.358137 26.594690 0.000327
-3.044314 26.594690 0.000402
-2.730491 26.594690 0.000414
-2.416668 26.594690 0.000402
-2.102845 26.594690 0.000439
-1.789022 26.594690 0.000315
-1.475199 26.594690 0.000219
-1.161376 26.594690 0.000176
-0.847553 26.594690 0.000307
-0.533730 26.594690 0.000327
-0.219907 26.594690 0.000299
0.093916 26.594690 0.000166
0.407739 26.594690 0.000124
0.721562 26.594690 0.000234
1.035385 26.594690 0.000206
1.349208 26.594690 0.000205
1.663032 26.594690 0.000297
1.976854 26.594690 0.000352
2.290677 26.594690 0.000290
2.604500 26.594690 0.000160
2.918324 26.594690 0.000187
3.232146 26.594690 0.000172
3.545969 26.594690 -0.000080
3.859793 26.594690 -0.000215
4.173615 26.594690 -0.000151
4.487438 26.594690 -0.000056
4.801261 26.594690 -0.000043
5.115085 26.594690 -0.000127
5.428907 26.594690 -0.000217
5.742730 26.594690 -0.000068
6.056554 26.594690 0.000111
6.370377 26.594690 -0.000120
6.684199 26.594690 -0.000404
6.998022 26.594690 -0.000664
7.311846 26.594690 -0.000512
7.625669 26.594690 -0.000909
7.939491 26.594690 -0.001186
8.253315 26.594690 -0.001938
8.567138 26.594690 -0.002056
8.880960 26.594690 -0.001190
9.194784 26.594690 -0.000516
9.508606 26.594690 0.000915
9.822430 26.594690 0.002692
10.136253 26.594690 0.005506
10.450075 26.594690 0.009744
10.763899 26.594690 0.014322
11.077723 26.594690 0.013336
11.391544 26.594690 0.012064
11.705368 26.594690 0.012056
12.019190 26.594690 0.016178
12.333014 26.594690 0.027437
12.646837 26.594690 0.045653
12.960659 26.594690 0.048017
13.274483 26.594690 0.035488
13.588306 26.594690 0.013903
13.902128 26.594690 -0.001819
14.215952 26.594690 -0.001846
14.529776 26.594690 0.019262
14.843597 26.594690 0.034219
15.157421 26.594690 0.038809
15.471243 26.594690 -0.009510
15.785067 26.594690 -0.010035
16.098890 26.594690 0.004886
16.412712 26.594690 0.016437
16.726536 26.594690 0.017740
17.040359 26.594690 0.015236
17.354181 26.594690 0.015590
17.668005 26.594690 0.006460
17.981829 26.594690 -0.010014
18.295650 26.594690 -0.024662
18.609474 26.594690 0.001279
18.923298 26.594690 -0.046147
19.237120 26.594690 0.000000
-6.810190 26.280869 0.000000
-6.496367 26.280869 0.000855
-6.182544 26.280869 0.000645
-5.868721 26.280869 0.000576
-5.554898 26.280869 0.000416
-5.241075 26.280869 0.000333
-4.927252 26.280869 0.000239
-4.613429 26.280869 0.000173
-4.299606 26.280869 0.000163
-3.985783 26.280869 0.000335
-3.671960 26.280869 0.000376
-3.358137 26.280869 0.000314
-3.044314 26.280869 0.000364
-2.730491 26.280869 0.000372
-2.416668 26.280869 0.000385
-2.102845 26.280869 0.000426
-1.789022 26.280869 0.000349
-1.475199 26.280869 0.000242
-1.161376 26.280869 0.000167
-0.847553 26.280869 0.000330
-0.533730 26.280869 0.000375
-0.219907 26.280869 0.000331
0.093916 26.280869 0.000088
0.407739 26.280869 0.000093
0.721562 26.280869 0.000253
1.035385 26.280869 0.000193
1.349208 26.280869 0.000163
1.663032 26.280869 0.000215
1.976854 26.280869 0.000270
2.290677 26.280869 0.000287
2.604500 26.280869 0.000210
2.918324 26.280869 0.000240
3.232146 26.280869 0.000184
3.545969 26.280869 -0.000091
3.859793 26.280869 -0.000201
4.173615 26.280869 -0.000129
4.487438 26.280869 -0.000098
4.801261 26.280869 -0.000057
5.115085 26.280869 -0.000028
5.428907 26.280869 -0.000122
5.742730 26.280869 0.000063
6.056554 26.280869 0.000283
6.370377 26.280869 0.000066
6.684199 26.280869 -0.000348
6.998022 26.280869 -0.000633
7.311846 26.280869 -0.000799
7.625669 26.280869 -0.001178
7.939491 26.280869 -0.001393
8.253315 26.280869 -0.001342
8.567138 26.280869 -0.001433
8.880960 26.280869 -0.000934
9.194784 26.280869 0.001094
9.508606 26.280869 0.002087
9.822430 26.280869 0.000353
10.136253 26.280869 0.000235
10.450075 26.280869 0.010312
10.763899 26.280869 0.014890
11.077723 26.280869 0.021509
11.391544 26.280869 0.008869
11.705368 26.280869 0.012910
12.019190 26.280869 0.012408
12.333014 26.280869 0.016336
12.646837 26.280869 0.042988
12.960659 26.280869 0.049276
13.274483 26.280869 0.026989
13.588306 26.280869 0.017370
13.902128 26.280869 -0.002706
14.215952 26.280869 -0.013089
14.529776 26.280869 0.007568
14.843597 26.280869 0.017999
15.157421 26.280869 0.040472
15.471243 26.280869 0.003847
15.785067 26.280869 0.003238
16.098890 26.280869 0.007890
16.412712 26.280869 0.021263
16.726536 26.280869 0.031188
17.040359 26.280869 0.030345
17.354181 26.280869 0.015083
17.668005 26.280869 0.004877
17.981829 26.280869 -0.008306
18.295650 26.280869 -0.021903
18.609474 26.280869 -0.004730
18.923298 26.280869 -0.035033
19.237120 26.280869 0.000000
-6.810190 25.967045 0.000000
-6.496367 25.967045 0.000879
-6.182544 25.967045 0.000657
-5.868721 25.967045 0.000539
-5.554898 25.967045 0.000400
-5.241075 25.967045 0.000352
-4.927252 25.967045 0.000357
-4.613429 25.967045 0.000310
-4.299606 25.967045 0.000320
-3.985783 25.967045 0.000390
-3.671960 25.967045 0.000364
-3.358137 25.967045 0.000318
-3.044314 25.967045 0.000362
-2.730491 25.967045 0.000351
-2.416668 25.967045 0.000336
-2.102845 25.967045 0.000452
-1.789022 25.967045 0.000391
-1.475199 25.967045 0.000211
-1.161376 25.967045 0.000175
-0.847553 25.967045 0.000347
-0.533730 25.967045 0.000373
-0.219907 25.967045 0.000337
0.093916 25.967045 0.000053
0.407739 25.967045 0.000116
0.721562 25.967045 0.000255
1.035385 25.967045 0.000201
1.349208 25.967045 0.000152
1.663032 25.967045 0.000133
1.976854 25.967045 0.000154
2.290677 25.967045 0.000199
2.604500 25.967045 0.000239
2.918324 25.967045 0.000284
3.232146 25.967045 0.000155
3.545969 25.967045 -0.000044
3.859793 25.967045 -0.000114
4.173615 25.967045 -0.000088
4.487438 25.967045 -0.000161
4.801261 25.967045 -0.000097
5.115085 25.967045 0.000049
5.428907 25.967045 -0.000050
5.742730 25.967045 0.000055
6.056554 25.967045 0.000315
6.370377 25.967045 0.000056
6.684199 25.967045 -0.000430
6.998022 25.967045 -0.000708
7.311846 25.967045 -0.000968
7.625669 25.967045 -0.001257
7.939491 25.967045 -0.001608
8.253315 25.967045 -0.001471
8.567138 25.967045 -0.001627
8.880960 25.967045 -0.000349
9.194784 25.967045 0.000867
9.508606 25.967045 0.000134
9.822430 25.967045 -0.001119
10.136253 25.967045 0.004340
10.450075 25.967045 0.015434
10.763899 25.967045 0.020758
11.077723 25.967045 0.018961
11.391544 25.967045 0.017363
11.705368 25.967045 0.016980
12.019190 25.967045 0.003406
12.333014 25.967045 0.015996
12.646837 25.967045 0.037963
12.960659 25.967045 0.046220
13.274483 25.967045 0.030208
13.588306 25.967045 0.021039
13.902128 25.967045 0.010526
14.215952 25.967045 0.004969
14.529776 25.967045 -0.001358
14.843597 25.967045 0.032866
15.157421 25.967045 0.042871
15.471243 25.967045 0.024177
15.785067 25.967045 0.001901
16.098890 25.967045 0.009999
16.412712 25.967045 0.028310
16.726536 25.967045 0.045865
17.040359 25.967045 0.044597
17.354181 25.967045 0.021144
17.668005 25.967045 0.015836
17.981829 25.967045 -0.014327
18.295650 25.967045 -0.024623
18.609474 25.967045 -0.020070
18.923298 25.967045 -0.042162
19.237120 25.967045 0.000000
-6.810190 25.653221 0.000000
-6.496367 25.653221 0.000903
-6.182544 25.653221 0.000638
-5.868721 25.653221 0.000471
-5.554898 25.653221 0.000409
-5.241075 25.653221 0.000446
-4.927252 25.653221 0.000495
-4.613429 25.653221 0.000475
-4.299606 25.653221 0.000491
-3.985783 25.653221 0.000456
-3.671960 25.653221 0.000329
-3.358137 25.653221 0.000296
-3.044314 25.653221 0.000377
-2.730491 25.653221 0.000328
-2.416668 25.653221 0.000271
-2.102845 25.653221 0.000436
-1.789022 25.653221 0.000322
-1.475199 25.653221 0.000082
-1.161376 25.653221 0.000100
-0.847553 25.653221 0.000330
-0.533730 25.653221 0.000376
-0.219907 25.653221 0.000342
0.093916 25.653221 0.000088
0.407739 25.653221 0.000155
0.721562 25.653221 0.000230
1.035385 25.653221 0.000155
1.349208 25.653221 0.000082
1.663032 25.653221 0.000066
1.976854 25.653221 0.000059
2.290677 25.653221 0.000098
2.604500 25.653221 0.000223
2.918324 25.653221 0.000243
3.232146 25.653221 0.000094
3.545969 25.653221 0.000006
3.859793 25.653221 -0.000034
4.173615 25.653221 -0.000076
4.487438 25.653221 -0.000182
4.801261 25.653221 -0.000118
5.115085 25.653221 0.000078
5.428907 25.653221 -0.000022
5.742730 25.653221 -0.000034
6.056554 25.653221 0.000085
6.370377 25.653221 -0.000168
6.684199 25.653221 -0.000571
6.998022 25.653221 -0.000754
7.311846 25.653221 -0.001199
7.625669 25.653221 -0.001205
7.939491 25.653221 -0.001318
8.253315 25.653221 -0.001220
8.567138 25.653221 -0.000915
8.880960 25.653221 -0.000589
9.194784 25.653221 -0.001132
9.508606 25.653221 -0.000864
9.822430 25.653221 -0.002192
10.136253 25.653221 0.005810
10.450075 25.653221 0.017800
10.763899 25.653221 0.028859
11.077723 25.653221 0.022797
11.391544 25.653221 0.018938
11.705368 25.653221 0.020019
12.019190 25.653221 0.007233
12.333014 25.653221 0.016120
12.646837 25.653221 0.027852
12.960659 25.653221 0.049220
13.274483 25.653221 0.046637
13.588306 25.653221 0.035108
13.902128 25.653221 0.024898
14.215952 25.653221 0.010111
14.529776 25.653221 0.012433
14.843597 25.653221 0.036981
15.157421 25.653221 0.054298
15.471243 25.653221 0.024517
15.785067 25.653221 0.013561
16.098890 25.653221 0.018325
16.412712 25.653221 0.036087
16.726536 25.653221 0.042036
17.040359 25.653221 0.040373
17.354181 25.653221 0.034107
17.668005 25.653221 0.019969
17.981829 25.653221 -0.009718
18.295650 25.653221 -0.014794
18.609474 25.653221 -0.024969
18.923298 25.653221 -0.033125
19.237120 25.653221 0.000000
-6.810190 25.339399 0.000000
-6.496367 25.339399 0.000890
-6.182544 25.339399 0.000560
-5.868721 25.339399 0.000409
-5.554898 25.339399 0.000469
-5.241075 25.339399 0.000577
-4.927252 25.339399 0.000585
-4.613429 25.339399 0.000573
-4.299606 25.339399 0.000592
-3.985783 25.339399 0.000533
-3.671960 25.339399 0.000332
-3.358137 25.339399 0.000273
-3.044314 25.339399 0.000366
-2.730491 25.339399 0.000296
-2.416668 25.339399 0.000260
-2.102845 25.339399 0.000407
-1.789022 25.339399 0.000230
-1.475199 25.339399 0.000021
-1.161376 25.339399 0.000115
-0.847553 25.339399 0.000343
-0.533730 25.339399 0.000369
-0.219907 25.339399 0.000333
0.093916 25.339399 0.000195
0.407739 25.339399 0.000198
0.721562 25.339399 0.000204
1.035385 25.339399 0.000086
1.349208 25.339399 0.000011
1.663032 25.339399 0.000003
1.976854 25.339399 -0.000005
2.290677 25.339399 0.000042
2.604500 25.339399 0.000205
2.918324 25.339399 0.000153
3.232146 25.339399 0.000005
3.545969 25.339399 -0.000001
3.859793 25.339399 -0.000016
4.173615 25.339399 -0.000102
4.487438 25.339399 -0.000201
4.801261 25.339399 -0.000123
5.115085 25.339399 0.000109
5.428907 25.339399 0.000011
5.742730 25.339399 -0.000171
6.056554 25.339399 -0.000206
6.370377 25.339399 -0.000419
6.684199 25.339399 -0.000658
6.998022 25.339399 -0.000973
7.311846 25.339399 -0.001129
7.625669 25.339399 -0.000964
7.939491 25.339399 -0.001094
8.253315 25.339399 -0.000529
8.567138 25.339399 -0.000372
8.880960 25.339399 -0.000778
9.194784 25.339399 -0.000118
9.508606 25.339399 -0.001929
9.822430 25.339399 -0.003161
10.136253 25.339399 0.007725
10.450075 25.339399 0.020394
10.763899 25.339399 0.027787
11.077723 25.339399 0.021544
11.391544 25.339399 0.018851
11.705368 25.339399 0.024030
12.019190 25.339399 0.011910
12.333014 25.339399 0.012107
12.646837 25.339399 0.023466
12.960659 25.339399 0.042341
13.274483 25.339399 0.037020
13.588306 25.339399 0.039994
13.902128 25.339399 0.028480
14.215952 25.339399 0.021007
14.529776 25.339399 0.017559
14.843597 25.339399 0.029557
15.157421 25.339399 0.048902
15.471243 25.339399 0.030540
15.785067 25.339399 0.047108
16.098890 25.339399 0.035291
16.412712 25.339399 0.049391
16.726536 25.339399 0.048115
17.040359 25.339399 0.047663
17.354181 25.339399 0.039832
17.668005 25.339399 0.014405
17.981829 25.339399 0.002143
18.295650 25.339399 -0.011564
18.609474 25.339399 -0.022407
18.923298 25.339399 -0.032531
19.237120 25.339399 0.000000
-6.810190 25.025576 0.000000
-6.496367 25.025576 0.000781
-6.182544 25.025576 0.000511
-5.868721 25.025576 0.000465
-5.554898 25.025576 0.000548
-5.241075 25.025576 0.000668
-4.927252 25.025576 0.000607
-4.613429 25.025576 0.000607
-4.299606 25.025576 0.000645
-3.985783 25.025576 0.000592
-3.671960 25.025576 0.000390
-3.358137 25.025576 0.000284
-3.044314 25.025576 0.000354
-2.730491 25.025576 0.000279
-2.416668 25.025576 0.000302
-2.102845 25.025576 0.000369
-1.789022 25.025576 0.000207
-1.475199 25.025576 0.000033
-1.161376 25.025576 0.000155
-0.847553 25.025576 0.000375
-0.533730 25.025576 0.000373
-0.219907 25.025576 0.000331
0.093916 25.025576 0.000231
0.407739 25.025576 0.000203
0.721562 25.025576 0.000194
1.035385 25.025576 0.000101
1.349208 25.025576 0.000010
1.663032 25.025576 0.000002
1.976854 25.025576 0.000011
2.290677 25.025576 0.000021
2.604500 25.025576 0.000144
2.918324 25.025576 0.000063
3.232146 25.025576 -0.000099
3.545969 25.025576 -0.000075
3.859793 25.025576 -0.000030
4.173615 25.025576 -0.000130
4.487438 25.025576 -0.000209
4.801261 25.025576 -0.000128
5.115085 25.025576 0.000069
5.428907 25.025576 0.000025
5.742730 25.025576 -0.000200
6.056554 25.025576 -0.000370
6.370377 25.025576 -0.000593
6.684199 25.025576 -0.000837
6.998022 25.025576 -0.000919
7.311846 25.025576 -0.000797
7.625669 25.025576 -0.000448
7.939491 25.025576 -0.000699
8.253315 25.025576 -0.001108
8.567138 25.025576 -0.001322
8.880960 25.025576 -0.001510
9.194784 25.025576 -0.000710
9.508606 25.025576 -0.002010
9.822430 25.025576 -0.001420
10.136253 25.025576 0.004637
10.450075 25.025576 0.017979
10.763899 25.025576 0.025344
11.077723 25.025576 0.016165
11.391544 25.025576 0.017501
11.705368 25.025576 0.019826
12.019190 25.025576 0.014463
12.333014 25.025576 0.015773
12.646837 25.025576 0.029284
12.960659 25.025576 0.039166
13.274483 25.025576 0.039466
13.588306 25.025576 0.029148
13.902128 25.025576 0.033872
14.215952 25.025576 0.010054
14.529776 25.025576 0.014770
14.843597 25.025576 0.033210
15.157421 25.025576 0.037419
15.471243 25.025576 0.037121
15.785067 25.025576 0.041125
16.098890 25.025576 0.052548
16.412712 25.025576 0.047917
16.726536 25.025576 0.061544
17.040359 25.025576 0.052334
17.354181 25.025576 0.049714
17.668005 25.025576 0.035118
17.981829 25.025576 -0.006069
18.295650 25.025576 -0.012533
18.609474 25.025576 -0.010965
18.923298 25.025576 -0.049084
19.237120 25.025576 0.000000
-6.810190 24.711752 0.000000
-6.496367 24.711752 0.000645
-6.182544 24.711752 0.000548
-5.868721 24.711752 0.000604
-5.554898 24.711752 0.000645
-5.241075 24.711752 0.000678
-4.927252 24.711752 0.000605
-4.613429 24.711752 0.000617
-4.299606 24.711752 0.000649
-3.985783 24.711752 0.000612
-3.671960 24.711752 0.000417
-3.358137 24.711752 0.000339
-3.044314 24.711752 0.000363
-2.730491 24.711752 0.000320
-2.416668 24.711752 0.000329
-2.102845 24.711752 0.000346
-1.789022 24.711752 0.000230
-1.475199 24.711752 0.000104
-1.161376 24.711752 0.000198
-0.847553 24.711752 0.000380
-0.533730 24.711752 0.000344
-0.219907 24.711752 0.000269
0.093916 24.711752 0.000194
0.407739 24.711752 0.000196
0.721562 24.711752 0.000238
1.035385 24.711752 0.000164
1.349208 24.711752 0.000085
1.663032 24.711752 0.000025
1.976854 24.711752 0.000020
2.290677 24.711752 0.000024
2.604500 24.711752 0.000062
2.918324 24.711752 -0.000003
3.232146 24.711752 -0.000146
3.545969 24.711752 -0.000154
3.859793 24.711752 -0.000129
4.173615 24.711752 -0.000187
4.487438 24.711752 -0.000198
4.801261 24.711752 -0.000105
5.115085 24.711752 -0.000010
5.428907 24.711752 0.000005
5.742730 24.711752 -0.000109
6.056554 24.711752 -0.000400
6.370377 24.711752 -0.000638
6.684199 24.711752 -0.000829
6.998022 24.711752 -0.000672
7.311846 24.711752 -0.000535
7.625669 24.711752 -0.000415
7.939491 24.711752 -0.000617
8.253315 24.711752 -0.002286
8.567138 24.711752 -0.002476
8.880960 24.711752 -0.002268
9.194784 24.711752 -0.002795
9.508606 24.711752 -0.001715
9.822430 24.711752 -0.000439
10.136253 24.711752 0.004103
10.450075 24.711752 0.011748
10.763899 24.711752 0.022717
11.077723 24.711752 0.019007
11.391544 24.711752 0.014544
11.705368 24.711752 0.025024
12.019190 24.711752 0.011429
12.333014 24.711752 0.023275
12.646837 24.711752 0.031381
12.960659 24.711752 0.039176
13.274483 24.711752 0.047220
13.588306 24.711752 0.047963
13.902128 24.711752 0.029882
14.215952 24.711752 -0.004606
14.529776 24.711752 0.005121
14.843597 24.711752 0.021880
15.157421 24.711752 0.035761
15.471243 24.711752 0.021252
15.785067 24.711752 0.032175
16.098890 24.711752 0.047427
16.412712 24.711752 0.056526
16.726536 24.711752 0.072406
17.040359 24.711752 0.064109
17.354181 24.711752 0.048752
17.668005 24.711752 0.019407
17.981829 24.711752 0.006657
18.295650 24.711752 -0.026475
18.609474 24.711752 -0.020962
18.923298 24.711752 -0.042144
19.237120 24.711752 0.000000
-6.810190 24.397930 0.000000
-6.496367 24.397930 0.000576
-6.182544 24.397930 0.000603
-5.868721 24.397930 0.000644
-5.554898 24.397930 0.000635
-5.241075 24.397930 0.000590
-4.927252 24.397930 0.000576
-4.613429 24.397930 0.000577
-4.299606 24.397930 0.000583
-3.985783 24.397930 0.000558
-3.671960 24.397930 0.000437
-3.358137 24.397930 0.000377
-3.044314 24.397930 0.000355
-2.730491 24.397930 0.000351
-2.416668 24.397930 0.000366
-2.102845 24.397930 0.000317
-1.789022 24.397930 0.000269
-1.475199 24.397930 0.000178
-1.161376 24.397930 0.000241
-0.847553 24.397930 0.000358
-0.533730 24.397930 0.000281
-0.219907 24.397930 0.000205
0.093916 24.397930 0.000140
0.407739 24.397930 0.000193
0.721562 24.397930 0.000279
1.035385 24.397930 0.000258
1.349208 24.397930 0.000150
1.663032 24.397930 0.000042
1.976854 24.397930 0.000061
2.290677 24.397930 0.000031
2.604500 24.397930 0.000029
2.918324 24.397930 -0.000007
3.232146 24.397930 -0.000114
3.545969 24.397930 -0.000175
3.859793 24.397930 -0.000212
4.173615 24.397930 -0.000238
4.487438 24.397930 -0.000167
4.801261 24.397930 -0.000083
5.115085 24.397930 -0.000088
5.428907 24.397930 -0.000029
5.742730 24.397930 -0.000057
6.056554 24.397930 -0.000301
6.370377 24.397930 -0.000586
6.684199 24.397930 -0.000678
6.998022 24.397930 -0.000474
7.311846 24.397930 -0.000220
7.625669 24.397930 -0.000327
7.939491 24.397930 -0.000891
8.253315 24.397930 -0.002155
8.567138 24.397930 -0.003345
8.880960 24.397930 -0.003544
9.194784 24.397930 -0.002770
9.508606 24.397930 -0.002307
9.822430 24.397930 0.001072
10.136253 24.397930 0.003547
10.450075 24.397930 0.011682
10.763899 24.397930 0.017729
11.077723 24.397930 0.015839
11.391544 24.397930 0.020636
11.705368 24.397930 0.021037
12.019190 24.397930 0.010859
12.333014 24.397930 0.017933
12.646837 24.397930 0.035753
12.960659 24.397930 0.042667
13.274483 24.397930 0.040462
13.588306 24.397930 0.051872
13.902128 24.397930 0.040535
14.215952 24.397930 0.012391
14.529776 24.397930 -0.010695
14.843597 24.397930 0.008045
15.157421 24.397930 0.025963
15.471243 24.397930 0.020788
15.785067 24.397930 0.017894
16.098890 24.397930 0.034477
16.412712 24.397930 0.049875
16.726536 24.397930 0.059849
17.040359 24.397930 0.062986
17.354181 24.397930 0.054541
17.668005 24.397930 0.015224
17.981829 24.397930 0.010525
18.295650 24.397930 -0.009340
18.609474 24.397930 -0.006696
18.923298 24.397930 -0.043371
19.237120 24.397930 0.000000
-6.810190 24.084106 0.000000
-6.496367 24.084106 0.000540
-6.182544 24.084106 0.000606
-5.868721 24.084106 0.000615
-5.554898 24.084106 0.000547
-5.241075 24.084106 0.000494
-4.927252 24.084106 0.000515
-4.613429 24.084106 0.000499
-4.299606 24.084106 0.000496
-3.985783 24.084106 0.000438
-3.671960 24.084106 0.000398
-3.358137 24.084106 0.000421
-3.044314 24.084106 0.000364
-2.730491 24.084106 0.000380
-2.416668 24.084106 0.000431
-2.102845 24.084106 0.000372
-1.789022 24.084106 0.000328
-1.475199 24.084106 0.000257
-1.161376 24.084106 0.000269
-0.847553 24.084106 0.000288
-0.533730 24.084106 0.000232
-0.219907 24.084106 0.000217
0.093916 24.084106 0.000127
0.407739 24.084106 0.000223
0.721562 24.084106 0.000300
1.035385 24.084106 0.000287
1.349208 24.084106 0.000162
1.663032 24.084106 0.000063
1.976854 24.084106 0.000124
2.290677 24.084106 0.000088
2.604500 24.084106 0.000071
2.918324 24.084106 0.000066
3.232146 24.084106 -0.000020
3.545969 24.084106 -0.000097
3.859793 24.084106 -0.000199
4.173615 24.084106 -0.000236
4.487438 24.084106 -0.000093
4.801261 24.084106 -0.000025
5.115085 24.084106 -0.000126
5.428907 24.084106 -0.000072
5.742730 24.084106 -0.000002
6.056554 24.084106 -0.000179
6.370377 24.084106 -0.000374
6.684199 24.084106 -0.000369
6.998022 24.084106 -0.000205
7.311846 24.084106 -0.000190
7.625669 24.084106 -0.000596
7.939491 24.084106 -0.001467
8.253315 24.084106 -0.002614
8.567138 24.084106 -0.003968
8.880960 24.084106 -0.005820
9.194784 24.084106 -0.004705
9.508606 24.084106 -0.002009
9.822430 24.084106 0.002094
10.136253 24.084106 0.003706
10.450075 24.084106 0.007244
10.763899 24.084106 0.014241
11.077723 24.084106 0.005226
11.391544 24.084106 0.012623
11.705368 24.084106 0.010602
12.019190 24.084106 0.004745
12.333014 24.084106 0.009597
12.646837 24.084106 0.028164
12.960659 24.084106 0.041429
13.274483 24.084106 0.054204
13.588306 24.084106 0.049551
13.902128 24.084106 0.025968
14.215952 24.084106 -0.000593
14.529776 24.084106 -0.015912
14.843597 24.084106 0.020609
15.157421 24.084106 0.035528
15.471243 24.084106 0.037857
15.785067 24.084106 0.025080
16.098890 24.084106 0.023349
16.412712 24.084106 0.042846
16.726536 24.084106 0.053004
17.040359 24.084106 0.057630
17.354181 24.084106 0.051827
17.668005 24.084106 0.028912
17.981829 24.084106 0.013646
18.295650 24.084106 0.002549
18.609474 24.084106 0.016166
18.923298 24.084106 -0.048265
19.237120 24.084106 0.000000
-6.810190 23.770283 0.000000
-6.496367 23.770283 0.000538
-6.182544 23.770283 0.000488
-5.868721 23.770283 0.000424
-5.554898 23.770283 0.000384
-5.241075 23.770283 0.000434
-4.927252 23.770283 0.000496
-4.613429 23.770283 0.000475
-4.299606 23.770283 0.000474
-3.985783 23.770283 0.000390
-3.671960 23.770283 0.000385
-3.358137 23.770283 0.000414
-3.044314 23.770283 0.000401
-2.730491 23.770283 0.000429
-2.416668 23.770283 0.000491
-2.102845 23.770283 0.000453
-1.789022 23.770283 0.000339
-1.475199 23.770283 0.000250
-1.161376 23.770283 0.000249
-0.847553 23.770283 0.000248
-0.533730 23.770283 0.000227
-0.219907 23.770283 0.000297
0.093916 23.770283 0.000197
0.407739 23.770283 0.000241
0.721562 23.770283 0.000276
1.035385 23.770283 0.000264
1.349208 23.770283 0.000166
1.663032 23.770283 0.000122
1.976854 23.770283 0.000151
2.290677 23.770283 0.000146
2.604500 23.770283 0.000177
2.918324 23.770283 0.000187
3.232146 23.770283 0.000113
3.545969 23.770283 0.000049
3.859793 23.770283 -0.000071
4.173615 23.770283 -0.000113
4.487438 23.770283 0.000040
4.801261 23.770283 0.000056
5.115085 23.770283 -0.000145
5.428907 23.770283 -0.000133
5.742730 23.770283 0.000056
6.056554 23.770283 -0.000078
6.370377 23.770283 -0.000199
6.684199 23.770283 -0.000131
6.998022 23.770283 0.000001
7.311846 23.770283 -0.000297
7.625669 23.770283 -0.001041
7.939491 23.770283 -0.001455
8.253315 23.770283 -0.002287
8.567138 23.770283 -0.002836
8.880960 23.770283 -0.004781
9.194784 23.770283 -0.005522
9.508606 23.770283 0.000005
9.822430 23.770283 0.001933
10.136253 23.770283 0.004302
10.450075 23.770283 0.009761
10.763899 23.770283 0.014940
11.077723 23.770283 0.010226
11.391544 23.770283 0.007511
11.705368 23.770283 0.015458
12.019190 23.770283 0.009371
12.333014 23.770283 0.012035
12.646837 23.770283 0.035203
12.960659 23.770283 0.048540
13.274483 23.770283 0.057454
13.588306 23.770283 0.044611
13.902128 23.770283 0.019198
14.215952 23.770283 -0.006760
14.529776 23.770283 -0.017918
14.843597 23.770283 0.009710
15.157421 23.770283 0.035083
15.471243 23.770283 0.025328
15.785067 23.770283 0.010988
16.098890 23.770283 0.011603
16.412712 23.770283 0.017484
16.726536 23.770283 0.046233
17.040359 23.770283 0.041502
17.354181 23.770283 0.047465
17.668005 23.770283 0.035022
17.981829 23.770283 0.037770
18.295650 23.770283 0.010142
18.609474 23.770283 0.005990
18.923298 23.770283 -0.030283
19.237120 23.770283 0.000000
-6.810190 23.456461 0.000000
-6.496367 23.456461 0.000550
-6.182544 23.456461 0.000331
-5.868721 23.456461 0.000234
-5.554898 23.456461 0.000321
-5.241075 23.456461 0.000468
-4.927252 23.456461 0.000520
-4.613429 23.456461 0.000538
-4.299606 23.456461 0.000541
-3.985783 23.456461 0.000442
-3.671960 23.456461 0.000385
-3.358137 23.456461 0.000374
-3.044314 23.456461 0.000390
-2.730491 23.456461 0.000414
-2.416668 23.456461 0.000484
-2.102845 23.456461 0.000507
-1.789022 23.456461 0.000368
-1.475199 23.456461 0.000238
-1.161376 23.456461 0.000246
-0.847553 23.456461 0.000221
-0.533730 23.456461 0.000258
-0.219907 23.456461 0.000366
0.093916 23.456461 0.000267
0.407739 23.456461 0.000261
0.721562 23.456461 0.000249
1.035385 23.456461 0.000219
1.349208 23.456461 0.000201
1.663032 23.456461 0.000205
1.976854 23.456461 0.000186
2.290677 23.456461 0.000198
2.604500 23.456461 0.000265
2.918324 23.456461 0.000267
3.232146 23.456461 0.000208
3.545969 23.456461 0.000176
3.859793 23.456461 0.000073
4.173615 23.456461 0.000064
4.487438 23.456461 0.000137
4.801261 23.456461 0.000019
5.115085 23.456461 -0.000191
5.428907 23.456461 -0.000127
5.742730 23.456461 0.000118
6.056554 23.456461 0.000041
6.370377 23.456461 -0.000081
6.684199 23.456461 0.000018
6.998022 23.456461 -0.000116
7.311846 23.456461 -0.000742
7.625669 23.456461 -0.001361
7.939491 23.456461 -0.001439
8.253315 23.456461 -0.001686
8.567138 23.456461 -0.001710
8.880960 23.456461 -0.002219
9.194784 23.456461 -0.003607
9.508606 23.456461 -0.000953
9.822430 23.456461 0.000489
10.136253 23.456461 0.007276
10.450075 23.456461 0.017458
10.763899 23.456461 0.012026
11.077723 23.456461 0.014070
11.391544 23.456461 0.008723
11.705368 23.456461 0.015048
12.019190 23.456461 0.020473
12.333014 23.456461 0.023035
12.646837 23.456461 0.034034
12.960659 23.456461 0.044335
13.274483 23.456461 0.046163
13.588306 23.456461 0.030143
13.902128 23.456461 0.013517
14.215952 23.456461 -0.005514
14.529776 23.456461 -0.019333
14.843597 23.456461 0.001328
15.157421 23.456461 0.016950
15.471243 23.456461 0.027741
15.785067 23.456461 0.020265
16.098890 23.456461 0.015869
16.412712 23.456461 0.011151
16.726536 23.456461 0.038415
17.040359 23.456461 0.039957
17.354181 23.456461 0.043147
17.668005 23.456461 0.046677
17.981829 23.456461 0.046695
18.295650 23.456461 0.020856
18.609474 23.456461 -0.000084
18.923298 23.456461 -0.032886
19.237120 23.456461 0.000000
-6.810190 23.142637 0.000000
-6.496367 23.142637 0.000532
-6.182544 23.142637 0.000241
-5.868721 23.142637 0.000170
-5.554898 23.142637 0.000320
-5.241075 23.142637 0.000499
-4.927252 23.142637 0.000513
-4.613429 23.142637 0.000571
-4.299606 23.142637 0.000614
-3.985783 23.142637 0.000509
-3.671960 23.142637 0.000425
-3.358137 23.142637 0.000360
-3.044314 23.142637 0.000373
-2.730491 23.142637 0.000397
-2.416668 23.142637 0.000436
-2.102845 23.142637 0.000517
-1.789022 23.142637 0.000407
-1.475199 23.142637 0.000244
-1.161376 23.142637 0.000218
-0.847553 23.142637 0.000161
-0.533730 23.142637 0.000207
-0.219907 23.142637 0.000312
0.093916 23.142637 0.000249
0.407739 23.142637 0.000277
0.721562 23.142637 0.000231
1.035385 23.142637 0.000159
1.349208 23.142637 0.000242
1.663032 23.142637 0.000275
1.976854 23.142637 0.000225
2.290677 23.142637 0.000228
2.604500 23.142637 0.000335
2.918324 23.142637 0.000321
3.232146 23.142637 0.000297
3.545969 23.142637 0.000267
3.859793 23.142637 0.000196
4.173615 23.142637 0.000158
4.487438 23.142637 0.000103
4.801261 23.142637 -0.000104
5.115085 23.142637 -0.000227
5.428907 23.142637 -0.000118
5.742730 23.142637 0.000051
6.056554 23.142637 0.000016
6.370377 23.142637 -0.000009
6.684199 23.142637 -0.000104
6.998022 23.142637 -0.000286
7.311846 23.142637 -0.000766
7.625669 23.142637 -0.001105
7.939491 23.142637 -0.001099
8.253315 23.142637 -0.000674
8.567138 23.142637 -0.000007
8.880960 23.142637 -0.000220
9.194784 23.142637 -0.000380
9.508606 23.142637 -0.001141
9.822430 23.142637 0.000038
10.136253 23.142637 0.004210
10.450075 23.142637 0.013598
10.763899 23.142637 0.014475
11.077723 23.142637 0.012082
11.391544 23.142637 0.009502
11.705368 23.142637 0.029149
12.019190 23.142637 0.022962
12.333014 23.142637 0.040668
12.646837 23.142637 0.033138
12.960659 23.142637 0.040119
13.274483 23.142637 0.040615
13.588306 23.142637 0.034376
13.902128 23.142637 0.021729
14.215952 23.142637 0.005790
14.529776 23.142637 -0.014712
14.843597 23.142637 0.011196
15.157421 23.142637 0.040896
15.471243 23.142637 0.034530
15.785067 23.142637 0.025423
16.098890 23.142637 0.012090
16.412712 23.142637 0.018478
16.726536 23.142637 0.019850
17.040359 23.142637 0.039720
17.354181 23.142637 0.041575
17.668005 23.142637 0.046266
17.981829 23.142637 0.040765
18.295650 23.142637 0.016485
18.609474 23.142637 0.009112
18.923298 23.142637 -0.030449
19.237120 23.142637 0.000000
-6.810190 22.828814 0.000000
-6.496367 22.828814 0.000542
-6.182544 22.828814 0.000273
-5.868721 22.828814 0.000194
-5.554898 22.828814 0.000298
-5.241075 22.828814 0.000417
-4.927252 22.828814 0.000394
-4.613429 22.828814 0.000473
-4.299606 22.828814 0.000565
-3.985783 22.828814 0.000562
-3.671960 22.828814 0.000456
-3.358137 22.828814 0.000360
-3.044314 22.828814 0.000399
-2.730491 22.828814 0.000376
-2.416668 22.828814 0.000398
-2.102845 22.828814 0.000490
-1.789022 22.828814 0.000418
-1.475199 22.828814 0.000227
-1.161376 22.828814 0.000173
-0.847553 22.828814 0.000082
-0.533730 22.828814 0.000114
-0.219907 22.828814 0.000220
0.093916 22.828814 0.000211
0.407739 22.828814 0.000274
0.721562 22.828814 0.000229
1.035385 22.828814 0.000202
1.349208 22.828814 0.000305
1.663032 22.828814 0.000281
1.976854 22.828814 0.000224
2.290677 22.828814 0.000231
2.604500 22.828814 0.000326
2.918324 22.828814 0.000318
3.232146 22.828814 0.000294
3.545969 22.828814 0.000272
3.859793 22.828814 0.000237
4.173615 22.828814 0.000183
4.487438 22.828814 0.000011
4.801261 22.828814 -0.000222
5.115085 22.828814 -0.000240
5.428907 22.828814 -0.000065
5.742730 22.828814 -0.000016
6.056554 22.828814 -0.000117
6.370377 22.828814 -0.000077
6.684199 22.828814 -0.000313
6.998022 22.828814 -0.000362
7.311846 22.828814 -0.000609
7.625669 22.828814 -0.000798
7.939491 22.828814 -0.000387
8.253315 22.828814 0.000448
8.567138 22.828814 0.000646
8.880960 22.828814 0.001249
9.194784 22.828814 0.000610
9.508606 22.828814 -0.000701
9.822430 22.828814 0.000973
10.136253 22.828814 0.001594
10.450075 22.828814 0.006449
10.763899 22.828814 0.011671
11.077723 22.828814 0.010275
11.391544 22.828814 0.014373
11.705368 22.828814 0.029577
12.019190 22.828814 0.030992
12.333014 22.828814 0.027799
12.646837 22.828814 0.035009
12.960659 22.828814 0.041406
13.274483 22.828814 0.029730
13.588306 22.828814 0.027758
13.902128 22.828814 0.019634
14.215952 22.828814 0.003088
14.529776 22.828814 -0.002944
14.843597 22.828814 0.021851
15.157421 22.828814 0.024634
15.471243 22.828814 0.031908
15.785067 22.828814 0.017070
16.098890 22.828814 0.009552
16.412712 22.828814 0.018085
16.726536 22.828814 0.030471
17.040359 22.828814 0.036934
17.354181 22.828814 0.038859
17.668005 22.828814 0.031360
17.981829 22.828814 0.012624
18.295650 22.828814 0.011365
18.609474 22.828814 -0.005334
18.923298 22.828814 -0.016884
19.237120 22.828814 0.000000
-6.810190 22.514992 0.000000
-6.496367 22.514992 0.000571
-6.182544 22.514992 0.000363
-5.868721 22.514992 0.000262
-5.554898 22.514992 0.000255
-5.241075 22.514992 0.000290
-4.927252 22.514992 0.000236
-4.613429 22.514992 0.000304
-4.299606 22.514992 0.000490
-3.985783 22.514992 0.000582
-3.671960 22.514992 0.000465
-3.358137 22.514992 0.000350
-3.044314 22.514992 0.000385
-2.730491 22.514992 0.000400
-2.416668 22.514992 0.000414
-2.102845 22.514992 0.000441
-1.789022 22.514992 0.000380
-1.475199 22.514992 0.000227
-1.161376 22.514992 0.000139
-0.847553 22.514992 0.000044
-0.533730 22.514992 0.000072
-0.219907 22.514992 0.000170
0.093916 22.514992 0.000217
0.407739 22.514992 0.000271
0.721562 22.514992 0.000204
1.035385 22.514992 0.000241
1.349208 22.514992 0.000332
1.663032 22.514992 0.000250
1.976854 22.514992 0.000212
2.290677 22.514992 0.000214
2.604500 22.514992 0.000263
2.918324 22.514992 0.000291
3.232146 22.514992 0.000236
3.545969 22.514992 0.000259
3.859793 22.514992 0.000293
4.173615 22.514992 0.000203
4.487438 22.514992 -0.000043
4.801261 22.514992 -0.000248
5.115085 22.514992 -0.000168
5.428907 22.514992 0.000006
5.742730 22.514992 -0.000090
6.056554 22.514992 -0.000196
6.370377 22.514992 -0.000109
6.684199 22.514992 -0.000413
6.998022 22.514992 -0.000458
7.311846 22.514992 -0.000501
7.625669 22.514992 -0.000389
7.939491 22.514992 -0.000251
8.253315 22.514992 0.000333
8.567138 22.514992 0.000107
8.880960 22.514992 0.000309
9.194784 22.514992 0.001232
9.508606 22.514992 0.000807
9.822430 22.514992 0.005002
10.136253 22.514992 0.005945
10.450075 22.514992 0.003872
10.763899 22.514992 0.007532
11.077723 22.514992 0.012679
11.391544 22.514992 0.014125
11.705368 22.514992 0.027764
12.019190 22.514992 0.031871
12.333014 22.514992 0.035488
12.646837 22.514992 0.027185
12.960659 22.514992 0.030022
13.274483 22.514992 0.024050
13.588306 22.514992 0.013422
13.902128 22.514992 0.021167
14.215952 22.514992 0.007359
14.529776 22.514992 0.003109
14.843597 22.514992 0.004169
15.157421 22.514992 0.026206
15.471243 22.514992 0.028728
15.785067 22.514992 0.011542
16.098890 22.514992 0.004871
16.412712 22.514992 0.024716
16.726536 22.514992 0.060681
17.040359 22.514992 0.056311
17.354181 22.514992 0.040866
17.668005 22.514992 0.023757
17.981829 22.514992 0.010145
18.295650 22.514992 0.000147
18.609474 22.514992 0.011488
18.923298 22.514992 -0.020372
19.237120 22.514992 0.000000
-6.810190 22.201168 0.000000
-6.496367 22.201168 0.000627
-6.182544 22.201168 0.000475
-5.868721 22.201168 0.000346
-5.554898 22.201168 0.000272
-5.241075 22.201168 0.000228
-4.927252 22.201168 0.000199
-4.613429 22.201168 0.000233
-4.299606 22.201168 0.000448
-3.985783 22.201168 0.000603
-3.671960 22.201168 0.000495
-3.358137 22.201168 0.000355
-3.044314 22.201168 0.000370
-2.730491 22.201168 0.000391
-2.416668 22.201168 0.000431
-2.102845 22.201168 0.000387
-1.789022 22.201168 0.000325
-1.475199 22.201168 0.000227
-1.161376 22.201168 0.000160
-0.847553 22.201168 0.000075
-0.533730 22.201168 0.000119
-0.219907 22.201168 0.000194
0.093916 22.201168 0.000214
0.407739 22.201168 0.000232
0.721562 22.201168 0.000162
1.035385 22.201168 0.000221
1.349208 22.201168 0.000300
1.663032 22.201168 0.000224
1.976854 22.201168 0.000189
2.290677 22.201168 0.000155
2.604500 22.201168 0.000170
2.918324 22.201168 0.000220
3.232146 22.201168 0.000181
3.545969 22.201168 0.000227
3.859793 22.201168 0.000296
4.173615 22.201168 0.000177
4.487438 22.201168 -0.000087
4.801261 22.201168 -0.000195
5.115085 22.201168 -0.000121
5.428907 22.201168 0.000004
5.742730 22.201168 -0.000181
6.056554 22.201168 -0.000237
6.370377 22.201168 -0.000140
6.684199 22.201168 -0.000294
6.998022 22.201168 -0.000388
7.311846 22.201168 -0.000493
7.625669 22.201168 -0.000236
7.939491 22.201168 -0.000138
8.253315 22.201168 -0.000193
8.567138 22.201168 0.000140
8.880960 22.201168 -0.001114
9.194784 22.201168 -0.001171
9.508606 22.201168 0.003420
9.822430 22.201168 0.006577
10.136253 22.201168 0.006669
10.450075 22.201168 0.005163
10.763899 22.201168 0.004080
11.077723 22.201168 0.008834
11.391544 22.201168 0.015232
11.705368 22.201168 0.020377
12.019190 22.201168 0.028504
12.333014 22.201168 0.033113
12.646837 22.201168 0.029787
12.960659 22.201168 0.028870
13.274483 22.201168 0.014305
13.588306 22.201168 0.015238
13.902128 22.201168 0.018522
14.215952 22.201168 0.014936
14.529776 22.201168 0.008912
14.843597 22.201168 0.018225
15.157421 22.201168 0.018658
15.471243 22.201168 0.018632
15.785067 22.201168 0.010750
16.098890 22.201168 0.005700
16.412712 22.201168 0.031223
16.726536 22.201168 0.058198
17.040359 22.201168 0.074420
17.354181 22.201168 0.051491
17.668005 22.201168 0.023374
17.981829 22.201168 0.015925
18.295650 22.201168 0.012032
18.609474 22.201168 -0.009775
18.923298 22.201168 -0.026163
19.237120 22.201168 0.000000
-6.810190 21.887346 0.000000
-6.496367 21.887346 0.000725
-6.182544 21.887346 0.000609
-5.868721 21.887346 0.000460
-5.554898 21.887346 0.000321
-5.241075 21.887346 0.000264
-4.927252 21.887346 0.000266
-4.613429 21.887346 0.000308
-4.299606 21.887346 0.000458
-3.985783 21.887346 0.000596
-3.671960 21.887346 0.000534
-3.358137 21.887346 0.000409
-3.044314 21.887346 0.000336
-2.730491 21.887346 0.000352
-2.416668 21.887346 0.000409
-2.102845 21.887346 0.000344
-1.789022 21.887346 0.000279
-1.475199 21.887346 0.000243
-1.161376 21.887346 0.000224
-0.847553 21.887346 0.000180
-0.533730 21.887346 0.000243
-0.219907 21.887346 0.000247
0.093916 21.887346 0.000206
0.407739 21.887346 0.000186
0.721562 21.887346 0.000127
1.035385 21.887346 0.000176
1.349208 21.887346 0.000254
1.663032 21.887346 0.000202
1.976854 21.887346 0.000148
2.290677 21.887346 0.000044
2.604500 21.887346 0.000042
2.918324 21.887346 0.000130
3.232146 21.887346 0.000133
3.545969 21.887346 0.000201
3.859793 21.887346 0.000268
4.173615 21.887346 0.000129
4.487438 21.887346 -0.000103
4.801261 21.887346 -0.000174
5.115085 21.887346 -0.000076
5.428907 21.887346 -0.000049
5.742730 21.887346 -0.000178
6.056554 21.887346 -0.000190
6.370377 21.887346 -0.000085
6.684199 21.887346 -0.000156
6.998022 21.887346 -0.000249
7.311846 21.887346 -0.000421
7.625669 21.887346 -0.000441
7.939491 21.887346 -0.000630
8.253315 21.887346 -0.000962
8.567138 21.887346 -0.000694
8.880960 21.887346 -0.000618
9.194784 21.887346 -0.000318
9.508606 21.887346 0.004066
9.822430 21.887346 0.007514
10.136253 21.887346 0.006493
10.450075 21.887346 0.003480
10.763899 21.887346 0.003469
11.077723 21.887346 0.010080
11.391544 21.887346 0.012860
11.705368 21.887346 0.014050
12.019190 21.887346 0.020414
12.333014 21.887346 0.023318
12.646837 21.887346 0.032707
12.960659 21.887346 0.033814
13.274483 21.887346 0.024231
13.588306 21.887346 0.018973
13.902128 21.887346 0.023600
14.215952 21.887346 0.018371
14.529776 21.887346 0.027547
14.843597 21.887346 0.025469
15.157421 21.887346 0.005176
15.471243 21.887346 0.015344
15.785067 21.887346 0.023283
16.098890 21.887346 0.015780
16.412712 21.887346 0.015897
16.726536 21.887346 0.046517
17.040359 21.887346 0.071826
17.354181 21.887346 0.053123
17.668005 21.887346 0.020788
17.981829 21.887346 0.014430
18.295650 21.887346 0.009115
18.609474 21.887346 0.005528
18.923298 21.887346 0.010239
19.237120 21.887346 0.000000
-6.810190 21.573523 0.000000
-6.496367 21.573523 0.000832
-6.182544 21.573523 0.000625
-5.868721 21.573523 0.000500
-5.554898 21.573523 0.000423
-5.241075 21.573523 0.000351
-4.927252 21.573523 0.000385
-4.613429 21.573523 0.000442
-4.299606 21.573523 0.000490
-3.985783 21.573523 0.000549
-3.671960 21.573523 0.000493
-3.358137 21.573523 0.000390
-3.044314 21.573523 0.000286
-2.730491 21.573523 0.000259
-2.416668 21.573523 0.000316
-2.102845 21.573523 0.000294
-1.789022 21.573523 0.000242
-1.475199 21.573523 0.000316
-1.161376 21.573523 0.000344
-0.847553 21.573523 0.000318
-0.533730 21.573523 0.000316
-0.219907 21.573523 0.000232
0.093916 21.573523 0.000145
0.407739 21.573523 0.000149
0.721562 21.573523 0.000119
1.035385 21.573523 0.000148
1.349208 21.573523 0.000177
1.663032 21.573523 0.000120
1.976854 21.573523 0.000108
2.290677 21.573523 0.000011
2.604500 21.573523 -0.000032
2.918324 21.573523 0.000040
3.232146 21.573523 0.000059
3.545969 21.573523 0.000147
3.859793 21.573523 0.000155
4.173615 21.573523 0.000005
4.487438 21.573523 -0.000178
4.801261 21.573523 -0.000226
5.115085 21.573523 -0.000095
5.428907 21.573523 -0.000047
5.742730 21.573523 -0.000046
6.056554 21.573523 -0.000139
6.370377 21.573523 -0.000163
6.684199 21.573523 -0.000167
6.998022 21.573523 -0.000247
7.311846 21.573523 -0.000536
7.625669 21.573523 -0.000877
7.939491 21.573523 -0.001074
8.253315 21.573523 -0.001370
8.567138 21.573523 -0.001015
8.880960 21.573523 0.001111
9.194784 21.573523 0.000640
9.508606 21.573523 0.002625
9.822430 21.573523 0.001415
10.136253 21.573523 0.003541
10.450075 21.573523 0.006495
10.763899 21.573523 0.004201
11.077723 21.573523 0.006944
11.391544 21.573523 0.008580
11.705368 21.573523 0.014457
12.019190 21.573523 0.022558
12.333014 21.573523 0.020965
12.646837 21.573523 0.016848
12.960659 21.573523 0.036830
13.274483 21.573523 0.022227
13.588306 21.573523 0.028329
13.902128 21.573523 0.031269
14.215952 21.573523 0.025254
14.529776 21.573523 0.028434
14.843597 21.573523 0.033799
15.157421 21.573523 0.006029
15.471243 21.573523 0.016208
15.785067 21.573523 0.020296
16.098890 21.573523 0.022028
16.412712 21.573523 0.016711
16.726536 21.573523 0.048446
17.040359 21.573523 0.068062
17.354181 21.573523 0.043489
17.668005 21.573523 0.017163
17.981829 21.573523 0.010521
18.295650 21.573523 0.010497
18.609474 21.573523 0.010267
18.923298 21.573523 -0.040438
19.237120 21.573523 0.000000
-6.810190 21.259699 0.000000
-6.496367 21.259699 0.000880
-6.182544 21.259699 0.000635
-5.868721 21.259699 0.000571
-5.554898 21.259699 0.000520
-5.241075 21.259699 0.000433
-4.927252 21.259699 0.000468
-4.613429 21.259699 0.000514
-4.299606 21.259699 0.000485
-3.985783 21.259699 0.000473
-3.671960 21.259699 0.000403
-3.358137 21.259699 0.000319
-3.044314 21.259699 0.000284
-2.730491 21.259699 0.000238
-2.416668 21.259699 0.000281
-2.102845 21.259699 0.000284
-1.789022 21.259699 0.000264
-1.475199 21.259699 0.000412
-1.161376 21.259699 0.000478
-0.847553 21.259699 0.000390
-0.533730 21.259699 0.000301
-0.219907 21.259699 0.000158
0.093916 21.259699 0.000064
0.407739 21.259699 0.000115
0.721562 21.259699 0.000152
1.035385 21.259699 0.000157
1.349208 21.259699 0.000100
1.663032 21.259699 0.000053
1.976854 21.259699 0.000094
2.290677 21.259699 0.000038
2.604500 21.259699 -0.000057
2.918324 21.259699 -0.000050
3.232146 21.259699 -0.000049
3.545969 21.259699 0.000007
3.859793 21.259699 0.000027
4.173615 21.259699 -0.000107
4.487438 21.259699 -0.000208
4.801261 21.259699 -0.000257
5.115085 21.259699 -0.000136
5.428907 21.259699 -0.000018
5.742730 21.259699 0.000043
6.056554 21.259699 -0.000129
6.370377 21.259699 -0.000339
6.684199 21.259699 -0.000482
6.998022 21.259699 -0.000539
7.311846 21.259699 -0.000896
7.625669 21.259699 -0.001310
7.939491 21.259699 -0.001545
8.253315 21.259699 -0.001407
8.567138 21.259699 -0.001143
8.880960 21.259699 0.000982
9.194784 21.259699 0.002038
9.508606 21.259699 0.001087
9.822430 21.259699 0.000077
10.136253 21.259699 0.003538
10.450075 21.259699 0.007127
10.763899 21.259699 0.002177
11.077723 21.259699 0.005593
11.391544 21.259699 0.013085
11.705368 21.259699 0.022327
12.019190 21.259699 0.020201
12.333014 21.259699 0.013443
12.646837 21.259699 0.012674
12.960659 21.259699 0.033253
13.274483 21.259699 0.027164
13.588306 21.259699 0.031425
13.902128 21.259699 0.016260
14.215952 21.259699 0.032338
14.529776 21.259699 0.032838
14.843597 21.259699 0.035706
15.157421 21.259699 0.033315
15.471243 21.259699 0.014957
15.785067 21.259699 0.014647
16.098890 21.259699 0.012385
16.412712 21.259699 0.027487
16.726536 21.259699 0.049333
17.040359 21.259699 0.063281
17.354181 21.259699 0.034938
17.668005 21.259699 0.011621
17.981829 21.259699 0.006813
18.295650 21.259699 -0.000712
18.609474 21.259699 0.026792
18.923298 21.259699 0.000000
19.237120 21.259699 0.000000
-6.810190 20.945877 0.000000
-6.496367 20.945877 0.000911
-6.182544 20.945877 0.000628
-5.868721 20.945877 0.000568
-5.554898 20.945877 0.000568
-5.241075 20.945877 0.000453
-4.927252 20.945877 0.000467
-4.613429 20.945877 0.000489
-4.299606 20.945877 0.000439
-3.985783 20.945877 0.000383
-3.671960 20.945877 0.000310
-3.358137 20.945877 0.000260
-3.044314 20.945877 0.000306
-2.730491 20.945877 0.000248
-2.416668 20.945877 0.000286
-2.102845 20.945877 0.000292
-1.789022 20.945877 0.000310
-1.475199 20.945877 0.000445
-1.161376 20.945877 0.000481
-0.847553 20.945877 0.000348
-0.533730 20.945877 0.000180
-0.219907 20.945877 0.000123
0.093916 20.945877 0.000065
0.407739 20.945877 0.000123
0.721562 20.945877 0.000203
1.035385 20.945877 0.000173
1.349208 20.945877 0.000069
1.663032 20.945877 0.000027
1.976854 20.945877 0.000116
2.290677 20.945877 0.000084
2.604500 20.945877 -0.000005
2.918324 20.945877 -0.000067
3.232146 20.945877 -0.000138
3.545969 20.945877 -0.000138
3.859793 20.945877 -0.000071
4.173615 20.945877 -0.000106
4.487438 20.945877 -0.000149
4.801261 20.945877 -0.000207
5.115085 20.945877 -0.000166
5.428907 20.945877 -0.000087
5.742730 20.945877 -0.000058
6.056554 20.945877 -0.000267
6.370377 20.945877 -0.000618
6.684199 20.945877 -0.000829
6.998022 20.945877 -0.000843
7.311846 20.945877 -0.001126
7.625669 20.945877 -0.001483
7.939491 20.945877 -0.001649
8.253315 20.945877 -0.001127
8.567138 20.945877 -0.000661
8.880960 20.945877 0.000198
9.194784 20.945877 0.001366
9.508606 20.945877 0.000210
9.822430 20.945877 0.001097
10.136253 20.945877 0.006806
10.450075 20.945877 0.007617
10.763899 20.945877 0.004974
11.077723 20.945877 0.001434
11.391544 20.945877 0.014864
11.705368 20.945877 0.024659
12.019190 20.945877 0.019427
12.333014 20.945877 0.011444
12.646837 20.945877 0.020652
12.960659 20.945877 0.032252
13.274483 20.945877 0.039655
13.588306 20.945877 0.031672
13.902128 20.945877 0.026914
14.215952 20.945877 0.018080
14.529776 20.945877 0.036743
14.843597 20.945877 0.048751
15.157421 20.945877 0.033226
15.471243 20.945877 0.013353
15.785067 20.945877 0.012202
16.098890 20.945877 0.030037
16.412712 20.945877 0.054130
16.726536 20.945877 0.045934
17.040359 20.945877 0.038488
17.354181 20.945877 0.023835
17.668005 20.945877 0.001482
17.981829 20.945877 -0.003279
18.295650 20.945877 0.004516
18.609474 20.945877 0.027420
18.923298 20.945877 0.000000
19.237120 20.945877 0.000000
-6.810190 20.632053 0.000000
-6.496367 20.632053 0.000958
-6.182544 20.632053 0.000588
-5.868721 20.632053 0.000499
-5.554898 20.632053 0.000520
-5.241075 20.632053 0.000413
-4.927252 20.632053 0.000329
-4.613429 20.632053 0.000419
-4.299606 20.632053 0.000416
-3.985783 20.632053 0.000324
-3.671960 20.632053 0.000268
-3.358137 20.632053 0.000262
-3.044314 20.632053 0.000326
-2.730491 20.632053 0.000310
-2.416668 20.632053 0.000319
-2.102845 20.632053 0.000354
-1.789022 20.632053 0.000349
-1.475199 20.632053 0.000429
-1.161376 20.632053 0.000436
-0.847553 20.632053 0.000254
-0.533730 20.632053 0.000107
-0.219907 20.632053 0.000134
0.093916 20.632053 0.000126
0.407739 20.632053 0.000161
0.721562 20.632053 0.000227
1.035385 20.632053 0.000194
1.349208 20.632053 0.000056
1.663032 20.632053 0.000010
1.976854 20.632053 0.000103
2.290677 20.632053 0.000083
2.604500 20.632053 0.000019
2.918324 20.632053 -0.000052
3.232146 20.632053 -0.000131
3.545969 20.632053 -0.000192
3.859793 20.632053 -0.000097
4.173615 20.632053 -0.000005
4.487438 20.632053 -0.000008
4.801261 20.632053 -0.000106
5.115085 20.632053 -0.000170
5.428907 20.632053 -0.000205
5.742730 20.632053 -0.000268
6.056554 20.632053 -0.000514
6.370377 20.632053 -0.000886
6.684199 20.632053 -0.000900
6.998022 20.632053 -0.000942
7.311846 20.632053 -0.000927
7.625669 20.632053 -0.001193
7.939491 20.632053 -0.001375
8.253315 20.632053 -0.001385
8.567138 20.632053 -0.000989
8.880960 20.632053 -0.001892
9.194784 20.632053 -0.002691
9.508606 20.632053 -0.000764
9.822430 20.632053 0.003457
10.136253 20.632053 0.007794
10.450075 20.632053 0.009692
10.763899 20.632053 0.004315
11.077723 20.632053 0.005599
11.391544 20.632053 0.009859
11.705368 20.632053 0.022712
12.019190 20.632053 0.020793
12.333014 20.632053 0.012037
12.646837 20.632053 0.023890
12.960659 20.632053 0.037145
13.274483 20.632053 0.046499
13.588306 20.632053 0.036191
13.902128 20.632053 0.033033
14.215952 20.632053 0.044240
14.529776 20.632053 0.036159
14.843597 20.632053 0.032554
15.157421 20.632053 0.020739
15.471243 20.632053 0.006862
15.785067 20.632053 0.013447
16.098890 20.632053 0.024480
16.412712 20.632053 0.042306
16.726536 20.632053 0.044207
17.040359 20.632053 0.015854
17.354181 20.632053 0.002018
17.668005 20.632053 0.001972
17.981829 20.632053 -0.001763
18.295650 20.632053 0.010647
18.609474 20.632053 0.036460
18.923298 20.632053 0.000000
19.237120 20.632053 0.000000
-6.810190 20.318230 0.000000
-6.496367 20.318230 0.000985
-6.182544 20.318230 0.000531
-5.868721 20.318230 0.000408
-5.554898 20.318230 0.000442
-5.241075 20.318230 0.000349
-4.927252 20.318230 0.000225
-4.613429 20.318230 0.000332
-4.299606 20.318230 0.000416
-3.985783 20.318230 0.000344
-3.671960 20.318230 0.000302
-3.358137 20.318230 0.000313
-3.044314 20.318230 0.000339
-2.730491 20.318230 0.000363
-2.416668 20.318230 0.000362
-2.102845 20.318230 0.000357
-1.789022 20.318230 0.000331
-1.475199 20.318230 0.000386
-1.161376 20.318230 0.000349
-0.847553 20.318230 0.000181
-0.533730 20.318230 0.000123
-0.219907 20.318230 0.000180
0.093916 20.318230 0.000210
0.407739 20.318230 0.000208
0.721562 20.318230 0.000218
1.035385 20.318230 0.000205
1.349208 20.318230 0.000068
1.663032 20.318230 -0.000006
1.976854 20.318230 0.000055
2.290677 20.318230 0.000083
2.604500 20.318230 0.000081
2.918324 20.318230 0.000060
3.232146 20.318230 -0.000061
3.545969 20.318230 -0.000157
3.859793 20.318230 -0.000028
4.173615 20.318230 0.000156
4.487438 20.318230 0.000118
4.801261 20.318230 -0.000055
5.115085 20.318230 -0.000205
5.428907 20.318230 -0.000307
5.742730 20.318230 -0.000477
6.056554 20.318230 -0.000721
6.370377 20.318230 -0.000957
6.684199 20.318230 -0.000824
6.998022 20.318230 -0.000658
7.311846 20.318230 -0.000667
7.625669 20.318230 -0.000721
7.939491 20.318230 -0.000951
8.253315 20.318230 -0.001071
8.567138 20.318230 -0.001640
8.880960 20.318230 -0.003730
9.194784 20.318230 -0.002616
9.508606 20.318230 0.000863
9.822430 20.318230 0.004056
10.136253 20.318230 0.010556
10.450075 20.318230 0.015069
10.763899 20.318230 0.007759
11.077723 20.318230 0.000779
11.391544 20.318230 0.010149
11.705368 20.318230 0.018906
12.019190 20.318230 0.016976
12.333014 20.318230 0.020364
12.646837 20.318230 0.032291
12.960659 20.318230 0.033805
13.274483 20.318230 0.043866
13.588306 20.318230 0.033651
13.902128 20.318230 0.039604
14.215952 20.318230 0.071567
14.529776 20.318230 0.067381
14.843597 20.318230 0.045524
15.157421 20.318230 0.032096
15.471243 20.318230 0.017153
15.785067 20.318230 0.003484
16.098890 20.318230 0.036419
16.412712 20.318230 0.040568
16.726536 20.318230 0.023392
17.040359 20.318230 0.003727
17.354181 20.318230 0.004669
17.668005 20.318230 0.010204
17.981829 20.318230 0.015321
18.295650 20.318230 0.021391
18.609474 20.318230 0.051733
18.923298 20.318230 0.000000
19.237120 20.318230 0.000000
-6.810190 20.004408 0.000000
-6.496367 20.004408 0.000959
-6.182544 20.004408 0.000549
-5.868721 20.004408 0.000370
-5.554898 20.004408 0.000418
-5.241075 20.004408 0.000341
-4.927252 20.004408 0.000235
-4.613429 20.004408 0.000308
-4.299606 20.004408 0.000455
-3.985783 20.004408 0.000416
-3.671960 20.004408 0.000410
-3.358137 20.004408 0.000399
-3.044314 20.004408 0.000348
-2.730491 20.004408 0.000373
-2.416668 20.004408 0.000364
-2.102845 20.004408 0.000321
-1.789022 20.004408 0.000301
-1.475199 20.004408 0.000367
-1.161376 20.004408 0.000325
-0.847553 20.004408 0.000194
-0.533730 20.004408 0.000176
-0.219907 20.004408 0.000225
0.093916 20.004408 0.000260
0.407739 20.004408 0.000222
0.721562 20.004408 0.000166
1.035385 20.004408 0.000199
1.349208 20.004408 0.000081
1.663032 20.004408 -0.000023
1.976854 20.004408 0.000029
2.290677 20.004408 0.000086
2.604500 20.004408 0.000117
2.918324 20.004408 0.000171
3.232146 20.004408 0.000046
3.545969 20.004408 -0.000058
3.859793 20.004408 0.000083
4.173615 20.004408 0.000267
4.487438 20.004408 0.000193
4.801261 20.004408 -0.000071
5.115085 20.004408 -0.000309
5.428907 20.004408 -0.000364
5.742730 20.004408 -0.000559
6.056554 20.004408 -0.000769
6.370377 20.004408 -0.000815
6.684199 20.004408 -0.000509
6.998022 20.004408 -0.000364
7.311846 20.004408 -0.000281
7.625669 20.004408 -0.000395
7.939491 20.004408 -0.000941
8.253315 20.004408 -0.001202
8.567138 20.004408 -0.001397
8.880960 20.004408 -0.002906
9.194784 20.004408 -0.002042
9.508606 20.004408 -0.000209
9.822430 20.004408 0.005566
10.136253 20.004408 0.013266
10.450075 20.004408 0.018005
10.763899 20.004408 0.008148
11.077723 20.004408 0.008056
11.391544 20.004408 0.017124
11.705368 20.004408 0.022243
12.019190 20.004408 0.023445
12.333014 20.004408 0.020916
12.646837 20.004408 0.035415
12.960659 20.004408 0.032745
13.274483 20.004408 0.031433
13.588306 20.004408 0.038117
13.902128 20.004408 0.051637
14.215952 20.004408 0.071637
14.529776 20.004408 0.078619
14.843597 20.004408 0.058212
15.157421 20.004408 0.043552
15.471243 20.004408 -0.001871
15.785067 20.004408 0.010280
16.098890 20.004408 0.028198
16.412712 20.004408 0.047535
16.726536 20.004408 0.034429
17.040359 20.004408 0.010470
17.354181 20.004408 0.008959
17.668005 20.004408 0.017108
17.981829 20.004408 0.038344
18.295650 20.004408 0.014533
18.609474 20.004408 0.019438
18.923298 20.004408 0.000000
19.237120 20.004408 0.000000
-6.810190 19.690584 0.000000
-6.496367 19.690584 0.000846
-6.182544 19.690584 0.000561
-5.868721 19.690584 0.000390
-5.554898 19.690584 0.000398
-5.241075 19.690584 0.000348
-4.927252 19.690584 0.000286
-4.613429 19.690584 0.000378
-4.299606 19.690584 0.000497
-3.985783 19.690584 0.000499
-3.671960 19.690584 0.000501
-3.358137 19.690584 0.000485
-3.044314 19.690584 0.000360
-2.730491 19.690584 0.000355
-2.416668 19.690584 0.000383
-2.102845 19.690584 0.000304
-1.789022 19.690584 0.000278
-1.475199 19.690584 0.000350
-1.161376 19.690584 0.000320
-0.847553 19.690584 0.000220
-0.533730 19.690584 0.000214
-0.219907 19.690584 0.000236
0.093916 19.690584 0.000275
0.407739 19.690584 0.000216
0.721562 19.690584 0.000141
1.035385 19.690584 0.000157
1.349208 19.690584 0.000075
1.663032 19.690584 -0.000049
1.976854 19.690584 0.000070
2.290677 19.690584 0.000104
2.604500 19.690584 0.000094
2.918324 19.690584 0.000145
3.232146 19.690584 0.000058
3.545969 19.690584 0.000053
3.859793 19.690584 0.000179
4.173615 19.690584 0.000298
4.487438 19.690584 0.000170
4.801261 19.690584 -0.000153
5.115085 19.690584 -0.000403
5.428907 19.690584 -0.000383
5.742730 19.690584 -0.000531
6.056554 19.690584 -0.000633
6.370377 19.690584 -0.000469
6.684199 19.690584 -0.000082
6.998022 19.690584 -0.000135
7.311846 19.690584 -0.000401
7.625669 19.690584 -0.000867
7.939491 19.690584 -0.001042
8.253315 19.690584 -0.001135
8.567138 19.690584 -0.001709
8.880960 19.690584 -0.001528
9.194784 19.690584 -0.002174
9.508606 19.690584 0.000947
9.822430 19.690584 0.011911
10.136253 19.690584 0.018354
10.450075 19.690584 0.020008
10.763899 19.690584 0.013665
11.077723 19.690584 0.014439
11.391544 19.690584 0.022647
11.705368 19.690584 0.031909
12.019190 19.690584 0.016771
12.333014 19.690584 0.030442
12.646837 19.690584 0.041669
12.960659 19.690584 0.032212
13.274483 19.690584 0.040169
13.588306 19.690584 0.047369
13.902128 19.690584 0.041593
14.215952 19.690584 0.057880
14.529776 19.690584 0.059784
14.843597 19.690584 0.053665
15.157421 19.690584 0.049693
15.471243 19.690584 0.014450
15.785067 19.690584 -0.002109
16.098890 19.690584 0.037924
16.412712 19.690584 0.046363
16.726536 19.690584 0.042791
17.040359 19.690584 0.022137
17.354181 19.690584 0.028985
17.668005 19.690584 0.020698
17.981829 19.690584 0.038391
18.295650 19.690584 0.020984
18.609474 19.690584 0.020721
18.923298 19.690584 0.000000
19.237120 19.690584 0.000000
-6.810190 19.376760 0.000000
-6.496367 19.376760 0.000752
-6.182544 19.376760 0.000511
-5.868721 19.376760 0.000415
-5.554898 19.376760 0.000397
-5.241075 19.376760 0.000390
-4.927252 19.376760 0.000359
-4.613429 19.376760 0.000402
-4.299606 19.376760 0.000465
-3.985783 19.376760 0.000459
-3.671960 19.376760 0.000494
-3.358137 19.376760 0.000523
-3.044314 19.376760 0.000402
-2.730491 19.376760 0.000328
-2.416668 19.376760 0.000360
-2.102845 19.376760 0.000293
-1.789022 19.376760 0.000274
-1.475199 19.376760 0.000327
-1.161376 19.376760 0.000286
-0.847553 19.376760 0.000226
-0.533730 19.376760 0.000181
-0.219907 19.376760 0.000224
0.093916 19.376760 0.000268
0.407739 19.376760 0.000157
0.721562 19.376760 0.000080
1.035385 19.376760 0.000113
1.349208 19.376760 0.000056
1.663032 19.376760 -0.000003
1.976854 19.376760 0.000159
2.290677 19.376760 0.000142
2.604500 19.376760 0.000044
2.918324 19.376760 0.000046
3.232146 19.376760 0.000006
3.545969 19.376760 0.000098
3.859793 19.376760 0.000158
4.173615 19.376760 0.000173
4.487438 19.376760 0.000026
4.801261 19.376760 -0.000276
5.115085 19.376760 -0.000428
5.428907 19.376760 -0.000348
5.742730 19.376760 -0.000398
6.056554 19.376760 -0.000371
6.370377 19.376760 -0.000053
6.684199 19.376760 0.000128
6.998022 19.376760 -0.000120
7.311846 19.376760 -0.000534
7.625669 19.376760 -0.000989
7.939491 19.376760 -0.001060
8.253315 19.376760 -0.000914
8.567138 19.376760 -0.000923
8.880960 19.376760 -0.000679
9.194784 19.376760 0.000911
9.508606 19.376760 0.004184
9.822430 19.376760 0.007808
10.136253 19.376760 0.015967
10.450075 19.376760 0.017749
10.763899 19.376760 0.020732
11.077723 19.376760 0.021424
11.391544 19.376760 0.028075
11.705368 19.376760 0.025559
12.019190 19.376760 0.020620
12.333014 19.376760 0.034984
12.646837 19.376760 0.040777
12.960659 19.376760 0.040041
13.274483 19.376760 0.055503
13.588306 19.376760 0.061943
13.902128 19.376760 0.029856
14.215952 19.376760 0.036231
14.529776 19.376760 0.056454
14.843597 19.376760 0.047305
15.157421 19.376760 0.044716
15.471243 19.376760 0.015498
15.785067 19.376760 0.016402
16.098890 19.376760 0.047634
16.412712 19.376760 0.053391
16.726536 19.376760 0.043243
17.040359 19.376760 0.027475
17.354181 19.376760 0.000106
17.668005 19.376760 0.012774
17.981829 19.376760 0.026134
18.295650 19.376760 0.016878
18.609474 19.376760 0.002092
18.923298 19.376760 0.000000
19.237120 19.376760 0.000000
-6.810190 19.062939 0.000000
-6.496367 19.062939 0.000738
-6.182544 19.062939 0.000446
-5.868721 19.062939 0.000429
-5.554898 19.062939 0.000445
-5.241075 19.062939 0.000477
-4.927252 19.062939 0.000374
-4.613429 19.062939 0.000347
-4.299606 19.062939 0.000373
-3.985783 19.062939 0.000372
-3.671960 19.062939 0.000409
-3.358137 19.062939 0.000485
-3.044314 19.062939 0.000431
-2.730491 19.062939 0.000323
-2.416668 19.062939 0.000342
-2.102845 19.062939 0.000295
-1.789022 19.062939 0.000253
-1.475199 19.062939 0.000309
-1.161376 19.062939 0.000278
-0.847553 19.062939 0.000225
-0.533730 19.062939 0.000175
-0.219907 19.062939 0.000152
0.093916 19.062939 0.000199
0.407739 19.062939 0.000099
0.721562 19.062939 0.000048
1.035385 19.062939 0.000116
1.349208 19.062939 0.000117
1.663032 19.062939 0.000135
1.976854 19.062939 0.000273
2.290677 19.062939 0.000167
2.604500 19.062939 0.000016
2.918324 19.062939 -0.000044
3.232146 19.062939 -0.000035
3.545969 19.062939 0.000097
3.859793 19.062939 0.000042
4.173615 19.062939 -0.000025
4.487438 19.062939 -0.000108
4.801261 19.062939 -0.000307
5.115085 19.062939 -0.000345
5.428907 19.062939 -0.000259
5.742730 19.062939 -0.000311
6.056554 19.062939 -0.000228
6.370377 19.062939 0.000037
6.684199 19.062939 -0.000108
6.998022 19.062939 -0.000436
7.311846 19.062939 -0.000688
7.625669 19.062939 -0.001001
7.939491 19.062939 -0.001045
8.253315 19.062939 -0.000639
8.567138 19.062939 -0.000005
8.880960 19.062939 0.000268
9.194784 19.062939 0.001557
9.508606 19.062939 0.002446
9.822430 19.062939 0.008320
10.136253 19.062939 0.011430
10.450075 19.062939 0.017177
10.763899 19.062939 0.019192
11.077723 19.062939 0.025447
11.391544 19.062939 0.026597
11.705368 19.062939 0.024330
12.019190 19.062939 0.018658
12.333014 19.062939 0.031360
12.646837 19.062939 0.040981
12.960659 19.062939 0.040563
13.274483 19.062939 0.045161
13.588306 19.062939 0.047532
13.902128 19.062939 0.034122
14.215952 19.062939 0.030736
14.529776 19.062939 0.035757
14.843597 19.062939 0.034532
15.157421 19.062939 0.045615
15.471243 19.062939 0.039638
15.785067 19.062939 0.052366
16.098890 19.062939 0.050625
16.412712 19.062939 0.074201
16.726536 19.062939 0.068745
17.040359 19.062939 0.036585
17.354181 19.062939 -0.000766
17.668005 19.062939 0.002152
17.981829 19.062939 0.005460
18.295650 19.062939 -0.002315
18.609474 19.062939 0.033907
18.923298 19.062939 0.000000
19.237120 19.062939 0.000000
-6.810190 18.749115 0.000000
-6.496367 18.749115 0.000780
-6.182544 18.749115 0.000424
-5.868721 18.749115 0.000425
-5.554898 18.749115 0.000513
-5.241075 18.749115 0.000491
-4.927252 18.749115 0.000333
-4.613429 18.749115 0.000256
-4.299606 18.749115 0.000297
-3.985783 18.749115 0.000283
-3.671960 18.749115 0.000329
-3.358137 18.749115 0.000396
-3.044314 18.749115 0.000419
-2.730491 18.749115 0.000345
-2.416668 18.749115 0.000294
-2.102845 18.749115 0.000242
-1.789022 18.749115 0.000246
-1.475199 18.749115 0.000292
-1.161376 18.749115 0.000272
-0.847553 18.749115 0.000242
-0.533730 18.749115 0.000172
-0.219907 18.749115 0.000094
0.093916 18.749115 0.000139
0.407739 18.749115 0.000109
0.721562 18.749115 0.000090
1.035385 18.749115 0.000187
1.349208 18.749115 0.000204
1.663032 18.749115 0.000265
1.976854 18.749115 0.000339
2.290677 18.749115 0.000200
2.604500 18.749115 0.000008
2.918324 18.749115 -0.000074
3.232146 18.749115 -0.000053
3.545969 18.749115 0.000038
3.859793 18.749115 -0.000070
4.173615 18.749115 -0.000103
4.487438 18.749115 -0.000164
4.801261 18.749115 -0.000284
5.115085 18.749115 -0.000241
5.428907 18.749115 -0.000144
5.742730 18.749115 -0.000214
6.056554 18.749115 -0.000136
6.370377 18.749115 -0.000164
6.684199 18.749115 -0.000661
6.998022 18.749115 -0.000900
7.311846 18.749115 -0.001087
7.625669 18.749115 -0.001240
7.939491 18.749115 -0.001325
8.253315 18.749115 -0.000571
8.567138 18.749115 0.000426
8.880960 18.749115 -0.000115
9.194784 18.749115 0.000611
9.508606 18.749115 0.002120
9.822430 18.749115 0.007535
10.136253 18.749115 0.009187
10.450075 18.749115 0.012454
10.763899 18.749115 0.017832
11.077723 18.749115 0.023882
11.391544 18.749115 0.025239
11.705368 18.749115 0.019413
12.019190 18.749115 0.018883
12.333014 18.749115 0.039316
12.646837 18.749115 0.037531
12.960659 18.749115 0.038280
13.274483 18.749115 0.039104
13.588306 18.749115 0.026040
13.902128 18.749115 0.037711
14.215952 18.749115 0.035879
14.529776 18.749115 0.032131
14.843597 18.749115 0.023974
15.157421 18.749115 0.028501
15.471243 18.749115 0.043041
15.785067 18.749115 0.045422
16.098890 18.749115 0.068174
16.412712 18.749115 0.068752
16.726536 18.749115 0.054777
17.040359 18.749115 0.035000
17.354181 18.749115 0.001708
17.668005 18.749115 0.006138
17.981829 18.749115 -0.007483
18.295650 18.749115 0.005028
18.609474 18.749115 0.007654
18.923298 18.749115 0.000000
19.237120 18.749115 0.000000
-6.810190 18.435291 0.000000
-6.496367 18.435291 0.000806
-6.182544 18.435291 0.000438
-5.868721 18.435291 0.000412
-5.554898 18.435291 0.000508
-5.241075 18.435291 0.000461
-4.927252 18.435291 0.000281
-4.613429 18.435291 0.000235
-4.299606 18.435291 0.000274
-3.985783 18.435291 0.000220
-3.671960 18.435291 0.000245
-3.358137 18.435291 0.000326
-3.044314 18.435291 0.000371
-2.730491 18.435291 0.000333
-2.416668 18.435291 0.000265
-2.102845 18.435291 0.000247
-1.789022 18.435291 0.000268
-1.475199 18.435291 0.000290
-1.161376 18.435291 0.000251
-0.847553 18.435291 0.000201
-0.533730 18.435291 0.000128
-0.219907 18.435291 0.000076
0.093916 18.435291 0.000131
0.407739 18.435291 0.000175
0.721562 18.435291 0.000158
1.035385 18.435291 0.000270
1.349208 18.435291 0.000280
1.663032 18.435291 0.000299
1.976854 18.435291 0.000314
2.290677 18.435291 0.000203
2.604500 18.435291 0.000009
2.918324 18.435291 -0.000052
3.232146 18.435291 -0.000050
3.545969 18.435291 -0.000049
3.859793 18.435291 -0.000151
4.173615 18.435291 -0.000146
4.487438 18.435291 -0.000143
4.801261 18.435291 -0.000234
5.115085 18.435291 -0.000149
5.428907 18.435291 -0.000074
5.742730 18.435291 -0.000178
6.056554 18.435291 -0.000137
6.370377 18.435291 -0.000315
6.684199 18.435291 -0.000794
6.998022 18.435291 -0.001142
7.311846 18.435291 -0.001034
7.625669 18.435291 -0.001209
7.939491 18.435291 -0.001473
8.253315 18.435291 -0.001422
8.567138 18.435291 -0.000050
8.880960 18.435291 -0.000218
9.194784 18.435291 0.002527
9.508606 18.435291 0.003879
9.822430 18.435291 0.008671
10.136253 18.435291 0.012374
10.450075 18.435291 0.015466
10.763899 18.435291 0.021802
11.077723 18.435291 0.023144
11.391544 18.435291 0.025240
11.705368 18.435291 0.026732
12.019190 18.435291 0.023885
12.333014 18.435291 0.042027
12.646837 18.435291 0.019078
12.960659 18.435291 0.026648
13.274483 18.435291 0.040164
13.588306 18.435291 0.040849
13.902128 18.435291 0.039135
14.215952 18.435291 0.039515
14.529776 18.435291 0.038911
14.843597 18.435291 0.038776
15.157421 18.435291 0.043986
15.471243 18.435291 0.044767
15.785067 18.435291 0.049251
16.098890 18.435291 0.056407
16.412712 18.435291 0.064227
16.726536 18.435291 0.073271
17.040359 18.435291 0.025695
17.354181 18.435291 0.003852
17.668005 18.435291 0.005998
17.981829 18.435291 0.000060
18.295650 18.435291 0.003220
18.609474 18.435291 0.007751
18.923298 18.435291 0.000000
19.237120 18.435291 0.000000
-6.810190 18.121469 0.000000
-6.496367 18.121469 0.000709
-6.182544 18.121469 0.000448
-5.868721 18.121469 0.000409
-5.554898 18.121469 0.000458
-5.241075 18.121469 0.000441
-4.927252 18.121469 0.000328
-4.613429 18.121469 0.000333
-4.299606 18.121469 0.000345
-3.985783 18.121469 0.000223
-3.671960 18.121469 0.000166
-3.358137 18.121469 0.000251
-3.044314 18.121469 0.000306
-2.730491 18.121469 0.000290
-2.416668 18.121469 0.000221
-2.102845 18.121469 0.000251
-1.789022 18.121469 0.000316
-1.475199 18.121469 0.000329
-1.161376 18.121469 0.000228
-0.847553 18.121469 0.000179
-0.533730 18.121469 0.000135
-0.219907 18.121469 0.000108
0.093916 18.121469 0.000150
0.407739 18.121469 0.000198
0.721562 18.121469 0.000226
1.035385 18.121469 0.000344
1.349208 18.121469 0.000311
1.663032 18.121469 0.000269
1.976854 18.121469 0.000249
2.290677 18.121469 0.000183
2.604500 18.121469 0.000017
2.918324 18.121469 -0.000036
3.232146 18.121469 -0.000022
3.545969 18.121469 -0.000098
3.859793 18.121469 -0.000240
4.173615 18.121469 -0.000140
4.487438 18.121469 -0.000118
4.801261 18.121469 -0.000148
5.115085 18.121469 -0.000067
5.428907 18.121469 0.000007
5.742730 18.121469 -0.000071
6.056554 18.121469 -0.000075
6.370377 18.121469 -0.000332
6.684199 18.121469 -0.000682
6.998022 18.121469 -0.001106
7.311846 18.121469 -0.001194
7.625669 18.121469 -0.001202
7.939491 18.121469 -0.001841
8.253315 18.121469 -0.001635
8.567138 18.121469 -0.001126
8.880960 18.121469 -0.000598
9.194784 18.121469 0.001227
9.508606 18.121469 0.001967
9.822430 18.121469 0.008676
10.136253 18.121469 0.014331
10.450075 18.121469 0.022594
10.763899 18.121469 0.023441
11.077723 18.121469 0.020713
11.391544 18.121469 0.029430
11.705368 18.121469 0.033609
12.019190 18.121469 0.027621
12.333014 18.121469 0.030527
12.646837 18.121469 0.017437
12.960659 18.121469 0.014231
13.274483 18.121469 0.040197
13.588306 18.121469 0.046330
13.902128 18.121469 0.028292
14.215952 18.121469 0.021850
14.529776 18.121469 0.039881
14.843597 18.121469 0.043798
15.157421 18.121469 0.033248
15.471243 18.121469 0.034102
15.785067 18.121469 0.041991
16.098890 18.121469 0.044728
16.412712 18.121469 0.038931
16.726536 18.121469 0.038450
17.040359 18.121469 0.026590
17.354181 18.121469 0.013304
17.668005 18.121469 0.020466
17.981829 18.121469 -0.008403
18.295650 18.121469 0.020986
18.609474 18.121469 0.063997
18.923298 18.121469 0.000000
19.237120 18.121469 0.000000
-6.810190 17.807646 0.000000
-6.496367 17.807646 0.000572
-6.182544 17.807646 0.000432
-5.868721 17.807646 0.000395
-5.554898 17.807646 0.000393
-5.241075 17.807646 0.000445
-4.927252 17.807646 0.000434
-4.613429 17.807646 0.000464
-4.299606 17.807646 0.000437
-3.985783 17.807646 0.000281
-3.671960 17.807646 0.000184
-3.358137 17.807646 0.000269
-3.044314 17.807646 0.000265
-2.730491 17.807646 0.000227
-2.416668 17.807646 0.000181
-2.102845 17.807646 0.000249
-1.789022 17.807646 0.000351
-1.475199 17.807646 0.000365
-1.161376 17.807646 0.000227
-0.847553 17.807646 0.000179
-0.533730 17.807646 0.000153
-0.219907 17.807646 0.000153
0.093916 17.807646 0.000170
0.407739 17.807646 0.000163
0.721562 17.807646 0.000201
1.035385 17.807646 0.000307
1.349208 17.807646 0.000234
1.663032 17.807646 0.000187
1.976854 17.807646 0.000206
2.290677 17.807646 0.000189
2.604500 17.807646 -0.000001
2.918324 17.807646 -0.000013
3.232146 17.807646 -0.000051
3.545969 17.807646 -0.000155
3.859793 17.807646 -0.000260
4.173615 17.807646 -0.000161
4.487438 17.807646 -0.000104
4.801261 17.807646 -0.000072
5.115085 17.807646 0.000012
5.428907 17.807646 0.000112
5.742730 17.807646 0.000147
6.056554 17.807646 0.000070
6.370377 17.807646 -0.000281
6.684199 17.807646 -0.000625
6.998022 17.807646 -0.000805
7.311846 17.807646 -0.001081
7.625669 17.807646 -0.001655
7.939491 17.807646 -0.001858
8.253315 17.807646 -0.002154
8.567138 17.807646 -0.002128
8.880960 17.807646 -0.000907
9.194784 17.807646 0.001536
9.508606 17.807646 0.002101
9.822430 17.807646 0.009452
10.136253 17.807646 0.014385
10.450075 17.807646 0.021173
10.763899 17.807646 0.027583
11.077723 17.807646 0.031636
11.391544 17.807646 0.033040
11.705368 17.807646 0.030433
12.019190 17.807646 0.032103
12.333014 17.807646 0.018224
12.646837 17.807646 0.024059
12.960659 17.807646 0.005713
13.274483 17.807646 0.034889
13.588306 17.807646 0.033559
13.902128 17.807646 0.033746
14.215952 17.807646 0.016307
14.529776 17.807646 0.017204
14.843597 17.807646 0.031321
15.157421 17.807646 0.029101
15.471243 17.807646 0.029795
15.785067 17.807646 0.029293
16.098890 17.807646 0.035578
16.412712 17.807646 0.024499
16.726536 17.807646 0.048613
17.040359 17.807646 0.047177
17.354181 17.807646 0.028923
17.668005 17.807646 0.015167
17.981829 17.807646 0.007219
18.295650 17.807646 0.036579
18.609474 17.807646 0.066966
18.923298 17.807646 0.000000
19.237120 17.807646 0.000000
-6.810190 17.493824 0.000000
-6.496367 17.493824 0.000555
-6.182544 17.493824 0.000435
-5.868721 17.493824 0.000384
-5.554898 17.493824 0.000356
-5.241075 17.493824 0.000452
-4.927252 17.493824 0.000546
-4.613429 17.493824 0.000574
-4.299606 17.493824 0.000496
-3.985783 17.493824 0.000367
-3.671960 17.493824 0.000274
-3.358137 17.493824 0.000335
-3.044314 17.493824 0.000281
-2.730491 17.493824 0.000189
-2.416668 17.493824 0.000158
-2.102845 17.493824 0.000229
-1.789022 17.493824 0.000370
-1.475199 17.493824 0.000388
-1.161376 17.493824 0.000225
-0.847553 17.493824 0.000181
-0.533730 17.493824 0.000165
-0.219907 17.493824 0.000185
0.093916 17.493824 0.000176
0.407739 17.493824 0.000118
0.721562 17.493824 0.000114
1.035385 17.493824 0.000193
1.349208 17.493824 0.000141
1.663032 17.493824 0.000082
1.976854 17.493824 0.000165
2.290677 17.493824 0.000138
2.604500 17.493824 -0.000018
2.918324 17.493824 -0.000046
3.232146 17.493824 -0.000084
3.545969 17.493824 -0.000151
3.859793 17.493824 -0.000245
4.173615 17.493824 -0.000163
4.487438 17.493824 -0.000123
4.801261 17.493824 -0.000029
5.115085 17.493824 0.000083
5.428907 17.493824 0.000178
5.742730 17.493824 0.000351
6.056554 17.493824 0.000165
6.370377 17.493824 -0.000280
6.684199 17.493824 -0.000547
6.998022 17.493824 -0.000675
7.311846 17.493824 -0.001134
7.625669 17.493824 -0.001517
7.939491 17.493824 -0.002200
8.253315 17.493824 -0.002677
8.567138 17.493824 -0.001981
8.880960 17.493824 -0.000300
9.194784 17.493824 0.000825
9.508606 17.493824 0.000570
9.822430 17.493824 0.002139
10.136253 17.493824 0.009143
10.450075 17.493824 0.016252
10.763899 17.493824 0.024167
11.077723 17.493824 0.023645
11.391544 17.493824 0.031473
11.705368 17.493824 0.034021
12.019190 17.493824 0.044297
12.333014 17.493824 0.026450
12.646837 17.493824 0.031034
12.960659 17.493824 0.013610
13.274483 17.493824 0.026867
13.588306 17.493824 0.030967
13.902128 17.493824 0.030515
14.215952 17.493824 0.019636
14.529776 17.493824 0.014040
14.843597 17.493824 0.023808
15.157421 17.493824 0.003567
15.471243 17.493824 -0.000831
15.785067 17.493824 0.014122
16.098890 17.493824 0.015231
16.412712 17.493824 0.023801
16.726536 17.493824 0.041820
17.040359 17.493824 0.044507
17.354181 17.493824 0.039630
17.668005 17.493824 0.021150
17.981829 17.493824 0.009983
18.295650 17.493824 0.022185
18.609474 17.493824 0.036965
18.923298 17.493824 0.000000
19.237120 17.493824 0.000000
-6.810190 17.180000 0.000000
-6.496367 17.180000 0.000613
-6.182544 17.180000 0.000444
-5.868721 17.180000 0.000374
-5.554898 17.180000 0.000320
-5.241075 17.180000 0.000436
-4.927252 17.180000 0.000576
-4.613429 17.180000 0.000600
-4.299606 17.180000 0.000496
-3.985783 17.180000 0.000389
-3.671960 17.180000 0.000328
-3.358137 17.180000 0.000377
-3.044314 17.180000 0.000297
-2.730491 17.180000 0.000178
-2.416668 17.180000 0.000136
-2.102845 17.180000 0.000192
-1.789022 17.180000 0.000339
-1.475199 17.180000 0.000363
-1.161376 17.180000 0.000216
-0.847553 17.180000 0.000166
-0.533730 17.180000 0.000138
-0.219907 17.180000 0.000115
0.093916 17.180000 0.000115
0.407739 17.180000 0.000063
0.721562 17.180000 0.000051
1.035385 17.180000 0.000091
1.349208 17.180000 0.000070
1.663032 17.180000 0.000053
1.976854 17.180000 0.000173
2.290677 17.180000 0.000122
2.604500 17.180000 -0.000048
2.918324 17.180000 -0.000088
3.232146 17.180000 -0.000149
3.545969 17.180000 -0.000166
3.859793 17.180000 -0.000193
4.173615 17.180000 -0.000159
4.487438 17.180000 -0.000142
4.801261 17.180000 -0.000026
5.115085 17.180000 0.000095
5.428907 17.180000 0.000221
5.742730 17.180000 0.000357
6.056554 17.180000 0.000047
6.370377 17.180000 -0.000440
6.684199 17.180000 -0.000648
6.998022 17.180000 -0.000761
7.311846 17.180000 -0.000979
7.625669 17.180000 -0.001260
7.939491 17.180000 -0.001886
8.253315 17.180000 -0.002017
8.567138 17.180000 -0.001846
8.880960 17.180000 -0.000996
9.194784 17.180000 -0.000758
9.508606 17.180000 0.000430
9.822430 17.180000 0.003632
10.136253 17.180000 0.008027
10.450075 17.180000 0.013895
10.763899 17.180000 0.012360
11.077723 17.180000 0.017029
11.391544 17.180000 0.027360
11.705368 17.180000 0.028461
12.019190 17.180000 0.035845
12.333014 17.180000 0.025385
12.646837 17.180000 0.014547
12.960659 17.180000 0.017925
13.274483 17.180000 0.027216
13.588306 17.180000 0.045619
13.902128 17.180000 0.019763
14.215952 17.180000 0.015105
14.529776 17.180000 0.006542
14.843597 17.180000 -0.010204
15.157421 17.180000 0.015339
15.471243 17.180000 0.012380
15.785067 17.180000 0.016845
16.098890 17.180000 0.013246
16.412712 17.180000 0.023000
16.726536 17.180000 0.023730
17.040359 17.180000 0.025468
17.354181 17.180000 0.034601
17.668005 17.180000 0.015687
17.981829 17.180000 -0.011486
18.295650 17.180000 -0.023507
18.609474 17.180000 -0.019863
18.923298 17.180000 0.000000
19.237120 17.180000 0.000000
-6.810190 16.866177 0.000000
-6.496367 16.866177 0.000691
-6.182544 16.866177 0.000430
-5.868721 16.866177 0.000364
-5.554898 16.866177 0.000350
-5.241075 16.866177 0.000422
-4.927252 16.866177 0.000499
-4.613429 16.866177 0.000545
-4.299606 16.866177 0.000437
-3.985783 16.866177 0.000354
-3.671960 16.866177 0.000291
-3.358137 16.866177 0.000339
-3.044314 16.866177 0.000279
-2.730491 16.866177 0.000194
-2.416668 16.866177 0.000140
-2.102845 16.866177 0.000184
-1.789022 16.866177 0.000306
-1.475199 16.866177 0.000357
-1.161376 16.866177 0.000258
-0.847553 16.866177 0.000168
-0.533730 16.866177 0.000079
-0.219907 16.866177 0.000011
0.093916 16.866177 0.000032
0.407739 16.866177 0.000043
0.721562 16.866177 0.000022
1.035385 16.866177 0.000037
1.349208 16.866177 0.000038
1.663032 16.866177 0.000058
1.976854 16.866177 0.000173
2.290677 16.866177 0.000133
2.604500 16.866177 -0.000027
2.918324 16.866177 -0.000133
3.232146 16.866177 -0.000234
3.545969 16.866177 -0.000210
3.859793 16.866177 -0.000175
4.173615 16.866177 -0.000138
4.487438 16.866177 -0.000154
4.801261 16.866177 -0.000059
5.115085 16.866177 0.000079
5.428907 16.866177 0.000176
5.742730 16.866177 0.000162
6.056554 16.866177 -0.000203
6.370377 16.866177 -0.000547
6.684199 16.866177 -0.000776
6.998022 16.866177 -0.000870
7.311846 16.866177 -0.000987
7.625669 16.866177 -0.001081
7.939491 16.866177 -0.001787
8.253315 16.866177 -0.001759
8.567138 16.866177 -0.002165
8.880960 16.866177 -0.001854
9.194784 16.866177 -0.000444
9.508606 16.866177 0.002829
9.822430 16.866177 0.007894
10.136253 16.866177 0.008869
10.450075 16.866177 0.012676
10.763899 16.866177 0.011892
11.077723 16.866177 0.020968
11.391544 16.866177 0.028518
11.705368 16.866177 0.036247
12.019190 16.866177 0.034878
12.333014 16.866177 0.028413
12.646837 16.866177 0.011698
12.960659 16.866177 0.020783
13.274483 16.866177 0.051187
13.588306 16.866177 0.063438
13.902128 16.866177 0.041114
14.215952 16.866177 0.010730
14.529776 16.866177 0.008884
14.843597 16.866177 0.000738
15.157421 16.866177 0.024732
15.471243 16.866177 0.015011
15.785067 16.866177 0.029187
16.098890 16.866177 0.012513
16.412712 16.866177 0.024287
16.726536 16.866177 0.017552
17.040359 16.866177 0.021165
17.354181 16.866177 0.023526
17.668005 16.866177 0.001898
17.981829 16.866177 -0.042729
18.295650 16.866177 -0.043535
18.609474 16.866177 -0.024162
18.923298 16.866177 0.000000
19.237120 16.866177 0.000000
-6.810190 16.552353 0.000000
-6.496367 16.552353 0.000756
-6.182544 16.552353 0.000384
-5.868721 16.552353 0.000324
-5.554898 16.552353 0.000352
-5.241075 16.552353 0.000386
-4.927252 16.552353 0.000385
-4.613429 16.552353 0.000453
-4.299606 16.552353 0.000399
-3.985783 16.552353 0.000326
-3.671960 16.552353 0.000245
-3.358137 16.552353 0.000264
-3.044314 16.552353 0.000222
-2.730491 16.552353 0.000177
-2.416668 16.552353 0.000166
-2.102845 16.552353 0.000214
-1.789022 16.552353 0.000279
-1.475199 16.552353 0.000334
-1.161376 16.552353 0.000305
-0.847553 16.552353 0.000197
-0.533730 16.552353 0.000062
-0.219907 16.552353 -0.000010
0.093916 16.552353 -0.000010
0.407739 16.552353 0.000046
0.721562 16.552353 0.000023
1.035385 16.552353 0.000031
1.349208 16.552353 0.000028
1.663032 16.552353 0.000050
1.976854 16.552353 0.000146
2.290677 16.552353 0.000100
2.604500 16.552353 0.000010
2.918324 16.552353 -0.000121
3.232146 16.552353 -0.000247
3.545969 16.552353 -0.000170
3.859793 16.552353 -0.000118
4.173615 16.552353 -0.000117
4.487438 16.552353 -0.000199
4.801261 16.552353 -0.000188
5.115085 16.552353 -0.000004
5.428907 16.552353 0.000055
5.742730 16.552353 0.000005
6.056554 16.552353 -0.000415
6.370377 16.552353 -0.000571
6.684199 16.552353 -0.000753
6.998022 16.552353 -0.000863
7.311846 16.552353 -0.000947
7.625669 16.552353 -0.000968
7.939491 16.552353 -0.001317
8.253315 16.552353 -0.001962
8.567138 16.552353 -0.002894
8.880960 16.552353 -0.002442
9.194784 16.552353 0.001181
9.508606 16.552353 0.005764
9.822430 16.552353 0.009791
10.136253 16.552353 0.014431
10.450075 16.552353 0.021862
10.763899 16.552353 0.021610
11.077723 16.552353 0.031134
11.391544 16.552353 0.043974
11.705368 16.552353 0.040013
12.019190 16.552353 0.035483
12.333014 16.552353 0.030771
12.646837 16.552353 0.016866
12.960659 16.552353 0.030569
13.274483 16.552353 0.040952
13.588306 16.552353 0.037949
13.902128 16.552353 0.058300
14.215952 16.552353 0.022809
14.529776 16.552353 0.024048
14.843597 16.552353 0.017690
15.157421 16.552353 0.031999
15.471243 16.552353 0.024068
15.785067 16.552353 0.015584
16.098890 16.552353 0.009451
16.412712 16.552353 0.029256
16.726536 16.552353 0.021475
17.040359 16.552353 0.016092
17.354181 16.552353 0.023604
17.668005 16.552353 -0.005693
17.981829 16.552353 -0.025026
18.295650 16.552353 -0.043009
18.609474 16.552353 -0.065214
18.923298 16.552353 0.000000
19.237120 16.552353 0.000000
-6.810190 16.238533 0.000000
-6.496367 16.238533 0.000767
-6.182544 16.238533 0.000377
-5.868721 16.238533 0.000285
-5.554898 16.238533 0.000305
-5.241075 16.238533 0.000313
-4.927252 16.238533 0.000314
-4.613429 16.238533 0.000393
-4.299606 16.238533 0.000395
-3.985783 16.238533 0.000318
-3.671960 16.238533 0.000239
-3.358137 16.238533 0.000232
-3.044314 16.238533 0.000176
-2.730491 16.238533 0.000166
-2.416668 16.238533 0.000207
-2.102845 16.238533 0.000270
-1.789022 16.238533 0.000266
-1.475199 16.238533 0.000277
-1.161376 16.238533 0.000319
-0.847553 16.238533 0.000239
-0.533730 16.238533 0.000116
-0.219907 16.238533 0.000083
0.093916 16.238533 0.000046
0.407739 16.238533 0.000084
0.721562 16.238533 0.000063
1.035385 16.238533 0.000035
1.349208 16.238533 0.000010
1.663032 16.238533 0.000001
1.976854 16.238533 0.000063
2.290677 16.238533 0.000042
2.604500 16.238533 0.000024
2.918324 16.238533 -0.000030
3.232146 16.238533 -0.000120
3.545969 16.238533 -0.000037
3.859793 16.238533 -0.000029
4.173615 16.238533 -0.000073
4.487438 16.238533 -0.000256
4.801261 16.238533 -0.000344
5.115085 16.238533 -0.000186
5.428907 16.238533 -0.000050
5.742730 16.238533 -0.000096
6.056554 16.238533 -0.000409
6.370377 16.238533 -0.000592
6.684199 16.238533 -0.000729
6.998022 16.238533 -0.000767
7.311846 16.238533 -0.000918
7.625669 16.238533 -0.001332
7.939491 16.238533 -0.001423
8.253315 16.238533 -0.001721
8.567138 16.238533 -0.002342
8.880960 16.238533 -0.001208
9.194784 16.238533 0.002992
9.508606 16.238533 0.006736
9.822430 16.238533 0.010927
10.136253 16.238533 0.018153
10.450075 16.238533 0.025698
10.763899 16.238533 0.031152
11.077723 16.238533 0.035158
11.391544 16.238533 0.046524
11.705368 16.238533 0.051334
12.019190 16.238533 0.046128
12.333014 16.238533 0.036356
12.646837 16.238533 0.034355
12.960659 16.238533 0.033628
13.274483 16.238533 0.031963
13.588306 16.238533 0.046462
13.902128 16.238533 0.044117
14.215952 16.238533 0.054420
14.529776 16.238533 0.033089
14.843597 16.238533 0.031082
15.157421 16.238533 0.016796
15.471243 16.238533 0.034372
15.785067 16.238533 0.034999
16.098890 16.238533 0.013739
16.412712 16.238533 0.026518
16.726536 16.238533 0.030337
17.040359 16.238533 0.028906
17.354181 16.238533 0.019109
17.668005 16.238533 -0.006007
17.981829 16.238533 -0.016406
18.295650 16.238533 -0.069753
18.609474 16.238533 -0.053851
18.923298 16.238533 0.000000
19.237120 16.238533 0.000000
-6.810190 15.924709 0.000000
-6.496367 15.924709 0.000742
-6.182544 15.924709 0.000420
-5.868721 15.924709 0.000298
-5.554898 15.924709 0.000242
-5.241075 15.924709 0.000256
-4.927252 15.924709 0.000283
-4.613429 15.924709 0.000376
-4.299606 15.924709 0.000406
-3.985783 15.924709 0.000357
-3.671960 15.924709 0.000295
-3.358137 15.924709 0.000253
-3.044314 15.924709 0.000183
-2.730491 15.924709 0.000180
-2.416668 15.924709 0.000245
-2.102845 15.924709 0.000304
-1.789022 15.924709 0.000252
-1.475199 15.924709 0.000232
-1.161376 15.924709 0.000304
-0.847553 15.924709 0.000275
-0.533730 15.924709 0.000183
-0.219907 15.924709 0.000205
0.093916 15.924709 0.000132
0.407739 15.924709 0.000137
0.721562 15.924709 0.000105
1.035385 15.924709 0.000058
1.349208 15.924709 -0.000040
1.663032 15.924709 -0.000009
1.976854 15.924709 0.000019
2.290677 15.924709 -0.000052
2.604500 15.924709 0.000005
2.918324 15.924709 0.000055
3.232146 15.924709 0.000030
3.545969 15.924709 0.000109
3.859793 15.924709 0.000025
4.173615 15.924709 -0.000100
4.487438 15.924709 -0.000274
4.801261 15.924709 -0.000414
5.115085 15.924709 -0.000274
5.428907 15.924709 -0.000085
5.742730 15.924709 -0.000174
6.056554 15.924709 -0.000432
6.370377 15.924709 -0.000478
6.684199 15.924709 -0.000402
6.998022 15.924709 -0.000527
7.311846 15.924709 -0.000895
7.625669 15.924709 -0.001137
7.939491 15.924709 -0.001081
8.253315 15.924709 -0.000345
8.567138 15.924709 -0.000891
8.880960 15.924709 0.000372
9.194784 15.924709 0.002977
9.508606 15.924709 0.006990
9.822430 15.924709 0.009380
10.136253 15.924709 0.015727
10.450075 15.924709 0.023761
10.763899 15.924709 0.034075
11.077723 15.924709 0.033903
11.391544 15.924709 0.047779
11.705368 15.924709 0.051281
12.019190 15.924709 0.056508
12.333014 15.924709 0.045468
12.646837 15.924709 0.038625
12.960659 15.924709 0.039355
13.274483 15.924709 0.020204
13.588306 15.924709 0.038472
13.902128 15.924709 0.056598
14.215952 15.924709 0.058278
14.529776 15.924709 0.034068
14.843597 15.924709 0.022977
15.157421 15.924709 0.032680
15.471243 15.924709 0.034527
15.785067 15.924709 0.044224
16.098890 15.924709 0.029308
16.412712 15.924709 0.030487
16.726536 15.924709 0.047709
17.040359 15.924709 0.017525
17.354181 15.924709 0.027086
17.668005 15.924709 -0.008635
17.981829 15.924709 -0.044851
18.295650 15.924709 -0.066445
18.609474 15.924709 -0.054671
18.923298 15.924709 0.000000
19.237120 15.924709 0.000000
-6.810190 15.610886 0.000000
-6.496367 15.610886 0.000697
-6.182544 15.610886 0.000462
-5.868721 15.610886 0.000334
-5.554898 15.610886 0.000224
-5.241075 15.610886 0.000268
-4.927252 15.610886 0.000280
-4.613429 15.610886 0.000362
-4.299606 15.610886 0.000411
-3.985783 15.610886 0.000418
-3.671960 15.610886 0.000382
-3.358137 15.610886 0.000330
-3.044314 15.610886 0.000199
-2.730491 15.610886 0.000189
-2.416668 15.610886 0.000259
-2.102845 15.610886 0.000279
-1.789022 15.610886 0.000243
-1.475199 15.610886 0.000188
-1.161376 15.610886 0.000270
-0.847553 15.610886 0.000296
-0.533730 15.610886 0.000228
-0.219907 15.610886 0.000264
0.093916 15.610886 0.000177
0.407739 15.610886 0.000201
0.721562 15.610886 0.000186
1.035385 15.610886 0.000083
1.349208 15.610886 0.000010
1.663032 15.610886 0.000030
1.976854 15.610886 0.000026
2.290677 15.610886 -0.000061
2.604500 15.610886 -0.000020
2.918324 15.610886 0.000078
3.232146 15.610886 0.000114
3.545969 15.610886 0.000141
3.859793 15.610886 0.000029
4.173615 15.610886 -0.000096
4.487438 15.610886 -0.000312
4.801261 15.610886 -0.000410
5.115085 15.610886 -0.000284
5.428907 15.610886 -0.000091
5.742730 15.610886 -0.000161
6.056554 15.610886 -0.000353
6.370377 15.610886 -0.000323
6.684199 15.610886 -0.000263
6.998022 15.610886 -0.000185
7.311846 15.610886 -0.000588
7.625669 15.610886 -0.000920
7.939491 15.610886 -0.000991
8.253315 15.610886 -0.000562
8.567138 15.610886 -0.000516
8.880960 15.610886 0.000468
9.194784 15.610886 0.002247
9.508606 15.610886 0.007065
9.822430 15.610886 0.008120
10.136253 15.610886 0.014251
10.450075 15.610886 0.022882
10.763899 15.610886 0.025100
11.077723 15.610886 0.035891
11.391544 15.610886 0.042320
11.705368 15.610886 0.054525
12.019190 15.610886 0.053899
12.333014 15.610886 0.052731
12.646837 15.610886 0.040689
12.960659 15.610886 0.022109
13.274483 15.610886 0.016534
13.588306 15.610886 0.048292
13.902128 15.610886 0.071278
14.215952 15.610886 0.059131
14.529776 15.610886 0.053251
14.843597 15.610886 0.027781
15.157421 15.610886 0.042409
15.471243 15.610886 0.017180
15.785067 15.610886 0.023707
16.098890 15.610886 0.022359
16.412712 15.610886 0.042149
16.726536 15.610886 0.048220
17.040359 15.610886 0.043846
17.354181 15.610886 0.014742
17.668005 15.610886 -0.022906
17.981829 15.610886 -0.044027
18.295650 15.610886 -0.061637
18.609474 15.610886 -0.073741
18.923298 15.610886 0.000000
19.237120 15.610886 0.000000
-6.810190 15.297062 0.000000
-6.496367 15.297062 0.000633
-6.182544 15.297062 0.000423
-5.868721 15.297062 0.000313
-5.554898 15.297062 0.000238
-5.241075 15.297062 0.000318
-4.927252 15.297062 0.000303
-4.613429 15.297062 0.000352
-4.299606 15.297062 0.000389
-3.985783 15.297062 0.000432
-3.671960 15.297062 0.000427
-3.358137 15.297062 0.000331
-3.044314 15.297062 0.000162
-2.730491 15.297062 0.000205
-2.416668 15.297062 0.000286
-2.102845 15.297062 0.000278
-1.789022 15.297062 0.000226
-1.475199 15.297062 0.000172
-1.161376 15.297062 0.000266
-0.847553 15.297062 0.000293
-0.533730 15.297062 0.000232
-0.219907 15.297062 0.000209
0.093916 15.297062 0.000148
0.407739 15.297062 0.000222
0.721562 15.297062 0.000249
1.035385 15.297062 0.000154
1.349208 15.297062 0.000105
1.663032 15.297062 0.000071
1.976854 15.297062 0.000090
2.290677 15.297062 0.000028
2.604500 15.297062 -0.000011
2.918324 15.297062 0.000070
3.232146 15.297062 0.000146
3.545969 15.297062 0.000114
3.859793 15.297062 0.000012
4.173615 15.297062 -0.000057
4.487438 15.297062 -0.000254
4.801261 15.297062 -0.000375
5.115085 15.297062 -0.000251
5.428907 15.297062 -0.000114
5.742730 15.297062 -0.000144
6.056554 15.297062 -0.000203
6.370377 15.297062 -0.000176
6.684199 15.297062 -0.000117
6.998022 15.297062 -0.000212
7.311846 15.297062 -0.000651
7.625669 15.297062 -0.000464
7.939491 15.297062 -0.000395
8.253315 15.297062 -0.000723
8.567138 15.297062 -0.000308
8.880960 15.297062 0.000876
9.194784 15.297062 0.001640
9.508606 15.297062 0.005211
9.822430 15.297062 0.008193
10.136253 15.297062 0.012279
10.450075 15.297062 0.018831
10.763899 15.297062 0.016240
11.077723 15.297062 0.029366
11.391544 15.297062 0.042511
11.705368 15.297062 0.045336
12.019190 15.297062 0.048555
12.333014 15.297062 0.043606
12.646837 15.297062 0.022681
12.960659 15.297062 0.012521
13.274483 15.297062 0.015697
13.588306 15.297062 0.050266
13.902128 15.297062 0.069741
14.215952 15.297062 0.050720
14.529776 15.297062 0.065499
14.843597 15.297062 0.059366
15.157421 15.297062 0.051515
15.471243 15.297062 0.026639
15.785067 15.297062 0.003996
16.098890 15.297062 0.019317
16.412712 15.297062 0.050700
16.726536 15.297062 0.056022
17.040359 15.297062 0.049692
17.354181 15.297062 0.017430
17.668005 15.297062 -0.016608
17.981829 15.297062 -0.045217
18.295650 15.297062 -0.055413
18.609474 15.297062 -0.069989
18.923298 15.297062 0.000000
19.237120 15.297062 0.000000
-6.810190 14.983238 0.000000
-6.496367 14.983238 0.000578
-6.182544 14.983238 0.000347
-5.868721 14.983238 0.000281
-5.554898 14.983238 0.000283
-5.241075 14.983238 0.000343
-4.927252 14.983238 0.000313
-4.613429 14.983238 0.000323
-4.299606 14.983238 0.000321
-3.985783 14.983238 0.000388
-3.671960 14.983238 0.000446
-3.358137 14.983238 0.000330
-3.044314 14.983238 0.000126
-2.730491 14.983238 0.000257
-2.416668 14.983238 0.000354
-2.102845 14.983238 0.000279
-1.789022 14.983238 0.000194
-1.475199 14.983238 0.000166
-1.161376 14.983238 0.000264
-0.847553 14.983238 0.000311
-0.533730 14.983238 0.000206
-0.219907 14.983238 0.000139
0.093916 14.983238 0.000103
0.407739 14.983238 0.000203
0.721562 14.983238 0.000291
1.035385 14.983238 0.000261
1.349208 14.983238 0.000212
1.663032 14.983238 0.000131
1.976854 14.983238 0.000163
2.290677 14.983238 0.000092
2.604500 14.983238 -0.000017
2.918324 14.983238 0.000026
3.232146 14.983238 0.000125
3.545969 14.983238 0.000108
3.859793 14.983238 0.000053
4.173615 14.983238 0.000027
4.487438 14.983238 -0.000222
4.801261 14.983238 -0.000311
5.115085 14.983238 -0.000263
5.428907 14.983238 -0.000283
5.742730 14.983238 -0.000177
6.056554 14.983238 -0.000118
6.370377 14.983238 -0.000221
6.684199 14.983238 -0.000229
6.998022 14.983238 -0.000540
7.311846 14.983238 -0.000929
7.625669 14.983238 -0.000879
7.939491 14.983238 -0.000841
8.253315 14.983238 -0.000936
8.567138 14.983238 -0.000503
8.880960 14.983238 0.000786
9.194784 14.983238 0.002099
9.508606 14.983238 0.006722
9.822430 14.983238 0.010377
10.136253 14.983238 0.014151
10.450075 14.983238 0.017817
10.763899 14.983238 0.017573
11.077723 14.983238 0.022701
11.391544 14.983238 0.037345
11.705368 14.983238 0.039862
12.019190 14.983238 0.043291
12.333014 14.983238 0.039097
12.646837 14.983238 0.026698
12.960659 14.983238 0.013915
13.274483 14.983238 0.042754
13.588306 14.983238 0.046124
13.902128 14.983238 0.045028
14.215952 14.983238 0.031566
14.529776 14.983238 0.054477
14.843597 14.983238 0.073457
15.157421 14.983238 0.042537
15.471243 14.983238 0.030586
15.785067 14.983238 0.018474
16.098890 14.983238 0.016108
16.412712 14.983238 0.047447
16.726536 14.983238 0.055632
17.040359 14.983238 0.050675
17.354181 14.983238 0.000144
17.668005 14.983238 -0.016718
17.981829 14.983238 -0.037841
18.295650 14.983238 -0.045678
18.609474 14.983238 -0.031818
18.923298 14.983238 0.000000
19.237120 14.983238 0.000000
-6.810190 14.669415 0.000000
-6.496367 14.669415 0.000541
-6.182544 14.669415 0.000297
-5.868721 14.669415 0.000277
-5.554898 14.669415 0.000322
-5.241075 14.669415 0.000380
-4.927252 14.669415 0.000345
-4.613429 14.669415 0.000324
-4.299606 14.669415 0.000290
-3.985783 14.669415 0.000351
-3.671960 14.669415 0.000424
-3.358137 14.669415 0.000328
-3.044314 14.669415 0.000177
-2.730491 14.669415 0.000349
-2.416668 14.669415 0.000401
-2.102845 14.669415 0.000263
-1.789022 14.669415 0.000195
-1.475199 14.669415 0.000160
-1.161376 14.669415 0.000238
-0.847553 14.669415 0.000310
-0.533730 14.669415 0.000201
-0.219907 14.669415 0.000143
0.093916 14.669415 0.000136
0.407739 14.669415 0.000183
0.721562 14.669415 0.000268
1.035385 14.669415 0.000300
1.349208 14.669415 0.000253
1.663032 14.669415 0.000159
1.976854 14.669415 0.000213
2.290677 14.669415 0.000106
2.604500 14.669415 0.000016
2.918324 14.669415 0.000023
3.232146 14.669415 0.000105
3.545969 14.669415 0.000094
3.859793 14.669415 0.000079
4.173615 14.669415 0.000019
4.487438 14.669415 -0.000118
4.801261 14.669415 -0.000188
5.115085 14.669415 -0.000310
5.428907 14.669415 -0.000454
5.742730 14.669415 -0.000271
6.056554 14.669415 -0.000222
6.370377 14.669415 -0.000489
6.684199 14.669415 -0.000506
6.998022 14.669415 -0.000903
7.311846 14.669415 -0.001304
7.625669 14.669415 -0.001533
7.939491 14.669415 -0.001541
8.253315 14.669415 -0.001939
8.567138 14.669415 -0.001719
8.880960 14.669415 0.001520
9.194784 14.669415 0.002566
9.508606 14.669415 0.005948
9.822430 14.669415 0.011508
10.136253 14.669415 0.014654
10.450075 14.669415 0.017869
10.763899 14.669415 0.018996
11.077723 14.669415 0.025602
11.391544 14.669415 0.032060
11.705368 14.669415 0.041213
12.019190 14.669415 0.035499
12.333014 14.669415 0.033066
12.646837 14.669415 0.032340
12.960659 14.669415 0.041820
13.274483 14.669415 0.043096
13.588306 14.669415 0.039709
13.902128 14.669415 0.025501
14.215952 14.669415 0.029760
14.529776 14.669415 0.048334
14.843597 14.669415 0.043521
15.157421 14.669415 0.047547
15.471243 14.669415 0.035188
15.785067 14.669415 0.000854
16.098890 14.669415 0.038905
16.412712 14.669415 0.035865
16.726536 14.669415 0.070738
17.040359 14.669415 0.022009
17.354181 14.669415 -0.018066
17.668005 14.669415 0.006569
17.981829 14.669415 -0.020745
18.295650 14.669415 -0.036179
18.609474 14.669415 -0.043911
18.923298 14.669415 0.000000
19.237120 14.669415 0.000000
-6.810190 14.355595 0.000000
-6.496367 14.355595 0.000551
-6.182544 14.355595 0.000289
-5.868721 14.355595 0.000300
-5.554898 14.355595 0.000352
-5.241075 14.355595 0.000412
-4.927252 14.355595 0.000400
-4.613429 14.355595 0.000352
-4.299606 14.355595 0.000352
-3.985783 14.355595 0.000344
-3.671960 14.355595 0.000377
-3.358137 14.355595 0.000322
-3.044314 14.355595 0.000261
-2.730491 14.355595 0.000372
-2.416668 14.355595 0.000386
-2.102845 14.355595 0.000260
-1.789022 14.355595 0.000208
-1.475199 14.355595 0.000162
-1.161376 14.355595 0.000228
-0.847553 14.355595 0.000313
-0.533730 14.355595 0.000233
-0.219907 14.355595 0.000185
0.093916 14.355595 0.000204
0.407739 14.355595 0.000158
0.721562 14.355595 0.000170
1.035385 14.355595 0.000258
1.349208 14.355595 0.000212
1.663032 14.355595 0.000165
1.976854 14.355595 0.000212
2.290677 14.355595 0.000070
2.604500 14.355595 0.000051
2.918324 14.355595 0.000019
3.232146 14.355595 0.000037
3.545969 14.355595 0.000060
3.859793 14.355595 0.000049
4.173615 14.355595 0.000068
4.487438 14.355595 0.000018
4.801261 14.355595 -0.000073
5.115085 14.355595 -0.000383
5.428907 14.355595 -0.000598
5.742730 14.355595 -0.000397
6.056554 14.355595 -0.000389
6.370377 14.355595 -0.000622
6.684199 14.355595 -0.000786
6.998022 14.355595 -0.001092
7.311846 14.355595 -0.001380
7.625669 14.355595 -0.001620
7.939491 14.355595 -0.001095
8.253315 14.355595 -0.001587
8.567138 14.355595 -0.001403
8.880960 14.355595 -0.000224
9.194784 14.355595 0.003908
9.508606 14.355595 0.005445
9.822430 14.355595 0.010530
10.136253 14.355595 0.010065
10.450075 14.355595 0.017780
10.763899 14.355595 0.024359
11.077723 14.355595 0.024727
11.391544 14.355595 0.027935
11.705368 14.355595 0.044203
12.019190 14.355595 0.045978
12.333014 14.355595 0.049994
12.646837 14.355595 0.044310
12.960659 14.355595 0.049443
13.274483 14.355595 0.049149
13.588306 14.355595 0.049031
13.902128 14.355595 0.036488
14.215952 14.355595 0.022784
14.529776 14.355595 0.014554
14.843597 14.355595 0.045267
15.157421 14.355595 0.053812
15.471243 14.355595 0.013586
15.785067 14.355595 0.029953
16.098890 14.355595 0.031113
16.412712 14.355595 0.021379
16.726536 14.355595 0.045160
17.040359 14.355595 0.019849
17.354181 14.355595 0.011358
17.668005 14.355595 0.008334
17.981829 14.355595 -0.022399
18.295650 14.355595 -0.065789
18.609474 14.355595 -0.046661
18.923298 14.355595 0.000000
19.237120 14.355595 0.000000
-6.810190 14.041771 0.000000
-6.496367 14.041771 0.000553
-6.182544 14.041771 0.000325
-5.868721 14.041771 0.000313
-5.554898 14.041771 0.000350
-5.241075 14.041771 0.000447
-4.927252 14.041771 0.000472
-4.613429 14.041771 0.000413
-4.299606 14.041771 0.000417
-3.985783 14.041771 0.000367
-3.671960 14.041771 0.000346
-3.358137 14.041771 0.000311
-3.044314 14.041771 0.000279
-2.730491 14.041771 0.000318
-2.416668 14.041771 0.000317
-2.102845 14.041771 0.000281
-1.789022 14.041771 0.000214
-1.475199 14.041771 0.000152
-1.161376 14.041771 0.000232
-0.847553 14.041771 0.000305
-0.533730 14.041771 0.000271
-0.219907 14.041771 0.000222
0.093916 14.041771 0.000211
0.407739 14.041771 0.000107
0.721562 14.041771 0.000074
1.035385 14.041771 0.000155
1.349208 14.041771 0.000167
1.663032 14.041771 0.000109
1.976854 14.041771 0.000096
2.290677 14.041771 0.000019
2.604500 14.041771 0.000065
2.918324 14.041771 0.000021
3.232146 14.041771 -0.000042
3.545969 14.041771 0.000044
3.859793 14.041771 0.000044
4.173615 14.041771 0.000102
4.487438 14.041771 0.000166
4.801261 14.041771 0.000002
5.115085 14.041771 -0.000420
5.428907 14.041771 -0.000647
5.742730 14.041771 -0.000456
6.056554 14.041771 -0.000389
6.370377 14.041771 -0.000749
6.684199 14.041771 -0.000847
6.998022 14.041771 -0.001092
7.311846 14.041771 -0.001323
7.625669 14.041771 -0.001196
7.939491 14.041771 -0.001423
8.253315 14.041771 -0.001572
8.567138 14.041771 -0.000025
8.880960 14.041771 0.000511
9.194784 14.041771 0.001119
9.508606 14.041771 0.001850
9.822430 14.041771 0.007343
10.136253 14.041771 0.010810
10.450075 14.041771 0.016016
10.763899 14.041771 0.022407
11.077723 14.041771 0.029754
11.391544 14.041771 0.038653
11.705368 14.041771 0.053026
12.019190 14.041771 0.058984
12.333014 14.041771 0.060168
12.646837 14.041771 0.043115
12.960659 14.041771 0.050214
13.274483 14.041771 0.036965
13.588306 14.041771 0.023227
13.902128 14.041771 0.013750
14.215952 14.041771 0.011758
14.529776 14.041771 0.009700
14.843597 14.041771 0.033986
15.157421 14.041771 0.039120
15.471243 14.041771 0.031182
15.785067 14.041771 0.036152
16.098890 14.041771 0.042261
16.412712 14.041771 0.033708
16.726536 14.041771 0.026655
17.040359 14.041771 -0.001508
17.354181 14.041771 0.005046
17.668005 14.041771 -0.014263
17.981829 14.041771 -0.041090
18.295650 14.041771 -0.057035
18.609474 14.041771 -0.004769
18.923298 14.041771 0.000000
19.237120 14.041771 0.000000
-6.810190 13.727947 0.000000
-6.496367 13.727947 0.000585
-6.182544 13.727947 0.000376
-5.868721 13.727947 0.000305
-5.554898 13.727947 0.000337
-5.241075 13.727947 0.000450
-4.927252 13.727947 0.000468
-4.613429 13.727947 0.000413
-4.299606 13.727947 0.000421
-3.985783 13.727947 0.000345
-3.671960 13.727947 0.000309
-3.358137 13.727947 0.000277
-3.044314 13.727947 0.000233
-2.730491 13.727947 0.000237
-2.416668 13.727947 0.000267
-2.102845 13.727947 0.000269
-1.789022 13.727947 0.000198
-1.475199 13.727947 0.000135
-1.161376 13.727947 0.000199
-0.847553 13.727947 0.000242
-0.533730 13.727947 0.000268
-0.219907 13.727947 0.000214
0.093916 13.727947 0.000149
0.407739 13.727947 0.000067
0.721562 13.727947 0.000053
1.035385 13.727947 0.000097
1.349208 13.727947 0.000165
1.663032 13.727947 0.000088
1.976854 13.727947 -0.000020
2.290677 13.727947 -0.000020
2.604500 13.727947 0.000125
2.918324 13.727947 -0.000042
3.232146 13.727947 -0.000155
3.545969 13.727947 -0.000039
3.859793 13.727947 0.000013
4.173615 13.727947 0.000093
4.487438 13.727947 0.000182
4.801261 13.727947 0.000011
5.115085 13.727947 -0.000367
5.428907 13.727947 -0.000523
5.742730 13.727947 -0.000441
6.056554 13.727947 -0.000526
6.370377 13.727947 -0.000754
6.684199 13.727947 -0.000841
6.998022 13.727947 -0.001013
7.311846 13.727947 -0.000862
7.625669 13.727947 -0.000764
7.939491 13.727947 -0.001201
8.253315 13.727947 -0.001216
8.567138 13.727947 -0.000689
8.880960 13.727947 0.000039
9.194784 13.727947 -0.001141
9.508606 13.727947 0.001883
9.822430 13.727947 0.004992
10.136253 13.727947 0.011662
10.450075 13.727947 0.014531
10.763899 13.727947 0.021652
11.077723 13.727947 0.034590
11.391544 13.727947 0.052328
11.705368 13.727947 0.057131
12.019190 13.727947 0.053650
12.333014 13.727947 0.060182
12.646837 13.727947 0.040567
12.960659 13.727947 0.044856
13.274483 13.727947 0.026139
13.588306 13.727947 0.005452
13.902128 13.727947 -0.002161
14.215952 13.727947 -0.006595
14.529776 13.727947 -0.010388
14.843597 13.727947 0.023952
15.157421 13.727947 0.052096
15.471243 13.727947 0.019671
15.785067 13.727947 0.006255
16.098890 13.727947 0.025988
16.412712 13.727947 0.031267
16.726536 13.727947 0.027152
17.040359 13.727947 -0.007118
17.354181 13.727947 -0.020269
17.668005 13.727947 -0.008705
17.981829 13.727947 -0.023981
18.295650 13.727947 -0.045763
18.609474 13.727947 -0.038952
18.923298 13.727947 0.000000
19.237120 13.727947 0.000000
-6.810190 13.414124 0.000000
-6.496367 13.414124 0.000625
-6.182544 13.414124 0.000422
-5.868721 13.414124 0.000337
-5.554898 13.414124 0.000331
-5.241075 13.414124 0.000442
-4.927252 13.414124 0.000443
-4.613429 13.414124 0.000376
-4.299606 13.414124 0.000365
-3.985783 13.414124 0.000292
-3.671960 13.414124 0.000268
-3.358137 13.414124 0.000246
-3.044314 13.414124 0.000176
-2.730491 13.414124 0.000184
-2.416668 13.414124 0.000265
-2.102845 13.414124 0.000250
-1.789022 13.414124 0.000196
-1.475199 13.414124 0.000152
-1.161376 13.414124 0.000137
-0.847553 13.414124 0.000117
-0.533730 13.414124 0.000221
-0.219907 13.414124 0.000179
0.093916 13.414124 0.000087
0.407739 13.414124 0.000081
0.721562 13.414124 0.000105
1.035385 13.414124 0.000115
1.349208 13.414124 0.000198
1.663032 13.414124 0.000129
1.976854 13.414124 -0.000056
2.290677 13.414124 -0.000016
2.604500 13.414124 0.000161
2.918324 13.414124 -0.000065
3.232146 13.414124 -0.000219
3.545969 13.414124 -0.000143
3.859793 13.414124 -0.000086
4.173615 13.414124 0.000036
4.487438 13.414124 0.000104
4.801261 13.414124 -0.000054
5.115085 13.414124 -0.000264
5.428907 13.414124 -0.000285
5.742730 13.414124 -0.000453
6.056554 13.414124 -0.000628
6.370377 13.414124 -0.000808
6.684199 13.414124 -0.001012
6.998022 13.414124 -0.001211
7.311846 13.414124 -0.001162
7.625669 13.414124 -0.001013
7.939491 13.414124 -0.001627
8.253315 13.414124 -0.002083
8.567138 13.414124 -0.000801
8.880960 13.414124 -0.000654
9.194784 13.414124 0.001569
9.508606 13.414124 0.004475
9.822430 13.414124 0.012191
10.136253 13.414124 0.016125
10.450075 13.414124 0.016348
10.763899 13.414124 0.026475
11.077723 13.414124 0.038308
11.391544 13.414124 0.048333
11.705368 13.414124 0.051784
12.019190 13.414124 0.049240
12.333014 13.414124 0.051612
12.646837 13.414124 0.044404
12.960659 13.414124 0.033474
13.274483 13.414124 0.041076
13.588306 13.414124 0.002675
13.902128 13.414124 0.001351
14.215952 13.414124 0.000800
14.529776 13.414124 0.000572
14.843597 13.414124 0.023448
15.157421 13.414124 0.038562
15.471243 13.414124 0.024428
15.785067 13.414124 0.014023
16.098890 13.414124 0.027626
16.412712 13.414124 -0.000841
16.726536 13.414124 0.022165
17.040359 13.414124 -0.001171
17.354181 13.414124 -0.006665
17.668005 13.414124 -0.018967
17.981829 13.414124 -0.049442
18.295650 13.414124 -0.049833
18.609474 13.414124 -0.038189
18.923298 13.414124 0.000000
19.237120 13.414124 0.000000
-6.810190 13.100300 0.000000
-6.496367 13.100300 0.000632
-6.182544 13.100300 0.000410
-5.868721 13.100300 0.000386
-5.554898 13.100300 0.000369
-5.241075 13.100300 0.000404
-4.927252 13.100300 0.000390
-4.613429 13.100300 0.000361
-4.299606 13.100300 0.000304
-3.985783 13.100300 0.000243
-3.671960 13.100300 0.000251
-3.358137 13.100300 0.000226
-3.044314 13.100300 0.000123
-2.730491 13.100300 0.000139
-2.416668 13.100300 0.000247
-2.102845 13.100300 0.000213
-1.789022 13.100300 0.000175
-1.475199 13.100300 0.000163
-1.161376 13.100300 0.000095
-0.847553 13.100300 0.000055
-0.533730 13.100300 0.000174
-0.219907 13.100300 0.000154
0.093916 13.100300 0.000063
0.407739 13.100300 0.000114
0.721562 13.100300 0.000170
1.035385 13.100300 0.000141
1.349208 13.100300 0.000205
1.663032 13.100300 0.000145
1.976854 13.100300 -0.000007
2.290677 13.100300 0.000042
2.604500 13.100300 0.000119
2.918324 13.100300 -0.000106
3.232146 13.100300 -0.000218
3.545969 13.100300 -0.000202
3.859793 13.100300 -0.000209
4.173615 13.100300 -0.000047
4.487438 13.100300 0.000027
4.801261 13.100300 -0.000159
5.115085 13.100300 -0.000231
5.428907 13.100300 -0.000193
5.742730 13.100300 -0.000388
6.056554 13.100300 -0.000621
6.370377 13.100300 -0.000788
6.684199 13.100300 -0.001286
6.998022 13.100300 -0.001616
7.311846 13.100300 -0.001512
7.625669 13.100300 -0.001950
7.939491 13.100300 -0.002428
8.253315 13.100300 -0.001718
8.567138 13.100300 -0.001589
8.880960 13.100300 -0.001089
9.194784 13.100300 0.002268
9.508606 13.100300 0.007445
9.822430 13.100300 0.012923
10.136253 13.100300 0.013981
10.450075 13.100300 0.020654
10.763899 13.100300 0.030643
11.077723 13.100300 0.044498
11.391544 13.100300 0.046400
11.705368 13.100300 0.043884
12.019190 13.100300 0.050913
12.333014 13.100300 0.055490
12.646837 13.100300 0.041631
12.960659 13.100300 0.029237
13.274483 13.100300 0.030089
13.588306 13.100300 0.018300
13.902128 13.100300 0.008633
14.215952 13.100300 0.006196
14.529776 13.100300 0.025548
14.843597 13.100300 0.035134
15.157421 13.100300 0.048953
15.471243 13.100300 0.045761
15.785067 13.100300 0.029293
16.098890 13.100300 0.004986
16.412712 13.100300 0.014119
16.726536 13.100300 0.005574
17.040359 13.100300 -0.011918
17.354181 13.100300 -0.006852
17.668005 13.100300 -0.008463
17.981829 13.100300 -0.040932
18.295650 13.100300 -0.013827
18.609474 13.100300 0.007154
18.923298 13.100300 0.000000
19.237120 13.100300 0.000000
-6.810190 12.786476 0.000000
-6.496367 12.786476 0.000573
-6.182544 12.786476 0.000367
-5.868721 12.786476 0.000398
-5.554898 12.786476 0.000379
-5.241075 12.786476 0.000339
-4.927252 12.786476 0.000336
-4.613429 12.786476 0.000355
-4.299606 12.786476 0.000273
-3.985783 12.786476 0.000250
-3.671960 12.786476 0.000271
-3.358137 12.786476 0.000234
-3.044314 12.786476 0.000138
-2.730491 12.786476 0.000126
-2.416668 12.786476 0.000196
-2.102845 12.786476 0.000146
-1.789022 12.786476 0.000138
-1.475199 12.786476 0.000195
-1.161376 12.786476 0.000126
-0.847553 12.786476 0.000093
-0.533730 12.786476 0.000189
-0.219907 12.786476 0.000155
0.093916 12.786476 0.000074
0.407739 12.786476 0.000122
0.721562 12.786476 0.000178
1.035385 12.786476 0.000125
1.349208 12.786476 0.000146
1.663032 12.786476 0.000112
1.976854 12.786476 0.000042
2.290677 12.786476 0.000097
2.604500 12.786476 0.000081
2.918324 12.786476 -0.000090
3.232146 12.786476 -0.000163
3.545969 12.786476 -0.000207
3.859793 12.786476 -0.000284
4.173615 12.786476 -0.000085
4.487438 12.786476 0.000008
4.801261 12.786476 -0.000215
5.115085 12.786476 -0.000193
5.428907 12.786476 -0.000133
5.742730 12.786476 -0.000329
6.056554 12.786476 -0.000495
6.370377 12.786476 -0.000785
6.684199 12.786476 -0.001351
6.998022 12.786476 -0.001730
7.311846 12.786476 -0.001844
7.625669 12.786476 -0.002251
7.939491 12.786476 -0.002213
8.253315 12.786476 -0.001937
8.567138 12.786476 -0.001673
8.880960 12.786476 -0.001664
9.194784 12.786476 0.003702
9.508606 12.786476 0.011096
9.822430 12.786476 0.012463
10.136253 12.786476 0.012460
10.450075 12.786476 0.020451
10.763899 12.786476 0.037354
11.077723 12.786476 0.042345
11.391544 12.786476 0.041329
11.705368 12.786476 0.052312
12.019190 12.786476 0.065578
12.333014 12.786476 0.054965
12.646837 12.786476 0.038732
12.960659 12.786476 0.019187
13.274483 12.786476 0.008490
13.588306 12.786476 0.004485
13.902128 12.786476 0.003123
14.215952 12.786476 0.016505
14.529776 12.786476 0.032664
14.843597 12.786476 0.046531
15.157421 12.786476 0.049589
15.471243 12.786476 0.070528
15.785067 12.786476 0.052309
16.098890 12.786476 0.002852
16.412712 12.786476 -0.011485
16.726536 12.786476 -0.001693
17.040359 12.786476 -0.019981
17.354181 12.786476 -0.007356
17.668005 12.786476 -0.026764
17.981829 12.786476 0.006157
18.295650 12.786476 -0.008779
18.609474 12.786476 0.003911
18.923298 12.786476 0.000000
19.237120 12.786476 0.000000
-6.810190 12.472656 0.000000
-6.496367 12.472656 0.000492
-6.182544 12.472656 0.000338
-5.868721 12.472656 0.000389
-5.554898 12.472656 0.000367
-5.241075 12.472656 0.000290
-4.927252 12.472656 0.000323
-4.613429 12.472656 0.000363
-4.299606 12.472656 0.000286
-3.985783 12.472656 0.000286
-3.671960 12.472656 0.000330
-3.358137 12.472656 0.000306
-3.044314 12.472656 0.000205
-2.730491 12.472656 0.000137
-2.416668 12.472656 0.000143
-2.102845 12.472656 0.000096
-1.789022 12.472656 0.000131
-1.475199 12.472656 0.000196
-1.161376 12.472656 0.000174
-0.847553 12.472656 0.000171
-0.533730 12.472656 0.000195
-0.219907 12.472656 0.000162
0.093916 12.472656 0.000109
0.407739 12.472656 0.000109
0.721562 12.472656 0.000141
1.035385 12.472656 0.000087
1.349208 12.472656 0.000036
1.663032 12.472656 0.000047
1.976854 12.472656 0.000075
2.290677 12.472656 0.000135
2.604500 12.472656 0.000071
2.918324 12.472656 -0.000079
3.232146 12.472656 -0.000107
3.545969 12.472656 -0.000179
3.859793 12.472656 -0.000262
4.173615 12.472656 -0.000073
4.487438 12.472656 -0.000067
4.801261 12.472656 -0.000206
5.115085 12.472656 -0.000093
5.428907 12.472656 -0.000143
5.742730 12.472656 -0.000369
6.056554 12.472656 -0.000382
6.370377 12.472656 -0.000641
6.684199 12.472656 -0.001154
6.998022 12.472656 -0.001426
7.311846 12.472656 -0.001452
7.625669 12.472656 -0.001689
7.939491 12.472656 -0.001466
8.253315 12.472656 -0.000753
8.567138 12.472656 -0.000665
8.880960 12.472656 -0.000799
9.194784 12.472656 0.001241
9.508606 12.472656 0.004802
9.822430 12.472656 0.010199
10.136253 12.472656 0.012095
10.450075 12.472656 0.022843
10.763899 12.472656 0.043332
11.077723 12.472656 0.041896
11.391544 12.472656 0.042665
11.705368 12.472656 0.058064
12.019190 12.472656 0.067340
12.333014 12.472656 0.048498
12.646837 12.472656 0.029831
12.960659 12.472656 0.022688
13.274483 12.472656 0.004473
13.588306 12.472656 0.000317
13.902128 12.472656 -0.005646
14.215952 12.472656 0.027178
14.529776 12.472656 0.019598
14.843597 12.472656 0.043146
15.157421 12.472656 0.030547
15.471243 12.472656 0.035150
15.785067 12.472656 0.032731
16.098890 12.472656 0.008447
16.412712 12.472656 0.015649
16.726536 12.472656 -0.035167
17.040359 12.472656 -0.021401
17.354181 12.472656 -0.035679
17.668005 12.472656 -0.039625
17.981829 12.472656 -0.008003
18.295650 12.472656 0.002696
18.609474 12.472656 -0.010598
18.923298 12.472656 0.000000
19.237120 12.472656 0.000000
-6.810190 12.158833 0.000000
-6.496367 12.158833 0.000438
-6.182544 12.158833 0.000332
-5.868721 12.158833 0.000340
-5.554898 12.158833 0.000313
-5.241075 12.158833 0.000268
-4.927252 12.158833 0.000329
-4.613429 12.158833 0.000334
-4.299606 12.158833 0.000284
-3.985783 12.158833 0.000312
-3.671960 12.158833 0.000353
-3.358137 12.158833 0.000343
-3.044314 12.158833 0.000278
-2.730491 12.158833 0.000163
-2.416668 12.158833 0.000104
-2.102845 12.158833 0.000060
-1.789022 12.158833 0.000142
-1.475199 12.158833 0.000182
-1.161376 12.158833 0.000181
-0.847553 12.158833 0.000178
-0.533730 12.158833 0.000140
-0.219907 12.158833 0.000089
0.093916 12.158833 0.000112
0.407739 12.158833 0.000072
0.721562 12.158833 0.000080
1.035385 12.158833 0.000065
1.349208 12.158833 -0.000031
1.663032 12.158833 0.000011
1.976854 12.158833 0.000114
2.290677 12.158833 0.000148
2.604500 12.158833 0.000043
2.918324 12.158833 -0.000039
3.232146 12.158833 -0.000060
3.545969 12.158833 -0.000150
3.859793 12.158833 -0.000208
4.173615 12.158833 -0.000078
4.487438 12.158833 -0.000138
4.801261 12.158833 -0.000163
5.115085 12.158833 -0.000047
5.428907 12.158833 -0.000216
5.742730 12.158833 -0.000420
6.056554 12.158833 -0.000350
6.370377 12.158833 -0.000457
6.684199 12.158833 -0.000709
6.998022 12.158833 -0.000808
7.311846 12.158833 -0.001000
7.625669 12.158833 -0.001368
7.939491 12.158833 -0.001525
8.253315 12.158833 -0.000900
8.567138 12.158833 -0.001015
8.880960 12.158833 -0.000641
9.194784 12.158833 0.001221
9.508606 12.158833 0.002562
9.822430 12.158833 0.004431
10.136253 12.158833 0.014617
10.450075 12.158833 0.023209
10.763899 12.158833 0.042664
11.077723 12.158833 0.053729
11.391544 12.158833 0.054829
11.705368 12.158833 0.068702
12.019190 12.158833 0.062828
12.333014 12.158833 0.058286
12.646837 12.158833 0.026479
12.960659 12.158833 0.023404
13.274483 12.158833 0.001526
13.588306 12.158833 0.015319
13.902128 12.158833 0.014014
14.215952 12.158833 0.040111
14.529776 12.158833 0.014315
14.843597 12.158833 0.032283
15.157421 12.158833 0.025890
15.471243 12.158833 0.049336
15.785067 12.158833 0.036273
16.098890 12.158833 0.032970
16.412712 12.158833 0.008281
16.726536 12.158833 0.009877
17.040359 12.158833 -0.037834
17.354181 12.158833 -0.015925
17.668005 12.158833 -0.025662
17.981829 12.158833 -0.021717
18.295650 12.158833 0.010956
18.609474 12.158833 0.034891
18.923298 12.158833 0.000000
19.237120 12.158833 0.000000
-6.810190 11.845009 0.000000
-6.496367 11.845009 0.000446
-6.182544 11.845009 0.000368
-5.868721 11.845009 0.000283
-5.554898 11.845009 0.000267
-5.241075 11.845009 0.000274
-4.927252 11.845009 0.000333
-4.613429 11.845009 0.000334
-4.299606 11.845009 0.000304
-3.985783 11.845009 0.000304
-3.671960 11.845009 0.000321
-3.358137 11.845009 0.000344
-3.044314 11.845009 0.000321
-2.730491 11.845009 0.000218
-2.416668 11.845009 0.000102
-2.102845 11.845009 0.000079
-1.789022 11.845009 0.000132
-1.475199 11.845009 0.000163
-1.161376 11.845009 0.000150
-0.847553 11.845009 0.000135
-0.533730 11.845009 0.000086
-0.219907 11.845009 0.000054
0.093916 11.845009 0.000103
0.407739 11.845009 0.000087
0.721562 11.845009 0.000091
1.035385 11.845009 0.000097
1.349208 11.845009 -0.000012
1.663032 11.845009 -0.000030
1.976854 11.845009 0.000089
2.290677 11.845009 0.000092
2.604500 11.845009 -0.000011
2.918324 11.845009 -0.000059
3.232146 11.845009 -0.000046
3.545969 11.845009 -0.000113
3.859793 11.845009 -0.000164
4.173615 11.845009 -0.000194
4.487438 11.845009 -0.000276
4.801261 11.845009 -0.000099
5.115085 11.845009 0.000031
5.428907 11.845009 -0.000309
5.742730 11.845009 -0.000395
6.056554 11.845009 -0.000147
6.370377 11.845009 -0.000277
6.684199 11.845009 -0.000379
6.998022 11.845009 -0.000293
7.311846 11.845009 -0.000920
7.625669 11.845009 -0.001446
7.939491 11.845009 -0.002001
8.253315 11.845009 -0.002073
8.567138 11.845009 -0.000508
8.880960 11.845009 -0.000262
9.194784 11.845009 0.000884
9.508606 11.845009 0.001550
9.822430 11.845009 0.005801
10.136253 11.845009 0.013452
10.450075 11.845009 0.024942
10.763899 11.845009 0.041953
11.077723 11.845009 0.059478
11.391544 11.845009 0.065764
11.705368 11.845009 0.070572
12.019190 11.845009 0.062749
12.333014 11.845009 0.070404
12.646837 11.845009 0.038572
12.960659 11.845009 0.030468
13.274483 11.845009 0.009245
13.588306 11.845009 0.038665
13.902128 11.845009 0.026596
14.215952 11.845009 0.029736
14.529776 11.845009 0.034029
14.843597 11.845009 0.028343
15.157421 11.845009 0.045997
15.471243 11.845009 0.032414
15.785067 11.845009 0.032406
16.098890 11.845009 0.012166
16.412712 11.845009 0.024899
16.726536 11.845009 0.005453
17.040359 11.845009 0.007965
17.354181 11.845009 -0.007956
17.668005 11.845009 -0.020203
17.981829 11.845009 0.009234
18.295650 11.845009 0.025541
18.609474 11.845009 0.035391
18.923298 11.845009 0.000000
19.237120 11.845009 0.000000
-6.810190 11.531185 0.000000
-6.496367 11.531185 0.000482
-6.182544 11.531185 0.000363
-5.868721 11.531185 0.000267
-5.554898 11.531185 0.000270
-5.241075 11.531185 0.000316
-4.927252 11.531185 0.000349
-4.613429 11.531185 0.000374
-4.299606 11.531185 0.000310
-3.985783 11.531185 0.000285
-3.671960 11.531185 0.000295
-3.358137 11.531185 0.000314
-3.044314 11.531185 0.000333
-2.730491 11.531185 0.000285
-2.416668 11.531185 0.000170
-2.102845 11.531185 0.000086
-1.789022 11.531185 0.000154
-1.475199 11.531185 0.000125
-1.161376 11.531185 0.000056
-0.847553 11.531185 0.000048
-0.533730 11.531185 0.000077
-0.219907 11.531185 0.000073
0.093916 11.531185 0.000117
0.407739 11.531185 0.000146
0.721562 11.531185 0.000179
1.035385 11.531185 0.000175
1.349208 11.531185 0.000042
1.663032 11.531185 -0.000029
1.976854 11.531185 0.000053
2.290677 11.531185 0.000018
2.604500 11.531185 -0.000091
2.918324 11.531185 -0.000107
3.232146 11.531185 -0.000109
3.545969 11.531185 -0.000105
3.859793 11.531185 -0.000132
4.173615 11.531185 -0.000326
4.487438 11.531185 -0.000373
4.801261 11.531185 -0.000057
5.115085 11.531185 0.000062
5.428907 11.531185 -0.000320
5.742730 11.531185 -0.000232
6.056554 11.531185 -0.000002
6.370377 11.531185 -0.000102
6.684199 11.531185 -0.000121
6.998022 11.531185 -0.000324
7.311846 11.531185 -0.001087
7.625669 11.531185 -0.000989
7.939491 11.531185 -0.001671
8.253315 11.531185 -0.002880
8.567138 11.531185 0.000179
8.880960 11.531185 0.001634
9.194784 11.531185 0.001219
9.508606 11.531185 0.001530
9.822430 11.531185 0.004662
10.136253 11.531185 0.011154
10.450075 11.531185 0.021053
10.763899 11.531185 0.044254
11.077723 11.531185 0.058562
11.391544 11.531185 0.058851
11.705368 11.531185 0.054266
12.019190 11.531185 0.060360
12.333014 11.531185 0.060393
12.646837 11.531185 0.041858
12.960659 11.531185 0.031294
13.274483 11.531185 0.030810
13.588306 11.531185 0.042538
13.902128 11.531185 0.038297
14.215952 11.531185 0.051725
14.529776 11.531185 0.048946
14.843597 11.531185 0.041102
15.157421 11.531185 0.026957
15.471243 11.531185 0.023846
15.785067 11.531185 0.055843
16.098890 11.531185 0.038661
16.412712 11.531185 0.033953
16.726536 11.531185 0.010403
17.040359 11.531185 -0.012113
17.354181 11.531185 -0.036743
17.668005 11.531185 -0.024432
17.981829 11.531185 -0.036169
18.295650 11.531185 -0.024633
18.609474 11.531185 -0.024491
18.923298 11.531185 0.000000
19.237120 11.531185 0.000000
-6.810190 11.217361 0.000000
-6.496367 11.217361 0.000459
-6.182544 11.217361 0.000331
-5.868721 11.217361 0.000287
-5.554898 11.217361 0.000334
-5.241075 11.217361 0.000362
-4.927252 11.217361 0.000351
-4.613429 11.217361 0.000399
-4.299606 11.217361 0.000315
-3.985783 11.217361 0.000283
-3.671960 11.217361 0.000254
-3.358137 11.217361 0.000248
-3.044314 11.217361 0.000288
-2.730491 11.217361 0.000346
-2.416668 11.217361 0.000241
-2.102845 11.217361 0.000105
-1.789022 11.217361 0.000171
-1.475199 11.217361 0.000127
-1.161376 11.217361 0.000015
-0.847553 11.217361 -0.000010
-0.533730 11.217361 0.000107
-0.219907 11.217361 0.000139
0.093916 11.217361 0.000151
0.407739 11.217361 0.000225
0.721562 11.217361 0.000257
1.035385 11.217361 0.000206
1.349208 11.217361 0.000094
1.663032 11.217361 -0.000000
1.976854 11.217361 0.000048
2.290677 11.217361 -0.000011
2.604500 11.217361 -0.000171
2.918324 11.217361 -0.000178
3.232146 11.217361 -0.000188
3.545969 11.217361 -0.000175
3.859793 11.217361 -0.000128
4.173615 11.217361 -0.000408
4.487438 11.217361 -0.000408
4.801261 11.217361 -0.000085
5.115085 11.217361 -0.000033
5.428907 11.217361 -0.000298
5.742730 11.217361 -0.000122
6.056554 11.217361 0.000040
6.370377 11.217361 -0.000110
6.684199 11.217361 -0.000026
6.998022 11.217361 -0.000650
7.311846 11.217361 -0.001178
7.625669 11.217361 -0.001180
7.939491 11.217361 -0.001426
8.253315 11.217361 -0.002221
8.567138 11.217361 -0.000904
8.880960 11.217361 0.002353
9.194784 11.217361 0.005178
9.508606 11.217361 0.006724
9.822430 11.217361 0.008003
10.136253 11.217361 0.013604
10.450075 11.217361 0.019192
10.763899 11.217361 0.043892
11.077723 11.217361 0.050452
11.391544 11.217361 0.052398
11.705368 11.217361 0.049118
12.019190 11.217361 0.057824
12.333014 11.217361 0.062932
12.646837 11.217361 0.047996
12.960659 11.217361 0.028309
13.274483 11.217361 0.053144
13.588306 11.217361 0.038645
13.902128 11.217361 0.047284
14.215952 11.217361 0.043618
14.529776 11.217361 0.059772
14.843597 11.217361 0.055400
15.157421 11.217361 0.035808
15.471243 11.217361 0.014571
15.785067 11.217361 0.051678
16.098890 11.217361 0.020847
16.412712 11.217361 0.001068
16.726536 11.217361 -0.002383
17.040359 11.217361 -0.020429
17.354181 11.217361 -0.033254
17.668005 11.217361 -0.022549
17.981829 11.217361 -0.026038
18.295650 11.217361 -0.046538
18.609474 11.217361 -0.038680
18.923298 11.217361 0.000000
19.237120 11.217361 0.000000
-6.810190 10.903542 0.000000
-6.496367 10.903542 0.000397
-6.182544 10.903542 0.000275
-5.868721 10.903542 0.000301
-5.554898 10.903542 0.000345
-5.241075 10.903542 0.000349
-4.927252 10.903542 0.000347
-4.613429 10.903542 0.000390
-4.299606 10.903542 0.000322
-3.985783 10.903542 0.000309
-3.671960 10.903542 0.000286
-3.358137 10.903542 0.000225
-3.044314 10.903542 0.000223
-2.730491 10.903542 0.000351
-2.416668 10.903542 0.000302
-2.102845 10.903542 0.000120
-1.789022 10.903542 0.000169
-1.475199 10.903542 0.000151
-1.161376 10.903542 0.000014
-0.847553 10.903542 0.000013
-0.533730 10.903542 0.000146
-0.219907 10.903542 0.000179
0.093916 10.903542 0.000160
0.407739 10.903542 0.000247
0.721562 10.903542 0.000231
1.035385 10.903542 0.000151
1.349208 10.903542 0.000082
1.663032 10.903542 0.000008
1.976854 10.903542 0.000051
2.290677 10.903542 -0.000015
2.604500 10.903542 -0.000160
2.918324 10.903542 -0.000230
3.232146 10.903542 -0.000253
3.545969 10.903542 -0.000211
3.859793 10.903542 -0.000167
4.173615 10.903542 -0.000370
4.487438 10.903542 -0.000363
4.801261 10.903542 -0.000165
5.115085 10.903542 -0.000127
5.428907 10.903542 -0.000250
5.742730 10.903542 -0.000098
6.056554 10.903542 -0.000043
6.370377 10.903542 -0.000174
6.684199 10.903542 -0.000290
6.998022 10.903542 -0.001086
7.311846 10.903542 -0.001354
7.625669 10.903542 -0.001156
7.939491 10.903542 -0.001470
8.253315 10.903542 -0.001892
8.567138 10.903542 -0.000892
8.880960 10.903542 0.001598
9.194784 10.903542 0.005698
9.508606 10.903542 0.008216
9.822430 10.903542 0.012310
10.136253 10.903542 0.014224
10.450075 10.903542 0.022153
10.763899 10.903542 0.044555
11.077723 10.903542 0.047385
11.391544 10.903542 0.056211
11.705368 10.903542 0.046913
12.019190 10.903542 0.060467
12.333014 10.903542 0.052705
12.646837 10.903542 0.048062
12.960659 10.903542 0.038467
13.274483 10.903542 0.042831
13.588306 10.903542 0.038748
13.902128 10.903542 0.035387
14.215952 10.903542 0.028957
14.529776 10.903542 0.065648
14.843597 10.903542 0.052739
15.157421 10.903542 0.012560
15.471243 10.903542 -0.007585
15.785067 10.903542 -0.003815
16.098890 10.903542 0.016556
16.412712 10.903542 -0.007159
16.726536 10.903542 0.001148
17.040359 10.903542 -0.006868
17.354181 10.903542 -0.017836
17.668005 10.903542 -0.036810
17.981829 10.903542 -0.012870
18.295650 10.903542 -0.047178
18.609474 10.903542 -0.040569
18.923298 10.903542 0.000000
19.237120 10.903542 0.000000
-6.810190 10.589718 0.000000
-6.496367 10.589718 0.000376
-6.182544 10.589718 0.000280
-5.868721 10.589718 0.000319
-5.554898 10.589718 0.000314
-5.241075 10.589718 0.000336
-4.927252 10.589718 0.000376
-4.613429 10.589718 0.000361
-4.299606 10.589718 0.000318
-3.985783 10.589718 0.000348
-3.671960 10.589718 0.000296
-3.358137 10.589718 0.000230
-3.044314 10.589718 0.000189
-2.730491 10.589718 0.000291
-2.416668 10.589718 0.000307
-2.102845 10.589718 0.000151
-1.789022 10.589718 0.000154
-1.475199 10.589718 0.000160
-1.161376 10.589718 0.000094
-0.847553 10.589718 0.000101
-0.533730 10.589718 0.000160
-0.219907 10.589718 0.000155
0.093916 10.589718 0.000161
0.407739 10.589718 0.000220
0.721562 10.589718 0.000122
1.035385 10.589718 0.000037
1.349208 10.589718 0.000004
1.663032 10.589718 -0.000016
1.976854 10.589718 0.000039
2.290677 10.589718 0.000022
2.604500 10.589718 -0.000097
2.918324 10.589718 -0.000244
3.232146 10.589718 -0.000275
3.545969 10.589718 -0.000213
3.859793 10.589718 -0.000223
4.173615 10.589718 -0.000257
4.487438 10.589718 -0.000251
4.801261 10.589718 -0.000250
5.115085 10.589718 -0.000280
5.428907 10.589718 -0.000278
5.742730 10.589718 -0.000136
6.056554 10.589718 -0.000189
6.370377 10.589718 -0.000219
6.684199 10.589718 -0.000424
6.998022 10.589718 -0.001300
7.311846 10.589718 -0.001417
7.625669 10.589718 -0.001445
7.939491 10.589718 -0.002333
8.253315 10.589718 -0.002810
8.567138 10.589718 -0.000540
8.880960 10.589718 0.000886
9.194784 10.589718 0.004145
9.508606 10.589718 0.007109
9.822430 10.589718 0.008825
10.136253 10.589718 0.013410
10.450075 10.589718 0.022578
10.763899 10.589718 0.035208
11.077723 10.589718 0.045505
11.391544 10.589718 0.051816
11.705368 10.589718 0.055145
12.019190 10.589718 0.066321
12.333014 10.589718 0.056909
12.646837 10.589718 0.042590
12.960659 10.589718 0.019677
13.274483 10.589718 0.010994
13.588306 10.589718 0.025992
13.902128 10.589718 0.023323
14.215952 10.589718 0.030147
14.529776 10.589718 0.038896
14.843597 10.589718 0.047593
15.157421 10.589718 0.021921
15.471243 10.589718 -0.025045
15.785067 10.589718 -0.015131
16.098890 10.589718 0.027714
16.412712 10.589718 -0.012299
16.726536 10.589718 -0.014640
17.040359 10.589718 -0.027509
17.354181 10.589718 -0.016967
17.668005 10.589718 -0.026304
17.981829 10.589718 0.005581
18.295650 10.589718 -0.006463
18.609474 10.589718 -0.048848
18.923298 10.589718 0.000000
19.237120 10.589718 0.000000
-6.810190 10.275894 0.000000
-6.496367 10.275894 0.000442
-6.182544 10.275894 0.000338
-5.868721 10.275894 0.000364
-5.554898 10.275894 0.000325
-5.241075 10.275894 0.000372
-4.927252 10.275894 0.000421
-4.613429 10.275894 0.000358
-4.299606 10.275894 0.000306
-3.985783 10.275894 0.000320
-3.671960 10.275894 0.000262
-3.358137 10.275894 0.000253
-3.044314 10.275894 0.000163
-2.730491 10.275894 0.000206
-2.416668 10.275894 0.000264
-2.102845 10.275894 0.000165
-1.789022 10.275894 0.000147
-1.475199 10.275894 0.000149
-1.161376 10.275894 0.000191
-0.847553 10.275894 0.000187
-0.533730 10.275894 0.000112
-0.219907 10.275894 0.000078
0.093916 10.275894 0.000130
0.407739 10.275894 0.000190
0.721562 10.275894 0.000067
1.035385 10.275894 -0.000027
1.349208 10.275894 -0.000073
1.663032 10.275894 -0.000016
1.976854 10.275894 0.000043
2.290677 10.275894 0.000020
2.604500 10.275894 -0.000097
2.918324 10.275894 -0.000274
3.232146 10.275894 -0.000278
3.545969 10.275894 -0.000227
3.859793 10.275894 -0.000257
4.173615 10.275894 -0.000216
4.487438 10.275894 -0.000153
4.801261 10.275894 -0.000258
5.115085 10.275894 -0.000341
5.428907 10.275894 -0.000292
5.742730 10.275894 -0.000186
6.056554 10.275894 -0.000316
6.370377 10.275894 -0.000388
6.684199 10.275894 -0.000563
6.998022 10.275894 -0.001322
7.311846 10.275894 -0.001583
7.625669 10.275894 -0.001919
7.939491 10.275894 -0.002395
8.253315 10.275894 -0.001712
8.567138 10.275894 0.000452
8.880960 10.275894 0.000024
9.194784 10.275894 0.001698
9.508606 10.275894 0.005639
9.822430 10.275894 0.010253
10.136253 10.275894 0.015707
10.450075 10.275894 0.023904
10.763899 10.275894 0.035044
11.077723 10.275894 0.041199
11.391544 10.275894 0.041823
11.705368 10.275894 0.048917
12.019190 10.275894 0.060297
12.333014 10.275894 0.059687
12.646837 10.275894 0.054484
12.960659 10.275894 0.020113
13.274483 10.275894 0.018764
13.588306 10.275894 0.018025
13.902128 10.275894 0.037078
14.215952 10.275894 0.022799
14.529776 10.275894 0.042996
14.843597 10.275894 0.032563
15.157421 10.275894 -0.002940
15.471243 10.275894 -0.026577
15.785067 10.275894 -0.025604
16.098890 10.275894 0.001360
16.412712 10.275894 -0.010071
16.726536 10.275894 -0.018945
17.040359 10.275894 -0.019045
17.354181 10.275894 0.024369
17.668005 10.275894 -0.011979
17.981829 10.275894 -0.008786
18.295650 10.275894 -0.062377
18.609474 10.275894 -0.103249
18.923298 10.275894 0.000000
19.237120 10.275894 0.000000
-6.810190 9.962070 0.000000
-6.496367 9.962070 0.000508
-6.182544 9.962070 0.000376
-5.868721 9.962070 0.000414
-5.554898 9.962070 0.000398
-5.241075 9.962070 0.000436
-4.927252 9.962070 0.000430
-4.613429 9.962070 0.000315
-4.299606 9.962070 0.000261
-3.985783 9.962070 0.000268
-3.671960 9.962070 0.000194
-3.358137 9.962070 0.000245
-3.044314 9.962070 0.000168
-2.730491 9.962070 0.000149
-2.416668 9.962070 0.000187
-2.102845 9.962070 0.000177
-1.789022 9.962070 0.000172
-1.475199 9.962070 0.000182
-1.161376 9.962070 0.000230
-0.847553 9.962070 0.000217
-0.533730 9.962070 0.000058
-0.219907 9.962070 0.000001
0.093916 9.962070 0.000082
0.407739 9.962070 0.000120
0.721562 9.962070 0.000066
1.035385 9.962070 0.000042
1.349208 9.962070 -0.000050
1.663032 9.962070 -0.000010
1.976854 9.962070 0.000045
2.290677 9.962070 0.000033
2.604500 9.962070 -0.000083
2.918324 9.962070 -0.000228
3.232146 9.962070 -0.000237
3.545969 9.962070 -0.000237
3.859793 9.962070 -0.000316
4.173615 9.962070 -0.000259
4.487438 9.962070 -0.000135
4.801261 9.962070 -0.000227
5.115085 9.962070 -0.000321
5.428907 9.962070 -0.000368
5.742730 9.962070 -0.000374
6.056554 9.962070 -0.000504
6.370377 9.962070 -0.000625
6.684199 9.962070 -0.000874
6.998022 9.962070 -0.001490
7.311846 9.962070 -0.001808
7.625669 9.962070 -0.002070
7.939491 9.962070 -0.002005
8.253315 9.962070 -0.001508
8.567138 9.962070 0.001356
8.880960 9.962070 0.000909
9.194784 9.962070 0.001644
9.508606 9.962070 0.005556
9.822430 9.962070 0.010748
10.136253 9.962070 0.018746
10.450075 9.962070 0.025945
10.763899 9.962070 0.037190
11.077723 9.962070 0.049320
11.391544 9.962070 0.051540
11.705368 9.962070 0.047685
12.019190 9.962070 0.055472
12.333014 9.962070 0.055203
12.646837 9.962070 0.044930
12.960659 9.962070 0.046011
13.274483 9.962070 0.039732
13.588306 9.962070 0.025634
13.902128 9.962070 0.035001
14.215952 9.962070 0.024379
14.529776 9.962070 0.013917
14.843597 9.962070 0.004345
15.157421 9.962070 0.004152
15.471243 9.962070 -0.057835
15.785067 9.962070 -0.017376
16.098890 9.962070 -0.007963
16.412712 9.962070 -0.050361
16.726536 9.962070 -0.040521
17.040359 9.962070 -0.027618
17.354181 9.962070 0.003728
17.668005 9.962070 0.033910
17.981829 9.962070 -0.012955
18.295650 9.962070 -0.048963
18.609474 9.962070 -0.054287
18.923298 9.962070 0.000000
19.237120 9.962070 0.000000
-6.810190 9.648247 0.000000
-6.496367 9.648247 0.000529
-6.182544 9.648247 0.000396
-5.868721 9.648247 0.000434
-5.554898 9.648247 0.000448
-5.241075 9.648247 0.000454
-4.927252 9.648247 0.000393
-4.613429 9.648247 0.000263
-4.299606 9.648247 0.000213
-3.985783 9.648247 0.000212
-3.671960 9.648247 0.000172
-3.358137 9.648247 0.000223
-3.044314 9.648247 0.000176
-2.730491 9.648247 0.000107
-2.416668 9.648247 0.000150
-2.102845 9.648247 0.000212
-1.789022 9.648247 0.000228
-1.475199 9.648247 0.000214
-1.161376 9.648247 0.000244
-0.847553 9.648247 0.000272
-0.533730 9.648247 0.000113
-0.219907 9.648247 -0.000037
0.093916 9.648247 -0.000017
0.407739 9.648247 0.000035
0.721562 9.648247 0.000093
1.035385 9.648247 0.000117
1.349208 9.648247 0.000050
1.663032 9.648247 0.000036
1.976854 9.648247 0.000005
2.290677 9.648247 -0.000015
2.604500 9.648247 -0.000060
2.918324 9.648247 -0.000207
3.232146 9.648247 -0.000214
3.545969 9.648247 -0.000201
3.859793 9.648247 -0.000312
4.173615 9.648247 -0.000306
4.487438 9.648247 -0.000178
4.801261 9.648247 -0.000219
5.115085 9.648247 -0.000244
5.428907 9.648247 -0.000469
5.742730 9.648247 -0.000613
6.056554 9.648247 -0.000811
6.370377 9.648247 -0.001060
6.684199 9.648247 -0.001199
6.998022 9.648247 -0.001728
7.311846 9.648247 -0.001747
7.625669 9.648247 -0.001513
7.939491 9.648247 -0.001144
8.253315 9.648247 -0.000932
8.567138 9.648247 0.001527
8.880960 9.648247 -0.000176
9.194784 9.648247 0.002063
9.508606 9.648247 0.007300
9.822430 9.648247 0.017048
10.136253 9.648247 0.020689
10.450075 9.648247 0.027339
10.763899 9.648247 0.036220
11.077723 9.648247 0.048173
11.391544 9.648247 0.042413
11.705368 9.648247 0.041104
12.019190 9.648247 0.050049
12.333014 9.648247 0.050074
12.646837 9.648247 0.050354
12.960659 9.648247 0.055596
13.274483 9.648247 0.043983
13.588306 9.648247 0.022286
13.902128 9.648247 0.032192
14.215952 9.648247 0.026941
14.529776 9.648247 -0.002644
14.843597 9.648247 0.006185
15.157421 9.648247 -0.001114
15.471243 9.648247 -0.052529
15.785067 9.648247 -0.012069
16.098890 9.648247 -0.006062
16.412712 9.648247 -0.018489
16.726536 9.648247 -0.070492
17.040359 9.648247 -0.029043
17.354181 9.648247 -0.012271
17.668005 9.648247 0.047201
17.981829 9.648247 0.001588
18.295650 9.648247 -0.068190
18.609474 9.648247 -0.148798
18.923298 9.648247 0.000000
19.237120 9.648247 0.000000
-6.810190 9.334423 0.000000
-6.496367 9.334423 0.000529
-6.182544 9.334423 0.000378
-5.868721 9.334423 0.000399
-5.554898 9.334423 0.000440
-5.241075 9.334423 0.000435
-4.927252 9.334423 0.000361
-4.613429 9.334423 0.000245
-4.299606 9.334423 0.000169
-3.985783 9.334423 0.000184
-3.671960 9.334423 0.000180
-3.358137 9.334423 0.000229
-3.044314 9.334423 0.000165
-2.730491 9.334423 0.000079
-2.416668 9.334423 0.000112
-2.102845 9.334423 0.000211
-1.789022 9.334423 0.000252
-1.475199 9.334423 0.000222
-1.161376 9.334423 0.000242
-0.847553 9.334423 0.000306
-0.533730 9.334423 0.000266
-0.219907 9.334423 0.000044
0.093916 9.334423 -0.000121
0.407739 9.334423 -0.000071
0.721562 9.334423 0.000057
1.035385 9.334423 0.000162
1.349208 9.334423 0.000169
1.663032 9.334423 0.000107
1.976854 9.334423 -0.000009
2.290677 9.334423 -0.000083
2.604500 9.334423 -0.000062
2.918324 9.334423 -0.000116
3.232146 9.334423 -0.000137
3.545969 9.334423 -0.000156
3.859793 9.334423 -0.000259
4.173615 9.334423 -0.000337
4.487438 9.334423 -0.000282
4.801261 9.334423 -0.000238
5.115085 9.334423 -0.000187
5.428907 9.334423 -0.000499
5.742730 9.334423 -0.000768
6.056554 9.334423 -0.001078
6.370377 9.334423 -0.001381
6.684199 9.334423 -0.001589
6.998022 9.334423 -0.001699
7.311846 9.334423 -0.001633
7.625669 9.334423 -0.000995
7.939491 9.334423 -0.000970
8.253315 9.334423 -0.000531
8.567138 9.334423 -0.000289
8.880960 9.334423 0.001464
9.194784 9.334423 0.001553
9.508606 9.334423 0.011449
9.822430 9.334423 0.015551
10.136253 9.334423 0.021114
10.450075 9.334423 0.034321
10.763899 9.334423 0.038924
11.077723 9.334423 0.040350
11.391544 9.334423 0.046408
11.705368 9.334423 0.045844
12.019190 9.334423 0.049790
12.333014 9.334423 0.043971
12.646837 9.334423 0.042255
12.960659 9.334423 0.060557
13.274483 9.334423 0.057860
13.588306 9.334423 0.050818
13.902128 9.334423 0.043785
14.215952 9.334423 0.052668
14.529776 9.334423 0.007797
14.843597 9.334423 -0.023839
15.157421 9.334423 0.000526
15.471243 9.334423 -0.027385
15.785067 9.334423 -0.021421
16.098890 9.334423 -0.002009
16.412712 9.334423 -0.007464
16.726536 9.334423 -0.049561
17.040359 9.334423 -0.005678
17.354181 9.334423 -0.001813
17.668005 9.334423 0.019593
17.981829 9.334423 -0.064016
18.295650 9.334423 -0.168331
18.609474 9.334423 -0.201920
18.923298 9.334423 0.000000
19.237120 9.334423 0.000000
-6.810190 9.020603 0.000000
-6.496367 9.020603 0.000439
-6.182544 9.020603 0.000320
-5.868721 9.020603 0.000333
-5.554898 9.020603 0.000366
-5.241075 9.020603 0.000392
-4.927252 9.020603 0.000380
-4.613429 9.020603 0.000261
-4.299606 9.020603 0.000164
-3.985783 9.020603 0.000154
-3.671960 9.020603 0.000183
-3.358137 9.020603 0.000203
-3.044314 9.020603 0.000101
-2.730491 9.020603 0.000064
-2.416668 9.020603 0.000079
-2.102845 9.020603 0.000172
-1.789022 9.020603 0.000242
-1.475199 9.020603 0.000209
-1.161376 9.020603 0.000208
-0.847553 9.020603 0.000293
-0.533730 9.020603 0.000391
-0.219907 9.020603 0.000165
0.093916 9.020603 -0.000113
0.407739 9.020603 -0.000124
0.721562 9.020603 -0.000012
1.035385 9.020603 0.000153
1.349208 9.020603 0.000241
1.663032 9.020603 0.000193
1.976854 9.020603 -0.000015
2.290677 9.020603 -0.000107
2.604500 9.020603 -0.000055
2.918324 9.020603 0.000004
3.232146 9.020603 -0.000022
3.545969 9.020603 -0.000046
3.859793 9.020603 -0.000132
4.173615 9.020603 -0.000298
4.487438 9.020603 -0.000315
4.801261 9.020603 -0.000292
5.115085 9.020603 -0.000197
5.428907 9.020603 -0.000516
5.742730 9.020603 -0.000798
6.056554 9.020603 -0.001056
6.370377 9.020603 -0.001408
6.684199 9.020603 -0.001825
6.998022 9.020603 -0.001903
7.311846 9.020603 -0.001593
7.625669 9.020603 -0.001651
7.939491 9.020603 -0.002317
8.253315 9.020603 -0.001358
8.567138 9.020603 -0.001598
8.880960 9.020603 -0.000405
9.194784 9.020603 0.001882
9.508606 9.020603 0.009814
9.822430 9.020603 0.017358
10.136253 9.020603 0.025053
10.450075 9.020603 0.035661
10.763899 9.020603 0.032932
11.077723 9.020603 0.045468
11.391544 9.020603 0.047352
11.705368 9.020603 0.047302
12.019190 9.020603 0.041641
12.333014 9.020603 0.035323
12.646837 9.020603 0.044455
12.960659 9.020603 0.046484
13.274483 9.020603 0.055665
13.588306 9.020603 0.057997
13.902128 9.020603 0.057376
14.215952 9.020603 0.058856
14.529776 9.020603 0.029856
14.843597 9.020603 0.011181
15.157421 9.020603 0.002906
15.471243 9.020603 -0.009600
15.785067 9.020603 -0.014094
16.098890 9.020603 0.001099
16.412712 9.020603 0.012589
16.726536 9.020603 0.006563
17.040359 9.020603 0.004527
17.354181 9.020603 0.005068
17.668005 9.020603 -0.062871
17.981829 9.020603 -0.100220
18.295650 9.020603 -0.142768
18.609474 9.020603 -0.256025
18.923298 9.020603 0.000000
19.237120 9.020603 0.000000
-6.810190 8.706779 0.000000
-6.496367 8.706779 0.000355
-6.182544 8.706779 0.000264
-5.868721 8.706779 0.000243
-5.554898 8.706779 0.000274
-5.241075 8.706779 0.000344
-4.927252 8.706779 0.000376
-4.613429 8.706779 0.000285
-4.299606 8.706779 0.000169
-3.985783 8.706779 0.000152
-3.671960 8.706779 0.000177
-3.358137 8.706779 0.000173
-3.044314 8.706779 0.000068
-2.730491 8.706779 0.000057
-2.416668 8.706779 0.000076
-2.102845 8.706779 0.000150
-1.789022 8.706779 0.000218
-1.475199 8.706779 0.000185
-1.161376 8.706779 0.000165
-0.847553 8.706779 0.000236
-0.533730 8.706779 0.000400
-0.219907 8.706779 0.000239
0.093916 8.706779 -0.000033
0.407739 8.706779 -0.000112
0.721562 8.706779 -0.000054
1.035385 8.706779 0.000145
1.349208 8.706779 0.000257
1.663032 8.706779 0.000212
1.976854 8.706779 -0.000031
2.290677 8.706779 -0.000092
2.604500 8.706779 -0.000005
2.918324 8.706779 0.000054
3.232146 8.706779 0.000096
3.545969 8.706779 0.000110
3.859793 8.706779 0.000028
4.173615 8.706779 -0.000189
4.487438 8.706779 -0.000294
4.801261 8.706779 -0.000294
5.115085 8.706779 -0.000319
5.428907 8.706779 -0.000540
5.742730 8.706779 -0.000684
6.056554 8.706779 -0.000722
6.370377 8.706779 -0.001093
6.684199 8.706779 -0.001548
6.998022 8.706779 -0.001721
7.311846 8.706779 -0.001472
7.625669 8.706779 -0.001956
7.939491 8.706779 -0.002227
8.253315 8.706779 -0.002602
8.567138 8.706779 -0.001069
8.880960 8.706779 -0.000663
9.194784 8.706779 0.003630
9.508606 8.706779 0.011446
9.822430 8.706779 0.018365
10.136253 8.706779 0.025927
10.450075 8.706779 0.037957
10.763899 8.706779 0.031325
11.077723 8.706779 0.040501
11.391544 8.706779 0.047356
11.705368 8.706779 0.057218
12.019190 8.706779 0.042724
12.333014 8.706779 0.018860
12.646837 8.706779 0.031230
12.960659 8.706779 0.029999
13.274483 8.706779 0.033522
13.588306 8.706779 0.038189
13.902128 8.706779 0.050358
14.215952 8.706779 0.050285
14.529776 8.706779 0.038012
14.843597 8.706779 0.032823
15.157421 8.706779 0.020722
15.471243 8.706779 0.014696
15.785067 8.706779 0.014851
16.098890 8.706779 0.013857
16.412712 8.706779 -0.008117
16.726536 8.706779 0.018708
17.040359 8.706779 0.017627
17.354181 8.706779 0.002202
17.668005 8.706779 -0.033273
17.981829 8.706779 -0.080099
18.295650 8.706779 -0.227066
18.609474 8.706779 -0.296346
18.923298 8.706779 0.000000
19.237120 8.706779 0.000000
-6.810190 8.392956 0.000000
-6.496367 8.392956 0.000383
-6.182544 8.392956 0.000280
-5.868721 8.392956 0.000225
-5.554898 8.392956 0.000230
-5.241075 8.392956 0.000285
-4.927252 8.392956 0.000337
-4.613429 8.392956 0.000293
-4.299606 8.392956 0.000201
-3.985783 8.392956 0.000144
-3.671960 8.392956 0.000164
-3.358137 8.392956 0.000142
-3.044314 8.392956 0.000063
-2.730491 8.392956 0.000089
-2.416668 8.392956 0.000119
-2.102845 8.392956 0.000167
-1.789022 8.392956 0.000176
-1.475199 8.392956 0.000130
-1.161376 8.392956 0.000116
-0.847553 8.392956 0.000162
-0.533730 8.392956 0.000322
-0.219907 8.392956 0.000247
0.093916 8.392956 0.000033
0.407739 8.392956 -0.000076
0.721562 8.392956 -0.000058
1.035385 8.392956 0.000109
1.349208 8.392956 0.000204
1.663032 8.392956 0.000161
1.976854 8.392956 -0.000028
2.290677 8.392956 -0.000075
2.604500 8.392956 0.000014
2.918324 8.392956 0.000072
3.232146 8.392956 0.000159
3.545969 8.392956 0.000237
3.859793 8.392956 0.000132
4.173615 8.392956 -0.000119
4.487438 8.392956 -0.000229
4.801261 8.392956 -0.000256
5.115085 8.392956 -0.000453
5.428907 8.392956 -0.000595
5.742730 8.392956 -0.000449
6.056554 8.392956 -0.000432
6.370377 8.392956 -0.000706
6.684199 8.392956 -0.001243
6.998022 8.392956 -0.001425
7.311846 8.392956 -0.001335
7.625669 8.392956 -0.002103
7.939491 8.392956 -0.001840
8.253315 8.392956 -0.002224
8.567138 8.392956 -0.000871
8.880960 8.392956 0.000692
9.194784 8.392956 0.006446
9.508606 8.392956 0.010136
9.822430 8.392956 0.016294
10.136253 8.392956 0.028232
10.450075 8.392956 0.032808
10.763899 8.392956 0.029781
11.077723 8.392956 0.038843
11.391544 8.392956 0.048656
11.705368 8.392956 0.060677
12.019190 8.392956 0.060670
12.333014 8.392956 0.051086
12.646837 8.392956 0.057848
12.960659 8.392956 0.042975
13.274483 8.392956 0.038392
13.588306 8.392956 0.033036
13.902128 8.392956 0.063033
14.215952 8.392956 0.057204
14.529776 8.392956 0.049859
14.843597 8.392956 0.029907
15.157421 8.392956 0.043905
15.471243 8.392956 0.002651
15.785067 8.392956 0.022295
16.098890 8.392956 -0.011952
16.412712 8.392956 -0.006952
16.726536 8.392956 0.012708
17.040359 8.392956 0.052412
17.354181 8.392956 -0.007271
17.668005 8.392956 -0.071559
17.981829 8.392956 -0.123501
18.295650 8.392956 -0.208906
18.609474 8.392956 -0.310239
18.923298 8.392956 0.000000
19.237120 8.392956 0.000000
-6.810190 8.079132 0.000000
-6.496367 8.079132 0.000448
-6.182544 8.079132 0.000318
-5.868721 8.079132 0.000231
-5.554898 8.079132 0.000248
-5.241075 8.079132 0.000232
-4.927252 8.079132 0.000261
-4.613429 8.079132 0.000253
-4.299606 8.079132 0.000242
-3.985783 8.079132 0.000195
-3.671960 8.079132 0.000174
-3.358137 8.079132 0.000166
-3.044314 8.079132 0.000104
-2.730491 8.079132 0.000128
-2.416668 8.079132 0.000176
-2.102845 8.079132 0.000217
-1.789022 8.079132 0.000147
-1.475199 8.079132 0.000118
-1.161376 8.079132 0.000103
-0.847553 8.079132 0.000158
-0.533730 8.079132 0.000243
-0.219907 8.079132 0.000196
0.093916 8.079132 0.000058
0.407739 8.079132 -0.000033
0.721562 8.079132 -0.000049
1.035385 8.079132 0.000097
1.349208 8.079132 0.000126
1.663032 8.079132 0.000084
1.976854 8.079132 -0.000008
2.290677 8.079132 -0.000063
2.604500 8.079132 -0.000018
2.918324 8.079132 0.000070
3.232146 8.079132 0.000215
3.545969 8.079132 0.000292
3.859793 8.079132 0.000081
4.173615 8.079132 -0.000129
4.487438 8.079132 -0.000126
4.801261 8.079132 -0.000158
5.115085 8.079132 -0.000450
5.428907 8.079132 -0.000583
5.742730 8.079132 -0.000316
6.056554 8.079132 -0.000203
6.370377 8.079132 -0.000433
6.684199 8.079132 -0.000848
6.998022 8.079132 -0.000941
7.311846 8.079132 -0.001245
7.625669 8.079132 -0.001868
7.939491 8.079132 -0.002021
8.253315 8.079132 -0.000372
8.567138 8.079132 0.000803
8.880960 8.079132 0.002434
9.194784 8.079132 0.008442
9.508606 8.079132 0.011973
9.822430 8.079132 0.018391
10.136253 8.079132 0.023084
10.450075 8.079132 0.033661
10.763899 8.079132 0.032551
11.077723 8.079132 0.040688
11.391544 8.079132 0.045341
11.705368 8.079132 0.054800
12.019190 8.079132 0.062452
12.333014 8.079132 0.051779
12.646837 8.079132 0.062099
12.960659 8.079132 0.060191
13.274483 8.079132 0.044633
13.588306 8.079132 0.039507
13.902128 8.079132 0.062692
14.215952 8.079132 0.048172
14.529776 8.079132 0.052161
14.843597 8.079132 0.041694
15.157421 8.079132 0.040538
15.471243 8.079132 0.020810
15.785067 8.079132 0.001796
16.098890 8.079132 0.012881
16.412712 8.079132 -0.025620
16.726536 8.079132 0.020182
17.040359 8.079132 0.052237
17.354181 8.079132 -0.007108
17.668005 8.079132 -0.118552
17.981829 8.079132 -0.200246
18.295650 8.079132 -0.244622
18.609474 8.079132 -0.436248
18.923298 8.079132 0.000000
19.237120 8.079132 0.000000
-6.810190 7.765308 0.000000
-6.496367 7.765308 0.000513
-6.182544 7.765308 0.000293
-5.868721 7.765308 0.000238
-5.554898 7.765308 0.000275
-5.241075 7.765308 0.000207
-4.927252 7.765308 0.000187
-4.613429 7.765308 0.000211
-4.299606 7.765308 0.000280
-3.985783 7.765308 0.000267
-3.671960 7.765308 0.000226
-3.358137 7.765308 0.000237
-3.044314 7.765308 0.000165
-2.730491 7.765308 0.000170
-2.416668 7.765308 0.000207
-2.102845 7.765308 0.000213
-1.789022 7.765308 0.000154
-1.475199 7.765308 0.000141
-1.161376 7.765308 0.000142
-0.847553 7.765308 0.000189
-0.533730 7.765308 0.000218
-0.219907 7.765308 0.000162
0.093916 7.765308 0.000094
0.407739 7.765308 0.000044
0.721562 7.765308 0.000026
1.035385 7.765308 0.000084
1.349208 7.765308 0.000076
1.663032 7.765308 0.000026
1.976854 7.765308 -0.000016
2.290677 7.765308 -0.000062
2.604500 7.765308 -0.000057
2.918324 7.765308 0.000075
3.232146 7.765308 0.000219
3.545969 7.765308 0.000259
3.859793 7.765308 -0.000028
4.173615 7.765308 -0.000208
4.487438 7.765308 -0.000159
4.801261 7.765308 -0.000192
5.115085 7.765308 -0.000507
5.428907 7.765308 -0.000528
5.742730 7.765308 -0.000297
6.056554 7.765308 -0.000183
6.370377 7.765308 -0.000391
6.684199 7.765308 -0.000872
6.998022 7.765308 -0.001011
7.311846 7.765308 -0.001023
7.625669 7.765308 -0.001292
7.939491 7.765308 -0.001531
8.253315 7.765308 -0.000186
8.567138 7.765308 0.000829
8.880960 7.765308 0.001943
9.194784 7.765308 0.006791
9.508606 7.765308 0.012452
9.822430 7.765308 0.017193
10.136253 7.765308 0.021105
10.450075 7.765308 0.029993
10.763899 7.765308 0.033386
11.077723 7.765308 0.050552
11.391544 7.765308 0.061228
11.705368 7.765308 0.077007
12.019190 7.765308 0.075245
12.333014 7.765308 0.052882
12.646837 7.765308 0.060400
12.960659 7.765308 0.044740
13.274483 7.765308 0.039645
13.588306 7.765308 0.074692
13.902128 7.765308 0.051988
14.215952 7.765308 0.033361
14.529776 7.765308 0.035695
14.843597 7.765308 0.020835
15.157421 7.765308 0.028803
15.471243 7.765308 0.022192
15.785067 7.765308 0.007688
16.098890 7.765308 0.023710
16.412712 7.765308 -0.009408
16.726536 7.765308 -0.000845
17.040359 7.765308 -0.006671
17.354181 7.765308 -0.057367
17.668005 7.765308 -0.152972
17.981829 7.765308 -0.229441
18.295650 7.765308 -0.295085
18.609474 7.765308 -0.409761
18.923298 7.765308 0.000000
19.237120 7.765308 0.000000
-6.810190 7.451488 0.000000
-6.496367 7.451488 0.000503
-6.182544 7.451488 0.000262
-5.868721 7.451488 0.000258
-5.554898 7.451488 0.000276
-5.241075 7.451488 0.000189
-4.927252 7.451488 0.000143
-4.613429 7.451488 0.000175
-4.299606 7.451488 0.000286
-3.985783 7.451488 0.000334
-3.671960 7.451488 0.000288
-3.358137 7.451488 0.000261
-3.044314 7.451488 0.000172
-2.730491 7.451488 0.000180
-2.416668 7.451488 0.000194
-2.102845 7.451488 0.000162
-1.789022 7.451488 0.000164
-1.475199 7.451488 0.000167
-1.161376 7.451488 0.000176
-0.847553 7.451488 0.000208
-0.533730 7.451488 0.000209
-0.219907 7.451488 0.000122
0.093916 7.451488 0.000159
0.407739 7.451488 0.000172
0.721562 7.451488 0.000100
1.035385 7.451488 0.000086
1.349208 7.451488 0.000086
1.663032 7.451488 -0.000002
1.976854 7.451488 -0.000052
2.290677 7.451488 -0.000058
2.604500 7.451488 -0.000039
2.918324 7.451488 0.000098
3.232146 7.451488 0.000186
3.545969 7.451488 0.000180
3.859793 7.451488 -0.000086
4.173615 7.451488 -0.000276
4.487438 7.451488 -0.000230
4.801261 7.451488 -0.000311
5.115085 7.451488 -0.000539
5.428907 7.451488 -0.000521
5.742730 7.451488 -0.000334
6.056554 7.451488 -0.000193
6.370377 7.451488 -0.000446
6.684199 7.451488 -0.000861
6.998022 7.451488 -0.000973
7.311846 7.451488 -0.000822
7.625669 7.451488 -0.001392
7.939491 7.451488 -0.002124
8.253315 7.451488 -0.000798
8.567138 7.451488 0.001694
8.880960 7.451488 0.001685
9.194784 7.451488 0.007859
9.508606 7.451488 0.011651
9.822430 7.451488 0.013623
10.136253 7.451488 0.018767
10.450075 7.451488 0.023974
10.763899 7.451488 0.034680
11.077723 7.451488 0.048795
11.391544 7.451488 0.068746
11.705368 7.451488 0.088935
12.019190 7.451488 0.083289
12.333014 7.451488 0.051638
12.646837 7.451488 0.041340
12.960659 7.451488 0.049316
13.274483 7.451488 0.071432
13.588306 7.451488 0.043630
13.902128 7.451488 0.042386
14.215952 7.451488 0.030057
14.529776 7.451488 0.017684
14.843597 7.451488 0.032860
15.157421 7.451488 0.021042
15.471243 7.451488 0.044085
15.785067 7.451488 0.024652
16.098890 7.451488 0.006306
16.412712 7.451488 0.008797
16.726536 7.451488 -0.012314
17.040359 7.451488 0.000801
17.354181 7.451488 -0.053408
17.668005 7.451488 -0.156204
17.981829 7.451488 -0.230275
18.295650 7.451488 -0.265806
18.609474 7.451488 -0.339820
18.923298 7.451488 0.000000
19.237120 7.451488 0.000000
-6.810190 7.137665 0.000000
-6.496367 7.137665 0.000480
-6.182544 7.137665 0.000266
-5.868721 7.137665 0.000273
-5.554898 7.137665 0.000272
-5.241075 7.137665 0.000171
-4.927252 7.137665 0.000159
-4.613429 7.137665 0.000166
-4.299606 7.137665 0.000272
-3.985783 7.137665 0.000382
-3.671960 7.137665 0.000337
-3.358137 7.137665 0.000259
-3.044314 7.137665 0.000157
-2.730491 7.137665 0.000180
-2.416668 7.137665 0.000184
-2.102845 7.137665 0.000162
-1.789022 7.137665 0.000194
-1.475199 7.137665 0.000166
-1.161376 7.137665 0.000158
-0.847553 7.137665 0.000204
-0.533730 7.137665 0.000174
-0.219907 7.137665 0.000098
0.093916 7.137665 0.000211
0.407739 7.137665 0.000267
0.721562 7.137665 0.000155
1.035385 7.137665 0.000109
1.349208 7.137665 0.000132
1.663032 7.137665 -0.000022
1.976854 7.137665 -0.000114
2.290677 7.137665 -0.000018
2.604500 7.137665 0.000014
2.918324 7.137665 0.000104
3.232146 7.137665 0.000155
3.545969 7.137665 0.000063
3.859793 7.137665 -0.000144
4.173615 7.137665 -0.000326
4.487438 7.137665 -0.000335
4.801261 7.137665 -0.000429
5.115085 7.137665 -0.000551
5.428907 7.137665 -0.000532
5.742730 7.137665 -0.000364
6.056554 7.137665 -0.000244
6.370377 7.137665 -0.000536
6.684199 7.137665 -0.001015
6.998022 7.137665 -0.001095
7.311846 7.137665 -0.001073
7.625669 7.137665 -0.002063
7.939491 7.137665 -0.002725
8.253315 7.137665 -0.001167
8.567138 7.137665 0.002762
8.880960 7.137665 0.004546
9.194784 7.137665 0.009478
9.508606 7.137665 0.011172
9.822430 7.137665 0.014592
10.136253 7.137665 0.013147
10.450075 7.137665 0.025244
10.763899 7.137665 0.036212
11.077723 7.137665 0.047189
11.391544 7.137665 0.062620
11.705368 7.137665 0.077336
12.019190 7.137665 0.073124
12.333014 7.137665 0.076959
12.646837 7.137665 0.065897
12.960659 7.137665 0.048015
13.274483 7.137665 0.052954
13.588306 7.137665 0.067923
13.902128 7.137665 0.048551
14.215952 7.137665 0.028641
14.529776 7.137665 0.033402
14.843597 7.137665 0.023289
15.157421 7.137665 0.034632
15.471243 7.137665 0.037555
15.785067 7.137665 0.073553
16.098890 7.137665 0.024757
16.412712 7.137665 0.011832
16.726536 7.137665 -0.007194
17.040359 7.137665 -0.021390
17.354181 7.137665 -0.082399
17.668005 7.137665 -0.138116
17.981829 7.137665 -0.177371
18.295650 7.137665 -0.136896
18.609474 7.137665 -0.331970
18.923298 7.137665 0.000000
19.237120 7.137665 0.000000
-6.810190 6.823841 0.000000
-6.496367 6.823841 0.000489
-6.182544 6.823841 0.000280
-5.868721 6.823841 0.000273
-5.554898 6.823841 0.000258
-5.241075 6.823841 0.000199
-4.927252 6.823841 0.000208
-4.613429 6.823841 0.000175
-4.299606 6.823841 0.000288
-3.985783 6.823841 0.000361
-3.671960 6.823841 0.000320
-3.358137 6.823841 0.000224
-3.044314 6.823841 0.000141
-2.730491 6.823841 0.000186
-2.416668 6.823841 0.000182
-2.102845 6.823841 0.000199
-1.789022 6.823841 0.000226
-1.475199 6.823841 0.000159
-1.161376 6.823841 0.000158
-0.847553 6.823841 0.000183
-0.533730 6.823841 0.000151
-0.219907 6.823841 0.000081
0.093916 6.823841 0.000231
0.407739 6.823841 0.000301
0.721562 6.823841 0.000221
1.035385 6.823841 0.000142
1.349208 6.823841 0.000129
1.663032 6.823841 0.000029
1.976854 6.823841 -0.000045
2.290677 6.823841 0.000055
2.604500 6.823841 0.000087
2.918324 6.823841 0.000121
3.232146 6.823841 0.000099
3.545969 6.823841 0.000025
3.859793 6.823841 -0.000084
4.173615 6.823841 -0.000310
4.487438 6.823841 -0.000413
4.801261 6.823841 -0.000490
5.115085 6.823841 -0.000601
5.428907 6.823841 -0.000551
5.742730 6.823841 -0.000443
6.056554 6.823841 -0.000391
6.370377 6.823841 -0.000805
6.684199 6.823841 -0.001141
6.998022 6.823841 -0.001400
7.311846 6.823841 -0.001635
7.625669 6.823841 -0.002691
7.939491 6.823841 -0.002342
8.253315 6.823841 -0.001387
8.567138 6.823841 0.001982
8.880960 6.823841 0.003091
9.194784 6.823841 0.009835
9.508606 6.823841 0.015577
9.822430 6.823841 0.016737
10.136253 6.823841 0.020352
10.450075 6.823841 0.027900
10.763899 6.823841 0.039552
11.077723 6.823841 0.056980
11.391544 6.823841 0.059614
11.705368 6.823841 0.078809
12.019190 6.823841 0.084836
12.333014 6.823841 0.093959
12.646837 6.823841 0.082769
12.960659 6.823841 0.065103
13.274483 6.823841 0.028277
13.588306 6.823841 0.043944
13.902128 6.823841 0.073116
14.215952 6.823841 0.046653
14.529776 6.823841 0.005857
14.843597 6.823841 -0.002994
15.157421 6.823841 0.011147
15.471243 6.823841 0.022903
15.785067 6.823841 0.050586
16.098890 6.823841 0.039029
16.412712 6.823841 0.018491
16.726536 6.823841 -0.003624
17.040359 6.823841 -0.030795
17.354181 6.823841 -0.060190
17.668005 6.823841 -0.099436
17.981829 6.823841 -0.212807
18.295650 6.823841 -0.194845
18.609474 6.823841 -0.292274
18.923298 6.823841 0.000000
19.237120 6.823841 0.000000
-6.810190 6.510017 0.000000
-6.496367 6.510017 0.000490
-6.182544 6.510017 0.000312
-5.868721 6.510017 0.000259
-5.554898 6.510017 0.000246
-5.241075 6.510017 0.000255
-4.927252 6.510017 0.000257
-4.613429 6.510017 0.000194
-4.299606 6.510017 0.000248
-3.985783 6.510017 0.000282
-3.671960 6.510017 0.000260
-3.358137 6.510017 0.000176
-3.044314 6.510017 0.000159
-2.730491 6.510017 0.000218
-2.416668 6.510017 0.000197
-2.102845 6.510017 0.000214
-1.789022 6.510017 0.000218
-1.475199 6.510017 0.000158
-1.161376 6.510017 0.000123
-0.847553 6.510017 0.000105
-0.533730 6.510017 0.000106
-0.219907 6.510017 0.000083
0.093916 6.510017 0.000240
0.407739 6.510017 0.000349
0.721562 6.510017 0.000292
1.035385 6.510017 0.000160
1.349208 6.510017 0.000093
1.663032 6.510017 0.000101
1.976854 6.510017 0.000112
2.290677 6.510017 0.000093
2.604500 6.510017 0.000077
2.918324 6.510017 0.000064
3.232146 6.510017 0.000043
3.545969 6.510017 0.000029
3.859793 6.510017 -0.000003
4.173615 6.510017 -0.000114
4.487438 6.510017 -0.000239
4.801261 6.510017 -0.000394
5.115085 6.510017 -0.000566
5.428907 6.510017 -0.000678
5.742730 6.510017 -0.000676
6.056554 6.510017 -0.000790
6.370377 6.510017 -0.000964
6.684199 6.510017 -0.001281
6.998022 6.510017 -0.001921
7.311846 6.510017 -0.002573
7.625669 6.510017 -0.003251
7.939491 6.510017 -0.003197
8.253315 6.510017 -0.002418
8.567138 6.510017 -0.001201
8.880960 6.510017 0.000800
9.194784 6.510017 0.009403
9.508606 6.510017 0.015477
9.822430 6.510017 0.012776
10.136253 6.510017 0.022737
10.450075 6.510017 0.032860
10.763899 6.510017 0.043877
11.077723 6.510017 0.060442
11.391544 6.510017 0.060997
11.705368 6.510017 0.065202
12.019190 6.510017 0.083775
12.333014 6.510017 0.093909
12.646837 6.510017 0.094429
12.960659 6.510017 0.039952
13.274483 6.510017 0.032410
13.588306 6.510017 0.058619
13.902128 6.510017 0.057909
14.215952 6.510017 0.065526
14.529776 6.510017 0.027176
14.843597 6.510017 -0.001492
15.157421 6.510017 -0.000616
15.471243 6.510017 0.007431
15.785067 6.510017 0.037946
16.098890 6.510017 0.064649
16.412712 6.510017 0.059113
16.726536 6.510017 0.049408
17.040359 6.510017 0.034280
17.354181 6.510017 0.001392
17.668005 6.510017 -0.068605
17.981829 6.510017 -0.246421
18.295650 6.510017 -0.271687
18.609474 6.510017 -0.391802
18.923298 6.510017 0.000000
19.237120 6.510017 0.000000
-6.810190 6.196194 0.000000
-6.496367 6.196194 0.000520
-6.182544 6.196194 0.000359
-5.868721 6.196194 0.000287
-5.554898 6.196194 0.000255
-5.241075 6.196194 0.000291
-4.927252 6.196194 0.000280
-4.613429 6.196194 0.000219
-4.299606 6.196194 0.000224
-3.985783 6.196194 0.000218
-3.671960 6.196194 0.000222
-3.358137 6.196194 0.000160
-3.044314 6.196194 0.000225
-2.730491 6.196194 0.000257
-2.416668 6.196194 0.000204
-2.102845 6.196194 0.000189
-1.789022 6.196194 0.000155
-1.475199 6.196194 0.000140
-1.161376 6.196194 0.000095
-0.847553 6.196194 -0.000012
-0.533730 6.196194 0.000016
-0.219907 6.196194 0.000064
0.093916 6.196194 0.000206
0.407739 6.196194 0.000331
0.721562 6.196194 0.000316
1.035385 6.196194 0.000168
1.349208 6.196194 0.000072
1.663032 6.196194 0.000161
1.976854 6.196194 0.000120
2.290677 6.196194 0.000011
2.604500 6.196194 -0.000031
2.918324 6.196194 -0.000036
3.232146 6.196194 -0.000056
3.545969 6.196194 -0.000054
3.859793 6.196194 0.000007
4.173615 6.196194 0.000052
4.487438 6.196194 -0.000034
4.801261 6.196194 -0.000197
5.115085 6.196194 -0.000491
5.428907 6.196194 -0.000782
5.742730 6.196194 -0.001013
6.056554 6.196194 -0.001062
6.370377 6.196194 -0.001122
6.684199 6.196194 -0.001456
6.998022 6.196194 -0.002163
7.311846 6.196194 -0.002713
7.625669 6.196194 -0.003014
7.939491 6.196194 -0.003056
8.253315 6.196194 -0.002830
8.567138 6.196194 -0.002462
8.880960 6.196194 0.000707
9.194784 6.196194 0.009794
9.508606 6.196194 0.016005
9.822430 6.196194 0.019188
10.136253 6.196194 0.027785
10.450075 6.196194 0.032995
10.763899 6.196194 0.043358
11.077723 6.196194 0.064916
11.391544 6.196194 0.065563
11.705368 6.196194 0.056947
12.019190 6.196194 0.083224
12.333014 6.196194 0.093365
12.646837 6.196194 0.081593
12.960659 6.196194 0.054870
13.274483 6.196194 0.036564
13.588306 6.196194 0.052626
13.902128 6.196194 0.067215
14.215952 6.196194 0.068024
14.529776 6.196194 0.030400
14.843597 6.196194 0.028118
15.157421 6.196194 -0.003492
15.471243 6.196194 0.016833
15.785067 6.196194 0.025832
16.098890 6.196194 0.048077
16.412712 6.196194 0.043486
16.726536 6.196194 0.058035
17.040359 6.196194 0.036109
17.354181 6.196194 -0.010004
17.668005 6.196194 -0.094339
17.981829 6.196194 -0.241672
18.295650 6.196194 -0.285136
18.609474 6.196194 -0.342806
18.923298 6.196194 0.000000
19.237120 6.196194 0.000000
-6.810190 5.882370 0.000000
-6.496367 5.882370 0.000529
-6.182544 5.882370 0.000387
-5.868721 5.882370 0.000344
-5.554898 5.882370 0.000288
-5.241075 5.882370 0.000329
-4.927252 5.882370 0.000293
-4.613429 5.882370 0.000221
-4.299606 5.882370 0.000201
-3.985783 5.882370 0.000211
-3.671960 5.882370 0.000232
-3.358137 5.882370 0.000189
-3.044314 5.882370 0.000264
-2.730491 5.882370 0.000269
-2.416668 5.882370 0.000218
-2.102845 5.882370 0.000175
-1.789022 5.882370 0.000091
-1.475199 5.882370 0.000112
-1.161376 5.882370 0.000058
-0.847553 5.882370 -0.000094
-0.533730 5.882370 -0.000080
-0.219907 5.882370 0.000019
0.093916 5.882370 0.000155
0.407739 5.882370 0.000245
0.721562 5.882370 0.000280
1.035385 5.882370 0.000157
1.349208 5.882370 0.000127
1.663032 5.882370 0.000176
1.976854 5.882370 0.000054
2.290677 5.882370 -0.000123
2.604500 5.882370 -0.000155
2.918324 5.882370 -0.000143
3.232146 5.882370 -0.000151
3.545969 5.882370 -0.000173
3.859793 5.882370 -0.000075
4.173615 5.882370 0.000104
4.487438 5.882370 0.000106
4.801261 5.882370 -0.000025
5.115085 5.882370 -0.000378
5.428907 5.882370 -0.000850
5.742730 5.882370 -0.001273
6.056554 5.882370 -0.001400
6.370377 5.882370 -0.001313
6.684199 5.882370 -0.001510
6.998022 5.882370 -0.002128
7.311846 5.882370 -0.002537
7.625669 5.882370 -0.002797
7.939491 5.882370 -0.002189
8.253315 5.882370 -0.002537
8.567138 5.882370 -0.001672
8.880960 5.882370 0.001898
9.194784 5.882370 0.009365
9.508606 5.882370 0.017334
9.822430 5.882370 0.026489
10.136253 5.882370 0.042659
10.450075 5.882370 0.048218
10.763899 5.882370 0.048679
11.077723 5.882370 0.059854
11.391544 5.882370 0.055020
11.705368 5.882370 0.053721
12.019190 5.882370 0.067496
12.333014 5.882370 0.100393
12.646837 5.882370 0.097686
12.960659 5.882370 0.059627
13.274483 5.882370 0.030408
13.588306 5.882370 0.023377
13.902128 5.882370 0.056628
14.215952 5.882370 0.066395
14.529776 5.882370 0.047493
14.843597 5.882370 0.031692
15.157421 5.882370 0.015698
15.471243 5.882370 0.025143
15.785067 5.882370 0.035989
16.098890 5.882370 0.034142
16.412712 5.882370 0.034517
16.726536 5.882370 0.064408
17.040359 5.882370 -0.009714
17.354181 5.882370 -0.044218
17.668005 5.882370 -0.086103
17.981829 5.882370 -0.113237
18.295650 5.882370 -0.287464
18.609474 5.882370 -0.431718
18.923298 5.882370 0.000000
19.237120 5.882370 0.000000
-6.810190 5.568550 0.000000
-6.496367 5.568550 0.000510
-6.182544 5.568550 0.000407
-5.868721 5.568550 0.000390
-5.554898 5.568550 0.000302
-5.241075 5.568550 0.000345
-4.927252 5.568550 0.000347
-4.613429 5.568550 0.000239
-4.299606 5.568550 0.000225
-3.985783 5.568550 0.000252
-3.671960 5.568550 0.000260
-3.358137 5.568550 0.000236
-3.044314 5.568550 0.000252
-2.730491 5.568550 0.000288
-2.416668 5.568550 0.000227
-2.102845 5.568550 0.000190
-1.789022 5.568550 0.000109
-1.475199 5.568550 0.000093
-1.161376 5.568550 0.000102
-0.847553 5.568550 -0.000056
-0.533730 5.568550 -0.000109
-0.219907 5.568550 -0.000026
0.093916 5.568550 0.000123
0.407739 5.568550 0.000187
0.721562 5.568550 0.000241
1.035385 5.568550 0.000207
1.349208 5.568550 0.000213
1.663032 5.568550 0.000127
1.976854 5.568550 -0.000025
2.290677 5.568550 -0.000233
2.604500 5.568550 -0.000271
2.918324 5.568550 -0.000213
3.232146 5.568550 -0.000216
3.545969 5.568550 -0.000247
3.859793 5.568550 -0.000159
4.173615 5.568550 0.000027
4.487438 5.568550 0.000064
4.801261 5.568550 0.000018
5.115085 5.568550 -0.000274
5.428907 5.568550 -0.000838
5.742730 5.568550 -0.001383
6.056554 5.568550 -0.001670
6.370377 5.568550 -0.001636
6.684199 5.568550 -0.001750
6.998022 5.568550 -0.001994
7.311846 5.568550 -0.002112
7.625669 5.568550 -0.002293
7.939491 5.568550 -0.002467
8.253315 5.568550 -0.001533
8.567138 5.568550 -0.000410
8.880960 5.568550 0.004989
9.194784 5.568550 0.009435
9.508606 5.568550 0.021125
9.822430 5.568550 0.029222
10.136253 5.568550 0.043070
10.450075 5.568550 0.047634
10.763899 5.568550 0.040638
11.077723 5.568550 0.049130
11.391544 5.568550 0.035388
11.705368 5.568550 0.034201
12.019190 5.568550 0.058015
12.333014 5.568550 0.063753
12.646837 5.568550 0.065206
12.960659 5.568550 0.052269
13.274483 5.568550 0.041946
13.588306 5.568550 0.014770
13.902128 5.568550 0.013622
14.215952 5.568550 0.031948
14.529776 5.568550 0.040499
14.843597 5.568550 0.041567
15.157421 5.568550 0.014036
15.471243 5.568550 0.013478
15.785067 5.568550 0.010493
16.098890 5.568550 0.019695
16.412712 5.568550 0.022727
16.726536 5.568550 0.016799
17.040359 5.568550 -0.005613
17.354181 5.568550 -0.054987
17.668005 5.568550 -0.060648
17.981829 5.568550 -0.119012
18.295650 5.568550 -0.242973
18.609474 5.568550 -0.448899
18.923298 5.568550 0.000000
19.237120 5.568550 0.000000
-6.810190 5.254726 0.000000
-6.496367 5.254726 0.000485
-6.182544 5.254726 0.000376
-5.868721 5.254726 0.000369
-5.554898 5.254726 0.000270
-5.241075 5.254726 0.000327
-4.927252 5.254726 0.000354
-4.613429 5.254726 0.000252
-4.299606 5.254726 0.000209
-3.985783 5.254726 0.000258
-3.671960 5.254726 0.000229
-3.358137 5.254726 0.000213
-3.044314 5.254726 0.000258
-2.730491 5.254726 0.000315
-2.416668 5.254726 0.000242
-2.102845 5.254726 0.000209
-1.789022 5.254726 0.000132
-1.475199 5.254726 0.000097
-1.161376 5.254726 0.000147
-0.847553 5.254726 0.000066
-0.533730 5.254726 -0.000051
-0.219907 5.254726 0.000022
0.093916 5.254726 0.000144
0.407739 5.254726 0.000143
0.721562 5.254726 0.000241
1.035385 5.254726 0.000297
1.349208 5.254726 0.000238
1.663032 5.254726 0.000057
1.976854 5.254726 -0.000053
2.290677 5.254726 -0.000272
2.604500 5.254726 -0.000295
2.918324 5.254726 -0.000202
3.232146 5.254726 -0.000212
3.545969 5.254726 -0.000224
3.859793 5.254726 -0.000175
4.173615 5.254726 -0.000139
4.487438 5.254726 -0.000137
4.801261 5.254726 -0.000049
5.115085 5.254726 -0.000187
5.428907 5.254726 -0.000800
5.742730 5.254726 -0.001378
6.056554 5.254726 -0.001650
6.370377 5.254726 -0.001727
6.684199 5.254726 -0.001821
6.998022 5.254726 -0.001703
7.311846 5.254726 -0.001838
7.625669 5.254726 -0.002289
7.939491 5.254726 -0.002402
8.253315 5.254726 -0.002215
8.567138 5.254726 -0.000104
8.880960 5.254726 0.004505
9.194784 5.254726 0.010092
9.508606 5.254726 0.019667
9.822430 5.254726 0.029492
10.136253 5.254726 0.037946
10.450075 5.254726 0.038443
10.763899 5.254726 0.033598
11.077723 5.254726 0.028140
11.391544 5.254726 0.021037
11.705368 5.254726 0.015579
12.019190 5.254726 0.038979
12.333014 5.254726 0.053582
12.646837 5.254726 0.044412
12.960659 5.254726 0.026484
13.274483 5.254726 0.032112
13.588306 5.254726 0.010705
13.902128 5.254726 0.014174
14.215952 5.254726 -0.006910
14.529776 5.254726 0.015036
14.843597 5.254726 0.005635
15.157421 5.254726 0.029345
15.471243 5.254726 0.021858
15.785067 5.254726 0.005562
16.098890 5.254726 0.005748
16.412712 5.254726 0.015803
16.726536 5.254726 0.047507
17.040359 5.254726 -0.074924
17.354181 5.254726 -0.068551
17.668005 5.254726 -0.086447
17.981829 5.254726 -0.168664
18.295650 5.254726 -0.210252
18.609474 5.254726 -0.530781
18.923298 5.254726 0.000000
19.237120 5.254726 0.000000
-6.810190 4.940903 0.000000
-6.496367 4.940903 0.000477
-6.182544 4.940903 0.000320
-5.868721 4.940903 0.000320
-5.554898 4.940903 0.000262
-5.241075 4.940903 0.000321
-4.927252 4.940903 0.000356
-4.613429 4.940903 0.000274
-4.299606 4.940903 0.000199
-3.985783 4.940903 0.000234
-3.671960 4.940903 0.000200
-3.358137 4.940903 0.000186
-3.044314 4.940903 0.000271
-2.730491 4.940903 0.000344
-2.416668 4.940903 0.000267
-2.102845 4.940903 0.000230
-1.789022 4.940903 0.000157
-1.475199 4.940903 0.000110
-1.161376 4.940903 0.000209
-0.847553 4.940903 0.000164
-0.533730 4.940903 -0.000006
-0.219907 4.940903 0.000038
0.093916 4.940903 0.000123
0.407739 4.940903 0.000130
0.721562 4.940903 0.000234
1.035385 4.940903 0.000233
1.349208 4.940903 0.000128
1.663032 4.940903 -0.000008
1.976854 4.940903 -0.000071
2.290677 4.940903 -0.000249
2.604500 4.940903 -0.000208
2.918324 4.940903 -0.000092
3.232146 4.940903 -0.000132
3.545969 4.940903 -0.000170
3.859793 4.940903 -0.000204
4.173615 4.940903 -0.000228
4.487438 4.940903 -0.000294
4.801261 4.940903 -0.000267
5.115085 4.940903 -0.000345
5.428907 4.940903 -0.000842
5.742730 4.940903 -0.001338
6.056554 4.940903 -0.001480
6.370377 4.940903 -0.001699
6.684199 4.940903 -0.001920
6.998022 4.940903 -0.001647
7.311846 4.940903 -0.001876
7.625669 4.940903 -0.002735
7.939491 4.940903 -0.003204
8.253315 4.940903 -0.002780
8.567138 4.940903 -0.000133
8.880960 4.940903 0.005181
9.194784 4.940903 0.013137
9.508606 4.940903 0.024451
9.822430 4.940903 0.032455
10.136253 4.940903 0.035576
10.450075 4.940903 0.034640
10.763899 4.940903 0.031182
11.077723 4.940903 0.032911
11.391544 4.940903 0.020135
11.705368 4.940903 0.017600
12.019190 4.940903 0.034261
12.333014 4.940903 0.039924
12.646837 4.940903 0.037270
12.960659 4.940903 0.049715
13.274483 4.940903 0.052404
13.588306 4.940903 0.014219
13.902128 4.940903 -0.013459
14.215952 4.940903 -0.037892
14.529776 4.940903 0.015587
14.843597 4.940903 -0.007270
15.157421 4.940903 0.030507
15.471243 4.940903 0.015960
15.785067 4.940903 -0.035608
16.098890 4.940903 -0.000106
16.412712 4.940903 -0.044377
16.726536 4.940903 0.024660
17.040359 4.940903 -0.090350
17.354181 4.940903 -0.107921
17.668005 4.940903 -0.183276
17.981829 4.940903 -0.143400
18.295650 4.940903 -0.312934
18.609474 4.940903 -0.546425
18.923298 4.940903 0.000000
19.237120 4.940903 0.000000
-6.810190 4.627079 0.000000
-6.496367 4.627079 0.000474
-6.182544 4.627079 0.000288
-5.868721 4.627079 0.000270
-5.554898 4.627079 0.000306
-5.241075 4.627079 0.000353
-4.927252 4.627079 0.000357
-4.613429 4.627079 0.000319
-4.299606 4.627079 0.000252
-3.985783 4.627079 0.000244
-3.671960 4.627079 0.000214
-3.358137 4.627079 0.000194
-3.044314 4.627079 0.000288
-2.730491 4.627079 0.000362
-2.416668 4.627079 0.000298
-2.102845 4.627079 0.000241
-1.789022 4.627079 0.000170
-1.475199 4.627079 0.000150
-1.161376 4.627079 0.000250
-0.847553 4.627079 0.000188
-0.533730 4.627079 0.000049
-0.219907 4.627079 0.000050
0.093916 4.627079 0.000083
0.407739 4.627079 0.000114
0.721562 4.627079 0.000142
1.035385 4.627079 0.000116
1.349208 4.627079 0.000054
1.663032 4.627079 -0.000017
1.976854 4.627079 -0.000051
2.290677 4.627079 -0.000204
2.604500 4.627079 -0.000140
2.918324 4.627079 0.000030
3.232146 4.627079 -0.000012
3.545969 4.627079 -0.000113
3.859793 4.627079 -0.000177
4.173615 4.627079 -0.000260
4.487438 4.627079 -0.000361
4.801261 4.627079 -0.000458
5.115085 4.627079 -0.000643
5.428907 4.627079 -0.000963
5.742730 4.627079 -0.001235
6.056554 4.627079 -0.001433
6.370377 4.627079 -0.001693
6.684199 4.627079 -0.001897
6.998022 4.627079 -0.001682
7.311846 4.627079 -0.001950
7.625669 4.627079 -0.002704
7.939491 4.627079 -0.002544
8.253315 4.627079 -0.003035
8.567138 4.627079 -0.000289
8.880960 4.627079 0.007428
9.194784 4.627079 0.013969
9.508606 4.627079 0.019064
9.822430 4.627079 0.032379
10.136253 4.627079 0.041069
10.450075 4.627079 0.036595
10.763899 4.627079 0.033908
11.077723 4.627079 0.040774
11.391544 4.627079 0.025897
11.705368 4.627079 0.030548
12.019190 4.627079 0.038919
12.333014 4.627079 0.053170
12.646837 4.627079 0.054258
12.960659 4.627079 0.035965
13.274483 4.627079 0.051221
13.588306 4.627079 0.023470
13.902128 4.627079 0.010259
14.215952 4.627079 -0.013047
14.529776 4.627079 -0.000500
14.843597 4.627079 0.021758
15.157421 4.627079 0.024026
15.471243 4.627079 0.010769
15.785067 4.627079 -0.028813
16.098890 4.627079 0.002556
16.412712 4.627079 -0.031277
16.726536 4.627079 0.000524
17.040359 4.627079 -0.036434
17.354181 4.627079 -0.122757
17.668005 4.627079 -0.135220
17.981829 4.627079 -0.257769
18.295650 4.627079 -0.388853
18.609474 4.627079 -0.497597
18.923298 4.627079 0.000000
19.237120 4.627079 0.000000
-6.810190 4.313255 0.000000
-6.496367 4.313255 0.000404
-6.182544 4.313255 0.000250
-5.868721 4.313255 0.000201
-5.554898 4.313255 0.000295
-5.241075 4.313255 0.000369
-4.927252 4.313255 0.000347
-4.613429 4.313255 0.000341
-4.299606 4.313255 0.000315
-3.985783 4.313255 0.000271
-3.671960 4.313255 0.000238
-3.358137 4.313255 0.000227
-3.044314 4.313255 0.000315
-2.730491 4.313255 0.000372
-2.416668 4.313255 0.000294
-2.102845 4.313255 0.000205
-1.789022 4.313255 0.000200
-1.475199 4.313255 0.000177
-1.161376 4.313255 0.000225
-0.847553 4.313255 0.000144
-0.533730 4.313255 0.000040
-0.219907 4.313255 0.000040
0.093916 4.313255 0.000077
0.407739 4.313255 0.000082
0.721562 4.313255 0.000031
1.035385 4.313255 0.000008
1.349208 4.313255 0.000010
1.663032 4.313255 -0.000038
1.976854 4.313255 -0.000041
2.290677 4.313255 -0.000124
2.604500 4.313255 -0.000053
2.918324 4.313255 0.000093
3.232146 4.313255 0.000079
3.545969 4.313255 -0.000060
3.859793 4.313255 -0.000197
4.173615 4.313255 -0.000230
4.487438 4.313255 -0.000280
4.801261 4.313255 -0.000539
5.115085 4.313255 -0.000857
5.428907 4.313255 -0.001041
5.742730 4.313255 -0.001057
6.056554 4.313255 -0.001268
6.370377 4.313255 -0.001624
6.684199 4.313255 -0.001739
6.998022 4.313255 -0.001739
7.311846 4.313255 -0.002045
7.625669 4.313255 -0.002744
7.939491 4.313255 -0.002599
8.253315 4.313255 -0.001621
8.567138 4.313255 -0.000012
8.880960 4.313255 0.006686
9.194784 4.313255 0.014008
9.508606 4.313255 0.020182
9.822430 4.313255 0.026905
10.136253 4.313255 0.036053
10.450075 4.313255 0.042257
10.763899 4.313255 0.039104
11.077723 4.313255 0.048603
11.391544 4.313255 0.037675
11.705368 4.313255 0.037736
12.019190 4.313255 0.052700
12.333014 4.313255 0.067844
12.646837 4.313255 0.064713
12.960659 4.313255 0.041217
13.274483 4.313255 0.049755
13.588306 4.313255 0.049379
13.902128 4.313255 0.051617
14.215952 4.313255 0.021530
14.529776 4.313255 0.054514
14.843597 4.313255 0.043522
15.157421 4.313255 0.036036
15.471243 4.313255 0.014451
15.785067 4.313255 -0.027456
16.098890 4.313255 -0.007941
16.412712 4.313255 -0.042878
16.726536 4.313255 -0.035754
17.040359 4.313255 -0.053010
17.354181 4.313255 -0.131476
17.668005 4.313255 -0.170887
17.981829 4.313255 -0.303495
18.295650 4.313255 -0.412849
18.609474 4.313255 -0.464409
18.923298 4.313255 0.000000
19.237120 4.313255 0.000000
-6.810190 3.999435 0.000000
-6.496367 3.999435 0.000374
-6.182544 3.999435 0.000224
-5.868721 3.999435 0.000187
-5.554898 3.999435 0.000263
-5.241075 3.999435 0.000339
-4.927252 3.999435 0.000310
-4.613429 3.999435 0.000346
-4.299606 3.999435 0.000348
-3.985783 3.999435 0.000338
-3.671960 3.999435 0.000263
-3.358137 3.999435 0.000240
-3.044314 3.999435 0.000378
-2.730491 3.999435 0.000385
-2.416668 3.999435 0.000289
-2.102845 3.999435 0.000178
-1.789022 3.999435 0.000233
-1.475199 3.999435 0.000195
-1.161376 3.999435 0.000168
-0.847553 3.999435 0.000074
-0.533730 3.999435 0.000068
-0.219907 3.999435 0.000060
0.093916 3.999435 0.000050
0.407739 3.999435 0.000031
0.721562 3.999435 -0.000050
1.035385 3.999435 -0.000029
1.349208 3.999435 -0.000021
1.663032 3.999435 -0.000050
1.976854 3.999435 -0.000059
2.290677 3.999435 -0.000017
2.604500 3.999435 0.000010
2.918324 3.999435 0.000055
3.232146 3.999435 0.000167
3.545969 3.999435 -0.000027
3.859793 3.999435 -0.000285
4.173615 3.999435 -0.000261
4.487438 3.999435 -0.000213
4.801261 3.999435 -0.000526
5.115085 3.999435 -0.000940
5.428907 3.999435 -0.000974
5.742730 3.999435 -0.000839
6.056554 3.999435 -0.001013
6.370377 3.999435 -0.001394
6.684199 3.999435 -0.001459
6.998022 3.999435 -0.001607
7.311846 3.999435 -0.001869
7.625669 3.999435 -0.002977
7.939491 3.999435 -0.002345
8.253315 3.999435 0.000019
8.567138 3.999435 0.000419
8.880960 3.999435 0.001744
9.194784 3.999435 0.009723
9.508606 3.999435 0.016296
9.822430 3.999435 0.027877
10.136253 3.999435 0.041277
10.450075 3.999435 0.045230
10.763899 3.999435 0.053254
11.077723 3.999435 0.057953
11.391544 3.999435 0.050874
11.705368 3.999435 0.050893
12.019190 3.999435 0.049460
12.333014 3.999435 0.069278
12.646837 3.999435 0.063322
12.960659 3.999435 0.059889
13.274483 3.999435 0.066145
13.588306 3.999435 0.065398
13.902128 3.999435 0.083915
14.215952 3.999435 0.063535
14.529776 3.999435 0.069651
14.843597 3.999435 0.068307
15.157421 3.999435 0.039200
15.471243 3.999435 0.018454
15.785067 3.999435 -0.017645
16.098890 3.999435 0.012966
16.412712 3.999435 -0.009389
16.726536 3.999435 -0.015404
17.040359 3.999435 -0.134837
17.354181 3.999435 -0.205792
17.668005 3.999435 -0.297564
17.981829 3.999435 -0.418634
18.295650 3.999435 -0.506878
18.609474 3.999435 -0.501481
18.923298 3.999435 0.000000
19.237120 3.999435 0.000000
-6.810190 3.685612 0.000000
-6.496367 3.685612 0.000369
-6.182544 3.685612 0.000252
-5.868721 3.685612 0.000237
-5.554898 3.685612 0.000248
-5.241075 3.685612 0.000297
-4.927252 3.685612 0.000296
-4.613429 3.685612 0.000345
-4.299606 3.685612 0.000391
-3.985783 3.685612 0.000365
-3.671960 3.685612 0.000282
-3.358137 3.685612 0.000292
-3.044314 3.685612 0.000402
-2.730491 3.685612 0.000401
-2.416668 3.685612 0.000321
-2.102845 3.685612 0.000228
-1.789022 3.685612 0.000259
-1.475199 3.685612 0.000221
-1.161376 3.685612 0.000146
-0.847553 3.685612 0.000093
-0.533730 3.685612 0.000140
-0.219907 3.685612 0.000118
0.093916 3.685612 0.000061
0.407739 3.685612 0.000017
0.721562 3.685612 -0.000076
1.035385 3.685612 -0.000013
1.349208 3.685612 -0.000020
1.663032 3.685612 -0.000011
1.976854 3.685612 0.000083
2.290677 3.685612 0.000107
2.604500 3.685612 0.000073
2.918324 3.685612 0.000053
3.232146 3.685612 0.000130
3.545969 3.685612 -0.000110
3.859793 3.685612 -0.000385
4.173615 3.685612 -0.000313
4.487438 3.685612 -0.000163
4.801261 3.685612 -0.000402
5.115085 3.685612 -0.000760
5.428907 3.685612 -0.000802
5.742730 3.685612 -0.000596
6.056554 3.685612 -0.000857
6.370377 3.685612 -0.001359
6.684199 3.685612 -0.001520
6.998022 3.685612 -0.001437
7.311846 3.685612 -0.002036
7.625669 3.685612 -0.003697
7.939491 3.685612 -0.002696
8.253315 3.685612 0.001203
8.567138 3.685612 0.002723
8.880960 3.685612 0.003187
9.194784 3.685612 0.009784
9.508606 3.685612 0.015163
9.822430 3.685612 0.023904
10.136253 3.685612 0.040025
10.450075 3.685612 0.047667
10.763899 3.685612 0.057121
11.077723 3.685612 0.060940
11.391544 3.685612 0.053200
11.705368 3.685612 0.045289
12.019190 3.685612 0.044109
12.333014 3.685612 0.058655
12.646837 3.685612 0.055270
12.960659 3.685612 0.048865
13.274483 3.685612 0.068666
13.588306 3.685612 0.078239
13.902128 3.685612 0.082725
14.215952 3.685612 0.049737
14.529776 3.685612 0.058302
14.843597 3.685612 0.042041
15.157421 3.685612 0.004817
15.471243 3.685612 0.000046
15.785067 3.685612 0.023566
16.098890 3.685612 0.017433
16.412712 3.685612 0.024943
16.726536 3.685612 -0.044790
17.040359 3.685612 -0.076950
17.354181 3.685612 -0.254275
17.668005 3.685612 -0.432672
17.981829 3.685612 -0.722208
18.295650 3.685612 -0.685348
18.609474 3.685612 -0.451608
18.923298 3.685612 0.000000
19.237120 3.685612 0.000000
-6.810190 3.371788 0.000000
-6.496367 3.371788 0.000384
-6.182544 3.371788 0.000311
-5.868721 3.371788 0.000265
-5.554898 3.371788 0.000260
-5.241075 3.371788 0.000287
-4.927252 3.371788 0.000320
-4.613429 3.371788 0.000346
-4.299606 3.371788 0.000391
-3.985783 3.371788 0.000352
-3.671960 3.371788 0.000288
-3.358137 3.371788 0.000354
-3.044314 3.371788 0.000452
-2.730491 3.371788 0.000419
-2.416668 3.371788 0.000358
-2.102845 3.371788 0.000300
-1.789022 3.371788 0.000301
-1.475199 3.371788 0.000225
-1.161376 3.371788 0.000146
-0.847553 3.371788 0.000155
-0.533730 3.371788 0.000196
-0.219907 3.371788 0.000227
0.093916 3.371788 0.000162
0.407739 3.371788 0.000083
0.721562 3.371788 0.000011
1.035385 3.371788 -0.000001
1.349208 3.371788 0.000008
1.663032 3.371788 0.000103
1.976854 3.371788 0.000221
2.290677 3.371788 0.000170
2.604500 3.371788 0.000125
2.918324 3.371788 0.000077
3.232146 3.371788 0.000036
3.545969 3.371788 -0.000216
3.859793 3.371788 -0.000438
4.173615 3.371788 -0.000427
4.487438 3.371788 -0.000292
4.801261 3.371788 -0.000326
5.115085 3.371788 -0.000582
5.428907 3.371788 -0.000560
5.742730 3.371788 -0.000520
6.056554 3.371788 -0.000863
6.370377 3.371788 -0.001409
6.684199 3.371788 -0.001639
6.998022 3.371788 -0.001732
7.311846 3.371788 -0.003388
7.625669 3.371788 -0.003965
7.939491 3.371788 -0.002747
8.253315 3.371788 0.002473
8.567138 3.371788 0.006245
8.880960 3.371788 0.009679
9.194784 3.371788 0.013176
9.508606 3.371788 0.013693
9.822430 3.371788 0.024006
10.136253 3.371788 0.038456
10.450075 3.371788 0.047212
10.763899 3.371788 0.061079
11.077723 3.371788 0.058828
11.391544 3.371788 0.049212
11.705368 3.371788 0.023886
12.019190 3.371788 0.032495
12.333014 3.371788 0.046138
12.646837 3.371788 0.048640
12.960659 3.371788 0.048837
13.274483 3.371788 0.074310
13.588306 3.371788 0.074019
13.902128 3.371788 0.060865
14.215952 3.371788 0.040068
14.529776 3.371788 0.037465
14.843597 3.371788 -0.003698
15.157421 3.371788 -0.021213
15.471243 3.371788 -0.018249
15.785067 3.371788 0.019397
16.098890 3.371788 0.043943
16.412712 3.371788 0.010494
16.726536 3.371788 -0.034903
17.040359 3.371788 -0.110768
17.354181 3.371788 -0.178776
17.668005 3.371788 -0.518463
17.981829 3.371788 -1.047435
18.295650 3.371788 -3.739512
18.609474 3.371788 -0.533331
18.923298 3.371788 0.000000
19.237120 3.371788 0.000000
-6.810190 3.057964 0.000000
-6.496367 3.057964 0.000334
-6.182544 3.057964 0.000343
-5.868721 3.057964 0.000282
-5.554898 3.057964 0.000265
-5.241075 3.057964 0.000305
-4.927252 3.057964 0.000354
-4.613429 3.057964 0.000328
-4.299606 3.057964 0.000356
-3.985783 3.057964 0.000309
-3.671960 3.057964 0.000286
-3.358137 3.057964 0.000393
-3.044314 3.057964 0.000495
-2.730491 3.057964 0.000415
-2.416668 3.057964 0.000341
-2.102845 3.057964 0.000340
-1.789022 3.057964 0.000323
-1.475199 3.057964 0.000203
-1.161376 3.057964 0.000119
-0.847553 3.057964 0.000135
-0.533730 3.057964 0.000154
-0.219907 3.057964 0.000254
0.093916 3.057964 0.000256
0.407739 3.057964 0.000195
0.721562 3.057964 0.000104
1.035385 3.057964 0.000010
1.349208 3.057964 0.000012
1.663032 3.057964 0.000197
1.976854 3.057964 0.000242
2.290677 3.057964 0.000153
2.604500 3.057964 0.000173
2.918324 3.057964 0.000094
3.232146 3.057964 0.000020
3.545969 3.057964 -0.000210
3.859793 3.057964 -0.000364
4.173615 3.057964 -0.000533
4.487438 3.057964 -0.000475
4.801261 3.057964 -0.000399
5.115085 3.057964 -0.000570
5.428907 3.057964 -0.000587
5.742730 3.057964 -0.000663
6.056554 3.057964 -0.001100
6.370377 3.057964 -0.001746
6.684199 3.057964 -0.001978
6.998022 3.057964 -0.002731
7.311846 3.057964 -0.004184
7.625669 3.057964 -0.004690
7.939491 3.057964 -0.001749
8.253315 3.057964 0.001475
8.567138 3.057964 0.006517
8.880960 3.057964 0.011904
9.194784 3.057964 0.013628
9.508606 3.057964 0.020358
9.822430 3.057964 0.024629
10.136253 3.057964 0.033638
10.450075 3.057964 0.046713
10.763899 3.057964 0.058454
11.077723 3.057964 0.057009
11.391544 3.057964 0.047683
11.705368 3.057964 0.033053
12.019190 3.057964 0.019501
12.333014 3.057964 0.039348
12.646837 3.057964 0.045364
12.960659 3.057964 0.037828
13.274483 3.057964 0.058113
13.588306 3.057964 0.068789
13.902128 3.057964 0.041418
14.215952 3.057964 0.034487
14.529776 3.057964 0.008404
14.843597 3.057964 -0.039436
15.157421 3.057964 -0.032172
15.471243 3.057964 -0.028594
15.785067 3.057964 0.003078
16.098890 3.057964 0.036368
16.412712 3.057964 0.038465
16.726536 3.057964 -0.064724
17.040359 3.057964 -0.117370
17.354181 3.057964 -0.233485
17.668005 3.057964 -0.656569
17.981829 3.057964 -1.667165
18.295650 3.057964 0.000000
18.609474 3.057964 0.000000
18.923298 3.057964 0.000000
19.237120 3.057964 0.000000
-6.810190 2.744141 0.000000
-6.496367 2.744141 0.000297
-6.182544 2.744141 0.000332
-5.868721 2.744141 0.000279
-5.554898 2.744141 0.000277
-5.241075 2.744141 0.000346
-4.927252 2.744141 0.000333
-4.613429 2.744141 0.000286
-4.299606 2.744141 0.000293
-3.985783 2.744141 0.000263
-3.671960 2.744141 0.000247
-3.358137 2.744141 0.000326
-3.044314 2.744141 0.000452
-2.730491 2.744141 0.000405
-2.416668 2.744141 0.000320
-2.102845 2.744141 0.000336
-1.789022 2.744141 0.000342
-1.475199 2.744141 0.000201
-1.161376 2.744141 0.000083
-0.847553 2.744141 0.000082
-0.533730 2.744141 0.000114
-0.219907 2.744141 0.000234
0.093916 2.744141 0.000332
0.407739 2.744141 0.000289
0.721562 2.744141 0.000148
1.035385 2.744141 -0.000008
1.349208 2.744141 -0.000005
1.663032 2.744141 0.000182
1.976854 2.744141 0.000150
2.290677 2.744141 0.000091
2.604500 2.744141 0.000210
2.918324 2.744141 0.000098
3.232146 2.744141 0.000027
3.545969 2.744141 -0.000110
3.859793 2.744141 -0.000281
4.173615 2.744141 -0.000561
4.487438 2.744141 -0.000672
4.801261 2.744141 -0.000534
5.115085 2.744141 -0.000654
5.428907 2.744141 -0.000832
5.742730 2.744141 -0.001052
6.056554 2.744141 -0.001584
6.370377 2.744141 -0.002265
6.684199 2.744141 -0.002909
6.998022 2.744141 -0.003509
7.311846 2.744141 -0.004278
7.625669 2.744141 -0.003798
7.939491 2.744141 -0.002439
8.253315 2.744141 0.000252
8.567138 2.744141 0.004201
8.880960 2.744141 0.009270
9.194784 2.744141 0.012743
9.508606 2.744141 0.015699
9.822430 2.744141 0.027279
10.136253 2.744141 0.031933
10.450075 2.744141 0.037693
10.763899 2.744141 0.058355
11.077723 2.744141 0.049437
11.391544 2.744141 0.043041
11.705368 2.744141 0.050362
12.019190 2.744141 0.024637
12.333014 2.744141 0.052700
12.646837 2.744141 0.046004
12.960659 2.744141 0.034112
13.274483 2.744141 0.060891
13.588306 2.744141 0.047902
13.902128 2.744141 0.047288
14.215952 2.744141 0.044618
14.529776 2.744141 0.012589
14.843597 2.744141 -0.043847
15.157421 2.744141 -0.036598
15.471243 2.744141 0.014394
15.785067 2.744141 0.058475
16.098890 2.744141 0.043551
16.412712 2.744141 -0.021203
16.726536 2.744141 -0.049558
17.040359 2.744141 -0.090898
17.354181 2.744141 -0.430218
17.668005 2.744141 -0.912308
17.981829 2.744141 0.000000
18.295650 2.744141 0.000000
18.609474 2.744141 0.000000
18.923298 2.744141 0.000000
19.237120 2.744141 0.000000
-6.810190 2.430317 0.000000
-6.496367 2.430317 0.000221
-6.182544 2.430317 0.000298
-5.868721 2.430317 0.000254
-5.554898 2.430317 0.000278
-5.241075 2.430317 0.000346
-4.927252 2.430317 0.000325
-4.613429 2.430317 0.000299
-4.299606 2.430317 0.000296
-3.985783 2.430317 0.000273
-3.671960 2.430317 0.000193
-3.358137 2.430317 0.000230
-3.044314 2.430317 0.000352
-2.730491 2.430317 0.000372
-2.416668 2.430317 0.000308
-2.102845 2.430317 0.000277
-1.789022 2.430317 0.000284
-1.475199 2.430317 0.000187
-1.161376 2.430317 0.000042
-0.847553 2.430317 0.000023
-0.533730 2.430317 0.000025
-0.219907 2.430317 0.000179
0.093916 2.430317 0.000296
0.407739 2.430317 0.000296
0.721562 2.430317 0.000131
1.035385 2.430317 0.000002
1.349208 2.430317 -0.000085
1.663032 2.430317 -0.000023
1.976854 2.430317 -0.000052
2.290677 2.430317 0.000044
2.604500 2.430317 0.000156
2.918324 2.430317 0.000084
3.232146 2.430317 -0.000011
3.545969 2.430317 0.000026
3.859793 2.430317 -0.000133
4.173615 2.430317 -0.000439
4.487438 2.430317 -0.000595
4.801261 2.430317 -0.000545
5.115085 2.430317 -0.000594
5.428907 2.430317 -0.000983
5.742730 2.430317 -0.001343
6.056554 2.430317 -0.001977
6.370377 2.430317 -0.002679
6.684199 2.430317 -0.003530
6.998022 2.430317 -0.004194
7.311846 2.430317 -0.004474
7.625669 2.430317 -0.003464
7.939491 2.430317 -0.001890
8.253315 2.430317 -0.000472
8.567138 2.430317 0.001302
8.880960 2.430317 0.003682
9.194784 2.430317 0.008159
9.508606 2.430317 0.013048
9.822430 2.430317 0.025398
10.136253 2.430317 0.032976
10.450075 2.430317 0.044957
10.763899 2.430317 0.052285
11.077723 2.430317 0.044389
11.391544 2.430317 0.038777
11.705368 2.430317 0.050974
12.019190 2.430317 0.048178
12.333014 2.430317 0.047599
12.646837 2.430317 0.022874
12.960659 2.430317 0.036492
13.274483 2.430317 0.038222
13.588306 2.430317 0.025048
13.902128 2.430317 0.044567
14.215952 2.430317 0.041524
14.529776 2.430317 0.036970
14.843597 2.430317 0.002643
15.157421 2.430317 0.031963
15.471243 2.430317 0.033983
15.785067 2.430317 0.028144
16.098890 2.430317 -0.000690
16.412712 2.430317 -0.051547
16.726536 2.430317 -0.048271
17.040359 2.430317 -0.229291
17.354181 2.430317 -0.745835
17.668005 2.430317 0.000000
17.981829 2.430317 0.000000
18.295650 2.430317 0.000000
18.609474 2.430317 0.000000
18.923298 2.430317 0.000000
19.237120 2.430317 0.000000
-6.810190 2.116497 0.000000
-6.496367 2.116497 0.000201
-6.182544 2.116497 0.000268
-5.868721 2.116497 0.000245
-5.554898 2.116497 0.000291
-5.241075 2.116497 0.000317
-4.927252 2.116497 0.000301
-4.613429 2.116497 0.000310
-4.299606 2.116497 0.000337
-3.985783 2.116497 0.000260
-3.671960 2.116497 0.000164
-3.358137 2.116497 0.000179
-3.044314 2.116497 0.000259
-2.730491 2.116497 0.000322
-2.416668 2.116497 0.000264
-2.102845 2.116497 0.000182
-1.789022 2.116497 0.000191
-1.475199 2.116497 0.000142
-1.161376 2.116497 0.000038
-0.847553 2.116497 0.000010
-0.533730 2.116497 -0.000007
-0.219907 2.116497 0.000117
0.093916 2.116497 0.000252
0.407739 2.116497 0.000267
0.721562 2.116497 0.000122
1.035385 2.116497 0.000020
1.349208 2.116497 -0.000188
1.663032 2.116497 -0.000247
1.976854 2.116497 -0.000216
2.290677 2.116497 -0.000018
2.604500 2.116497 0.000054
2.918324 2.116497 -0.000091
3.232146 2.116497 -0.000043
3.545969 2.116497 0.000119
3.859793 2.116497 -0.000022
4.173615 2.116497 -0.000238
4.487438 2.116497 -0.000304
4.801261 2.116497 -0.000362
5.115085 2.116497 -0.000563
5.428907 2.116497 -0.001114
5.742730 2.116497 -0.001578
6.056554 2.116497 -0.002131
6.370377 2.116497 -0.002923
6.684199 2.116497 -0.003577
6.998022 2.116497 -0.004274
7.311846 2.116497 -0.004302
7.625669 2.116497 -0.003574
7.939491 2.116497 -0.000523
8.253315 2.116497 0.000827
8.567138 2.116497 0.002189
8.880960 2.116497 0.003330
9.194784 2.116497 0.009124
9.508606 2.116497 0.013078
9.822430 2.116497 0.026128
10.136253 2.116497 0.037443
10.450075 2.116497 0.042027
10.763899 2.116497 0.039269
11.077723 2.116497 0.046107
11.391544 2.116497 0.048917
11.705368 2.116497 0.052710
12.019190 2.116497 0.052255
12.333014 2.116497 0.042198
12.646837 2.116497 0.013942
12.960659 2.116497 0.046743
13.274483 2.116497 0.046209
13.588306 2.116497 0.042884
13.902128 2.116497 0.016691
14.215952 2.116497 0.021586
14.529776 2.116497 0.039112
14.843597 2.116497 0.068298
15.157421 2.116497 0.071121
15.471243 2.116497 0.069912
15.785067 2.116497 0.020791
16.098890 2.116497 -0.033718
16.412712 2.116497 -0.051670
16.726536 2.116497 -0.088333
17.040359 2.116497 -0.237907
17.354181 2.116497 -1.696505
17.668005 2.116497 0.000000
17.981829 2.116497 0.000000
18.295650 2.116497 0.000000
18.609474 2.116497 0.000000
18.923298 2.116497 0.000000
19.237120 2.116497 0.000000
-6.810190 1.802673 0.000000
-6.496367 1.802673 0.000245
-6.182544 1.802673 0.000319
-5.868721 1.802673 0.000307
-5.554898 1.802673 0.000281
-5.241075 1.802673 0.000292
-4.927252 1.802673 0.000273
-4.613429 1.802673 0.000288
-4.299606 1.802673 0.000331
-3.985783 1.802673 0.000239
-3.671960 1.802673 0.000122
-3.358137 1.802673 0.000166
-3.044314 1.802673 0.000189
-2.730491 1.802673 0.000267
-2.416668 1.802673 0.000235
-2.102845 1.802673 0.000149
-1.789022 1.802673 0.000154
-1.475199 1.802673 0.000136
-1.161376 1.802673 0.000105
-0.847553 1.802673 0.000050
-0.533730 1.802673 0.000052
-0.219907 1.802673 0.000131
0.093916 1.802673 0.000249
0.407739 1.802673 0.000190
0.721562 1.802673 0.000085
1.035385 1.802673 -0.000016
1.349208 1.802673 -0.000253
1.663032 1.802673 -0.000319
1.976854 1.802673 -0.000244
2.290677 1.802673 -0.000034
2.604500 1.802673 -0.000195
2.918324 1.802673 -0.000322
3.232146 1.802673 -0.000066
3.545969 1.802673 0.000148
3.859793 1.802673 -0.000005
4.173615 1.802673 -0.000157
4.487438 1.802673 -0.000084
4.801261 1.802673 -0.000201
5.115085 1.802673 -0.000554
5.428907 1.802673 -0.001171
5.742730 1.802673 -0.001752
6.056554 1.802673 -0.002170
6.370377 1.802673 -0.002625
6.684199 1.802673 -0.003084
6.998022 1.802673 -0.003431
7.311846 1.802673 -0.003732
7.625669 1.802673 -0.003842
7.939491 1.802673 -0.001860
8.253315 1.802673 0.001988
8.567138 1.802673 0.003551
8.880960 1.802673 0.007508
9.194784 1.802673 0.011296
9.508606 1.802673 0.015439
9.822430 1.802673 0.029819
10.136253 1.802673 0.038841
10.450075 1.802673 0.042959
10.763899 1.802673 0.048637
11.077723 1.802673 0.049994
11.391544 1.802673 0.049098
11.705368 1.802673 0.063601
12.019190 1.802673 0.051473
12.333014 1.802673 0.034041
12.646837 1.802673 0.022312
12.960659 1.802673 0.068082
13.274483 1.802673 0.053824
13.588306 1.802673 0.051640
13.902128 1.802673 0.047512
14.215952 1.802673 0.049506
14.529776 1.802673 0.048560
14.843597 1.802673 0.047067
15.157421 1.802673 0.097956
15.471243 1.802673 0.041520
15.785067 1.802673 0.022075
16.098890 1.802673 -0.031842
16.412712 1.802673 -0.135907
16.726536 1.802673 -0.192031
17.040359 1.802673 -0.496842
17.354181 1.802673 0.000000
17.668005 1.802673 0.000000
17.981829 1.802673 0.000000
18.295650 1.802673 0.000000
18.609474 1.802673 0.000000
18.923298 1.802673 0.000000
19.237120 1.802673 0.000000
-6.810190 1.488850 0.000000
-6.496367 1.488850 0.000340
-6.182544 1.488850 0.000449
-5.868721 1.488850 0.000422
-5.554898 1.488850 0.000309
-5.241075 1.488850 0.000253
-4.927252 1.488850 0.000241
-4.613429 1.488850 0.000229
-4.299606 1.488850 0.000318
-3.985783 1.488850 0.000216
-3.671960 1.488850 0.000117
-3.358137 1.488850 0.000153
-3.044314 1.488850 0.000142
-2.730491 1.488850 0.000181
-2.416668 1.488850 0.000186
-2.102845 1.488850 0.000158
-1.789022 1.488850 0.000170
-1.475199 1.488850 0.000128
-1.161376 1.488850 0.000132
-0.847553 1.488850 0.000119
-0.533730 1.488850 0.000109
-0.219907 1.488850 0.000185
0.093916 1.488850 0.000241
0.407739 1.488850 0.000108
0.721562 1.488850 -0.000030
1.035385 1.488850 -0.000082
1.349208 1.488850 -0.000248
1.663032 1.488850 -0.000226
1.976854 1.488850 -0.000190
2.290677 1.488850 -0.000080
2.604500 1.488850 -0.000380
2.918324 1.488850 -0.000477
3.232146 1.488850 -0.000105
3.545969 1.488850 0.000134
3.859793 1.488850 -0.000109
4.173615 1.488850 -0.000210
4.487438 1.488850 -0.000090
4.801261 1.488850 -0.000168
5.115085 1.488850 -0.000618
5.428907 1.488850 -0.001239
5.742730 1.488850 -0.001688
6.056554 1.488850 -0.002109
6.370377 1.488850 -0.002639
6.684199 1.488850 -0.002714
6.998022 1.488850 -0.002961
7.311846 1.488850 -0.003669
7.625669 1.488850 -0.004374
7.939491 1.488850 -0.003623
8.253315 1.488850 0.000747
8.567138 1.488850 0.004064
8.880960 1.488850 0.012311
9.194784 1.488850 0.016257
9.508606 1.488850 0.023532
9.822430 1.488850 0.031459
10.136253 1.488850 0.035635
10.450075 1.488850 0.042617
10.763899 1.488850 0.061684
11.077723 1.488850 0.059121
11.391544 1.488850 0.057834
11.705368 1.488850 0.056201
12.019190 1.488850 0.053131
12.333014 1.488850 0.051325
12.646837 1.488850 0.047633
12.960659 1.488850 0.042438
13.274483 1.488850 0.055357
13.588306 1.488850 0.055835
13.902128 1.488850 0.085873
14.215952 1.488850 0.077893
14.529776 1.488850 0.009608
14.843597 1.488850 -0.004894
15.157421 1.488850 0.022422
15.471243 1.488850 -0.014384
15.785067 1.488850 0.016447
16.098890 1.488850 -0.027647
16.412712 1.488850 -0.148588
16.726536 1.488850 -0.282105
17.040359 1.488850 -0.773336
17.354181 1.488850 0.000000
17.668005 1.488850 0.000000
17.981829 1.488850 0.000000
18.295650 1.488850 0.000000
18.609474 1.488850 0.000000
18.923298 1.488850 0.000000
19.237120 1.488850 0.000000
-6.810190 1.175026 0.000000
-6.496367 1.175026 0.000502
-6.182544 1.175026 0.000572
-5.868721 1.175026 0.000497
-5.554898 1.175026 0.000350
-5.241075 1.175026 0.000250
-4.927252 1.175026 0.000225
-4.613429 1.175026 0.000217
-4.299606 1.175026 0.000284
-3.985783 1.175026 0.000263
-3.671960 1.175026 0.000193
-3.358137 1.175026 0.000189
-3.044314 1.175026 0.000132
-2.730491 1.175026 0.000111
-2.416668 1.175026 0.000138
-2.102845 1.175026 0.000142
-1.789022 1.175026 0.000136
-1.475199 1.175026 0.000114
-1.161376 1.175026 0.000137
-0.847553 1.175026 0.000121
-0.533730 1.175026 0.000092
-0.219907 1.175026 0.000127
0.093916 1.175026 0.000165
0.407739 1.175026 0.000009
0.721562 1.175026 -0.000106
1.035385 1.175026 -0.000121
1.349208 1.175026 -0.000201
1.663032 1.175026 -0.000125
1.976854 1.175026 -0.000187
2.290677 1.175026 -0.000160
2.604500 1.175026 -0.000351
2.918324 1.175026 -0.000347
3.232146 1.175026 -0.000082
3.545969 1.175026 0.000033
3.859793 1.175026 -0.000243
4.173615 1.175026 -0.000335
4.487438 1.175026 -0.000178
4.801261 1.175026 -0.000282
5.115085 1.175026 -0.000738
5.428907 1.175026 -0.001281
5.742730 1.175026 -0.001499
6.056554 1.175026 -0.002054
6.370377 1.175026 -0.002812
6.684199 1.175026 -0.002936
6.998022 1.175026 -0.003315
7.311846 1.175026 -0.004225
7.625669 1.175026 -0.004050
7.939491 1.175026 -0.004086
8.253315 1.175026 -0.000994
8.567138 1.175026 0.003330
8.880960 1.175026 0.014278
9.194784 1.175026 0.020341
9.508606 1.175026 0.029131
9.822430 1.175026 0.032722
10.136253 1.175026 0.038571
10.450075 1.175026 0.046843
10.763899 1.175026 0.057598
11.077723 1.175026 0.069669
11.391544 1.175026 0.059431
11.705368 1.175026 0.051859
12.019190 1.175026 0.033681
12.333014 1.175026 0.053721
12.646837 1.175026 0.036734
12.960659 1.175026 0.060453
13.274483 1.175026 0.047911
13.588306 1.175026 0.047018
13.902128 1.175026 0.066378
14.215952 1.175026 0.070735
14.529776 1.175026 0.014631
14.843597 1.175026 -0.074139
15.157421 1.175026 -0.101248
15.471243 1.175026 -0.084421
15.785067 1.175026 0.024092
16.098890 1.175026 0.022825
16.412712 1.175026 -0.041259
16.726536 1.175026 -0.188214
17.040359 1.175026 -0.817251
17.354181 1.175026 0.000000
17.668005 1.175026 0.000000
17.981829 1.175026 0.000000
18.295650 1.175026 0.000000
18.609474 1.175026 0.000000
18.923298 1.175026 0.000000
19.237120 1.175026 0.000000
-6.810190 0.861202 0.000000
-6.496367 0.861202 0.000606
-6.182544 0.861202 0.000614
-5.868721 0.861202 0.000544
-5.554898 0.861202 0.000390
-5.241075 0.861202 0.000265
-4.927252 0.861202 0.000236
-4.613429 0.861202 0.000221
-4.299606 0.861202 0.000298
-3.985783 0.861202 0.000320
-3.671960 0.861202 0.000253
-3.358137 0.861202 0.000171
-3.044314 0.861202 0.000134
-2.730491 0.861202 0.000078
-2.416668 0.861202 0.000064
-2.102845 0.861202 0.000077
-1.789022 0.861202 0.000056
-1.475199 0.861202 0.000101
-1.161376 0.861202 0.000130
-0.847553 0.861202 0.000075
-0.533730 0.861202 0.000001
-0.219907 0.861202 -0.000042
0.093916 0.861202 -0.000035
0.407739 0.861202 -0.000091
0.721562 0.861202 -0.000103
1.035385 0.861202 -0.000143
1.349208 0.861202 -0.000179
1.663032 0.861202 -0.000108
1.976854 0.861202 -0.000219
2.290677 0.861202 -0.000247
2.604500 0.861202 -0.000230
2.918324 0.861202 -0.000094
3.232146 0.861202 0.000029
3.545969 0.861202 -0.000034
3.859793 0.861202 -0.000305
4.173615 0.861202 -0.000364
4.487438 0.861202 -0.000335
4.801261 0.861202 -0.000450
5.115085 0.861202 -0.000852
5.428907 0.861202 -0.001283
5.742730 0.861202 -0.001413
6.056554 0.861202 -0.001941
6.370377 0.861202 -0.002638
6.684199 0.861202 -0.002999
6.998022 0.861202 -0.003595
7.311846 0.861202 -0.004289
7.625669 0.861202 -0.004285
7.939491 0.861202 -0.003825
8.253315 0.861202 -0.001734
8.567138 0.861202 0.004524
8.880960 0.861202 0.014173
9.194784 0.861202 0.019396
9.508606 0.861202 0.029940
9.822430 0.861202 0.027511
10.136253 0.861202 0.041076
10.450075 0.861202 0.044342
10.763899 0.861202 0.056525
11.077723 0.861202 0.066960
11.391544 0.861202 0.056630
11.705368 0.861202 0.050538
12.019190 0.861202 0.033336
12.333014 0.861202 0.037040
12.646837 0.861202 0.065790
12.960659 0.861202 0.050768
13.274483 0.861202 0.049522
13.588306 0.861202 0.040806
13.902128 0.861202 0.055088
14.215952 0.861202 0.022388
14.529776 0.861202 -0.038644
14.843597 0.861202 -0.155816
15.157421 0.861202 -0.220645
15.471243 0.861202 -0.155054
15.785067 0.861202 0.006027
16.098890 0.861202 0.033167
16.412712 0.861202 0.029357
16.726536 0.861202 0.006827
17.040359 0.861202 0.299792
17.354181 0.861202 0.000000
17.668005 0.861202 0.000000
17.981829 0.861202 0.000000
18.295650 0.861202 0.000000
18.609474 0.861202 0.000000
18.923298 0.861202 0.000000
19.237120 0.861202 0.000000
-6.810190 0.547379 0.000000
-6.496367 0.547379 0.000559
-6.182544 0.547379 0.000541
-5.868721 0.547379 0.000528
-5.554898 0.547379 0.000396
-5.241075 0.547379 0.000258
-4.927252 0.547379 0.000283
-4.613429 0.547379 0.000274
-4.299606 0.547379 0.000306
-3.985783 0.547379 0.000349
-3.671960 0.547379 0.000261
-3.358137 0.547379 0.000150
-3.044314 0.547379 0.000108
-2.730491 0.547379 0.000066
-2.416668 0.547379 0.000026
-2.102845 0.547379 0.000028
-1.789022 0.547379 0.000007
-1.475199 0.547379 0.000110
-1.161376 0.547379 0.000132
-0.847553 0.547379 0.000093
-0.533730 0.547379 -0.000001
-0.219907 0.547379 -0.000181
0.093916 0.547379 -0.000224
0.407739 0.547379 -0.000112
0.721562 0.547379 -0.000029
1.035385 0.547379 -0.000146
1.349208 0.547379 -0.000154
1.663032 0.547379 -0.000052
1.976854 0.547379 -0.000165
2.290677 0.547379 -0.000246
2.604500 0.547379 -0.000141
2.918324 0.547379 0.000044
3.232146 0.547379 0.000039
3.545969 0.547379 -0.000172
3.859793 0.547379 -0.000337
4.173615 0.547379 -0.000327
4.487438 0.547379 -0.000430
4.801261 0.547379 -0.000620
5.115085 0.547379 -0.000951
5.428907 0.547379 -0.001354
5.742730 0.547379 -0.001329
6.056554 0.547379 -0.001712
6.370377 0.547379 -0.002259
6.684199 0.547379 -0.002798
6.998022 0.547379 -0.003686
7.311846 0.547379 -0.004383
7.625669 0.547379 -0.004024
7.939491 0.547379 -0.003637
8.253315 0.547379 -0.000936
8.567138 0.547379 0.005128
8.880960 0.547379 0.012276
9.194784 0.547379 0.017226
9.508606 0.547379 0.025251
9.822430 0.547379 0.029111
10.136253 0.547379 0.038487
10.450075 0.547379 0.047418
10.763899 0.547379 0.060358
11.077723 0.547379 0.068897
11.391544 0.547379 0.060524
11.705368 0.547379 0.063567
12.019190 0.547379 0.051479
12.333014 0.547379 0.060482
12.646837 0.547379 0.067629
12.960659 0.547379 0.049970
13.274483 0.547379 0.041111
13.588306 0.547379 0.023481
13.902128 0.547379 0.008670
14.215952 0.547379 -0.028022
14.529776 0.547379 -0.092806
14.843597 0.547379 -0.212527
15.157421 0.547379 -0.275331
15.471243 0.547379 -0.174693
15.785067 0.547379 -0.071949
16.098890 0.547379 0.039538
16.412712 0.547379 0.111945
16.726536 0.547379 0.235327
17.040359 0.547379 0.000000
17.354181 0.547379 0.000000
17.668005 0.547379 0.000000
17.981829 0.547379 0.000000
18.295650 0.547379 0.000000
18.609474 0.547379 0.000000
18.923298 0.547379 0.000000
19.237120 0.547379 0.000000
-6.810190 0.233559 0.000000
-6.496367 0.233559 0.000433
-6.182544 0.233559 0.000441
-5.868721 0.233559 0.000511
-5.554898 0.233559 0.000366
-5.241075 0.233559 0.000257
-4.927252 0.233559 0.000341
-4.613429 0.233559 0.000325
-4.299606 0.233559 0.000292
-3.985783 0.233559 0.000332
-3.671960 0.233559 0.000266
-3.358137 0.233559 0.000198
-3.044314 0.233559 0.000144
-2.730491 0.233559 0.000113
-2.416668 0.233559 0.000081
-2.102845 0.233559 0.000041
-1.789022 0.233559 0.000016
-1.475199 0.233559 0.000122
-1.161376 0.233559 0.000175
-0.847553 0.233559 0.000160
-0.533730 0.233559 0.000039
-0.219907 0.233559 -0.000167
0.093916 0.233559 -0.000283
0.407739 0.233559 -0.000085
0.721562 0.233559 0.000011
1.035385 0.233559 -0.000167
1.349208 0.233559 -0.000192
1.663032 0.233559 0.000020
1.976854 0.233559 -0.000067
2.290677 0.233559 -0.000227
2.604500 0.233559 -0.000225
2.918324 0.233559 -0.000087
3.232146 0.233559 -0.000148
3.545969 0.233559 -0.000369
3.859793 0.233559 -0.000353
4.173615 0.233559 -0.000229
4.487438 0.233559 -0.000465
4.801261 0.233559 -0.000649
5.115085 0.233559 -0.000920
5.428907 0.233559 -0.001358
5.742730 0.233559 -0.001524
6.056554 0.233559 -0.001765
6.370377 0.233559 -0.002053
6.684199 0.233559 -0.002501
6.998022 0.233559 -0.003595
7.311846 0.233559 -0.004556
7.625669 0.233559 -0.003295
7.939491 0.233559 -0.002159
8.253315 0.233559 -0.000666
8.567138 0.233559 0.005899
8.880960 0.233559 0.014872
9.194784 0.233559 0.019137
9.508606 0.233559 0.016882
9.822430 0.233559 0.023303
10.136253 0.233559 0.036542
10.450075 0.233559 0.049987
10.763899 0.233559 0.060422
11.077723 0.233559 0.064227
11.391544 0.233559 0.064991
11.705368 0.233559 0.067570
12.019190 0.233559 0.068938
12.333014 0.233559 0.059120
12.646837 0.233559 0.064046
12.960659 0.233559 0.041846
13.274483 0.233559 -0.002585
13.588306 0.233559 0.045556
13.902128 0.233559 0.001050
14.215952 0.233559 -0.036278
14.529776 0.233559 -0.112876
14.843597 0.233559 -0.211902
15.157421 0.233559 -0.265826
15.471243 0.233559 -0.178994
15.785067 0.233559 -0.076134
16.098890 0.233559 0.084854
16.412712 0.233559 0.151086
16.726536 0.233559 0.317220
17.040359 0.233559 0.000000
17.354181 0.233559 0.000000
17.668005 0.233559 0.000000
17.981829 0.233559 0.000000
18.295650 0.233559 0.000000
18.609474 0.233559 0.000000
18.923298 0.233559 0.000000
19.237120 0.233559 0.000000
-6.810190 -0.080265 0.000000
-6.496367 -0.080265 0.000419
-6.182544 -0.080265 0.000437
-5.868721 -0.080265 0.000522
-5.554898 -0.080265 0.000350
-5.241075 -0.080265 0.000278
-4.927252 -0.080265 0.000353
-4.613429 -0.080265 0.000357
-4.299606 -0.080265 0.000262
-3.985783 -0.080265 0.000303
-3.671960 -0.080265 0.000314
-3.358137 -0.080265 0.000321
-3.044314 -0.080265 0.000256
-2.730491 -0.080265 0.000220
-2.416668 -0.080265 0.000156
-2.102845 -0.080265 0.000102
-1.789022 -0.080265 0.000076
-1.475199 -0.080265 0.000182
-1.161376 -0.080265 0.000267
-0.847553 -0.080265 0.000235
-0.533730 -0.080265 0.000112
-0.219907 -0.080265 -0.000069
0.093916 -0.080265 -0.000167
0.407739 -0.080265 -0.000072
0.721562 -0.080265 -0.000037
1.035385 -0.080265 -0.000201
1.349208 -0.080265 -0.000170
1.663032 -0.080265 0.000041
1.976854 -0.080265 -0.000035
2.290677 -0.080265 -0.000212
2.604500 -0.080265 -0.000342
2.918324 -0.080265 -0.000272
3.232146 -0.080265 -0.000296
3.545969 -0.080265 -0.000543
3.859793 -0.080265 -0.000398
4.173615 -0.080265 -0.000187
4.487438 -0.080265 -0.000451
4.801261 -0.080265 -0.000695
5.115085 -0.080265 -0.000889
5.428907 -0.080265 -0.001432
5.742730 -0.080265 -0.001848
6.056554 -0.080265 -0.002179
6.370377 -0.080265 -0.002112
6.684199 -0.080265 -0.002446
6.998022 -0.080265 -0.003869
7.311846 -0.080265 -0.004902
7.625669 -0.080265 -0.003133
7.939491 -0.080265 -0.001407
8.253315 -0.080265 0.002337
8.567138 -0.080265 0.008807
8.880960 -0.080265 0.014677
9.194784 -0.080265 0.020340
9.508606 -0.080265 0.018905
9.822430 -0.080265 0.028099
10.136253 -0.080265 0.037543
10.450075 -0.080265 0.053943
10.763899 -0.080265 0.053631
11.077723 -0.080265 0.069014
11.391544 -0.080265 0.073186
11.705368 -0.080265 0.061348
12.019190 -0.080265 0.066692
12.333014 -0.080265 0.070995
12.646837 -0.080265 0.029783
12.960659 -0.080265 0.031223
13.274483 -0.080265 0.015481
13.588306 -0.080265 0.034608
13.902128 -0.080265 0.030841
14.215952 -0.080265 0.003041
14.529776 -0.080265 -0.095382
14.843597 -0.080265 -0.244532
15.157421 -0.080265 -0.275984
15.471243 -0.080265 -0.167821
15.785067 -0.080265 -0.070746
16.098890 -0.080265 0.079415
16.412712 -0.080265 0.211666
16.726536 -0.080265 0.000000
17.040359 -0.080265 0.000000
17.354181 -0.080265 0.000000
17.668005 -0.080265 0.000000
17.981829 -0.080265 0.000000
18.295650 -0.080265 0.000000
18.609474 -0.080265 0.000000
18.923298 -0.080265 0.000000
19.237120 -0.080265 0.000000
-6.810190 -0.394089 0.000000
-6.496367 -0.394089 0.000626
-6.182544 -0.394089 0.000621
-5.868721 -0.394089 0.000621
-5.554898 -0.394089 0.000398
-5.241075 -0.394089 0.000266
-4.927252 -0.394089 0.000338
-4.613429 -0.394089 0.000371
-4.299606 -0.394089 0.000264
-3.985783 -0.394089 0.000318
-3.671960 -0.394089 0.000402
-3.358137 -0.394089 0.000462
-3.044314 -0.394089 0.000356
-2.730491 -0.394089 0.000312
-2.416668 -0.394089 0.000199
-2.102845 -0.394089 0.000192
-1.789022 -0.394089 0.000178
-1.475199 -0.394089 0.000324
-1.161376 -0.394089 0.000391
-0.847553 -0.394089 0.000308
-0.533730 -0.394089 0.000204
-0.219907 -0.394089 0.000060
0.093916 -0.394089 -0.000041
0.407739 -0.394089 -0.000027
0.721562 -0.394089 -0.000003
1.035385 -0.394089 -0.000071
1.349208 -0.394089 -0.000009
1.663032 -0.394089 0.000072
1.976854 -0.394089 -0.000031
2.290677 -0.394089 -0.000210
2.604500 -0.394089 -0.000415
2.918324 -0.394089 -0.000446
3.232146 -0.394089 -0.000453
3.545969 -0.394089 -0.000660
3.859793 -0.394089 -0.000434
4.173615 -0.394089 -0.000299
4.487438 -0.394089 -0.000530
4.801261 -0.394089 -0.000661
5.115085 -0.394089 -0.000869
5.428907 -0.394089 -0.001517
5.742730 -0.394089 -0.002483
6.056554 -0.394089 -0.002916
6.370377 -0.394089 -0.002736
6.684199 -0.394089 -0.003094
6.998022 -0.394089 -0.005108
7.311846 -0.394089 -0.006394
7.625669 -0.394089 -0.003711
7.939491 -0.394089 -0.000469
8.253315 -0.394089 0.003104
8.567138 -0.394089 0.011498
8.880960 -0.394089 0.017114
9.194784 -0.394089 0.029495
9.508606 -0.394089 0.032362
9.822430 -0.394089 0.040488
10.136253 -0.394089 0.045298
10.450075 -0.394089 0.053992
10.763899 -0.394089 0.070203
11.077723 -0.394089 0.074170
11.391544 -0.394089 0.069900
11.705368 -0.394089 0.069771
12.019190 -0.394089 0.051874
12.333014 -0.394089 0.047928
12.646837 -0.394089 0.023805
12.960659 -0.394089 0.030596
13.274483 -0.394089 0.017309
13.588306 -0.394089 0.027952
13.902128 -0.394089 0.019314
14.215952 -0.394089 0.034013
14.529776 -0.394089 -0.126438
14.843597 -0.394089 -0.250484
15.157421 -0.394089 -0.289106
15.471243 -0.394089 -0.211367
15.785067 -0.394089 -0.084115
16.098890 -0.394089 0.053775
16.412712 -0.394089 0.306377
16.726536 -0.394089 0.000000
17.040359 -0.394089 0.000000
17.354181 -0.394089 0.000000
17.668005 -0.394089 0.000000
17.981829 -0.394089 0.000000
18.295650 -0.394089 0.000000
18.609474 -0.394089 0.000000
18.923298 -0.394089 0.000000
19.237120 -0.394089 0.000000
-6.810190 -0.707912 0.000000
-6.496367 -0.707912 0.000663
-6.182544 -0.707912 0.000906
-5.868721 -0.707912 0.000803
-5.554898 -0.707912 0.000509
-5.241075 -0.707912 0.000308
-4.927252 -0.707912 0.000379
-4.613429 -0.707912 0.000413
-4.299606 -0.707912 0.000351
-3.985783 -0.707912 0.000488
-3.671960 -0.707912 0.000561
-3.358137 -0.707912 0.000578
-3.044314 -0.707912 0.000397
-2.730491 -0.707912 0.000359
-2.416668 -0.707912 0.000266
-2.102845 -0.707912 0.000263
-1.789022 -0.707912 0.000253
-1.475199 -0.707912 0.000435
-1.161376 -0.707912 0.000498
-0.847553 -0.707912 0.000404
-0.533730 -0.707912 0.000327
-0.219907 -0.707912 0.000120
0.093916 -0.707912 0.000037
0.407739 -0.707912 -0.000032
0.721562 -0.707912 0.000129
1.035385 -0.707912 0.000230
1.349208 -0.707912 0.000237
1.663032 -0.707912 0.000077
1.976854 -0.707912 -0.000109
2.290677 -0.707912 -0.000310
2.604500 -0.707912 -0.000478
2.918324 -0.707912 -0.000479
3.232146 -0.707912 -0.000509
3.545969 -0.707912 -0.000665
3.859793 -0.707912 -0.000460
4.173615 -0.707912 -0.000523
4.487438 -0.707912 -0.000690
4.801261 -0.707912 -0.000731
5.115085 -0.707912 -0.000928
5.428907 -0.707912 -0.001816
5.742730 -0.707912 -0.003094
6.056554 -0.707912 -0.003775
6.370377 -0.707912 -0.003425
6.684199 -0.707912 -0.004564
6.998022 -0.707912 -0.006706
7.311846 -0.707912 -0.007675
7.625669 -0.707912 -0.006478
7.939491 -0.707912 -0.001378
8.253315 -0.707912 0.002791
8.567138 -0.707912 0.013167
8.880960 -0.707912 0.018149
9.194784 -0.707912 0.036324
9.508606 -0.707912 0.045550
9.822430 -0.707912 0.047000
10.136253 -0.707912 0.050553
10.450075 -0.707912 0.063315
10.763899 -0.707912 0.081239
11.077723 -0.707912 0.097007
11.391544 -0.707912 0.092732
11.705368 -0.707912 0.059000
12.019190 -0.707912 0.030264
12.333014 -0.707912 0.022822
12.646837 -0.707912 0.023855
12.960659 -0.707912 0.041662
13.274483 -0.707912 0.054459
13.588306 -0.707912 0.052859
13.902128 -0.707912 0.047416
14.215952 -0.707912 -0.010666
14.529776 -0.707912 -0.147743
14.843597 -0.707912 -0.276167
15.157421 -0.707912 -0.340010
15.471243 -0.707912 -0.284860
15.785067 -0.707912 -0.145990
16.098890 -0.707912 -0.021937
16.412712 -0.707912 0.415486
16.726536 -0.707912 0.000000
17.040359 -0.707912 0.000000
17.354181 -0.707912 0.000000
17.668005 -0.707912 0.000000
17.981829 -0.707912 0.000000
18.295650 -0.707912 0.000000
18.609474 -0.707912 0.000000
18.923298 -0.707912 0.000000
19.237120 -0.707912 0.000000
-6.810190 -1.021736 0.000000
-6.496367 -1.021736 0.000000
-6.182544 -1.021736 0.000000
-5.868721 -1.021736 0.000000
-5.554898 -1.021736 0.000000
-5.241075 -1.021736 0.000000
-4.927252 -1.021736 0.000000
-4.613429 -1.021736 0.000000
-4.299606 -1.021736 0.000000
-3.985783 -1.021736 0.000000
-3.671960 -1.021736 0.000000
-3.358137 -1.021736 0.000000
-3.044314 -1.021736 0.000000
-2.730491 -1.021736 0.000000
-2.416668 -1.021736 0.000000
-2.102845 -1.021736 0.002090
-1.789022 -1.021736 0.000830
-1.475199 -1.021736 -0.000991
-1.161376 -1.021736 0.000461
-0.847553 -1.021736 -0.000329
-0.533730 -1.021736 0.000093
-0.219907 -1.021736 -0.000370
0.093916 -1.021736 -0.000433
0.407739 -1.021736 -0.000469
0.721562 -1.021736 0.000154
1.035385 -1.021736 0.000592
1.349208 -1.021736 0.000465
1.663032 -1.021736 0.000058
1.976854 -1.021736 -0.000202
2.290677 -1.021736 -0.000525
2.604500 -1.021736 -0.000585
2.918324 -1.021736 -0.000533
3.232146 -1.021736 -0.000442
3.545969 -1.021736 -0.000497
3.859793 -1.021736 -0.000476
4.173615 -1.021736 -0.000879
4.487438 -1.021736 -0.000782
4.801261 -1.021736 -0.000716
5.115085 -1.021736 -0.000968
5.428907 -1.021736 -0.002144
5.742730 -1.021736 -0.003970
6.056554 -1.021736 -0.005000
6.370377 -1.021736 -0.004830
6.684199 -1.021736 -0.005818
6.998022 -1.021736 -0.007931
7.311846 -1.021736 -0.010006
7.625669 -1.021736 -0.008050
7.939491 -1.021736 -0.001294
8.253315 -1.021736 0.006808
8.567138 -1.021736 0.013457
8.880960 -1.021736 0.028029
9.194784 -1.021736 0.039333
9.508606 -1.021736 0.046339
9.822430 -1.021736 0.053885
10.136253 -1.021736 0.060939
10.450075 -1.021736 0.069305
10.763899 -1.021736 0.102411
11.077723 -1.021736 0.114891
11.391544 -1.021736 0.111963
11.705368 -1.021736 0.082330
12.019190 -1.021736 0.045565
12.333014 -1.021736 0.021837
12.646837 -1.021736 0.026248
12.960659 -1.021736 0.078705
13.274483 -1.021736 0.015276
13.588306 -1.021736 0.062145
13.902128 -1.021736 0.025605
14.215952 -1.021736 -0.078796
14.529776 -1.021736 -0.162158
14.843597 -1.021736 -0.261289
15.157421 -1.021736 -0.335174
15.471243 -1.021736 -0.318331
15.785067 -1.021736 -0.193148
16.098890 -1.021736 0.067802
16.412712 -1.021736 0.000000
16.726536 -1.021736 0.000000
17.040359 -1.021736 0.000000
17.354181 -1.021736 0.000000
17.668005 -1.021736 0.000000
17.981829 -1.021736 0.000000
18.295650 -1.021736 0.000000
18.609474 -1.021736 0.000000
18.923298 -1.021736 0.000000
19.237120 -1.021736 0.000000
-6.810190 -1.335556 0.000000
-6.496367 -1.335556 0.000000
-6.182544 -1.335556 0.000000
-5.868721 -1.335556 0.000000
-5.554898 -1.335556 0.000000
-5.241075 -1.335556 0.000000
-4.927252 -1.335556 0.000000
-4.613429 -1.335556 0.000000
-4.299606 -1.335556 0.000000
-3.985783 -1.335556 0.000000
-3.671960 -1.335556 0.000000
-3.358137 -1.335556 0.000000
-3.044314 -1.335556 0.000000
-2.730491 -1.335556 0.000000
-2.416668 -1.335556 0.000000
-2.102845 -1.335556 0.000000
-1.789022 -1.335556 0.000000
-1.475199 -1.335556 0.000000
-1.161376 -1.335556 0.000000
-0.847553 -1.335556 0.000000
-0.533730 -1.335556 0.000000
-0.219907 -1.335556 0.000000
0.093916 -1.335556 0.000000
0.407739 -1.335556 0.000000
0.721562 -1.335556 0.000000
1.035385 -1.335556 0.000000
1.349208 -1.335556 0.000000
1.663032 -1.335556 0.000000
1.976854 -1.335556 0.000000
2.290677 -1.335556 0.000000
2.604500 -1.335556 0.000000
2.918324 -1.335556 0.000000
3.232146 -1.335556 0.000000
3.545969 -1.335556 0.000000
3.859793 -1.335556 0.000000
4.173615 -1.335556 0.000000
4.487438 -1.335556 0.000000
4.801261 -1.335556 0.000000
5.115085 -1.335556 0.000000
5.428907 -1.335556 0.000000
5.742730 -1.335556 0.000000
6.056554 -1.335556 0.000000
6.370377 -1.335556 0.000000
6.684199 -1.335556 0.000000
6.998022 -1.335556 0.000000
7.311846 -1.335556 0.000000
7.625669 -1.335556 0.000000
7.939491 -1.335556 0.000000
8.253315 -1.335556 -1.014383
8.567138 -1.335556 -1.187990
8.880960 -1.335556 -0.270785
9.194784 -1.335556 -0.507614
9.508606 -1.335556 -0.177138
9.822430 -1.335556 -0.122176
10.136253 -1.335556 -0.120087
10.450075 -1.335556 -0.130088
10.763899 -1.335556 -0.049738
11.077723 -1.335556 0.028063
11.391544 -1.335556 0.040193
11.705368 -1.335556 0.041084
12.019190 -1.335556 0.006993
12.333014 -1.335556 0.005535
12.646837 -1.335556 0.063116
12.960659 -1.335556 0.089466
13.274483 -1.335556 0.117512
13.588306 -1.335556 0.069321
13.902128 -1.335556 -0.044035
14.215952 -1.335556 -0.085101
14.529776 -1.335556 -0.105178
14.843597 -1.335556 -0.237645
15.157421 -1.335556 -0.286232
15.471243 -1.335556 -0.274393
15.785067 -1.335556 -0.166960
16.098890 -1.335556 0.338228
16.412712 -1.335556 0.000000
16.726536 -1.335556 0.000000
17.040359 -1.335556 0.000000
17.354181 -1.335556 0.000000
17.668005 -1.335556 0.000000
17.981829 -1.335556 0.000000
18.295650 -1.335556 0.000000
18.609474 -1.335556 0.000000
18.923298 -1.335556 0.000000
19.237120 -1.335556 0.000000
-6.810190 -1.649380 0.000000
-6.496367 -1.649380 0.000000
-6.182544 -1.649380 0.000000
-5.868721 -1.649380 0.000000
-5.554898 -1.649380 0.000000
-5.241075 -1.649380 0.000000
-4.927252 -1.649380 0.000000
-4.613429 -1.649380 0.000000
-4.299606 -1.649380 0.000000
-3.985783 -1.649380 0.000000
-3.671960 -1.649380 0.000000
-3.358137 -1.649380 0.000000
-3.044314 -1.649380 0.000000
-2.730491 -1.649380 0.000000
-2.416668 -1.649380 0.000000
-2.102845 -1.649380 0.000000
-1.789022 -1.649380 0.000000
-1.475199 -1.649380 0.000000
-1.161376 -1.649380 0.000000
-0.847553 -1.649380 0.000000
-0.533730 -1.649380 0.000000
-0.219907 -1.649380 0.000000
0.093916 -1.649380 0.000000
0.407739 -1.649380 0.000000
0.721562 -1.649380 0.000000
1.035385 -1.649380 0.000000
1.349208 -1.649380 0.000000
1.663032 -1.649380 0.000000
1.976854 -1.649380 0.000000
2.290677 -1.649380 0.000000
2.604500 -1.649380 0.000000
2.918324 -1.649380 0.000000
3.232146 -1.649380 0.000000
3.545969 -1.649380 0.000000
3.859793 -1.649380 0.000000
4.173615 -1.649380 0.000000
4.487438 -1.649380 0.000000
4.801261 -1.649380 0.000000
5.115085 -1.649380 0.000000
5.428907 -1.649380 0.000000
5.742730 -1.649380 0.000000
6.056554 -1.649380 0.000000
6.370377 -1.649380 0.000000
6.684199 -1.649380 0.000000
6.998022 -1.649380 0.000000
7.311846 -1.649380 0.000000
7.625669 -1.649380 0.000000
7.939491 -1.649380 0.000000
8.253315 -1.649380 0.000000
8.567138 -1.649380 0.000000
8.880960 -1.649380 0.000000
9.194784 -1.649380 0.000000
9.508606 -1.649380 0.000000
9.822430 -1.649380 0.000000
10.136253 -1.649380 0.000000
10.450075 -1.649380 0.000000
10.763899 -1.649380 -1.558709
11.077723 -1.649380 0.190975
11.391544 -1.649380 -2.019154
11.705368 -1.649380 -1.163291
12.019190 -1.649380 -0.969898
12.333014 -1.649380 -0.126512
12.646837 -1.649380 -0.190829
12.960659 -1.649380 -0.202818
13.274483 -1.649380 -0.195639
13.588306 -1.649380 -0.050307
13.902128 -1.649380 -0.118692
14.215952 -1.649380 -0.221577
14.529776 -1.649380 -0.154414
14.843597 -1.649380 -0.079732
15.157421 -1.649380 -0.199498
15.471243 -1.649380 -0.143373
15.785067 -1.649380 -0.120926
16.098890 -1.649380 -0.399878
16.412712 -1.649380 0.000000
16.726536 -1.649380 0.000000
17.040359 -1.649380 0.000000
17.354181 -1.649380 0.000000
17.668005 -1.649380 0.000000
17.981829 -1.649380 0.000000
18.295650 -1.649380 0.000000
18.609474 -1.649380 0.000000
18.923298 -1.649380 0.000000
19.237120 -1.649380 0.000000
-6.810190 -1.963203 0.000000
-6.496367 -1.963203 0.000000
-6.182544 -1.963203 0.000000
-5.868721 -1.963203 0.000000
-5.554898 -1.963203 0.000000
-5.241075 -1.963203 0.000000
-4.927252 -1.963203 0.000000
-4.613429 -1.963203 0.000000
-4.299606 -1.963203 0.000000
-3.985783 -1.963203 0.000000
-3.671960 -1.963203 0.000000
-3.358137 -1.963203 0.000000
-3.044314 -1.963203 0.000000
-2.730491 -1.963203 0.000000
-2.416668 -1.963203 0.000000
-2.102845 -1.963203 0.000000
-1.789022 -1.963203 0.000000
-1.475199 -1.963203 0.000000
-1.161376 -1.963203 0.000000
-0.847553 -1.963203 0.000000
-0.533730 -1.963203 0.000000
-0.219907 -1.963203 0.000000
0.093916 -1.963203 0.000000
0.407739 -1.963203 0.000000
0.721562 -1.963203 0.000000
1.035385 -1.963203 0.000000
1.349208 -1.963203 0.000000
1.663032 -1.963203 0.000000
1.976854 -1.963203 0.000000
2.290677 -1.963203 0.000000
2.604500 -1.963203 0.000000
2.918324 -1.963203 0.000000
3.232146 -1.963203 0.000000
3.545969 -1.963203 0.000000
3.859793 -1.963203 0.000000
4.173615 -1.963203 0.000000
4.487438 -1.963203 0.000000
4.801261 -1.963203 0.000000
5.115085 -1.963203 0.000000
5.428907 -1.963203 0.000000
5.742730 -1.963203 0.000000
6.056554 -1.963203 0.000000
6.370377 -1.963203 0.000000
6.684199 -1.963203 0.000000
6.998022 -1.963203 0.000000
7.311846 -1.963203 0.000000
7.625669 -1.963203 0.000000
7.939491 -1.963203 0.000000
8.253315 -1.963203 0.000000
8.567138 -1.963203 0.000000
8.880960 -1.963203 0.000000
9.194784 -1.963203 0.000000
9.508606 -1.963203 0.000000
9.822430 -1.963203 0.000000
10.136253 -1.963203 0.000000
10.450075 -1.963203 0.000000
10.763899 -1.963203 0.000000
11.077723 -1.963203 0.000000
11.391544 -1.963203 0.000000
11.705368 -1.963203 0.000000
12.019190 -1.963203 0.000000
12.333014 -1.963203 0.000000
12.646837 -1.963203 0.000000
12.960659 -1.963203 0.000000
13.274483 -1.963203 3.271204
13.588306 -1.963203 -4.812470
13.902128 -1.963203 -1.391170
14.215952 -1.963203 0.417435
14.529776 -1.963203 -0.521678
14.843597 -1.963203 -1.853006
15.157421 -1.963203 -1.150534
15.471243 -1.963203 -0.912123
15.785067 -1.963203 -0.451342
16.098890 -1.963203 0.000000
16.412712 -1.963203 0.000000
16.726536 -1.963203 0.000000
17.040359 -1.963203 0.000000
17.354181 -1.963203 0.000000
17.668005 -1.963203 0.000000
17.981829 -1.963203 0.000000
18.295650 -1.963203 0.000000
18.609474 -1.963203 0.000000
18.923298 -1.963203 0.000000
19.237120 -1.963203 0.000000
-6.810190 -2.277027 0.000000
-6.496367 -2.277027 0.000000
-6.182544 -2.277027 0.000000
-5.868721 -2.277027 0.000000
-5.554898 -2.277027 0.000000
-5.241075 -2.277027 0.000000
-4.927252 -2.277027 0.000000
-4.613429 -2.277027 0.000000
-4.299606 -2.277027 0.000000
-3.985783 -2.277027 0.000000
-3.671960 -2.277027 0.000000
-3.358137 -2.277027 0.000000
-3.044314 -2.277027 0.000000
-2.730491 -2.277027 0.000000
-2.416668 -2.277027 0.000000
-2.102845 -2.277027 0.000000
-1.789022 -2.277027 0.000000
-1.475199 -2.277027 0.000000
-1.161376 -2.277027 0.000000
-0.847553 -2.277027 0.000000
-0.533730 -2.277027 0.000000
-0.219907 -2.277027 0.000000
0.093916 -2.277027 0.000000
0.407739 -2.277027 0.000000
0.721562 -2.277027 0.000000
1.035385 -2.277027 0.000000
1.349208 -2.277027 0.000000
1.663032 -2.277027 0.000000
1.976854 -2.277027 0.000000
2.290677 -2.277027 0.000000
2.604500 -2.277027 0.000000
2.918324 -2.277027 0.000000
3.232146 -2.277027 0.000000
3.545969 -2.277027 0.000000
3.859793 -2.277027 0.000000
4.173615 -2.277027 0.000000
4.487438 -2.277027 0.000000
4.801261 -2.277027 0.000000
5.115085 -2.277027 0.000000
5.428907 -2.277027 0.000000
5.742730 -2.277027 0.000000
6.056554 -2.277027 0.000000
6.370377 -2.277027 0.000000
6.684199 -2.277027 0.000000
6.998022 -2.277027 0.000000
7.311846 -2.277027 0.000000
7.625669 -2.277027 0.000000
7.939491 -2.277027 0.000000
8.253315 -2.277027 0.000000
8.567138 -2.277027 0.000000
8.880960 -2.277027 0.000000
9.194784 -2.277027 0.000000
9.508606 -2.277027 0.000000
9.822430 -2.277027 0.000000
10.136253 -2.277027 0.000000
10.450075 -2.277027 0.000000
10.763899 -2.277027 0.000000
11.077723 -2.277027 0.000000
11.391544 -2.277027 0.000000
11.705368 -2.277027 0.000000
12.019190 -2.277027 0.000000
12.333014 -2.277027 0.000000
12.646837 -2.277027 0.000000
12.960659 -2.277027 0.000000
13.274483 -2.277027 0.000000
13.588306 -2.277027 0.000000
13.902128 -2.277027 0.000000
14.215952 -2.277027 0.000000
14.529776 -2.277027 0.000000
14.843597 -2.277027 0.000000
15.157421 -2.277027 0.000000
15.471243 -2.277027 0.000000
15.785067 -2.277027 0.000000
16.098890 -2.277027 0.000000
16.412712 -2.277027 0.000000
16.726536 -2.277027 0.000000
17.040359 -2.277027 0.000000
17.354181 -2.277027 0.000000
17.668005 -2.277027 0.000000
17.981829 -2.277027 0.000000
18.295650 -2.277027 0.000000
18.609474 -2.277027 0.000000
18.923298 -2.277027 0.000000
19.237120 -2.277027 0.000000
