TITLE = "B00009"
VARIABLES = "x", "y", "Reynold stress XY"
ZONE T="Frame 1" I=84, J=163, F=POINT
-6.810190 48.562302 0.000000
-6.496367 48.562302 0.000000
-6.182544 48.562302 0.000000
-5.868721 48.562302 0.000000
-5.554898 48.562302 0.000000
-5.241075 48.562302 0.000000
-4.927252 48.562302 0.000000
-4.613429 48.562302 0.000000
-4.299606 48.562302 0.000000
-3.985783 48.562302 0.000000
-3.671960 48.562302 0.000000
-3.358137 48.562302 0.000000
-3.044314 48.562302 0.000000
-2.730491 48.562302 0.000000
-2.416668 48.562302 0.000000
-2.102845 48.562302 0.000000
-1.789022 48.562302 0.000000
-1.475199 48.562302 0.000000
-1.161376 48.562302 0.000000
-0.847553 48.562302 0.000000
-0.533730 48.562302 0.000000
-0.219907 48.562302 0.000000
0.093916 48.562302 0.000000
0.407739 48.562302 0.000000
0.721562 48.562302 0.000000
1.035385 48.562302 0.000000
1.349208 48.562302 0.000000
1.663032 48.562302 0.000000
1.976854 48.562302 0.000000
2.290677 48.562302 0.000000
2.604500 48.562302 0.000000
2.918324 48.562302 0.000000
3.232146 48.562302 0.000000
3.545969 48.562302 0.000000
3.859793 48.562302 0.000000
4.173615 48.562302 0.000000
4.487438 48.562302 0.000000
4.801261 48.562302 0.000000
5.115085 48.562302 0.000000
5.428907 48.562302 0.000000
5.742730 48.562302 0.000000
6.056554 48.562302 0.000000
6.370377 48.562302 0.000000
6.684199 48.562302 0.000000
6.998022 48.562302 0.000000
7.311846 48.562302 0.000000
7.625669 48.562302 0.000000
7.939491 48.562302 0.000000
8.253315 48.562302 0.000000
8.567138 48.562302 0.000000
8.880960 48.562302 0.000000
9.194784 48.562302 0.000000
9.508606 48.562302 0.000000
9.822430 48.562302 0.000000
10.136253 48.562302 0.000000
10.450075 48.562302 0.000000
10.763899 48.562302 0.000000
11.077723 48.562302 0.000000
11.391544 48.562302 0.000000
11.705368 48.562302 0.000000
12.019190 48.562302 0.000000
12.333014 48.562302 0.000000
12.646837 48.562302 0.000000
12.960659 48.562302 0.000000
13.274483 48.562302 0.000000
13.588306 48.562302 0.000000
13.902128 48.562302 0.000000
14.215952 48.562302 0.000000
14.529776 48.562302 0.000000
14.843597 48.562302 0.000000
15.157421 48.562302 0.000000
15.471243 48.562302 0.000000
15.785067 48.562302 0.000000
16.098890 48.562302 0.000000
16.412712 48.562302 0.000000
16.726536 48.562302 0.000000
17.040359 48.562302 0.000000
17.354181 48.562302 0.000000
17.668005 48.562302 0.000000
17.981829 48.562302 0.000000
18.295650 48.562302 0.000000
18.609474 48.562302 0.000000
18.923298 48.562302 0.000000
19.237120 48.562302 0.000000
-6.810190 48.248478 0.000000
-6.496367 48.248478 0.000000
-6.182544 48.248478 0.000000
-5.868721 48.248478 0.000000
-5.554898 48.248478 0.000000
-5.241075 48.248478 0.000000
-4.927252 48.248478 0.000000
-4.613429 48.248478 0.000000
-4.299606 48.248478 0.000000
-3.985783 48.248478 0.000000
-3.671960 48.248478 0.000000
-3.358137 48.248478 0.000000
-3.044314 48.248478 0.000000
-2.730491 48.248478 0.000000
-2.416668 48.248478 0.000000
-2.102845 48.248478 0.000000
-1.789022 48.248478 0.000000
-1.475199 48.248478 0.000000
-1.161376 48.248478 0.000000
-0.847553 48.248478 0.000000
-0.533730 48.248478 0.000000
-0.219907 48.248478 0.000000
0.093916 48.248478 0.000000
0.407739 48.248478 0.000000
0.721562 48.248478 0.000000
1.035385 48.248478 0.000000
1.349208 48.248478 0.000000
1.663032 48.248478 0.000000
1.976854 48.248478 0.000000
2.290677 48.248478 0.000000
2.604500 48.248478 0.000000
2.918324 48.248478 0.000000
3.232146 48.248478 0.000000
3.545969 48.248478 0.000000
3.859793 48.248478 0.000000
4.173615 48.248478 0.000000
4.487438 48.248478 0.000000
4.801261 48.248478 0.000000
5.115085 48.248478 0.000000
5.428907 48.248478 0.000000
5.742730 48.248478 0.000000
6.056554 48.248478 0.000000
6.370377 48.248478 0.000000
6.684199 48.248478 0.000000
6.998022 48.248478 0.000000
7.311846 48.248478 0.000000
7.625669 48.248478 0.000000
7.939491 48.248478 0.000000
8.253315 48.248478 0.000000
8.567138 48.248478 0.000000
8.880960 48.248478 0.000000
9.194784 48.248478 0.000000
9.508606 48.248478 0.000000
9.822430 48.248478 0.000000
10.136253 48.248478 0.000000
10.450075 48.248478 0.000000
10.763899 48.248478 0.000000
11.077723 48.248478 0.000000
11.391544 48.248478 0.000000
11.705368 48.248478 0.000000
12.019190 48.248478 0.000000
12.333014 48.248478 0.000000
12.646837 48.248478 0.000000
12.960659 48.248478 0.000000
13.274483 48.248478 0.000000
13.588306 48.248478 0.000000
13.902128 48.248478 0.000000
14.215952 48.248478 0.000000
14.529776 48.248478 0.000000
14.843597 48.248478 0.000000
15.157421 48.248478 0.000000
15.471243 48.248478 0.000000
15.785067 48.248478 0.000000
16.098890 48.248478 0.000000
16.412712 48.248478 0.000000
16.726536 48.248478 0.000000
17.040359 48.248478 0.000000
17.354181 48.248478 0.000000
17.668005 48.248478 0.000000
17.981829 48.248478 0.000000
18.295650 48.248478 0.000000
18.609474 48.248478 0.000000
18.923298 48.248478 0.000000
19.237120 48.248478 0.000000
-6.810190 47.934654 0.000000
-6.496367 47.934654 0.000000
-6.182544 47.934654 0.000000
-5.868721 47.934654 0.000000
-5.554898 47.934654 0.000000
-5.241075 47.934654 0.000000
-4.927252 47.934654 0.000000
-4.613429 47.934654 0.000000
-4.299606 47.934654 0.000000
-3.985783 47.934654 0.000000
-3.671960 47.934654 0.000000
-3.358137 47.934654 0.000000
-3.044314 47.934654 0.000000
-2.730491 47.934654 0.000000
-2.416668 47.934654 0.000000
-2.102845 47.934654 0.000000
-1.789022 47.934654 0.000000
-1.475199 47.934654 0.000000
-1.161376 47.934654 0.000000
-0.847553 47.934654 0.000000
-0.533730 47.934654 0.000000
-0.219907 47.934654 0.000000
0.093916 47.934654 0.000000
0.407739 47.934654 0.000000
0.721562 47.934654 0.000000
1.035385 47.934654 0.000000
1.349208 47.934654 0.000000
1.663032 47.934654 0.000000
1.976854 47.934654 0.000000
2.290677 47.934654 0.000000
2.604500 47.934654 0.000000
2.918324 47.934654 0.000000
3.232146 47.934654 0.000000
3.545969 47.934654 0.000000
3.859793 47.934654 0.000000
4.173615 47.934654 0.000000
4.487438 47.934654 0.000000
4.801261 47.934654 0.000000
5.115085 47.934654 0.000000
5.428907 47.934654 0.000000
5.742730 47.934654 0.000000
6.056554 47.934654 0.000000
6.370377 47.934654 0.000000
6.684199 47.934654 0.000000
6.998022 47.934654 0.000000
7.311846 47.934654 0.000000
7.625669 47.934654 0.000000
7.939491 47.934654 0.000000
8.253315 47.934654 0.000000
8.567138 47.934654 0.000000
8.880960 47.934654 0.000000
9.194784 47.934654 0.000000
9.508606 47.934654 0.000000
9.822430 47.934654 0.000000
10.136253 47.934654 0.565790
10.450075 47.934654 0.192318
10.763899 47.934654 -0.891247
11.077723 47.934654 -0.450991
11.391544 47.934654 -0.359655
11.705368 47.934654 -0.119363
12.019190 47.934654 0.024497
12.333014 47.934654 0.226596
12.646837 47.934654 0.212782
12.960659 47.934654 0.039326
13.274483 47.934654 0.060301
13.588306 47.934654 0.187584
13.902128 47.934654 0.145316
14.215952 47.934654 0.155613
14.529776 47.934654 0.119545
14.843597 47.934654 0.122503
15.157421 47.934654 0.135112
15.471243 47.934654 0.086884
15.785067 47.934654 0.089469
16.098890 47.934654 0.076134
16.412712 47.934654 0.053435
16.726536 47.934654 0.052149
17.040359 47.934654 0.009439
17.354181 47.934654 0.009954
17.668005 47.934654 -0.011111
17.981829 47.934654 -0.000634
18.295650 47.934654 -0.007906
18.609474 47.934654 -0.009177
18.923298 47.934654 -0.023076
19.237120 47.934654 0.000000
-6.810190 47.620834 0.000000
-6.496367 47.620834 0.000000
-6.182544 47.620834 -0.000742
-5.868721 47.620834 -0.000722
-5.554898 47.620834 -0.000705
-5.241075 47.620834 -0.000536
-4.927252 47.620834 -0.000505
-4.613429 47.620834 -0.000467
-4.299606 47.620834 -0.000539
-3.985783 47.620834 -0.000429
-3.671960 47.620834 0.000034
-3.358137 47.620834 0.000343
-3.044314 47.620834 0.000423
-2.730491 47.620834 0.000274
-2.416668 47.620834 0.000017
-2.102845 47.620834 -0.000292
-1.789022 47.620834 -0.000372
-1.475199 47.620834 -0.000102
-1.161376 47.620834 0.000202
-0.847553 47.620834 -0.000147
-0.533730 47.620834 -0.000563
-0.219907 47.620834 -0.000645
0.093916 47.620834 -0.000551
0.407739 47.620834 -0.000417
0.721562 47.620834 -0.000367
1.035385 47.620834 -0.000353
1.349208 47.620834 -0.000408
1.663032 47.620834 -0.000696
1.976854 47.620834 -0.000775
2.290677 47.620834 -0.000766
2.604500 47.620834 -0.000807
2.918324 47.620834 -0.000727
3.232146 47.620834 -0.000881
3.545969 47.620834 -0.000844
3.859793 47.620834 -0.000800
4.173615 47.620834 -0.000478
4.487438 47.620834 -0.000296
4.801261 47.620834 -0.000334
5.115085 47.620834 -0.000386
5.428907 47.620834 -0.000094
5.742730 47.620834 -0.000061
6.056554 47.620834 0.000106
6.370377 47.620834 0.000811
6.684199 47.620834 0.001631
6.998022 47.620834 0.002370
7.311846 47.620834 0.003812
7.625669 47.620834 0.006238
7.939491 47.620834 0.011042
8.253315 47.620834 0.015602
8.567138 47.620834 0.023022
8.880960 47.620834 0.038721
9.194784 47.620834 0.063923
9.508606 47.620834 0.107995
9.822430 47.620834 0.166266
10.136253 47.620834 0.242459
10.450075 47.620834 0.336265
10.763899 47.620834 0.434111
11.077723 47.620834 0.533383
11.391544 47.620834 0.656983
11.705368 47.620834 0.783944
12.019190 47.620834 0.888293
12.333014 47.620834 0.975753
12.646837 47.620834 1.050530
12.960659 47.620834 1.108469
13.274483 47.620834 1.159294
13.588306 47.620834 1.194491
13.902128 47.620834 1.218176
14.215952 47.620834 1.218375
14.529776 47.620834 1.199992
14.843597 47.620834 1.161066
15.157421 47.620834 1.109104
15.471243 47.620834 1.013696
15.785067 47.620834 0.901756
16.098890 47.620834 0.782777
16.412712 47.620834 0.656606
16.726536 47.620834 0.515383
17.040359 47.620834 0.360104
17.354181 47.620834 0.182394
17.668005 47.620834 0.017235
17.981829 47.620834 -0.144504
18.295650 47.620834 -0.286487
18.609474 47.620834 -0.403479
18.923298 47.620834 -0.475599
19.237120 47.620834 0.000000
-6.810190 47.307011 0.000000
-6.496367 47.307011 0.000000
-6.182544 47.307011 -0.000681
-5.868721 47.307011 -0.000739
-5.554898 47.307011 -0.000669
-5.241075 47.307011 -0.000493
-4.927252 47.307011 -0.000446
-4.613429 47.307011 -0.000502
-4.299606 47.307011 -0.000620
-3.985783 47.307011 -0.000563
-3.671960 47.307011 -0.000246
-3.358137 47.307011 0.000124
-3.044314 47.307011 0.000255
-2.730491 47.307011 0.000141
-2.416668 47.307011 -0.000077
-2.102845 47.307011 -0.000240
-1.789022 47.307011 -0.000215
-1.475199 47.307011 -0.000049
-1.161376 47.307011 0.000192
-0.847553 47.307011 -0.000072
-0.533730 47.307011 -0.000437
-0.219907 47.307011 -0.000492
0.093916 47.307011 -0.000437
0.407739 47.307011 -0.000483
0.721562 47.307011 -0.000408
1.035385 47.307011 -0.000423
1.349208 47.307011 -0.000489
1.663032 47.307011 -0.000790
1.976854 47.307011 -0.000880
2.290677 47.307011 -0.000822
2.604500 47.307011 -0.000826
2.918324 47.307011 -0.000662
3.232146 47.307011 -0.000781
3.545969 47.307011 -0.000805
3.859793 47.307011 -0.000832
4.173615 47.307011 -0.000540
4.487438 47.307011 -0.000375
4.801261 47.307011 -0.000419
5.115085 47.307011 -0.000505
5.428907 47.307011 -0.000426
5.742730 47.307011 -0.000236
6.056554 47.307011 -0.000103
6.370377 47.307011 0.000279
6.684199 47.307011 0.000980
6.998022 47.307011 0.001622
7.311846 47.307011 0.002513
7.625669 47.307011 0.005149
7.939491 47.307011 0.009443
8.253315 47.307011 0.015295
8.567138 47.307011 0.024357
8.880960 47.307011 0.038295
9.194784 47.307011 0.063517
9.508606 47.307011 0.103253
9.822430 47.307011 0.155993
10.136253 47.307011 0.237392
10.450075 47.307011 0.330402
10.763899 47.307011 0.435310
11.077723 47.307011 0.547926
11.391544 47.307011 0.671785
11.705368 47.307011 0.799041
12.019190 47.307011 0.914890
12.333014 47.307011 1.007777
12.646837 47.307011 1.081270
12.960659 47.307011 1.141073
13.274483 47.307011 1.181320
13.588306 47.307011 1.210556
13.902128 47.307011 1.227851
14.215952 47.307011 1.218329
14.529776 47.307011 1.204196
14.843597 47.307011 1.170670
15.157421 47.307011 1.104651
15.471243 47.307011 1.019057
15.785067 47.307011 0.905028
16.098890 47.307011 0.781513
16.412712 47.307011 0.643126
16.726536 47.307011 0.511927
17.040359 47.307011 0.352915
17.354181 47.307011 0.183393
17.668005 47.307011 0.008178
17.981829 47.307011 -0.154317
18.295650 47.307011 -0.308304
18.609474 47.307011 -0.435010
18.923298 47.307011 -0.524915
19.237120 47.307011 0.000000
-6.810190 46.993187 0.000000
-6.496367 46.993187 0.000000
-6.182544 46.993187 -0.000625
-5.868721 46.993187 -0.000627
-5.554898 46.993187 -0.000569
-5.241075 46.993187 -0.000420
-4.927252 46.993187 -0.000467
-4.613429 46.993187 -0.000577
-4.299606 46.993187 -0.000726
-3.985783 46.993187 -0.000717
-3.671960 46.993187 -0.000438
-3.358137 46.993187 -0.000074
-3.044314 46.993187 0.000112
-2.730491 46.993187 0.000032
-2.416668 46.993187 -0.000152
-2.102845 46.993187 -0.000154
-1.789022 46.993187 -0.000081
-1.475199 46.993187 0.000007
-1.161376 46.993187 0.000148
-0.847553 46.993187 -0.000005
-0.533730 46.993187 -0.000329
-0.219907 46.993187 -0.000340
0.093916 46.993187 -0.000351
0.407739 46.993187 -0.000542
0.721562 46.993187 -0.000485
1.035385 46.993187 -0.000445
1.349208 46.993187 -0.000508
1.663032 46.993187 -0.000795
1.976854 46.993187 -0.000887
2.290677 46.993187 -0.000831
2.604500 46.993187 -0.000756
2.918324 46.993187 -0.000590
3.232146 46.993187 -0.000661
3.545969 46.993187 -0.000723
3.859793 46.993187 -0.000749
4.173615 46.993187 -0.000596
4.487438 46.993187 -0.000504
4.801261 46.993187 -0.000529
5.115085 46.993187 -0.000633
5.428907 46.993187 -0.000730
5.742730 46.993187 -0.000473
6.056554 46.993187 -0.000302
6.370377 46.993187 0.000057
6.684199 46.993187 0.000654
6.998022 46.993187 0.001389
7.311846 46.993187 0.002152
7.625669 46.993187 0.004472
7.939491 46.993187 0.007696
8.253315 46.993187 0.013294
8.567138 46.993187 0.022350
8.880960 46.993187 0.036641
9.194784 46.993187 0.061700
9.508606 46.993187 0.098014
9.822430 46.993187 0.150626
10.136253 46.993187 0.224334
10.450075 46.993187 0.312993
10.763899 46.993187 0.419848
11.077723 46.993187 0.532799
11.391544 46.993187 0.660133
11.705368 46.993187 0.783590
12.019190 46.993187 0.905356
12.333014 46.993187 0.982605
12.646837 46.993187 1.065987
12.960659 46.993187 1.120699
13.274483 46.993187 1.162980
13.588306 46.993187 1.195239
13.902128 46.993187 1.205607
14.215952 46.993187 1.202086
14.529776 46.993187 1.186220
14.843597 46.993187 1.148343
15.157421 46.993187 1.087825
15.471243 46.993187 1.004395
15.785067 46.993187 0.903282
16.098890 46.993187 0.777292
16.412712 46.993187 0.647710
16.726536 46.993187 0.509990
17.040359 46.993187 0.350544
17.354181 46.993187 0.178484
17.668005 46.993187 0.010121
17.981829 46.993187 -0.152580
18.295650 46.993187 -0.308082
18.609474 46.993187 -0.443524
18.923298 46.993187 -0.543862
19.237120 46.993187 0.000000
-6.810190 46.679363 0.000000
-6.496367 46.679363 0.000000
-6.182544 46.679363 -0.000608
-5.868721 46.679363 -0.000559
-5.554898 46.679363 -0.000493
-5.241075 46.679363 -0.000418
-4.927252 46.679363 -0.000498
-4.613429 46.679363 -0.000630
-4.299606 46.679363 -0.000788
-3.985783 46.679363 -0.000817
-3.671960 46.679363 -0.000543
-3.358137 46.679363 -0.000219
-3.044314 46.679363 -0.000013
-2.730491 46.679363 -0.000040
-2.416668 46.679363 -0.000219
-2.102845 46.679363 -0.000136
-1.789022 46.679363 -0.000002
-1.475199 46.679363 0.000047
-1.161376 46.679363 0.000112
-0.847553 46.679363 0.000023
-0.533730 46.679363 -0.000247
-0.219907 46.679363 -0.000308
0.093916 46.679363 -0.000377
0.407739 46.679363 -0.000598
0.721562 46.679363 -0.000525
1.035385 46.679363 -0.000466
1.349208 46.679363 -0.000477
1.663032 46.679363 -0.000710
1.976854 46.679363 -0.000765
2.290677 46.679363 -0.000760
2.604500 46.679363 -0.000676
2.918324 46.679363 -0.000533
3.232146 46.679363 -0.000594
3.545969 46.679363 -0.000639
3.859793 46.679363 -0.000631
4.173615 46.679363 -0.000650
4.487438 46.679363 -0.000661
4.801261 46.679363 -0.000670
5.115085 46.679363 -0.000756
5.428907 46.679363 -0.000862
5.742730 46.679363 -0.000618
6.056554 46.679363 -0.000379
6.370377 46.679363 -0.000147
6.684199 46.679363 0.000474
6.998022 46.679363 0.001215
7.311846 46.679363 0.002070
7.625669 46.679363 0.003754
7.939491 46.679363 0.006971
8.253315 46.679363 0.011435
8.567138 46.679363 0.019826
8.880960 46.679363 0.034807
9.194784 46.679363 0.060961
9.508606 46.679363 0.100218
9.822430 46.679363 0.148095
10.136253 46.679363 0.215811
10.450075 46.679363 0.305826
10.763899 46.679363 0.413643
11.077723 46.679363 0.532488
11.391544 46.679363 0.661959
11.705368 46.679363 0.783036
12.019190 46.679363 0.890615
12.333014 46.679363 0.980527
12.646837 46.679363 1.059446
12.960659 46.679363 1.115044
13.274483 46.679363 1.151739
13.588306 46.679363 1.181750
13.902128 46.679363 1.200277
14.215952 46.679363 1.197227
14.529776 46.679363 1.177415
14.843597 46.679363 1.134426
15.157421 46.679363 1.077499
15.471243 46.679363 0.996200
15.785067 46.679363 0.893028
16.098890 46.679363 0.774089
16.412712 46.679363 0.649046
16.726536 46.679363 0.509300
17.040359 46.679363 0.353446
17.354181 46.679363 0.176041
17.668005 46.679363 0.005549
17.981829 46.679363 -0.155330
18.295650 46.679363 -0.306991
18.609474 46.679363 -0.440413
18.923298 46.679363 -0.545982
19.237120 46.679363 0.000000
-6.810190 46.365540 0.000000
-6.496367 46.365540 0.000000
-6.182544 46.365540 -0.000645
-5.868721 46.365540 -0.000525
-5.554898 46.365540 -0.000465
-5.241075 46.365540 -0.000455
-4.927252 46.365540 -0.000528
-4.613429 46.365540 -0.000657
-4.299606 46.365540 -0.000769
-3.985783 46.365540 -0.000816
-3.671960 46.365540 -0.000620
-3.358137 46.365540 -0.000335
-3.044314 46.365540 -0.000123
-2.730491 46.365540 -0.000136
-2.416668 46.365540 -0.000263
-2.102845 46.365540 -0.000158
-1.789022 46.365540 -0.000025
-1.475199 46.365540 0.000022
-1.161376 46.365540 0.000050
-0.847553 46.365540 -0.000036
-0.533730 46.365540 -0.000270
-0.219907 46.365540 -0.000331
0.093916 46.365540 -0.000435
0.407739 46.365540 -0.000600
0.721562 46.365540 -0.000562
1.035385 46.365540 -0.000496
1.349208 46.365540 -0.000478
1.663032 46.365540 -0.000587
1.976854 46.365540 -0.000626
2.290677 46.365540 -0.000669
2.604500 46.365540 -0.000610
2.918324 46.365540 -0.000511
3.232146 46.365540 -0.000579
3.545969 46.365540 -0.000586
3.859793 46.365540 -0.000574
4.173615 46.365540 -0.000672
4.487438 46.365540 -0.000836
4.801261 46.365540 -0.000860
5.115085 46.365540 -0.000857
5.428907 46.365540 -0.000924
5.742730 46.365540 -0.000679
6.056554 46.365540 -0.000417
6.370377 46.365540 -0.000176
6.684199 46.365540 0.000256
6.998022 46.365540 0.001086
7.311846 46.365540 0.002001
7.625669 46.365540 0.004004
7.939491 46.365540 0.006703
8.253315 46.365540 0.010519
8.567138 46.365540 0.019622
8.880960 46.365540 0.033650
9.194784 46.365540 0.061187
9.508606 46.365540 0.096336
9.822430 46.365540 0.145979
10.136253 46.365540 0.215422
10.450075 46.365540 0.312094
10.763899 46.365540 0.414740
11.077723 46.365540 0.530528
11.391544 46.365540 0.666622
11.705368 46.365540 0.787501
12.019190 46.365540 0.891583
12.333014 46.365540 0.981870
12.646837 46.365540 1.052315
12.960659 46.365540 1.108170
13.274483 46.365540 1.142364
13.588306 46.365540 1.181635
13.902128 46.365540 1.196299
14.215952 46.365540 1.196665
14.529776 46.365540 1.173399
14.843597 46.365540 1.130604
15.157421 46.365540 1.074262
15.471243 46.365540 0.990743
15.785067 46.365540 0.895821
16.098890 46.365540 0.778820
16.412712 46.365540 0.652097
16.726536 46.365540 0.514667
17.040359 46.365540 0.358214
17.354181 46.365540 0.182634
17.668005 46.365540 0.001479
17.981829 46.365540 -0.161271
18.295650 46.365540 -0.307932
18.609474 46.365540 -0.444360
18.923298 46.365540 -0.549405
19.237120 46.365540 0.000000
-6.810190 46.051716 0.000000
-6.496367 46.051716 0.000000
-6.182544 46.051716 -0.000702
-5.868721 46.051716 -0.000496
-5.554898 46.051716 -0.000448
-5.241075 46.051716 -0.000447
-4.927252 46.051716 -0.000525
-4.613429 46.051716 -0.000623
-4.299606 46.051716 -0.000663
-3.985783 46.051716 -0.000728
-3.671960 46.051716 -0.000637
-3.358137 46.051716 -0.000390
-3.044314 46.051716 -0.000209
-2.730491 46.051716 -0.000205
-2.416668 46.051716 -0.000315
-2.102845 46.051716 -0.000216
-1.789022 46.051716 -0.000108
-1.475199 46.051716 -0.000061
-1.161376 46.051716 -0.000037
-0.847553 46.051716 -0.000107
-0.533730 46.051716 -0.000297
-0.219907 46.051716 -0.000376
0.093916 46.051716 -0.000439
0.407739 46.051716 -0.000559
0.721562 46.051716 -0.000575
1.035385 46.051716 -0.000554
1.349208 46.051716 -0.000504
1.663032 46.051716 -0.000510
1.976854 46.051716 -0.000494
2.290677 46.051716 -0.000572
2.604500 46.051716 -0.000535
2.918324 46.051716 -0.000503
3.232146 46.051716 -0.000591
3.545969 46.051716 -0.000595
3.859793 46.051716 -0.000558
4.173615 46.051716 -0.000711
4.487438 46.051716 -0.000926
4.801261 46.051716 -0.000950
5.115085 46.051716 -0.000877
5.428907 46.051716 -0.000844
5.742730 46.051716 -0.000683
6.056554 46.051716 -0.000443
6.370377 46.051716 -0.000187
6.684199 46.051716 0.000226
6.998022 46.051716 0.000898
7.311846 46.051716 0.002360
7.625669 46.051716 0.004077
7.939491 46.051716 0.006237
8.253315 46.051716 0.010872
8.567138 46.051716 0.019038
8.880960 46.051716 0.032952
9.194784 46.051716 0.059418
9.508606 46.051716 0.097628
9.822430 46.051716 0.151581
10.136253 46.051716 0.222540
10.450075 46.051716 0.315168
10.763899 46.051716 0.412757
11.077723 46.051716 0.539483
11.391544 46.051716 0.669908
11.705368 46.051716 0.803619
12.019190 46.051716 0.900637
12.333014 46.051716 0.987047
12.646837 46.051716 1.061202
12.960659 46.051716 1.114166
13.274483 46.051716 1.143156
13.588306 46.051716 1.177065
13.902128 46.051716 1.205053
14.215952 46.051716 1.208546
14.529776 46.051716 1.178319
14.843597 46.051716 1.139492
15.157421 46.051716 1.078002
15.471243 46.051716 0.994637
15.785067 46.051716 0.901855
16.098890 46.051716 0.785071
16.412712 46.051716 0.656907
16.726536 46.051716 0.518017
17.040359 46.051716 0.364868
17.354181 46.051716 0.186256
17.668005 46.051716 0.007132
17.981829 46.051716 -0.156151
18.295650 46.051716 -0.314689
18.609474 46.051716 -0.444942
18.923298 46.051716 -0.557226
19.237120 46.051716 0.000000
-6.810190 45.737896 0.000000
-6.496367 45.737896 0.000000
-6.182544 45.737896 -0.000727
-5.868721 45.737896 -0.000473
-5.554898 45.737896 -0.000389
-5.241075 45.737896 -0.000385
-4.927252 45.737896 -0.000453
-4.613429 45.737896 -0.000533
-4.299606 45.737896 -0.000466
-3.985783 45.737896 -0.000548
-3.671960 45.737896 -0.000523
-3.358137 45.737896 -0.000344
-3.044314 45.737896 -0.000197
-2.730491 45.737896 -0.000202
-2.416668 45.737896 -0.000338
-2.102845 45.737896 -0.000315
-1.789022 45.737896 -0.000254
-1.475199 45.737896 -0.000182
-1.161376 45.737896 -0.000136
-0.847553 45.737896 -0.000174
-0.533730 45.737896 -0.000270
-0.219907 45.737896 -0.000342
0.093916 45.737896 -0.000402
0.407739 45.737896 -0.000504
0.721562 45.737896 -0.000623
1.035385 45.737896 -0.000634
1.349208 45.737896 -0.000562
1.663032 45.737896 -0.000486
1.976854 45.737896 -0.000449
2.290677 45.737896 -0.000525
2.604500 45.737896 -0.000458
2.918324 45.737896 -0.000492
3.232146 45.737896 -0.000618
3.545969 45.737896 -0.000613
3.859793 45.737896 -0.000602
4.173615 45.737896 -0.000725
4.487438 45.737896 -0.000926
4.801261 45.737896 -0.000942
5.115085 45.737896 -0.000763
5.428907 45.737896 -0.000674
5.742730 45.737896 -0.000664
6.056554 45.737896 -0.000506
6.370377 45.737896 -0.000201
6.684199 45.737896 0.000169
6.998022 45.737896 0.001081
7.311846 45.737896 0.002546
7.625669 45.737896 0.004303
7.939491 45.737896 0.006455
8.253315 45.737896 0.011634
8.567138 45.737896 0.020172
8.880960 45.737896 0.033708
9.194784 45.737896 0.056129
9.508606 45.737896 0.092093
9.822430 45.737896 0.145928
10.136253 45.737896 0.213794
10.450075 45.737896 0.312047
10.763899 45.737896 0.423170
11.077723 45.737896 0.542003
11.391544 45.737896 0.675484
11.705368 45.737896 0.798598
12.019190 45.737896 0.913426
12.333014 45.737896 1.003404
12.646837 45.737896 1.071157
12.960659 45.737896 1.117933
13.274483 45.737896 1.151713
13.588306 45.737896 1.189692
13.902128 45.737896 1.215780
14.215952 45.737896 1.215016
14.529776 45.737896 1.193695
14.843597 45.737896 1.156020
15.157421 45.737896 1.091631
15.471243 45.737896 1.005036
15.785067 45.737896 0.906730
16.098890 45.737896 0.796042
16.412712 45.737896 0.660947
16.726536 45.737896 0.523350
17.040359 45.737896 0.365939
17.354181 45.737896 0.188064
17.668005 45.737896 0.013804
17.981829 45.737896 -0.161085
18.295650 45.737896 -0.322670
18.609474 45.737896 -0.462475
18.923298 45.737896 -0.555443
19.237120 45.737896 0.000000
-6.810190 45.424072 0.000000
-6.496367 45.424072 0.000000
-6.182544 45.424072 -0.000736
-5.868721 45.424072 -0.000475
-5.554898 45.424072 -0.000341
-5.241075 45.424072 -0.000335
-4.927252 45.424072 -0.000384
-4.613429 45.424072 -0.000408
-4.299606 45.424072 -0.000303
-3.985783 45.424072 -0.000331
-3.671960 45.424072 -0.000355
-3.358137 45.424072 -0.000251
-3.044314 45.424072 -0.000190
-2.730491 45.424072 -0.000184
-2.416668 45.424072 -0.000298
-2.102845 45.424072 -0.000363
-1.789022 45.424072 -0.000387
-1.475199 45.424072 -0.000298
-1.161376 45.424072 -0.000239
-0.847553 45.424072 -0.000205
-0.533730 45.424072 -0.000220
-0.219907 45.424072 -0.000280
0.093916 45.424072 -0.000353
0.407739 45.424072 -0.000517
0.721562 45.424072 -0.000683
1.035385 45.424072 -0.000667
1.349208 45.424072 -0.000603
1.663032 45.424072 -0.000567
1.976854 45.424072 -0.000528
2.290677 45.424072 -0.000551
2.604500 45.424072 -0.000453
2.918324 45.424072 -0.000492
3.232146 45.424072 -0.000629
3.545969 45.424072 -0.000621
3.859793 45.424072 -0.000630
4.173615 45.424072 -0.000688
4.487438 45.424072 -0.000832
4.801261 45.424072 -0.000857
5.115085 45.424072 -0.000650
5.428907 45.424072 -0.000559
5.742730 45.424072 -0.000605
6.056554 45.424072 -0.000482
6.370377 45.424072 -0.000244
6.684199 45.424072 0.000268
6.998022 45.424072 0.001085
7.311846 45.424072 0.002348
7.625669 45.424072 0.004443
7.939491 45.424072 0.007212
8.253315 45.424072 0.011389
8.567138 45.424072 0.018825
8.880960 45.424072 0.032066
9.194784 45.424072 0.055835
9.508606 45.424072 0.089680
9.822430 45.424072 0.147499
10.136253 45.424072 0.220831
10.450075 45.424072 0.317717
10.763899 45.424072 0.421315
11.077723 45.424072 0.544232
11.391544 45.424072 0.674632
11.705368 45.424072 0.800004
12.019190 45.424072 0.917631
12.333014 45.424072 1.011352
12.646837 45.424072 1.082132
12.960659 45.424072 1.134145
13.274483 45.424072 1.166512
13.588306 45.424072 1.201362
13.902128 45.424072 1.223613
14.215952 45.424072 1.234728
14.529776 45.424072 1.216755
14.843597 45.424072 1.171895
15.157421 45.424072 1.100366
15.471243 45.424072 1.014722
15.785067 45.424072 0.910041
16.098890 45.424072 0.796758
16.412712 45.424072 0.663440
16.726536 45.424072 0.525846
17.040359 45.424072 0.363334
17.354181 45.424072 0.194478
17.668005 45.424072 0.014634
17.981829 45.424072 -0.163808
18.295650 45.424072 -0.323536
18.609474 45.424072 -0.460419
18.923298 45.424072 -0.552137
19.237120 45.424072 0.000000
-6.810190 45.110249 0.000000
-6.496367 45.110249 0.000000
-6.182544 45.110249 -0.000745
-5.868721 45.110249 -0.000570
-5.554898 45.110249 -0.000408
-5.241075 45.110249 -0.000372
-4.927252 45.110249 -0.000385
-4.613429 45.110249 -0.000263
-4.299606 45.110249 -0.000133
-3.985783 45.110249 -0.000164
-3.671960 45.110249 -0.000220
-3.358137 45.110249 -0.000186
-3.044314 45.110249 -0.000209
-2.730491 45.110249 -0.000226
-2.416668 45.110249 -0.000259
-2.102845 45.110249 -0.000350
-1.789022 45.110249 -0.000421
-1.475199 45.110249 -0.000371
-1.161376 45.110249 -0.000286
-0.847553 45.110249 -0.000188
-0.533730 45.110249 -0.000163
-0.219907 45.110249 -0.000213
0.093916 45.110249 -0.000352
0.407739 45.110249 -0.000586
0.721562 45.110249 -0.000706
1.035385 45.110249 -0.000636
1.349208 45.110249 -0.000593
1.663032 45.110249 -0.000655
1.976854 45.110249 -0.000672
2.290677 45.110249 -0.000657
2.604500 45.110249 -0.000523
2.918324 45.110249 -0.000513
3.232146 45.110249 -0.000644
3.545969 45.110249 -0.000633
3.859793 45.110249 -0.000657
4.173615 45.110249 -0.000606
4.487438 45.110249 -0.000706
4.801261 45.110249 -0.000745
5.115085 45.110249 -0.000630
5.428907 45.110249 -0.000445
5.742730 45.110249 -0.000470
6.056554 45.110249 -0.000484
6.370377 45.110249 -0.000114
6.684199 45.110249 0.000461
6.998022 45.110249 0.001216
7.311846 45.110249 0.002248
7.625669 45.110249 0.004316
7.939491 45.110249 0.007254
8.253315 45.110249 0.011358
8.567138 45.110249 0.017035
8.880960 45.110249 0.032525
9.194784 45.110249 0.057352
9.508606 45.110249 0.092125
9.822430 45.110249 0.145428
10.136253 45.110249 0.217769
10.450075 45.110249 0.318457
10.763899 45.110249 0.427142
11.077723 45.110249 0.550563
11.391544 45.110249 0.668812
11.705368 45.110249 0.795562
12.019190 45.110249 0.916470
12.333014 45.110249 1.009044
12.646837 45.110249 1.087976
12.960659 45.110249 1.133306
13.274483 45.110249 1.176053
13.588306 45.110249 1.206790
13.902128 45.110249 1.230804
14.215952 45.110249 1.241318
14.529776 45.110249 1.226929
14.843597 45.110249 1.179221
15.157421 45.110249 1.109622
15.471243 45.110249 1.019911
15.785067 45.110249 0.917375
16.098890 45.110249 0.800567
16.412712 45.110249 0.667687
16.726536 45.110249 0.524607
17.040359 45.110249 0.370220
17.354181 45.110249 0.197077
17.668005 45.110249 0.023487
17.981829 45.110249 -0.161524
18.295650 45.110249 -0.321143
18.609474 45.110249 -0.454101
18.923298 45.110249 -0.554794
19.237120 45.110249 0.000000
-6.810190 44.796425 0.000000
-6.496367 44.796425 0.000000
-6.182544 44.796425 -0.000819
-5.868721 44.796425 -0.000737
-5.554898 44.796425 -0.000561
-5.241075 44.796425 -0.000478
-4.927252 44.796425 -0.000427
-4.613429 44.796425 -0.000189
-4.299606 44.796425 0.000015
-3.985783 44.796425 -0.000090
-3.671960 44.796425 -0.000196
-3.358137 44.796425 -0.000199
-3.044314 44.796425 -0.000267
-2.730491 44.796425 -0.000290
-2.416668 44.796425 -0.000245
-2.102845 44.796425 -0.000312
-1.789022 44.796425 -0.000405
-1.475199 44.796425 -0.000419
-1.161376 44.796425 -0.000321
-0.847553 44.796425 -0.000176
-0.533730 44.796425 -0.000095
-0.219907 44.796425 -0.000163
0.093916 44.796425 -0.000365
0.407739 44.796425 -0.000615
0.721562 44.796425 -0.000635
1.035385 44.796425 -0.000492
1.349208 44.796425 -0.000497
1.663032 44.796425 -0.000682
1.976854 44.796425 -0.000779
2.290677 44.796425 -0.000764
2.604500 44.796425 -0.000644
2.918324 44.796425 -0.000629
3.232146 44.796425 -0.000708
3.545969 44.796425 -0.000681
3.859793 44.796425 -0.000681
4.173615 44.796425 -0.000597
4.487438 44.796425 -0.000609
4.801261 44.796425 -0.000681
5.115085 44.796425 -0.000622
5.428907 44.796425 -0.000423
5.742730 44.796425 -0.000289
6.056554 44.796425 -0.000288
6.370377 44.796425 -0.000156
6.684199 44.796425 0.000449
6.998022 44.796425 0.001326
7.311846 44.796425 0.002280
7.625669 44.796425 0.004279
7.939491 44.796425 0.007105
8.253315 44.796425 0.010223
8.567138 44.796425 0.017279
8.880960 44.796425 0.034795
9.194784 44.796425 0.057013
9.508606 44.796425 0.098491
9.822430 44.796425 0.147930
10.136253 44.796425 0.215687
10.450075 44.796425 0.310841
10.763899 44.796425 0.429637
11.077723 44.796425 0.551407
11.391544 44.796425 0.661129
11.705368 44.796425 0.788353
12.019190 44.796425 0.914713
12.333014 44.796425 1.013265
12.646837 44.796425 1.092785
12.960659 44.796425 1.146861
13.274483 44.796425 1.174703
13.588306 44.796425 1.207342
13.902128 44.796425 1.234488
14.215952 44.796425 1.236481
14.529776 44.796425 1.225379
14.843597 44.796425 1.179166
15.157421 44.796425 1.118919
15.471243 44.796425 1.026575
15.785067 44.796425 0.921609
16.098890 44.796425 0.800916
16.412712 44.796425 0.667440
16.726536 44.796425 0.525709
17.040359 44.796425 0.363680
17.354181 44.796425 0.198102
17.668005 44.796425 0.017213
17.981829 44.796425 -0.164648
18.295650 44.796425 -0.324870
18.609474 44.796425 -0.454914
18.923298 44.796425 -0.561341
19.237120 44.796425 0.000000
-6.810190 44.482601 0.000000
-6.496367 44.482601 0.000000
-6.182544 44.482601 -0.000872
-5.868721 44.482601 -0.000875
-5.554898 44.482601 -0.000676
-5.241075 44.482601 -0.000511
-4.927252 44.482601 -0.000407
-4.613429 44.482601 -0.000112
-4.299606 44.482601 0.000071
-3.985783 44.482601 -0.000090
-3.671960 44.482601 -0.000204
-3.358137 44.482601 -0.000233
-3.044314 44.482601 -0.000330
-2.730491 44.482601 -0.000350
-2.416668 44.482601 -0.000297
-2.102845 44.482601 -0.000326
-1.789022 44.482601 -0.000372
-1.475199 44.482601 -0.000411
-1.161376 44.482601 -0.000324
-0.847553 44.482601 -0.000191
-0.533730 44.482601 -0.000124
-0.219907 44.482601 -0.000153
0.093916 44.482601 -0.000367
0.407739 44.482601 -0.000532
0.721562 44.482601 -0.000474
1.035385 44.482601 -0.000304
1.349208 44.482601 -0.000349
1.663032 44.482601 -0.000624
1.976854 44.482601 -0.000832
2.290677 44.482601 -0.000830
2.604500 44.482601 -0.000750
2.918324 44.482601 -0.000749
3.232146 44.482601 -0.000780
3.545969 44.482601 -0.000728
3.859793 44.482601 -0.000735
4.173615 44.482601 -0.000666
4.487438 44.482601 -0.000594
4.801261 44.482601 -0.000654
5.115085 44.482601 -0.000640
5.428907 44.482601 -0.000444
5.742730 44.482601 -0.000273
6.056554 44.482601 -0.000266
6.370377 44.482601 -0.000131
6.684199 44.482601 0.000336
6.998022 44.482601 0.000960
7.311846 44.482601 0.002301
7.625669 44.482601 0.004597
7.939491 44.482601 0.007118
8.253315 44.482601 0.010736
8.567138 44.482601 0.018788
8.880960 44.482601 0.032955
9.194784 44.482601 0.059184
9.508606 44.482601 0.094439
9.822430 44.482601 0.146124
10.136253 44.482601 0.223604
10.450075 44.482601 0.315350
10.763899 44.482601 0.426090
11.077723 44.482601 0.550201
11.391544 44.482601 0.664787
11.705368 44.482601 0.792672
12.019190 44.482601 0.913145
12.333014 44.482601 1.012057
12.646837 44.482601 1.089179
12.960659 44.482601 1.141185
13.274483 44.482601 1.183788
13.588306 44.482601 1.217003
13.902128 44.482601 1.237417
14.215952 44.482601 1.235339
14.529776 44.482601 1.223666
14.843597 44.482601 1.181290
15.157421 44.482601 1.122611
15.471243 44.482601 1.033807
15.785067 44.482601 0.924831
16.098890 44.482601 0.807410
16.412712 44.482601 0.668573
16.726536 44.482601 0.522200
17.040359 44.482601 0.357577
17.354181 44.482601 0.198646
17.668005 44.482601 0.011509
17.981829 44.482601 -0.165892
18.295650 44.482601 -0.328641
18.609474 44.482601 -0.459291
18.923298 44.482601 -0.562129
19.237120 44.482601 0.000000
-6.810190 44.168777 0.000000
-6.496367 44.168777 0.000000
-6.182544 44.168777 -0.000829
-5.868721 44.168777 -0.000923
-5.554898 44.168777 -0.000771
-5.241075 44.168777 -0.000538
-4.927252 44.168777 -0.000342
-4.613429 44.168777 -0.000092
-4.299606 44.168777 0.000026
-3.985783 44.168777 -0.000152
-3.671960 44.168777 -0.000244
-3.358137 44.168777 -0.000228
-3.044314 44.168777 -0.000325
-2.730491 44.168777 -0.000341
-2.416668 44.168777 -0.000315
-2.102845 44.168777 -0.000317
-1.789022 44.168777 -0.000319
-1.475199 44.168777 -0.000351
-1.161376 44.168777 -0.000300
-0.847553 44.168777 -0.000214
-0.533730 44.168777 -0.000184
-0.219907 44.168777 -0.000170
0.093916 44.168777 -0.000287
0.407739 44.168777 -0.000373
0.721562 44.168777 -0.000295
1.035385 44.168777 -0.000146
1.349208 44.168777 -0.000228
1.663032 44.168777 -0.000555
1.976854 44.168777 -0.000843
2.290677 44.168777 -0.000859
2.604500 44.168777 -0.000769
2.918324 44.168777 -0.000817
3.232146 44.168777 -0.000850
3.545969 44.168777 -0.000794
3.859793 44.168777 -0.000796
4.173615 44.168777 -0.000714
4.487438 44.168777 -0.000579
4.801261 44.168777 -0.000601
5.115085 44.168777 -0.000602
5.428907 44.168777 -0.000479
5.742730 44.168777 -0.000356
6.056554 44.168777 -0.000305
6.370377 44.168777 -0.000216
6.684199 44.168777 0.000182
6.998022 44.168777 0.000754
7.311846 44.168777 0.002096
7.625669 44.168777 0.004520
7.939491 44.168777 0.007347
8.253315 44.168777 0.011441
8.567138 44.168777 0.019261
8.880960 44.168777 0.030550
9.194784 44.168777 0.055923
9.508606 44.168777 0.094039
9.822430 44.168777 0.144261
10.136253 44.168777 0.216854
10.450075 44.168777 0.314022
10.763899 44.168777 0.430757
11.077723 44.168777 0.549376
11.391544 44.168777 0.669517
11.705368 44.168777 0.792428
12.019190 44.168777 0.915175
12.333014 44.168777 1.011696
12.646837 44.168777 1.086378
12.960659 44.168777 1.143959
13.274483 44.168777 1.183592
13.588306 44.168777 1.216696
13.902128 44.168777 1.245216
14.215952 44.168777 1.243615
14.529776 44.168777 1.221286
14.843597 44.168777 1.183660
15.157421 44.168777 1.130229
15.471243 44.168777 1.035639
15.785067 44.168777 0.938230
16.098890 44.168777 0.815652
16.412712 44.168777 0.673045
16.726536 44.168777 0.520893
17.040359 44.168777 0.361745
17.354181 44.168777 0.197490
17.668005 44.168777 0.020844
17.981829 44.168777 -0.166454
18.295650 44.168777 -0.327559
18.609474 44.168777 -0.456514
18.923298 44.168777 -0.559898
19.237120 44.168777 0.000000
-6.810190 43.854958 0.000000
-6.496367 43.854958 0.000000
-6.182544 43.854958 -0.000706
-5.868721 43.854958 -0.000840
-5.554898 43.854958 -0.000714
-5.241075 43.854958 -0.000472
-4.927252 43.854958 -0.000239
-4.613429 43.854958 -0.000065
-4.299606 43.854958 -0.000087
-3.985783 43.854958 -0.000206
-3.671960 43.854958 -0.000257
-3.358137 43.854958 -0.000201
-3.044314 43.854958 -0.000228
-2.730491 43.854958 -0.000301
-2.416668 43.854958 -0.000272
-2.102845 43.854958 -0.000257
-1.789022 43.854958 -0.000226
-1.475199 43.854958 -0.000255
-1.161376 43.854958 -0.000242
-0.847553 43.854958 -0.000204
-0.533730 43.854958 -0.000185
-0.219907 43.854958 -0.000107
0.093916 43.854958 -0.000132
0.407739 43.854958 -0.000184
0.721562 43.854958 -0.000176
1.035385 43.854958 -0.000074
1.349208 43.854958 -0.000210
1.663032 43.854958 -0.000529
1.976854 43.854958 -0.000826
2.290677 43.854958 -0.000823
2.604500 43.854958 -0.000724
2.918324 43.854958 -0.000813
3.232146 43.854958 -0.000897
3.545969 43.854958 -0.000858
3.859793 43.854958 -0.000839
4.173615 43.854958 -0.000709
4.487438 43.854958 -0.000555
4.801261 43.854958 -0.000532
5.115085 43.854958 -0.000547
5.428907 43.854958 -0.000543
5.742730 43.854958 -0.000440
6.056554 43.854958 -0.000360
6.370377 43.854958 -0.000283
6.684199 43.854958 -0.000025
6.998022 43.854958 0.000495
7.311846 43.854958 0.001680
7.625669 43.854958 0.004106
7.939491 43.854958 0.007490
8.253315 43.854958 0.011966
8.567138 43.854958 0.019835
8.880960 43.854958 0.030916
9.194784 43.854958 0.053732
9.508606 43.854958 0.094661
9.822430 43.854958 0.150329
10.136253 43.854958 0.217616
10.450075 43.854958 0.316989
10.763899 43.854958 0.434151
11.077723 43.854958 0.547771
11.391544 43.854958 0.665643
11.705368 43.854958 0.781082
12.019190 43.854958 0.914447
12.333014 43.854958 1.018347
12.646837 43.854958 1.088566
12.960659 43.854958 1.141276
13.274483 43.854958 1.189412
13.588306 43.854958 1.222518
13.902128 43.854958 1.243954
14.215952 43.854958 1.253612
14.529776 43.854958 1.222264
14.843597 43.854958 1.189944
15.157421 43.854958 1.140212
15.471243 43.854958 1.050345
15.785067 43.854958 0.944326
16.098890 43.854958 0.818539
16.412712 43.854958 0.679417
16.726536 43.854958 0.526440
17.040359 43.854958 0.364435
17.354181 43.854958 0.199984
17.668005 43.854958 0.022583
17.981829 43.854958 -0.160520
18.295650 43.854958 -0.326055
18.609474 43.854958 -0.461045
18.923298 43.854958 -0.554388
19.237120 43.854958 0.000000
-6.810190 43.541134 0.000000
-6.496367 43.541134 0.000000
-6.182544 43.541134 -0.000625
-5.868721 43.541134 -0.000775
-5.554898 43.541134 -0.000648
-5.241075 43.541134 -0.000391
-4.927252 43.541134 -0.000159
-4.613429 43.541134 -0.000109
-4.299606 43.541134 -0.000192
-3.985783 43.541134 -0.000231
-3.671960 43.541134 -0.000252
-3.358137 43.541134 -0.000155
-3.044314 43.541134 -0.000095
-2.730491 43.541134 -0.000173
-2.416668 43.541134 -0.000186
-2.102845 43.541134 -0.000113
-1.789022 43.541134 -0.000106
-1.475199 43.541134 -0.000167
-1.161376 43.541134 -0.000196
-0.847553 43.541134 -0.000166
-0.533730 43.541134 -0.000106
-0.219907 43.541134 0.000010
0.093916 43.541134 0.000008
0.407739 43.541134 -0.000080
0.721562 43.541134 -0.000136
1.035385 43.541134 -0.000119
1.349208 43.541134 -0.000277
1.663032 43.541134 -0.000551
1.976854 43.541134 -0.000786
2.290677 43.541134 -0.000762
2.604500 43.541134 -0.000650
2.918324 43.541134 -0.000741
3.232146 43.541134 -0.000869
3.545969 43.541134 -0.000926
3.859793 43.541134 -0.000896
4.173615 43.541134 -0.000717
4.487438 43.541134 -0.000574
4.801261 43.541134 -0.000505
5.115085 43.541134 -0.000517
5.428907 43.541134 -0.000597
5.742730 43.541134 -0.000512
6.056554 43.541134 -0.000394
6.370377 43.541134 -0.000326
6.684199 43.541134 0.000021
6.998022 43.541134 0.000466
7.311846 43.541134 0.001411
7.625669 43.541134 0.003682
7.939491 43.541134 0.007027
8.253315 43.541134 0.011689
8.567138 43.541134 0.019426
8.880960 43.541134 0.030806
9.194784 43.541134 0.055531
9.508606 43.541134 0.094972
9.822430 43.541134 0.149713
10.136253 43.541134 0.219964
10.450075 43.541134 0.316418
10.763899 43.541134 0.430679
11.077723 43.541134 0.548202
11.391544 43.541134 0.664188
11.705368 43.541134 0.790430
12.019190 43.541134 0.916502
12.333014 43.541134 1.015268
12.646837 43.541134 1.090127
12.960659 43.541134 1.148959
13.274483 43.541134 1.193026
13.588306 43.541134 1.228138
13.902128 43.541134 1.250640
14.215952 43.541134 1.255198
14.529776 43.541134 1.240659
14.843597 43.541134 1.195989
15.157421 43.541134 1.140530
15.471243 43.541134 1.058200
15.785067 43.541134 0.949490
16.098890 43.541134 0.832988
16.412712 43.541134 0.680883
16.726536 43.541134 0.526374
17.040359 43.541134 0.366724
17.354181 43.541134 0.196150
17.668005 43.541134 0.026281
17.981829 43.541134 -0.155925
18.295650 43.541134 -0.319076
18.609474 43.541134 -0.460894
18.923298 43.541134 -0.564006
19.237120 43.541134 0.000000
-6.810190 43.227310 0.000000
-6.496367 43.227310 0.000000
-6.182544 43.227310 -0.000540
-5.868721 43.227310 -0.000729
-5.554898 43.227310 -0.000587
-5.241075 43.227310 -0.000309
-4.927252 43.227310 -0.000128
-4.613429 43.227310 -0.000195
-4.299606 43.227310 -0.000303
-3.985783 43.227310 -0.000286
-3.671960 43.227310 -0.000291
-3.358137 43.227310 -0.000158
-3.044314 43.227310 -0.000031
-2.730491 43.227310 -0.000045
-2.416668 43.227310 -0.000062
-2.102845 43.227310 0.000027
-1.789022 43.227310 0.000021
-1.475199 43.227310 -0.000106
-1.161376 43.227310 -0.000173
-0.847553 43.227310 -0.000165
-0.533730 43.227310 -0.000061
-0.219907 43.227310 0.000067
0.093916 43.227310 0.000047
0.407739 43.227310 -0.000077
0.721562 43.227310 -0.000149
1.035385 43.227310 -0.000213
1.349208 43.227310 -0.000380
1.663032 43.227310 -0.000563
1.976854 43.227310 -0.000719
2.290677 43.227310 -0.000709
2.604500 43.227310 -0.000589
2.918324 43.227310 -0.000640
3.232146 43.227310 -0.000844
3.545969 43.227310 -0.000985
3.859793 43.227310 -0.000929
4.173615 43.227310 -0.000723
4.487438 43.227310 -0.000605
4.801261 43.227310 -0.000508
5.115085 43.227310 -0.000520
5.428907 43.227310 -0.000622
5.742730 43.227310 -0.000567
6.056554 43.227310 -0.000434
6.370377 43.227310 -0.000173
6.684199 43.227310 0.000113
6.998022 43.227310 0.000603
7.311846 43.227310 0.001291
7.625669 43.227310 0.003132
7.939491 43.227310 0.007013
8.253315 43.227310 0.010764
8.567138 43.227310 0.017574
8.880960 43.227310 0.031337
9.194784 43.227310 0.056605
9.508606 43.227310 0.095846
9.822430 43.227310 0.144942
10.136253 43.227310 0.215979
10.450075 43.227310 0.315241
10.763899 43.227310 0.427769
11.077723 43.227310 0.545505
11.391544 43.227310 0.666181
11.705368 43.227310 0.787134
12.019190 43.227310 0.916127
12.333014 43.227310 1.010428
12.646837 43.227310 1.090299
12.960659 43.227310 1.154071
13.274483 43.227310 1.198739
13.588306 43.227310 1.229952
13.902128 43.227310 1.255391
14.215952 43.227310 1.260483
14.529776 43.227310 1.248401
14.843597 43.227310 1.205866
15.157421 43.227310 1.148170
15.471243 43.227310 1.057316
15.785067 43.227310 0.950475
16.098890 43.227310 0.826323
16.412712 43.227310 0.681809
16.726536 43.227310 0.524118
17.040359 43.227310 0.366191
17.354181 43.227310 0.197489
17.668005 43.227310 0.030492
17.981829 43.227310 -0.161100
18.295650 43.227310 -0.323240
18.609474 43.227310 -0.467902
18.923298 43.227310 -0.577220
19.237120 43.227310 0.000000
-6.810190 42.913486 0.000000
-6.496367 42.913486 0.000000
-6.182544 42.913486 -0.000483
-5.868721 42.913486 -0.000651
-5.554898 42.913486 -0.000546
-5.241075 42.913486 -0.000311
-4.927252 42.913486 -0.000174
-4.613429 42.913486 -0.000276
-4.299606 42.913486 -0.000391
-3.985783 42.913486 -0.000370
-3.671960 42.913486 -0.000343
-3.358137 42.913486 -0.000224
-3.044314 42.913486 -0.000067
-2.730491 42.913486 0.000021
-2.416668 42.913486 0.000052
-2.102845 42.913486 0.000125
-1.789022 42.913486 0.000125
-1.475199 42.913486 -0.000064
-1.161376 42.913486 -0.000207
-0.847553 42.913486 -0.000215
-0.533730 42.913486 -0.000117
-0.219907 42.913486 -0.000019
0.093916 42.913486 -0.000050
0.407739 42.913486 -0.000151
0.721562 42.913486 -0.000216
1.035385 42.913486 -0.000356
1.349208 42.913486 -0.000486
1.663032 42.913486 -0.000571
1.976854 42.913486 -0.000642
2.290677 42.913486 -0.000644
2.604500 42.913486 -0.000552
2.918324 42.913486 -0.000607
3.232146 42.913486 -0.000847
3.545969 42.913486 -0.001009
3.859793 42.913486 -0.000930
4.173615 42.913486 -0.000698
4.487438 42.913486 -0.000626
4.801261 42.913486 -0.000511
5.115085 42.913486 -0.000520
5.428907 42.913486 -0.000623
5.742730 42.913486 -0.000515
6.056554 42.913486 -0.000402
6.370377 42.913486 -0.000281
6.684199 42.913486 0.000197
6.998022 42.913486 0.000561
7.311846 42.913486 0.001250
7.625669 42.913486 0.003439
7.939491 42.913486 0.006641
8.253315 42.913486 0.010780
8.567138 42.913486 0.018274
8.880960 42.913486 0.032519
9.194784 42.913486 0.056634
9.508606 42.913486 0.096249
9.822430 42.913486 0.146008
10.136253 42.913486 0.220336
10.450075 42.913486 0.312597
10.763899 42.913486 0.429895
11.077723 42.913486 0.544933
11.391544 42.913486 0.661358
11.705368 42.913486 0.783675
12.019190 42.913486 0.912738
12.333014 42.913486 1.020044
12.646837 42.913486 1.094472
12.960659 42.913486 1.150147
13.274483 42.913486 1.202297
13.588306 42.913486 1.237179
13.902128 42.913486 1.264434
14.215952 42.913486 1.260488
14.529776 42.913486 1.249075
14.843597 42.913486 1.208990
15.157421 42.913486 1.142479
15.471243 42.913486 1.060877
15.785067 42.913486 0.947472
16.098890 42.913486 0.823373
16.412712 42.913486 0.676882
16.726536 42.913486 0.523678
17.040359 42.913486 0.366564
17.354181 42.913486 0.202244
17.668005 42.913486 0.024002
17.981829 42.913486 -0.160985
18.295650 42.913486 -0.325689
18.609474 42.913486 -0.476432
18.923298 42.913486 -0.568719
19.237120 42.913486 0.000000
-6.810190 42.599663 0.000000
-6.496367 42.599663 0.000000
-6.182544 42.599663 -0.000415
-5.868721 42.599663 -0.000567
-5.554898 42.599663 -0.000519
-5.241075 42.599663 -0.000349
-4.927252 42.599663 -0.000237
-4.613429 42.599663 -0.000282
-4.299606 42.599663 -0.000421
-3.985783 42.599663 -0.000435
-3.671960 42.599663 -0.000397
-3.358137 42.599663 -0.000279
-3.044314 42.599663 -0.000133
-2.730491 42.599663 0.000004
-2.416668 42.599663 0.000097
-2.102845 42.599663 0.000174
-1.789022 42.599663 0.000183
-1.475199 42.599663 -0.000037
-1.161376 42.599663 -0.000240
-0.847553 42.599663 -0.000287
-0.533730 42.599663 -0.000211
-0.219907 42.599663 -0.000153
0.093916 42.599663 -0.000152
0.407739 42.599663 -0.000207
0.721562 42.599663 -0.000291
1.035385 42.599663 -0.000494
1.349208 42.599663 -0.000590
1.663032 42.599663 -0.000557
1.976854 42.599663 -0.000545
2.290677 42.599663 -0.000557
2.604500 42.599663 -0.000522
2.918324 42.599663 -0.000590
3.232146 42.599663 -0.000820
3.545969 42.599663 -0.000983
3.859793 42.599663 -0.000883
4.173615 42.599663 -0.000694
4.487438 42.599663 -0.000642
4.801261 42.599663 -0.000531
5.115085 42.599663 -0.000505
5.428907 42.599663 -0.000553
5.742730 42.599663 -0.000415
6.056554 42.599663 -0.000430
6.370377 42.599663 -0.000358
6.684199 42.599663 0.000119
6.998022 42.599663 0.000510
7.311846 42.599663 0.001602
7.625669 42.599663 0.003387
7.939491 42.599663 0.005725
8.253315 42.599663 0.009934
8.567138 42.599663 0.018021
8.880960 42.599663 0.032076
9.194784 42.599663 0.055841
9.508606 42.599663 0.096791
9.822430 42.599663 0.143751
10.136253 42.599663 0.221545
10.450075 42.599663 0.317005
10.763899 42.599663 0.429306
11.077723 42.599663 0.548475
11.391544 42.599663 0.661208
11.705368 42.599663 0.784107
12.019190 42.599663 0.911521
12.333014 42.599663 1.023058
12.646837 42.599663 1.092076
12.960659 42.599663 1.144334
13.274483 42.599663 1.203601
13.588306 42.599663 1.246003
13.902128 42.599663 1.270590
14.215952 42.599663 1.262855
14.529776 42.599663 1.243116
14.843597 42.599663 1.201914
15.157421 42.599663 1.142394
15.471243 42.599663 1.061944
15.785067 42.599663 0.952083
16.098890 42.599663 0.821060
16.412712 42.599663 0.671192
16.726536 42.599663 0.524120
17.040359 42.599663 0.364848
17.354181 42.599663 0.201213
17.668005 42.599663 0.022711
17.981829 42.599663 -0.165047
18.295650 42.599663 -0.330659
18.609474 42.599663 -0.468816
18.923298 42.599663 -0.568882
19.237120 42.599663 0.000000
-6.810190 42.285843 0.000000
-6.496367 42.285843 0.000000
-6.182544 42.285843 -0.000372
-5.868721 42.285843 -0.000475
-5.554898 42.285843 -0.000477
-5.241075 42.285843 -0.000373
-4.927252 42.285843 -0.000291
-4.613429 42.285843 -0.000279
-4.299606 42.285843 -0.000386
-3.985783 42.285843 -0.000414
-3.671960 42.285843 -0.000375
-3.358137 42.285843 -0.000267
-3.044314 42.285843 -0.000169
-2.730491 42.285843 -0.000036
-2.416668 42.285843 0.000071
-2.102845 42.285843 0.000161
-1.789022 42.285843 0.000193
-1.475199 42.285843 -0.000025
-1.161376 42.285843 -0.000260
-0.847553 42.285843 -0.000331
-0.533730 42.285843 -0.000306
-0.219907 42.285843 -0.000239
0.093916 42.285843 -0.000190
0.407739 42.285843 -0.000216
0.721562 42.285843 -0.000355
1.035385 42.285843 -0.000598
1.349208 42.285843 -0.000639
1.663032 42.285843 -0.000538
1.976854 42.285843 -0.000470
2.290677 42.285843 -0.000478
2.604500 42.285843 -0.000507
2.918324 42.285843 -0.000582
3.232146 42.285843 -0.000748
3.545969 42.285843 -0.000857
3.859793 42.285843 -0.000811
4.173615 42.285843 -0.000697
4.487438 42.285843 -0.000705
4.801261 42.285843 -0.000613
5.115085 42.285843 -0.000568
5.428907 42.285843 -0.000564
5.742730 42.285843 -0.000446
6.056554 42.285843 -0.000459
6.370377 42.285843 -0.000294
6.684199 42.285843 0.000191
6.998022 42.285843 0.000839
7.311846 42.285843 0.001853
7.625669 42.285843 0.003275
7.939491 42.285843 0.005445
8.253315 42.285843 0.010201
8.567138 42.285843 0.018187
8.880960 42.285843 0.032248
9.194784 42.285843 0.056920
9.508606 42.285843 0.091783
9.822430 42.285843 0.145319
10.136253 42.285843 0.215144
10.450075 42.285843 0.321323
10.763899 42.285843 0.437554
11.077723 42.285843 0.550964
11.391544 42.285843 0.672323
11.705368 42.285843 0.790184
12.019190 42.285843 0.913928
12.333014 42.285843 1.020737
12.646837 42.285843 1.087841
12.960659 42.285843 1.151537
13.274483 42.285843 1.202094
13.588306 42.285843 1.254148
13.902128 42.285843 1.274604
14.215952 42.285843 1.261491
14.529776 42.285843 1.243966
14.843597 42.285843 1.198744
15.157421 42.285843 1.143975
15.471243 42.285843 1.063045
15.785067 42.285843 0.951035
16.098890 42.285843 0.815504
16.412712 42.285843 0.670275
16.726536 42.285843 0.519288
17.040359 42.285843 0.359234
17.354181 42.285843 0.192027
17.668005 42.285843 0.016426
17.981829 42.285843 -0.165930
18.295650 42.285843 -0.330289
18.609474 42.285843 -0.462170
18.923298 42.285843 -0.560751
19.237120 42.285843 0.000000
-6.810190 41.972019 0.000000
-6.496367 41.972019 0.000000
-6.182544 41.972019 -0.000333
-5.868721 41.972019 -0.000401
-5.554898 41.972019 -0.000452
-5.241075 41.972019 -0.000391
-4.927252 41.972019 -0.000334
-4.613429 41.972019 -0.000308
-4.299606 41.972019 -0.000325
-3.985783 41.972019 -0.000290
-3.671960 41.972019 -0.000254
-3.358137 41.972019 -0.000183
-3.044314 41.972019 -0.000162
-2.730491 41.972019 -0.000103
-2.416668 41.972019 0.000005
-2.102845 41.972019 0.000091
-1.789022 41.972019 0.000135
-1.475199 41.972019 -0.000035
-1.161376 41.972019 -0.000248
-0.847553 41.972019 -0.000341
-0.533730 41.972019 -0.000392
-0.219907 41.972019 -0.000314
0.093916 41.972019 -0.000209
0.407739 41.972019 -0.000216
0.721562 41.972019 -0.000365
1.035385 41.972019 -0.000602
1.349208 41.972019 -0.000624
1.663032 41.972019 -0.000462
1.976854 41.972019 -0.000406
2.290677 41.972019 -0.000424
2.604500 41.972019 -0.000496
2.918324 41.972019 -0.000563
3.232146 41.972019 -0.000648
3.545969 41.972019 -0.000682
3.859793 41.972019 -0.000729
4.173615 41.972019 -0.000737
4.487438 41.972019 -0.000791
4.801261 41.972019 -0.000763
5.115085 41.972019 -0.000669
5.428907 41.972019 -0.000606
5.742730 41.972019 -0.000562
6.056554 41.972019 -0.000480
6.370377 41.972019 -0.000279
6.684199 41.972019 0.000121
6.998022 41.972019 0.000785
7.311846 41.972019 0.001782
7.625669 41.972019 0.003122
7.939491 41.972019 0.005672
8.253315 41.972019 0.010349
8.567138 41.972019 0.018337
8.880960 41.972019 0.032110
9.194784 41.972019 0.056154
9.508606 41.972019 0.094861
9.822430 41.972019 0.145267
10.136253 41.972019 0.215803
10.450075 41.972019 0.326075
10.763899 41.972019 0.434269
11.077723 41.972019 0.550230
11.391544 41.972019 0.668421
11.705368 41.972019 0.792725
12.019190 41.972019 0.915566
12.333014 41.972019 1.026445
12.646837 41.972019 1.093190
12.960659 41.972019 1.150556
13.274483 41.972019 1.205215
13.588306 41.972019 1.252727
13.902128 41.972019 1.276781
14.215952 41.972019 1.269158
14.529776 41.972019 1.243499
14.843597 41.972019 1.208056
15.157421 41.972019 1.146594
15.471243 41.972019 1.063362
15.785067 41.972019 0.951743
16.098890 41.972019 0.820848
16.412712 41.972019 0.675341
16.726536 41.972019 0.525417
17.040359 41.972019 0.360070
17.354181 41.972019 0.189424
17.668005 41.972019 0.010613
17.981829 41.972019 -0.171227
18.295650 41.972019 -0.326728
18.609474 41.972019 -0.469160
18.923298 41.972019 -0.567435
19.237120 41.972019 0.000000
-6.810190 41.658195 0.000000
-6.496367 41.658195 0.000000
-6.182544 41.658195 -0.000270
-5.868721 41.658195 -0.000330
-5.554898 41.658195 -0.000407
-5.241075 41.658195 -0.000376
-4.927252 41.658195 -0.000359
-4.613429 41.658195 -0.000298
-4.299606 41.658195 -0.000203
-3.985783 41.658195 -0.000107
-3.671960 41.658195 -0.000095
-3.358137 41.658195 -0.000096
-3.044314 41.658195 -0.000144
-2.730491 41.658195 -0.000159
-2.416668 41.658195 -0.000055
-2.102845 41.658195 -0.000009
-1.789022 41.658195 0.000023
-1.475199 41.658195 -0.000078
-1.161376 41.658195 -0.000211
-0.847553 41.658195 -0.000349
-0.533730 41.658195 -0.000470
-0.219907 41.658195 -0.000405
0.093916 41.658195 -0.000287
0.407739 41.658195 -0.000266
0.721562 41.658195 -0.000330
1.035385 41.658195 -0.000510
1.349208 41.658195 -0.000536
1.663032 41.658195 -0.000371
1.976854 41.658195 -0.000346
2.290677 41.658195 -0.000393
2.604500 41.658195 -0.000488
2.918324 41.658195 -0.000530
3.232146 41.658195 -0.000532
3.545969 41.658195 -0.000536
3.859793 41.658195 -0.000664
4.173615 41.658195 -0.000786
4.487438 41.658195 -0.000881
4.801261 41.658195 -0.000927
5.115085 41.658195 -0.000815
5.428907 41.658195 -0.000734
5.742730 41.658195 -0.000688
6.056554 41.658195 -0.000581
6.370377 41.658195 -0.000294
6.684199 41.658195 0.000006
6.998022 41.658195 0.000779
7.311846 41.658195 0.001711
7.625669 41.658195 0.002996
7.939491 41.658195 0.005650
8.253315 41.658195 0.010094
8.567138 41.658195 0.017274
8.880960 41.658195 0.029818
9.194784 41.658195 0.056034
9.508606 41.658195 0.094497
9.822430 41.658195 0.146853
10.136253 41.658195 0.219799
10.450075 41.658195 0.323185
10.763899 41.658195 0.433935
11.077723 41.658195 0.552963
11.391544 41.658195 0.672485
11.705368 41.658195 0.783788
12.019190 41.658195 0.922597
12.333014 41.658195 1.025791
12.646837 41.658195 1.104111
12.960659 41.658195 1.164279
13.274483 41.658195 1.224081
13.588306 41.658195 1.258847
13.902128 41.658195 1.275025
14.215952 41.658195 1.267920
14.529776 41.658195 1.248801
14.843597 41.658195 1.209513
15.157421 41.658195 1.144466
15.471243 41.658195 1.060608
15.785067 41.658195 0.953159
16.098890 41.658195 0.824342
16.412712 41.658195 0.686820
16.726536 41.658195 0.536745
17.040359 41.658195 0.370441
17.354181 41.658195 0.188432
17.668005 41.658195 0.010083
17.981829 41.658195 -0.167388
18.295650 41.658195 -0.327511
18.609474 41.658195 -0.469715
18.923298 41.658195 -0.575093
19.237120 41.658195 0.000000
-6.810190 41.344372 0.000000
-6.496367 41.344372 0.000000
-6.182544 41.344372 -0.000321
-5.868721 41.344372 -0.000327
-5.554898 41.344372 -0.000374
-5.241075 41.344372 -0.000357
-4.927252 41.344372 -0.000333
-4.613429 41.344372 -0.000257
-4.299606 41.344372 -0.000060
-3.985783 41.344372 0.000075
-3.671960 41.344372 0.000052
-3.358137 41.344372 0.000010
-3.044314 41.344372 -0.000113
-2.730491 41.344372 -0.000171
-2.416668 41.344372 -0.000070
-2.102845 41.344372 -0.000086
-1.789022 41.344372 -0.000060
-1.475199 41.344372 -0.000109
-1.161376 41.344372 -0.000197
-0.847553 41.344372 -0.000354
-0.533730 41.344372 -0.000496
-0.219907 41.344372 -0.000477
0.093916 41.344372 -0.000431
0.407739 41.344372 -0.000366
0.721562 41.344372 -0.000326
1.035385 41.344372 -0.000405
1.349208 41.344372 -0.000429
1.663032 41.344372 -0.000333
1.976854 41.344372 -0.000305
2.290677 41.344372 -0.000358
2.604500 41.344372 -0.000451
2.918324 41.344372 -0.000489
3.232146 41.344372 -0.000444
3.545969 41.344372 -0.000420
3.859793 41.344372 -0.000619
4.173615 41.344372 -0.000810
4.487438 41.344372 -0.000990
4.801261 41.344372 -0.001033
5.115085 41.344372 -0.000926
5.428907 41.344372 -0.000759
5.742730 41.344372 -0.000734
6.056554 41.344372 -0.000604
6.370377 41.344372 -0.000259
6.684199 41.344372 0.000093
6.998022 41.344372 0.000946
7.311846 41.344372 0.001999
7.625669 41.344372 0.003049
7.939491 41.344372 0.005652
8.253315 41.344372 0.009983
8.567138 41.344372 0.016256
8.880960 41.344372 0.030611
9.194784 41.344372 0.055604
9.508606 41.344372 0.095985
9.822430 41.344372 0.146189
10.136253 41.344372 0.223680
10.450075 41.344372 0.313248
10.763899 41.344372 0.427261
11.077723 41.344372 0.547882
11.391544 41.344372 0.675876
11.705368 41.344372 0.792671
12.019190 41.344372 0.922729
12.333014 41.344372 1.022267
12.646837 41.344372 1.100402
12.960659 41.344372 1.173064
13.274483 41.344372 1.237136
13.588306 41.344372 1.273225
13.902128 41.344372 1.278915
14.215952 41.344372 1.271090
14.529776 41.344372 1.259873
14.843597 41.344372 1.218712
15.157421 41.344372 1.146816
15.471243 41.344372 1.058022
15.785067 41.344372 0.955797
16.098890 41.344372 0.828253
16.412712 41.344372 0.694302
16.726536 41.344372 0.535972
17.040359 41.344372 0.370809
17.354181 41.344372 0.189225
17.668005 41.344372 0.009666
17.981829 41.344372 -0.168853
18.295650 41.344372 -0.331743
18.609474 41.344372 -0.469656
18.923298 41.344372 -0.564810
19.237120 41.344372 0.000000
-6.810190 41.030548 0.000000
-6.496367 41.030548 0.000000
-6.182544 41.030548 -0.000455
-5.868721 41.030548 -0.000381
-5.554898 41.030548 -0.000342
-5.241075 41.030548 -0.000332
-4.927252 41.030548 -0.000283
-4.613429 41.030548 -0.000178
-4.299606 41.030548 0.000048
-3.985783 41.030548 0.000182
-3.671960 41.030548 0.000149
-3.358137 41.030548 0.000062
-3.044314 41.030548 -0.000090
-2.730491 41.030548 -0.000142
-2.416668 41.030548 -0.000080
-2.102845 41.030548 -0.000112
-1.789022 41.030548 -0.000097
-1.475199 41.030548 -0.000127
-1.161376 41.030548 -0.000216
-0.847553 41.030548 -0.000343
-0.533730 41.030548 -0.000447
-0.219907 41.030548 -0.000481
0.093916 41.030548 -0.000554
0.407739 41.030548 -0.000449
0.721562 41.030548 -0.000307
1.035385 41.030548 -0.000299
1.349208 41.030548 -0.000343
1.663032 41.030548 -0.000345
1.976854 41.030548 -0.000326
2.290677 41.030548 -0.000342
2.604500 41.030548 -0.000410
2.918324 41.030548 -0.000435
3.232146 41.030548 -0.000376
3.545969 41.030548 -0.000412
3.859793 41.030548 -0.000645
4.173615 41.030548 -0.000854
4.487438 41.030548 -0.001010
4.801261 41.030548 -0.001050
5.115085 41.030548 -0.000981
5.428907 41.030548 -0.000770
5.742730 41.030548 -0.000716
6.056554 41.030548 -0.000675
6.370377 41.030548 -0.000354
6.684199 41.030548 -0.000038
6.998022 41.030548 0.000680
7.311846 41.030548 0.001678
7.625669 41.030548 0.003100
7.939491 41.030548 0.006070
8.253315 41.030548 0.010568
8.567138 41.030548 0.016413
8.880960 41.030548 0.030001
9.194784 41.030548 0.054126
9.508606 41.030548 0.094483
9.822430 41.030548 0.147945
10.136253 41.030548 0.223952
10.450075 41.030548 0.311699
10.763899 41.030548 0.425438
11.077723 41.030548 0.546667
11.391544 41.030548 0.681043
11.705368 41.030548 0.802048
12.019190 41.030548 0.925680
12.333014 41.030548 1.024951
12.646837 41.030548 1.105406
12.960659 41.030548 1.171934
13.274483 41.030548 1.239641
13.588306 41.030548 1.281761
13.902128 41.030548 1.290030
14.215952 41.030548 1.277111
14.529776 41.030548 1.263435
14.843597 41.030548 1.227196
15.157421 41.030548 1.156995
15.471243 41.030548 1.064635
15.785067 41.030548 0.957631
16.098890 41.030548 0.830075
16.412712 41.030548 0.696451
16.726536 41.030548 0.534897
17.040359 41.030548 0.363608
17.354181 41.030548 0.188148
17.668005 41.030548 0.006776
17.981829 41.030548 -0.172840
18.295650 41.030548 -0.332161
18.609474 41.030548 -0.469258
18.923298 41.030548 -0.571860
19.237120 41.030548 0.000000
-6.810190 40.716728 0.000000
-6.496367 40.716728 0.000000
-6.182544 40.716728 -0.000550
-5.868721 40.716728 -0.000469
-5.554898 40.716728 -0.000328
-5.241075 40.716728 -0.000263
-4.927252 40.716728 -0.000214
-4.613429 40.716728 -0.000086
-4.299606 40.716728 0.000079
-3.985783 40.716728 0.000189
-3.671960 40.716728 0.000172
-3.358137 40.716728 0.000055
-3.044314 40.716728 -0.000097
-2.730491 40.716728 -0.000110
-2.416668 40.716728 -0.000061
-2.102845 40.716728 -0.000096
-1.789022 40.716728 -0.000109
-1.475199 40.716728 -0.000094
-1.161376 40.716728 -0.000169
-0.847553 40.716728 -0.000251
-0.533730 40.716728 -0.000335
-0.219907 40.716728 -0.000419
0.093916 40.716728 -0.000561
0.407739 40.716728 -0.000471
0.721562 40.716728 -0.000322
1.035385 40.716728 -0.000234
1.349208 40.716728 -0.000267
1.663032 40.716728 -0.000390
1.976854 40.716728 -0.000385
2.290677 40.716728 -0.000355
2.604500 40.716728 -0.000419
2.918324 40.716728 -0.000433
3.232146 40.716728 -0.000383
3.545969 40.716728 -0.000482
3.859793 40.716728 -0.000719
4.173615 40.716728 -0.000892
4.487438 40.716728 -0.000935
4.801261 40.716728 -0.000943
5.115085 40.716728 -0.000899
5.428907 40.716728 -0.000771
5.742730 40.716728 -0.000683
6.056554 40.716728 -0.000631
6.370377 40.716728 -0.000395
6.684199 40.716728 -0.000029
6.998022 40.716728 0.000563
7.311846 40.716728 0.001583
7.625669 40.716728 0.003535
7.939491 40.716728 0.005816
8.253315 40.716728 0.010581
8.567138 40.716728 0.017061
8.880960 40.716728 0.030409
9.194784 40.716728 0.053039
9.508606 40.716728 0.086887
9.822430 40.716728 0.143412
10.136253 40.716728 0.216982
10.450075 40.716728 0.310115
10.763899 40.716728 0.433153
11.077723 40.716728 0.557396
11.391544 40.716728 0.682055
11.705368 40.716728 0.806440
12.019190 40.716728 0.924051
12.333014 40.716728 1.024528
12.646837 40.716728 1.106884
12.960659 40.716728 1.180426
13.274483 40.716728 1.249241
13.588306 40.716728 1.291800
13.902128 40.716728 1.298833
14.215952 40.716728 1.284039
14.529776 40.716728 1.275700
14.843597 40.716728 1.239818
15.157421 40.716728 1.171427
15.471243 40.716728 1.075541
15.785067 40.716728 0.962389
16.098890 40.716728 0.829674
16.412712 40.716728 0.695535
16.726536 40.716728 0.536762
17.040359 40.716728 0.366375
17.354181 40.716728 0.184919
17.668005 40.716728 0.002370
17.981829 40.716728 -0.172084
18.295650 40.716728 -0.339174
18.609474 40.716728 -0.478549
18.923298 40.716728 -0.569543
19.237120 40.716728 0.000000
-6.810190 40.402905 0.000000
-6.496367 40.402905 0.000000
-6.182544 40.402905 -0.000533
-5.868721 40.402905 -0.000561
-5.554898 40.402905 -0.000366
-5.241075 40.402905 -0.000238
-4.927252 40.402905 -0.000185
-4.613429 40.402905 -0.000046
-4.299606 40.402905 0.000065
-3.985783 40.402905 0.000124
-3.671960 40.402905 0.000116
-3.358137 40.402905 0.000014
-3.044314 40.402905 -0.000102
-2.730491 40.402905 -0.000064
-2.416668 40.402905 -0.000050
-2.102845 40.402905 -0.000093
-1.789022 40.402905 -0.000116
-1.475199 40.402905 -0.000073
-1.161376 40.402905 -0.000091
-0.847553 40.402905 -0.000128
-0.533730 40.402905 -0.000204
-0.219907 40.402905 -0.000269
0.093916 40.402905 -0.000432
0.407739 40.402905 -0.000446
0.721562 40.402905 -0.000294
1.035385 40.402905 -0.000180
1.349208 40.402905 -0.000262
1.663032 40.402905 -0.000453
1.976854 40.402905 -0.000457
2.290677 40.402905 -0.000425
2.604500 40.402905 -0.000433
2.918324 40.402905 -0.000435
3.232146 40.402905 -0.000426
3.545969 40.402905 -0.000574
3.859793 40.402905 -0.000816
4.173615 40.402905 -0.000876
4.487438 40.402905 -0.000789
4.801261 40.402905 -0.000780
5.115085 40.402905 -0.000803
5.428907 40.402905 -0.000812
5.742730 40.402905 -0.000701
6.056554 40.402905 -0.000524
6.370377 40.402905 -0.000265
6.684199 40.402905 0.000088
6.998022 40.402905 0.000502
7.311846 40.402905 0.001870
7.625669 40.402905 0.003694
7.939491 40.402905 0.005844
8.253315 40.402905 0.010302
8.567138 40.402905 0.016993
8.880960 40.402905 0.030350
9.194784 40.402905 0.054114
9.508606 40.402905 0.090411
9.822430 40.402905 0.145396
10.136253 40.402905 0.218950
10.450075 40.402905 0.313970
10.763899 40.402905 0.425051
11.077723 40.402905 0.546320
11.391544 40.402905 0.673225
11.705368 40.402905 0.795957
12.019190 40.402905 0.922231
12.333014 40.402905 1.033436
12.646837 40.402905 1.115852
12.960659 40.402905 1.189916
13.274483 40.402905 1.260163
13.588306 40.402905 1.302070
13.902128 40.402905 1.309629
14.215952 40.402905 1.303682
14.529776 40.402905 1.289068
14.843597 40.402905 1.250015
15.157421 40.402905 1.183157
15.471243 40.402905 1.082274
15.785067 40.402905 0.969920
16.098890 40.402905 0.834573
16.412712 40.402905 0.694934
16.726536 40.402905 0.537127
17.040359 40.402905 0.362320
17.354181 40.402905 0.185778
17.668005 40.402905 0.005905
17.981829 40.402905 -0.166286
18.295650 40.402905 -0.344747
18.609474 40.402905 -0.486611
18.923298 40.402905 -0.571480
19.237120 40.402905 0.000000
-6.810190 40.089081 0.000000
-6.496367 40.089081 0.000000
-6.182544 40.089081 -0.000485
-5.868721 40.089081 -0.000604
-5.554898 40.089081 -0.000443
-5.241075 40.089081 -0.000287
-4.927252 40.089081 -0.000224
-4.613429 40.089081 -0.000077
-4.299606 40.089081 0.000038
-3.985783 40.089081 -0.000002
-3.671960 40.089081 -0.000048
-3.358137 40.089081 -0.000069
-3.044314 40.089081 -0.000073
-2.730491 40.089081 0.000014
-2.416668 40.089081 -0.000015
-2.102845 40.089081 -0.000138
-1.789022 40.089081 -0.000134
-1.475199 40.089081 -0.000043
-1.161376 40.089081 -0.000008
-0.847553 40.089081 -0.000027
-0.533730 40.089081 -0.000056
-0.219907 40.089081 -0.000094
0.093916 40.089081 -0.000262
0.407739 40.089081 -0.000371
0.721562 40.089081 -0.000275
1.035385 40.089081 -0.000176
1.349208 40.089081 -0.000253
1.663032 40.089081 -0.000497
1.976854 40.089081 -0.000531
2.290677 40.089081 -0.000512
2.604500 40.089081 -0.000477
2.918324 40.089081 -0.000483
3.232146 40.089081 -0.000532
3.545969 40.089081 -0.000689
3.859793 40.089081 -0.000846
4.173615 40.089081 -0.000784
4.487438 40.089081 -0.000626
4.801261 40.089081 -0.000619
5.115085 40.089081 -0.000732
5.428907 40.089081 -0.000849
5.742730 40.089081 -0.000752
6.056554 40.089081 -0.000502
6.370377 40.089081 -0.000142
6.684199 40.089081 0.000091
6.998022 40.089081 0.000315
7.311846 40.089081 0.001496
7.625669 40.089081 0.003409
7.939491 40.089081 0.006250
8.253315 40.089081 0.010219
8.567138 40.089081 0.017825
8.880960 40.089081 0.029319
9.194784 40.089081 0.052288
9.508606 40.089081 0.094882
9.822430 40.089081 0.144427
10.136253 40.089081 0.229015
10.450075 40.089081 0.315460
10.763899 40.089081 0.420617
11.077723 40.089081 0.538537
11.391544 40.089081 0.665108
11.705368 40.089081 0.793261
12.019190 40.089081 0.921773
12.333014 40.089081 1.031529
12.646837 40.089081 1.122178
12.960659 40.089081 1.196577
13.274483 40.089081 1.261498
13.588306 40.089081 1.309635
13.902128 40.089081 1.320568
14.215952 40.089081 1.320156
14.529776 40.089081 1.298434
14.843597 40.089081 1.247423
15.157421 40.089081 1.172836
15.471243 40.089081 1.082763
15.785067 40.089081 0.971696
16.098890 40.089081 0.841836
16.412712 40.089081 0.699989
16.726536 40.089081 0.540019
17.040359 40.089081 0.369633
17.354181 40.089081 0.190721
17.668005 40.089081 0.009076
17.981829 40.089081 -0.179108
18.295650 40.089081 -0.355347
18.609474 40.089081 -0.494176
18.923298 40.089081 -0.592454
19.237120 40.089081 0.000000
-6.810190 39.775257 0.000000
-6.496367 39.775257 0.000000
-6.182544 39.775257 -0.000405
-5.868721 39.775257 -0.000573
-5.554898 39.775257 -0.000475
-5.241075 39.775257 -0.000326
-4.927252 39.775257 -0.000238
-4.613429 39.775257 -0.000138
-4.299606 39.775257 -0.000050
-3.985783 39.775257 -0.000161
-3.671960 39.775257 -0.000240
-3.358137 39.775257 -0.000151
-3.044314 39.775257 -0.000039
-2.730491 39.775257 0.000074
-2.416668 39.775257 0.000031
-2.102845 39.775257 -0.000125
-1.789022 39.775257 -0.000116
-1.475199 39.775257 0.000009
-1.161376 39.775257 0.000051
-0.847553 39.775257 0.000043
-0.533730 39.775257 0.000045
-0.219907 39.775257 0.000027
0.093916 39.775257 -0.000140
0.407739 39.775257 -0.000320
0.721562 39.775257 -0.000259
1.035385 39.775257 -0.000198
1.349208 39.775257 -0.000252
1.663032 39.775257 -0.000502
1.976854 39.775257 -0.000570
2.290677 39.775257 -0.000560
2.604500 39.775257 -0.000534
2.918324 39.775257 -0.000563
3.232146 39.775257 -0.000653
3.545969 39.775257 -0.000763
3.859793 39.775257 -0.000827
4.173615 39.775257 -0.000663
4.487438 39.775257 -0.000482
4.801261 39.775257 -0.000495
5.115085 39.775257 -0.000667
5.428907 39.775257 -0.000847
5.742730 39.775257 -0.000778
6.056554 39.775257 -0.000482
6.370377 39.775257 -0.000169
6.684199 39.775257 0.000131
6.998022 39.775257 0.000349
7.311846 39.775257 0.001322
7.625669 39.775257 0.003132
7.939491 39.775257 0.006409
8.253315 39.775257 0.010100
8.567138 39.775257 0.017228
8.880960 39.775257 0.029311
9.194784 39.775257 0.052636
9.508606 39.775257 0.093755
9.822430 39.775257 0.143317
10.136253 39.775257 0.221093
10.450075 39.775257 0.313597
10.763899 39.775257 0.421721
11.077723 39.775257 0.541568
11.391544 39.775257 0.663514
11.705368 39.775257 0.790593
12.019190 39.775257 0.929049
12.333014 39.775257 1.038551
12.646837 39.775257 1.127783
12.960659 39.775257 1.200807
13.274483 39.775257 1.263456
13.588306 39.775257 1.312658
13.902128 39.775257 1.329124
14.215952 39.775257 1.334959
14.529776 39.775257 1.308480
14.843597 39.775257 1.246530
15.157421 39.775257 1.172196
15.471243 39.775257 1.086034
15.785067 39.775257 0.975150
16.098890 39.775257 0.855069
16.412712 39.775257 0.709511
16.726536 39.775257 0.549454
17.040359 39.775257 0.368602
17.354181 39.775257 0.184389
17.668005 39.775257 0.009384
17.981829 39.775257 -0.175068
18.295650 39.775257 -0.347539
18.609474 39.775257 -0.505652
18.923298 39.775257 -0.598010
19.237120 39.775257 0.000000
-6.810190 39.461433 0.000000
-6.496367 39.461433 0.000000
-6.182544 39.461433 -0.000374
-5.868721 39.461433 -0.000515
-5.554898 39.461433 -0.000456
-5.241075 39.461433 -0.000334
-4.927252 39.461433 -0.000251
-4.613429 39.461433 -0.000195
-4.299606 39.461433 -0.000148
-3.985783 39.461433 -0.000267
-3.671960 39.461433 -0.000351
-3.358137 39.461433 -0.000138
-3.044314 39.461433 0.000050
-2.730491 39.461433 0.000154
-2.416668 39.461433 0.000073
-2.102845 39.461433 -0.000088
-1.789022 39.461433 -0.000051
-1.475199 39.461433 0.000075
-1.161376 39.461433 0.000086
-0.847553 39.461433 0.000071
-0.533730 39.461433 0.000091
-0.219907 39.461433 0.000060
0.093916 39.461433 -0.000093
0.407739 39.461433 -0.000267
0.721562 39.461433 -0.000246
1.035385 39.461433 -0.000194
1.349208 39.461433 -0.000253
1.663032 39.461433 -0.000446
1.976854 39.461433 -0.000544
2.290677 39.461433 -0.000551
2.604500 39.461433 -0.000556
2.918324 39.461433 -0.000617
3.232146 39.461433 -0.000747
3.545969 39.461433 -0.000811
3.859793 39.461433 -0.000778
4.173615 39.461433 -0.000570
4.487438 39.461433 -0.000381
4.801261 39.461433 -0.000379
5.115085 39.461433 -0.000559
5.428907 39.461433 -0.000745
5.742730 39.461433 -0.000758
6.056554 39.461433 -0.000494
6.370377 39.461433 -0.000185
6.684199 39.461433 0.000125
6.998022 39.461433 0.000493
7.311846 39.461433 0.001590
7.625669 39.461433 0.003057
7.939491 39.461433 0.006132
8.253315 39.461433 0.010364
8.567138 39.461433 0.017553
8.880960 39.461433 0.029983
9.194784 39.461433 0.053028
9.508606 39.461433 0.094317
9.822430 39.461433 0.144449
10.136253 39.461433 0.217153
10.450075 39.461433 0.307701
10.763899 39.461433 0.419501
11.077723 39.461433 0.544340
11.391544 39.461433 0.666083
11.705368 39.461433 0.807562
12.019190 39.461433 0.920103
12.333014 39.461433 1.039760
12.646837 39.461433 1.127198
12.960659 39.461433 1.203836
13.274483 39.461433 1.265329
13.588306 39.461433 1.308364
13.902128 39.461433 1.332693
14.215952 39.461433 1.337064
14.529776 39.461433 1.315298
14.843597 39.461433 1.253911
15.157421 39.461433 1.178020
15.471243 39.461433 1.093015
15.785067 39.461433 0.987678
16.098890 39.461433 0.855970
16.412712 39.461433 0.712965
16.726536 39.461433 0.551651
17.040359 39.461433 0.369740
17.354181 39.461433 0.186542
17.668005 39.461433 0.008180
17.981829 39.461433 -0.178319
18.295650 39.461433 -0.347620
18.609474 39.461433 -0.505121
18.923298 39.461433 -0.595658
19.237120 39.461433 0.000000
-6.810190 39.147614 0.000000
-6.496367 39.147614 0.000000
-6.182544 39.147614 -0.000372
-5.868721 39.147614 -0.000430
-5.554898 39.147614 -0.000405
-5.241075 39.147614 -0.000326
-4.927252 39.147614 -0.000216
-4.613429 39.147614 -0.000218
-4.299606 39.147614 -0.000255
-3.985783 39.147614 -0.000370
-3.671960 39.147614 -0.000317
-3.358137 39.147614 -0.000055
-3.044314 39.147614 0.000155
-2.730491 39.147614 0.000240
-2.416668 39.147614 0.000106
-2.102845 39.147614 -0.000017
-1.789022 39.147614 0.000041
-1.475199 39.147614 0.000139
-1.161376 39.147614 0.000107
-0.847553 39.147614 0.000095
-0.533730 39.147614 0.000101
-0.219907 39.147614 0.000046
0.093916 39.147614 -0.000075
0.407739 39.147614 -0.000221
0.721562 39.147614 -0.000242
1.035385 39.147614 -0.000245
1.349208 39.147614 -0.000285
1.663032 39.147614 -0.000391
1.976854 39.147614 -0.000470
2.290677 39.147614 -0.000507
2.604500 39.147614 -0.000561
2.918324 39.147614 -0.000646
3.232146 39.147614 -0.000752
3.545969 39.147614 -0.000800
3.859793 39.147614 -0.000742
4.173615 39.147614 -0.000516
4.487438 39.147614 -0.000351
4.801261 39.147614 -0.000358
5.115085 39.147614 -0.000495
5.428907 39.147614 -0.000657
5.742730 39.147614 -0.000644
6.056554 39.147614 -0.000510
6.370377 39.147614 -0.000358
6.684199 39.147614 -0.000030
6.998022 39.147614 0.000490
7.311846 39.147614 0.001512
7.625669 39.147614 0.003203
7.939491 39.147614 0.005801
8.253315 39.147614 0.010258
8.567138 39.147614 0.017081
8.880960 39.147614 0.029305
9.194784 39.147614 0.052825
9.508606 39.147614 0.092366
9.822430 39.147614 0.145279
10.136253 39.147614 0.211764
10.450075 39.147614 0.310895
10.763899 39.147614 0.421678
11.077723 39.147614 0.549787
11.391544 39.147614 0.668114
11.705368 39.147614 0.797621
12.019190 39.147614 0.922751
12.333014 39.147614 1.032803
12.646837 39.147614 1.129158
12.960659 39.147614 1.204624
13.274483 39.147614 1.265453
13.588306 39.147614 1.305458
13.902128 39.147614 1.331101
14.215952 39.147614 1.345897
14.529776 39.147614 1.321129
14.843597 39.147614 1.257659
15.157421 39.147614 1.179076
15.471243 39.147614 1.089764
15.785067 39.147614 0.982445
16.098890 39.147614 0.853220
16.412712 39.147614 0.709183
16.726536 39.147614 0.543105
17.040359 39.147614 0.365100
17.354181 39.147614 0.181455
17.668005 39.147614 0.004577
17.981829 39.147614 -0.177047
18.295650 39.147614 -0.348413
18.609474 39.147614 -0.503666
18.923298 39.147614 -0.592201
19.237120 39.147614 0.000000
-6.810190 38.833786 0.000000
-6.496367 38.833786 0.000000
-6.182544 38.833786 -0.000317
-5.868721 38.833786 -0.000329
-5.554898 38.833786 -0.000322
-5.241075 38.833786 -0.000249
-4.927252 38.833786 -0.000139
-4.613429 38.833786 -0.000208
-4.299606 38.833786 -0.000368
-3.985783 38.833786 -0.000424
-3.671960 38.833786 -0.000278
-3.358137 38.833786 -0.000004
-3.044314 38.833786 0.000214
-2.730491 38.833786 0.000264
-2.416668 38.833786 0.000159
-2.102845 38.833786 0.000096
-1.789022 38.833786 0.000136
-1.475199 38.833786 0.000185
-1.161376 38.833786 0.000101
-0.847553 38.833786 0.000092
-0.533730 38.833786 0.000088
-0.219907 38.833786 0.000025
0.093916 38.833786 -0.000076
0.407739 38.833786 -0.000212
0.721562 38.833786 -0.000273
1.035385 38.833786 -0.000291
1.349208 38.833786 -0.000275
1.663032 38.833786 -0.000315
1.976854 38.833786 -0.000363
2.290677 38.833786 -0.000436
2.604500 38.833786 -0.000540
2.918324 38.833786 -0.000632
3.232146 38.833786 -0.000716
3.545969 38.833786 -0.000744
3.859793 38.833786 -0.000694
4.173615 38.833786 -0.000554
4.487438 38.833786 -0.000456
4.801261 38.833786 -0.000439
5.115085 38.833786 -0.000517
5.428907 38.833786 -0.000598
5.742730 38.833786 -0.000608
6.056554 38.833786 -0.000575
6.370377 38.833786 -0.000513
6.684199 38.833786 -0.000051
6.998022 38.833786 0.000541
7.311846 38.833786 0.001575
7.625669 38.833786 0.002914
7.939491 38.833786 0.005621
8.253315 38.833786 0.010137
8.567138 38.833786 0.017680
8.880960 38.833786 0.029373
9.194784 38.833786 0.053229
9.508606 38.833786 0.092059
9.822430 38.833786 0.145013
10.136253 38.833786 0.211913
10.450075 38.833786 0.309899
10.763899 38.833786 0.423991
11.077723 38.833786 0.543951
11.391544 38.833786 0.670536
11.705368 38.833786 0.789643
12.019190 38.833786 0.927429
12.333014 38.833786 1.032224
12.646837 38.833786 1.129627
12.960659 38.833786 1.206567
13.274483 38.833786 1.264285
13.588306 38.833786 1.305220
13.902128 38.833786 1.334100
14.215952 38.833786 1.342570
14.529776 38.833786 1.325010
14.843597 38.833786 1.262369
15.157421 38.833786 1.175537
15.471243 38.833786 1.092747
15.785067 38.833786 0.987867
16.098890 38.833786 0.857579
16.412712 38.833786 0.718915
16.726536 38.833786 0.542868
17.040359 38.833786 0.368195
17.354181 38.833786 0.187206
17.668005 38.833786 0.003285
17.981829 38.833786 -0.173048
18.295650 38.833786 -0.346987
18.609474 38.833786 -0.495823
18.923298 38.833786 -0.582078
19.237120 38.833786 0.000000
-6.810190 38.519966 0.000000
-6.496367 38.519966 0.000000
-6.182544 38.519966 -0.000260
-5.868721 38.519966 -0.000228
-5.554898 38.519966 -0.000287
-5.241075 38.519966 -0.000204
-4.927252 38.519966 -0.000035
-4.613429 38.519966 -0.000138
-4.299606 38.519966 -0.000438
-3.985783 38.519966 -0.000437
-3.671960 38.519966 -0.000260
-3.358137 38.519966 0.000008
-3.044314 38.519966 0.000163
-2.730491 38.519966 0.000225
-2.416668 38.519966 0.000142
-2.102845 38.519966 0.000156
-1.789022 38.519966 0.000190
-1.475199 38.519966 0.000171
-1.161376 38.519966 0.000065
-0.847553 38.519966 0.000052
-0.533730 38.519966 0.000022
-0.219907 38.519966 -0.000030
0.093916 38.519966 -0.000079
0.407739 38.519966 -0.000192
0.721562 38.519966 -0.000337
1.035385 38.519966 -0.000342
1.349208 38.519966 -0.000268
1.663032 38.519966 -0.000233
1.976854 38.519966 -0.000259
2.290677 38.519966 -0.000357
2.604500 38.519966 -0.000479
2.918324 38.519966 -0.000564
3.232146 38.519966 -0.000617
3.545969 38.519966 -0.000668
3.859793 38.519966 -0.000659
4.173615 38.519966 -0.000616
4.487438 38.519966 -0.000610
4.801261 38.519966 -0.000588
5.115085 38.519966 -0.000596
5.428907 38.519966 -0.000649
5.742730 38.519966 -0.000599
6.056554 38.519966 -0.000561
6.370377 38.519966 -0.000441
6.684199 38.519966 -0.000032
6.998022 38.519966 0.000534
7.311846 38.519966 0.001429
7.625669 38.519966 0.002864
7.939491 38.519966 0.005308
8.253315 38.519966 0.009863
8.567138 38.519966 0.016650
8.880960 38.519966 0.029401
9.194784 38.519966 0.052592
9.508606 38.519966 0.090963
9.822430 38.519966 0.145415
10.136253 38.519966 0.220034
10.450075 38.519966 0.319796
10.763899 38.519966 0.421320
11.077723 38.519966 0.539130
11.391544 38.519966 0.661860
11.705368 38.519966 0.794884
12.019190 38.519966 0.932092
12.333014 38.519966 1.048227
12.646837 38.519966 1.138073
12.960659 38.519966 1.205274
13.274483 38.519966 1.266135
13.588306 38.519966 1.301344
13.902128 38.519966 1.330822
14.215952 38.519966 1.345303
14.529776 38.519966 1.327663
14.843597 38.519966 1.262975
15.157421 38.519966 1.177615
15.471243 38.519966 1.090845
15.785067 38.519966 0.992184
16.098890 38.519966 0.865812
16.412712 38.519966 0.721570
16.726536 38.519966 0.552375
17.040359 38.519966 0.375204
17.354181 38.519966 0.188427
17.668005 38.519966 0.007563
17.981829 38.519966 -0.169014
18.295650 38.519966 -0.350231
18.609474 38.519966 -0.496441
18.923298 38.519966 -0.583457
19.237120 38.519966 0.000000
-6.810190 38.206142 0.000000
-6.496367 38.206142 0.000000
-6.182544 38.206142 -0.000192
-5.868721 38.206142 -0.000188
-5.554898 38.206142 -0.000259
-5.241075 38.206142 -0.000144
-4.927252 38.206142 0.000039
-4.613429 38.206142 -0.000081
-4.299606 38.206142 -0.000402
-3.985783 38.206142 -0.000405
-3.671960 38.206142 -0.000207
-3.358137 38.206142 -0.000032
-3.044314 38.206142 0.000061
-2.730491 38.206142 0.000104
-2.416668 38.206142 0.000116
-2.102845 38.206142 0.000142
-1.789022 38.206142 0.000165
-1.475199 38.206142 0.000118
-1.161376 38.206142 0.000019
-0.847553 38.206142 0.000014
-0.533730 38.206142 -0.000074
-0.219907 38.206142 -0.000145
0.093916 38.206142 -0.000119
0.407739 38.206142 -0.000203
0.721562 38.206142 -0.000390
1.035385 38.206142 -0.000392
1.349208 38.206142 -0.000244
1.663032 38.206142 -0.000172
1.976854 38.206142 -0.000195
2.290677 38.206142 -0.000294
2.604500 38.206142 -0.000388
2.918324 38.206142 -0.000473
3.232146 38.206142 -0.000511
3.545969 38.206142 -0.000551
3.859793 38.206142 -0.000603
4.173615 38.206142 -0.000678
4.487438 38.206142 -0.000739
4.801261 38.206142 -0.000679
5.115085 38.206142 -0.000663
5.428907 38.206142 -0.000696
5.742730 38.206142 -0.000648
6.056554 38.206142 -0.000515
6.370377 38.206142 -0.000429
6.684199 38.206142 -0.000016
6.998022 38.206142 0.000471
7.311846 38.206142 0.001257
7.625669 38.206142 0.002645
7.939491 38.206142 0.005326
8.253315 38.206142 0.009843
8.567138 38.206142 0.016137
8.880960 38.206142 0.030221
9.194784 38.206142 0.053332
9.508606 38.206142 0.090124
9.822430 38.206142 0.149690
10.136253 38.206142 0.223181
10.450075 38.206142 0.314113
10.763899 38.206142 0.417722
11.077723 38.206142 0.534885
11.391544 38.206142 0.667059
11.705368 38.206142 0.795419
12.019190 38.206142 0.935614
12.333014 38.206142 1.056752
12.646837 38.206142 1.148185
12.960659 38.206142 1.214835
13.274483 38.206142 1.274884
13.588306 38.206142 1.306525
13.902128 38.206142 1.337662
14.215952 38.206142 1.346090
14.529776 38.206142 1.326210
14.843597 38.206142 1.265107
15.157421 38.206142 1.179605
15.471243 38.206142 1.089805
15.785067 38.206142 0.984213
16.098890 38.206142 0.864617
16.412712 38.206142 0.727881
16.726536 38.206142 0.557271
17.040359 38.206142 0.377919
17.354181 38.206142 0.192238
17.668005 38.206142 0.008284
17.981829 38.206142 -0.172773
18.295650 38.206142 -0.355235
18.609474 38.206142 -0.512064
18.923298 38.206142 -0.595531
19.237120 38.206142 0.000000
-6.810190 37.892319 0.000000
-6.496367 37.892319 0.000000
-6.182544 37.892319 -0.000117
-5.868721 37.892319 -0.000149
-5.554898 37.892319 -0.000181
-5.241075 37.892319 -0.000107
-4.927252 37.892319 0.000069
-4.613429 37.892319 -0.000018
-4.299606 37.892319 -0.000263
-3.985783 37.892319 -0.000282
-3.671960 37.892319 -0.000163
-3.358137 37.892319 -0.000084
-3.044314 37.892319 -0.000029
-2.730491 37.892319 0.000052
-2.416668 37.892319 0.000067
-2.102845 37.892319 0.000057
-1.789022 37.892319 0.000074
-1.475199 37.892319 0.000039
-1.161376 37.892319 -0.000054
-0.847553 37.892319 -0.000059
-0.533730 37.892319 -0.000176
-0.219907 37.892319 -0.000244
0.093916 37.892319 -0.000182
0.407739 37.892319 -0.000224
0.721562 37.892319 -0.000406
1.035385 37.892319 -0.000451
1.349208 37.892319 -0.000251
1.663032 37.892319 -0.000128
1.976854 37.892319 -0.000144
2.290677 37.892319 -0.000267
2.604500 37.892319 -0.000331
2.918324 37.892319 -0.000391
3.232146 37.892319 -0.000418
3.545969 37.892319 -0.000453
3.859793 37.892319 -0.000557
4.173615 37.892319 -0.000688
4.487438 37.892319 -0.000740
4.801261 37.892319 -0.000680
5.115085 37.892319 -0.000649
5.428907 37.892319 -0.000681
5.742730 37.892319 -0.000608
6.056554 37.892319 -0.000505
6.370377 37.892319 -0.000432
6.684199 37.892319 -0.000006
6.998022 37.892319 0.000439
7.311846 37.892319 0.001316
7.625669 37.892319 0.002557
7.939491 37.892319 0.005562
8.253315 37.892319 0.009695
8.567138 37.892319 0.017738
8.880960 37.892319 0.031135
9.194784 37.892319 0.052605
9.508606 37.892319 0.091657
9.822430 37.892319 0.149426
10.136253 37.892319 0.225105
10.450075 37.892319 0.315270
10.763899 37.892319 0.416449
11.077723 37.892319 0.546065
11.391544 37.892319 0.667750
11.705368 37.892319 0.798940
12.019190 37.892319 0.927400
12.333014 37.892319 1.051474
12.646837 37.892319 1.148091
12.960659 37.892319 1.225764
13.274483 37.892319 1.285114
13.588306 37.892319 1.313277
13.902128 37.892319 1.344083
14.215952 37.892319 1.343250
14.529776 37.892319 1.325957
14.843597 37.892319 1.261929
15.157421 37.892319 1.183799
15.471243 37.892319 1.098148
15.785067 37.892319 0.983610
16.098890 37.892319 0.864721
16.412712 37.892319 0.730087
16.726536 37.892319 0.555465
17.040359 37.892319 0.380865
17.354181 37.892319 0.195135
17.668005 37.892319 0.006281
17.981829 37.892319 -0.179998
18.295650 37.892319 -0.359101
18.609474 37.892319 -0.519779
18.923298 37.892319 -0.587414
19.237120 37.892319 0.000000
-6.810190 37.578495 0.000000
-6.496367 37.578495 0.000000
-6.182544 37.578495 -0.000076
-5.868721 37.578495 -0.000104
-5.554898 37.578495 -0.000125
-5.241075 37.578495 -0.000089
-4.927252 37.578495 0.000052
-4.613429 37.578495 0.000049
-4.299606 37.578495 -0.000045
-3.985783 37.578495 -0.000109
-3.671960 37.578495 -0.000104
-3.358137 37.578495 -0.000098
-3.044314 37.578495 -0.000105
-2.730491 37.578495 0.000008
-2.416668 37.578495 0.000031
-2.102845 37.578495 -0.000036
-1.789022 37.578495 -0.000040
-1.475199 37.578495 -0.000061
-1.161376 37.578495 -0.000155
-0.847553 37.578495 -0.000150
-0.533730 37.578495 -0.000207
-0.219907 37.578495 -0.000232
0.093916 37.578495 -0.000187
0.407739 37.578495 -0.000239
0.721562 37.578495 -0.000392
1.035385 37.578495 -0.000454
1.349208 37.578495 -0.000245
1.663032 37.578495 -0.000085
1.976854 37.578495 -0.000133
2.290677 37.578495 -0.000267
2.604500 37.578495 -0.000312
2.918324 37.578495 -0.000319
3.232146 37.578495 -0.000316
3.545969 37.578495 -0.000354
3.859793 37.578495 -0.000485
4.173615 37.578495 -0.000616
4.487438 37.578495 -0.000671
4.801261 37.578495 -0.000645
5.115085 37.578495 -0.000604
5.428907 37.578495 -0.000632
5.742730 37.578495 -0.000566
6.056554 37.578495 -0.000517
6.370377 37.578495 -0.000376
6.684199 37.578495 -0.000101
6.998022 37.578495 0.000545
7.311846 37.578495 0.001214
7.625669 37.578495 0.002468
7.939491 37.578495 0.005441
8.253315 37.578495 0.010415
8.567138 37.578495 0.017848
8.880960 37.578495 0.030496
9.194784 37.578495 0.054692
9.508606 37.578495 0.095372
9.822430 37.578495 0.147127
10.136253 37.578495 0.218490
10.450075 37.578495 0.307822
10.763899 37.578495 0.417232
11.077723 37.578495 0.546520
11.391544 37.578495 0.663978
11.705368 37.578495 0.793655
12.019190 37.578495 0.923198
12.333014 37.578495 1.054801
12.646837 37.578495 1.151167
12.960659 37.578495 1.232902
13.274483 37.578495 1.287998
13.588306 37.578495 1.329548
13.902128 37.578495 1.344669
14.215952 37.578495 1.340765
14.529776 37.578495 1.325992
14.843597 37.578495 1.272243
15.157421 37.578495 1.184089
15.471243 37.578495 1.093844
15.785067 37.578495 0.984601
16.098890 37.578495 0.866375
16.412712 37.578495 0.726022
16.726536 37.578495 0.563631
17.040359 37.578495 0.381762
17.354181 37.578495 0.202831
17.668005 37.578495 0.015140
17.981829 37.578495 -0.179005
18.295650 37.578495 -0.361409
18.609474 37.578495 -0.526044
18.923298 37.578495 -0.604673
19.237120 37.578495 0.000000
-6.810190 37.264671 0.000000
-6.496367 37.264671 0.000000
-6.182544 37.264671 -0.000096
-5.868721 37.264671 -0.000102
-5.554898 37.264671 -0.000100
-5.241075 37.264671 -0.000075
-4.927252 37.264671 0.000018
-4.613429 37.264671 0.000122
-4.299606 37.264671 0.000174
-3.985783 37.264671 0.000072
-3.671960 37.264671 -0.000024
-3.358137 37.264671 -0.000098
-3.044314 37.264671 -0.000137
-2.730491 37.264671 -0.000017
-2.416668 37.264671 0.000023
-2.102845 37.264671 -0.000098
-1.789022 37.264671 -0.000101
-1.475199 37.264671 -0.000124
-1.161376 37.264671 -0.000222
-0.847553 37.264671 -0.000196
-0.533730 37.264671 -0.000094
-0.219907 37.264671 -0.000114
0.093916 37.264671 -0.000149
0.407739 37.264671 -0.000214
0.721562 37.264671 -0.000321
1.035385 37.264671 -0.000375
1.349208 37.264671 -0.000211
1.663032 37.264671 -0.000082
1.976854 37.264671 -0.000132
2.290677 37.264671 -0.000268
2.604500 37.264671 -0.000323
2.918324 37.264671 -0.000276
3.232146 37.264671 -0.000233
3.545969 37.264671 -0.000297
3.859793 37.264671 -0.000419
4.173615 37.264671 -0.000532
4.487438 37.264671 -0.000592
4.801261 37.264671 -0.000594
5.115085 37.264671 -0.000523
5.428907 37.264671 -0.000541
5.742730 37.264671 -0.000511
6.056554 37.264671 -0.000424
6.370377 37.264671 -0.000304
6.684199 37.264671 -0.000075
6.998022 37.264671 0.000445
7.311846 37.264671 0.001268
7.625669 37.264671 0.002982
7.939491 37.264671 0.005826
8.253315 37.264671 0.010243
8.567138 37.264671 0.018563
8.880960 37.264671 0.031427
9.194784 37.264671 0.054396
9.508606 37.264671 0.095144
9.822430 37.264671 0.148664
10.136253 37.264671 0.217645
10.450075 37.264671 0.310438
10.763899 37.264671 0.407349
11.077723 37.264671 0.539364
11.391544 37.264671 0.668577
11.705368 37.264671 0.790917
12.019190 37.264671 0.928144
12.333014 37.264671 1.059923
12.646837 37.264671 1.157032
12.960659 37.264671 1.243994
13.274483 37.264671 1.304791
13.588306 37.264671 1.342512
13.902128 37.264671 1.355319
14.215952 37.264671 1.346699
14.529776 37.264671 1.328952
14.843597 37.264671 1.277741
15.157421 37.264671 1.188862
15.471243 37.264671 1.089783
15.785067 37.264671 0.992309
16.098890 37.264671 0.869094
16.412712 37.264671 0.724045
16.726536 37.264671 0.564242
17.040359 37.264671 0.383511
17.354181 37.264671 0.195817
17.668005 37.264671 0.014783
17.981829 37.264671 -0.177482
18.295650 37.264671 -0.364556
18.609474 37.264671 -0.528506
18.923298 37.264671 -0.599966
19.237120 37.264671 0.000000
-6.810190 36.950851 0.000000
-6.496367 36.950851 0.000000
-6.182544 36.950851 -0.000175
-5.868721 36.950851 -0.000152
-5.554898 36.950851 -0.000127
-5.241075 36.950851 -0.000117
-4.927252 36.950851 -0.000066
-4.613429 36.950851 0.000136
-4.299606 36.950851 0.000328
-3.985783 36.950851 0.000232
-3.671960 36.950851 0.000073
-3.358137 36.950851 -0.000079
-3.044314 36.950851 -0.000113
-2.730491 36.950851 -0.000001
-2.416668 36.950851 -0.000008
-2.102845 36.950851 -0.000121
-1.789022 36.950851 -0.000088
-1.475199 36.950851 -0.000123
-1.161376 36.950851 -0.000234
-0.847553 36.950851 -0.000139
-0.533730 36.950851 0.000069
-0.219907 36.950851 0.000062
0.093916 36.950851 -0.000070
0.407739 36.950851 -0.000145
0.721562 36.950851 -0.000193
1.035385 36.950851 -0.000251
1.349208 36.950851 -0.000195
1.663032 36.950851 -0.000121
1.976854 36.950851 -0.000185
2.290677 36.950851 -0.000304
2.604500 36.950851 -0.000357
2.918324 36.950851 -0.000281
3.232146 36.950851 -0.000223
3.545969 36.950851 -0.000300
3.859793 36.950851 -0.000370
4.173615 36.950851 -0.000428
4.487438 36.950851 -0.000534
4.801261 36.950851 -0.000564
5.115085 36.950851 -0.000464
5.428907 36.950851 -0.000455
5.742730 36.950851 -0.000463
6.056554 36.950851 -0.000409
6.370377 36.950851 -0.000349
6.684199 36.950851 -0.000063
6.998022 36.950851 0.000370
7.311846 36.950851 0.001174
7.625669 36.950851 0.003043
7.939491 36.950851 0.005570
8.253315 36.950851 0.009806
8.567138 36.950851 0.017569
8.880960 36.950851 0.031944
9.194784 36.950851 0.052528
9.508606 36.950851 0.092708
9.822430 36.950851 0.145010
10.136253 36.950851 0.226759
10.450075 36.950851 0.312153
10.763899 36.950851 0.410363
11.077723 36.950851 0.531619
11.391544 36.950851 0.665816
11.705368 36.950851 0.799459
12.019190 36.950851 0.935219
12.333014 36.950851 1.056342
12.646837 36.950851 1.166785
12.960659 36.950851 1.253777
13.274483 36.950851 1.321124
13.588306 36.950851 1.360532
13.902128 36.950851 1.364009
14.215952 36.950851 1.360344
14.529776 36.950851 1.337819
14.843597 36.950851 1.281506
15.157421 36.950851 1.196780
15.471243 36.950851 1.098864
15.785067 36.950851 0.996451
16.098890 36.950851 0.871485
16.412712 36.950851 0.731704
16.726536 36.950851 0.563656
17.040359 36.950851 0.387176
17.354181 36.950851 0.203843
17.668005 36.950851 0.006444
17.981829 36.950851 -0.177639
18.295650 36.950851 -0.365594
18.609474 36.950851 -0.531973
18.923298 36.950851 -0.586108
19.237120 36.950851 0.000000
-6.810190 36.637028 0.000000
-6.496367 36.637028 0.000000
-6.182544 36.637028 -0.000262
-5.868721 36.637028 -0.000225
-5.554898 36.637028 -0.000176
-5.241075 36.637028 -0.000167
-4.927252 36.637028 -0.000173
-4.613429 36.637028 0.000087
-4.299606 36.637028 0.000339
-3.985783 36.637028 0.000330
-3.671960 36.637028 0.000151
-3.358137 36.637028 0.000006
-3.044314 36.637028 -0.000019
-2.730491 36.637028 0.000028
-2.416668 36.637028 -0.000002
-2.102845 36.637028 -0.000081
-1.789022 36.637028 -0.000021
-1.475199 36.637028 -0.000062
-1.161376 36.637028 -0.000197
-0.847553 36.637028 -0.000085
-0.533730 36.637028 0.000180
-0.219907 36.637028 0.000188
0.093916 36.637028 0.000014
0.407739 36.637028 -0.000052
0.721562 36.637028 -0.000071
1.035385 36.637028 -0.000148
1.349208 36.637028 -0.000185
1.663032 36.637028 -0.000186
1.976854 36.637028 -0.000225
2.290677 36.637028 -0.000328
2.604500 36.637028 -0.000397
2.918324 36.637028 -0.000320
3.232146 36.637028 -0.000279
3.545969 36.637028 -0.000396
3.859793 36.637028 -0.000406
4.173615 36.637028 -0.000361
4.487438 36.637028 -0.000493
4.801261 36.637028 -0.000545
5.115085 36.637028 -0.000436
5.428907 36.637028 -0.000399
5.742730 36.637028 -0.000447
6.056554 36.637028 -0.000450
6.370377 36.637028 -0.000265
6.684199 36.637028 -0.000060
6.998022 36.637028 0.000348
7.311846 36.637028 0.001546
7.625669 36.637028 0.003441
7.939491 36.637028 0.005561
8.253315 36.637028 0.009397
8.567138 36.637028 0.016632
8.880960 36.637028 0.029821
9.194784 36.637028 0.051661
9.508606 36.637028 0.089208
9.822430 36.637028 0.141342
10.136253 36.637028 0.217121
10.450075 36.637028 0.313377
10.763899 36.637028 0.415573
11.077723 36.637028 0.534328
11.391544 36.637028 0.664040
11.705368 36.637028 0.802024
12.019190 36.637028 0.932564
12.333014 36.637028 1.056296
12.646837 36.637028 1.159950
12.960659 36.637028 1.248235
13.274483 36.637028 1.319107
13.588306 36.637028 1.360873
13.902128 36.637028 1.373397
14.215952 36.637028 1.363801
14.529776 36.637028 1.338880
14.843597 36.637028 1.285633
15.157421 36.637028 1.196974
15.471243 36.637028 1.098775
15.785067 36.637028 0.999309
16.098890 36.637028 0.881452
16.412712 36.637028 0.732767
16.726536 36.637028 0.573248
17.040359 36.637028 0.390973
17.354181 36.637028 0.193684
17.668005 36.637028 0.004001
17.981829 36.637028 -0.179204
18.295650 36.637028 -0.367108
18.609474 36.637028 -0.524321
18.923298 36.637028 -0.573539
19.237120 36.637028 0.000000
-6.810190 36.323204 0.000000
-6.496367 36.323204 0.000000
-6.182544 36.323204 -0.000382
-5.868721 36.323204 -0.000339
-5.554898 36.323204 -0.000281
-5.241075 36.323204 -0.000245
-4.927252 36.323204 -0.000214
-4.613429 36.323204 0.000037
-4.299606 36.323204 0.000279
-3.985783 36.323204 0.000300
-3.671960 36.323204 0.000178
-3.358137 36.323204 0.000139
-3.044314 36.323204 0.000142
-2.730491 36.323204 0.000132
-2.416668 36.323204 0.000060
-2.102845 36.323204 -0.000011
-1.789022 36.323204 0.000015
-1.475199 36.323204 -0.000019
-1.161376 36.323204 -0.000145
-0.847553 36.323204 -0.000046
-0.533730 36.323204 0.000189
-0.219907 36.323204 0.000224
0.093916 36.323204 0.000089
0.407739 36.323204 0.000031
0.721562 36.323204 0.000023
1.035385 36.323204 -0.000051
1.349208 36.323204 -0.000200
1.663032 36.323204 -0.000276
1.976854 36.323204 -0.000310
2.290677 36.323204 -0.000365
2.604500 36.323204 -0.000369
2.918324 36.323204 -0.000379
3.232146 36.323204 -0.000408
3.545969 36.323204 -0.000539
3.859793 36.323204 -0.000452
4.173615 36.323204 -0.000313
4.487438 36.323204 -0.000463
4.801261 36.323204 -0.000537
5.115085 36.323204 -0.000456
5.428907 36.323204 -0.000424
5.742730 36.323204 -0.000502
6.056554 36.323204 -0.000466
6.370377 36.323204 -0.000259
6.684199 36.323204 -0.000131
6.998022 36.323204 0.000187
7.311846 36.323204 0.001218
7.625669 36.323204 0.002395
7.939491 36.323204 0.005385
8.253315 36.323204 0.009032
8.567138 36.323204 0.016706
8.880960 36.323204 0.030089
9.194784 36.323204 0.050739
9.508606 36.323204 0.088816
9.822430 36.323204 0.143320
10.136253 36.323204 0.220011
10.450075 36.323204 0.318177
10.763899 36.323204 0.418197
11.077723 36.323204 0.536623
11.391544 36.323204 0.670020
11.705368 36.323204 0.799744
12.019190 36.323204 0.929710
12.333014 36.323204 1.052507
12.646837 36.323204 1.153261
12.960659 36.323204 1.252823
13.274483 36.323204 1.319098
13.588306 36.323204 1.368017
13.902128 36.323204 1.376592
14.215952 36.323204 1.367003
14.529776 36.323204 1.339291
14.843597 36.323204 1.281959
15.157421 36.323204 1.197383
15.471243 36.323204 1.100095
15.785067 36.323204 0.999470
16.098890 36.323204 0.885541
16.412712 36.323204 0.739473
16.726536 36.323204 0.572063
17.040359 36.323204 0.393030
17.354181 36.323204 0.197118
17.668005 36.323204 0.008031
17.981829 36.323204 -0.184535
18.295650 36.323204 -0.364622
18.609474 36.323204 -0.514253
18.923298 36.323204 -0.564320
19.237120 36.323204 0.000000
-6.810190 36.009380 0.000000
-6.496367 36.009380 0.000000
-6.182544 36.009380 -0.000467
-5.868721 36.009380 -0.000397
-5.554898 36.009380 -0.000314
-5.241075 36.009380 -0.000251
-4.927252 36.009380 -0.000183
-4.613429 36.009380 -0.000016
-4.299606 36.009380 0.000128
-3.985783 36.009380 0.000151
-3.671960 36.009380 0.000150
-3.358137 36.009380 0.000241
-3.044314 36.009380 0.000303
-2.730491 36.009380 0.000263
-2.416668 36.009380 0.000149
-2.102845 36.009380 0.000048
-1.789022 36.009380 0.000047
-1.475199 36.009380 0.000004
-1.161376 36.009380 -0.000096
-0.847553 36.009380 -0.000032
-0.533730 36.009380 0.000160
-0.219907 36.009380 0.000227
0.093916 36.009380 0.000159
0.407739 36.009380 0.000092
0.721562 36.009380 0.000060
1.035385 36.009380 -0.000043
1.349208 36.009380 -0.000246
1.663032 36.009380 -0.000385
1.976854 36.009380 -0.000398
2.290677 36.009380 -0.000380
2.604500 36.009380 -0.000354
2.918324 36.009380 -0.000413
3.232146 36.009380 -0.000502
3.545969 36.009380 -0.000616
3.859793 36.009380 -0.000503
4.173615 36.009380 -0.000322
4.487438 36.009380 -0.000446
4.801261 36.009380 -0.000540
5.115085 36.009380 -0.000494
5.428907 36.009380 -0.000463
5.742730 36.009380 -0.000538
6.056554 36.009380 -0.000543
6.370377 36.009380 -0.000269
6.684199 36.009380 -0.000072
6.998022 36.009380 0.000273
7.311846 36.009380 0.001062
7.625669 36.009380 0.002472
7.939491 36.009380 0.005017
8.253315 36.009380 0.009564
8.567138 36.009380 0.016462
8.880960 36.009380 0.030913
9.194784 36.009380 0.051372
9.508606 36.009380 0.090347
9.822430 36.009380 0.146646
10.136253 36.009380 0.219185
10.450075 36.009380 0.310774
10.763899 36.009380 0.412611
11.077723 36.009380 0.544367
11.391544 36.009380 0.666651
11.705368 36.009380 0.799763
12.019190 36.009380 0.933279
12.333014 36.009380 1.059885
12.646837 36.009380 1.156779
12.960659 36.009380 1.248421
13.274483 36.009380 1.321433
13.588306 36.009380 1.370141
13.902128 36.009380 1.379476
14.215952 36.009380 1.360464
14.529776 36.009380 1.341399
14.843597 36.009380 1.283335
15.157421 36.009380 1.189437
15.471243 36.009380 1.096470
15.785067 36.009380 1.001612
16.098890 36.009380 0.890687
16.412712 36.009380 0.750543
16.726536 36.009380 0.580069
17.040359 36.009380 0.398307
17.354181 36.009380 0.208547
17.668005 36.009380 0.007272
17.981829 36.009380 -0.194234
18.295650 36.009380 -0.372400
18.609474 36.009380 -0.515749
18.923298 36.009380 -0.551617
19.237120 36.009380 0.000000
-6.810190 35.695557 0.000000
-6.496367 35.695557 0.000000
-6.182544 35.695557 -0.000512
-5.868721 35.695557 -0.000355
-5.554898 35.695557 -0.000248
-5.241075 35.695557 -0.000171
-4.927252 35.695557 -0.000124
-4.613429 35.695557 -0.000070
-4.299606 35.695557 -0.000069
-3.985783 35.695557 -0.000011
-3.671960 35.695557 0.000085
-3.358137 35.695557 0.000313
-3.044314 35.695557 0.000411
-2.730491 35.695557 0.000375
-2.416668 35.695557 0.000248
-2.102845 35.695557 0.000124
-1.789022 35.695557 0.000093
-1.475199 35.695557 0.000023
-1.161376 35.695557 -0.000036
-0.847553 35.695557 0.000003
-0.533730 35.695557 0.000103
-0.219907 35.695557 0.000180
0.093916 35.695557 0.000194
0.407739 35.695557 0.000132
0.721562 35.695557 0.000067
1.035385 35.695557 -0.000091
1.349208 35.695557 -0.000287
1.663032 35.695557 -0.000437
1.976854 35.695557 -0.000450
2.290677 35.695557 -0.000373
2.604500 35.695557 -0.000329
2.918324 35.695557 -0.000430
3.232146 35.695557 -0.000536
3.545969 35.695557 -0.000645
3.859793 35.695557 -0.000541
4.173615 35.695557 -0.000364
4.487438 35.695557 -0.000481
4.801261 35.695557 -0.000560
5.115085 35.695557 -0.000555
5.428907 35.695557 -0.000489
5.742730 35.695557 -0.000544
6.056554 35.695557 -0.000473
6.370377 35.695557 -0.000300
6.684199 35.695557 -0.000071
6.998022 35.695557 0.000185
7.311846 35.695557 0.000991
7.625669 35.695557 0.002280
7.939491 35.695557 0.005003
8.253315 35.695557 0.009217
8.567138 35.695557 0.017964
8.880960 35.695557 0.030162
9.194784 35.695557 0.052845
9.508606 35.695557 0.092268
9.822430 35.695557 0.143160
10.136253 35.695557 0.219974
10.450075 35.695557 0.309006
10.763899 35.695557 0.418089
11.077723 35.695557 0.542524
11.391544 35.695557 0.664752
11.705368 35.695557 0.797753
12.019190 35.695557 0.938738
12.333014 35.695557 1.070275
12.646837 35.695557 1.158580
12.960659 35.695557 1.258280
13.274483 35.695557 1.328889
13.588306 35.695557 1.371825
13.902128 35.695557 1.382236
14.215952 35.695557 1.364723
14.529776 35.695557 1.336513
14.843597 35.695557 1.280513
15.157421 35.695557 1.188791
15.471243 35.695557 1.097319
15.785067 35.695557 1.008188
16.098890 35.695557 0.898300
16.412712 35.695557 0.754937
16.726536 35.695557 0.582390
17.040359 35.695557 0.402331
17.354181 35.695557 0.205995
17.668005 35.695557 0.000982
17.981829 35.695557 -0.198678
18.295650 35.695557 -0.379034
18.609474 35.695557 -0.520907
18.923298 35.695557 -0.550425
19.237120 35.695557 0.000000
-6.810190 35.381737 0.000000
-6.496367 35.381737 0.000000
-6.182544 35.381737 -0.000499
-5.868721 35.381737 -0.000292
-5.554898 35.381737 -0.000127
-5.241075 35.381737 -0.000081
-4.927252 35.381737 -0.000093
-4.613429 35.381737 -0.000158
-4.299606 35.381737 -0.000271
-3.985783 35.381737 -0.000184
-3.671960 35.381737 0.000044
-3.358137 35.381737 0.000313
-3.044314 35.381737 0.000452
-2.730491 35.381737 0.000439
-2.416668 35.381737 0.000346
-2.102845 35.381737 0.000239
-1.789022 35.381737 0.000147
-1.475199 35.381737 0.000055
-1.161376 35.381737 0.000022
-0.847553 35.381737 0.000047
-0.533730 35.381737 0.000066
-0.219907 35.381737 0.000120
0.093916 35.381737 0.000151
0.407739 35.381737 0.000138
0.721562 35.381737 0.000032
1.035385 35.381737 -0.000147
1.349208 35.381737 -0.000349
1.663032 35.381737 -0.000467
1.976854 35.381737 -0.000437
2.290677 35.381737 -0.000334
2.604500 35.381737 -0.000332
2.918324 35.381737 -0.000467
3.232146 35.381737 -0.000564
3.545969 35.381737 -0.000656
3.859793 35.381737 -0.000554
4.173615 35.381737 -0.000442
4.487438 35.381737 -0.000544
4.801261 35.381737 -0.000611
5.115085 35.381737 -0.000572
5.428907 35.381737 -0.000508
5.742730 35.381737 -0.000485
6.056554 35.381737 -0.000457
6.370377 35.381737 -0.000298
6.684199 35.381737 -0.000156
6.998022 35.381737 0.000268
7.311846 35.381737 0.001054
7.625669 35.381737 0.002461
7.939491 35.381737 0.004967
8.253315 35.381737 0.009716
8.567138 35.381737 0.017206
8.880960 35.381737 0.030248
9.194784 35.381737 0.053629
9.508606 35.381737 0.090724
9.822430 35.381737 0.147780
10.136253 35.381737 0.222154
10.450075 35.381737 0.309029
10.763899 35.381737 0.417588
11.077723 35.381737 0.532668
11.391544 35.381737 0.660194
11.705368 35.381737 0.796313
12.019190 35.381737 0.939793
12.333014 35.381737 1.070897
12.646837 35.381737 1.167017
12.960659 35.381737 1.266680
13.274483 35.381737 1.334316
13.588306 35.381737 1.378216
13.902128 35.381737 1.392983
14.215952 35.381737 1.368168
14.529776 35.381737 1.329230
14.843597 35.381737 1.266392
15.157421 35.381737 1.183156
15.471243 35.381737 1.097975
15.785067 35.381737 1.007932
16.098890 35.381737 0.898876
16.412712 35.381737 0.756699
16.726536 35.381737 0.585627
17.040359 35.381737 0.402069
17.354181 35.381737 0.206730
17.668005 35.381737 0.008947
17.981829 35.381737 -0.194266
18.295650 35.381737 -0.377298
18.609474 35.381737 -0.525215
18.923298 35.381737 -0.553337
19.237120 35.381737 0.000000
-6.810190 35.067913 0.000000
-6.496367 35.067913 0.000000
-6.182544 35.067913 -0.000431
-5.868721 35.067913 -0.000262
-5.554898 35.067913 -0.000056
-5.241075 35.067913 0.000018
-4.927252 35.067913 -0.000039
-4.613429 35.067913 -0.000233
-4.299606 35.067913 -0.000410
-3.985783 35.067913 -0.000314
-3.671960 35.067913 -0.000031
-3.358137 35.067913 0.000256
-3.044314 35.067913 0.000430
-2.730491 35.067913 0.000452
-2.416668 35.067913 0.000472
-2.102845 35.067913 0.000365
-1.789022 35.067913 0.000242
-1.475199 35.067913 0.000122
-1.161376 35.067913 0.000103
-0.847553 35.067913 0.000098
-0.533730 35.067913 0.000035
-0.219907 35.067913 0.000005
0.093916 35.067913 0.000039
0.407739 35.067913 0.000061
0.721562 35.067913 -0.000031
1.035385 35.067913 -0.000172
1.349208 35.067913 -0.000338
1.663032 35.067913 -0.000431
1.976854 35.067913 -0.000365
2.290677 35.067913 -0.000286
2.604500 35.067913 -0.000351
2.918324 35.067913 -0.000499
3.232146 35.067913 -0.000574
3.545969 35.067913 -0.000645
3.859793 35.067913 -0.000584
4.173615 35.067913 -0.000540
4.487438 35.067913 -0.000617
4.801261 35.067913 -0.000662
5.115085 35.067913 -0.000621
5.428907 35.067913 -0.000558
5.742730 35.067913 -0.000446
6.056554 35.067913 -0.000416
6.370377 35.067913 -0.000331
6.684199 35.067913 -0.000062
6.998022 35.067913 0.000429
7.311846 35.067913 0.001065
7.625669 35.067913 0.002589
7.939491 35.067913 0.005285
8.253315 35.067913 0.009259
8.567138 35.067913 0.016415
8.880960 35.067913 0.029519
9.194784 35.067913 0.053756
9.508606 35.067913 0.092300
9.822430 35.067913 0.143446
10.136253 35.067913 0.215986
10.450075 35.067913 0.315350
10.763899 35.067913 0.418622
11.077723 35.067913 0.535398
11.391544 35.067913 0.651937
11.705368 35.067913 0.798219
12.019190 35.067913 0.950126
12.333014 35.067913 1.064665
12.646837 35.067913 1.177304
12.960659 35.067913 1.269998
13.274483 35.067913 1.336009
13.588306 35.067913 1.374715
13.902128 35.067913 1.387964
14.215952 35.067913 1.377395
14.529776 35.067913 1.332259
14.843597 35.067913 1.258064
15.157421 35.067913 1.178351
15.471243 35.067913 1.092163
15.785067 35.067913 1.006133
16.098890 35.067913 0.896415
16.412712 35.067913 0.749708
16.726536 35.067913 0.590413
17.040359 35.067913 0.401115
17.354181 35.067913 0.205591
17.668005 35.067913 0.009526
17.981829 35.067913 -0.191265
18.295650 35.067913 -0.368184
18.609474 35.067913 -0.522389
18.923298 35.067913 -0.547963
19.237120 35.067913 0.000000
-6.810190 34.754089 0.000000
-6.496367 34.754089 0.002874
-6.182544 34.754089 -0.000316
-5.868721 34.754089 -0.000192
-5.554898 34.754089 -0.000037
-5.241075 34.754089 0.000088
-4.927252 34.754089 0.000030
-4.613429 34.754089 -0.000206
-4.299606 34.754089 -0.000433
-3.985783 34.754089 -0.000374
-3.671960 34.754089 -0.000096
-3.358137 34.754089 0.000165
-3.044314 34.754089 0.000345
-2.730491 34.754089 0.000422
-2.416668 34.754089 0.000528
-2.102845 34.754089 0.000456
-1.789022 34.754089 0.000330
-1.475199 34.754089 0.000214
-1.161376 34.754089 0.000191
-0.847553 34.754089 0.000156
-0.533730 34.754089 0.000032
-0.219907 34.754089 -0.000084
0.093916 34.754089 -0.000100
0.407739 34.754089 -0.000044
0.721562 34.754089 -0.000097
1.035385 34.754089 -0.000155
1.349208 34.754089 -0.000267
1.663032 34.754089 -0.000338
1.976854 34.754089 -0.000286
2.290677 34.754089 -0.000271
2.604500 34.754089 -0.000386
2.918324 34.754089 -0.000491
3.232146 34.754089 -0.000548
3.545969 34.754089 -0.000610
3.859793 34.754089 -0.000626
4.173615 34.754089 -0.000669
4.487438 34.754089 -0.000676
4.801261 34.754089 -0.000704
5.115085 34.754089 -0.000701
5.428907 34.754089 -0.000596
5.742730 34.754089 -0.000452
6.056554 34.754089 -0.000380
6.370377 34.754089 -0.000311
6.684199 34.754089 -0.000051
6.998022 34.754089 0.000304
7.311846 34.754089 0.001042
7.625669 34.754089 0.002675
7.939491 34.754089 0.005121
8.253315 34.754089 0.008705
8.567138 34.754089 0.015457
8.880960 34.754089 0.029210
9.194784 34.754089 0.050689
9.508606 34.754089 0.089808
9.822430 34.754089 0.140871
10.136253 34.754089 0.220335
10.450075 34.754089 0.313644
10.763899 34.754089 0.422832
11.077723 34.754089 0.537587
11.391544 34.754089 0.656190
11.705368 34.754089 0.802106
12.019190 34.754089 0.949594
12.333014 34.754089 1.063158
12.646837 34.754089 1.177739
12.960659 34.754089 1.276096
13.274483 34.754089 1.337448
13.588306 34.754089 1.380506
13.902128 34.754089 1.392347
14.215952 34.754089 1.380536
14.529776 34.754089 1.333430
14.843597 34.754089 1.262517
15.157421 34.754089 1.177772
15.471243 34.754089 1.099946
15.785067 34.754089 1.001392
16.098890 34.754089 0.894698
16.412712 34.754089 0.745304
16.726536 34.754089 0.577111
17.040359 34.754089 0.400596
17.354181 34.754089 0.204442
17.668005 34.754089 0.004719
17.981829 34.754089 -0.191128
18.295650 34.754089 -0.365903
18.609474 34.754089 -0.509809
18.923298 34.754089 -0.546834
19.237120 34.754089 0.000000
-6.810190 34.440266 0.000000
-6.496367 34.440266 -0.003100
-6.182544 34.440266 -0.000168
-5.868721 34.440266 -0.000170
-5.554898 34.440266 -0.000052
-5.241075 34.440266 0.000113
-4.927252 34.440266 0.000116
-4.613429 34.440266 -0.000109
-4.299606 34.440266 -0.000346
-3.985783 34.440266 -0.000321
-3.671960 34.440266 -0.000127
-3.358137 34.440266 0.000068
-3.044314 34.440266 0.000219
-2.730491 34.440266 0.000330
-2.416668 34.440266 0.000496
-2.102845 34.440266 0.000501
-1.789022 34.440266 0.000402
-1.475199 34.440266 0.000296
-1.161376 34.440266 0.000266
-0.847553 34.440266 0.000202
-0.533730 34.440266 0.000023
-0.219907 34.440266 -0.000149
0.093916 34.440266 -0.000197
0.407739 34.440266 -0.000161
0.721562 34.440266 -0.000158
1.035385 34.440266 -0.000162
1.349208 34.440266 -0.000199
1.663032 34.440266 -0.000188
1.976854 34.440266 -0.000210
2.290677 34.440266 -0.000288
2.604500 34.440266 -0.000410
2.918324 34.440266 -0.000468
3.232146 34.440266 -0.000477
3.545969 34.440266 -0.000553
3.859793 34.440266 -0.000670
4.173615 34.440266 -0.000743
4.487438 34.440266 -0.000713
4.801261 34.440266 -0.000726
5.115085 34.440266 -0.000733
5.428907 34.440266 -0.000614
5.742730 34.440266 -0.000415
6.056554 34.440266 -0.000247
6.370377 34.440266 -0.000170
6.684199 34.440266 -0.000047
6.998022 34.440266 0.000182
7.311846 34.440266 0.001191
7.625669 34.440266 0.002823
7.939491 34.440266 0.005031
8.253315 34.440266 0.008896
8.567138 34.440266 0.015122
8.880960 34.440266 0.028458
9.194784 34.440266 0.050931
9.508606 34.440266 0.088789
9.822430 34.440266 0.141686
10.136253 34.440266 0.218150
10.450075 34.440266 0.315309
10.763899 34.440266 0.424525
11.077723 34.440266 0.546332
11.391544 34.440266 0.668967
11.705368 34.440266 0.809270
12.019190 34.440266 0.945064
12.333014 34.440266 1.063243
12.646837 34.440266 1.173955
12.960659 34.440266 1.274208
13.274483 34.440266 1.338727
13.588306 34.440266 1.382873
13.902128 34.440266 1.398591
14.215952 34.440266 1.379717
14.529776 34.440266 1.341517
14.843597 34.440266 1.267128
15.157421 34.440266 1.192441
15.471243 34.440266 1.108780
15.785067 34.440266 1.013651
16.098890 34.440266 0.901078
16.412712 34.440266 0.747889
16.726536 34.440266 0.576871
17.040359 34.440266 0.402135
17.354181 34.440266 0.209016
17.668005 34.440266 0.003259
17.981829 34.440266 -0.191289
18.295650 34.440266 -0.366569
18.609474 34.440266 -0.519027
18.923298 34.440266 -0.544135
19.237120 34.440266 0.000000
-6.810190 34.126442 0.000000
-6.496367 34.126442 -0.001638
-6.182544 34.126442 -0.000034
-5.868721 34.126442 -0.000164
-5.554898 34.126442 -0.000073
-5.241075 34.126442 0.000121
-4.927252 34.126442 0.000152
-4.613429 34.126442 0.000001
-4.299606 34.126442 -0.000164
-3.985783 34.126442 -0.000182
-3.671960 34.126442 -0.000108
-3.358137 34.126442 0.000027
-3.044314 34.126442 0.000072
-2.730491 34.126442 0.000201
-2.416668 34.126442 0.000395
-2.102845 34.126442 0.000478
-1.789022 34.126442 0.000406
-1.475199 34.126442 0.000329
-1.161376 34.126442 0.000290
-0.847553 34.126442 0.000201
-0.533730 34.126442 0.000028
-0.219907 34.126442 -0.000148
0.093916 34.126442 -0.000235
0.407739 34.126442 -0.000239
0.721562 34.126442 -0.000195
1.035385 34.126442 -0.000190
1.349208 34.126442 -0.000122
1.663032 34.126442 -0.000039
1.976854 34.126442 -0.000145
2.290677 34.126442 -0.000294
2.604500 34.126442 -0.000415
2.918324 34.126442 -0.000422
3.232146 34.126442 -0.000387
3.545969 34.126442 -0.000494
3.859793 34.126442 -0.000679
4.173615 34.126442 -0.000768
4.487438 34.126442 -0.000722
4.801261 34.126442 -0.000706
5.115085 34.126442 -0.000687
5.428907 34.126442 -0.000594
5.742730 34.126442 -0.000408
6.056554 34.126442 -0.000211
6.370377 34.126442 -0.000113
6.684199 34.126442 -0.000051
6.998022 34.126442 0.000319
7.311846 34.126442 0.001272
7.625669 34.126442 0.002737
7.939491 34.126442 0.004905
8.253315 34.126442 0.008580
8.567138 34.126442 0.015123
8.880960 34.126442 0.028402
9.194784 34.126442 0.050668
9.508606 34.126442 0.090032
9.822430 34.126442 0.141970
10.136253 34.126442 0.217969
10.450075 34.126442 0.311796
10.763899 34.126442 0.416932
11.077723 34.126442 0.542438
11.391544 34.126442 0.673033
11.705368 34.126442 0.814083
12.019190 34.126442 0.952723
12.333014 34.126442 1.066669
12.646837 34.126442 1.185418
12.960659 34.126442 1.278057
13.274483 34.126442 1.338352
13.588306 34.126442 1.381596
13.902128 34.126442 1.396075
14.215952 34.126442 1.378416
14.529776 34.126442 1.342557
14.843597 34.126442 1.278809
15.157421 34.126442 1.207701
15.471243 34.126442 1.122477
15.785067 34.126442 1.019861
16.098890 34.126442 0.899915
16.412712 34.126442 0.750281
16.726536 34.126442 0.580379
17.040359 34.126442 0.400341
17.354181 34.126442 0.212740
17.668005 34.126442 0.007365
17.981829 34.126442 -0.196617
18.295650 34.126442 -0.370876
18.609474 34.126442 -0.524161
18.923298 34.126442 -0.519810
19.237120 34.126442 0.000000
-6.810190 33.812622 0.000000
-6.496367 33.812622 -0.000252
-6.182544 33.812622 0.000068
-5.868721 33.812622 -0.000100
-5.554898 33.812622 -0.000042
-5.241075 33.812622 0.000106
-4.927252 33.812622 0.000146
-4.613429 33.812622 0.000075
-4.299606 33.812622 0.000010
-3.985783 33.812622 -0.000010
-3.671960 33.812622 -0.000009
-3.358137 33.812622 -0.000013
-3.044314 33.812622 -0.000018
-2.730491 33.812622 0.000112
-2.416668 33.812622 0.000299
-2.102845 33.812622 0.000385
-1.789022 33.812622 0.000347
-1.475199 33.812622 0.000293
-1.161376 33.812622 0.000258
-0.847553 33.812622 0.000186
-0.533730 33.812622 0.000053
-0.219907 33.812622 -0.000126
0.093916 33.812622 -0.000247
0.407739 33.812622 -0.000254
0.721562 33.812622 -0.000201
1.035385 33.812622 -0.000193
1.349208 33.812622 -0.000061
1.663032 33.812622 0.000040
1.976854 33.812622 -0.000092
2.290677 33.812622 -0.000283
2.604500 33.812622 -0.000413
2.918324 33.812622 -0.000385
3.232146 33.812622 -0.000301
3.545969 33.812622 -0.000424
3.859793 33.812622 -0.000626
4.173615 33.812622 -0.000731
4.487438 33.812622 -0.000685
4.801261 33.812622 -0.000627
5.115085 33.812622 -0.000567
5.428907 33.812622 -0.000500
5.742730 33.812622 -0.000380
6.056554 33.812622 -0.000201
6.370377 33.812622 -0.000091
6.684199 33.812622 -0.000078
6.998022 33.812622 0.000229
7.311846 33.812622 0.001172
7.625669 33.812622 0.002544
7.939491 33.812622 0.005156
8.253315 33.812622 0.009280
8.567138 33.812622 0.016409
8.880960 33.812622 0.029396
9.194784 33.812622 0.050772
9.508606 33.812622 0.089125
9.822430 33.812622 0.141734
10.136253 33.812622 0.219610
10.450075 33.812622 0.314761
10.763899 33.812622 0.427695
11.077723 33.812622 0.544694
11.391544 33.812622 0.666664
11.705368 33.812622 0.812266
12.019190 33.812622 0.949133
12.333014 33.812622 1.077940
12.646837 33.812622 1.181879
12.960659 33.812622 1.278446
13.274483 33.812622 1.342045
13.588306 33.812622 1.375797
13.902128 33.812622 1.395885
14.215952 33.812622 1.378700
14.529776 33.812622 1.339610
14.843597 33.812622 1.284007
15.157421 33.812622 1.206740
15.471243 33.812622 1.129008
15.785067 33.812622 1.025985
16.098890 33.812622 0.897590
16.412712 33.812622 0.746465
16.726536 33.812622 0.576518
17.040359 33.812622 0.396859
17.354181 33.812622 0.206022
17.668005 33.812622 0.008474
17.981829 33.812622 -0.193729
18.295650 33.812622 -0.374177
18.609474 33.812622 -0.526054
18.923298 33.812622 -0.530411
19.237120 33.812622 0.000000
-6.810190 33.498795 0.000000
-6.496367 33.498795 0.000336
-6.182544 33.498795 0.000120
-5.868721 33.498795 -0.000016
-5.554898 33.498795 0.000009
-5.241075 33.498795 0.000089
-4.927252 33.498795 0.000126
-4.613429 33.498795 0.000141
-4.299606 33.498795 0.000177
-3.985783 33.498795 0.000168
-3.671960 33.498795 0.000113
-3.358137 33.498795 0.000023
-3.044314 33.498795 -0.000013
-2.730491 33.498795 0.000086
-2.416668 33.498795 0.000186
-2.102845 33.498795 0.000270
-1.789022 33.498795 0.000258
-1.475199 33.498795 0.000202
-1.161376 33.498795 0.000192
-0.847553 33.498795 0.000164
-0.533730 33.498795 0.000070
-0.219907 33.498795 -0.000096
0.093916 33.498795 -0.000219
0.407739 33.498795 -0.000194
0.721562 33.498795 -0.000156
1.035385 33.498795 -0.000146
1.349208 33.498795 -0.000040
1.663032 33.498795 0.000025
1.976854 33.498795 -0.000097
2.290677 33.498795 -0.000275
2.604500 33.498795 -0.000395
2.918324 33.498795 -0.000365
3.232146 33.498795 -0.000257
3.545969 33.498795 -0.000359
3.859793 33.498795 -0.000544
4.173615 33.498795 -0.000680
4.487438 33.498795 -0.000635
4.801261 33.498795 -0.000492
5.115085 33.498795 -0.000432
5.428907 33.498795 -0.000418
5.742730 33.498795 -0.000405
6.056554 33.498795 -0.000212
6.370377 33.498795 -0.000134
6.684199 33.498795 -0.000016
6.998022 33.498795 0.000228
7.311846 33.498795 0.001013
7.625669 33.498795 0.002733
7.939491 33.498795 0.005092
8.253315 33.498795 0.009523
8.567138 33.498795 0.017023
8.880960 33.498795 0.031474
9.194784 33.498795 0.050951
9.508606 33.498795 0.087429
9.822430 33.498795 0.145308
10.136253 33.498795 0.225645
10.450075 33.498795 0.317937
10.763899 33.498795 0.426680
11.077723 33.498795 0.539587
11.391544 33.498795 0.662351
11.705368 33.498795 0.807488
12.019190 33.498795 0.948755
12.333014 33.498795 1.072013
12.646837 33.498795 1.180983
12.960659 33.498795 1.277987
13.274483 33.498795 1.344610
13.588306 33.498795 1.379067
13.902128 33.498795 1.393292
14.215952 33.498795 1.375534
14.529776 33.498795 1.341458
14.843597 33.498795 1.288515
15.157421 33.498795 1.227144
15.471243 33.498795 1.129981
15.785067 33.498795 1.029971
16.098890 33.498795 0.893402
16.412712 33.498795 0.745573
16.726536 33.498795 0.573069
17.040359 33.498795 0.394732
17.354181 33.498795 0.195622
17.668005 33.498795 -0.005364
17.981829 33.498795 -0.197187
18.295650 33.498795 -0.372658
18.609474 33.498795 -0.531055
18.923298 33.498795 -0.519202
19.237120 33.498795 0.000000
-6.810190 33.184975 0.000000
-6.496367 33.184975 0.000311
-6.182544 33.184975 0.000100
-5.868721 33.184975 0.000005
-5.554898 33.184975 0.000039
-5.241075 33.184975 0.000084
-4.927252 33.184975 0.000130
-4.613429 33.184975 0.000190
-4.299606 33.184975 0.000299
-3.985783 33.184975 0.000322
-3.671960 33.184975 0.000220
-3.358137 33.184975 0.000091
-3.044314 33.184975 0.000089
-2.730491 33.184975 0.000139
-2.416668 33.184975 0.000126
-2.102845 33.184975 0.000160
-1.789022 33.184975 0.000155
-1.475199 33.184975 0.000095
-1.161376 33.184975 0.000120
-0.847553 33.184975 0.000134
-0.533730 33.184975 0.000113
-0.219907 33.184975 -0.000028
0.093916 33.184975 -0.000147
0.407739 33.184975 -0.000115
0.721562 33.184975 -0.000076
1.035385 33.184975 -0.000086
1.349208 33.184975 -0.000062
1.663032 33.184975 -0.000059
1.976854 33.184975 -0.000137
2.290677 33.184975 -0.000249
2.604500 33.184975 -0.000372
2.918324 33.184975 -0.000371
3.232146 33.184975 -0.000303
3.545969 33.184975 -0.000357
3.859793 33.184975 -0.000487
4.173615 33.184975 -0.000604
4.487438 33.184975 -0.000549
4.801261 33.184975 -0.000392
5.115085 33.184975 -0.000298
5.428907 33.184975 -0.000364
5.742730 33.184975 -0.000452
6.056554 33.184975 -0.000331
6.370377 33.184975 -0.000169
6.684199 33.184975 -0.000146
6.998022 33.184975 0.000278
7.311846 33.184975 0.001216
7.625669 33.184975 0.002714
7.939491 33.184975 0.004895
8.253315 33.184975 0.009428
8.567138 33.184975 0.016973
8.880960 33.184975 0.031582
9.194784 33.184975 0.051048
9.508606 33.184975 0.089923
9.822430 33.184975 0.149190
10.136253 33.184975 0.230881
10.450075 33.184975 0.322904
10.763899 33.184975 0.425746
11.077723 33.184975 0.535294
11.391544 33.184975 0.662860
11.705368 33.184975 0.806696
12.019190 33.184975 0.942751
12.333014 33.184975 1.067493
12.646837 33.184975 1.180869
12.960659 33.184975 1.277904
13.274483 33.184975 1.346651
13.588306 33.184975 1.390693
13.902128 33.184975 1.403616
14.215952 33.184975 1.392288
14.529776 33.184975 1.345060
14.843597 33.184975 1.284050
15.157421 33.184975 1.227584
15.471243 33.184975 1.137456
15.785067 33.184975 1.030847
16.098890 33.184975 0.898981
16.412712 33.184975 0.751371
16.726536 33.184975 0.577103
17.040359 33.184975 0.395722
17.354181 33.184975 0.191758
17.668005 33.184975 -0.012219
17.981829 33.184975 -0.206453
18.295650 33.184975 -0.382686
18.609474 33.184975 -0.531298
18.923298 33.184975 -0.514972
19.237120 33.184975 0.000000
-6.810190 32.871151 0.000000
-6.496367 32.871151 0.000299
-6.182544 32.871151 -0.000006
-5.868721 32.871151 -0.000008
-5.554898 32.871151 0.000063
-5.241075 32.871151 0.000080
-4.927252 32.871151 0.000071
-4.613429 32.871151 0.000182
-4.299606 32.871151 0.000350
-3.985783 32.871151 0.000420
-3.671960 32.871151 0.000344
-3.358137 32.871151 0.000198
-3.044314 32.871151 0.000229
-2.730491 32.871151 0.000243
-2.416668 32.871151 0.000127
-2.102845 32.871151 0.000099
-1.789022 32.871151 0.000090
-1.475199 32.871151 0.000039
-1.161376 32.871151 0.000061
-0.847553 32.871151 0.000127
-0.533730 32.871151 0.000158
-0.219907 32.871151 0.000054
0.093916 32.871151 -0.000051
0.407739 32.871151 -0.000011
0.721562 32.871151 0.000011
1.035385 32.871151 -0.000024
1.349208 32.871151 -0.000086
1.663032 32.871151 -0.000150
1.976854 32.871151 -0.000174
2.290677 32.871151 -0.000214
2.604500 32.871151 -0.000334
2.918324 32.871151 -0.000384
3.232146 32.871151 -0.000388
3.545969 32.871151 -0.000411
3.859793 32.871151 -0.000469
4.173615 32.871151 -0.000503
4.487438 32.871151 -0.000430
4.801261 32.871151 -0.000315
5.115085 32.871151 -0.000226
5.428907 32.871151 -0.000337
5.742730 32.871151 -0.000505
6.056554 32.871151 -0.000399
6.370377 32.871151 -0.000163
6.684199 32.871151 -0.000034
6.998022 32.871151 0.000166
7.311846 32.871151 0.000923
7.625669 32.871151 0.002696
7.939491 32.871151 0.004631
8.253315 32.871151 0.009234
8.567138 32.871151 0.015284
8.880960 32.871151 0.029887
9.194784 32.871151 0.053499
9.508606 32.871151 0.091886
9.822430 32.871151 0.152001
10.136253 32.871151 0.227368
10.450075 32.871151 0.328950
10.763899 32.871151 0.431991
11.077723 32.871151 0.544639
11.391544 32.871151 0.660967
11.705368 32.871151 0.809352
12.019190 32.871151 0.952390
12.333014 32.871151 1.079793
12.646837 32.871151 1.183102
12.960659 32.871151 1.282613
13.274483 32.871151 1.360842
13.588306 32.871151 1.405280
13.902128 32.871151 1.416143
14.215952 32.871151 1.397189
14.529776 32.871151 1.346323
14.843597 32.871151 1.285627
15.157421 32.871151 1.223590
15.471243 32.871151 1.140821
15.785067 32.871151 1.030061
16.098890 32.871151 0.893875
16.412712 32.871151 0.754244
16.726536 32.871151 0.586074
17.040359 32.871151 0.401070
17.354181 32.871151 0.196533
17.668005 32.871151 -0.017509
17.981829 32.871151 -0.210208
18.295650 32.871151 -0.382492
18.609474 32.871151 -0.531965
18.923298 32.871151 -0.492018
19.237120 32.871151 0.000000
-6.810190 32.557327 0.000000
-6.496367 32.557327 0.000258
-6.182544 32.557327 -0.000113
-5.868721 32.557327 -0.000025
-5.554898 32.557327 0.000092
-5.241075 32.557327 0.000106
-4.927252 32.557327 0.000064
-4.613429 32.557327 0.000153
-4.299606 32.557327 0.000331
-3.985783 32.557327 0.000440
-3.671960 32.557327 0.000403
-3.358137 32.557327 0.000309
-3.044314 32.557327 0.000367
-2.730491 32.557327 0.000344
-2.416668 32.557327 0.000163
-2.102845 32.557327 0.000077
-1.789022 32.557327 0.000058
-1.475199 32.557327 0.000045
-1.161376 32.557327 0.000057
-0.847553 32.557327 0.000121
-0.533730 32.557327 0.000174
-0.219907 32.557327 0.000148
0.093916 32.557327 0.000052
0.407739 32.557327 0.000080
0.721562 32.557327 0.000096
1.035385 32.557327 0.000036
1.349208 32.557327 -0.000076
1.663032 32.557327 -0.000169
1.976854 32.557327 -0.000186
2.290677 32.557327 -0.000195
2.604500 32.557327 -0.000318
2.918324 32.557327 -0.000417
3.232146 32.557327 -0.000474
3.545969 32.557327 -0.000498
3.859793 32.557327 -0.000481
4.173615 32.557327 -0.000396
4.487438 32.557327 -0.000319
4.801261 32.557327 -0.000282
5.115085 32.557327 -0.000243
5.428907 32.557327 -0.000364
5.742730 32.557327 -0.000458
6.056554 32.557327 -0.000362
6.370377 32.557327 -0.000248
6.684199 32.557327 -0.000105
6.998022 32.557327 0.000228
7.311846 32.557327 0.001269
7.625669 32.557327 0.002208
7.939491 32.557327 0.004494
8.253315 32.557327 0.008810
8.567138 32.557327 0.014987
8.880960 32.557327 0.029183
9.194784 32.557327 0.052739
9.508606 32.557327 0.091964
9.822430 32.557327 0.148128
10.136253 32.557327 0.232036
10.450075 32.557327 0.324162
10.763899 32.557327 0.431082
11.077723 32.557327 0.547478
11.391544 32.557327 0.677890
11.705368 32.557327 0.815824
12.019190 32.557327 0.953763
12.333014 32.557327 1.094267
12.646837 32.557327 1.197369
12.960659 32.557327 1.293712
13.274483 32.557327 1.365297
13.588306 32.557327 1.414990
13.902128 32.557327 1.422981
14.215952 32.557327 1.405836
14.529776 32.557327 1.347841
14.843597 32.557327 1.286345
15.157421 32.557327 1.218259
15.471243 32.557327 1.142460
15.785067 32.557327 1.036147
16.098890 32.557327 0.902509
16.412712 32.557327 0.747511
16.726536 32.557327 0.589772
17.040359 32.557327 0.399430
17.354181 32.557327 0.197659
17.668005 32.557327 -0.019469
17.981829 32.557327 -0.215267
18.295650 32.557327 -0.381181
18.609474 32.557327 -0.535628
18.923298 32.557327 -0.499169
19.237120 32.557327 0.000000
-6.810190 32.243507 0.000000
-6.496367 32.243507 0.000173
-6.182544 32.243507 -0.000233
-5.868721 32.243507 -0.000082
-5.554898 32.243507 0.000054
-5.241075 32.243507 0.000082
-4.927252 32.243507 0.000055
-4.613429 32.243507 0.000133
-4.299606 32.243507 0.000268
-3.985783 32.243507 0.000381
-3.671960 32.243507 0.000405
-3.358137 32.243507 0.000381
-3.044314 32.243507 0.000438
-2.730491 32.243507 0.000411
-2.416668 32.243507 0.000210
-2.102845 32.243507 0.000105
-1.789022 32.243507 0.000090
-1.475199 32.243507 0.000090
-1.161376 32.243507 0.000121
-0.847553 32.243507 0.000145
-0.533730 32.243507 0.000168
-0.219907 32.243507 0.000191
0.093916 32.243507 0.000156
0.407739 32.243507 0.000163
0.721562 32.243507 0.000158
1.035385 32.243507 0.000078
1.349208 32.243507 -0.000072
1.663032 32.243507 -0.000172
1.976854 32.243507 -0.000190
2.290677 32.243507 -0.000221
2.604500 32.243507 -0.000327
2.918324 32.243507 -0.000461
3.232146 32.243507 -0.000541
3.545969 32.243507 -0.000560
3.859793 32.243507 -0.000445
4.173615 32.243507 -0.000293
4.487438 32.243507 -0.000257
4.801261 32.243507 -0.000263
5.115085 32.243507 -0.000307
5.428907 32.243507 -0.000397
5.742730 32.243507 -0.000450
6.056554 32.243507 -0.000366
6.370377 32.243507 -0.000313
6.684199 32.243507 -0.000089
6.998022 32.243507 0.000222
7.311846 32.243507 0.001125
7.625669 32.243507 0.002292
7.939491 32.243507 0.004665
8.253315 32.243507 0.008335
8.567138 32.243507 0.014719
8.880960 32.243507 0.028125
9.194784 32.243507 0.051730
9.508606 32.243507 0.092431
9.822430 32.243507 0.152240
10.136253 32.243507 0.230992
10.450075 32.243507 0.324569
10.763899 32.243507 0.433717
11.077723 32.243507 0.552836
11.391544 32.243507 0.681255
11.705368 32.243507 0.818234
12.019190 32.243507 0.961566
12.333014 32.243507 1.097419
12.646837 32.243507 1.207817
12.960659 32.243507 1.299244
13.274483 32.243507 1.375078
13.588306 32.243507 1.425187
13.902128 32.243507 1.438379
14.215952 32.243507 1.412101
14.529776 32.243507 1.356789
14.843597 32.243507 1.298273
15.157421 32.243507 1.225996
15.471243 32.243507 1.140823
15.785067 32.243507 1.036338
16.098890 32.243507 0.907814
16.412712 32.243507 0.754122
16.726536 32.243507 0.582705
17.040359 32.243507 0.396997
17.354181 32.243507 0.198320
17.668005 32.243507 -0.017676
17.981829 32.243507 -0.215411
18.295650 32.243507 -0.384843
18.609474 32.243507 -0.529984
18.923298 32.243507 -0.475300
19.237120 32.243507 0.000000
-6.810190 31.929682 0.000000
-6.496367 31.929682 0.000018
-6.182544 31.929682 -0.000276
-5.868721 31.929682 -0.000120
-5.554898 31.929682 -0.000005
-5.241075 31.929682 0.000025
-4.927252 31.929682 0.000010
-4.613429 31.929682 0.000072
-4.299606 31.929682 0.000194
-3.985783 31.929682 0.000305
-3.671960 31.929682 0.000394
-3.358137 31.929682 0.000412
-3.044314 31.929682 0.000474
-2.730491 31.929682 0.000420
-2.416668 31.929682 0.000257
-2.102845 31.929682 0.000141
-1.789022 31.929682 0.000109
-1.475199 31.929682 0.000143
-1.161376 31.929682 0.000203
-0.847553 31.929682 0.000224
-0.533730 31.929682 0.000183
-0.219907 31.929682 0.000201
0.093916 31.929682 0.000193
0.407739 31.929682 0.000184
0.721562 31.929682 0.000190
1.035385 31.929682 0.000098
1.349208 31.929682 -0.000075
1.663032 31.929682 -0.000174
1.976854 31.929682 -0.000197
2.290677 31.929682 -0.000250
2.604500 31.929682 -0.000360
2.918324 31.929682 -0.000522
3.232146 31.929682 -0.000592
3.545969 31.929682 -0.000565
3.859793 31.929682 -0.000397
4.173615 31.929682 -0.000244
4.487438 31.929682 -0.000219
4.801261 31.929682 -0.000269
5.115085 31.929682 -0.000367
5.428907 31.929682 -0.000442
5.742730 31.929682 -0.000466
6.056554 31.929682 -0.000460
6.370377 31.929682 -0.000388
6.684199 31.929682 -0.000192
6.998022 31.929682 0.000338
7.311846 31.929682 0.001108
7.625669 31.929682 0.002249
7.939491 31.929682 0.004781
8.253315 31.929682 0.008873
8.567138 31.929682 0.016121
8.880960 31.929682 0.030967
9.194784 31.929682 0.052157
9.508606 31.929682 0.090511
9.822430 31.929682 0.151160
10.136253 31.929682 0.230029
10.450075 31.929682 0.324113
10.763899 31.929682 0.424363
11.077723 31.929682 0.545335
11.391544 31.929682 0.677107
11.705368 31.929682 0.815364
12.019190 31.929682 0.951863
12.333014 31.929682 1.100544
12.646837 31.929682 1.208764
12.960659 31.929682 1.299234
13.274483 31.929682 1.381777
13.588306 31.929682 1.426327
13.902128 31.929682 1.430631
14.215952 31.929682 1.416562
14.529776 31.929682 1.360859
14.843597 31.929682 1.295070
15.157421 31.929682 1.228039
15.471243 31.929682 1.144961
15.785067 31.929682 1.028453
16.098890 31.929682 0.902997
16.412712 31.929682 0.748397
16.726536 31.929682 0.573444
17.040359 31.929682 0.397583
17.354181 31.929682 0.193285
17.668005 31.929682 -0.019616
17.981829 31.929682 -0.217554
18.295650 31.929682 -0.395632
18.609474 31.929682 -0.528289
18.923298 31.929682 -0.472879
19.237120 31.929682 0.000000
-6.810190 31.615858 0.000000
-6.496367 31.615858 -0.000053
-6.182544 31.615858 -0.000257
-5.868721 31.615858 -0.000109
-5.554898 31.615858 -0.000029
-5.241075 31.615858 -0.000005
-4.927252 31.615858 0.000008
-4.613429 31.615858 0.000036
-4.299606 31.615858 0.000146
-3.985783 31.615858 0.000230
-3.671960 31.615858 0.000366
-3.358137 31.615858 0.000447
-3.044314 31.615858 0.000475
-2.730491 31.615858 0.000410
-2.416668 31.615858 0.000277
-2.102845 31.615858 0.000182
-1.789022 31.615858 0.000119
-1.475199 31.615858 0.000171
-1.161376 31.615858 0.000272
-0.847553 31.615858 0.000274
-0.533730 31.615858 0.000186
-0.219907 31.615858 0.000187
0.093916 31.615858 0.000191
0.407739 31.615858 0.000187
0.721562 31.615858 0.000204
1.035385 31.615858 0.000088
1.349208 31.615858 -0.000073
1.663032 31.615858 -0.000168
1.976854 31.615858 -0.000183
2.290677 31.615858 -0.000248
2.604500 31.615858 -0.000376
2.918324 31.615858 -0.000563
3.232146 31.615858 -0.000603
3.545969 31.615858 -0.000488
3.859793 31.615858 -0.000299
4.173615 31.615858 -0.000216
4.487438 31.615858 -0.000225
4.801261 31.615858 -0.000302
5.115085 31.615858 -0.000419
5.428907 31.615858 -0.000479
5.742730 31.615858 -0.000514
6.056554 31.615858 -0.000501
6.370377 31.615858 -0.000577
6.684199 31.615858 -0.000376
6.998022 31.615858 0.000364
7.311846 31.615858 0.001045
7.625669 31.615858 0.002239
7.939491 31.615858 0.004559
8.253315 31.615858 0.008850
8.567138 31.615858 0.015563
8.880960 31.615858 0.031673
9.194784 31.615858 0.054156
9.508606 31.615858 0.091314
9.822430 31.615858 0.149732
10.136253 31.615858 0.229212
10.450075 31.615858 0.331937
10.763899 31.615858 0.424669
11.077723 31.615858 0.549264
11.391544 31.615858 0.669839
11.705368 31.615858 0.818343
12.019190 31.615858 0.953512
12.333014 31.615858 1.097300
12.646837 31.615858 1.204646
12.960659 31.615858 1.299395
13.274483 31.615858 1.380733
13.588306 31.615858 1.425241
13.902128 31.615858 1.434355
14.215952 31.615858 1.414765
14.529776 31.615858 1.362164
14.843597 31.615858 1.302466
15.157421 31.615858 1.232282
15.471243 31.615858 1.148055
15.785067 31.615858 1.028506
16.098890 31.615858 0.902951
16.412712 31.615858 0.748519
16.726536 31.615858 0.572829
17.040359 31.615858 0.390392
17.354181 31.615858 0.196818
17.668005 31.615858 -0.019897
17.981829 31.615858 -0.214881
18.295650 31.615858 -0.399432
18.609474 31.615858 -0.543499
18.923298 31.615858 -0.449674
19.237120 31.615858 0.000000
-6.810190 31.302036 0.000000
-6.496367 31.302036 -0.000079
-6.182544 31.302036 -0.000190
-5.868721 31.302036 -0.000084
-5.554898 31.302036 -0.000029
-5.241075 31.302036 0.000005
-4.927252 31.302036 0.000079
-4.613429 31.302036 0.000070
-4.299606 31.302036 0.000106
-3.985783 31.302036 0.000154
-3.671960 31.302036 0.000355
-3.358137 31.302036 0.000492
-3.044314 31.302036 0.000485
-2.730491 31.302036 0.000363
-2.416668 31.302036 0.000256
-2.102845 31.302036 0.000201
-1.789022 31.302036 0.000148
-1.475199 31.302036 0.000196
-1.161376 31.302036 0.000289
-0.847553 31.302036 0.000288
-0.533730 31.302036 0.000173
-0.219907 31.302036 0.000173
0.093916 31.302036 0.000177
0.407739 31.302036 0.000176
0.721562 31.302036 0.000178
1.035385 31.302036 0.000078
1.349208 31.302036 -0.000061
1.663032 31.302036 -0.000169
1.976854 31.302036 -0.000187
2.290677 31.302036 -0.000243
2.604500 31.302036 -0.000385
2.918324 31.302036 -0.000535
3.232146 31.302036 -0.000558
3.545969 31.302036 -0.000400
3.859793 31.302036 -0.000222
4.173615 31.302036 -0.000192
4.487438 31.302036 -0.000279
4.801261 31.302036 -0.000371
5.115085 31.302036 -0.000447
5.428907 31.302036 -0.000519
5.742730 31.302036 -0.000516
6.056554 31.302036 -0.000531
6.370377 31.302036 -0.000533
6.684199 31.302036 -0.000356
6.998022 31.302036 0.000223
7.311846 31.302036 0.001147
7.625669 31.302036 0.002388
7.939491 31.302036 0.004799
8.253315 31.302036 0.009004
8.567138 31.302036 0.015061
8.880960 31.302036 0.030772
9.194784 31.302036 0.055691
9.508606 31.302036 0.092133
9.822430 31.302036 0.150933
10.136253 31.302036 0.228388
10.450075 31.302036 0.331452
10.763899 31.302036 0.432192
11.077723 31.302036 0.548770
11.391544 31.302036 0.664082
11.705368 31.302036 0.810024
12.019190 31.302036 0.950774
12.333014 31.302036 1.090546
12.646837 31.302036 1.205144
12.960659 31.302036 1.297072
13.274483 31.302036 1.372913
13.588306 31.302036 1.414586
13.902128 31.302036 1.426117
14.215952 31.302036 1.403518
14.529776 31.302036 1.364470
14.843597 31.302036 1.305612
15.157421 31.302036 1.243552
15.471243 31.302036 1.152567
15.785067 31.302036 1.033449
16.098890 31.302036 0.906595
16.412712 31.302036 0.755159
16.726536 31.302036 0.577603
17.040359 31.302036 0.399852
17.354181 31.302036 0.195300
17.668005 31.302036 -0.013761
17.981829 31.302036 -0.210402
18.295650 31.302036 -0.387130
18.609474 31.302036 -0.545025
18.923298 31.302036 -0.430280
19.237120 31.302036 0.000000
-6.810190 30.988213 0.000000
-6.496367 30.988213 -0.000139
-6.182544 30.988213 -0.000096
-5.868721 30.988213 -0.000044
-5.554898 30.988213 0.000007
-5.241075 30.988213 0.000063
-4.927252 30.988213 0.000184
-4.613429 30.988213 0.000147
-4.299606 30.988213 0.000086
-3.985783 30.988213 0.000111
-3.671960 30.988213 0.000280
-3.358137 30.988213 0.000478
-3.044314 30.988213 0.000466
-2.730491 30.988213 0.000333
-2.416668 30.988213 0.000250
-2.102845 30.988213 0.000218
-1.789022 30.988213 0.000161
-1.475199 30.988213 0.000203
-1.161376 30.988213 0.000268
-0.847553 30.988213 0.000253
-0.533730 30.988213 0.000156
-0.219907 30.988213 0.000143
0.093916 30.988213 0.000165
0.407739 30.988213 0.000162
0.721562 30.988213 0.000140
1.035385 30.988213 0.000050
1.349208 30.988213 -0.000074
1.663032 30.988213 -0.000179
1.976854 30.988213 -0.000184
2.290677 30.988213 -0.000233
2.604500 30.988213 -0.000346
2.918324 30.988213 -0.000476
3.232146 30.988213 -0.000470
3.545969 30.988213 -0.000318
3.859793 30.988213 -0.000177
4.173615 30.988213 -0.000214
4.487438 30.988213 -0.000340
4.801261 30.988213 -0.000466
5.115085 30.988213 -0.000488
5.428907 30.988213 -0.000563
5.742730 30.988213 -0.000526
6.056554 30.988213 -0.000469
6.370377 30.988213 -0.000485
6.684199 30.988213 -0.000354
6.998022 30.988213 0.000114
7.311846 30.988213 0.001164
7.625669 30.988213 0.002591
7.939491 30.988213 0.005024
8.253315 30.988213 0.008528
8.567138 30.988213 0.015331
8.880960 30.988213 0.029936
9.194784 30.988213 0.052655
9.508606 30.988213 0.092695
9.822430 30.988213 0.150136
10.136253 30.988213 0.229603
10.450075 30.988213 0.330084
10.763899 30.988213 0.440868
11.077723 30.988213 0.554591
11.391544 30.988213 0.671432
11.705368 30.988213 0.816648
12.019190 30.988213 0.955553
12.333014 30.988213 1.088613
12.646837 30.988213 1.211562
12.960659 30.988213 1.297745
13.274483 30.988213 1.365739
13.588306 30.988213 1.406123
13.902128 30.988213 1.405716
14.215952 30.988213 1.392284
14.529776 30.988213 1.367531
14.843597 30.988213 1.313026
15.157421 30.988213 1.247030
15.471243 30.988213 1.161270
15.785067 30.988213 1.040927
16.098890 30.988213 0.924079
16.412712 30.988213 0.756287
16.726536 30.988213 0.580548
17.040359 30.988213 0.398852
17.354181 30.988213 0.197638
17.668005 30.988213 -0.014713
17.981829 30.988213 -0.202832
18.295650 30.988213 -0.393285
18.609474 30.988213 -0.539475
18.923298 30.988213 -0.407995
19.237120 30.988213 0.000000
-6.810190 30.674389 0.000000
-6.496367 30.674389 -0.000096
-6.182544 30.674389 0.000003
-5.868721 30.674389 0.000019
-5.554898 30.674389 0.000096
-5.241075 30.674389 0.000179
-4.927252 30.674389 0.000286
-4.613429 30.674389 0.000206
-4.299606 30.674389 0.000120
-3.985783 30.674389 0.000081
-3.671960 30.674389 0.000192
-3.358137 30.674389 0.000392
-3.044314 30.674389 0.000403
-2.730491 30.674389 0.000317
-2.416668 30.674389 0.000265
-2.102845 30.674389 0.000262
-1.789022 30.674389 0.000204
-1.475199 30.674389 0.000213
-1.161376 30.674389 0.000228
-0.847553 30.674389 0.000197
-0.533730 30.674389 0.000146
-0.219907 30.674389 0.000123
0.093916 30.674389 0.000144
0.407739 30.674389 0.000153
0.721562 30.674389 0.000119
1.035385 30.674389 0.000020
1.349208 30.674389 -0.000098
1.663032 30.674389 -0.000197
1.976854 30.674389 -0.000193
2.290677 30.674389 -0.000213
2.604500 30.674389 -0.000273
2.918324 30.674389 -0.000369
3.232146 30.674389 -0.000370
3.545969 30.674389 -0.000260
3.859793 30.674389 -0.000166
4.173615 30.674389 -0.000227
4.487438 30.674389 -0.000375
4.801261 30.674389 -0.000500
5.115085 30.674389 -0.000490
5.428907 30.674389 -0.000586
5.742730 30.674389 -0.000525
6.056554 30.674389 -0.000452
6.370377 30.674389 -0.000409
6.684199 30.674389 -0.000283
6.998022 30.674389 0.000170
7.311846 30.674389 0.001044
7.625669 30.674389 0.002578
7.939491 30.674389 0.005031
8.253315 30.674389 0.008378
8.567138 30.674389 0.015490
8.880960 30.674389 0.029380
9.194784 30.674389 0.052614
9.508606 30.674389 0.095671
9.822430 30.674389 0.150856
10.136253 30.674389 0.231421
10.450075 30.674389 0.324275
10.763899 30.674389 0.442731
11.077723 30.674389 0.557756
11.391544 30.674389 0.676665
11.705368 30.674389 0.824028
12.019190 30.674389 0.953944
12.333014 30.674389 1.097262
12.646837 30.674389 1.203990
12.960659 30.674389 1.288627
13.274483 30.674389 1.353275
13.588306 30.674389 1.386258
13.902128 30.674389 1.397080
14.215952 30.674389 1.387816
14.529776 30.674389 1.372542
14.843597 30.674389 1.322358
15.157421 30.674389 1.261173
15.471243 30.674389 1.162791
15.785067 30.674389 1.050024
16.098890 30.674389 0.918721
16.412712 30.674389 0.763619
16.726536 30.674389 0.590240
17.040359 30.674389 0.399920
17.354181 30.674389 0.197579
17.668005 30.674389 -0.009339
17.981829 30.674389 -0.205961
18.295650 30.674389 -0.397167
18.609474 30.674389 -0.541717
18.923298 30.674389 -0.389032
19.237120 30.674389 0.000000
-6.810190 30.360567 0.000000
-6.496367 30.360567 -0.000014
-6.182544 30.360567 0.000020
-5.868721 30.360567 0.000048
-5.554898 30.360567 0.000171
-5.241075 30.360567 0.000296
-4.927252 30.360567 0.000380
-4.613429 30.360567 0.000292
-4.299606 30.360567 0.000180
-3.985783 30.360567 0.000120
-3.671960 30.360567 0.000142
-3.358137 30.360567 0.000303
-3.044314 30.360567 0.000305
-2.730491 30.360567 0.000287
-2.416668 30.360567 0.000297
-2.102845 30.360567 0.000306
-1.789022 30.360567 0.000236
-1.475199 30.360567 0.000231
-1.161376 30.360567 0.000191
-0.847553 30.360567 0.000156
-0.533730 30.360567 0.000152
-0.219907 30.360567 0.000134
0.093916 30.360567 0.000135
0.407739 30.360567 0.000126
0.721562 30.360567 0.000102
1.035385 30.360567 0.000001
1.349208 30.360567 -0.000132
1.663032 30.360567 -0.000211
1.976854 30.360567 -0.000214
2.290677 30.360567 -0.000189
2.604500 30.360567 -0.000187
2.918324 30.360567 -0.000248
3.232146 30.360567 -0.000280
3.545969 30.360567 -0.000240
3.859793 30.360567 -0.000223
4.173615 30.360567 -0.000281
4.487438 30.360567 -0.000409
4.801261 30.360567 -0.000501
5.115085 30.360567 -0.000482
5.428907 30.360567 -0.000570
5.742730 30.360567 -0.000558
6.056554 30.360567 -0.000460
6.370377 30.360567 -0.000418
6.684199 30.360567 -0.000203
6.998022 30.360567 0.000197
7.311846 30.360567 0.001114
7.625669 30.360567 0.002474
7.939491 30.360567 0.005115
8.253315 30.360567 0.008998
8.567138 30.360567 0.015831
8.880960 30.360567 0.028548
9.194784 30.360567 0.053344
9.508606 30.360567 0.094222
9.822430 30.360567 0.152082
10.136253 30.360567 0.230204
10.450075 30.360567 0.322074
10.763899 30.360567 0.436815
11.077723 30.360567 0.558043
11.391544 30.360567 0.677109
11.705368 30.360567 0.824823
12.019190 30.360567 0.964419
12.333014 30.360567 1.103276
12.646837 30.360567 1.211505
12.960659 30.360567 1.290815
13.274483 30.360567 1.351662
13.588306 30.360567 1.385800
13.902128 30.360567 1.391864
14.215952 30.360567 1.387928
14.529776 30.360567 1.366550
14.843597 30.360567 1.329303
15.157421 30.360567 1.269417
15.471243 30.360567 1.175729
15.785067 30.360567 1.057722
16.098890 30.360567 0.921134
16.412712 30.360567 0.780830
16.726536 30.360567 0.604084
17.040359 30.360567 0.401448
17.354181 30.360567 0.194254
17.668005 30.360567 -0.002765
17.981829 30.360567 -0.202204
18.295650 30.360567 -0.397893
18.609474 30.360567 -0.541371
18.923298 30.360567 -0.381861
19.237120 30.360567 0.000000
-6.810190 30.046743 0.000000
-6.496367 30.046743 0.000099
-6.182544 30.046743 0.000042
-5.868721 30.046743 0.000057
-5.554898 30.046743 0.000214
-5.241075 30.046743 0.000365
-4.927252 30.046743 0.000462
-4.613429 30.046743 0.000406
-4.299606 30.046743 0.000313
-3.985783 30.046743 0.000219
-3.671960 30.046743 0.000141
-3.358137 30.046743 0.000204
-3.044314 30.046743 0.000213
-2.730491 30.046743 0.000221
-2.416668 30.046743 0.000289
-2.102845 30.046743 0.000297
-1.789022 30.046743 0.000231
-1.475199 30.046743 0.000227
-1.161376 30.046743 0.000176
-0.847553 30.046743 0.000139
-0.533730 30.046743 0.000183
-0.219907 30.046743 0.000209
0.093916 30.046743 0.000153
0.407739 30.046743 0.000103
0.721562 30.046743 0.000081
1.035385 30.046743 -0.000033
1.349208 30.046743 -0.000145
1.663032 30.046743 -0.000249
1.976854 30.046743 -0.000261
2.290677 30.046743 -0.000165
2.604500 30.046743 -0.000119
2.918324 30.046743 -0.000155
3.232146 30.046743 -0.000208
3.545969 30.046743 -0.000249
3.859793 30.046743 -0.000290
4.173615 30.046743 -0.000340
4.487438 30.046743 -0.000397
4.801261 30.046743 -0.000478
5.115085 30.046743 -0.000477
5.428907 30.046743 -0.000523
5.742730 30.046743 -0.000554
6.056554 30.046743 -0.000540
6.370377 30.046743 -0.000415
6.684199 30.046743 -0.000145
6.998022 30.046743 0.000175
7.311846 30.046743 0.001024
7.625669 30.046743 0.002162
7.939491 30.046743 0.004798
8.253315 30.046743 0.009006
8.567138 30.046743 0.016151
8.880960 30.046743 0.029747
9.194784 30.046743 0.052031
9.508606 30.046743 0.091170
9.822430 30.046743 0.155126
10.136253 30.046743 0.234284
10.450075 30.046743 0.325453
10.763899 30.046743 0.437231
11.077723 30.046743 0.559849
11.391544 30.046743 0.680748
11.705368 30.046743 0.820058
12.019190 30.046743 0.964921
12.333014 30.046743 1.096937
12.646837 30.046743 1.210861
12.960659 30.046743 1.288282
13.274483 30.046743 1.351795
13.588306 30.046743 1.387475
13.902128 30.046743 1.393885
14.215952 30.046743 1.394611
14.529776 30.046743 1.369044
14.843597 30.046743 1.336547
15.157421 30.046743 1.269880
15.471243 30.046743 1.187749
15.785067 30.046743 1.064884
16.098890 30.046743 0.927290
16.412712 30.046743 0.782803
16.726536 30.046743 0.611798
17.040359 30.046743 0.406403
17.354181 30.046743 0.190854
17.668005 30.046743 -0.013342
17.981829 30.046743 -0.204422
18.295650 30.046743 -0.393513
18.609474 30.046743 -0.548019
18.923298 30.046743 -0.358436
19.237120 30.046743 0.000000
-6.810190 29.732922 0.000000
-6.496367 29.732922 0.000203
-6.182544 29.732922 0.000078
-5.868721 29.732922 0.000098
-5.554898 29.732922 0.000238
-5.241075 29.732922 0.000373
-4.927252 29.732922 0.000523
-4.613429 29.732922 0.000552
-4.299606 29.732922 0.000478
-3.985783 29.732922 0.000342
-3.671960 29.732922 0.000179
-3.358137 29.732922 0.000132
-3.044314 29.732922 0.000130
-2.730491 29.732922 0.000157
-2.416668 29.732922 0.000206
-2.102845 29.732922 0.000242
-1.789022 29.732922 0.000189
-1.475199 29.732922 0.000201
-1.161376 29.732922 0.000165
-0.847553 29.732922 0.000157
-0.533730 29.732922 0.000248
-0.219907 29.732922 0.000273
0.093916 29.732922 0.000133
0.407739 29.732922 0.000083
0.721562 29.732922 0.000062
1.035385 29.732922 -0.000032
1.349208 29.732922 -0.000140
1.663032 29.732922 -0.000257
1.976854 29.732922 -0.000280
2.290677 29.732922 -0.000162
2.604500 29.732922 -0.000079
2.918324 29.732922 -0.000113
3.232146 29.732922 -0.000189
3.545969 29.732922 -0.000286
3.859793 29.732922 -0.000352
4.173615 29.732922 -0.000378
4.487438 29.732922 -0.000390
4.801261 29.732922 -0.000453
5.115085 29.732922 -0.000446
5.428907 29.732922 -0.000474
5.742730 29.732922 -0.000483
6.056554 29.732922 -0.000478
6.370377 29.732922 -0.000391
6.684199 29.732922 -0.000260
6.998022 29.732922 0.000201
7.311846 29.732922 0.001037
7.625669 29.732922 0.002054
7.939491 29.732922 0.004807
8.253315 29.732922 0.009585
8.567138 29.732922 0.016343
8.880960 29.732922 0.030481
9.194784 29.732922 0.054089
9.508606 29.732922 0.092679
9.822430 29.732922 0.154388
10.136253 29.732922 0.235103
10.450075 29.732922 0.328759
10.763899 29.732922 0.435204
11.077723 29.732922 0.560196
11.391544 29.732922 0.689271
11.705368 29.732922 0.831698
12.019190 29.732922 0.974181
12.333014 29.732922 1.105089
12.646837 29.732922 1.207480
12.960659 29.732922 1.286211
13.274483 29.732922 1.350953
13.588306 29.732922 1.390100
13.902128 29.732922 1.401513
14.215952 29.732922 1.397151
14.529776 29.732922 1.372384
14.843597 29.732922 1.330151
15.157421 29.732922 1.272713
15.471243 29.732922 1.183383
15.785067 29.732922 1.063717
16.098890 29.732922 0.927280
16.412712 29.732922 0.788427
16.726536 29.732922 0.608934
17.040359 29.732922 0.398509
17.354181 29.732922 0.182548
17.668005 29.732922 -0.017467
17.981829 29.732922 -0.210809
18.295650 29.732922 -0.396806
18.609474 29.732922 -0.560259
18.923298 29.732922 -0.347134
19.237120 29.732922 0.000000
-6.810190 29.419098 0.000000
-6.496367 29.419098 0.000295
-6.182544 29.419098 0.000132
-5.868721 29.419098 0.000153
-5.554898 29.419098 0.000264
-5.241075 29.419098 0.000341
-4.927252 29.419098 0.000522
-4.613429 29.419098 0.000634
-4.299606 29.419098 0.000599
-3.985783 29.419098 0.000451
-3.671960 29.419098 0.000214
-3.358137 29.419098 0.000097
-3.044314 29.419098 0.000095
-2.730491 29.419098 0.000132
-2.416668 29.419098 0.000136
-2.102845 29.419098 0.000191
-1.789022 29.419098 0.000156
-1.475199 29.419098 0.000174
-1.161376 29.419098 0.000186
-0.847553 29.419098 0.000223
-0.533730 29.419098 0.000296
-0.219907 29.419098 0.000289
0.093916 29.419098 0.000143
0.407739 29.419098 0.000099
0.721562 29.419098 0.000064
1.035385 29.419098 -0.000031
1.349208 29.419098 -0.000134
1.663032 29.419098 -0.000238
1.976854 29.419098 -0.000237
2.290677 29.419098 -0.000126
2.604500 29.419098 -0.000066
2.918324 29.419098 -0.000115
3.232146 29.419098 -0.000202
3.545969 29.419098 -0.000320
3.859793 29.419098 -0.000367
4.173615 29.419098 -0.000359
4.487438 29.419098 -0.000364
4.801261 29.419098 -0.000411
5.115085 29.419098 -0.000402
5.428907 29.419098 -0.000404
5.742730 29.419098 -0.000389
6.056554 29.419098 -0.000418
6.370377 29.419098 -0.000423
6.684199 29.419098 -0.000306
6.998022 29.419098 0.000076
7.311846 29.419098 0.000693
7.625669 29.419098 0.002220
7.939491 29.419098 0.004577
8.253315 29.419098 0.009186
8.567138 29.419098 0.016711
8.880960 29.419098 0.030089
9.194784 29.419098 0.054236
9.508606 29.419098 0.094635
9.822430 29.419098 0.155156
10.136253 29.419098 0.234089
10.450075 29.419098 0.329829
10.763899 29.419098 0.437502
11.077723 29.419098 0.570654
11.391544 29.419098 0.698053
11.705368 29.419098 0.835565
12.019190 29.419098 0.970521
12.333014 29.419098 1.097046
12.646837 29.419098 1.213633
12.960659 29.419098 1.292234
13.274483 29.419098 1.354885
13.588306 29.419098 1.391326
13.902128 29.419098 1.400391
14.215952 29.419098 1.392388
14.529776 29.419098 1.378374
14.843597 29.419098 1.334929
15.157421 29.419098 1.273649
15.471243 29.419098 1.187356
15.785067 29.419098 1.063734
16.098890 29.419098 0.934863
16.412712 29.419098 0.780278
16.726536 29.419098 0.606819
17.040359 29.419098 0.398577
17.354181 29.419098 0.187958
17.668005 29.419098 -0.008932
17.981829 29.419098 -0.209316
18.295650 29.419098 -0.393191
18.609474 29.419098 -0.561945
18.923298 29.419098 -0.347431
19.237120 29.419098 0.000000
-6.810190 29.105274 0.000000
-6.496367 29.105274 0.000359
-6.182544 29.105274 0.000183
-5.868721 29.105274 0.000200
-5.554898 29.105274 0.000290
-5.241075 29.105274 0.000284
-4.927252 29.105274 0.000459
-4.613429 29.105274 0.000624
-4.299606 29.105274 0.000637
-3.985783 29.105274 0.000467
-3.671960 29.105274 0.000226
-3.358137 29.105274 0.000118
-3.044314 29.105274 0.000120
-2.730491 29.105274 0.000137
-2.416668 29.105274 0.000137
-2.102845 29.105274 0.000189
-1.789022 29.105274 0.000166
-1.475199 29.105274 0.000191
-1.161376 29.105274 0.000224
-0.847553 29.105274 0.000293
-0.533730 29.105274 0.000320
-0.219907 29.105274 0.000253
0.093916 29.105274 0.000174
0.407739 29.105274 0.000134
0.721562 29.105274 0.000075
1.035385 29.105274 -0.000021
1.349208 29.105274 -0.000129
1.663032 29.105274 -0.000208
1.976854 29.105274 -0.000195
2.290677 29.105274 -0.000111
2.604500 29.105274 -0.000100
2.918324 29.105274 -0.000156
3.232146 29.105274 -0.000269
3.545969 29.105274 -0.000382
3.859793 29.105274 -0.000380
4.173615 29.105274 -0.000311
4.487438 29.105274 -0.000343
4.801261 29.105274 -0.000383
5.115085 29.105274 -0.000393
5.428907 29.105274 -0.000359
5.742730 29.105274 -0.000343
6.056554 29.105274 -0.000359
6.370377 29.105274 -0.000299
6.684199 29.105274 -0.000185
6.998022 29.105274 0.000168
7.311846 29.105274 0.000940
7.625669 29.105274 0.002394
7.939491 29.105274 0.004914
8.253315 29.105274 0.008687
8.567138 29.105274 0.015108
8.880960 29.105274 0.030064
9.194784 29.105274 0.052854
9.508606 29.105274 0.094566
9.822430 29.105274 0.157533
10.136253 29.105274 0.234113
10.450075 29.105274 0.339852
10.763899 29.105274 0.443187
11.077723 29.105274 0.568782
11.391544 29.105274 0.702255
11.705368 29.105274 0.837021
12.019190 29.105274 0.967816
12.333014 29.105274 1.095657
12.646837 29.105274 1.211440
12.960659 29.105274 1.294617
13.274483 29.105274 1.352305
13.588306 29.105274 1.396422
13.902128 29.105274 1.399948
14.215952 29.105274 1.400343
14.529776 29.105274 1.385548
14.843597 29.105274 1.343651
15.157421 29.105274 1.279662
15.471243 29.105274 1.188004
15.785067 29.105274 1.064553
16.098890 29.105274 0.933155
16.412712 29.105274 0.777124
16.726536 29.105274 0.602982
17.040359 29.105274 0.400277
17.354181 29.105274 0.196634
17.668005 29.105274 -0.004682
17.981829 29.105274 -0.210423
18.295650 29.105274 -0.403818
18.609474 29.105274 -0.564459
18.923298 29.105274 -0.320648
19.237120 29.105274 0.000000
-6.810190 28.791452 0.000000
-6.496367 28.791452 0.000325
-6.182544 28.791452 0.000196
-5.868721 28.791452 0.000229
-5.554898 28.791452 0.000300
-5.241075 28.791452 0.000250
-4.927252 28.791452 0.000370
-4.613429 28.791452 0.000542
-4.299606 28.791452 0.000572
-3.985783 28.791452 0.000420
-3.671960 28.791452 0.000244
-3.358137 28.791452 0.000202
-3.044314 28.791452 0.000223
-2.730491 28.791452 0.000222
-2.416668 28.791452 0.000214
-2.102845 28.791452 0.000231
-1.789022 28.791452 0.000182
-1.475199 28.791452 0.000234
-1.161376 28.791452 0.000285
-0.847553 28.791452 0.000323
-0.533730 28.791452 0.000297
-0.219907 28.791452 0.000215
0.093916 28.791452 0.000187
0.407739 28.791452 0.000170
0.721562 28.791452 0.000063
1.035385 28.791452 -0.000038
1.349208 28.791452 -0.000136
1.663032 28.791452 -0.000175
1.976854 28.791452 -0.000172
2.290677 28.791452 -0.000138
2.604500 28.791452 -0.000168
2.918324 28.791452 -0.000223
3.232146 28.791452 -0.000341
3.545969 28.791452 -0.000426
3.859793 28.791452 -0.000371
4.173615 28.791452 -0.000287
4.487438 28.791452 -0.000313
4.801261 28.791452 -0.000377
5.115085 28.791452 -0.000390
5.428907 28.791452 -0.000352
5.742730 28.791452 -0.000304
6.056554 28.791452 -0.000253
6.370377 28.791452 -0.000200
6.684199 28.791452 -0.000032
6.998022 28.791452 0.000362
7.311846 28.791452 0.001209
7.625669 28.791452 0.002330
7.939491 28.791452 0.004884
8.253315 28.791452 0.008501
8.567138 28.791452 0.016061
8.880960 28.791452 0.028990
9.194784 28.791452 0.053599
9.508606 28.791452 0.094765
9.822430 28.791452 0.155368
10.136253 28.791452 0.233614
10.450075 28.791452 0.338430
10.763899 28.791452 0.447765
11.077723 28.791452 0.565714
11.391544 28.791452 0.696712
11.705368 28.791452 0.838872
12.019190 28.791452 0.968884
12.333014 28.791452 1.096936
12.646837 28.791452 1.205551
12.960659 28.791452 1.289049
13.274483 28.791452 1.352846
13.588306 28.791452 1.390867
13.902128 28.791452 1.398928
14.215952 28.791452 1.401386
14.529776 28.791452 1.395700
14.843597 28.791452 1.354092
15.157421 28.791452 1.283908
15.471243 28.791452 1.193037
15.785067 28.791452 1.075109
16.098890 28.791452 0.936246
16.412712 28.791452 0.768516
16.726536 28.791452 0.602938
17.040359 28.791452 0.399487
17.354181 28.791452 0.204016
17.668005 28.791452 -0.013461
17.981829 28.791452 -0.203805
18.295650 28.791452 -0.409836
18.609474 28.791452 -0.572141
18.923298 28.791452 -0.298456
19.237120 28.791452 0.000000
-6.810190 28.477629 0.000000
-6.496367 28.477629 0.000252
-6.182544 28.477629 0.000165
-5.868721 28.477629 0.000243
-5.554898 28.477629 0.000315
-5.241075 28.477629 0.000278
-4.927252 28.477629 0.000293
-4.613429 28.477629 0.000386
-4.299606 28.477629 0.000419
-3.985783 28.477629 0.000326
-3.671960 28.477629 0.000279
-3.358137 28.477629 0.000323
-3.044314 28.477629 0.000344
-2.730491 28.477629 0.000354
-2.416668 28.477629 0.000362
-2.102845 28.477629 0.000293
-1.789022 28.477629 0.000213
-1.475199 28.477629 0.000278
-1.161376 28.477629 0.000319
-0.847553 28.477629 0.000293
-0.533730 28.477629 0.000247
-0.219907 28.477629 0.000175
0.093916 28.477629 0.000197
0.407739 28.477629 0.000161
0.721562 28.477629 0.000058
1.035385 28.477629 -0.000045
1.349208 28.477629 -0.000128
1.663032 28.477629 -0.000146
1.976854 28.477629 -0.000161
2.290677 28.477629 -0.000173
2.604500 28.477629 -0.000225
2.918324 28.477629 -0.000287
3.232146 28.477629 -0.000407
3.545969 28.477629 -0.000423
3.859793 28.477629 -0.000329
4.173615 28.477629 -0.000273
4.487438 28.477629 -0.000315
4.801261 28.477629 -0.000359
5.115085 28.477629 -0.000379
5.428907 28.477629 -0.000330
5.742730 28.477629 -0.000281
6.056554 28.477629 -0.000199
6.370377 28.477629 -0.000165
6.684199 28.477629 0.000062
6.998022 28.477629 0.000421
7.311846 28.477629 0.001122
7.625669 28.477629 0.002364
7.939491 28.477629 0.004720
8.253315 28.477629 0.008977
8.567138 28.477629 0.014972
8.880960 28.477629 0.028397
9.194784 28.477629 0.050760
9.508606 28.477629 0.093967
9.822430 28.477629 0.151105
10.136253 28.477629 0.236601
10.450075 28.477629 0.335592
10.763899 28.477629 0.440218
11.077723 28.477629 0.564330
11.391544 28.477629 0.700515
11.705368 28.477629 0.840355
12.019190 28.477629 0.975933
12.333014 28.477629 1.091645
12.646837 28.477629 1.195612
12.960659 28.477629 1.274704
13.274483 28.477629 1.338450
13.588306 28.477629 1.387123
13.902128 28.477629 1.395408
14.215952 28.477629 1.389414
14.529776 28.477629 1.395398
14.843597 28.477629 1.356052
15.157421 28.477629 1.286072
15.471243 28.477629 1.202349
15.785067 28.477629 1.080419
16.098890 28.477629 0.945593
16.412712 28.477629 0.778961
16.726536 28.477629 0.605043
17.040359 28.477629 0.397703
17.354181 28.477629 0.196945
17.668005 28.477629 -0.011512
17.981829 28.477629 -0.211297
18.295650 28.477629 -0.407906
18.609474 28.477629 -0.587563
18.923298 28.477629 -0.289605
19.237120 28.477629 0.000000
-6.810190 28.163805 0.000000
-6.496367 28.163805 0.000195
-6.182544 28.163805 0.000161
-5.868721 28.163805 0.000231
-5.554898 28.163805 0.000308
-5.241075 28.163805 0.000288
-4.927252 28.163805 0.000248
-4.613429 28.163805 0.000247
-4.299606 28.163805 0.000241
-3.985783 28.163805 0.000219
-3.671960 28.163805 0.000310
-3.358137 28.163805 0.000427
-3.044314 28.163805 0.000456
-2.730491 28.163805 0.000496
-2.416668 28.163805 0.000504
-2.102845 28.163805 0.000364
-1.789022 28.163805 0.000249
-1.475199 28.163805 0.000317
-1.161376 28.163805 0.000315
-0.847553 28.163805 0.000238
-0.533730 28.163805 0.000184
-0.219907 28.163805 0.000150
0.093916 28.163805 0.000179
0.407739 28.163805 0.000133
0.721562 28.163805 0.000057
1.035385 28.163805 -0.000029
1.349208 28.163805 -0.000089
1.663032 28.163805 -0.000108
1.976854 28.163805 -0.000133
2.290677 28.163805 -0.000171
2.604500 28.163805 -0.000265
2.918324 28.163805 -0.000357
3.232146 28.163805 -0.000451
3.545969 28.163805 -0.000410
3.859793 28.163805 -0.000296
4.173615 28.163805 -0.000263
4.487438 28.163805 -0.000300
4.801261 28.163805 -0.000357
5.115085 28.163805 -0.000359
5.428907 28.163805 -0.000317
5.742730 28.163805 -0.000233
6.056554 28.163805 -0.000200
6.370377 28.163805 -0.000230
6.684199 28.163805 0.000019
6.998022 28.163805 0.000354
7.311846 28.163805 0.001062
7.625669 28.163805 0.002388
7.939491 28.163805 0.004350
8.253315 28.163805 0.009052
8.567138 28.163805 0.015336
8.880960 28.163805 0.030305
9.194784 28.163805 0.052944
9.508606 28.163805 0.091124
9.822430 28.163805 0.152424
10.136253 28.163805 0.232987
10.450075 28.163805 0.331269
10.763899 28.163805 0.437850
11.077723 28.163805 0.565507
11.391544 28.163805 0.695263
11.705368 28.163805 0.836114
12.019190 28.163805 0.972865
12.333014 28.163805 1.096009
12.646837 28.163805 1.189289
12.960659 28.163805 1.262376
13.274483 28.163805 1.334033
13.588306 28.163805 1.386675
13.902128 28.163805 1.398756
14.215952 28.163805 1.393684
14.529776 28.163805 1.393811
14.843597 28.163805 1.368937
15.157421 28.163805 1.305613
15.471243 28.163805 1.219283
15.785067 28.163805 1.092129
16.098890 28.163805 0.953819
16.412712 28.163805 0.793218
16.726536 28.163805 0.601635
17.040359 28.163805 0.400503
17.354181 28.163805 0.190607
17.668005 28.163805 -0.007346
17.981829 28.163805 -0.208844
18.295650 28.163805 -0.408829
18.609474 28.163805 -0.589606
18.923298 28.163805 -0.279740
19.237120 28.163805 0.000000
-6.810190 27.849983 0.000000
-6.496367 27.849983 0.000105
-6.182544 27.849983 0.000126
-5.868721 27.849983 0.000198
-5.554898 27.849983 0.000264
-5.241075 27.849983 0.000270
-4.927252 27.849983 0.000231
-4.613429 27.849983 0.000156
-4.299606 27.849983 0.000103
-3.985783 27.849983 0.000172
-3.671960 27.849983 0.000349
-3.358137 27.849983 0.000506
-3.044314 27.849983 0.000561
-2.730491 27.849983 0.000607
-2.416668 27.849983 0.000603
-2.102845 27.849983 0.000425
-1.789022 27.849983 0.000276
-1.475199 27.849983 0.000304
-1.161376 27.849983 0.000272
-0.847553 27.849983 0.000171
-0.533730 27.849983 0.000122
-0.219907 27.849983 0.000108
0.093916 27.849983 0.000126
0.407739 27.849983 0.000090
0.721562 27.849983 0.000054
1.035385 27.849983 0.000021
1.349208 27.849983 -0.000012
1.663032 27.849983 -0.000025
1.976854 27.849983 -0.000073
2.290677 27.849983 -0.000141
2.604500 27.849983 -0.000268
2.918324 27.849983 -0.000398
3.232146 27.849983 -0.000451
3.545969 27.849983 -0.000383
3.859793 27.849983 -0.000256
4.173615 27.849983 -0.000252
4.487438 27.849983 -0.000320
4.801261 27.849983 -0.000371
5.115085 27.849983 -0.000344
5.428907 27.849983 -0.000318
5.742730 27.849983 -0.000261
6.056554 27.849983 -0.000266
6.370377 27.849983 -0.000183
6.684199 27.849983 0.000105
6.998022 27.849983 0.000466
7.311846 27.849983 0.000751
7.625669 27.849983 0.002068
7.939491 27.849983 0.004584
8.253315 27.849983 0.008805
8.567138 27.849983 0.016125
8.880960 27.849983 0.030412
9.194784 27.849983 0.056630
9.508606 27.849983 0.094012
9.822430 27.849983 0.153352
10.136253 27.849983 0.233213
10.450075 27.849983 0.333335
10.763899 27.849983 0.445156
11.077723 27.849983 0.567545
11.391544 27.849983 0.702446
11.705368 27.849983 0.844080
12.019190 27.849983 0.980348
12.333014 27.849983 1.097209
12.646837 27.849983 1.192761
12.960659 27.849983 1.270181
13.274483 27.849983 1.338578
13.588306 27.849983 1.394305
13.902128 27.849983 1.402160
14.215952 27.849983 1.390593
14.529776 27.849983 1.397588
14.843597 27.849983 1.376066
15.157421 27.849983 1.318318
15.471243 27.849983 1.224448
15.785067 27.849983 1.107462
16.098890 27.849983 0.964082
16.412712 27.849983 0.793783
16.726536 27.849983 0.610834
17.040359 27.849983 0.403072
17.354181 27.849983 0.189424
17.668005 27.849983 -0.007164
17.981829 27.849983 -0.211269
18.295650 27.849983 -0.409389
18.609474 27.849983 -0.582900
18.923298 27.849983 -0.262713
19.237120 27.849983 0.000000
-6.810190 27.536160 0.000000
-6.496367 27.536160 -0.000018
-6.182544 27.536160 0.000079
-5.868721 27.536160 0.000163
-5.554898 27.536160 0.000204
-5.241075 27.536160 0.000228
-4.927252 27.536160 0.000209
-4.613429 27.536160 0.000131
-4.299606 27.536160 0.000070
-3.985783 27.536160 0.000185
-3.671960 27.536160 0.000418
-3.358137 27.536160 0.000579
-3.044314 27.536160 0.000664
-2.730491 27.536160 0.000679
-2.416668 27.536160 0.000660
-2.102845 27.536160 0.000483
-1.789022 27.536160 0.000313
-1.475199 27.536160 0.000302
-1.161376 27.536160 0.000233
-0.847553 27.536160 0.000109
-0.533730 27.536160 0.000073
-0.219907 27.536160 0.000060
0.093916 27.536160 0.000049
0.407739 27.536160 0.000057
0.721562 27.536160 0.000084
1.035385 27.536160 0.000089
1.349208 27.536160 0.000088
1.663032 27.536160 0.000066
1.976854 27.536160 -0.000006
2.290677 27.536160 -0.000112
2.604500 27.536160 -0.000261
2.918324 27.536160 -0.000384
3.232146 27.536160 -0.000390
3.545969 27.536160 -0.000314
3.859793 27.536160 -0.000218
4.173615 27.536160 -0.000236
4.487438 27.536160 -0.000328
4.801261 27.536160 -0.000373
5.115085 27.536160 -0.000352
5.428907 27.536160 -0.000342
5.742730 27.536160 -0.000304
6.056554 27.536160 -0.000238
6.370377 27.536160 -0.000142
6.684199 27.536160 -0.000010
6.998022 27.536160 0.000085
7.311846 27.536160 0.000658
7.625669 27.536160 0.002129
7.939491 27.536160 0.004805
8.253315 27.536160 0.008785
8.567138 27.536160 0.016066
8.880960 27.536160 0.030079
9.194784 27.536160 0.056669
9.508606 27.536160 0.094768
9.822430 27.536160 0.153119
10.136253 27.536160 0.231610
10.450075 27.536160 0.337648
10.763899 27.536160 0.448487
11.077723 27.536160 0.574011
11.391544 27.536160 0.700136
11.705368 27.536160 0.848077
12.019190 27.536160 0.982093
12.333014 27.536160 1.107965
12.646837 27.536160 1.204744
12.960659 27.536160 1.278570
13.274483 27.536160 1.352898
13.588306 27.536160 1.399156
13.902128 27.536160 1.408358
14.215952 27.536160 1.395884
14.529776 27.536160 1.401466
14.843597 27.536160 1.381942
15.157421 27.536160 1.323576
15.471243 27.536160 1.231031
15.785067 27.536160 1.115027
16.098890 27.536160 0.962450
16.412712 27.536160 0.805394
16.726536 27.536160 0.617336
17.040359 27.536160 0.395159
17.354181 27.536160 0.183844
17.668005 27.536160 -0.013366
17.981829 27.536160 -0.216224
18.295650 27.536160 -0.421455
18.609474 27.536160 -0.580787
18.923298 27.536160 -0.257937
19.237120 27.536160 0.000000
-6.810190 27.222336 0.000000
-6.496367 27.222336 -0.000035
-6.182544 27.222336 0.000053
-5.868721 27.222336 0.000105
-5.554898 27.222336 0.000144
-5.241075 27.222336 0.000204
-4.927252 27.222336 0.000202
-4.613429 27.222336 0.000131
-4.299606 27.222336 0.000110
-3.985783 27.222336 0.000252
-3.671960 27.222336 0.000489
-3.358137 27.222336 0.000643
-3.044314 27.222336 0.000730
-2.730491 27.222336 0.000730
-2.416668 27.222336 0.000700
-2.102845 27.222336 0.000542
-1.789022 27.222336 0.000363
-1.475199 27.222336 0.000311
-1.161376 27.222336 0.000235
-0.847553 27.222336 0.000109
-0.533730 27.222336 0.000063
-0.219907 27.222336 0.000053
0.093916 27.222336 0.000006
0.407739 27.222336 0.000055
0.721562 27.222336 0.000120
1.035385 27.222336 0.000109
1.349208 27.222336 0.000128
1.663032 27.222336 0.000105
1.976854 27.222336 0.000052
2.290677 27.222336 -0.000075
2.604500 27.222336 -0.000228
2.918324 27.222336 -0.000312
3.232146 27.222336 -0.000289
3.545969 27.222336 -0.000234
3.859793 27.222336 -0.000171
4.173615 27.222336 -0.000217
4.487438 27.222336 -0.000309
4.801261 27.222336 -0.000387
5.115085 27.222336 -0.000346
5.428907 27.222336 -0.000367
5.742730 27.222336 -0.000316
6.056554 27.222336 -0.000194
6.370377 27.222336 -0.000082
6.684199 27.222336 0.000026
6.998022 27.222336 0.000138
7.311846 27.222336 0.000852
7.625669 27.222336 0.001977
7.939491 27.222336 0.004975
8.253315 27.222336 0.008862
8.567138 27.222336 0.015968
8.880960 27.222336 0.030482
9.194784 27.222336 0.057142
9.508606 27.222336 0.097565
9.822430 27.222336 0.155034
10.136253 27.222336 0.230829
10.450075 27.222336 0.332037
10.763899 27.222336 0.448846
11.077723 27.222336 0.576209
11.391544 27.222336 0.704984
11.705368 27.222336 0.854946
12.019190 27.222336 0.981730
12.333014 27.222336 1.108203
12.646837 27.222336 1.211915
12.960659 27.222336 1.281845
13.274483 27.222336 1.352799
13.588306 27.222336 1.407530
13.902128 27.222336 1.406906
14.215952 27.222336 1.406219
14.529776 27.222336 1.406250
14.843597 27.222336 1.382458
15.157421 27.222336 1.322842
15.471243 27.222336 1.238217
15.785067 27.222336 1.123393
16.098890 27.222336 0.971186
16.412712 27.222336 0.808017
16.726536 27.222336 0.621510
17.040359 27.222336 0.400757
17.354181 27.222336 0.184335
17.668005 27.222336 -0.016635
17.981829 27.222336 -0.226933
18.295650 27.222336 -0.423084
18.609474 27.222336 -0.586113
18.923298 27.222336 -0.221819
19.237120 27.222336 0.000000
-6.810190 26.908514 0.000000
-6.496367 26.908514 0.000047
-6.182544 26.908514 0.000064
-5.868721 26.908514 0.000083
-5.554898 26.908514 0.000134
-5.241075 26.908514 0.000228
-4.927252 26.908514 0.000217
-4.613429 26.908514 0.000158
-4.299606 26.908514 0.000191
-3.985783 26.908514 0.000320
-3.671960 26.908514 0.000522
-3.358137 26.908514 0.000666
-3.044314 26.908514 0.000733
-2.730491 26.908514 0.000741
-2.416668 26.908514 0.000723
-2.102845 26.908514 0.000586
-1.789022 26.908514 0.000417
-1.475199 26.908514 0.000330
-1.161376 26.908514 0.000261
-0.847553 26.908514 0.000177
-0.533730 26.908514 0.000139
-0.219907 26.908514 0.000074
0.093916 26.908514 -0.000009
0.407739 26.908514 0.000078
0.721562 26.908514 0.000132
1.035385 26.908514 0.000102
1.349208 26.908514 0.000105
1.663032 26.908514 0.000104
1.976854 26.908514 0.000079
2.290677 26.908514 -0.000049
2.604500 26.908514 -0.000184
2.918324 26.908514 -0.000234
3.232146 26.908514 -0.000208
3.545969 26.908514 -0.000175
3.859793 26.908514 -0.000165
4.173615 26.908514 -0.000200
4.487438 26.908514 -0.000310
4.801261 26.908514 -0.000373
5.115085 26.908514 -0.000372
5.428907 26.908514 -0.000443
5.742730 26.908514 -0.000393
6.056554 26.908514 -0.000230
6.370377 26.908514 -0.000026
6.684199 26.908514 0.000076
6.998022 26.908514 0.000209
7.311846 26.908514 0.000721
7.625669 26.908514 0.002244
7.939491 26.908514 0.005032
8.253315 26.908514 0.009199
8.567138 26.908514 0.016323
8.880960 26.908514 0.030046
9.194784 26.908514 0.055808
9.508606 26.908514 0.096841
9.822430 26.908514 0.157833
10.136253 26.908514 0.236100
10.450075 26.908514 0.337222
10.763899 26.908514 0.447610
11.077723 26.908514 0.577494
11.391544 26.908514 0.704780
11.705368 26.908514 0.852151
12.019190 26.908514 0.982149
12.333014 26.908514 1.106573
12.646837 26.908514 1.219385
12.960659 26.908514 1.288482
13.274483 26.908514 1.349389
13.588306 26.908514 1.408059
13.902128 26.908514 1.423577
14.215952 26.908514 1.419922
14.529776 26.908514 1.417316
14.843597 26.908514 1.382674
15.157421 26.908514 1.320714
15.471243 26.908514 1.239812
15.785067 26.908514 1.134138
16.098890 26.908514 0.986360
16.412712 26.908514 0.814728
16.726536 26.908514 0.620350
17.040359 26.908514 0.402709
17.354181 26.908514 0.189602
17.668005 26.908514 -0.022464
17.981829 26.908514 -0.231522
18.295650 26.908514 -0.426323
18.609474 26.908514 -0.581700
18.923298 26.908514 -0.191078
19.237120 26.908514 0.000000
-6.810190 26.594690 0.000000
-6.496367 26.594690 0.000151
-6.182544 26.594690 0.000087
-5.868721 26.594690 0.000097
-5.554898 26.594690 0.000174
-5.241075 26.594690 0.000264
-4.927252 26.594690 0.000266
-4.613429 26.594690 0.000240
-4.299606 26.594690 0.000275
-3.985783 26.594690 0.000380
-3.671960 26.594690 0.000516
-3.358137 26.594690 0.000647
-3.044314 26.594690 0.000675
-2.730491 26.594690 0.000688
-2.416668 26.594690 0.000676
-2.102845 26.594690 0.000576
-1.789022 26.594690 0.000445
-1.475199 26.594690 0.000373
-1.161376 26.594690 0.000306
-0.847553 26.594690 0.000261
-0.533730 26.594690 0.000228
-0.219907 26.594690 0.000136
0.093916 26.594690 0.000026
0.407739 26.594690 0.000080
0.721562 26.594690 0.000126
1.035385 26.594690 0.000077
1.349208 26.594690 0.000061
1.663032 26.594690 0.000077
1.976854 26.594690 0.000094
2.290677 26.594690 -0.000018
2.604500 26.594690 -0.000130
2.918324 26.594690 -0.000185
3.232146 26.594690 -0.000178
3.545969 26.594690 -0.000188
3.859793 26.594690 -0.000213
4.173615 26.594690 -0.000254
4.487438 26.594690 -0.000322
4.801261 26.594690 -0.000358
5.115085 26.594690 -0.000391
5.428907 26.594690 -0.000490
5.742730 26.594690 -0.000452
6.056554 26.594690 -0.000234
6.370377 26.594690 -0.000059
6.684199 26.594690 0.000031
6.998022 26.594690 0.000254
7.311846 26.594690 0.000824
7.625669 26.594690 0.002547
7.939491 26.594690 0.004778
8.253315 26.594690 0.009270
8.567138 26.594690 0.016982
8.880960 26.594690 0.029732
9.194784 26.594690 0.053497
9.508606 26.594690 0.095890
9.822430 26.594690 0.152579
10.136253 26.594690 0.232612
10.450075 26.594690 0.333503
10.763899 26.594690 0.450401
11.077723 26.594690 0.579312
11.391544 26.594690 0.711909
11.705368 26.594690 0.849141
12.019190 26.594690 0.980068
12.333014 26.594690 1.101249
12.646837 26.594690 1.208978
12.960659 26.594690 1.295850
13.274483 26.594690 1.351694
13.588306 26.594690 1.407229
13.902128 26.594690 1.431763
14.215952 26.594690 1.434762
14.529776 26.594690 1.424412
14.843597 26.594690 1.387168
15.157421 26.594690 1.327617
15.471243 26.594690 1.236505
15.785067 26.594690 1.137550
16.098890 26.594690 0.992290
16.412712 26.594690 0.819336
16.726536 26.594690 0.629587
17.040359 26.594690 0.410165
17.354181 26.594690 0.195126
17.668005 26.594690 -0.026644
17.981829 26.594690 -0.240944
18.295650 26.594690 -0.426917
18.609474 26.594690 -0.585476
18.923298 26.594690 -0.191722
19.237120 26.594690 0.000000
-6.810190 26.280869 0.000000
-6.496367 26.280869 0.000233
-6.182544 26.280869 0.000143
-5.868721 26.280869 0.000161
-5.554898 26.280869 0.000238
-5.241075 26.280869 0.000299
-4.927252 26.280869 0.000301
-4.613429 26.280869 0.000310
-4.299606 26.280869 0.000334
-3.985783 26.280869 0.000406
-3.671960 26.280869 0.000484
-3.358137 26.280869 0.000566
-3.044314 26.280869 0.000568
-2.730491 26.280869 0.000557
-2.416668 26.280869 0.000564
-2.102845 26.280869 0.000488
-1.789022 26.280869 0.000446
-1.475199 26.280869 0.000425
-1.161376 26.280869 0.000358
-0.847553 26.280869 0.000335
-0.533730 26.280869 0.000297
-0.219907 26.280869 0.000195
0.093916 26.280869 0.000092
0.407739 26.280869 0.000083
0.721562 26.280869 0.000095
1.035385 26.280869 0.000045
1.349208 26.280869 0.000013
1.663032 26.280869 0.000044
1.976854 26.280869 0.000072
2.290677 26.280869 -0.000002
2.604500 26.280869 -0.000087
2.918324 26.280869 -0.000154
3.232146 26.280869 -0.000182
3.545969 26.280869 -0.000219
3.859793 26.280869 -0.000277
4.173615 26.280869 -0.000316
4.487438 26.280869 -0.000346
4.801261 26.280869 -0.000353
5.115085 26.280869 -0.000406
5.428907 26.280869 -0.000518
5.742730 26.280869 -0.000474
6.056554 26.280869 -0.000300
6.370377 26.280869 -0.000204
6.684199 26.280869 -0.000025
6.998022 26.280869 0.000313
7.311846 26.280869 0.000934
7.625669 26.280869 0.002388
7.939491 26.280869 0.004943
8.253315 26.280869 0.009422
8.567138 26.280869 0.016870
8.880960 26.280869 0.030163
9.194784 26.280869 0.051856
9.508606 26.280869 0.091059
9.822430 26.280869 0.152890
10.136253 26.280869 0.232861
10.450075 26.280869 0.334508
10.763899 26.280869 0.444264
11.077723 26.280869 0.575072
11.391544 26.280869 0.706084
11.705368 26.280869 0.836921
12.019190 26.280869 0.975321
12.333014 26.280869 1.096282
12.646837 26.280869 1.200291
12.960659 26.280869 1.301919
13.274483 26.280869 1.366308
13.588306 26.280869 1.400670
13.902128 26.280869 1.433390
14.215952 26.280869 1.432629
14.529776 26.280869 1.432822
14.843597 26.280869 1.391464
15.157421 26.280869 1.318907
15.471243 26.280869 1.240022
15.785067 26.280869 1.133511
16.098890 26.280869 0.991695
16.412712 26.280869 0.819381
16.726536 26.280869 0.625179
17.040359 26.280869 0.411063
17.354181 26.280869 0.195807
17.668005 26.280869 -0.025105
17.981829 26.280869 -0.244290
18.295650 26.280869 -0.438280
18.609474 26.280869 -0.589484
18.923298 26.280869 -0.180660
19.237120 26.280869 0.000000
-6.810190 25.967045 0.000000
-6.496367 25.967045 0.000268
-6.182544 25.967045 0.000172
-5.868721 25.967045 0.000244
-5.554898 25.967045 0.000325
-5.241075 25.967045 0.000329
-4.927252 25.967045 0.000335
-4.613429 25.967045 0.000359
-4.299606 25.967045 0.000390
-3.985783 25.967045 0.000428
-3.671960 25.967045 0.000442
-3.358137 25.967045 0.000479
-3.044314 25.967045 0.000437
-2.730491 25.967045 0.000401
-2.416668 25.967045 0.000415
-2.102845 25.967045 0.000391
-1.789022 25.967045 0.000406
-1.475199 25.967045 0.000451
-1.161376 25.967045 0.000393
-0.847553 25.967045 0.000382
-0.533730 25.967045 0.000342
-0.219907 25.967045 0.000244
0.093916 25.967045 0.000144
0.407739 25.967045 0.000086
0.721562 25.967045 0.000078
1.035385 25.967045 0.000037
1.349208 25.967045 0.000011
1.663032 25.967045 0.000032
1.976854 25.967045 0.000051
2.290677 25.967045 0.000003
2.604500 25.967045 -0.000072
2.918324 25.967045 -0.000149
3.232146 25.967045 -0.000197
3.545969 25.967045 -0.000269
3.859793 25.967045 -0.000317
4.173615 25.967045 -0.000338
4.487438 25.967045 -0.000351
4.801261 25.967045 -0.000341
5.115085 25.967045 -0.000403
5.428907 25.967045 -0.000514
5.742730 25.967045 -0.000496
6.056554 25.967045 -0.000392
6.370377 25.967045 -0.000367
6.684199 25.967045 -0.000174
6.998022 25.967045 0.000301
7.311846 25.967045 0.001081
7.625669 25.967045 0.002513
7.939491 25.967045 0.004910
8.253315 25.967045 0.008657
8.567138 25.967045 0.015595
8.880960 25.967045 0.028433
9.194784 25.967045 0.053077
9.508606 25.967045 0.094598
9.822430 25.967045 0.157922
10.136253 25.967045 0.235442
10.450075 25.967045 0.336971
10.763899 25.967045 0.441254
11.077723 25.967045 0.568721
11.391544 25.967045 0.698692
11.705368 25.967045 0.836602
12.019190 25.967045 0.982122
12.333014 25.967045 1.095738
12.646837 25.967045 1.197755
12.960659 25.967045 1.300784
13.274483 25.967045 1.367931
13.588306 25.967045 1.420236
13.902128 25.967045 1.443138
14.215952 25.967045 1.444832
14.529776 25.967045 1.434023
14.843597 25.967045 1.397597
15.157421 25.967045 1.326394
15.471243 25.967045 1.244156
15.785067 25.967045 1.134540
16.098890 25.967045 0.999267
16.412712 25.967045 0.835635
16.726536 25.967045 0.624543
17.040359 25.967045 0.409699
17.354181 25.967045 0.184241
17.668005 25.967045 -0.028991
17.981829 25.967045 -0.248135
18.295650 25.967045 -0.461038
18.609474 25.967045 -0.613276
18.923298 25.967045 -0.167327
19.237120 25.967045 0.000000
-6.810190 25.653221 0.000000
-6.496367 25.653221 0.000221
-6.182544 25.653221 0.000160
-5.868721 25.653221 0.000305
-5.554898 25.653221 0.000401
-5.241075 25.653221 0.000389
-4.927252 25.653221 0.000387
-4.613429 25.653221 0.000429
-4.299606 25.653221 0.000464
-3.985783 25.653221 0.000452
-3.671960 25.653221 0.000406
-3.358137 25.653221 0.000415
-3.044314 25.653221 0.000361
-2.730491 25.653221 0.000281
-2.416668 25.653221 0.000311
-2.102845 25.653221 0.000317
-1.789022 25.653221 0.000350
-1.475199 25.653221 0.000413
-1.161376 25.653221 0.000404
-0.847553 25.653221 0.000416
-0.533730 25.653221 0.000380
-0.219907 25.653221 0.000269
0.093916 25.653221 0.000163
0.407739 25.653221 0.000110
0.721562 25.653221 0.000083
1.035385 25.653221 0.000067
1.349208 25.653221 0.000027
1.663032 25.653221 0.000057
1.976854 25.653221 0.000038
2.290677 25.653221 -0.000030
2.604500 25.653221 -0.000085
2.918324 25.653221 -0.000146
3.232146 25.653221 -0.000211
3.545969 25.653221 -0.000297
3.859793 25.653221 -0.000339
4.173615 25.653221 -0.000335
4.487438 25.653221 -0.000335
4.801261 25.653221 -0.000332
5.115085 25.653221 -0.000363
5.428907 25.653221 -0.000462
5.742730 25.653221 -0.000449
6.056554 25.653221 -0.000388
6.370377 25.653221 -0.000445
6.684199 25.653221 -0.000272
6.998022 25.653221 0.000128
7.311846 25.653221 0.001070
7.625669 25.653221 0.002794
7.939491 25.653221 0.005200
8.253315 25.653221 0.008263
8.567138 25.653221 0.014221
8.880960 25.653221 0.028220
9.194784 25.653221 0.053471
9.508606 25.653221 0.096680
9.822430 25.653221 0.157531
10.136253 25.653221 0.241676
10.450075 25.653221 0.338619
10.763899 25.653221 0.448675
11.077723 25.653221 0.580077
11.391544 25.653221 0.698295
11.705368 25.653221 0.839631
12.019190 25.653221 0.983637
12.333014 25.653221 1.109537
12.646837 25.653221 1.201491
12.960659 25.653221 1.301718
13.274483 25.653221 1.369387
13.588306 25.653221 1.423360
13.902128 25.653221 1.452629
14.215952 25.653221 1.448306
14.529776 25.653221 1.430951
14.843597 25.653221 1.398872
15.157421 25.653221 1.332871
15.471243 25.653221 1.249243
15.785067 25.653221 1.148819
16.098890 25.653221 1.012433
16.412712 25.653221 0.837519
16.726536 25.653221 0.635033
17.040359 25.653221 0.414886
17.354181 25.653221 0.182034
17.668005 25.653221 -0.040961
17.981829 25.653221 -0.253127
18.295650 25.653221 -0.462509
18.609474 25.653221 -0.618024
18.923298 25.653221 -0.149316
19.237120 25.653221 0.000000
-6.810190 25.339399 0.000000
-6.496367 25.339399 0.000139
-6.182544 25.339399 0.000150
-5.868721 25.339399 0.000349
-5.554898 25.339399 0.000461
-5.241075 25.339399 0.000478
-4.927252 25.339399 0.000468
-4.613429 25.339399 0.000508
-4.299606 25.339399 0.000524
-3.985783 25.339399 0.000450
-3.671960 25.339399 0.000390
-3.358137 25.339399 0.000386
-3.044314 25.339399 0.000353
-2.730491 25.339399 0.000251
-2.416668 25.339399 0.000274
-2.102845 25.339399 0.000290
-1.789022 25.339399 0.000304
-1.475199 25.339399 0.000359
-1.161376 25.339399 0.000410
-0.847553 25.339399 0.000430
-0.533730 25.339399 0.000401
-0.219907 25.339399 0.000276
0.093916 25.339399 0.000193
0.407739 25.339399 0.000142
0.721562 25.339399 0.000118
1.035385 25.339399 0.000098
1.349208 25.339399 0.000052
1.663032 25.339399 0.000043
1.976854 25.339399 -0.000016
2.290677 25.339399 -0.000069
2.604500 25.339399 -0.000107
2.918324 25.339399 -0.000135
3.232146 25.339399 -0.000230
3.545969 25.339399 -0.000310
3.859793 25.339399 -0.000328
4.173615 25.339399 -0.000291
4.487438 25.339399 -0.000284
4.801261 25.339399 -0.000317
5.115085 25.339399 -0.000329
5.428907 25.339399 -0.000380
5.742730 25.339399 -0.000390
6.056554 25.339399 -0.000400
6.370377 25.339399 -0.000388
6.684199 25.339399 -0.000252
6.998022 25.339399 0.000133
7.311846 25.339399 0.001279
7.625669 25.339399 0.002754
7.939491 25.339399 0.004693
8.253315 25.339399 0.008343
8.567138 25.339399 0.014888
8.880960 25.339399 0.029322
9.194784 25.339399 0.053527
9.508606 25.339399 0.096669
9.822430 25.339399 0.155797
10.136253 25.339399 0.244443
10.450075 25.339399 0.341718
10.763899 25.339399 0.455929
11.077723 25.339399 0.574670
11.391544 25.339399 0.703251
11.705368 25.339399 0.860014
12.019190 25.339399 0.992679
12.333014 25.339399 1.109130
12.646837 25.339399 1.212892
12.960659 25.339399 1.305298
13.274483 25.339399 1.369222
13.588306 25.339399 1.421444
13.902128 25.339399 1.460561
14.215952 25.339399 1.461363
14.529776 25.339399 1.437824
14.843597 25.339399 1.400898
15.157421 25.339399 1.342337
15.471243 25.339399 1.264483
15.785067 25.339399 1.167639
16.098890 25.339399 1.021816
16.412712 25.339399 0.838570
16.726536 25.339399 0.645534
17.040359 25.339399 0.423460
17.354181 25.339399 0.189558
17.668005 25.339399 -0.039671
17.981829 25.339399 -0.259992
18.295650 25.339399 -0.460980
18.609474 25.339399 -0.640038
18.923298 25.339399 -0.141561
19.237120 25.339399 0.000000
-6.810190 25.025576 0.000000
-6.496367 25.025576 0.000071
-6.182544 25.025576 0.000185
-5.868721 25.025576 0.000411
-5.554898 25.025576 0.000534
-5.241075 25.025576 0.000575
-4.927252 25.025576 0.000537
-4.613429 25.025576 0.000549
-4.299606 25.025576 0.000551
-3.985783 25.025576 0.000444
-3.671960 25.025576 0.000401
-3.358137 25.025576 0.000432
-3.044314 25.025576 0.000400
-2.730491 25.025576 0.000306
-2.416668 25.025576 0.000293
-2.102845 25.025576 0.000286
-1.789022 25.025576 0.000272
-1.475199 25.025576 0.000328
-1.161376 25.025576 0.000407
-0.847553 25.025576 0.000411
-0.533730 25.025576 0.000399
-0.219907 25.025576 0.000308
0.093916 25.025576 0.000228
0.407739 25.025576 0.000201
0.721562 25.025576 0.000155
1.035385 25.025576 0.000114
1.349208 25.025576 0.000058
1.663032 25.025576 0.000000
1.976854 25.025576 -0.000065
2.290677 25.025576 -0.000119
2.604500 25.025576 -0.000121
2.918324 25.025576 -0.000127
3.232146 25.025576 -0.000219
3.545969 25.025576 -0.000296
3.859793 25.025576 -0.000298
4.173615 25.025576 -0.000243
4.487438 25.025576 -0.000247
4.801261 25.025576 -0.000311
5.115085 25.025576 -0.000320
5.428907 25.025576 -0.000313
5.742730 25.025576 -0.000339
6.056554 25.025576 -0.000331
6.370377 25.025576 -0.000297
6.684199 25.025576 -0.000046
6.998022 25.025576 0.000380
7.311846 25.025576 0.001147
7.625669 25.025576 0.002607
7.939491 25.025576 0.005178
8.253315 25.025576 0.009215
8.567138 25.025576 0.016100
8.880960 25.025576 0.030716
9.194784 25.025576 0.056301
9.508606 25.025576 0.100510
9.822430 25.025576 0.156520
10.136253 25.025576 0.239944
10.450075 25.025576 0.342923
10.763899 25.025576 0.455981
11.077723 25.025576 0.582667
11.391544 25.025576 0.716933
11.705368 25.025576 0.859887
12.019190 25.025576 0.994029
12.333014 25.025576 1.103882
12.646837 25.025576 1.212024
12.960659 25.025576 1.307790
13.274483 25.025576 1.371964
13.588306 25.025576 1.418133
13.902128 25.025576 1.454412
14.215952 25.025576 1.470302
14.529776 25.025576 1.449896
14.843597 25.025576 1.413646
15.157421 25.025576 1.348693
15.471243 25.025576 1.273361
15.785067 25.025576 1.171974
16.098890 25.025576 1.031047
16.412712 25.025576 0.845819
16.726536 25.025576 0.644193
17.040359 25.025576 0.422051
17.354181 25.025576 0.180954
17.668005 25.025576 -0.041767
17.981829 25.025576 -0.264881
18.295650 25.025576 -0.470363
18.609474 25.025576 -0.636285
18.923298 25.025576 -0.119874
19.237120 25.025576 0.000000
-6.810190 24.711752 0.000000
-6.496367 24.711752 0.000117
-6.182544 24.711752 0.000237
-5.868721 24.711752 0.000480
-5.554898 24.711752 0.000602
-5.241075 24.711752 0.000629
-4.927252 24.711752 0.000552
-4.613429 24.711752 0.000547
-4.299606 24.711752 0.000542
-3.985783 24.711752 0.000453
-3.671960 24.711752 0.000474
-3.358137 24.711752 0.000503
-3.044314 24.711752 0.000452
-2.730491 24.711752 0.000377
-2.416668 24.711752 0.000349
-2.102845 24.711752 0.000294
-1.789022 24.711752 0.000278
-1.475199 24.711752 0.000351
-1.161376 24.711752 0.000382
-0.847553 24.711752 0.000368
-0.533730 24.711752 0.000394
-0.219907 24.711752 0.000351
0.093916 24.711752 0.000282
0.407739 24.711752 0.000237
0.721562 24.711752 0.000176
1.035385 24.711752 0.000128
1.349208 24.711752 0.000051
1.663032 24.711752 -0.000026
1.976854 24.711752 -0.000107
2.290677 24.711752 -0.000153
2.604500 24.711752 -0.000147
2.918324 24.711752 -0.000119
3.232146 24.711752 -0.000205
3.545969 24.711752 -0.000278
3.859793 24.711752 -0.000255
4.173615 24.711752 -0.000205
4.487438 24.711752 -0.000241
4.801261 24.711752 -0.000327
5.115085 24.711752 -0.000343
5.428907 24.711752 -0.000313
5.742730 24.711752 -0.000291
6.056554 24.711752 -0.000288
6.370377 24.711752 -0.000159
6.684199 24.711752 0.000152
6.998022 24.711752 0.000506
7.311846 24.711752 0.001291
7.625669 24.711752 0.002914
7.939491 24.711752 0.004880
8.253315 24.711752 0.009375
8.567138 24.711752 0.017454
8.880960 24.711752 0.030912
9.194784 24.711752 0.054579
9.508606 24.711752 0.099247
9.822430 24.711752 0.160292
10.136253 24.711752 0.240006
10.450075 24.711752 0.344913
10.763899 24.711752 0.461179
11.077723 24.711752 0.584929
11.391544 24.711752 0.714959
11.705368 24.711752 0.847970
12.019190 24.711752 0.984582
12.333014 24.711752 1.098909
12.646837 24.711752 1.206297
12.960659 24.711752 1.307704
13.274483 24.711752 1.368105
13.588306 24.711752 1.426830
13.902128 24.711752 1.449725
14.215952 24.711752 1.470786
14.529776 24.711752 1.461846
14.843597 24.711752 1.425177
15.157421 24.711752 1.359892
15.471243 24.711752 1.272950
15.785067 24.711752 1.169866
16.098890 24.711752 1.026763
16.412712 24.711752 0.850680
16.726536 24.711752 0.638719
17.040359 24.711752 0.428609
17.354181 24.711752 0.188400
17.668005 24.711752 -0.041986
17.981829 24.711752 -0.269052
18.295650 24.711752 -0.456717
18.609474 24.711752 -0.621706
18.923298 24.711752 -0.103937
19.237120 24.711752 0.000000
-6.810190 24.397930 0.000000
-6.496367 24.397930 0.000144
-6.182544 24.397930 0.000277
-5.868721 24.397930 0.000525
-5.554898 24.397930 0.000619
-5.241075 24.397930 0.000610
-4.927252 24.397930 0.000522
-4.613429 24.397930 0.000509
-4.299606 24.397930 0.000520
-3.985783 24.397930 0.000492
-3.671960 24.397930 0.000547
-3.358137 24.397930 0.000567
-3.044314 24.397930 0.000530
-2.730491 24.397930 0.000432
-2.416668 24.397930 0.000395
-2.102845 24.397930 0.000337
-1.789022 24.397930 0.000365
-1.475199 24.397930 0.000403
-1.161376 24.397930 0.000370
-0.847553 24.397930 0.000331
-0.533730 24.397930 0.000392
-0.219907 24.397930 0.000395
0.093916 24.397930 0.000348
0.407739 24.397930 0.000295
0.721562 24.397930 0.000203
1.035385 24.397930 0.000129
1.349208 24.397930 0.000032
1.663032 24.397930 -0.000047
1.976854 24.397930 -0.000111
2.290677 24.397930 -0.000170
2.604500 24.397930 -0.000169
2.918324 24.397930 -0.000133
3.232146 24.397930 -0.000180
3.545969 24.397930 -0.000235
3.859793 24.397930 -0.000221
4.173615 24.397930 -0.000188
4.487438 24.397930 -0.000255
4.801261 24.397930 -0.000356
5.115085 24.397930 -0.000358
5.428907 24.397930 -0.000311
5.742730 24.397930 -0.000291
6.056554 24.397930 -0.000294
6.370377 24.397930 -0.000208
6.684199 24.397930 0.000287
6.998022 24.397930 0.000698
7.311846 24.397930 0.001172
7.625669 24.397930 0.002552
7.939491 24.397930 0.004627
8.253315 24.397930 0.009281
8.567138 24.397930 0.017258
8.880960 24.397930 0.030863
9.194784 24.397930 0.056258
9.508606 24.397930 0.099817
9.822430 24.397930 0.161613
10.136253 24.397930 0.243776
10.450075 24.397930 0.348069
10.763899 24.397930 0.464560
11.077723 24.397930 0.593496
11.391544 24.397930 0.715598
11.705368 24.397930 0.848178
12.019190 24.397930 0.987359
12.333014 24.397930 1.104103
12.646837 24.397930 1.214270
12.960659 24.397930 1.297613
13.274483 24.397930 1.371944
13.588306 24.397930 1.425720
13.902128 24.397930 1.451538
14.215952 24.397930 1.467997
14.529776 24.397930 1.452074
14.843597 24.397930 1.431090
15.157421 24.397930 1.372463
15.471243 24.397930 1.285917
15.785067 24.397930 1.165590
16.098890 24.397930 1.021677
16.412712 24.397930 0.846349
16.726536 24.397930 0.645609
17.040359 24.397930 0.428516
17.354181 24.397930 0.194508
17.668005 24.397930 -0.044028
17.981829 24.397930 -0.266736
18.295650 24.397930 -0.457291
18.609474 24.397930 -0.613070
18.923298 24.397930 -0.090937
19.237120 24.397930 0.000000
-6.810190 24.084106 0.000000
-6.496367 24.084106 0.000140
-6.182544 24.084106 0.000319
-5.868721 24.084106 0.000537
-5.554898 24.084106 0.000569
-5.241075 24.084106 0.000516
-4.927252 24.084106 0.000456
-4.613429 24.084106 0.000449
-4.299606 24.084106 0.000504
-3.985783 24.084106 0.000555
-3.671960 24.084106 0.000616
-3.358137 24.084106 0.000613
-3.044314 24.084106 0.000585
-2.730491 24.084106 0.000474
-2.416668 24.084106 0.000419
-2.102845 24.084106 0.000402
-1.789022 24.084106 0.000461
-1.475199 24.084106 0.000482
-1.161376 24.084106 0.000405
-0.847553 24.084106 0.000348
-0.533730 24.084106 0.000389
-0.219907 24.084106 0.000426
0.093916 24.084106 0.000405
0.407739 24.084106 0.000326
0.721562 24.084106 0.000187
1.035385 24.084106 0.000111
1.349208 24.084106 -0.000000
1.663032 24.084106 -0.000062
1.976854 24.084106 -0.000109
2.290677 24.084106 -0.000181
2.604500 24.084106 -0.000183
2.918324 24.084106 -0.000137
3.232146 24.084106 -0.000149
3.545969 24.084106 -0.000183
3.859793 24.084106 -0.000216
4.173615 24.084106 -0.000240
4.487438 24.084106 -0.000312
4.801261 24.084106 -0.000387
5.115085 24.084106 -0.000357
5.428907 24.084106 -0.000302
5.742730 24.084106 -0.000289
6.056554 24.084106 -0.000331
6.370377 24.084106 -0.000196
6.684199 24.084106 0.000290
6.998022 24.084106 0.000658
7.311846 24.084106 0.001284
7.625669 24.084106 0.002578
7.939491 24.084106 0.004861
8.253315 24.084106 0.009522
8.567138 24.084106 0.016736
8.880960 24.084106 0.030872
9.194784 24.084106 0.056040
9.508606 24.084106 0.099749
9.822430 24.084106 0.162825
10.136253 24.084106 0.251184
10.450075 24.084106 0.356364
10.763899 24.084106 0.468709
11.077723 24.084106 0.594917
11.391544 24.084106 0.717098
11.705368 24.084106 0.859266
12.019190 24.084106 0.990894
12.333014 24.084106 1.120118
12.646837 24.084106 1.209162
12.960659 24.084106 1.299013
13.274483 24.084106 1.379323
13.588306 24.084106 1.420179
13.902128 24.084106 1.455457
14.215952 24.084106 1.465791
14.529776 24.084106 1.458914
14.843597 24.084106 1.430961
15.157421 24.084106 1.374370
15.471243 24.084106 1.292281
15.785067 24.084106 1.172486
16.098890 24.084106 1.027622
16.412712 24.084106 0.848926
16.726536 24.084106 0.650091
17.040359 24.084106 0.425214
17.354181 24.084106 0.185123
17.668005 24.084106 -0.049180
17.981829 24.084106 -0.268770
18.295650 24.084106 -0.458506
18.609474 24.084106 -0.611229
18.923298 24.084106 -0.084321
19.237120 24.084106 0.000000
-6.810190 23.770283 0.000000
-6.496367 23.770283 0.000146
-6.182544 23.770283 0.000348
-5.868721 23.770283 0.000499
-5.554898 23.770283 0.000471
-5.241075 23.770283 0.000437
-4.927252 23.770283 0.000396
-4.613429 23.770283 0.000381
-4.299606 23.770283 0.000473
-3.985783 23.770283 0.000608
-3.671960 23.770283 0.000677
-3.358137 23.770283 0.000673
-3.044314 23.770283 0.000615
-2.730491 23.770283 0.000511
-2.416668 23.770283 0.000476
-2.102845 23.770283 0.000483
-1.789022 23.770283 0.000543
-1.475199 23.770283 0.000551
-1.161376 23.770283 0.000457
-0.847553 23.770283 0.000381
-0.533730 23.770283 0.000403
-0.219907 23.770283 0.000426
0.093916 23.770283 0.000389
0.407739 23.770283 0.000312
0.721562 23.770283 0.000152
1.035385 23.770283 0.000054
1.349208 23.770283 -0.000030
1.663032 23.770283 -0.000070
1.976854 23.770283 -0.000104
2.290677 23.770283 -0.000167
2.604500 23.770283 -0.000178
2.918324 23.770283 -0.000144
3.232146 23.770283 -0.000125
3.545969 23.770283 -0.000145
3.859793 23.770283 -0.000210
4.173615 23.770283 -0.000288
4.487438 23.770283 -0.000363
4.801261 23.770283 -0.000392
5.115085 23.770283 -0.000331
5.428907 23.770283 -0.000266
5.742730 23.770283 -0.000275
6.056554 23.770283 -0.000248
6.370377 23.770283 -0.000160
6.684199 23.770283 0.000162
6.998022 23.770283 0.000510
7.311846 23.770283 0.001167
7.625669 23.770283 0.002413
7.939491 23.770283 0.004959
8.253315 23.770283 0.009093
8.567138 23.770283 0.016621
8.880960 23.770283 0.030000
9.194784 23.770283 0.056953
9.508606 23.770283 0.101668
9.822430 23.770283 0.166164
10.136253 23.770283 0.257093
10.450075 23.770283 0.358467
10.763899 23.770283 0.475735
11.077723 23.770283 0.594034
11.391544 23.770283 0.726942
11.705368 23.770283 0.861879
12.019190 23.770283 0.997558
12.333014 23.770283 1.113953
12.646837 23.770283 1.204282
12.960659 23.770283 1.296970
13.274483 23.770283 1.371680
13.588306 23.770283 1.429231
13.902128 23.770283 1.459925
14.215952 23.770283 1.471052
14.529776 23.770283 1.462895
14.843597 23.770283 1.436935
15.157421 23.770283 1.378734
15.471243 23.770283 1.292693
15.785067 23.770283 1.180008
16.098890 23.770283 1.038248
16.412712 23.770283 0.846559
16.726536 23.770283 0.646965
17.040359 23.770283 0.413758
17.354181 23.770283 0.181251
17.668005 23.770283 -0.051978
17.981829 23.770283 -0.283022
18.295650 23.770283 -0.461913
18.609474 23.770283 -0.614866
18.923298 23.770283 -0.057685
19.237120 23.770283 0.000000
-6.810190 23.456461 0.000000
-6.496367 23.456461 0.000128
-6.182544 23.456461 0.000340
-5.868721 23.456461 0.000449
-5.554898 23.456461 0.000412
-5.241075 23.456461 0.000403
-4.927252 23.456461 0.000351
-4.613429 23.456461 0.000334
-4.299606 23.456461 0.000464
-3.985783 23.456461 0.000647
-3.671960 23.456461 0.000711
-3.358137 23.456461 0.000687
-3.044314 23.456461 0.000637
-2.730491 23.456461 0.000579
-2.416668 23.456461 0.000570
-2.102845 23.456461 0.000568
-1.789022 23.456461 0.000602
-1.475199 23.456461 0.000584
-1.161376 23.456461 0.000491
-0.847553 23.456461 0.000418
-0.533730 23.456461 0.000406
-0.219907 23.456461 0.000375
0.093916 23.456461 0.000330
0.407739 23.456461 0.000285
0.721562 23.456461 0.000138
1.035385 23.456461 0.000042
1.349208 23.456461 -0.000018
1.663032 23.456461 -0.000048
1.976854 23.456461 -0.000072
2.290677 23.456461 -0.000114
2.604500 23.456461 -0.000131
2.918324 23.456461 -0.000128
3.232146 23.456461 -0.000103
3.545969 23.456461 -0.000140
3.859793 23.456461 -0.000235
4.173615 23.456461 -0.000327
4.487438 23.456461 -0.000399
4.801261 23.456461 -0.000394
5.115085 23.456461 -0.000324
5.428907 23.456461 -0.000239
5.742730 23.456461 -0.000252
6.056554 23.456461 -0.000174
6.370377 23.456461 -0.000012
6.684199 23.456461 0.000071
6.998022 23.456461 0.000505
7.311846 23.456461 0.001228
7.625669 23.456461 0.002358
7.939491 23.456461 0.004853
8.253315 23.456461 0.009098
8.567138 23.456461 0.017208
8.880960 23.456461 0.032083
9.194784 23.456461 0.059778
9.508606 23.456461 0.103570
9.822430 23.456461 0.171468
10.136253 23.456461 0.251636
10.450075 23.456461 0.349687
10.763899 23.456461 0.469109
11.077723 23.456461 0.590924
11.391544 23.456461 0.716964
11.705368 23.456461 0.849166
12.019190 23.456461 0.989046
12.333014 23.456461 1.108825
12.646837 23.456461 1.192659
12.960659 23.456461 1.288573
13.274483 23.456461 1.366232
13.588306 23.456461 1.434862
13.902128 23.456461 1.465522
14.215952 23.456461 1.478113
14.529776 23.456461 1.473676
14.843597 23.456461 1.433500
15.157421 23.456461 1.381453
15.471243 23.456461 1.300844
15.785067 23.456461 1.192452
16.098890 23.456461 1.047722
16.412712 23.456461 0.850334
16.726536 23.456461 0.656169
17.040359 23.456461 0.422795
17.354181 23.456461 0.179933
17.668005 23.456461 -0.065291
17.981829 23.456461 -0.291885
18.295650 23.456461 -0.464331
18.609474 23.456461 -0.624331
18.923298 23.456461 -0.054396
19.237120 23.456461 0.000000
-6.810190 23.142637 0.000000
-6.496367 23.142637 0.000117
-6.182544 23.142637 0.000292
-5.868721 23.142637 0.000371
-5.554898 23.142637 0.000423
-5.241075 23.142637 0.000441
-4.927252 23.142637 0.000355
-4.613429 23.142637 0.000325
-4.299606 23.142637 0.000456
-3.985783 23.142637 0.000645
-3.671960 23.142637 0.000707
-3.358137 23.142637 0.000667
-3.044314 23.142637 0.000656
-2.730491 23.142637 0.000672
-2.416668 23.142637 0.000664
-2.102845 23.142637 0.000627
-1.789022 23.142637 0.000629
-1.475199 23.142637 0.000561
-1.161376 23.142637 0.000476
-0.847553 23.142637 0.000425
-0.533730 23.142637 0.000385
-0.219907 23.142637 0.000308
0.093916 23.142637 0.000266
0.407739 23.142637 0.000261
0.721562 23.142637 0.000174
1.035385 23.142637 0.000090
1.349208 23.142637 0.000053
1.663032 23.142637 0.000026
1.976854 23.142637 0.000007
2.290677 23.142637 -0.000038
2.604500 23.142637 -0.000070
2.918324 23.142637 -0.000107
3.232146 23.142637 -0.000106
3.545969 23.142637 -0.000169
3.859793 23.142637 -0.000265
4.173615 23.142637 -0.000359
4.487438 23.142637 -0.000398
4.801261 23.142637 -0.000382
5.115085 23.142637 -0.000324
5.428907 23.142637 -0.000238
5.742730 23.142637 -0.000205
6.056554 23.142637 -0.000154
6.370377 23.142637 -0.000029
6.684199 23.142637 0.000245
6.998022 23.142637 0.000347
7.311846 23.142637 0.000953
7.625669 23.142637 0.002508
7.939491 23.142637 0.005544
8.253315 23.142637 0.010848
8.567138 23.142637 0.018645
8.880960 23.142637 0.033340
9.194784 23.142637 0.062175
9.508606 23.142637 0.105775
9.822430 23.142637 0.170527
10.136253 23.142637 0.252371
10.450075 23.142637 0.347619
10.763899 23.142637 0.457455
11.077723 23.142637 0.593712
11.391544 23.142637 0.726701
11.705368 23.142637 0.863025
12.019190 23.142637 0.994933
12.333014 23.142637 1.096163
12.646837 23.142637 1.191644
12.960659 23.142637 1.275077
13.274483 23.142637 1.366329
13.588306 23.142637 1.433614
13.902128 23.142637 1.479755
14.215952 23.142637 1.486449
14.529776 23.142637 1.481194
14.843597 23.142637 1.442238
15.157421 23.142637 1.402493
15.471243 23.142637 1.309477
15.785067 23.142637 1.197222
16.098890 23.142637 1.049332
16.412712 23.142637 0.871439
16.726536 23.142637 0.669846
17.040359 23.142637 0.432179
17.354181 23.142637 0.181838
17.668005 23.142637 -0.062742
17.981829 23.142637 -0.288596
18.295650 23.142637 -0.474957
18.609474 23.142637 -0.626639
18.923298 23.142637 -0.044050
19.237120 23.142637 0.000000
-6.810190 22.828814 0.000000
-6.496367 22.828814 0.000100
-6.182544 22.828814 0.000258
-5.868721 22.828814 0.000354
-5.554898 22.828814 0.000485
-5.241075 22.828814 0.000514
-4.927252 22.828814 0.000394
-4.613429 22.828814 0.000365
-4.299606 22.828814 0.000451
-3.985783 22.828814 0.000620
-3.671960 22.828814 0.000671
-3.358137 22.828814 0.000644
-3.044314 22.828814 0.000695
-2.730491 22.828814 0.000757
-2.416668 22.828814 0.000733
-2.102845 22.828814 0.000645
-1.789022 22.828814 0.000595
-1.475199 22.828814 0.000527
-1.161376 22.828814 0.000445
-0.847553 22.828814 0.000409
-0.533730 22.828814 0.000367
-0.219907 22.828814 0.000258
0.093916 22.828814 0.000209
0.407739 22.828814 0.000264
0.721562 22.828814 0.000257
1.035385 22.828814 0.000185
1.349208 22.828814 0.000128
1.663032 22.828814 0.000090
1.976854 22.828814 0.000065
2.290677 22.828814 0.000026
2.604500 22.828814 -0.000011
2.918324 22.828814 -0.000090
3.232146 22.828814 -0.000132
3.545969 22.828814 -0.000208
3.859793 22.828814 -0.000296
4.173615 22.828814 -0.000358
4.487438 22.828814 -0.000374
4.801261 22.828814 -0.000347
5.115085 22.828814 -0.000285
5.428907 22.828814 -0.000216
5.742730 22.828814 -0.000185
6.056554 22.828814 -0.000108
6.370377 22.828814 -0.000006
6.684199 22.828814 0.000194
6.998022 22.828814 0.000308
7.311846 22.828814 0.000905
7.625669 22.828814 0.002339
7.939491 22.828814 0.005500
8.253315 22.828814 0.010207
8.567138 22.828814 0.019163
8.880960 22.828814 0.032095
9.194784 22.828814 0.059867
9.508606 22.828814 0.107065
9.822430 22.828814 0.171341
10.136253 22.828814 0.249084
10.450075 22.828814 0.350537
10.763899 22.828814 0.452264
11.077723 22.828814 0.583601
11.391544 22.828814 0.726060
11.705368 22.828814 0.866971
12.019190 22.828814 0.989921
12.333014 22.828814 1.099568
12.646837 22.828814 1.191121
12.960659 22.828814 1.285446
13.274483 22.828814 1.369902
13.588306 22.828814 1.447873
13.902128 22.828814 1.484773
14.215952 22.828814 1.484223
14.529776 22.828814 1.476350
14.843597 22.828814 1.448239
15.157421 22.828814 1.403786
15.471243 22.828814 1.327453
15.785067 22.828814 1.214275
16.098890 22.828814 1.058117
16.412712 22.828814 0.882939
16.726536 22.828814 0.683876
17.040359 22.828814 0.438698
17.354181 22.828814 0.178962
17.668005 22.828814 -0.075192
17.981829 22.828814 -0.303090
18.295650 22.828814 -0.493203
18.609474 22.828814 -0.638193
18.923298 22.828814 -0.027952
19.237120 22.828814 0.000000
-6.810190 22.514992 0.000000
-6.496367 22.514992 0.000102
-6.182544 22.514992 0.000237
-5.868721 22.514992 0.000411
-5.554898 22.514992 0.000575
-5.241075 22.514992 0.000605
-4.927252 22.514992 0.000467
-4.613429 22.514992 0.000439
-4.299606 22.514992 0.000470
-3.985783 22.514992 0.000567
-3.671960 22.514992 0.000627
-3.358137 22.514992 0.000631
-3.044314 22.514992 0.000699
-2.730491 22.514992 0.000775
-2.416668 22.514992 0.000747
-2.102845 22.514992 0.000620
-1.789022 22.514992 0.000548
-1.475199 22.514992 0.000473
-1.161376 22.514992 0.000407
-0.847553 22.514992 0.000386
-0.533730 22.514992 0.000348
-0.219907 22.514992 0.000248
0.093916 22.514992 0.000192
0.407739 22.514992 0.000273
0.721562 22.514992 0.000326
1.035385 22.514992 0.000276
1.349208 22.514992 0.000187
1.663032 22.514992 0.000137
1.976854 22.514992 0.000098
2.290677 22.514992 0.000067
2.604500 22.514992 0.000015
2.918324 22.514992 -0.000109
3.232146 22.514992 -0.000172
3.545969 22.514992 -0.000233
3.859793 22.514992 -0.000303
4.173615 22.514992 -0.000329
4.487438 22.514992 -0.000294
4.801261 22.514992 -0.000259
5.115085 22.514992 -0.000193
5.428907 22.514992 -0.000165
5.742730 22.514992 -0.000153
6.056554 22.514992 -0.000151
6.370377 22.514992 -0.000096
6.684199 22.514992 0.000126
6.998022 22.514992 0.000152
7.311846 22.514992 0.000924
7.625669 22.514992 0.002088
7.939491 22.514992 0.004490
8.253315 22.514992 0.009500
8.567138 22.514992 0.018230
8.880960 22.514992 0.033569
9.194784 22.514992 0.059644
9.508606 22.514992 0.109043
9.822430 22.514992 0.175863
10.136253 22.514992 0.256084
10.450075 22.514992 0.354786
10.763899 22.514992 0.458633
11.077723 22.514992 0.592207
11.391544 22.514992 0.724934
11.705368 22.514992 0.860411
12.019190 22.514992 0.995794
12.333014 22.514992 1.089617
12.646837 22.514992 1.190026
12.960659 22.514992 1.287247
13.274483 22.514992 1.377177
13.588306 22.514992 1.454147
13.902128 22.514992 1.487392
14.215952 22.514992 1.487876
14.529776 22.514992 1.476219
14.843597 22.514992 1.461213
15.157421 22.514992 1.412463
15.471243 22.514992 1.326163
15.785067 22.514992 1.210598
16.098890 22.514992 1.062977
16.412712 22.514992 0.889919
16.726536 22.514992 0.693819
17.040359 22.514992 0.451947
17.354181 22.514992 0.193737
17.668005 22.514992 -0.069753
17.981829 22.514992 -0.302502
18.295650 22.514992 -0.496664
18.609474 22.514992 -0.633098
18.923298 22.514992 -0.026296
19.237120 22.514992 0.000000
-6.810190 22.201168 0.000000
-6.496367 22.201168 0.000112
-6.182544 22.201168 0.000281
-5.868721 22.201168 0.000487
-5.554898 22.201168 0.000653
-5.241075 22.201168 0.000702
-4.927252 22.201168 0.000578
-4.613429 22.201168 0.000534
-4.299606 22.201168 0.000512
-3.985783 22.201168 0.000538
-3.671960 22.201168 0.000596
-3.358137 22.201168 0.000631
-3.044314 22.201168 0.000670
-2.730491 22.201168 0.000738
-2.416668 22.201168 0.000710
-2.102845 22.201168 0.000575
-1.789022 22.201168 0.000504
-1.475199 22.201168 0.000463
-1.161376 22.201168 0.000410
-0.847553 22.201168 0.000387
-0.533730 22.201168 0.000339
-0.219907 22.201168 0.000267
0.093916 22.201168 0.000203
0.407739 22.201168 0.000260
0.721562 22.201168 0.000360
1.035385 22.201168 0.000325
1.349208 22.201168 0.000214
1.663032 22.201168 0.000165
1.976854 22.201168 0.000108
2.290677 22.201168 0.000080
2.604500 22.201168 0.000011
2.918324 22.201168 -0.000131
3.232146 22.201168 -0.000194
3.545969 22.201168 -0.000234
3.859793 22.201168 -0.000269
4.173615 22.201168 -0.000238
4.487438 22.201168 -0.000175
4.801261 22.201168 -0.000166
5.115085 22.201168 -0.000143
5.428907 22.201168 -0.000118
5.742730 22.201168 -0.000162
6.056554 22.201168 -0.000222
6.370377 22.201168 -0.000200
6.684199 22.201168 -0.000071
6.998022 22.201168 0.000286
7.311846 22.201168 0.001081
7.625669 22.201168 0.002489
7.939491 22.201168 0.004792
8.253315 22.201168 0.009820
8.567138 22.201168 0.017709
8.880960 22.201168 0.032077
9.194784 22.201168 0.062088
9.508606 22.201168 0.112293
9.822430 22.201168 0.177569
10.136253 22.201168 0.262633
10.450075 22.201168 0.361403
10.763899 22.201168 0.463749
11.077723 22.201168 0.601164
11.391544 22.201168 0.725159
11.705368 22.201168 0.859917
12.019190 22.201168 0.993254
12.333014 22.201168 1.090807
12.646837 22.201168 1.189541
12.960659 22.201168 1.284526
13.274483 22.201168 1.380179
13.588306 22.201168 1.464824
13.902128 22.201168 1.490564
14.215952 22.201168 1.488006
14.529776 22.201168 1.492978
14.843597 22.201168 1.470406
15.157421 22.201168 1.421994
15.471243 22.201168 1.328956
15.785067 22.201168 1.213464
16.098890 22.201168 1.083354
16.412712 22.201168 0.911753
16.726536 22.201168 0.696419
17.040359 22.201168 0.460138
17.354181 22.201168 0.192255
17.668005 22.201168 -0.059488
17.981829 22.201168 -0.304987
18.295650 22.201168 -0.502881
18.609474 22.201168 -0.643187
18.923298 22.201168 -0.032426
19.237120 22.201168 0.000000
-6.810190 21.887346 0.000000
-6.496367 21.887346 0.000147
-6.182544 21.887346 0.000354
-5.868721 21.887346 0.000547
-5.554898 21.887346 0.000700
-5.241075 21.887346 0.000770
-4.927252 21.887346 0.000702
-4.613429 21.887346 0.000651
-4.299606 21.887346 0.000588
-3.985783 21.887346 0.000555
-3.671960 21.887346 0.000588
-3.358137 21.887346 0.000628
-3.044314 21.887346 0.000628
-2.730491 21.887346 0.000648
-2.416668 21.887346 0.000633
-2.102845 21.887346 0.000544
-1.789022 21.887346 0.000495
-1.475199 21.887346 0.000483
-1.161376 21.887346 0.000476
-0.847553 21.887346 0.000418
-0.533730 21.887346 0.000347
-0.219907 21.887346 0.000296
0.093916 21.887346 0.000251
0.407739 21.887346 0.000271
0.721562 21.887346 0.000361
1.035385 21.887346 0.000328
1.349208 21.887346 0.000209
1.663032 21.887346 0.000155
1.976854 21.887346 0.000110
2.290677 21.887346 0.000078
2.604500 21.887346 0.000004
2.918324 21.887346 -0.000134
3.232146 21.887346 -0.000193
3.545969 21.887346 -0.000204
3.859793 21.887346 -0.000194
4.173615 21.887346 -0.000165
4.487438 21.887346 -0.000120
4.801261 21.887346 -0.000132
5.115085 21.887346 -0.000151
5.428907 21.887346 -0.000140
5.742730 21.887346 -0.000190
6.056554 21.887346 -0.000332
6.370377 21.887346 -0.000274
6.684199 21.887346 0.000045
6.998022 21.887346 0.000444
7.311846 21.887346 0.001189
7.625669 21.887346 0.002689
7.939491 21.887346 0.004802
8.253315 21.887346 0.009889
8.567138 21.887346 0.017176
8.880960 21.887346 0.033138
9.194784 21.887346 0.059592
9.508606 21.887346 0.111163
9.822430 21.887346 0.178036
10.136253 21.887346 0.259607
10.450075 21.887346 0.351018
10.763899 21.887346 0.467012
11.077723 21.887346 0.596846
11.391544 21.887346 0.725599
11.705368 21.887346 0.865668
12.019190 21.887346 0.995262
12.333014 21.887346 1.094081
12.646837 21.887346 1.184170
12.960659 21.887346 1.284519
13.274483 21.887346 1.375585
13.588306 21.887346 1.459922
13.902128 21.887346 1.497730
14.215952 21.887346 1.495125
14.529776 21.887346 1.490864
14.843597 21.887346 1.481713
15.157421 21.887346 1.434563
15.471243 21.887346 1.347659
15.785067 21.887346 1.232154
16.098890 21.887346 1.088986
16.412712 21.887346 0.917041
16.726536 21.887346 0.702888
17.040359 21.887346 0.456479
17.354181 21.887346 0.200667
17.668005 21.887346 -0.055686
17.981829 21.887346 -0.301145
18.295650 21.887346 -0.506855
18.609474 21.887346 -0.653263
18.923298 21.887346 -0.044569
19.237120 21.887346 0.000000
-6.810190 21.573523 0.000000
-6.496367 21.573523 0.000269
-6.182544 21.573523 0.000426
-5.868721 21.573523 0.000573
-5.554898 21.573523 0.000686
-5.241075 21.573523 0.000773
-4.927252 21.573523 0.000790
-4.613429 21.573523 0.000757
-4.299606 21.573523 0.000661
-3.985783 21.573523 0.000574
-3.671960 21.573523 0.000591
-3.358137 21.573523 0.000621
-3.044314 21.573523 0.000574
-2.730491 21.573523 0.000567
-2.416668 21.573523 0.000578
-2.102845 21.573523 0.000531
-1.789022 21.573523 0.000513
-1.475199 21.573523 0.000552
-1.161376 21.573523 0.000571
-0.847553 21.573523 0.000485
-0.533730 21.573523 0.000398
-0.219907 21.573523 0.000356
0.093916 21.573523 0.000323
0.407739 21.573523 0.000283
0.721562 21.573523 0.000333
1.035385 21.573523 0.000295
1.349208 21.573523 0.000178
1.663032 21.573523 0.000126
1.976854 21.573523 0.000082
2.290677 21.573523 0.000062
2.604500 21.573523 0.000016
2.918324 21.573523 -0.000114
3.232146 21.573523 -0.000180
3.545969 21.573523 -0.000160
3.859793 21.573523 -0.000108
4.173615 21.573523 -0.000078
4.487438 21.573523 -0.000090
4.801261 21.573523 -0.000155
5.115085 21.573523 -0.000226
5.428907 21.573523 -0.000232
5.742730 21.573523 -0.000284
6.056554 21.573523 -0.000301
6.370377 21.573523 -0.000167
6.684199 21.573523 0.000121
6.998022 21.573523 0.000531
7.311846 21.573523 0.001293
7.625669 21.573523 0.002645
7.939491 21.573523 0.004592
8.253315 21.573523 0.009495
8.567138 21.573523 0.018931
8.880960 21.573523 0.035062
9.194784 21.573523 0.064462
9.508606 21.573523 0.111576
9.822430 21.573523 0.174773
10.136253 21.573523 0.259167
10.450075 21.573523 0.354040
10.763899 21.573523 0.464627
11.077723 21.573523 0.589195
11.391544 21.573523 0.727684
11.705368 21.573523 0.865288
12.019190 21.573523 1.001283
12.333014 21.573523 1.099630
12.646837 21.573523 1.186277
12.960659 21.573523 1.286280
13.274483 21.573523 1.369293
13.588306 21.573523 1.450523
13.902128 21.573523 1.496956
14.215952 21.573523 1.508852
14.529776 21.573523 1.493183
14.843597 21.573523 1.477494
15.157421 21.573523 1.425940
15.471243 21.573523 1.354050
15.785067 21.573523 1.251776
16.098890 21.573523 1.101958
16.412712 21.573523 0.917762
16.726536 21.573523 0.710325
17.040359 21.573523 0.459334
17.354181 21.573523 0.193561
17.668005 21.573523 -0.061197
17.981829 21.573523 -0.286510
18.295650 21.573523 -0.497634
18.609474 21.573523 -0.649364
18.923298 21.573523 -0.045050
19.237120 21.573523 0.000000
-6.810190 21.259699 0.000000
-6.496367 21.259699 0.000426
-6.182544 21.259699 0.000489
-5.868721 21.259699 0.000558
-5.554898 21.259699 0.000632
-5.241075 21.259699 0.000722
-4.927252 21.259699 0.000823
-4.613429 21.259699 0.000824
-4.299606 21.259699 0.000728
-3.985783 21.259699 0.000606
-3.671960 21.259699 0.000589
-3.358137 21.259699 0.000613
-3.044314 21.259699 0.000542
-2.730491 21.259699 0.000526
-2.416668 21.259699 0.000549
-2.102845 21.259699 0.000546
-1.789022 21.259699 0.000583
-1.475199 21.259699 0.000623
-1.161376 21.259699 0.000640
-0.847553 21.259699 0.000565
-0.533730 21.259699 0.000477
-0.219907 21.259699 0.000426
0.093916 21.259699 0.000395
0.407739 21.259699 0.000300
0.721562 21.259699 0.000288
1.035385 21.259699 0.000225
1.349208 21.259699 0.000129
1.663032 21.259699 0.000092
1.976854 21.259699 0.000062
2.290677 21.259699 0.000062
2.604500 21.259699 0.000049
2.918324 21.259699 -0.000080
3.232146 21.259699 -0.000146
3.545969 21.259699 -0.000105
3.859793 21.259699 -0.000036
4.173615 21.259699 -0.000021
4.487438 21.259699 -0.000120
4.801261 21.259699 -0.000251
5.115085 21.259699 -0.000308
5.428907 21.259699 -0.000326
5.742730 21.259699 -0.000290
6.056554 21.259699 -0.000244
6.370377 21.259699 -0.000049
6.684199 21.259699 0.000356
6.998022 21.259699 0.000665
7.311846 21.259699 0.001312
7.625669 21.259699 0.002951
7.939491 21.259699 0.005056
8.253315 21.259699 0.010308
8.567138 21.259699 0.019701
8.880960 21.259699 0.036295
9.194784 21.259699 0.066208
9.508606 21.259699 0.111882
9.822430 21.259699 0.175194
10.136253 21.259699 0.260421
10.450075 21.259699 0.352899
10.763899 21.259699 0.467202
11.077723 21.259699 0.588206
11.391544 21.259699 0.723555
11.705368 21.259699 0.861671
12.019190 21.259699 1.000636
12.333014 21.259699 1.096539
12.646837 21.259699 1.191640
12.960659 21.259699 1.283988
13.274483 21.259699 1.371400
13.588306 21.259699 1.458783
13.902128 21.259699 1.500990
14.215952 21.259699 1.517414
14.529776 21.259699 1.497673
14.843597 21.259699 1.479895
15.157421 21.259699 1.435169
15.471243 21.259699 1.370674
15.785067 21.259699 1.251263
16.098890 21.259699 1.099950
16.412712 21.259699 0.918836
16.726536 21.259699 0.716100
17.040359 21.259699 0.459638
17.354181 21.259699 0.194496
17.668005 21.259699 -0.062124
17.981829 21.259699 -0.290229
18.295650 21.259699 -0.504403
18.609474 21.259699 -0.666706
18.923298 21.259699 0.000000
19.237120 21.259699 0.000000
-6.810190 20.945877 0.000000
-6.496367 20.945877 0.000570
-6.182544 20.945877 0.000546
-5.868721 20.945877 0.000534
-5.554898 20.945877 0.000565
-5.241075 20.945877 0.000655
-4.927252 20.945877 0.000778
-4.613429 20.945877 0.000814
-4.299606 20.945877 0.000748
-3.985783 20.945877 0.000645
-3.671960 20.945877 0.000625
-3.358137 20.945877 0.000620
-3.044314 20.945877 0.000554
-2.730491 20.945877 0.000556
-2.416668 20.945877 0.000570
-2.102845 20.945877 0.000584
-1.789022 20.945877 0.000650
-1.475199 20.945877 0.000648
-1.161376 20.945877 0.000647
-0.847553 20.945877 0.000594
-0.533730 20.945877 0.000533
-0.219907 20.945877 0.000501
0.093916 20.945877 0.000454
0.407739 20.945877 0.000321
0.721562 20.945877 0.000250
1.035385 20.945877 0.000179
1.349208 20.945877 0.000108
1.663032 20.945877 0.000086
1.976854 20.945877 0.000070
2.290677 20.945877 0.000084
2.604500 20.945877 0.000064
2.918324 20.945877 -0.000042
3.232146 20.945877 -0.000094
3.545969 20.945877 -0.000068
3.859793 20.945877 -0.000005
4.173615 20.945877 -0.000031
4.487438 20.945877 -0.000168
4.801261 20.945877 -0.000316
5.115085 20.945877 -0.000353
5.428907 20.945877 -0.000327
5.742730 20.945877 -0.000270
6.056554 20.945877 -0.000167
6.370377 20.945877 0.000149
6.684199 20.945877 0.000376
6.998022 20.945877 0.000792
7.311846 20.945877 0.001516
7.625669 20.945877 0.002826
7.939491 20.945877 0.005163
8.253315 20.945877 0.010045
8.567138 20.945877 0.018742
8.880960 20.945877 0.035483
9.194784 20.945877 0.066251
9.508606 20.945877 0.112491
9.822430 20.945877 0.175043
10.136253 20.945877 0.264830
10.450075 20.945877 0.365073
10.763899 20.945877 0.474105
11.077723 20.945877 0.589715
11.391544 20.945877 0.729010
11.705368 20.945877 0.862814
12.019190 20.945877 0.992573
12.333014 20.945877 1.102410
12.646837 20.945877 1.186471
12.960659 20.945877 1.277889
13.274483 20.945877 1.371155
13.588306 20.945877 1.446613
13.902128 20.945877 1.504887
14.215952 20.945877 1.517636
14.529776 20.945877 1.507660
14.843597 20.945877 1.483711
15.157421 20.945877 1.442254
15.471243 20.945877 1.367735
15.785067 20.945877 1.256798
16.098890 20.945877 1.093240
16.412712 20.945877 0.920368
16.726536 20.945877 0.710501
17.040359 20.945877 0.462263
17.354181 20.945877 0.187907
17.668005 20.945877 -0.063674
17.981829 20.945877 -0.292285
18.295650 20.945877 -0.503519
18.609474 20.945877 -0.661933
18.923298 20.945877 0.000000
19.237120 20.945877 0.000000
-6.810190 20.632053 0.000000
-6.496367 20.632053 0.000598
-6.182544 20.632053 0.000553
-5.868721 20.632053 0.000508
-5.554898 20.632053 0.000516
-5.241075 20.632053 0.000575
-4.927252 20.632053 0.000694
-4.613429 20.632053 0.000767
-4.299606 20.632053 0.000750
-3.985783 20.632053 0.000699
-3.671960 20.632053 0.000662
-3.358137 20.632053 0.000641
-3.044314 20.632053 0.000608
-2.730491 20.632053 0.000641
-2.416668 20.632053 0.000630
-2.102845 20.632053 0.000627
-1.789022 20.632053 0.000676
-1.475199 20.632053 0.000635
-1.161376 20.632053 0.000615
-0.847553 20.632053 0.000598
-0.533730 20.632053 0.000569
-0.219907 20.632053 0.000568
0.093916 20.632053 0.000514
0.407739 20.632053 0.000368
0.721562 20.632053 0.000258
1.035385 20.632053 0.000162
1.349208 20.632053 0.000114
1.663032 20.632053 0.000087
1.976854 20.632053 0.000083
2.290677 20.632053 0.000085
2.604500 20.632053 0.000058
2.918324 20.632053 -0.000013
3.232146 20.632053 -0.000069
3.545969 20.632053 -0.000064
3.859793 20.632053 -0.000032
4.173615 20.632053 -0.000069
4.487438 20.632053 -0.000207
4.801261 20.632053 -0.000326
5.115085 20.632053 -0.000331
5.428907 20.632053 -0.000284
5.742730 20.632053 -0.000178
6.056554 20.632053 0.000002
6.370377 20.632053 0.000217
6.684199 20.632053 0.000495
6.998022 20.632053 0.000788
7.311846 20.632053 0.001533
7.625669 20.632053 0.002890
7.939491 20.632053 0.005089
8.253315 20.632053 0.009822
8.567138 20.632053 0.018211
8.880960 20.632053 0.034118
9.194784 20.632053 0.067018
9.508606 20.632053 0.115327
9.822430 20.632053 0.180073
10.136253 20.632053 0.273818
10.450075 20.632053 0.368274
10.763899 20.632053 0.474713
11.077723 20.632053 0.592330
11.391544 20.632053 0.739754
11.705368 20.632053 0.865181
12.019190 20.632053 0.993809
12.333014 20.632053 1.097646
12.646837 20.632053 1.194404
12.960659 20.632053 1.276984
13.274483 20.632053 1.366834
13.588306 20.632053 1.459570
13.902128 20.632053 1.502782
14.215952 20.632053 1.518617
14.529776 20.632053 1.519308
14.843597 20.632053 1.494507
15.157421 20.632053 1.452224
15.471243 20.632053 1.370538
15.785067 20.632053 1.258413
16.098890 20.632053 1.095767
16.412712 20.632053 0.925870
16.726536 20.632053 0.708647
17.040359 20.632053 0.455446
17.354181 20.632053 0.186353
17.668005 20.632053 -0.068645
17.981829 20.632053 -0.294858
18.295650 20.632053 -0.502332
18.609474 20.632053 -0.663641
18.923298 20.632053 0.000000
19.237120 20.632053 0.000000
-6.810190 20.318230 0.000000
-6.496367 20.318230 0.000553
-6.182544 20.318230 0.000508
-5.868721 20.318230 0.000475
-5.554898 20.318230 0.000495
-5.241075 20.318230 0.000576
-4.927252 20.318230 0.000653
-4.613429 20.318230 0.000715
-4.299606 20.318230 0.000755
-3.985783 20.318230 0.000747
-3.671960 20.318230 0.000700
-3.358137 20.318230 0.000686
-3.044314 20.318230 0.000694
-2.730491 20.318230 0.000735
-2.416668 20.318230 0.000680
-2.102845 20.318230 0.000636
-1.789022 20.318230 0.000657
-1.475199 20.318230 0.000599
-1.161376 20.318230 0.000538
-0.847553 20.318230 0.000560
-0.533730 20.318230 0.000564
-0.219907 20.318230 0.000609
0.093916 20.318230 0.000560
0.407739 20.318230 0.000422
0.721562 20.318230 0.000301
1.035385 20.318230 0.000222
1.349208 20.318230 0.000168
1.663032 20.318230 0.000113
1.976854 20.318230 0.000072
2.290677 20.318230 0.000071
2.604500 20.318230 0.000053
2.918324 20.318230 0.000014
3.232146 20.318230 -0.000027
3.545969 20.318230 -0.000072
3.859793 20.318230 -0.000055
4.173615 20.318230 -0.000082
4.487438 20.318230 -0.000169
4.801261 20.318230 -0.000266
5.115085 20.318230 -0.000255
5.428907 20.318230 -0.000202
5.742730 20.318230 -0.000065
6.056554 20.318230 0.000132
6.370377 20.318230 0.000177
6.684199 20.318230 0.000412
6.998022 20.318230 0.000668
7.311846 20.318230 0.001435
7.625669 20.318230 0.002518
7.939491 20.318230 0.004889
8.253315 20.318230 0.009736
8.567138 20.318230 0.017718
8.880960 20.318230 0.032982
9.194784 20.318230 0.065323
9.508606 20.318230 0.113650
9.822430 20.318230 0.183444
10.136253 20.318230 0.270477
10.450075 20.318230 0.369990
10.763899 20.318230 0.486795
11.077723 20.318230 0.602211
11.391544 20.318230 0.738995
11.705368 20.318230 0.850983
12.019190 20.318230 0.987547
12.333014 20.318230 1.094691
12.646837 20.318230 1.183357
12.960659 20.318230 1.268002
13.274483 20.318230 1.365863
13.588306 20.318230 1.439024
13.902128 20.318230 1.505512
14.215952 20.318230 1.518380
14.529776 20.318230 1.500228
14.843597 20.318230 1.488367
15.157421 20.318230 1.444872
15.471243 20.318230 1.371313
15.785067 20.318230 1.253457
16.098890 20.318230 1.109264
16.412712 20.318230 0.932393
16.726536 20.318230 0.719780
17.040359 20.318230 0.456794
17.354181 20.318230 0.184506
17.668005 20.318230 -0.068542
17.981829 20.318230 -0.298633
18.295650 20.318230 -0.499795
18.609474 20.318230 -0.675490
18.923298 20.318230 0.000000
19.237120 20.318230 0.000000
-6.810190 20.004408 0.000000
-6.496367 20.004408 0.000481
-6.182544 20.004408 0.000445
-5.868721 20.004408 0.000435
-5.554898 20.004408 0.000492
-5.241075 20.004408 0.000576
-4.927252 20.004408 0.000642
-4.613429 20.004408 0.000698
-4.299606 20.004408 0.000776
-3.985783 20.004408 0.000784
-3.671960 20.004408 0.000744
-3.358137 20.004408 0.000737
-3.044314 20.004408 0.000766
-2.730491 20.004408 0.000801
-2.416668 20.004408 0.000707
-2.102845 20.004408 0.000616
-1.789022 20.004408 0.000581
-1.475199 20.004408 0.000519
-1.161376 20.004408 0.000474
-0.847553 20.004408 0.000530
-0.533730 20.004408 0.000554
-0.219907 20.004408 0.000631
0.093916 20.004408 0.000587
0.407739 20.004408 0.000477
0.721562 20.004408 0.000363
1.035385 20.004408 0.000292
1.349208 20.004408 0.000235
1.663032 20.004408 0.000168
1.976854 20.004408 0.000060
2.290677 20.004408 0.000013
2.604500 20.004408 0.000027
2.918324 20.004408 0.000039
3.232146 20.004408 0.000033
3.545969 20.004408 -0.000016
3.859793 20.004408 -0.000055
4.173615 20.004408 -0.000063
4.487438 20.004408 -0.000098
4.801261 20.004408 -0.000151
5.115085 20.004408 -0.000145
5.428907 20.004408 -0.000122
5.742730 20.004408 0.000005
6.056554 20.004408 0.000157
6.370377 20.004408 0.000243
6.684199 20.004408 0.000257
6.998022 20.004408 0.000686
7.311846 20.004408 0.001209
7.625669 20.004408 0.002450
7.939491 20.004408 0.005041
8.253315 20.004408 0.010129
8.567138 20.004408 0.018116
8.880960 20.004408 0.034705
9.194784 20.004408 0.064919
9.508606 20.004408 0.114327
9.822430 20.004408 0.184118
10.136253 20.004408 0.272402
10.450075 20.004408 0.374366
10.763899 20.004408 0.489883
11.077723 20.004408 0.615077
11.391544 20.004408 0.735671
11.705368 20.004408 0.848342
12.019190 20.004408 0.972076
12.333014 20.004408 1.072120
12.646837 20.004408 1.173416
12.960659 20.004408 1.260140
13.274483 20.004408 1.342937
13.588306 20.004408 1.430239
13.902128 20.004408 1.500678
14.215952 20.004408 1.511592
14.529776 20.004408 1.503233
14.843597 20.004408 1.502632
15.157421 20.004408 1.456075
15.471243 20.004408 1.378384
15.785067 20.004408 1.261797
16.098890 20.004408 1.108583
16.412712 20.004408 0.935850
16.726536 20.004408 0.724017
17.040359 20.004408 0.460779
17.354181 20.004408 0.199976
17.668005 20.004408 -0.058291
17.981829 20.004408 -0.294802
18.295650 20.004408 -0.512290
18.609474 20.004408 -0.694636
18.923298 20.004408 0.000000
19.237120 20.004408 0.000000
-6.810190 19.690584 0.000000
-6.496367 19.690584 0.000368
-6.182544 19.690584 0.000389
-5.868721 19.690584 0.000392
-5.554898 19.690584 0.000488
-5.241075 19.690584 0.000575
-4.927252 19.690584 0.000634
-4.613429 19.690584 0.000693
-4.299606 19.690584 0.000781
-3.985783 19.690584 0.000797
-3.671960 19.690584 0.000768
-3.358137 19.690584 0.000762
-3.044314 19.690584 0.000804
-2.730491 19.690584 0.000836
-2.416668 19.690584 0.000725
-2.102845 19.690584 0.000598
-1.789022 19.690584 0.000528
-1.475199 19.690584 0.000462
-1.161376 19.690584 0.000433
-0.847553 19.690584 0.000546
-0.533730 19.690584 0.000570
-0.219907 19.690584 0.000632
0.093916 19.690584 0.000600
0.407739 19.690584 0.000528
0.721562 19.690584 0.000438
1.035385 19.690584 0.000356
1.349208 19.690584 0.000287
1.663032 19.690584 0.000213
1.976854 19.690584 0.000051
2.290677 19.690584 -0.000026
2.604500 19.690584 0.000016
2.918324 19.690584 0.000087
3.232146 19.690584 0.000157
3.545969 19.690584 0.000103
3.859793 19.690584 -0.000012
4.173615 19.690584 -0.000039
4.487438 19.690584 -0.000040
4.801261 19.690584 -0.000071
5.115085 19.690584 -0.000099
5.428907 19.690584 -0.000105
5.742730 19.690584 0.000011
6.056554 19.690584 0.000173
6.370377 19.690584 0.000206
6.684199 19.690584 0.000191
6.998022 19.690584 0.000492
7.311846 19.690584 0.001366
7.625669 19.690584 0.002715
7.939491 19.690584 0.004805
8.253315 19.690584 0.010030
8.567138 19.690584 0.019069
8.880960 19.690584 0.037717
9.194784 19.690584 0.068273
9.508606 19.690584 0.115957
9.822430 19.690584 0.184771
10.136253 19.690584 0.277731
10.450075 19.690584 0.377238
10.763899 19.690584 0.491829
11.077723 19.690584 0.614676
11.391544 19.690584 0.732983
11.705368 19.690584 0.847769
12.019190 19.690584 0.961245
12.333014 19.690584 1.061286
12.646837 19.690584 1.160707
12.960659 19.690584 1.248601
13.274483 19.690584 1.332160
13.588306 19.690584 1.418385
13.902128 19.690584 1.492097
14.215952 19.690584 1.511239
14.529776 19.690584 1.508212
14.843597 19.690584 1.497473
15.157421 19.690584 1.463908
15.471243 19.690584 1.386596
15.785067 19.690584 1.278869
16.098890 19.690584 1.125587
16.412712 19.690584 0.948915
16.726536 19.690584 0.724682
17.040359 19.690584 0.466868
17.354181 19.690584 0.206534
17.668005 19.690584 -0.046991
17.981829 19.690584 -0.290091
18.295650 19.690584 -0.536490
18.609474 19.690584 -0.700183
18.923298 19.690584 0.000000
19.237120 19.690584 0.000000
-6.810190 19.376760 0.000000
-6.496367 19.376760 0.000339
-6.182544 19.376760 0.000365
-5.868721 19.376760 0.000375
-5.554898 19.376760 0.000466
-5.241075 19.376760 0.000552
-4.927252 19.376760 0.000606
-4.613429 19.376760 0.000671
-4.299606 19.376760 0.000755
-3.985783 19.376760 0.000793
-3.671960 19.376760 0.000757
-3.358137 19.376760 0.000754
-3.044314 19.376760 0.000812
-2.730491 19.376760 0.000848
-2.416668 19.376760 0.000758
-2.102845 19.376760 0.000620
-1.789022 19.376760 0.000525
-1.475199 19.376760 0.000458
-1.161376 19.376760 0.000495
-0.847553 19.376760 0.000619
-0.533730 19.376760 0.000581
-0.219907 19.376760 0.000596
0.093916 19.376760 0.000608
0.407739 19.376760 0.000550
0.721562 19.376760 0.000462
1.035385 19.376760 0.000364
1.349208 19.376760 0.000307
1.663032 19.376760 0.000250
1.976854 19.376760 0.000070
2.290677 19.376760 -0.000013
2.604500 19.376760 0.000041
2.918324 19.376760 0.000159
3.232146 19.376760 0.000282
3.545969 19.376760 0.000226
3.859793 19.376760 0.000054
4.173615 19.376760 -0.000028
4.487438 19.376760 -0.000026
4.801261 19.376760 -0.000042
5.115085 19.376760 -0.000087
5.428907 19.376760 -0.000128
5.742730 19.376760 -0.000052
6.056554 19.376760 0.000117
6.370377 19.376760 0.000116
6.684199 19.376760 0.000282
6.998022 19.376760 0.000618
7.311846 19.376760 0.001474
7.625669 19.376760 0.003114
7.939491 19.376760 0.005958
8.253315 19.376760 0.010093
8.567138 19.376760 0.020984
8.880960 19.376760 0.039271
9.194784 19.376760 0.069674
9.508606 19.376760 0.120308
9.822430 19.376760 0.188287
10.136253 19.376760 0.276421
10.450075 19.376760 0.374966
10.763899 19.376760 0.484493
11.077723 19.376760 0.610053
11.391544 19.376760 0.732162
11.705368 19.376760 0.847184
12.019190 19.376760 0.961340
12.333014 19.376760 1.064486
12.646837 19.376760 1.162408
12.960659 19.376760 1.251133
13.274483 19.376760 1.338951
13.588306 19.376760 1.421389
13.902128 19.376760 1.481022
14.215952 19.376760 1.518921
14.529776 19.376760 1.520226
14.843597 19.376760 1.504010
15.157421 19.376760 1.467349
15.471243 19.376760 1.384103
15.785067 19.376760 1.276016
16.098890 19.376760 1.143846
16.412712 19.376760 0.960588
16.726536 19.376760 0.716501
17.040359 19.376760 0.460603
17.354181 19.376760 0.208781
17.668005 19.376760 -0.045469
17.981829 19.376760 -0.307890
18.295650 19.376760 -0.535774
18.609474 19.376760 -0.718642
18.923298 19.376760 0.000000
19.237120 19.376760 0.000000
-6.810190 19.062939 0.000000
-6.496367 19.062939 0.000369
-6.182544 19.062939 0.000408
-5.868721 19.062939 0.000443
-5.554898 19.062939 0.000496
-5.241075 19.062939 0.000543
-4.927252 19.062939 0.000591
-4.613429 19.062939 0.000647
-4.299606 19.062939 0.000731
-3.985783 19.062939 0.000755
-3.671960 19.062939 0.000724
-3.358137 19.062939 0.000718
-3.044314 19.062939 0.000802
-2.730491 19.062939 0.000841
-2.416668 19.062939 0.000787
-2.102845 19.062939 0.000676
-1.789022 19.062939 0.000566
-1.475199 19.062939 0.000512
-1.161376 19.062939 0.000594
-0.847553 19.062939 0.000676
-0.533730 19.062939 0.000569
-0.219907 19.062939 0.000527
0.093916 19.062939 0.000552
0.407739 19.062939 0.000532
0.721562 19.062939 0.000431
1.035385 19.062939 0.000359
1.349208 19.062939 0.000350
1.663032 19.062939 0.000305
1.976854 19.062939 0.000139
2.290677 19.062939 0.000033
2.604500 19.062939 0.000074
2.918324 19.062939 0.000196
3.232146 19.062939 0.000307
3.545969 19.062939 0.000276
3.859793 19.062939 0.000118
4.173615 19.062939 -0.000033
4.487438 19.062939 -0.000054
4.801261 19.062939 -0.000041
5.115085 19.062939 -0.000107
5.428907 19.062939 -0.000163
5.742730 19.062939 -0.000099
6.056554 19.062939 0.000071
6.370377 19.062939 0.000070
6.684199 19.062939 0.000282
6.998022 19.062939 0.000694
7.311846 19.062939 0.001512
7.625669 19.062939 0.003234
7.939491 19.062939 0.006079
8.253315 19.062939 0.010934
8.567138 19.062939 0.020921
8.880960 19.062939 0.038941
9.194784 19.062939 0.071626
9.508606 19.062939 0.122875
9.822430 19.062939 0.188741
10.136253 19.062939 0.274323
10.450075 19.062939 0.375414
10.763899 19.062939 0.483751
11.077723 19.062939 0.605492
11.391544 19.062939 0.728541
11.705368 19.062939 0.840218
12.019190 19.062939 0.958351
12.333014 19.062939 1.069326
12.646837 19.062939 1.166095
12.960659 19.062939 1.252330
13.274483 19.062939 1.338322
13.588306 19.062939 1.424886
13.902128 19.062939 1.485241
14.215952 19.062939 1.514438
14.529776 19.062939 1.530657
14.843597 19.062939 1.506442
15.157421 19.062939 1.458402
15.471243 19.062939 1.382760
15.785067 19.062939 1.283989
16.098890 19.062939 1.148698
16.412712 19.062939 0.964801
16.726536 19.062939 0.728445
17.040359 19.062939 0.463715
17.354181 19.062939 0.210906
17.668005 19.062939 -0.046523
17.981829 19.062939 -0.310856
18.295650 19.062939 -0.532607
18.609474 19.062939 -0.704932
18.923298 19.062939 0.000000
19.237120 19.062939 0.000000
-6.810190 18.749115 0.000000
-6.496367 18.749115 0.000424
-6.182544 18.749115 0.000547
-5.868721 18.749115 0.000609
-5.554898 18.749115 0.000609
-5.241075 18.749115 0.000592
-4.927252 18.749115 0.000609
-4.613429 18.749115 0.000648
-4.299606 18.749115 0.000718
-3.985783 18.749115 0.000737
-3.671960 18.749115 0.000690
-3.358137 18.749115 0.000690
-3.044314 18.749115 0.000778
-2.730491 18.749115 0.000828
-2.416668 18.749115 0.000806
-2.102845 18.749115 0.000727
-1.789022 18.749115 0.000638
-1.475199 18.749115 0.000589
-1.161376 18.749115 0.000671
-0.847553 18.749115 0.000699
-0.533730 18.749115 0.000538
-0.219907 18.749115 0.000434
0.093916 18.749115 0.000461
0.407739 18.749115 0.000465
0.721562 18.749115 0.000389
1.035385 18.749115 0.000361
1.349208 18.749115 0.000392
1.663032 18.749115 0.000369
1.976854 18.749115 0.000214
2.290677 18.749115 0.000103
2.604500 18.749115 0.000081
2.918324 18.749115 0.000154
3.232146 18.749115 0.000223
3.545969 18.749115 0.000236
3.859793 18.749115 0.000110
4.173615 18.749115 -0.000053
4.487438 18.749115 -0.000092
4.801261 18.749115 -0.000063
5.115085 18.749115 -0.000127
5.428907 18.749115 -0.000132
5.742730 18.749115 -0.000071
6.056554 18.749115 0.000039
6.370377 18.749115 0.000126
6.684199 18.749115 0.000482
6.998022 18.749115 0.000984
7.311846 18.749115 0.001622
7.625669 18.749115 0.003006
7.939491 18.749115 0.005895
8.253315 18.749115 0.011179
8.567138 18.749115 0.020134
8.880960 18.749115 0.036967
9.194784 18.749115 0.072263
9.508606 18.749115 0.126365
9.822430 18.749115 0.189193
10.136253 18.749115 0.273703
10.450075 18.749115 0.372952
10.763899 18.749115 0.483202
11.077723 18.749115 0.603865
11.391544 18.749115 0.717067
11.705368 18.749115 0.845330
12.019190 18.749115 0.963593
12.333014 18.749115 1.074607
12.646837 18.749115 1.177880
12.960659 18.749115 1.259885
13.274483 18.749115 1.340640
13.588306 18.749115 1.432110
13.902128 18.749115 1.484970
14.215952 18.749115 1.525405
14.529776 18.749115 1.536697
14.843597 18.749115 1.513012
15.157421 18.749115 1.466556
15.471243 18.749115 1.396695
15.785067 18.749115 1.292422
16.098890 18.749115 1.155824
16.412712 18.749115 0.969901
16.726536 18.749115 0.735113
17.040359 18.749115 0.475645
17.354181 18.749115 0.225649
17.668005 18.749115 -0.046247
17.981829 18.749115 -0.303933
18.295650 18.749115 -0.532469
18.609474 18.749115 -0.698092
18.923298 18.749115 0.000000
19.237120 18.749115 0.000000
-6.810190 18.435291 0.000000
-6.496367 18.435291 0.000504
-6.182544 18.435291 0.000693
-5.868721 18.435291 0.000785
-5.554898 18.435291 0.000737
-5.241075 18.435291 0.000657
-4.927252 18.435291 0.000656
-4.613429 18.435291 0.000657
-4.299606 18.435291 0.000712
-3.985783 18.435291 0.000722
-3.671960 18.435291 0.000676
-3.358137 18.435291 0.000699
-3.044314 18.435291 0.000762
-2.730491 18.435291 0.000816
-2.416668 18.435291 0.000808
-2.102845 18.435291 0.000741
-1.789022 18.435291 0.000668
-1.475199 18.435291 0.000635
-1.161376 18.435291 0.000689
-0.847553 18.435291 0.000672
-0.533730 18.435291 0.000487
-0.219907 18.435291 0.000356
0.093916 18.435291 0.000366
0.407739 18.435291 0.000397
0.721562 18.435291 0.000366
1.035385 18.435291 0.000374
1.349208 18.435291 0.000409
1.663032 18.435291 0.000393
1.976854 18.435291 0.000252
2.290677 18.435291 0.000142
2.604500 18.435291 0.000068
2.918324 18.435291 0.000056
3.232146 18.435291 0.000092
3.545969 18.435291 0.000136
3.859793 18.435291 0.000081
4.173615 18.435291 -0.000063
4.487438 18.435291 -0.000118
4.801261 18.435291 -0.000112
5.115085 18.435291 -0.000121
5.428907 18.435291 -0.000067
5.742730 18.435291 -0.000073
6.056554 18.435291 -0.000015
6.370377 18.435291 0.000083
6.684199 18.435291 0.000454
6.998022 18.435291 0.000967
7.311846 18.435291 0.001651
7.625669 18.435291 0.003149
7.939491 18.435291 0.005859
8.253315 18.435291 0.010964
8.567138 18.435291 0.019906
8.880960 18.435291 0.037964
9.194784 18.435291 0.070530
9.508606 18.435291 0.122500
9.822430 18.435291 0.192450
10.136253 18.435291 0.277862
10.450075 18.435291 0.376262
10.763899 18.435291 0.487431
11.077723 18.435291 0.610398
11.391544 18.435291 0.732980
11.705368 18.435291 0.852151
12.019190 18.435291 0.977303
12.333014 18.435291 1.082481
12.646837 18.435291 1.182342
12.960659 18.435291 1.264111
13.274483 18.435291 1.345492
13.588306 18.435291 1.423852
13.902128 18.435291 1.488665
14.215952 18.435291 1.540404
14.529776 18.435291 1.545437
14.843597 18.435291 1.524208
15.157421 18.435291 1.480175
15.471243 18.435291 1.405703
15.785067 18.435291 1.301953
16.098890 18.435291 1.164472
16.412712 18.435291 0.980437
16.726536 18.435291 0.746001
17.040359 18.435291 0.490488
17.354181 18.435291 0.236347
17.668005 18.435291 -0.030845
17.981829 18.435291 -0.292486
18.295650 18.435291 -0.521536
18.609474 18.435291 -0.685972
18.923298 18.435291 0.000000
19.237120 18.435291 0.000000
-6.810190 18.121469 0.000000
-6.496367 18.121469 0.000614
-6.182544 18.121469 0.000779
-5.868721 18.121469 0.000868
-5.554898 18.121469 0.000803
-5.241075 18.121469 0.000712
-4.927252 18.121469 0.000704
-4.613429 18.121469 0.000701
-4.299606 18.121469 0.000724
-3.985783 18.121469 0.000711
-3.671960 18.121469 0.000691
-3.358137 18.121469 0.000725
-3.044314 18.121469 0.000748
-2.730491 18.121469 0.000775
-2.416668 18.121469 0.000762
-2.102845 18.121469 0.000733
-1.789022 18.121469 0.000702
-1.475199 18.121469 0.000662
-1.161376 18.121469 0.000663
-0.847553 18.121469 0.000609
-0.533730 18.121469 0.000442
-0.219907 18.121469 0.000316
0.093916 18.121469 0.000302
0.407739 18.121469 0.000354
0.721562 18.121469 0.000386
1.035385 18.121469 0.000394
1.349208 18.121469 0.000407
1.663032 18.121469 0.000379
1.976854 18.121469 0.000231
2.290677 18.121469 0.000135
2.604500 18.121469 0.000049
2.918324 18.121469 -0.000016
3.232146 18.121469 -0.000039
3.545969 18.121469 0.000024
3.859793 18.121469 0.000027
4.173615 18.121469 -0.000066
4.487438 18.121469 -0.000112
4.801261 18.121469 -0.000119
5.115085 18.121469 -0.000106
5.428907 18.121469 -0.000018
5.742730 18.121469 -0.000030
6.056554 18.121469 -0.000057
6.370377 18.121469 0.000021
6.684199 18.121469 0.000347
6.998022 18.121469 0.000914
7.311846 18.121469 0.001532
7.625669 18.121469 0.002626
7.939491 18.121469 0.005175
8.253315 18.121469 0.010345
8.567138 18.121469 0.021139
8.880960 18.121469 0.038609
9.194784 18.121469 0.072107
9.508606 18.121469 0.122017
9.822430 18.121469 0.194968
10.136253 18.121469 0.282897
10.450075 18.121469 0.383720
10.763899 18.121469 0.495653
11.077723 18.121469 0.619497
11.391544 18.121469 0.738059
11.705368 18.121469 0.860967
12.019190 18.121469 0.983400
12.333014 18.121469 1.087908
12.646837 18.121469 1.190089
12.960659 18.121469 1.268985
13.274483 18.121469 1.346314
13.588306 18.121469 1.420371
13.902128 18.121469 1.494463
14.215952 18.121469 1.545161
14.529776 18.121469 1.563368
14.843597 18.121469 1.542570
15.157421 18.121469 1.494472
15.471243 18.121469 1.422639
15.785067 18.121469 1.306064
16.098890 18.121469 1.169510
16.412712 18.121469 0.985595
16.726536 18.121469 0.755049
17.040359 18.121469 0.497231
17.354181 18.121469 0.243564
17.668005 18.121469 -0.016476
17.981829 18.121469 -0.295700
18.295650 18.121469 -0.510762
18.609474 18.121469 -0.674686
18.923298 18.121469 0.000000
19.237120 18.121469 0.000000
-6.810190 17.807646 0.000000
-6.496367 17.807646 0.000697
-6.182544 17.807646 0.000790
-5.868721 17.807646 0.000863
-5.554898 17.807646 0.000810
-5.241075 17.807646 0.000750
-4.927252 17.807646 0.000765
-4.613429 17.807646 0.000771
-4.299606 17.807646 0.000747
-3.985783 17.807646 0.000720
-3.671960 17.807646 0.000717
-3.358137 17.807646 0.000753
-3.044314 17.807646 0.000749
-2.730491 17.807646 0.000717
-2.416668 17.807646 0.000696
-2.102845 17.807646 0.000708
-1.789022 17.807646 0.000730
-1.475199 17.807646 0.000679
-1.161376 17.807646 0.000642
-0.847553 17.807646 0.000555
-0.533730 17.807646 0.000438
-0.219907 17.807646 0.000345
0.093916 17.807646 0.000301
0.407739 17.807646 0.000345
0.721562 17.807646 0.000388
1.035385 17.807646 0.000398
1.349208 17.807646 0.000387
1.663032 17.807646 0.000343
1.976854 17.807646 0.000204
2.290677 17.807646 0.000101
2.604500 17.807646 0.000026
2.918324 17.807646 -0.000068
3.232146 17.807646 -0.000113
3.545969 17.807646 -0.000028
3.859793 17.807646 0.000020
4.173615 17.807646 -0.000032
4.487438 17.807646 -0.000075
4.801261 17.807646 -0.000088
5.115085 17.807646 -0.000070
5.428907 17.807646 0.000023
5.742730 17.807646 0.000019
6.056554 17.807646 0.000010
6.370377 17.807646 0.000114
6.684199 17.807646 0.000479
6.998022 17.807646 0.000861
7.311846 17.807646 0.001540
7.625669 17.807646 0.002704
7.939491 17.807646 0.005181
8.253315 17.807646 0.011150
8.567138 17.807646 0.021270
8.880960 17.807646 0.040170
9.194784 17.807646 0.074494
9.508606 17.807646 0.126381
9.822430 17.807646 0.193820
10.136253 17.807646 0.280272
10.450075 17.807646 0.386475
10.763899 17.807646 0.494321
11.077723 17.807646 0.617130
11.391544 17.807646 0.736825
11.705368 17.807646 0.855693
12.019190 17.807646 0.981380
12.333014 17.807646 1.093111
12.646837 17.807646 1.191874
12.960659 17.807646 1.266818
13.274483 17.807646 1.346887
13.588306 17.807646 1.421262
13.902128 17.807646 1.496482
14.215952 17.807646 1.543776
14.529776 17.807646 1.564774
14.843597 17.807646 1.558329
15.157421 17.807646 1.524646
15.471243 17.807646 1.430627
15.785067 17.807646 1.312383
16.098890 17.807646 1.173892
16.412712 17.807646 0.990410
16.726536 17.807646 0.766237
17.040359 17.807646 0.505165
17.354181 17.807646 0.243695
17.668005 17.807646 -0.031216
17.981829 17.807646 -0.293806
18.295650 17.807646 -0.515538
18.609474 17.807646 -0.666795
18.923298 17.807646 0.000000
19.237120 17.807646 0.000000
-6.810190 17.493824 0.000000
-6.496367 17.493824 0.000744
-6.182544 17.493824 0.000764
-5.868721 17.493824 0.000823
-5.554898 17.493824 0.000815
-5.241075 17.493824 0.000808
-4.927252 17.493824 0.000833
-4.613429 17.493824 0.000828
-4.299606 17.493824 0.000788
-3.985783 17.493824 0.000764
-3.671960 17.493824 0.000787
-3.358137 17.493824 0.000793
-3.044314 17.493824 0.000766
-2.730491 17.493824 0.000686
-2.416668 17.493824 0.000651
-2.102845 17.493824 0.000696
-1.789022 17.493824 0.000749
-1.475199 17.493824 0.000718
-1.161376 17.493824 0.000666
-0.847553 17.493824 0.000576
-0.533730 17.493824 0.000493
-0.219907 17.493824 0.000430
0.093916 17.493824 0.000363
0.407739 17.493824 0.000341
0.721562 17.493824 0.000371
1.035385 17.493824 0.000371
1.349208 17.493824 0.000363
1.663032 17.493824 0.000306
1.976854 17.493824 0.000212
2.290677 17.493824 0.000125
2.604500 17.493824 0.000053
2.918324 17.493824 -0.000057
3.232146 17.493824 -0.000075
3.545969 17.493824 0.000018
3.859793 17.493824 0.000075
4.173615 17.493824 0.000035
4.487438 17.493824 -0.000037
4.801261 17.493824 -0.000060
5.115085 17.493824 -0.000033
5.428907 17.493824 0.000034
5.742730 17.493824 0.000019
6.056554 17.493824 0.000035
6.370377 17.493824 0.000181
6.684199 17.493824 0.000475
6.998022 17.493824 0.000645
7.311846 17.493824 0.001409
7.625669 17.493824 0.002806
7.939491 17.493824 0.005511
8.253315 17.493824 0.010990
8.567138 17.493824 0.022607
8.880960 17.493824 0.043455
9.194784 17.493824 0.077746
9.508606 17.493824 0.130204
9.822430 17.493824 0.197984
10.136253 17.493824 0.283126
10.450075 17.493824 0.390497
10.763899 17.493824 0.493649
11.077723 17.493824 0.619943
11.391544 17.493824 0.737662
11.705368 17.493824 0.855489
12.019190 17.493824 0.974311
12.333014 17.493824 1.085982
12.646837 17.493824 1.184241
12.960659 17.493824 1.272965
13.274483 17.493824 1.349748
13.588306 17.493824 1.429656
13.902128 17.493824 1.486508
14.215952 17.493824 1.543639
14.529776 17.493824 1.563433
14.843597 17.493824 1.568844
15.157421 17.493824 1.533471
15.471243 17.493824 1.447577
15.785067 17.493824 1.319054
16.098890 17.493824 1.180234
16.412712 17.493824 0.992801
16.726536 17.493824 0.778233
17.040359 17.493824 0.511580
17.354181 17.493824 0.232890
17.668005 17.493824 -0.027684
17.981829 17.493824 -0.296773
18.295650 17.493824 -0.519724
18.609474 17.493824 -0.655445
18.923298 17.493824 0.000000
19.237120 17.493824 0.000000
-6.810190 17.180000 0.000000
-6.496367 17.180000 0.000737
-6.182544 17.180000 0.000732
-5.868721 17.180000 0.000775
-5.554898 17.180000 0.000836
-5.241075 17.180000 0.000881
-4.927252 17.180000 0.000886
-4.613429 17.180000 0.000847
-4.299606 17.180000 0.000815
-3.985783 17.180000 0.000822
-3.671960 17.180000 0.000865
-3.358137 17.180000 0.000847
-3.044314 17.180000 0.000770
-2.730491 17.180000 0.000695
-2.416668 17.180000 0.000636
-2.102845 17.180000 0.000709
-1.789022 17.180000 0.000793
-1.475199 17.180000 0.000785
-1.161376 17.180000 0.000705
-0.847553 17.180000 0.000641
-0.533730 17.180000 0.000583
-0.219907 17.180000 0.000553
0.093916 17.180000 0.000470
0.407739 17.180000 0.000365
0.721562 17.180000 0.000343
1.035385 17.180000 0.000350
1.349208 17.180000 0.000354
1.663032 17.180000 0.000321
1.976854 17.180000 0.000270
2.290677 17.180000 0.000221
2.604500 17.180000 0.000121
2.918324 17.180000 0.000007
3.232146 17.180000 0.000004
3.545969 17.180000 0.000076
3.859793 17.180000 0.000129
4.173615 17.180000 0.000100
4.487438 17.180000 -0.000007
4.801261 17.180000 -0.000026
5.115085 17.180000 -0.000013
5.428907 17.180000 -0.000003
5.742730 17.180000 -0.000043
6.056554 17.180000 0.000049
6.370377 17.180000 0.000354
6.684199 17.180000 0.000600
6.998022 17.180000 0.000989
7.311846 17.180000 0.001654
7.625669 17.180000 0.003380
7.939491 17.180000 0.006234
8.253315 17.180000 0.011920
8.567138 17.180000 0.022726
8.880960 17.180000 0.041631
9.194784 17.180000 0.077682
9.508606 17.180000 0.132625
9.822430 17.180000 0.199759
10.136253 17.180000 0.289725
10.450075 17.180000 0.395158
10.763899 17.180000 0.501918
11.077723 17.180000 0.621385
11.391544 17.180000 0.741565
11.705368 17.180000 0.858872
12.019190 17.180000 0.977003
12.333014 17.180000 1.078959
12.646837 17.180000 1.177464
12.960659 17.180000 1.282973
13.274483 17.180000 1.355551
13.588306 17.180000 1.433295
13.902128 17.180000 1.480627
14.215952 17.180000 1.531461
14.529776 17.180000 1.566557
14.843597 17.180000 1.561496
15.157421 17.180000 1.533494
15.471243 17.180000 1.450891
15.785067 17.180000 1.317204
16.098890 17.180000 1.185853
16.412712 17.180000 0.998040
16.726536 17.180000 0.776942
17.040359 17.180000 0.505476
17.354181 17.180000 0.234942
17.668005 17.180000 -0.028599
17.981829 17.180000 -0.299315
18.295650 17.180000 -0.512599
18.609474 17.180000 -0.667090
18.923298 17.180000 0.000000
19.237120 17.180000 0.000000
-6.810190 16.866177 0.000000
-6.496367 16.866177 0.000720
-6.182544 16.866177 0.000693
-5.868721 16.866177 0.000744
-5.554898 16.866177 0.000841
-5.241075 16.866177 0.000912
-4.927252 16.866177 0.000928
-4.613429 16.866177 0.000881
-4.299606 16.866177 0.000851
-3.985783 16.866177 0.000875
-3.671960 16.866177 0.000929
-3.358137 16.866177 0.000894
-3.044314 16.866177 0.000814
-2.730491 16.866177 0.000738
-2.416668 16.866177 0.000686
-2.102845 16.866177 0.000756
-1.789022 16.866177 0.000825
-1.475199 16.866177 0.000806
-1.161376 16.866177 0.000731
-0.847553 16.866177 0.000694
-0.533730 16.866177 0.000674
-0.219907 16.866177 0.000675
0.093916 16.866177 0.000582
0.407739 16.866177 0.000433
0.721562 16.866177 0.000369
1.035385 16.866177 0.000366
1.349208 16.866177 0.000368
1.663032 16.866177 0.000336
1.976854 16.866177 0.000338
2.290677 16.866177 0.000330
2.604500 16.866177 0.000216
2.918324 16.866177 0.000101
3.232146 16.866177 0.000118
3.545969 16.866177 0.000165
3.859793 16.866177 0.000168
4.173615 16.866177 0.000125
4.487438 16.866177 0.000016
4.801261 16.866177 0.000004
5.115085 16.866177 0.000010
5.428907 16.866177 -0.000053
5.742730 16.866177 -0.000049
6.056554 16.866177 0.000132
6.370377 16.866177 0.000375
6.684199 16.866177 0.000589
6.998022 16.866177 0.001079
7.311846 16.866177 0.001874
7.625669 16.866177 0.003412
7.939491 16.866177 0.006337
8.253315 16.866177 0.012077
8.567138 16.866177 0.021790
8.880960 16.866177 0.040937
9.194784 16.866177 0.076342
9.508606 16.866177 0.130041
9.822430 16.866177 0.203678
10.136253 16.866177 0.293580
10.450075 16.866177 0.402092
10.763899 16.866177 0.511146
11.077723 16.866177 0.625707
11.391544 16.866177 0.753662
11.705368 16.866177 0.880678
12.019190 16.866177 0.988416
12.333014 16.866177 1.071967
12.646837 16.866177 1.170583
12.960659 16.866177 1.275546
13.274483 16.866177 1.358968
13.588306 16.866177 1.439287
13.902128 16.866177 1.497666
14.215952 16.866177 1.537035
14.529776 16.866177 1.560912
14.843597 16.866177 1.577223
15.157421 16.866177 1.532360
15.471243 16.866177 1.444162
15.785067 16.866177 1.308189
16.098890 16.866177 1.169800
16.412712 16.866177 0.998762
16.726536 16.866177 0.769880
17.040359 16.866177 0.508280
17.354181 16.866177 0.242025
17.668005 16.866177 -0.035211
17.981829 16.866177 -0.299024
18.295650 16.866177 -0.535516
18.609474 16.866177 -0.692742
18.923298 16.866177 0.000000
19.237120 16.866177 0.000000
-6.810190 16.552353 0.000000
-6.496367 16.552353 0.000731
-6.182544 16.552353 0.000701
-5.868721 16.552353 0.000725
-5.554898 16.552353 0.000818
-5.241075 16.552353 0.000909
-4.927252 16.552353 0.000943
-4.613429 16.552353 0.000916
-4.299606 16.552353 0.000897
-3.985783 16.552353 0.000931
-3.671960 16.552353 0.000965
-3.358137 16.552353 0.000935
-3.044314 16.552353 0.000869
-2.730491 16.552353 0.000821
-2.416668 16.552353 0.000764
-2.102845 16.552353 0.000800
-1.789022 16.552353 0.000834
-1.475199 16.552353 0.000779
-1.161376 16.552353 0.000716
-0.847553 16.552353 0.000721
-0.533730 16.552353 0.000726
-0.219907 16.552353 0.000774
0.093916 16.552353 0.000680
0.407739 16.552353 0.000523
0.721562 16.552353 0.000452
1.035385 16.552353 0.000439
1.349208 16.552353 0.000413
1.663032 16.552353 0.000371
1.976854 16.552353 0.000400
2.290677 16.552353 0.000425
2.604500 16.552353 0.000332
2.918324 16.552353 0.000238
3.232146 16.552353 0.000233
3.545969 16.552353 0.000252
3.859793 16.552353 0.000199
4.173615 16.552353 0.000133
4.487438 16.552353 0.000059
4.801261 16.552353 0.000065
5.115085 16.552353 0.000040
5.428907 16.552353 -0.000032
5.742730 16.552353 -0.000006
6.056554 16.552353 0.000227
6.370377 16.552353 0.000408
6.684199 16.552353 0.000654
6.998022 16.552353 0.001056
7.311846 16.552353 0.001635
7.625669 16.552353 0.003454
7.939491 16.552353 0.006431
8.253315 16.552353 0.011925
8.567138 16.552353 0.021718
8.880960 16.552353 0.041389
9.194784 16.552353 0.076877
9.508606 16.552353 0.132458
9.822430 16.552353 0.200780
10.136253 16.552353 0.298102
10.450075 16.552353 0.400837
10.763899 16.552353 0.516055
11.077723 16.552353 0.633598
11.391544 16.552353 0.761135
11.705368 16.552353 0.882443
12.019190 16.552353 0.986367
12.333014 16.552353 1.073804
12.646837 16.552353 1.173387
12.960659 16.552353 1.274082
13.274483 16.552353 1.356590
13.588306 16.552353 1.441301
13.902128 16.552353 1.506508
14.215952 16.552353 1.548313
14.529776 16.552353 1.571897
14.843597 16.552353 1.567297
15.157421 16.552353 1.540214
15.471243 16.552353 1.443016
15.785067 16.552353 1.325551
16.098890 16.552353 1.181024
16.412712 16.552353 0.992272
16.726536 16.552353 0.763765
17.040359 16.552353 0.512402
17.354181 16.552353 0.236062
17.668005 16.552353 -0.019515
17.981829 16.552353 -0.295781
18.295650 16.552353 -0.540036
18.609474 16.552353 -0.696105
18.923298 16.552353 0.000000
19.237120 16.552353 0.000000
-6.810190 16.238533 0.000000
-6.496367 16.238533 0.000744
-6.182544 16.238533 0.000695
-5.868721 16.238533 0.000688
-5.554898 16.238533 0.000773
-5.241075 16.238533 0.000888
-4.927252 16.238533 0.000937
-4.613429 16.238533 0.000944
-4.299606 16.238533 0.000960
-3.985783 16.238533 0.000980
-3.671960 16.238533 0.000997
-3.358137 16.238533 0.000976
-3.044314 16.238533 0.000925
-2.730491 16.238533 0.000896
-2.416668 16.238533 0.000862
-2.102845 16.238533 0.000850
-1.789022 16.238533 0.000811
-1.475199 16.238533 0.000737
-1.161376 16.238533 0.000701
-0.847553 16.238533 0.000726
-0.533730 16.238533 0.000773
-0.219907 16.238533 0.000835
0.093916 16.238533 0.000751
0.407739 16.238533 0.000630
0.721562 16.238533 0.000585
1.035385 16.238533 0.000542
1.349208 16.238533 0.000477
1.663032 16.238533 0.000393
1.976854 16.238533 0.000422
2.290677 16.238533 0.000481
2.604500 16.238533 0.000439
2.918324 16.238533 0.000386
3.232146 16.238533 0.000341
3.545969 16.238533 0.000299
3.859793 16.238533 0.000227
4.173615 16.238533 0.000172
4.487438 16.238533 0.000103
4.801261 16.238533 0.000129
5.115085 16.238533 0.000113
5.428907 16.238533 0.000031
5.742730 16.238533 0.000118
6.056554 16.238533 0.000269
6.370377 16.238533 0.000466
6.684199 16.238533 0.000750
6.998022 16.238533 0.001050
7.311846 16.238533 0.001621
7.625669 16.238533 0.003648
7.939491 16.238533 0.006724
8.253315 16.238533 0.012669
8.567138 16.238533 0.022513
8.880960 16.238533 0.041538
9.194784 16.238533 0.075939
9.508606 16.238533 0.136090
9.822430 16.238533 0.206401
10.136253 16.238533 0.297952
10.450075 16.238533 0.404153
10.763899 16.238533 0.516785
11.077723 16.238533 0.636404
11.391544 16.238533 0.763299
11.705368 16.238533 0.880868
12.019190 16.238533 0.981872
12.333014 16.238533 1.097324
12.646837 16.238533 1.185928
12.960659 16.238533 1.275071
13.274483 16.238533 1.349021
13.588306 16.238533 1.428161
13.902128 16.238533 1.490196
14.215952 16.238533 1.531387
14.529776 16.238533 1.557168
14.843597 16.238533 1.576632
15.157421 16.238533 1.536698
15.471243 16.238533 1.461137
15.785067 16.238533 1.343349
16.098890 16.238533 1.203106
16.412712 16.238533 1.003164
16.726536 16.238533 0.785144
17.040359 16.238533 0.522328
17.354181 16.238533 0.247244
17.668005 16.238533 -0.022668
17.981829 16.238533 -0.294635
18.295650 16.238533 -0.546810
18.609474 16.238533 -0.694156
18.923298 16.238533 0.000000
19.237120 16.238533 0.000000
-6.810190 15.924709 0.000000
-6.496367 15.924709 0.000722
-6.182544 15.924709 0.000665
-5.868721 15.924709 0.000661
-5.554898 15.924709 0.000729
-5.241075 15.924709 0.000842
-4.927252 15.924709 0.000930
-4.613429 15.924709 0.000978
-4.299606 15.924709 0.001021
-3.985783 15.924709 0.001038
-3.671960 15.924709 0.001037
-3.358137 15.924709 0.001010
-3.044314 15.924709 0.000976
-2.730491 15.924709 0.000974
-2.416668 15.924709 0.000965
-2.102845 15.924709 0.000871
-1.789022 15.924709 0.000767
-1.475199 15.924709 0.000695
-1.161376 15.924709 0.000679
-0.847553 15.924709 0.000726
-0.533730 15.924709 0.000826
-0.219907 15.924709 0.000861
0.093916 15.924709 0.000771
0.407739 15.924709 0.000696
0.721562 15.924709 0.000679
1.035385 15.924709 0.000625
1.349208 15.924709 0.000518
1.663032 15.924709 0.000398
1.976854 15.924709 0.000428
2.290677 15.924709 0.000472
2.604500 15.924709 0.000521
2.918324 15.924709 0.000521
3.232146 15.924709 0.000417
3.545969 15.924709 0.000300
3.859793 15.924709 0.000235
4.173615 15.924709 0.000200
4.487438 15.924709 0.000137
4.801261 15.924709 0.000183
5.115085 15.924709 0.000173
5.428907 15.924709 0.000119
5.742730 15.924709 0.000192
6.056554 15.924709 0.000331
6.370377 15.924709 0.000430
6.684199 15.924709 0.000600
6.998022 15.924709 0.000951
7.311846 15.924709 0.001739
7.625669 15.924709 0.003353
7.939491 15.924709 0.006679
8.253315 15.924709 0.012455
8.567138 15.924709 0.023828
8.880960 15.924709 0.045392
9.194784 15.924709 0.081996
9.508606 15.924709 0.136736
9.822430 15.924709 0.208507
10.136253 15.924709 0.292419
10.450075 15.924709 0.404246
10.763899 15.924709 0.521794
11.077723 15.924709 0.641587
11.391544 15.924709 0.765565
11.705368 15.924709 0.865452
12.019190 15.924709 0.990543
12.333014 15.924709 1.096654
12.646837 15.924709 1.184613
12.960659 15.924709 1.279356
13.274483 15.924709 1.332234
13.588306 15.924709 1.404850
13.902128 15.924709 1.473443
14.215952 15.924709 1.532831
14.529776 15.924709 1.567494
14.843597 15.924709 1.577184
15.157421 15.924709 1.551066
15.471243 15.924709 1.479782
15.785067 15.924709 1.370579
16.098890 15.924709 1.211022
16.412712 15.924709 1.023778
16.726536 15.924709 0.788851
17.040359 15.924709 0.522921
17.354181 15.924709 0.262599
17.668005 15.924709 -0.013956
17.981829 15.924709 -0.297820
18.295650 15.924709 -0.551233
18.609474 15.924709 -0.693535
18.923298 15.924709 0.000000
19.237120 15.924709 0.000000
-6.810190 15.610886 0.000000
-6.496367 15.610886 0.000672
-6.182544 15.610886 0.000627
-5.868721 15.610886 0.000662
-5.554898 15.610886 0.000718
-5.241075 15.610886 0.000813
-4.927252 15.610886 0.000928
-4.613429 15.610886 0.001010
-4.299606 15.610886 0.001077
-3.985783 15.610886 0.001092
-3.671960 15.610886 0.001055
-3.358137 15.610886 0.001008
-3.044314 15.610886 0.000995
-2.730491 15.610886 0.001025
-2.416668 15.610886 0.001027
-2.102845 15.610886 0.000890
-1.789022 15.610886 0.000719
-1.475199 15.610886 0.000666
-1.161376 15.610886 0.000686
-0.847553 15.610886 0.000750
-0.533730 15.610886 0.000843
-0.219907 15.610886 0.000871
0.093916 15.610886 0.000793
0.407739 15.610886 0.000733
0.721562 15.610886 0.000718
1.035385 15.610886 0.000656
1.349208 15.610886 0.000523
1.663032 15.610886 0.000413
1.976854 15.610886 0.000384
2.290677 15.610886 0.000431
2.604500 15.610886 0.000526
2.918324 15.610886 0.000565
3.232146 15.610886 0.000437
3.545969 15.610886 0.000280
3.859793 15.610886 0.000213
4.173615 15.610886 0.000202
4.487438 15.610886 0.000192
4.801261 15.610886 0.000240
5.115085 15.610886 0.000218
5.428907 15.610886 0.000202
5.742730 15.610886 0.000267
6.056554 15.610886 0.000296
6.370377 15.610886 0.000350
6.684199 15.610886 0.000631
6.998022 15.610886 0.001028
7.311846 15.610886 0.001446
7.625669 15.610886 0.003545
7.939491 15.610886 0.007404
8.253315 15.610886 0.014393
8.567138 15.610886 0.025769
8.880960 15.610886 0.046094
9.194784 15.610886 0.083461
9.508606 15.610886 0.138756
9.822430 15.610886 0.211481
10.136253 15.610886 0.296873
10.450075 15.610886 0.409750
10.763899 15.610886 0.521109
11.077723 15.610886 0.648226
11.391544 15.610886 0.760728
11.705368 15.610886 0.874096
12.019190 15.610886 0.984237
12.333014 15.610886 1.090166
12.646837 15.610886 1.188941
12.960659 15.610886 1.267004
13.274483 15.610886 1.331168
13.588306 15.610886 1.396027
13.902128 15.610886 1.456522
14.215952 15.610886 1.541754
14.529776 15.610886 1.580848
14.843597 15.610886 1.578821
15.157421 15.610886 1.565765
15.471243 15.610886 1.494320
15.785067 15.610886 1.376808
16.098890 15.610886 1.222370
16.412712 15.610886 1.034792
16.726536 15.610886 0.800740
17.040359 15.610886 0.531625
17.354181 15.610886 0.257968
17.668005 15.610886 -0.014189
17.981829 15.610886 -0.310912
18.295650 15.610886 -0.556841
18.609474 15.610886 -0.696473
18.923298 15.610886 0.000000
19.237120 15.610886 0.000000
-6.810190 15.297062 0.000000
-6.496367 15.297062 0.000652
-6.182544 15.297062 0.000652
-5.868721 15.297062 0.000728
-5.554898 15.297062 0.000764
-5.241075 15.297062 0.000814
-4.927252 15.297062 0.000914
-4.613429 15.297062 0.001011
-4.299606 15.297062 0.001116
-3.985783 15.297062 0.001107
-3.671960 15.297062 0.001028
-3.358137 15.297062 0.000964
-3.044314 15.297062 0.001013
-2.730491 15.297062 0.001082
-2.416668 15.297062 0.001046
-2.102845 15.297062 0.000904
-1.789022 15.297062 0.000701
-1.475199 15.297062 0.000672
-1.161376 15.297062 0.000713
-0.847553 15.297062 0.000758
-0.533730 15.297062 0.000802
-0.219907 15.297062 0.000832
0.093916 15.297062 0.000805
0.407739 15.297062 0.000758
0.721562 15.297062 0.000709
1.035385 15.297062 0.000638
1.349208 15.297062 0.000525
1.663032 15.297062 0.000426
1.976854 15.297062 0.000357
2.290677 15.297062 0.000382
2.604500 15.297062 0.000504
2.918324 15.297062 0.000561
3.232146 15.297062 0.000407
3.545969 15.297062 0.000248
3.859793 15.297062 0.000159
4.173615 15.297062 0.000158
4.487438 15.297062 0.000215
4.801261 15.297062 0.000264
5.115085 15.297062 0.000251
5.428907 15.297062 0.000239
5.742730 15.297062 0.000283
6.056554 15.297062 0.000255
6.370377 15.297062 0.000391
6.684199 15.297062 0.000753
6.998022 15.297062 0.001131
7.311846 15.297062 0.002018
7.625669 15.297062 0.003717
7.939491 15.297062 0.007397
8.253315 15.297062 0.014092
8.567138 15.297062 0.026344
8.880960 15.297062 0.046409
9.194784 15.297062 0.085197
9.508606 15.297062 0.141922
9.822430 15.297062 0.216131
10.136253 15.297062 0.305058
10.450075 15.297062 0.405255
10.763899 15.297062 0.527737
11.077723 15.297062 0.649972
11.391544 15.297062 0.755762
11.705368 15.297062 0.876029
12.019190 15.297062 0.982277
12.333014 15.297062 1.071784
12.646837 15.297062 1.174777
12.960659 15.297062 1.257193
13.274483 15.297062 1.329935
13.588306 15.297062 1.388290
13.902128 15.297062 1.457424
14.215952 15.297062 1.521820
14.529776 15.297062 1.577743
14.843597 15.297062 1.591564
15.157421 15.297062 1.575187
15.471243 15.297062 1.506807
15.785067 15.297062 1.391079
16.098890 15.297062 1.237308
16.412712 15.297062 1.047352
16.726536 15.297062 0.808568
17.040359 15.297062 0.531313
17.354181 15.297062 0.248082
17.668005 15.297062 -0.046405
17.981829 15.297062 -0.317887
18.295650 15.297062 -0.555113
18.609474 15.297062 -0.725908
18.923298 15.297062 0.000000
19.237120 15.297062 0.000000
-6.810190 14.983238 0.000000
-6.496367 14.983238 0.000735
-6.182544 14.983238 0.000758
-5.868721 14.983238 0.000853
-5.554898 14.983238 0.000854
-5.241075 14.983238 0.000842
-4.927252 14.983238 0.000894
-4.613429 14.983238 0.001010
-4.299606 14.983238 0.001114
-3.985783 14.983238 0.001084
-3.671960 14.983238 0.000985
-3.358137 14.983238 0.000927
-3.044314 14.983238 0.000997
-2.730491 14.983238 0.001072
-2.416668 14.983238 0.001053
-2.102845 14.983238 0.000895
-1.789022 14.983238 0.000710
-1.475199 14.983238 0.000702
-1.161376 14.983238 0.000758
-0.847553 14.983238 0.000752
-0.533730 14.983238 0.000711
-0.219907 14.983238 0.000753
0.093916 14.983238 0.000778
0.407739 14.983238 0.000742
0.721562 14.983238 0.000670
1.035385 14.983238 0.000588
1.349208 14.983238 0.000495
1.663032 14.983238 0.000430
1.976854 14.983238 0.000328
2.290677 14.983238 0.000353
2.604500 14.983238 0.000472
2.918324 14.983238 0.000499
3.232146 14.983238 0.000375
3.545969 14.983238 0.000211
3.859793 14.983238 0.000091
4.173615 14.983238 0.000128
4.487438 14.983238 0.000202
4.801261 14.983238 0.000243
5.115085 14.983238 0.000233
5.428907 14.983238 0.000228
5.742730 14.983238 0.000267
6.056554 14.983238 0.000179
6.370377 14.983238 0.000368
6.684199 14.983238 0.000683
6.998022 14.983238 0.001084
7.311846 14.983238 0.001869
7.625669 14.983238 0.003481
7.939491 14.983238 0.006967
8.253315 14.983238 0.013602
8.567138 14.983238 0.025076
8.880960 14.983238 0.046221
9.194784 14.983238 0.083958
9.508606 14.983238 0.140691
9.822430 14.983238 0.217117
10.136253 14.983238 0.310485
10.450075 14.983238 0.409090
10.763899 14.983238 0.526827
11.077723 14.983238 0.652995
11.391544 14.983238 0.765060
11.705368 14.983238 0.878191
12.019190 14.983238 0.976885
12.333014 14.983238 1.063505
12.646837 14.983238 1.166657
12.960659 14.983238 1.248487
13.274483 14.983238 1.315017
13.588306 14.983238 1.381687
13.902128 14.983238 1.460749
14.215952 14.983238 1.524931
14.529776 14.983238 1.571422
14.843597 14.983238 1.594740
15.157421 14.983238 1.564991
15.471243 14.983238 1.489348
15.785067 14.983238 1.405631
16.098890 14.983238 1.244360
16.412712 14.983238 1.048396
16.726536 14.983238 0.806702
17.040359 14.983238 0.550445
17.354181 14.983238 0.257309
17.668005 14.983238 -0.040398
17.981829 14.983238 -0.317994
18.295650 14.983238 -0.559756
18.609474 14.983238 -0.722695
18.923298 14.983238 0.000000
19.237120 14.983238 0.000000
-6.810190 14.669415 0.000000
-6.496367 14.669415 0.000893
-6.182544 14.669415 0.000918
-5.868721 14.669415 0.000972
-5.554898 14.669415 0.000948
-5.241075 14.669415 0.000887
-4.927252 14.669415 0.000899
-4.613429 14.669415 0.000996
-4.299606 14.669415 0.001080
-3.985783 14.669415 0.001050
-3.671960 14.669415 0.000944
-3.358137 14.669415 0.000919
-3.044314 14.669415 0.000994
-2.730491 14.669415 0.001041
-2.416668 14.669415 0.000999
-2.102845 14.669415 0.000882
-1.789022 14.669415 0.000743
-1.475199 14.669415 0.000737
-1.161376 14.669415 0.000779
-0.847553 14.669415 0.000733
-0.533730 14.669415 0.000616
-0.219907 14.669415 0.000644
0.093916 14.669415 0.000731
0.407739 14.669415 0.000694
0.721562 14.669415 0.000614
1.035385 14.669415 0.000535
1.349208 14.669415 0.000490
1.663032 14.669415 0.000445
1.976854 14.669415 0.000315
2.290677 14.669415 0.000344
2.604500 14.669415 0.000431
2.918324 14.669415 0.000423
3.232146 14.669415 0.000334
3.545969 14.669415 0.000172
3.859793 14.669415 0.000049
4.173615 14.669415 0.000105
4.487438 14.669415 0.000159
4.801261 14.669415 0.000179
5.115085 14.669415 0.000191
5.428907 14.669415 0.000193
5.742730 14.669415 0.000199
6.056554 14.669415 0.000102
6.370377 14.669415 0.000183
6.684199 14.669415 0.000552
6.998022 14.669415 0.001119
7.311846 14.669415 0.001752
7.625669 14.669415 0.003762
7.939491 14.669415 0.006963
8.253315 14.669415 0.013601
8.567138 14.669415 0.025339
8.880960 14.669415 0.045860
9.194784 14.669415 0.085301
9.508606 14.669415 0.142619
9.822430 14.669415 0.214352
10.136253 14.669415 0.308620
10.450075 14.669415 0.416821
10.763899 14.669415 0.530386
11.077723 14.669415 0.662145
11.391544 14.669415 0.766660
11.705368 14.669415 0.881416
12.019190 14.669415 0.978940
12.333014 14.669415 1.065736
12.646837 14.669415 1.160286
12.960659 14.669415 1.243783
13.274483 14.669415 1.308267
13.588306 14.669415 1.381398
13.902128 14.669415 1.460489
14.215952 14.669415 1.539286
14.529776 14.669415 1.570352
14.843597 14.669415 1.594613
15.157421 14.669415 1.570442
15.471243 14.669415 1.501352
15.785067 14.669415 1.408241
16.098890 14.669415 1.252136
16.412712 14.669415 1.060829
16.726536 14.669415 0.816620
17.040359 14.669415 0.552673
17.354181 14.669415 0.264776
17.668005 14.669415 -0.022623
17.981829 14.669415 -0.324715
18.295650 14.669415 -0.564001
18.609474 14.669415 -0.723078
18.923298 14.669415 0.000000
19.237120 14.669415 0.000000
-6.810190 14.355595 0.000000
-6.496367 14.355595 0.001018
-6.182544 14.355595 0.001040
-5.868721 14.355595 0.001050
-5.554898 14.355595 0.000997
-5.241075 14.355595 0.000941
-4.927252 14.355595 0.000939
-4.613429 14.355595 0.000991
-4.299606 14.355595 0.001047
-3.985783 14.355595 0.001026
-3.671960 14.355595 0.000943
-3.358137 14.355595 0.000936
-3.044314 14.355595 0.000988
-2.730491 14.355595 0.000992
-2.416668 14.355595 0.000949
-2.102845 14.355595 0.000881
-1.789022 14.355595 0.000812
-1.475199 14.355595 0.000810
-1.161376 14.355595 0.000822
-0.847553 14.355595 0.000723
-0.533730 14.355595 0.000559
-0.219907 14.355595 0.000561
0.093916 14.355595 0.000660
0.407739 14.355595 0.000648
0.721562 14.355595 0.000565
1.035385 14.355595 0.000483
1.349208 14.355595 0.000475
1.663032 14.355595 0.000436
1.976854 14.355595 0.000330
2.290677 14.355595 0.000345
2.604500 14.355595 0.000382
2.918324 14.355595 0.000350
3.232146 14.355595 0.000303
3.545969 14.355595 0.000172
3.859793 14.355595 0.000049
4.173615 14.355595 0.000080
4.487438 14.355595 0.000105
4.801261 14.355595 0.000099
5.115085 14.355595 0.000129
5.428907 14.355595 0.000153
5.742730 14.355595 0.000128
6.056554 14.355595 0.000110
6.370377 14.355595 0.000281
6.684199 14.355595 0.000760
6.998022 14.355595 0.001209
7.311846 14.355595 0.001963
7.625669 14.355595 0.004075
7.939491 14.355595 0.007303
8.253315 14.355595 0.012400
8.567138 14.355595 0.026895
8.880960 14.355595 0.048678
9.194784 14.355595 0.088267
9.508606 14.355595 0.148239
9.822430 14.355595 0.222030
10.136253 14.355595 0.317550
10.450075 14.355595 0.426118
10.763899 14.355595 0.539069
11.077723 14.355595 0.659887
11.391544 14.355595 0.771653
11.705368 14.355595 0.882444
12.019190 14.355595 0.984479
12.333014 14.355595 1.070973
12.646837 14.355595 1.157577
12.960659 14.355595 1.252693
13.274483 14.355595 1.307246
13.588306 14.355595 1.384739
13.902128 14.355595 1.468914
14.215952 14.355595 1.555751
14.529776 14.355595 1.578772
14.843597 14.355595 1.592131
15.157421 14.355595 1.570194
15.471243 14.355595 1.502669
15.785067 14.355595 1.395935
16.098890 14.355595 1.233482
16.412712 14.355595 1.053746
16.726536 14.355595 0.816216
17.040359 14.355595 0.548572
17.354181 14.355595 0.263231
17.668005 14.355595 -0.032874
17.981829 14.355595 -0.327226
18.295650 14.355595 -0.563943
18.609474 14.355595 -0.731148
18.923298 14.355595 0.000000
19.237120 14.355595 0.000000
-6.810190 14.041771 0.000000
-6.496367 14.041771 0.001029
-6.182544 14.041771 0.001055
-5.868721 14.041771 0.001057
-5.554898 14.041771 0.001012
-5.241075 14.041771 0.000989
-4.927252 14.041771 0.000993
-4.613429 14.041771 0.000998
-4.299606 14.041771 0.001025
-3.985783 14.041771 0.001025
-3.671960 14.041771 0.000978
-3.358137 14.041771 0.000968
-3.044314 14.041771 0.000981
-2.730491 14.041771 0.000957
-2.416668 14.041771 0.000929
-2.102845 14.041771 0.000914
-1.789022 14.041771 0.000907
-1.475199 14.041771 0.000915
-1.161376 14.041771 0.000902
-0.847553 14.041771 0.000750
-0.533730 14.041771 0.000555
-0.219907 14.041771 0.000523
0.093916 14.041771 0.000613
0.407739 14.041771 0.000585
0.721562 14.041771 0.000518
1.035385 14.041771 0.000464
1.349208 14.041771 0.000449
1.663032 14.041771 0.000440
1.976854 14.041771 0.000377
2.290677 14.041771 0.000370
2.604500 14.041771 0.000337
2.918324 14.041771 0.000303
3.232146 14.041771 0.000294
3.545969 14.041771 0.000200
3.859793 14.041771 0.000108
4.173615 14.041771 0.000089
4.487438 14.041771 0.000077
4.801261 14.041771 0.000043
5.115085 14.041771 0.000117
5.428907 14.041771 0.000146
5.742730 14.041771 0.000092
6.056554 14.041771 0.000126
6.370377 14.041771 0.000309
6.684199 14.041771 0.000684
6.998022 14.041771 0.001108
7.311846 14.041771 0.001931
7.625669 14.041771 0.003741
7.939491 14.041771 0.007038
8.253315 14.041771 0.014340
8.567138 14.041771 0.030039
8.880960 14.041771 0.053209
9.194784 14.041771 0.090974
9.508606 14.041771 0.150776
9.822430 14.041771 0.226783
10.136253 14.041771 0.317893
10.450075 14.041771 0.430545
10.763899 14.041771 0.537938
11.077723 14.041771 0.657313
11.391544 14.041771 0.776125
11.705368 14.041771 0.889798
12.019190 14.041771 0.989994
12.333014 14.041771 1.081238
12.646837 14.041771 1.153246
12.960659 14.041771 1.239636
13.274483 14.041771 1.319968
13.588306 14.041771 1.395293
13.902128 14.041771 1.479851
14.215952 14.041771 1.559250
14.529776 14.041771 1.582496
14.843597 14.041771 1.596406
15.157421 14.041771 1.570186
15.471243 14.041771 1.509637
15.785067 14.041771 1.395503
16.098890 14.041771 1.246736
16.412712 14.041771 1.057796
16.726536 14.041771 0.839904
17.040359 14.041771 0.551846
17.354181 14.041771 0.257922
17.668005 14.041771 -0.039191
17.981829 14.041771 -0.325358
18.295650 14.041771 -0.590580
18.609474 14.041771 -0.747305
18.923298 14.041771 0.000000
19.237120 14.041771 0.000000
-6.810190 13.727947 0.000000
-6.496367 13.727947 0.000993
-6.182544 13.727947 0.001018
-5.868721 13.727947 0.001034
-5.554898 13.727947 0.001029
-5.241075 13.727947 0.001042
-4.927252 13.727947 0.001048
-4.613429 13.727947 0.001023
-4.299606 13.727947 0.001011
-3.985783 13.727947 0.001040
-3.671960 13.727947 0.001026
-3.358137 13.727947 0.001009
-3.044314 13.727947 0.000983
-2.730491 13.727947 0.000944
-2.416668 13.727947 0.000923
-2.102845 13.727947 0.000956
-1.789022 13.727947 0.001007
-1.475199 13.727947 0.001030
-1.161376 13.727947 0.001002
-0.847553 13.727947 0.000816
-0.533730 13.727947 0.000601
-0.219907 13.727947 0.000540
0.093916 13.727947 0.000588
0.407739 13.727947 0.000558
0.721562 13.727947 0.000503
1.035385 13.727947 0.000461
1.349208 13.727947 0.000420
1.663032 13.727947 0.000431
1.976854 13.727947 0.000455
2.290677 13.727947 0.000405
2.604500 13.727947 0.000347
2.918324 13.727947 0.000301
3.232146 13.727947 0.000315
3.545969 13.727947 0.000278
3.859793 13.727947 0.000181
4.173615 13.727947 0.000130
4.487438 13.727947 0.000080
4.801261 13.727947 0.000075
5.115085 13.727947 0.000135
5.428907 13.727947 0.000171
5.742730 13.727947 0.000155
6.056554 13.727947 0.000224
6.370377 13.727947 0.000377
6.684199 13.727947 0.000682
6.998022 13.727947 0.000966
7.311846 13.727947 0.002059
7.625669 13.727947 0.003841
7.939491 13.727947 0.007670
8.253315 13.727947 0.015398
8.567138 13.727947 0.031102
8.880960 13.727947 0.056109
9.194784 13.727947 0.091814
9.508606 13.727947 0.148164
9.822430 13.727947 0.228151
10.136253 13.727947 0.327305
10.450075 13.727947 0.429916
10.763899 13.727947 0.542809
11.077723 13.727947 0.650816
11.391544 13.727947 0.780447
11.705368 13.727947 0.892348
12.019190 13.727947 0.993202
12.333014 13.727947 1.080116
12.646837 13.727947 1.157148
12.960659 13.727947 1.244545
13.274483 13.727947 1.317678
13.588306 13.727947 1.394447
13.902128 13.727947 1.478348
14.215952 13.727947 1.540167
14.529776 13.727947 1.578904
14.843597 13.727947 1.581601
15.157421 13.727947 1.561915
15.471243 13.727947 1.489240
15.785067 13.727947 1.401981
16.098890 13.727947 1.250206
16.412712 13.727947 1.068720
16.726536 13.727947 0.837175
17.040359 13.727947 0.552144
17.354181 13.727947 0.258318
17.668005 13.727947 -0.029572
17.981829 13.727947 -0.325649
18.295650 13.727947 -0.565318
18.609474 13.727947 -0.747194
18.923298 13.727947 0.000000
19.237120 13.727947 0.000000
-6.810190 13.414124 0.000000
-6.496367 13.414124 0.000970
-6.182544 13.414124 0.000997
-5.868721 13.414124 0.001022
-5.554898 13.414124 0.001040
-5.241075 13.414124 0.001087
-4.927252 13.414124 0.001102
-4.613429 13.414124 0.001057
-4.299606 13.414124 0.001024
-3.985783 13.414124 0.001072
-3.671960 13.414124 0.001092
-3.358137 13.414124 0.001047
-3.044314 13.414124 0.001003
-2.730491 13.414124 0.000953
-2.416668 13.414124 0.000945
-2.102845 13.414124 0.001010
-1.789022 13.414124 0.001085
-1.475199 13.414124 0.001104
-1.161376 13.414124 0.001062
-0.847553 13.414124 0.000885
-0.533730 13.414124 0.000693
-0.219907 13.414124 0.000612
0.093916 13.414124 0.000608
0.407739 13.414124 0.000563
0.721562 13.414124 0.000526
1.035385 13.414124 0.000483
1.349208 13.414124 0.000406
1.663032 13.414124 0.000421
1.976854 13.414124 0.000491
2.290677 13.414124 0.000462
2.604500 13.414124 0.000361
2.918324 13.414124 0.000330
3.232146 13.414124 0.000364
3.545969 13.414124 0.000352
3.859793 13.414124 0.000282
4.173615 13.414124 0.000168
4.487438 13.414124 0.000127
4.801261 13.414124 0.000171
5.115085 13.414124 0.000225
5.428907 13.414124 0.000182
5.742730 13.414124 0.000258
6.056554 13.414124 0.000392
6.370377 13.414124 0.000499
6.684199 13.414124 0.000836
6.998022 13.414124 0.001282
7.311846 13.414124 0.002374
7.625669 13.414124 0.004029
7.939491 13.414124 0.007433
8.253315 13.414124 0.015122
8.567138 13.414124 0.028881
8.880960 13.414124 0.054331
9.194784 13.414124 0.095180
9.508606 13.414124 0.152039
9.822430 13.414124 0.225395
10.136253 13.414124 0.329524
10.450075 13.414124 0.443177
10.763899 13.414124 0.546583
11.077723 13.414124 0.652671
11.391544 13.414124 0.778196
11.705368 13.414124 0.896476
12.019190 13.414124 0.996893
12.333014 13.414124 1.079499
12.646837 13.414124 1.162843
12.960659 13.414124 1.237448
13.274483 13.414124 1.320907
13.588306 13.414124 1.388968
13.902128 13.414124 1.466439
14.215952 13.414124 1.524410
14.529776 13.414124 1.564094
14.843597 13.414124 1.551730
15.157421 13.414124 1.542348
15.471243 13.414124 1.499257
15.785067 13.414124 1.391442
16.098890 13.414124 1.255203
16.412712 13.414124 1.067596
16.726536 13.414124 0.842066
17.040359 13.414124 0.559912
17.354181 13.414124 0.265549
17.668005 13.414124 -0.038843
17.981829 13.414124 -0.321717
18.295650 13.414124 -0.568213
18.609474 13.414124 -0.747962
18.923298 13.414124 0.000000
19.237120 13.414124 0.000000
-6.810190 13.100300 0.000000
-6.496367 13.100300 0.001013
-6.182544 13.100300 0.000988
-5.868721 13.100300 0.001028
-5.554898 13.100300 0.001055
-5.241075 13.100300 0.001103
-4.927252 13.100300 0.001127
-4.613429 13.100300 0.001106
-4.299606 13.100300 0.001050
-3.985783 13.100300 0.001114
-3.671960 13.100300 0.001123
-3.358137 13.100300 0.001085
-3.044314 13.100300 0.001045
-2.730491 13.100300 0.000987
-2.416668 13.100300 0.000982
-2.102845 13.100300 0.001047
-1.789022 13.100300 0.001102
-1.475199 13.100300 0.001096
-1.161376 13.100300 0.001057
-0.847553 13.100300 0.000909
-0.533730 13.100300 0.000768
-0.219907 13.100300 0.000706
0.093916 13.100300 0.000657
0.407739 13.100300 0.000613
0.721562 13.100300 0.000586
1.035385 13.100300 0.000513
1.349208 13.100300 0.000411
1.663032 13.100300 0.000419
1.976854 13.100300 0.000505
2.290677 13.100300 0.000476
2.604500 13.100300 0.000380
2.918324 13.100300 0.000370
3.232146 13.100300 0.000405
3.545969 13.100300 0.000426
3.859793 13.100300 0.000355
4.173615 13.100300 0.000218
4.487438 13.100300 0.000187
4.801261 13.100300 0.000280
5.115085 13.100300 0.000330
5.428907 13.100300 0.000241
5.742730 13.100300 0.000324
6.056554 13.100300 0.000434
6.370377 13.100300 0.000572
6.684199 13.100300 0.000936
6.998022 13.100300 0.001227
7.311846 13.100300 0.001952
7.625669 13.100300 0.004531
7.939491 13.100300 0.007360
8.253315 13.100300 0.014440
8.567138 13.100300 0.027599
8.880960 13.100300 0.053274
9.194784 13.100300 0.094673
9.508606 13.100300 0.156756
9.822430 13.100300 0.232981
10.136253 13.100300 0.335814
10.450075 13.100300 0.449997
10.763899 13.100300 0.559175
11.077723 13.100300 0.674746
11.391544 13.100300 0.788692
11.705368 13.100300 0.892914
12.019190 13.100300 0.995606
12.333014 13.100300 1.091305
12.646837 13.100300 1.177482
12.960659 13.100300 1.242230
13.274483 13.100300 1.303776
13.588306 13.100300 1.384607
13.902128 13.100300 1.463618
14.215952 13.100300 1.516125
14.529776 13.100300 1.543077
14.843597 13.100300 1.538406
15.157421 13.100300 1.532715
15.471243 13.100300 1.488479
15.785067 13.100300 1.406109
16.098890 13.100300 1.259067
16.412712 13.100300 1.071975
16.726536 13.100300 0.843403
17.040359 13.100300 0.568885
17.354181 13.100300 0.262389
17.668005 13.100300 -0.034186
17.981829 13.100300 -0.332413
18.295650 13.100300 -0.574040
18.609474 13.100300 -0.761279
18.923298 13.100300 0.000000
19.237120 13.100300 0.000000
-6.810190 12.786476 0.000000
-6.496367 12.786476 0.001017
-6.182544 12.786476 0.001011
-5.868721 12.786476 0.001049
-5.554898 12.786476 0.001068
-5.241075 12.786476 0.001100
-4.927252 12.786476 0.001158
-4.613429 12.786476 0.001139
-4.299606 12.786476 0.001094
-3.985783 12.786476 0.001143
-3.671960 12.786476 0.001152
-3.358137 12.786476 0.001108
-3.044314 12.786476 0.001080
-2.730491 12.786476 0.001022
-2.416668 12.786476 0.000996
-2.102845 12.786476 0.001047
-1.789022 12.786476 0.001044
-1.475199 12.786476 0.001016
-1.161376 12.786476 0.000994
-0.847553 12.786476 0.000891
-0.533730 12.786476 0.000826
-0.219907 12.786476 0.000779
0.093916 12.786476 0.000715
0.407739 12.786476 0.000690
0.721562 12.786476 0.000658
1.035385 12.786476 0.000555
1.349208 12.786476 0.000445
1.663032 12.786476 0.000459
1.976854 12.786476 0.000523
2.290677 12.786476 0.000488
2.604500 12.786476 0.000382
2.918324 12.786476 0.000368
3.232146 12.786476 0.000416
3.545969 12.786476 0.000433
3.859793 12.786476 0.000389
4.173615 12.786476 0.000283
4.487438 12.786476 0.000275
4.801261 12.786476 0.000400
5.115085 12.786476 0.000393
5.428907 12.786476 0.000287
5.742730 12.786476 0.000334
6.056554 12.786476 0.000399
6.370377 12.786476 0.000615
6.684199 12.786476 0.001008
6.998022 12.786476 0.001483
7.311846 12.786476 0.001976
7.625669 12.786476 0.004635
7.939491 12.786476 0.007764
8.253315 12.786476 0.014565
8.567138 12.786476 0.028268
8.880960 12.786476 0.054124
9.194784 12.786476 0.099857
9.508606 12.786476 0.159320
9.822430 12.786476 0.235547
10.136253 12.786476 0.340352
10.450075 12.786476 0.456989
10.763899 12.786476 0.568243
11.077723 12.786476 0.677388
11.391544 12.786476 0.789968
11.705368 12.786476 0.902428
12.019190 12.786476 1.001150
12.333014 12.786476 1.092224
12.646837 12.786476 1.183738
12.960659 12.786476 1.248164
13.274483 12.786476 1.300065
13.588306 12.786476 1.371057
13.902128 12.786476 1.432279
14.215952 12.786476 1.496866
14.529776 12.786476 1.515295
14.843597 12.786476 1.530183
15.157421 12.786476 1.515862
15.471243 12.786476 1.489360
15.785067 12.786476 1.407884
16.098890 12.786476 1.265863
16.412712 12.786476 1.090407
16.726536 12.786476 0.855689
17.040359 12.786476 0.574167
17.354181 12.786476 0.263817
17.668005 12.786476 -0.046089
17.981829 12.786476 -0.318153
18.295650 12.786476 -0.580368
18.609474 12.786476 -0.771235
18.923298 12.786476 0.000000
19.237120 12.786476 0.000000
-6.810190 12.472656 0.000000
-6.496367 12.472656 0.000992
-6.182544 12.472656 0.000992
-5.868721 12.472656 0.001049
-5.554898 12.472656 0.001077
-5.241075 12.472656 0.001091
-4.927252 12.472656 0.001172
-4.613429 12.472656 0.001176
-4.299606 12.472656 0.001135
-3.985783 12.472656 0.001167
-3.671960 12.472656 0.001175
-3.358137 12.472656 0.001138
-3.044314 12.472656 0.001132
-2.730491 12.472656 0.001081
-2.416668 12.472656 0.001023
-2.102845 12.472656 0.001022
-1.789022 12.472656 0.000973
-1.475199 12.472656 0.000912
-1.161376 12.472656 0.000908
-0.847553 12.472656 0.000890
-0.533730 12.472656 0.000880
-0.219907 12.472656 0.000837
0.093916 12.472656 0.000756
0.407739 12.472656 0.000723
0.721562 12.472656 0.000675
1.035385 12.472656 0.000595
1.349208 12.472656 0.000522
1.663032 12.472656 0.000508
1.976854 12.472656 0.000541
2.290677 12.472656 0.000486
2.604500 12.472656 0.000391
2.918324 12.472656 0.000372
3.232146 12.472656 0.000382
3.545969 12.472656 0.000396
3.859793 12.472656 0.000394
4.173615 12.472656 0.000319
4.487438 12.472656 0.000354
4.801261 12.472656 0.000465
5.115085 12.472656 0.000416
5.428907 12.472656 0.000296
5.742730 12.472656 0.000336
6.056554 12.472656 0.000512
6.370377 12.472656 0.000758
6.684199 12.472656 0.001072
6.998022 12.472656 0.001468
7.311846 12.472656 0.002453
7.625669 12.472656 0.004320
7.939491 12.472656 0.008141
8.253315 12.472656 0.015831
8.567138 12.472656 0.031609
8.880960 12.472656 0.058487
9.194784 12.472656 0.100751
9.508606 12.472656 0.162677
9.822430 12.472656 0.243896
10.136253 12.472656 0.340137
10.450075 12.472656 0.453231
10.763899 12.472656 0.570197
11.077723 12.472656 0.674726
11.391544 12.472656 0.788000
11.705368 12.472656 0.900136
12.019190 12.472656 1.006842
12.333014 12.472656 1.113583
12.646837 12.472656 1.186828
12.960659 12.472656 1.252757
13.274483 12.472656 1.304856
13.588306 12.472656 1.366765
13.902128 12.472656 1.438053
14.215952 12.472656 1.491383
14.529776 12.472656 1.520005
14.843597 12.472656 1.518019
15.157421 12.472656 1.512865
15.471243 12.472656 1.478087
15.785067 12.472656 1.386893
16.098890 12.472656 1.283485
16.412712 12.472656 1.110111
16.726536 12.472656 0.867811
17.040359 12.472656 0.586957
17.354181 12.472656 0.268112
17.668005 12.472656 -0.042448
17.981829 12.472656 -0.317344
18.295650 12.472656 -0.559582
18.609474 12.472656 -0.737039
18.923298 12.472656 0.000000
19.237120 12.472656 0.000000
-6.810190 12.158833 0.000000
-6.496367 12.158833 0.000942
-6.182544 12.158833 0.000970
-5.868721 12.158833 0.001047
-5.554898 12.158833 0.001087
-5.241075 12.158833 0.001099
-4.927252 12.158833 0.001185
-4.613429 12.158833 0.001193
-4.299606 12.158833 0.001152
-3.985783 12.158833 0.001162
-3.671960 12.158833 0.001187
-3.358137 12.158833 0.001176
-3.044314 12.158833 0.001179
-2.730491 12.158833 0.001131
-2.416668 12.158833 0.001065
-2.102845 12.158833 0.001024
-1.789022 12.158833 0.000928
-1.475199 12.158833 0.000832
-1.161376 12.158833 0.000810
-0.847553 12.158833 0.000868
-0.533730 12.158833 0.000931
-0.219907 12.158833 0.000885
0.093916 12.158833 0.000771
0.407739 12.158833 0.000729
0.721562 12.158833 0.000671
1.035385 12.158833 0.000632
1.349208 12.158833 0.000587
1.663032 12.158833 0.000565
1.976854 12.158833 0.000549
2.290677 12.158833 0.000474
2.604500 12.158833 0.000416
2.918324 12.158833 0.000402
3.232146 12.158833 0.000354
3.545969 12.158833 0.000365
3.859793 12.158833 0.000392
4.173615 12.158833 0.000359
4.487438 12.158833 0.000405
4.801261 12.158833 0.000449
5.115085 12.158833 0.000407
5.428907 12.158833 0.000312
5.742730 12.158833 0.000393
6.056554 12.158833 0.000495
6.370377 12.158833 0.000670
6.684199 12.158833 0.000979
6.998022 12.158833 0.001525
7.311846 12.158833 0.002591
7.625669 12.158833 0.004438
7.939491 12.158833 0.009146
8.253315 12.158833 0.017529
8.567138 12.158833 0.034185
8.880960 12.158833 0.061015
9.194784 12.158833 0.101918
9.508606 12.158833 0.163822
9.822430 12.158833 0.246033
10.136253 12.158833 0.349165
10.450075 12.158833 0.456270
10.763899 12.158833 0.581792
11.077723 12.158833 0.678887
11.391544 12.158833 0.785245
11.705368 12.158833 0.902283
12.019190 12.158833 1.013127
12.333014 12.158833 1.110397
12.646837 12.158833 1.186716
12.960659 12.158833 1.253466
13.274483 12.158833 1.318123
13.588306 12.158833 1.383120
13.902128 12.158833 1.446884
14.215952 12.158833 1.502710
14.529776 12.158833 1.518835
14.843597 12.158833 1.523574
15.157421 12.158833 1.503181
15.471243 12.158833 1.480680
15.785067 12.158833 1.399931
16.098890 12.158833 1.279835
16.412712 12.158833 1.104388
16.726536 12.158833 0.875258
17.040359 12.158833 0.606397
17.354181 12.158833 0.292419
17.668005 12.158833 -0.049601
17.981829 12.158833 -0.315449
18.295650 12.158833 -0.580222
18.609474 12.158833 -0.733258
18.923298 12.158833 0.000000
19.237120 12.158833 0.000000
-6.810190 11.845009 0.000000
-6.496367 11.845009 0.000956
-6.182544 11.845009 0.000971
-5.868721 11.845009 0.001052
-5.554898 11.845009 0.001098
-5.241075 11.845009 0.001109
-4.927252 11.845009 0.001207
-4.613429 11.845009 0.001214
-4.299606 11.845009 0.001152
-3.985783 11.845009 0.001150
-3.671960 11.845009 0.001196
-3.358137 11.845009 0.001214
-3.044314 11.845009 0.001213
-2.730491 11.845009 0.001161
-2.416668 11.845009 0.001123
-2.102845 11.845009 0.001032
-1.789022 11.845009 0.000913
-1.475199 11.845009 0.000811
-1.161376 11.845009 0.000756
-0.847553 11.845009 0.000830
-0.533730 11.845009 0.000967
-0.219907 11.845009 0.000947
0.093916 11.845009 0.000796
0.407739 11.845009 0.000726
0.721562 11.845009 0.000664
1.035385 11.845009 0.000674
1.349208 11.845009 0.000653
1.663032 11.845009 0.000611
1.976854 11.845009 0.000552
2.290677 11.845009 0.000482
2.604500 11.845009 0.000472
2.918324 11.845009 0.000455
3.232146 11.845009 0.000347
3.545969 11.845009 0.000358
3.859793 11.845009 0.000397
4.173615 11.845009 0.000385
4.487438 11.845009 0.000419
4.801261 11.845009 0.000362
5.115085 11.845009 0.000299
5.428907 11.845009 0.000307
5.742730 11.845009 0.000407
6.056554 11.845009 0.000487
6.370377 11.845009 0.000621
6.684199 11.845009 0.000906
6.998022 11.845009 0.001437
7.311846 11.845009 0.003000
7.625669 11.845009 0.004601
7.939491 11.845009 0.008956
8.253315 11.845009 0.018051
8.567138 11.845009 0.033976
8.880960 11.845009 0.061286
9.194784 11.845009 0.104237
9.508606 11.845009 0.169297
9.822430 11.845009 0.248928
10.136253 11.845009 0.350586
10.450075 11.845009 0.463153
10.763899 11.845009 0.578984
11.077723 11.845009 0.683662
11.391544 11.845009 0.782314
11.705368 11.845009 0.896231
12.019190 11.845009 0.992758
12.333014 11.845009 1.105405
12.646837 11.845009 1.178955
12.960659 11.845009 1.266836
13.274483 11.845009 1.324307
13.588306 11.845009 1.406054
13.902128 11.845009 1.456571
14.215952 11.845009 1.501949
14.529776 11.845009 1.531642
14.843597 11.845009 1.535102
15.157421 11.845009 1.517624
15.471243 11.845009 1.473714
15.785067 11.845009 1.370080
16.098890 11.845009 1.276782
16.412712 11.845009 1.112953
16.726536 11.845009 0.880823
17.040359 11.845009 0.607701
17.354181 11.845009 0.293122
17.668005 11.845009 -0.015740
17.981829 11.845009 -0.313729
18.295650 11.845009 -0.574437
18.609474 11.845009 -0.719961
18.923298 11.845009 0.000000
19.237120 11.845009 0.000000
-6.810190 11.531185 0.000000
-6.496367 11.531185 0.001015
-6.182544 11.531185 0.001004
-5.868721 11.531185 0.001043
-5.554898 11.531185 0.001071
-5.241075 11.531185 0.001103
-4.927252 11.531185 0.001196
-4.613429 11.531185 0.001200
-4.299606 11.531185 0.001133
-3.985783 11.531185 0.001158
-3.671960 11.531185 0.001213
-3.358137 11.531185 0.001247
-3.044314 11.531185 0.001230
-2.730491 11.531185 0.001154
-2.416668 11.531185 0.001134
-2.102845 11.531185 0.001051
-1.789022 11.531185 0.000928
-1.475199 11.531185 0.000846
-1.161376 11.531185 0.000754
-0.847553 11.531185 0.000794
-0.533730 11.531185 0.000974
-0.219907 11.531185 0.001005
0.093916 11.531185 0.000836
0.407739 11.531185 0.000738
0.721562 11.531185 0.000675
1.035385 11.531185 0.000709
1.349208 11.531185 0.000693
1.663032 11.531185 0.000614
1.976854 11.531185 0.000544
2.290677 11.531185 0.000496
2.604500 11.531185 0.000521
2.918324 11.531185 0.000499
3.232146 11.531185 0.000370
3.545969 11.531185 0.000359
3.859793 11.531185 0.000413
4.173615 11.531185 0.000411
4.487438 11.531185 0.000388
4.801261 11.531185 0.000253
5.115085 11.531185 0.000155
5.428907 11.531185 0.000305
5.742730 11.531185 0.000394
6.056554 11.531185 0.000443
6.370377 11.531185 0.000664
6.684199 11.531185 0.000918
6.998022 11.531185 0.001308
7.311846 11.531185 0.002573
7.625669 11.531185 0.004612
7.939491 11.531185 0.008655
8.253315 11.531185 0.017402
8.567138 11.531185 0.034560
8.880960 11.531185 0.063382
9.194784 11.531185 0.105765
9.508606 11.531185 0.171653
9.822430 11.531185 0.253166
10.136253 11.531185 0.359025
10.450075 11.531185 0.467597
10.763899 11.531185 0.590415
11.077723 11.531185 0.703569
11.391544 11.531185 0.797067
11.705368 11.531185 0.896082
12.019190 11.531185 0.994191
12.333014 11.531185 1.099874
12.646837 11.531185 1.179559
12.960659 11.531185 1.264066
13.274483 11.531185 1.345945
13.588306 11.531185 1.402378
13.902128 11.531185 1.484782
14.215952 11.531185 1.523717
14.529776 11.531185 1.547943
14.843597 11.531185 1.535304
15.157421 11.531185 1.523635
15.471243 11.531185 1.452111
15.785067 11.531185 1.376898
16.098890 11.531185 1.283280
16.412712 11.531185 1.126417
16.726536 11.531185 0.879821
17.040359 11.531185 0.600807
17.354181 11.531185 0.286782
17.668005 11.531185 -0.020081
17.981829 11.531185 -0.342334
18.295650 11.531185 -0.583398
18.609474 11.531185 -0.733614
18.923298 11.531185 0.000000
19.237120 11.531185 0.000000
-6.810190 11.217361 0.000000
-6.496367 11.217361 0.001099
-6.182544 11.217361 0.001048
-5.868721 11.217361 0.001039
-5.554898 11.217361 0.001050
-5.241075 11.217361 0.001089
-4.927252 11.217361 0.001160
-4.613429 11.217361 0.001167
-4.299606 11.217361 0.001146
-3.985783 11.217361 0.001195
-3.671960 11.217361 0.001233
-3.358137 11.217361 0.001262
-3.044314 11.217361 0.001233
-2.730491 11.217361 0.001155
-2.416668 11.217361 0.001124
-2.102845 11.217361 0.001046
-1.789022 11.217361 0.000975
-1.475199 11.217361 0.000892
-1.161376 11.217361 0.000787
-0.847553 11.217361 0.000800
-0.533730 11.217361 0.000945
-0.219907 11.217361 0.000991
0.093916 11.217361 0.000850
0.407739 11.217361 0.000732
0.721562 11.217361 0.000690
1.035385 11.217361 0.000738
1.349208 11.217361 0.000714
1.663032 11.217361 0.000607
1.976854 11.217361 0.000523
2.290677 11.217361 0.000491
2.604500 11.217361 0.000544
2.918324 11.217361 0.000512
3.232146 11.217361 0.000407
3.545969 11.217361 0.000387
3.859793 11.217361 0.000457
4.173615 11.217361 0.000427
4.487438 11.217361 0.000338
4.801261 11.217361 0.000137
5.115085 11.217361 0.000095
5.428907 11.217361 0.000310
5.742730 11.217361 0.000423
6.056554 11.217361 0.000534
6.370377 11.217361 0.000668
6.684199 11.217361 0.000750
6.998022 11.217361 0.001184
7.311846 11.217361 0.002620
7.625669 11.217361 0.004727
7.939491 11.217361 0.008148
8.253315 11.217361 0.016822
8.567138 11.217361 0.032435
8.880960 11.217361 0.062801
9.194784 11.217361 0.111063
9.508606 11.217361 0.175224
9.822430 11.217361 0.258377
10.136253 11.217361 0.361240
10.450075 11.217361 0.476114
10.763899 11.217361 0.594493
11.077723 11.217361 0.702176
11.391544 11.217361 0.801326
11.705368 11.217361 0.891725
12.019190 11.217361 0.998526
12.333014 11.217361 1.090121
12.646837 11.217361 1.181528
12.960659 11.217361 1.260074
13.274483 11.217361 1.335663
13.588306 11.217361 1.401423
13.902128 11.217361 1.475400
14.215952 11.217361 1.512549
14.529776 11.217361 1.540545
14.843597 11.217361 1.544572
15.157421 11.217361 1.520622
15.471243 11.217361 1.457419
15.785067 11.217361 1.405872
16.098890 11.217361 1.276752
16.412712 11.217361 1.123373
16.726536 11.217361 0.878365
17.040359 11.217361 0.608599
17.354181 11.217361 0.279547
17.668005 11.217361 -0.036230
17.981829 11.217361 -0.321560
18.295650 11.217361 -0.585680
18.609474 11.217361 -0.723128
18.923298 11.217361 0.000000
19.237120 11.217361 0.000000
-6.810190 10.903542 0.000000
-6.496367 10.903542 0.001152
-6.182544 10.903542 0.001099
-5.868721 10.903542 0.001062
-5.554898 10.903542 0.001060
-5.241075 10.903542 0.001091
-4.927252 10.903542 0.001115
-4.613429 10.903542 0.001134
-4.299606 10.903542 0.001167
-3.985783 10.903542 0.001229
-3.671960 10.903542 0.001250
-3.358137 10.903542 0.001246
-3.044314 10.903542 0.001213
-2.730491 10.903542 0.001136
-2.416668 10.903542 0.001079
-2.102845 10.903542 0.001027
-1.789022 10.903542 0.000996
-1.475199 10.903542 0.000951
-1.161376 10.903542 0.000863
-0.847553 10.903542 0.000811
-0.533730 10.903542 0.000882
-0.219907 10.903542 0.000924
0.093916 10.903542 0.000825
0.407739 10.903542 0.000737
0.721562 10.903542 0.000726
1.035385 10.903542 0.000768
1.349208 10.903542 0.000716
1.663032 10.903542 0.000589
1.976854 10.903542 0.000509
2.290677 10.903542 0.000504
2.604500 10.903542 0.000570
2.918324 10.903542 0.000536
3.232146 10.903542 0.000458
3.545969 10.903542 0.000413
3.859793 10.903542 0.000463
4.173615 10.903542 0.000420
4.487438 10.903542 0.000240
4.801261 10.903542 0.000074
5.115085 10.903542 0.000090
5.428907 10.903542 0.000324
5.742730 10.903542 0.000451
6.056554 10.903542 0.000514
6.370377 10.903542 0.000754
6.684199 10.903542 0.000966
6.998022 10.903542 0.001677
7.311846 10.903542 0.002741
7.625669 10.903542 0.004700
7.939491 10.903542 0.008213
8.253315 10.903542 0.017922
8.567138 10.903542 0.035149
8.880960 10.903542 0.061512
9.194784 10.903542 0.112283
9.508606 10.903542 0.186513
9.822430 10.903542 0.270878
10.136253 10.903542 0.364913
10.450075 10.903542 0.473042
10.763899 10.903542 0.597084
11.077723 10.903542 0.699579
11.391544 10.903542 0.797128
11.705368 10.903542 0.888296
12.019190 10.903542 1.003006
12.333014 10.903542 1.099974
12.646837 10.903542 1.194697
12.960659 10.903542 1.265888
13.274483 10.903542 1.340549
13.588306 10.903542 1.406615
13.902128 10.903542 1.459592
14.215952 10.903542 1.496951
14.529776 10.903542 1.530008
14.843597 10.903542 1.538596
15.157421 10.903542 1.512793
15.471243 10.903542 1.458962
15.785067 10.903542 1.395546
16.098890 10.903542 1.300921
16.412712 10.903542 1.124797
16.726536 10.903542 0.910462
17.040359 10.903542 0.628666
17.354181 10.903542 0.282098
17.668005 10.903542 -0.036642
17.981829 10.903542 -0.320331
18.295650 10.903542 -0.595233
18.609474 10.903542 -0.748669
18.923298 10.903542 0.000000
19.237120 10.903542 0.000000
-6.810190 10.589718 0.000000
-6.496367 10.589718 0.001224
-6.182544 10.589718 0.001150
-5.868721 10.589718 0.001119
-5.554898 10.589718 0.001106
-5.241075 10.589718 0.001105
-4.927252 10.589718 0.001081
-4.613429 10.589718 0.001120
-4.299606 10.589718 0.001209
-3.985783 10.589718 0.001263
-3.671960 10.589718 0.001247
-3.358137 10.589718 0.001204
-3.044314 10.589718 0.001160
-2.730491 10.589718 0.001086
-2.416668 10.589718 0.001024
-2.102845 10.589718 0.000995
-1.789022 10.589718 0.000980
-1.475199 10.589718 0.001013
-1.161376 10.589718 0.000955
-0.847553 10.589718 0.000854
-0.533730 10.589718 0.000836
-0.219907 10.589718 0.000860
0.093916 10.589718 0.000781
0.407739 10.589718 0.000711
0.721562 10.589718 0.000738
1.035385 10.589718 0.000763
1.349208 10.589718 0.000687
1.663032 10.589718 0.000588
1.976854 10.589718 0.000534
2.290677 10.589718 0.000529
2.604500 10.589718 0.000590
2.918324 10.589718 0.000561
3.232146 10.589718 0.000508
3.545969 10.589718 0.000454
3.859793 10.589718 0.000475
4.173615 10.589718 0.000396
4.487438 10.589718 0.000200
4.801261 10.589718 0.000089
5.115085 10.589718 0.000172
5.428907 10.589718 0.000333
5.742730 10.589718 0.000406
6.056554 10.589718 0.000539
6.370377 10.589718 0.000602
6.684199 10.589718 0.000803
6.998022 10.589718 0.001564
7.311846 10.589718 0.003118
7.625669 10.589718 0.004728
7.939491 10.589718 0.008967
8.253315 10.589718 0.018601
8.567138 10.589718 0.039006
8.880960 10.589718 0.067076
9.194784 10.589718 0.113407
9.508606 10.589718 0.190463
9.822430 10.589718 0.276166
10.136253 10.589718 0.365551
10.450075 10.589718 0.478949
10.763899 10.589718 0.599799
11.077723 10.589718 0.698697
11.391544 10.589718 0.789796
11.705368 10.589718 0.895192
12.019190 10.589718 1.006388
12.333014 10.589718 1.107655
12.646837 10.589718 1.201247
12.960659 10.589718 1.281630
13.274483 10.589718 1.351337
13.588306 10.589718 1.405145
13.902128 10.589718 1.454395
14.215952 10.589718 1.487727
14.529776 10.589718 1.504749
14.843597 10.589718 1.516467
15.157421 10.589718 1.487657
15.471243 10.589718 1.451041
15.785067 10.589718 1.391570
16.098890 10.589718 1.294451
16.412712 10.589718 1.137225
16.726536 10.589718 0.938305
17.040359 10.589718 0.649939
17.354181 10.589718 0.313423
17.668005 10.589718 -0.020636
17.981829 10.589718 -0.307944
18.295650 10.589718 -0.582992
18.609474 10.589718 -0.763406
18.923298 10.589718 0.000000
19.237120 10.589718 0.000000
-6.810190 10.275894 0.000000
-6.496367 10.275894 0.001241
-6.182544 10.275894 0.001184
-5.868721 10.275894 0.001187
-5.554898 10.275894 0.001172
-5.241075 10.275894 0.001144
-4.927252 10.275894 0.001095
-4.613429 10.275894 0.001153
-4.299606 10.275894 0.001262
-3.985783 10.275894 0.001281
-3.671960 10.275894 0.001228
-3.358137 10.275894 0.001159
-3.044314 10.275894 0.001111
-2.730491 10.275894 0.001056
-2.416668 10.275894 0.001010
-2.102845 10.275894 0.001002
-1.789022 10.275894 0.000969
-1.475199 10.275894 0.001049
-1.161376 10.275894 0.001046
-0.847553 10.275894 0.000925
-0.533730 10.275894 0.000841
-0.219907 10.275894 0.000824
0.093916 10.275894 0.000756
0.407739 10.275894 0.000690
0.721562 10.275894 0.000736
1.035385 10.275894 0.000745
1.349208 10.275894 0.000680
1.663032 10.275894 0.000609
1.976854 10.275894 0.000568
2.290677 10.275894 0.000538
2.604500 10.275894 0.000577
2.918324 10.275894 0.000563
3.232146 10.275894 0.000531
3.545969 10.275894 0.000500
3.859793 10.275894 0.000503
4.173615 10.275894 0.000417
4.487438 10.275894 0.000252
4.801261 10.275894 0.000181
5.115085 10.275894 0.000288
5.428907 10.275894 0.000412
5.742730 10.275894 0.000508
6.056554 10.275894 0.000459
6.370377 10.275894 0.000651
6.684199 10.275894 0.000930
6.998022 10.275894 0.001699
7.311846 10.275894 0.002963
7.625669 10.275894 0.005107
7.939491 10.275894 0.009583
8.253315 10.275894 0.019511
8.567138 10.275894 0.040055
8.880960 10.275894 0.071677
9.194784 10.275894 0.119892
9.508606 10.275894 0.192781
9.822430 10.275894 0.279548
10.136253 10.275894 0.377191
10.450075 10.275894 0.491177
10.763899 10.275894 0.598452
11.077723 10.275894 0.697114
11.391544 10.275894 0.794952
11.705368 10.275894 0.900948
12.019190 10.275894 1.007161
12.333014 10.275894 1.121726
12.646837 10.275894 1.204113
12.960659 10.275894 1.283784
13.274483 10.275894 1.345983
13.588306 10.275894 1.395781
13.902128 10.275894 1.451698
14.215952 10.275894 1.483919
14.529776 10.275894 1.497130
14.843597 10.275894 1.512693
15.157421 10.275894 1.478294
15.471243 10.275894 1.446818
15.785067 10.275894 1.368970
16.098890 10.275894 1.295835
16.412712 10.275894 1.169598
16.726536 10.275894 0.960419
17.040359 10.275894 0.660624
17.354181 10.275894 0.345691
17.668005 10.275894 -0.012002
17.981829 10.275894 -0.325488
18.295650 10.275894 -0.606378
18.609474 10.275894 -0.738532
18.923298 10.275894 0.000000
19.237120 10.275894 0.000000
-6.810190 9.962070 0.000000
-6.496367 9.962070 0.001243
-6.182544 9.962070 0.001220
-5.868721 9.962070 0.001256
-5.554898 9.962070 0.001243
-5.241075 9.962070 0.001210
-4.927252 9.962070 0.001158
-4.613429 9.962070 0.001207
-4.299606 9.962070 0.001303
-3.985783 9.962070 0.001282
-3.671960 9.962070 0.001208
-3.358137 9.962070 0.001128
-3.044314 9.962070 0.001081
-2.730491 9.962070 0.001044
-2.416668 9.962070 0.001042
-2.102845 9.962070 0.001026
-1.789022 9.962070 0.001013
-1.475199 9.962070 0.001098
-1.161376 9.962070 0.001126
-0.847553 9.962070 0.000994
-0.533730 9.962070 0.000857
-0.219907 9.962070 0.000810
0.093916 9.962070 0.000774
0.407739 9.962070 0.000717
0.721562 9.962070 0.000744
1.035385 9.962070 0.000751
1.349208 9.962070 0.000710
1.663032 9.962070 0.000674
1.976854 9.962070 0.000625
2.290677 9.962070 0.000538
2.604500 9.962070 0.000519
2.918324 9.962070 0.000544
3.232146 9.962070 0.000558
3.545969 9.962070 0.000547
3.859793 9.962070 0.000535
4.173615 9.962070 0.000471
4.487438 9.962070 0.000380
4.801261 9.962070 0.000330
5.115085 9.962070 0.000392
5.428907 9.962070 0.000488
5.742730 9.962070 0.000533
6.056554 9.962070 0.000566
6.370377 9.962070 0.000645
6.684199 9.962070 0.000912
6.998022 9.962070 0.001624
7.311846 9.962070 0.003217
7.625669 9.962070 0.005275
7.939491 9.962070 0.009597
8.253315 9.962070 0.019594
8.567138 9.962070 0.039526
8.880960 9.962070 0.074142
9.194784 9.962070 0.123250
9.508606 9.962070 0.194210
9.822430 9.962070 0.279736
10.136253 9.962070 0.379485
10.450075 9.962070 0.487790
10.763899 9.962070 0.602809
11.077723 9.962070 0.698863
11.391544 9.962070 0.805991
11.705368 9.962070 0.902562
12.019190 9.962070 1.020073
12.333014 9.962070 1.109660
12.646837 9.962070 1.203290
12.960659 9.962070 1.276289
13.274483 9.962070 1.351616
13.588306 9.962070 1.409411
13.902128 9.962070 1.463227
14.215952 9.962070 1.486321
14.529776 9.962070 1.514041
14.843597 9.962070 1.504150
15.157421 9.962070 1.477611
15.471243 9.962070 1.435283
15.785067 9.962070 1.367388
16.098890 9.962070 1.303652
16.412712 9.962070 1.180617
16.726536 9.962070 0.969086
17.040359 9.962070 0.690745
17.354181 9.962070 0.355024
17.668005 9.962070 -0.004538
17.981829 9.962070 -0.312710
18.295650 9.962070 -0.602194
18.609474 9.962070 -0.715694
18.923298 9.962070 0.000000
19.237120 9.962070 0.000000
-6.810190 9.648247 0.000000
-6.496367 9.648247 0.001277
-6.182544 9.648247 0.001257
-5.868721 9.648247 0.001290
-5.554898 9.648247 0.001311
-5.241075 9.648247 0.001285
-4.927252 9.648247 0.001248
-4.613429 9.648247 0.001270
-4.299606 9.648247 0.001310
-3.985783 9.648247 0.001250
-3.671960 9.648247 0.001202
-3.358137 9.648247 0.001139
-3.044314 9.648247 0.001099
-2.730491 9.648247 0.001083
-2.416668 9.648247 0.001098
-2.102845 9.648247 0.001077
-1.789022 9.648247 0.001071
-1.475199 9.648247 0.001156
-1.161376 9.648247 0.001189
-0.847553 9.648247 0.001053
-0.533730 9.648247 0.000866
-0.219907 9.648247 0.000811
0.093916 9.648247 0.000809
0.407739 9.648247 0.000762
0.721562 9.648247 0.000737
1.035385 9.648247 0.000713
1.349208 9.648247 0.000709
1.663032 9.648247 0.000720
1.976854 9.648247 0.000638
2.290677 9.648247 0.000505
2.604500 9.648247 0.000473
2.918324 9.648247 0.000524
3.232146 9.648247 0.000579
3.545969 9.648247 0.000571
3.859793 9.648247 0.000540
4.173615 9.648247 0.000494
4.487438 9.648247 0.000503
4.801261 9.648247 0.000491
5.115085 9.648247 0.000452
5.428907 9.648247 0.000490
5.742730 9.648247 0.000526
6.056554 9.648247 0.000626
6.370377 9.648247 0.000686
6.684199 9.648247 0.000914
6.998022 9.648247 0.001530
7.311846 9.648247 0.003026
7.625669 9.648247 0.005510
7.939491 9.648247 0.009738
8.253315 9.648247 0.021128
8.567138 9.648247 0.039264
8.880960 9.648247 0.072630
9.194784 9.648247 0.127402
9.508606 9.648247 0.195927
9.822430 9.648247 0.287469
10.136253 9.648247 0.380581
10.450075 9.648247 0.487591
10.763899 9.648247 0.599741
11.077723 9.648247 0.708232
11.391544 9.648247 0.806699
11.705368 9.648247 0.910546
12.019190 9.648247 1.020001
12.333014 9.648247 1.110007
12.646837 9.648247 1.193755
12.960659 9.648247 1.265542
13.274483 9.648247 1.340166
13.588306 9.648247 1.407695
13.902128 9.648247 1.472794
14.215952 9.648247 1.502535
14.529776 9.648247 1.508178
14.843597 9.648247 1.492013
15.157421 9.648247 1.454906
15.471243 9.648247 1.430350
15.785067 9.648247 1.391042
16.098890 9.648247 1.310590
16.412712 9.648247 1.181073
16.726536 9.648247 0.982993
17.040359 9.648247 0.693299
17.354181 9.648247 0.356492
17.668005 9.648247 0.040111
17.981829 9.648247 -0.321569
18.295650 9.648247 -0.571107
18.609474 9.648247 -0.713287
18.923298 9.648247 0.000000
19.237120 9.648247 0.000000
-6.810190 9.334423 0.000000
-6.496367 9.334423 0.001295
-6.182544 9.334423 0.001272
-5.868721 9.334423 0.001292
-5.554898 9.334423 0.001346
-5.241075 9.334423 0.001344
-4.927252 9.334423 0.001317
-4.613429 9.334423 0.001307
-4.299606 9.334423 0.001285
-3.985783 9.334423 0.001222
-3.671960 9.334423 0.001219
-3.358137 9.334423 0.001177
-3.044314 9.334423 0.001145
-2.730491 9.334423 0.001144
-2.416668 9.334423 0.001156
-2.102845 9.334423 0.001119
-1.789022 9.334423 0.001107
-1.475199 9.334423 0.001185
-1.161376 9.334423 0.001190
-0.847553 9.334423 0.001062
-0.533730 9.334423 0.000875
-0.219907 9.334423 0.000805
0.093916 9.334423 0.000849
0.407739 9.334423 0.000791
0.721562 9.334423 0.000718
1.035385 9.334423 0.000652
1.349208 9.334423 0.000666
1.663032 9.334423 0.000713
1.976854 9.334423 0.000629
2.290677 9.334423 0.000481
2.604500 9.334423 0.000456
2.918324 9.334423 0.000536
3.232146 9.334423 0.000607
3.545969 9.334423 0.000572
3.859793 9.334423 0.000525
4.173615 9.334423 0.000504
4.487438 9.334423 0.000606
4.801261 9.334423 0.000598
5.115085 9.334423 0.000437
5.428907 9.334423 0.000438
5.742730 9.334423 0.000536
6.056554 9.334423 0.000616
6.370377 9.334423 0.000753
6.684199 9.334423 0.000948
6.998022 9.334423 0.001498
7.311846 9.334423 0.003039
7.625669 9.334423 0.005635
7.939491 9.334423 0.009672
8.253315 9.334423 0.019160
8.567138 9.334423 0.038901
8.880960 9.334423 0.072390
9.194784 9.334423 0.127204
9.508606 9.334423 0.198299
9.822430 9.334423 0.291129
10.136253 9.334423 0.390891
10.450075 9.334423 0.500016
10.763899 9.334423 0.609675
11.077723 9.334423 0.711687
11.391544 9.334423 0.808998
11.705368 9.334423 0.922140
12.019190 9.334423 1.035304
12.333014 9.334423 1.114065
12.646837 9.334423 1.191185
12.960659 9.334423 1.270328
13.274483 9.334423 1.331551
13.588306 9.334423 1.417539
13.902128 9.334423 1.468975
14.215952 9.334423 1.502796
14.529776 9.334423 1.515082
14.843597 9.334423 1.493639
15.157421 9.334423 1.451875
15.471243 9.334423 1.441484
15.785067 9.334423 1.381427
16.098890 9.334423 1.315542
16.412712 9.334423 1.194731
16.726536 9.334423 0.987861
17.040359 9.334423 0.691357
17.354181 9.334423 0.348468
17.668005 9.334423 0.027739
17.981829 9.334423 -0.317920
18.295650 9.334423 -0.593378
18.609474 9.334423 -0.712921
18.923298 9.334423 0.000000
19.237120 9.334423 0.000000
-6.810190 9.020603 0.000000
-6.496367 9.020603 0.001264
-6.182544 9.020603 0.001256
-5.868721 9.020603 0.001276
-5.554898 9.020603 0.001328
-5.241075 9.020603 0.001376
-4.927252 9.020603 0.001350
-4.613429 9.020603 0.001318
-4.299606 9.020603 0.001255
-3.985783 9.020603 0.001205
-3.671960 9.020603 0.001238
-3.358137 9.020603 0.001213
-3.044314 9.020603 0.001193
-2.730491 9.020603 0.001202
-2.416668 9.020603 0.001208
-2.102845 9.020603 0.001165
-1.789022 9.020603 0.001135
-1.475199 9.020603 0.001173
-1.161376 9.020603 0.001153
-0.847553 9.020603 0.001053
-0.533730 9.020603 0.000902
-0.219907 9.020603 0.000821
0.093916 9.020603 0.000865
0.407739 9.020603 0.000796
0.721562 9.020603 0.000715
1.035385 9.020603 0.000632
1.349208 9.020603 0.000629
1.663032 9.020603 0.000682
1.976854 9.020603 0.000623
2.290677 9.020603 0.000508
2.604500 9.020603 0.000473
2.918324 9.020603 0.000544
3.232146 9.020603 0.000611
3.545969 9.020603 0.000552
3.859793 9.020603 0.000492
4.173615 9.020603 0.000518
4.487438 9.020603 0.000667
4.801261 9.020603 0.000652
5.115085 9.020603 0.000439
5.428907 9.020603 0.000393
5.742730 9.020603 0.000472
6.056554 9.020603 0.000695
6.370377 9.020603 0.000874
6.684199 9.020603 0.001259
6.998022 9.020603 0.001750
7.311846 9.020603 0.003629
7.625669 9.020603 0.005588
7.939491 9.020603 0.009644
8.253315 9.020603 0.019837
8.567138 9.020603 0.040389
8.880960 9.020603 0.075910
9.194784 9.020603 0.129893
9.508606 9.020603 0.205328
9.822430 9.020603 0.294935
10.136253 9.020603 0.397175
10.450075 9.020603 0.510205
10.763899 9.020603 0.619405
11.077723 9.020603 0.714357
11.391544 9.020603 0.820755
11.705368 9.020603 0.927131
12.019190 9.020603 1.037459
12.333014 9.020603 1.129848
12.646837 9.020603 1.204408
12.960659 9.020603 1.267140
13.274483 9.020603 1.331994
13.588306 9.020603 1.402583
13.902128 9.020603 1.461327
14.215952 9.020603 1.488773
14.529776 9.020603 1.496904
14.843597 9.020603 1.500079
15.157421 9.020603 1.463639
15.471243 9.020603 1.431149
15.785067 9.020603 1.397426
16.098890 9.020603 1.315845
16.412712 9.020603 1.182681
16.726536 9.020603 1.000484
17.040359 9.020603 0.660286
17.354181 9.020603 0.360826
17.668005 9.020603 0.008258
17.981829 9.020603 -0.323797
18.295650 9.020603 -0.572738
18.609474 9.020603 -0.722263
18.923298 9.020603 0.000000
19.237120 9.020603 0.000000
-6.810190 8.706779 0.000000
-6.496367 8.706779 0.001214
-6.182544 8.706779 0.001242
-5.868721 8.706779 0.001257
-5.554898 8.706779 0.001294
-5.241075 8.706779 0.001359
-4.927252 8.706779 0.001374
-4.613429 8.706779 0.001323
-4.299606 8.706779 0.001248
-3.985783 8.706779 0.001229
-3.671960 8.706779 0.001257
-3.358137 8.706779 0.001245
-3.044314 8.706779 0.001236
-2.730491 8.706779 0.001255
-2.416668 8.706779 0.001246
-2.102845 8.706779 0.001204
-1.789022 8.706779 0.001146
-1.475199 8.706779 0.001136
-1.161376 8.706779 0.001116
-0.847553 8.706779 0.001063
-0.533730 8.706779 0.000967
-0.219907 8.706779 0.000868
0.093916 8.706779 0.000888
0.407739 8.706779 0.000824
0.721562 8.706779 0.000748
1.035385 8.706779 0.000667
1.349208 8.706779 0.000639
1.663032 8.706779 0.000684
1.976854 8.706779 0.000657
2.290677 8.706779 0.000583
2.604500 8.706779 0.000542
2.918324 8.706779 0.000574
3.232146 8.706779 0.000583
3.545969 8.706779 0.000514
3.859793 8.706779 0.000474
4.173615 8.706779 0.000569
4.487438 8.706779 0.000685
4.801261 8.706779 0.000642
5.115085 8.706779 0.000450
5.428907 8.706779 0.000384
5.742730 8.706779 0.000502
6.056554 8.706779 0.000606
6.370377 8.706779 0.000782
6.684199 8.706779 0.001327
6.998022 8.706779 0.002099
7.311846 8.706779 0.003750
7.625669 8.706779 0.005570
7.939491 8.706779 0.010985
8.253315 8.706779 0.022022
8.567138 8.706779 0.045197
8.880960 8.706779 0.082301
9.194784 8.706779 0.133891
9.508606 8.706779 0.211652
9.822430 8.706779 0.299496
10.136253 8.706779 0.401847
10.450075 8.706779 0.512074
10.763899 8.706779 0.618701
11.077723 8.706779 0.724337
11.391544 8.706779 0.824532
11.705368 8.706779 0.936391
12.019190 8.706779 1.044057
12.333014 8.706779 1.133286
12.646837 8.706779 1.202257
12.960659 8.706779 1.269172
13.274483 8.706779 1.324709
13.588306 8.706779 1.393841
13.902128 8.706779 1.453416
14.215952 8.706779 1.468060
14.529776 8.706779 1.483135
14.843597 8.706779 1.488731
15.157421 8.706779 1.434378
15.471243 8.706779 1.420582
15.785067 8.706779 1.378567
16.098890 8.706779 1.296177
16.412712 8.706779 1.188419
16.726536 8.706779 0.990548
17.040359 8.706779 0.679112
17.354181 8.706779 0.346462
17.668005 8.706779 0.029307
17.981829 8.706779 -0.317033
18.295650 8.706779 -0.594974
18.609474 8.706779 -0.720417
18.923298 8.706779 0.000000
19.237120 8.706779 0.000000
-6.810190 8.392956 0.000000
-6.496367 8.392956 0.001135
-6.182544 8.392956 0.001199
-5.868721 8.392956 0.001235
-5.554898 8.392956 0.001258
-5.241075 8.392956 0.001341
-4.927252 8.392956 0.001382
-4.613429 8.392956 0.001332
-4.299606 8.392956 0.001276
-3.985783 8.392956 0.001286
-3.671960 8.392956 0.001294
-3.358137 8.392956 0.001283
-3.044314 8.392956 0.001303
-2.730491 8.392956 0.001312
-2.416668 8.392956 0.001286
-2.102845 8.392956 0.001212
-1.789022 8.392956 0.001116
-1.475199 8.392956 0.001086
-1.161376 8.392956 0.001078
-0.847553 8.392956 0.001087
-0.533730 8.392956 0.001043
-0.219907 8.392956 0.000928
0.093916 8.392956 0.000931
0.407739 8.392956 0.000878
0.721562 8.392956 0.000813
1.035385 8.392956 0.000733
1.349208 8.392956 0.000679
1.663032 8.392956 0.000700
1.976854 8.392956 0.000721
2.290677 8.392956 0.000701
2.604500 8.392956 0.000682
2.918324 8.392956 0.000617
3.232146 8.392956 0.000548
3.545969 8.392956 0.000487
3.859793 8.392956 0.000513
4.173615 8.392956 0.000667
4.487438 8.392956 0.000700
4.801261 8.392956 0.000632
5.115085 8.392956 0.000476
5.428907 8.392956 0.000415
5.742730 8.392956 0.000454
6.056554 8.392956 0.000599
6.370377 8.392956 0.000859
6.684199 8.392956 0.001342
6.998022 8.392956 0.002062
7.311846 8.392956 0.003766
7.625669 8.392956 0.006233
7.939491 8.392956 0.011704
8.253315 8.392956 0.022126
8.567138 8.392956 0.044485
8.880960 8.392956 0.082995
9.194784 8.392956 0.138133
9.508606 8.392956 0.213776
9.822430 8.392956 0.302381
10.136253 8.392956 0.407747
10.450075 8.392956 0.514924
10.763899 8.392956 0.616105
11.077723 8.392956 0.725380
11.391544 8.392956 0.836967
11.705368 8.392956 0.948706
12.019190 8.392956 1.041096
12.333014 8.392956 1.123553
12.646837 8.392956 1.189164
12.960659 8.392956 1.261443
13.274483 8.392956 1.336445
13.588306 8.392956 1.402386
13.902128 8.392956 1.453086
14.215952 8.392956 1.465280
14.529776 8.392956 1.483252
14.843597 8.392956 1.446460
15.157421 8.392956 1.428011
15.471243 8.392956 1.400807
15.785067 8.392956 1.367113
16.098890 8.392956 1.292914
16.412712 8.392956 1.191044
16.726536 8.392956 0.992916
17.040359 8.392956 0.697051
17.354181 8.392956 0.341730
17.668005 8.392956 -0.004656
17.981829 8.392956 -0.315356
18.295650 8.392956 -0.542044
18.609474 8.392956 -0.745180
18.923298 8.392956 0.000000
19.237120 8.392956 0.000000
-6.810190 8.079132 0.000000
-6.496367 8.079132 0.001078
-6.182544 8.079132 0.001186
-5.868721 8.079132 0.001228
-5.554898 8.079132 0.001231
-5.241075 8.079132 0.001335
-4.927252 8.079132 0.001387
-4.613429 8.079132 0.001352
-4.299606 8.079132 0.001328
-3.985783 8.079132 0.001335
-3.671960 8.079132 0.001340
-3.358137 8.079132 0.001339
-3.044314 8.079132 0.001372
-2.730491 8.079132 0.001368
-2.416668 8.079132 0.001316
-2.102845 8.079132 0.001184
-1.789022 8.079132 0.001067
-1.475199 8.079132 0.001038
-1.161376 8.079132 0.001048
-0.847553 8.079132 0.001118
-0.533730 8.079132 0.001102
-0.219907 8.079132 0.000983
0.093916 8.079132 0.000971
0.407739 8.079132 0.000926
0.721562 8.079132 0.000887
1.035385 8.079132 0.000814
1.349208 8.079132 0.000750
1.663032 8.079132 0.000732
1.976854 8.079132 0.000781
2.290677 8.079132 0.000830
2.604500 8.079132 0.000807
2.918324 8.079132 0.000665
3.232146 8.079132 0.000529
3.545969 8.079132 0.000504
3.859793 8.079132 0.000590
4.173615 8.079132 0.000741
4.487438 8.079132 0.000714
4.801261 8.079132 0.000626
5.115085 8.079132 0.000566
5.428907 8.079132 0.000555
5.742730 8.079132 0.000527
6.056554 8.079132 0.000686
6.370377 8.079132 0.000915
6.684199 8.079132 0.001350
6.998022 8.079132 0.001969
7.311846 8.079132 0.003328
7.625669 8.079132 0.005971
7.939491 8.079132 0.011380
8.253315 8.079132 0.022182
8.567138 8.079132 0.046239
8.880960 8.079132 0.085368
9.194784 8.079132 0.144965
9.508606 8.079132 0.215861
9.822430 8.079132 0.308851
10.136253 8.079132 0.410227
10.450075 8.079132 0.519885
10.763899 8.079132 0.626934
11.077723 8.079132 0.732580
11.391544 8.079132 0.841301
11.705368 8.079132 0.953392
12.019190 8.079132 1.040977
12.333014 8.079132 1.121365
12.646837 8.079132 1.187076
12.960659 8.079132 1.252199
13.274483 8.079132 1.332809
13.588306 8.079132 1.404692
13.902128 8.079132 1.454537
14.215952 8.079132 1.466905
14.529776 8.079132 1.456347
14.843597 8.079132 1.441201
15.157421 8.079132 1.406888
15.471243 8.079132 1.396384
15.785067 8.079132 1.368364
16.098890 8.079132 1.295078
16.412712 8.079132 1.179134
16.726536 8.079132 0.978795
17.040359 8.079132 0.699941
17.354181 8.079132 0.380740
17.668005 8.079132 -0.008617
17.981829 8.079132 -0.358347
18.295650 8.079132 -0.599284
18.609474 8.079132 -0.770635
18.923298 8.079132 0.000000
19.237120 8.079132 0.000000
-6.810190 7.765308 0.000000
-6.496367 7.765308 0.001034
-6.182544 7.765308 0.001170
-5.868721 7.765308 0.001234
-5.554898 7.765308 0.001237
-5.241075 7.765308 0.001330
-4.927252 7.765308 0.001395
-4.613429 7.765308 0.001395
-4.299606 7.765308 0.001395
-3.985783 7.765308 0.001383
-3.671960 7.765308 0.001403
-3.358137 7.765308 0.001425
-3.044314 7.765308 0.001430
-2.730491 7.765308 0.001382
-2.416668 7.765308 0.001306
-2.102845 7.765308 0.001158
-1.789022 7.765308 0.001058
-1.475199 7.765308 0.001022
-1.161376 7.765308 0.001046
-0.847553 7.765308 0.001130
-0.533730 7.765308 0.001125
-0.219907 7.765308 0.001002
0.093916 7.765308 0.000978
0.407739 7.765308 0.000975
0.721562 7.765308 0.000972
1.035385 7.765308 0.000891
1.349208 7.765308 0.000795
1.663032 7.765308 0.000755
1.976854 7.765308 0.000823
2.290677 7.765308 0.000913
2.604500 7.765308 0.000880
2.918324 7.765308 0.000695
3.232146 7.765308 0.000567
3.545969 7.765308 0.000612
3.859793 7.765308 0.000669
4.173615 7.765308 0.000742
4.487438 7.765308 0.000686
4.801261 7.765308 0.000643
5.115085 7.765308 0.000662
5.428907 7.765308 0.000626
5.742730 7.765308 0.000667
6.056554 7.765308 0.000685
6.370377 7.765308 0.000967
6.684199 7.765308 0.001235
6.998022 7.765308 0.001693
7.311846 7.765308 0.003043
7.625669 7.765308 0.006214
7.939491 7.765308 0.012139
8.253315 7.765308 0.024348
8.567138 7.765308 0.046371
8.880960 7.765308 0.089888
9.194784 7.765308 0.150048
9.508606 7.765308 0.223989
9.822430 7.765308 0.314943
10.136253 7.765308 0.415186
10.450075 7.765308 0.521646
10.763899 7.765308 0.631154
11.077723 7.765308 0.750956
11.391544 7.765308 0.849328
11.705368 7.765308 0.952477
12.019190 7.765308 1.036659
12.333014 7.765308 1.116027
12.646837 7.765308 1.180618
12.960659 7.765308 1.257545
13.274483 7.765308 1.332530
13.588306 7.765308 1.419947
13.902128 7.765308 1.470180
14.215952 7.765308 1.484275
14.529776 7.765308 1.457111
14.843597 7.765308 1.420207
15.157421 7.765308 1.395303
15.471243 7.765308 1.382957
15.785067 7.765308 1.362427
16.098890 7.765308 1.306383
16.412712 7.765308 1.171668
16.726536 7.765308 0.982317
17.040359 7.765308 0.728036
17.354181 7.765308 0.405269
17.668005 7.765308 0.019566
17.981829 7.765308 -0.361545
18.295650 7.765308 -0.645275
18.609474 7.765308 -0.748355
18.923298 7.765308 0.000000
19.237120 7.765308 0.000000
-6.810190 7.451488 0.000000
-6.496367 7.451488 0.001027
-6.182544 7.451488 0.001172
-5.868721 7.451488 0.001268
-5.554898 7.451488 0.001275
-5.241075 7.451488 0.001330
-4.927252 7.451488 0.001397
-4.613429 7.451488 0.001447
-4.299606 7.451488 0.001461
-3.985783 7.451488 0.001430
-3.671960 7.451488 0.001449
-3.358137 7.451488 0.001480
-3.044314 7.451488 0.001483
-2.730491 7.451488 0.001384
-2.416668 7.451488 0.001269
-2.102845 7.451488 0.001151
-1.789022 7.451488 0.001091
-1.475199 7.451488 0.001045
-1.161376 7.451488 0.001027
-0.847553 7.451488 0.001128
-0.533730 7.451488 0.001153
-0.219907 7.451488 0.001009
0.093916 7.451488 0.000970
0.407739 7.451488 0.001033
0.721562 7.451488 0.001054
1.035385 7.451488 0.000948
1.349208 7.451488 0.000827
1.663032 7.451488 0.000770
1.976854 7.451488 0.000840
2.290677 7.451488 0.000956
2.604500 7.451488 0.000897
2.918324 7.451488 0.000709
3.232146 7.451488 0.000633
3.545969 7.451488 0.000725
3.859793 7.451488 0.000713
4.173615 7.451488 0.000674
4.487438 7.451488 0.000645
4.801261 7.451488 0.000655
5.115085 7.451488 0.000666
5.428907 7.451488 0.000711
5.742730 7.451488 0.000680
6.056554 7.451488 0.000799
6.370377 7.451488 0.001008
6.684199 7.451488 0.001134
6.998022 7.451488 0.001702
7.311846 7.451488 0.003527
7.625669 7.451488 0.005844
7.939491 7.451488 0.012112
8.253315 7.451488 0.025515
8.567138 7.451488 0.049905
8.880960 7.451488 0.094546
9.194784 7.451488 0.153666
9.508606 7.451488 0.233783
9.822430 7.451488 0.322772
10.136253 7.451488 0.421846
10.450075 7.451488 0.522528
10.763899 7.451488 0.639358
11.077723 7.451488 0.757115
11.391544 7.451488 0.861641
11.705368 7.451488 0.958980
12.019190 7.451488 1.028974
12.333014 7.451488 1.102746
12.646837 7.451488 1.162258
12.960659 7.451488 1.244749
13.274483 7.451488 1.338008
13.588306 7.451488 1.405337
13.902128 7.451488 1.466586
14.215952 7.451488 1.500510
14.529776 7.451488 1.468576
14.843597 7.451488 1.425916
15.157421 7.451488 1.386361
15.471243 7.451488 1.372689
15.785067 7.451488 1.361778
16.098890 7.451488 1.302767
16.412712 7.451488 1.176667
16.726536 7.451488 0.999067
17.040359 7.451488 0.744315
17.354181 7.451488 0.436126
17.668005 7.451488 0.029822
17.981829 7.451488 -0.361374
18.295650 7.451488 -0.634055
18.609474 7.451488 -0.783728
18.923298 7.451488 0.000000
19.237120 7.451488 0.000000
-6.810190 7.137665 0.000000
-6.496367 7.137665 0.001117
-6.182544 7.137665 0.001240
-5.868721 7.137665 0.001322
-5.554898 7.137665 0.001338
-5.241075 7.137665 0.001349
-4.927252 7.137665 0.001395
-4.613429 7.137665 0.001465
-4.299606 7.137665 0.001491
-3.985783 7.137665 0.001467
-3.671960 7.137665 0.001467
-3.358137 7.137665 0.001472
-3.044314 7.137665 0.001465
-2.730491 7.137665 0.001363
-2.416668 7.137665 0.001241
-2.102845 7.137665 0.001178
-1.789022 7.137665 0.001164
-1.475199 7.137665 0.001114
-1.161376 7.137665 0.001055
-0.847553 7.137665 0.001136
-0.533730 7.137665 0.001170
-0.219907 7.137665 0.001028
0.093916 7.137665 0.000966
0.407739 7.137665 0.001065
0.721562 7.137665 0.001102
1.035385 7.137665 0.000979
1.349208 7.137665 0.000843
1.663032 7.137665 0.000796
1.976854 7.137665 0.000875
2.290677 7.137665 0.000984
2.604500 7.137665 0.000900
2.918324 7.137665 0.000745
3.232146 7.137665 0.000728
3.545969 7.137665 0.000819
3.859793 7.137665 0.000710
4.173615 7.137665 0.000626
4.487438 7.137665 0.000595
4.801261 7.137665 0.000630
5.115085 7.137665 0.000662
5.428907 7.137665 0.000682
5.742730 7.137665 0.000699
6.056554 7.137665 0.000800
6.370377 7.137665 0.000962
6.684199 7.137665 0.001400
6.998022 7.137665 0.002504
7.311846 7.137665 0.004068
7.625669 7.137665 0.006491
7.939491 7.137665 0.013298
8.253315 7.137665 0.026776
8.567138 7.137665 0.052164
8.880960 7.137665 0.096842
9.194784 7.137665 0.159079
9.508606 7.137665 0.240614
9.822430 7.137665 0.332151
10.136253 7.137665 0.428079
10.450075 7.137665 0.529689
10.763899 7.137665 0.645229
11.077723 7.137665 0.760398
11.391544 7.137665 0.862422
11.705368 7.137665 0.951793
12.019190 7.137665 1.025067
12.333014 7.137665 1.100517
12.646837 7.137665 1.164194
12.960659 7.137665 1.247143
13.274483 7.137665 1.332888
13.588306 7.137665 1.392159
13.902128 7.137665 1.461234
14.215952 7.137665 1.485577
14.529776 7.137665 1.477872
14.843597 7.137665 1.431056
15.157421 7.137665 1.383441
15.471243 7.137665 1.370858
15.785067 7.137665 1.357780
16.098890 7.137665 1.294143
16.412712 7.137665 1.181827
16.726536 7.137665 1.034992
17.040359 7.137665 0.805312
17.354181 7.137665 0.485247
17.668005 7.137665 0.098931
17.981829 7.137665 -0.300297
18.295650 7.137665 -0.610134
18.609474 7.137665 -0.716328
18.923298 7.137665 0.000000
19.237120 7.137665 0.000000
-6.810190 6.823841 0.000000
-6.496367 6.823841 0.001249
-6.182544 6.823841 0.001338
-5.868721 6.823841 0.001393
-5.554898 6.823841 0.001386
-5.241075 6.823841 0.001360
-4.927252 6.823841 0.001378
-4.613429 6.823841 0.001464
-4.299606 6.823841 0.001483
-3.985783 6.823841 0.001463
-3.671960 6.823841 0.001447
-3.358137 6.823841 0.001424
-3.044314 6.823841 0.001411
-2.730491 6.823841 0.001336
-2.416668 6.823841 0.001246
-2.102845 6.823841 0.001206
-1.789022 6.823841 0.001217
-1.475199 6.823841 0.001186
-1.161376 6.823841 0.001125
-0.847553 6.823841 0.001159
-0.533730 6.823841 0.001208
-0.219907 6.823841 0.001063
0.093916 6.823841 0.001002
0.407739 6.823841 0.001081
0.721562 6.823841 0.001083
1.035385 6.823841 0.000938
1.349208 6.823841 0.000826
1.663032 6.823841 0.000792
1.976854 6.823841 0.000891
2.290677 6.823841 0.000980
2.604500 6.823841 0.000903
2.918324 6.823841 0.000786
3.232146 6.823841 0.000788
3.545969 6.823841 0.000864
3.859793 6.823841 0.000714
4.173615 6.823841 0.000589
4.487438 6.823841 0.000569
4.801261 6.823841 0.000657
5.115085 6.823841 0.000714
5.428907 6.823841 0.000726
5.742730 6.823841 0.000711
6.056554 6.823841 0.000723
6.370377 6.823841 0.000939
6.684199 6.823841 0.001280
6.998022 6.823841 0.002442
7.311846 6.823841 0.004146
7.625669 6.823841 0.006935
7.939491 6.823841 0.013683
8.253315 6.823841 0.027832
8.567138 6.823841 0.055341
8.880960 6.823841 0.101573
9.194784 6.823841 0.162418
9.508606 6.823841 0.241881
9.822430 6.823841 0.330606
10.136253 6.823841 0.433249
10.450075 6.823841 0.536447
10.763899 6.823841 0.650276
11.077723 6.823841 0.754909
11.391544 6.823841 0.849692
11.705368 6.823841 0.948977
12.019190 6.823841 1.040949
12.333014 6.823841 1.112429
12.646837 6.823841 1.177199
12.960659 6.823841 1.246627
13.274483 6.823841 1.326165
13.588306 6.823841 1.388969
13.902128 6.823841 1.453857
14.215952 6.823841 1.467169
14.529776 6.823841 1.448081
14.843597 6.823841 1.419500
15.157421 6.823841 1.395544
15.471243 6.823841 1.374043
15.785067 6.823841 1.366994
16.098890 6.823841 1.277102
16.412712 6.823841 1.196749
16.726536 6.823841 1.083475
17.040359 6.823841 0.856636
17.354181 6.823841 0.531639
17.668005 6.823841 0.152949
17.981829 6.823841 -0.250281
18.295650 6.823841 -0.584477
18.609474 6.823841 -0.671017
18.923298 6.823841 0.000000
19.237120 6.823841 0.000000
-6.810190 6.510017 0.000000
-6.496367 6.510017 0.001374
-6.182544 6.510017 0.001433
-5.868721 6.510017 0.001432
-5.554898 6.510017 0.001414
-5.241075 6.510017 0.001357
-4.927252 6.510017 0.001343
-4.613429 6.510017 0.001445
-4.299606 6.510017 0.001475
-3.985783 6.510017 0.001439
-3.671960 6.510017 0.001399
-3.358137 6.510017 0.001373
-3.044314 6.510017 0.001328
-2.730491 6.510017 0.001286
-2.416668 6.510017 0.001248
-2.102845 6.510017 0.001237
-1.789022 6.510017 0.001247
-1.475199 6.510017 0.001237
-1.161376 6.510017 0.001180
-0.847553 6.510017 0.001188
-0.533730 6.510017 0.001225
-0.219907 6.510017 0.001114
0.093916 6.510017 0.001028
0.407739 6.510017 0.001046
0.721562 6.510017 0.001012
1.035385 6.510017 0.000906
1.349208 6.510017 0.000825
1.663032 6.510017 0.000788
1.976854 6.510017 0.000845
2.290677 6.510017 0.000946
2.604500 6.510017 0.000878
2.918324 6.510017 0.000821
3.232146 6.510017 0.000826
3.545969 6.510017 0.000838
3.859793 6.510017 0.000713
4.173615 6.510017 0.000580
4.487438 6.510017 0.000583
4.801261 6.510017 0.000673
5.115085 6.510017 0.000757
5.428907 6.510017 0.000821
5.742730 6.510017 0.000775
6.056554 6.510017 0.000803
6.370377 6.510017 0.001077
6.684199 6.510017 0.001525
6.998022 6.510017 0.002261
7.311846 6.510017 0.004315
7.625669 6.510017 0.006886
7.939491 6.510017 0.014516
8.253315 6.510017 0.028947
8.567138 6.510017 0.057583
8.880960 6.510017 0.105747
9.194784 6.510017 0.167953
9.508606 6.510017 0.247871
9.822430 6.510017 0.329844
10.136253 6.510017 0.430570
10.450075 6.510017 0.547016
10.763899 6.510017 0.655969
11.077723 6.510017 0.754029
11.391544 6.510017 0.843698
11.705368 6.510017 0.946292
12.019190 6.510017 1.042771
12.333014 6.510017 1.111481
12.646837 6.510017 1.176054
12.960659 6.510017 1.230494
13.274483 6.510017 1.312438
13.588306 6.510017 1.397626
13.902128 6.510017 1.437726
14.215952 6.510017 1.450549
14.529776 6.510017 1.444830
14.843597 6.510017 1.405020
15.157421 6.510017 1.376709
15.471243 6.510017 1.364737
15.785067 6.510017 1.352626
16.098890 6.510017 1.280509
16.412712 6.510017 1.226111
16.726536 6.510017 1.106234
17.040359 6.510017 0.878444
17.354181 6.510017 0.580269
17.668005 6.510017 0.148945
17.981829 6.510017 -0.278691
18.295650 6.510017 -0.558803
18.609474 6.510017 -0.652482
18.923298 6.510017 0.000000
19.237120 6.510017 0.000000
-6.810190 6.196194 0.000000
-6.496367 6.196194 0.001443
-6.182544 6.196194 0.001476
-5.868721 6.196194 0.001468
-5.554898 6.196194 0.001429
-5.241075 6.196194 0.001359
-4.927252 6.196194 0.001342
-4.613429 6.196194 0.001430
-4.299606 6.196194 0.001467
-3.985783 6.196194 0.001414
-3.671960 6.196194 0.001371
-3.358137 6.196194 0.001352
-3.044314 6.196194 0.001280
-2.730491 6.196194 0.001269
-2.416668 6.196194 0.001288
-2.102845 6.196194 0.001281
-1.789022 6.196194 0.001307
-1.475199 6.196194 0.001293
-1.161376 6.196194 0.001221
-0.847553 6.196194 0.001203
-0.533730 6.196194 0.001232
-0.219907 6.196194 0.001138
0.093916 6.196194 0.001050
0.407739 6.196194 0.000985
0.721562 6.196194 0.000936
1.035385 6.196194 0.000898
1.349208 6.196194 0.000843
1.663032 6.196194 0.000807
1.976854 6.196194 0.000825
2.290677 6.196194 0.000895
2.604500 6.196194 0.000870
2.918324 6.196194 0.000859
3.232146 6.196194 0.000865
3.545969 6.196194 0.000800
3.859793 6.196194 0.000708
4.173615 6.196194 0.000620
4.487438 6.196194 0.000592
4.801261 6.196194 0.000690
5.115085 6.196194 0.000785
5.428907 6.196194 0.000839
5.742730 6.196194 0.000763
6.056554 6.196194 0.000907
6.370377 6.196194 0.001044
6.684199 6.196194 0.001432
6.998022 6.196194 0.002308
7.311846 6.196194 0.004098
7.625669 6.196194 0.007295
7.939491 6.196194 0.014598
8.253315 6.196194 0.029533
8.567138 6.196194 0.059485
8.880960 6.196194 0.107279
9.194784 6.196194 0.175511
9.508606 6.196194 0.247076
9.822430 6.196194 0.333855
10.136253 6.196194 0.438009
10.450075 6.196194 0.552937
10.763899 6.196194 0.668043
11.077723 6.196194 0.752722
11.391544 6.196194 0.852224
11.705368 6.196194 0.953843
12.019190 6.196194 1.041591
12.333014 6.196194 1.121721
12.646837 6.196194 1.177662
12.960659 6.196194 1.236057
13.274483 6.196194 1.322633
13.588306 6.196194 1.381602
13.902128 6.196194 1.422717
14.215952 6.196194 1.442209
14.529776 6.196194 1.429172
14.843597 6.196194 1.395227
15.157421 6.196194 1.358265
15.471243 6.196194 1.358680
15.785067 6.196194 1.333648
16.098890 6.196194 1.301585
16.412712 6.196194 1.239018
16.726536 6.196194 1.123929
17.040359 6.196194 0.906978
17.354181 6.196194 0.601356
17.668005 6.196194 0.176277
17.981829 6.196194 -0.285497
18.295650 6.196194 -0.619025
18.609474 6.196194 -0.714847
18.923298 6.196194 0.000000
19.237120 6.196194 0.000000
-6.810190 5.882370 0.000000
-6.496367 5.882370 0.001448
-6.182544 5.882370 0.001496
-5.868721 5.882370 0.001495
-5.554898 5.882370 0.001470
-5.241075 5.882370 0.001388
-4.927252 5.882370 0.001361
-4.613429 5.882370 0.001427
-4.299606 5.882370 0.001453
-3.985783 5.882370 0.001420
-3.671960 5.882370 0.001395
-3.358137 5.882370 0.001364
-3.044314 5.882370 0.001288
-2.730491 5.882370 0.001305
-2.416668 5.882370 0.001351
-2.102845 5.882370 0.001350
-1.789022 5.882370 0.001378
-1.475199 5.882370 0.001363
-1.161376 5.882370 0.001279
-0.847553 5.882370 0.001239
-0.533730 5.882370 0.001231
-0.219907 5.882370 0.001177
0.093916 5.882370 0.001065
0.407739 5.882370 0.000946
0.721562 5.882370 0.000880
1.035385 5.882370 0.000887
1.349208 5.882370 0.000876
1.663032 5.882370 0.000852
1.976854 5.882370 0.000814
2.290677 5.882370 0.000868
2.604500 5.882370 0.000905
2.918324 5.882370 0.000934
3.232146 5.882370 0.000895
3.545969 5.882370 0.000778
3.859793 5.882370 0.000687
4.173615 5.882370 0.000673
4.487438 5.882370 0.000650
4.801261 5.882370 0.000690
5.115085 5.882370 0.000770
5.428907 5.882370 0.000844
5.742730 5.882370 0.000848
6.056554 5.882370 0.000963
6.370377 5.882370 0.001074
6.684199 5.882370 0.001490
6.998022 5.882370 0.001778
7.311846 5.882370 0.003724
7.625669 5.882370 0.007285
7.939491 5.882370 0.014726
8.253315 5.882370 0.030547
8.567138 5.882370 0.059661
8.880960 5.882370 0.110186
9.194784 5.882370 0.176722
9.508606 5.882370 0.255361
9.822430 5.882370 0.345865
10.136253 5.882370 0.450225
10.450075 5.882370 0.564556
10.763899 5.882370 0.664328
11.077723 5.882370 0.773776
11.391544 5.882370 0.868428
11.705368 5.882370 0.969373
12.019190 5.882370 1.055880
12.333014 5.882370 1.129471
12.646837 5.882370 1.178810
12.960659 5.882370 1.247970
13.274483 5.882370 1.318423
13.588306 5.882370 1.381982
13.902128 5.882370 1.417067
14.215952 5.882370 1.434962
14.529776 5.882370 1.413108
14.843597 5.882370 1.360601
15.157421 5.882370 1.352708
15.471243 5.882370 1.361516
15.785067 5.882370 1.341348
16.098890 5.882370 1.290405
16.412712 5.882370 1.233600
16.726536 5.882370 1.132942
17.040359 5.882370 0.894731
17.354181 5.882370 0.602103
17.668005 5.882370 0.213548
17.981829 5.882370 -0.244126
18.295650 5.882370 -0.626236
18.609474 5.882370 -0.722304
18.923298 5.882370 0.000000
19.237120 5.882370 0.000000
-6.810190 5.568550 0.000000
-6.496367 5.568550 0.001435
-6.182544 5.568550 0.001485
-5.868721 5.568550 0.001522
-5.554898 5.568550 0.001498
-5.241075 5.568550 0.001420
-4.927252 5.568550 0.001383
-4.613429 5.568550 0.001432
-4.299606 5.568550 0.001462
-3.985783 5.568550 0.001465
-3.671960 5.568550 0.001466
-3.358137 5.568550 0.001415
-3.044314 5.568550 0.001343
-2.730491 5.568550 0.001367
-2.416668 5.568550 0.001422
-2.102845 5.568550 0.001400
-1.789022 5.568550 0.001406
-1.475199 5.568550 0.001402
-1.161376 5.568550 0.001330
-0.847553 5.568550 0.001260
-0.533730 5.568550 0.001250
-0.219907 5.568550 0.001212
0.093916 5.568550 0.001108
0.407739 5.568550 0.000962
0.721562 5.568550 0.000871
1.035385 5.568550 0.000921
1.349208 5.568550 0.000942
1.663032 5.568550 0.000890
1.976854 5.568550 0.000821
2.290677 5.568550 0.000879
2.604500 5.568550 0.000953
2.918324 5.568550 0.000975
3.232146 5.568550 0.000906
3.545969 5.568550 0.000758
3.859793 5.568550 0.000691
4.173615 5.568550 0.000739
4.487438 5.568550 0.000764
4.801261 5.568550 0.000703
5.115085 5.568550 0.000729
5.428907 5.568550 0.000804
5.742730 5.568550 0.000796
6.056554 5.568550 0.000910
6.370377 5.568550 0.001201
6.684199 5.568550 0.001590
6.998022 5.568550 0.002170
7.311846 5.568550 0.003766
7.625669 5.568550 0.007069
7.939491 5.568550 0.014861
8.253315 5.568550 0.032555
8.567138 5.568550 0.060993
8.880960 5.568550 0.114436
9.194784 5.568550 0.183933
9.508606 5.568550 0.266271
9.822430 5.568550 0.352165
10.136253 5.568550 0.455337
10.450075 5.568550 0.566343
10.763899 5.568550 0.666143
11.077723 5.568550 0.775553
11.391544 5.568550 0.879351
11.705368 5.568550 0.986696
12.019190 5.568550 1.066633
12.333014 5.568550 1.123855
12.646837 5.568550 1.179883
12.960659 5.568550 1.253816
13.274483 5.568550 1.318804
13.588306 5.568550 1.374045
13.902128 5.568550 1.407647
14.215952 5.568550 1.417325
14.529776 5.568550 1.392330
14.843597 5.568550 1.361969
15.157421 5.568550 1.340145
15.471243 5.568550 1.359247
15.785067 5.568550 1.350878
16.098890 5.568550 1.270995
16.412712 5.568550 1.206172
16.726536 5.568550 1.142302
17.040359 5.568550 0.916102
17.354181 5.568550 0.640278
17.668005 5.568550 0.240206
17.981829 5.568550 -0.197029
18.295650 5.568550 -0.574433
18.609474 5.568550 -0.745382
18.923298 5.568550 0.000000
19.237120 5.568550 0.000000
-6.810190 5.254726 0.000000
-6.496367 5.254726 0.001419
-6.182544 5.254726 0.001464
-5.868721 5.254726 0.001517
-5.554898 5.254726 0.001521
-5.241075 5.254726 0.001451
-4.927252 5.254726 0.001413
-4.613429 5.254726 0.001448
-4.299606 5.254726 0.001488
-3.985783 5.254726 0.001531
-3.671960 5.254726 0.001555
-3.358137 5.254726 0.001504
-3.044314 5.254726 0.001424
-2.730491 5.254726 0.001428
-2.416668 5.254726 0.001478
-2.102845 5.254726 0.001426
-1.789022 5.254726 0.001413
-1.475199 5.254726 0.001382
-1.161376 5.254726 0.001341
-0.847553 5.254726 0.001278
-0.533730 5.254726 0.001260
-0.219907 5.254726 0.001230
0.093916 5.254726 0.001149
0.407739 5.254726 0.001020
0.721562 5.254726 0.000961
1.035385 5.254726 0.000991
1.349208 5.254726 0.001030
1.663032 5.254726 0.000962
1.976854 5.254726 0.000860
2.290677 5.254726 0.000907
2.604500 5.254726 0.001004
2.918324 5.254726 0.001000
3.232146 5.254726 0.000923
3.545969 5.254726 0.000779
3.859793 5.254726 0.000723
4.173615 5.254726 0.000851
4.487438 5.254726 0.000878
4.801261 5.254726 0.000736
5.115085 5.254726 0.000715
5.428907 5.254726 0.000794
5.742730 5.254726 0.000806
6.056554 5.254726 0.000866
6.370377 5.254726 0.001041
6.684199 5.254726 0.001780
6.998022 5.254726 0.002557
7.311846 5.254726 0.003375
7.625669 5.254726 0.007476
7.939491 5.254726 0.015464
8.253315 5.254726 0.033243
8.567138 5.254726 0.066003
8.880960 5.254726 0.115501
9.194784 5.254726 0.189579
9.508606 5.254726 0.265179
9.822430 5.254726 0.363022
10.136253 5.254726 0.461910
10.450075 5.254726 0.570512
10.763899 5.254726 0.669003
11.077723 5.254726 0.773538
11.391544 5.254726 0.880001
11.705368 5.254726 0.994032
12.019190 5.254726 1.061028
12.333014 5.254726 1.118948
12.646837 5.254726 1.174267
12.960659 5.254726 1.240179
13.274483 5.254726 1.312015
13.588306 5.254726 1.366551
13.902128 5.254726 1.408630
14.215952 5.254726 1.394753
14.529776 5.254726 1.393023
14.843597 5.254726 1.351487
15.157421 5.254726 1.335186
15.471243 5.254726 1.345839
15.785067 5.254726 1.342615
16.098890 5.254726 1.275228
16.412712 5.254726 1.188411
16.726536 5.254726 1.111310
17.040359 5.254726 0.943850
17.354181 5.254726 0.637951
17.668005 5.254726 0.282446
17.981829 5.254726 -0.188084
18.295650 5.254726 -0.566903
18.609474 5.254726 -0.730122
18.923298 5.254726 0.000000
19.237120 5.254726 0.000000
-6.810190 4.940903 0.000000
-6.496367 4.940903 0.001410
-6.182544 4.940903 0.001452
-5.868721 4.940903 0.001522
-5.554898 4.940903 0.001563
-5.241075 4.940903 0.001509
-4.927252 4.940903 0.001459
-4.613429 4.940903 0.001472
-4.299606 4.940903 0.001519
-3.985783 4.940903 0.001591
-3.671960 4.940903 0.001645
-3.358137 4.940903 0.001596
-3.044314 4.940903 0.001503
-2.730491 4.940903 0.001476
-2.416668 4.940903 0.001514
-2.102845 4.940903 0.001448
-1.789022 4.940903 0.001390
-1.475199 4.940903 0.001355
-1.161376 4.940903 0.001337
-0.847553 4.940903 0.001305
-0.533730 4.940903 0.001262
-0.219907 4.940903 0.001252
0.093916 4.940903 0.001191
0.407739 4.940903 0.001121
0.721562 4.940903 0.001055
1.035385 4.940903 0.001059
1.349208 4.940903 0.001100
1.663032 4.940903 0.001037
1.976854 4.940903 0.000959
2.290677 4.940903 0.000987
2.604500 4.940903 0.001040
2.918324 4.940903 0.000979
3.232146 4.940903 0.000905
3.545969 4.940903 0.000802
3.859793 4.940903 0.000785
4.173615 4.940903 0.000930
4.487438 4.940903 0.000975
4.801261 4.940903 0.000812
5.115085 4.940903 0.000715
5.428907 4.940903 0.000721
5.742730 4.940903 0.000746
6.056554 4.940903 0.000749
6.370377 4.940903 0.000774
6.684199 4.940903 0.001651
6.998022 4.940903 0.002617
7.311846 4.940903 0.004007
7.625669 4.940903 0.007134
7.939491 4.940903 0.015652
8.253315 4.940903 0.034780
8.567138 4.940903 0.071319
8.880960 4.940903 0.123712
9.194784 4.940903 0.191097
9.508606 4.940903 0.274284
9.822430 4.940903 0.373623
10.136253 4.940903 0.471890
10.450075 4.940903 0.572129
10.763899 4.940903 0.676490
11.077723 4.940903 0.781568
11.391544 4.940903 0.878873
11.705368 4.940903 0.986815
12.019190 4.940903 1.064831
12.333014 4.940903 1.122031
12.646837 4.940903 1.180610
12.960659 4.940903 1.245798
13.274483 4.940903 1.307878
13.588306 4.940903 1.360456
13.902128 4.940903 1.384631
14.215952 4.940903 1.394365
14.529776 4.940903 1.382036
14.843597 4.940903 1.349332
15.157421 4.940903 1.328437
15.471243 4.940903 1.313651
15.785067 4.940903 1.328856
16.098890 4.940903 1.248632
16.412712 4.940903 1.167661
16.726536 4.940903 1.093583
17.040359 4.940903 0.964319
17.354181 4.940903 0.670415
17.668005 4.940903 0.326045
17.981829 4.940903 -0.131768
18.295650 4.940903 -0.583317
18.609474 4.940903 -0.763802
18.923298 4.940903 0.000000
19.237120 4.940903 0.000000
-6.810190 4.627079 0.000000
-6.496367 4.627079 0.001429
-6.182544 4.627079 0.001457
-5.868721 4.627079 0.001553
-5.554898 4.627079 0.001634
-5.241075 4.627079 0.001578
-4.927252 4.627079 0.001512
-4.613429 4.627079 0.001497
-4.299606 4.627079 0.001519
-3.985783 4.627079 0.001613
-3.671960 4.627079 0.001686
-3.358137 4.627079 0.001664
-3.044314 4.627079 0.001555
-2.730491 4.627079 0.001502
-2.416668 4.627079 0.001508
-2.102845 4.627079 0.001455
-1.789022 4.627079 0.001370
-1.475199 4.627079 0.001348
-1.161376 4.627079 0.001363
-0.847553 4.627079 0.001353
-0.533730 4.627079 0.001288
-0.219907 4.627079 0.001267
0.093916 4.627079 0.001221
0.407739 4.627079 0.001206
0.721562 4.627079 0.001160
1.035385 4.627079 0.001132
1.349208 4.627079 0.001126
1.663032 4.627079 0.001096
1.976854 4.627079 0.001088
2.290677 4.627079 0.001083
2.604500 4.627079 0.001039
2.918324 4.627079 0.000927
3.232146 4.627079 0.000856
3.545969 4.627079 0.000813
3.859793 4.627079 0.000867
4.173615 4.627079 0.000998
4.487438 4.627079 0.001023
4.801261 4.627079 0.000897
5.115085 4.627079 0.000803
5.428907 4.627079 0.000718
5.742730 4.627079 0.000770
6.056554 4.627079 0.000739
6.370377 4.627079 0.000915
6.684199 4.627079 0.001585
6.998022 4.627079 0.002314
7.311846 4.627079 0.004597
7.625669 4.627079 0.008159
7.939491 4.627079 0.017282
8.253315 4.627079 0.034284
8.567138 4.627079 0.072607
8.880960 4.627079 0.126381
9.194784 4.627079 0.196113
9.508606 4.627079 0.282891
9.822430 4.627079 0.382011
10.136253 4.627079 0.483279
10.450075 4.627079 0.577524
10.763899 4.627079 0.682480
11.077723 4.627079 0.799040
11.391544 4.627079 0.898273
11.705368 4.627079 0.994591
12.019190 4.627079 1.064927
12.333014 4.627079 1.133927
12.646837 4.627079 1.191477
12.960659 4.627079 1.277316
13.274483 4.627079 1.328022
13.588306 4.627079 1.356976
13.902128 4.627079 1.369051
14.215952 4.627079 1.379751
14.529776 4.627079 1.376966
14.843597 4.627079 1.337939
15.157421 4.627079 1.332837
15.471243 4.627079 1.308182
15.785067 4.627079 1.295718
16.098890 4.627079 1.242029
16.412712 4.627079 1.171403
16.726536 4.627079 1.095953
17.040359 4.627079 0.991653
17.354181 4.627079 0.724176
17.668005 4.627079 0.375171
17.981829 4.627079 -0.106291
18.295650 4.627079 -0.499800
18.609474 4.627079 -0.746078
18.923298 4.627079 0.000000
19.237120 4.627079 0.000000
-6.810190 4.313255 0.000000
-6.496367 4.313255 0.001434
-6.182544 4.313255 0.001470
-5.868721 4.313255 0.001578
-5.554898 4.313255 0.001658
-5.241075 4.313255 0.001625
-4.927252 4.313255 0.001551
-4.613429 4.313255 0.001505
-4.299606 4.313255 0.001504
-3.985783 4.313255 0.001618
-3.671960 4.313255 0.001700
-3.358137 4.313255 0.001675
-3.044314 4.313255 0.001565
-2.730491 4.313255 0.001490
-2.416668 4.313255 0.001456
-2.102845 4.313255 0.001415
-1.789022 4.313255 0.001350
-1.475199 4.313255 0.001345
-1.161376 4.313255 0.001410
-0.847553 4.313255 0.001422
-0.533730 4.313255 0.001336
-0.219907 4.313255 0.001281
0.093916 4.313255 0.001231
0.407739 4.313255 0.001236
0.721562 4.313255 0.001237
1.035385 4.313255 0.001179
1.349208 4.313255 0.001120
1.663032 4.313255 0.001157
1.976854 4.313255 0.001206
2.290677 4.313255 0.001169
2.604500 4.313255 0.001035
2.918324 4.313255 0.000884
3.232146 4.313255 0.000806
3.545969 4.313255 0.000814
3.859793 4.313255 0.000889
4.173615 4.313255 0.000972
4.487438 4.313255 0.001004
4.801261 4.313255 0.000974
5.115085 4.313255 0.000916
5.428907 4.313255 0.000762
5.742730 4.313255 0.000791
6.056554 4.313255 0.000690
6.370377 4.313255 0.000960
6.684199 4.313255 0.001390
6.998022 4.313255 0.002545
7.311846 4.313255 0.004846
7.625669 4.313255 0.009495
7.939491 4.313255 0.019537
8.253315 4.313255 0.038934
8.567138 4.313255 0.073563
8.880960 4.313255 0.133648
9.194784 4.313255 0.204842
9.508606 4.313255 0.297574
9.822430 4.313255 0.396751
10.136253 4.313255 0.492950
10.450075 4.313255 0.592568
10.763899 4.313255 0.701041
11.077723 4.313255 0.802501
11.391544 4.313255 0.911178
11.705368 4.313255 1.008684
12.019190 4.313255 1.079014
12.333014 4.313255 1.143011
12.646837 4.313255 1.211248
12.960659 4.313255 1.279879
13.274483 4.313255 1.324696
13.588306 4.313255 1.341425
13.902128 4.313255 1.344125
14.215952 4.313255 1.352334
14.529776 4.313255 1.353307
14.843597 4.313255 1.350137
15.157421 4.313255 1.329461
15.471243 4.313255 1.295102
15.785067 4.313255 1.270732
16.098890 4.313255 1.246084
16.412712 4.313255 1.186741
16.726536 4.313255 1.113447
17.040359 4.313255 1.015076
17.354181 4.313255 0.820772
17.668005 4.313255 0.466141
17.981829 4.313255 -0.010503
18.295650 4.313255 -0.472900
18.609474 4.313255 -0.631316
18.923298 4.313255 0.000000
19.237120 4.313255 0.000000
-6.810190 3.999435 0.000000
-6.496367 3.999435 0.001448
-6.182544 3.999435 0.001476
-5.868721 3.999435 0.001548
-5.554898 3.999435 0.001637
-5.241075 3.999435 0.001638
-4.927252 3.999435 0.001578
-4.613429 3.999435 0.001516
-4.299606 3.999435 0.001501
-3.985783 3.999435 0.001606
-3.671960 3.999435 0.001660
-3.358137 3.999435 0.001622
-3.044314 3.999435 0.001538
-2.730491 3.999435 0.001453
-2.416668 3.999435 0.001401
-2.102845 3.999435 0.001380
-1.789022 3.999435 0.001342
-1.475199 3.999435 0.001362
-1.161376 3.999435 0.001450
-0.847553 3.999435 0.001491
-0.533730 3.999435 0.001378
-0.219907 3.999435 0.001277
0.093916 3.999435 0.001230
0.407739 3.999435 0.001240
0.721562 3.999435 0.001257
1.035385 3.999435 0.001197
1.349208 3.999435 0.001112
1.663032 3.999435 0.001191
1.976854 3.999435 0.001296
2.290677 3.999435 0.001247
2.604500 3.999435 0.001077
2.918324 3.999435 0.000915
3.232146 3.999435 0.000824
3.545969 3.999435 0.000854
3.859793 3.999435 0.000906
4.173615 3.999435 0.000879
4.487438 3.999435 0.000898
4.801261 3.999435 0.001004
5.115085 3.999435 0.000981
5.428907 3.999435 0.000892
5.742730 3.999435 0.000786
6.056554 3.999435 0.000904
6.370377 3.999435 0.001178
6.684199 3.999435 0.001731
6.998022 3.999435 0.002524
7.311846 3.999435 0.004623
7.625669 3.999435 0.009920
7.939491 3.999435 0.021173
8.253315 3.999435 0.042869
8.567138 3.999435 0.077595
8.880960 3.999435 0.134857
9.194784 3.999435 0.213394
9.508606 3.999435 0.303921
9.822430 3.999435 0.404261
10.136253 3.999435 0.506268
10.450075 3.999435 0.604128
10.763899 3.999435 0.709269
11.077723 3.999435 0.808080
11.391544 3.999435 0.916345
11.705368 3.999435 0.996728
12.019190 3.999435 1.077162
12.333014 3.999435 1.145249
12.646837 3.999435 1.218761
12.960659 3.999435 1.284556
13.274483 3.999435 1.338958
13.588306 3.999435 1.335449
13.902128 3.999435 1.347779
14.215952 3.999435 1.339590
14.529776 3.999435 1.323574
14.843597 3.999435 1.327301
15.157421 3.999435 1.310798
15.471243 3.999435 1.279553
15.785067 3.999435 1.241883
16.098890 3.999435 1.210332
16.412712 3.999435 1.160179
16.726536 3.999435 1.081228
17.040359 3.999435 1.017355
17.354181 3.999435 0.834457
17.668005 3.999435 0.494019
17.981829 3.999435 0.077366
18.295650 3.999435 -0.352705
18.609474 3.999435 -0.534089
18.923298 3.999435 0.000000
19.237120 3.999435 0.000000
-6.810190 3.685612 0.000000
-6.496367 3.685612 0.001470
-6.182544 3.685612 0.001478
-5.868721 3.685612 0.001512
-5.554898 3.685612 0.001584
-5.241075 3.685612 0.001628
-4.927252 3.685612 0.001587
-4.613429 3.685612 0.001532
-4.299606 3.685612 0.001517
-3.985783 3.685612 0.001576
-3.671960 3.685612 0.001603
-3.358137 3.685612 0.001557
-3.044314 3.685612 0.001497
-2.730491 3.685612 0.001412
-2.416668 3.685612 0.001382
-2.102845 3.685612 0.001381
-1.789022 3.685612 0.001358
-1.475199 3.685612 0.001355
-1.161376 3.685612 0.001452
-0.847553 3.685612 0.001513
-0.533730 3.685612 0.001382
-0.219907 3.685612 0.001245
0.093916 3.685612 0.001219
0.407739 3.685612 0.001212
0.721562 3.685612 0.001233
1.035385 3.685612 0.001173
1.349208 3.685612 0.001113
1.663032 3.685612 0.001219
1.976854 3.685612 0.001353
2.290677 3.685612 0.001300
2.604500 3.685612 0.001125
2.918324 3.685612 0.000957
3.232146 3.685612 0.000892
3.545969 3.685612 0.000851
3.859793 3.685612 0.000860
4.173615 3.685612 0.000802
4.487438 3.685612 0.000827
4.801261 3.685612 0.000996
5.115085 3.685612 0.001089
5.428907 3.685612 0.000981
5.742730 3.685612 0.000872
6.056554 3.685612 0.000896
6.370377 3.685612 0.001454
6.684199 3.685612 0.002054
6.998022 3.685612 0.003157
7.311846 3.685612 0.004769
7.625669 3.685612 0.010817
7.939491 3.685612 0.021650
8.253315 3.685612 0.042299
8.567138 3.685612 0.079520
8.880960 3.685612 0.139135
9.194784 3.685612 0.218704
9.508606 3.685612 0.312349
9.822430 3.685612 0.416280
10.136253 3.685612 0.512441
10.450075 3.685612 0.611589
10.763899 3.685612 0.706491
11.077723 3.685612 0.812255
11.391544 3.685612 0.909259
11.705368 3.685612 0.997340
12.019190 3.685612 1.067076
12.333014 3.685612 1.145408
12.646837 3.685612 1.232715
12.960659 3.685612 1.292777
13.274483 3.685612 1.328137
13.588306 3.685612 1.332334
13.902128 3.685612 1.321383
14.215952 3.685612 1.319929
14.529776 3.685612 1.300156
14.843597 3.685612 1.288068
15.157421 3.685612 1.271777
15.471243 3.685612 1.262663
15.785067 3.685612 1.237300
16.098890 3.685612 1.206429
16.412712 3.685612 1.147984
16.726536 3.685612 1.085146
17.040359 3.685612 1.002132
17.354181 3.685612 0.866130
17.668005 3.685612 0.512655
17.981829 3.685612 0.230469
18.295650 3.685612 -0.148816
18.609474 3.685612 -0.505231
18.923298 3.685612 0.000000
19.237120 3.685612 0.000000
-6.810190 3.371788 0.000000
-6.496367 3.371788 0.001509
-6.182544 3.371788 0.001520
-5.868721 3.371788 0.001493
-5.554898 3.371788 0.001560
-5.241075 3.371788 0.001597
-4.927252 3.371788 0.001577
-4.613429 3.371788 0.001566
-4.299606 3.371788 0.001551
-3.985783 3.371788 0.001563
-3.671960 3.371788 0.001558
-3.358137 3.371788 0.001523
-3.044314 3.371788 0.001495
-2.730491 3.371788 0.001410
-2.416668 3.371788 0.001410
-2.102845 3.371788 0.001423
-1.789022 3.371788 0.001400
-1.475199 3.371788 0.001370
-1.161376 3.371788 0.001415
-0.847553 3.371788 0.001495
-0.533730 3.371788 0.001353
-0.219907 3.371788 0.001207
0.093916 3.371788 0.001197
0.407739 3.371788 0.001177
0.721562 3.371788 0.001176
1.035385 3.371788 0.001129
1.349208 3.371788 0.001096
1.663032 3.371788 0.001219
1.976854 3.371788 0.001361
2.290677 3.371788 0.001298
2.604500 3.371788 0.001165
2.918324 3.371788 0.001061
3.232146 3.371788 0.000982
3.545969 3.371788 0.000861
3.859793 3.371788 0.000773
4.173615 3.371788 0.000726
4.487438 3.371788 0.000790
4.801261 3.371788 0.000934
5.115085 3.371788 0.001066
5.428907 3.371788 0.001000
5.742730 3.371788 0.000853
6.056554 3.371788 0.000864
6.370377 3.371788 0.001457
6.684199 3.371788 0.002187
6.998022 3.371788 0.003839
7.311846 3.371788 0.005839
7.625669 3.371788 0.010475
7.939491 3.371788 0.022208
8.253315 3.371788 0.044637
8.567138 3.371788 0.081548
8.880960 3.371788 0.140743
9.194784 3.371788 0.225553
9.508606 3.371788 0.318375
9.822430 3.371788 0.418338
10.136253 3.371788 0.522328
10.450075 3.371788 0.612870
10.763899 3.371788 0.717528
11.077723 3.371788 0.812393
11.391544 3.371788 0.910764
11.705368 3.371788 0.994782
12.019190 3.371788 1.068289
12.333014 3.371788 1.148610
12.646837 3.371788 1.212644
12.960659 3.371788 1.281434
13.274483 3.371788 1.322529
13.588306 3.371788 1.341608
13.902128 3.371788 1.315526
14.215952 3.371788 1.309974
14.529776 3.371788 1.288586
14.843597 3.371788 1.244718
15.157421 3.371788 1.243446
15.471243 3.371788 1.236583
15.785067 3.371788 1.238052
16.098890 3.371788 1.215273
16.412712 3.371788 1.155962
16.726536 3.371788 1.067563
17.040359 3.371788 1.047660
17.354181 3.371788 0.890337
17.668005 3.371788 0.646890
17.981829 3.371788 0.502702
18.295650 3.371788 1.037331
18.609474 3.371788 -0.588558
18.923298 3.371788 0.000000
19.237120 3.371788 0.000000
-6.810190 3.057964 0.000000
-6.496367 3.057964 0.001555
-6.182544 3.057964 0.001540
-5.868721 3.057964 0.001516
-5.554898 3.057964 0.001536
-5.241075 3.057964 0.001546
-4.927252 3.057964 0.001562
-4.613429 3.057964 0.001596
-4.299606 3.057964 0.001596
-3.985783 3.057964 0.001563
-3.671960 3.057964 0.001523
-3.358137 3.057964 0.001501
-3.044314 3.057964 0.001489
-2.730491 3.057964 0.001456
-2.416668 3.057964 0.001483
-2.102845 3.057964 0.001475
-1.789022 3.057964 0.001442
-1.475199 3.057964 0.001366
-1.161376 3.057964 0.001360
-0.847553 3.057964 0.001431
-0.533730 3.057964 0.001318
-0.219907 3.057964 0.001206
0.093916 3.057964 0.001170
0.407739 3.057964 0.001121
0.721562 3.057964 0.001113
1.035385 3.057964 0.001066
1.349208 3.057964 0.001100
1.663032 3.057964 0.001211
1.976854 3.057964 0.001347
2.290677 3.057964 0.001259
2.604500 3.057964 0.001167
2.918324 3.057964 0.001155
3.232146 3.057964 0.001069
3.545969 3.057964 0.000861
3.859793 3.057964 0.000678
4.173615 3.057964 0.000698
4.487438 3.057964 0.000797
4.801261 3.057964 0.000940
5.115085 3.057964 0.001039
5.428907 3.057964 0.001104
5.742730 3.057964 0.001099
6.056554 3.057964 0.001157
6.370377 3.057964 0.001559
6.684199 3.057964 0.002102
6.998022 3.057964 0.003453
7.311846 3.057964 0.006141
7.625669 3.057964 0.011895
7.939491 3.057964 0.022659
8.253315 3.057964 0.045382
8.567138 3.057964 0.089039
8.880960 3.057964 0.150934
9.194784 3.057964 0.228353
9.508606 3.057964 0.326819
9.822430 3.057964 0.431858
10.136253 3.057964 0.529998
10.450075 3.057964 0.623273
10.763899 3.057964 0.722459
11.077723 3.057964 0.825899
11.391544 3.057964 0.925162
11.705368 3.057964 1.008509
12.019190 3.057964 1.070055
12.333014 3.057964 1.138691
12.646837 3.057964 1.205116
12.960659 3.057964 1.287457
13.274483 3.057964 1.338655
13.588306 3.057964 1.329435
13.902128 3.057964 1.326780
14.215952 3.057964 1.300101
14.529776 3.057964 1.260726
14.843597 3.057964 1.231278
15.157421 3.057964 1.217458
15.471243 3.057964 1.208151
15.785067 3.057964 1.227382
16.098890 3.057964 1.178993
16.412712 3.057964 1.129796
16.726536 3.057964 1.119238
17.040359 3.057964 1.040646
17.354181 3.057964 0.965212
17.668005 3.057964 0.832577
17.981829 3.057964 1.082373
18.295650 3.057964 0.000000
18.609474 3.057964 0.000000
18.923298 3.057964 0.000000
19.237120 3.057964 0.000000
-6.810190 2.744141 0.000000
-6.496367 2.744141 0.001615
-6.182544 2.744141 0.001574
-5.868721 2.744141 0.001542
-5.554898 2.744141 0.001530
-5.241075 2.744141 0.001538
-4.927252 2.744141 0.001579
-4.613429 2.744141 0.001626
-4.299606 2.744141 0.001627
-3.985783 2.744141 0.001572
-3.671960 2.744141 0.001517
-3.358137 2.744141 0.001477
-3.044314 2.744141 0.001478
-2.730491 2.744141 0.001515
-2.416668 2.744141 0.001552
-2.102845 2.744141 0.001529
-1.789022 2.744141 0.001459
-1.475199 2.744141 0.001349
-1.161376 2.744141 0.001312
-0.847553 2.744141 0.001358
-0.533730 2.744141 0.001291
-0.219907 2.744141 0.001233
0.093916 2.744141 0.001165
0.407739 2.744141 0.001091
0.721562 2.744141 0.001055
1.035385 2.744141 0.001056
1.349208 2.744141 0.001124
1.663032 2.744141 0.001191
1.976854 2.744141 0.001307
2.290677 2.744141 0.001231
2.604500 2.744141 0.001158
2.918324 2.744141 0.001202
3.232146 2.744141 0.001109
3.545969 2.744141 0.000857
3.859793 2.744141 0.000678
4.173615 2.744141 0.000720
4.487438 2.744141 0.000857
4.801261 2.744141 0.000969
5.115085 2.744141 0.001069
5.428907 2.744141 0.001097
5.742730 2.744141 0.001186
6.056554 2.744141 0.001347
6.370377 2.744141 0.001379
6.684199 2.744141 0.001714
6.998022 2.744141 0.003370
7.311846 2.744141 0.006581
7.625669 2.744141 0.012632
7.939491 2.744141 0.024046
8.253315 2.744141 0.048349
8.567138 2.744141 0.095305
8.880960 2.744141 0.159819
9.194784 2.744141 0.237136
9.508606 2.744141 0.333532
9.822430 2.744141 0.438301
10.136253 2.744141 0.528749
10.450075 2.744141 0.624688
10.763899 2.744141 0.729124
11.077723 2.744141 0.837725
11.391544 2.744141 0.942710
11.705368 2.744141 1.027890
12.019190 2.744141 1.074985
12.333014 2.744141 1.134882
12.646837 2.744141 1.205473
12.960659 2.744141 1.271914
13.274483 2.744141 1.325684
13.588306 2.744141 1.331588
13.902128 2.744141 1.314214
14.215952 2.744141 1.286856
14.529776 2.744141 1.249951
14.843597 2.744141 1.217461
15.157421 2.744141 1.207600
15.471243 2.744141 1.181695
15.785067 2.744141 1.198938
16.098890 2.744141 1.192039
16.412712 2.744141 1.161994
16.726536 2.744141 1.117299
17.040359 2.744141 1.126896
17.354181 2.744141 1.101076
17.668005 2.744141 1.083392
17.981829 2.744141 0.000000
18.295650 2.744141 0.000000
18.609474 2.744141 0.000000
18.923298 2.744141 0.000000
19.237120 2.744141 0.000000
-6.810190 2.430317 0.000000
-6.496367 2.430317 0.001706
-6.182544 2.430317 0.001628
-5.868721 2.430317 0.001578
-5.554898 2.430317 0.001546
-5.241075 2.430317 0.001556
-4.927252 2.430317 0.001634
-4.613429 2.430317 0.001673
-4.299606 2.430317 0.001650
-3.985783 2.430317 0.001556
-3.671960 2.430317 0.001515
-3.358137 2.430317 0.001480
-3.044314 2.430317 0.001504
-2.730491 2.430317 0.001569
-2.416668 2.430317 0.001586
-2.102845 2.430317 0.001543
-1.789022 2.430317 0.001469
-1.475199 2.430317 0.001371
-1.161376 2.430317 0.001296
-0.847553 2.430317 0.001323
-0.533730 2.430317 0.001291
-0.219907 2.430317 0.001269
0.093916 2.430317 0.001194
0.407739 2.430317 0.001103
0.721562 2.430317 0.001066
1.035385 2.430317 0.001108
1.349208 2.430317 0.001164
1.663032 2.430317 0.001166
1.976854 2.430317 0.001259
2.290677 2.430317 0.001200
2.604500 2.430317 0.001143
2.918324 2.430317 0.001184
3.232146 2.430317 0.001078
3.545969 2.430317 0.000884
3.859793 2.430317 0.000751
4.173615 2.430317 0.000787
4.487438 2.430317 0.000928
4.801261 2.430317 0.001006
5.115085 2.430317 0.001057
5.428907 2.430317 0.001109
5.742730 2.430317 0.001249
6.056554 2.430317 0.001426
6.370377 2.430317 0.001453
6.684199 2.430317 0.001592
6.998022 2.430317 0.002721
7.311846 2.430317 0.006339
7.625669 2.430317 0.013269
7.939491 2.430317 0.025373
8.253315 2.430317 0.049004
8.567138 2.430317 0.097706
8.880960 2.430317 0.168178
9.194784 2.430317 0.247383
9.508606 2.430317 0.338566
9.822430 2.430317 0.442526
10.136253 2.430317 0.531941
10.450075 2.430317 0.627536
10.763899 2.430317 0.739740
11.077723 2.430317 0.846091
11.391544 2.430317 0.953620
11.705368 2.430317 1.041465
12.019190 2.430317 1.080607
12.333014 2.430317 1.125844
12.646837 2.430317 1.197292
12.960659 2.430317 1.266986
13.274483 2.430317 1.322549
13.588306 2.430317 1.338568
13.902128 2.430317 1.316235
14.215952 2.430317 1.278203
14.529776 2.430317 1.274877
14.843597 2.430317 1.231646
15.157421 2.430317 1.215791
15.471243 2.430317 1.156475
15.785067 2.430317 1.157560
16.098890 2.430317 1.178886
16.412712 2.430317 1.205869
16.726536 2.430317 1.179679
17.040359 2.430317 1.188291
17.354181 2.430317 1.389369
17.668005 2.430317 0.000000
17.981829 2.430317 0.000000
18.295650 2.430317 0.000000
18.609474 2.430317 0.000000
18.923298 2.430317 0.000000
19.237120 2.430317 0.000000
-6.810190 2.116497 0.000000
-6.496367 2.116497 0.001763
-6.182544 2.116497 0.001694
-5.868721 2.116497 0.001633
-5.554898 2.116497 0.001584
-5.241075 2.116497 0.001595
-4.927252 2.116497 0.001667
-4.613429 2.116497 0.001693
-4.299606 2.116497 0.001640
-3.985783 2.116497 0.001572
-3.671960 2.116497 0.001551
-3.358137 2.116497 0.001519
-3.044314 2.116497 0.001552
-2.730491 2.116497 0.001595
-2.416668 2.116497 0.001594
-2.102845 2.116497 0.001536
-1.789022 2.116497 0.001486
-1.475199 2.116497 0.001416
-1.161376 2.116497 0.001321
-0.847553 2.116497 0.001332
-0.533730 2.116497 0.001320
-0.219907 2.116497 0.001308
0.093916 2.116497 0.001233
0.407739 2.116497 0.001176
0.721562 2.116497 0.001147
1.035385 2.116497 0.001188
1.349208 2.116497 0.001225
1.663032 2.116497 0.001152
1.976854 2.116497 0.001201
2.290677 2.116497 0.001186
2.604500 2.116497 0.001157
2.918324 2.116497 0.001147
3.232146 2.116497 0.001013
3.545969 2.116497 0.000916
3.859793 2.116497 0.000883
4.173615 2.116497 0.000871
4.487438 2.116497 0.000958
4.801261 2.116497 0.001004
5.115085 2.116497 0.001060
5.428907 2.116497 0.001142
5.742730 2.116497 0.001259
6.056554 2.116497 0.001525
6.370377 2.116497 0.001699
6.684199 2.116497 0.001815
6.998022 2.116497 0.002643
7.311846 2.116497 0.006138
7.625669 2.116497 0.012066
7.939491 2.116497 0.025896
8.253315 2.116497 0.050420
8.567138 2.116497 0.098806
8.880960 2.116497 0.165783
9.194784 2.116497 0.254224
9.508606 2.116497 0.351606
9.822430 2.116497 0.448073
10.136253 2.116497 0.535936
10.450075 2.116497 0.636412
10.763899 2.116497 0.743258
11.077723 2.116497 0.843406
11.391544 2.116497 0.963189
11.705368 2.116497 1.035675
12.019190 2.116497 1.082627
12.333014 2.116497 1.137186
12.646837 2.116497 1.199033
12.960659 2.116497 1.271588
13.274483 2.116497 1.325118
13.588306 2.116497 1.333495
13.902128 2.116497 1.308102
14.215952 2.116497 1.279260
14.529776 2.116497 1.260264
14.843597 2.116497 1.230727
15.157421 2.116497 1.195536
15.471243 2.116497 1.125667
15.785067 2.116497 1.137129
16.098890 2.116497 1.160089
16.412712 2.116497 1.243089
16.726536 2.116497 1.303261
17.040359 2.116497 1.359325
17.354181 2.116497 2.179546
17.668005 2.116497 0.000000
17.981829 2.116497 0.000000
18.295650 2.116497 0.000000
18.609474 2.116497 0.000000
18.923298 2.116497 0.000000
19.237120 2.116497 0.000000
-6.810190 1.802673 0.000000
-6.496367 1.802673 0.001773
-6.182544 1.802673 0.001724
-5.868721 1.802673 0.001683
-5.554898 1.802673 0.001644
-5.241075 1.802673 0.001633
-4.927252 1.802673 0.001683
-4.613429 1.802673 0.001716
-4.299606 1.802673 0.001666
-3.985783 1.802673 0.001645
-3.671960 1.802673 0.001618
-3.358137 1.802673 0.001591
-3.044314 1.802673 0.001613
-2.730491 1.802673 0.001643
-2.416668 1.802673 0.001618
-2.102845 1.802673 0.001551
-1.789022 1.802673 0.001519
-1.475199 1.802673 0.001493
-1.161376 1.802673 0.001404
-0.847553 1.802673 0.001381
-0.533730 1.802673 0.001368
-0.219907 1.802673 0.001343
0.093916 1.802673 0.001283
0.407739 1.802673 0.001274
0.721562 1.802673 0.001241
1.035385 1.802673 0.001241
1.349208 1.802673 0.001250
1.663032 1.802673 0.001154
1.976854 1.802673 0.001146
2.290677 1.802673 0.001168
2.604500 1.802673 0.001198
2.918324 1.802673 0.001131
3.232146 1.802673 0.000977
3.545969 1.802673 0.000959
3.859793 1.802673 0.001019
4.173615 1.802673 0.001005
4.487438 1.802673 0.001002
4.801261 1.802673 0.001024
5.115085 1.802673 0.001062
5.428907 1.802673 0.001131
5.742730 1.802673 0.001227
6.056554 1.802673 0.001558
6.370377 1.802673 0.001941
6.684199 1.802673 0.002339
6.998022 1.802673 0.002931
7.311846 1.802673 0.005422
7.625669 1.802673 0.011952
7.939491 1.802673 0.026759
8.253315 1.802673 0.053941
8.567138 1.802673 0.100879
8.880960 1.802673 0.170021
9.194784 1.802673 0.262409
9.508606 1.802673 0.354648
9.822430 1.802673 0.449291
10.136253 1.802673 0.548569
10.450075 1.802673 0.651009
10.763899 1.802673 0.753408
11.077723 1.802673 0.861011
11.391544 1.802673 0.958000
11.705368 1.802673 1.024980
12.019190 1.802673 1.082861
12.333014 1.802673 1.120248
12.646837 1.802673 1.208099
12.960659 1.802673 1.280538
13.274483 1.802673 1.322350
13.588306 1.802673 1.321399
13.902128 1.802673 1.288420
14.215952 1.802673 1.277222
14.529776 1.802673 1.247998
14.843597 1.802673 1.239546
15.157421 1.802673 1.172528
15.471243 1.802673 1.100821
15.785067 1.802673 1.117888
16.098890 1.802673 1.143925
16.412712 1.802673 1.223167
16.726536 1.802673 1.358179
17.040359 1.802673 1.433721
17.354181 1.802673 0.000000
17.668005 1.802673 0.000000
17.981829 1.802673 0.000000
18.295650 1.802673 0.000000
18.609474 1.802673 0.000000
18.923298 1.802673 0.000000
19.237120 1.802673 0.000000
-6.810190 1.488850 0.000000
-6.496367 1.488850 0.001752
-6.182544 1.488850 0.001755
-5.868721 1.488850 0.001768
-5.554898 1.488850 0.001720
-5.241075 1.488850 0.001663
-4.927252 1.488850 0.001683
-4.613429 1.488850 0.001696
-4.299606 1.488850 0.001712
-3.985783 1.488850 0.001735
-3.671960 1.488850 0.001696
-3.358137 1.488850 0.001668
-3.044314 1.488850 0.001670
-2.730491 1.488850 0.001685
-2.416668 1.488850 0.001618
-2.102845 1.488850 0.001566
-1.789022 1.488850 0.001588
-1.475199 1.488850 0.001559
-1.161376 1.488850 0.001479
-0.847553 1.488850 0.001447
-0.533730 1.488850 0.001422
-0.219907 1.488850 0.001373
0.093916 1.488850 0.001350
0.407739 1.488850 0.001380
0.721562 1.488850 0.001322
1.035385 1.488850 0.001288
1.349208 1.488850 0.001263
1.663032 1.488850 0.001173
1.976854 1.488850 0.001121
2.290677 1.488850 0.001156
2.604500 1.488850 0.001255
2.918324 1.488850 0.001147
3.232146 1.488850 0.001002
3.545969 1.488850 0.001037
3.859793 1.488850 0.001166
4.173615 1.488850 0.001131
4.487438 1.488850 0.001053
4.801261 1.488850 0.001075
5.115085 1.488850 0.001092
5.428907 1.488850 0.001161
5.742730 1.488850 0.001301
6.056554 1.488850 0.001471
6.370377 1.488850 0.001808
6.684199 1.488850 0.002181
6.998022 1.488850 0.003217
7.311846 1.488850 0.005946
7.625669 1.488850 0.012839
7.939491 1.488850 0.028842
8.253315 1.488850 0.061121
8.567138 1.488850 0.110462
8.880960 1.488850 0.185226
9.194784 1.488850 0.270710
9.508606 1.488850 0.365441
9.822430 1.488850 0.457772
10.136253 1.488850 0.560069
10.450075 1.488850 0.653648
10.763899 1.488850 0.762379
11.077723 1.488850 0.864275
11.391544 1.488850 0.962258
11.705368 1.488850 1.024303
12.019190 1.488850 1.071390
12.333014 1.488850 1.129067
12.646837 1.488850 1.196195
12.960659 1.488850 1.277359
13.274483 1.488850 1.318860
13.588306 1.488850 1.305689
13.902128 1.488850 1.259293
14.215952 1.488850 1.240863
14.529776 1.488850 1.239252
14.843597 1.488850 1.234929
15.157421 1.488850 1.153866
15.471243 1.488850 1.076412
15.785067 1.488850 1.083536
16.098890 1.488850 1.106395
16.412712 1.488850 1.221909
16.726536 1.488850 1.353262
17.040359 1.488850 1.482513
17.354181 1.488850 0.000000
17.668005 1.488850 0.000000
17.981829 1.488850 0.000000
18.295650 1.488850 0.000000
18.609474 1.488850 0.000000
18.923298 1.488850 0.000000
19.237120 1.488850 0.000000
-6.810190 1.175026 0.000000
-6.496367 1.175026 0.001690
-6.182544 1.175026 0.001761
-5.868721 1.175026 0.001841
-5.554898 1.175026 0.001780
-5.241075 1.175026 0.001695
-4.927252 1.175026 0.001684
-4.613429 1.175026 0.001686
-4.299606 1.175026 0.001752
-3.985783 1.175026 0.001801
-3.671960 1.175026 0.001761
-3.358137 1.175026 0.001718
-3.044314 1.175026 0.001693
-2.730491 1.175026 0.001677
-2.416668 1.175026 0.001599
-2.102845 1.175026 0.001562
-1.789022 1.175026 0.001611
-1.475199 1.175026 0.001580
-1.161376 1.175026 0.001540
-0.847553 1.175026 0.001507
-0.533730 1.175026 0.001470
-0.219907 1.175026 0.001416
0.093916 1.175026 0.001427
0.407739 1.175026 0.001482
0.721562 1.175026 0.001417
1.035385 1.175026 0.001371
1.349208 1.175026 0.001295
1.663032 1.175026 0.001204
1.976854 1.175026 0.001142
2.290677 1.175026 0.001173
2.604500 1.175026 0.001279
2.918324 1.175026 0.001180
3.232146 1.175026 0.001110
3.545969 1.175026 0.001223
3.859793 1.175026 0.001370
4.173615 1.175026 0.001265
4.487438 1.175026 0.001108
4.801261 1.175026 0.001089
5.115085 1.175026 0.001118
5.428907 1.175026 0.001205
5.742730 1.175026 0.001260
6.056554 1.175026 0.001444
6.370377 1.175026 0.001887
6.684199 1.175026 0.002374
6.998022 1.175026 0.003836
7.311846 1.175026 0.006906
7.625669 1.175026 0.014264
7.939491 1.175026 0.030845
8.253315 1.175026 0.063852
8.567138 1.175026 0.119117
8.880960 1.175026 0.193514
9.194784 1.175026 0.282644
9.508606 1.175026 0.375029
9.822430 1.175026 0.469472
10.136253 1.175026 0.574583
10.450075 1.175026 0.667991
10.763899 1.175026 0.756752
11.077723 1.175026 0.862505
11.391544 1.175026 0.966892
11.705368 1.175026 1.027406
12.019190 1.175026 1.073701
12.333014 1.175026 1.137365
12.646837 1.175026 1.188191
12.960659 1.175026 1.275234
13.274483 1.175026 1.314235
13.588306 1.175026 1.288529
13.902128 1.175026 1.242988
14.215952 1.175026 1.246720
14.529776 1.175026 1.253558
14.843597 1.175026 1.210160
15.157421 1.175026 1.154929
15.471243 1.175026 1.076699
15.785067 1.175026 1.078219
16.098890 1.175026 1.094016
16.412712 1.175026 1.163870
16.726536 1.175026 1.286733
17.040359 1.175026 1.542294
17.354181 1.175026 0.000000
17.668005 1.175026 0.000000
17.981829 1.175026 0.000000
18.295650 1.175026 0.000000
18.609474 1.175026 0.000000
18.923298 1.175026 0.000000
19.237120 1.175026 0.000000
-6.810190 0.861202 0.000000
-6.496367 0.861202 0.001641
-6.182544 0.861202 0.001776
-5.868721 0.861202 0.001884
-5.554898 0.861202 0.001821
-5.241075 0.861202 0.001737
-4.927252 0.861202 0.001702
-4.613429 0.861202 0.001694
-4.299606 0.861202 0.001772
-3.985783 0.861202 0.001827
-3.671960 0.861202 0.001786
-3.358137 0.861202 0.001716
-3.044314 0.861202 0.001678
-2.730491 0.861202 0.001639
-2.416668 0.861202 0.001595
-2.102845 0.861202 0.001586
-1.789022 0.861202 0.001618
-1.475199 0.861202 0.001588
-1.161376 0.861202 0.001577
-0.847553 0.861202 0.001531
-0.533730 0.861202 0.001496
-0.219907 0.861202 0.001469
0.093916 0.861202 0.001518
0.407739 0.861202 0.001536
0.721562 0.861202 0.001490
1.035385 0.861202 0.001427
1.349208 0.861202 0.001353
1.663032 0.861202 0.001280
1.976854 0.861202 0.001207
2.290677 0.861202 0.001183
2.604500 0.861202 0.001249
2.918324 0.861202 0.001227
3.232146 0.861202 0.001253
3.545969 0.861202 0.001394
3.859793 0.861202 0.001481
4.173615 0.861202 0.001341
4.487438 0.861202 0.001200
4.801261 0.861202 0.001136
5.115085 0.861202 0.001134
5.428907 0.861202 0.001255
5.742730 0.861202 0.001288
6.056554 0.861202 0.001420
6.370377 0.861202 0.001846
6.684199 0.861202 0.002379
6.998022 0.861202 0.004204
7.311846 0.861202 0.008107
7.625669 0.861202 0.015291
7.939491 0.861202 0.033821
8.253315 0.861202 0.065834
8.567138 0.861202 0.125261
8.880960 0.861202 0.204635
9.194784 0.861202 0.289560
9.508606 0.861202 0.383648
9.822430 0.861202 0.479535
10.136253 0.861202 0.582475
10.450075 0.861202 0.674194
10.763899 0.861202 0.764097
11.077723 0.861202 0.859332
11.391544 0.861202 0.962476
11.705368 0.861202 1.031473
12.019190 0.861202 1.076432
12.333014 0.861202 1.144298
12.646837 0.861202 1.191376
12.960659 0.861202 1.270091
13.274483 0.861202 1.308390
13.588306 0.861202 1.275734
13.902128 0.861202 1.236839
14.215952 0.861202 1.238187
14.529776 0.861202 1.238522
14.843597 0.861202 1.216617
15.157421 0.861202 1.168998
15.471243 0.861202 1.084520
15.785067 0.861202 1.062324
16.098890 0.861202 1.009911
16.412712 0.861202 1.061744
16.726536 0.861202 1.176930
17.040359 0.861202 0.590397
17.354181 0.861202 0.000000
17.668005 0.861202 0.000000
17.981829 0.861202 0.000000
18.295650 0.861202 0.000000
18.609474 0.861202 0.000000
18.923298 0.861202 0.000000
19.237120 0.861202 0.000000
-6.810190 0.547379 0.000000
-6.496367 0.547379 0.001626
-6.182544 0.547379 0.001813
-5.868721 0.547379 0.001920
-5.554898 0.547379 0.001857
-5.241075 0.547379 0.001785
-4.927252 0.547379 0.001735
-4.613429 0.547379 0.001713
-4.299606 0.547379 0.001767
-3.985783 0.547379 0.001830
-3.671960 0.547379 0.001806
-3.358137 0.547379 0.001731
-3.044314 0.547379 0.001646
-2.730491 0.547379 0.001626
-2.416668 0.547379 0.001628
-2.102845 0.547379 0.001629
-1.789022 0.547379 0.001637
-1.475199 0.547379 0.001606
-1.161376 0.547379 0.001592
-0.847553 0.547379 0.001546
-0.533730 0.547379 0.001543
-0.219907 0.547379 0.001545
0.093916 0.547379 0.001585
0.407739 0.547379 0.001543
0.721562 0.547379 0.001511
1.035385 0.547379 0.001490
1.349208 0.547379 0.001429
1.663032 0.547379 0.001363
1.976854 0.547379 0.001289
2.290677 0.547379 0.001194
2.604500 0.547379 0.001215
2.918324 0.547379 0.001259
3.232146 0.547379 0.001339
3.545969 0.547379 0.001506
3.859793 0.547379 0.001509
4.173615 0.547379 0.001362
4.487438 0.547379 0.001260
4.801261 0.547379 0.001217
5.115085 0.547379 0.001223
5.428907 0.547379 0.001295
5.742730 0.547379 0.001436
6.056554 0.547379 0.001622
6.370377 0.547379 0.002287
6.684199 0.547379 0.002869
6.998022 0.547379 0.004276
7.311846 0.547379 0.008296
7.625669 0.547379 0.016058
7.939491 0.547379 0.034051
8.253315 0.547379 0.067703
8.567138 0.547379 0.129147
8.880960 0.547379 0.210009
9.194784 0.547379 0.299723
9.508606 0.547379 0.399501
9.822430 0.547379 0.491725
10.136253 0.547379 0.588028
10.450075 0.547379 0.678550
10.763899 0.547379 0.777166
11.077723 0.547379 0.865751
11.391544 0.547379 0.955399
11.705368 0.547379 1.024409
12.019190 0.547379 1.077336
12.333014 0.547379 1.142113
12.646837 0.547379 1.188612
12.960659 0.547379 1.255468
13.274483 0.547379 1.266802
13.588306 0.547379 1.248310
13.902128 0.547379 1.240102
14.215952 0.547379 1.232207
14.529776 0.547379 1.223388
14.843597 0.547379 1.212202
15.157421 0.547379 1.158930
15.471243 0.547379 1.081192
15.785067 0.547379 0.988668
16.098890 0.547379 0.937461
16.412712 0.547379 0.933241
16.726536 0.547379 1.155160
17.040359 0.547379 0.000000
17.354181 0.547379 0.000000
17.668005 0.547379 0.000000
17.981829 0.547379 0.000000
18.295650 0.547379 0.000000
18.609474 0.547379 0.000000
18.923298 0.547379 0.000000
19.237120 0.547379 0.000000
-6.810190 0.233559 0.000000
-6.496367 0.233559 0.001666
-6.182544 0.233559 0.001859
-5.868721 0.233559 0.001960
-5.554898 0.233559 0.001910
-5.241075 0.233559 0.001850
-4.927252 0.233559 0.001779
-4.613429 0.233559 0.001752
-4.299606 0.233559 0.001780
-3.985783 0.233559 0.001845
-3.671960 0.233559 0.001838
-3.358137 0.233559 0.001773
-3.044314 0.233559 0.001680
-2.730491 0.233559 0.001640
-2.416668 0.233559 0.001669
-2.102845 0.233559 0.001668
-1.789022 0.233559 0.001657
-1.475199 0.233559 0.001627
-1.161376 0.233559 0.001605
-0.847553 0.233559 0.001569
-0.533730 0.233559 0.001601
-0.219907 0.233559 0.001594
0.093916 0.233559 0.001595
0.407739 0.233559 0.001536
0.721562 0.233559 0.001536
1.035385 0.233559 0.001522
1.349208 0.233559 0.001500
1.663032 0.233559 0.001438
1.976854 0.233559 0.001356
2.290677 0.233559 0.001237
2.604500 0.233559 0.001225
2.918324 0.233559 0.001276
3.232146 0.233559 0.001377
3.545969 0.233559 0.001507
3.859793 0.233559 0.001436
4.173615 0.233559 0.001285
4.487438 0.233559 0.001307
4.801261 0.233559 0.001296
5.115085 0.233559 0.001267
5.428907 0.233559 0.001329
5.742730 0.233559 0.001545
6.056554 0.233559 0.001938
6.370377 0.233559 0.002553
6.684199 0.233559 0.003180
6.998022 0.233559 0.005110
7.311846 0.233559 0.009181
7.625669 0.233559 0.017875
7.939491 0.233559 0.037155
8.253315 0.233559 0.070566
8.567138 0.233559 0.132174
8.880960 0.233559 0.217132
9.194784 0.233559 0.314186
9.508606 0.233559 0.410655
9.822430 0.233559 0.507420
10.136253 0.233559 0.600798
10.450075 0.233559 0.690571
10.763899 0.233559 0.783712
11.077723 0.233559 0.868275
11.391544 0.233559 0.952595
11.705368 0.233559 1.029770
12.019190 0.233559 1.079003
12.333014 0.233559 1.144552
12.646837 0.233559 1.191870
12.960659 0.233559 1.245456
13.274483 0.233559 1.264466
13.588306 0.233559 1.267043
13.902128 0.233559 1.234313
14.215952 0.233559 1.229734
14.529776 0.233559 1.208903
14.843597 0.233559 1.195650
15.157421 0.233559 1.123571
15.471243 0.233559 1.041892
15.785067 0.233559 0.935657
16.098890 0.233559 0.849632
16.412712 0.233559 0.853097
16.726536 0.233559 1.309638
17.040359 0.233559 0.000000
17.354181 0.233559 0.000000
17.668005 0.233559 0.000000
17.981829 0.233559 0.000000
18.295650 0.233559 0.000000
18.609474 0.233559 0.000000
18.923298 0.233559 0.000000
19.237120 0.233559 0.000000
-6.810190 -0.080265 0.000000
-6.496367 -0.080265 0.001753
-6.182544 -0.080265 0.001904
-5.868721 -0.080265 0.001982
-5.554898 -0.080265 0.001960
-5.241075 -0.080265 0.001926
-4.927252 -0.080265 0.001864
-4.613429 -0.080265 0.001820
-4.299606 -0.080265 0.001846
-3.985783 -0.080265 0.001892
-3.671960 -0.080265 0.001876
-3.358137 -0.080265 0.001818
-3.044314 -0.080265 0.001750
-2.730491 -0.080265 0.001686
-2.416668 -0.080265 0.001708
-2.102845 -0.080265 0.001688
-1.789022 -0.080265 0.001690
-1.475199 -0.080265 0.001674
-1.161376 -0.080265 0.001631
-0.847553 -0.080265 0.001587
-0.533730 -0.080265 0.001603
-0.219907 -0.080265 0.001583
0.093916 -0.080265 0.001556
0.407739 -0.080265 0.001521
0.721562 -0.080265 0.001530
1.035385 -0.080265 0.001527
1.349208 -0.080265 0.001523
1.663032 -0.080265 0.001494
1.976854 -0.080265 0.001400
2.290677 -0.080265 0.001281
2.604500 -0.080265 0.001287
2.918324 -0.080265 0.001309
3.232146 -0.080265 0.001338
3.545969 -0.080265 0.001429
3.859793 -0.080265 0.001314
4.173615 -0.080265 0.001180
4.487438 -0.080265 0.001267
4.801261 -0.080265 0.001310
5.115085 -0.080265 0.001282
5.428907 -0.080265 0.001318
5.742730 -0.080265 0.001559
6.056554 -0.080265 0.001945
6.370377 -0.080265 0.002388
6.684199 -0.080265 0.003422
6.998022 -0.080265 0.004724
7.311846 -0.080265 0.008769
7.625669 -0.080265 0.019241
7.939491 -0.080265 0.039134
8.253315 -0.080265 0.073933
8.567138 -0.080265 0.138709
8.880960 -0.080265 0.224337
9.194784 -0.080265 0.319655
9.508606 -0.080265 0.419025
9.822430 -0.080265 0.518583
10.136253 -0.080265 0.609949
10.450075 -0.080265 0.705489
10.763899 -0.080265 0.790179
11.077723 -0.080265 0.882759
11.391544 -0.080265 0.962153
11.705368 -0.080265 1.037943
12.019190 -0.080265 1.106505
12.333014 -0.080265 1.149940
12.646837 -0.080265 1.190691
12.960659 -0.080265 1.237902
13.274483 -0.080265 1.264672
13.588306 -0.080265 1.257151
13.902128 -0.080265 1.247563
14.215952 -0.080265 1.240078
14.529776 -0.080265 1.213976
14.843597 -0.080265 1.181681
15.157421 -0.080265 1.092980
15.471243 -0.080265 0.996619
15.785067 -0.080265 0.899160
16.098890 -0.080265 0.809704
16.412712 -0.080265 0.887944
16.726536 -0.080265 0.000000
17.040359 -0.080265 0.000000
17.354181 -0.080265 0.000000
17.668005 -0.080265 0.000000
17.981829 -0.080265 0.000000
18.295650 -0.080265 0.000000
18.609474 -0.080265 0.000000
18.923298 -0.080265 0.000000
19.237120 -0.080265 0.000000
-6.810190 -0.394089 0.000000
-6.496367 -0.394089 0.001821
-6.182544 -0.394089 0.001962
-5.868721 -0.394089 0.002040
-5.554898 -0.394089 0.002012
-5.241075 -0.394089 0.002018
-4.927252 -0.394089 0.002013
-4.613429 -0.394089 0.001942
-4.299606 -0.394089 0.001943
-3.985783 -0.394089 0.001965
-3.671960 -0.394089 0.001939
-3.358137 -0.394089 0.001886
-3.044314 -0.394089 0.001845
-2.730491 -0.394089 0.001766
-2.416668 -0.394089 0.001782
-2.102845 -0.394089 0.001723
-1.789022 -0.394089 0.001713
-1.475199 -0.394089 0.001733
-1.161376 -0.394089 0.001694
-0.847553 -0.394089 0.001632
-0.533730 -0.394089 0.001574
-0.219907 -0.394089 0.001530
0.093916 -0.394089 0.001507
0.407739 -0.394089 0.001506
0.721562 -0.394089 0.001513
1.035385 -0.394089 0.001507
1.349208 -0.394089 0.001525
1.663032 -0.394089 0.001550
1.976854 -0.394089 0.001447
2.290677 -0.394089 0.001328
2.604500 -0.394089 0.001330
2.918324 -0.394089 0.001350
3.232146 -0.394089 0.001302
3.545969 -0.394089 0.001315
3.859793 -0.394089 0.001206
4.173615 -0.394089 0.001131
4.487438 -0.394089 0.001216
4.801261 -0.394089 0.001220
5.115085 -0.394089 0.001172
5.428907 -0.394089 0.001309
5.742730 -0.394089 0.001608
6.056554 -0.394089 0.001774
6.370377 -0.394089 0.002071
6.684199 -0.394089 0.003085
6.998022 -0.394089 0.004671
7.311846 -0.394089 0.009730
7.625669 -0.394089 0.020591
7.939491 -0.394089 0.040975
8.253315 -0.394089 0.081366
8.567138 -0.394089 0.144469
8.880960 -0.394089 0.234965
9.194784 -0.394089 0.329169
9.508606 -0.394089 0.427716
9.822430 -0.394089 0.524228
10.136253 -0.394089 0.627498
10.450075 -0.394089 0.723595
10.763899 -0.394089 0.818693
11.077723 -0.394089 0.903528
11.391544 -0.394089 0.984721
11.705368 -0.394089 1.042909
12.019190 -0.394089 1.116008
12.333014 -0.394089 1.158562
12.646837 -0.394089 1.209624
12.960659 -0.394089 1.260606
13.274483 -0.394089 1.259354
13.588306 -0.394089 1.247842
13.902128 -0.394089 1.244578
14.215952 -0.394089 1.255257
14.529776 -0.394089 1.213575
14.843597 -0.394089 1.159098
15.157421 -0.394089 1.069287
15.471243 -0.394089 0.991578
15.785067 -0.394089 0.902256
16.098890 -0.394089 0.802894
16.412712 -0.394089 1.040599
16.726536 -0.394089 0.000000
17.040359 -0.394089 0.000000
17.354181 -0.394089 0.000000
17.668005 -0.394089 0.000000
17.981829 -0.394089 0.000000
18.295650 -0.394089 0.000000
18.609474 -0.394089 0.000000
18.923298 -0.394089 0.000000
19.237120 -0.394089 0.000000
-6.810190 -0.707912 0.000000
-6.496367 -0.707912 0.001933
-6.182544 -0.707912 0.002033
-5.868721 -0.707912 0.002123
-5.554898 -0.707912 0.002091
-5.241075 -0.707912 0.002106
-4.927252 -0.707912 0.002164
-4.613429 -0.707912 0.002091
-4.299606 -0.707912 0.002062
-3.985783 -0.707912 0.002082
-3.671960 -0.707912 0.002037
-3.358137 -0.707912 0.001965
-3.044314 -0.707912 0.001919
-2.730491 -0.707912 0.001852
-2.416668 -0.707912 0.001848
-2.102845 -0.707912 0.001777
-1.789022 -0.707912 0.001715
-1.475199 -0.707912 0.001773
-1.161376 -0.707912 0.001807
-0.847553 -0.707912 0.001674
-0.533730 -0.707912 0.001525
-0.219907 -0.707912 0.001444
0.093916 -0.707912 0.001449
0.407739 -0.707912 0.001463
0.721562 -0.707912 0.001447
1.035385 -0.707912 0.001460
1.349208 -0.707912 0.001525
1.663032 -0.707912 0.001603
1.976854 -0.707912 0.001496
2.290677 -0.707912 0.001389
2.604500 -0.707912 0.001401
2.918324 -0.707912 0.001343
3.232146 -0.707912 0.001231
3.545969 -0.707912 0.001148
3.859793 -0.707912 0.001121
4.173615 -0.707912 0.001138
4.487438 -0.707912 0.001223
4.801261 -0.707912 0.001226
5.115085 -0.707912 0.001107
5.428907 -0.707912 0.001231
5.742730 -0.707912 0.001642
6.056554 -0.707912 0.001640
6.370377 -0.707912 0.002017
6.684199 -0.707912 0.002684
6.998022 -0.707912 0.004802
7.311846 -0.707912 0.010505
7.625669 -0.707912 0.022004
7.939491 -0.707912 0.045516
8.253315 -0.707912 0.090027
8.567138 -0.707912 0.157207
8.880960 -0.707912 0.249046
9.194784 -0.707912 0.342868
9.508606 -0.707912 0.450225
9.822430 -0.707912 0.544133
10.136253 -0.707912 0.646264
10.450075 -0.707912 0.749328
10.763899 -0.707912 0.850458
11.077723 -0.707912 0.936048
11.391544 -0.707912 1.025546
11.705368 -0.707912 1.082533
12.019190 -0.707912 1.134119
12.333014 -0.707912 1.183248
12.646837 -0.707912 1.224360
12.960659 -0.707912 1.258502
13.274483 -0.707912 1.275768
13.588306 -0.707912 1.257024
13.902128 -0.707912 1.257032
14.215952 -0.707912 1.267241
14.529776 -0.707912 1.213519
14.843597 -0.707912 1.175927
15.157421 -0.707912 1.072197
15.471243 -0.707912 0.954145
15.785067 -0.707912 0.871384
16.098890 -0.707912 0.844264
16.412712 -0.707912 1.019794
16.726536 -0.707912 0.000000
17.040359 -0.707912 0.000000
17.354181 -0.707912 0.000000
17.668005 -0.707912 0.000000
17.981829 -0.707912 0.000000
18.295650 -0.707912 0.000000
18.609474 -0.707912 0.000000
18.923298 -0.707912 0.000000
19.237120 -0.707912 0.000000
-6.810190 -1.021736 0.000000
-6.496367 -1.021736 0.000000
-6.182544 -1.021736 0.000000
-5.868721 -1.021736 0.000000
-5.554898 -1.021736 0.000000
-5.241075 -1.021736 0.000000
-4.927252 -1.021736 0.000000
-4.613429 -1.021736 0.000000
-4.299606 -1.021736 0.000000
-3.985783 -1.021736 0.000000
-3.671960 -1.021736 0.000000
-3.358137 -1.021736 0.000000
-3.044314 -1.021736 0.000000
-2.730491 -1.021736 0.000000
-2.416668 -1.021736 0.000000
-2.102845 -1.021736 -0.000442
-1.789022 -1.021736 -0.000751
-1.475199 -1.021736 0.000263
-1.161376 -1.021736 -0.000109
-0.847553 -1.021736 -0.000121
-0.533730 -1.021736 0.000025
-0.219907 -1.021736 0.000144
0.093916 -1.021736 0.000380
0.407739 -1.021736 0.000627
0.721562 -1.021736 0.000893
1.035385 -1.021736 0.001049
1.349208 -1.021736 0.001383
1.663032 -1.021736 0.001648
1.976854 -1.021736 0.001587
2.290677 -1.021736 0.001485
2.604500 -1.021736 0.001459
2.918324 -1.021736 0.001363
3.232146 -1.021736 0.001136
3.545969 -1.021736 0.000976
3.859793 -1.021736 0.001009
4.173615 -1.021736 0.001131
4.487438 -1.021736 0.001221
4.801261 -1.021736 0.001174
5.115085 -1.021736 0.001069
5.428907 -1.021736 0.001151
5.742730 -1.021736 0.001573
6.056554 -1.021736 0.001603
6.370377 -1.021736 0.001298
6.684199 -1.021736 0.002168
6.998022 -1.021736 0.005697
7.311846 -1.021736 0.011038
7.625669 -1.021736 0.022295
7.939491 -1.021736 0.048263
8.253315 -1.021736 0.097973
8.567138 -1.021736 0.171140
8.880960 -1.021736 0.266541
9.194784 -1.021736 0.366746
9.508606 -1.021736 0.469361
9.822430 -1.021736 0.566229
10.136253 -1.021736 0.665426
10.450075 -1.021736 0.765253
10.763899 -1.021736 0.873151
11.077723 -1.021736 0.964736
11.391544 -1.021736 1.044883
11.705368 -1.021736 1.119048
12.019190 -1.021736 1.170618
12.333014 -1.021736 1.212584
12.646837 -1.021736 1.243169
12.960659 -1.021736 1.274938
13.274483 -1.021736 1.279468
13.588306 -1.021736 1.270596
13.902128 -1.021736 1.287137
14.215952 -1.021736 1.282916
14.529776 -1.021736 1.242808
14.843597 -1.021736 1.174731
15.157421 -1.021736 1.081004
15.471243 -1.021736 0.970816
15.785067 -1.021736 0.892861
16.098890 -1.021736 0.962564
16.412712 -1.021736 0.000000
16.726536 -1.021736 0.000000
17.040359 -1.021736 0.000000
17.354181 -1.021736 0.000000
17.668005 -1.021736 0.000000
17.981829 -1.021736 0.000000
18.295650 -1.021736 0.000000
18.609474 -1.021736 0.000000
18.923298 -1.021736 0.000000
19.237120 -1.021736 0.000000
-6.810190 -1.335556 0.000000
-6.496367 -1.335556 0.000000
-6.182544 -1.335556 0.000000
-5.868721 -1.335556 0.000000
-5.554898 -1.335556 0.000000
-5.241075 -1.335556 0.000000
-4.927252 -1.335556 0.000000
-4.613429 -1.335556 0.000000
-4.299606 -1.335556 0.000000
-3.985783 -1.335556 0.000000
-3.671960 -1.335556 0.000000
-3.358137 -1.335556 0.000000
-3.044314 -1.335556 0.000000
-2.730491 -1.335556 0.000000
-2.416668 -1.335556 0.000000
-2.102845 -1.335556 0.000000
-1.789022 -1.335556 0.000000
-1.475199 -1.335556 0.000000
-1.161376 -1.335556 0.000000
-0.847553 -1.335556 0.000000
-0.533730 -1.335556 0.000000
-0.219907 -1.335556 0.000000
0.093916 -1.335556 0.000000
0.407739 -1.335556 0.000000
0.721562 -1.335556 0.000000
1.035385 -1.335556 0.000000
1.349208 -1.335556 0.000000
1.663032 -1.335556 0.000000
1.976854 -1.335556 0.000000
2.290677 -1.335556 0.000000
2.604500 -1.335556 0.000000
2.918324 -1.335556 0.000000
3.232146 -1.335556 0.000000
3.545969 -1.335556 0.000000
3.859793 -1.335556 0.000000
4.173615 -1.335556 0.000000
4.487438 -1.335556 0.000000
4.801261 -1.335556 0.000000
5.115085 -1.335556 0.000000
5.428907 -1.335556 0.000000
5.742730 -1.335556 0.000000
6.056554 -1.335556 0.000000
6.370377 -1.335556 0.000000
6.684199 -1.335556 0.000000
6.998022 -1.335556 0.000000
7.311846 -1.335556 0.000000
7.625669 -1.335556 0.000000
7.939491 -1.335556 0.000000
8.253315 -1.335556 0.196278
8.567138 -1.335556 0.212339
8.880960 -1.335556 0.528942
9.194784 -1.335556 0.119440
9.508606 -1.335556 0.149793
9.822430 -1.335556 0.171074
10.136253 -1.335556 0.254610
10.450075 -1.335556 0.315481
10.763899 -1.335556 0.405621
11.077723 -1.335556 0.515742
11.391544 -1.335556 0.616480
11.705368 -1.335556 0.766972
12.019190 -1.335556 0.884804
12.333014 -1.335556 1.002464
12.646837 -1.335556 1.080057
12.960659 -1.335556 1.153479
13.274483 -1.335556 1.196313
13.588306 -1.335556 1.221819
13.902128 -1.335556 1.243941
14.215952 -1.335556 1.283363
14.529776 -1.335556 1.230465
14.843597 -1.335556 1.142643
15.157421 -1.335556 1.055500
15.471243 -1.335556 0.963250
15.785067 -1.335556 0.874802
16.098890 -1.335556 1.232037
16.412712 -1.335556 0.000000
16.726536 -1.335556 0.000000
17.040359 -1.335556 0.000000
17.354181 -1.335556 0.000000
17.668005 -1.335556 0.000000
17.981829 -1.335556 0.000000
18.295650 -1.335556 0.000000
18.609474 -1.335556 0.000000
18.923298 -1.335556 0.000000
19.237120 -1.335556 0.000000
-6.810190 -1.649380 0.000000
-6.496367 -1.649380 0.000000
-6.182544 -1.649380 0.000000
-5.868721 -1.649380 0.000000
-5.554898 -1.649380 0.000000
-5.241075 -1.649380 0.000000
-4.927252 -1.649380 0.000000
-4.613429 -1.649380 0.000000
-4.299606 -1.649380 0.000000
-3.985783 -1.649380 0.000000
-3.671960 -1.649380 0.000000
-3.358137 -1.649380 0.000000
-3.044314 -1.649380 0.000000
-2.730491 -1.649380 0.000000
-2.416668 -1.649380 0.000000
-2.102845 -1.649380 0.000000
-1.789022 -1.649380 0.000000
-1.475199 -1.649380 0.000000
-1.161376 -1.649380 0.000000
-0.847553 -1.649380 0.000000
-0.533730 -1.649380 0.000000
-0.219907 -1.649380 0.000000
0.093916 -1.649380 0.000000
0.407739 -1.649380 0.000000
0.721562 -1.649380 0.000000
1.035385 -1.649380 0.000000
1.349208 -1.649380 0.000000
1.663032 -1.649380 0.000000
1.976854 -1.649380 0.000000
2.290677 -1.649380 0.000000
2.604500 -1.649380 0.000000
2.918324 -1.649380 0.000000
3.232146 -1.649380 0.000000
3.545969 -1.649380 0.000000
3.859793 -1.649380 0.000000
4.173615 -1.649380 0.000000
4.487438 -1.649380 0.000000
4.801261 -1.649380 0.000000
5.115085 -1.649380 0.000000
5.428907 -1.649380 0.000000
5.742730 -1.649380 0.000000
6.056554 -1.649380 0.000000
6.370377 -1.649380 0.000000
6.684199 -1.649380 0.000000
6.998022 -1.649380 0.000000
7.311846 -1.649380 0.000000
7.625669 -1.649380 0.000000
7.939491 -1.649380 0.000000
8.253315 -1.649380 0.000000
8.567138 -1.649380 0.000000
8.880960 -1.649380 0.000000
9.194784 -1.649380 0.000000
9.508606 -1.649380 0.000000
9.822430 -1.649380 0.000000
10.136253 -1.649380 0.000000
10.450075 -1.649380 0.000000
10.763899 -1.649380 -1.298384
11.077723 -1.649380 0.057536
11.391544 -1.649380 -0.928686
11.705368 -1.649380 -0.574066
12.019190 -1.649380 -0.395781
12.333014 -1.649380 -0.084889
12.646837 -1.649380 0.183334
12.960659 -1.649380 0.215929
13.274483 -1.649380 0.154040
13.588306 -1.649380 0.189403
13.902128 -1.649380 0.289027
14.215952 -1.649380 0.383705
14.529776 -1.649380 0.461780
14.843597 -1.649380 0.539905
15.157421 -1.649380 0.630874
15.471243 -1.649380 0.615119
15.785067 -1.649380 0.631497
16.098890 -1.649380 0.072908
16.412712 -1.649380 0.000000
16.726536 -1.649380 0.000000
17.040359 -1.649380 0.000000
17.354181 -1.649380 0.000000
17.668005 -1.649380 0.000000
17.981829 -1.649380 0.000000
18.295650 -1.649380 0.000000
18.609474 -1.649380 0.000000
18.923298 -1.649380 0.000000
19.237120 -1.649380 0.000000
-6.810190 -1.963203 0.000000
-6.496367 -1.963203 0.000000
-6.182544 -1.963203 0.000000
-5.868721 -1.963203 0.000000
-5.554898 -1.963203 0.000000
-5.241075 -1.963203 0.000000
-4.927252 -1.963203 0.000000
-4.613429 -1.963203 0.000000
-4.299606 -1.963203 0.000000
-3.985783 -1.963203 0.000000
-3.671960 -1.963203 0.000000
-3.358137 -1.963203 0.000000
-3.044314 -1.963203 0.000000
-2.730491 -1.963203 0.000000
-2.416668 -1.963203 0.000000
-2.102845 -1.963203 0.000000
-1.789022 -1.963203 0.000000
-1.475199 -1.963203 0.000000
-1.161376 -1.963203 0.000000
-0.847553 -1.963203 0.000000
-0.533730 -1.963203 0.000000
-0.219907 -1.963203 0.000000
0.093916 -1.963203 0.000000
0.407739 -1.963203 0.000000
0.721562 -1.963203 0.000000
1.035385 -1.963203 0.000000
1.349208 -1.963203 0.000000
1.663032 -1.963203 0.000000
1.976854 -1.963203 0.000000
2.290677 -1.963203 0.000000
2.604500 -1.963203 0.000000
2.918324 -1.963203 0.000000
3.232146 -1.963203 0.000000
3.545969 -1.963203 0.000000
3.859793 -1.963203 0.000000
4.173615 -1.963203 0.000000
4.487438 -1.963203 0.000000
4.801261 -1.963203 0.000000
5.115085 -1.963203 0.000000
5.428907 -1.963203 0.000000
5.742730 -1.963203 0.000000
6.056554 -1.963203 0.000000
6.370377 -1.963203 0.000000
6.684199 -1.963203 0.000000
6.998022 -1.963203 0.000000
7.311846 -1.963203 0.000000
7.625669 -1.963203 0.000000
7.939491 -1.963203 0.000000
8.253315 -1.963203 0.000000
8.567138 -1.963203 0.000000
8.880960 -1.963203 0.000000
9.194784 -1.963203 0.000000
9.508606 -1.963203 0.000000
9.822430 -1.963203 0.000000
10.136253 -1.963203 0.000000
10.450075 -1.963203 0.000000
10.763899 -1.963203 0.000000
11.077723 -1.963203 0.000000
11.391544 -1.963203 0.000000
11.705368 -1.963203 0.000000
12.019190 -1.963203 0.000000
12.333014 -1.963203 0.000000
12.646837 -1.963203 0.000000
12.960659 -1.963203 0.000000
13.274483 -1.963203 -0.103124
13.588306 -1.963203 -1.522995
13.902128 -1.963203 -1.272241
14.215952 -1.963203 0.259943
14.529776 -1.963203 -0.940635
14.843597 -1.963203 1.587352
15.157421 -1.963203 -0.495299
15.471243 -1.963203 -0.608443
15.785067 -1.963203 -0.409654
16.098890 -1.963203 0.000000
16.412712 -1.963203 0.000000
16.726536 -1.963203 0.000000
17.040359 -1.963203 0.000000
17.354181 -1.963203 0.000000
17.668005 -1.963203 0.000000
17.981829 -1.963203 0.000000
18.295650 -1.963203 0.000000
18.609474 -1.963203 0.000000
18.923298 -1.963203 0.000000
19.237120 -1.963203 0.000000
-6.810190 -2.277027 0.000000
-6.496367 -2.277027 0.000000
-6.182544 -2.277027 0.000000
-5.868721 -2.277027 0.000000
-5.554898 -2.277027 0.000000
-5.241075 -2.277027 0.000000
-4.927252 -2.277027 0.000000
-4.613429 -2.277027 0.000000
-4.299606 -2.277027 0.000000
-3.985783 -2.277027 0.000000
-3.671960 -2.277027 0.000000
-3.358137 -2.277027 0.000000
-3.044314 -2.277027 0.000000
-2.730491 -2.277027 0.000000
-2.416668 -2.277027 0.000000
-2.102845 -2.277027 0.000000
-1.789022 -2.277027 0.000000
-1.475199 -2.277027 0.000000
-1.161376 -2.277027 0.000000
-0.847553 -2.277027 0.000000
-0.533730 -2.277027 0.000000
-0.219907 -2.277027 0.000000
0.093916 -2.277027 0.000000
0.407739 -2.277027 0.000000
0.721562 -2.277027 0.000000
1.035385 -2.277027 0.000000
1.349208 -2.277027 0.000000
1.663032 -2.277027 0.000000
1.976854 -2.277027 0.000000
2.290677 -2.277027 0.000000
2.604500 -2.277027 0.000000
2.918324 -2.277027 0.000000
3.232146 -2.277027 0.000000
3.545969 -2.277027 0.000000
3.859793 -2.277027 0.000000
4.173615 -2.277027 0.000000
4.487438 -2.277027 0.000000
4.801261 -2.277027 0.000000
5.115085 -2.277027 0.000000
5.428907 -2.277027 0.000000
5.742730 -2.277027 0.000000
6.056554 -2.277027 0.000000
6.370377 -2.277027 0.000000
6.684199 -2.277027 0.000000
6.998022 -2.277027 0.000000
7.311846 -2.277027 0.000000
7.625669 -2.277027 0.000000
7.939491 -2.277027 0.000000
8.253315 -2.277027 0.000000
8.567138 -2.277027 0.000000
8.880960 -2.277027 0.000000
9.194784 -2.277027 0.000000
9.508606 -2.277027 0.000000
9.822430 -2.277027 0.000000
10.136253 -2.277027 0.000000
10.450075 -2.277027 0.000000
10.763899 -2.277027 0.000000
11.077723 -2.277027 0.000000
11.391544 -2.277027 0.000000
11.705368 -2.277027 0.000000
12.019190 -2.277027 0.000000
12.333014 -2.277027 0.000000
12.646837 -2.277027 0.000000
12.960659 -2.277027 0.000000
13.274483 -2.277027 0.000000
13.588306 -2.277027 0.000000
13.902128 -2.277027 0.000000
14.215952 -2.277027 0.000000
14.529776 -2.277027 0.000000
14.843597 -2.277027 0.000000
15.157421 -2.277027 0.000000
15.471243 -2.277027 0.000000
15.785067 -2.277027 0.000000
16.098890 -2.277027 0.000000
16.412712 -2.277027 0.000000
16.726536 -2.277027 0.000000
17.040359 -2.277027 0.000000
17.354181 -2.277027 0.000000
17.668005 -2.277027 0.000000
17.981829 -2.277027 0.000000
18.295650 -2.277027 0.000000
18.609474 -2.277027 0.000000
18.923298 -2.277027 0.000000
19.237120 -2.277027 0.000000
