TITLE = "B00014"
VARIABLES = "x", "y", "Reynold stress ZZ"
ZONE T="Frame 1" I=84, J=163, F=POINT
-6.810190 48.562302 0.000000
-6.496367 48.562302 0.000000
-6.182544 48.562302 0.000000
-5.868721 48.562302 0.000000
-5.554898 48.562302 0.000000
-5.241075 48.562302 0.000000
-4.927252 48.562302 0.000000
-4.613429 48.562302 0.000000
-4.299606 48.562302 0.000000
-3.985783 48.562302 0.000000
-3.671960 48.562302 0.000000
-3.358137 48.562302 0.000000
-3.044314 48.562302 0.000000
-2.730491 48.562302 0.000000
-2.416668 48.562302 0.000000
-2.102845 48.562302 0.000000
-1.789022 48.562302 0.000000
-1.475199 48.562302 0.000000
-1.161376 48.562302 0.000000
-0.847553 48.562302 0.000000
-0.533730 48.562302 0.000000
-0.219907 48.562302 0.000000
0.093916 48.562302 0.000000
0.407739 48.562302 0.000000
0.721562 48.562302 0.000000
1.035385 48.562302 0.000000
1.349208 48.562302 0.000000
1.663032 48.562302 0.000000
1.976854 48.562302 0.000000
2.290677 48.562302 0.000000
2.604500 48.562302 0.000000
2.918324 48.562302 0.000000
3.232146 48.562302 0.000000
3.545969 48.562302 0.000000
3.859793 48.562302 0.000000
4.173615 48.562302 0.000000
4.487438 48.562302 0.000000
4.801261 48.562302 0.000000
5.115085 48.562302 0.000000
5.428907 48.562302 0.000000
5.742730 48.562302 0.000000
6.056554 48.562302 0.000000
6.370377 48.562302 0.000000
6.684199 48.562302 0.000000
6.998022 48.562302 0.000000
7.311846 48.562302 0.000000
7.625669 48.562302 0.000000
7.939491 48.562302 0.000000
8.253315 48.562302 0.000000
8.567138 48.562302 0.000000
8.880960 48.562302 0.000000
9.194784 48.562302 0.000000
9.508606 48.562302 0.000000
9.822430 48.562302 0.000000
10.136253 48.562302 0.000000
10.450075 48.562302 0.000000
10.763899 48.562302 0.000000
11.077723 48.562302 0.000000
11.391544 48.562302 0.000000
11.705368 48.562302 0.000000
12.019190 48.562302 0.000000
12.333014 48.562302 0.000000
12.646837 48.562302 0.000000
12.960659 48.562302 0.000000
13.274483 48.562302 0.000000
13.588306 48.562302 0.000000
13.902128 48.562302 0.000000
14.215952 48.562302 0.000000
14.529776 48.562302 0.000000
14.843597 48.562302 0.000000
15.157421 48.562302 0.000000
15.471243 48.562302 0.000000
15.785067 48.562302 0.000000
16.098890 48.562302 0.000000
16.412712 48.562302 0.000000
16.726536 48.562302 0.000000
17.040359 48.562302 0.000000
17.354181 48.562302 0.000000
17.668005 48.562302 0.000000
17.981829 48.562302 0.000000
18.295650 48.562302 0.000000
18.609474 48.562302 0.000000
18.923298 48.562302 0.000000
19.237120 48.562302 0.000000
-6.810190 48.248478 0.000000
-6.496367 48.248478 0.000000
-6.182544 48.248478 0.000000
-5.868721 48.248478 0.000000
-5.554898 48.248478 0.000000
-5.241075 48.248478 0.000000
-4.927252 48.248478 0.000000
-4.613429 48.248478 0.000000
-4.299606 48.248478 0.000000
-3.985783 48.248478 0.000000
-3.671960 48.248478 0.000000
-3.358137 48.248478 0.000000
-3.044314 48.248478 0.000000
-2.730491 48.248478 0.000000
-2.416668 48.248478 0.000000
-2.102845 48.248478 0.000000
-1.789022 48.248478 0.000000
-1.475199 48.248478 0.000000
-1.161376 48.248478 0.000000
-0.847553 48.248478 0.000000
-0.533730 48.248478 0.000000
-0.219907 48.248478 0.000000
0.093916 48.248478 0.000000
0.407739 48.248478 0.000000
0.721562 48.248478 0.000000
1.035385 48.248478 0.000000
1.349208 48.248478 0.000000
1.663032 48.248478 0.000000
1.976854 48.248478 0.000000
2.290677 48.248478 0.000000
2.604500 48.248478 0.000000
2.918324 48.248478 0.000000
3.232146 48.248478 0.000000
3.545969 48.248478 0.000000
3.859793 48.248478 0.000000
4.173615 48.248478 0.000000
4.487438 48.248478 0.000000
4.801261 48.248478 0.000000
5.115085 48.248478 0.000000
5.428907 48.248478 0.000000
5.742730 48.248478 0.000000
6.056554 48.248478 0.000000
6.370377 48.248478 0.000000
6.684199 48.248478 0.000000
6.998022 48.248478 0.000000
7.311846 48.248478 0.000000
7.625669 48.248478 0.000000
7.939491 48.248478 0.000000
8.253315 48.248478 0.000000
8.567138 48.248478 0.000000
8.880960 48.248478 0.000000
9.194784 48.248478 0.000000
9.508606 48.248478 0.000000
9.822430 48.248478 0.000000
10.136253 48.248478 0.000000
10.450075 48.248478 0.000000
10.763899 48.248478 0.000000
11.077723 48.248478 0.000000
11.391544 48.248478 0.000000
11.705368 48.248478 0.000000
12.019190 48.248478 0.000000
12.333014 48.248478 0.000000
12.646837 48.248478 0.000000
12.960659 48.248478 0.000000
13.274483 48.248478 0.000000
13.588306 48.248478 0.000000
13.902128 48.248478 0.000000
14.215952 48.248478 0.000000
14.529776 48.248478 0.000000
14.843597 48.248478 0.000000
15.157421 48.248478 0.000000
15.471243 48.248478 0.000000
15.785067 48.248478 0.000000
16.098890 48.248478 0.000000
16.412712 48.248478 0.000000
16.726536 48.248478 0.000000
17.040359 48.248478 0.000000
17.354181 48.248478 0.000000
17.668005 48.248478 0.000000
17.981829 48.248478 0.000000
18.295650 48.248478 0.000000
18.609474 48.248478 0.000000
18.923298 48.248478 0.000000
19.237120 48.248478 0.000000
-6.810190 47.934654 0.000000
-6.496367 47.934654 0.000000
-6.182544 47.934654 0.000000
-5.868721 47.934654 0.000000
-5.554898 47.934654 0.000000
-5.241075 47.934654 0.000000
-4.927252 47.934654 0.000000
-4.613429 47.934654 0.000000
-4.299606 47.934654 0.000000
-3.985783 47.934654 0.000000
-3.671960 47.934654 0.000000
-3.358137 47.934654 0.000000
-3.044314 47.934654 0.000000
-2.730491 47.934654 0.000000
-2.416668 47.934654 0.000000
-2.102845 47.934654 0.000000
-1.789022 47.934654 0.000000
-1.475199 47.934654 0.000000
-1.161376 47.934654 0.000000
-0.847553 47.934654 0.000000
-0.533730 47.934654 0.000000
-0.219907 47.934654 0.000000
0.093916 47.934654 0.000000
0.407739 47.934654 0.000000
0.721562 47.934654 0.000000
1.035385 47.934654 0.000000
1.349208 47.934654 0.000000
1.663032 47.934654 0.000000
1.976854 47.934654 0.000000
2.290677 47.934654 0.000000
2.604500 47.934654 0.000000
2.918324 47.934654 0.000000
3.232146 47.934654 0.000000
3.545969 47.934654 0.000000
3.859793 47.934654 0.000000
4.173615 47.934654 0.000000
4.487438 47.934654 0.000000
4.801261 47.934654 0.000000
5.115085 47.934654 0.000000
5.428907 47.934654 0.000000
5.742730 47.934654 0.000000
6.056554 47.934654 0.000000
6.370377 47.934654 0.000000
6.684199 47.934654 0.000000
6.998022 47.934654 0.000000
7.311846 47.934654 0.000000
7.625669 47.934654 0.000000
7.939491 47.934654 0.000000
8.253315 47.934654 0.000000
8.567138 47.934654 0.000000
8.880960 47.934654 0.000000
9.194784 47.934654 0.000000
9.508606 47.934654 0.000000
9.822430 47.934654 0.000000
10.136253 47.934654 0.889976
10.450075 47.934654 4.856983
10.763899 47.934654 1.499429
11.077723 47.934654 3.183048
11.391544 47.934654 5.782471
11.705368 47.934654 5.885363
12.019190 47.934654 5.023099
12.333014 47.934654 3.609685
12.646837 47.934654 3.548002
12.960659 47.934654 3.665748
13.274483 47.934654 4.045581
13.588306 47.934654 3.042317
13.902128 47.934654 3.021713
14.215952 47.934654 2.731999
14.529776 47.934654 2.405644
14.843597 47.934654 2.279221
15.157421 47.934654 2.070337
15.471243 47.934654 1.925594
15.785067 47.934654 1.774960
16.098890 47.934654 1.573132
16.412712 47.934654 1.561402
16.726536 47.934654 1.551077
17.040359 47.934654 1.538780
17.354181 47.934654 1.368469
17.668005 47.934654 1.399943
17.981829 47.934654 1.466243
18.295650 47.934654 1.522280
18.609474 47.934654 1.521876
18.923298 47.934654 1.558793
19.237120 47.934654 0.000000
-6.810190 47.620834 0.000000
-6.496367 47.620834 0.000000
-6.182544 47.620834 0.045665
-5.868721 47.620834 0.044782
-5.554898 47.620834 0.060039
-5.241075 47.620834 0.059698
-4.927252 47.620834 0.062055
-4.613429 47.620834 0.067074
-4.299606 47.620834 0.068851
-3.985783 47.620834 0.065755
-3.671960 47.620834 0.064213
-3.358137 47.620834 0.063271
-3.044314 47.620834 0.063411
-2.730491 47.620834 0.065854
-2.416668 47.620834 0.067119
-2.102845 47.620834 0.064985
-1.789022 47.620834 0.063493
-1.475199 47.620834 0.063194
-1.161376 47.620834 0.064215
-0.847553 47.620834 0.064882
-0.533730 47.620834 0.064308
-0.219907 47.620834 0.066303
0.093916 47.620834 0.067245
0.407739 47.620834 0.064723
0.721562 47.620834 0.063244
1.035385 47.620834 0.061570
1.349208 47.620834 0.060427
1.663032 47.620834 0.060722
1.976854 47.620834 0.061550
2.290677 47.620834 0.061639
2.604500 47.620834 0.060138
2.918324 47.620834 0.061553
3.232146 47.620834 0.063119
3.545969 47.620834 0.062102
3.859793 47.620834 0.060716
4.173615 47.620834 0.060753
4.487438 47.620834 0.059074
4.801261 47.620834 0.057845
5.115085 47.620834 0.059061
5.428907 47.620834 0.060552
5.742730 47.620834 0.060776
6.056554 47.620834 0.059612
6.370377 47.620834 0.056988
6.684199 47.620834 0.057212
6.998022 47.620834 0.057961
7.311846 47.620834 0.060233
7.625669 47.620834 0.065877
7.939491 47.620834 0.070921
8.253315 47.620834 0.079442
8.567138 47.620834 0.092286
8.880960 47.620834 0.115825
9.194784 47.620834 0.154064
9.508606 47.620834 0.235586
9.822430 47.620834 0.327936
10.136253 47.620834 0.460655
10.450075 47.620834 0.602040
10.763899 47.620834 0.745390
11.077723 47.620834 0.937389
11.391544 47.620834 1.149247
11.705368 47.620834 1.380702
12.019190 47.620834 1.555158
12.333014 47.620834 1.757101
12.646837 47.620834 1.945451
12.960659 47.620834 2.053004
13.274483 47.620834 2.200587
13.588306 47.620834 2.293380
13.902128 47.620834 2.359253
14.215952 47.620834 2.395968
14.529776 47.620834 2.412904
14.843597 47.620834 2.322212
15.157421 47.620834 2.203059
15.471243 47.620834 2.078703
15.785067 47.620834 1.955817
16.098890 47.620834 1.853699
16.412712 47.620834 1.771845
16.726536 47.620834 1.707477
17.040359 47.620834 1.609430
17.354181 47.620834 1.571207
17.668005 47.620834 1.542264
17.981829 47.620834 1.553394
18.295650 47.620834 1.565918
18.609474 47.620834 1.581258
18.923298 47.620834 1.437026
19.237120 47.620834 0.000000
-6.810190 47.307011 0.000000
-6.496367 47.307011 0.000000
-6.182544 47.307011 0.034701
-5.868721 47.307011 0.045684
-5.554898 47.307011 0.045782
-5.241075 47.307011 0.044951
-4.927252 47.307011 0.045617
-4.613429 47.307011 0.048693
-4.299606 47.307011 0.050293
-3.985783 47.307011 0.048812
-3.671960 47.307011 0.047954
-3.358137 47.307011 0.046706
-3.044314 47.307011 0.046209
-2.730491 47.307011 0.047752
-2.416668 47.307011 0.048767
-2.102845 47.307011 0.047626
-1.789022 47.307011 0.047206
-1.475199 47.307011 0.046756
-1.161376 47.307011 0.048240
-0.847553 47.307011 0.048167
-0.533730 47.307011 0.047455
-0.219907 47.307011 0.049145
0.093916 47.307011 0.050193
0.407739 47.307011 0.048899
0.721562 47.307011 0.047853
1.035385 47.307011 0.047387
1.349208 47.307011 0.046994
1.663032 47.307011 0.046758
1.976854 47.307011 0.047393
2.290677 47.307011 0.047606
2.604500 47.307011 0.046822
2.918324 47.307011 0.047224
3.232146 47.307011 0.048174
3.545969 47.307011 0.047248
3.859793 47.307011 0.046875
4.173615 47.307011 0.046785
4.487438 47.307011 0.045317
4.801261 47.307011 0.044148
5.115085 47.307011 0.045197
5.428907 47.307011 0.046716
5.742730 47.307011 0.046619
6.056554 47.307011 0.045410
6.370377 47.307011 0.044136
6.684199 47.307011 0.045539
6.998022 47.307011 0.046559
7.311846 47.307011 0.048912
7.625669 47.307011 0.053817
7.939491 47.307011 0.060319
8.253315 47.307011 0.069265
8.567138 47.307011 0.082635
8.880960 47.307011 0.104250
9.194784 47.307011 0.138498
9.508606 47.307011 0.193977
9.822430 47.307011 0.268367
10.136253 47.307011 0.380872
10.450075 47.307011 0.518231
10.763899 47.307011 0.650057
11.077723 47.307011 0.824119
11.391544 47.307011 0.995439
11.705368 47.307011 1.202410
12.019190 47.307011 1.382487
12.333014 47.307011 1.569938
12.646837 47.307011 1.706069
12.960659 47.307011 1.806651
13.274483 47.307011 1.977295
13.588306 47.307011 2.041252
13.902128 47.307011 2.043616
14.215952 47.307011 2.100384
14.529776 47.307011 2.104731
14.843597 47.307011 2.085315
15.157421 47.307011 1.986015
15.471243 47.307011 1.816229
15.785067 47.307011 1.707970
16.098890 47.307011 1.655281
16.412712 47.307011 1.534346
16.726536 47.307011 1.447439
17.040359 47.307011 1.379616
17.354181 47.307011 1.343317
17.668005 47.307011 1.337332
17.981829 47.307011 1.359803
18.295650 47.307011 1.395778
18.609474 47.307011 1.544842
18.923298 47.307011 1.767983
19.237120 47.307011 0.000000
-6.810190 46.993187 0.000000
-6.496367 46.993187 0.000000
-6.182544 46.993187 0.040024
-5.868721 46.993187 0.035784
-5.554898 46.993187 0.035272
-5.241075 46.993187 0.035597
-4.927252 46.993187 0.035531
-4.613429 46.993187 0.037038
-4.299606 46.993187 0.038283
-3.985783 46.993187 0.038051
-3.671960 46.993187 0.037536
-3.358137 46.993187 0.036124
-3.044314 46.993187 0.035726
-2.730491 46.993187 0.036688
-2.416668 46.993187 0.037171
-2.102845 46.993187 0.036828
-1.789022 46.993187 0.036799
-1.475199 46.993187 0.036495
-1.161376 46.993187 0.037615
-0.847553 46.993187 0.037278
-0.533730 46.993187 0.036596
-0.219907 46.993187 0.037544
0.093916 46.993187 0.038659
0.407739 46.993187 0.037474
0.721562 46.993187 0.036527
1.035385 46.993187 0.036536
1.349208 46.993187 0.036462
1.663032 46.993187 0.036001
1.976854 46.993187 0.036004
2.290677 46.993187 0.036037
2.604500 46.993187 0.035816
2.918324 46.993187 0.035949
3.232146 46.993187 0.036336
3.545969 46.993187 0.035836
3.859793 46.993187 0.035977
4.173615 46.993187 0.036204
4.487438 46.993187 0.035050
4.801261 46.993187 0.033745
5.115085 46.993187 0.034311
5.428907 46.993187 0.035655
5.742730 46.993187 0.035227
6.056554 46.993187 0.034299
6.370377 46.993187 0.034325
6.684199 46.993187 0.035860
6.998022 46.993187 0.037026
7.311846 46.993187 0.039082
7.625669 46.993187 0.042439
7.939491 46.993187 0.047887
8.253315 46.993187 0.056712
8.567138 46.993187 0.069554
8.880960 46.993187 0.088041
9.194784 46.993187 0.116309
9.508606 46.993187 0.164008
9.822430 46.993187 0.227491
10.136253 46.993187 0.311380
10.450075 46.993187 0.432518
10.763899 46.993187 0.568385
11.077723 46.993187 0.732136
11.391544 46.993187 0.887220
11.705368 46.993187 1.074136
12.019190 46.993187 1.227009
12.333014 46.993187 1.358174
12.646837 46.993187 1.465276
12.960659 46.993187 1.616188
13.274483 46.993187 1.714987
13.588306 46.993187 1.780668
13.902128 46.993187 1.800932
14.215952 46.993187 1.842277
14.529776 46.993187 1.873984
14.843597 46.993187 1.871304
15.157421 46.993187 1.804709
15.471243 46.993187 1.602943
15.785067 46.993187 1.547838
16.098890 46.993187 1.463147
16.412712 46.993187 1.377427
16.726536 46.993187 1.308467
17.040359 46.993187 1.239439
17.354181 46.993187 1.178353
17.668005 46.993187 1.181877
17.981829 46.993187 1.179966
18.295650 46.993187 1.247521
18.609474 46.993187 1.443208
18.923298 46.993187 1.863442
19.237120 46.993187 0.000000
-6.810190 46.679363 0.000000
-6.496367 46.679363 0.000000
-6.182544 46.679363 0.036755
-5.868721 46.679363 0.032363
-5.554898 46.679363 0.032319
-5.241075 46.679363 0.032515
-4.927252 46.679363 0.032047
-4.613429 46.679363 0.032592
-4.299606 46.679363 0.033531
-3.985783 46.679363 0.033618
-3.671960 46.679363 0.033857
-3.358137 46.679363 0.032630
-3.044314 46.679363 0.032437
-2.730491 46.679363 0.033093
-2.416668 46.679363 0.033098
-2.102845 46.679363 0.033028
-1.789022 46.679363 0.033046
-1.475199 46.679363 0.032906
-1.161376 46.679363 0.033864
-0.847553 46.679363 0.033454
-0.533730 46.679363 0.032704
-0.219907 46.679363 0.033199
0.093916 46.679363 0.033864
0.407739 46.679363 0.032931
0.721562 46.679363 0.031984
1.035385 46.679363 0.032466
1.349208 46.679363 0.031898
1.663032 46.679363 0.031179
1.976854 46.679363 0.030926
2.290677 46.679363 0.031413
2.604500 46.679363 0.031927
2.918324 46.679363 0.031765
3.232146 46.679363 0.031845
3.545969 46.679363 0.031631
3.859793 46.679363 0.031704
4.173615 46.679363 0.031908
4.487438 46.679363 0.030989
4.801261 46.679363 0.029841
5.115085 46.679363 0.030064
5.428907 46.679363 0.031051
5.742730 46.679363 0.030714
6.056554 46.679363 0.030149
6.370377 46.679363 0.030651
6.684199 46.679363 0.032198
6.998022 46.679363 0.033444
7.311846 46.679363 0.035135
7.625669 46.679363 0.037873
7.939491 46.679363 0.042568
8.253315 46.679363 0.051200
8.567138 46.679363 0.062909
8.880960 46.679363 0.080940
9.194784 46.679363 0.107386
9.508606 46.679363 0.148772
9.822430 46.679363 0.208344
10.136253 46.679363 0.287399
10.450075 46.679363 0.396785
10.763899 46.679363 0.532127
11.077723 46.679363 0.682113
11.391544 46.679363 0.852304
11.705368 46.679363 1.009344
12.019190 46.679363 1.151042
12.333014 46.679363 1.271110
12.646837 46.679363 1.369167
12.960659 46.679363 1.467501
13.274483 46.679363 1.583951
13.588306 46.679363 1.659773
13.902128 46.679363 1.676518
14.215952 46.679363 1.701544
14.529776 46.679363 1.745933
14.843597 46.679363 1.759928
15.157421 46.679363 1.681088
15.471243 46.679363 1.569453
15.785067 46.679363 1.486810
16.098890 46.679363 1.376881
16.412712 46.679363 1.285776
16.726536 46.679363 1.226725
17.040359 46.679363 1.173340
17.354181 46.679363 1.136014
17.668005 46.679363 1.115643
17.981829 46.679363 1.133152
18.295650 46.679363 1.179173
18.609474 46.679363 1.426864
18.923298 46.679363 1.921563
19.237120 46.679363 0.000000
-6.810190 46.365540 0.000000
-6.496367 46.365540 0.000000
-6.182544 46.365540 0.036809
-5.868721 46.365540 0.032850
-5.554898 46.365540 0.032753
-5.241075 46.365540 0.032638
-4.927252 46.365540 0.031836
-4.613429 46.365540 0.031909
-4.299606 46.365540 0.032438
-3.985783 46.365540 0.032649
-3.671960 46.365540 0.032646
-3.358137 46.365540 0.032369
-3.044314 46.365540 0.032148
-2.730491 46.365540 0.032984
-2.416668 46.365540 0.032616
-2.102845 46.365540 0.032804
-1.789022 46.365540 0.032946
-1.475199 46.365540 0.033085
-1.161376 46.365540 0.033422
-0.847553 46.365540 0.032874
-0.533730 46.365540 0.032328
-0.219907 46.365540 0.032330
0.093916 46.365540 0.032450
0.407739 46.365540 0.031910
0.721562 46.365540 0.031593
1.035385 46.365540 0.031674
1.349208 46.365540 0.030870
1.663032 46.365540 0.029990
1.976854 46.365540 0.030018
2.290677 46.365540 0.030679
2.604500 46.365540 0.031180
2.918324 46.365540 0.031178
3.232146 46.365540 0.031325
3.545969 46.365540 0.031037
3.859793 46.365540 0.030755
4.173615 46.365540 0.030855
4.487438 46.365540 0.030190
4.801261 46.365540 0.029508
5.115085 46.365540 0.029413
5.428907 46.365540 0.029904
5.742730 46.365540 0.029581
6.056554 46.365540 0.029647
6.370377 46.365540 0.029880
6.684199 46.365540 0.030950
6.998022 46.365540 0.032733
7.311846 46.365540 0.034235
7.625669 46.365540 0.036579
7.939491 46.365540 0.040478
8.253315 46.365540 0.049161
8.567138 46.365540 0.059721
8.880960 46.365540 0.077459
9.194784 46.365540 0.104786
9.508606 46.365540 0.142234
9.822430 46.365540 0.197158
10.136253 46.365540 0.283935
10.450075 46.365540 0.397202
10.763899 46.365540 0.523929
11.077723 46.365540 0.672362
11.391544 46.365540 0.845935
11.705368 46.365540 0.980259
12.019190 46.365540 1.112946
12.333014 46.365540 1.230659
12.646837 46.365540 1.329383
12.960659 46.365540 1.424734
13.274483 46.365540 1.578518
13.588306 46.365540 1.652939
13.902128 46.365540 1.669414
14.215952 46.365540 1.689217
14.529776 46.365540 1.701519
14.843597 46.365540 1.730610
15.157421 46.365540 1.694677
15.471243 46.365540 1.571604
15.785067 46.365540 1.472448
16.098890 46.365540 1.399309
16.412712 46.365540 1.271727
16.726536 46.365540 1.197830
17.040359 46.365540 1.162704
17.354181 46.365540 1.101464
17.668005 46.365540 1.104746
17.981829 46.365540 1.116280
18.295650 46.365540 1.162474
18.609474 46.365540 1.369504
18.923298 46.365540 1.877640
19.237120 46.365540 0.000000
-6.810190 46.051716 0.000000
-6.496367 46.051716 0.000000
-6.182544 46.051716 0.037426
-5.868721 46.051716 0.033935
-5.554898 46.051716 0.033967
-5.241075 46.051716 0.033462
-4.927252 46.051716 0.032408
-4.613429 46.051716 0.032429
-4.299606 46.051716 0.032481
-3.985783 46.051716 0.032363
-3.671960 46.051716 0.032287
-3.358137 46.051716 0.032428
-3.044314 46.051716 0.032191
-2.730491 46.051716 0.032530
-2.416668 46.051716 0.032445
-2.102845 46.051716 0.032680
-1.789022 46.051716 0.033175
-1.475199 46.051716 0.033756
-1.161376 46.051716 0.033805
-0.847553 46.051716 0.033116
-0.533730 46.051716 0.032694
-0.219907 46.051716 0.032038
0.093916 46.051716 0.031630
0.407739 46.051716 0.031400
0.721562 46.051716 0.031504
1.035385 46.051716 0.031362
1.349208 46.051716 0.030903
1.663032 46.051716 0.030220
1.976854 46.051716 0.030437
2.290677 46.051716 0.030622
2.604500 46.051716 0.030635
2.918324 46.051716 0.030914
3.232146 46.051716 0.031444
3.545969 46.051716 0.031038
3.859793 46.051716 0.030297
4.173615 46.051716 0.030518
4.487438 46.051716 0.030154
4.801261 46.051716 0.029878
5.115085 46.051716 0.030025
5.428907 46.051716 0.029640
5.742730 46.051716 0.029192
6.056554 46.051716 0.029672
6.370377 46.051716 0.029370
6.684199 46.051716 0.030343
6.998022 46.051716 0.032207
7.311846 46.051716 0.034513
7.625669 46.051716 0.036735
7.939491 46.051716 0.040214
8.253315 46.051716 0.048452
8.567138 46.051716 0.058263
8.880960 46.051716 0.075371
9.194784 46.051716 0.105283
9.508606 46.051716 0.143564
9.822430 46.051716 0.196707
10.136253 46.051716 0.283935
10.450075 46.051716 0.394358
10.763899 46.051716 0.524254
11.077723 46.051716 0.665566
11.391544 46.051716 0.827451
11.705368 46.051716 0.985259
12.019190 46.051716 1.109187
12.333014 46.051716 1.208149
12.646837 46.051716 1.325826
12.960659 46.051716 1.447570
13.274483 46.051716 1.574039
13.588306 46.051716 1.628278
13.902128 46.051716 1.648749
14.215952 46.051716 1.679864
14.529776 46.051716 1.684559
14.843597 46.051716 1.678629
15.157421 46.051716 1.668262
15.471243 46.051716 1.554924
15.785067 46.051716 1.452967
16.098890 46.051716 1.361389
16.412712 46.051716 1.259470
16.726536 46.051716 1.211176
17.040359 46.051716 1.145160
17.354181 46.051716 1.087990
17.668005 46.051716 1.101637
17.981829 46.051716 1.119160
18.295650 46.051716 1.166475
18.609474 46.051716 1.343291
18.923298 46.051716 1.845527
19.237120 46.051716 0.000000
-6.810190 45.737896 0.000000
-6.496367 45.737896 0.000000
-6.182544 45.737896 0.036493
-5.868721 45.737896 0.033728
-5.554898 45.737896 0.034201
-5.241075 45.737896 0.034168
-4.927252 45.737896 0.032977
-4.613429 45.737896 0.032854
-4.299606 45.737896 0.032960
-3.985783 45.737896 0.032371
-3.671960 45.737896 0.032027
-3.358137 45.737896 0.032153
-3.044314 45.737896 0.032105
-2.730491 45.737896 0.032036
-2.416668 45.737896 0.031815
-2.102845 45.737896 0.032223
-1.789022 45.737896 0.032957
-1.475199 45.737896 0.033883
-1.161376 45.737896 0.033969
-0.847553 45.737896 0.033391
-0.533730 45.737896 0.032857
-0.219907 45.737896 0.031973
0.093916 45.737896 0.031514
0.407739 45.737896 0.031226
0.721562 45.737896 0.031273
1.035385 45.737896 0.030957
1.349208 45.737896 0.030756
1.663032 45.737896 0.030458
1.976854 45.737896 0.030228
2.290677 45.737896 0.029824
2.604500 45.737896 0.029352
2.918324 45.737896 0.029911
3.232146 45.737896 0.030741
3.545969 45.737896 0.030444
3.859793 45.737896 0.029614
4.173615 45.737896 0.029884
4.487438 45.737896 0.029636
4.801261 45.737896 0.029817
5.115085 45.737896 0.030125
5.428907 45.737896 0.029388
5.742730 45.737896 0.028592
6.056554 45.737896 0.028952
6.370377 45.737896 0.028663
6.684199 45.737896 0.029647
6.998022 45.737896 0.031671
7.311846 45.737896 0.034066
7.625669 45.737896 0.036641
7.939491 45.737896 0.039534
8.253315 45.737896 0.046823
8.567138 45.737896 0.057414
8.880960 45.737896 0.073969
9.194784 45.737896 0.103746
9.508606 45.737896 0.141728
9.822430 45.737896 0.200423
10.136253 45.737896 0.282718
10.450075 45.737896 0.390579
10.763899 45.737896 0.510585
11.077723 45.737896 0.642579
11.391544 45.737896 0.802549
11.705368 45.737896 0.978600
12.019190 45.737896 1.104527
12.333014 45.737896 1.203241
12.646837 45.737896 1.324450
12.960659 45.737896 1.462780
13.274483 45.737896 1.550514
13.588306 45.737896 1.618595
13.902128 45.737896 1.667855
14.215952 45.737896 1.664310
14.529776 45.737896 1.669767
14.843597 45.737896 1.639210
15.157421 45.737896 1.647609
15.471243 45.737896 1.544739
15.785067 45.737896 1.441084
16.098890 45.737896 1.338702
16.412712 45.737896 1.242124
16.726536 45.737896 1.188249
17.040359 45.737896 1.134355
17.354181 45.737896 1.098480
17.668005 45.737896 1.114752
17.981829 45.737896 1.105069
18.295650 45.737896 1.148097
18.609474 45.737896 1.342201
18.923298 45.737896 1.804664
19.237120 45.737896 0.000000
-6.810190 45.424072 0.000000
-6.496367 45.424072 0.000000
-6.182544 45.424072 0.036041
-5.868721 45.424072 0.032984
-5.554898 45.424072 0.033612
-5.241075 45.424072 0.034028
-4.927252 45.424072 0.032839
-4.613429 45.424072 0.033176
-4.299606 45.424072 0.033338
-3.985783 45.424072 0.032786
-3.671960 45.424072 0.032252
-3.358137 45.424072 0.031881
-3.044314 45.424072 0.032279
-2.730491 45.424072 0.032251
-2.416668 45.424072 0.031883
-2.102845 45.424072 0.031920
-1.789022 45.424072 0.032426
-1.475199 45.424072 0.032899
-1.161376 45.424072 0.033132
-0.847553 45.424072 0.032752
-0.533730 45.424072 0.032694
-0.219907 45.424072 0.032817
0.093916 45.424072 0.032447
0.407739 45.424072 0.031556
0.721562 45.424072 0.031269
1.035385 45.424072 0.030817
1.349208 45.424072 0.030771
1.663032 45.424072 0.030629
1.976854 45.424072 0.029735
2.290677 45.424072 0.029156
2.604500 45.424072 0.028630
2.918324 45.424072 0.029202
3.232146 45.424072 0.030098
3.545969 45.424072 0.029754
3.859793 45.424072 0.028961
4.173615 45.424072 0.028732
4.487438 45.424072 0.028767
4.801261 45.424072 0.028963
5.115085 45.424072 0.029621
5.428907 45.424072 0.029413
5.742730 45.424072 0.028197
6.056554 45.424072 0.028109
6.370377 45.424072 0.028214
6.684199 45.424072 0.029728
6.998022 45.424072 0.031205
7.311846 45.424072 0.033246
7.625669 45.424072 0.036040
7.939491 45.424072 0.039161
8.253315 45.424072 0.045616
8.567138 45.424072 0.055624
8.880960 45.424072 0.072030
9.194784 45.424072 0.100443
9.508606 45.424072 0.141142
9.822430 45.424072 0.200309
10.136253 45.424072 0.285165
10.450075 45.424072 0.384327
10.763899 45.424072 0.501490
11.077723 45.424072 0.642193
11.391544 45.424072 0.795831
11.705368 45.424072 0.961923
12.019190 45.424072 1.094332
12.333014 45.424072 1.189409
12.646837 45.424072 1.321334
12.960659 45.424072 1.459266
13.274483 45.424072 1.519302
13.588306 45.424072 1.588683
13.902128 45.424072 1.692550
14.215952 45.424072 1.689471
14.529776 45.424072 1.646424
14.843597 45.424072 1.635438
15.157421 45.424072 1.612015
15.471243 45.424072 1.534938
15.785067 45.424072 1.409848
16.098890 45.424072 1.318856
16.412712 45.424072 1.216381
16.726536 45.424072 1.152403
17.040359 45.424072 1.135600
17.354181 45.424072 1.094922
17.668005 45.424072 1.107826
17.981829 45.424072 1.092360
18.295650 45.424072 1.125517
18.609474 45.424072 1.353695
18.923298 45.424072 1.776099
19.237120 45.424072 0.000000
-6.810190 45.110249 0.000000
-6.496367 45.110249 0.000000
-6.182544 45.110249 0.036290
-5.868721 45.110249 0.032587
-5.554898 45.110249 0.032938
-5.241075 45.110249 0.033510
-4.927252 45.110249 0.032513
-4.613429 45.110249 0.033092
-4.299606 45.110249 0.033797
-3.985783 45.110249 0.033031
-3.671960 45.110249 0.032347
-3.358137 45.110249 0.031980
-3.044314 45.110249 0.032480
-2.730491 45.110249 0.032271
-2.416668 45.110249 0.031975
-2.102845 45.110249 0.031979
-1.789022 45.110249 0.031877
-1.475199 45.110249 0.031838
-1.161376 45.110249 0.031939
-0.847553 45.110249 0.032038
-0.533730 45.110249 0.032581
-0.219907 45.110249 0.033297
0.093916 45.110249 0.032874
0.407739 45.110249 0.031479
0.721562 45.110249 0.031399
1.035385 45.110249 0.030860
1.349208 45.110249 0.030490
1.663032 45.110249 0.030390
1.976854 45.110249 0.029682
2.290677 45.110249 0.029301
2.604500 45.110249 0.029044
2.918324 45.110249 0.029299
3.232146 45.110249 0.029053
3.545969 45.110249 0.029042
3.859793 45.110249 0.028471
4.173615 45.110249 0.028138
4.487438 45.110249 0.028136
4.801261 45.110249 0.027852
5.115085 45.110249 0.028645
5.428907 45.110249 0.028922
5.742730 45.110249 0.027744
6.056554 45.110249 0.027431
6.370377 45.110249 0.028110
6.684199 45.110249 0.029868
6.998022 45.110249 0.030804
7.311846 45.110249 0.032484
7.625669 45.110249 0.035060
7.939491 45.110249 0.038732
8.253315 45.110249 0.045278
8.567138 45.110249 0.054343
8.880960 45.110249 0.071628
9.194784 45.110249 0.100178
9.508606 45.110249 0.141609
9.822430 45.110249 0.201968
10.136253 45.110249 0.280470
10.450075 45.110249 0.390115
10.763899 45.110249 0.506061
11.077723 45.110249 0.646197
11.391544 45.110249 0.791119
11.705368 45.110249 0.948148
12.019190 45.110249 1.109643
12.333014 45.110249 1.221259
12.646837 45.110249 1.332739
12.960659 45.110249 1.433678
13.274483 45.110249 1.499719
13.588306 45.110249 1.591546
13.902128 45.110249 1.660568
14.215952 45.110249 1.668240
14.529776 45.110249 1.651254
14.843597 45.110249 1.604172
15.157421 45.110249 1.617701
15.471243 45.110249 1.534087
15.785067 45.110249 1.415430
16.098890 45.110249 1.299252
16.412712 45.110249 1.213931
16.726536 45.110249 1.171049
17.040359 45.110249 1.124286
17.354181 45.110249 1.105314
17.668005 45.110249 1.082338
17.981829 45.110249 1.071461
18.295650 45.110249 1.139429
18.609474 45.110249 1.347311
18.923298 45.110249 1.758932
19.237120 45.110249 0.000000
-6.810190 44.796425 0.000000
-6.496367 44.796425 0.000000
-6.182544 44.796425 0.036454
-5.868721 44.796425 0.032414
-5.554898 44.796425 0.032352
-5.241075 44.796425 0.032742
-4.927252 44.796425 0.032037
-4.613429 44.796425 0.032911
-4.299606 44.796425 0.033967
-3.985783 44.796425 0.032873
-3.671960 44.796425 0.032355
-3.358137 44.796425 0.031894
-3.044314 44.796425 0.032557
-2.730491 44.796425 0.032420
-2.416668 44.796425 0.032142
-2.102845 44.796425 0.032199
-1.789022 44.796425 0.031691
-1.475199 44.796425 0.031343
-1.161376 44.796425 0.031652
-0.847553 44.796425 0.031485
-0.533730 44.796425 0.032241
-0.219907 44.796425 0.032767
0.093916 44.796425 0.032289
0.407739 44.796425 0.031245
0.721562 44.796425 0.030868
1.035385 44.796425 0.030614
1.349208 44.796425 0.030329
1.663032 44.796425 0.030356
1.976854 44.796425 0.030171
2.290677 44.796425 0.029953
2.604500 44.796425 0.029480
2.918324 44.796425 0.029348
3.232146 44.796425 0.028295
3.545969 44.796425 0.028076
3.859793 44.796425 0.027688
4.173615 44.796425 0.027716
4.487438 44.796425 0.027730
4.801261 44.796425 0.026965
5.115085 44.796425 0.027500
5.428907 44.796425 0.027888
5.742730 44.796425 0.027196
6.056554 44.796425 0.026986
6.370377 44.796425 0.028088
6.684199 44.796425 0.029897
6.998022 44.796425 0.030797
7.311846 44.796425 0.032328
7.625669 44.796425 0.034778
7.939491 44.796425 0.038264
8.253315 44.796425 0.044820
8.567138 44.796425 0.053526
8.880960 44.796425 0.071747
9.194784 44.796425 0.099944
9.508606 44.796425 0.140820
9.822430 44.796425 0.200059
10.136253 44.796425 0.279623
10.450075 44.796425 0.389593
10.763899 44.796425 0.520073
11.077723 44.796425 0.656294
11.391544 44.796425 0.810312
11.705368 44.796425 0.957058
12.019190 44.796425 1.096597
12.333014 44.796425 1.245240
12.646837 44.796425 1.339683
12.960659 44.796425 1.429931
13.274483 44.796425 1.503809
13.588306 44.796425 1.559614
13.902128 44.796425 1.664723
14.215952 44.796425 1.665919
14.529776 44.796425 1.671643
14.843597 44.796425 1.637515
15.157421 44.796425 1.574451
15.471243 44.796425 1.487904
15.785067 44.796425 1.383153
16.098890 44.796425 1.298713
16.412712 44.796425 1.214809
16.726536 44.796425 1.146056
17.040359 44.796425 1.105945
17.354181 44.796425 1.084685
17.668005 44.796425 1.076123
17.981829 44.796425 1.070415
18.295650 44.796425 1.136542
18.609474 44.796425 1.354393
18.923298 44.796425 1.816914
19.237120 44.796425 0.000000
-6.810190 44.482601 0.000000
-6.496367 44.482601 0.000000
-6.182544 44.482601 0.036661
-5.868721 44.482601 0.032297
-5.554898 44.482601 0.031892
-5.241075 44.482601 0.031963
-4.927252 44.482601 0.031706
-4.613429 44.482601 0.032571
-4.299606 44.482601 0.033945
-3.985783 44.482601 0.033069
-3.671960 44.482601 0.032329
-3.358137 44.482601 0.031960
-3.044314 44.482601 0.032131
-2.730491 44.482601 0.032745
-2.416668 44.482601 0.032236
-2.102845 44.482601 0.031972
-1.789022 44.482601 0.031176
-1.475199 44.482601 0.030974
-1.161376 44.482601 0.031692
-0.847553 44.482601 0.031181
-0.533730 44.482601 0.031419
-0.219907 44.482601 0.031459
0.093916 44.482601 0.030960
0.407739 44.482601 0.030669
0.721562 44.482601 0.030461
1.035385 44.482601 0.030463
1.349208 44.482601 0.030252
1.663032 44.482601 0.030036
1.976854 44.482601 0.030553
2.290677 44.482601 0.030542
2.604500 44.482601 0.029424
2.918324 44.482601 0.029000
3.232146 44.482601 0.027780
3.545969 44.482601 0.027057
3.859793 44.482601 0.026641
4.173615 44.482601 0.027132
4.487438 44.482601 0.027097
4.801261 44.482601 0.026356
5.115085 44.482601 0.026237
5.428907 44.482601 0.026522
5.742730 44.482601 0.026341
6.056554 44.482601 0.026468
6.370377 44.482601 0.027551
6.684199 44.482601 0.029371
6.998022 44.482601 0.030516
7.311846 44.482601 0.032121
7.625669 44.482601 0.034647
7.939491 44.482601 0.038753
8.253315 44.482601 0.045822
8.567138 44.482601 0.054140
8.880960 44.482601 0.069160
9.194784 44.482601 0.097675
9.508606 44.482601 0.136691
9.822430 44.482601 0.197526
10.136253 44.482601 0.280975
10.450075 44.482601 0.388816
10.763899 44.482601 0.518967
11.077723 44.482601 0.669751
11.391544 44.482601 0.837250
11.705368 44.482601 0.977952
12.019190 44.482601 1.102230
12.333014 44.482601 1.230332
12.646837 44.482601 1.320285
12.960659 44.482601 1.403708
13.274483 44.482601 1.487603
13.588306 44.482601 1.572201
13.902128 44.482601 1.638072
14.215952 44.482601 1.676778
14.529776 44.482601 1.675361
14.843597 44.482601 1.634306
15.157421 44.482601 1.563837
15.471243 44.482601 1.479033
15.785067 44.482601 1.373200
16.098890 44.482601 1.315089
16.412712 44.482601 1.214059
16.726536 44.482601 1.143515
17.040359 44.482601 1.096881
17.354181 44.482601 1.066113
17.668005 44.482601 1.075151
17.981829 44.482601 1.071859
18.295650 44.482601 1.139578
18.609474 44.482601 1.363583
18.923298 44.482601 1.799228
19.237120 44.482601 0.000000
-6.810190 44.168777 0.000000
-6.496367 44.168777 0.000000
-6.182544 44.168777 0.036683
-5.868721 44.168777 0.032528
-5.554898 44.168777 0.031795
-5.241075 44.168777 0.031742
-4.927252 44.168777 0.031668
-4.613429 44.168777 0.032228
-4.299606 44.168777 0.033419
-3.985783 44.168777 0.032969
-3.671960 44.168777 0.032314
-3.358137 44.168777 0.031864
-3.044314 44.168777 0.032064
-2.730491 44.168777 0.032816
-2.416668 44.168777 0.032664
-2.102845 44.168777 0.031990
-1.789022 44.168777 0.030607
-1.475199 44.168777 0.030668
-1.161376 44.168777 0.031108
-0.847553 44.168777 0.030779
-0.533730 44.168777 0.030697
-0.219907 44.168777 0.030524
0.093916 44.168777 0.030141
0.407739 44.168777 0.029855
0.721562 44.168777 0.029777
1.035385 44.168777 0.029992
1.349208 44.168777 0.029909
1.663032 44.168777 0.029650
1.976854 44.168777 0.030190
2.290677 44.168777 0.030363
2.604500 44.168777 0.028685
2.918324 44.168777 0.028310
3.232146 44.168777 0.027826
3.545969 44.168777 0.026814
3.859793 44.168777 0.025936
4.173615 44.168777 0.026459
4.487438 44.168777 0.026464
4.801261 44.168777 0.025850
5.115085 44.168777 0.025262
5.428907 44.168777 0.025365
5.742730 44.168777 0.025602
6.056554 44.168777 0.025939
6.370377 44.168777 0.026615
6.684199 44.168777 0.028328
6.998022 44.168777 0.029987
7.311846 44.168777 0.032087
7.625669 44.168777 0.034958
7.939491 44.168777 0.039032
8.253315 44.168777 0.046231
8.567138 44.168777 0.055429
8.880960 44.168777 0.068000
9.194784 44.168777 0.094837
9.508606 44.168777 0.136390
9.822430 44.168777 0.193375
10.136253 44.168777 0.275262
10.450075 44.168777 0.379034
10.763899 44.168777 0.530314
11.077723 44.168777 0.681302
11.391544 44.168777 0.842241
11.705368 44.168777 0.980678
12.019190 44.168777 1.114740
12.333014 44.168777 1.225672
12.646837 44.168777 1.324639
12.960659 44.168777 1.426918
13.274483 44.168777 1.517823
13.588306 44.168777 1.611977
13.902128 44.168777 1.684295
14.215952 44.168777 1.711067
14.529776 44.168777 1.682318
14.843597 44.168777 1.605100
15.157421 44.168777 1.562366
15.471243 44.168777 1.474065
15.785067 44.168777 1.397459
16.098890 44.168777 1.290704
16.412712 44.168777 1.203829
16.726536 44.168777 1.154407
17.040359 44.168777 1.095917
17.354181 44.168777 1.050611
17.668005 44.168777 1.059081
17.981829 44.168777 1.078270
18.295650 44.168777 1.152277
18.609474 44.168777 1.343212
18.923298 44.168777 1.786115
19.237120 44.168777 0.000000
-6.810190 43.854958 0.000000
-6.496367 43.854958 0.000000
-6.182544 43.854958 0.036130
-5.868721 43.854958 0.032168
-5.554898 43.854958 0.031400
-5.241075 43.854958 0.031172
-4.927252 43.854958 0.031703
-4.613429 43.854958 0.031880
-4.299606 43.854958 0.032684
-3.985783 43.854958 0.032589
-3.671960 43.854958 0.031933
-3.358137 43.854958 0.031720
-3.044314 43.854958 0.032131
-2.730491 43.854958 0.032831
-2.416668 43.854958 0.033205
-2.102845 43.854958 0.032128
-1.789022 43.854958 0.030752
-1.475199 43.854958 0.030185
-1.161376 43.854958 0.030229
-0.847553 43.854958 0.030188
-0.533730 43.854958 0.030322
-0.219907 43.854958 0.030319
0.093916 43.854958 0.029724
0.407739 43.854958 0.029415
0.721562 43.854958 0.029011
1.035385 43.854958 0.029568
1.349208 43.854958 0.029435
1.663032 43.854958 0.029177
1.976854 43.854958 0.029437
2.290677 43.854958 0.029087
2.604500 43.854958 0.027549
2.918324 43.854958 0.028067
3.232146 43.854958 0.028344
3.545969 43.854958 0.027146
3.859793 43.854958 0.025651
4.173615 43.854958 0.025876
4.487438 43.854958 0.025854
4.801261 43.854958 0.025444
5.115085 43.854958 0.024750
5.428907 43.854958 0.024913
5.742730 43.854958 0.025050
6.056554 43.854958 0.025302
6.370377 43.854958 0.025685
6.684199 43.854958 0.027123
6.998022 43.854958 0.029134
7.311846 43.854958 0.031661
7.625669 43.854958 0.034809
7.939491 43.854958 0.038890
8.253315 43.854958 0.046188
8.567138 43.854958 0.055608
8.880960 43.854958 0.069118
9.194784 43.854958 0.091242
9.508606 43.854958 0.134667
9.822430 43.854958 0.196635
10.136253 43.854958 0.274189
10.450075 43.854958 0.375583
10.763899 43.854958 0.519432
11.077723 43.854958 0.679607
11.391544 43.854958 0.811450
11.705368 43.854958 0.978025
12.019190 43.854958 1.105307
12.333014 43.854958 1.227120
12.646837 43.854958 1.338595
12.960659 43.854958 1.429258
13.274483 43.854958 1.537395
13.588306 43.854958 1.626719
13.902128 43.854958 1.715298
14.215952 43.854958 1.721174
14.529776 43.854958 1.688302
14.843597 43.854958 1.608464
15.157421 43.854958 1.543635
15.471243 43.854958 1.505848
15.785067 43.854958 1.409967
16.098890 43.854958 1.299371
16.412712 43.854958 1.201245
16.726536 43.854958 1.148609
17.040359 43.854958 1.104639
17.354181 43.854958 1.057167
17.668005 43.854958 1.058199
17.981829 43.854958 1.065450
18.295650 43.854958 1.141619
18.609474 43.854958 1.337682
18.923298 43.854958 1.798533
19.237120 43.854958 0.000000
-6.810190 43.541134 0.000000
-6.496367 43.541134 0.000000
-6.182544 43.541134 0.036137
-5.868721 43.541134 0.032034
-5.554898 43.541134 0.031320
-5.241075 43.541134 0.031084
-4.927252 43.541134 0.031658
-4.613429 43.541134 0.031891
-4.299606 43.541134 0.031642
-3.985783 43.541134 0.031939
-3.671960 43.541134 0.031451
-3.358137 43.541134 0.031590
-3.044314 43.541134 0.032312
-2.730491 43.541134 0.032529
-2.416668 43.541134 0.033442
-2.102845 43.541134 0.032640
-1.789022 43.541134 0.031277
-1.475199 43.541134 0.030359
-1.161376 43.541134 0.030073
-0.847553 43.541134 0.029894
-0.533730 43.541134 0.029735
-0.219907 43.541134 0.029944
0.093916 43.541134 0.029786
0.407739 43.541134 0.029302
0.721562 43.541134 0.029085
1.035385 43.541134 0.029285
1.349208 43.541134 0.029179
1.663032 43.541134 0.028977
1.976854 43.541134 0.028663
2.290677 43.541134 0.028169
2.604500 43.541134 0.027239
2.918324 43.541134 0.027986
3.232146 43.541134 0.028578
3.545969 43.541134 0.027393
3.859793 43.541134 0.025723
4.173615 43.541134 0.025351
4.487438 43.541134 0.025360
4.801261 43.541134 0.025074
5.115085 43.541134 0.024470
5.428907 43.541134 0.024532
5.742730 43.541134 0.024618
6.056554 43.541134 0.024764
6.370377 43.541134 0.025109
6.684199 43.541134 0.026202
6.998022 43.541134 0.027855
7.311846 43.541134 0.030677
7.625669 43.541134 0.034189
7.939491 43.541134 0.038487
8.253315 43.541134 0.044938
8.567138 43.541134 0.054763
8.880960 43.541134 0.070567
9.194784 43.541134 0.095096
9.508606 43.541134 0.133805
9.822430 43.541134 0.195905
10.136253 43.541134 0.275449
10.450075 43.541134 0.377720
10.763899 43.541134 0.513794
11.077723 43.541134 0.670515
11.391544 43.541134 0.805489
11.705368 43.541134 0.970913
12.019190 43.541134 1.130165
12.333014 43.541134 1.230431
12.646837 43.541134 1.322996
12.960659 43.541134 1.435882
13.274483 43.541134 1.558327
13.588306 43.541134 1.639950
13.902128 43.541134 1.714308
14.215952 43.541134 1.737555
14.529776 43.541134 1.705466
14.843597 43.541134 1.648308
15.157421 43.541134 1.580206
15.471243 43.541134 1.535293
15.785067 43.541134 1.399580
16.098890 43.541134 1.305872
16.412712 43.541134 1.207814
16.726536 43.541134 1.126078
17.040359 43.541134 1.077753
17.354181 43.541134 1.059360
17.668005 43.541134 1.054206
17.981829 43.541134 1.063541
18.295650 43.541134 1.129883
18.609474 43.541134 1.349722
18.923298 43.541134 1.782076
19.237120 43.541134 0.000000
-6.810190 43.227310 0.000000
-6.496367 43.227310 0.000000
-6.182544 43.227310 0.036865
-5.868721 43.227310 0.032563
-5.554898 43.227310 0.031562
-5.241075 43.227310 0.031457
-4.927252 43.227310 0.031306
-4.613429 43.227310 0.031552
-4.299606 43.227310 0.031163
-3.985783 43.227310 0.031496
-3.671960 43.227310 0.031280
-3.358137 43.227310 0.031492
-3.044314 43.227310 0.032330
-2.730491 43.227310 0.032242
-2.416668 43.227310 0.033587
-2.102845 43.227310 0.033230
-1.789022 43.227310 0.031978
-1.475199 43.227310 0.031163
-1.161376 43.227310 0.030838
-0.847553 43.227310 0.030084
-0.533730 43.227310 0.029553
-0.219907 43.227310 0.029805
0.093916 43.227310 0.029960
0.407739 43.227310 0.029652
0.721562 43.227310 0.029521
1.035385 43.227310 0.029375
1.349208 43.227310 0.029114
1.663032 43.227310 0.028858
1.976854 43.227310 0.028451
2.290677 43.227310 0.027621
2.604500 43.227310 0.027267
2.918324 43.227310 0.027698
3.232146 43.227310 0.027977
3.545969 43.227310 0.027166
3.859793 43.227310 0.025984
4.173615 43.227310 0.025275
4.487438 43.227310 0.025011
4.801261 43.227310 0.024726
5.115085 43.227310 0.024356
5.428907 43.227310 0.024266
5.742730 43.227310 0.024080
6.056554 43.227310 0.024411
6.370377 43.227310 0.024933
6.684199 43.227310 0.025753
6.998022 43.227310 0.026815
7.311846 43.227310 0.029522
7.625669 43.227310 0.032895
7.939491 43.227310 0.037730
8.253315 43.227310 0.043880
8.567138 43.227310 0.053127
8.880960 43.227310 0.070091
9.194784 43.227310 0.096629
9.508606 43.227310 0.135972
9.822430 43.227310 0.191397
10.136253 43.227310 0.275912
10.450075 43.227310 0.377763
10.763899 43.227310 0.505579
11.077723 43.227310 0.666858
11.391544 43.227310 0.797407
11.705368 43.227310 0.967171
12.019190 43.227310 1.110215
12.333014 43.227310 1.225495
12.646837 43.227310 1.308101
12.960659 43.227310 1.422078
13.274483 43.227310 1.539184
13.588306 43.227310 1.635076
13.902128 43.227310 1.704839
14.215952 43.227310 1.754573
14.529776 43.227310 1.718670
14.843597 43.227310 1.652815
15.157421 43.227310 1.570710
15.471243 43.227310 1.517948
15.785067 43.227310 1.402527
16.098890 43.227310 1.291428
16.412712 43.227310 1.196735
16.726536 43.227310 1.136017
17.040359 43.227310 1.068947
17.354181 43.227310 1.060859
17.668005 43.227310 1.056623
17.981829 43.227310 1.071359
18.295650 43.227310 1.129783
18.609474 43.227310 1.363235
18.923298 43.227310 1.789799
19.237120 43.227310 0.000000
-6.810190 42.913486 0.000000
-6.496367 42.913486 0.000000
-6.182544 42.913486 0.037661
-5.868721 42.913486 0.033127
-5.554898 42.913486 0.032059
-5.241075 42.913486 0.031526
-4.927252 42.913486 0.031025
-4.613429 42.913486 0.030938
-4.299606 42.913486 0.030917
-3.985783 42.913486 0.031296
-3.671960 42.913486 0.031249
-3.358137 42.913486 0.031179
-3.044314 42.913486 0.031332
-2.730491 42.913486 0.031209
-2.416668 42.913486 0.032983
-2.102845 42.913486 0.033195
-1.789022 42.913486 0.032377
-1.475199 42.913486 0.031945
-1.161376 42.913486 0.031939
-0.847553 42.913486 0.030910
-0.533730 42.913486 0.029629
-0.219907 42.913486 0.029843
0.093916 42.913486 0.030367
0.407739 42.913486 0.030437
0.721562 42.913486 0.029882
1.035385 42.913486 0.029057
1.349208 42.913486 0.028591
1.663032 42.913486 0.028765
1.976854 42.913486 0.028306
2.290677 42.913486 0.027448
2.604500 42.913486 0.027125
2.918324 42.913486 0.027050
3.232146 42.913486 0.027100
3.545969 42.913486 0.026626
3.859793 42.913486 0.026149
4.173615 42.913486 0.025677
4.487438 42.913486 0.025016
4.801261 42.913486 0.024581
5.115085 42.913486 0.024169
5.428907 42.913486 0.023992
5.742730 42.913486 0.023713
6.056554 42.913486 0.024165
6.370377 42.913486 0.025022
6.684199 42.913486 0.025636
6.998022 42.913486 0.026457
7.311846 42.913486 0.028176
7.625669 42.913486 0.031638
7.939491 42.913486 0.036588
8.253315 42.913486 0.042842
8.567138 42.913486 0.053431
8.880960 42.913486 0.070662
9.194784 42.913486 0.099360
9.508606 42.913486 0.135458
9.822430 42.913486 0.188210
10.136253 42.913486 0.273309
10.450075 42.913486 0.382476
10.763899 42.913486 0.514840
11.077723 42.913486 0.654767
11.391544 42.913486 0.791026
11.705368 42.913486 0.962627
12.019190 42.913486 1.093699
12.333014 42.913486 1.221761
12.646837 42.913486 1.313652
12.960659 42.913486 1.424539
13.274483 42.913486 1.533188
13.588306 42.913486 1.617767
13.902128 42.913486 1.680204
14.215952 42.913486 1.715734
14.529776 42.913486 1.713825
14.843597 42.913486 1.666018
15.157421 42.913486 1.589008
15.471243 42.913486 1.518782
15.785067 42.913486 1.379966
16.098890 42.913486 1.303148
16.412712 42.913486 1.204670
16.726536 42.913486 1.127441
17.040359 42.913486 1.075294
17.354181 42.913486 1.069110
17.668005 42.913486 1.080790
17.981829 42.913486 1.079470
18.295650 42.913486 1.146793
18.609474 42.913486 1.369594
18.923298 42.913486 1.790805
19.237120 42.913486 0.000000
-6.810190 42.599663 0.000000
-6.496367 42.599663 0.000000
-6.182544 42.599663 0.038378
-5.868721 42.599663 0.033673
-5.554898 42.599663 0.032386
-5.241075 42.599663 0.031798
-4.927252 42.599663 0.030627
-4.613429 42.599663 0.030742
-4.299606 42.599663 0.030916
-3.985783 42.599663 0.030882
-3.671960 42.599663 0.031201
-3.358137 42.599663 0.030416
-3.044314 42.599663 0.030142
-2.730491 42.599663 0.030213
-2.416668 42.599663 0.031581
-2.102845 42.599663 0.032325
-1.789022 42.599663 0.031936
-1.475199 42.599663 0.032122
-1.161376 42.599663 0.032682
-0.847553 42.599663 0.031192
-0.533730 42.599663 0.029806
-0.219907 42.599663 0.029642
0.093916 42.599663 0.030695
0.407739 42.599663 0.030971
0.721562 42.599663 0.029592
1.035385 42.599663 0.028522
1.349208 42.599663 0.027716
1.663032 42.599663 0.028011
1.976854 42.599663 0.027989
2.290677 42.599663 0.027182
2.604500 42.599663 0.027008
2.918324 42.599663 0.026474
3.232146 42.599663 0.026219
3.545969 42.599663 0.025851
3.859793 42.599663 0.025709
4.173615 42.599663 0.025608
4.487438 42.599663 0.024991
4.801261 42.599663 0.024566
5.115085 42.599663 0.024176
5.428907 42.599663 0.023718
5.742730 42.599663 0.023238
6.056554 42.599663 0.023939
6.370377 42.599663 0.025030
6.684199 42.599663 0.025465
6.998022 42.599663 0.026240
7.311846 42.599663 0.027496
7.625669 42.599663 0.030571
7.939491 42.599663 0.035882
8.253315 42.599663 0.041886
8.567138 42.599663 0.053249
8.880960 42.599663 0.070521
9.194784 42.599663 0.097158
9.508606 42.599663 0.136587
9.822430 42.599663 0.189355
10.136253 42.599663 0.266296
10.450075 42.599663 0.380655
10.763899 42.599663 0.513304
11.077723 42.599663 0.643527
11.391544 42.599663 0.800213
11.705368 42.599663 0.965713
12.019190 42.599663 1.089368
12.333014 42.599663 1.211572
12.646837 42.599663 1.296705
12.960659 42.599663 1.413421
13.274483 42.599663 1.536918
13.588306 42.599663 1.604379
13.902128 42.599663 1.665463
14.215952 42.599663 1.692291
14.529776 42.599663 1.690474
14.843597 42.599663 1.654070
15.157421 42.599663 1.598110
15.471243 42.599663 1.504543
15.785067 42.599663 1.386982
16.098890 42.599663 1.293091
16.412712 42.599663 1.215994
16.726536 42.599663 1.134701
17.040359 42.599663 1.074049
17.354181 42.599663 1.055841
17.668005 42.599663 1.054947
17.981829 42.599663 1.072300
18.295650 42.599663 1.147445
18.609474 42.599663 1.383135
18.923298 42.599663 1.822510
19.237120 42.599663 0.000000
-6.810190 42.285843 0.000000
-6.496367 42.285843 0.000000
-6.182544 42.285843 0.038158
-5.868721 42.285843 0.033671
-5.554898 42.285843 0.033027
-5.241075 42.285843 0.032401
-4.927252 42.285843 0.030840
-4.613429 42.285843 0.030933
-4.299606 42.285843 0.031162
-3.985783 42.285843 0.031061
-3.671960 42.285843 0.031040
-3.358137 42.285843 0.030202
-3.044314 42.285843 0.029749
-2.730491 42.285843 0.029872
-2.416668 42.285843 0.030353
-2.102845 42.285843 0.031311
-1.789022 42.285843 0.031450
-1.475199 42.285843 0.032224
-1.161376 42.285843 0.032489
-0.847553 42.285843 0.031086
-0.533730 42.285843 0.029930
-0.219907 42.285843 0.029591
0.093916 42.285843 0.030921
0.407739 42.285843 0.030960
0.721562 42.285843 0.028954
1.035385 42.285843 0.027745
1.349208 42.285843 0.027024
1.663032 42.285843 0.027256
1.976854 42.285843 0.027433
2.290677 42.285843 0.026860
2.604500 42.285843 0.026355
2.918324 42.285843 0.025897
3.232146 42.285843 0.025397
3.545969 42.285843 0.025092
3.859793 42.285843 0.025070
4.173615 42.285843 0.025179
4.487438 42.285843 0.024788
4.801261 42.285843 0.024424
5.115085 42.285843 0.024060
5.428907 42.285843 0.023487
5.742730 42.285843 0.023014
6.056554 42.285843 0.023542
6.370377 42.285843 0.024722
6.684199 42.285843 0.025151
6.998022 42.285843 0.026098
7.311846 42.285843 0.027406
7.625669 42.285843 0.030203
7.939491 42.285843 0.034672
8.253315 42.285843 0.042168
8.567138 42.285843 0.052687
8.880960 42.285843 0.069235
9.194784 42.285843 0.096196
9.508606 42.285843 0.134309
9.822430 42.285843 0.186255
10.136253 42.285843 0.266119
10.450075 42.285843 0.373843
10.763899 42.285843 0.515398
11.077723 42.285843 0.651430
11.391544 42.285843 0.800079
11.705368 42.285843 0.954647
12.019190 42.285843 1.088433
12.333014 42.285843 1.205022
12.646837 42.285843 1.328639
12.960659 42.285843 1.448708
13.274483 42.285843 1.512750
13.588306 42.285843 1.612198
13.902128 42.285843 1.666635
14.215952 42.285843 1.694428
14.529776 42.285843 1.673428
14.843597 42.285843 1.681922
15.157421 42.285843 1.604645
15.471243 42.285843 1.522330
15.785067 42.285843 1.422321
16.098890 42.285843 1.301778
16.412712 42.285843 1.227525
16.726536 42.285843 1.144579
17.040359 42.285843 1.073091
17.354181 42.285843 1.046021
17.668005 42.285843 1.060400
17.981829 42.285843 1.070679
18.295650 42.285843 1.171832
18.609474 42.285843 1.406870
18.923298 42.285843 1.842944
19.237120 42.285843 0.000000
-6.810190 41.972019 0.000000
-6.496367 41.972019 0.000000
-6.182544 41.972019 0.036659
-5.868721 41.972019 0.032710
-5.554898 41.972019 0.033085
-5.241075 41.972019 0.032965
-4.927252 41.972019 0.031297
-4.613429 41.972019 0.031379
-4.299606 41.972019 0.031517
-3.985783 41.972019 0.031069
-3.671960 41.972019 0.030923
-3.358137 41.972019 0.030623
-3.044314 41.972019 0.030495
-2.730491 41.972019 0.030438
-2.416668 41.972019 0.030427
-2.102845 41.972019 0.030926
-1.789022 41.972019 0.030893
-1.475199 41.972019 0.031547
-1.161376 41.972019 0.031687
-0.847553 41.972019 0.030756
-0.533730 41.972019 0.030187
-0.219907 41.972019 0.029927
0.093916 41.972019 0.030667
0.407739 41.972019 0.030363
0.721562 41.972019 0.028229
1.035385 41.972019 0.027235
1.349208 41.972019 0.026577
1.663032 41.972019 0.026471
1.976854 41.972019 0.026519
2.290677 41.972019 0.026030
2.604500 41.972019 0.025372
2.918324 41.972019 0.025307
3.232146 41.972019 0.024895
3.545969 41.972019 0.024503
3.859793 41.972019 0.024284
4.173615 41.972019 0.024610
4.487438 41.972019 0.024474
4.801261 41.972019 0.024173
5.115085 41.972019 0.023851
5.428907 41.972019 0.023640
5.742730 41.972019 0.023168
6.056554 41.972019 0.023328
6.370377 41.972019 0.024184
6.684199 41.972019 0.024755
6.998022 41.972019 0.025742
7.311846 41.972019 0.027269
7.625669 41.972019 0.029995
7.939491 41.972019 0.033897
8.253315 41.972019 0.041362
8.567138 41.972019 0.051654
8.880960 41.972019 0.068353
9.194784 41.972019 0.095488
9.508606 41.972019 0.134793
9.822430 41.972019 0.185792
10.136253 41.972019 0.260869
10.450075 41.972019 0.377871
10.763899 41.972019 0.511070
11.077723 41.972019 0.657504
11.391544 41.972019 0.789815
11.705368 41.972019 0.935238
12.019190 41.972019 1.074847
12.333014 41.972019 1.194371
12.646837 41.972019 1.334479
12.960659 41.972019 1.443228
13.274483 41.972019 1.538006
13.588306 41.972019 1.603785
13.902128 41.972019 1.667454
14.215952 41.972019 1.691873
14.529776 41.972019 1.670518
14.843597 41.972019 1.633873
15.157421 41.972019 1.594038
15.471243 41.972019 1.519343
15.785067 41.972019 1.444422
16.098890 41.972019 1.310121
16.412712 41.972019 1.211513
16.726536 41.972019 1.146218
17.040359 41.972019 1.060524
17.354181 41.972019 1.047974
17.668005 41.972019 1.061760
17.981829 41.972019 1.083213
18.295650 41.972019 1.173142
18.609474 41.972019 1.397498
18.923298 41.972019 1.843929
19.237120 41.972019 0.000000
-6.810190 41.658195 0.000000
-6.496367 41.658195 0.000000
-6.182544 41.658195 0.034620
-5.868721 41.658195 0.031301
-5.554898 41.658195 0.032432
-5.241075 41.658195 0.032963
-4.927252 41.658195 0.032287
-4.613429 41.658195 0.031948
-4.299606 41.658195 0.031831
-3.985783 41.658195 0.031137
-3.671960 41.658195 0.030882
-3.358137 41.658195 0.031211
-3.044314 41.658195 0.031731
-2.730491 41.658195 0.031609
-2.416668 41.658195 0.031359
-2.102845 41.658195 0.031137
-1.789022 41.658195 0.030544
-1.475199 41.658195 0.030954
-1.161376 41.658195 0.030941
-0.847553 41.658195 0.030392
-0.533730 41.658195 0.030418
-0.219907 41.658195 0.030481
0.093916 41.658195 0.030459
0.407739 41.658195 0.029774
0.721562 41.658195 0.028014
1.035385 41.658195 0.026965
1.349208 41.658195 0.026250
1.663032 41.658195 0.025885
1.976854 41.658195 0.025771
2.290677 41.658195 0.025156
2.604500 41.658195 0.024357
2.918324 41.658195 0.024615
3.232146 41.658195 0.024481
3.545969 41.658195 0.024059
3.859793 41.658195 0.023722
4.173615 41.658195 0.023870
4.487438 41.658195 0.024025
4.801261 41.658195 0.024188
5.115085 41.658195 0.023867
5.428907 41.658195 0.023849
5.742730 41.658195 0.023372
6.056554 41.658195 0.023148
6.370377 41.658195 0.023317
6.684199 41.658195 0.024029
6.998022 41.658195 0.025144
7.311846 41.658195 0.027068
7.625669 41.658195 0.029879
7.939491 41.658195 0.033182
8.253315 41.658195 0.039706
8.567138 41.658195 0.050548
8.880960 41.658195 0.066771
9.194784 41.658195 0.091293
9.508606 41.658195 0.129664
9.822430 41.658195 0.182647
10.136253 41.658195 0.260068
10.450075 41.658195 0.376088
10.763899 41.658195 0.509147
11.077723 41.658195 0.642652
11.391544 41.658195 0.778154
11.705368 41.658195 0.919554
12.019190 41.658195 1.073811
12.333014 41.658195 1.219066
12.646837 41.658195 1.325006
12.960659 41.658195 1.436346
13.274483 41.658195 1.511836
13.588306 41.658195 1.569483
13.902128 41.658195 1.635939
14.215952 41.658195 1.677065
14.529776 41.658195 1.671746
14.843597 41.658195 1.652023
15.157421 41.658195 1.568016
15.471243 41.658195 1.520354
15.785067 41.658195 1.435827
16.098890 41.658195 1.308297
16.412712 41.658195 1.218835
16.726536 41.658195 1.162174
17.040359 41.658195 1.075102
17.354181 41.658195 1.068850
17.668005 41.658195 1.071076
17.981829 41.658195 1.092030
18.295650 41.658195 1.150999
18.609474 41.658195 1.382115
18.923298 41.658195 1.834629
19.237120 41.658195 0.000000
-6.810190 41.344372 0.000000
-6.496367 41.344372 0.000000
-6.182544 41.344372 0.033750
-5.868721 41.344372 0.030760
-5.554898 41.344372 0.031552
-5.241075 41.344372 0.032586
-4.927252 41.344372 0.032693
-4.613429 41.344372 0.032517
-4.299606 41.344372 0.031820
-3.985783 41.344372 0.030978
-3.671960 41.344372 0.030861
-3.358137 41.344372 0.031452
-3.044314 41.344372 0.032485
-2.730491 41.344372 0.032346
-2.416668 41.344372 0.032486
-2.102845 41.344372 0.031241
-1.789022 41.344372 0.030319
-1.475199 41.344372 0.030268
-1.161376 41.344372 0.030647
-0.847553 41.344372 0.030101
-0.533730 41.344372 0.029990
-0.219907 41.344372 0.030548
0.093916 41.344372 0.030493
0.407739 41.344372 0.029506
0.721562 41.344372 0.028177
1.035385 41.344372 0.026766
1.349208 41.344372 0.026012
1.663032 41.344372 0.025701
1.976854 41.344372 0.025473
2.290677 41.344372 0.024750
2.604500 41.344372 0.023777
2.918324 41.344372 0.024090
3.232146 41.344372 0.024129
3.545969 41.344372 0.023750
3.859793 41.344372 0.023144
4.173615 41.344372 0.023189
4.487438 41.344372 0.023624
4.801261 41.344372 0.024299
5.115085 41.344372 0.024079
5.428907 41.344372 0.024005
5.742730 41.344372 0.023547
6.056554 41.344372 0.023064
6.370377 41.344372 0.022628
6.684199 41.344372 0.023244
6.998022 41.344372 0.024682
7.311846 41.344372 0.026667
7.625669 41.344372 0.029303
7.939491 41.344372 0.033358
8.253315 41.344372 0.039523
8.567138 41.344372 0.048938
8.880960 41.344372 0.066382
9.194784 41.344372 0.089630
9.508606 41.344372 0.129008
9.822430 41.344372 0.180400
10.136253 41.344372 0.265435
10.450075 41.344372 0.375830
10.763899 41.344372 0.501659
11.077723 41.344372 0.630574
11.391544 41.344372 0.780927
11.705368 41.344372 0.940966
12.019190 41.344372 1.042271
12.333014 41.344372 1.201740
12.646837 41.344372 1.308107
12.960659 41.344372 1.401826
13.274483 41.344372 1.506995
13.588306 41.344372 1.598707
13.902128 41.344372 1.651244
14.215952 41.344372 1.693795
14.529776 41.344372 1.685996
14.843597 41.344372 1.645747
15.157421 41.344372 1.574516
15.471243 41.344372 1.518141
15.785067 41.344372 1.428205
16.098890 41.344372 1.317391
16.412712 41.344372 1.233423
16.726536 41.344372 1.168032
17.040359 41.344372 1.098790
17.354181 41.344372 1.077418
17.668005 41.344372 1.068880
17.981829 41.344372 1.096532
18.295650 41.344372 1.147196
18.609474 41.344372 1.398424
18.923298 41.344372 1.890110
19.237120 41.344372 0.000000
-6.810190 41.030548 0.000000
-6.496367 41.030548 0.000000
-6.182544 41.030548 0.033860
-5.868721 41.030548 0.031097
-5.554898 41.030548 0.031072
-5.241075 41.030548 0.031670
-4.927252 41.030548 0.032324
-4.613429 41.030548 0.032707
-4.299606 41.030548 0.031797
-3.985783 41.030548 0.031153
-3.671960 41.030548 0.031117
-3.358137 41.030548 0.031233
-3.044314 41.030548 0.031819
-2.730491 41.030548 0.031889
-2.416668 41.030548 0.032086
-2.102845 41.030548 0.031019
-1.789022 41.030548 0.030073
-1.475199 41.030548 0.029945
-1.161376 41.030548 0.030423
-0.847553 41.030548 0.029804
-0.533730 41.030548 0.029679
-0.219907 41.030548 0.030339
0.093916 41.030548 0.030796
0.407739 41.030548 0.029791
0.721562 41.030548 0.028216
1.035385 41.030548 0.026595
1.349208 41.030548 0.026029
1.663032 41.030548 0.025948
1.976854 41.030548 0.025457
2.290677 41.030548 0.024442
2.604500 41.030548 0.023478
2.918324 41.030548 0.023529
3.232146 41.030548 0.023507
3.545969 41.030548 0.023010
3.859793 41.030548 0.022495
4.173615 41.030548 0.022556
4.487438 41.030548 0.022884
4.801261 41.030548 0.023924
5.115085 41.030548 0.024165
5.428907 41.030548 0.023783
5.742730 41.030548 0.023523
6.056554 41.030548 0.023002
6.370377 41.030548 0.022720
6.684199 41.030548 0.023102
6.998022 41.030548 0.024343
7.311846 41.030548 0.026377
7.625669 41.030548 0.029196
7.939491 41.030548 0.033597
8.253315 41.030548 0.039293
8.567138 41.030548 0.048925
8.880960 41.030548 0.063017
9.194784 41.030548 0.090120
9.508606 41.030548 0.128806
9.822430 41.030548 0.183019
10.136253 41.030548 0.260129
10.450075 41.030548 0.368911
10.763899 41.030548 0.500113
11.077723 41.030548 0.634639
11.391544 41.030548 0.795081
11.705368 41.030548 0.936613
12.019190 41.030548 1.052915
12.333014 41.030548 1.201097
12.646837 41.030548 1.309819
12.960659 41.030548 1.412978
13.274483 41.030548 1.522684
13.588306 41.030548 1.584911
13.902128 41.030548 1.667506
14.215952 41.030548 1.691885
14.529776 41.030548 1.718218
14.843597 41.030548 1.633633
15.157421 41.030548 1.568988
15.471243 41.030548 1.494809
15.785067 41.030548 1.415253
16.098890 41.030548 1.320273
16.412712 41.030548 1.259433
16.726536 41.030548 1.184486
17.040359 41.030548 1.093237
17.354181 41.030548 1.075939
17.668005 41.030548 1.072517
17.981829 41.030548 1.093650
18.295650 41.030548 1.164479
18.609474 41.030548 1.409432
18.923298 41.030548 1.913836
19.237120 41.030548 0.000000
-6.810190 40.716728 0.000000
-6.496367 40.716728 0.000000
-6.182544 40.716728 0.034301
-5.868721 40.716728 0.031860
-5.554898 40.716728 0.031449
-5.241075 40.716728 0.031063
-4.927252 40.716728 0.031613
-4.613429 40.716728 0.032767
-4.299606 40.716728 0.031854
-3.985783 40.716728 0.031632
-3.671960 40.716728 0.031495
-3.358137 40.716728 0.030950
-3.044314 40.716728 0.030743
-2.730491 40.716728 0.030874
-2.416668 40.716728 0.030977
-2.102845 40.716728 0.030129
-1.789022 40.716728 0.029592
-1.475199 40.716728 0.029752
-1.161376 40.716728 0.029766
-0.847553 40.716728 0.029127
-0.533730 40.716728 0.029031
-0.219907 40.716728 0.029868
0.093916 40.716728 0.030849
0.407739 40.716728 0.030227
0.721562 40.716728 0.028139
1.035385 40.716728 0.026154
1.349208 40.716728 0.025951
1.663032 40.716728 0.026184
1.976854 40.716728 0.025472
2.290677 40.716728 0.024437
2.604500 40.716728 0.023430
2.918324 40.716728 0.022978
3.232146 40.716728 0.022720
3.545969 40.716728 0.022407
3.859793 40.716728 0.022050
4.173615 40.716728 0.022139
4.487438 40.716728 0.021987
4.801261 40.716728 0.022847
5.115085 40.716728 0.023455
5.428907 40.716728 0.023322
5.742730 40.716728 0.023152
6.056554 40.716728 0.022880
6.370377 40.716728 0.022747
6.684199 40.716728 0.023093
6.998022 40.716728 0.024226
7.311846 40.716728 0.025942
7.625669 40.716728 0.028687
7.939491 40.716728 0.033183
8.253315 40.716728 0.039676
8.567138 40.716728 0.049548
8.880960 40.716728 0.063457
9.194784 40.716728 0.088185
9.508606 40.716728 0.131640
9.822430 40.716728 0.182170
10.136253 40.716728 0.258774
10.450075 40.716728 0.367697
10.763899 40.716728 0.493084
11.077723 40.716728 0.639041
11.391544 40.716728 0.794998
11.705368 40.716728 0.928045
12.019190 40.716728 1.059516
12.333014 40.716728 1.174346
12.646837 40.716728 1.300525
12.960659 40.716728 1.409015
13.274483 40.716728 1.521523
13.588306 40.716728 1.602689
13.902128 40.716728 1.678777
14.215952 40.716728 1.710241
14.529776 40.716728 1.685427
14.843597 40.716728 1.634228
15.157421 40.716728 1.563079
15.471243 40.716728 1.492346
15.785067 40.716728 1.410172
16.098890 40.716728 1.325895
16.412712 40.716728 1.273331
16.726536 40.716728 1.188685
17.040359 40.716728 1.106661
17.354181 40.716728 1.072284
17.668005 40.716728 1.067408
17.981829 40.716728 1.088334
18.295650 40.716728 1.159276
18.609474 40.716728 1.447690
18.923298 40.716728 1.960536
19.237120 40.716728 0.000000
-6.810190 40.402905 0.000000
-6.496367 40.402905 0.000000
-6.182544 40.402905 0.034697
-5.868721 40.402905 0.032335
-5.554898 40.402905 0.032209
-5.241075 40.402905 0.031222
-4.927252 40.402905 0.031258
-4.613429 40.402905 0.032694
-4.299606 40.402905 0.032103
-3.985783 40.402905 0.032263
-3.671960 40.402905 0.032360
-3.358137 40.402905 0.031204
-3.044314 40.402905 0.030434
-2.730491 40.402905 0.030166
-2.416668 40.402905 0.029953
-2.102845 40.402905 0.029766
-1.789022 40.402905 0.029475
-1.475199 40.402905 0.029935
-1.161376 40.402905 0.029039
-0.847553 40.402905 0.028011
-0.533730 40.402905 0.028304
-0.219907 40.402905 0.028669
0.093916 40.402905 0.029800
0.407739 40.402905 0.029654
0.721562 40.402905 0.027754
1.035385 40.402905 0.026234
1.349208 40.402905 0.026108
1.663032 40.402905 0.026168
1.976854 40.402905 0.025356
2.290677 40.402905 0.024401
2.604500 40.402905 0.023844
2.918324 40.402905 0.022914
3.232146 40.402905 0.022335
3.545969 40.402905 0.022097
3.859793 40.402905 0.022049
4.173615 40.402905 0.021877
4.487438 40.402905 0.021358
4.801261 40.402905 0.022030
5.115085 40.402905 0.022871
5.428907 40.402905 0.022859
5.742730 40.402905 0.022694
6.056554 40.402905 0.022877
6.370377 40.402905 0.022759
6.684199 40.402905 0.022909
6.998022 40.402905 0.024119
7.311846 40.402905 0.025675
7.625669 40.402905 0.028343
7.939491 40.402905 0.032675
8.253315 40.402905 0.040280
8.567138 40.402905 0.049820
8.880960 40.402905 0.062974
9.194784 40.402905 0.086197
9.508606 40.402905 0.128641
9.822430 40.402905 0.184360
10.136253 40.402905 0.262067
10.450075 40.402905 0.369842
10.763899 40.402905 0.490628
11.077723 40.402905 0.619699
11.391544 40.402905 0.793542
11.705368 40.402905 0.924405
12.019190 40.402905 1.054358
12.333014 40.402905 1.184307
12.646837 40.402905 1.292516
12.960659 40.402905 1.446902
13.274483 40.402905 1.539276
13.588306 40.402905 1.636810
13.902128 40.402905 1.669757
14.215952 40.402905 1.712990
14.529776 40.402905 1.714031
14.843597 40.402905 1.661941
15.157421 40.402905 1.565748
15.471243 40.402905 1.519867
15.785067 40.402905 1.390921
16.098890 40.402905 1.319296
16.412712 40.402905 1.273843
16.726536 40.402905 1.175666
17.040359 40.402905 1.100898
17.354181 40.402905 1.068923
17.668005 40.402905 1.066116
17.981829 40.402905 1.093601
18.295650 40.402905 1.164432
18.609474 40.402905 1.436878
18.923298 40.402905 1.961237
19.237120 40.402905 0.000000
-6.810190 40.089081 0.000000
-6.496367 40.089081 0.000000
-6.182544 40.089081 0.034373
-5.868721 40.089081 0.032036
-5.554898 40.089081 0.032764
-5.241075 40.089081 0.031996
-4.927252 40.089081 0.030924
-4.613429 40.089081 0.032155
-4.299606 40.089081 0.032298
-3.985783 40.089081 0.032966
-3.671960 40.089081 0.033333
-3.358137 40.089081 0.031953
-3.044314 40.089081 0.030751
-2.730491 40.089081 0.029852
-2.416668 40.089081 0.029685
-2.102845 40.089081 0.030025
-1.789022 40.089081 0.029828
-1.475199 40.089081 0.029952
-1.161376 40.089081 0.028634
-0.847553 40.089081 0.027281
-0.533730 40.089081 0.027685
-0.219907 40.089081 0.027417
0.093916 40.089081 0.028096
0.407739 40.089081 0.028536
0.721562 40.089081 0.027327
1.035385 40.089081 0.026312
1.349208 40.089081 0.026189
1.663032 40.089081 0.025516
1.976854 40.089081 0.025056
2.290677 40.089081 0.024178
2.604500 40.089081 0.023976
2.918324 40.089081 0.023093
3.232146 40.089081 0.022186
3.545969 40.089081 0.021962
3.859793 40.089081 0.021880
4.173615 40.089081 0.021589
4.487438 40.089081 0.021183
4.801261 40.089081 0.021747
5.115085 40.089081 0.022537
5.428907 40.089081 0.022706
5.742730 40.089081 0.022609
6.056554 40.089081 0.023045
6.370377 40.089081 0.022997
6.684199 40.089081 0.022914
6.998022 40.089081 0.024311
7.311846 40.089081 0.025797
7.625669 40.089081 0.027965
7.939491 40.089081 0.031817
8.253315 40.089081 0.038641
8.567138 40.089081 0.048577
8.880960 40.089081 0.063326
9.194784 40.089081 0.086047
9.508606 40.089081 0.127027
9.822430 40.089081 0.182774
10.136253 40.089081 0.259674
10.450075 40.089081 0.352150
10.763899 40.089081 0.481971
11.077723 40.089081 0.609656
11.391544 40.089081 0.770301
11.705368 40.089081 0.912254
12.019190 40.089081 1.070544
12.333014 40.089081 1.193538
12.646837 40.089081 1.305815
12.960659 40.089081 1.449003
13.274483 40.089081 1.567176
13.588306 40.089081 1.640375
13.902128 40.089081 1.666788
14.215952 40.089081 1.708311
14.529776 40.089081 1.704720
14.843597 40.089081 1.669124
15.157421 40.089081 1.616049
15.471243 40.089081 1.525802
15.785067 40.089081 1.413709
16.098890 40.089081 1.314592
16.412712 40.089081 1.263066
16.726536 40.089081 1.183568
17.040359 40.089081 1.112980
17.354181 40.089081 1.091067
17.668005 40.089081 1.097137
17.981829 40.089081 1.118359
18.295650 40.089081 1.163322
18.609474 40.089081 1.414762
18.923298 40.089081 1.999005
19.237120 40.089081 0.000000
-6.810190 39.775257 0.000000
-6.496367 39.775257 0.000000
-6.182544 39.775257 0.033577
-5.868721 39.775257 0.031345
-5.554898 39.775257 0.032368
-5.241075 39.775257 0.031807
-4.927252 39.775257 0.030586
-4.613429 39.775257 0.031182
-4.299606 39.775257 0.031681
-3.985783 39.775257 0.032781
-3.671960 39.775257 0.033330
-3.358137 39.775257 0.032263
-3.044314 39.775257 0.031096
-2.730491 39.775257 0.029900
-2.416668 39.775257 0.029693
-2.102845 39.775257 0.030186
-1.789022 39.775257 0.030066
-1.475199 39.775257 0.029669
-1.161376 39.775257 0.028545
-0.847553 39.775257 0.027528
-0.533730 39.775257 0.027558
-0.219907 39.775257 0.026888
0.093916 39.775257 0.027067
0.407739 39.775257 0.027642
0.721562 39.775257 0.026795
1.035385 39.775257 0.026376
1.349208 39.775257 0.025915
1.663032 39.775257 0.024966
1.976854 39.775257 0.024609
2.290677 39.775257 0.023528
2.604500 39.775257 0.023320
2.918324 39.775257 0.022809
3.232146 39.775257 0.021920
3.545969 39.775257 0.021670
3.859793 39.775257 0.021454
4.173615 39.775257 0.021246
4.487438 39.775257 0.020874
4.801261 39.775257 0.021568
5.115085 39.775257 0.022258
5.428907 39.775257 0.022714
5.742730 39.775257 0.022666
6.056554 39.775257 0.023157
6.370377 39.775257 0.023170
6.684199 39.775257 0.022992
6.998022 39.775257 0.024155
7.311846 39.775257 0.025834
7.625669 39.775257 0.028132
7.939491 39.775257 0.031098
8.253315 39.775257 0.037245
8.567138 39.775257 0.046506
8.880960 39.775257 0.063072
9.194784 39.775257 0.087203
9.508606 39.775257 0.125142
9.822430 39.775257 0.180072
10.136253 39.775257 0.254140
10.450075 39.775257 0.350418
10.763899 39.775257 0.469945
11.077723 39.775257 0.609323
11.391544 39.775257 0.748428
11.705368 39.775257 0.900858
12.019190 39.775257 1.056494
12.333014 39.775257 1.191791
12.646837 39.775257 1.297135
12.960659 39.775257 1.462593
13.274483 39.775257 1.593527
13.588306 39.775257 1.655543
13.902128 39.775257 1.674213
14.215952 39.775257 1.699220
14.529776 39.775257 1.711506
14.843597 39.775257 1.703494
15.157421 39.775257 1.658971
15.471243 39.775257 1.565040
15.785067 39.775257 1.429259
16.098890 39.775257 1.308230
16.412712 39.775257 1.245025
16.726536 39.775257 1.182415
17.040359 39.775257 1.125857
17.354181 39.775257 1.093951
17.668005 39.775257 1.084945
17.981829 39.775257 1.110223
18.295650 39.775257 1.178086
18.609474 39.775257 1.436700
18.923298 39.775257 1.994958
19.237120 39.775257 0.000000
-6.810190 39.461433 0.000000
-6.496367 39.461433 0.000000
-6.182544 39.461433 0.032529
-5.868721 39.461433 0.029959
-5.554898 39.461433 0.030868
-5.241075 39.461433 0.030781
-4.927252 39.461433 0.030301
-4.613429 39.461433 0.030368
-4.299606 39.461433 0.030801
-3.985783 39.461433 0.032328
-3.671960 39.461433 0.032575
-3.358137 39.461433 0.031578
-3.044314 39.461433 0.031167
-2.730491 39.461433 0.030227
-2.416668 39.461433 0.029915
-2.102845 39.461433 0.029954
-1.789022 39.461433 0.029488
-1.475199 39.461433 0.028980
-1.161376 39.461433 0.028405
-0.847553 39.461433 0.027555
-0.533730 39.461433 0.027495
-0.219907 39.461433 0.027178
0.093916 39.461433 0.027043
0.407739 39.461433 0.027007
0.721562 39.461433 0.026382
1.035385 39.461433 0.026062
1.349208 39.461433 0.025326
1.663032 39.461433 0.024592
1.976854 39.461433 0.023926
2.290677 39.461433 0.022872
2.604500 39.461433 0.022254
2.918324 39.461433 0.022130
3.232146 39.461433 0.021400
3.545969 39.461433 0.021296
3.859793 39.461433 0.021055
4.173615 39.461433 0.020926
4.487438 39.461433 0.020659
4.801261 39.461433 0.021335
5.115085 39.461433 0.021832
5.428907 39.461433 0.022387
5.742730 39.461433 0.022445
6.056554 39.461433 0.022583
6.370377 39.461433 0.022647
6.684199 39.461433 0.022850
6.998022 39.461433 0.023772
7.311846 39.461433 0.025359
7.625669 39.461433 0.027888
7.939491 39.461433 0.030949
8.253315 39.461433 0.036781
8.567138 39.461433 0.046492
8.880960 39.461433 0.061342
9.194784 39.461433 0.087454
9.508606 39.461433 0.124952
9.822430 39.461433 0.178273
10.136253 39.461433 0.255768
10.450075 39.461433 0.343872
10.763899 39.461433 0.463062
11.077723 39.461433 0.596744
11.391544 39.461433 0.734521
11.705368 39.461433 0.878107
12.019190 39.461433 1.037405
12.333014 39.461433 1.187263
12.646837 39.461433 1.285463
12.960659 39.461433 1.456058
13.274483 39.461433 1.571329
13.588306 39.461433 1.606166
13.902128 39.461433 1.657255
14.215952 39.461433 1.657842
14.529776 39.461433 1.684443
14.843597 39.461433 1.684453
15.157421 39.461433 1.643543
15.471243 39.461433 1.539299
15.785067 39.461433 1.440329
16.098890 39.461433 1.325058
16.412712 39.461433 1.264650
16.726536 39.461433 1.156846
17.040359 39.461433 1.133991
17.354181 39.461433 1.084793
17.668005 39.461433 1.065650
17.981829 39.461433 1.133912
18.295650 39.461433 1.186928
18.609474 39.461433 1.445490
18.923298 39.461433 2.050387
19.237120 39.461433 0.000000
-6.810190 39.147614 0.000000
-6.496367 39.147614 0.000000
-6.182544 39.147614 0.031861
-5.868721 39.147614 0.029228
-5.554898 39.147614 0.029828
-5.241075 39.147614 0.030043
-4.927252 39.147614 0.030185
-4.613429 39.147614 0.030015
-4.299606 39.147614 0.030262
-3.985783 39.147614 0.031386
-3.671960 39.147614 0.031735
-3.358137 39.147614 0.030845
-3.044314 39.147614 0.031204
-2.730491 39.147614 0.030329
-2.416668 39.147614 0.029983
-2.102845 39.147614 0.029081
-1.789022 39.147614 0.028297
-1.475199 39.147614 0.027815
-1.161376 39.147614 0.028041
-0.847553 39.147614 0.027440
-0.533730 39.147614 0.027586
-0.219907 39.147614 0.027336
0.093916 39.147614 0.027227
0.407739 39.147614 0.026387
0.721562 39.147614 0.025821
1.035385 39.147614 0.025516
1.349208 39.147614 0.024832
1.663032 39.147614 0.024389
1.976854 39.147614 0.023376
2.290677 39.147614 0.022517
2.604500 39.147614 0.021543
2.918324 39.147614 0.021301
3.232146 39.147614 0.020825
3.545969 39.147614 0.020806
3.859793 39.147614 0.020741
4.173615 39.147614 0.020744
4.487438 39.147614 0.020482
4.801261 39.147614 0.020784
5.115085 39.147614 0.021213
5.428907 39.147614 0.021768
5.742730 39.147614 0.021772
6.056554 39.147614 0.021643
6.370377 39.147614 0.021912
6.684199 39.147614 0.022686
6.998022 39.147614 0.023500
7.311846 39.147614 0.025038
7.625669 39.147614 0.027616
7.939491 39.147614 0.031410
8.253315 39.147614 0.037086
8.567138 39.147614 0.047069
8.880960 39.147614 0.061261
9.194784 39.147614 0.086741
9.508606 39.147614 0.124340
9.822430 39.147614 0.176199
10.136253 39.147614 0.252909
10.450075 39.147614 0.346630
10.763899 39.147614 0.462435
11.077723 39.147614 0.586232
11.391544 39.147614 0.736526
11.705368 39.147614 0.878453
12.019190 39.147614 1.026778
12.333014 39.147614 1.186498
12.646837 39.147614 1.304867
12.960659 39.147614 1.427860
13.274483 39.147614 1.554561
13.588306 39.147614 1.644157
13.902128 39.147614 1.692918
14.215952 39.147614 1.674272
14.529776 39.147614 1.709288
14.843597 39.147614 1.663917
15.157421 39.147614 1.613262
15.471243 39.147614 1.524173
15.785067 39.147614 1.459272
16.098890 39.147614 1.343340
16.412712 39.147614 1.258055
16.726536 39.147614 1.141873
17.040359 39.147614 1.137171
17.354181 39.147614 1.082956
17.668005 39.147614 1.108695
17.981829 39.147614 1.127668
18.295650 39.147614 1.215464
18.609474 39.147614 1.445011
18.923298 39.147614 1.972490
19.237120 39.147614 0.000000
-6.810190 38.833786 0.000000
-6.496367 38.833786 0.000000
-6.182544 38.833786 0.032032
-5.868721 38.833786 0.029313
-5.554898 38.833786 0.029641
-5.241075 38.833786 0.030148
-4.927252 38.833786 0.030172
-4.613429 38.833786 0.029962
-4.299606 38.833786 0.029985
-3.985783 38.833786 0.030637
-3.671960 38.833786 0.030913
-3.358137 38.833786 0.030872
-3.044314 38.833786 0.030901
-2.730491 38.833786 0.030213
-2.416668 38.833786 0.029446
-2.102845 38.833786 0.028022
-1.789022 38.833786 0.027337
-1.475199 38.833786 0.027075
-1.161376 38.833786 0.027263
-0.847553 38.833786 0.026889
-0.533730 38.833786 0.027181
-0.219907 38.833786 0.027349
0.093916 38.833786 0.027031
0.407739 38.833786 0.026026
0.721562 38.833786 0.025193
1.035385 38.833786 0.024805
1.349208 38.833786 0.024372
1.663032 38.833786 0.023711
1.976854 38.833786 0.022982
2.290677 38.833786 0.022449
2.604500 38.833786 0.021308
2.918324 38.833786 0.021071
3.232146 38.833786 0.020698
3.545969 38.833786 0.020576
3.859793 38.833786 0.020757
4.173615 38.833786 0.020550
4.487438 38.833786 0.020043
4.801261 38.833786 0.020098
5.115085 38.833786 0.020479
5.428907 38.833786 0.021233
5.742730 38.833786 0.021222
6.056554 38.833786 0.020721
6.370377 38.833786 0.021352
6.684199 38.833786 0.022638
6.998022 38.833786 0.023731
7.311846 38.833786 0.024784
7.625669 38.833786 0.027539
7.939491 38.833786 0.032141
8.253315 38.833786 0.038124
8.567138 38.833786 0.047118
8.880960 38.833786 0.062485
9.194784 38.833786 0.084739
9.508606 38.833786 0.126371
9.822430 38.833786 0.180100
10.136253 38.833786 0.250196
10.450075 38.833786 0.342632
10.763899 38.833786 0.463196
11.077723 38.833786 0.591669
11.391544 38.833786 0.744911
11.705368 38.833786 0.872072
12.019190 38.833786 1.030857
12.333014 38.833786 1.170636
12.646837 38.833786 1.316908
12.960659 38.833786 1.442694
13.274483 38.833786 1.550002
13.588306 38.833786 1.659574
13.902128 38.833786 1.718627
14.215952 38.833786 1.697115
14.529776 38.833786 1.704144
14.843597 38.833786 1.657827
15.157421 38.833786 1.611686
15.471243 38.833786 1.531096
15.785067 38.833786 1.430288
16.098890 38.833786 1.360204
16.412712 38.833786 1.276699
16.726536 38.833786 1.174282
17.040359 38.833786 1.142546
17.354181 38.833786 1.101499
17.668005 38.833786 1.110027
17.981829 38.833786 1.120509
18.295650 38.833786 1.215110
18.609474 38.833786 1.477554
18.923298 38.833786 2.084764
19.237120 38.833786 0.000000
-6.810190 38.519966 0.000000
-6.496367 38.519966 0.000000
-6.182544 38.519966 0.032492
-5.868721 38.519966 0.029760
-5.554898 38.519966 0.029887
-5.241075 38.519966 0.030039
-4.927252 38.519966 0.030219
-4.613429 38.519966 0.030184
-4.299606 38.519966 0.029552
-3.985783 38.519966 0.030052
-3.671960 38.519966 0.030633
-3.358137 38.519966 0.030396
-3.044314 38.519966 0.030542
-2.730491 38.519966 0.029726
-2.416668 38.519966 0.028772
-2.102845 38.519966 0.027422
-1.789022 38.519966 0.027118
-1.475199 38.519966 0.027287
-1.161376 38.519966 0.026774
-0.847553 38.519966 0.026230
-0.533730 38.519966 0.026668
-0.219907 38.519966 0.027066
0.093916 38.519966 0.026408
0.407739 38.519966 0.025548
0.721562 38.519966 0.024523
1.035385 38.519966 0.024189
1.349208 38.519966 0.023748
1.663032 38.519966 0.023096
1.976854 38.519966 0.022684
2.290677 38.519966 0.022477
2.604500 38.519966 0.021828
2.918324 38.519966 0.021379
3.232146 38.519966 0.021001
3.545969 38.519966 0.020627
3.859793 38.519966 0.020670
4.173615 38.519966 0.020392
4.487438 38.519966 0.019647
4.801261 38.519966 0.019557
5.115085 38.519966 0.019787
5.428907 38.519966 0.020803
5.742730 38.519966 0.020944
6.056554 38.519966 0.020508
6.370377 38.519966 0.020991
6.684199 38.519966 0.022360
6.998022 38.519966 0.023623
7.311846 38.519966 0.025115
7.625669 38.519966 0.027778
7.939491 38.519966 0.032439
8.253315 38.519966 0.038059
8.567138 38.519966 0.047402
8.880960 38.519966 0.061576
9.194784 38.519966 0.084841
9.508606 38.519966 0.127213
9.822430 38.519966 0.178927
10.136253 38.519966 0.253523
10.450075 38.519966 0.356239
10.763899 38.519966 0.459037
11.077723 38.519966 0.593476
11.391544 38.519966 0.745568
11.705368 38.519966 0.907269
12.019190 38.519966 1.054410
12.333014 38.519966 1.191601
12.646837 38.519966 1.327189
12.960659 38.519966 1.474186
13.274483 38.519966 1.594700
13.588306 38.519966 1.667722
13.902128 38.519966 1.715353
14.215952 38.519966 1.733847
14.529776 38.519966 1.693868
14.843597 38.519966 1.688195
15.157421 38.519966 1.609525
15.471243 38.519966 1.551044
15.785067 38.519966 1.451326
16.098890 38.519966 1.374260
16.412712 38.519966 1.284224
16.726536 38.519966 1.185960
17.040359 38.519966 1.156333
17.354181 38.519966 1.114538
17.668005 38.519966 1.103923
17.981829 38.519966 1.116598
18.295650 38.519966 1.238899
18.609474 38.519966 1.530657
18.923298 38.519966 2.125785
19.237120 38.519966 0.000000
-6.810190 38.206142 0.000000
-6.496367 38.206142 0.000000
-6.182544 38.206142 0.033090
-5.868721 38.206142 0.029939
-5.554898 38.206142 0.030298
-5.241075 38.206142 0.029932
-4.927252 38.206142 0.030014
-4.613429 38.206142 0.029924
-4.299606 38.206142 0.029161
-3.985783 38.206142 0.029659
-3.671960 38.206142 0.030486
-3.358137 38.206142 0.030194
-3.044314 38.206142 0.029882
-2.730491 38.206142 0.029197
-2.416668 38.206142 0.028680
-2.102845 38.206142 0.027329
-1.789022 38.206142 0.027482
-1.475199 38.206142 0.027821
-1.161376 38.206142 0.026691
-0.847553 38.206142 0.025698
-0.533730 38.206142 0.026293
-0.219907 38.206142 0.026193
0.093916 38.206142 0.025680
0.407739 38.206142 0.024985
0.721562 38.206142 0.024271
1.035385 38.206142 0.023933
1.349208 38.206142 0.023288
1.663032 38.206142 0.022739
1.976854 38.206142 0.022773
2.290677 38.206142 0.022387
2.604500 38.206142 0.022336
2.918324 38.206142 0.021782
3.232146 38.206142 0.021220
3.545969 38.206142 0.020589
3.859793 38.206142 0.020650
4.173615 38.206142 0.020284
4.487438 38.206142 0.019336
4.801261 38.206142 0.019317
5.115085 38.206142 0.019552
5.428907 38.206142 0.020349
5.742730 38.206142 0.020817
6.056554 38.206142 0.020340
6.370377 38.206142 0.020799
6.684199 38.206142 0.022039
6.998022 38.206142 0.023412
7.311846 38.206142 0.025381
7.625669 38.206142 0.027573
7.939491 38.206142 0.031721
8.253315 38.206142 0.037777
8.567138 38.206142 0.046502
8.880960 38.206142 0.061864
9.194784 38.206142 0.084823
9.508606 38.206142 0.127818
9.822430 38.206142 0.180972
10.136253 38.206142 0.253461
10.450075 38.206142 0.351178
10.763899 38.206142 0.480047
11.077723 38.206142 0.605962
11.391544 38.206142 0.741580
11.705368 38.206142 0.896627
12.019190 38.206142 1.058353
12.333014 38.206142 1.198651
12.646837 38.206142 1.339545
12.960659 38.206142 1.495784
13.274483 38.206142 1.603406
13.588306 38.206142 1.685261
13.902128 38.206142 1.732523
14.215952 38.206142 1.730411
14.529776 38.206142 1.722013
14.843597 38.206142 1.678461
15.157421 38.206142 1.614444
15.471243 38.206142 1.567406
15.785067 38.206142 1.470901
16.098890 38.206142 1.363722
16.412712 38.206142 1.263425
16.726536 38.206142 1.197694
17.040359 38.206142 1.170005
17.354181 38.206142 1.122305
17.668005 38.206142 1.098743
17.981829 38.206142 1.116428
18.295650 38.206142 1.239799
18.609474 38.206142 1.544023
18.923298 38.206142 2.152241
19.237120 38.206142 0.000000
-6.810190 37.892319 0.000000
-6.496367 37.892319 0.000000
-6.182544 37.892319 0.032623
-5.868721 37.892319 0.029670
-5.554898 37.892319 0.030097
-5.241075 37.892319 0.029628
-4.927252 37.892319 0.029150
-4.613429 37.892319 0.029224
-4.299606 37.892319 0.029015
-3.985783 37.892319 0.029951
-3.671960 37.892319 0.030361
-3.358137 37.892319 0.029562
-3.044314 37.892319 0.029263
-2.730491 37.892319 0.028842
-2.416668 37.892319 0.028667
-2.102845 37.892319 0.028019
-1.789022 37.892319 0.027958
-1.475199 37.892319 0.028094
-1.161376 37.892319 0.026734
-0.847553 37.892319 0.025689
-0.533730 37.892319 0.025581
-0.219907 37.892319 0.025204
0.093916 37.892319 0.024812
0.407739 37.892319 0.024377
0.721562 37.892319 0.024257
1.035385 37.892319 0.023929
1.349208 37.892319 0.022908
1.663032 37.892319 0.022569
1.976854 37.892319 0.022799
2.290677 37.892319 0.022045
2.604500 37.892319 0.022121
2.918324 37.892319 0.021898
3.232146 37.892319 0.021391
3.545969 37.892319 0.020406
3.859793 37.892319 0.020171
4.173615 37.892319 0.019641
4.487438 37.892319 0.019053
4.801261 37.892319 0.019283
5.115085 37.892319 0.019483
5.428907 37.892319 0.019769
5.742730 37.892319 0.020509
6.056554 37.892319 0.020389
6.370377 37.892319 0.020753
6.684199 37.892319 0.021670
6.998022 37.892319 0.023209
7.311846 37.892319 0.025278
7.625669 37.892319 0.027225
7.939491 37.892319 0.030798
8.253315 37.892319 0.036956
8.567138 37.892319 0.046509
8.880960 37.892319 0.061649
9.194784 37.892319 0.083102
9.508606 37.892319 0.122009
9.822430 37.892319 0.178908
10.136253 37.892319 0.253147
10.450075 37.892319 0.352658
10.763899 37.892319 0.472976
11.077723 37.892319 0.607734
11.391544 37.892319 0.742738
11.705368 37.892319 0.882066
12.019190 37.892319 1.042484
12.333014 37.892319 1.177204
12.646837 37.892319 1.335781
12.960659 37.892319 1.469095
13.274483 37.892319 1.592956
13.588306 37.892319 1.715528
13.902128 37.892319 1.749898
14.215952 37.892319 1.753062
14.529776 37.892319 1.745392
14.843597 37.892319 1.713661
15.157421 37.892319 1.625463
15.471243 37.892319 1.547275
15.785067 37.892319 1.473864
16.098890 37.892319 1.382439
16.412712 37.892319 1.275696
16.726536 37.892319 1.174911
17.040359 37.892319 1.140128
17.354181 37.892319 1.098330
17.668005 37.892319 1.088407
17.981829 37.892319 1.108094
18.295650 37.892319 1.241605
18.609474 37.892319 1.561192
18.923298 37.892319 2.103327
19.237120 37.892319 0.000000
-6.810190 37.578495 0.000000
-6.496367 37.578495 0.000000
-6.182544 37.578495 0.031971
-5.868721 37.578495 0.029029
-5.554898 37.578495 0.029548
-5.241075 37.578495 0.029045
-4.927252 37.578495 0.028294
-4.613429 37.578495 0.028788
-4.299606 37.578495 0.029225
-3.985783 37.578495 0.030260
-3.671960 37.578495 0.030216
-3.358137 37.578495 0.029000
-3.044314 37.578495 0.028631
-2.730491 37.578495 0.028494
-2.416668 37.578495 0.028536
-2.102845 37.578495 0.028390
-1.789022 37.578495 0.028061
-1.475199 37.578495 0.027757
-1.161376 37.578495 0.026801
-0.847553 37.578495 0.025653
-0.533730 37.578495 0.025135
-0.219907 37.578495 0.024567
0.093916 37.578495 0.024244
0.407739 37.578495 0.023931
0.721562 37.578495 0.023989
1.035385 37.578495 0.023696
1.349208 37.578495 0.022516
1.663032 37.578495 0.022661
1.976854 37.578495 0.022720
2.290677 37.578495 0.021453
2.604500 37.578495 0.021326
2.918324 37.578495 0.021627
3.232146 37.578495 0.020876
3.545969 37.578495 0.019972
3.859793 37.578495 0.019376
4.173615 37.578495 0.019022
4.487438 37.578495 0.018900
4.801261 37.578495 0.019275
5.115085 37.578495 0.019376
5.428907 37.578495 0.019352
5.742730 37.578495 0.020073
6.056554 37.578495 0.020137
6.370377 37.578495 0.020614
6.684199 37.578495 0.021290
6.998022 37.578495 0.022770
7.311846 37.578495 0.024768
7.625669 37.578495 0.026470
7.939491 37.578495 0.030437
8.253315 37.578495 0.037481
8.567138 37.578495 0.047239
8.880960 37.578495 0.061723
9.194784 37.578495 0.082987
9.508606 37.578495 0.120923
9.822430 37.578495 0.178645
10.136253 37.578495 0.250647
10.450075 37.578495 0.354270
10.763899 37.578495 0.476881
11.077723 37.578495 0.615284
11.391544 37.578495 0.742197
11.705368 37.578495 0.880203
12.019190 37.578495 1.025315
12.333014 37.578495 1.176134
12.646837 37.578495 1.341356
12.960659 37.578495 1.448237
13.274483 37.578495 1.542606
13.588306 37.578495 1.715843
13.902128 37.578495 1.745977
14.215952 37.578495 1.790878
14.529776 37.578495 1.779302
14.843597 37.578495 1.707442
15.157421 37.578495 1.625302
15.471243 37.578495 1.546804
15.785067 37.578495 1.471854
16.098890 37.578495 1.396858
16.412712 37.578495 1.282511
16.726536 37.578495 1.161589
17.040359 37.578495 1.137719
17.354181 37.578495 1.095924
17.668005 37.578495 1.084785
17.981829 37.578495 1.110378
18.295650 37.578495 1.249372
18.609474 37.578495 1.571786
18.923298 37.578495 2.130131
19.237120 37.578495 0.000000
-6.810190 37.264671 0.000000
-6.496367 37.264671 0.000000
-6.182544 37.264671 0.031408
-5.868721 37.264671 0.028616
-5.554898 37.264671 0.029236
-5.241075 37.264671 0.028919
-4.927252 37.264671 0.028141
-4.613429 37.264671 0.028561
-4.299606 37.264671 0.029288
-3.985783 37.264671 0.030409
-3.671960 37.264671 0.029904
-3.358137 37.264671 0.028655
-3.044314 37.264671 0.028566
-2.730491 37.264671 0.028239
-2.416668 37.264671 0.028481
-2.102845 37.264671 0.028195
-1.789022 37.264671 0.027441
-1.475199 37.264671 0.027193
-1.161376 37.264671 0.026751
-0.847553 37.264671 0.025432
-0.533730 37.264671 0.024876
-0.219907 37.264671 0.024465
0.093916 37.264671 0.023903
0.407739 37.264671 0.023628
0.721562 37.264671 0.023664
1.035385 37.264671 0.022988
1.349208 37.264671 0.022104
1.663032 37.264671 0.022437
1.976854 37.264671 0.022224
2.290677 37.264671 0.021024
2.604500 37.264671 0.020693
2.918324 37.264671 0.020781
3.232146 37.264671 0.020194
3.545969 37.264671 0.019508
3.859793 37.264671 0.018988
4.173615 37.264671 0.018793
4.487438 37.264671 0.018830
4.801261 37.264671 0.019235
5.115085 37.264671 0.019145
5.428907 37.264671 0.019084
5.742730 37.264671 0.019571
6.056554 37.264671 0.019622
6.370377 37.264671 0.020243
6.684199 37.264671 0.020962
6.998022 37.264671 0.022308
7.311846 37.264671 0.023985
7.625669 37.264671 0.026365
7.939491 37.264671 0.030840
8.253315 37.264671 0.037065
8.567138 37.264671 0.046530
8.880960 37.264671 0.061482
9.194784 37.264671 0.086317
9.508606 37.264671 0.121780
9.822430 37.264671 0.174279
10.136253 37.264671 0.254878
10.450075 37.264671 0.356034
10.763899 37.264671 0.469510
11.077723 37.264671 0.614572
11.391544 37.264671 0.761994
11.705368 37.264671 0.888848
12.019190 37.264671 1.035031
12.333014 37.264671 1.189752
12.646837 37.264671 1.335807
12.960659 37.264671 1.439810
13.274483 37.264671 1.566857
13.588306 37.264671 1.676005
13.902128 37.264671 1.740518
14.215952 37.264671 1.829748
14.529776 37.264671 1.778269
14.843597 37.264671 1.721660
15.157421 37.264671 1.677335
15.471243 37.264671 1.580652
15.785067 37.264671 1.484445
16.098890 37.264671 1.383298
16.412712 37.264671 1.249970
16.726536 37.264671 1.146262
17.040359 37.264671 1.131270
17.354181 37.264671 1.113063
17.668005 37.264671 1.107456
17.981829 37.264671 1.129243
18.295650 37.264671 1.248447
18.609474 37.264671 1.590820
18.923298 37.264671 2.144094
19.237120 37.264671 0.000000
-6.810190 36.950851 0.000000
-6.496367 36.950851 0.000000
-6.182544 36.950851 0.031509
-5.868721 36.950851 0.028728
-5.554898 36.950851 0.029285
-5.241075 36.950851 0.029097
-4.927252 36.950851 0.028478
-4.613429 36.950851 0.028846
-4.299606 36.950851 0.029580
-3.985783 36.950851 0.030182
-3.671960 36.950851 0.029459
-3.358137 36.950851 0.028733
-3.044314 36.950851 0.028745
-2.730491 36.950851 0.028443
-2.416668 36.950851 0.028055
-2.102845 36.950851 0.027292
-1.789022 36.950851 0.026522
-1.475199 36.950851 0.026542
-1.161376 36.950851 0.026432
-0.847553 36.950851 0.025018
-0.533730 36.950851 0.024642
-0.219907 36.950851 0.024400
0.093916 36.950851 0.023706
0.407739 36.950851 0.023222
0.721562 36.950851 0.022911
1.035385 36.950851 0.022355
1.349208 36.950851 0.021644
1.663032 36.950851 0.022064
1.976854 36.950851 0.021576
2.290677 36.950851 0.020627
2.604500 36.950851 0.020185
2.918324 36.950851 0.019861
3.232146 36.950851 0.019489
3.545969 36.950851 0.019171
3.859793 36.950851 0.018875
4.173615 36.950851 0.018819
4.487438 36.950851 0.018821
4.801261 36.950851 0.018889
5.115085 36.950851 0.018959
5.428907 36.950851 0.018874
5.742730 36.950851 0.018986
6.056554 36.950851 0.019088
6.370377 36.950851 0.019851
6.684199 36.950851 0.020576
6.998022 36.950851 0.021954
7.311846 36.950851 0.023643
7.625669 36.950851 0.026287
7.939491 36.950851 0.031241
8.253315 36.950851 0.037501
8.567138 36.950851 0.046835
8.880960 36.950851 0.062101
9.194784 36.950851 0.084024
9.508606 36.950851 0.123092
9.822430 36.950851 0.173969
10.136253 36.950851 0.254363
10.450075 36.950851 0.351065
10.763899 36.950851 0.469115
11.077723 36.950851 0.605172
11.391544 36.950851 0.760207
11.705368 36.950851 0.891000
12.019190 36.950851 1.030150
12.333014 36.950851 1.197306
12.646837 36.950851 1.331468
12.960659 36.950851 1.449423
13.274483 36.950851 1.575383
13.588306 36.950851 1.688467
13.902128 36.950851 1.740636
14.215952 36.950851 1.809571
14.529776 36.950851 1.772282
14.843597 36.950851 1.728543
15.157421 36.950851 1.665746
15.471243 36.950851 1.584084
15.785067 36.950851 1.496173
16.098890 36.950851 1.369249
16.412712 36.950851 1.245952
16.726536 36.950851 1.143853
17.040359 36.950851 1.127807
17.354181 36.950851 1.119058
17.668005 36.950851 1.110276
17.981829 36.950851 1.134477
18.295650 36.950851 1.270047
18.609474 36.950851 1.622742
18.923298 36.950851 2.246589
19.237120 36.950851 0.000000
-6.810190 36.637028 0.000000
-6.496367 36.637028 0.000000
-6.182544 36.637028 0.031717
-5.868721 36.637028 0.028752
-5.554898 36.637028 0.029769
-5.241075 36.637028 0.029694
-4.927252 36.637028 0.029114
-4.613429 36.637028 0.029277
-4.299606 36.637028 0.029741
-3.985783 36.637028 0.029648
-3.671960 36.637028 0.029206
-3.358137 36.637028 0.028746
-3.044314 36.637028 0.028797
-2.730491 36.637028 0.028579
-2.416668 36.637028 0.027237
-2.102845 36.637028 0.026162
-1.789022 36.637028 0.025758
-1.475199 36.637028 0.025970
-1.161376 36.637028 0.025910
-0.847553 36.637028 0.024623
-0.533730 36.637028 0.024453
-0.219907 36.637028 0.024011
0.093916 36.637028 0.023341
0.407739 36.637028 0.022883
0.721562 36.637028 0.022314
1.035385 36.637028 0.021796
1.349208 36.637028 0.021423
1.663032 36.637028 0.021567
1.976854 36.637028 0.020858
2.290677 36.637028 0.020296
2.604500 36.637028 0.019872
2.918324 36.637028 0.019531
3.232146 36.637028 0.019207
3.545969 36.637028 0.019030
3.859793 36.637028 0.019046
4.173615 36.637028 0.019061
4.487438 36.637028 0.018619
4.801261 36.637028 0.018543
5.115085 36.637028 0.018746
5.428907 36.637028 0.018971
5.742730 36.637028 0.018671
6.056554 36.637028 0.018605
6.370377 36.637028 0.019535
6.684199 36.637028 0.020467
6.998022 36.637028 0.021776
7.311846 36.637028 0.023432
7.625669 36.637028 0.026156
7.939491 36.637028 0.031277
8.253315 36.637028 0.037753
8.567138 36.637028 0.046825
8.880960 36.637028 0.062090
9.194784 36.637028 0.084733
9.508606 36.637028 0.121153
9.822430 36.637028 0.176148
10.136253 36.637028 0.248629
10.450075 36.637028 0.349770
10.763899 36.637028 0.469133
11.077723 36.637028 0.612603
11.391544 36.637028 0.758647
11.705368 36.637028 0.881591
12.019190 36.637028 1.035518
12.333014 36.637028 1.190630
12.646837 36.637028 1.330056
12.960659 36.637028 1.486284
13.274483 36.637028 1.587931
13.588306 36.637028 1.656032
13.902128 36.637028 1.706834
14.215952 36.637028 1.784044
14.529776 36.637028 1.781657
14.843597 36.637028 1.743045
15.157421 36.637028 1.672350
15.471243 36.637028 1.593915
15.785067 36.637028 1.487503
16.098890 36.637028 1.377355
16.412712 36.637028 1.237654
16.726536 36.637028 1.173413
17.040359 36.637028 1.153290
17.354181 36.637028 1.126491
17.668005 36.637028 1.087192
17.981829 36.637028 1.121196
18.295650 36.637028 1.287829
18.609474 36.637028 1.625442
18.923298 36.637028 2.264303
19.237120 36.637028 0.000000
-6.810190 36.323204 0.000000
-6.496367 36.323204 0.000000
-6.182544 36.323204 0.031909
-5.868721 36.323204 0.029130
-5.554898 36.323204 0.030092
-5.241075 36.323204 0.029917
-4.927252 36.323204 0.029267
-4.613429 36.323204 0.029025
-4.299606 36.323204 0.028747
-3.985783 36.323204 0.028782
-3.671960 36.323204 0.028773
-3.358137 36.323204 0.028621
-3.044314 36.323204 0.028722
-2.730491 36.323204 0.028268
-2.416668 36.323204 0.026682
-2.102845 36.323204 0.025493
-1.789022 36.323204 0.025424
-1.475199 36.323204 0.025602
-1.161376 36.323204 0.025183
-0.847553 36.323204 0.024386
-0.533730 36.323204 0.023736
-0.219907 36.323204 0.023095
0.093916 36.323204 0.022858
0.407739 36.323204 0.022319
0.721562 36.323204 0.021753
1.035385 36.323204 0.021302
1.349208 36.323204 0.020913
1.663032 36.323204 0.020917
1.976854 36.323204 0.020224
2.290677 36.323204 0.019733
2.604500 36.323204 0.019570
2.918324 36.323204 0.019527
3.232146 36.323204 0.019261
3.545969 36.323204 0.018983
3.859793 36.323204 0.019196
4.173615 36.323204 0.019139
4.487438 36.323204 0.018292
4.801261 36.323204 0.018312
5.115085 36.323204 0.018818
5.428907 36.323204 0.019315
5.742730 36.323204 0.018822
6.056554 36.323204 0.018375
6.370377 36.323204 0.019244
6.684199 36.323204 0.020134
6.998022 36.323204 0.021481
7.311846 36.323204 0.023426
7.625669 36.323204 0.025980
7.939491 36.323204 0.030632
8.253315 36.323204 0.037411
8.567138 36.323204 0.047430
8.880960 36.323204 0.061995
9.194784 36.323204 0.084608
9.508606 36.323204 0.121465
9.822430 36.323204 0.179185
10.136253 36.323204 0.244380
10.450075 36.323204 0.345598
10.763899 36.323204 0.477241
11.077723 36.323204 0.613267
11.391544 36.323204 0.763478
11.705368 36.323204 0.887707
12.019190 36.323204 1.053770
12.333014 36.323204 1.204069
12.646837 36.323204 1.322865
12.960659 36.323204 1.483522
13.274483 36.323204 1.595056
13.588306 36.323204 1.660581
13.902128 36.323204 1.730270
14.215952 36.323204 1.767243
14.529776 36.323204 1.781799
14.843597 36.323204 1.729797
15.157421 36.323204 1.683094
15.471243 36.323204 1.597639
15.785067 36.323204 1.471455
16.098890 36.323204 1.377783
16.412712 36.323204 1.261750
16.726536 36.323204 1.181940
17.040359 36.323204 1.163548
17.354181 36.323204 1.128837
17.668005 36.323204 1.092322
17.981829 36.323204 1.108730
18.295650 36.323204 1.262482
18.609474 36.323204 1.583921
18.923298 36.323204 2.202138
19.237120 36.323204 0.000000
-6.810190 36.009380 0.000000
-6.496367 36.009380 0.000000
-6.182544 36.009380 0.031873
-5.868721 36.009380 0.029348
-5.554898 36.009380 0.029740
-5.241075 36.009380 0.029465
-4.927252 36.009380 0.028667
-4.613429 36.009380 0.028187
-4.299606 36.009380 0.027712
-3.985783 36.009380 0.027858
-3.671960 36.009380 0.028056
-3.358137 36.009380 0.028063
-3.044314 36.009380 0.028010
-2.730491 36.009380 0.027824
-2.416668 36.009380 0.026397
-2.102845 36.009380 0.025239
-1.789022 36.009380 0.025138
-1.475199 36.009380 0.025128
-1.161376 36.009380 0.024763
-0.847553 36.009380 0.024352
-0.533730 36.009380 0.023246
-0.219907 36.009380 0.022265
0.093916 36.009380 0.022197
0.407739 36.009380 0.021932
0.721562 36.009380 0.021167
1.035385 36.009380 0.020617
1.349208 36.009380 0.020461
1.663032 36.009380 0.020374
1.976854 36.009380 0.019825
2.290677 36.009380 0.019302
2.604500 36.009380 0.019409
2.918324 36.009380 0.019613
3.232146 36.009380 0.019394
3.545969 36.009380 0.018884
3.859793 36.009380 0.018967
4.173615 36.009380 0.018910
4.487438 36.009380 0.018251
4.801261 36.009380 0.018390
5.115085 36.009380 0.018816
5.428907 36.009380 0.019300
5.742730 36.009380 0.018675
6.056554 36.009380 0.018422
6.370377 36.009380 0.019118
6.684199 36.009380 0.019791
6.998022 36.009380 0.021159
7.311846 36.009380 0.023443
7.625669 36.009380 0.025967
7.939491 36.009380 0.030414
8.253315 36.009380 0.037312
8.567138 36.009380 0.046187
8.880960 36.009380 0.061885
9.194784 36.009380 0.086018
9.508606 36.009380 0.122489
9.822430 36.009380 0.178126
10.136253 36.009380 0.244250
10.450075 36.009380 0.343049
10.763899 36.009380 0.469302
11.077723 36.009380 0.615218
11.391544 36.009380 0.764364
11.705368 36.009380 0.894685
12.019190 36.009380 1.064044
12.333014 36.009380 1.200341
12.646837 36.009380 1.337137
12.960659 36.009380 1.473418
13.274483 36.009380 1.605168
13.588306 36.009380 1.702351
13.902128 36.009380 1.740175
14.215952 36.009380 1.764622
14.529776 36.009380 1.823703
14.843597 36.009380 1.792188
15.157421 36.009380 1.709613
15.471243 36.009380 1.587296
15.785067 36.009380 1.460461
16.098890 36.009380 1.392198
16.412712 36.009380 1.297116
16.726536 36.009380 1.216244
17.040359 36.009380 1.180869
17.354181 36.009380 1.132544
17.668005 36.009380 1.096702
17.981829 36.009380 1.143762
18.295650 36.009380 1.266586
18.609474 36.009380 1.643781
18.923298 36.009380 2.305914
19.237120 36.009380 0.000000
-6.810190 35.695557 0.000000
-6.496367 35.695557 0.000000
-6.182544 35.695557 0.031395
-5.868721 35.695557 0.028949
-5.554898 35.695557 0.029080
-5.241075 35.695557 0.028893
-4.927252 35.695557 0.028481
-4.613429 35.695557 0.028202
-4.299606 35.695557 0.027387
-3.985783 35.695557 0.027792
-3.671960 35.695557 0.027959
-3.358137 35.695557 0.027620
-3.044314 35.695557 0.027101
-2.730491 35.695557 0.027476
-2.416668 35.695557 0.026526
-2.102845 35.695557 0.025408
-1.789022 35.695557 0.025060
-1.475199 35.695557 0.024650
-1.161376 35.695557 0.024500
-0.847553 35.695557 0.024122
-0.533730 35.695557 0.022864
-0.219907 35.695557 0.021966
0.093916 35.695557 0.021848
0.407739 35.695557 0.021879
0.721562 35.695557 0.021012
1.035385 35.695557 0.020353
1.349208 35.695557 0.020095
1.663032 35.695557 0.019983
1.976854 35.695557 0.019518
2.290677 35.695557 0.018934
2.604500 35.695557 0.019417
2.918324 35.695557 0.019975
3.232146 35.695557 0.019410
3.545969 35.695557 0.018739
3.859793 35.695557 0.018692
4.173615 35.695557 0.018704
4.487438 35.695557 0.018290
4.801261 35.695557 0.018468
5.115085 35.695557 0.018738
5.428907 35.695557 0.018847
5.742730 35.695557 0.018350
6.056554 35.695557 0.018472
6.370377 35.695557 0.019034
6.684199 35.695557 0.019687
6.998022 35.695557 0.020830
7.311846 35.695557 0.023143
7.625669 35.695557 0.025994
7.939491 35.695557 0.030575
8.253315 35.695557 0.037046
8.567138 35.695557 0.046289
8.880960 35.695557 0.061058
9.194784 35.695557 0.085218
9.508606 35.695557 0.121661
9.822430 35.695557 0.167875
10.136253 35.695557 0.245785
10.450075 35.695557 0.339349
10.763899 35.695557 0.460579
11.077723 35.695557 0.600459
11.391544 35.695557 0.753823
11.705368 35.695557 0.901722
12.019190 35.695557 1.054908
12.333014 35.695557 1.206183
12.646837 35.695557 1.347581
12.960659 35.695557 1.467369
13.274483 35.695557 1.596922
13.588306 35.695557 1.703498
13.902128 35.695557 1.718872
14.215952 35.695557 1.779894
14.529776 35.695557 1.793361
14.843597 35.695557 1.761174
15.157421 35.695557 1.711192
15.471243 35.695557 1.625031
15.785067 35.695557 1.477025
16.098890 35.695557 1.427426
16.412712 35.695557 1.301325
16.726536 35.695557 1.210084
17.040359 35.695557 1.177046
17.354181 35.695557 1.120309
17.668005 35.695557 1.115703
17.981829 35.695557 1.133968
18.295650 35.695557 1.281758
18.609474 35.695557 1.700874
18.923298 35.695557 2.428660
19.237120 35.695557 0.000000
-6.810190 35.381737 0.000000
-6.496367 35.381737 0.000000
-6.182544 35.381737 0.031281
-5.868721 35.381737 0.028401
-5.554898 35.381737 0.028536
-5.241075 35.381737 0.028544
-4.927252 35.381737 0.028561
-4.613429 35.381737 0.028669
-4.299606 35.381737 0.027884
-3.985783 35.381737 0.028468
-3.671960 35.381737 0.028594
-3.358137 35.381737 0.027888
-3.044314 35.381737 0.026933
-2.730491 35.381737 0.026787
-2.416668 35.381737 0.026318
-2.102845 35.381737 0.025454
-1.789022 35.381737 0.025055
-1.475199 35.381737 0.024480
-1.161376 35.381737 0.024227
-0.847553 35.381737 0.023615
-0.533730 35.381737 0.022672
-0.219907 35.381737 0.022138
0.093916 35.381737 0.021923
0.407739 35.381737 0.022053
0.721562 35.381737 0.021130
1.035385 35.381737 0.020365
1.349208 35.381737 0.019929
1.663032 35.381737 0.019785
1.976854 35.381737 0.019315
2.290677 35.381737 0.018876
2.604500 35.381737 0.019604
2.918324 35.381737 0.019834
3.232146 35.381737 0.018990
3.545969 35.381737 0.018555
3.859793 35.381737 0.018540
4.173615 35.381737 0.018562
4.487438 35.381737 0.018275
4.801261 35.381737 0.018366
5.115085 35.381737 0.018515
5.428907 35.381737 0.018340
5.742730 35.381737 0.018087
6.056554 35.381737 0.018505
6.370377 35.381737 0.019008
6.684199 35.381737 0.019587
6.998022 35.381737 0.020561
7.311846 35.381737 0.022936
7.625669 35.381737 0.025810
7.939491 35.381737 0.030366
8.253315 35.381737 0.037253
8.567138 35.381737 0.046903
8.880960 35.381737 0.061703
9.194784 35.381737 0.087520
9.508606 35.381737 0.123204
9.822430 35.381737 0.171205
10.136253 35.381737 0.247094
10.450075 35.381737 0.336668
10.763899 35.381737 0.457992
11.077723 35.381737 0.590810
11.391544 35.381737 0.747923
11.705368 35.381737 0.912741
12.019190 35.381737 1.070737
12.333014 35.381737 1.214488
12.646837 35.381737 1.340818
12.960659 35.381737 1.477644
13.274483 35.381737 1.591617
13.588306 35.381737 1.727487
13.902128 35.381737 1.765512
14.215952 35.381737 1.765915
14.529776 35.381737 1.816954
14.843597 35.381737 1.760601
15.157421 35.381737 1.693605
15.471243 35.381737 1.606122
15.785067 35.381737 1.493548
16.098890 35.381737 1.415078
16.412712 35.381737 1.302594
16.726536 35.381737 1.218962
17.040359 35.381737 1.175218
17.354181 35.381737 1.150574
17.668005 35.381737 1.129412
17.981829 35.381737 1.172598
18.295650 35.381737 1.347374
18.609474 35.381737 1.749196
18.923298 35.381737 2.478499
19.237120 35.381737 0.000000
-6.810190 35.067913 0.000000
-6.496367 35.067913 0.000000
-6.182544 35.067913 0.031113
-5.868721 35.067913 0.028220
-5.554898 35.067913 0.028324
-5.241075 35.067913 0.028035
-4.927252 35.067913 0.028557
-4.613429 35.067913 0.029097
-4.299606 35.067913 0.028545
-3.985783 35.067913 0.028955
-3.671960 35.067913 0.028793
-3.358137 35.067913 0.028437
-3.044314 35.067913 0.027126
-2.730491 35.067913 0.026418
-2.416668 35.067913 0.026025
-2.102845 35.067913 0.025273
-1.789022 35.067913 0.024684
-1.475199 35.067913 0.024525
-1.161376 35.067913 0.024063
-0.847553 35.067913 0.022922
-0.533730 35.067913 0.022443
-0.219907 35.067913 0.022497
0.093916 35.067913 0.022338
0.407739 35.067913 0.022039
0.721562 35.067913 0.021104
1.035385 35.067913 0.020295
1.349208 35.067913 0.019828
1.663032 35.067913 0.019637
1.976854 35.067913 0.018840
2.290677 35.067913 0.018822
2.604500 35.067913 0.019530
2.918324 35.067913 0.019444
3.232146 35.067913 0.018466
3.545969 35.067913 0.018358
3.859793 35.067913 0.018484
4.173615 35.067913 0.018321
4.487438 35.067913 0.017795
4.801261 35.067913 0.018096
5.115085 35.067913 0.018366
5.428907 35.067913 0.018315
5.742730 35.067913 0.018037
6.056554 35.067913 0.018379
6.370377 35.067913 0.018912
6.684199 35.067913 0.019609
6.998022 35.067913 0.020463
7.311846 35.067913 0.022773
7.625669 35.067913 0.025473
7.939491 35.067913 0.030866
8.253315 35.067913 0.037766
8.567138 35.067913 0.047629
8.880960 35.067913 0.060949
9.194784 35.067913 0.086485
9.508606 35.067913 0.127520
9.822430 35.067913 0.178745
10.136253 35.067913 0.242010
10.450075 35.067913 0.339741
10.763899 35.067913 0.460169
11.077723 35.067913 0.599791
11.391544 35.067913 0.745452
11.705368 35.067913 0.897064
12.019190 35.067913 1.064972
12.333014 35.067913 1.239123
12.646837 35.067913 1.366523
12.960659 35.067913 1.487860
13.274483 35.067913 1.584620
13.588306 35.067913 1.704141
13.902128 35.067913 1.767350
14.215952 35.067913 1.783682
14.529776 35.067913 1.814787
14.843597 35.067913 1.804663
15.157421 35.067913 1.734307
15.471243 35.067913 1.619492
15.785067 35.067913 1.519527
16.098890 35.067913 1.406042
16.412712 35.067913 1.279679
16.726536 35.067913 1.188186
17.040359 35.067913 1.159603
17.354181 35.067913 1.132874
17.668005 35.067913 1.131494
17.981829 35.067913 1.140729
18.295650 35.067913 1.340873
18.609474 35.067913 1.763841
18.923298 35.067913 2.484256
19.237120 35.067913 0.000000
-6.810190 34.754089 0.000000
-6.496367 34.754089 0.031447
-6.182544 34.754089 0.030740
-5.868721 34.754089 0.028213
-5.554898 34.754089 0.028499
-5.241075 34.754089 0.027707
-4.927252 34.754089 0.028337
-4.613429 34.754089 0.028791
-4.299606 34.754089 0.028659
-3.985783 34.754089 0.028513
-3.671960 34.754089 0.028017
-3.358137 34.754089 0.027548
-3.044314 34.754089 0.026599
-2.730491 34.754089 0.025912
-2.416668 34.754089 0.025434
-2.102845 34.754089 0.024294
-1.789022 34.754089 0.023973
-1.475199 34.754089 0.024575
-1.161376 34.754089 0.023910
-0.847553 34.754089 0.022371
-0.533730 34.754089 0.022302
-0.219907 34.754089 0.022596
0.093916 34.754089 0.022581
0.407739 34.754089 0.021781
0.721562 34.754089 0.020648
1.035385 34.754089 0.019947
1.349208 34.754089 0.019799
1.663032 34.754089 0.019328
1.976854 34.754089 0.018505
2.290677 34.754089 0.018663
2.604500 34.754089 0.019040
2.918324 34.754089 0.018751
3.232146 34.754089 0.018140
3.545969 34.754089 0.018439
3.859793 34.754089 0.018821
4.173615 34.754089 0.018317
4.487438 34.754089 0.017342
4.801261 34.754089 0.017648
5.115085 34.754089 0.018096
5.428907 34.754089 0.018419
5.742730 34.754089 0.018083
6.056554 34.754089 0.018129
6.370377 34.754089 0.018588
6.684199 34.754089 0.019486
6.998022 34.754089 0.020544
7.311846 34.754089 0.022637
7.625669 34.754089 0.025729
7.939491 34.754089 0.030901
8.253315 34.754089 0.038152
8.567138 34.754089 0.046870
8.880960 34.754089 0.060636
9.194784 34.754089 0.084805
9.508606 34.754089 0.126524
9.822430 34.754089 0.178516
10.136253 34.754089 0.245968
10.450075 34.754089 0.346041
10.763899 34.754089 0.463502
11.077723 34.754089 0.599278
11.391544 34.754089 0.729689
11.705368 34.754089 0.879970
12.019190 34.754089 1.067926
12.333014 34.754089 1.235976
12.646837 34.754089 1.379240
12.960659 34.754089 1.503244
13.274483 34.754089 1.614432
13.588306 34.754089 1.722022
13.902128 34.754089 1.756636
14.215952 34.754089 1.784858
14.529776 34.754089 1.829056
14.843597 34.754089 1.769544
15.157421 34.754089 1.733706
15.471243 34.754089 1.614191
15.785067 34.754089 1.524992
16.098890 34.754089 1.408038
16.412712 34.754089 1.274369
16.726536 34.754089 1.182806
17.040359 34.754089 1.156444
17.354181 34.754089 1.144453
17.668005 34.754089 1.134352
17.981829 34.754089 1.167088
18.295650 34.754089 1.321297
18.609474 34.754089 1.751639
18.923298 34.754089 2.432297
19.237120 34.754089 0.000000
-6.810190 34.440266 0.000000
-6.496367 34.440266 0.052999
-6.182544 34.440266 0.030591
-5.868721 34.440266 0.028388
-5.554898 34.440266 0.028525
-5.241075 34.440266 0.027608
-4.927252 34.440266 0.028270
-4.613429 34.440266 0.028707
-4.299606 34.440266 0.028511
-3.985783 34.440266 0.027813
-3.671960 34.440266 0.026843
-3.358137 34.440266 0.026320
-3.044314 34.440266 0.025880
-2.730491 34.440266 0.025520
-2.416668 34.440266 0.024725
-2.102845 34.440266 0.023373
-1.789022 34.440266 0.023085
-1.475199 34.440266 0.023681
-1.161376 34.440266 0.023524
-0.847553 34.440266 0.022149
-0.533730 34.440266 0.021836
-0.219907 34.440266 0.022073
0.093916 34.440266 0.022200
0.407739 34.440266 0.021142
0.721562 34.440266 0.020193
1.035385 34.440266 0.019833
1.349208 34.440266 0.019758
1.663032 34.440266 0.018934
1.976854 34.440266 0.018095
2.290677 34.440266 0.018473
2.604500 34.440266 0.018584
2.918324 34.440266 0.018337
3.232146 34.440266 0.018061
3.545969 34.440266 0.018758
3.859793 34.440266 0.019228
4.173615 34.440266 0.018334
4.487438 34.440266 0.017277
4.801261 34.440266 0.017413
5.115085 34.440266 0.017852
5.428907 34.440266 0.018306
5.742730 34.440266 0.017949
6.056554 34.440266 0.017921
6.370377 34.440266 0.018393
6.684199 34.440266 0.019238
6.998022 34.440266 0.020461
7.311846 34.440266 0.022651
7.625669 34.440266 0.026180
7.939491 34.440266 0.031005
8.253315 34.440266 0.037848
8.567138 34.440266 0.046607
8.880960 34.440266 0.058826
9.194784 34.440266 0.082967
9.508606 34.440266 0.123786
9.822430 34.440266 0.178505
10.136253 34.440266 0.248258
10.450075 34.440266 0.347977
10.763899 34.440266 0.475500
11.077723 34.440266 0.600567
11.391544 34.440266 0.730688
11.705368 34.440266 0.884409
12.019190 34.440266 1.074557
12.333014 34.440266 1.207189
12.646837 34.440266 1.399833
12.960659 34.440266 1.533414
13.274483 34.440266 1.627597
13.588306 34.440266 1.736648
13.902128 34.440266 1.771217
14.215952 34.440266 1.790087
14.529776 34.440266 1.821916
14.843597 34.440266 1.784842
15.157421 34.440266 1.741391
15.471243 34.440266 1.612763
15.785067 34.440266 1.502098
16.098890 34.440266 1.422958
16.412712 34.440266 1.291884
16.726536 34.440266 1.192826
17.040359 34.440266 1.129576
17.354181 34.440266 1.117689
17.668005 34.440266 1.113706
17.981829 34.440266 1.144347
18.295650 34.440266 1.296838
18.609474 34.440266 1.721233
18.923298 34.440266 2.445367
19.237120 34.440266 0.000000
-6.810190 34.126442 0.000000
-6.496367 34.126442 0.044812
-6.182544 34.126442 0.030927
-5.868721 34.126442 0.028966
-5.554898 34.126442 0.028387
-5.241075 34.126442 0.027613
-4.927252 34.126442 0.028300
-4.613429 34.126442 0.028614
-4.299606 34.126442 0.027931
-3.985783 34.126442 0.026969
-3.671960 34.126442 0.025830
-3.358137 34.126442 0.025316
-3.044314 34.126442 0.025372
-2.730491 34.126442 0.025241
-2.416668 34.126442 0.023805
-2.102845 34.126442 0.022600
-1.789022 34.126442 0.022496
-1.475199 34.126442 0.023035
-1.161376 34.126442 0.022944
-0.847553 34.126442 0.022176
-0.533730 34.126442 0.021486
-0.219907 34.126442 0.021332
0.093916 34.126442 0.021549
0.407739 34.126442 0.020711
0.721562 34.126442 0.020157
1.035385 34.126442 0.019927
1.349208 34.126442 0.019696
1.663032 34.126442 0.018421
1.976854 34.126442 0.017831
2.290677 34.126442 0.018030
2.604500 34.126442 0.017913
2.918324 34.126442 0.018104
3.232146 34.126442 0.018196
3.545969 34.126442 0.018980
3.859793 34.126442 0.019241
4.173615 34.126442 0.018218
4.487438 34.126442 0.017409
4.801261 34.126442 0.017514
5.115085 34.126442 0.017780
5.428907 34.126442 0.018019
5.742730 34.126442 0.017509
6.056554 34.126442 0.017716
6.370377 34.126442 0.018316
6.684199 34.126442 0.019159
6.998022 34.126442 0.020650
7.311846 34.126442 0.022948
7.625669 34.126442 0.026315
7.939491 34.126442 0.031192
8.253315 34.126442 0.038034
8.567138 34.126442 0.046143
8.880960 34.126442 0.059351
9.194784 34.126442 0.081991
9.508606 34.126442 0.124560
9.822430 34.126442 0.173464
10.136253 34.126442 0.242774
10.450075 34.126442 0.343781
10.763899 34.126442 0.488081
11.077723 34.126442 0.616694
11.391544 34.126442 0.750544
11.705368 34.126442 0.909617
12.019190 34.126442 1.066094
12.333014 34.126442 1.238032
12.646837 34.126442 1.377176
12.960659 34.126442 1.528810
13.274483 34.126442 1.622123
13.588306 34.126442 1.724344
13.902128 34.126442 1.782441
14.215952 34.126442 1.799781
14.529776 34.126442 1.833578
14.843597 34.126442 1.809612
15.157421 34.126442 1.693724
15.471243 34.126442 1.605407
15.785067 34.126442 1.501504
16.098890 34.126442 1.404081
16.412712 34.126442 1.298036
16.726536 34.126442 1.207858
17.040359 34.126442 1.122718
17.354181 34.126442 1.091538
17.668005 34.126442 1.109423
17.981829 34.126442 1.145710
18.295650 34.126442 1.257548
18.609474 34.126442 1.703844
18.923298 34.126442 2.380853
19.237120 34.126442 0.000000
-6.810190 33.812622 0.000000
-6.496367 33.812622 0.039261
-6.182544 33.812622 0.031198
-5.868721 33.812622 0.029169
-5.554898 33.812622 0.028070
-5.241075 33.812622 0.027853
-4.927252 33.812622 0.028337
-4.613429 33.812622 0.028167
-4.299606 33.812622 0.027494
-3.985783 33.812622 0.026530
-3.671960 33.812622 0.025450
-3.358137 33.812622 0.024971
-3.044314 33.812622 0.025265
-2.730491 33.812622 0.024992
-2.416668 33.812622 0.023386
-2.102845 33.812622 0.022042
-1.789022 33.812622 0.022263
-1.475199 33.812622 0.022525
-1.161376 33.812622 0.022536
-0.847553 33.812622 0.022427
-0.533730 33.812622 0.021572
-0.219907 33.812622 0.021002
0.093916 33.812622 0.021016
0.407739 33.812622 0.020599
0.721562 33.812622 0.020089
1.035385 33.812622 0.019663
1.349208 33.812622 0.019130
1.663032 33.812622 0.018235
1.976854 33.812622 0.017823
2.290677 33.812622 0.017545
2.604500 33.812622 0.017268
2.918324 33.812622 0.017823
3.232146 33.812622 0.018348
3.545969 33.812622 0.019119
3.859793 33.812622 0.019130
4.173615 33.812622 0.017942
4.487438 33.812622 0.017600
4.801261 33.812622 0.017723
5.115085 33.812622 0.017747
5.428907 33.812622 0.017435
5.742730 33.812622 0.017201
6.056554 33.812622 0.017854
6.370377 33.812622 0.018644
6.684199 33.812622 0.019429
6.998022 33.812622 0.020852
7.311846 33.812622 0.023235
7.625669 33.812622 0.026497
7.939491 33.812622 0.031090
8.253315 33.812622 0.037222
8.567138 33.812622 0.044648
8.880960 33.812622 0.058984
9.194784 33.812622 0.081198
9.508606 33.812622 0.119895
9.822430 33.812622 0.168393
10.136253 33.812622 0.237615
10.450075 33.812622 0.345743
10.763899 33.812622 0.486038
11.077723 33.812622 0.625168
11.391544 33.812622 0.768824
11.705368 33.812622 0.937121
12.019190 33.812622 1.083843
12.333014 33.812622 1.233159
12.646837 33.812622 1.353615
12.960659 33.812622 1.510219
13.274483 33.812622 1.650739
13.588306 33.812622 1.731661
13.902128 33.812622 1.775557
14.215952 33.812622 1.807965
14.529776 33.812622 1.839654
14.843597 33.812622 1.818397
15.157421 33.812622 1.743086
15.471243 33.812622 1.596321
15.785067 33.812622 1.485115
16.098890 33.812622 1.413054
16.412712 33.812622 1.308037
16.726536 33.812622 1.232065
17.040359 33.812622 1.135191
17.354181 33.812622 1.107477
17.668005 33.812622 1.103096
17.981829 33.812622 1.133272
18.295650 33.812622 1.277987
18.609474 33.812622 1.647406
18.923298 33.812622 2.444410
19.237120 33.812622 0.000000
-6.810190 33.498795 0.000000
-6.496367 33.498795 0.044545
-6.182544 33.498795 0.031083
-5.868721 33.498795 0.028745
-5.554898 33.498795 0.027897
-5.241075 33.498795 0.027832
-4.927252 33.498795 0.028127
-4.613429 33.498795 0.027767
-4.299606 33.498795 0.027284
-3.985783 33.498795 0.026718
-3.671960 33.498795 0.025409
-3.358137 33.498795 0.024533
-3.044314 33.498795 0.024749
-2.730491 33.498795 0.024818
-2.416668 33.498795 0.023421
-2.102845 33.498795 0.022020
-1.789022 33.498795 0.022187
-1.475199 33.498795 0.022217
-1.161376 33.498795 0.022246
-0.847553 33.498795 0.022667
-0.533730 33.498795 0.022094
-0.219907 33.498795 0.021324
0.093916 33.498795 0.020880
0.407739 33.498795 0.020413
0.721562 33.498795 0.019764
1.035385 33.498795 0.019235
1.349208 33.498795 0.018788
1.663032 33.498795 0.018311
1.976854 33.498795 0.017855
2.290677 33.498795 0.017241
2.604500 33.498795 0.017021
2.918324 33.498795 0.017664
3.232146 33.498795 0.018535
3.545969 33.498795 0.019096
3.859793 33.498795 0.018930
4.173615 33.498795 0.017757
4.487438 33.498795 0.017406
4.801261 33.498795 0.017466
5.115085 33.498795 0.017351
5.428907 33.498795 0.016857
5.742730 33.498795 0.016832
6.056554 33.498795 0.017910
6.370377 33.498795 0.019143
6.684199 33.498795 0.020081
6.998022 33.498795 0.021366
7.311846 33.498795 0.023700
7.625669 33.498795 0.027006
7.939491 33.498795 0.030708
8.253315 33.498795 0.036634
8.567138 33.498795 0.045054
8.880960 33.498795 0.059219
9.194784 33.498795 0.080698
9.508606 33.498795 0.118340
9.822430 33.498795 0.172001
10.136253 33.498795 0.247239
10.450075 33.498795 0.347902
10.763899 33.498795 0.483082
11.077723 33.498795 0.635068
11.391544 33.498795 0.789164
11.705368 33.498795 0.941075
12.019190 33.498795 1.099205
12.333014 33.498795 1.243916
12.646837 33.498795 1.383005
12.960659 33.498795 1.519372
13.274483 33.498795 1.696084
13.588306 33.498795 1.759797
13.902128 33.498795 1.784748
14.215952 33.498795 1.829059
14.529776 33.498795 1.846446
14.843597 33.498795 1.849736
15.157421 33.498795 1.744347
15.471243 33.498795 1.599560
15.785067 33.498795 1.479733
16.098890 33.498795 1.414688
16.412712 33.498795 1.320452
16.726536 33.498795 1.247833
17.040359 33.498795 1.154495
17.354181 33.498795 1.131983
17.668005 33.498795 1.117548
17.981829 33.498795 1.137213
18.295650 33.498795 1.260701
18.609474 33.498795 1.702142
18.923298 33.498795 2.465649
19.237120 33.498795 0.000000
-6.810190 33.184975 0.000000
-6.496367 33.184975 0.043521
-6.182544 33.184975 0.030548
-5.868721 33.184975 0.028204
-5.554898 33.184975 0.028054
-5.241075 33.184975 0.027943
-4.927252 33.184975 0.027838
-4.613429 33.184975 0.027387
-4.299606 33.184975 0.027345
-3.985783 33.184975 0.027070
-3.671960 33.184975 0.025676
-3.358137 33.184975 0.024287
-3.044314 33.184975 0.024162
-2.730491 33.184975 0.024520
-2.416668 33.184975 0.023579
-2.102845 33.184975 0.022317
-1.789022 33.184975 0.022142
-1.475199 33.184975 0.022143
-1.161376 33.184975 0.022246
-0.847553 33.184975 0.022517
-0.533730 33.184975 0.022417
-0.219907 33.184975 0.021826
0.093916 33.184975 0.020896
0.407739 33.184975 0.019795
0.721562 33.184975 0.019072
1.035385 33.184975 0.019119
1.349208 33.184975 0.018729
1.663032 33.184975 0.018251
1.976854 33.184975 0.017881
2.290677 33.184975 0.017362
2.604500 33.184975 0.017381
2.918324 33.184975 0.017945
3.232146 33.184975 0.018721
3.545969 33.184975 0.018754
3.859793 33.184975 0.018408
4.173615 33.184975 0.017352
4.487438 33.184975 0.017013
4.801261 33.184975 0.017228
5.115085 33.184975 0.017028
5.428907 33.184975 0.016568
5.742730 33.184975 0.016734
6.056554 33.184975 0.017970
6.370377 33.184975 0.019531
6.684199 33.184975 0.021011
6.998022 33.184975 0.021673
7.311846 33.184975 0.023913
7.625669 33.184975 0.027120
7.939491 33.184975 0.031209
8.253315 33.184975 0.036797
8.567138 33.184975 0.044690
8.880960 33.184975 0.058851
9.194784 33.184975 0.080024
9.508606 33.184975 0.117080
9.822430 33.184975 0.174435
10.136253 33.184975 0.252192
10.450075 33.184975 0.350703
10.763899 33.184975 0.485261
11.077723 33.184975 0.638682
11.391544 33.184975 0.776495
11.705368 33.184975 0.929626
12.019190 33.184975 1.107377
12.333014 33.184975 1.252020
12.646837 33.184975 1.385798
12.960659 33.184975 1.536426
13.274483 33.184975 1.679420
13.588306 33.184975 1.773723
13.902128 33.184975 1.793471
14.215952 33.184975 1.848959
14.529776 33.184975 1.858461
14.843597 33.184975 1.846075
15.157421 33.184975 1.743049
15.471243 33.184975 1.610046
15.785067 33.184975 1.534566
16.098890 33.184975 1.434882
16.412712 33.184975 1.331867
16.726536 33.184975 1.220823
17.040359 33.184975 1.138544
17.354181 33.184975 1.115421
17.668005 33.184975 1.108293
17.981829 33.184975 1.143520
18.295650 33.184975 1.299023
18.609474 33.184975 1.739193
18.923298 33.184975 2.522692
19.237120 33.184975 0.000000
-6.810190 32.871151 0.000000
-6.496367 32.871151 0.042764
-6.182544 32.871151 0.030522
-5.868721 32.871151 0.028308
-5.554898 32.871151 0.028444
-5.241075 32.871151 0.028001
-4.927252 32.871151 0.027642
-4.613429 32.871151 0.027113
-4.299606 32.871151 0.027014
-3.985783 32.871151 0.026839
-3.671960 32.871151 0.025308
-3.358137 32.871151 0.023818
-3.044314 32.871151 0.023538
-2.730491 32.871151 0.024042
-2.416668 32.871151 0.023546
-2.102845 32.871151 0.022231
-1.789022 32.871151 0.022087
-1.475199 32.871151 0.022228
-1.161376 32.871151 0.022175
-0.847553 32.871151 0.022110
-0.533730 32.871151 0.022099
-0.219907 32.871151 0.021884
0.093916 32.871151 0.020714
0.407739 32.871151 0.018923
0.721562 32.871151 0.018265
1.035385 32.871151 0.018948
1.349208 32.871151 0.018813
1.663032 32.871151 0.018205
1.976854 32.871151 0.017697
2.290677 32.871151 0.017594
2.604500 32.871151 0.018019
2.918324 32.871151 0.018537
3.232146 32.871151 0.018753
3.545969 32.871151 0.018096
3.859793 32.871151 0.017766
4.173615 32.871151 0.016878
4.487438 32.871151 0.016598
4.801261 32.871151 0.016926
5.115085 32.871151 0.016940
5.428907 32.871151 0.016739
5.742730 32.871151 0.016821
6.056554 32.871151 0.017968
6.370377 32.871151 0.019444
6.684199 32.871151 0.021298
6.998022 32.871151 0.021779
7.311846 32.871151 0.023765
7.625669 32.871151 0.027260
7.939491 32.871151 0.031278
8.253315 32.871151 0.037356
8.567138 32.871151 0.044302
8.880960 32.871151 0.058721
9.194784 32.871151 0.079879
9.508606 32.871151 0.119023
9.822430 32.871151 0.177754
10.136253 32.871151 0.257598
10.450075 32.871151 0.358921
10.763899 32.871151 0.488277
11.077723 32.871151 0.629169
11.391544 32.871151 0.780095
11.705368 32.871151 0.924757
12.019190 32.871151 1.109009
12.333014 32.871151 1.253680
12.646837 32.871151 1.386073
12.960659 32.871151 1.525736
13.274483 32.871151 1.633444
13.588306 32.871151 1.733836
13.902128 32.871151 1.761684
14.215952 32.871151 1.865355
14.529776 32.871151 1.871974
14.843597 32.871151 1.845409
15.157421 32.871151 1.733921
15.471243 32.871151 1.671051
15.785067 32.871151 1.559244
16.098890 32.871151 1.411142
16.412712 32.871151 1.342315
16.726536 32.871151 1.242524
17.040359 32.871151 1.141747
17.354181 32.871151 1.100000
17.668005 32.871151 1.109051
17.981829 32.871151 1.152458
18.295650 32.871151 1.311956
18.609474 32.871151 1.763151
18.923298 32.871151 2.494003
19.237120 32.871151 0.000000
-6.810190 32.557327 0.000000
-6.496367 32.557327 0.041175
-6.182544 32.557327 0.030174
-5.868721 32.557327 0.028702
-5.554898 32.557327 0.028344
-5.241075 32.557327 0.027935
-4.927252 32.557327 0.027611
-4.613429 32.557327 0.026823
-4.299606 32.557327 0.026399
-3.985783 32.557327 0.025867
-3.671960 32.557327 0.024620
-3.358137 32.557327 0.023375
-3.044314 32.557327 0.023322
-2.730491 32.557327 0.023898
-2.416668 32.557327 0.023278
-2.102845 32.557327 0.021969
-1.789022 32.557327 0.021484
-1.475199 32.557327 0.021803
-1.161376 32.557327 0.021651
-0.847553 32.557327 0.021448
-0.533730 32.557327 0.021576
-0.219907 32.557327 0.021168
0.093916 32.557327 0.020129
0.407739 32.557327 0.018347
0.721562 32.557327 0.017907
1.035385 32.557327 0.018660
1.349208 32.557327 0.018493
1.663032 32.557327 0.017782
1.976854 32.557327 0.017388
2.290677 32.557327 0.017567
2.604500 32.557327 0.018392
2.918324 32.557327 0.018725
3.232146 32.557327 0.018558
3.545969 32.557327 0.017701
3.859793 32.557327 0.017427
4.173615 32.557327 0.016598
4.487438 32.557327 0.016278
4.801261 32.557327 0.016549
5.115085 32.557327 0.016820
5.428907 32.557327 0.016806
5.742730 32.557327 0.016985
6.056554 32.557327 0.017781
6.370377 32.557327 0.018932
6.684199 32.557327 0.020787
6.998022 32.557327 0.021723
7.311846 32.557327 0.023821
7.625669 32.557327 0.027205
7.939491 32.557327 0.031080
8.253315 32.557327 0.036464
8.567138 32.557327 0.043797
8.880960 32.557327 0.058241
9.194784 32.557327 0.081391
9.508606 32.557327 0.116013
9.822430 32.557327 0.175006
10.136253 32.557327 0.259682
10.450075 32.557327 0.365202
10.763899 32.557327 0.485677
11.077723 32.557327 0.624778
11.391544 32.557327 0.784807
11.705368 32.557327 0.948687
12.019190 32.557327 1.107964
12.333014 32.557327 1.261524
12.646837 32.557327 1.408552
12.960659 32.557327 1.525746
13.274483 32.557327 1.627142
13.588306 32.557327 1.720010
13.902128 32.557327 1.778918
14.215952 32.557327 1.858255
14.529776 32.557327 1.878624
14.843597 32.557327 1.829820
15.157421 32.557327 1.734543
15.471243 32.557327 1.686927
15.785067 32.557327 1.568050
16.098890 32.557327 1.433123
16.412712 32.557327 1.342625
16.726536 32.557327 1.264972
17.040359 32.557327 1.163642
17.354181 32.557327 1.121026
17.668005 32.557327 1.112531
17.981829 32.557327 1.171787
18.295650 32.557327 1.328635
18.609474 32.557327 1.810463
18.923298 32.557327 2.501673
19.237120 32.557327 0.000000
-6.810190 32.243507 0.000000
-6.496367 32.243507 0.040242
-6.182544 32.243507 0.029998
-5.868721 32.243507 0.028448
-5.554898 32.243507 0.027731
-5.241075 32.243507 0.027151
-4.927252 32.243507 0.027429
-4.613429 32.243507 0.026517
-4.299606 32.243507 0.025406
-3.985783 32.243507 0.024734
-3.671960 32.243507 0.024003
-3.358137 32.243507 0.023167
-3.044314 32.243507 0.023519
-2.730491 32.243507 0.024143
-2.416668 32.243507 0.022905
-2.102845 32.243507 0.021692
-1.789022 32.243507 0.021246
-1.475199 32.243507 0.021421
-1.161376 32.243507 0.021129
-0.847553 32.243507 0.020893
-0.533730 32.243507 0.020713
-0.219907 32.243507 0.020172
0.093916 32.243507 0.019592
0.407739 32.243507 0.018362
0.721562 32.243507 0.018148
1.035385 32.243507 0.018441
1.349208 32.243507 0.017908
1.663032 32.243507 0.017404
1.976854 32.243507 0.017179
2.290677 32.243507 0.017606
2.604500 32.243507 0.018039
2.918324 32.243507 0.018311
3.232146 32.243507 0.018222
3.545969 32.243507 0.017499
3.859793 32.243507 0.017247
4.173615 32.243507 0.016440
4.487438 32.243507 0.016139
4.801261 32.243507 0.016405
5.115085 32.243507 0.016745
5.428907 32.243507 0.016683
5.742730 32.243507 0.017006
6.056554 32.243507 0.017604
6.370377 32.243507 0.018309
6.684199 32.243507 0.020078
6.998022 32.243507 0.021797
7.311846 32.243507 0.024342
7.625669 32.243507 0.027322
7.939491 32.243507 0.031200
8.253315 32.243507 0.035582
8.567138 32.243507 0.042893
8.880960 32.243507 0.057339
9.194784 32.243507 0.078993
9.508606 32.243507 0.116310
9.822430 32.243507 0.177165
10.136253 32.243507 0.259463
10.450075 32.243507 0.362541
10.763899 32.243507 0.494300
11.077723 32.243507 0.639040
11.391544 32.243507 0.781096
11.705368 32.243507 0.940352
12.019190 32.243507 1.097388
12.333014 32.243507 1.241622
12.646837 32.243507 1.375404
12.960659 32.243507 1.513849
13.274483 32.243507 1.640868
13.588306 32.243507 1.727584
13.902128 32.243507 1.806403
14.215952 32.243507 1.880746
14.529776 32.243507 1.869732
14.843597 32.243507 1.839440
15.157421 32.243507 1.780635
15.471243 32.243507 1.703224
15.785067 32.243507 1.573445
16.098890 32.243507 1.412357
16.412712 32.243507 1.360622
16.726536 32.243507 1.271174
17.040359 32.243507 1.180749
17.354181 32.243507 1.129946
17.668005 32.243507 1.140540
17.981829 32.243507 1.164965
18.295650 32.243507 1.337643
18.609474 32.243507 1.768875
18.923298 32.243507 2.590055
19.237120 32.243507 0.000000
-6.810190 31.929682 0.000000
-6.496367 31.929682 0.040175
-6.182544 31.929682 0.029647
-5.868721 31.929682 0.027880
-5.554898 31.929682 0.026823
-5.241075 31.929682 0.026142
-4.927252 31.929682 0.026381
-4.613429 31.929682 0.025673
-4.299606 31.929682 0.024535
-3.985783 31.929682 0.023924
-3.671960 31.929682 0.023704
-3.358137 31.929682 0.023119
-3.044314 31.929682 0.023708
-2.730491 31.929682 0.024111
-2.416668 31.929682 0.022491
-2.102845 31.929682 0.021417
-1.789022 31.929682 0.021329
-1.475199 31.929682 0.021545
-1.161376 31.929682 0.020891
-0.847553 31.929682 0.020487
-0.533730 31.929682 0.019750
-0.219907 31.929682 0.019125
0.093916 31.929682 0.019253
0.407739 31.929682 0.018618
0.721562 31.929682 0.018525
1.035385 31.929682 0.018247
1.349208 31.929682 0.017447
1.663032 31.929682 0.017331
1.976854 31.929682 0.017283
2.290677 31.929682 0.017621
2.604500 31.929682 0.017555
2.918324 31.929682 0.017874
3.232146 31.929682 0.017925
3.545969 31.929682 0.017343
3.859793 31.929682 0.017064
4.173615 31.929682 0.016308
4.487438 31.929682 0.016199
4.801261 31.929682 0.016526
5.115085 31.929682 0.016792
5.428907 31.929682 0.016570
5.742730 31.929682 0.016958
6.056554 31.929682 0.017598
6.370377 31.929682 0.018135
6.684199 31.929682 0.019911
6.998022 31.929682 0.021932
7.311846 31.929682 0.024710
7.625669 31.929682 0.027035
7.939491 31.929682 0.030748
8.253315 31.929682 0.035329
8.567138 31.929682 0.042055
8.880960 31.929682 0.055575
9.194784 31.929682 0.080856
9.508606 31.929682 0.120610
9.822430 31.929682 0.175235
10.136253 31.929682 0.249967
10.450075 31.929682 0.353210
10.763899 31.929682 0.476279
11.077723 31.929682 0.610621
11.391544 31.929682 0.784134
11.705368 31.929682 0.935011
12.019190 31.929682 1.078355
12.333014 31.929682 1.228553
12.646837 31.929682 1.387090
12.960659 31.929682 1.552186
13.274483 31.929682 1.680119
13.588306 31.929682 1.750466
13.902128 31.929682 1.832133
14.215952 31.929682 1.923707
14.529776 31.929682 1.883631
14.843597 31.929682 1.852899
15.157421 31.929682 1.811131
15.471243 31.929682 1.688257
15.785067 31.929682 1.539248
16.098890 31.929682 1.443538
16.412712 31.929682 1.355810
16.726536 31.929682 1.320755
17.040359 31.929682 1.214149
17.354181 31.929682 1.158094
17.668005 31.929682 1.153573
17.981829 31.929682 1.178159
18.295650 31.929682 1.356891
18.609474 31.929682 1.780904
18.923298 31.929682 2.523446
19.237120 31.929682 0.000000
-6.810190 31.615858 0.000000
-6.496367 31.615858 0.039516
-6.182544 31.615858 0.029554
-5.868721 31.615858 0.027364
-5.554898 31.615858 0.026244
-5.241075 31.615858 0.025478
-4.927252 31.615858 0.025344
-4.613429 31.615858 0.024618
-4.299606 31.615858 0.023968
-3.985783 31.615858 0.023651
-3.671960 31.615858 0.023195
-3.358137 31.615858 0.022646
-3.044314 31.615858 0.023350
-2.730491 31.615858 0.023709
-2.416668 31.615858 0.022049
-2.102845 31.615858 0.020955
-1.789022 31.615858 0.021478
-1.475199 31.615858 0.021840
-1.161376 31.615858 0.020821
-0.847553 31.615858 0.020296
-0.533730 31.615858 0.019320
-0.219907 31.615858 0.018769
0.093916 31.615858 0.019124
0.407739 31.615858 0.018614
0.721562 31.615858 0.018289
1.035385 31.615858 0.017858
1.349208 31.615858 0.017113
1.663032 31.615858 0.017340
1.976854 31.615858 0.017362
2.290677 31.615858 0.017472
2.604500 31.615858 0.017431
2.918324 31.615858 0.017656
3.232146 31.615858 0.017696
3.545969 31.615858 0.017236
3.859793 31.615858 0.016633
4.173615 31.615858 0.016156
4.487438 31.615858 0.016224
4.801261 31.615858 0.016436
5.115085 31.615858 0.016625
5.428907 31.615858 0.016558
5.742730 31.615858 0.016970
6.056554 31.615858 0.017770
6.370377 31.615858 0.018811
6.684199 31.615858 0.020261
6.998022 31.615858 0.021960
7.311846 31.615858 0.024226
7.625669 31.615858 0.026331
7.939491 31.615858 0.030095
8.253315 31.615858 0.034849
8.567138 31.615858 0.041609
8.880960 31.615858 0.056291
9.194784 31.615858 0.082732
9.508606 31.615858 0.121815
9.822430 31.615858 0.177897
10.136253 31.615858 0.251517
10.450075 31.615858 0.356496
10.763899 31.615858 0.477201
11.077723 31.615858 0.619562
11.391544 31.615858 0.761212
11.705368 31.615858 0.917172
12.019190 31.615858 1.065208
12.333014 31.615858 1.228361
12.646837 31.615858 1.380841
12.960659 31.615858 1.556444
13.274483 31.615858 1.685123
13.588306 31.615858 1.784817
13.902128 31.615858 1.868407
14.215952 31.615858 1.934113
14.529776 31.615858 1.914116
14.843597 31.615858 1.872933
15.157421 31.615858 1.824470
15.471243 31.615858 1.727299
15.785067 31.615858 1.572671
16.098890 31.615858 1.488680
16.412712 31.615858 1.416896
16.726536 31.615858 1.329019
17.040359 31.615858 1.243923
17.354181 31.615858 1.207562
17.668005 31.615858 1.151292
17.981829 31.615858 1.188896
18.295650 31.615858 1.373644
18.609474 31.615858 1.804223
18.923298 31.615858 2.621070
19.237120 31.615858 0.000000
-6.810190 31.302036 0.000000
-6.496367 31.302036 0.039483
-6.182544 31.302036 0.029191
-5.868721 31.302036 0.026917
-5.554898 31.302036 0.025908
-5.241075 31.302036 0.024936
-4.927252 31.302036 0.024593
-4.613429 31.302036 0.023962
-4.299606 31.302036 0.023697
-3.985783 31.302036 0.023409
-3.671960 31.302036 0.022642
-3.358137 31.302036 0.021911
-3.044314 31.302036 0.022701
-2.730491 31.302036 0.023271
-2.416668 31.302036 0.021842
-2.102845 31.302036 0.020814
-1.789022 31.302036 0.021361
-1.475199 31.302036 0.021756
-1.161376 31.302036 0.020746
-0.847553 31.302036 0.020239
-0.533730 31.302036 0.019295
-0.219907 31.302036 0.018901
0.093916 31.302036 0.019065
0.407739 31.302036 0.018239
0.721562 31.302036 0.017592
1.035385 31.302036 0.017521
1.349208 31.302036 0.017267
1.663032 31.302036 0.017346
1.976854 31.302036 0.017503
2.290677 31.302036 0.017268
2.604500 31.302036 0.017394
2.918324 31.302036 0.017623
3.232146 31.302036 0.017457
3.545969 31.302036 0.016931
3.859793 31.302036 0.016303
4.173615 31.302036 0.016021
4.487438 31.302036 0.016055
4.801261 31.302036 0.016154
5.115085 31.302036 0.016362
5.428907 31.302036 0.016601
5.742730 31.302036 0.017173
6.056554 31.302036 0.017990
6.370377 31.302036 0.019462
6.684199 31.302036 0.020549
6.998022 31.302036 0.021581
7.311846 31.302036 0.023251
7.625669 31.302036 0.025684
7.939491 31.302036 0.029714
8.253315 31.302036 0.034365
8.567138 31.302036 0.042150
8.880960 31.302036 0.057194
9.194784 31.302036 0.084493
9.508606 31.302036 0.122773
9.822430 31.302036 0.175679
10.136253 31.302036 0.247858
10.450075 31.302036 0.351231
10.763899 31.302036 0.474788
11.077723 31.302036 0.622863
11.391544 31.302036 0.765751
11.705368 31.302036 0.918332
12.019190 31.302036 1.082904
12.333014 31.302036 1.233023
12.646837 31.302036 1.384613
12.960659 31.302036 1.543105
13.274483 31.302036 1.676711
13.588306 31.302036 1.755213
13.902128 31.302036 1.851241
14.215952 31.302036 1.911258
14.529776 31.302036 1.930236
14.843597 31.302036 1.924712
15.157421 31.302036 1.833038
15.471243 31.302036 1.724903
15.785067 31.302036 1.617414
16.098890 31.302036 1.509426
16.412712 31.302036 1.416054
16.726536 31.302036 1.357133
17.040359 31.302036 1.255908
17.354181 31.302036 1.218226
17.668005 31.302036 1.199546
17.981829 31.302036 1.202194
18.295650 31.302036 1.343981
18.609474 31.302036 1.812590
18.923298 31.302036 2.634756
19.237120 31.302036 0.000000
-6.810190 30.988213 0.000000
-6.496367 30.988213 0.038888
-6.182544 30.988213 0.028381
-5.868721 30.988213 0.026199
-5.554898 30.988213 0.025642
-5.241075 30.988213 0.024793
-4.927252 30.988213 0.024318
-4.613429 30.988213 0.023802
-4.299606 30.988213 0.023661
-3.985783 30.988213 0.023311
-3.671960 30.988213 0.022209
-3.358137 30.988213 0.021403
-3.044314 30.988213 0.022039
-2.730491 30.988213 0.022689
-2.416668 30.988213 0.021654
-2.102845 30.988213 0.021090
-1.789022 30.988213 0.021233
-1.475199 30.988213 0.021269
-1.161376 30.988213 0.020374
-0.847553 30.988213 0.019805
-0.533730 30.988213 0.018965
-0.219907 30.988213 0.018826
0.093916 30.988213 0.018727
0.407739 30.988213 0.017681
0.721562 30.988213 0.017094
1.035385 30.988213 0.017647
1.349208 30.988213 0.017435
1.663032 30.988213 0.017337
1.976854 30.988213 0.017475
2.290677 30.988213 0.017158
2.604500 30.988213 0.017453
2.918324 30.988213 0.017717
3.232146 30.988213 0.017151
3.545969 30.988213 0.016367
3.859793 30.988213 0.015816
4.173615 30.988213 0.015564
4.487438 30.988213 0.015654
4.801261 30.988213 0.015866
5.115085 30.988213 0.016239
5.428907 30.988213 0.016762
5.742730 30.988213 0.017323
6.056554 30.988213 0.018173
6.370377 30.988213 0.019844
6.684199 30.988213 0.020783
6.998022 30.988213 0.021290
7.311846 30.988213 0.022019
7.625669 30.988213 0.024839
7.939491 30.988213 0.028552
8.253315 30.988213 0.033527
8.567138 30.988213 0.042470
8.880960 30.988213 0.058263
9.194784 30.988213 0.084434
9.508606 30.988213 0.122058
9.822430 30.988213 0.179555
10.136253 30.988213 0.250641
10.450075 30.988213 0.346664
10.763899 30.988213 0.470245
11.077723 30.988213 0.615553
11.391544 30.988213 0.780773
11.705368 30.988213 0.910228
12.019190 30.988213 1.073502
12.333014 30.988213 1.230745
12.646837 30.988213 1.380566
12.960659 30.988213 1.508712
13.274483 30.988213 1.673681
13.588306 30.988213 1.785723
13.902128 30.988213 1.839471
14.215952 30.988213 1.904850
14.529776 30.988213 1.914816
14.843597 30.988213 1.919317
15.157421 30.988213 1.863201
15.471243 30.988213 1.758284
15.785067 30.988213 1.616833
16.098890 30.988213 1.503113
16.412712 30.988213 1.441274
16.726536 30.988213 1.360983
17.040359 30.988213 1.271525
17.354181 30.988213 1.228631
17.668005 30.988213 1.198617
17.981829 30.988213 1.230275
18.295650 30.988213 1.373624
18.609474 30.988213 1.879351
18.923298 30.988213 2.734216
19.237120 30.988213 0.000000
-6.810190 30.674389 0.000000
-6.496367 30.674389 0.038202
-6.182544 30.674389 0.027392
-5.868721 30.674389 0.025419
-5.554898 30.674389 0.025355
-5.241075 30.674389 0.024892
-4.927252 30.674389 0.024255
-4.613429 30.674389 0.023844
-4.299606 30.674389 0.023611
-3.985783 30.674389 0.023168
-3.671960 30.674389 0.022071
-3.358137 30.674389 0.021269
-3.044314 30.674389 0.021782
-2.730491 30.674389 0.022171
-2.416668 30.674389 0.021397
-2.102845 30.674389 0.021261
-1.789022 30.674389 0.021130
-1.475199 30.674389 0.020642
-1.161376 30.674389 0.019898
-0.847553 30.674389 0.019102
-0.533730 30.674389 0.018491
-0.219907 30.674389 0.018534
0.093916 30.674389 0.018300
0.407739 30.674389 0.017287
0.721562 30.674389 0.016777
1.035385 30.674389 0.017508
1.349208 30.674389 0.017531
1.663032 30.674389 0.017575
1.976854 30.674389 0.017620
2.290677 30.674389 0.017133
2.604500 30.674389 0.017463
2.918324 30.674389 0.017574
3.232146 30.674389 0.016744
3.545969 30.674389 0.015849
3.859793 30.674389 0.015404
4.173615 30.674389 0.015062
4.487438 30.674389 0.015251
4.801261 30.674389 0.015944
5.115085 30.674389 0.016549
5.428907 30.674389 0.016991
5.742730 30.674389 0.017505
6.056554 30.674389 0.018285
6.370377 30.674389 0.019825
6.684199 30.674389 0.020628
6.998022 30.674389 0.020776
7.311846 30.674389 0.021364
7.625669 30.674389 0.024242
7.939491 30.674389 0.028353
8.253315 30.674389 0.033336
8.567138 30.674389 0.042742
8.880960 30.674389 0.058548
9.194784 30.674389 0.082873
9.508606 30.674389 0.123970
9.822430 30.674389 0.176675
10.136253 30.674389 0.244995
10.450075 30.674389 0.335954
10.763899 30.674389 0.466727
11.077723 30.674389 0.621177
11.391544 30.674389 0.770806
11.705368 30.674389 0.915787
12.019190 30.674389 1.069426
12.333014 30.674389 1.221031
12.646837 30.674389 1.352770
12.960659 30.674389 1.500045
13.274483 30.674389 1.677319
13.588306 30.674389 1.821937
13.902128 30.674389 1.874388
14.215952 30.674389 1.878338
14.529776 30.674389 1.858042
14.843597 30.674389 1.885139
15.157421 30.674389 1.872953
15.471243 30.674389 1.770053
15.785067 30.674389 1.642830
16.098890 30.674389 1.540793
16.412712 30.674389 1.443850
16.726536 30.674389 1.332075
17.040359 30.674389 1.256918
17.354181 30.674389 1.194526
17.668005 30.674389 1.210517
17.981829 30.674389 1.243416
18.295650 30.674389 1.426133
18.609474 30.674389 1.907944
18.923298 30.674389 2.807923
19.237120 30.674389 0.000000
-6.810190 30.360567 0.000000
-6.496367 30.360567 0.037641
-6.182544 30.360567 0.026391
-5.868721 30.360567 0.024596
-5.554898 30.360567 0.024835
-5.241075 30.360567 0.024711
-4.927252 30.360567 0.024319
-4.613429 30.360567 0.023783
-4.299606 30.360567 0.023224
-3.985783 30.360567 0.022573
-3.671960 30.360567 0.022132
-3.358137 30.360567 0.021472
-3.044314 30.360567 0.021602
-2.730491 30.360567 0.021564
-2.416668 30.360567 0.021051
-2.102845 30.360567 0.021102
-1.789022 30.360567 0.020753
-1.475199 30.360567 0.019989
-1.161376 30.360567 0.019125
-0.847553 30.360567 0.018439
-0.533730 30.360567 0.018014
-0.219907 30.360567 0.018125
0.093916 30.360567 0.017977
0.407739 30.360567 0.017378
0.721562 30.360567 0.016935
1.035385 30.360567 0.017362
1.349208 30.360567 0.017636
1.663032 30.360567 0.018062
1.976854 30.360567 0.017782
2.290677 30.360567 0.017239
2.604500 30.360567 0.017229
2.918324 30.360567 0.016937
3.232146 30.360567 0.016409
3.545969 30.360567 0.015658
3.859793 30.360567 0.015288
4.173615 30.360567 0.014797
4.487438 30.360567 0.015259
4.801261 30.360567 0.016355
5.115085 30.360567 0.017101
5.428907 30.360567 0.017248
5.742730 30.360567 0.017733
6.056554 30.360567 0.018466
6.370377 30.360567 0.019445
6.684199 30.360567 0.020044
6.998022 30.360567 0.020299
7.311846 30.360567 0.021166
7.625669 30.360567 0.024138
7.939491 30.360567 0.028925
8.253315 30.360567 0.034507
8.567138 30.360567 0.043046
8.880960 30.360567 0.058891
9.194784 30.360567 0.083220
9.508606 30.360567 0.125761
9.822430 30.360567 0.178814
10.136253 30.360567 0.245287
10.450075 30.360567 0.333050
10.763899 30.360567 0.464343
11.077723 30.360567 0.624758
11.391544 30.360567 0.773651
11.705368 30.360567 0.928073
12.019190 30.360567 1.052776
12.333014 30.360567 1.201149
12.646837 30.360567 1.344630
12.960659 30.360567 1.498092
13.274483 30.360567 1.670464
13.588306 30.360567 1.807135
13.902128 30.360567 1.862977
14.215952 30.360567 1.867297
14.529776 30.360567 1.858034
14.843597 30.360567 1.847337
15.157421 30.360567 1.863813
15.471243 30.360567 1.783845
15.785067 30.360567 1.639228
16.098890 30.360567 1.505860
16.412712 30.360567 1.434711
16.726536 30.360567 1.342963
17.040359 30.360567 1.268678
17.354181 30.360567 1.192814
17.668005 30.360567 1.201090
17.981829 30.360567 1.257571
18.295650 30.360567 1.465553
18.609474 30.360567 1.903987
18.923298 30.360567 2.809843
19.237120 30.360567 0.000000
-6.810190 30.046743 0.000000
-6.496367 30.046743 0.037377
-6.182544 30.046743 0.025937
-5.868721 30.046743 0.023949
-5.554898 30.046743 0.024172
-5.241075 30.046743 0.024071
-4.927252 30.046743 0.024016
-4.613429 30.046743 0.023507
-4.299606 30.046743 0.022616
-3.985783 30.046743 0.022059
-3.671960 30.046743 0.022095
-3.358137 30.046743 0.021759
-3.044314 30.046743 0.021471
-2.730491 30.046743 0.021319
-2.416668 30.046743 0.020908
-2.102845 30.046743 0.020860
-1.789022 30.046743 0.020434
-1.475199 30.046743 0.019615
-1.161376 30.046743 0.018512
-0.847553 30.046743 0.017928
-0.533730 30.046743 0.017668
-0.219907 30.046743 0.017820
0.093916 30.046743 0.018025
0.407739 30.046743 0.017576
0.721562 30.046743 0.017215
1.035385 30.046743 0.017069
1.349208 30.046743 0.017719
1.663032 30.046743 0.018419
1.976854 30.046743 0.017830
2.290677 30.046743 0.017108
2.604500 30.046743 0.016692
2.918324 30.046743 0.016076
3.232146 30.046743 0.016073
3.545969 30.046743 0.015761
3.859793 30.046743 0.015432
4.173615 30.046743 0.014908
4.487438 30.046743 0.015666
4.801261 30.046743 0.017008
5.115085 30.046743 0.017602
5.428907 30.046743 0.017397
5.742730 30.046743 0.017809
6.056554 30.046743 0.018241
6.370377 30.046743 0.018795
6.684199 30.046743 0.019313
6.998022 30.046743 0.020139
7.311846 30.046743 0.021577
7.625669 30.046743 0.024533
7.939491 30.046743 0.029768
8.253315 30.046743 0.035393
8.567138 30.046743 0.043540
8.880960 30.046743 0.059311
9.194784 30.046743 0.083639
9.508606 30.046743 0.125025
9.822430 30.046743 0.181138
10.136253 30.046743 0.253921
10.450075 30.046743 0.343274
10.763899 30.046743 0.464182
11.077723 30.046743 0.624607
11.391544 30.046743 0.767832
11.705368 30.046743 0.937885
12.019190 30.046743 1.069754
12.333014 30.046743 1.219727
12.646837 30.046743 1.335396
12.960659 30.046743 1.502242
13.274483 30.046743 1.685805
13.588306 30.046743 1.828173
13.902128 30.046743 1.862670
14.215952 30.046743 1.888104
14.529776 30.046743 1.898374
14.843597 30.046743 1.893461
15.157421 30.046743 1.832445
15.471243 30.046743 1.763597
15.785067 30.046743 1.661929
16.098890 30.046743 1.516731
16.412712 30.046743 1.414334
16.726536 30.046743 1.334910
17.040359 30.046743 1.265940
17.354181 30.046743 1.216102
17.668005 30.046743 1.215036
17.981829 30.046743 1.259834
18.295650 30.046743 1.433679
18.609474 30.046743 1.953095
18.923298 30.046743 2.797380
19.237120 30.046743 0.000000
-6.810190 29.732922 0.000000
-6.496367 29.732922 0.037350
-6.182544 29.732922 0.025968
-5.868721 29.732922 0.023844
-5.554898 29.732922 0.023608
-5.241075 29.732922 0.023605
-4.927252 29.732922 0.023601
-4.613429 29.732922 0.023100
-4.299606 29.732922 0.021897
-3.985783 29.732922 0.021243
-3.671960 29.732922 0.021657
-3.358137 29.732922 0.021803
-3.044314 29.732922 0.021517
-2.730491 29.732922 0.021127
-2.416668 29.732922 0.020753
-2.102845 29.732922 0.020548
-1.789022 29.732922 0.020251
-1.475199 29.732922 0.019547
-1.161376 29.732922 0.018055
-0.847553 29.732922 0.017548
-0.533730 29.732922 0.017536
-0.219907 29.732922 0.017780
0.093916 29.732922 0.017775
0.407739 29.732922 0.017423
0.721562 29.732922 0.017126
1.035385 29.732922 0.016826
1.349208 29.732922 0.017767
1.663032 29.732922 0.018328
1.976854 29.732922 0.017635
2.290677 29.732922 0.016969
2.604500 29.732922 0.016183
2.918324 29.732922 0.015566
3.232146 29.732922 0.015779
3.545969 29.732922 0.015742
3.859793 29.732922 0.015561
4.173615 29.732922 0.015158
4.487438 29.732922 0.015861
4.801261 29.732922 0.017086
5.115085 29.732922 0.017763
5.428907 29.732922 0.017511
5.742730 29.732922 0.017521
6.056554 29.732922 0.017949
6.370377 29.732922 0.018355
6.684199 29.732922 0.018814
6.998022 29.732922 0.020228
7.311846 29.732922 0.022179
7.625669 29.732922 0.025184
7.939491 29.732922 0.030206
8.253315 29.732922 0.036002
8.567138 29.732922 0.043717
8.880960 29.732922 0.059364
9.194784 29.732922 0.085654
9.508606 29.732922 0.124150
9.822430 29.732922 0.182147
10.136253 29.732922 0.256044
10.450075 29.732922 0.343871
10.763899 29.732922 0.471565
11.077723 29.732922 0.621704
11.391544 29.732922 0.767872
11.705368 29.732922 0.920752
12.019190 29.732922 1.063553
12.333014 29.732922 1.208757
12.646837 29.732922 1.376957
12.960659 29.732922 1.515920
13.274483 29.732922 1.703423
13.588306 29.732922 1.827152
13.902128 29.732922 1.883668
14.215952 29.732922 1.887295
14.529776 29.732922 1.906570
14.843597 29.732922 1.925767
15.157421 29.732922 1.866614
15.471243 29.732922 1.777013
15.785067 29.732922 1.645446
16.098890 29.732922 1.519076
16.412712 29.732922 1.422190
16.726536 29.732922 1.352700
17.040359 29.732922 1.278702
17.354181 29.732922 1.243400
17.668005 29.732922 1.217739
17.981829 29.732922 1.275892
18.295650 29.732922 1.490176
18.609474 29.732922 1.999192
18.923298 29.732922 2.859166
19.237120 29.732922 0.000000
-6.810190 29.419098 0.000000
-6.496367 29.419098 0.036771
-6.182544 29.419098 0.026199
-5.868721 29.419098 0.024222
-5.554898 29.419098 0.023679
-5.241075 29.419098 0.023379
-4.927252 29.419098 0.023211
-4.613429 29.419098 0.022640
-4.299606 29.419098 0.021468
-3.985783 29.419098 0.020712
-3.671960 29.419098 0.020934
-3.358137 29.419098 0.021449
-3.044314 29.419098 0.021213
-2.730491 29.419098 0.020929
-2.416668 29.419098 0.020386
-2.102845 29.419098 0.020016
-1.789022 29.419098 0.019867
-1.475199 29.419098 0.019121
-1.161376 29.419098 0.017927
-0.847553 29.419098 0.017524
-0.533730 29.419098 0.017465
-0.219907 29.419098 0.017464
0.093916 29.419098 0.017441
0.407739 29.419098 0.016955
0.721562 29.419098 0.016761
1.035385 29.419098 0.016746
1.349208 29.419098 0.017512
1.663032 29.419098 0.017869
1.976854 29.419098 0.017194
2.290677 29.419098 0.016671
2.604500 29.419098 0.016181
2.918324 29.419098 0.015798
3.232146 29.419098 0.015799
3.545969 29.419098 0.015753
3.859793 29.419098 0.015791
4.173615 29.419098 0.015474
4.487438 29.419098 0.015801
4.801261 29.419098 0.016712
5.115085 29.419098 0.017316
5.428907 29.419098 0.017175
5.742730 29.419098 0.017156
6.056554 29.419098 0.017512
6.370377 29.419098 0.018252
6.684199 29.419098 0.018986
6.998022 29.419098 0.020256
7.311846 29.419098 0.022449
7.625669 29.419098 0.025669
7.939491 29.419098 0.030018
8.253315 29.419098 0.036541
8.567138 29.419098 0.044354
8.880960 29.419098 0.059985
9.194784 29.419098 0.085763
9.508606 29.419098 0.126378
9.822430 29.419098 0.188048
10.136253 29.419098 0.256974
10.450075 29.419098 0.354901
10.763899 29.419098 0.482886
11.077723 29.419098 0.629085
11.391544 29.419098 0.769143
11.705368 29.419098 0.931977
12.019190 29.419098 1.081746
12.333014 29.419098 1.224342
12.646837 29.419098 1.372681
12.960659 29.419098 1.532307
13.274483 29.419098 1.683803
13.588306 29.419098 1.808589
13.902128 29.419098 1.909824
14.215952 29.419098 1.924551
14.529776 29.419098 1.912750
14.843597 29.419098 1.906902
15.157421 29.419098 1.859027
15.471243 29.419098 1.749840
15.785067 29.419098 1.619792
16.098890 29.419098 1.535956
16.412712 29.419098 1.444799
16.726536 29.419098 1.345008
17.040359 29.419098 1.296621
17.354181 29.419098 1.228204
17.668005 29.419098 1.236356
17.981829 29.419098 1.291091
18.295650 29.419098 1.478905
18.609474 29.419098 1.957434
18.923298 29.419098 2.828455
19.237120 29.419098 0.000000
-6.810190 29.105274 0.000000
-6.496367 29.105274 0.035649
-6.182544 29.105274 0.026122
-5.868721 29.105274 0.024698
-5.554898 29.105274 0.023873
-5.241075 29.105274 0.023103
-4.927252 29.105274 0.022764
-4.613429 29.105274 0.022140
-4.299606 29.105274 0.021418
-3.985783 29.105274 0.021029
-3.671960 29.105274 0.020853
-3.358137 29.105274 0.021298
-3.044314 29.105274 0.020891
-2.730491 29.105274 0.020560
-2.416668 29.105274 0.019872
-2.102845 29.105274 0.019476
-1.789022 29.105274 0.019177
-1.475199 29.105274 0.018577
-1.161376 29.105274 0.017806
-0.847553 29.105274 0.017526
-0.533730 29.105274 0.017255
-0.219907 29.105274 0.016891
0.093916 29.105274 0.016863
0.407739 29.105274 0.016560
0.721562 29.105274 0.016486
1.035385 29.105274 0.016794
1.349208 29.105274 0.017133
1.663032 29.105274 0.017022
1.976854 29.105274 0.016525
2.290677 29.105274 0.016110
2.604500 29.105274 0.016320
2.918324 29.105274 0.016415
3.232146 29.105274 0.015830
3.545969 29.105274 0.015649
3.859793 29.105274 0.015928
4.173615 29.105274 0.015818
4.487438 29.105274 0.015894
4.801261 29.105274 0.016402
5.115085 29.105274 0.016730
5.428907 29.105274 0.016805
5.742730 29.105274 0.016922
6.056554 29.105274 0.017333
6.370377 29.105274 0.018218
6.684199 29.105274 0.019104
6.998022 29.105274 0.020368
7.311846 29.105274 0.022326
7.625669 29.105274 0.025594
7.939491 29.105274 0.029856
8.253315 29.105274 0.036213
8.567138 29.105274 0.044480
8.880960 29.105274 0.059168
9.194784 29.105274 0.083516
9.508606 29.105274 0.126795
9.822430 29.105274 0.186395
10.136253 29.105274 0.256977
10.450075 29.105274 0.362365
10.763899 29.105274 0.489383
11.077723 29.105274 0.635848
11.391544 29.105274 0.774065
11.705368 29.105274 0.913472
12.019190 29.105274 1.070271
12.333014 29.105274 1.211323
12.646837 29.105274 1.393107
12.960659 29.105274 1.566327
13.274483 29.105274 1.694108
13.588306 29.105274 1.779821
13.902128 29.105274 1.844287
14.215952 29.105274 1.938878
14.529776 29.105274 1.876727
14.843597 29.105274 1.899819
15.157421 29.105274 1.841942
15.471243 29.105274 1.761657
15.785067 29.105274 1.638249
16.098890 29.105274 1.582463
16.412712 29.105274 1.475454
16.726536 29.105274 1.356520
17.040359 29.105274 1.289904
17.354181 29.105274 1.235278
17.668005 29.105274 1.211305
17.981829 29.105274 1.286032
18.295650 29.105274 1.464764
18.609474 29.105274 2.046971
18.923298 29.105274 2.915976
19.237120 29.105274 0.000000
-6.810190 28.791452 0.000000
-6.496367 28.791452 0.033978
-6.182544 28.791452 0.025257
-5.868721 28.791452 0.024275
-5.554898 28.791452 0.023701
-5.241075 28.791452 0.022640
-4.927252 28.791452 0.022215
-4.613429 28.791452 0.022103
-4.299606 28.791452 0.021700
-3.985783 28.791452 0.021667
-3.671960 28.791452 0.021362
-3.358137 28.791452 0.021463
-3.044314 28.791452 0.020763
-2.730491 28.791452 0.020278
-2.416668 28.791452 0.019421
-2.102845 28.791452 0.019012
-1.789022 28.791452 0.018580
-1.475199 28.791452 0.018110
-1.161376 28.791452 0.017749
-0.847553 28.791452 0.017481
-0.533730 28.791452 0.017039
-0.219907 28.791452 0.016557
0.093916 28.791452 0.016529
0.407739 28.791452 0.016437
0.721562 28.791452 0.016456
1.035385 28.791452 0.016669
1.349208 28.791452 0.016708
1.663032 28.791452 0.016489
1.976854 28.791452 0.015882
2.290677 28.791452 0.015721
2.604500 28.791452 0.016259
2.918324 28.791452 0.016551
3.232146 28.791452 0.015680
3.545969 28.791452 0.015497
3.859793 28.791452 0.015971
4.173615 28.791452 0.015995
4.487438 28.791452 0.016029
4.801261 28.791452 0.016494
5.115085 28.791452 0.016440
5.428907 28.791452 0.016535
5.742730 28.791452 0.016890
6.056554 28.791452 0.017494
6.370377 28.791452 0.018459
6.684199 28.791452 0.019124
6.998022 28.791452 0.020127
7.311846 28.791452 0.021690
7.625669 28.791452 0.025154
7.939491 28.791452 0.029692
8.253315 28.791452 0.035658
8.567138 28.791452 0.045217
8.880960 28.791452 0.058448
9.194784 28.791452 0.082089
9.508606 28.791452 0.126152
9.822430 28.791452 0.189346
10.136253 28.791452 0.264242
10.450075 28.791452 0.367174
10.763899 28.791452 0.493075
11.077723 28.791452 0.634065
11.391544 28.791452 0.759865
11.705368 28.791452 0.910535
12.019190 28.791452 1.047470
12.333014 28.791452 1.196288
12.646837 28.791452 1.420565
12.960659 28.791452 1.585362
13.274483 28.791452 1.683839
13.588306 28.791452 1.766447
13.902128 28.791452 1.849974
14.215952 28.791452 1.923147
14.529776 28.791452 1.894379
14.843597 28.791452 1.921749
15.157421 28.791452 1.849019
15.471243 28.791452 1.722533
15.785067 28.791452 1.607397
16.098890 28.791452 1.567989
16.412712 28.791452 1.476492
16.726536 28.791452 1.347571
17.040359 28.791452 1.257647
17.354181 28.791452 1.227097
17.668005 28.791452 1.214155
17.981829 28.791452 1.297885
18.295650 28.791452 1.523424
18.609474 28.791452 2.096925
18.923298 28.791452 3.041011
19.237120 28.791452 0.000000
-6.810190 28.477629 0.000000
-6.496367 28.477629 0.033636
-6.182544 28.477629 0.024577
-5.868721 28.477629 0.023583
-5.554898 28.477629 0.023273
-5.241075 28.477629 0.022341
-4.927252 28.477629 0.021782
-4.613429 28.477629 0.021956
-4.299606 28.477629 0.022175
-3.985783 28.477629 0.022260
-3.671960 28.477629 0.022093
-3.358137 28.477629 0.021425
-3.044314 28.477629 0.020549
-2.730491 28.477629 0.019901
-2.416668 28.477629 0.019342
-2.102845 28.477629 0.018940
-1.789022 28.477629 0.018224
-1.475199 28.477629 0.017824
-1.161376 28.477629 0.017504
-0.847553 28.477629 0.017141
-0.533730 28.477629 0.016824
-0.219907 28.477629 0.016656
0.093916 28.477629 0.016699
0.407739 28.477629 0.016812
0.721562 28.477629 0.016638
1.035385 28.477629 0.016568
1.349208 28.477629 0.016563
1.663032 28.477629 0.016374
1.976854 28.477629 0.015704
2.290677 28.477629 0.015690
2.604500 28.477629 0.015993
2.918324 28.477629 0.016110
3.232146 28.477629 0.015592
3.545969 28.477629 0.015501
3.859793 28.477629 0.015830
4.173615 28.477629 0.015880
4.487438 28.477629 0.016066
4.801261 28.477629 0.016443
5.115085 28.477629 0.016450
5.428907 28.477629 0.016379
5.742730 28.477629 0.016840
6.056554 28.477629 0.017853
6.370377 28.477629 0.018802
6.684199 28.477629 0.019099
6.998022 28.477629 0.019997
7.311846 28.477629 0.021549
7.625669 28.477629 0.025253
7.939491 28.477629 0.030129
8.253315 28.477629 0.035950
8.567138 28.477629 0.044151
8.880960 28.477629 0.058438
9.194784 28.477629 0.081112
9.508606 28.477629 0.123358
9.822430 28.477629 0.181374
10.136253 28.477629 0.262443
10.450075 28.477629 0.358861
10.763899 28.477629 0.473796
11.077723 28.477629 0.619455
11.391544 28.477629 0.770505
11.705368 28.477629 0.913199
12.019190 28.477629 1.045357
12.333014 28.477629 1.192109
12.646837 28.477629 1.381610
12.960659 28.477629 1.554440
13.274483 28.477629 1.675472
13.588306 28.477629 1.751822
13.902128 28.477629 1.815013
14.215952 28.477629 1.927262
14.529776 28.477629 1.923548
14.843597 28.477629 1.895045
15.157421 28.477629 1.853145
15.471243 28.477629 1.761218
15.785067 28.477629 1.636574
16.098890 28.477629 1.556419
16.412712 28.477629 1.450878
16.726536 28.477629 1.332845
17.040359 28.477629 1.269683
17.354181 28.477629 1.237104
17.668005 28.477629 1.252591
17.981829 28.477629 1.315073
18.295650 28.477629 1.600058
18.609474 28.477629 2.173793
18.923298 28.477629 2.926023
19.237120 28.477629 0.000000
-6.810190 28.163805 0.000000
-6.496367 28.163805 0.033759
-6.182544 28.163805 0.024513
-5.868721 28.163805 0.023166
-5.554898 28.163805 0.022723
-5.241075 28.163805 0.022064
-4.927252 28.163805 0.021499
-4.613429 28.163805 0.021717
-4.299606 28.163805 0.022303
-3.985783 28.163805 0.022643
-3.671960 28.163805 0.022126
-3.358137 28.163805 0.020944
-3.044314 28.163805 0.020038
-2.730491 28.163805 0.019588
-2.416668 28.163805 0.019269
-2.102845 28.163805 0.018831
-1.789022 28.163805 0.018110
-1.475199 28.163805 0.017794
-1.161376 28.163805 0.017202
-0.847553 28.163805 0.016715
-0.533730 28.163805 0.016887
-0.219907 28.163805 0.017113
0.093916 28.163805 0.017261
0.407739 28.163805 0.017208
0.721562 28.163805 0.016832
1.035385 28.163805 0.016322
1.349208 28.163805 0.016335
1.663032 28.163805 0.016325
1.976854 28.163805 0.015689
2.290677 28.163805 0.015934
2.604500 28.163805 0.015962
2.918324 28.163805 0.015776
3.232146 28.163805 0.015791
3.545969 28.163805 0.015796
3.859793 28.163805 0.015703
4.173615 28.163805 0.015619
4.487438 28.163805 0.015741
4.801261 28.163805 0.016229
5.115085 28.163805 0.016357
5.428907 28.163805 0.016245
5.742730 28.163805 0.016767
6.056554 28.163805 0.017910
6.370377 28.163805 0.018885
6.684199 28.163805 0.019095
6.998022 28.163805 0.020033
7.311846 28.163805 0.021846
7.625669 28.163805 0.025512
7.939491 28.163805 0.030639
8.253315 28.163805 0.036321
8.567138 28.163805 0.043268
8.880960 28.163805 0.057240
9.194784 28.163805 0.081909
9.508606 28.163805 0.122533
9.822430 28.163805 0.181349
10.136253 28.163805 0.255037
10.450075 28.163805 0.354710
10.763899 28.163805 0.474483
11.077723 28.163805 0.628379
11.391544 28.163805 0.775660
11.705368 28.163805 0.924197
12.019190 28.163805 1.023244
12.333014 28.163805 1.194310
12.646837 28.163805 1.370798
12.960659 28.163805 1.529145
13.274483 28.163805 1.652476
13.588306 28.163805 1.746223
13.902128 28.163805 1.872183
14.215952 28.163805 1.904985
14.529776 28.163805 1.915280
14.843597 28.163805 1.887001
15.157421 28.163805 1.896452
15.471243 28.163805 1.788652
15.785067 28.163805 1.684483
16.098890 28.163805 1.566270
16.412712 28.163805 1.497261
16.726536 28.163805 1.360902
17.040359 28.163805 1.272954
17.354181 28.163805 1.253820
17.668005 28.163805 1.274400
17.981829 28.163805 1.370345
18.295650 28.163805 1.622088
18.609474 28.163805 2.269111
18.923298 28.163805 3.079422
19.237120 28.163805 0.000000
-6.810190 27.849983 0.000000
-6.496367 27.849983 0.033901
-6.182544 27.849983 0.024528
-5.868721 27.849983 0.022833
-5.554898 27.849983 0.022513
-5.241075 27.849983 0.022153
-4.927252 27.849983 0.021753
-4.613429 27.849983 0.021510
-4.299606 27.849983 0.021728
-3.985783 27.849983 0.022243
-3.671960 27.849983 0.021269
-3.358137 27.849983 0.020030
-3.044314 27.849983 0.019546
-2.730491 27.849983 0.019364
-2.416668 27.849983 0.018957
-2.102845 27.849983 0.018495
-1.789022 27.849983 0.018000
-1.475199 27.849983 0.017712
-1.161376 27.849983 0.016894
-0.847553 27.849983 0.016713
-0.533730 27.849983 0.017092
-0.219907 27.849983 0.017498
0.093916 27.849983 0.017522
0.407739 27.849983 0.017265
0.721562 27.849983 0.016537
1.035385 27.849983 0.015926
1.349208 27.849983 0.016164
1.663032 27.849983 0.016282
1.976854 27.849983 0.015743
2.290677 27.849983 0.016234
2.604500 27.849983 0.016134
2.918324 27.849983 0.015819
3.232146 27.849983 0.015976
3.545969 27.849983 0.015965
3.859793 27.849983 0.015684
4.173615 27.849983 0.015315
4.487438 27.849983 0.015552
4.801261 27.849983 0.015930
5.115085 27.849983 0.016040
5.428907 27.849983 0.015912
5.742730 27.849983 0.016496
6.056554 27.849983 0.017591
6.370377 27.849983 0.018495
6.684199 27.849983 0.018963
6.998022 27.849983 0.020497
7.311846 27.849983 0.022398
7.625669 27.849983 0.025821
7.939491 27.849983 0.030683
8.253315 27.849983 0.036032
8.567138 27.849983 0.044083
8.880960 27.849983 0.058015
9.194784 27.849983 0.084902
9.508606 27.849983 0.124016
9.822430 27.849983 0.183182
10.136253 27.849983 0.251758
10.450075 27.849983 0.351608
10.763899 27.849983 0.478768
11.077723 27.849983 0.628934
11.391544 27.849983 0.777516
11.705368 27.849983 0.930901
12.019190 27.849983 1.059206
12.333014 27.849983 1.187028
12.646837 27.849983 1.365231
12.960659 27.849983 1.521655
13.274483 27.849983 1.650026
13.588306 27.849983 1.748655
13.902128 27.849983 1.871430
14.215952 27.849983 1.962901
14.529776 27.849983 1.964905
14.843597 27.849983 1.958810
15.157421 27.849983 1.909456
15.471243 27.849983 1.802263
15.785067 27.849983 1.719092
16.098890 27.849983 1.604111
16.412712 27.849983 1.508080
16.726536 27.849983 1.389946
17.040359 27.849983 1.310318
17.354181 27.849983 1.252346
17.668005 27.849983 1.269857
17.981829 27.849983 1.347905
18.295650 27.849983 1.640917
18.609474 27.849983 2.300312
18.923298 27.849983 3.086645
19.237120 27.849983 0.000000
-6.810190 27.536160 0.000000
-6.496367 27.536160 0.033441
-6.182544 27.536160 0.024504
-5.868721 27.536160 0.022639
-5.554898 27.536160 0.022279
-5.241075 27.536160 0.022208
-4.927252 27.536160 0.022014
-4.613429 27.536160 0.021618
-4.299606 27.536160 0.021091
-3.985783 27.536160 0.021207
-3.671960 27.536160 0.020229
-3.358137 27.536160 0.019340
-3.044314 27.536160 0.019194
-2.730491 27.536160 0.019288
-2.416668 27.536160 0.018683
-2.102845 27.536160 0.017969
-1.789022 27.536160 0.017547
-1.475199 27.536160 0.017496
-1.161376 27.536160 0.016944
-0.847553 27.536160 0.016826
-0.533730 27.536160 0.017259
-0.219907 27.536160 0.017314
0.093916 27.536160 0.017099
0.407739 27.536160 0.016745
0.721562 27.536160 0.015924
1.035385 27.536160 0.015519
1.349208 27.536160 0.016175
1.663032 27.536160 0.016474
1.976854 27.536160 0.015756
2.290677 27.536160 0.016216
2.604500 27.536160 0.016411
2.918324 27.536160 0.016260
3.232146 27.536160 0.016228
3.545969 27.536160 0.016025
3.859793 27.536160 0.015628
4.173615 27.536160 0.015111
4.487438 27.536160 0.015315
4.801261 27.536160 0.015732
5.115085 27.536160 0.015710
5.428907 27.536160 0.015652
5.742730 27.536160 0.016314
6.056554 27.536160 0.017372
6.370377 27.536160 0.018040
6.684199 27.536160 0.018803
6.998022 27.536160 0.020930
7.311846 27.536160 0.022951
7.625669 27.536160 0.026102
7.939491 27.536160 0.030154
8.253315 27.536160 0.036087
8.567138 27.536160 0.045758
8.880960 27.536160 0.060375
9.194784 27.536160 0.086788
9.508606 27.536160 0.128071
9.822430 27.536160 0.181376
10.136253 27.536160 0.253187
10.450075 27.536160 0.355601
10.763899 27.536160 0.476786
11.077723 27.536160 0.628452
11.391544 27.536160 0.782104
11.705368 27.536160 0.946504
12.019190 27.536160 1.061864
12.333014 27.536160 1.219701
12.646837 27.536160 1.353652
12.960659 27.536160 1.527928
13.274483 27.536160 1.651413
13.588306 27.536160 1.784835
13.902128 27.536160 1.893673
14.215952 27.536160 1.987450
14.529776 27.536160 2.024493
14.843597 27.536160 2.003672
15.157421 27.536160 1.907241
15.471243 27.536160 1.833673
15.785067 27.536160 1.723959
16.098890 27.536160 1.639204
16.412712 27.536160 1.517447
16.726536 27.536160 1.398086
17.040359 27.536160 1.321756
17.354181 27.536160 1.286277
17.668005 27.536160 1.268856
17.981829 27.536160 1.333535
18.295650 27.536160 1.610724
18.609474 27.536160 2.198868
18.923298 27.536160 3.069827
19.237120 27.536160 0.000000
-6.810190 27.222336 0.000000
-6.496367 27.222336 0.032721
-6.182544 27.222336 0.024418
-5.868721 27.222336 0.022521
-5.554898 27.222336 0.022177
-5.241075 27.222336 0.022175
-4.927252 27.222336 0.022074
-4.613429 27.222336 0.021636
-4.299606 27.222336 0.020532
-3.985783 27.222336 0.020150
-3.671960 27.222336 0.019535
-3.358137 27.222336 0.019112
-3.044314 27.222336 0.019259
-2.730491 27.222336 0.019554
-2.416668 27.222336 0.018481
-2.102845 27.222336 0.017717
-1.789022 27.222336 0.017559
-1.475199 27.222336 0.017514
-1.161376 27.222336 0.017383
-0.847553 27.222336 0.017439
-0.533730 27.222336 0.017294
-0.219907 27.222336 0.016796
0.093916 27.222336 0.016476
0.407739 27.222336 0.016117
0.721562 27.222336 0.015496
1.035385 27.222336 0.015408
1.349208 27.222336 0.016196
1.663032 27.222336 0.016697
1.976854 27.222336 0.015825
2.290677 27.222336 0.015980
2.604500 27.222336 0.016694
2.918324 27.222336 0.016968
3.232146 27.222336 0.016346
3.545969 27.222336 0.015859
3.859793 27.222336 0.015698
4.173615 27.222336 0.015082
4.487438 27.222336 0.015302
4.801261 27.222336 0.015621
5.115085 27.222336 0.015447
5.428907 27.222336 0.015595
5.742730 27.222336 0.016516
6.056554 27.222336 0.017439
6.370377 27.222336 0.018024
6.684199 27.222336 0.018958
6.998022 27.222336 0.021100
7.311846 27.222336 0.023111
7.625669 27.222336 0.025517
7.939491 27.222336 0.029017
8.253315 27.222336 0.035835
8.567138 27.222336 0.045623
8.880960 27.222336 0.061008
9.194784 27.222336 0.088598
9.508606 27.222336 0.127871
9.822430 27.222336 0.184968
10.136253 27.222336 0.253512
10.450075 27.222336 0.348420
10.763899 27.222336 0.469548
11.077723 27.222336 0.621121
11.391544 27.222336 0.780644
11.705368 27.222336 0.936539
12.019190 27.222336 1.090067
12.333014 27.222336 1.231153
12.646837 27.222336 1.361701
12.960659 27.222336 1.527323
13.274483 27.222336 1.676784
13.588306 27.222336 1.767933
13.902128 27.222336 1.918978
14.215952 27.222336 2.037163
14.529776 27.222336 2.053027
14.843597 27.222336 2.060062
15.157421 27.222336 1.923997
15.471243 27.222336 1.871973
15.785067 27.222336 1.732435
16.098890 27.222336 1.613767
16.412712 27.222336 1.518360
16.726536 27.222336 1.388060
17.040359 27.222336 1.332269
17.354181 27.222336 1.272763
17.668005 27.222336 1.300421
17.981829 27.222336 1.397510
18.295650 27.222336 1.615556
18.609474 27.222336 2.287558
18.923298 27.222336 3.059173
19.237120 27.222336 0.000000
-6.810190 26.908514 0.000000
-6.496367 26.908514 0.031798
-6.182544 26.908514 0.024079
-5.868721 26.908514 0.022395
-5.554898 26.908514 0.022161
-5.241075 26.908514 0.022107
-4.927252 26.908514 0.021732
-4.613429 26.908514 0.021262
-4.299606 26.908514 0.020049
-3.985783 26.908514 0.019653
-3.671960 26.908514 0.019281
-3.358137 26.908514 0.019229
-3.044314 26.908514 0.019365
-2.730491 26.908514 0.019443
-2.416668 26.908514 0.018384
-2.102845 26.908514 0.017640
-1.789022 26.908514 0.017862
-1.475199 26.908514 0.017833
-1.161376 26.908514 0.017960
-0.847553 26.908514 0.017895
-0.533730 26.908514 0.017137
-0.219907 26.908514 0.016402
0.093916 26.908514 0.015953
0.407739 26.908514 0.015600
0.721562 26.908514 0.015280
1.035385 26.908514 0.015394
1.349208 26.908514 0.016046
1.663032 26.908514 0.016609
1.976854 26.908514 0.015917
2.290677 26.908514 0.015786
2.604500 26.908514 0.016691
2.918324 26.908514 0.017377
3.232146 26.908514 0.016339
3.545969 26.908514 0.015713
3.859793 26.908514 0.015739
4.173615 26.908514 0.015058
4.487438 26.908514 0.015289
4.801261 26.908514 0.015747
5.115085 26.908514 0.015658
5.428907 26.908514 0.015805
5.742730 26.908514 0.016785
6.056554 26.908514 0.017686
6.370377 26.908514 0.018172
6.684199 26.908514 0.019277
6.998022 26.908514 0.020941
7.311846 26.908514 0.022397
7.625669 26.908514 0.024766
7.939491 26.908514 0.028799
8.253315 26.908514 0.035972
8.567138 26.908514 0.046040
8.880960 26.908514 0.061819
9.194784 26.908514 0.087722
9.508606 26.908514 0.126307
9.822430 26.908514 0.185673
10.136253 26.908514 0.255850
10.450075 26.908514 0.351536
10.763899 26.908514 0.467491
11.077723 26.908514 0.625847
11.391544 26.908514 0.772222
11.705368 26.908514 0.932152
12.019190 26.908514 1.096992
12.333014 26.908514 1.270259
12.646837 26.908514 1.419304
12.960659 26.908514 1.531092
13.274483 26.908514 1.693726
13.588306 26.908514 1.788368
13.902128 26.908514 1.911162
14.215952 26.908514 2.045647
14.529776 26.908514 2.087115
14.843597 26.908514 2.054599
15.157421 26.908514 1.930874
15.471243 26.908514 1.861409
15.785067 26.908514 1.756094
16.098890 26.908514 1.650851
16.412712 26.908514 1.503326
16.726536 26.908514 1.377051
17.040359 26.908514 1.331690
17.354181 26.908514 1.308010
17.668005 26.908514 1.319786
17.981829 26.908514 1.414872
18.295650 26.908514 1.688171
18.609474 26.908514 2.316920
18.923298 26.908514 3.037088
19.237120 26.908514 0.000000
-6.810190 26.594690 0.000000
-6.496367 26.594690 0.031592
-6.182544 26.594690 0.023791
-5.868721 26.594690 0.022381
-5.554898 26.594690 0.022104
-5.241075 26.594690 0.021756
-4.927252 26.594690 0.020961
-4.613429 26.594690 0.020793
-4.299606 26.594690 0.019984
-3.985783 26.594690 0.019680
-3.671960 26.594690 0.019212
-3.358137 26.594690 0.019004
-3.044314 26.594690 0.019212
-2.730491 26.594690 0.019098
-2.416668 26.594690 0.018457
-2.102845 26.594690 0.017738
-1.789022 26.594690 0.017899
-1.475199 26.594690 0.018033
-1.161376 26.594690 0.018127
-0.847553 26.594690 0.017704
-0.533730 26.594690 0.016774
-0.219907 26.594690 0.016331
0.093916 26.594690 0.015905
0.407739 26.594690 0.015677
0.721562 26.594690 0.015350
1.035385 26.594690 0.015434
1.349208 26.594690 0.015772
1.663032 26.594690 0.016215
1.976854 26.594690 0.015824
2.290677 26.594690 0.015770
2.604500 26.594690 0.016401
2.918324 26.594690 0.016991
3.232146 26.594690 0.016150
3.545969 26.594690 0.015477
3.859793 26.594690 0.015394
4.173615 26.594690 0.014969
4.487438 26.594690 0.015606
4.801261 26.594690 0.016267
5.115085 26.594690 0.016041
5.428907 26.594690 0.015960
5.742730 26.594690 0.016962
6.056554 26.594690 0.017794
6.370377 26.594690 0.018173
6.684199 26.594690 0.019494
6.998022 26.594690 0.021038
7.311846 26.594690 0.022187
7.625669 26.594690 0.024866
7.939491 26.594690 0.028821
8.253315 26.594690 0.036055
8.567138 26.594690 0.045977
8.880960 26.594690 0.061630
9.194784 26.594690 0.086663
9.508606 26.594690 0.127685
9.822430 26.594690 0.185233
10.136253 26.594690 0.258526
10.450075 26.594690 0.348018
10.763899 26.594690 0.466302
11.077723 26.594690 0.620264
11.391544 26.594690 0.761333
11.705368 26.594690 0.931983
12.019190 26.594690 1.102210
12.333014 26.594690 1.270690
12.646837 26.594690 1.426267
12.960659 26.594690 1.571760
13.274483 26.594690 1.675596
13.588306 26.594690 1.768785
13.902128 26.594690 1.902140
14.215952 26.594690 2.028563
14.529776 26.594690 2.092868
14.843597 26.594690 2.075018
15.157421 26.594690 1.951292
15.471243 26.594690 1.899583
15.785067 26.594690 1.797930
16.098890 26.594690 1.635915
16.412712 26.594690 1.500893
16.726536 26.594690 1.387010
17.040359 26.594690 1.336626
17.354181 26.594690 1.318756
17.668005 26.594690 1.350609
17.981829 26.594690 1.416705
18.295650 26.594690 1.693799
18.609474 26.594690 2.301436
18.923298 26.594690 2.984951
19.237120 26.594690 0.000000
-6.810190 26.280869 0.000000
-6.496367 26.280869 0.031421
-6.182544 26.280869 0.023769
-5.868721 26.280869 0.022225
-5.554898 26.280869 0.021648
-5.241075 26.280869 0.020873
-4.927252 26.280869 0.019997
-4.613429 26.280869 0.020085
-4.299606 26.280869 0.019930
-3.985783 26.280869 0.019764
-3.671960 26.280869 0.018774
-3.358137 26.280869 0.018472
-3.044314 26.280869 0.018715
-2.730491 26.280869 0.019022
-2.416668 26.280869 0.018561
-2.102845 26.280869 0.017757
-1.789022 26.280869 0.017655
-1.475199 26.280869 0.017776
-1.161376 26.280869 0.017824
-0.847553 26.280869 0.017203
-0.533730 26.280869 0.016397
-0.219907 26.280869 0.016406
0.093916 26.280869 0.016349
0.407739 26.280869 0.016238
0.721562 26.280869 0.015631
1.035385 26.280869 0.015575
1.349208 26.280869 0.015636
1.663032 26.280869 0.015819
1.976854 26.280869 0.015677
2.290677 26.280869 0.015682
2.604500 26.280869 0.016133
2.918324 26.280869 0.016274
3.232146 26.280869 0.015842
3.545969 26.280869 0.015325
3.859793 26.280869 0.015014
4.173615 26.280869 0.014930
4.487438 26.280869 0.016026
4.801261 26.280869 0.016705
5.115085 26.280869 0.016274
5.428907 26.280869 0.015996
5.742730 26.280869 0.016822
6.056554 26.280869 0.017671
6.370377 26.280869 0.018179
6.684199 26.280869 0.019595
6.998022 26.280869 0.021117
7.311846 26.280869 0.022672
7.625669 26.280869 0.025597
7.939491 26.280869 0.029901
8.253315 26.280869 0.036185
8.567138 26.280869 0.046822
8.880960 26.280869 0.061147
9.194784 26.280869 0.087936
9.508606 26.280869 0.127515
9.822430 26.280869 0.190133
10.136253 26.280869 0.261257
10.450075 26.280869 0.351081
10.763899 26.280869 0.471019
11.077723 26.280869 0.628331
11.391544 26.280869 0.764767
11.705368 26.280869 0.946799
12.019190 26.280869 1.090482
12.333014 26.280869 1.259249
12.646837 26.280869 1.441787
12.960659 26.280869 1.575586
13.274483 26.280869 1.696424
13.588306 26.280869 1.783464
13.902128 26.280869 1.892181
14.215952 26.280869 1.995171
14.529776 26.280869 2.093425
14.843597 26.280869 2.040285
15.157421 26.280869 1.961982
15.471243 26.280869 1.889564
15.785067 26.280869 1.811392
16.098890 26.280869 1.608429
16.412712 26.280869 1.517229
16.726536 26.280869 1.401757
17.040359 26.280869 1.344029
17.354181 26.280869 1.337738
17.668005 26.280869 1.352575
17.981829 26.280869 1.436714
18.295650 26.280869 1.738238
18.609474 26.280869 2.364950
18.923298 26.280869 2.932515
19.237120 26.280869 0.000000
-6.810190 25.967045 0.000000
-6.496367 25.967045 0.031083
-6.182544 25.967045 0.023467
-5.868721 25.967045 0.021852
-5.554898 25.967045 0.021205
-5.241075 25.967045 0.020147
-4.927252 25.967045 0.019275
-4.613429 25.967045 0.019256
-4.299606 25.967045 0.019518
-3.985783 25.967045 0.019756
-3.671960 25.967045 0.018509
-3.358137 25.967045 0.017978
-3.044314 25.967045 0.018280
-2.730491 25.967045 0.018856
-2.416668 25.967045 0.018446
-2.102845 25.967045 0.017647
-1.789022 25.967045 0.017452
-1.475199 25.967045 0.017494
-1.161376 25.967045 0.017357
-0.847553 25.967045 0.016671
-0.533730 25.967045 0.016137
-0.219907 25.967045 0.016368
0.093916 25.967045 0.016603
0.407739 25.967045 0.016725
0.721562 25.967045 0.015902
1.035385 25.967045 0.015621
1.349208 25.967045 0.015548
1.663032 25.967045 0.015680
1.976854 25.967045 0.015444
2.290677 25.967045 0.015501
2.604500 25.967045 0.016020
2.918324 25.967045 0.015838
3.232146 25.967045 0.015637
3.545969 25.967045 0.015326
3.859793 25.967045 0.014951
4.173615 25.967045 0.015016
4.487438 25.967045 0.016201
4.801261 25.967045 0.016712
5.115085 25.967045 0.016283
5.428907 25.967045 0.015979
5.742730 25.967045 0.016820
6.056554 25.967045 0.017565
6.370377 25.967045 0.018068
6.684199 25.967045 0.019446
6.998022 25.967045 0.021231
7.311846 25.967045 0.023188
7.625669 25.967045 0.026280
7.939491 25.967045 0.030279
8.253315 25.967045 0.036575
8.567138 25.967045 0.045556
8.880960 25.967045 0.061337
9.194784 25.967045 0.085673
9.508606 25.967045 0.126293
9.822430 25.967045 0.193281
10.136253 25.967045 0.272451
10.450075 25.967045 0.353366
10.763899 25.967045 0.472154
11.077723 25.967045 0.631278
11.391544 25.967045 0.758427
11.705368 25.967045 0.940044
12.019190 25.967045 1.109160
12.333014 25.967045 1.258120
12.646837 25.967045 1.416574
12.960659 25.967045 1.538008
13.274483 25.967045 1.695209
13.588306 25.967045 1.816917
13.902128 25.967045 1.934859
14.215952 25.967045 1.998214
14.529776 25.967045 2.045551
14.843597 25.967045 2.011604
15.157421 25.967045 1.972886
15.471243 25.967045 1.861042
15.785067 25.967045 1.814167
16.098890 25.967045 1.641209
16.412712 25.967045 1.497734
16.726536 25.967045 1.453943
17.040359 25.967045 1.395749
17.354181 25.967045 1.353642
17.668005 25.967045 1.358132
17.981829 25.967045 1.466298
18.295650 25.967045 1.758446
18.609474 25.967045 2.367980
18.923298 25.967045 2.995555
19.237120 25.967045 0.000000
-6.810190 25.653221 0.000000
-6.496367 25.653221 0.030686
-6.182544 25.653221 0.023022
-5.868721 25.653221 0.021236
-5.554898 25.653221 0.020783
-5.241075 25.653221 0.019794
-4.927252 25.653221 0.018930
-4.613429 25.653221 0.018489
-4.299606 25.653221 0.018991
-3.985783 25.653221 0.019448
-3.671960 25.653221 0.018451
-3.358137 25.653221 0.017924
-3.044314 25.653221 0.018368
-2.730491 25.653221 0.018695
-2.416668 25.653221 0.018159
-2.102845 25.653221 0.017154
-1.789022 25.653221 0.017007
-1.475199 25.653221 0.016991
-1.161376 25.653221 0.016669
-0.847553 25.653221 0.016399
-0.533730 25.653221 0.015946
-0.219907 25.653221 0.015847
0.093916 25.653221 0.016338
0.407739 25.653221 0.016633
0.721562 25.653221 0.015814
1.035385 25.653221 0.015555
1.349208 25.653221 0.015726
1.663032 25.653221 0.015774
1.976854 25.653221 0.015296
2.290677 25.653221 0.015412
2.604500 25.653221 0.015911
2.918324 25.653221 0.015620
3.232146 25.653221 0.015530
3.545969 25.653221 0.015341
3.859793 25.653221 0.014988
4.173615 25.653221 0.015117
4.487438 25.653221 0.016004
4.801261 25.653221 0.016362
5.115085 25.653221 0.016146
5.428907 25.653221 0.015897
5.742730 25.653221 0.016672
6.056554 25.653221 0.017447
6.370377 25.653221 0.018049
6.684199 25.653221 0.019341
6.998022 25.653221 0.021532
7.311846 25.653221 0.023628
7.625669 25.653221 0.026419
7.939491 25.653221 0.030006
8.253315 25.653221 0.035876
8.567138 25.653221 0.044892
8.880960 25.653221 0.059972
9.194784 25.653221 0.084297
9.508606 25.653221 0.127449
9.822430 25.653221 0.188446
10.136253 25.653221 0.272452
10.450075 25.653221 0.361359
10.763899 25.653221 0.477400
11.077723 25.653221 0.637929
11.391544 25.653221 0.773348
11.705368 25.653221 0.921850
12.019190 25.653221 1.120864
12.333014 25.653221 1.255860
12.646837 25.653221 1.412208
12.960659 25.653221 1.530628
13.274483 25.653221 1.689560
13.588306 25.653221 1.813067
13.902128 25.653221 1.915749
14.215952 25.653221 2.001119
14.529776 25.653221 2.052508
14.843597 25.653221 2.024591
15.157421 25.653221 2.014704
15.471243 25.653221 1.929370
15.785067 25.653221 1.786798
16.098890 25.653221 1.675226
16.412712 25.653221 1.550575
16.726536 25.653221 1.478257
17.040359 25.653221 1.442400
17.354181 25.653221 1.390430
17.668005 25.653221 1.372629
17.981829 25.653221 1.416124
18.295650 25.653221 1.766161
18.609474 25.653221 2.351306
18.923298 25.653221 2.855805
19.237120 25.653221 0.000000
-6.810190 25.339399 0.000000
-6.496367 25.339399 0.030538
-6.182544 25.339399 0.022427
-5.868721 25.339399 0.020664
-5.554898 25.339399 0.020378
-5.241075 25.339399 0.019609
-4.927252 25.339399 0.018847
-4.613429 25.339399 0.018447
-4.299606 25.339399 0.018635
-3.985783 25.339399 0.019155
-3.671960 25.339399 0.018519
-3.358137 25.339399 0.018224
-3.044314 25.339399 0.018933
-2.730491 25.339399 0.019065
-2.416668 25.339399 0.017826
-2.102845 25.339399 0.016764
-1.789022 25.339399 0.016597
-1.475199 25.339399 0.016412
-1.161376 25.339399 0.016314
-0.847553 25.339399 0.016485
-0.533730 25.339399 0.015940
-0.219907 25.339399 0.015371
0.093916 25.339399 0.015862
0.407739 25.339399 0.015957
0.721562 25.339399 0.015475
1.035385 25.339399 0.015526
1.349208 25.339399 0.016146
1.663032 25.339399 0.016204
1.976854 25.339399 0.015502
2.290677 25.339399 0.015386
2.604500 25.339399 0.016006
2.918324 25.339399 0.015699
3.232146 25.339399 0.015471
3.545969 25.339399 0.015495
3.859793 25.339399 0.015279
4.173615 25.339399 0.015268
4.487438 25.339399 0.015772
4.801261 25.339399 0.016174
5.115085 25.339399 0.016093
5.428907 25.339399 0.015826
5.742730 25.339399 0.016447
6.056554 25.339399 0.017418
6.370377 25.339399 0.018398
6.684199 25.339399 0.019934
6.998022 25.339399 0.021915
7.311846 25.339399 0.023860
7.625669 25.339399 0.026117
7.939491 25.339399 0.029413
8.253315 25.339399 0.035357
8.567138 25.339399 0.044495
8.880960 25.339399 0.060003
9.194784 25.339399 0.083992
9.508606 25.339399 0.128019
9.822430 25.339399 0.191215
10.136253 25.339399 0.271410
10.450075 25.339399 0.370378
10.763899 25.339399 0.488367
11.077723 25.339399 0.641363
11.391544 25.339399 0.770125
11.705368 25.339399 0.928298
12.019190 25.339399 1.102772
12.333014 25.339399 1.259982
12.646837 25.339399 1.389609
12.960659 25.339399 1.548703
13.274483 25.339399 1.675423
13.588306 25.339399 1.859897
13.902128 25.339399 1.957053
14.215952 25.339399 2.005726
14.529776 25.339399 2.058584
14.843597 25.339399 2.077703
15.157421 25.339399 2.030840
15.471243 25.339399 1.975042
15.785067 25.339399 1.795529
16.098890 25.339399 1.695233
16.412712 25.339399 1.571477
16.726536 25.339399 1.486795
17.040359 25.339399 1.444254
17.354181 25.339399 1.395522
17.668005 25.339399 1.355754
17.981829 25.339399 1.469005
18.295650 25.339399 1.773157
18.609474 25.339399 2.398654
18.923298 25.339399 2.758368
19.237120 25.339399 0.000000
-6.810190 25.025576 0.000000
-6.496367 25.025576 0.029898
-6.182544 25.025576 0.021782
-5.868721 25.025576 0.020171
-5.554898 25.025576 0.020014
-5.241075 25.025576 0.019427
-4.927252 25.025576 0.018924
-4.613429 25.025576 0.018537
-4.299606 25.025576 0.018652
-3.985783 25.025576 0.018917
-3.671960 25.025576 0.018609
-3.358137 25.025576 0.018591
-3.044314 25.025576 0.019231
-2.730491 25.025576 0.019015
-2.416668 25.025576 0.017585
-2.102845 25.025576 0.016564
-1.789022 25.025576 0.016501
-1.475199 25.025576 0.016380
-1.161376 25.025576 0.016281
-0.847553 25.025576 0.016607
-0.533730 25.025576 0.015910
-0.219907 25.025576 0.015356
0.093916 25.025576 0.015656
0.407739 25.025576 0.015468
0.721562 25.025576 0.015234
1.035385 25.025576 0.015541
1.349208 25.025576 0.016377
1.663032 25.025576 0.016772
1.976854 25.025576 0.015898
2.290677 25.025576 0.015707
2.604500 25.025576 0.016054
2.918324 25.025576 0.015855
3.232146 25.025576 0.015535
3.545969 25.025576 0.015656
3.859793 25.025576 0.015778
4.173615 25.025576 0.015486
4.487438 25.025576 0.015790
4.801261 25.025576 0.016278
5.115085 25.025576 0.016222
5.428907 25.025576 0.015789
5.742730 25.025576 0.016520
6.056554 25.025576 0.017688
6.370377 25.025576 0.019009
6.684199 25.025576 0.020540
6.998022 25.025576 0.021968
7.311846 25.025576 0.023755
7.625669 25.025576 0.025593
7.939491 25.025576 0.028936
8.253315 25.025576 0.035077
8.567138 25.025576 0.044887
8.880960 25.025576 0.060210
9.194784 25.025576 0.086390
9.508606 25.025576 0.131709
9.822430 25.025576 0.193328
10.136253 25.025576 0.271899
10.450075 25.025576 0.362277
10.763899 25.025576 0.486788
11.077723 25.025576 0.635341
11.391544 25.025576 0.776867
11.705368 25.025576 0.910976
12.019190 25.025576 1.070623
12.333014 25.025576 1.242089
12.646837 25.025576 1.374274
12.960659 25.025576 1.545632
13.274483 25.025576 1.711273
13.588306 25.025576 1.883173
13.902128 25.025576 2.039816
14.215952 25.025576 2.029221
14.529776 25.025576 2.097436
14.843597 25.025576 2.086653
15.157421 25.025576 2.032945
15.471243 25.025576 1.984676
15.785067 25.025576 1.872049
16.098890 25.025576 1.732210
16.412712 25.025576 1.603129
16.726536 25.025576 1.493823
17.040359 25.025576 1.455606
17.354181 25.025576 1.396745
17.668005 25.025576 1.390200
17.981829 25.025576 1.432810
18.295650 25.025576 1.751353
18.609474 25.025576 2.384525
18.923298 25.025576 2.744234
19.237120 25.025576 0.000000
-6.810190 24.711752 0.000000
-6.496367 24.711752 0.029070
-6.182544 24.711752 0.021197
-5.868721 24.711752 0.019744
-5.554898 24.711752 0.019460
-5.241075 24.711752 0.019135
-4.927252 24.711752 0.018801
-4.613429 24.711752 0.018737
-4.299606 24.711752 0.018539
-3.985783 24.711752 0.018715
-3.671960 24.711752 0.018439
-3.358137 24.711752 0.018594
-3.044314 24.711752 0.018757
-2.730491 24.711752 0.018364
-2.416668 24.711752 0.017115
-2.102845 24.711752 0.016478
-1.789022 24.711752 0.016570
-1.475199 24.711752 0.016411
-1.161376 24.711752 0.016309
-0.847553 24.711752 0.016420
-0.533730 24.711752 0.015760
-0.219907 24.711752 0.015242
0.093916 24.711752 0.015459
0.407739 24.711752 0.015352
0.721562 24.711752 0.015180
1.035385 24.711752 0.015502
1.349208 24.711752 0.016180
1.663032 24.711752 0.016649
1.976854 24.711752 0.016080
2.290677 24.711752 0.015821
2.604500 24.711752 0.015999
2.918324 24.711752 0.015748
3.232146 24.711752 0.015479
3.545969 24.711752 0.015722
3.859793 24.711752 0.015854
4.173615 24.711752 0.015670
4.487438 24.711752 0.015951
4.801261 24.711752 0.016350
5.115085 24.711752 0.016316
5.428907 24.711752 0.016249
5.742730 24.711752 0.017083
6.056554 24.711752 0.018102
6.370377 24.711752 0.019321
6.684199 24.711752 0.020795
6.998022 24.711752 0.022068
7.311846 24.711752 0.023531
7.625669 24.711752 0.025994
7.939491 24.711752 0.029248
8.253315 24.711752 0.035176
8.567138 24.711752 0.044999
8.880960 24.711752 0.059964
9.194784 24.711752 0.088043
9.508606 24.711752 0.129564
9.822430 24.711752 0.190125
10.136253 24.711752 0.273511
10.450075 24.711752 0.370255
10.763899 24.711752 0.487695
11.077723 24.711752 0.650429
11.391544 24.711752 0.785484
11.705368 24.711752 0.922761
12.019190 24.711752 1.070580
12.333014 24.711752 1.233681
12.646837 24.711752 1.407004
12.960659 24.711752 1.575499
13.274483 24.711752 1.745755
13.588306 24.711752 1.899847
13.902128 24.711752 2.006335
14.215952 24.711752 2.048140
14.529776 24.711752 2.092613
14.843597 24.711752 2.130091
15.157421 24.711752 2.077850
15.471243 24.711752 1.989601
15.785067 24.711752 1.894630
16.098890 24.711752 1.746711
16.412712 24.711752 1.604883
16.726536 24.711752 1.518433
17.040359 24.711752 1.421903
17.354181 24.711752 1.374375
17.668005 24.711752 1.420912
17.981829 24.711752 1.536124
18.295650 24.711752 1.786673
18.609474 24.711752 2.403778
18.923298 24.711752 2.800762
19.237120 24.711752 0.000000
-6.810190 24.397930 0.000000
-6.496367 24.397930 0.028204
-6.182544 24.397930 0.020776
-5.868721 24.397930 0.019442
-5.554898 24.397930 0.019059
-5.241075 24.397930 0.018807
-4.927252 24.397930 0.018492
-4.613429 24.397930 0.018520
-4.299606 24.397930 0.018138
-3.985783 24.397930 0.018064
-3.671960 24.397930 0.017886
-3.358137 24.397930 0.017941
-3.044314 24.397930 0.018218
-2.730491 24.397930 0.017580
-2.416668 24.397930 0.016522
-2.102845 24.397930 0.016268
-1.789022 24.397930 0.016440
-1.475199 24.397930 0.016292
-1.161376 24.397930 0.016293
-0.847553 24.397930 0.015999
-0.533730 24.397930 0.015505
-0.219907 24.397930 0.015140
0.093916 24.397930 0.015230
0.407739 24.397930 0.015265
0.721562 24.397930 0.015065
1.035385 24.397930 0.015232
1.349208 24.397930 0.015702
1.663032 24.397930 0.016143
1.976854 24.397930 0.015726
2.290677 24.397930 0.015640
2.604500 24.397930 0.015887
2.918324 24.397930 0.015672
3.232146 24.397930 0.015324
3.545969 24.397930 0.015405
3.859793 24.397930 0.015496
4.173615 24.397930 0.015638
4.487438 24.397930 0.016051
4.801261 24.397930 0.016313
5.115085 24.397930 0.016559
5.428907 24.397930 0.016947
5.742730 24.397930 0.017884
6.056554 24.397930 0.018423
6.370377 24.397930 0.019270
6.684199 24.397930 0.020456
6.998022 24.397930 0.021821
7.311846 24.397930 0.023479
7.625669 24.397930 0.025859
7.939491 24.397930 0.029650
8.253315 24.397930 0.035552
8.567138 24.397930 0.045960
8.880960 24.397930 0.061906
9.194784 24.397930 0.089274
9.508606 24.397930 0.129428
9.822430 24.397930 0.189901
10.136253 24.397930 0.272558
10.450075 24.397930 0.368040
10.763899 24.397930 0.482818
11.077723 24.397930 0.653019
11.391544 24.397930 0.790991
11.705368 24.397930 0.924599
12.019190 24.397930 1.079375
12.333014 24.397930 1.243853
12.646837 24.397930 1.434767
12.960659 24.397930 1.610198
13.274483 24.397930 1.794755
13.588306 24.397930 1.887100
13.902128 24.397930 1.977394
14.215952 24.397930 2.065370
14.529776 24.397930 2.187068
14.843597 24.397930 2.159174
15.157421 24.397930 2.080100
15.471243 24.397930 2.012175
15.785067 24.397930 1.965600
16.098890 24.397930 1.816399
16.412712 24.397930 1.659473
16.726536 24.397930 1.542935
17.040359 24.397930 1.431808
17.354181 24.397930 1.377178
17.668005 24.397930 1.401759
17.981829 24.397930 1.515587
18.295650 24.397930 1.872163
18.609474 24.397930 2.392889
18.923298 24.397930 2.623292
19.237120 24.397930 0.000000
-6.810190 24.084106 0.000000
-6.496367 24.084106 0.027447
-6.182544 24.084106 0.020426
-5.868721 24.084106 0.019517
-5.554898 24.084106 0.019118
-5.241075 24.084106 0.018687
-4.927252 24.084106 0.018249
-4.613429 24.084106 0.018046
-4.299606 24.084106 0.017796
-3.985783 24.084106 0.017650
-3.671960 24.084106 0.017211
-3.358137 24.084106 0.017293
-3.044314 24.084106 0.017625
-2.730491 24.084106 0.017013
-2.416668 24.084106 0.016190
-2.102845 24.084106 0.016052
-1.789022 24.084106 0.016146
-1.475199 24.084106 0.016036
-1.161376 24.084106 0.016134
-0.847553 24.084106 0.015644
-0.533730 24.084106 0.015386
-0.219907 24.084106 0.015267
0.093916 24.084106 0.015079
0.407739 24.084106 0.015230
0.721562 24.084106 0.014840
1.035385 24.084106 0.014972
1.349208 24.084106 0.015475
1.663032 24.084106 0.015736
1.976854 24.084106 0.015273
2.290677 24.084106 0.015362
2.604500 24.084106 0.015703
2.918324 24.084106 0.015574
3.232146 24.084106 0.015220
3.545969 24.084106 0.015198
3.859793 24.084106 0.015311
4.173615 24.084106 0.015538
4.487438 24.084106 0.015936
4.801261 24.084106 0.016304
5.115085 24.084106 0.017000
5.428907 24.084106 0.017723
5.742730 24.084106 0.018284
6.056554 24.084106 0.018343
6.370377 24.084106 0.018884
6.684199 24.084106 0.020053
6.998022 24.084106 0.021375
7.311846 24.084106 0.023075
7.625669 24.084106 0.025341
7.939491 24.084106 0.029844
8.253315 24.084106 0.036488
8.567138 24.084106 0.047472
8.880960 24.084106 0.063189
9.194784 24.084106 0.088615
9.508606 24.084106 0.130361
9.822430 24.084106 0.190339
10.136253 24.084106 0.271593
10.450075 24.084106 0.368538
10.763899 24.084106 0.491281
11.077723 24.084106 0.641420
11.391544 24.084106 0.784538
11.705368 24.084106 0.924671
12.019190 24.084106 1.095499
12.333014 24.084106 1.260581
12.646837 24.084106 1.435708
12.960659 24.084106 1.648639
13.274483 24.084106 1.785667
13.588306 24.084106 1.898839
13.902128 24.084106 1.964972
14.215952 24.084106 2.054959
14.529776 24.084106 2.161975
14.843597 24.084106 2.159227
15.157421 24.084106 2.084893
15.471243 24.084106 2.027989
15.785067 24.084106 1.942638
16.098890 24.084106 1.827189
16.412712 24.084106 1.719264
16.726536 24.084106 1.563976
17.040359 24.084106 1.461468
17.354181 24.084106 1.416701
17.668005 24.084106 1.390215
17.981829 24.084106 1.515595
18.295650 24.084106 1.855063
18.609474 24.084106 2.433821
18.923298 24.084106 2.668153
19.237120 24.084106 0.000000
-6.810190 23.770283 0.000000
-6.496367 23.770283 0.027189
-6.182544 23.770283 0.020496
-5.868721 23.770283 0.019813
-5.554898 23.770283 0.019473
-5.241075 23.770283 0.018802
-4.927252 23.770283 0.018137
-4.613429 23.770283 0.017769
-4.299606 23.770283 0.017633
-3.985783 23.770283 0.017436
-3.671960 23.770283 0.016761
-3.358137 23.770283 0.016849
-3.044314 23.770283 0.017465
-2.730491 23.770283 0.016892
-2.416668 23.770283 0.016103
-2.102845 23.770283 0.015802
-1.789022 23.770283 0.015808
-1.475199 23.770283 0.015803
-1.161376 23.770283 0.015779
-0.847553 23.770283 0.015383
-0.533730 23.770283 0.015319
-0.219907 23.770283 0.015401
0.093916 23.770283 0.015159
0.407739 23.770283 0.015170
0.721562 23.770283 0.014767
1.035385 23.770283 0.014998
1.349208 23.770283 0.015479
1.663032 23.770283 0.015527
1.976854 23.770283 0.014965
2.290677 23.770283 0.014916
2.604500 23.770283 0.015345
2.918324 23.770283 0.015131
3.232146 23.770283 0.015035
3.545969 23.770283 0.015214
3.859793 23.770283 0.015396
4.173615 23.770283 0.015713
4.487438 23.770283 0.015982
4.801261 23.770283 0.016641
5.115085 23.770283 0.017518
5.428907 23.770283 0.017944
5.742730 23.770283 0.018124
6.056554 23.770283 0.017893
6.370377 23.770283 0.018487
6.684199 23.770283 0.019520
6.998022 23.770283 0.020792
7.311846 23.770283 0.022690
7.625669 23.770283 0.025275
7.939491 23.770283 0.030298
8.253315 23.770283 0.037487
8.567138 23.770283 0.048718
8.880960 23.770283 0.064515
9.194784 23.770283 0.088892
9.508606 23.770283 0.131499
9.822430 23.770283 0.191037
10.136253 23.770283 0.271150
10.450075 23.770283 0.367614
10.763899 23.770283 0.498941
11.077723 23.770283 0.632597
11.391544 23.770283 0.784682
11.705368 23.770283 0.902035
12.019190 23.770283 1.090021
12.333014 23.770283 1.218570
12.646837 23.770283 1.408569
12.960659 23.770283 1.630548
13.274483 23.770283 1.775555
13.588306 23.770283 1.884742
13.902128 23.770283 1.973191
14.215952 23.770283 2.034855
14.529776 23.770283 2.160492
14.843597 23.770283 2.181569
15.157421 23.770283 2.088716
15.471243 23.770283 2.019901
15.785067 23.770283 1.929252
16.098890 23.770283 1.825713
16.412712 23.770283 1.741687
16.726536 23.770283 1.628414
17.040359 23.770283 1.476924
17.354181 23.770283 1.434147
17.668005 23.770283 1.430318
17.981829 23.770283 1.574064
18.295650 23.770283 1.935734
18.609474 23.770283 2.514722
18.923298 23.770283 2.638104
19.237120 23.770283 0.000000
-6.810190 23.456461 0.000000
-6.496367 23.456461 0.027634
-6.182544 23.456461 0.020374
-5.868721 23.456461 0.019726
-5.554898 23.456461 0.019479
-5.241075 23.456461 0.018740
-4.927252 23.456461 0.018090
-4.613429 23.456461 0.017843
-4.299606 23.456461 0.017665
-3.985783 23.456461 0.017220
-3.671960 23.456461 0.016514
-3.358137 23.456461 0.016695
-3.044314 23.456461 0.017351
-2.730491 23.456461 0.016937
-2.416668 23.456461 0.016212
-2.102845 23.456461 0.015691
-1.789022 23.456461 0.015589
-1.475199 23.456461 0.015524
-1.161376 23.456461 0.015378
-0.847553 23.456461 0.015212
-0.533730 23.456461 0.015292
-0.219907 23.456461 0.015409
0.093916 23.456461 0.015154
0.407739 23.456461 0.015072
0.721562 23.456461 0.014843
1.035385 23.456461 0.015207
1.349208 23.456461 0.015701
1.663032 23.456461 0.015363
1.976854 23.456461 0.014816
2.290677 23.456461 0.014628
2.604500 23.456461 0.015040
2.918324 23.456461 0.014861
3.232146 23.456461 0.014899
3.545969 23.456461 0.015513
3.859793 23.456461 0.015843
4.173615 23.456461 0.016197
4.487438 23.456461 0.016266
4.801261 23.456461 0.016984
5.115085 23.456461 0.017643
5.428907 23.456461 0.017392
5.742730 23.456461 0.017471
6.056554 23.456461 0.017549
6.370377 23.456461 0.018203
6.684199 23.456461 0.019050
6.998022 23.456461 0.020528
7.311846 23.456461 0.022723
7.625669 23.456461 0.025893
7.939491 23.456461 0.031446
8.253315 23.456461 0.038500
8.567138 23.456461 0.048623
8.880960 23.456461 0.064743
9.194784 23.456461 0.089663
9.508606 23.456461 0.134609
9.822430 23.456461 0.195308
10.136253 23.456461 0.275678
10.450075 23.456461 0.369464
10.763899 23.456461 0.494103
11.077723 23.456461 0.637034
11.391544 23.456461 0.774649
11.705368 23.456461 0.918883
12.019190 23.456461 1.074619
12.333014 23.456461 1.234620
12.646837 23.456461 1.408047
12.960659 23.456461 1.593529
13.274483 23.456461 1.737531
13.588306 23.456461 1.862536
13.902128 23.456461 2.012233
14.215952 23.456461 2.068973
14.529776 23.456461 2.149188
14.843597 23.456461 2.129827
15.157421 23.456461 2.117557
15.471243 23.456461 2.062790
15.785067 23.456461 1.966756
16.098890 23.456461 1.821698
16.412712 23.456461 1.756189
16.726536 23.456461 1.623753
17.040359 23.456461 1.506378
17.354181 23.456461 1.434361
17.668005 23.456461 1.469432
17.981829 23.456461 1.595992
18.295650 23.456461 2.001300
18.609474 23.456461 2.536736
18.923298 23.456461 2.498373
19.237120 23.456461 0.000000
-6.810190 23.142637 0.000000
-6.496367 23.142637 0.027749
-6.182544 23.142637 0.020053
-5.868721 23.142637 0.019365
-5.554898 23.142637 0.019021
-5.241075 23.142637 0.018409
-4.927252 23.142637 0.017901
-4.613429 23.142637 0.017835
-4.299606 23.142637 0.017354
-3.985783 23.142637 0.016870
-3.671960 23.142637 0.016527
-3.358137 23.142637 0.016734
-3.044314 23.142637 0.017401
-2.730491 23.142637 0.016880
-2.416668 23.142637 0.015950
-2.102845 23.142637 0.015585
-1.789022 23.142637 0.015357
-1.475199 23.142637 0.015184
-1.161376 23.142637 0.015003
-0.847553 23.142637 0.015233
-0.533730 23.142637 0.015369
-0.219907 23.142637 0.015607
0.093916 23.142637 0.015396
0.407739 23.142637 0.015213
0.721562 23.142637 0.014971
1.035385 23.142637 0.015232
1.349208 23.142637 0.015657
1.663032 23.142637 0.015447
1.976854 23.142637 0.015002
2.290677 23.142637 0.014709
2.604500 23.142637 0.014866
2.918324 23.142637 0.014863
3.232146 23.142637 0.015155
3.545969 23.142637 0.015858
3.859793 23.142637 0.016306
4.173615 23.142637 0.016513
4.487438 23.142637 0.016589
4.801261 23.142637 0.017187
5.115085 23.142637 0.017312
5.428907 23.142637 0.016925
5.742730 23.142637 0.017087
6.056554 23.142637 0.017504
6.370377 23.142637 0.018200
6.684199 23.142637 0.019104
6.998022 23.142637 0.020634
7.311846 23.142637 0.023453
7.625669 23.142637 0.027194
7.939491 23.142637 0.031937
8.253315 23.142637 0.038630
8.567138 23.142637 0.048183
8.880960 23.142637 0.063352
9.194784 23.142637 0.089663
9.508606 23.142637 0.134624
9.822430 23.142637 0.197169
10.136253 23.142637 0.283115
10.450075 23.142637 0.380082
10.763899 23.142637 0.500529
11.077723 23.142637 0.645430
11.391544 23.142637 0.779288
11.705368 23.142637 0.930147
12.019190 23.142637 1.078793
12.333014 23.142637 1.262959
12.646837 23.142637 1.407109
12.960659 23.142637 1.581421
13.274483 23.142637 1.747764
13.588306 23.142637 1.857956
13.902128 23.142637 1.999001
14.215952 23.142637 2.074651
14.529776 23.142637 2.100363
14.843597 23.142637 2.161794
15.157421 23.142637 2.110754
15.471243 23.142637 2.048625
15.785067 23.142637 1.947709
16.098890 23.142637 1.893807
16.412712 23.142637 1.745077
16.726536 23.142637 1.615310
17.040359 23.142637 1.518955
17.354181 23.142637 1.483047
17.668005 23.142637 1.512815
17.981829 23.142637 1.642162
18.295650 23.142637 2.036094
18.609474 23.142637 2.582340
18.923298 23.142637 2.551589
19.237120 23.142637 0.000000
-6.810190 22.828814 0.000000
-6.496367 22.828814 0.027313
-6.182544 22.828814 0.019537
-5.868721 22.828814 0.018850
-5.554898 22.828814 0.018427
-5.241075 22.828814 0.017934
-4.927252 22.828814 0.017598
-4.613429 22.828814 0.017588
-4.299606 22.828814 0.016919
-3.985783 22.828814 0.016431
-3.671960 22.828814 0.016333
-3.358137 22.828814 0.016647
-3.044314 22.828814 0.017423
-2.730491 22.828814 0.016654
-2.416668 22.828814 0.015659
-2.102845 22.828814 0.015290
-1.789022 22.828814 0.015184
-1.475199 22.828814 0.014971
-1.161376 22.828814 0.014839
-0.847553 22.828814 0.015393
-0.533730 22.828814 0.015622
-0.219907 22.828814 0.015655
0.093916 22.828814 0.015449
0.407739 22.828814 0.015193
0.721562 22.828814 0.014932
1.035385 22.828814 0.015104
1.349208 22.828814 0.015425
1.663032 22.828814 0.015595
1.976854 22.828814 0.015401
2.290677 22.828814 0.015015
2.604500 22.828814 0.014781
2.918324 22.828814 0.015053
3.232146 22.828814 0.015704
3.545969 22.828814 0.016243
3.859793 22.828814 0.016480
4.173615 22.828814 0.016513
4.487438 22.828814 0.016751
4.801261 22.828814 0.016999
5.115085 22.828814 0.016914
5.428907 22.828814 0.016746
5.742730 22.828814 0.017272
6.056554 22.828814 0.017781
6.370377 22.828814 0.018627
6.684199 22.828814 0.019922
6.998022 22.828814 0.021438
7.311846 22.828814 0.024274
7.625669 22.828814 0.027754
7.939491 22.828814 0.031608
8.253315 22.828814 0.037672
8.567138 22.828814 0.046950
8.880960 22.828814 0.062437
9.194784 22.828814 0.090044
9.508606 22.828814 0.133459
9.822430 22.828814 0.199953
10.136253 22.828814 0.279945
10.450075 22.828814 0.379079
10.763899 22.828814 0.508233
11.077723 22.828814 0.652554
11.391544 22.828814 0.797197
11.705368 22.828814 0.951620
12.019190 22.828814 1.092260
12.333014 22.828814 1.249543
12.646837 22.828814 1.397622
12.960659 22.828814 1.578832
13.274483 22.828814 1.730046
13.588306 22.828814 1.872866
13.902128 22.828814 1.988263
14.215952 22.828814 2.085942
14.529776 22.828814 2.110572
14.843597 22.828814 2.143783
15.157421 22.828814 2.103540
15.471243 22.828814 2.074020
15.785067 22.828814 1.960529
16.098890 22.828814 1.868310
16.412712 22.828814 1.743607
16.726536 22.828814 1.572050
17.040359 22.828814 1.498639
17.354181 22.828814 1.514166
17.668005 22.828814 1.531251
17.981829 22.828814 1.669198
18.295650 22.828814 2.054271
18.609474 22.828814 2.648462
18.923298 22.828814 2.587116
19.237120 22.828814 0.000000
-6.810190 22.514992 0.000000
-6.496367 22.514992 0.026410
-6.182544 22.514992 0.018865
-5.868721 22.514992 0.018258
-5.554898 22.514992 0.017968
-5.241075 22.514992 0.017591
-4.927252 22.514992 0.017002
-4.613429 22.514992 0.016986
-4.299606 22.514992 0.016401
-3.985783 22.514992 0.016002
-3.671960 22.514992 0.016014
-3.358137 22.514992 0.016411
-3.044314 22.514992 0.017020
-2.730491 22.514992 0.016394
-2.416668 22.514992 0.015524
-2.102845 22.514992 0.015079
-1.789022 22.514992 0.015098
-1.475199 22.514992 0.014888
-1.161376 22.514992 0.014969
-0.847553 22.514992 0.015670
-0.533730 22.514992 0.015835
-0.219907 22.514992 0.015568
0.093916 22.514992 0.015193
0.407739 22.514992 0.014924
0.721562 22.514992 0.014686
1.035385 22.514992 0.014820
1.349208 22.514992 0.015179
1.663032 22.514992 0.015405
1.976854 22.514992 0.015383
2.290677 22.514992 0.015181
2.604500 22.514992 0.014959
2.918324 22.514992 0.015417
3.232146 22.514992 0.016141
3.545969 22.514992 0.016372
3.859793 22.514992 0.016182
4.173615 22.514992 0.016129
4.487438 22.514992 0.016388
4.801261 22.514992 0.016426
5.115085 22.514992 0.016461
5.428907 22.514992 0.016995
5.742730 22.514992 0.017791
6.056554 22.514992 0.018405
6.370377 22.514992 0.019489
6.684199 22.514992 0.020998
6.998022 22.514992 0.022258
7.311846 22.514992 0.024206
7.625669 22.514992 0.026627
7.939491 22.514992 0.030600
8.253315 22.514992 0.036747
8.567138 22.514992 0.046146
8.880960 22.514992 0.062654
9.194784 22.514992 0.090712
9.508606 22.514992 0.136164
9.822430 22.514992 0.197942
10.136253 22.514992 0.274912
10.450075 22.514992 0.384333
10.763899 22.514992 0.507276
11.077723 22.514992 0.666595
11.391544 22.514992 0.802635
11.705368 22.514992 0.951340
12.019190 22.514992 1.115652
12.333014 22.514992 1.264654
12.646837 22.514992 1.440872
12.960659 22.514992 1.600873
13.274483 22.514992 1.723411
13.588306 22.514992 1.874665
13.902128 22.514992 1.966453
14.215952 22.514992 2.096858
14.529776 22.514992 2.111769
14.843597 22.514992 2.095458
15.157421 22.514992 2.114678
15.471243 22.514992 2.054574
15.785067 22.514992 2.037109
16.098890 22.514992 1.893437
16.412712 22.514992 1.724748
16.726536 22.514992 1.595023
17.040359 22.514992 1.571543
17.354181 22.514992 1.536577
17.668005 22.514992 1.593939
17.981829 22.514992 1.698093
18.295650 22.514992 2.133870
18.609474 22.514992 2.720963
18.923298 22.514992 2.548100
19.237120 22.514992 0.000000
-6.810190 22.201168 0.000000
-6.496367 22.201168 0.025453
-6.182544 22.201168 0.018067
-5.868721 22.201168 0.017822
-5.554898 22.201168 0.017819
-5.241075 22.201168 0.017483
-4.927252 22.201168 0.016504
-4.613429 22.201168 0.016381
-4.299606 22.201168 0.016136
-3.985783 22.201168 0.015916
-3.671960 22.201168 0.015835
-3.358137 22.201168 0.016056
-3.044314 22.201168 0.016295
-2.730491 22.201168 0.016058
-2.416668 22.201168 0.015542
-2.102845 22.201168 0.015186
-1.789022 22.201168 0.015154
-1.475199 22.201168 0.014927
-1.161376 22.201168 0.015022
-0.847553 22.201168 0.015626
-0.533730 22.201168 0.015942
-0.219907 22.201168 0.015619
0.093916 22.201168 0.015013
0.407739 22.201168 0.014692
0.721562 22.201168 0.014394
1.035385 22.201168 0.014594
1.349208 22.201168 0.014930
1.663032 22.201168 0.015108
1.976854 22.201168 0.015012
2.290677 22.201168 0.015191
2.604500 22.201168 0.015344
2.918324 22.201168 0.015554
3.232146 22.201168 0.016125
3.545969 22.201168 0.016243
3.859793 22.201168 0.015820
4.173615 22.201168 0.015477
4.487438 22.201168 0.015608
4.801261 22.201168 0.015883
5.115085 22.201168 0.016254
5.428907 22.201168 0.017389
5.742730 22.201168 0.018596
6.056554 22.201168 0.019203
6.370377 22.201168 0.020202
6.684199 22.201168 0.021274
6.998022 22.201168 0.022165
7.311846 22.201168 0.023080
7.625669 22.201168 0.025246
7.939491 22.201168 0.029341
8.253315 22.201168 0.036818
8.567138 22.201168 0.047464
8.880960 22.201168 0.062759
9.194784 22.201168 0.092542
9.508606 22.201168 0.141587
9.822430 22.201168 0.200870
10.136253 22.201168 0.279525
10.450075 22.201168 0.390784
10.763899 22.201168 0.513470
11.077723 22.201168 0.663543
11.391544 22.201168 0.810960
11.705368 22.201168 0.945026
12.019190 22.201168 1.112648
12.333014 22.201168 1.254581
12.646837 22.201168 1.437249
12.960659 22.201168 1.635084
13.274483 22.201168 1.782595
13.588306 22.201168 1.878051
13.902128 22.201168 2.011499
14.215952 22.201168 2.061245
14.529776 22.201168 2.120094
14.843597 22.201168 2.096305
15.157421 22.201168 2.064890
15.471243 22.201168 2.101345
15.785067 22.201168 2.046009
16.098890 22.201168 1.948317
16.412712 22.201168 1.787428
16.726536 22.201168 1.650339
17.040359 22.201168 1.550566
17.354181 22.201168 1.543489
17.668005 22.201168 1.595609
17.981829 22.201168 1.728651
18.295650 22.201168 2.215094
18.609474 22.201168 2.749339
18.923298 22.201168 2.447834
19.237120 22.201168 0.000000
-6.810190 21.887346 0.000000
-6.496367 21.887346 0.024793
-6.182544 21.887346 0.017519
-5.868721 21.887346 0.017716
-5.554898 21.887346 0.017978
-5.241075 21.887346 0.017488
-4.927252 21.887346 0.016334
-4.613429 21.887346 0.016032
-4.299606 21.887346 0.016161
-3.985783 21.887346 0.016111
-3.671960 21.887346 0.015740
-3.358137 21.887346 0.015698
-3.044314 21.887346 0.015778
-2.730491 21.887346 0.015605
-2.416668 21.887346 0.015441
-2.102845 21.887346 0.015279
-1.789022 21.887346 0.015179
-1.475199 21.887346 0.014837
-1.161376 21.887346 0.014765
-0.847553 21.887346 0.015251
-0.533730 21.887346 0.015667
-0.219907 21.887346 0.015647
0.093916 21.887346 0.015025
0.407739 21.887346 0.014428
0.721562 21.887346 0.014224
1.035385 21.887346 0.014581
1.349208 21.887346 0.014879
1.663032 21.887346 0.014946
1.976854 21.887346 0.014716
2.290677 21.887346 0.015146
2.604500 21.887346 0.015452
2.918324 21.887346 0.015202
3.232146 21.887346 0.015647
3.545969 21.887346 0.015973
3.859793 21.887346 0.015671
4.173615 21.887346 0.015131
4.487438 21.887346 0.015178
4.801261 21.887346 0.015721
5.115085 21.887346 0.016519
5.428907 21.887346 0.017990
5.742730 21.887346 0.019352
6.056554 21.887346 0.019701
6.370377 21.887346 0.020105
6.684199 21.887346 0.020552
6.998022 21.887346 0.021272
7.311846 21.887346 0.022337
7.625669 21.887346 0.024453
7.939491 21.887346 0.028973
8.253315 21.887346 0.036604
8.567138 21.887346 0.047750
8.880960 21.887346 0.065445
9.194784 21.887346 0.094452
9.508606 21.887346 0.141446
9.822430 21.887346 0.200219
10.136253 21.887346 0.277875
10.450075 21.887346 0.389245
10.763899 21.887346 0.519058
11.077723 21.887346 0.667281
11.391544 21.887346 0.818525
11.705368 21.887346 0.952719
12.019190 21.887346 1.128334
12.333014 21.887346 1.270865
12.646837 21.887346 1.438449
12.960659 21.887346 1.642891
13.274483 21.887346 1.807972
13.588306 21.887346 1.899560
13.902128 21.887346 2.000974
14.215952 21.887346 2.053189
14.529776 21.887346 2.142167
14.843597 21.887346 2.119804
15.157421 21.887346 2.076137
15.471243 21.887346 2.058995
15.785067 21.887346 2.073571
16.098890 21.887346 1.966897
16.412712 21.887346 1.818369
16.726536 21.887346 1.643479
17.040359 21.887346 1.534083
17.354181 21.887346 1.570651
17.668005 21.887346 1.612962
17.981829 21.887346 1.748005
18.295650 21.887346 2.247333
18.609474 21.887346 2.885325
18.923298 21.887346 2.510401
19.237120 21.887346 0.000000
-6.810190 21.573523 0.000000
-6.496367 21.573523 0.024603
-6.182544 21.573523 0.017389
-5.868721 21.573523 0.017578
-5.554898 21.573523 0.018007
-5.241075 21.573523 0.017558
-4.927252 21.573523 0.016600
-4.613429 21.573523 0.016249
-4.299606 21.573523 0.016192
-3.985783 21.573523 0.016099
-3.671960 21.573523 0.015746
-3.358137 21.573523 0.015688
-3.044314 21.573523 0.015636
-2.730491 21.573523 0.015358
-2.416668 21.573523 0.015364
-2.102845 21.573523 0.015180
-1.789022 21.573523 0.014921
-1.475199 21.573523 0.014502
-1.161376 21.573523 0.014402
-0.847553 21.573523 0.014743
-0.533730 21.573523 0.015067
-0.219907 21.573523 0.015204
0.093916 21.573523 0.014738
0.407739 21.573523 0.014181
0.721562 21.573523 0.014102
1.035385 21.573523 0.014714
1.349208 21.573523 0.015113
1.663032 21.573523 0.014954
1.976854 21.573523 0.014651
2.290677 21.573523 0.014897
2.604500 21.573523 0.014976
2.918324 21.573523 0.014551
3.232146 21.573523 0.014987
3.545969 21.573523 0.015782
3.859793 21.573523 0.015625
4.173615 21.573523 0.015143
4.487438 21.573523 0.015327
4.801261 21.573523 0.016196
5.115085 21.573523 0.017003
5.428907 21.573523 0.018275
5.742730 21.573523 0.019436
6.056554 21.573523 0.019619
6.370377 21.573523 0.019635
6.684199 21.573523 0.019745
6.998022 21.573523 0.020549
7.311846 21.573523 0.022214
7.625669 21.573523 0.024660
7.939491 21.573523 0.029116
8.253315 21.573523 0.037068
8.567138 21.573523 0.048847
8.880960 21.573523 0.066944
9.194784 21.573523 0.097127
9.508606 21.573523 0.141225
9.822430 21.573523 0.200236
10.136253 21.573523 0.281185
10.450075 21.573523 0.388512
10.763899 21.573523 0.523387
11.077723 21.573523 0.676910
11.391544 21.573523 0.803258
11.705368 21.573523 0.956112
12.019190 21.573523 1.134983
12.333014 21.573523 1.308156
12.646837 21.573523 1.491524
12.960659 21.573523 1.662619
13.274483 21.573523 1.821365
13.588306 21.573523 1.925584
13.902128 21.573523 2.005333
14.215952 21.573523 2.105211
14.529776 21.573523 2.186313
14.843597 21.573523 2.138609
15.157421 21.573523 2.107299
15.471243 21.573523 2.076363
15.785067 21.573523 2.090554
16.098890 21.573523 2.009057
16.412712 21.573523 1.842633
16.726536 21.573523 1.678047
17.040359 21.573523 1.560281
17.354181 21.573523 1.555118
17.668005 21.573523 1.625920
17.981829 21.573523 1.750059
18.295650 21.573523 2.263141
18.609474 21.573523 2.986786
18.923298 21.573523 3.023275
19.237120 21.573523 0.000000
-6.810190 21.259699 0.000000
-6.496367 21.259699 0.024263
-6.182544 21.259699 0.017374
-5.868721 21.259699 0.017426
-5.554898 21.259699 0.017664
-5.241075 21.259699 0.017460
-4.927252 21.259699 0.016913
-4.613429 21.259699 0.016603
-4.299606 21.259699 0.016075
-3.985783 21.259699 0.015998
-3.671960 21.259699 0.015901
-3.358137 21.259699 0.016075
-3.044314 21.259699 0.016009
-2.730491 21.259699 0.015399
-2.416668 21.259699 0.015377
-2.102845 21.259699 0.015051
-1.789022 21.259699 0.014505
-1.475199 21.259699 0.014095
-1.161376 21.259699 0.014271
-0.847553 21.259699 0.014467
-0.533730 21.259699 0.014558
-0.219907 21.259699 0.014671
0.093916 21.259699 0.014252
0.407739 21.259699 0.014075
0.721562 21.259699 0.014185
1.035385 21.259699 0.014964
1.349208 21.259699 0.015537
1.663032 21.259699 0.015106
1.976854 21.259699 0.014547
2.290677 21.259699 0.014355
2.604500 21.259699 0.014260
2.918324 21.259699 0.014201
3.232146 21.259699 0.014785
3.545969 21.259699 0.015574
3.859793 21.259699 0.015516
4.173615 21.259699 0.015409
4.487438 21.259699 0.015925
4.801261 21.259699 0.017036
5.115085 21.259699 0.017416
5.428907 21.259699 0.017953
5.742730 21.259699 0.018741
6.056554 21.259699 0.018928
6.370377 21.259699 0.019143
6.684199 21.259699 0.019492
6.998022 21.259699 0.020448
7.311846 21.259699 0.022579
7.625669 21.259699 0.025684
7.939491 21.259699 0.030403
8.253315 21.259699 0.037774
8.567138 21.259699 0.049597
8.880960 21.259699 0.066973
9.194784 21.259699 0.099652
9.508606 21.259699 0.142169
9.822430 21.259699 0.198608
10.136253 21.259699 0.282225
10.450075 21.259699 0.394540
10.763899 21.259699 0.533267
11.077723 21.259699 0.680507
11.391544 21.259699 0.821620
11.705368 21.259699 0.940016
12.019190 21.259699 1.115272
12.333014 21.259699 1.330171
12.646837 21.259699 1.491567
12.960659 21.259699 1.651553
13.274483 21.259699 1.826753
13.588306 21.259699 1.934916
13.902128 21.259699 2.052007
14.215952 21.259699 2.128797
14.529776 21.259699 2.212334
14.843597 21.259699 2.182652
15.157421 21.259699 2.129736
15.471243 21.259699 2.162191
15.785067 21.259699 2.132980
16.098890 21.259699 1.980930
16.412712 21.259699 1.807958
16.726536 21.259699 1.679607
17.040359 21.259699 1.588172
17.354181 21.259699 1.554651
17.668005 21.259699 1.658274
17.981829 21.259699 1.797485
18.295650 21.259699 2.222345
18.609474 21.259699 3.101801
18.923298 21.259699 0.000000
19.237120 21.259699 0.000000
-6.810190 20.945877 0.000000
-6.496367 20.945877 0.023776
-6.182544 20.945877 0.017224
-5.868721 20.945877 0.017109
-5.554898 20.945877 0.016981
-5.241075 20.945877 0.016894
-4.927252 20.945877 0.016915
-4.613429 20.945877 0.016701
-4.299606 20.945877 0.015928
-3.985783 20.945877 0.015801
-3.671960 20.945877 0.016218
-3.358137 20.945877 0.016505
-3.044314 20.945877 0.016106
-2.730491 20.945877 0.015156
-2.416668 20.945877 0.015086
-2.102845 20.945877 0.014810
-1.789022 20.945877 0.014383
-1.475199 20.945877 0.013889
-1.161376 20.945877 0.014148
-0.847553 20.945877 0.014297
-0.533730 20.945877 0.014385
-0.219907 20.945877 0.014455
0.093916 20.945877 0.014160
0.407739 20.945877 0.014327
0.721562 20.945877 0.014283
1.035385 20.945877 0.015032
1.349208 20.945877 0.015550
1.663032 20.945877 0.015014
1.976854 20.945877 0.014447
2.290677 20.945877 0.014087
2.604500 20.945877 0.013870
2.918324 20.945877 0.014250
3.232146 20.945877 0.014961
3.545969 20.945877 0.015425
3.859793 20.945877 0.015623
4.173615 20.945877 0.015865
4.487438 20.945877 0.016582
4.801261 20.945877 0.017303
5.115085 20.945877 0.017071
5.428907 20.945877 0.017342
5.742730 20.945877 0.018121
6.056554 20.945877 0.018526
6.370377 20.945877 0.019361
6.684199 20.945877 0.019900
6.998022 20.945877 0.020775
7.311846 20.945877 0.023410
7.625669 20.945877 0.026742
7.939491 20.945877 0.031581
8.253315 20.945877 0.038723
8.567138 20.945877 0.050212
8.880960 20.945877 0.067054
9.194784 20.945877 0.099281
9.508606 20.945877 0.142379
9.822430 20.945877 0.197119
10.136253 20.945877 0.287726
10.450075 20.945877 0.394225
10.763899 20.945877 0.535263
11.077723 20.945877 0.691791
11.391544 20.945877 0.803106
11.705368 20.945877 0.952578
12.019190 20.945877 1.139846
12.333014 20.945877 1.345229
12.646837 20.945877 1.509632
12.960659 20.945877 1.653626
13.274483 20.945877 1.825449
13.588306 20.945877 1.949258
13.902128 20.945877 2.079239
14.215952 20.945877 2.157952
14.529776 20.945877 2.191848
14.843597 20.945877 2.203228
15.157421 20.945877 2.140704
15.471243 20.945877 2.161281
15.785067 20.945877 2.102395
16.098890 20.945877 1.989511
16.412712 20.945877 1.824941
16.726536 20.945877 1.698410
17.040359 20.945877 1.579362
17.354181 20.945877 1.583788
17.668005 20.945877 1.665169
17.981829 20.945877 1.791856
18.295650 20.945877 2.342438
18.609474 20.945877 3.114694
18.923298 20.945877 0.000000
19.237120 20.945877 0.000000
-6.810190 20.632053 0.000000
-6.496367 20.632053 0.023424
-6.182544 20.632053 0.017221
-5.868721 20.632053 0.016728
-5.554898 20.632053 0.016334
-5.241075 20.632053 0.016191
-4.927252 20.632053 0.016464
-4.613429 20.632053 0.016562
-4.299606 20.632053 0.015952
-3.985783 20.632053 0.015728
-3.671960 20.632053 0.016311
-3.358137 20.632053 0.016392
-3.044314 20.632053 0.015731
-2.730491 20.632053 0.014657
-2.416668 20.632053 0.014570
-2.102845 20.632053 0.014516
-1.789022 20.632053 0.014244
-1.475199 20.632053 0.013770
-1.161376 20.632053 0.014028
-0.847553 20.632053 0.014221
-0.533730 20.632053 0.014494
-0.219907 20.632053 0.014581
0.093916 20.632053 0.014438
0.407739 20.632053 0.014589
0.721562 20.632053 0.014276
1.035385 20.632053 0.014665
1.349208 20.632053 0.015238
1.663032 20.632053 0.014816
1.976854 20.632053 0.014571
2.290677 20.632053 0.014214
2.604500 20.632053 0.013978
2.918324 20.632053 0.014547
3.232146 20.632053 0.015374
3.545969 20.632053 0.015853
3.859793 20.632053 0.015910
4.173615 20.632053 0.016101
4.487438 20.632053 0.016753
4.801261 20.632053 0.016876
5.115085 20.632053 0.016498
5.428907 20.632053 0.017005
5.742730 20.632053 0.017832
6.056554 20.632053 0.018427
6.370377 20.632053 0.019545
6.684199 20.632053 0.020457
6.998022 20.632053 0.021666
7.311846 20.632053 0.024174
7.625669 20.632053 0.027646
7.939491 20.632053 0.032124
8.253315 20.632053 0.039561
8.567138 20.632053 0.050329
8.880960 20.632053 0.067696
9.194784 20.632053 0.098189
9.508606 20.632053 0.143770
9.822430 20.632053 0.203074
10.136253 20.632053 0.293338
10.450075 20.632053 0.401293
10.763899 20.632053 0.528569
11.077723 20.632053 0.665417
11.391544 20.632053 0.805953
11.705368 20.632053 0.975856
12.019190 20.632053 1.149649
12.333014 20.632053 1.338013
12.646837 20.632053 1.522200
12.960659 20.632053 1.706965
13.274483 20.632053 1.838276
13.588306 20.632053 1.965177
13.902128 20.632053 2.058066
14.215952 20.632053 2.132934
14.529776 20.632053 2.139862
14.843597 20.632053 2.194628
15.157421 20.632053 2.209331
15.471243 20.632053 2.174777
15.785067 20.632053 2.075164
16.098890 20.632053 1.963404
16.412712 20.632053 1.887690
16.726536 20.632053 1.701512
17.040359 20.632053 1.578358
17.354181 20.632053 1.611935
17.668005 20.632053 1.644361
17.981829 20.632053 1.820256
18.295650 20.632053 2.362048
18.609474 20.632053 3.163779
18.923298 20.632053 0.000000
19.237120 20.632053 0.000000
-6.810190 20.318230 0.000000
-6.496367 20.318230 0.023270
-6.182544 20.318230 0.017213
-5.868721 20.318230 0.016550
-5.554898 20.318230 0.016137
-5.241075 20.318230 0.015779
-4.927252 20.318230 0.016004
-4.613429 20.318230 0.016236
-4.299606 20.318230 0.015982
-3.985783 20.318230 0.015518
-3.671960 20.318230 0.015804
-3.358137 20.318230 0.015863
-3.044314 20.318230 0.015264
-2.730491 20.318230 0.014253
-2.416668 20.318230 0.014205
-2.102845 20.318230 0.014453
-1.789022 20.318230 0.014143
-1.475199 20.318230 0.013900
-1.161376 20.318230 0.014218
-0.847553 20.318230 0.014380
-0.533730 20.318230 0.014748
-0.219907 20.318230 0.014738
0.093916 20.318230 0.014466
0.407739 20.318230 0.014309
0.721562 20.318230 0.014019
1.035385 20.318230 0.014270
1.349208 20.318230 0.014733
1.663032 20.318230 0.014549
1.976854 20.318230 0.014617
2.290677 20.318230 0.014618
2.604500 20.318230 0.014529
2.918324 20.318230 0.015202
3.232146 20.318230 0.015989
3.545969 20.318230 0.016494
3.859793 20.318230 0.016086
4.173615 20.318230 0.015769
4.487438 20.318230 0.016374
4.801261 20.318230 0.016261
5.115085 20.318230 0.016152
5.428907 20.318230 0.017354
5.742730 20.318230 0.018235
6.056554 20.318230 0.018533
6.370377 20.318230 0.019672
6.684199 20.318230 0.021206
6.998022 20.318230 0.022451
7.311846 20.318230 0.024482
7.625669 20.318230 0.027394
7.939491 20.318230 0.032132
8.253315 20.318230 0.039709
8.567138 20.318230 0.049421
8.880960 20.318230 0.066748
9.194784 20.318230 0.097292
9.508606 20.318230 0.142073
9.822430 20.318230 0.205854
10.136253 20.318230 0.296633
10.450075 20.318230 0.405785
10.763899 20.318230 0.536019
11.077723 20.318230 0.677635
11.391544 20.318230 0.805345
11.705368 20.318230 1.005108
12.019190 20.318230 1.179401
12.333014 20.318230 1.341938
12.646837 20.318230 1.511012
12.960659 20.318230 1.704486
13.274483 20.318230 1.863489
13.588306 20.318230 1.978481
13.902128 20.318230 2.093527
14.215952 20.318230 2.174974
14.529776 20.318230 2.149748
14.843597 20.318230 2.222266
15.157421 20.318230 2.305920
15.471243 20.318230 2.279886
15.785067 20.318230 2.150377
16.098890 20.318230 2.056363
16.412712 20.318230 1.925938
16.726536 20.318230 1.767688
17.040359 20.318230 1.604187
17.354181 20.318230 1.588510
17.668005 20.318230 1.667307
17.981829 20.318230 1.817857
18.295650 20.318230 2.370276
18.609474 20.318230 3.199819
18.923298 20.318230 0.000000
19.237120 20.318230 0.000000
-6.810190 20.004408 0.000000
-6.496367 20.004408 0.022835
-6.182544 20.004408 0.017175
-5.868721 20.004408 0.016592
-5.554898 20.004408 0.016288
-5.241075 20.004408 0.015686
-4.927252 20.004408 0.015718
-4.613429 20.004408 0.015936
-4.299606 20.004408 0.015828
-3.985783 20.004408 0.015236
-3.671960 20.004408 0.015195
-3.358137 20.004408 0.015175
-3.044314 20.004408 0.014876
-2.730491 20.004408 0.014153
-2.416668 20.004408 0.014086
-2.102845 20.004408 0.014471
-1.789022 20.004408 0.014190
-1.475199 20.004408 0.014221
-1.161376 20.004408 0.014631
-0.847553 20.004408 0.014930
-0.533730 20.004408 0.014965
-0.219907 20.004408 0.014827
0.093916 20.004408 0.014225
0.407739 20.004408 0.013795
0.721562 20.004408 0.013795
1.035385 20.004408 0.014037
1.349208 20.004408 0.014522
1.663032 20.004408 0.014487
1.976854 20.004408 0.014796
2.290677 20.004408 0.015145
2.604500 20.004408 0.015190
2.918324 20.004408 0.015556
3.232146 20.004408 0.016169
3.545969 20.004408 0.016591
3.859793 20.004408 0.015922
4.173615 20.004408 0.015402
4.487438 20.004408 0.015929
4.801261 20.004408 0.016175
5.115085 20.004408 0.016399
5.428907 20.004408 0.017953
5.742730 20.004408 0.018915
6.056554 20.004408 0.018863
6.370377 20.004408 0.019934
6.684199 20.004408 0.021508
6.998022 20.004408 0.022415
7.311846 20.004408 0.023931
7.625669 20.004408 0.026351
7.939491 20.004408 0.031534
8.253315 20.004408 0.039525
8.567138 20.004408 0.049703
8.880960 20.004408 0.068658
9.194784 20.004408 0.098725
9.508606 20.004408 0.147763
9.822430 20.004408 0.211529
10.136253 20.004408 0.292847
10.450075 20.004408 0.407087
10.763899 20.004408 0.540242
11.077723 20.004408 0.675917
11.391544 20.004408 0.832570
11.705368 20.004408 1.003242
12.019190 20.004408 1.188117
12.333014 20.004408 1.352370
12.646837 20.004408 1.522637
12.960659 20.004408 1.706595
13.274483 20.004408 1.848607
13.588306 20.004408 2.024374
13.902128 20.004408 2.126386
14.215952 20.004408 2.206776
14.529776 20.004408 2.210589
14.843597 20.004408 2.251734
15.157421 20.004408 2.375407
15.471243 20.004408 2.353413
15.785067 20.004408 2.236048
16.098890 20.004408 2.143523
16.412712 20.004408 1.950797
16.726536 20.004408 1.773144
17.040359 20.004408 1.674516
17.354181 20.004408 1.651743
17.668005 20.004408 1.661940
17.981829 20.004408 1.896328
18.295650 20.004408 2.382216
18.609474 20.004408 3.211647
18.923298 20.004408 0.000000
19.237120 20.004408 0.000000
-6.810190 19.690584 0.000000
-6.496367 19.690584 0.022291
-6.182544 19.690584 0.016977
-5.868721 19.690584 0.016745
-5.554898 19.690584 0.016433
-5.241075 19.690584 0.015660
-4.927252 19.690584 0.015468
-4.613429 19.690584 0.015542
-4.299606 19.690584 0.015444
-3.985783 19.690584 0.014916
-3.671960 19.690584 0.014694
-3.358137 19.690584 0.014717
-3.044314 19.690584 0.014632
-2.730491 19.690584 0.014145
-2.416668 19.690584 0.014050
-2.102845 19.690584 0.014466
-1.789022 19.690584 0.014298
-1.475199 19.690584 0.014454
-1.161376 19.690584 0.015001
-0.847553 19.690584 0.014983
-0.533730 19.690584 0.014704
-0.219907 19.690584 0.014496
0.093916 19.690584 0.013975
0.407739 19.690584 0.013524
0.721562 19.690584 0.013702
1.035385 19.690584 0.014126
1.349208 19.690584 0.014687
1.663032 19.690584 0.014809
1.976854 19.690584 0.015271
2.290677 19.690584 0.015871
2.604500 19.690584 0.015648
2.918324 19.690584 0.015346
3.232146 19.690584 0.015561
3.545969 19.690584 0.015815
3.859793 19.690584 0.015517
4.173615 19.690584 0.015326
4.487438 19.690584 0.015788
4.801261 19.690584 0.016308
5.115085 19.690584 0.016930
5.428907 19.690584 0.018315
5.742730 19.690584 0.019398
6.056554 19.690584 0.019356
6.370377 19.690584 0.019960
6.684199 19.690584 0.020908
6.998022 19.690584 0.021813
7.311846 19.690584 0.023229
7.625669 19.690584 0.026079
7.939491 19.690584 0.031388
8.253315 19.690584 0.039591
8.567138 19.690584 0.050605
8.880960 19.690584 0.068856
9.194784 19.690584 0.101628
9.508606 19.690584 0.150722
9.822430 19.690584 0.214434
10.136253 19.690584 0.304259
10.450075 19.690584 0.407505
10.763899 19.690584 0.540259
11.077723 19.690584 0.683757
11.391544 19.690584 0.850294
11.705368 19.690584 1.029541
12.019190 19.690584 1.184609
12.333014 19.690584 1.363394
12.646837 19.690584 1.540359
12.960659 19.690584 1.691840
13.274483 19.690584 1.833959
13.588306 19.690584 2.029150
13.902128 19.690584 2.118558
14.215952 19.690584 2.214060
14.529776 19.690584 2.306810
14.843597 19.690584 2.287034
15.157421 19.690584 2.323907
15.471243 19.690584 2.347131
15.785067 19.690584 2.309619
16.098890 19.690584 2.199160
16.412712 19.690584 1.946320
16.726536 19.690584 1.810732
17.040359 19.690584 1.676762
17.354181 19.690584 1.665773
17.668005 19.690584 1.743730
17.981829 19.690584 1.882623
18.295650 19.690584 2.512132
18.609474 19.690584 3.405332
18.923298 19.690584 0.000000
19.237120 19.690584 0.000000
-6.810190 19.376760 0.000000
-6.496367 19.376760 0.021915
-6.182544 19.376760 0.016576
-5.868721 19.376760 0.016485
-5.554898 19.376760 0.016359
-5.241075 19.376760 0.015535
-4.927252 19.376760 0.015289
-4.613429 19.376760 0.015103
-4.299606 19.376760 0.015065
-3.985783 19.376760 0.014729
-3.671960 19.376760 0.014435
-3.358137 19.376760 0.014559
-3.044314 19.376760 0.014711
-2.730491 19.376760 0.014313
-2.416668 19.376760 0.014266
-2.102845 19.376760 0.014416
-1.789022 19.376760 0.014178
-1.475199 19.376760 0.014247
-1.161376 19.376760 0.014666
-0.847553 19.376760 0.014428
-0.533730 19.376760 0.014120
-0.219907 19.376760 0.014146
0.093916 19.376760 0.013713
0.407739 19.376760 0.013467
0.721562 19.376760 0.013750
1.035385 19.376760 0.014427
1.349208 19.376760 0.015033
1.663032 19.376760 0.015171
1.976854 19.376760 0.015545
2.290677 19.376760 0.016109
2.604500 19.376760 0.015499
2.918324 19.376760 0.014844
3.232146 19.376760 0.014990
3.545969 19.376760 0.015231
3.859793 19.376760 0.015293
4.173615 19.376760 0.015447
4.487438 19.376760 0.016019
4.801261 19.376760 0.016827
5.115085 19.376760 0.017485
5.428907 19.376760 0.018183
5.742730 19.376760 0.019138
6.056554 19.376760 0.019408
6.370377 19.376760 0.019681
6.684199 19.376760 0.020236
6.998022 19.376760 0.021081
7.311846 19.376760 0.022834
7.625669 19.376760 0.026849
7.939491 19.376760 0.032209
8.253315 19.376760 0.040077
8.567138 19.376760 0.051684
8.880960 19.376760 0.069981
9.194784 19.376760 0.100757
9.508606 19.376760 0.153981
9.822430 19.376760 0.216997
10.136253 19.376760 0.291534
10.450075 19.376760 0.401631
10.763899 19.376760 0.526080
11.077723 19.376760 0.685917
11.391544 19.376760 0.858404
11.705368 19.376760 1.022852
12.019190 19.376760 1.186892
12.333014 19.376760 1.369310
12.646837 19.376760 1.526719
12.960659 19.376760 1.670676
13.274483 19.376760 1.810076
13.588306 19.376760 2.043905
13.902128 19.376760 2.152002
14.215952 19.376760 2.245173
14.529776 19.376760 2.349422
14.843597 19.376760 2.271352
15.157421 19.376760 2.328718
15.471243 19.376760 2.407308
15.785067 19.376760 2.356067
16.098890 19.376760 2.196383
16.412712 19.376760 1.956755
16.726536 19.376760 1.807728
17.040359 19.376760 1.681839
17.354181 19.376760 1.709058
17.668005 19.376760 1.750537
17.981829 19.376760 1.994424
18.295650 19.376760 2.629511
18.609474 19.376760 3.499058
18.923298 19.376760 0.000000
19.237120 19.376760 0.000000
-6.810190 19.062939 0.000000
-6.496367 19.062939 0.021383
-6.182544 19.062939 0.016039
-5.868721 19.062939 0.015782
-5.554898 19.062939 0.015735
-5.241075 19.062939 0.015451
-4.927252 19.062939 0.015322
-4.613429 19.062939 0.014836
-4.299606 19.062939 0.014728
-3.985783 19.062939 0.014577
-3.671960 19.062939 0.014526
-3.358137 19.062939 0.014761
-3.044314 19.062939 0.014856
-2.730491 19.062939 0.014610
-2.416668 19.062939 0.014415
-2.102845 19.062939 0.014283
-1.789022 19.062939 0.013818
-1.475199 19.062939 0.013641
-1.161376 19.062939 0.013875
-0.847553 19.062939 0.013865
-0.533730 19.062939 0.013768
-0.219907 19.062939 0.013762
0.093916 19.062939 0.013526
0.407739 19.062939 0.013548
0.721562 19.062939 0.013870
1.035385 19.062939 0.014639
1.349208 19.062939 0.015177
1.663032 19.062939 0.015024
1.976854 19.062939 0.015191
2.290677 19.062939 0.015535
2.604500 19.062939 0.015066
2.918324 19.062939 0.014675
3.232146 19.062939 0.014937
3.545969 19.062939 0.015048
3.859793 19.062939 0.015294
4.173615 19.062939 0.015820
4.487438 19.062939 0.016668
4.801261 19.062939 0.017463
5.115085 19.062939 0.017651
5.428907 19.062939 0.017707
5.742730 19.062939 0.018652
6.056554 19.062939 0.019148
6.370377 19.062939 0.019530
6.684199 19.062939 0.019898
6.998022 19.062939 0.021085
7.311846 19.062939 0.023156
7.625669 19.062939 0.027350
7.939491 19.062939 0.033152
8.253315 19.062939 0.041102
8.567138 19.062939 0.052141
8.880960 19.062939 0.070820
9.194784 19.062939 0.101609
9.508606 19.062939 0.151514
9.822430 19.062939 0.215136
10.136253 19.062939 0.294662
10.450075 19.062939 0.413322
10.763899 19.062939 0.543619
11.077723 19.062939 0.686589
11.391544 19.062939 0.861810
11.705368 19.062939 1.015439
12.019190 19.062939 1.194116
12.333014 19.062939 1.349074
12.646837 19.062939 1.521514
12.960659 19.062939 1.726715
13.274483 19.062939 1.901772
13.588306 19.062939 2.021346
13.902128 19.062939 2.191329
14.215952 19.062939 2.270079
14.529776 19.062939 2.288579
14.843597 19.062939 2.324989
15.157421 19.062939 2.396055
15.471243 19.062939 2.405835
15.785067 19.062939 2.331923
16.098890 19.062939 2.122139
16.412712 19.062939 1.974102
16.726536 19.062939 1.862119
17.040359 19.062939 1.761870
17.354181 19.062939 1.719097
17.668005 19.062939 1.768808
17.981829 19.062939 2.049495
18.295650 19.062939 2.725349
18.609474 19.062939 3.671380
18.923298 19.062939 0.000000
19.237120 19.062939 0.000000
-6.810190 18.749115 0.000000
-6.496367 18.749115 0.021067
-6.182544 18.749115 0.015425
-5.868721 18.749115 0.015116
-5.554898 18.749115 0.015085
-5.241075 18.749115 0.015052
-4.927252 18.749115 0.015269
-4.613429 18.749115 0.014729
-4.299606 18.749115 0.014587
-3.985783 18.749115 0.014599
-3.671960 18.749115 0.014786
-3.358137 18.749115 0.015075
-3.044314 18.749115 0.014892
-2.730491 18.749115 0.014431
-2.416668 18.749115 0.014182
-2.102845 18.749115 0.013965
-1.789022 18.749115 0.013365
-1.475199 18.749115 0.013155
-1.161376 18.749115 0.013318
-0.847553 18.749115 0.013510
-0.533730 18.749115 0.013604
-0.219907 18.749115 0.013572
0.093916 18.749115 0.013536
0.407739 18.749115 0.013791
0.721562 18.749115 0.014054
1.035385 18.749115 0.014661
1.349208 18.749115 0.014906
1.663032 18.749115 0.014420
1.976854 18.749115 0.014592
2.290677 18.749115 0.014829
2.604500 18.749115 0.014657
2.918324 18.749115 0.014743
3.232146 18.749115 0.015279
3.545969 18.749115 0.015358
3.859793 18.749115 0.015737
4.173615 18.749115 0.016363
4.487438 18.749115 0.017181
4.801261 18.749115 0.017539
5.115085 18.749115 0.017309
5.428907 18.749115 0.017260
5.742730 18.749115 0.018163
6.056554 18.749115 0.019041
6.370377 18.749115 0.019642
6.684199 18.749115 0.020257
6.998022 18.749115 0.021421
7.311846 18.749115 0.023643
7.625669 18.749115 0.027798
7.939491 18.749115 0.033453
8.253315 18.749115 0.041801
8.567138 18.749115 0.052972
8.880960 18.749115 0.071341
9.194784 18.749115 0.102773
9.508606 18.749115 0.152242
9.822430 18.749115 0.217053
10.136253 18.749115 0.302578
10.450075 18.749115 0.418578
10.763899 18.749115 0.556786
11.077723 18.749115 0.702075
11.391544 18.749115 0.838389
11.705368 18.749115 0.999857
12.019190 18.749115 1.190092
12.333014 18.749115 1.375355
12.646837 18.749115 1.565292
12.960659 18.749115 1.736270
13.274483 18.749115 1.909530
13.588306 18.749115 2.050330
13.902128 18.749115 2.187496
14.215952 18.749115 2.311414
14.529776 18.749115 2.343276
14.843597 18.749115 2.344832
15.157421 18.749115 2.463649
15.471243 18.749115 2.418616
15.785067 18.749115 2.317242
16.098890 18.749115 2.167450
16.412712 18.749115 2.008230
16.726536 18.749115 1.902008
17.040359 18.749115 1.788218
17.354181 18.749115 1.805674
17.668005 18.749115 1.845677
17.981829 18.749115 2.088089
18.295650 18.749115 2.789973
18.609474 18.749115 3.827786
18.923298 18.749115 0.000000
19.237120 18.749115 0.000000
-6.810190 18.435291 0.000000
-6.496367 18.435291 0.020727
-6.182544 18.435291 0.015076
-5.868721 18.435291 0.014664
-5.554898 18.435291 0.014710
-5.241075 18.435291 0.014753
-4.927252 18.435291 0.015104
-4.613429 18.435291 0.014986
-4.299606 18.435291 0.014753
-3.985783 18.435291 0.014528
-3.671960 18.435291 0.014647
-3.358137 18.435291 0.014803
-3.044314 18.435291 0.014369
-2.730491 18.435291 0.013893
-2.416668 18.435291 0.013717
-2.102845 18.435291 0.013586
-1.789022 18.435291 0.013113
-1.475199 18.435291 0.013188
-1.161376 18.435291 0.013325
-0.847553 18.435291 0.013532
-0.533730 18.435291 0.013598
-0.219907 18.435291 0.013623
0.093916 18.435291 0.013855
0.407739 18.435291 0.014027
0.721562 18.435291 0.014046
1.035385 18.435291 0.014480
1.349208 18.435291 0.014451
1.663032 18.435291 0.014040
1.976854 18.435291 0.014407
2.290677 18.435291 0.014696
2.604500 18.435291 0.014498
2.918324 18.435291 0.014997
3.232146 18.435291 0.015545
3.545969 18.435291 0.015924
3.859793 18.435291 0.016398
4.173615 18.435291 0.016689
4.487438 18.435291 0.017171
4.801261 18.435291 0.017003
5.115085 18.435291 0.016665
5.428907 18.435291 0.017296
5.742730 18.435291 0.018125
6.056554 18.435291 0.019057
6.370377 18.435291 0.020008
6.684199 18.435291 0.021109
6.998022 18.435291 0.022148
7.311846 18.435291 0.024162
7.625669 18.435291 0.028025
7.939491 18.435291 0.033710
8.253315 18.435291 0.042147
8.567138 18.435291 0.054026
8.880960 18.435291 0.072055
9.194784 18.435291 0.103197
9.508606 18.435291 0.150442
9.822430 18.435291 0.222632
10.136253 18.435291 0.309390
10.450075 18.435291 0.425425
10.763899 18.435291 0.565589
11.077723 18.435291 0.688514
11.391544 18.435291 0.851263
11.705368 18.435291 1.026132
12.019190 18.435291 1.197423
12.333014 18.435291 1.374927
12.646837 18.435291 1.592168
12.960659 18.435291 1.711989
13.274483 18.435291 1.906472
13.588306 18.435291 2.032377
13.902128 18.435291 2.177623
14.215952 18.435291 2.349065
14.529776 18.435291 2.385684
14.843597 18.435291 2.347459
15.157421 18.435291 2.443521
15.471243 18.435291 2.468205
15.785067 18.435291 2.306110
16.098890 18.435291 2.247051
16.412712 18.435291 2.046673
16.726536 18.435291 1.911148
17.040359 18.435291 1.855318
17.354181 18.435291 1.893986
17.668005 18.435291 1.917030
17.981829 18.435291 2.212622
18.295650 18.435291 2.877341
18.609474 18.435291 3.977231
18.923298 18.435291 0.000000
19.237120 18.435291 0.000000
-6.810190 18.121469 0.000000
-6.496367 18.121469 0.020430
-6.182544 18.121469 0.014852
-5.868721 18.121469 0.014513
-5.554898 18.121469 0.014550
-5.241075 18.121469 0.014697
-4.927252 18.121469 0.015179
-4.613429 18.121469 0.015384
-4.299606 18.121469 0.015089
-3.985783 18.121469 0.014350
-3.671960 18.121469 0.014137
-3.358137 18.121469 0.013987
-3.044314 18.121469 0.013710
-2.730491 18.121469 0.013455
-2.416668 18.121469 0.013272
-2.102845 18.121469 0.013248
-1.789022 18.121469 0.013349
-1.475199 18.121469 0.013624
-1.161376 18.121469 0.013802
-0.847553 18.121469 0.014056
-0.533730 18.121469 0.013892
-0.219907 18.121469 0.014009
0.093916 18.121469 0.014153
0.407739 18.121469 0.013822
0.721562 18.121469 0.013774
1.035385 18.121469 0.014269
1.349208 18.121469 0.014274
1.663032 18.121469 0.014107
1.976854 18.121469 0.014850
2.290677 18.121469 0.015059
2.604500 18.121469 0.014675
2.918324 18.121469 0.015111
3.232146 18.121469 0.015696
3.545969 18.121469 0.016185
3.859793 18.121469 0.016594
4.173615 18.121469 0.016764
4.487438 18.121469 0.016866
4.801261 18.121469 0.016455
5.115085 18.121469 0.016390
5.428907 18.121469 0.017662
5.742730 18.121469 0.018315
6.056554 18.121469 0.019254
6.370377 18.121469 0.020639
6.684199 18.121469 0.021834
6.998022 18.121469 0.022737
7.311846 18.121469 0.024615
7.625669 18.121469 0.028281
7.939491 18.121469 0.033954
8.253315 18.121469 0.041509
8.567138 18.121469 0.054106
8.880960 18.121469 0.073017
9.194784 18.121469 0.104216
9.508606 18.121469 0.152899
9.822430 18.121469 0.220732
10.136253 18.121469 0.309976
10.450075 18.121469 0.422274
10.763899 18.121469 0.557945
11.077723 18.121469 0.717232
11.391544 18.121469 0.851339
11.705368 18.121469 1.015651
12.019190 18.121469 1.201269
12.333014 18.121469 1.392052
12.646837 18.121469 1.590336
12.960659 18.121469 1.741267
13.274483 18.121469 1.904791
13.588306 18.121469 2.059568
13.902128 18.121469 2.231919
14.215952 18.121469 2.334699
14.529776 18.121469 2.419818
14.843597 18.121469 2.397507
15.157421 18.121469 2.411356
15.471243 18.121469 2.475121
15.785067 18.121469 2.373718
16.098890 18.121469 2.261174
16.412712 18.121469 2.079716
16.726536 18.121469 1.950157
17.040359 18.121469 1.922761
17.354181 18.121469 1.969159
17.668005 18.121469 1.959333
17.981829 18.121469 2.233072
18.295650 18.121469 2.936593
18.609474 18.121469 4.008370
18.923298 18.121469 0.000000
19.237120 18.121469 0.000000
-6.810190 17.807646 0.000000
-6.496367 17.807646 0.020041
-6.182544 17.807646 0.014854
-5.868721 17.807646 0.014685
-5.554898 17.807646 0.014652
-5.241075 17.807646 0.014789
-4.927252 17.807646 0.015163
-4.613429 17.807646 0.015408
-4.299606 17.807646 0.014785
-3.985783 17.807646 0.013944
-3.671960 17.807646 0.013558
-3.358137 17.807646 0.013514
-3.044314 17.807646 0.013475
-2.730491 17.807646 0.013334
-2.416668 17.807646 0.013124
-2.102845 17.807646 0.013235
-1.789022 17.807646 0.013667
-1.475199 17.807646 0.014264
-1.161376 17.807646 0.014400
-0.847553 17.807646 0.014407
-0.533730 17.807646 0.014085
-0.219907 17.807646 0.014245
0.093916 17.807646 0.014258
0.407739 17.807646 0.013661
0.721562 17.807646 0.013563
1.035385 17.807646 0.014240
1.349208 17.807646 0.014379
1.663032 17.807646 0.014631
1.976854 17.807646 0.015459
2.290677 17.807646 0.015576
2.604500 17.807646 0.015144
2.918324 17.807646 0.015340
3.232146 17.807646 0.015846
3.545969 17.807646 0.016066
3.859793 17.807646 0.016112
4.173615 17.807646 0.016329
4.487438 17.807646 0.016633
4.801261 17.807646 0.016450
5.115085 17.807646 0.016525
5.428907 17.807646 0.017916
5.742730 17.807646 0.018603
6.056554 17.807646 0.019607
6.370377 17.807646 0.021078
6.684199 17.807646 0.022130
6.998022 17.807646 0.022680
7.311846 17.807646 0.024766
7.625669 17.807646 0.028326
7.939491 17.807646 0.033716
8.253315 17.807646 0.041338
8.567138 17.807646 0.053983
8.880960 17.807646 0.072977
9.194784 17.807646 0.105522
9.508606 17.807646 0.157265
9.822430 17.807646 0.222720
10.136253 17.807646 0.307868
10.450075 17.807646 0.417072
10.763899 17.807646 0.553391
11.077723 17.807646 0.707941
11.391544 17.807646 0.855660
11.705368 17.807646 1.028158
12.019190 17.807646 1.235958
12.333014 17.807646 1.406451
12.646837 17.807646 1.573416
12.960659 17.807646 1.771226
13.274483 17.807646 1.884485
13.588306 17.807646 2.119849
13.902128 17.807646 2.264193
14.215952 17.807646 2.312060
14.529776 17.807646 2.382777
14.843597 17.807646 2.355577
15.157421 17.807646 2.422113
15.471243 17.807646 2.446764
15.785067 17.807646 2.390153
16.098890 17.807646 2.313553
16.412712 17.807646 2.078244
16.726536 17.807646 1.962439
17.040359 17.807646 1.946834
17.354181 17.807646 1.948591
17.668005 17.807646 2.022557
17.981829 17.807646 2.328664
18.295650 17.807646 3.070576
18.609474 17.807646 4.185021
18.923298 17.807646 0.000000
19.237120 17.807646 0.000000
-6.810190 17.493824 0.000000
-6.496367 17.493824 0.020012
-6.182544 17.493824 0.014975
-5.868721 17.493824 0.014921
-5.554898 17.493824 0.014739
-5.241075 17.493824 0.014618
-4.927252 17.493824 0.014864
-4.613429 17.493824 0.014959
-4.299606 17.493824 0.014249
-3.985783 17.493824 0.013557
-3.671960 17.493824 0.013364
-3.358137 17.493824 0.013327
-3.044314 17.493824 0.013554
-2.730491 17.493824 0.013356
-2.416668 17.493824 0.013279
-2.102845 17.493824 0.013598
-1.789022 17.493824 0.014002
-1.475199 17.493824 0.014421
-1.161376 17.493824 0.014333
-0.847553 17.493824 0.014201
-0.533730 17.493824 0.013928
-0.219907 17.493824 0.014147
0.093916 17.493824 0.014391
0.407739 17.493824 0.013835
0.721562 17.493824 0.013883
1.035385 17.493824 0.014278
1.349208 17.493824 0.014794
1.663032 17.493824 0.015136
1.976854 17.493824 0.015680
2.290677 17.493824 0.015879
2.604500 17.493824 0.015421
2.918324 17.493824 0.015259
3.232146 17.493824 0.015748
3.545969 17.493824 0.015741
3.859793 17.493824 0.015253
4.173615 17.493824 0.015913
4.487438 17.493824 0.016727
4.801261 17.493824 0.016859
5.115085 17.493824 0.016980
5.428907 17.493824 0.017996
5.742730 17.493824 0.018737
6.056554 17.493824 0.019842
6.370377 17.493824 0.021125
6.684199 17.493824 0.021699
6.998022 17.493824 0.022520
7.311846 17.493824 0.024961
7.625669 17.493824 0.028490
7.939491 17.493824 0.033496
8.253315 17.493824 0.041207
8.567138 17.493824 0.054224
8.880960 17.493824 0.074500
9.194784 17.493824 0.107690
9.508606 17.493824 0.158974
9.822430 17.493824 0.230083
10.136253 17.493824 0.309244
10.450075 17.493824 0.410158
10.763899 17.493824 0.543137
11.077723 17.493824 0.703234
11.391544 17.493824 0.847657
11.705368 17.493824 1.025374
12.019190 17.493824 1.217002
12.333014 17.493824 1.415476
12.646837 17.493824 1.547284
12.960659 17.493824 1.763404
13.274483 17.493824 1.938749
13.588306 17.493824 2.115310
13.902128 17.493824 2.269623
14.215952 17.493824 2.354799
14.529776 17.493824 2.395544
14.843597 17.493824 2.398400
15.157421 17.493824 2.445309
15.471243 17.493824 2.495374
15.785067 17.493824 2.396332
16.098890 17.493824 2.269044
16.412712 17.493824 2.172721
16.726536 17.493824 1.987909
17.040359 17.493824 1.922627
17.354181 17.493824 1.943171
17.668005 17.493824 2.015095
17.981829 17.493824 2.378735
18.295650 17.493824 3.161633
18.609474 17.493824 4.245322
18.923298 17.493824 0.000000
19.237120 17.493824 0.000000
-6.810190 17.180000 0.000000
-6.496367 17.180000 0.019973
-6.182544 17.180000 0.014903
-5.868721 17.180000 0.014723
-5.554898 17.180000 0.014421
-5.241075 17.180000 0.014352
-4.927252 17.180000 0.014477
-4.613429 17.180000 0.014258
-4.299606 17.180000 0.013739
-3.985783 17.180000 0.013455
-3.671960 17.180000 0.013476
-3.358137 17.180000 0.013719
-3.044314 17.180000 0.013834
-2.730491 17.180000 0.013529
-2.416668 17.180000 0.013592
-2.102845 17.180000 0.013855
-1.789022 17.180000 0.013784
-1.475199 17.180000 0.013843
-1.161376 17.180000 0.013658
-0.847553 17.180000 0.013729
-0.533730 17.180000 0.013679
-0.219907 17.180000 0.014171
0.093916 17.180000 0.014455
0.407739 17.180000 0.014141
0.721562 17.180000 0.014117
1.035385 17.180000 0.014484
1.349208 17.180000 0.015004
1.663032 17.180000 0.015330
1.976854 17.180000 0.015297
2.290677 17.180000 0.015594
2.604500 17.180000 0.015469
2.918324 17.180000 0.015117
3.232146 17.180000 0.015476
3.545969 17.180000 0.015547
3.859793 17.180000 0.015060
4.173615 17.180000 0.016000
4.487438 17.180000 0.017129
4.801261 17.180000 0.017244
5.115085 17.180000 0.017396
5.428907 17.180000 0.018175
5.742730 17.180000 0.018885
6.056554 17.180000 0.019756
6.370377 17.180000 0.020632
6.684199 17.180000 0.021315
6.998022 17.180000 0.022590
7.311846 17.180000 0.025217
7.625669 17.180000 0.029214
7.939491 17.180000 0.033800
8.253315 17.180000 0.042262
8.567138 17.180000 0.053754
8.880960 17.180000 0.075203
9.194784 17.180000 0.110423
9.508606 17.180000 0.157867
9.822430 17.180000 0.229347
10.136253 17.180000 0.315435
10.450075 17.180000 0.418878
10.763899 17.180000 0.545460
11.077723 17.180000 0.687876
11.391544 17.180000 0.852601
11.705368 17.180000 1.020639
12.019190 17.180000 1.204234
12.333014 17.180000 1.391064
12.646837 17.180000 1.563328
12.960659 17.180000 1.750435
13.274483 17.180000 1.884722
13.588306 17.180000 2.085254
13.902128 17.180000 2.223514
14.215952 17.180000 2.405057
14.529776 17.180000 2.476238
14.843597 17.180000 2.489224
15.157421 17.180000 2.488626
15.471243 17.180000 2.498523
15.785067 17.180000 2.387855
16.098890 17.180000 2.283626
16.412712 17.180000 2.137141
16.726536 17.180000 2.091709
17.040359 17.180000 1.978925
17.354181 17.180000 1.977044
17.668005 17.180000 2.113694
17.981829 17.180000 2.361844
18.295650 17.180000 3.167687
18.609474 17.180000 4.496665
18.923298 17.180000 0.000000
19.237120 17.180000 0.000000
-6.810190 16.866177 0.000000
-6.496367 16.866177 0.019522
-6.182544 16.866177 0.014401
-5.868721 16.866177 0.014282
-5.554898 16.866177 0.013953
-5.241075 16.866177 0.013971
-4.927252 16.866177 0.014158
-4.613429 16.866177 0.013884
-4.299606 16.866177 0.013584
-3.985783 16.866177 0.013603
-3.671960 16.866177 0.013838
-3.358137 16.866177 0.014110
-3.044314 16.866177 0.014058
-2.730491 16.866177 0.013616
-2.416668 16.866177 0.013635
-2.102845 16.866177 0.013702
-1.789022 16.866177 0.013208
-1.475199 16.866177 0.013074
-1.161376 16.866177 0.013162
-0.847553 16.866177 0.013322
-0.533730 16.866177 0.013531
-0.219907 16.866177 0.014196
0.093916 16.866177 0.014633
0.407739 16.866177 0.014443
0.721562 16.866177 0.014345
1.035385 16.866177 0.014612
1.349208 16.866177 0.015032
1.663032 16.866177 0.015028
1.976854 16.866177 0.014705
2.290677 16.866177 0.015078
2.604500 16.866177 0.015237
2.918324 16.866177 0.015086
3.232146 16.866177 0.015504
3.545969 16.866177 0.015961
3.859793 16.866177 0.015605
4.173615 16.866177 0.016424
4.487438 16.866177 0.017509
4.801261 16.866177 0.017433
5.115085 16.866177 0.017686
5.428907 16.866177 0.018237
5.742730 16.866177 0.018754
6.056554 16.866177 0.019662
6.370377 16.866177 0.020379
6.684199 16.866177 0.021302
6.998022 16.866177 0.022851
7.311846 16.866177 0.025420
7.625669 16.866177 0.029374
7.939491 16.866177 0.034307
8.253315 16.866177 0.043193
8.567138 16.866177 0.056622
8.880960 16.866177 0.075947
9.194784 16.866177 0.113054
9.508606 16.866177 0.156148
9.822430 16.866177 0.227564
10.136253 16.866177 0.324995
10.450075 16.866177 0.433144
10.763899 16.866177 0.562746
11.077723 16.866177 0.695708
11.391544 16.866177 0.832347
11.705368 16.866177 1.013191
12.019190 16.866177 1.199927
12.333014 16.866177 1.418240
12.646837 16.866177 1.560382
12.960659 16.866177 1.751433
13.274483 16.866177 1.883131
13.588306 16.866177 2.051683
13.902128 16.866177 2.231907
14.215952 16.866177 2.396358
14.529776 16.866177 2.439687
14.843597 16.866177 2.498392
15.157421 16.866177 2.515799
15.471243 16.866177 2.512351
15.785067 16.866177 2.358657
16.098890 16.866177 2.237327
16.412712 16.866177 2.107102
16.726536 16.866177 2.155108
17.040359 16.866177 2.018297
17.354181 16.866177 2.029914
17.668005 16.866177 2.124581
17.981829 16.866177 2.522532
18.295650 16.866177 3.290821
18.609474 16.866177 4.514784
18.923298 16.866177 0.000000
19.237120 16.866177 0.000000
-6.810190 16.552353 0.000000
-6.496367 16.552353 0.018899
-6.182544 16.552353 0.013783
-5.868721 16.552353 0.013978
-5.554898 16.552353 0.013847
-5.241075 16.552353 0.013968
-4.927252 16.552353 0.014307
-4.613429 16.552353 0.014048
-4.299606 16.552353 0.013620
-3.985783 16.552353 0.013716
-3.671960 16.552353 0.014035
-3.358137 16.552353 0.014038
-3.044314 16.552353 0.013814
-2.730491 16.552353 0.013365
-2.416668 16.552353 0.013436
-2.102845 16.552353 0.013379
-1.789022 16.552353 0.012737
-1.475199 16.552353 0.012792
-1.161376 16.552353 0.013021
-0.847553 16.552353 0.013274
-0.533730 16.552353 0.013481
-0.219907 16.552353 0.014189
0.093916 16.552353 0.014676
0.407739 16.552353 0.014455
0.721562 16.552353 0.014309
1.035385 16.552353 0.014595
1.349208 16.552353 0.014709
1.663032 16.552353 0.014508
1.976854 16.552353 0.014372
2.290677 16.552353 0.014882
2.604500 16.552353 0.015098
2.918324 16.552353 0.015265
3.232146 16.552353 0.015899
3.545969 16.552353 0.016404
3.859793 16.552353 0.016246
4.173615 16.552353 0.016629
4.487438 16.552353 0.017301
4.801261 16.552353 0.017284
5.115085 16.552353 0.017573
5.428907 16.552353 0.018041
5.742730 16.552353 0.018573
6.056554 16.552353 0.019487
6.370377 16.552353 0.020143
6.684199 16.552353 0.021551
6.998022 16.552353 0.022981
7.311846 16.552353 0.025270
7.625669 16.552353 0.029170
7.939491 16.552353 0.034742
8.253315 16.552353 0.042936
8.567138 16.552353 0.056534
8.880960 16.552353 0.078716
9.194784 16.552353 0.115378
9.508606 16.552353 0.159941
9.822430 16.552353 0.234345
10.136253 16.552353 0.336811
10.450075 16.552353 0.445191
10.763899 16.552353 0.585215
11.077723 16.552353 0.723010
11.391544 16.552353 0.865666
11.705368 16.552353 1.000334
12.019190 16.552353 1.214754
12.333014 16.552353 1.404725
12.646837 16.552353 1.563968
12.960659 16.552353 1.711743
13.274483 16.552353 1.877164
13.588306 16.552353 2.011431
13.902128 16.552353 2.268997
14.215952 16.552353 2.465644
14.529776 16.552353 2.486522
14.843597 16.552353 2.483100
15.157421 16.552353 2.537060
15.471243 16.552353 2.538992
15.785067 16.552353 2.476483
16.098890 16.552353 2.232273
16.412712 16.552353 2.122049
16.726536 16.552353 2.095740
17.040359 16.552353 2.029351
17.354181 16.552353 2.049772
17.668005 16.552353 2.145434
17.981829 16.552353 2.457881
18.295650 16.552353 3.298356
18.609474 16.552353 4.673070
18.923298 16.552353 0.000000
19.237120 16.552353 0.000000
-6.810190 16.238533 0.000000
-6.496367 16.238533 0.018347
-6.182544 16.238533 0.013544
-5.868721 16.238533 0.013885
-5.554898 16.238533 0.013904
-5.241075 16.238533 0.014213
-4.927252 16.238533 0.014557
-4.613429 16.238533 0.014324
-4.299606 16.238533 0.013693
-3.985783 16.238533 0.013479
-3.671960 16.238533 0.013601
-3.358137 16.238533 0.013524
-3.044314 16.238533 0.013195
-2.730491 16.238533 0.013031
-2.416668 16.238533 0.013351
-2.102845 16.238533 0.013232
-1.789022 16.238533 0.012737
-1.475199 16.238533 0.012993
-1.161376 16.238533 0.013277
-0.847553 16.238533 0.013633
-0.533730 16.238533 0.013693
-0.219907 16.238533 0.014182
0.093916 16.238533 0.014517
0.407739 16.238533 0.014084
0.721562 16.238533 0.014015
1.035385 16.238533 0.014418
1.349208 16.238533 0.014468
1.663032 16.238533 0.014202
1.976854 16.238533 0.014449
2.290677 16.238533 0.014889
2.604500 16.238533 0.015264
2.918324 16.238533 0.015558
3.232146 16.238533 0.016177
3.545969 16.238533 0.016643
3.859793 16.238533 0.016475
4.173615 16.238533 0.016428
4.487438 16.238533 0.016882
4.801261 16.238533 0.017028
5.115085 16.238533 0.017367
5.428907 16.238533 0.017969
5.742730 16.238533 0.018591
6.056554 16.238533 0.019485
6.370377 16.238533 0.020334
6.684199 16.238533 0.021698
6.998022 16.238533 0.023077
7.311846 16.238533 0.025294
7.625669 16.238533 0.029355
7.939491 16.238533 0.035480
8.253315 16.238533 0.042661
8.567138 16.238533 0.055692
8.880960 16.238533 0.078913
9.194784 16.238533 0.114890
9.508606 16.238533 0.165824
9.822430 16.238533 0.234073
10.136253 16.238533 0.340128
10.450075 16.238533 0.449591
10.763899 16.238533 0.588884
11.077723 16.238533 0.721811
11.391544 16.238533 0.855139
11.705368 16.238533 1.004849
12.019190 16.238533 1.197962
12.333014 16.238533 1.407339
12.646837 16.238533 1.544282
12.960659 16.238533 1.744174
13.274483 16.238533 1.915805
13.588306 16.238533 2.099454
13.902128 16.238533 2.292050
14.215952 16.238533 2.487967
14.529776 16.238533 2.536629
14.843597 16.238533 2.537549
15.157421 16.238533 2.621794
15.471243 16.238533 2.620976
15.785067 16.238533 2.535427
16.098890 16.238533 2.354533
16.412712 16.238533 2.155040
16.726536 16.238533 2.118857
17.040359 16.238533 2.066652
17.354181 16.238533 2.055871
17.668005 16.238533 2.230746
17.981829 16.238533 2.464514
18.295650 16.238533 3.504073
18.609474 16.238533 4.888798
18.923298 16.238533 0.000000
19.237120 16.238533 0.000000
-6.810190 15.924709 0.000000
-6.496367 15.924709 0.017893
-6.182544 15.924709 0.013430
-5.868721 15.924709 0.013919
-5.554898 15.924709 0.014072
-5.241075 15.924709 0.014239
-4.927252 15.924709 0.014563
-4.613429 15.924709 0.014333
-4.299606 15.924709 0.013555
-3.985783 15.924709 0.012948
-3.671960 15.924709 0.012929
-3.358137 15.924709 0.013060
-3.044314 15.924709 0.013026
-2.730491 15.924709 0.013085
-2.416668 15.924709 0.013350
-2.102845 15.924709 0.013338
-1.789022 15.924709 0.013112
-1.475199 15.924709 0.013373
-1.161376 15.924709 0.013456
-0.847553 15.924709 0.013647
-0.533730 15.924709 0.013717
-0.219907 15.924709 0.014117
0.093916 15.924709 0.014199
0.407739 15.924709 0.013710
0.721562 15.924709 0.013798
1.035385 15.924709 0.014295
1.349208 15.924709 0.014388
1.663032 15.924709 0.014252
1.976854 15.924709 0.014435
2.290677 15.924709 0.014730
2.604500 15.924709 0.015293
2.918324 15.924709 0.015732
3.232146 15.924709 0.016260
3.545969 15.924709 0.016353
3.859793 15.924709 0.016156
4.173615 15.924709 0.015941
4.487438 15.924709 0.016595
4.801261 15.924709 0.017063
5.115085 15.924709 0.017375
5.428907 15.924709 0.018037
5.742730 15.924709 0.018768
6.056554 15.924709 0.019664
6.370377 15.924709 0.020512
6.684199 15.924709 0.021767
6.998022 15.924709 0.023202
7.311846 15.924709 0.025462
7.625669 15.924709 0.029422
7.939491 15.924709 0.036091
8.253315 15.924709 0.043255
8.567138 15.924709 0.055755
8.880960 15.924709 0.078862
9.194784 15.924709 0.114460
9.508606 15.924709 0.170872
9.822430 15.924709 0.239939
10.136253 15.924709 0.336332
10.450075 15.924709 0.451067
10.763899 15.924709 0.581383
11.077723 15.924709 0.740612
11.391544 15.924709 0.873373
11.705368 15.924709 1.019932
12.019190 15.924709 1.190236
12.333014 15.924709 1.391141
12.646837 15.924709 1.581388
12.960659 15.924709 1.774034
13.274483 15.924709 1.950082
13.588306 15.924709 2.170589
13.902128 15.924709 2.317499
14.215952 15.924709 2.507555
14.529776 15.924709 2.516068
14.843597 15.924709 2.603295
15.157421 15.924709 2.630878
15.471243 15.924709 2.639031
15.785067 15.924709 2.520215
16.098890 15.924709 2.306218
16.412712 15.924709 2.193425
16.726536 15.924709 2.137061
17.040359 15.924709 2.114919
17.354181 15.924709 2.109633
17.668005 15.924709 2.179483
17.981829 15.924709 2.692640
18.295650 15.924709 3.552370
18.609474 15.924709 5.044610
18.923298 15.924709 0.000000
19.237120 15.924709 0.000000
-6.810190 15.610886 0.000000
-6.496367 15.610886 0.017994
-6.182544 15.610886 0.013603
-5.868721 15.610886 0.014094
-5.554898 15.610886 0.014033
-5.241075 15.610886 0.013917
-4.927252 15.610886 0.014098
-4.613429 15.610886 0.013887
-4.299606 15.610886 0.013205
-3.985783 15.610886 0.012686
-3.671960 15.610886 0.012605
-3.358137 15.610886 0.012999
-3.044314 15.610886 0.013424
-2.730491 15.610886 0.013539
-2.416668 15.610886 0.013608
-2.102845 15.610886 0.013621
-1.789022 15.610886 0.013457
-1.475199 15.610886 0.013626
-1.161376 15.610886 0.013498
-0.847553 15.610886 0.013571
-0.533730 15.610886 0.013438
-0.219907 15.610886 0.013916
0.093916 15.610886 0.014214
0.407739 15.610886 0.013914
0.721562 15.610886 0.013926
1.035385 15.610886 0.014377
1.349208 15.610886 0.014474
1.663032 15.610886 0.014529
1.976854 15.610886 0.014524
2.290677 15.610886 0.014680
2.604500 15.610886 0.015165
2.918324 15.610886 0.015564
3.232146 15.610886 0.016038
3.545969 15.610886 0.016016
3.859793 15.610886 0.015820
4.173615 15.610886 0.015751
4.487438 15.610886 0.016736
4.801261 15.610886 0.017674
5.115085 15.610886 0.017623
5.428907 15.610886 0.018169
5.742730 15.610886 0.018955
6.056554 15.610886 0.019868
6.370377 15.610886 0.020739
6.684199 15.610886 0.021900
6.998022 15.610886 0.023287
7.311846 15.610886 0.025877
7.625669 15.610886 0.029896
7.939491 15.610886 0.035757
8.253315 15.610886 0.043238
8.567138 15.610886 0.055513
8.880960 15.610886 0.078499
9.194784 15.610886 0.116211
9.508606 15.610886 0.169398
9.822430 15.610886 0.243874
10.136253 15.610886 0.341962
10.450075 15.610886 0.451926
10.763899 15.610886 0.588894
11.077723 15.610886 0.749971
11.391544 15.610886 0.903087
11.705368 15.610886 1.066599
12.019190 15.610886 1.209559
12.333014 15.610886 1.359660
12.646837 15.610886 1.558648
12.960659 15.610886 1.795338
13.274483 15.610886 1.981354
13.588306 15.610886 2.196767
13.902128 15.610886 2.423244
14.215952 15.610886 2.567846
14.529776 15.610886 2.616551
14.843597 15.610886 2.613014
15.157421 15.610886 2.704020
15.471243 15.610886 2.645704
15.785067 15.610886 2.514226
16.098890 15.610886 2.328443
16.412712 15.610886 2.245626
16.726536 15.610886 2.165598
17.040359 15.610886 2.167122
17.354181 15.610886 2.172339
17.668005 15.610886 2.310122
17.981829 15.610886 2.796154
18.295650 15.610886 3.896349
18.609474 15.610886 5.223885
18.923298 15.610886 0.000000
19.237120 15.610886 0.000000
-6.810190 15.297062 0.000000
-6.496367 15.297062 0.018293
-6.182544 15.297062 0.013808
-5.868721 15.297062 0.014026
-5.554898 15.297062 0.013715
-5.241075 15.297062 0.013402
-4.927252 15.297062 0.013409
-4.613429 15.297062 0.013508
-4.299606 15.297062 0.012966
-3.985783 15.297062 0.012538
-3.671960 15.297062 0.012669
-3.358137 15.297062 0.013422
-3.044314 15.297062 0.014125
-2.730491 15.297062 0.013976
-2.416668 15.297062 0.013719
-2.102845 15.297062 0.013646
-1.789022 15.297062 0.013363
-1.475199 15.297062 0.013456
-1.161376 15.297062 0.013333
-0.847553 15.297062 0.013438
-0.533730 15.297062 0.013358
-0.219907 15.297062 0.013889
0.093916 15.297062 0.014685
0.407739 15.297062 0.014516
0.721562 15.297062 0.014289
1.035385 15.297062 0.014521
1.349208 15.297062 0.014591
1.663032 15.297062 0.014756
1.976854 15.297062 0.014722
2.290677 15.297062 0.014829
2.604500 15.297062 0.015194
2.918324 15.297062 0.015371
3.232146 15.297062 0.016073
3.545969 15.297062 0.016016
3.859793 15.297062 0.015803
4.173615 15.297062 0.016070
4.487438 15.297062 0.017216
4.801261 15.297062 0.018228
5.115085 15.297062 0.018172
5.428907 15.297062 0.018549
5.742730 15.297062 0.019330
6.056554 15.297062 0.020227
6.370377 15.297062 0.021226
6.684199 15.297062 0.022105
6.998022 15.297062 0.023370
7.311846 15.297062 0.025946
7.625669 15.297062 0.029937
7.939491 15.297062 0.036224
8.253315 15.297062 0.044133
8.567138 15.297062 0.057735
8.880960 15.297062 0.081941
9.194784 15.297062 0.117861
9.508606 15.297062 0.172796
9.822430 15.297062 0.243765
10.136253 15.297062 0.335268
10.450075 15.297062 0.451158
10.763899 15.297062 0.588373
11.077723 15.297062 0.733860
11.391544 15.297062 0.896894
11.705368 15.297062 1.043902
12.019190 15.297062 1.204203
12.333014 15.297062 1.389980
12.646837 15.297062 1.585694
12.960659 15.297062 1.828452
13.274483 15.297062 2.006556
13.588306 15.297062 2.237322
13.902128 15.297062 2.372992
14.215952 15.297062 2.636081
14.529776 15.297062 2.608556
14.843597 15.297062 2.654361
15.157421 15.297062 2.748489
15.471243 15.297062 2.580734
15.785067 15.297062 2.526561
16.098890 15.297062 2.342784
16.412712 15.297062 2.248444
16.726536 15.297062 2.195661
17.040359 15.297062 2.213416
17.354181 15.297062 2.282254
17.668005 15.297062 2.422028
17.981829 15.297062 2.848082
18.295650 15.297062 3.885123
18.609474 15.297062 5.462466
18.923298 15.297062 0.000000
19.237120 15.297062 0.000000
-6.810190 14.983238 0.000000
-6.496367 14.983238 0.018449
-6.182544 14.983238 0.013738
-5.868721 14.983238 0.013862
-5.554898 14.983238 0.013476
-5.241075 14.983238 0.012897
-4.927252 14.983238 0.012815
-4.613429 14.983238 0.013243
-4.299606 14.983238 0.013222
-3.985783 14.983238 0.012839
-3.671960 14.983238 0.013039
-3.358137 14.983238 0.013765
-3.044314 14.983238 0.014396
-2.730491 14.983238 0.013879
-2.416668 14.983238 0.013546
-2.102845 14.983238 0.013373
-1.789022 14.983238 0.012865
-1.475199 14.983238 0.013117
-1.161376 14.983238 0.013308
-0.847553 14.983238 0.013512
-0.533730 14.983238 0.013484
-0.219907 14.983238 0.014178
0.093916 14.983238 0.014985
0.407739 14.983238 0.014936
0.721562 14.983238 0.014670
1.035385 14.983238 0.014794
1.349208 14.983238 0.014750
1.663032 14.983238 0.014807
1.976854 14.983238 0.014853
2.290677 14.983238 0.015049
2.604500 14.983238 0.015492
2.918324 14.983238 0.015519
3.232146 14.983238 0.016484
3.545969 14.983238 0.016576
3.859793 14.983238 0.016194
4.173615 14.983238 0.016629
4.487438 14.983238 0.017485
4.801261 14.983238 0.018053
5.115085 14.983238 0.018541
5.428907 14.983238 0.019252
5.742730 14.983238 0.019755
6.056554 14.983238 0.020712
6.370377 14.983238 0.021820
6.684199 14.983238 0.022213
6.998022 14.983238 0.023277
7.311846 14.983238 0.025492
7.625669 14.983238 0.029598
7.939491 14.983238 0.036119
8.253315 14.983238 0.044999
8.567138 14.983238 0.059271
8.880960 14.983238 0.082865
9.194784 14.983238 0.121851
9.508606 14.983238 0.177370
9.822430 14.983238 0.245771
10.136253 14.983238 0.341433
10.450075 14.983238 0.456360
10.763899 14.983238 0.590916
11.077723 14.983238 0.739662
11.391544 14.983238 0.882607
11.705368 14.983238 1.046666
12.019190 14.983238 1.220057
12.333014 14.983238 1.397682
12.646837 14.983238 1.607631
12.960659 14.983238 1.783787
13.274483 14.983238 2.030639
13.588306 14.983238 2.206548
13.902128 14.983238 2.368223
14.215952 14.983238 2.598431
14.529776 14.983238 2.695184
14.843597 14.983238 2.706183
15.157421 14.983238 2.703296
15.471243 14.983238 2.659377
15.785067 14.983238 2.516146
16.098890 14.983238 2.353858
16.412712 14.983238 2.283244
16.726536 14.983238 2.237806
17.040359 14.983238 2.198693
17.354181 14.983238 2.263077
17.668005 14.983238 2.531760
17.981829 14.983238 2.994579
18.295650 14.983238 3.979592
18.609474 14.983238 5.547396
18.923298 14.983238 0.000000
19.237120 14.983238 0.000000
-6.810190 14.669415 0.000000
-6.496367 14.669415 0.018013
-6.182544 14.669415 0.013518
-5.868721 14.669415 0.013821
-5.554898 14.669415 0.013431
-5.241075 14.669415 0.012921
-4.927252 14.669415 0.012800
-4.613429 14.669415 0.013519
-4.299606 14.669415 0.013705
-3.985783 14.669415 0.013075
-3.671960 14.669415 0.013222
-3.358137 14.669415 0.013651
-3.044314 14.669415 0.013809
-2.730491 14.669415 0.013341
-2.416668 14.669415 0.013359
-2.102845 14.669415 0.013251
-1.789022 14.669415 0.012730
-1.475199 14.669415 0.013066
-1.161376 14.669415 0.013493
-0.847553 14.669415 0.013608
-0.533730 14.669415 0.013754
-0.219907 14.669415 0.014291
0.093916 14.669415 0.014767
0.407739 14.669415 0.014862
0.721562 14.669415 0.014780
1.035385 14.669415 0.014813
1.349208 14.669415 0.014661
1.663032 14.669415 0.014807
1.976854 14.669415 0.015066
2.290677 14.669415 0.015580
2.604500 14.669415 0.016010
2.918324 14.669415 0.015915
3.232146 14.669415 0.016753
3.545969 14.669415 0.017252
3.859793 14.669415 0.016658
4.173615 14.669415 0.017104
4.487438 14.669415 0.017556
4.801261 14.669415 0.017867
5.115085 14.669415 0.018669
5.428907 14.669415 0.019787
5.742730 14.669415 0.020318
6.056554 14.669415 0.021034
6.370377 14.669415 0.022126
6.684199 14.669415 0.022409
6.998022 14.669415 0.023620
7.311846 14.669415 0.025723
7.625669 14.669415 0.029923
7.939491 14.669415 0.036377
8.253315 14.669415 0.045880
8.567138 14.669415 0.059825
8.880960 14.669415 0.084260
9.194784 14.669415 0.125599
9.508606 14.669415 0.176820
9.822430 14.669415 0.251533
10.136253 14.669415 0.346998
10.450075 14.669415 0.473794
10.763899 14.669415 0.604268
11.077723 14.669415 0.735861
11.391544 14.669415 0.871246
11.705368 14.669415 1.042346
12.019190 14.669415 1.233029
12.333014 14.669415 1.400686
12.646837 14.669415 1.603544
12.960659 14.669415 1.797329
13.274483 14.669415 2.034748
13.588306 14.669415 2.203541
13.902128 14.669415 2.446113
14.215952 14.669415 2.567982
14.529776 14.669415 2.651004
14.843597 14.669415 2.753448
15.157421 14.669415 2.710482
15.471243 14.669415 2.678494
15.785067 14.669415 2.566043
16.098890 14.669415 2.396539
16.412712 14.669415 2.366871
16.726536 14.669415 2.317584
17.040359 14.669415 2.303495
17.354181 14.669415 2.354827
17.668005 14.669415 2.632091
17.981829 14.669415 3.069710
18.295650 14.669415 4.240739
18.609474 14.669415 5.682029
18.923298 14.669415 0.000000
19.237120 14.669415 0.000000
-6.810190 14.355595 0.000000
-6.496367 14.355595 0.017627
-6.182544 14.355595 0.013363
-5.868721 14.355595 0.013922
-5.554898 14.355595 0.013776
-5.241075 14.355595 0.013349
-4.927252 14.355595 0.013201
-4.613429 14.355595 0.013824
-4.299606 14.355595 0.013796
-3.985783 14.355595 0.012962
-3.671960 14.355595 0.012862
-3.358137 14.355595 0.013050
-3.044314 14.355595 0.013086
-2.730491 14.355595 0.012868
-2.416668 14.355595 0.013489
-2.102845 14.355595 0.013459
-1.789022 14.355595 0.013024
-1.475199 14.355595 0.013428
-1.161376 14.355595 0.013931
-0.847553 14.355595 0.013954
-0.533730 14.355595 0.013886
-0.219907 14.355595 0.014112
0.093916 14.355595 0.014380
0.407739 14.355595 0.014645
0.721562 14.355595 0.014770
1.035385 14.355595 0.014834
1.349208 14.355595 0.014668
1.663032 14.355595 0.014851
1.976854 14.355595 0.015432
2.290677 14.355595 0.016147
2.604500 14.355595 0.016426
2.918324 14.355595 0.016167
3.232146 14.355595 0.017017
3.545969 14.355595 0.017545
3.859793 14.355595 0.016896
4.173615 14.355595 0.017208
4.487438 14.355595 0.017534
4.801261 14.355595 0.017735
5.115085 14.355595 0.018628
5.428907 14.355595 0.019767
5.742730 14.355595 0.020134
6.056554 14.355595 0.020977
6.370377 14.355595 0.022326
6.684199 14.355595 0.022628
6.998022 14.355595 0.024141
7.311846 14.355595 0.026512
7.625669 14.355595 0.030166
7.939491 14.355595 0.036473
8.253315 14.355595 0.045504
8.567138 14.355595 0.059559
8.880960 14.355595 0.085312
9.194784 14.355595 0.128175
9.508606 14.355595 0.181312
9.822430 14.355595 0.254999
10.136253 14.355595 0.356795
10.450075 14.355595 0.499429
10.763899 14.355595 0.615447
11.077723 14.355595 0.743257
11.391544 14.355595 0.894812
11.705368 14.355595 1.072578
12.019190 14.355595 1.252368
12.333014 14.355595 1.418962
12.646837 14.355595 1.591635
12.960659 14.355595 1.793783
13.274483 14.355595 2.031953
13.588306 14.355595 2.202381
13.902128 14.355595 2.440038
14.215952 14.355595 2.564301
14.529776 14.355595 2.680841
14.843597 14.355595 2.741758
15.157421 14.355595 2.701338
15.471243 14.355595 2.697094
15.785067 14.355595 2.612343
16.098890 14.355595 2.467144
16.412712 14.355595 2.457022
16.726536 14.355595 2.379566
17.040359 14.355595 2.396389
17.354181 14.355595 2.426323
17.668005 14.355595 2.696494
17.981829 14.355595 3.224050
18.295650 14.355595 4.345153
18.609474 14.355595 6.083738
18.923298 14.355595 0.000000
19.237120 14.355595 0.000000
-6.810190 14.041771 0.000000
-6.496367 14.041771 0.017548
-6.182544 14.041771 0.013504
-5.868721 14.041771 0.013993
-5.554898 14.041771 0.013918
-5.241075 14.041771 0.013615
-4.927252 14.041771 0.013496
-4.613429 14.041771 0.013598
-4.299606 14.041771 0.013193
-3.985783 14.041771 0.012418
-3.671960 14.041771 0.012473
-3.358137 14.041771 0.012672
-3.044314 14.041771 0.012704
-2.730491 14.041771 0.013022
-2.416668 14.041771 0.013818
-2.102845 14.041771 0.013756
-1.789022 14.041771 0.013503
-1.475199 14.041771 0.013888
-1.161376 14.041771 0.014123
-0.847553 14.041771 0.014137
-0.533730 14.041771 0.013781
-0.219907 14.041771 0.013890
0.093916 14.041771 0.014128
0.407739 14.041771 0.014518
0.721562 14.041771 0.014924
1.035385 14.041771 0.014961
1.349208 14.041771 0.014725
1.663032 14.041771 0.014869
1.976854 14.041771 0.015528
2.290677 14.041771 0.016137
2.604500 14.041771 0.016377
2.918324 14.041771 0.016165
3.232146 14.041771 0.017031
3.545969 14.041771 0.017453
3.859793 14.041771 0.016885
4.173615 14.041771 0.017023
4.487438 14.041771 0.017385
4.801261 14.041771 0.017679
5.115085 14.041771 0.018631
5.428907 14.041771 0.019629
5.742730 14.041771 0.020002
6.056554 14.041771 0.020880
6.370377 14.041771 0.021939
6.684199 14.041771 0.022897
6.998022 14.041771 0.024904
7.311846 14.041771 0.027408
7.625669 14.041771 0.030330
7.939491 14.041771 0.036197
8.253315 14.041771 0.045254
8.567138 14.041771 0.058816
8.880960 14.041771 0.085631
9.194784 14.041771 0.128502
9.508606 14.041771 0.182604
9.822430 14.041771 0.262147
10.136253 14.041771 0.361734
10.450075 14.041771 0.494781
10.763899 14.041771 0.633440
11.077723 14.041771 0.761453
11.391544 14.041771 0.918677
11.705368 14.041771 1.062782
12.019190 14.041771 1.261846
12.333014 14.041771 1.422418
12.646837 14.041771 1.591534
12.960659 14.041771 1.836829
13.274483 14.041771 1.960070
13.588306 14.041771 2.201998
13.902128 14.041771 2.413124
14.215952 14.041771 2.540494
14.529776 14.041771 2.627595
14.843597 14.041771 2.725548
15.157421 14.041771 2.754342
15.471243 14.041771 2.721450
15.785067 14.041771 2.639648
16.098890 14.041771 2.564220
16.412712 14.041771 2.552706
16.726536 14.041771 2.413156
17.040359 14.041771 2.502456
17.354181 14.041771 2.550593
17.668005 14.041771 2.775194
17.981829 14.041771 3.327024
18.295650 14.041771 4.487063
18.609474 14.041771 6.400800
18.923298 14.041771 0.000000
19.237120 14.041771 0.000000
-6.810190 13.727947 0.000000
-6.496367 13.727947 0.017541
-6.182544 13.727947 0.013398
-5.868721 13.727947 0.013502
-5.554898 13.727947 0.013342
-5.241075 13.727947 0.013323
-4.927252 13.727947 0.013398
-4.613429 13.727947 0.013151
-4.299606 13.727947 0.012652
-3.985783 13.727947 0.012227
-3.671960 13.727947 0.012665
-3.358137 13.727947 0.012906
-3.044314 13.727947 0.013032
-2.730491 13.727947 0.013317
-2.416668 13.727947 0.014080
-2.102845 13.727947 0.014103
-1.789022 13.727947 0.013712
-1.475199 13.727947 0.013966
-1.161376 13.727947 0.013998
-0.847553 13.727947 0.014111
-0.533730 13.727947 0.013692
-0.219907 13.727947 0.013904
0.093916 13.727947 0.014222
0.407739 13.727947 0.014585
0.721562 13.727947 0.015107
1.035385 13.727947 0.015277
1.349208 13.727947 0.015001
1.663032 13.727947 0.014917
1.976854 13.727947 0.015307
2.290677 13.727947 0.015887
2.604500 13.727947 0.016091
2.918324 13.727947 0.016247
3.232146 13.727947 0.017096
3.545969 13.727947 0.017383
3.859793 13.727947 0.016967
4.173615 13.727947 0.016882
4.487438 13.727947 0.017311
4.801261 13.727947 0.017621
5.115085 13.727947 0.018668
5.428907 13.727947 0.019928
5.742730 13.727947 0.020225
6.056554 13.727947 0.020872
6.370377 13.727947 0.021756
6.684199 13.727947 0.023100
6.998022 13.727947 0.025282
7.311846 13.727947 0.027683
7.625669 13.727947 0.030527
7.939491 13.727947 0.036590
8.253315 13.727947 0.044995
8.567138 13.727947 0.059426
8.880960 13.727947 0.086791
9.194784 13.727947 0.130953
9.508606 13.727947 0.186002
9.822430 13.727947 0.265981
10.136253 13.727947 0.368426
10.450075 13.727947 0.501421
10.763899 13.727947 0.637910
11.077723 13.727947 0.782627
11.391544 13.727947 0.951065
11.705368 13.727947 1.104252
12.019190 13.727947 1.253861
12.333014 13.727947 1.417828
12.646837 13.727947 1.620804
12.960659 13.727947 1.802115
13.274483 13.727947 2.015369
13.588306 13.727947 2.214041
13.902128 13.727947 2.404245
14.215952 13.727947 2.523654
14.529776 13.727947 2.647061
14.843597 13.727947 2.738886
15.157421 13.727947 2.776274
15.471243 13.727947 2.724544
15.785067 13.727947 2.666270
16.098890 13.727947 2.650433
16.412712 13.727947 2.599815
16.726536 13.727947 2.487584
17.040359 13.727947 2.502195
17.354181 13.727947 2.569391
17.668005 13.727947 2.880264
17.981829 13.727947 3.410477
18.295650 13.727947 4.686600
18.609474 13.727947 6.377354
18.923298 13.727947 0.000000
19.237120 13.727947 0.000000
-6.810190 13.414124 0.000000
-6.496367 13.414124 0.017243
-6.182544 13.414124 0.013075
-5.868721 13.414124 0.012837
-5.554898 13.414124 0.012575
-5.241075 13.414124 0.012893
-4.927252 13.414124 0.013395
-4.613429 13.414124 0.013082
-4.299606 13.414124 0.012676
-3.985783 13.414124 0.012681
-3.671960 13.414124 0.013018
-3.358137 13.414124 0.013347
-3.044314 13.414124 0.013430
-2.730491 13.414124 0.013329
-2.416668 13.414124 0.013936
-2.102845 13.414124 0.014045
-1.789022 13.414124 0.013487
-1.475199 13.414124 0.013736
-1.161376 13.414124 0.013981
-0.847553 13.414124 0.013995
-0.533730 13.414124 0.013781
-0.219907 13.414124 0.014236
0.093916 13.414124 0.014757
0.407739 13.414124 0.014769
0.721562 13.414124 0.015222
1.035385 13.414124 0.015563
1.349208 13.414124 0.015258
1.663032 13.414124 0.014971
1.976854 13.414124 0.015360
2.290677 13.414124 0.015863
2.604500 13.414124 0.016089
2.918324 13.414124 0.016448
3.232146 13.414124 0.017101
3.545969 13.414124 0.017419
3.859793 13.414124 0.017197
4.173615 13.414124 0.017139
4.487438 13.414124 0.017674
4.801261 13.414124 0.018025
5.115085 13.414124 0.019248
5.428907 13.414124 0.020394
5.742730 13.414124 0.020765
6.056554 13.414124 0.021191
6.370377 13.414124 0.021868
6.684199 13.414124 0.023062
6.998022 13.414124 0.024956
7.311846 13.414124 0.027502
7.625669 13.414124 0.030740
7.939491 13.414124 0.037307
8.253315 13.414124 0.046664
8.567138 13.414124 0.062508
8.880960 13.414124 0.089416
9.194784 13.414124 0.130714
9.508606 13.414124 0.187995
9.822430 13.414124 0.265955
10.136253 13.414124 0.371265
10.450075 13.414124 0.500875
10.763899 13.414124 0.624848
11.077723 13.414124 0.791920
11.391544 13.414124 0.960360
11.705368 13.414124 1.118434
12.019190 13.414124 1.241619
12.333014 13.414124 1.432208
12.646837 13.414124 1.638374
12.960659 13.414124 1.794998
13.274483 13.414124 2.069526
13.588306 13.414124 2.260919
13.902128 13.414124 2.403203
14.215952 13.414124 2.484353
14.529776 13.414124 2.616829
14.843597 13.414124 2.734028
15.157421 13.414124 2.748183
15.471243 13.414124 2.725314
15.785067 13.414124 2.831721
16.098890 13.414124 2.735226
16.412712 13.414124 2.663458
16.726536 13.414124 2.637595
17.040359 13.414124 2.619576
17.354181 13.414124 2.780121
17.668005 13.414124 2.998085
17.981829 13.414124 3.538170
18.295650 13.414124 4.838218
18.609474 13.414124 6.739899
18.923298 13.414124 0.000000
19.237120 13.414124 0.000000
-6.810190 13.100300 0.000000
-6.496367 13.100300 0.016869
-6.182544 13.100300 0.012715
-5.868721 13.100300 0.012425
-5.554898 13.100300 0.012353
-5.241075 13.100300 0.012720
-4.927252 13.100300 0.013386
-4.613429 13.100300 0.013343
-4.299606 13.100300 0.013021
-3.985783 13.100300 0.013029
-3.671960 13.100300 0.013152
-3.358137 13.100300 0.013300
-3.044314 13.100300 0.013428
-2.730491 13.100300 0.012997
-2.416668 13.100300 0.013405
-2.102845 13.100300 0.013580
-1.789022 13.100300 0.013074
-1.475199 13.100300 0.013511
-1.161376 13.100300 0.014027
-0.847553 13.100300 0.014046
-0.533730 13.100300 0.014072
-0.219907 13.100300 0.014954
0.093916 13.100300 0.015330
0.407739 13.100300 0.014963
0.721562 13.100300 0.015296
1.035385 13.100300 0.015611
1.349208 13.100300 0.015311
1.663032 13.100300 0.015252
1.976854 13.100300 0.015708
2.290677 13.100300 0.016225
2.604500 13.100300 0.016362
2.918324 13.100300 0.016522
3.232146 13.100300 0.016908
3.545969 13.100300 0.017312
3.859793 13.100300 0.017613
4.173615 13.100300 0.017831
4.487438 13.100300 0.018224
4.801261 13.100300 0.019013
5.115085 13.100300 0.020125
5.428907 13.100300 0.020847
5.742730 13.100300 0.020994
6.056554 13.100300 0.021305
6.370377 13.100300 0.022153
6.684199 13.100300 0.023180
6.998022 13.100300 0.024804
7.311846 13.100300 0.027441
7.625669 13.100300 0.031771
7.939491 13.100300 0.038479
8.253315 13.100300 0.048379
8.567138 13.100300 0.065604
8.880960 13.100300 0.093520
9.194784 13.100300 0.134309
9.508606 13.100300 0.190190
9.822430 13.100300 0.265567
10.136253 13.100300 0.379151
10.450075 13.100300 0.499514
10.763899 13.100300 0.642990
11.077723 13.100300 0.794890
11.391544 13.100300 0.971466
11.705368 13.100300 1.151927
12.019190 13.100300 1.257005
12.333014 13.100300 1.447186
12.646837 13.100300 1.662508
12.960659 13.100300 1.834357
13.274483 13.100300 2.055613
13.588306 13.100300 2.247379
13.902128 13.100300 2.349955
14.215952 13.100300 2.569468
14.529776 13.100300 2.683022
14.843597 13.100300 2.868590
15.157421 13.100300 2.944413
15.471243 13.100300 2.855579
15.785067 13.100300 2.883606
16.098890 13.100300 2.829652
16.412712 13.100300 2.762385
16.726536 13.100300 2.791477
17.040359 13.100300 2.800735
17.354181 13.100300 2.955222
17.668005 13.100300 3.286627
17.981829 13.100300 3.845722
18.295650 13.100300 5.213910
18.609474 13.100300 7.263402
18.923298 13.100300 0.000000
19.237120 13.100300 0.000000
-6.810190 12.786476 0.000000
-6.496367 12.786476 0.016679
-6.182544 12.786476 0.012810
-5.868721 12.786476 0.012784
-5.554898 12.786476 0.012857
-5.241075 12.786476 0.012944
-4.927252 12.786476 0.013307
-4.613429 12.786476 0.013285
-4.299606 12.786476 0.013099
-3.985783 12.786476 0.012941
-3.671960 12.786476 0.012873
-3.358137 12.786476 0.012888
-3.044314 12.786476 0.013124
-2.730491 12.786476 0.012636
-2.416668 12.786476 0.013107
-2.102845 12.786476 0.013206
-1.789022 12.786476 0.012935
-1.475199 12.786476 0.013549
-1.161376 12.786476 0.014150
-0.847553 12.786476 0.014059
-0.533730 12.786476 0.014238
-0.219907 12.786476 0.015242
0.093916 12.786476 0.015563
0.407739 12.786476 0.015172
0.721562 12.786476 0.015567
1.035385 12.786476 0.015620
1.349208 12.786476 0.015369
1.663032 12.786476 0.015580
1.976854 12.786476 0.016045
2.290677 12.786476 0.016658
2.604500 12.786476 0.016561
2.918324 12.786476 0.016380
3.232146 12.786476 0.016719
3.545969 12.786476 0.017306
3.859793 12.786476 0.018190
4.173615 12.786476 0.018698
4.487438 12.786476 0.018821
4.801261 12.786476 0.019556
5.115085 12.786476 0.020306
5.428907 12.786476 0.020527
5.742730 12.786476 0.020595
6.056554 12.786476 0.020988
6.370377 12.786476 0.022178
6.684199 12.786476 0.023537
6.998022 12.786476 0.024897
7.311846 12.786476 0.027996
7.625669 12.786476 0.032436
7.939491 12.786476 0.039301
8.253315 12.786476 0.049915
8.567138 12.786476 0.067094
8.880960 12.786476 0.097258
9.194784 12.786476 0.141991
9.508606 12.786476 0.197459
9.822430 12.786476 0.272027
10.136253 12.786476 0.389665
10.450075 12.786476 0.514043
10.763899 12.786476 0.660348
11.077723 12.786476 0.791034
11.391544 12.786476 0.975924
11.705368 12.786476 1.159246
12.019190 12.786476 1.330019
12.333014 12.786476 1.513616
12.646837 12.786476 1.682317
12.960659 12.786476 1.877963
13.274483 12.786476 2.030315
13.588306 12.786476 2.217320
13.902128 12.786476 2.370185
14.215952 12.786476 2.617906
14.529776 12.786476 2.791250
14.843597 12.786476 2.960656
15.157421 12.786476 2.989823
15.471243 12.786476 2.974828
15.785067 12.786476 2.915974
16.098890 12.786476 2.901690
16.412712 12.786476 2.866137
16.726536 12.786476 2.781818
17.040359 12.786476 2.894329
17.354181 12.786476 3.136010
17.668005 12.786476 3.380170
17.981829 12.786476 3.868268
18.295650 12.786476 5.615188
18.609474 12.786476 7.656909
18.923298 12.786476 0.000000
19.237120 12.786476 0.000000
-6.810190 12.472656 0.000000
-6.496367 12.472656 0.016750
-6.182544 12.472656 0.013019
-5.868721 12.472656 0.013356
-5.554898 12.472656 0.013408
-5.241075 12.472656 0.013227
-4.927252 12.472656 0.013222
-4.613429 12.472656 0.013135
-4.299606 12.472656 0.012828
-3.985783 12.472656 0.012591
-3.671960 12.472656 0.012551
-3.358137 12.472656 0.012764
-3.044314 12.472656 0.012970
-2.730491 12.472656 0.012767
-2.416668 12.472656 0.013404
-2.102845 12.472656 0.013391
-1.789022 12.472656 0.013023
-1.475199 12.472656 0.013590
-1.161376 12.472656 0.014073
-0.847553 12.472656 0.013882
-0.533730 12.472656 0.014182
-0.219907 12.472656 0.015122
0.093916 12.472656 0.015351
0.407739 12.472656 0.015331
0.721562 12.472656 0.015802
1.035385 12.472656 0.015580
1.349208 12.472656 0.015470
1.663032 12.472656 0.015807
1.976854 12.472656 0.016299
2.290677 12.472656 0.016797
2.604500 12.472656 0.016470
2.918324 12.472656 0.016310
3.232146 12.472656 0.016930
3.545969 12.472656 0.017714
3.859793 12.472656 0.018689
4.173615 12.472656 0.019054
4.487438 12.472656 0.019041
4.801261 12.472656 0.019529
5.115085 12.472656 0.019818
5.428907 12.472656 0.019558
5.742730 12.472656 0.020087
6.056554 12.472656 0.021110
6.370377 12.472656 0.022385
6.684199 12.472656 0.023614
6.998022 12.472656 0.025178
7.311846 12.472656 0.028536
7.625669 12.472656 0.032953
7.939491 12.472656 0.039797
8.253315 12.472656 0.049805
8.567138 12.472656 0.067437
8.880960 12.472656 0.097993
9.194784 12.472656 0.140692
9.508606 12.472656 0.201363
9.822430 12.472656 0.283863
10.136253 12.472656 0.391558
10.450075 12.472656 0.511558
10.763899 12.472656 0.657193
11.077723 12.472656 0.818746
11.391544 12.472656 0.979104
11.705368 12.472656 1.167506
12.019190 12.472656 1.340594
12.333014 12.472656 1.516984
12.646837 12.472656 1.688287
12.960659 12.472656 1.848521
13.274483 12.472656 2.030769
13.588306 12.472656 2.249812
13.902128 12.472656 2.410198
14.215952 12.472656 2.594647
14.529776 12.472656 2.785669
14.843597 12.472656 2.890391
15.157421 12.472656 2.941929
15.471243 12.472656 2.952461
15.785067 12.472656 3.004844
16.098890 12.472656 2.960896
16.412712 12.472656 2.945698
16.726536 12.472656 2.931894
17.040359 12.472656 3.004530
17.354181 12.472656 3.101062
17.668005 12.472656 3.445632
17.981829 12.472656 4.157537
18.295650 12.472656 5.861244
18.609474 12.472656 8.044958
18.923298 12.472656 0.000000
19.237120 12.472656 0.000000
-6.810190 12.158833 0.000000
-6.496367 12.158833 0.016602
-6.182544 12.158833 0.012991
-5.868721 12.158833 0.013414
-5.554898 12.158833 0.013407
-5.241075 12.158833 0.013207
-4.927252 12.158833 0.013103
-4.613429 12.158833 0.012938
-4.299606 12.158833 0.012597
-3.985783 12.158833 0.012352
-3.671960 12.158833 0.012549
-3.358137 12.158833 0.012978
-3.044314 12.158833 0.013163
-2.730491 12.158833 0.013369
-2.416668 12.158833 0.014077
-2.102845 12.158833 0.013657
-1.789022 12.158833 0.013102
-1.475199 12.158833 0.013556
-1.161376 12.158833 0.013892
-0.847553 12.158833 0.013725
-0.533730 12.158833 0.014113
-0.219907 12.158833 0.014818
0.093916 12.158833 0.015051
0.407739 12.158833 0.015537
0.721562 12.158833 0.015899
1.035385 12.158833 0.015597
1.349208 12.158833 0.015496
1.663032 12.158833 0.015898
1.976854 12.158833 0.016291
2.290677 12.158833 0.016728
2.604500 12.158833 0.016486
2.918324 12.158833 0.016540
3.232146 12.158833 0.017239
3.545969 12.158833 0.018027
3.859793 12.158833 0.018595
4.173615 12.158833 0.018843
4.487438 12.158833 0.018757
4.801261 12.158833 0.019295
5.115085 12.158833 0.019447
5.428907 12.158833 0.019210
5.742730 12.158833 0.020015
6.056554 12.158833 0.021497
6.370377 12.158833 0.022558
6.684199 12.158833 0.024040
6.998022 12.158833 0.025721
7.311846 12.158833 0.028632
7.625669 12.158833 0.033415
7.939491 12.158833 0.040044
8.253315 12.158833 0.050040
8.567138 12.158833 0.068344
8.880960 12.158833 0.096413
9.194784 12.158833 0.137748
9.508606 12.158833 0.198236
9.822430 12.158833 0.288095
10.136253 12.158833 0.394119
10.450075 12.158833 0.518195
10.763899 12.158833 0.667508
11.077723 12.158833 0.802062
11.391544 12.158833 0.979712
11.705368 12.158833 1.169547
12.019190 12.158833 1.340401
12.333014 12.158833 1.515030
12.646837 12.158833 1.674721
12.960659 12.158833 1.846467
13.274483 12.158833 2.111188
13.588306 12.158833 2.344586
13.902128 12.158833 2.416440
14.215952 12.158833 2.567194
14.529776 12.158833 2.796226
14.843597 12.158833 2.975916
15.157421 12.158833 2.988464
15.471243 12.158833 3.062827
15.785067 12.158833 3.034299
16.098890 12.158833 3.073980
16.412712 12.158833 2.967066
16.726536 12.158833 3.080101
17.040359 12.158833 3.129544
17.354181 12.158833 3.178770
17.668005 12.158833 3.526669
17.981829 12.158833 4.137401
18.295650 12.158833 5.829944
18.609474 12.158833 8.139525
18.923298 12.158833 0.000000
19.237120 12.158833 0.000000
-6.810190 11.845009 0.000000
-6.496367 11.845009 0.015934
-6.182544 11.845009 0.012441
-5.868721 11.845009 0.012900
-5.554898 11.845009 0.012950
-5.241075 11.845009 0.013182
-4.927252 11.845009 0.013222
-4.613429 11.845009 0.013013
-4.299606 11.845009 0.012634
-3.985783 11.845009 0.012402
-3.671960 11.845009 0.012783
-3.358137 11.845009 0.013246
-3.044314 11.845009 0.013324
-2.730491 11.845009 0.013707
-2.416668 11.845009 0.014451
-2.102845 11.845009 0.013879
-1.789022 11.845009 0.013283
-1.475199 11.845009 0.013692
-1.161376 11.845009 0.014006
-0.847553 11.845009 0.013994
-0.533730 11.845009 0.014304
-0.219907 11.845009 0.014944
0.093916 11.845009 0.015223
0.407739 11.845009 0.015692
0.721562 11.845009 0.015829
1.035385 11.845009 0.015558
1.349208 11.845009 0.015622
1.663032 11.845009 0.015911
1.976854 11.845009 0.016186
2.290677 11.845009 0.016615
2.604500 11.845009 0.016802
2.918324 11.845009 0.016985
3.232146 11.845009 0.017451
3.545969 11.845009 0.018079
3.859793 11.845009 0.018342
4.173615 11.845009 0.018578
4.487438 11.845009 0.018836
4.801261 11.845009 0.019413
5.115085 11.845009 0.019748
5.428907 11.845009 0.019796
5.742730 11.845009 0.020556
6.056554 11.845009 0.021703
6.370377 11.845009 0.022836
6.684199 11.845009 0.024059
6.998022 11.845009 0.026090
7.311846 11.845009 0.028904
7.625669 11.845009 0.033356
7.939491 11.845009 0.040747
8.253315 11.845009 0.051764
8.567138 11.845009 0.069613
8.880960 11.845009 0.098645
9.194784 11.845009 0.139902
9.508606 11.845009 0.201715
9.822430 11.845009 0.290007
10.136253 11.845009 0.398537
10.450075 11.845009 0.516906
10.763899 11.845009 0.637601
11.077723 11.845009 0.801679
11.391544 11.845009 0.985193
11.705368 11.845009 1.152572
12.019190 11.845009 1.321014
12.333014 11.845009 1.485895
12.646837 11.845009 1.680863
12.960659 11.845009 1.860628
13.274483 11.845009 2.097437
13.588306 11.845009 2.324168
13.902128 11.845009 2.495008
14.215952 11.845009 2.659574
14.529776 11.845009 2.757023
14.843597 11.845009 2.952996
15.157421 11.845009 3.119496
15.471243 11.845009 3.090819
15.785067 11.845009 3.192828
16.098890 11.845009 3.126121
16.412712 11.845009 3.006474
16.726536 11.845009 3.104123
17.040359 11.845009 3.187845
17.354181 11.845009 3.310283
17.668005 11.845009 3.648482
17.981829 11.845009 4.377787
18.295650 11.845009 6.139499
18.609474 11.845009 8.366453
18.923298 11.845009 0.000000
19.237120 11.845009 0.000000
-6.810190 11.531185 0.000000
-6.496367 11.531185 0.015118
-6.182544 11.531185 0.011956
-5.868721 11.531185 0.012509
-5.554898 11.531185 0.012683
-5.241075 11.531185 0.013275
-4.927252 11.531185 0.013456
-4.613429 11.531185 0.013133
-4.299606 11.531185 0.012832
-3.985783 11.531185 0.012666
-3.671960 11.531185 0.012991
-3.358137 11.531185 0.013142
-3.044314 11.531185 0.013131
-2.730491 11.531185 0.013584
-2.416668 11.531185 0.014407
-2.102845 11.531185 0.014167
-1.789022 11.531185 0.013744
-1.475199 11.531185 0.014102
-1.161376 11.531185 0.014324
-0.847553 11.531185 0.014590
-0.533730 11.531185 0.014731
-0.219907 11.531185 0.015308
0.093916 11.531185 0.015666
0.407739 11.531185 0.015967
0.721562 11.531185 0.015850
1.035385 11.531185 0.015783
1.349208 11.531185 0.016017
1.663032 11.531185 0.016126
1.976854 11.531185 0.016208
2.290677 11.531185 0.016709
2.604500 11.531185 0.017131
2.918324 11.531185 0.017335
3.232146 11.531185 0.017412
3.545969 11.531185 0.017987
3.859793 11.531185 0.018386
4.173615 11.531185 0.018864
4.487438 11.531185 0.019534
4.801261 11.531185 0.020040
5.115085 11.531185 0.020519
5.428907 11.531185 0.020568
5.742730 11.531185 0.021097
6.056554 11.531185 0.021767
6.370377 11.531185 0.022657
6.684199 11.531185 0.023982
6.998022 11.531185 0.026050
7.311846 11.531185 0.029007
7.625669 11.531185 0.033857
7.939491 11.531185 0.041953
8.253315 11.531185 0.053632
8.567138 11.531185 0.071949
8.880960 11.531185 0.101537
9.194784 11.531185 0.145417
9.508606 11.531185 0.206123
9.822430 11.531185 0.297796
10.136253 11.531185 0.407623
10.450075 11.531185 0.528536
10.763899 11.531185 0.650800
11.077723 11.531185 0.811761
11.391544 11.531185 1.003021
11.705368 11.531185 1.175924
12.019190 11.531185 1.351821
12.333014 11.531185 1.519582
12.646837 11.531185 1.685197
12.960659 11.531185 1.870811
13.274483 11.531185 2.066086
13.588306 11.531185 2.254730
13.902128 11.531185 2.460389
14.215952 11.531185 2.645313
14.529776 11.531185 2.815177
14.843597 11.531185 2.984826
15.157421 11.531185 3.082698
15.471243 11.531185 3.269235
15.785067 11.531185 3.297742
16.098890 11.531185 3.183651
16.412712 11.531185 3.103487
16.726536 11.531185 3.070680
17.040359 11.531185 3.299788
17.354181 11.531185 3.399405
17.668005 11.531185 3.717564
17.981829 11.531185 4.640434
18.295650 11.531185 6.521582
18.609474 11.531185 9.157199
18.923298 11.531185 0.000000
19.237120 11.531185 0.000000
-6.810190 11.217361 0.000000
-6.496367 11.217361 0.015064
-6.182544 11.217361 0.012138
-5.868721 11.217361 0.012822
-5.554898 11.217361 0.012802
-5.241075 11.217361 0.013212
-4.927252 11.217361 0.013478
-4.613429 11.217361 0.013105
-4.299606 11.217361 0.012729
-3.985783 11.217361 0.012665
-3.671960 11.217361 0.012799
-3.358137 11.217361 0.012767
-3.044314 11.217361 0.012991
-2.730491 11.217361 0.013547
-2.416668 11.217361 0.014424
-2.102845 11.217361 0.014585
-1.789022 11.217361 0.014686
-1.475199 11.217361 0.014580
-1.161376 11.217361 0.014758
-0.847553 11.217361 0.014858
-0.533730 11.217361 0.015167
-0.219907 11.217361 0.015849
0.093916 11.217361 0.016153
0.407739 11.217361 0.016178
0.721562 11.217361 0.016109
1.035385 11.217361 0.016040
1.349208 11.217361 0.016249
1.663032 11.217361 0.016667
1.976854 11.217361 0.016619
2.290677 11.217361 0.016863
2.604500 11.217361 0.017207
2.918324 11.217361 0.017386
3.232146 11.217361 0.017518
3.545969 11.217361 0.018364
3.859793 11.217361 0.018962
4.173615 11.217361 0.019428
4.487438 11.217361 0.020149
4.801261 11.217361 0.020416
5.115085 11.217361 0.020874
5.428907 11.217361 0.021031
5.742730 11.217361 0.021306
6.056554 11.217361 0.021802
6.370377 11.217361 0.022932
6.684199 11.217361 0.024400
6.998022 11.217361 0.026548
7.311846 11.217361 0.029772
7.625669 11.217361 0.034724
7.939491 11.217361 0.042832
8.253315 11.217361 0.055579
8.567138 11.217361 0.073719
8.880960 11.217361 0.105488
9.194784 11.217361 0.152606
9.508606 11.217361 0.213174
9.822430 11.217361 0.302079
10.136253 11.217361 0.414128
10.450075 11.217361 0.539311
10.763899 11.217361 0.656649
11.077723 11.217361 0.827193
11.391544 11.217361 1.028300
11.705368 11.217361 1.196646
12.019190 11.217361 1.349743
12.333014 11.217361 1.531406
12.646837 11.217361 1.694933
12.960659 11.217361 1.897358
13.274483 11.217361 2.091846
13.588306 11.217361 2.277722
13.902128 11.217361 2.425200
14.215952 11.217361 2.630320
14.529776 11.217361 2.845833
14.843597 11.217361 3.160251
15.157421 11.217361 3.175426
15.471243 11.217361 3.290971
15.785067 11.217361 3.337103
16.098890 11.217361 3.362802
16.412712 11.217361 3.266854
16.726536 11.217361 3.117725
17.040359 11.217361 3.349906
17.354181 11.217361 3.574804
17.668005 11.217361 3.857028
17.981829 11.217361 4.781548
18.295650 11.217361 7.064012
18.609474 11.217361 9.730581
18.923298 11.217361 0.000000
19.237120 11.217361 0.000000
-6.810190 10.903542 0.000000
-6.496367 10.903542 0.015896
-6.182544 10.903542 0.012733
-5.868721 10.903542 0.013278
-5.554898 10.903542 0.012840
-5.241075 10.903542 0.012742
-4.927252 10.903542 0.013040
-4.613429 10.903542 0.012890
-4.299606 10.903542 0.012500
-3.985783 10.903542 0.012661
-3.671960 10.903542 0.012534
-3.358137 10.903542 0.012697
-3.044314 10.903542 0.013221
-2.730491 10.903542 0.013867
-2.416668 10.903542 0.014561
-2.102845 10.903542 0.014968
-1.789022 10.903542 0.015386
-1.475199 10.903542 0.014934
-1.161376 10.903542 0.014768
-0.847553 10.903542 0.014679
-0.533730 10.903542 0.015155
-0.219907 10.903542 0.016091
0.093916 10.903542 0.016338
0.407739 10.903542 0.016384
0.721562 10.903542 0.016485
1.035385 10.903542 0.016071
1.349208 10.903542 0.016142
1.663032 10.903542 0.017099
1.976854 10.903542 0.017370
2.290677 10.903542 0.017143
2.604500 10.903542 0.017195
2.918324 10.903542 0.017348
3.232146 10.903542 0.017749
3.545969 10.903542 0.018885
3.859793 10.903542 0.019398
4.173615 10.903542 0.019609
4.487438 10.903542 0.020029
4.801261 10.903542 0.020168
5.115085 10.903542 0.020559
5.428907 10.903542 0.021049
5.742730 10.903542 0.021413
6.056554 10.903542 0.022196
6.370377 10.903542 0.023640
6.684199 10.903542 0.025494
6.998022 10.903542 0.027336
7.311846 10.903542 0.030568
7.625669 10.903542 0.035261
7.939491 10.903542 0.043334
8.253315 10.903542 0.055975
8.567138 10.903542 0.074757
8.880960 10.903542 0.106279
9.194784 10.903542 0.153126
9.508606 10.903542 0.222165
9.822430 10.903542 0.316066
10.136253 10.903542 0.419544
10.450075 10.903542 0.540469
10.763899 10.903542 0.683197
11.077723 10.903542 0.852140
11.391544 10.903542 1.051027
11.705368 10.903542 1.181531
12.019190 10.903542 1.346846
12.333014 10.903542 1.514421
12.646837 10.903542 1.700576
12.960659 10.903542 1.942554
13.274483 10.903542 2.112899
13.588306 10.903542 2.286345
13.902128 10.903542 2.411123
14.215952 10.903542 2.651742
14.529776 10.903542 2.999778
14.843597 10.903542 3.119596
15.157421 10.903542 3.309163
15.471243 10.903542 3.306173
15.785067 10.903542 3.403511
16.098890 10.903542 3.393626
16.412712 10.903542 3.310880
16.726536 10.903542 3.383272
17.040359 10.903542 3.594457
17.354181 10.903542 3.799450
17.668005 10.903542 4.172188
17.981829 10.903542 5.086543
18.295650 10.903542 7.569030
18.609474 10.903542 10.364133
18.923298 10.903542 0.000000
19.237120 10.903542 0.000000
-6.810190 10.589718 0.000000
-6.496367 10.589718 0.016465
-6.182544 10.589718 0.012968
-5.868721 10.589718 0.013183
-5.554898 10.589718 0.012630
-5.241075 10.589718 0.012201
-4.927252 10.589718 0.012701
-4.613429 10.589718 0.012679
-4.299606 10.589718 0.012471
-3.985783 10.589718 0.012610
-3.671960 10.589718 0.012632
-3.358137 10.589718 0.013071
-3.044314 10.589718 0.013552
-2.730491 10.589718 0.014124
-2.416668 10.589718 0.014606
-2.102845 10.589718 0.014728
-1.789022 10.589718 0.015191
-1.475199 10.589718 0.014923
-1.161376 10.589718 0.014728
-0.847553 10.589718 0.014601
-0.533730 10.589718 0.015279
-0.219907 10.589718 0.016011
0.093916 10.589718 0.016132
0.407739 10.589718 0.016463
0.721562 10.589718 0.016633
1.035385 10.589718 0.016213
1.349208 10.589718 0.016055
1.663032 10.589718 0.017136
1.976854 10.589718 0.017734
2.290677 10.589718 0.017496
2.604500 10.589718 0.017219
2.918324 10.589718 0.017493
3.232146 10.589718 0.017927
3.545969 10.589718 0.019029
3.859793 10.589718 0.019528
4.173615 10.589718 0.019294
4.487438 10.589718 0.019492
4.801261 10.589718 0.019724
5.115085 10.589718 0.020386
5.428907 10.589718 0.021195
5.742730 10.589718 0.022002
6.056554 10.589718 0.022727
6.370377 10.589718 0.024391
6.684199 10.589718 0.026520
6.998022 10.589718 0.027893
7.311846 10.589718 0.030706
7.625669 10.589718 0.035263
7.939491 10.589718 0.043255
8.253315 10.589718 0.055260
8.567138 10.589718 0.075897
8.880960 10.589718 0.106747
9.194784 10.589718 0.153448
9.508606 10.589718 0.225285
9.822430 10.589718 0.318786
10.136253 10.589718 0.418652
10.450075 10.589718 0.555757
10.763899 10.589718 0.695724
11.077723 10.589718 0.864329
11.391544 10.589718 1.026477
11.705368 10.589718 1.176899
12.019190 10.589718 1.350348
12.333014 10.589718 1.553910
12.646837 10.589718 1.715034
12.960659 10.589718 1.937834
13.274483 10.589718 2.130377
13.588306 10.589718 2.337210
13.902128 10.589718 2.455863
14.215952 10.589718 2.733303
14.529776 10.589718 2.973284
14.843597 10.589718 3.179035
15.157421 10.589718 3.307358
15.471243 10.589718 3.475080
15.785067 10.589718 3.426967
16.098890 10.589718 3.602564
16.412712 10.589718 3.584347
16.726536 10.589718 3.659019
17.040359 10.589718 3.817728
17.354181 10.589718 4.034558
17.668005 10.589718 4.338918
17.981829 10.589718 5.457346
18.295650 10.589718 7.994014
18.609474 10.589718 10.951406
18.923298 10.589718 0.000000
19.237120 10.589718 0.000000
-6.810190 10.275894 0.000000
-6.496367 10.275894 0.016136
-6.182544 10.275894 0.012755
-5.868721 10.275894 0.012864
-5.554898 10.275894 0.012379
-5.241075 10.275894 0.012137
-4.927252 10.275894 0.012737
-4.613429 10.275894 0.012914
-4.299606 10.275894 0.012753
-3.985783 10.275894 0.012851
-3.671960 10.275894 0.013074
-3.358137 10.275894 0.013355
-3.044314 10.275894 0.013565
-2.730491 10.275894 0.014025
-2.416668 10.275894 0.014415
-2.102845 10.275894 0.014054
-1.789022 10.275894 0.014504
-1.475199 10.275894 0.014678
-1.161376 10.275894 0.014668
-0.847553 10.275894 0.014684
-0.533730 10.275894 0.015322
-0.219907 10.275894 0.015902
0.093916 10.275894 0.015756
0.407739 10.275894 0.016059
0.721562 10.275894 0.016501
1.035385 10.275894 0.016484
1.349208 10.275894 0.016263
1.663032 10.275894 0.017114
1.976854 10.275894 0.017633
2.290677 10.275894 0.017596
2.604500 10.275894 0.017239
2.918324 10.275894 0.017615
3.232146 10.275894 0.018202
3.545969 10.275894 0.018826
3.859793 10.275894 0.019240
4.173615 10.275894 0.019007
4.487438 10.275894 0.019286
4.801261 10.275894 0.020027
5.115085 10.275894 0.020462
5.428907 10.275894 0.021623
5.742730 10.275894 0.022636
6.056554 10.275894 0.023224
6.370377 10.275894 0.024476
6.684199 10.275894 0.026675
6.998022 10.275894 0.027984
7.311846 10.275894 0.030574
7.625669 10.275894 0.034971
7.939491 10.275894 0.043212
8.253315 10.275894 0.055533
8.567138 10.275894 0.078356
8.880960 10.275894 0.109687
9.194784 10.275894 0.155302
9.508606 10.275894 0.222982
9.822430 10.275894 0.315841
10.136253 10.275894 0.426665
10.450075 10.275894 0.559614
10.763899 10.275894 0.710547
11.077723 10.275894 0.867126
11.391544 10.275894 1.017471
11.705368 10.275894 1.173518
12.019190 10.275894 1.348914
12.333014 10.275894 1.561176
12.646837 10.275894 1.779775
12.960659 10.275894 1.933692
13.274483 10.275894 2.117448
13.588306 10.275894 2.343948
13.902128 10.275894 2.563996
14.215952 10.275894 2.800493
14.529776 10.275894 3.039751
14.843597 10.275894 3.283291
15.157421 10.275894 3.395934
15.471243 10.275894 3.479762
15.785067 10.275894 3.624743
16.098890 10.275894 3.751814
16.412712 10.275894 3.927937
16.726536 10.275894 4.075202
17.040359 10.275894 4.162597
17.354181 10.275894 4.142138
17.668005 10.275894 4.591347
17.981829 10.275894 5.858859
18.295650 10.275894 8.607285
18.609474 10.275894 12.060861
18.923298 10.275894 0.000000
19.237120 10.275894 0.000000
-6.810190 9.962070 0.000000
-6.496367 9.962070 0.015415
-6.182544 9.962070 0.012544
-5.868721 9.962070 0.012980
-5.554898 9.962070 0.012518
-5.241075 9.962070 0.012429
-4.927252 9.962070 0.012843
-4.613429 9.962070 0.013194
-4.299606 9.962070 0.013305
-3.985783 9.962070 0.013281
-3.671960 9.962070 0.013399
-3.358137 9.962070 0.013571
-3.044314 9.962070 0.013423
-2.730491 9.962070 0.013755
-2.416668 9.962070 0.014040
-2.102845 9.962070 0.013737
-1.789022 9.962070 0.014161
-1.475199 9.962070 0.014510
-1.161376 9.962070 0.014711
-0.847553 9.962070 0.014851
-0.533730 9.962070 0.015527
-0.219907 9.962070 0.015928
0.093916 9.962070 0.015696
0.407739 9.962070 0.015888
0.721562 9.962070 0.016279
1.035385 9.962070 0.016621
1.349208 9.962070 0.016674
1.663032 9.962070 0.017051
1.976854 9.962070 0.017308
2.290677 9.962070 0.017466
2.604500 9.962070 0.017219
2.918324 9.962070 0.017703
3.232146 9.962070 0.018476
3.545969 9.962070 0.018856
3.859793 9.962070 0.019318
4.173615 9.962070 0.019440
4.487438 9.962070 0.020057
4.801261 9.962070 0.020760
5.115085 9.962070 0.020784
5.428907 9.962070 0.021944
5.742730 9.962070 0.023148
6.056554 9.962070 0.023404
6.370377 9.962070 0.024280
6.684199 9.962070 0.026440
6.998022 9.962070 0.028212
7.311846 9.962070 0.031297
7.625669 9.962070 0.035970
7.939491 9.962070 0.043226
8.253315 9.962070 0.055658
8.567138 9.962070 0.077041
8.880960 9.962070 0.110697
9.194784 9.962070 0.160454
9.508606 9.962070 0.230259
9.822430 9.962070 0.319172
10.136253 9.962070 0.433477
10.450075 9.962070 0.555933
10.763899 9.962070 0.714379
11.077723 9.962070 0.857867
11.391544 9.962070 1.030184
11.705368 9.962070 1.195012
12.019190 9.962070 1.410901
12.333014 9.962070 1.586322
12.646837 9.962070 1.764184
12.960659 9.962070 1.963040
13.274483 9.962070 2.173880
13.588306 9.962070 2.329365
13.902128 9.962070 2.605427
14.215952 9.962070 2.879061
14.529776 9.962070 3.051055
14.843597 9.962070 3.198270
15.157421 9.962070 3.460069
15.471243 9.962070 3.533763
15.785067 9.962070 3.578286
16.098890 9.962070 3.885494
16.412712 9.962070 4.216789
16.726536 9.962070 4.448778
17.040359 9.962070 4.427231
17.354181 9.962070 4.454309
17.668005 9.962070 4.911719
17.981829 9.962070 6.247268
18.295650 9.962070 9.424670
18.609474 9.962070 12.621711
18.923298 9.962070 0.000000
19.237120 9.962070 0.000000
-6.810190 9.648247 0.000000
-6.496367 9.648247 0.015073
-6.182544 9.648247 0.012614
-5.868721 9.648247 0.013089
-5.554898 9.648247 0.012683
-5.241075 9.648247 0.012761
-4.927252 9.648247 0.012927
-4.613429 9.648247 0.013305
-4.299606 9.648247 0.013679
-3.985783 9.648247 0.013591
-3.671960 9.648247 0.013709
-3.358137 9.648247 0.013743
-3.044314 9.648247 0.013491
-2.730491 9.648247 0.013790
-2.416668 9.648247 0.013971
-2.102845 9.648247 0.014153
-1.789022 9.648247 0.014618
-1.475199 9.648247 0.014681
-1.161376 9.648247 0.014836
-0.847553 9.648247 0.015011
-0.533730 9.648247 0.015648
-0.219907 9.648247 0.016103
0.093916 9.648247 0.016078
0.407739 9.648247 0.016014
0.721562 9.648247 0.016117
1.035385 9.648247 0.016427
1.349208 9.648247 0.016928
1.663032 9.648247 0.016915
1.976854 9.648247 0.017033
2.290677 9.648247 0.017451
2.604500 9.648247 0.017397
2.918324 9.648247 0.017919
3.232146 9.648247 0.018855
3.545969 9.648247 0.019265
3.859793 9.648247 0.019718
4.173615 9.648247 0.020022
4.487438 9.648247 0.020719
4.801261 9.648247 0.021262
5.115085 9.648247 0.020853
5.428907 9.648247 0.021979
5.742730 9.648247 0.023480
6.056554 9.648247 0.023501
6.370377 9.648247 0.024319
6.684199 9.648247 0.026442
6.998022 9.648247 0.028815
7.311846 9.648247 0.032195
7.625669 9.648247 0.036879
7.939491 9.648247 0.044044
8.253315 9.648247 0.056778
8.567138 9.648247 0.077099
8.880960 9.648247 0.112207
9.194784 9.648247 0.165643
9.508606 9.648247 0.240260
9.822430 9.648247 0.324102
10.136253 9.648247 0.433900
10.450075 9.648247 0.557884
10.763899 9.648247 0.707591
11.077723 9.648247 0.874138
11.391544 9.648247 1.068251
11.705368 9.648247 1.220304
12.019190 9.648247 1.418205
12.333014 9.648247 1.622186
12.646837 9.648247 1.771504
12.960659 9.648247 2.019895
13.274483 9.648247 2.141951
13.588306 9.648247 2.330552
13.902128 9.648247 2.567893
14.215952 9.648247 2.873664
14.529776 9.648247 3.094262
14.843597 9.648247 3.230661
15.157421 9.648247 3.365377
15.471243 9.648247 3.512995
15.785067 9.648247 3.702127
16.098890 9.648247 3.993516
16.412712 9.648247 4.490283
16.726536 9.648247 4.713892
17.040359 9.648247 4.548063
17.354181 9.648247 4.637529
17.668005 9.648247 5.288984
17.981829 9.648247 6.778654
18.295650 9.648247 10.019032
18.609474 9.648247 13.804651
18.923298 9.648247 0.000000
19.237120 9.648247 0.000000
-6.810190 9.334423 0.000000
-6.496367 9.334423 0.015280
-6.182544 9.334423 0.012889
-5.868721 9.334423 0.013179
-5.554898 9.334423 0.012647
-5.241075 9.334423 0.012922
-4.927252 9.334423 0.013078
-4.613429 9.334423 0.013343
-4.299606 9.334423 0.013951
-3.985783 9.334423 0.013780
-3.671960 9.334423 0.013753
-3.358137 9.334423 0.013926
-3.044314 9.334423 0.013917
-2.730491 9.334423 0.014043
-2.416668 9.334423 0.014114
-2.102845 9.334423 0.014900
-1.789022 9.334423 0.015346
-1.475199 9.334423 0.014964
-1.161376 9.334423 0.014977
-0.847553 9.334423 0.015193
-0.533730 9.334423 0.015766
-0.219907 9.334423 0.016333
0.093916 9.334423 0.016521
0.407739 9.334423 0.016244
0.721562 9.334423 0.016243
1.035385 9.334423 0.016315
1.349208 9.334423 0.016775
1.663032 9.334423 0.016817
1.976854 9.334423 0.017045
2.290677 9.334423 0.017521
2.604500 9.334423 0.017769
2.918324 9.334423 0.018246
3.232146 9.334423 0.019134
3.545969 9.334423 0.019619
3.859793 9.334423 0.019765
4.173615 9.334423 0.019852
4.487438 9.334423 0.020837
4.801261 9.334423 0.021447
5.115085 9.334423 0.020893
5.428907 9.334423 0.021938
5.742730 9.334423 0.023527
6.056554 9.334423 0.023579
6.370377 9.334423 0.024551
6.684199 9.334423 0.026437
6.998022 9.334423 0.028959
7.311846 9.334423 0.032444
7.625669 9.334423 0.036850
7.939491 9.334423 0.044748
8.253315 9.334423 0.057380
8.567138 9.334423 0.079866
8.880960 9.334423 0.114919
9.194784 9.334423 0.167202
9.508606 9.334423 0.236963
9.822430 9.334423 0.327270
10.136253 9.334423 0.426296
10.450075 9.334423 0.560145
10.763899 9.334423 0.703140
11.077723 9.334423 0.879543
11.391544 9.334423 1.064174
11.705368 9.334423 1.224504
12.019190 9.334423 1.465745
12.333014 9.334423 1.682739
12.646837 9.334423 1.829796
12.960659 9.334423 2.014606
13.274483 9.334423 2.146776
13.588306 9.334423 2.361280
13.902128 9.334423 2.572780
14.215952 9.334423 2.871417
14.529776 9.334423 3.077128
14.843597 9.334423 3.283670
15.157421 9.334423 3.448020
15.471243 9.334423 3.645769
15.785067 9.334423 3.784804
16.098890 9.334423 4.173143
16.412712 9.334423 4.381265
16.726536 9.334423 4.470603
17.040359 9.334423 4.626548
17.354181 9.334423 4.934127
17.668005 9.334423 5.663359
17.981829 9.334423 7.263408
18.295650 9.334423 11.298200
18.609474 9.334423 15.589591
18.923298 9.334423 0.000000
19.237120 9.334423 0.000000
-6.810190 9.020603 0.000000
-6.496367 9.020603 0.015499
-6.182544 9.020603 0.013051
-5.868721 9.020603 0.013189
-5.554898 9.020603 0.012433
-5.241075 9.020603 0.012797
-4.927252 9.020603 0.013310
-4.613429 9.020603 0.013463
-4.299606 9.020603 0.013842
-3.985783 9.020603 0.013732
-3.671960 9.020603 0.013629
-3.358137 9.020603 0.013862
-3.044314 9.020603 0.014212
-2.730491 9.020603 0.014285
-2.416668 9.020603 0.014293
-2.102845 9.020603 0.015476
-1.789022 9.020603 0.016083
-1.475199 9.020603 0.015330
-1.161376 9.020603 0.014941
-0.847553 9.020603 0.015292
-0.533730 9.020603 0.015888
-0.219907 9.020603 0.016432
0.093916 9.020603 0.016568
0.407739 9.020603 0.016409
0.721562 9.020603 0.016460
1.035385 9.020603 0.016431
1.349208 9.020603 0.016731
1.663032 9.020603 0.017128
1.976854 9.020603 0.017553
2.290677 9.020603 0.017827
2.604500 9.020603 0.017853
2.918324 9.020603 0.018250
3.232146 9.020603 0.019256
3.545969 9.020603 0.019652
3.859793 9.020603 0.019610
4.173615 9.020603 0.019503
4.487438 9.020603 0.020517
4.801261 9.020603 0.021328
5.115085 9.020603 0.021099
5.428907 9.020603 0.021949
5.742730 9.020603 0.023349
6.056554 9.020603 0.023692
6.370377 9.020603 0.024777
6.684199 9.020603 0.026297
6.998022 9.020603 0.028973
7.311846 9.020603 0.031975
7.625669 9.020603 0.036824
7.939491 9.020603 0.045871
8.253315 9.020603 0.059750
8.567138 9.020603 0.081466
8.880960 9.020603 0.119314
9.194784 9.020603 0.170412
9.508606 9.020603 0.241740
9.822430 9.020603 0.326682
10.136253 9.020603 0.445894
10.450075 9.020603 0.563376
10.763899 9.020603 0.700055
11.077723 9.020603 0.870099
11.391544 9.020603 1.067284
11.705368 9.020603 1.261862
12.019190 9.020603 1.451847
12.333014 9.020603 1.712209
12.646837 9.020603 1.890500
12.960659 9.020603 2.037078
13.274483 9.020603 2.218890
13.588306 9.020603 2.417338
13.902128 9.020603 2.553488
14.215952 9.020603 2.870916
14.529776 9.020603 3.088553
14.843597 9.020603 3.305365
15.157421 9.020603 3.445847
15.471243 9.020603 3.688801
15.785067 9.020603 3.930631
16.098890 9.020603 4.141319
16.412712 9.020603 4.372010
16.726536 9.020603 4.443460
17.040359 9.020603 4.520231
17.354181 9.020603 5.080092
17.668005 9.020603 5.930561
17.981829 9.020603 7.958467
18.295650 9.020603 12.144079
18.609474 9.020603 17.060614
18.923298 9.020603 0.000000
19.237120 9.020603 0.000000
-6.810190 8.706779 0.000000
-6.496367 8.706779 0.015716
-6.182544 8.706779 0.012979
-5.868721 8.706779 0.013059
-5.554898 8.706779 0.012379
-5.241075 8.706779 0.012671
-4.927252 8.706779 0.013361
-4.613429 8.706779 0.013472
-4.299606 8.706779 0.013570
-3.985783 8.706779 0.013491
-3.671960 8.706779 0.013395
-3.358137 8.706779 0.013757
-3.044314 8.706779 0.014254
-2.730491 8.706779 0.014423
-2.416668 8.706779 0.014365
-2.102845 8.706779 0.015498
-1.789022 8.706779 0.016208
-1.475199 8.706779 0.015542
-1.161376 8.706779 0.015104
-0.847553 8.706779 0.015296
-0.533730 8.706779 0.016011
-0.219907 8.706779 0.016339
0.093916 8.706779 0.016383
0.407739 8.706779 0.016407
0.721562 8.706779 0.016738
1.035385 8.706779 0.016797
1.349208 8.706779 0.017006
1.663032 8.706779 0.017565
1.976854 8.706779 0.018361
2.290677 8.706779 0.018029
2.604500 8.706779 0.017531
2.918324 8.706779 0.017848
3.232146 8.706779 0.019244
3.545969 8.706779 0.019913
3.859793 8.706779 0.019844
4.173615 8.706779 0.019706
4.487438 8.706779 0.020655
4.801261 8.706779 0.021563
5.115085 8.706779 0.021178
5.428907 8.706779 0.022062
5.742730 8.706779 0.023185
6.056554 8.706779 0.023662
6.370377 8.706779 0.024821
6.684199 8.706779 0.026468
6.998022 8.706779 0.029355
7.311846 8.706779 0.032584
7.625669 8.706779 0.038014
7.939491 8.706779 0.047897
8.253315 8.706779 0.062430
8.567138 8.706779 0.085679
8.880960 8.706779 0.123141
9.194784 8.706779 0.175670
9.508606 8.706779 0.249140
9.822430 8.706779 0.335911
10.136253 8.706779 0.447855
10.450075 8.706779 0.577973
10.763899 8.706779 0.715512
11.077723 8.706779 0.882040
11.391544 8.706779 1.090446
11.705368 8.706779 1.294246
12.019190 8.706779 1.480515
12.333014 8.706779 1.762803
12.646837 8.706779 1.909556
12.960659 8.706779 2.060456
13.274483 8.706779 2.239574
13.588306 8.706779 2.448253
13.902128 8.706779 2.579005
14.215952 8.706779 2.833889
14.529776 8.706779 3.055307
14.843597 8.706779 3.351099
15.157421 8.706779 3.454141
15.471243 8.706779 3.771025
15.785067 8.706779 4.020085
16.098890 8.706779 4.129665
16.412712 8.706779 4.295137
16.726536 8.706779 4.276714
17.040359 8.706779 4.439681
17.354181 8.706779 5.059569
17.668005 8.706779 6.399106
17.981829 8.706779 8.635650
18.295650 8.706779 13.613951
18.609474 8.706779 17.546713
18.923298 8.706779 0.000000
19.237120 8.706779 0.000000
-6.810190 8.392956 0.000000
-6.496367 8.392956 0.015813
-6.182544 8.392956 0.012625
-5.868721 8.392956 0.012721
-5.554898 8.392956 0.012469
-5.241075 8.392956 0.012765
-4.927252 8.392956 0.013320
-4.613429 8.392956 0.013327
-4.299606 8.392956 0.013143
-3.985783 8.392956 0.013239
-3.671960 8.392956 0.013324
-3.358137 8.392956 0.013818
-3.044314 8.392956 0.014271
-2.730491 8.392956 0.014455
-2.416668 8.392956 0.014252
-2.102845 8.392956 0.014989
-1.789022 8.392956 0.015593
-1.475199 8.392956 0.015513
-1.161376 8.392956 0.015381
-0.847553 8.392956 0.015428
-0.533730 8.392956 0.015918
-0.219907 8.392956 0.016113
0.093916 8.392956 0.016204
0.407739 8.392956 0.016265
0.721562 8.392956 0.016700
1.035385 8.392956 0.016983
1.349208 8.392956 0.017129
1.663032 8.392956 0.017582
1.976854 8.392956 0.018473
2.290677 8.392956 0.018264
2.604500 8.392956 0.017433
2.918324 8.392956 0.017930
3.232146 8.392956 0.019256
3.545969 8.392956 0.020101
3.859793 8.392956 0.020228
4.173615 8.392956 0.020138
4.487438 8.392956 0.020495
4.801261 8.392956 0.021272
5.115085 8.392956 0.021137
5.428907 8.392956 0.022249
5.742730 8.392956 0.023386
6.056554 8.392956 0.023813
6.370377 8.392956 0.024887
6.684199 8.392956 0.026963
6.998022 8.392956 0.030480
7.311846 8.392956 0.034378
7.625669 8.392956 0.039123
7.939491 8.392956 0.049585
8.253315 8.392956 0.063482
8.567138 8.392956 0.088185
8.880960 8.392956 0.126140
9.194784 8.392956 0.183911
9.508606 8.392956 0.257881
9.822430 8.392956 0.350450
10.136253 8.392956 0.463676
10.450075 8.392956 0.600085
10.763899 8.392956 0.736033
11.077723 8.392956 0.889519
11.391544 8.392956 1.087780
11.705368 8.392956 1.281609
12.019190 8.392956 1.497821
12.333014 8.392956 1.759758
12.646837 8.392956 1.958314
12.960659 8.392956 2.162870
13.274483 8.392956 2.269672
13.588306 8.392956 2.453533
13.902128 8.392956 2.619926
14.215952 8.392956 2.807969
14.529776 8.392956 3.070969
14.843597 8.392956 3.304524
15.157421 8.392956 3.392879
15.471243 8.392956 3.688727
15.785067 8.392956 3.941836
16.098890 8.392956 4.276858
16.412712 8.392956 4.335890
16.726536 8.392956 4.443891
17.040359 8.392956 4.585689
17.354181 8.392956 5.394569
17.668005 8.392956 6.686084
17.981829 8.392956 9.718525
18.295650 8.392956 14.911264
18.609474 8.392956 20.158310
18.923298 8.392956 0.000000
19.237120 8.392956 0.000000
-6.810190 8.079132 0.000000
-6.496367 8.079132 0.015725
-6.182544 8.079132 0.012340
-5.868721 8.079132 0.012457
-5.554898 8.079132 0.012493
-5.241075 8.079132 0.012737
-4.927252 8.079132 0.013201
-4.613429 8.079132 0.013260
-4.299606 8.079132 0.013124
-3.985783 8.079132 0.013270
-3.671960 8.079132 0.013663
-3.358137 8.079132 0.014116
-3.044314 8.079132 0.014301
-2.730491 8.079132 0.014263
-2.416668 8.079132 0.014078
-2.102845 8.079132 0.014438
-1.789022 8.079132 0.014978
-1.475199 8.079132 0.015380
-1.161376 8.079132 0.015608
-0.847553 8.079132 0.015573
-0.533730 8.079132 0.015751
-0.219907 8.079132 0.015911
0.093916 8.079132 0.016015
0.407739 8.079132 0.016133
0.721562 8.079132 0.016486
1.035385 8.079132 0.016839
1.349208 8.079132 0.017024
1.663032 8.079132 0.017101
1.976854 8.079132 0.018114
2.290677 8.079132 0.018516
2.604500 8.079132 0.017908
2.918324 8.079132 0.018119
3.232146 8.079132 0.019199
3.545969 8.079132 0.019779
3.859793 8.079132 0.020166
4.173615 8.079132 0.020198
4.487438 8.079132 0.020115
4.801261 8.079132 0.020830
5.115085 8.079132 0.021257
5.428907 8.079132 0.022636
5.742730 8.079132 0.023912
6.056554 8.079132 0.024340
6.370377 8.079132 0.025661
6.684199 8.079132 0.027738
6.998022 8.079132 0.031192
7.311846 8.079132 0.035487
7.625669 8.079132 0.040299
7.939491 8.079132 0.050492
8.253315 8.079132 0.064513
8.567138 8.079132 0.089765
8.880960 8.079132 0.128980
9.194784 8.079132 0.192608
9.508606 8.079132 0.264133
9.822430 8.079132 0.362512
10.136253 8.079132 0.486681
10.450075 8.079132 0.614038
10.763899 8.079132 0.734889
11.077723 8.079132 0.905215
11.391544 8.079132 1.067469
11.705368 8.079132 1.276839
12.019190 8.079132 1.507684
12.333014 8.079132 1.798184
12.646837 8.079132 1.969363
12.960659 8.079132 2.174874
13.274483 8.079132 2.346793
13.588306 8.079132 2.506165
13.902128 8.079132 2.635923
14.215952 8.079132 2.910912
14.529776 8.079132 3.149539
14.843597 8.079132 3.297867
15.157421 8.079132 3.418705
15.471243 8.079132 3.741994
15.785067 8.079132 4.069716
16.098890 8.079132 4.172715
16.412712 8.079132 4.448813
16.726536 8.079132 4.524298
17.040359 8.079132 4.926420
17.354181 8.079132 5.410929
17.668005 8.079132 7.110957
17.981829 8.079132 10.544511
18.295650 8.079132 16.053659
18.609474 8.079132 22.518623
18.923298 8.079132 0.000000
19.237120 8.079132 0.000000
-6.810190 7.765308 0.000000
-6.496367 7.765308 0.015506
-6.182544 7.765308 0.012297
-5.868721 7.765308 0.012413
-5.554898 7.765308 0.012586
-5.241075 7.765308 0.012681
-4.927252 7.765308 0.013134
-4.613429 7.765308 0.013482
-4.299606 7.765308 0.013340
-3.985783 7.765308 0.013609
-3.671960 7.765308 0.014170
-3.358137 7.765308 0.014509
-3.044314 7.765308 0.014377
-2.730491 7.765308 0.014102
-2.416668 7.765308 0.013966
-2.102845 7.765308 0.014231
-1.789022 7.765308 0.014834
-1.475199 7.765308 0.015383
-1.161376 7.765308 0.015479
-0.847553 7.765308 0.015368
-0.533730 7.765308 0.015725
-0.219907 7.765308 0.015969
0.093916 7.765308 0.016026
0.407739 7.765308 0.015954
0.721562 7.765308 0.016248
1.035385 7.765308 0.016903
1.349208 7.765308 0.017165
1.663032 7.765308 0.017076
1.976854 7.765308 0.017955
2.290677 7.765308 0.018993
2.604500 7.765308 0.018559
2.918324 7.765308 0.018301
3.232146 7.765308 0.018933
3.545969 7.765308 0.019349
3.859793 7.765308 0.019974
4.173615 7.765308 0.020236
4.487438 7.765308 0.020274
4.801261 7.765308 0.021123
5.115085 7.765308 0.022096
5.428907 7.765308 0.023404
5.742730 7.765308 0.024461
6.056554 7.765308 0.024683
6.370377 7.765308 0.025920
6.684199 7.765308 0.028141
6.998022 7.765308 0.031511
7.311846 7.765308 0.035695
7.625669 7.765308 0.041437
7.939491 7.765308 0.051567
8.253315 7.765308 0.066135
8.567138 7.765308 0.090252
8.880960 7.765308 0.130002
9.194784 7.765308 0.191060
9.508606 7.765308 0.268482
9.822430 7.765308 0.373823
10.136253 7.765308 0.497799
10.450075 7.765308 0.622939
10.763899 7.765308 0.754208
11.077723 7.765308 0.925276
11.391544 7.765308 1.088283
11.705368 7.765308 1.278303
12.019190 7.765308 1.528911
12.333014 7.765308 1.752860
12.646837 7.765308 2.028204
12.960659 7.765308 2.197747
13.274483 7.765308 2.431822
13.588306 7.765308 2.572039
13.902128 7.765308 2.678344
14.215952 7.765308 2.889786
14.529776 7.765308 3.122442
14.843597 7.765308 3.327944
15.157421 7.765308 3.473875
15.471243 7.765308 3.813629
15.785067 7.765308 4.132294
16.098890 7.765308 4.208524
16.412712 7.765308 4.529575
16.726536 7.765308 4.796994
17.040359 7.765308 5.247742
17.354181 7.765308 6.080012
17.668005 7.765308 7.865984
17.981829 7.765308 11.122992
18.295650 7.765308 17.785057
18.609474 7.765308 23.766357
18.923298 7.765308 0.000000
19.237120 7.765308 0.000000
-6.810190 7.451488 0.000000
-6.496367 7.451488 0.015596
-6.182544 7.451488 0.012496
-5.868721 7.451488 0.012634
-5.554898 7.451488 0.012906
-5.241075 7.451488 0.012828
-4.927252 7.451488 0.013109
-4.613429 7.451488 0.013689
-4.299606 7.451488 0.013645
-3.985783 7.451488 0.013722
-3.671960 7.451488 0.014357
-3.358137 7.451488 0.014745
-3.044314 7.451488 0.014690
-2.730491 7.451488 0.014342
-2.416668 7.451488 0.014098
-2.102845 7.451488 0.014435
-1.789022 7.451488 0.015184
-1.475199 7.451488 0.015402
-1.161376 7.451488 0.015027
-0.847553 7.451488 0.015036
-0.533730 7.451488 0.015929
-0.219907 7.451488 0.016169
0.093916 7.451488 0.016207
0.407739 7.451488 0.016049
0.721562 7.451488 0.016475
1.035385 7.451488 0.017201
1.349208 7.451488 0.017389
1.663032 7.451488 0.017391
1.976854 7.451488 0.018103
2.290677 7.451488 0.019058
2.604500 7.451488 0.018448
2.918324 7.451488 0.018327
3.232146 7.451488 0.018983
3.545969 7.451488 0.019381
3.859793 7.451488 0.020054
4.173615 7.451488 0.020896
4.487438 7.451488 0.021144
4.801261 7.451488 0.021803
5.115085 7.451488 0.022759
5.428907 7.451488 0.023819
5.742730 7.451488 0.024294
6.056554 7.451488 0.024454
6.370377 7.451488 0.025339
6.684199 7.451488 0.027545
6.998022 7.451488 0.031259
7.311846 7.451488 0.035840
7.625669 7.451488 0.042188
7.939491 7.451488 0.052831
8.253315 7.451488 0.068577
8.567138 7.451488 0.094550
8.880960 7.451488 0.133664
9.194784 7.451488 0.194770
9.508606 7.451488 0.272824
9.822430 7.451488 0.374429
10.136253 7.451488 0.504678
10.450075 7.451488 0.639705
10.763899 7.451488 0.784080
11.077723 7.451488 0.926295
11.391544 7.451488 1.122155
11.705368 7.451488 1.315895
12.019190 7.451488 1.565873
12.333014 7.451488 1.806369
12.646837 7.451488 2.034720
12.960659 7.451488 2.257629
13.274483 7.451488 2.397141
13.588306 7.451488 2.593469
13.902128 7.451488 2.718430
14.215952 7.451488 2.880690
14.529776 7.451488 3.134852
14.843597 7.451488 3.317881
15.157421 7.451488 3.538354
15.471243 7.451488 3.853698
15.785067 7.451488 4.086914
16.098890 7.451488 4.391841
16.412712 7.451488 4.694614
16.726536 7.451488 4.951547
17.040359 7.451488 5.492985
17.354181 7.451488 6.669241
17.668005 7.451488 8.204046
17.981829 7.451488 12.029717
18.295650 7.451488 18.539412
18.609474 7.451488 24.927521
18.923298 7.451488 0.000000
19.237120 7.451488 0.000000
-6.810190 7.137665 0.000000
-6.496367 7.137665 0.016101
-6.182544 7.137665 0.012936
-5.868721 7.137665 0.012905
-5.554898 7.137665 0.013114
-5.241075 7.137665 0.012964
-4.927252 7.137665 0.013112
-4.613429 7.137665 0.013650
-4.299606 7.137665 0.013660
-3.985783 7.137665 0.013581
-3.671960 7.137665 0.014265
-3.358137 7.137665 0.014720
-3.044314 7.137665 0.014948
-2.730491 7.137665 0.014630
-2.416668 7.137665 0.014367
-2.102845 7.137665 0.014762
-1.789022 7.137665 0.015515
-1.475199 7.137665 0.015371
-1.161376 7.137665 0.014646
-0.847553 7.137665 0.015174
-0.533730 7.137665 0.016284
-0.219907 7.137665 0.016749
0.093916 7.137665 0.016662
0.407739 7.137665 0.016419
0.721562 7.137665 0.017012
1.035385 7.137665 0.017574
1.349208 7.137665 0.017502
1.663032 7.137665 0.017581
1.976854 7.137665 0.018028
2.290677 7.137665 0.018509
2.604500 7.137665 0.018151
2.918324 7.137665 0.018530
3.232146 7.137665 0.019557
3.545969 7.137665 0.019913
3.859793 7.137665 0.020687
4.173615 7.137665 0.021467
4.487438 7.137665 0.021898
4.801261 7.137665 0.022371
5.115085 7.137665 0.022513
5.428907 7.137665 0.023218
5.742730 7.137665 0.023726
6.056554 7.137665 0.024036
6.370377 7.137665 0.024808
6.684199 7.137665 0.027259
6.998022 7.137665 0.031105
7.311846 7.137665 0.035700
7.625669 7.137665 0.042657
7.939491 7.137665 0.053809
8.253315 7.137665 0.072103
8.567138 7.137665 0.099461
8.880960 7.137665 0.137590
9.194784 7.137665 0.198308
9.508606 7.137665 0.280135
9.822430 7.137665 0.379294
10.136253 7.137665 0.506280
10.450075 7.137665 0.660411
10.763899 7.137665 0.811204
11.077723 7.137665 0.954979
11.391544 7.137665 1.097342
11.705368 7.137665 1.361578
12.019190 7.137665 1.577183
12.333014 7.137665 1.804759
12.646837 7.137665 2.099844
12.960659 7.137665 2.247856
13.274483 7.137665 2.430562
13.588306 7.137665 2.659335
13.902128 7.137665 2.716481
14.215952 7.137665 2.780172
14.529776 7.137665 3.101587
14.843597 7.137665 3.380566
15.157421 7.137665 3.631160
15.471243 7.137665 3.830004
15.785067 7.137665 4.263908
16.098890 7.137665 4.448435
16.412712 7.137665 4.827962
16.726536 7.137665 5.281837
17.040359 7.137665 6.022412
17.354181 7.137665 7.145507
17.668005 7.137665 9.167219
17.981829 7.137665 12.792051
18.295650 7.137665 19.527231
18.609474 7.137665 25.882650
18.923298 7.137665 0.000000
19.237120 7.137665 0.000000
-6.810190 6.823841 0.000000
-6.496367 6.823841 0.016465
-6.182544 6.823841 0.013096
-5.868721 6.823841 0.012915
-5.554898 6.823841 0.012893
-5.241075 6.823841 0.012857
-4.927252 6.823841 0.012954
-4.613429 6.823841 0.013396
-4.299606 6.823841 0.013507
-3.985783 6.823841 0.013499
-3.671960 6.823841 0.014119
-3.358137 6.823841 0.014755
-3.044314 6.823841 0.014963
-2.730491 6.823841 0.014671
-2.416668 6.823841 0.014487
-2.102845 6.823841 0.014826
-1.789022 6.823841 0.015599
-1.475199 6.823841 0.015378
-1.161376 6.823841 0.014710
-0.847553 6.823841 0.015435
-0.533730 6.823841 0.016528
-0.219907 6.823841 0.016851
0.093916 6.823841 0.016837
0.407739 6.823841 0.016700
0.721562 6.823841 0.017319
1.035385 6.823841 0.017604
1.349208 6.823841 0.017463
1.663032 6.823841 0.017810
1.976854 6.823841 0.017983
2.290677 6.823841 0.018171
2.604500 6.823841 0.018045
2.918324 6.823841 0.018828
3.232146 6.823841 0.020291
3.545969 6.823841 0.020625
3.859793 6.823841 0.021083
4.173615 6.823841 0.021658
4.487438 6.823841 0.022162
4.801261 6.823841 0.022251
5.115085 6.823841 0.022077
5.428907 6.823841 0.022921
5.742730 6.823841 0.023809
6.056554 6.823841 0.024562
6.370377 6.823841 0.025441
6.684199 6.823841 0.027302
6.998022 6.823841 0.030794
7.311846 6.823841 0.035647
7.625669 6.823841 0.043143
7.939491 6.823841 0.054651
8.253315 6.823841 0.074654
8.567138 6.823841 0.101463
8.880960 6.823841 0.138824
9.194784 6.823841 0.206898
9.508606 6.823841 0.287059
9.822430 6.823841 0.390174
10.136253 6.823841 0.522681
10.450075 6.823841 0.655202
10.763899 6.823841 0.807032
11.077723 6.823841 0.935558
11.391544 6.823841 1.122244
11.705368 6.823841 1.365043
12.019190 6.823841 1.618129
12.333014 6.823841 1.839836
12.646837 6.823841 2.035459
12.960659 6.823841 2.252692
13.274483 6.823841 2.438981
13.588306 6.823841 2.625556
13.902128 6.823841 2.775916
14.215952 6.823841 2.958922
14.529776 6.823841 3.094024
14.843597 6.823841 3.377351
15.157421 6.823841 3.693967
15.471243 6.823841 3.904516
15.785067 6.823841 4.258592
16.098890 6.823841 4.701276
16.412712 6.823841 5.041904
16.726536 6.823841 5.576371
17.040359 6.823841 6.366777
17.354181 6.823841 7.666507
17.668005 6.823841 9.629341
17.981829 6.823841 13.631369
18.295650 6.823841 20.914438
18.609474 6.823841 26.820902
18.923298 6.823841 0.000000
19.237120 6.823841 0.000000
-6.810190 6.510017 0.000000
-6.496367 6.510017 0.016236
-6.182544 6.510017 0.012839
-5.868721 6.510017 0.012683
-5.554898 6.510017 0.012555
-5.241075 6.510017 0.012825
-4.927252 6.510017 0.013037
-4.613429 6.510017 0.013320
-4.299606 6.510017 0.013471
-3.985783 6.510017 0.013580
-3.671960 6.510017 0.014326
-3.358137 6.510017 0.014918
-3.044314 6.510017 0.014947
-2.730491 6.510017 0.014599
-2.416668 6.510017 0.014488
-2.102845 6.510017 0.014964
-1.789022 6.510017 0.015735
-1.475199 6.510017 0.015639
-1.161376 6.510017 0.014874
-0.847553 6.510017 0.015647
-0.533730 6.510017 0.016486
-0.219907 6.510017 0.016636
0.093916 6.510017 0.016770
0.407739 6.510017 0.016762
0.721562 6.510017 0.017262
1.035385 6.510017 0.017462
1.349208 6.510017 0.017691
1.663032 6.510017 0.018419
1.976854 6.510017 0.018469
2.290677 6.510017 0.018136
2.604500 6.510017 0.017940
2.918324 6.510017 0.018764
3.232146 6.510017 0.020488
3.545969 6.510017 0.020925
3.859793 6.510017 0.020887
4.173615 6.510017 0.021168
4.487438 6.510017 0.021818
4.801261 6.510017 0.022167
5.115085 6.510017 0.022410
5.428907 6.510017 0.023354
5.742730 6.510017 0.024577
6.056554 6.510017 0.025725
6.370377 6.510017 0.026107
6.684199 6.510017 0.027571
6.998022 6.510017 0.030773
7.311846 6.510017 0.036062
7.625669 6.510017 0.043485
7.939491 6.510017 0.055920
8.253315 6.510017 0.075466
8.567138 6.510017 0.102566
8.880960 6.510017 0.147139
9.194784 6.510017 0.218381
9.508606 6.510017 0.301423
9.822430 6.510017 0.413249
10.136253 6.510017 0.531589
10.450075 6.510017 0.661651
10.763899 6.510017 0.790763
11.077723 6.510017 0.936812
11.391544 6.510017 1.128236
11.705368 6.510017 1.340367
12.019190 6.510017 1.623218
12.333014 6.510017 1.836493
12.646837 6.510017 2.052086
12.960659 6.510017 2.296087
13.274483 6.510017 2.397702
13.588306 6.510017 2.596273
13.902128 6.510017 2.846861
14.215952 6.510017 2.979830
14.529776 6.510017 3.185673
14.843597 6.510017 3.476920
15.157421 6.510017 3.792921
15.471243 6.510017 4.005198
15.785067 6.510017 4.551702
16.098890 6.510017 4.852854
16.412712 6.510017 5.266154
16.726536 6.510017 5.795034
17.040359 6.510017 6.607727
17.354181 6.510017 8.019108
17.668005 6.510017 10.645627
17.981829 6.510017 15.289001
18.295650 6.510017 22.642239
18.609474 6.510017 28.678186
18.923298 6.510017 0.000000
19.237120 6.510017 0.000000
-6.810190 6.196194 0.000000
-6.496367 6.196194 0.015954
-6.182544 6.196194 0.012559
-5.868721 6.196194 0.012550
-5.554898 6.196194 0.012423
-5.241075 6.196194 0.012972
-4.927252 6.196194 0.013412
-4.613429 6.196194 0.013541
-4.299606 6.196194 0.013669
-3.985783 6.196194 0.013829
-3.671960 6.196194 0.014649
-3.358137 6.196194 0.015072
-3.044314 6.196194 0.014818
-2.730491 6.196194 0.014483
-2.416668 6.196194 0.014536
-2.102845 6.196194 0.015131
-1.789022 6.196194 0.016056
-1.475199 6.196194 0.015829
-1.161376 6.196194 0.015041
-0.847553 6.196194 0.015822
-0.533730 6.196194 0.016274
-0.219907 6.196194 0.016304
0.093916 6.196194 0.016773
0.407739 6.196194 0.017049
0.721562 6.196194 0.017364
1.035385 6.196194 0.017521
1.349208 6.196194 0.017864
1.663032 6.196194 0.018692
1.976854 6.196194 0.018979
2.290677 6.196194 0.018477
2.604500 6.196194 0.017960
2.918324 6.196194 0.018709
3.232146 6.196194 0.020338
3.545969 6.196194 0.020883
3.859793 6.196194 0.020847
4.173615 6.196194 0.020829
4.487438 6.196194 0.021385
4.801261 6.196194 0.022382
5.115085 6.196194 0.023341
5.428907 6.196194 0.024242
5.742730 6.196194 0.025266
6.056554 6.196194 0.026352
6.370377 6.196194 0.026878
6.684199 6.196194 0.028062
6.998022 6.196194 0.031727
7.311846 6.196194 0.036810
7.625669 6.196194 0.044788
7.939491 6.196194 0.056634
8.253315 6.196194 0.075892
8.567138 6.196194 0.104382
8.880960 6.196194 0.149080
9.194784 6.196194 0.218407
9.508606 6.196194 0.306090
9.822430 6.196194 0.418589
10.136253 6.196194 0.546002
10.450075 6.196194 0.667192
10.763899 6.196194 0.789167
11.077723 6.196194 0.955108
11.391544 6.196194 1.138025
11.705368 6.196194 1.357650
12.019190 6.196194 1.664666
12.333014 6.196194 1.903988
12.646837 6.196194 2.124675
12.960659 6.196194 2.304888
13.274483 6.196194 2.427060
13.588306 6.196194 2.604751
13.902128 6.196194 2.889652
14.215952 6.196194 3.046249
14.529776 6.196194 3.337647
14.843597 6.196194 3.634519
15.157421 6.196194 3.945559
15.471243 6.196194 4.203931
15.785067 6.196194 4.677260
16.098890 6.196194 4.977971
16.412712 6.196194 5.521687
16.726536 6.196194 6.272752
17.040359 6.196194 6.968616
17.354181 6.196194 8.580750
17.668005 6.196194 11.863505
17.981829 6.196194 16.373470
18.295650 6.196194 22.974331
18.609474 6.196194 29.501587
18.923298 6.196194 0.000000
19.237120 6.196194 0.000000
-6.810190 5.882370 0.000000
-6.496367 5.882370 0.015975
-6.182544 5.882370 0.012504
-5.868721 5.882370 0.012645
-5.554898 5.882370 0.012601
-5.241075 5.882370 0.013120
-4.927252 5.882370 0.013689
-4.613429 5.882370 0.013668
-4.299606 5.882370 0.013878
-3.985783 5.882370 0.014177
-3.671960 5.882370 0.014650
-3.358137 5.882370 0.014951
-3.044314 5.882370 0.014778
-2.730491 5.882370 0.014595
-2.416668 5.882370 0.014830
-2.102845 5.882370 0.015560
-1.789022 5.882370 0.016603
-1.475199 5.882370 0.016275
-1.161376 5.882370 0.015567
-0.847553 5.882370 0.016069
-0.533730 5.882370 0.016376
-0.219907 5.882370 0.016534
0.093916 5.882370 0.016954
0.407739 5.882370 0.017582
0.721562 5.882370 0.017751
1.035385 5.882370 0.017521
1.349208 5.882370 0.017893
1.663032 5.882370 0.018637
1.976854 5.882370 0.019287
2.290677 5.882370 0.019324
2.604500 5.882370 0.018783
2.918324 5.882370 0.019198
3.232146 5.882370 0.020401
3.545969 5.882370 0.020969
3.859793 5.882370 0.021394
4.173615 5.882370 0.021063
4.487438 5.882370 0.021323
4.801261 5.882370 0.022629
5.115085 5.882370 0.024098
5.428907 5.882370 0.024872
5.742730 5.882370 0.025611
6.056554 5.882370 0.026566
6.370377 5.882370 0.027497
6.684199 5.882370 0.029215
6.998022 5.882370 0.033023
7.311846 5.882370 0.038602
7.625669 5.882370 0.046108
7.939491 5.882370 0.057159
8.253315 5.882370 0.076183
8.567138 5.882370 0.107840
8.880960 5.882370 0.152709
9.194784 5.882370 0.218849
9.508606 5.882370 0.312412
9.822430 5.882370 0.422456
10.136253 5.882370 0.546218
10.450075 5.882370 0.688313
10.763899 5.882370 0.804991
11.077723 5.882370 0.981672
11.391544 5.882370 1.153270
11.705368 5.882370 1.387258
12.019190 5.882370 1.670359
12.333014 5.882370 1.953296
12.646837 5.882370 2.210133
12.960659 5.882370 2.390007
13.274483 5.882370 2.591734
13.588306 5.882370 2.715369
13.902128 5.882370 2.922966
14.215952 5.882370 3.201032
14.529776 5.882370 3.334444
14.843597 5.882370 3.639551
15.157421 5.882370 3.962680
15.471243 5.882370 4.474968
15.785067 5.882370 4.821609
16.098890 5.882370 5.268095
16.412712 5.882370 5.973179
16.726536 5.882370 6.492002
17.040359 5.882370 7.439093
17.354181 5.882370 9.102022
17.668005 5.882370 12.414744
17.981829 5.882370 17.178162
18.295650 5.882370 24.189117
18.609474 5.882370 31.668022
18.923298 5.882370 0.000000
19.237120 5.882370 0.000000
-6.810190 5.568550 0.000000
-6.496367 5.568550 0.016098
-6.182544 5.568550 0.012702
-5.868721 5.568550 0.012901
-5.554898 5.568550 0.012954
-5.241075 5.568550 0.013150
-4.927252 5.568550 0.013508
-4.613429 5.568550 0.013452
-4.299606 5.568550 0.013764
-3.985783 5.568550 0.014044
-3.671960 5.568550 0.014276
-3.358137 5.568550 0.014615
-3.044314 5.568550 0.014652
-2.730491 5.568550 0.014835
-2.416668 5.568550 0.015365
-2.102845 5.568550 0.016133
-1.789022 5.568550 0.017127
-1.475199 5.568550 0.016782
-1.161376 5.568550 0.016168
-0.847553 5.568550 0.016502
-0.533730 5.568550 0.016890
-0.219907 5.568550 0.016952
0.093916 5.568550 0.017256
0.407739 5.568550 0.018167
0.721562 5.568550 0.018451
1.035385 5.568550 0.017946
1.349208 5.568550 0.017918
1.663032 5.568550 0.018786
1.976854 5.568550 0.019923
2.290677 5.568550 0.020458
2.604500 5.568550 0.019956
2.918324 5.568550 0.020011
3.232146 5.568550 0.020899
3.545969 5.568550 0.021506
3.859793 5.568550 0.022074
4.173615 5.568550 0.021762
4.487438 5.568550 0.021626
4.801261 5.568550 0.022761
5.115085 5.568550 0.024188
5.428907 5.568550 0.025056
5.742730 5.568550 0.025800
6.056554 5.568550 0.026977
6.370377 5.568550 0.028197
6.684199 5.568550 0.030069
6.998022 5.568550 0.034102
7.311846 5.568550 0.039481
7.625669 5.568550 0.046675
7.939491 5.568550 0.057859
8.253315 5.568550 0.077111
8.567138 5.568550 0.111916
8.880960 5.568550 0.160015
9.194784 5.568550 0.222189
9.508606 5.568550 0.315192
9.822430 5.568550 0.420295
10.136253 5.568550 0.549611
10.450075 5.568550 0.681482
10.763899 5.568550 0.822517
11.077723 5.568550 1.006948
11.391544 5.568550 1.205074
11.705368 5.568550 1.442303
12.019190 5.568550 1.671690
12.333014 5.568550 1.949967
12.646837 5.568550 2.164522
12.960659 5.568550 2.458000
13.274483 5.568550 2.616823
13.588306 5.568550 2.826978
13.902128 5.568550 3.046767
14.215952 5.568550 3.228500
14.529776 5.568550 3.391639
14.843597 5.568550 3.586479
15.157421 5.568550 3.960633
15.471243 5.568550 4.389867
15.785067 5.568550 4.787747
16.098890 5.568550 5.428420
16.412712 5.568550 6.320915
16.726536 5.568550 6.987916
17.040359 5.568550 7.879213
17.354181 5.568550 9.585250
17.668005 5.568550 13.126978
17.981829 5.568550 17.551458
18.295650 5.568550 26.033098
18.609474 5.568550 33.000858
18.923298 5.568550 0.000000
19.237120 5.568550 0.000000
-6.810190 5.254726 0.000000
-6.496367 5.254726 0.016509
-6.182544 5.254726 0.012934
-5.868721 5.254726 0.013398
-5.554898 5.254726 0.013429
-5.241075 5.254726 0.013422
-4.927252 5.254726 0.013364
-4.613429 5.254726 0.013468
-4.299606 5.254726 0.013733
-3.985783 5.254726 0.013833
-3.671960 5.254726 0.013993
-3.358137 5.254726 0.014586
-3.044314 5.254726 0.014785
-2.730491 5.254726 0.015114
-2.416668 5.254726 0.016033
-2.102845 5.254726 0.016515
-1.789022 5.254726 0.017150
-1.475199 5.254726 0.016935
-1.161376 5.254726 0.016437
-0.847553 5.254726 0.016841
-0.533730 5.254726 0.017241
-0.219907 5.254726 0.017163
0.093916 5.254726 0.017308
0.407739 5.254726 0.018428
0.721562 5.254726 0.019080
1.035385 5.254726 0.018533
1.349208 5.254726 0.018276
1.663032 5.254726 0.019182
1.976854 5.254726 0.020550
2.290677 5.254726 0.021102
2.604500 5.254726 0.020494
2.918324 5.254726 0.020378
3.232146 5.254726 0.021181
3.545969 5.254726 0.021943
3.859793 5.254726 0.022620
4.173615 5.254726 0.022718
4.487438 5.254726 0.022281
4.801261 5.254726 0.022832
5.115085 5.254726 0.024043
5.428907 5.254726 0.024896
5.742730 5.254726 0.026071
6.056554 5.254726 0.027073
6.370377 5.254726 0.028320
6.684199 5.254726 0.030409
6.998022 5.254726 0.034030
7.311846 5.254726 0.039664
7.625669 5.254726 0.047818
7.939491 5.254726 0.060168
8.253315 5.254726 0.080836
8.567138 5.254726 0.118590
8.880960 5.254726 0.166358
9.194784 5.254726 0.231347
9.508606 5.254726 0.317189
9.822430 5.254726 0.430217
10.136253 5.254726 0.552360
10.450075 5.254726 0.698279
10.763899 5.254726 0.855203
11.077723 5.254726 1.026648
11.391544 5.254726 1.239963
11.705368 5.254726 1.487731
12.019190 5.254726 1.730987
12.333014 5.254726 1.934952
12.646837 5.254726 2.164282
12.960659 5.254726 2.409418
13.274483 5.254726 2.673354
13.588306 5.254726 2.855350
13.902128 5.254726 3.056711
14.215952 5.254726 3.240381
14.529776 5.254726 3.401354
14.843597 5.254726 3.647360
15.157421 5.254726 3.925316
15.471243 5.254726 4.286136
15.785067 5.254726 4.997216
16.098890 5.254726 5.674748
16.412712 5.254726 6.469934
16.726536 5.254726 7.158884
17.040359 5.254726 8.349083
17.354181 5.254726 10.497531
17.668005 5.254726 13.177233
17.981829 5.254726 18.855494
18.295650 5.254726 26.781942
18.609474 5.254726 32.881973
18.923298 5.254726 0.000000
19.237120 5.254726 0.000000
-6.810190 4.940903 0.000000
-6.496367 4.940903 0.017045
-6.182544 4.940903 0.013132
-5.868721 4.940903 0.013765
-5.554898 4.940903 0.013655
-5.241075 4.940903 0.013382
-4.927252 4.940903 0.013421
-4.613429 4.940903 0.013654
-4.299606 4.940903 0.013850
-3.985783 4.940903 0.013803
-3.671960 4.940903 0.014238
-3.358137 4.940903 0.014802
-3.044314 4.940903 0.015027
-2.730491 4.940903 0.015164
-2.416668 4.940903 0.016044
-2.102845 4.940903 0.016308
-1.789022 4.940903 0.016580
-1.475199 4.940903 0.016440
-1.161376 4.940903 0.016278
-0.847553 4.940903 0.016820
-0.533730 4.940903 0.017505
-0.219907 4.940903 0.017619
0.093916 4.940903 0.017460
0.407739 4.940903 0.018344
0.721562 4.940903 0.019171
1.035385 4.940903 0.018733
1.349208 4.940903 0.018606
1.663032 4.940903 0.019238
1.976854 4.940903 0.020509
2.290677 4.940903 0.020730
2.604500 4.940903 0.020088
2.918324 4.940903 0.020484
3.232146 4.940903 0.021570
3.545969 4.940903 0.022456
3.859793 4.940903 0.023195
4.173615 4.940903 0.023481
4.487438 4.940903 0.023049
4.801261 4.940903 0.023040
5.115085 4.940903 0.023834
5.428907 4.940903 0.024942
5.742730 4.940903 0.026302
6.056554 4.940903 0.026949
6.370377 4.940903 0.028021
6.684199 4.940903 0.030568
6.998022 4.940903 0.033828
7.311846 4.940903 0.039741
7.625669 4.940903 0.048489
7.939491 4.940903 0.062705
8.253315 4.940903 0.085420
8.567138 4.940903 0.123768
8.880960 4.940903 0.174377
9.194784 4.940903 0.240883
9.508606 4.940903 0.332245
9.822430 4.940903 0.436627
10.136253 4.940903 0.578655
10.450075 4.940903 0.724342
10.763899 4.940903 0.856334
11.077723 4.940903 1.047533
11.391544 4.940903 1.241637
11.705368 4.940903 1.482706
12.019190 4.940903 1.695123
12.333014 4.940903 1.957380
12.646837 4.940903 2.206459
12.960659 4.940903 2.476762
13.274483 4.940903 2.713793
13.588306 4.940903 2.935776
13.902128 4.940903 3.107541
14.215952 4.940903 3.310465
14.529776 4.940903 3.456514
14.843597 4.940903 3.583736
15.157421 4.940903 3.874212
15.471243 4.940903 4.314964
15.785067 4.940903 5.077002
16.098890 4.940903 5.811116
16.412712 4.940903 6.627346
16.726536 4.940903 7.632718
17.040359 4.940903 8.819632
17.354181 4.940903 10.853903
17.668005 4.940903 14.524078
17.981829 4.940903 19.692278
18.295650 4.940903 27.017252
18.609474 4.940903 33.760059
18.923298 4.940903 0.000000
19.237120 4.940903 0.000000
-6.810190 4.627079 0.000000
-6.496367 4.627079 0.017536
-6.182544 4.627079 0.013375
-5.868721 4.627079 0.013937
-5.554898 4.627079 0.013644
-5.241075 4.627079 0.013319
-4.927252 4.627079 0.013416
-4.613429 4.627079 0.013919
-4.299606 4.627079 0.014085
-3.985783 4.627079 0.014203
-3.671960 4.627079 0.014709
-3.358137 4.627079 0.015029
-3.044314 4.627079 0.015303
-2.730491 4.627079 0.015222
-2.416668 4.627079 0.015591
-2.102845 4.627079 0.015788
-1.789022 4.627079 0.015995
-1.475199 4.627079 0.016113
-1.161376 4.627079 0.016177
-0.847553 4.627079 0.016883
-0.533730 4.627079 0.017739
-0.219907 4.627079 0.017912
0.093916 4.627079 0.017468
0.407739 4.627079 0.017930
0.721562 4.627079 0.018626
1.035385 4.627079 0.018465
1.349208 4.627079 0.018609
1.663032 4.627079 0.018948
1.976854 4.627079 0.019898
2.290677 4.627079 0.020072
2.604500 4.627079 0.020088
2.918324 4.627079 0.020891
3.232146 4.627079 0.022159
3.545969 4.627079 0.022947
3.859793 4.627079 0.023344
4.173615 4.627079 0.023347
4.487438 4.627079 0.023170
4.801261 4.627079 0.022944
5.115085 4.627079 0.023506
5.428907 4.627079 0.024877
5.742730 4.627079 0.026650
6.056554 4.627079 0.027368
6.370377 4.627079 0.028639
6.684199 4.627079 0.031017
6.998022 4.627079 0.034363
7.311846 4.627079 0.040565
7.625669 4.627079 0.050335
7.939491 4.627079 0.065614
8.253315 4.627079 0.087427
8.567138 4.627079 0.126463
8.880960 4.627079 0.180716
9.194784 4.627079 0.257013
9.508606 4.627079 0.345837
9.822430 4.627079 0.456141
10.136253 4.627079 0.592177
10.450075 4.627079 0.728501
10.763899 4.627079 0.872839
11.077723 4.627079 1.052732
11.391544 4.627079 1.259801
11.705368 4.627079 1.507969
12.019190 4.627079 1.733569
12.333014 4.627079 1.959190
12.646837 4.627079 2.186722
12.960659 4.627079 2.478388
13.274483 4.627079 2.805507
13.588306 4.627079 2.950162
13.902128 4.627079 3.221892
14.215952 4.627079 3.416637
14.529776 4.627079 3.525766
14.843597 4.627079 3.762972
15.157421 4.627079 4.056844
15.471243 4.627079 4.527922
15.785067 4.627079 5.062729
16.098890 4.627079 5.820561
16.412712 4.627079 6.787561
16.726536 4.627079 7.722873
17.040359 4.627079 9.048608
17.354181 4.627079 11.447491
17.668005 4.627079 14.747089
17.981829 4.627079 20.293459
18.295650 4.627079 28.123707
18.609474 4.627079 33.867275
18.923298 4.627079 0.000000
19.237120 4.627079 0.000000
-6.810190 4.313255 0.000000
-6.496367 4.313255 0.017596
-6.182544 4.313255 0.013430
-5.868721 4.313255 0.013860
-5.554898 4.313255 0.013475
-5.241075 4.313255 0.013230
-4.927252 4.313255 0.013364
-4.613429 4.313255 0.014020
-4.299606 4.313255 0.014509
-3.985783 4.313255 0.014754
-3.671960 4.313255 0.015005
-3.358137 4.313255 0.014988
-3.044314 4.313255 0.015439
-2.730491 4.313255 0.015274
-2.416668 4.313255 0.015563
-2.102845 4.313255 0.015883
-1.789022 4.313255 0.015976
-1.475199 4.313255 0.016249
-1.161376 4.313255 0.016492
-0.847553 4.313255 0.017044
-0.533730 4.313255 0.017925
-0.219907 4.313255 0.018359
0.093916 4.313255 0.017703
0.407739 4.313255 0.017718
0.721562 4.313255 0.018153
1.035385 4.313255 0.018368
1.349208 4.313255 0.018783
1.663032 4.313255 0.019131
1.976854 4.313255 0.019958
2.290677 4.313255 0.019969
2.604500 4.313255 0.020422
2.918324 4.313255 0.021598
3.232146 4.313255 0.022732
3.545969 4.313255 0.023174
3.859793 4.313255 0.022915
4.173615 4.313255 0.022665
4.487438 4.313255 0.022898
4.801261 4.313255 0.023096
5.115085 4.313255 0.023939
5.428907 4.313255 0.025564
5.742730 4.313255 0.027315
6.056554 4.313255 0.028632
6.370377 4.313255 0.029788
6.684199 4.313255 0.031476
6.998022 4.313255 0.035085
7.311846 4.313255 0.041518
7.625669 4.313255 0.051597
7.939491 4.313255 0.066453
8.253315 4.313255 0.089181
8.567138 4.313255 0.127668
8.880960 4.313255 0.185849
9.194784 4.313255 0.263429
9.508606 4.313255 0.355604
9.822430 4.313255 0.467381
10.136253 4.313255 0.600281
10.450075 4.313255 0.747018
10.763899 4.313255 0.878122
11.077723 4.313255 1.103352
11.391544 4.313255 1.303037
11.705368 4.313255 1.483647
12.019190 4.313255 1.747644
12.333014 4.313255 1.994986
12.646837 4.313255 2.214583
12.960659 4.313255 2.455837
13.274483 4.313255 2.695265
13.588306 4.313255 2.952525
13.902128 4.313255 3.123317
14.215952 4.313255 3.369643
14.529776 4.313255 3.657124
14.843597 4.313255 3.915768
15.157421 4.313255 4.314328
15.471243 4.313255 4.674482
15.785067 4.313255 5.286134
16.098890 4.313255 6.031972
16.412712 4.313255 6.960420
16.726536 4.313255 7.926152
17.040359 4.313255 9.569563
17.354181 4.313255 12.052980
17.668005 4.313255 15.670731
17.981829 4.313255 20.801065
18.295650 4.313255 27.171911
18.609474 4.313255 33.116985
18.923298 4.313255 0.000000
19.237120 4.313255 0.000000
-6.810190 3.999435 0.000000
-6.496367 3.999435 0.017484
-6.182544 3.999435 0.013227
-5.868721 3.999435 0.013480
-5.554898 3.999435 0.013588
-5.241075 3.999435 0.013559
-4.927252 3.999435 0.013430
-4.613429 3.999435 0.013969
-4.299606 3.999435 0.014716
-3.985783 3.999435 0.015107
-3.671960 3.999435 0.015150
-3.358137 3.999435 0.014984
-3.044314 3.999435 0.015656
-2.730491 3.999435 0.015721
-2.416668 3.999435 0.016109
-2.102845 3.999435 0.016606
-1.789022 3.999435 0.016680
-1.475199 3.999435 0.016803
-1.161376 3.999435 0.016973
-0.847553 3.999435 0.017190
-0.533730 3.999435 0.017668
-0.219907 3.999435 0.018360
0.093916 3.999435 0.017866
0.407739 3.999435 0.018102
0.721562 3.999435 0.018449
1.035385 3.999435 0.018958
1.349208 3.999435 0.019370
1.663032 3.999435 0.019762
1.976854 3.999435 0.020488
2.290677 3.999435 0.020302
2.604500 3.999435 0.020585
2.918324 3.999435 0.021791
3.232146 3.999435 0.022616
3.545969 3.999435 0.023017
3.859793 3.999435 0.023014
4.173615 3.999435 0.022735
4.487438 3.999435 0.023486
4.801261 3.999435 0.023691
5.115085 3.999435 0.024900
5.428907 3.999435 0.026268
5.742730 3.999435 0.028002
6.056554 3.999435 0.029735
6.370377 3.999435 0.030468
6.684199 3.999435 0.032238
6.998022 3.999435 0.035739
7.311846 3.999435 0.041834
7.625669 3.999435 0.051980
7.939491 3.999435 0.067512
8.253315 3.999435 0.090564
8.567138 3.999435 0.129179
8.880960 3.999435 0.183728
9.194784 3.999435 0.271615
9.508606 3.999435 0.365624
9.822430 3.999435 0.481102
10.136253 3.999435 0.623896
10.450075 3.999435 0.745920
10.763899 3.999435 0.907180
11.077723 3.999435 1.123610
11.391544 3.999435 1.340364
11.705368 3.999435 1.528151
12.019190 3.999435 1.755710
12.333014 3.999435 2.038066
12.646837 3.999435 2.317060
12.960659 3.999435 2.535712
13.274483 3.999435 2.673928
13.588306 3.999435 2.876206
13.902128 3.999435 3.160288
14.215952 3.999435 3.354381
14.529776 3.999435 3.613284
14.843597 3.999435 3.942230
15.157421 3.999435 4.364865
15.471243 3.999435 4.850212
15.785067 3.999435 5.280663
16.098890 3.999435 6.130223
16.412712 3.999435 6.906516
16.726536 3.999435 8.183915
17.040359 3.999435 9.797236
17.354181 3.999435 12.886547
17.668005 3.999435 16.498476
17.981829 3.999435 21.597389
18.295650 3.999435 26.937452
18.609474 3.999435 30.603123
18.923298 3.999435 0.000000
19.237120 3.999435 0.000000
-6.810190 3.685612 0.000000
-6.496367 3.685612 0.017418
-6.182544 3.685612 0.013193
-5.868721 3.685612 0.013421
-5.554898 3.685612 0.013982
-5.241075 3.685612 0.014194
-4.927252 3.685612 0.013715
-4.613429 3.685612 0.013889
-4.299606 3.685612 0.014752
-3.985783 3.685612 0.015336
-3.671960 3.685612 0.015244
-3.358137 3.685612 0.015086
-3.044314 3.685612 0.015735
-2.730491 3.685612 0.016247
-2.416668 3.685612 0.016631
-2.102845 3.685612 0.016965
-1.789022 3.685612 0.017436
-1.475199 3.685612 0.017426
-1.161376 3.685612 0.017353
-0.847553 3.685612 0.017437
-0.533730 3.685612 0.017741
-0.219907 3.685612 0.018680
0.093916 3.685612 0.018424
0.407739 3.685612 0.018807
0.721562 3.685612 0.019068
1.035385 3.685612 0.019609
1.349208 3.685612 0.019829
1.663032 3.685612 0.020349
1.976854 3.685612 0.020964
2.290677 3.685612 0.020548
2.604500 3.685612 0.020894
2.918324 3.685612 0.021714
3.232146 3.685612 0.022382
3.545969 3.685612 0.023062
3.859793 3.685612 0.023696
4.173615 3.685612 0.023805
4.487438 3.685612 0.024361
4.801261 3.685612 0.024520
5.115085 3.685612 0.025541
5.428907 3.685612 0.026695
5.742730 3.685612 0.028075
6.056554 3.685612 0.029396
6.370377 3.685612 0.030456
6.684199 3.685612 0.032699
6.998022 3.685612 0.036582
7.311846 3.685612 0.043129
7.625669 3.685612 0.053734
7.939491 3.685612 0.068031
8.253315 3.685612 0.092836
8.567138 3.685612 0.131818
8.880960 3.685612 0.189711
9.194784 3.685612 0.277434
9.508606 3.685612 0.382997
9.822430 3.685612 0.494244
10.136253 3.685612 0.637769
10.450075 3.685612 0.788753
10.763899 3.685612 0.929208
11.077723 3.685612 1.127876
11.391544 3.685612 1.332307
11.705368 3.685612 1.570803
12.019190 3.685612 1.796967
12.333014 3.685612 2.063754
12.646837 3.685612 2.275337
12.960659 3.685612 2.551091
13.274483 3.685612 2.753752
13.588306 3.685612 2.983322
13.902128 3.685612 3.233982
14.215952 3.685612 3.445266
14.529776 3.685612 3.648340
14.843597 3.685612 4.018811
15.157421 3.685612 4.492152
15.471243 3.685612 4.828767
15.785067 3.685612 5.446299
16.098890 3.685612 6.432018
16.412712 3.685612 7.133224
16.726536 3.685612 8.393932
17.040359 3.685612 10.373593
17.354181 3.685612 13.551953
17.668005 3.685612 18.217688
17.981829 3.685612 22.305346
18.295650 3.685612 22.133007
18.609474 3.685612 23.605944
18.923298 3.685612 0.000000
19.237120 3.685612 0.000000
-6.810190 3.371788 0.000000
-6.496367 3.371788 0.017973
-6.182544 3.371788 0.013778
-5.868721 3.371788 0.014070
-5.554898 3.371788 0.014615
-5.241075 3.371788 0.014781
-4.927252 3.371788 0.014065
-4.613429 3.371788 0.014048
-4.299606 3.371788 0.014549
-3.985783 3.371788 0.015111
-3.671960 3.371788 0.015332
-3.358137 3.371788 0.015234
-3.044314 3.371788 0.015686
-2.730491 3.371788 0.016412
-2.416668 3.371788 0.016688
-2.102845 3.371788 0.016846
-1.789022 3.371788 0.017541
-1.475199 3.371788 0.017639
-1.161376 3.371788 0.017688
-0.847553 3.371788 0.018039
-0.533730 3.371788 0.018245
-0.219907 3.371788 0.018862
0.093916 3.371788 0.018868
0.407739 3.371788 0.019358
0.721562 3.371788 0.019779
1.035385 3.371788 0.020118
1.349208 3.371788 0.020270
1.663032 3.371788 0.020821
1.976854 3.371788 0.021242
2.290677 3.371788 0.020913
2.604500 3.371788 0.021482
2.918324 3.371788 0.021871
3.232146 3.371788 0.022464
3.545969 3.371788 0.023324
3.859793 3.371788 0.024237
4.173615 3.371788 0.024629
4.487438 3.371788 0.024792
4.801261 3.371788 0.024950
5.115085 3.371788 0.025933
5.428907 3.371788 0.026998
5.742730 3.371788 0.028041
6.056554 3.371788 0.028718
6.370377 3.371788 0.030068
6.684199 3.371788 0.033210
6.998022 3.371788 0.036978
7.311846 3.371788 0.044421
7.625669 3.371788 0.055591
7.939491 3.371788 0.073559
8.253315 3.371788 0.097598
8.567138 3.371788 0.138735
8.880960 3.371788 0.197404
9.194784 3.371788 0.283604
9.508606 3.371788 0.398989
9.822430 3.371788 0.510707
10.136253 3.371788 0.649411
10.450075 3.371788 0.805588
10.763899 3.371788 0.955375
11.077723 3.371788 1.153018
11.391544 3.371788 1.362468
11.705368 3.371788 1.623811
12.019190 3.371788 1.830220
12.333014 3.371788 2.106757
12.646837 3.371788 2.334805
12.960659 3.371788 2.596713
13.274483 3.371788 2.738559
13.588306 3.371788 2.975626
13.902128 3.371788 3.366663
14.215952 3.371788 3.445299
14.529776 3.371788 3.825223
14.843597 3.371788 4.270191
15.157421 3.371788 4.635204
15.471243 3.371788 5.090899
15.785067 3.371788 5.675113
16.098890 3.371788 6.358880
16.412712 3.371788 7.436790
16.726536 3.371788 9.031023
17.040359 3.371788 10.788363
17.354181 3.371788 14.228733
17.668005 3.371788 19.277273
17.981829 3.371788 19.503571
18.295650 3.371788 24.968649
18.609474 3.371788 16.935539
18.923298 3.371788 0.000000
19.237120 3.371788 0.000000
-6.810190 3.057964 0.000000
-6.496367 3.057964 0.018237
-6.182544 3.057964 0.014309
-5.868721 3.057964 0.014864
-5.554898 3.057964 0.014983
-5.241075 3.057964 0.014996
-4.927252 3.057964 0.014427
-4.613429 3.057964 0.014457
-4.299606 3.057964 0.014582
-3.985783 3.057964 0.014896
-3.671960 3.057964 0.015369
-3.358137 3.057964 0.015481
-3.044314 3.057964 0.015733
-2.730491 3.057964 0.016258
-2.416668 3.057964 0.016385
-2.102845 3.057964 0.016545
-1.789022 3.057964 0.017244
-1.475199 3.057964 0.017626
-1.161376 3.057964 0.017757
-0.847553 3.057964 0.018249
-0.533730 3.057964 0.018333
-0.219907 3.057964 0.018737
0.093916 3.057964 0.018759
0.407739 3.057964 0.019457
0.721562 3.057964 0.019958
1.035385 3.057964 0.020386
1.349208 3.057964 0.020886
1.663032 3.057964 0.021071
1.976854 3.057964 0.021339
2.290677 3.057964 0.021291
2.604500 3.057964 0.021879
2.918324 3.057964 0.022093
3.232146 3.057964 0.022779
3.545969 3.057964 0.023714
3.859793 3.057964 0.024960
4.173615 3.057964 0.025350
4.487438 3.057964 0.025044
4.801261 3.057964 0.025000
5.115085 3.057964 0.026265
5.428907 3.057964 0.027414
5.742730 3.057964 0.028114
6.056554 3.057964 0.028636
6.370377 3.057964 0.030401
6.684199 3.057964 0.034109
6.998022 3.057964 0.037633
7.311846 3.057964 0.045090
7.625669 3.057964 0.058872
7.939491 3.057964 0.076785
8.253315 3.057964 0.101879
8.567138 3.057964 0.147261
8.880960 3.057964 0.204785
9.194784 3.057964 0.290681
9.508606 3.057964 0.404645
9.822430 3.057964 0.523142
10.136253 3.057964 0.657058
10.450075 3.057964 0.801643
10.763899 3.057964 0.964882
11.077723 3.057964 1.197839
11.391544 3.057964 1.415246
11.705368 3.057964 1.669946
12.019190 3.057964 1.905807
12.333014 3.057964 2.231418
12.646837 3.057964 2.425021
12.960659 3.057964 2.587188
13.274483 3.057964 2.730101
13.588306 3.057964 2.998421
13.902128 3.057964 3.402383
14.215952 3.057964 3.631661
14.529776 3.057964 4.102168
14.843597 3.057964 4.488424
15.157421 3.057964 4.964620
15.471243 3.057964 5.368351
15.785067 3.057964 5.948142
16.098890 3.057964 6.886984
16.412712 3.057964 8.000894
16.726536 3.057964 9.538583
17.040359 3.057964 11.851428
17.354181 3.057964 15.666169
17.668005 3.057964 17.821253
17.981829 3.057964 16.006895
18.295650 3.057964 0.000000
18.609474 3.057964 0.000000
18.923298 3.057964 0.000000
19.237120 3.057964 0.000000
-6.810190 2.744141 0.000000
-6.496367 2.744141 0.018083
-6.182544 2.744141 0.014552
-5.868721 2.744141 0.015198
-5.554898 2.744141 0.014986
-5.241075 2.744141 0.014785
-4.927252 2.744141 0.014612
-4.613429 2.744141 0.014741
-4.299606 2.744141 0.014934
-3.985783 2.744141 0.015090
-3.671960 2.744141 0.015524
-3.358137 2.744141 0.015837
-3.044314 2.744141 0.016012
-2.730491 2.744141 0.016099
-2.416668 2.744141 0.016065
-2.102845 2.744141 0.016281
-1.789022 2.744141 0.017063
-1.475199 2.744141 0.017535
-1.161376 2.744141 0.017649
-0.847553 2.744141 0.017980
-0.533730 2.744141 0.018146
-0.219907 2.744141 0.018528
0.093916 2.744141 0.018616
0.407739 2.744141 0.019177
0.721562 2.744141 0.019734
1.035385 2.744141 0.020493
1.349208 2.744141 0.021088
1.663032 2.744141 0.021118
1.976854 2.744141 0.021148
2.290677 2.744141 0.021070
2.604500 2.744141 0.022009
2.918324 2.744141 0.022258
3.232146 2.744141 0.023160
3.545969 2.744141 0.023948
3.859793 2.744141 0.025383
4.173615 2.744141 0.026101
4.487438 2.744141 0.025429
4.801261 2.744141 0.025187
5.115085 2.744141 0.026664
5.428907 2.744141 0.027759
5.742730 2.744141 0.028265
6.056554 2.744141 0.029178
6.370377 2.744141 0.031020
6.684199 2.744141 0.035006
6.998022 2.744141 0.038821
7.311846 2.744141 0.046434
7.625669 2.744141 0.060836
7.939491 2.744141 0.079508
8.253315 2.744141 0.108633
8.567138 2.744141 0.150221
8.880960 2.744141 0.215521
9.194784 2.744141 0.300683
9.508606 2.744141 0.420502
9.822430 2.744141 0.535006
10.136253 2.744141 0.667025
10.450075 2.744141 0.817238
10.763899 2.744141 0.995648
11.077723 2.744141 1.224499
11.391544 2.744141 1.494295
11.705368 2.744141 1.741777
12.019190 2.744141 1.953953
12.333014 2.744141 2.302679
12.646837 2.744141 2.493638
12.960659 2.744141 2.707307
13.274483 2.744141 2.881124
13.588306 2.744141 3.154086
13.902128 2.744141 3.555759
14.215952 2.744141 3.679375
14.529776 2.744141 4.184704
14.843597 2.744141 4.655818
15.157421 2.744141 5.122869
15.471243 2.744141 5.744699
15.785067 2.744141 6.485108
16.098890 2.744141 7.254213
16.412712 2.744141 8.829370
16.726536 2.744141 10.619875
17.040359 2.744141 13.190392
17.354181 2.744141 16.210384
17.668005 2.744141 12.950305
17.981829 2.744141 0.000000
18.295650 2.744141 0.000000
18.609474 2.744141 0.000000
18.923298 2.744141 0.000000
19.237120 2.744141 0.000000
-6.810190 2.430317 0.000000
-6.496367 2.430317 0.017998
-6.182544 2.430317 0.014276
-5.868721 2.430317 0.015051
-5.554898 2.430317 0.014793
-5.241075 2.430317 0.014448
-4.927252 2.430317 0.014623
-4.613429 2.430317 0.015102
-4.299606 2.430317 0.015511
-3.985783 2.430317 0.015662
-3.671960 2.430317 0.015646
-3.358137 2.430317 0.016301
-3.044314 2.430317 0.016517
-2.730491 2.430317 0.016070
-2.416668 2.430317 0.015897
-2.102845 2.430317 0.016364
-1.789022 2.430317 0.017220
-1.475199 2.430317 0.017886
-1.161376 2.430317 0.017800
-0.847553 2.430317 0.017933
-0.533730 2.430317 0.018178
-0.219907 2.430317 0.018714
0.093916 2.430317 0.018588
0.407739 2.430317 0.018968
0.721562 2.430317 0.019607
1.035385 2.430317 0.020454
1.349208 2.430317 0.021153
1.663032 2.430317 0.021391
1.976854 2.430317 0.021378
2.290677 2.430317 0.021258
2.604500 2.430317 0.022311
2.918324 2.430317 0.023192
3.232146 2.430317 0.023882
3.545969 2.430317 0.024225
3.859793 2.430317 0.025123
4.173615 2.430317 0.026374
4.487438 2.430317 0.025882
4.801261 2.430317 0.025823
5.115085 2.430317 0.026891
5.428907 2.430317 0.027628
5.742730 2.430317 0.028455
6.056554 2.430317 0.030090
6.370377 2.430317 0.032415
6.684199 2.430317 0.036217
6.998022 2.430317 0.040325
7.311846 2.430317 0.047709
7.625669 2.430317 0.061507
7.939491 2.430317 0.082937
8.253315 2.430317 0.109922
8.567138 2.430317 0.156705
8.880960 2.430317 0.229290
9.194784 2.430317 0.315846
9.508606 2.430317 0.426642
9.822430 2.430317 0.544266
10.136253 2.430317 0.699522
10.450075 2.430317 0.838738
10.763899 2.430317 1.020669
11.077723 2.430317 1.230670
11.391544 2.430317 1.509532
11.705368 2.430317 1.775385
12.019190 2.430317 2.047494
12.333014 2.430317 2.299625
12.646837 2.430317 2.516233
12.960659 2.430317 2.816558
13.274483 2.430317 2.961574
13.588306 2.430317 3.413131
13.902128 2.430317 3.653476
14.215952 2.430317 3.920239
14.529776 2.430317 4.248180
14.843597 2.430317 4.943575
15.157421 2.430317 5.473814
15.471243 2.430317 6.176826
15.785067 2.430317 7.153500
16.098890 2.430317 8.029385
16.412712 2.430317 9.807235
16.726536 2.430317 11.731115
17.040359 2.430317 14.565807
17.354181 2.430317 13.488288
17.668005 2.430317 0.000000
17.981829 2.430317 0.000000
18.295650 2.430317 0.000000
18.609474 2.430317 0.000000
18.923298 2.430317 0.000000
19.237120 2.430317 0.000000
-6.810190 2.116497 0.000000
-6.496367 2.116497 0.018334
-6.182544 2.116497 0.014117
-5.868721 2.116497 0.014829
-5.554898 2.116497 0.014508
-5.241075 2.116497 0.014317
-4.927252 2.116497 0.014708
-4.613429 2.116497 0.015351
-4.299606 2.116497 0.015963
-3.985783 2.116497 0.016127
-3.671960 2.116497 0.015798
-3.358137 2.116497 0.016795
-3.044314 2.116497 0.017340
-2.730491 2.116497 0.016767
-2.416668 2.116497 0.016557
-2.102845 2.116497 0.017195
-1.789022 2.116497 0.017823
-1.475199 2.116497 0.018322
-1.161376 2.116497 0.018130
-0.847553 2.116497 0.018388
-0.533730 2.116497 0.018677
-0.219907 2.116497 0.018987
0.093916 2.116497 0.018677
0.407739 2.116497 0.019143
0.721562 2.116497 0.019708
1.035385 2.116497 0.020443
1.349208 2.116497 0.021449
1.663032 2.116497 0.022414
1.976854 2.116497 0.022542
2.290677 2.116497 0.022044
2.604500 2.116497 0.023264
2.918324 2.116497 0.024574
3.232146 2.116497 0.024872
3.545969 2.116497 0.024576
3.859793 2.116497 0.024752
4.173615 2.116497 0.026475
4.487438 2.116497 0.026399
4.801261 2.116497 0.026469
5.115085 2.116497 0.027222
5.428907 2.116497 0.027994
5.742730 2.116497 0.029483
6.056554 2.116497 0.031593
6.370377 2.116497 0.034342
6.684199 2.116497 0.037787
6.998022 2.116497 0.041663
7.311846 2.116497 0.048494
7.625669 2.116497 0.062113
7.939491 2.116497 0.084888
8.253315 2.116497 0.114466
8.567138 2.116497 0.160563
8.880960 2.116497 0.234175
9.194784 2.116497 0.325906
9.508606 2.116497 0.436611
9.822430 2.116497 0.556269
10.136253 2.116497 0.710505
10.450075 2.116497 0.847135
10.763899 2.116497 1.018514
11.077723 2.116497 1.244376
11.391544 2.116497 1.500027
11.705368 2.116497 1.786089
12.019190 2.116497 2.068640
12.333014 2.116497 2.350008
12.646837 2.116497 2.626465
12.960659 2.116497 2.775161
13.274483 2.116497 3.127882
13.588306 2.116497 3.565746
13.902128 2.116497 3.873982
14.215952 2.116497 4.106806
14.529776 2.116497 4.538764
14.843597 2.116497 5.060041
15.157421 2.116497 5.905392
15.471243 2.116497 6.966402
15.785067 2.116497 8.067512
16.098890 2.116497 9.329292
16.412712 2.116497 11.396219
16.726536 2.116497 13.529011
17.040359 2.116497 16.068470
17.354181 2.116497 12.156649
17.668005 2.116497 0.000000
17.981829 2.116497 0.000000
18.295650 2.116497 0.000000
18.609474 2.116497 0.000000
18.923298 2.116497 0.000000
19.237120 2.116497 0.000000
-6.810190 1.802673 0.000000
-6.496367 1.802673 0.018607
-6.182544 1.802673 0.014076
-5.868721 1.802673 0.014492
-5.554898 1.802673 0.014621
-5.241075 1.802673 0.014627
-4.927252 1.802673 0.014957
-4.613429 1.802673 0.015378
-4.299606 1.802673 0.015940
-3.985783 1.802673 0.016084
-3.671960 1.802673 0.016061
-3.358137 1.802673 0.017596
-3.044314 1.802673 0.018300
-2.730491 1.802673 0.017838
-2.416668 1.802673 0.017759
-2.102845 1.802673 0.018432
-1.789022 1.802673 0.018697
-1.475199 1.802673 0.018766
-1.161376 1.802673 0.018605
-0.847553 1.802673 0.018917
-0.533730 1.802673 0.019320
-0.219907 1.802673 0.019400
0.093916 1.802673 0.019131
0.407739 1.802673 0.019860
0.721562 1.802673 0.020441
1.035385 1.802673 0.020988
1.349208 1.802673 0.022008
1.663032 1.802673 0.023330
1.976854 1.802673 0.023669
2.290677 1.802673 0.022856
2.604500 1.802673 0.024333
2.918324 1.802673 0.025844
3.232146 1.802673 0.026167
3.545969 1.802673 0.025757
3.859793 1.802673 0.025314
4.173615 1.802673 0.026983
4.487438 1.802673 0.027202
4.801261 1.802673 0.027074
5.115085 1.802673 0.027990
5.428907 1.802673 0.029021
5.742730 1.802673 0.030820
6.056554 1.802673 0.032592
6.370377 1.802673 0.035698
6.684199 1.802673 0.039587
6.998022 1.802673 0.043326
7.311846 1.802673 0.050099
7.625669 1.802673 0.063630
7.939491 1.802673 0.086747
8.253315 1.802673 0.119235
8.567138 1.802673 0.167690
8.880960 1.802673 0.241562
9.194784 1.802673 0.331420
9.508606 1.802673 0.442707
9.822430 1.802673 0.558888
10.136253 1.802673 0.721298
10.450075 1.802673 0.884141
10.763899 1.802673 1.039974
11.077723 1.802673 1.253519
11.391544 1.802673 1.559715
11.705368 1.802673 1.800260
12.019190 1.802673 2.101799
12.333014 1.802673 2.370615
12.646837 1.802673 2.671643
12.960659 1.802673 2.977789
13.274483 1.802673 3.354404
13.588306 1.802673 3.840556
13.902128 1.802673 4.263750
14.215952 1.802673 4.450130
14.529776 1.802673 4.758235
14.843597 1.802673 5.368971
15.157421 1.802673 6.199749
15.471243 1.802673 7.610789
15.785067 1.802673 8.943358
16.098890 1.802673 10.866529
16.412712 1.802673 13.053577
16.726536 1.802673 15.930323
17.040359 1.802673 17.306383
17.354181 1.802673 0.000000
17.668005 1.802673 0.000000
17.981829 1.802673 0.000000
18.295650 1.802673 0.000000
18.609474 1.802673 0.000000
18.923298 1.802673 0.000000
19.237120 1.802673 0.000000
-6.810190 1.488850 0.000000
-6.496367 1.488850 0.018597
-6.182544 1.488850 0.014142
-5.868721 1.488850 0.014425
-5.554898 1.488850 0.015085
-5.241075 1.488850 0.015435
-4.927252 1.488850 0.015447
-4.613429 1.488850 0.015527
-4.299606 1.488850 0.015754
-3.985783 1.488850 0.015895
-3.671960 1.488850 0.016212
-3.358137 1.488850 0.018113
-3.044314 1.488850 0.018992
-2.730491 1.488850 0.018490
-2.416668 1.488850 0.018573
-2.102845 1.488850 0.019292
-1.789022 1.488850 0.018953
-1.475199 1.488850 0.018680
-1.161376 1.488850 0.018931
-0.847553 1.488850 0.019396
-0.533730 1.488850 0.019829
-0.219907 1.488850 0.019846
0.093916 1.488850 0.019759
0.407739 1.488850 0.020834
0.721562 1.488850 0.021363
1.035385 1.488850 0.021759
1.349208 1.488850 0.022375
1.663032 1.488850 0.023093
1.976854 1.488850 0.023428
2.290677 1.488850 0.023311
2.604500 1.488850 0.024947
2.918324 1.488850 0.026780
3.232146 1.488850 0.027496
3.545969 1.488850 0.026790
3.859793 1.488850 0.025874
4.173615 1.488850 0.026924
4.487438 1.488850 0.027139
4.801261 1.488850 0.027407
5.115085 1.488850 0.028836
5.428907 1.488850 0.030156
5.742730 1.488850 0.031428
6.056554 1.488850 0.032669
6.370377 1.488850 0.036775
6.684199 1.488850 0.040867
6.998022 1.488850 0.044774
7.311846 1.488850 0.052527
7.625669 1.488850 0.067930
7.939491 1.488850 0.091966
8.253315 1.488850 0.124985
8.567138 1.488850 0.175660
8.880960 1.488850 0.244816
9.194784 1.488850 0.332767
9.508606 1.488850 0.457867
9.822430 1.488850 0.581249
10.136253 1.488850 0.741180
10.450075 1.488850 0.893250
10.763899 1.488850 1.105480
11.077723 1.488850 1.335607
11.391544 1.488850 1.583136
11.705368 1.488850 1.818216
12.019190 1.488850 2.147713
12.333014 1.488850 2.498943
12.646837 1.488850 2.849777
12.960659 1.488850 3.219921
13.274483 1.488850 3.521546
13.588306 1.488850 4.242231
13.902128 1.488850 4.598418
14.215952 1.488850 4.721392
14.529776 1.488850 5.094804
14.843597 1.488850 5.823686
15.157421 1.488850 6.998174
15.471243 1.488850 8.365184
15.785067 1.488850 10.076598
16.098890 1.488850 12.219230
16.412712 1.488850 15.070184
16.726536 1.488850 17.918545
17.040359 1.488850 16.369173
17.354181 1.488850 0.000000
17.668005 1.488850 0.000000
17.981829 1.488850 0.000000
18.295650 1.488850 0.000000
18.609474 1.488850 0.000000
18.923298 1.488850 0.000000
19.237120 1.488850 0.000000
-6.810190 1.175026 0.000000
-6.496367 1.175026 0.018546
-6.182544 1.175026 0.014372
-5.868721 1.175026 0.014657
-5.554898 1.175026 0.015460
-5.241075 1.175026 0.016126
-4.927252 1.175026 0.015903
-4.613429 1.175026 0.015629
-4.299606 1.175026 0.015476
-3.985783 1.175026 0.015934
-3.671960 1.175026 0.016365
-3.358137 1.175026 0.018120
-3.044314 1.175026 0.018900
-2.730491 1.175026 0.018341
-2.416668 1.175026 0.018532
-2.102845 1.175026 0.019342
-1.789022 1.175026 0.018597
-1.475199 1.175026 0.018283
-1.161376 1.175026 0.019023
-0.847553 1.175026 0.019578
-0.533730 1.175026 0.020140
-0.219907 1.175026 0.020201
0.093916 1.175026 0.020290
0.407739 1.175026 0.021409
0.721562 1.175026 0.022066
1.035385 1.175026 0.022403
1.349208 1.175026 0.022170
1.663032 1.175026 0.022218
1.976854 1.175026 0.022511
2.290677 1.175026 0.023270
2.604500 1.175026 0.024952
2.918324 1.175026 0.026848
3.232146 1.175026 0.027856
3.545969 1.175026 0.027280
3.859793 1.175026 0.025843
4.173615 1.175026 0.026226
4.487438 1.175026 0.026562
4.801261 1.175026 0.027858
5.115085 1.175026 0.029663
5.428907 1.175026 0.030762
5.742730 1.175026 0.031472
6.056554 1.175026 0.032754
6.370377 1.175026 0.037247
6.684199 1.175026 0.041539
6.998022 1.175026 0.045957
7.311846 1.175026 0.055773
7.625669 1.175026 0.072788
7.939491 1.175026 0.095541
8.253315 1.175026 0.126819
8.567138 1.175026 0.183707
8.880960 1.175026 0.255599
9.194784 1.175026 0.346482
9.508606 1.175026 0.469244
9.822430 1.175026 0.598380
10.136253 1.175026 0.772497
10.450075 1.175026 0.953518
10.763899 1.175026 1.165832
11.077723 1.175026 1.401747
11.391544 1.175026 1.655642
11.705368 1.175026 1.896183
12.019190 1.175026 2.139810
12.333014 1.175026 2.545630
12.646837 1.175026 3.014365
12.960659 1.175026 3.397429
13.274483 1.175026 3.766653
13.588306 1.175026 4.500854
13.902128 1.175026 5.044751
14.215952 1.175026 5.289643
14.529776 1.175026 5.487034
14.843597 1.175026 6.629900
15.157421 1.175026 7.723691
15.471243 1.175026 9.078652
15.785067 1.175026 11.344021
16.098890 1.175026 13.891472
16.412712 1.175026 16.717766
16.726536 1.175026 19.322487
17.040359 1.175026 12.495129
17.354181 1.175026 0.000000
17.668005 1.175026 0.000000
17.981829 1.175026 0.000000
18.295650 1.175026 0.000000
18.609474 1.175026 0.000000
18.923298 1.175026 0.000000
19.237120 1.175026 0.000000
-6.810190 0.861202 0.000000
-6.496367 0.861202 0.018709
-6.182544 0.861202 0.014641
-5.868721 0.861202 0.014981
-5.554898 0.861202 0.015657
-5.241075 0.861202 0.016115
-4.927252 0.861202 0.016013
-4.613429 0.861202 0.015940
-4.299606 0.861202 0.015848
-3.985783 0.861202 0.016350
-3.671960 0.861202 0.016671
-3.358137 0.861202 0.017832
-3.044314 0.861202 0.018374
-2.730491 0.861202 0.017975
-2.416668 0.861202 0.018273
-2.102845 0.861202 0.018849
-1.789022 0.861202 0.018189
-1.475199 0.861202 0.018291
-1.161376 0.861202 0.018983
-0.847553 0.861202 0.019412
-0.533730 0.861202 0.019915
-0.219907 0.861202 0.019970
0.093916 0.861202 0.020539
0.407739 0.861202 0.021328
0.721562 0.861202 0.022060
1.035385 0.861202 0.022877
1.349208 0.861202 0.022308
1.663032 0.861202 0.021775
1.976854 0.861202 0.021958
2.290677 0.861202 0.022966
2.604500 0.861202 0.024783
2.918324 0.861202 0.026387
3.232146 0.861202 0.027214
3.545969 0.861202 0.026987
3.859793 0.861202 0.025731
4.173615 0.861202 0.025709
4.487438 0.861202 0.026478
4.801261 0.861202 0.028290
5.115085 0.861202 0.030436
5.428907 0.861202 0.031237
5.742730 0.861202 0.031843
6.056554 0.861202 0.032795
6.370377 0.861202 0.036707
6.684199 0.861202 0.040878
6.998022 0.861202 0.046936
7.311846 0.861202 0.059090
7.625669 0.861202 0.075790
7.939491 0.861202 0.098030
8.253315 0.861202 0.130865
8.567138 0.861202 0.193089
8.880960 0.861202 0.270101
9.194784 0.861202 0.356827
9.508606 0.861202 0.478298
9.822430 0.861202 0.610094
10.136253 0.861202 0.796411
10.450075 0.861202 0.977878
10.763899 0.861202 1.241347
11.077723 0.861202 1.460901
11.391544 0.861202 1.705230
11.705368 0.861202 1.975591
12.019190 0.861202 2.262471
12.333014 0.861202 2.614138
12.646837 0.861202 3.014739
12.960659 0.861202 3.607855
13.274483 0.861202 4.068638
13.588306 0.861202 4.563860
13.902128 0.861202 5.169557
14.215952 0.861202 5.456995
14.529776 0.861202 6.130210
14.843597 0.861202 7.436491
15.157421 0.861202 8.852962
15.471243 0.861202 10.244423
15.785067 0.861202 11.872025
16.098890 0.861202 14.296888
16.412712 0.861202 16.637398
16.726536 0.861202 19.018270
17.040359 0.861202 0.468211
17.354181 0.861202 0.000000
17.668005 0.861202 0.000000
17.981829 0.861202 0.000000
18.295650 0.861202 0.000000
18.609474 0.861202 0.000000
18.923298 0.861202 0.000000
19.237120 0.861202 0.000000
-6.810190 0.547379 0.000000
-6.496367 0.547379 0.018605
-6.182544 0.547379 0.014746
-5.868721 0.547379 0.015402
-5.554898 0.547379 0.015880
-5.241075 0.547379 0.015791
-4.927252 0.547379 0.015758
-4.613429 0.547379 0.015994
-4.299606 0.547379 0.016310
-3.985783 0.547379 0.017102
-3.671960 0.547379 0.017343
-3.358137 0.547379 0.017905
-3.044314 0.547379 0.018167
-2.730491 0.547379 0.017831
-2.416668 0.547379 0.017963
-2.102845 0.547379 0.018360
-1.789022 0.547379 0.018229
-1.475199 0.547379 0.018522
-1.161376 0.547379 0.018920
-0.847553 0.547379 0.019128
-0.533730 0.547379 0.019644
-0.219907 0.547379 0.019849
0.093916 0.547379 0.020420
0.407739 0.547379 0.020755
0.721562 0.547379 0.021342
1.035385 0.547379 0.022777
1.349208 0.547379 0.022543
1.663032 0.547379 0.021825
1.976854 0.547379 0.021878
2.290677 0.547379 0.022889
2.604500 0.547379 0.024724
2.918324 0.547379 0.025923
3.232146 0.547379 0.026410
3.545969 0.547379 0.026035
3.859793 0.547379 0.025348
4.173615 0.547379 0.025552
4.487438 0.547379 0.026686
4.801261 0.547379 0.029096
5.115085 0.547379 0.031106
5.428907 0.547379 0.032074
5.742730 0.547379 0.032521
6.056554 0.547379 0.033505
6.370377 0.547379 0.036822
6.684199 0.547379 0.040456
6.998022 0.547379 0.046902
7.311846 0.547379 0.060359
7.625669 0.547379 0.076890
7.939491 0.547379 0.097369
8.253315 0.547379 0.135490
8.567138 0.547379 0.198566
8.880960 0.547379 0.281771
9.194784 0.547379 0.374932
9.508606 0.547379 0.495572
9.822430 0.547379 0.632678
10.136253 0.547379 0.796149
10.450075 0.547379 0.997663
10.763899 0.547379 1.240233
11.077723 0.547379 1.463905
11.391544 0.547379 1.737485
11.705368 0.547379 2.078846
12.019190 0.547379 2.286659
12.333014 0.547379 2.734463
12.646837 0.547379 3.218920
12.960659 0.547379 3.573982
13.274483 0.547379 4.090540
13.588306 0.547379 4.714808
13.902128 0.547379 5.200865
14.215952 0.547379 5.734233
14.529776 0.547379 6.632321
14.843597 0.547379 8.162666
15.157421 0.547379 9.592382
15.471243 0.547379 10.900864
15.785067 0.547379 11.937357
16.098890 0.547379 12.881680
16.412712 0.547379 15.482506
16.726536 0.547379 15.802982
17.040359 0.547379 0.000000
17.354181 0.547379 0.000000
17.668005 0.547379 0.000000
17.981829 0.547379 0.000000
18.295650 0.547379 0.000000
18.609474 0.547379 0.000000
18.923298 0.547379 0.000000
19.237120 0.547379 0.000000
-6.810190 0.233559 0.000000
-6.496367 0.233559 0.018935
-6.182544 0.233559 0.014865
-5.868721 0.233559 0.015766
-5.554898 0.233559 0.016014
-5.241075 0.233559 0.015371
-4.927252 0.233559 0.015387
-4.613429 0.233559 0.016133
-4.299606 0.233559 0.016795
-3.985783 0.233559 0.017441
-3.671960 0.233559 0.017666
-3.358137 0.233559 0.018123
-3.044314 0.233559 0.018402
-2.730491 0.233559 0.017997
-2.416668 0.233559 0.017951
-2.102845 0.233559 0.018136
-1.789022 0.233559 0.018317
-1.475199 0.233559 0.018753
-1.161376 0.233559 0.018806
-0.847553 0.233559 0.018971
-0.533730 0.233559 0.019394
-0.219907 0.233559 0.019716
0.093916 0.233559 0.020178
0.407739 0.233559 0.020233
0.721562 0.233559 0.020477
1.035385 0.233559 0.021977
1.349208 0.233559 0.022289
1.663032 0.233559 0.021904
1.976854 0.233559 0.022042
2.290677 0.233559 0.023282
2.604500 0.233559 0.025333
2.918324 0.233559 0.025858
3.232146 0.233559 0.025559
3.545969 0.233559 0.025123
3.859793 0.233559 0.025123
4.173615 0.233559 0.025844
4.487438 0.233559 0.027357
4.801261 0.233559 0.029890
5.115085 0.233559 0.031436
5.428907 0.233559 0.032775
5.742730 0.233559 0.033577
6.056554 0.233559 0.034576
6.370377 0.233559 0.037568
6.684199 0.233559 0.040826
6.998022 0.233559 0.047623
7.311846 0.233559 0.058881
7.625669 0.233559 0.074763
7.939491 0.233559 0.096672
8.253315 0.233559 0.141082
8.567138 0.233559 0.202799
8.880960 0.233559 0.290837
9.194784 0.233559 0.394508
9.508606 0.233559 0.513721
9.822430 0.233559 0.652953
10.136253 0.233559 0.805489
10.450075 0.233559 1.021285
10.763899 0.233559 1.240176
11.077723 0.233559 1.508499
11.391544 0.233559 1.813962
11.705368 0.233559 2.070303
12.019190 0.233559 2.386388
12.333014 0.233559 2.852224
12.646837 0.233559 3.254714
12.960659 0.233559 3.724353
13.274483 0.233559 4.183236
13.588306 0.233559 4.707487
13.902128 0.233559 5.353082
14.215952 0.233559 5.859518
14.529776 0.233559 6.853835
14.843597 0.233559 8.748086
15.157421 0.233559 10.456264
15.471243 0.233559 11.109596
15.785067 0.233559 11.527710
16.098890 0.233559 12.702458
16.412712 0.233559 15.003999
16.726536 0.233559 10.978230
17.040359 0.233559 0.000000
17.354181 0.233559 0.000000
17.668005 0.233559 0.000000
17.981829 0.233559 0.000000
18.295650 0.233559 0.000000
18.609474 0.233559 0.000000
18.923298 0.233559 0.000000
19.237120 0.233559 0.000000
-6.810190 -0.080265 0.000000
-6.496367 -0.080265 0.020491
-6.182544 -0.080265 0.015328
-5.868721 -0.080265 0.016367
-5.554898 -0.080265 0.016578
-5.241075 -0.080265 0.015620
-4.927252 -0.080265 0.015576
-4.613429 -0.080265 0.016506
-4.299606 -0.080265 0.017214
-3.985783 -0.080265 0.017426
-3.671960 -0.080265 0.017941
-3.358137 -0.080265 0.018967
-3.044314 -0.080265 0.019179
-2.730491 -0.080265 0.018659
-2.416668 -0.080265 0.018245
-2.102845 -0.080265 0.018414
-1.789022 -0.080265 0.018540
-1.475199 -0.080265 0.018926
-1.161376 -0.080265 0.018860
-0.847553 -0.080265 0.019133
-0.533730 -0.080265 0.019482
-0.219907 -0.080265 0.019742
0.093916 -0.080265 0.020042
0.407739 -0.080265 0.020063
0.721562 -0.080265 0.020381
1.035385 -0.080265 0.021336
1.349208 -0.080265 0.021970
1.663032 -0.080265 0.022343
1.976854 -0.080265 0.022719
2.290677 -0.080265 0.024057
2.604500 -0.080265 0.026509
2.918324 -0.080265 0.026532
3.232146 -0.080265 0.025653
3.545969 -0.080265 0.024976
3.859793 -0.080265 0.025370
4.173615 -0.080265 0.026385
4.487438 -0.080265 0.028028
4.801261 -0.080265 0.030870
5.115085 -0.080265 0.032459
5.428907 -0.080265 0.034046
5.742730 -0.080265 0.034964
6.056554 -0.080265 0.035892
6.370377 -0.080265 0.038862
6.684199 -0.080265 0.041955
6.998022 -0.080265 0.047643
7.311846 -0.080265 0.058010
7.625669 -0.080265 0.074860
7.939491 -0.080265 0.099628
8.253315 -0.080265 0.142824
8.567138 -0.080265 0.206839
8.880960 -0.080265 0.295424
9.194784 -0.080265 0.397947
9.508606 -0.080265 0.541794
9.822430 -0.080265 0.674801
10.136253 -0.080265 0.851197
10.450075 -0.080265 1.061921
10.763899 -0.080265 1.284057
11.077723 -0.080265 1.599210
11.391544 -0.080265 1.897390
11.705368 -0.080265 2.178101
12.019190 -0.080265 2.570971
12.333014 -0.080265 3.072716
12.646837 -0.080265 3.589593
12.960659 -0.080265 3.927911
13.274483 -0.080265 4.289546
13.588306 -0.080265 4.884067
13.902128 -0.080265 5.574555
14.215952 -0.080265 6.265368
14.529776 -0.080265 7.772350
14.843597 -0.080265 9.701474
15.157421 -0.080265 10.828003
15.471243 -0.080265 11.341413
15.785067 -0.080265 11.985651
16.098890 -0.080265 13.080535
16.412712 -0.080265 13.938832
16.726536 -0.080265 0.000000
17.040359 -0.080265 0.000000
17.354181 -0.080265 0.000000
17.668005 -0.080265 0.000000
17.981829 -0.080265 0.000000
18.295650 -0.080265 0.000000
18.609474 -0.080265 0.000000
18.923298 -0.080265 0.000000
19.237120 -0.080265 0.000000
-6.810190 -0.394089 0.000000
-6.496367 -0.394089 0.023488
-6.182544 -0.394089 0.017406
-5.868721 -0.394089 0.018070
-5.554898 -0.394089 0.018343
-5.241075 -0.394089 0.017429
-4.927252 -0.394089 0.017328
-4.613429 -0.394089 0.018186
-4.299606 -0.394089 0.018904
-3.985783 -0.394089 0.018813
-3.671960 -0.394089 0.019679
-3.358137 -0.394089 0.020951
-3.044314 -0.394089 0.021185
-2.730491 -0.394089 0.020665
-2.416668 -0.394089 0.020250
-2.102845 -0.394089 0.020051
-1.789022 -0.394089 0.019900
-1.475199 -0.394089 0.020282
-1.161376 -0.394089 0.020686
-0.847553 -0.394089 0.020879
-0.533730 -0.394089 0.021047
-0.219907 -0.394089 0.021475
0.093916 -0.394089 0.021669
0.407739 -0.394089 0.021798
0.721562 -0.394089 0.022083
1.035385 -0.394089 0.022725
1.349208 -0.394089 0.023477
1.663032 -0.394089 0.024254
1.976854 -0.394089 0.024982
2.290677 -0.394089 0.026435
2.604500 -0.394089 0.029334
2.918324 -0.394089 0.029066
3.232146 -0.394089 0.028606
3.545969 -0.394089 0.027498
3.859793 -0.394089 0.027352
4.173615 -0.394089 0.028751
4.487438 -0.394089 0.030847
4.801261 -0.394089 0.033296
5.115085 -0.394089 0.035493
5.428907 -0.394089 0.037517
5.742730 -0.394089 0.038838
6.056554 -0.394089 0.039714
6.370377 -0.394089 0.043340
6.684199 -0.394089 0.046795
6.998022 -0.394089 0.052043
7.311846 -0.394089 0.062804
7.625669 -0.394089 0.079117
7.939491 -0.394089 0.108425
8.253315 -0.394089 0.158897
8.567138 -0.394089 0.221276
8.880960 -0.394089 0.316688
9.194784 -0.394089 0.431521
9.508606 -0.394089 0.572729
9.822430 -0.394089 0.749693
10.136253 -0.394089 0.936316
10.450075 -0.394089 1.173355
10.763899 -0.394089 1.443125
11.077723 -0.394089 1.823846
11.391544 -0.394089 2.140289
11.705368 -0.394089 2.429285
12.019190 -0.394089 2.772615
12.333014 -0.394089 3.256057
12.646837 -0.394089 3.935883
12.960659 -0.394089 4.456338
13.274483 -0.394089 4.664727
13.588306 -0.394089 5.240689
13.902128 -0.394089 6.087533
14.215952 -0.394089 6.807506
14.529776 -0.394089 8.462008
14.843597 -0.394089 10.565883
15.157421 -0.394089 11.855701
15.471243 -0.394089 12.610861
15.785067 -0.394089 12.832324
16.098890 -0.394089 13.768645
16.412712 -0.394089 12.625008
16.726536 -0.394089 0.000000
17.040359 -0.394089 0.000000
17.354181 -0.394089 0.000000
17.668005 -0.394089 0.000000
17.981829 -0.394089 0.000000
18.295650 -0.394089 0.000000
18.609474 -0.394089 0.000000
18.923298 -0.394089 0.000000
19.237120 -0.394089 0.000000
-6.810190 -0.707912 0.000000
-6.496367 -0.707912 0.017631
-6.182544 -0.707912 0.022010
-5.868721 -0.707912 0.022909
-5.554898 -0.707912 0.023061
-5.241075 -0.707912 0.022370
-4.927252 -0.707912 0.022054
-4.613429 -0.707912 0.022659
-4.299606 -0.707912 0.023409
-3.985783 -0.707912 0.023253
-3.671960 -0.707912 0.024297
-3.358137 -0.707912 0.025654
-3.044314 -0.707912 0.025638
-2.730491 -0.707912 0.025604
-2.416668 -0.707912 0.025242
-2.102845 -0.707912 0.024591
-1.789022 -0.707912 0.024123
-1.475199 -0.707912 0.025031
-1.161376 -0.707912 0.026250
-0.847553 -0.707912 0.026231
-0.533730 -0.707912 0.026494
-0.219907 -0.707912 0.026977
0.093916 -0.707912 0.027093
0.407739 -0.707912 0.026903
0.721562 -0.707912 0.027357
1.035385 -0.707912 0.028017
1.349208 -0.707912 0.028508
1.663032 -0.707912 0.029361
1.976854 -0.707912 0.030998
2.290677 -0.707912 0.033193
2.604500 -0.707912 0.035882
2.918324 -0.707912 0.036619
3.232146 -0.707912 0.036592
3.545969 -0.707912 0.034704
3.859793 -0.707912 0.033705
4.173615 -0.707912 0.035023
4.487438 -0.707912 0.037433
4.801261 -0.707912 0.039868
5.115085 -0.707912 0.041967
5.428907 -0.707912 0.045295
5.742730 -0.707912 0.048477
6.056554 -0.707912 0.049897
6.370377 -0.707912 0.054474
6.684199 -0.707912 0.059337
6.998022 -0.707912 0.065761
7.311846 -0.707912 0.078559
7.625669 -0.707912 0.098048
7.939491 -0.707912 0.132858
8.253315 -0.707912 0.196278
8.567138 -0.707912 0.270372
8.880960 -0.707912 0.379539
9.194784 -0.707912 0.513817
9.508606 -0.707912 0.684752
9.822430 -0.707912 0.884611
10.136253 -0.707912 1.128547
10.450075 -0.707912 1.445600
10.763899 -0.707912 1.773296
11.077723 -0.707912 2.098900
11.391544 -0.707912 2.455932
11.705368 -0.707912 2.722976
12.019190 -0.707912 3.182560
12.333014 -0.707912 3.844106
12.646837 -0.707912 4.686658
12.960659 -0.707912 5.271928
13.274483 -0.707912 5.426573
13.588306 -0.707912 6.143664
13.902128 -0.707912 6.791675
14.215952 -0.707912 7.782354
14.529776 -0.707912 9.636610
14.843597 -0.707912 11.526830
15.157421 -0.707912 13.063877
15.471243 -0.707912 13.940778
15.785067 -0.707912 14.054727
16.098890 -0.707912 14.089796
16.412712 -0.707912 12.166416
16.726536 -0.707912 0.000000
17.040359 -0.707912 0.000000
17.354181 -0.707912 0.000000
17.668005 -0.707912 0.000000
17.981829 -0.707912 0.000000
18.295650 -0.707912 0.000000
18.609474 -0.707912 0.000000
18.923298 -0.707912 0.000000
19.237120 -0.707912 0.000000
-6.810190 -1.021736 0.000000
-6.496367 -1.021736 0.000000
-6.182544 -1.021736 0.000000
-5.868721 -1.021736 0.000000
-5.554898 -1.021736 0.000000
-5.241075 -1.021736 0.000000
-4.927252 -1.021736 0.000000
-4.613429 -1.021736 0.000000
-4.299606 -1.021736 0.000000
-3.985783 -1.021736 0.000000
-3.671960 -1.021736 0.000000
-3.358137 -1.021736 0.000000
-3.044314 -1.021736 0.000000
-2.730491 -1.021736 0.000000
-2.416668 -1.021736 0.000000
-2.102845 -1.021736 0.003898
-1.789022 -1.021736 0.025350
-1.475199 -1.021736 0.027846
-1.161376 -1.021736 0.030028
-0.847553 -1.021736 0.033607
-0.533730 -1.021736 0.035115
-0.219907 -1.021736 0.034811
0.093916 -1.021736 0.034711
0.407739 -1.021736 0.034292
0.721562 -1.021736 0.035913
1.035385 -1.021736 0.036983
1.349208 -1.021736 0.037489
1.663032 -1.021736 0.038637
1.976854 -1.021736 0.042744
2.290677 -1.021736 0.045384
2.604500 -1.021736 0.047718
2.918324 -1.021736 0.049150
3.232146 -1.021736 0.049311
3.545969 -1.021736 0.047451
3.859793 -1.021736 0.045465
4.173615 -1.021736 0.047230
4.487438 -1.021736 0.049332
4.801261 -1.021736 0.051454
5.115085 -1.021736 0.053394
5.428907 -1.021736 0.058273
5.742730 -1.021736 0.064239
6.056554 -1.021736 0.067039
6.370377 -1.021736 0.072779
6.684199 -1.021736 0.079097
6.998022 -1.021736 0.088958
7.311846 -1.021736 0.104503
7.625669 -1.021736 0.128418
7.939491 -1.021736 0.176520
8.253315 -1.021736 0.248411
8.567138 -1.021736 0.343834
8.880960 -1.021736 0.467256
9.194784 -1.021736 0.624271
9.508606 -1.021736 0.816085
9.822430 -1.021736 1.046522
10.136253 -1.021736 1.340925
10.450075 -1.021736 1.732198
10.763899 -1.021736 2.136841
11.077723 -1.021736 2.568366
11.391544 -1.021736 2.962400
11.705368 -1.021736 3.396091
12.019190 -1.021736 3.905767
12.333014 -1.021736 4.711353
12.646837 -1.021736 5.620226
12.960659 -1.021736 6.333393
13.274483 -1.021736 6.850364
13.588306 -1.021736 7.412902
13.902128 -1.021736 7.918311
14.215952 -1.021736 9.064036
14.529776 -1.021736 10.748499
14.843597 -1.021736 12.222591
15.157421 -1.021736 13.554439
15.471243 -1.021736 14.444921
15.785067 -1.021736 14.342052
16.098890 -1.021736 13.283688
16.412712 -1.021736 0.000000
16.726536 -1.021736 0.000000
17.040359 -1.021736 0.000000
17.354181 -1.021736 0.000000
17.668005 -1.021736 0.000000
17.981829 -1.021736 0.000000
18.295650 -1.021736 0.000000
18.609474 -1.021736 0.000000
18.923298 -1.021736 0.000000
19.237120 -1.021736 0.000000
-6.810190 -1.335556 0.000000
-6.496367 -1.335556 0.000000
-6.182544 -1.335556 0.000000
-5.868721 -1.335556 0.000000
-5.554898 -1.335556 0.000000
-5.241075 -1.335556 0.000000
-4.927252 -1.335556 0.000000
-4.613429 -1.335556 0.000000
-4.299606 -1.335556 0.000000
-3.985783 -1.335556 0.000000
-3.671960 -1.335556 0.000000
-3.358137 -1.335556 0.000000
-3.044314 -1.335556 0.000000
-2.730491 -1.335556 0.000000
-2.416668 -1.335556 0.000000
-2.102845 -1.335556 0.000000
-1.789022 -1.335556 0.000000
-1.475199 -1.335556 0.000000
-1.161376 -1.335556 0.000000
-0.847553 -1.335556 0.000000
-0.533730 -1.335556 0.000000
-0.219907 -1.335556 0.000000
0.093916 -1.335556 0.000000
0.407739 -1.335556 0.000000
0.721562 -1.335556 0.000000
1.035385 -1.335556 0.000000
1.349208 -1.335556 0.000000
1.663032 -1.335556 0.000000
1.976854 -1.335556 0.000000
2.290677 -1.335556 0.000000
2.604500 -1.335556 0.000000
2.918324 -1.335556 0.000000
3.232146 -1.335556 0.000000
3.545969 -1.335556 0.000000
3.859793 -1.335556 0.000000
4.173615 -1.335556 0.000000
4.487438 -1.335556 0.000000
4.801261 -1.335556 0.000000
5.115085 -1.335556 0.000000
5.428907 -1.335556 0.000000
5.742730 -1.335556 0.000000
6.056554 -1.335556 0.000000
6.370377 -1.335556 0.000000
6.684199 -1.335556 0.000000
6.998022 -1.335556 0.000000
7.311846 -1.335556 0.000000
7.625669 -1.335556 0.000000
7.939491 -1.335556 0.000000
8.253315 -1.335556 6.073767
8.567138 -1.335556 3.845697
8.880960 -1.335556 3.421706
9.194784 -1.335556 3.862496
9.508606 -1.335556 2.853210
9.822430 -1.335556 2.619096
10.136253 -1.335556 2.758500
10.450075 -1.335556 2.852888
10.763899 -1.335556 2.977917
11.077723 -1.335556 3.060777
11.391544 -1.335556 3.280419
11.705368 -1.335556 3.550122
12.019190 -1.335556 3.988440
12.333014 -1.335556 4.524732
12.646837 -1.335556 5.381935
12.960659 -1.335556 6.127758
13.274483 -1.335556 6.674289
13.588306 -1.335556 7.172092
13.902128 -1.335556 7.747699
14.215952 -1.335556 8.848081
14.529776 -1.335556 10.202261
14.843597 -1.335556 11.834352
15.157421 -1.335556 12.842543
15.471243 -1.335556 13.161316
15.785067 -1.335556 13.095956
16.098890 -1.335556 13.653007
16.412712 -1.335556 0.000000
16.726536 -1.335556 0.000000
17.040359 -1.335556 0.000000
17.354181 -1.335556 0.000000
17.668005 -1.335556 0.000000
17.981829 -1.335556 0.000000
18.295650 -1.335556 0.000000
18.609474 -1.335556 0.000000
18.923298 -1.335556 0.000000
19.237120 -1.335556 0.000000
-6.810190 -1.649380 0.000000
-6.496367 -1.649380 0.000000
-6.182544 -1.649380 0.000000
-5.868721 -1.649380 0.000000
-5.554898 -1.649380 0.000000
-5.241075 -1.649380 0.000000
-4.927252 -1.649380 0.000000
-4.613429 -1.649380 0.000000
-4.299606 -1.649380 0.000000
-3.985783 -1.649380 0.000000
-3.671960 -1.649380 0.000000
-3.358137 -1.649380 0.000000
-3.044314 -1.649380 0.000000
-2.730491 -1.649380 0.000000
-2.416668 -1.649380 0.000000
-2.102845 -1.649380 0.000000
-1.789022 -1.649380 0.000000
-1.475199 -1.649380 0.000000
-1.161376 -1.649380 0.000000
-0.847553 -1.649380 0.000000
-0.533730 -1.649380 0.000000
-0.219907 -1.649380 0.000000
0.093916 -1.649380 0.000000
0.407739 -1.649380 0.000000
0.721562 -1.649380 0.000000
1.035385 -1.649380 0.000000
1.349208 -1.649380 0.000000
1.663032 -1.649380 0.000000
1.976854 -1.649380 0.000000
2.290677 -1.649380 0.000000
2.604500 -1.649380 0.000000
2.918324 -1.649380 0.000000
3.232146 -1.649380 0.000000
3.545969 -1.649380 0.000000
3.859793 -1.649380 0.000000
4.173615 -1.649380 0.000000
4.487438 -1.649380 0.000000
4.801261 -1.649380 0.000000
5.115085 -1.649380 0.000000
5.428907 -1.649380 0.000000
5.742730 -1.649380 0.000000
6.056554 -1.649380 0.000000
6.370377 -1.649380 0.000000
6.684199 -1.649380 0.000000
6.998022 -1.649380 0.000000
7.311846 -1.649380 0.000000
7.625669 -1.649380 0.000000
7.939491 -1.649380 0.000000
8.253315 -1.649380 0.000000
8.567138 -1.649380 0.000000
8.880960 -1.649380 0.000000
9.194784 -1.649380 0.000000
9.508606 -1.649380 0.000000
9.822430 -1.649380 0.000000
10.136253 -1.649380 0.000000
10.450075 -1.649380 0.000000
10.763899 -1.649380 2.414873
11.077723 -1.649380 2.715072
11.391544 -1.649380 11.998384
11.705368 -1.649380 13.972002
12.019190 -1.649380 9.842234
12.333014 -1.649380 6.208858
12.646837 -1.649380 7.636563
12.960659 -1.649380 7.445810
13.274483 -1.649380 7.781389
13.588306 -1.649380 6.849312
13.902128 -1.649380 6.094698
14.215952 -1.649380 6.290107
14.529776 -1.649380 7.238240
14.843597 -1.649380 7.927271
15.157421 -1.649380 8.838988
15.471243 -1.649380 8.696304
15.785067 -1.649380 8.403817
16.098890 -1.649380 5.605127
16.412712 -1.649380 0.000000
16.726536 -1.649380 0.000000
17.040359 -1.649380 0.000000
17.354181 -1.649380 0.000000
17.668005 -1.649380 0.000000
17.981829 -1.649380 0.000000
18.295650 -1.649380 0.000000
18.609474 -1.649380 0.000000
18.923298 -1.649380 0.000000
19.237120 -1.649380 0.000000
-6.810190 -1.963203 0.000000
-6.496367 -1.963203 0.000000
-6.182544 -1.963203 0.000000
-5.868721 -1.963203 0.000000
-5.554898 -1.963203 0.000000
-5.241075 -1.963203 0.000000
-4.927252 -1.963203 0.000000
-4.613429 -1.963203 0.000000
-4.299606 -1.963203 0.000000
-3.985783 -1.963203 0.000000
-3.671960 -1.963203 0.000000
-3.358137 -1.963203 0.000000
-3.044314 -1.963203 0.000000
-2.730491 -1.963203 0.000000
-2.416668 -1.963203 0.000000
-2.102845 -1.963203 0.000000
-1.789022 -1.963203 0.000000
-1.475199 -1.963203 0.000000
-1.161376 -1.963203 0.000000
-0.847553 -1.963203 0.000000
-0.533730 -1.963203 0.000000
-0.219907 -1.963203 0.000000
0.093916 -1.963203 0.000000
0.407739 -1.963203 0.000000
0.721562 -1.963203 0.000000
1.035385 -1.963203 0.000000
1.349208 -1.963203 0.000000
1.663032 -1.963203 0.000000
1.976854 -1.963203 0.000000
2.290677 -1.963203 0.000000
2.604500 -1.963203 0.000000
2.918324 -1.963203 0.000000
3.232146 -1.963203 0.000000
3.545969 -1.963203 0.000000
3.859793 -1.963203 0.000000
4.173615 -1.963203 0.000000
4.487438 -1.963203 0.000000
4.801261 -1.963203 0.000000
5.115085 -1.963203 0.000000
5.428907 -1.963203 0.000000
5.742730 -1.963203 0.000000
6.056554 -1.963203 0.000000
6.370377 -1.963203 0.000000
6.684199 -1.963203 0.000000
6.998022 -1.963203 0.000000
7.311846 -1.963203 0.000000
7.625669 -1.963203 0.000000
7.939491 -1.963203 0.000000
8.253315 -1.963203 0.000000
8.567138 -1.963203 0.000000
8.880960 -1.963203 0.000000
9.194784 -1.963203 0.000000
9.508606 -1.963203 0.000000
9.822430 -1.963203 0.000000
10.136253 -1.963203 0.000000
10.450075 -1.963203 0.000000
10.763899 -1.963203 0.000000
11.077723 -1.963203 0.000000
11.391544 -1.963203 0.000000
11.705368 -1.963203 0.000000
12.019190 -1.963203 0.000000
12.333014 -1.963203 0.000000
12.646837 -1.963203 0.000000
12.960659 -1.963203 0.000000
13.274483 -1.963203 6.435049
13.588306 -1.963203 9.711741
13.902128 -1.963203 9.931830
14.215952 -1.963203 15.180082
14.529776 -1.963203 16.047911
14.843597 -1.963203 16.538277
15.157421 -1.963203 12.510971
15.471243 -1.963203 8.669712
15.785067 -1.963203 13.095391
16.098890 -1.963203 0.000000
16.412712 -1.963203 0.000000
16.726536 -1.963203 0.000000
17.040359 -1.963203 0.000000
17.354181 -1.963203 0.000000
17.668005 -1.963203 0.000000
17.981829 -1.963203 0.000000
18.295650 -1.963203 0.000000
18.609474 -1.963203 0.000000
18.923298 -1.963203 0.000000
19.237120 -1.963203 0.000000
-6.810190 -2.277027 0.000000
-6.496367 -2.277027 0.000000
-6.182544 -2.277027 0.000000
-5.868721 -2.277027 0.000000
-5.554898 -2.277027 0.000000
-5.241075 -2.277027 0.000000
-4.927252 -2.277027 0.000000
-4.613429 -2.277027 0.000000
-4.299606 -2.277027 0.000000
-3.985783 -2.277027 0.000000
-3.671960 -2.277027 0.000000
-3.358137 -2.277027 0.000000
-3.044314 -2.277027 0.000000
-2.730491 -2.277027 0.000000
-2.416668 -2.277027 0.000000
-2.102845 -2.277027 0.000000
-1.789022 -2.277027 0.000000
-1.475199 -2.277027 0.000000
-1.161376 -2.277027 0.000000
-0.847553 -2.277027 0.000000
-0.533730 -2.277027 0.000000
-0.219907 -2.277027 0.000000
0.093916 -2.277027 0.000000
0.407739 -2.277027 0.000000
0.721562 -2.277027 0.000000
1.035385 -2.277027 0.000000
1.349208 -2.277027 0.000000
1.663032 -2.277027 0.000000
1.976854 -2.277027 0.000000
2.290677 -2.277027 0.000000
2.604500 -2.277027 0.000000
2.918324 -2.277027 0.000000
3.232146 -2.277027 0.000000
3.545969 -2.277027 0.000000
3.859793 -2.277027 0.000000
4.173615 -2.277027 0.000000
4.487438 -2.277027 0.000000
4.801261 -2.277027 0.000000
5.115085 -2.277027 0.000000
5.428907 -2.277027 0.000000
5.742730 -2.277027 0.000000
6.056554 -2.277027 0.000000
6.370377 -2.277027 0.000000
6.684199 -2.277027 0.000000
6.998022 -2.277027 0.000000
7.311846 -2.277027 0.000000
7.625669 -2.277027 0.000000
7.939491 -2.277027 0.000000
8.253315 -2.277027 0.000000
8.567138 -2.277027 0.000000
8.880960 -2.277027 0.000000
9.194784 -2.277027 0.000000
9.508606 -2.277027 0.000000
9.822430 -2.277027 0.000000
10.136253 -2.277027 0.000000
10.450075 -2.277027 0.000000
10.763899 -2.277027 0.000000
11.077723 -2.277027 0.000000
11.391544 -2.277027 0.000000
11.705368 -2.277027 0.000000
12.019190 -2.277027 0.000000
12.333014 -2.277027 0.000000
12.646837 -2.277027 0.000000
12.960659 -2.277027 0.000000
13.274483 -2.277027 0.000000
13.588306 -2.277027 0.000000
13.902128 -2.277027 0.000000
14.215952 -2.277027 0.000000
14.529776 -2.277027 0.000000
14.843597 -2.277027 0.000000
15.157421 -2.277027 0.000000
15.471243 -2.277027 0.000000
15.785067 -2.277027 0.000000
16.098890 -2.277027 0.000000
16.412712 -2.277027 0.000000
16.726536 -2.277027 0.000000
17.040359 -2.277027 0.000000
17.354181 -2.277027 0.000000
17.668005 -2.277027 0.000000
17.981829 -2.277027 0.000000
18.295650 -2.277027 0.000000
18.609474 -2.277027 0.000000
18.923298 -2.277027 0.000000
19.237120 -2.277027 0.000000
