TITLE = "B00012"
VARIABLES = "x", "y", "Reynold stress XX"
ZONE T="Frame 1" I=84, J=163, F=POINT
-6.810190 48.562302 0.000000
-6.496367 48.562302 0.000000
-6.182544 48.562302 0.000000
-5.868721 48.562302 0.000000
-5.554898 48.562302 0.000000
-5.241075 48.562302 0.000000
-4.927252 48.562302 0.000000
-4.613429 48.562302 0.000000
-4.299606 48.562302 0.000000
-3.985783 48.562302 0.000000
-3.671960 48.562302 0.000000
-3.358137 48.562302 0.000000
-3.044314 48.562302 0.000000
-2.730491 48.562302 0.000000
-2.416668 48.562302 0.000000
-2.102845 48.562302 0.000000
-1.789022 48.562302 0.000000
-1.475199 48.562302 0.000000
-1.161376 48.562302 0.000000
-0.847553 48.562302 0.000000
-0.533730 48.562302 0.000000
-0.219907 48.562302 0.000000
0.093916 48.562302 0.000000
0.407739 48.562302 0.000000
0.721562 48.562302 0.000000
1.035385 48.562302 0.000000
1.349208 48.562302 0.000000
1.663032 48.562302 0.000000
1.976854 48.562302 0.000000
2.290677 48.562302 0.000000
2.604500 48.562302 0.000000
2.918324 48.562302 0.000000
3.232146 48.562302 0.000000
3.545969 48.562302 0.000000
3.859793 48.562302 0.000000
4.173615 48.562302 0.000000
4.487438 48.562302 0.000000
4.801261 48.562302 0.000000
5.115085 48.562302 0.000000
5.428907 48.562302 0.000000
5.742730 48.562302 0.000000
6.056554 48.562302 0.000000
6.370377 48.562302 0.000000
6.684199 48.562302 0.000000
6.998022 48.562302 0.000000
7.311846 48.562302 0.000000
7.625669 48.562302 0.000000
7.939491 48.562302 0.000000
8.253315 48.562302 0.000000
8.567138 48.562302 0.000000
8.880960 48.562302 0.000000
9.194784 48.562302 0.000000
9.508606 48.562302 0.000000
9.822430 48.562302 0.000000
10.136253 48.562302 0.000000
10.450075 48.562302 0.000000
10.763899 48.562302 0.000000
11.077723 48.562302 0.000000
11.391544 48.562302 0.000000
11.705368 48.562302 0.000000
12.019190 48.562302 0.000000
12.333014 48.562302 0.000000
12.646837 48.562302 0.000000
12.960659 48.562302 0.000000
13.274483 48.562302 0.000000
13.588306 48.562302 0.000000
13.902128 48.562302 0.000000
14.215952 48.562302 0.000000
14.529776 48.562302 0.000000
14.843597 48.562302 0.000000
15.157421 48.562302 0.000000
15.471243 48.562302 0.000000
15.785067 48.562302 0.000000
16.098890 48.562302 0.000000
16.412712 48.562302 0.000000
16.726536 48.562302 0.000000
17.040359 48.562302 0.000000
17.354181 48.562302 0.000000
17.668005 48.562302 0.000000
17.981829 48.562302 0.000000
18.295650 48.562302 0.000000
18.609474 48.562302 0.000000
18.923298 48.562302 0.000000
19.237120 48.562302 0.000000
-6.810190 48.248478 0.000000
-6.496367 48.248478 0.000000
-6.182544 48.248478 0.000000
-5.868721 48.248478 0.000000
-5.554898 48.248478 0.000000
-5.241075 48.248478 0.000000
-4.927252 48.248478 0.000000
-4.613429 48.248478 0.000000
-4.299606 48.248478 0.000000
-3.985783 48.248478 0.000000
-3.671960 48.248478 0.000000
-3.358137 48.248478 0.000000
-3.044314 48.248478 0.000000
-2.730491 48.248478 0.000000
-2.416668 48.248478 0.000000
-2.102845 48.248478 0.000000
-1.789022 48.248478 0.000000
-1.475199 48.248478 0.000000
-1.161376 48.248478 0.000000
-0.847553 48.248478 0.000000
-0.533730 48.248478 0.000000
-0.219907 48.248478 0.000000
0.093916 48.248478 0.000000
0.407739 48.248478 0.000000
0.721562 48.248478 0.000000
1.035385 48.248478 0.000000
1.349208 48.248478 0.000000
1.663032 48.248478 0.000000
1.976854 48.248478 0.000000
2.290677 48.248478 0.000000
2.604500 48.248478 0.000000
2.918324 48.248478 0.000000
3.232146 48.248478 0.000000
3.545969 48.248478 0.000000
3.859793 48.248478 0.000000
4.173615 48.248478 0.000000
4.487438 48.248478 0.000000
4.801261 48.248478 0.000000
5.115085 48.248478 0.000000
5.428907 48.248478 0.000000
5.742730 48.248478 0.000000
6.056554 48.248478 0.000000
6.370377 48.248478 0.000000
6.684199 48.248478 0.000000
6.998022 48.248478 0.000000
7.311846 48.248478 0.000000
7.625669 48.248478 0.000000
7.939491 48.248478 0.000000
8.253315 48.248478 0.000000
8.567138 48.248478 0.000000
8.880960 48.248478 0.000000
9.194784 48.248478 0.000000
9.508606 48.248478 0.000000
9.822430 48.248478 0.000000
10.136253 48.248478 0.000000
10.450075 48.248478 0.000000
10.763899 48.248478 0.000000
11.077723 48.248478 0.000000
11.391544 48.248478 0.000000
11.705368 48.248478 0.000000
12.019190 48.248478 0.000000
12.333014 48.248478 0.000000
12.646837 48.248478 0.000000
12.960659 48.248478 0.000000
13.274483 48.248478 0.000000
13.588306 48.248478 0.000000
13.902128 48.248478 0.000000
14.215952 48.248478 0.000000
14.529776 48.248478 0.000000
14.843597 48.248478 0.000000
15.157421 48.248478 0.000000
15.471243 48.248478 0.000000
15.785067 48.248478 0.000000
16.098890 48.248478 0.000000
16.412712 48.248478 0.000000
16.726536 48.248478 0.000000
17.040359 48.248478 0.000000
17.354181 48.248478 0.000000
17.668005 48.248478 0.000000
17.981829 48.248478 0.000000
18.295650 48.248478 0.000000
18.609474 48.248478 0.000000
18.923298 48.248478 0.000000
19.237120 48.248478 0.000000
-6.810190 47.934654 0.000000
-6.496367 47.934654 0.000000
-6.182544 47.934654 0.000000
-5.868721 47.934654 0.000000
-5.554898 47.934654 0.000000
-5.241075 47.934654 0.000000
-4.927252 47.934654 0.000000
-4.613429 47.934654 0.000000
-4.299606 47.934654 0.000000
-3.985783 47.934654 0.000000
-3.671960 47.934654 0.000000
-3.358137 47.934654 0.000000
-3.044314 47.934654 0.000000
-2.730491 47.934654 0.000000
-2.416668 47.934654 0.000000
-2.102845 47.934654 0.000000
-1.789022 47.934654 0.000000
-1.475199 47.934654 0.000000
-1.161376 47.934654 0.000000
-0.847553 47.934654 0.000000
-0.533730 47.934654 0.000000
-0.219907 47.934654 0.000000
0.093916 47.934654 0.000000
0.407739 47.934654 0.000000
0.721562 47.934654 0.000000
1.035385 47.934654 0.000000
1.349208 47.934654 0.000000
1.663032 47.934654 0.000000
1.976854 47.934654 0.000000
2.290677 47.934654 0.000000
2.604500 47.934654 0.000000
2.918324 47.934654 0.000000
3.232146 47.934654 0.000000
3.545969 47.934654 0.000000
3.859793 47.934654 0.000000
4.173615 47.934654 0.000000
4.487438 47.934654 0.000000
4.801261 47.934654 0.000000
5.115085 47.934654 0.000000
5.428907 47.934654 0.000000
5.742730 47.934654 0.000000
6.056554 47.934654 0.000000
6.370377 47.934654 0.000000
6.684199 47.934654 0.000000
6.998022 47.934654 0.000000
7.311846 47.934654 0.000000
7.625669 47.934654 0.000000
7.939491 47.934654 0.000000
8.253315 47.934654 0.000000
8.567138 47.934654 0.000000
8.880960 47.934654 0.000000
9.194784 47.934654 0.000000
9.508606 47.934654 0.000000
9.822430 47.934654 0.000000
10.136253 47.934654 4.264606
10.450075 47.934654 2.016421
10.763899 47.934654 1.719454
11.077723 47.934654 3.529492
11.391544 47.934654 2.894999
11.705368 47.934654 2.600344
12.019190 47.934654 1.653534
12.333014 47.934654 1.769733
12.646837 47.934654 1.489380
12.960659 47.934654 1.489624
13.274483 47.934654 1.487321
13.588306 47.934654 1.371790
13.902128 47.934654 1.280315
14.215952 47.934654 1.249021
14.529776 47.934654 1.134603
14.843597 47.934654 1.129235
15.157421 47.934654 1.074023
15.471243 47.934654 0.980259
15.785067 47.934654 0.976216
16.098890 47.934654 0.948694
16.412712 47.934654 0.964474
16.726536 47.934654 0.973923
17.040359 47.934654 0.899985
17.354181 47.934654 0.865789
17.668005 47.934654 0.882394
17.981829 47.934654 0.903171
18.295650 47.934654 0.907663
18.609474 47.934654 0.848942
18.923298 47.934654 0.850591
19.237120 47.934654 0.000000
-6.810190 47.620834 0.000000
-6.496367 47.620834 0.000000
-6.182544 47.620834 0.009567
-5.868721 47.620834 0.009307
-5.554898 47.620834 0.011601
-5.241075 47.620834 0.011690
-4.927252 47.620834 0.012262
-4.613429 47.620834 0.013069
-4.299606 47.620834 0.013401
-3.985783 47.620834 0.012930
-3.671960 47.620834 0.012659
-3.358137 47.620834 0.012819
-3.044314 47.620834 0.013225
-2.730491 47.620834 0.013598
-2.416668 47.620834 0.013698
-2.102845 47.620834 0.013460
-1.789022 47.620834 0.013662
-1.475199 47.620834 0.013753
-1.161376 47.620834 0.013273
-0.847553 47.620834 0.013245
-0.533730 47.620834 0.013843
-0.219907 47.620834 0.014617
0.093916 47.620834 0.014897
0.407739 47.620834 0.014402
0.721562 47.620834 0.014276
1.035385 47.620834 0.014341
1.349208 47.620834 0.014769
1.663032 47.620834 0.015306
1.976854 47.620834 0.016037
2.290677 47.620834 0.016830
2.604500 47.620834 0.017424
2.918324 47.620834 0.017580
3.232146 47.620834 0.018353
3.545969 47.620834 0.019582
3.859793 47.620834 0.020770
4.173615 47.620834 0.021536
4.487438 47.620834 0.022727
4.801261 47.620834 0.024555
5.115085 47.620834 0.026989
5.428907 47.620834 0.030062
5.742730 47.620834 0.033055
6.056554 47.620834 0.036324
6.370377 47.620834 0.040629
6.684199 47.620834 0.045941
6.998022 47.620834 0.053319
7.311846 47.620834 0.062313
7.625669 47.620834 0.075650
7.939491 47.620834 0.092411
8.253315 47.620834 0.116737
8.567138 47.620834 0.141239
8.880960 47.620834 0.181606
9.194784 47.620834 0.238843
9.508606 47.620834 0.314355
9.822430 47.620834 0.396562
10.136253 47.620834 0.493048
10.450075 47.620834 0.604283
10.763899 47.620834 0.712965
11.077723 47.620834 0.808258
11.391544 47.620834 0.934310
11.705368 47.620834 1.047517
12.019190 47.620834 1.156464
12.333014 47.620834 1.253386
12.646837 47.620834 1.347124
12.960659 47.620834 1.430798
13.274483 47.620834 1.507885
13.588306 47.620834 1.550882
13.902128 47.620834 1.615957
14.215952 47.620834 1.624841
14.529776 47.620834 1.630741
14.843597 47.620834 1.629261
15.157421 47.620834 1.616675
15.471243 47.620834 1.585750
15.785067 47.620834 1.544872
16.098890 47.620834 1.513253
16.412712 47.620834 1.481934
16.726536 47.620834 1.434542
17.040359 47.620834 1.403990
17.354181 47.620834 1.375283
17.668005 47.620834 1.368798
17.981829 47.620834 1.381812
18.295650 47.620834 1.387522
18.609474 47.620834 1.380248
18.923298 47.620834 1.327595
19.237120 47.620834 0.000000
-6.810190 47.307011 0.000000
-6.496367 47.307011 0.000000
-6.182544 47.307011 0.008387
-5.868721 47.307011 0.009576
-5.554898 47.307011 0.009396
-5.241075 47.307011 0.009413
-4.927252 47.307011 0.009500
-4.613429 47.307011 0.009984
-4.299606 47.307011 0.010117
-3.985783 47.307011 0.009975
-3.671960 47.307011 0.009871
-3.358137 47.307011 0.010021
-3.044314 47.307011 0.010297
-2.730491 47.307011 0.010468
-2.416668 47.307011 0.010513
-2.102845 47.307011 0.010428
-1.789022 47.307011 0.010682
-1.475199 47.307011 0.010720
-1.161376 47.307011 0.010414
-0.847553 47.307011 0.010511
-0.533730 47.307011 0.010951
-0.219907 47.307011 0.011584
0.093916 47.307011 0.012038
0.407739 47.307011 0.011800
0.721562 47.307011 0.011846
1.035385 47.307011 0.012080
1.349208 47.307011 0.012512
1.663032 47.307011 0.012968
1.976854 47.307011 0.013606
2.290677 47.307011 0.014358
2.604500 47.307011 0.015028
2.918324 47.307011 0.015402
3.232146 47.307011 0.016178
3.545969 47.307011 0.017318
3.859793 47.307011 0.018494
4.173615 47.307011 0.019419
4.487438 47.307011 0.020757
4.801261 47.307011 0.022437
5.115085 47.307011 0.024756
5.428907 47.307011 0.027612
5.742730 47.307011 0.030620
6.056554 47.307011 0.033860
6.370377 47.307011 0.038404
6.684199 47.307011 0.043823
6.998022 47.307011 0.050816
7.311846 47.307011 0.060851
7.625669 47.307011 0.073388
7.939491 47.307011 0.089424
8.253315 47.307011 0.110151
8.567138 47.307011 0.135022
8.880960 47.307011 0.168579
9.194784 47.307011 0.217102
9.508606 47.307011 0.275424
9.822430 47.307011 0.342364
10.136253 47.307011 0.429859
10.450075 47.307011 0.525889
10.763899 47.307011 0.623504
11.077723 47.307011 0.728893
11.391544 47.307011 0.848386
11.705368 47.307011 0.960260
12.019190 47.307011 1.071734
12.333014 47.307011 1.163792
12.646837 47.307011 1.259008
12.960659 47.307011 1.343568
13.274483 47.307011 1.404258
13.588306 47.307011 1.455117
13.902128 47.307011 1.503037
14.215952 47.307011 1.524457
14.529776 47.307011 1.529961
14.843597 47.307011 1.536433
15.157421 47.307011 1.522629
15.471243 47.307011 1.486325
15.785067 47.307011 1.443766
16.098890 47.307011 1.398459
16.412712 47.307011 1.367383
16.726536 47.307011 1.328123
17.040359 47.307011 1.296770
17.354181 47.307011 1.287090
17.668005 47.307011 1.277963
17.981829 47.307011 1.286230
18.295650 47.307011 1.304121
18.609474 47.307011 1.332972
18.923298 47.307011 1.357852
19.237120 47.307011 0.000000
-6.810190 46.993187 0.000000
-6.496367 46.993187 0.000000
-6.182544 46.993187 0.009768
-5.868721 46.993187 0.008132
-5.554898 46.993187 0.007842
-5.241075 46.993187 0.008032
-4.927252 46.993187 0.008176
-4.613429 46.993187 0.008372
-4.299606 46.993187 0.008322
-3.985783 46.993187 0.008346
-3.671960 46.993187 0.008363
-3.358137 46.993187 0.008427
-3.044314 46.993187 0.008644
-2.730491 46.993187 0.008743
-2.416668 46.993187 0.008722
-2.102845 46.993187 0.008794
-1.789022 46.993187 0.008954
-1.475199 46.993187 0.008953
-1.161376 46.993187 0.008803
-0.847553 46.993187 0.008930
-0.533730 46.993187 0.009290
-0.219907 46.993187 0.009748
0.093916 46.993187 0.010172
0.407739 46.993187 0.010101
0.721562 46.993187 0.010159
1.035385 46.993187 0.010496
1.349208 46.993187 0.010855
1.663032 46.993187 0.011205
1.976854 46.993187 0.011685
2.290677 46.993187 0.012335
2.604500 46.993187 0.013022
2.918324 46.993187 0.013621
3.232146 46.993187 0.014372
3.545969 46.993187 0.015375
3.859793 46.993187 0.016516
4.173615 46.993187 0.017824
4.487438 46.993187 0.019150
4.801261 46.993187 0.020730
5.115085 46.993187 0.022953
5.428907 46.993187 0.025592
5.742730 46.993187 0.028500
6.056554 46.993187 0.032043
6.370377 46.993187 0.036607
6.684199 46.993187 0.041734
6.998022 46.993187 0.048793
7.311846 46.993187 0.058485
7.625669 46.993187 0.070557
7.939491 46.993187 0.085795
8.253315 46.993187 0.104726
8.567138 46.993187 0.128897
8.880960 46.993187 0.159939
9.194784 46.993187 0.202660
9.508606 46.993187 0.252600
9.822430 46.993187 0.314060
10.136253 46.993187 0.390117
10.450075 46.993187 0.476848
10.763899 46.993187 0.574834
11.077723 46.993187 0.678717
11.391544 46.993187 0.791764
11.705368 46.993187 0.896684
12.019190 46.993187 1.005030
12.333014 46.993187 1.085883
12.646837 46.993187 1.183080
12.960659 46.993187 1.261577
13.274483 46.993187 1.330112
13.588306 46.993187 1.370916
13.902128 46.993187 1.415170
14.215952 46.993187 1.441216
14.529776 46.993187 1.449622
14.843597 46.993187 1.451958
15.157421 46.993187 1.439358
15.471243 46.993187 1.410727
15.785067 46.993187 1.372252
16.098890 46.993187 1.332670
16.412712 46.993187 1.288988
16.726536 46.993187 1.261571
17.040359 46.993187 1.233118
17.354181 46.993187 1.220911
17.668005 46.993187 1.215620
17.981829 46.993187 1.227687
18.295650 46.993187 1.246788
18.609474 46.993187 1.286870
18.923298 46.993187 1.337959
19.237120 46.993187 0.000000
-6.810190 46.679363 0.000000
-6.496367 46.679363 0.000000
-6.182544 46.679363 0.008878
-5.868721 46.679363 0.007373
-5.554898 46.679363 0.007359
-5.241075 46.679363 0.007577
-4.927252 46.679363 0.007696
-4.613429 46.679363 0.007808
-4.299606 46.679363 0.007645
-3.985783 46.679363 0.007716
-3.671960 46.679363 0.007798
-3.358137 46.679363 0.007828
-3.044314 46.679363 0.007957
-2.730491 46.679363 0.008017
-2.416668 46.679363 0.008107
-2.102845 46.679363 0.008165
-1.789022 46.679363 0.008225
-1.475199 46.679363 0.008241
-1.161376 46.679363 0.008186
-0.847553 46.679363 0.008352
-0.533730 46.679363 0.008633
-0.219907 46.679363 0.008980
0.093916 46.679363 0.009389
0.407739 46.679363 0.009329
0.721562 46.679363 0.009583
1.035385 46.679363 0.009907
1.349208 46.679363 0.010212
1.663032 46.679363 0.010501
1.976854 46.679363 0.010834
2.290677 46.679363 0.011466
2.604500 46.679363 0.012148
2.918324 46.679363 0.012772
3.232146 46.679363 0.013550
3.545969 46.679363 0.014512
3.859793 46.679363 0.015691
4.173615 46.679363 0.017096
4.487438 46.679363 0.018456
4.801261 46.679363 0.020081
5.115085 46.679363 0.022233
5.428907 46.679363 0.024638
5.742730 46.679363 0.027559
6.056554 46.679363 0.031370
6.370377 46.679363 0.035906
6.684199 46.679363 0.040770
6.998022 46.679363 0.047666
7.311846 46.679363 0.057495
7.625669 46.679363 0.069279
7.939491 46.679363 0.084384
8.253315 46.679363 0.102522
8.567138 46.679363 0.125727
8.880960 46.679363 0.155511
9.194784 46.679363 0.195535
9.508606 46.679363 0.246261
9.822430 46.679363 0.301726
10.136253 46.679363 0.370673
10.450075 46.679363 0.454205
10.763899 46.679363 0.553872
11.077723 46.679363 0.660193
11.391544 46.679363 0.772126
11.705368 46.679363 0.873318
12.019190 46.679363 0.966863
12.333014 46.679363 1.060930
12.646837 46.679363 1.150364
12.960659 46.679363 1.225646
13.274483 46.679363 1.286857
13.588306 46.679363 1.335918
13.902128 46.679363 1.378523
14.215952 46.679363 1.410772
14.529776 46.679363 1.414704
14.843597 46.679363 1.414227
15.157421 46.679363 1.398462
15.471243 46.679363 1.374835
15.785067 46.679363 1.339444
16.098890 46.679363 1.294841
16.412712 46.679363 1.265906
16.726536 46.679363 1.240363
17.040359 46.679363 1.219389
17.354181 46.679363 1.203900
17.668005 46.679363 1.208929
17.981829 46.679363 1.222947
18.295650 46.679363 1.237803
18.609474 46.679363 1.270317
18.923298 46.679363 1.328808
19.237120 46.679363 0.000000
-6.810190 46.365540 0.000000
-6.496367 46.365540 0.000000
-6.182544 46.365540 0.008496
-5.868721 46.365540 0.007235
-5.554898 46.365540 0.007352
-5.241075 46.365540 0.007513
-4.927252 46.365540 0.007600
-4.613429 46.365540 0.007660
-4.299606 46.365540 0.007461
-3.985783 46.365540 0.007542
-3.671960 46.365540 0.007639
-3.358137 46.365540 0.007661
-3.044314 46.365540 0.007691
-2.730491 46.365540 0.007768
-2.416668 46.365540 0.007933
-2.102845 46.365540 0.007975
-1.789022 46.365540 0.007986
-1.475199 46.365540 0.008039
-1.161376 46.365540 0.008042
-0.847553 46.365540 0.008260
-0.533730 46.365540 0.008491
-0.219907 46.365540 0.008698
0.093916 46.365540 0.009079
0.407739 46.365540 0.009117
0.721562 46.365540 0.009409
1.035385 46.365540 0.009755
1.349208 46.365540 0.009998
1.663032 46.365540 0.010224
1.976854 46.365540 0.010529
2.290677 46.365540 0.011211
2.604500 46.365540 0.011924
2.918324 46.365540 0.012535
3.232146 46.365540 0.013278
3.545969 46.365540 0.014139
3.859793 46.365540 0.015324
4.173615 46.365540 0.016834
4.487438 46.365540 0.018276
4.801261 46.365540 0.019956
5.115085 46.365540 0.022108
5.428907 46.365540 0.024468
5.742730 46.365540 0.027336
6.056554 46.365540 0.031219
6.370377 46.365540 0.035657
6.684199 46.365540 0.040533
6.998022 46.365540 0.047610
7.311846 46.365540 0.057191
7.625669 46.365540 0.068925
7.939491 46.365540 0.082943
8.253315 46.365540 0.101683
8.567138 46.365540 0.126657
8.880960 46.365540 0.155792
9.194784 46.365540 0.196752
9.508606 46.365540 0.242220
9.822430 46.365540 0.297057
10.136253 46.365540 0.367019
10.450075 46.365540 0.459491
10.763899 46.365540 0.551733
11.077723 46.365540 0.658517
11.391544 46.365540 0.773142
11.705368 46.365540 0.876847
12.019190 46.365540 0.968120
12.333014 46.365540 1.060112
12.646837 46.365540 1.142852
12.960659 46.365540 1.223491
13.274483 46.365540 1.286915
13.588306 46.365540 1.334491
13.902128 46.365540 1.376358
14.215952 46.365540 1.412076
14.529776 46.365540 1.414760
14.843597 46.365540 1.412865
15.157421 46.365540 1.393251
15.471243 46.365540 1.363398
15.785067 46.365540 1.335223
16.098890 46.365540 1.303214
16.412712 46.365540 1.278804
16.726536 46.365540 1.258177
17.040359 46.365540 1.229751
17.354181 46.365540 1.217464
17.668005 46.365540 1.230223
17.981829 46.365540 1.237163
18.295650 46.365540 1.247909
18.609474 46.365540 1.276788
18.923298 46.365540 1.333828
19.237120 46.365540 0.000000
-6.810190 46.051716 0.000000
-6.496367 46.051716 0.000000
-6.182544 46.051716 0.008512
-5.868721 46.051716 0.007336
-5.554898 46.051716 0.007492
-5.241075 46.051716 0.007555
-4.927252 46.051716 0.007607
-4.613429 46.051716 0.007623
-4.299606 46.051716 0.007476
-3.985783 46.051716 0.007530
-3.671960 46.051716 0.007604
-3.358137 46.051716 0.007568
-3.044314 46.051716 0.007595
-2.730491 46.051716 0.007687
-2.416668 46.051716 0.007852
-2.102845 46.051716 0.007880
-1.789022 46.051716 0.007939
-1.475199 46.051716 0.007977
-1.161376 46.051716 0.008072
-0.847553 46.051716 0.008292
-0.533730 46.051716 0.008412
-0.219907 46.051716 0.008560
0.093916 46.051716 0.008890
0.407739 46.051716 0.009114
0.721562 46.051716 0.009430
1.035385 46.051716 0.009693
1.349208 46.051716 0.009882
1.663032 46.051716 0.010043
1.976854 46.051716 0.010432
2.290677 46.051716 0.011133
2.604500 46.051716 0.011851
2.918324 46.051716 0.012526
3.232146 46.051716 0.013192
3.545969 46.051716 0.013986
3.859793 46.051716 0.015183
4.173615 46.051716 0.016659
4.487438 46.051716 0.018160
4.801261 46.051716 0.019951
5.115085 46.051716 0.022062
5.428907 46.051716 0.024390
5.742730 46.051716 0.027377
6.056554 46.051716 0.031276
6.370377 46.051716 0.035303
6.684199 46.051716 0.040207
6.998022 46.051716 0.047376
7.311846 46.051716 0.057172
7.625669 46.051716 0.069123
7.939491 46.051716 0.082798
8.253315 46.051716 0.102471
8.567138 46.051716 0.127586
8.880960 46.051716 0.159367
9.194784 46.051716 0.200235
9.508606 46.051716 0.248885
9.822430 46.051716 0.308203
10.136253 46.051716 0.378595
10.450075 46.051716 0.465386
10.763899 46.051716 0.556591
11.077723 46.051716 0.665875
11.391544 46.051716 0.782313
11.705368 46.051716 0.892590
12.019190 46.051716 0.983119
12.333014 46.051716 1.064292
12.646837 46.051716 1.148754
12.960659 46.051716 1.230335
13.274483 46.051716 1.295207
13.588306 46.051716 1.343428
13.902128 46.051716 1.389642
14.215952 46.051716 1.425280
14.529776 46.051716 1.430658
14.843597 46.051716 1.421534
15.157421 46.051716 1.407994
15.471243 46.051716 1.373848
15.785067 46.051716 1.339686
16.098890 46.051716 1.321317
16.412712 46.051716 1.296530
16.726536 46.051716 1.271185
17.040359 46.051716 1.246403
17.354181 46.051716 1.230447
17.668005 46.051716 1.236966
17.981829 46.051716 1.246906
18.295650 46.051716 1.261340
18.609474 46.051716 1.286486
18.923298 46.051716 1.339900
19.237120 46.051716 0.000000
-6.810190 45.737896 0.000000
-6.496367 45.737896 0.000000
-6.182544 45.737896 0.008567
-5.868721 45.737896 0.007374
-5.554898 45.737896 0.007568
-5.241075 45.737896 0.007611
-4.927252 45.737896 0.007584
-4.613429 45.737896 0.007611
-4.299606 45.737896 0.007504
-3.985783 45.737896 0.007604
-3.671960 45.737896 0.007654
-3.358137 45.737896 0.007522
-3.044314 45.737896 0.007552
-2.730491 45.737896 0.007616
-2.416668 45.737896 0.007689
-2.102845 45.737896 0.007842
-1.789022 45.737896 0.007919
-1.475199 45.737896 0.008023
-1.161376 45.737896 0.008106
-0.847553 45.737896 0.008282
-0.533730 45.737896 0.008339
-0.219907 45.737896 0.008424
0.093916 45.737896 0.008726
0.407739 45.737896 0.009123
0.721562 45.737896 0.009403
1.035385 45.737896 0.009630
1.349208 45.737896 0.009824
1.663032 45.737896 0.010019
1.976854 45.737896 0.010430
2.290677 45.737896 0.011076
2.604500 45.737896 0.011795
2.918324 45.737896 0.012533
3.232146 45.737896 0.013154
3.545969 45.737896 0.013912
3.859793 45.737896 0.015127
4.173615 45.737896 0.016490
4.487438 45.737896 0.018095
4.801261 45.737896 0.019954
5.115085 45.737896 0.021889
5.428907 45.737896 0.024210
5.742730 45.737896 0.027306
6.056554 45.737896 0.030943
6.370377 45.737896 0.034751
6.684199 45.737896 0.040003
6.998022 45.737896 0.047102
7.311846 45.737896 0.056971
7.625669 45.737896 0.068530
7.939491 45.737896 0.082761
8.253315 45.737896 0.102995
8.567138 45.737896 0.128419
8.880960 45.737896 0.162033
9.194784 45.737896 0.201262
9.508606 45.737896 0.249194
9.822430 45.737896 0.310545
10.136253 45.737896 0.377218
10.450075 45.737896 0.469056
10.763899 45.737896 0.570442
11.077723 45.737896 0.671247
11.391544 45.737896 0.782989
11.705368 45.737896 0.893559
12.019190 45.737896 0.995664
12.333014 45.737896 1.081646
12.646837 45.737896 1.158715
12.960659 45.737896 1.234171
13.274483 45.737896 1.301942
13.588306 45.737896 1.355610
13.902128 45.737896 1.394205
14.215952 45.737896 1.431484
14.529776 45.737896 1.449878
14.843597 45.737896 1.441487
15.157421 45.737896 1.422768
15.471243 45.737896 1.387030
15.785067 45.737896 1.356693
16.098890 45.737896 1.336793
16.412712 45.737896 1.304494
16.726536 45.737896 1.278085
17.040359 45.737896 1.249760
17.354181 45.737896 1.235665
17.668005 45.737896 1.245977
17.981829 45.737896 1.251933
18.295650 45.737896 1.260072
18.609474 45.737896 1.283584
18.923298 45.737896 1.334715
19.237120 45.737896 0.000000
-6.810190 45.424072 0.000000
-6.496367 45.424072 0.000000
-6.182544 45.424072 0.008699
-5.868721 45.424072 0.007416
-5.554898 45.424072 0.007520
-5.241075 45.424072 0.007617
-4.927252 45.424072 0.007539
-4.613429 45.424072 0.007601
-4.299606 45.424072 0.007598
-3.985783 45.424072 0.007716
-3.671960 45.424072 0.007735
-3.358137 45.424072 0.007548
-3.044314 45.424072 0.007599
-2.730491 45.424072 0.007611
-2.416668 45.424072 0.007587
-2.102845 45.424072 0.007768
-1.789022 45.424072 0.007896
-1.475199 45.424072 0.008071
-1.161376 45.424072 0.008159
-0.847553 45.424072 0.008182
-0.533730 45.424072 0.008189
-0.219907 45.424072 0.008324
0.093916 45.424072 0.008661
0.407739 45.424072 0.009072
0.721562 45.424072 0.009373
1.035385 45.424072 0.009543
1.349208 45.424072 0.009788
1.663032 45.424072 0.009991
1.976854 45.424072 0.010454
2.290677 45.424072 0.011066
2.604500 45.424072 0.011789
2.918324 45.424072 0.012613
3.232146 45.424072 0.013215
3.545969 45.424072 0.013954
3.859793 45.424072 0.015076
4.173615 45.424072 0.016328
4.487438 45.424072 0.017972
4.801261 45.424072 0.019749
5.115085 45.424072 0.021729
5.428907 45.424072 0.024072
5.742730 45.424072 0.027210
6.056554 45.424072 0.030800
6.370377 45.424072 0.034476
6.684199 45.424072 0.039870
6.998022 45.424072 0.046997
7.311846 45.424072 0.056670
7.625669 45.424072 0.068666
7.939491 45.424072 0.082810
8.253315 45.424072 0.101878
8.567138 45.424072 0.127216
8.880960 45.424072 0.158784
9.194784 45.424072 0.200789
9.508606 45.424072 0.248483
9.822430 45.424072 0.314488
10.136253 45.424072 0.385231
10.450075 45.424072 0.474850
10.763899 45.424072 0.568942
11.077723 45.424072 0.674463
11.391544 45.424072 0.786115
11.705368 45.424072 0.895394
12.019190 45.424072 1.001781
12.333014 45.424072 1.082349
12.646837 45.424072 1.163829
12.960659 45.424072 1.243967
13.274483 45.424072 1.306529
13.588306 45.424072 1.356249
13.902128 45.424072 1.403843
14.215952 45.424072 1.439061
14.529776 45.424072 1.464914
14.843597 45.424072 1.460310
15.157421 45.424072 1.436060
15.471243 45.424072 1.403702
15.785067 45.424072 1.362743
16.098890 45.424072 1.335349
16.412712 45.424072 1.301896
16.726536 45.424072 1.281716
17.040359 45.424072 1.250559
17.354181 45.424072 1.245761
17.668005 45.424072 1.235732
17.981829 45.424072 1.244642
18.295650 45.424072 1.262277
18.609474 45.424072 1.292923
18.923298 45.424072 1.336466
19.237120 45.424072 0.000000
-6.810190 45.110249 0.000000
-6.496367 45.110249 0.000000
-6.182544 45.110249 0.008783
-5.868721 45.110249 0.007451
-5.554898 45.110249 0.007420
-5.241075 45.110249 0.007502
-4.927252 45.110249 0.007486
-4.613429 45.110249 0.007492
-4.299606 45.110249 0.007564
-3.985783 45.110249 0.007706
-3.671960 45.110249 0.007745
-3.358137 45.110249 0.007580
-3.044314 45.110249 0.007634
-2.730491 45.110249 0.007629
-2.416668 45.110249 0.007559
-2.102845 45.110249 0.007718
-1.789022 45.110249 0.007874
-1.475199 45.110249 0.008097
-1.161376 45.110249 0.008169
-0.847553 45.110249 0.008131
-0.533730 45.110249 0.008073
-0.219907 45.110249 0.008222
0.093916 45.110249 0.008612
0.407739 45.110249 0.008993
0.721562 45.110249 0.009303
1.035385 45.110249 0.009466
1.349208 45.110249 0.009743
1.663032 45.110249 0.009986
1.976854 45.110249 0.010410
2.290677 45.110249 0.011015
2.604500 45.110249 0.011800
2.918324 45.110249 0.012655
3.232146 45.110249 0.013294
3.545969 45.110249 0.014003
3.859793 45.110249 0.014912
4.173615 45.110249 0.016166
4.487438 45.110249 0.017762
4.801261 45.110249 0.019482
5.115085 45.110249 0.021502
5.428907 45.110249 0.023907
5.742730 45.110249 0.027163
6.056554 45.110249 0.030473
6.370377 45.110249 0.034427
6.684199 45.110249 0.039628
6.998022 45.110249 0.046549
7.311846 45.110249 0.055721
7.625669 45.110249 0.067802
7.939491 45.110249 0.082611
8.253315 45.110249 0.101439
8.567138 45.110249 0.125585
8.880960 45.110249 0.157934
9.194784 45.110249 0.199892
9.508606 45.110249 0.248374
9.822430 45.110249 0.311668
10.136253 45.110249 0.385038
10.450075 45.110249 0.474797
10.763899 45.110249 0.571664
11.077723 45.110249 0.678674
11.391544 45.110249 0.781859
11.705368 45.110249 0.893610
12.019190 45.110249 0.997604
12.333014 45.110249 1.084638
12.646837 45.110249 1.173225
12.960659 45.110249 1.243437
13.274483 45.110249 1.312518
13.588306 45.110249 1.358342
13.902128 45.110249 1.408117
14.215952 45.110249 1.446857
14.529776 45.110249 1.463178
14.843597 45.110249 1.467465
15.157421 45.110249 1.441917
15.471243 45.110249 1.411133
15.785067 45.110249 1.365447
16.098890 45.110249 1.338087
16.412712 45.110249 1.303815
16.726536 45.110249 1.279594
17.040359 45.110249 1.250184
17.354181 45.110249 1.243899
17.668005 45.110249 1.242337
17.981829 45.110249 1.249560
18.295650 45.110249 1.263975
18.609474 45.110249 1.294122
18.923298 45.110249 1.346190
19.237120 45.110249 0.000000
-6.810190 44.796425 0.000000
-6.496367 44.796425 0.000000
-6.182544 44.796425 0.008716
-5.868721 44.796425 0.007473
-5.554898 44.796425 0.007385
-5.241075 44.796425 0.007424
-4.927252 44.796425 0.007456
-4.613429 44.796425 0.007410
-4.299606 44.796425 0.007435
-3.985783 44.796425 0.007583
-3.671960 44.796425 0.007627
-3.358137 44.796425 0.007553
-3.044314 44.796425 0.007623
-2.730491 44.796425 0.007608
-2.416668 44.796425 0.007598
-2.102845 44.796425 0.007737
-1.789022 44.796425 0.007846
-1.475199 44.796425 0.008079
-1.161376 44.796425 0.008130
-0.847553 44.796425 0.008082
-0.533730 44.796425 0.007992
-0.219907 44.796425 0.008125
0.093916 44.796425 0.008532
0.407739 44.796425 0.008887
0.721562 44.796425 0.009193
1.035385 44.796425 0.009402
1.349208 44.796425 0.009668
1.663032 44.796425 0.009963
1.976854 44.796425 0.010381
2.290677 44.796425 0.011000
2.604500 44.796425 0.011758
2.918324 44.796425 0.012579
3.232146 44.796425 0.013280
3.545969 44.796425 0.013915
3.859793 44.796425 0.014738
4.173615 44.796425 0.016005
4.487438 44.796425 0.017476
4.801261 44.796425 0.019233
5.115085 44.796425 0.021237
5.428907 44.796425 0.023641
5.742730 44.796425 0.026845
6.056554 44.796425 0.030349
6.370377 44.796425 0.034193
6.684199 44.796425 0.039458
6.998022 44.796425 0.046035
7.311846 44.796425 0.055385
7.625669 44.796425 0.067527
7.939491 44.796425 0.082370
8.253315 44.796425 0.101353
8.567138 44.796425 0.126202
8.880960 44.796425 0.158688
9.194784 44.796425 0.195339
9.508606 44.796425 0.251970
9.822430 44.796425 0.308610
10.136253 44.796425 0.375098
10.450075 44.796425 0.465626
10.763899 44.796425 0.573676
11.077723 44.796425 0.687016
11.391544 44.796425 0.782780
11.705368 44.796425 0.888679
12.019190 44.796425 0.995268
12.333014 44.796425 1.091643
12.646837 44.796425 1.183993
12.960659 44.796425 1.253650
13.274483 44.796425 1.314537
13.588306 44.796425 1.367695
13.902128 44.796425 1.417441
14.215952 44.796425 1.447550
14.529776 44.796425 1.463530
14.843597 44.796425 1.474194
15.157421 44.796425 1.458551
15.471243 44.796425 1.414231
15.785067 44.796425 1.368706
16.098890 44.796425 1.333026
16.412712 44.796425 1.302841
16.726536 44.796425 1.275544
17.040359 44.796425 1.248887
17.354181 44.796425 1.240941
17.668005 44.796425 1.241616
17.981829 44.796425 1.257999
18.295650 44.796425 1.276984
18.609474 44.796425 1.295971
18.923298 44.796425 1.353452
19.237120 44.796425 0.000000
-6.810190 44.482601 0.000000
-6.496367 44.482601 0.000000
-6.182544 44.482601 0.008659
-5.868721 44.482601 0.007470
-5.554898 44.482601 0.007388
-5.241075 44.482601 0.007358
-4.927252 44.482601 0.007457
-4.613429 44.482601 0.007351
-4.299606 44.482601 0.007349
-3.985783 44.482601 0.007475
-3.671960 44.482601 0.007506
-3.358137 44.482601 0.007512
-3.044314 44.482601 0.007587
-2.730491 44.482601 0.007588
-2.416668 44.482601 0.007651
-2.102845 44.482601 0.007787
-1.789022 44.482601 0.007885
-1.475199 44.482601 0.008020
-1.161376 44.482601 0.008047
-0.847553 44.482601 0.008065
-0.533730 44.482601 0.008006
-0.219907 44.482601 0.008101
0.093916 44.482601 0.008471
0.407739 44.482601 0.008717
0.721562 44.482601 0.009070
1.035385 44.482601 0.009350
1.349208 44.482601 0.009594
1.663032 44.482601 0.009950
1.976854 44.482601 0.010396
2.290677 44.482601 0.010993
2.604500 44.482601 0.011641
2.918324 44.482601 0.012366
3.232146 44.482601 0.013109
3.545969 44.482601 0.013778
3.859793 44.482601 0.014556
4.173615 44.482601 0.015833
4.487438 44.482601 0.017205
4.801261 44.482601 0.018918
5.115085 44.482601 0.020933
5.428907 44.482601 0.023261
5.742730 44.482601 0.026409
6.056554 44.482601 0.030023
6.370377 44.482601 0.034431
6.684199 44.482601 0.039386
6.998022 44.482601 0.045993
7.311846 44.482601 0.055007
7.625669 44.482601 0.067028
7.939491 44.482601 0.082620
8.253315 44.482601 0.102116
8.567138 44.482601 0.126032
8.880960 44.482601 0.156346
9.194784 44.482601 0.197893
9.508606 44.482601 0.245564
9.822430 44.482601 0.302729
10.136253 44.482601 0.380011
10.450075 44.482601 0.468475
10.763899 44.482601 0.569766
11.077723 44.482601 0.683760
11.391544 44.482601 0.790416
11.705368 44.482601 0.894429
12.019190 44.482601 0.996281
12.333014 44.482601 1.090847
12.646837 44.482601 1.181959
12.960659 44.482601 1.255837
13.274483 44.482601 1.324089
13.588306 44.482601 1.385707
13.902128 44.482601 1.429277
14.215952 44.482601 1.448581
14.529776 44.482601 1.465684
14.843597 44.482601 1.473507
15.157421 44.482601 1.452562
15.471243 44.482601 1.417802
15.785067 44.482601 1.372286
16.098890 44.482601 1.340932
16.412712 44.482601 1.303158
16.726536 44.482601 1.271058
17.040359 44.482601 1.253735
17.354181 44.482601 1.242273
17.668005 44.482601 1.238003
17.981829 44.482601 1.254559
18.295650 44.482601 1.266796
18.609474 44.482601 1.294584
18.923298 44.482601 1.353333
19.237120 44.482601 0.000000
-6.810190 44.168777 0.000000
-6.496367 44.168777 0.000000
-6.182544 44.168777 0.008709
-5.868721 44.168777 0.007483
-5.554898 44.168777 0.007393
-5.241075 44.168777 0.007347
-4.927252 44.168777 0.007442
-4.613429 44.168777 0.007388
-4.299606 44.168777 0.007330
-3.985783 44.168777 0.007435
-3.671960 44.168777 0.007507
-3.358137 44.168777 0.007530
-3.044314 44.168777 0.007637
-2.730491 44.168777 0.007586
-2.416668 44.168777 0.007654
-2.102845 44.168777 0.007814
-1.789022 44.168777 0.007896
-1.475199 44.168777 0.007950
-1.161376 44.168777 0.007953
-0.847553 44.168777 0.008074
-0.533730 44.168777 0.008083
-0.219907 44.168777 0.008175
0.093916 44.168777 0.008427
0.407739 44.168777 0.008656
0.721562 44.168777 0.008958
1.035385 44.168777 0.009231
1.349208 44.168777 0.009505
1.663032 44.168777 0.009869
1.976854 44.168777 0.010377
2.290677 44.168777 0.010973
2.604500 44.168777 0.011473
2.918324 44.168777 0.012094
3.232146 44.168777 0.012886
3.545969 44.168777 0.013603
3.859793 44.168777 0.014420
4.173615 44.168777 0.015595
4.487438 44.168777 0.016987
4.801261 44.168777 0.018659
5.115085 44.168777 0.020684
5.428907 44.168777 0.022987
5.742730 44.168777 0.026013
6.056554 44.168777 0.029709
6.370377 44.168777 0.034206
6.684199 44.168777 0.039403
6.998022 44.168777 0.046310
7.311846 44.168777 0.054908
7.625669 44.168777 0.067365
7.939491 44.168777 0.081804
8.253315 44.168777 0.101510
8.567138 44.168777 0.125141
8.880960 44.168777 0.153081
9.194784 44.168777 0.195332
9.508606 44.168777 0.249222
9.822430 44.168777 0.305164
10.136253 44.168777 0.377944
10.450075 44.168777 0.470946
10.763899 44.168777 0.582023
11.077723 44.168777 0.682346
11.391544 44.168777 0.790287
11.705368 44.168777 0.890399
12.019190 44.168777 1.000824
12.333014 44.168777 1.090578
12.646837 44.168777 1.181516
12.960659 44.168777 1.258703
13.274483 44.168777 1.325912
13.588306 44.168777 1.388891
13.902128 44.168777 1.441881
14.215952 44.168777 1.463271
14.529776 44.168777 1.476605
14.843597 44.168777 1.473798
15.157421 44.168777 1.462227
15.471243 44.168777 1.416581
15.785067 44.168777 1.387145
16.098890 44.168777 1.350551
16.412712 44.168777 1.309476
16.726536 44.168777 1.284764
17.040359 44.168777 1.260844
17.354181 44.168777 1.236644
17.668005 44.168777 1.236084
17.981829 44.168777 1.241896
18.295650 44.168777 1.257409
18.609474 44.168777 1.286625
18.923298 44.168777 1.362732
19.237120 44.168777 0.000000
-6.810190 43.854958 0.000000
-6.496367 43.854958 0.000000
-6.182544 43.854958 0.008714
-5.868721 43.854958 0.007438
-5.554898 43.854958 0.007385
-5.241075 43.854958 0.007412
-4.927252 43.854958 0.007423
-4.613429 43.854958 0.007351
-4.299606 43.854958 0.007358
-3.985783 43.854958 0.007429
-3.671960 43.854958 0.007513
-3.358137 43.854958 0.007563
-3.044314 43.854958 0.007641
-2.730491 43.854958 0.007586
-2.416668 43.854958 0.007666
-2.102845 43.854958 0.007848
-1.789022 43.854958 0.007879
-1.475199 43.854958 0.007862
-1.161376 43.854958 0.007857
-0.847553 43.854958 0.008023
-0.533730 43.854958 0.008158
-0.219907 43.854958 0.008283
0.093916 43.854958 0.008447
0.407739 43.854958 0.008565
0.721562 43.854958 0.008817
1.035385 43.854958 0.009113
1.349208 43.854958 0.009363
1.663032 43.854958 0.009773
1.976854 43.854958 0.010390
2.290677 43.854958 0.010921
2.604500 43.854958 0.011325
2.918324 43.854958 0.011883
3.232146 43.854958 0.012636
3.545969 43.854958 0.013451
3.859793 43.854958 0.014273
4.173615 43.854958 0.015396
4.487438 43.854958 0.016836
4.801261 43.854958 0.018509
5.115085 43.854958 0.020450
5.428907 43.854958 0.022820
5.742730 43.854958 0.025734
6.056554 43.854958 0.029205
6.370377 43.854958 0.033842
6.684199 43.854958 0.038872
6.998022 43.854958 0.045916
7.311846 43.854958 0.054953
7.625669 43.854958 0.066394
7.939491 43.854958 0.081746
8.253315 43.854958 0.101897
8.567138 43.854958 0.125936
8.880960 43.854958 0.155181
9.194784 43.854958 0.194709
9.508606 43.854958 0.249306
9.822430 43.854958 0.312779
10.136253 43.854958 0.380458
10.450075 43.854958 0.473668
10.763899 43.854958 0.578834
11.077723 43.854958 0.676934
11.391544 43.854958 0.783814
11.705368 43.854958 0.884282
12.019190 43.854958 0.999554
12.333014 43.854958 1.097427
12.646837 43.854958 1.186962
12.960659 43.854958 1.251810
13.274483 43.854958 1.323678
13.588306 43.854958 1.393385
13.902128 43.854958 1.446627
14.215952 43.854958 1.477061
14.529776 43.854958 1.477494
14.843597 43.854958 1.484740
15.157421 43.854958 1.471680
15.471243 43.854958 1.432276
15.785067 43.854958 1.393164
16.098890 43.854958 1.349399
16.412712 43.854958 1.314702
16.726536 43.854958 1.287007
17.040359 43.854958 1.266619
17.354181 43.854958 1.248234
17.668005 43.854958 1.228674
17.981829 43.854958 1.227974
18.295650 43.854958 1.244642
18.609474 43.854958 1.284779
18.923298 43.854958 1.355335
19.237120 43.854958 0.000000
-6.810190 43.541134 0.000000
-6.496367 43.541134 0.000000
-6.182544 43.541134 0.008602
-5.868721 43.541134 0.007359
-5.554898 43.541134 0.007377
-5.241075 43.541134 0.007386
-4.927252 43.541134 0.007422
-4.613429 43.541134 0.007312
-4.299606 43.541134 0.007343
-3.985783 43.541134 0.007427
-3.671960 43.541134 0.007486
-3.358137 43.541134 0.007533
-3.044314 43.541134 0.007614
-2.730491 43.541134 0.007533
-2.416668 43.541134 0.007634
-2.102845 43.541134 0.007827
-1.789022 43.541134 0.007790
-1.475199 43.541134 0.007712
-1.161376 43.541134 0.007726
-0.847553 43.541134 0.007927
-0.533730 43.541134 0.008170
-0.219907 43.541134 0.008368
0.093916 43.541134 0.008471
0.407739 43.541134 0.008571
0.721562 43.541134 0.008766
1.035385 43.541134 0.008986
1.349208 43.541134 0.009259
1.663032 43.541134 0.009703
1.976854 43.541134 0.010410
2.290677 43.541134 0.010889
2.604500 43.541134 0.011233
2.918324 43.541134 0.011673
3.232146 43.541134 0.012370
3.545969 43.541134 0.013296
3.859793 43.541134 0.014155
4.173615 43.541134 0.015287
4.487438 43.541134 0.016764
4.801261 43.541134 0.018389
5.115085 43.541134 0.020333
5.428907 43.541134 0.022747
5.742730 43.541134 0.025685
6.056554 43.541134 0.029062
6.370377 43.541134 0.033220
6.684199 43.541134 0.038636
6.998022 43.541134 0.045779
7.311846 43.541134 0.054603
7.625669 43.541134 0.065929
7.939491 43.541134 0.081049
8.253315 43.541134 0.100256
8.567138 43.541134 0.125078
8.880960 43.541134 0.155098
9.194784 43.541134 0.197158
9.508606 43.541134 0.250717
9.822430 43.541134 0.315381
10.136253 43.541134 0.387657
10.450075 43.541134 0.474376
10.763899 43.541134 0.576726
11.077723 43.541134 0.675610
11.391544 43.541134 0.778747
11.705368 43.541134 0.890141
12.019190 43.541134 0.999679
12.333014 43.541134 1.103831
12.646837 43.541134 1.189181
12.960659 43.541134 1.254317
13.274483 43.541134 1.321765
13.588306 43.541134 1.394322
13.902128 43.541134 1.450967
14.215952 43.541134 1.474890
14.529776 43.541134 1.487399
14.843597 43.541134 1.494166
15.157421 43.541134 1.483966
15.471243 43.541134 1.441373
15.785067 43.541134 1.399214
16.098890 43.541134 1.351736
16.412712 43.541134 1.318351
16.726536 43.541134 1.280086
17.040359 43.541134 1.264450
17.354181 43.541134 1.249213
17.668005 43.541134 1.229360
17.981829 43.541134 1.223657
18.295650 43.541134 1.248130
18.609474 43.541134 1.279380
18.923298 43.541134 1.349528
19.237120 43.541134 0.000000
-6.810190 43.227310 0.000000
-6.496367 43.227310 0.000000
-6.182544 43.227310 0.008578
-5.868721 43.227310 0.007287
-5.554898 43.227310 0.007281
-5.241075 43.227310 0.007280
-4.927252 43.227310 0.007328
-4.613429 43.227310 0.007262
-4.299606 43.227310 0.007273
-3.985783 43.227310 0.007369
-3.671960 43.227310 0.007386
-3.358137 43.227310 0.007447
-3.044314 43.227310 0.007549
-2.730491 43.227310 0.007396
-2.416668 43.227310 0.007517
-2.102845 43.227310 0.007724
-1.789022 43.227310 0.007672
-1.475199 43.227310 0.007565
-1.161376 43.227310 0.007600
-0.847553 43.227310 0.007773
-0.533730 43.227310 0.008089
-0.219907 43.227310 0.008383
0.093916 43.227310 0.008476
0.407739 43.227310 0.008543
0.721562 43.227310 0.008746
1.035385 43.227310 0.008948
1.349208 43.227310 0.009240
1.663032 43.227310 0.009666
1.976854 43.227310 0.010315
2.290677 43.227310 0.010793
2.604500 43.227310 0.011104
2.918324 43.227310 0.011500
3.232146 43.227310 0.012197
3.545969 43.227310 0.013146
3.859793 43.227310 0.014027
4.173615 43.227310 0.015206
4.487438 43.227310 0.016723
4.801261 43.227310 0.018323
5.115085 43.227310 0.020327
5.428907 43.227310 0.022786
5.742730 43.227310 0.025639
6.056554 43.227310 0.028789
6.370377 43.227310 0.032899
6.684199 43.227310 0.038222
6.998022 43.227310 0.045250
7.311846 43.227310 0.054276
7.625669 43.227310 0.065850
7.939491 43.227310 0.081541
8.253315 43.227310 0.098645
8.567138 43.227310 0.122026
8.880960 43.227310 0.155183
9.194784 43.227310 0.195830
9.508606 43.227310 0.249718
9.822430 43.227310 0.311105
10.136253 43.227310 0.384610
10.450075 43.227310 0.468953
10.763899 43.227310 0.570315
11.077723 43.227310 0.680065
11.391544 43.227310 0.788305
11.705368 43.227310 0.886961
12.019190 43.227310 1.001336
12.333014 43.227310 1.097086
12.646837 43.227310 1.178123
12.960659 43.227310 1.263627
13.274483 43.227310 1.322309
13.588306 43.227310 1.379502
13.902128 43.227310 1.440546
14.215952 43.227310 1.477701
14.529776 43.227310 1.496590
14.843597 43.227310 1.501519
15.157421 43.227310 1.487815
15.471243 43.227310 1.443954
15.785067 43.227310 1.396051
16.098890 43.227310 1.354023
16.412712 43.227310 1.308174
16.726536 43.227310 1.268711
17.040359 43.227310 1.248784
17.354181 43.227310 1.239341
17.668005 43.227310 1.230390
17.981829 43.227310 1.231749
18.295650 43.227310 1.255608
18.609474 43.227310 1.283413
18.923298 43.227310 1.348720
19.237120 43.227310 0.000000
-6.810190 42.913486 0.000000
-6.496367 42.913486 0.000000
-6.182544 42.913486 0.008507
-5.868721 42.913486 0.007230
-5.554898 42.913486 0.007156
-5.241075 42.913486 0.007128
-4.927252 42.913486 0.007224
-4.613429 42.913486 0.007173
-4.299606 42.913486 0.007123
-3.985783 42.913486 0.007233
-3.671960 42.913486 0.007292
-3.358137 42.913486 0.007380
-3.044314 42.913486 0.007415
-2.730491 42.913486 0.007270
-2.416668 42.913486 0.007408
-2.102845 42.913486 0.007582
-1.789022 42.913486 0.007533
-1.475199 42.913486 0.007472
-1.161376 42.913486 0.007525
-0.847553 42.913486 0.007673
-0.533730 42.913486 0.007965
-0.219907 42.913486 0.008282
0.093916 42.913486 0.008415
0.407739 42.913486 0.008543
0.721562 42.913486 0.008794
1.035385 42.913486 0.008991
1.349208 42.913486 0.009273
1.663032 42.913486 0.009604
1.976854 42.913486 0.010072
2.290677 42.913486 0.010557
2.604500 42.913486 0.010975
2.918324 42.913486 0.011368
3.232146 42.913486 0.012081
3.545969 42.913486 0.012961
3.859793 42.913486 0.013935
4.173615 42.913486 0.015193
4.487438 42.913486 0.016606
4.801261 42.913486 0.018197
5.115085 42.913486 0.020324
5.428907 42.913486 0.022708
5.742730 42.913486 0.025399
6.056554 42.913486 0.028457
6.370377 42.913486 0.032801
6.684199 42.913486 0.038098
6.998022 42.913486 0.045357
7.311846 42.913486 0.054183
7.625669 42.913486 0.065330
7.939491 42.913486 0.080642
8.253315 42.913486 0.098648
8.567138 42.913486 0.122980
8.880960 42.913486 0.154137
9.194784 42.913486 0.193293
9.508606 42.913486 0.248098
9.822430 42.913486 0.307787
10.136253 42.913486 0.381589
10.450075 42.913486 0.469063
10.763899 42.913486 0.570793
11.077723 42.913486 0.678367
11.391544 42.913486 0.791600
11.705368 42.913486 0.891166
12.019190 42.913486 0.997148
12.333014 42.913486 1.099864
12.646837 42.913486 1.186068
12.960659 42.913486 1.258198
13.274483 42.913486 1.324031
13.588306 42.913486 1.379133
13.902128 42.913486 1.438700
14.215952 42.913486 1.470274
14.529776 42.913486 1.496582
14.843597 42.913486 1.510916
15.157421 42.913486 1.488001
15.471243 42.913486 1.445905
15.785067 42.913486 1.398031
16.098890 42.913486 1.352807
16.412712 42.913486 1.301165
16.726536 42.913486 1.259529
17.040359 42.913486 1.249197
17.354181 42.913486 1.232153
17.668005 42.913486 1.232553
17.981829 42.913486 1.243154
18.295650 42.913486 1.262843
18.609474 42.913486 1.299452
18.923298 42.913486 1.349672
19.237120 42.913486 0.000000
-6.810190 42.599663 0.000000
-6.496367 42.599663 0.000000
-6.182544 42.599663 0.008455
-5.868721 42.599663 0.007133
-5.554898 42.599663 0.007044
-5.241075 42.599663 0.007039
-4.927252 42.599663 0.007153
-4.613429 42.599663 0.007119
-4.299606 42.599663 0.007060
-3.985783 42.599663 0.007124
-3.671960 42.599663 0.007271
-3.358137 42.599663 0.007336
-3.044314 42.599663 0.007313
-2.730491 42.599663 0.007179
-2.416668 42.599663 0.007300
-2.102845 42.599663 0.007429
-1.789022 42.599663 0.007400
-1.475199 42.599663 0.007422
-1.161376 42.599663 0.007528
-0.847553 42.599663 0.007619
-0.533730 42.599663 0.007806
-0.219907 42.599663 0.008062
0.093916 42.599663 0.008266
0.407739 42.599663 0.008496
0.721562 42.599663 0.008824
1.035385 42.599663 0.009016
1.349208 42.599663 0.009304
1.663032 42.599663 0.009490
1.976854 42.599663 0.009801
2.290677 42.599663 0.010332
2.604500 42.599663 0.010802
2.918324 42.599663 0.011227
3.232146 42.599663 0.011932
3.545969 42.599663 0.012845
3.859793 42.599663 0.013878
4.173615 42.599663 0.015152
4.487438 42.599663 0.016409
4.801261 42.599663 0.018070
5.115085 42.599663 0.020192
5.428907 42.599663 0.022483
5.742730 42.599663 0.025144
6.056554 42.599663 0.028402
6.370377 42.599663 0.032791
6.684199 42.599663 0.038384
6.998022 42.599663 0.045228
7.311846 42.599663 0.053862
7.625669 42.599663 0.064926
7.939491 42.599663 0.079393
8.253315 42.599663 0.098518
8.567138 42.599663 0.122307
8.880960 42.599663 0.153627
9.194784 42.599663 0.193983
9.508606 42.599663 0.248012
9.822430 42.599663 0.308362
10.136253 42.599663 0.384336
10.450075 42.599663 0.472708
10.763899 42.599663 0.573749
11.077723 42.599663 0.679566
11.391544 42.599663 0.783453
11.705368 42.599663 0.884990
12.019190 42.599663 0.994416
12.333014 42.599663 1.093676
12.646837 42.599663 1.169089
12.960659 42.599663 1.247651
13.274483 42.599663 1.325307
13.588306 42.599663 1.385128
13.902128 42.599663 1.442715
14.215952 42.599663 1.473233
14.529776 42.599663 1.493071
14.843597 42.599663 1.504701
15.157421 42.599663 1.490270
15.471243 42.599663 1.450067
15.785067 42.599663 1.401099
16.098890 42.599663 1.351555
16.412712 42.599663 1.294161
16.726536 42.599663 1.261779
17.040359 42.599663 1.242341
17.354181 42.599663 1.230818
17.668005 42.599663 1.233598
17.981829 42.599663 1.245673
18.295650 42.599663 1.274585
18.609474 42.599663 1.299001
18.923298 42.599663 1.353057
19.237120 42.599663 0.000000
-6.810190 42.285843 0.000000
-6.496367 42.285843 0.000000
-6.182544 42.285843 0.008410
-5.868721 42.285843 0.007067
-5.554898 42.285843 0.007003
-5.241075 42.285843 0.007113
-4.927252 42.285843 0.007256
-4.613429 42.285843 0.007160
-4.299606 42.285843 0.007048
-3.985783 42.285843 0.007105
-3.671960 42.285843 0.007279
-3.358137 42.285843 0.007322
-3.044314 42.285843 0.007227
-2.730491 42.285843 0.007190
-2.416668 42.285843 0.007288
-2.102845 42.285843 0.007331
-1.789022 42.285843 0.007336
-1.475199 42.285843 0.007388
-1.161376 42.285843 0.007524
-0.847553 42.285843 0.007598
-0.533730 42.285843 0.007669
-0.219907 42.285843 0.007896
0.093916 42.285843 0.008113
0.407739 42.285843 0.008391
0.721562 42.285843 0.008756
1.035385 42.285843 0.008943
1.349208 42.285843 0.009201
1.663032 42.285843 0.009401
1.976854 42.285843 0.009615
2.290677 42.285843 0.010182
2.604500 42.285843 0.010653
2.918324 42.285843 0.011090
3.232146 42.285843 0.011797
3.545969 42.285843 0.012726
3.859793 42.285843 0.013761
4.173615 42.285843 0.014994
4.487438 42.285843 0.016224
4.801261 42.285843 0.017945
5.115085 42.285843 0.020016
5.428907 42.285843 0.022305
5.742730 42.285843 0.025009
6.056554 42.285843 0.028375
6.370377 42.285843 0.032760
6.684199 42.285843 0.037963
6.998022 42.285843 0.044990
7.311846 42.285843 0.053619
7.625669 42.285843 0.064400
7.939491 42.285843 0.078781
8.253315 42.285843 0.099039
8.567138 42.285843 0.123066
8.880960 42.285843 0.154756
9.194784 42.285843 0.195598
9.508606 42.285843 0.245535
9.822430 42.285843 0.309219
10.136253 42.285843 0.380184
10.450075 42.285843 0.474997
10.763899 42.285843 0.575143
11.077723 42.285843 0.674249
11.391544 42.285843 0.782996
11.705368 42.285843 0.882688
12.019190 42.285843 0.992176
12.333014 42.285843 1.093094
12.646837 42.285843 1.163092
12.960659 42.285843 1.247876
13.274483 42.285843 1.322101
13.588306 42.285843 1.389351
13.902128 42.285843 1.443115
14.215952 42.285843 1.473554
14.529776 42.285843 1.498255
14.843597 42.285843 1.504249
15.157421 42.285843 1.489847
15.471243 42.285843 1.452938
15.785067 42.285843 1.401480
16.098890 42.285843 1.348323
16.412712 42.285843 1.292466
16.726536 42.285843 1.256976
17.040359 42.285843 1.242285
17.354181 42.285843 1.230758
17.668005 42.285843 1.236073
17.981829 42.285843 1.248372
18.295650 42.285843 1.275402
18.609474 42.285843 1.301331
18.923298 42.285843 1.353588
19.237120 42.285843 0.000000
-6.810190 41.972019 0.000000
-6.496367 41.972019 0.000000
-6.182544 41.972019 0.008406
-5.868721 41.972019 0.007061
-5.554898 41.972019 0.007032
-5.241075 41.972019 0.007234
-4.927252 41.972019 0.007397
-4.613429 41.972019 0.007243
-4.299606 41.972019 0.007068
-3.985783 41.972019 0.007137
-3.671960 41.972019 0.007290
-3.358137 41.972019 0.007307
-3.044314 41.972019 0.007219
-2.730491 41.972019 0.007206
-2.416668 41.972019 0.007296
-2.102845 41.972019 0.007317
-1.789022 41.972019 0.007313
-1.475199 41.972019 0.007387
-1.161376 41.972019 0.007548
-0.847553 41.972019 0.007617
-0.533730 41.972019 0.007564
-0.219907 41.972019 0.007789
0.093916 41.972019 0.008052
0.407739 41.972019 0.008294
0.721562 41.972019 0.008568
1.035385 41.972019 0.008759
1.349208 41.972019 0.009026
1.663032 41.972019 0.009234
1.976854 41.972019 0.009517
2.290677 41.972019 0.010058
2.604500 41.972019 0.010558
2.918324 41.972019 0.011066
3.232146 41.972019 0.011793
3.545969 41.972019 0.012653
3.859793 41.972019 0.013624
4.173615 41.972019 0.014818
4.487438 41.972019 0.016131
4.801261 41.972019 0.017834
5.115085 41.972019 0.019866
5.428907 41.972019 0.022111
5.742730 41.972019 0.024871
6.056554 41.972019 0.028398
6.370377 41.972019 0.032863
6.684199 41.972019 0.037893
6.998022 41.972019 0.044568
7.311846 41.972019 0.053292
7.625669 41.972019 0.063944
7.939491 41.972019 0.078691
8.253315 41.972019 0.098467
8.567138 41.972019 0.123848
8.880960 41.972019 0.156618
9.194784 41.972019 0.197810
9.508606 41.972019 0.251407
9.822430 41.972019 0.312909
10.136253 41.972019 0.382271
10.450075 41.972019 0.477692
10.763899 41.972019 0.570896
11.077723 41.972019 0.672723
11.391544 41.972019 0.775743
11.705368 41.972019 0.883123
12.019190 41.972019 0.996425
12.333014 41.972019 1.099273
12.646837 41.972019 1.167156
12.960659 41.972019 1.244985
13.274483 41.972019 1.324555
13.588306 41.972019 1.382755
13.902128 41.972019 1.446304
14.215952 41.972019 1.481966
14.529776 41.972019 1.504417
14.843597 41.972019 1.505527
15.157421 41.972019 1.487538
15.471243 41.972019 1.450409
15.785067 41.972019 1.406930
16.098890 41.972019 1.357283
16.412712 41.972019 1.302327
16.726536 41.972019 1.265147
17.040359 41.972019 1.238131
17.354181 41.972019 1.231508
17.668005 41.972019 1.235025
17.981829 41.972019 1.251570
18.295650 41.972019 1.274568
18.609474 41.972019 1.312244
18.923298 41.972019 1.354796
19.237120 41.972019 0.000000
-6.810190 41.658195 0.000000
-6.496367 41.658195 0.000000
-6.182544 41.658195 0.008362
-5.868721 41.658195 0.007083
-5.554898 41.658195 0.007103
-5.241075 41.658195 0.007303
-4.927252 41.658195 0.007442
-4.613429 41.658195 0.007267
-4.299606 41.658195 0.007093
-3.985783 41.658195 0.007172
-3.671960 41.658195 0.007288
-3.358137 41.658195 0.007296
-3.044314 41.658195 0.007237
-2.730491 41.658195 0.007229
-2.416668 41.658195 0.007302
-2.102845 41.658195 0.007324
-1.789022 41.658195 0.007348
-1.475199 41.658195 0.007431
-1.161376 41.658195 0.007563
-0.847553 41.658195 0.007618
-0.533730 41.658195 0.007569
-0.219907 41.658195 0.007777
0.093916 41.658195 0.008078
0.407739 41.658195 0.008191
0.721562 41.658195 0.008354
1.035385 41.658195 0.008587
1.349208 41.658195 0.008879
1.663032 41.658195 0.009105
1.976854 41.658195 0.009455
2.290677 41.658195 0.009997
2.604500 41.658195 0.010530
2.918324 41.658195 0.011065
3.232146 41.658195 0.011762
3.545969 41.658195 0.012498
3.859793 41.658195 0.013407
4.173615 41.658195 0.014642
4.487438 41.658195 0.016065
4.801261 41.658195 0.017729
5.115085 41.658195 0.019743
5.428907 41.658195 0.022026
5.742730 41.658195 0.024832
6.056554 41.658195 0.028425
6.370377 41.658195 0.032825
6.684199 41.658195 0.037548
6.998022 41.658195 0.044271
7.311846 41.658195 0.052884
7.625669 41.658195 0.064524
7.939491 41.658195 0.079051
8.253315 41.658195 0.097631
8.567138 41.658195 0.122538
8.880960 41.658195 0.154987
9.194784 41.658195 0.199075
9.508606 41.658195 0.253406
9.822430 41.658195 0.313261
10.136253 41.658195 0.384049
10.450075 41.658195 0.475924
10.763899 41.658195 0.575227
11.077723 41.658195 0.682915
11.391544 41.658195 0.781592
11.705368 41.658195 0.880859
12.019190 41.658195 1.001146
12.333014 41.658195 1.096795
12.646837 41.658195 1.179773
12.960659 41.658195 1.264262
13.274483 41.658195 1.344820
13.588306 41.658195 1.390566
13.902128 41.658195 1.442143
14.215952 41.658195 1.487804
14.529776 41.658195 1.505805
14.843597 41.658195 1.507831
15.157421 41.658195 1.480866
15.471243 41.658195 1.452202
15.785067 41.658195 1.411818
16.098890 41.658195 1.363901
16.412712 41.658195 1.312271
16.726536 41.658195 1.272737
17.040359 41.658195 1.249713
17.354181 41.658195 1.237373
17.668005 41.658195 1.239341
17.981829 41.658195 1.253866
18.295650 41.658195 1.278374
18.609474 41.658195 1.314664
18.923298 41.658195 1.351817
19.237120 41.658195 0.000000
-6.810190 41.344372 0.000000
-6.496367 41.344372 0.000000
-6.182544 41.344372 0.008341
-5.868721 41.344372 0.007132
-5.554898 41.344372 0.007137
-5.241075 41.344372 0.007288
-4.927252 41.344372 0.007368
-4.613429 41.344372 0.007220
-4.299606 41.344372 0.007126
-3.985783 41.344372 0.007185
-3.671960 41.344372 0.007245
-3.358137 41.344372 0.007296
-3.044314 41.344372 0.007296
-2.730491 41.344372 0.007252
-2.416668 41.344372 0.007294
-2.102845 41.344372 0.007342
-1.789022 41.344372 0.007396
-1.475199 41.344372 0.007512
-1.161376 41.344372 0.007552
-0.847553 41.344372 0.007562
-0.533730 41.344372 0.007548
-0.219907 41.344372 0.007782
0.093916 41.344372 0.008149
0.407739 41.344372 0.008172
0.721562 41.344372 0.008229
1.035385 41.344372 0.008494
1.349208 41.344372 0.008824
1.663032 41.344372 0.009017
1.976854 41.344372 0.009398
2.290677 41.344372 0.009974
2.604500 41.344372 0.010508
2.918324 41.344372 0.011109
3.232146 41.344372 0.011780
3.545969 41.344372 0.012460
3.859793 41.344372 0.013318
4.173615 41.344372 0.014520
4.487438 41.344372 0.016026
4.801261 41.344372 0.017686
5.115085 41.344372 0.019568
5.428907 41.344372 0.021867
5.742730 41.344372 0.024773
6.056554 41.344372 0.028293
6.370377 41.344372 0.032621
6.684199 41.344372 0.037521
6.998022 41.344372 0.044173
7.311846 41.344372 0.052933
7.625669 41.344372 0.064883
7.939491 41.344372 0.079712
8.253315 41.344372 0.097304
8.567138 41.344372 0.121375
8.880960 41.344372 0.154552
9.194784 41.344372 0.197094
9.508606 41.344372 0.251479
9.822430 41.344372 0.312234
10.136253 41.344372 0.387261
10.450075 41.344372 0.471644
10.763899 41.344372 0.574087
11.077723 41.344372 0.684471
11.391544 41.344372 0.789197
11.705368 41.344372 0.894560
12.019190 41.344372 1.004338
12.333014 41.344372 1.096672
12.646837 41.344372 1.192601
12.960659 41.344372 1.279423
13.274483 41.344372 1.362352
13.588306 41.344372 1.406324
13.902128 41.344372 1.451363
14.215952 41.344372 1.496732
14.529776 41.344372 1.520128
14.843597 41.344372 1.517393
15.157421 41.344372 1.494326
15.471243 41.344372 1.461189
15.785067 41.344372 1.422574
16.098890 41.344372 1.364770
16.412712 41.344372 1.319337
16.726536 41.344372 1.274485
17.040359 41.344372 1.253614
17.354181 41.344372 1.241042
17.668005 41.344372 1.245882
17.981829 41.344372 1.257180
18.295650 41.344372 1.279912
18.609474 41.344372 1.303357
18.923298 41.344372 1.361977
19.237120 41.344372 0.000000
-6.810190 41.030548 0.000000
-6.496367 41.030548 0.000000
-6.182544 41.030548 0.008317
-5.868721 41.030548 0.007147
-5.554898 41.030548 0.007146
-5.241075 41.030548 0.007187
-4.927252 41.030548 0.007207
-4.613429 41.030548 0.007133
-4.299606 41.030548 0.007137
-3.985783 41.030548 0.007183
-3.671960 41.030548 0.007172
-3.358137 41.030548 0.007243
-3.044314 41.030548 0.007304
-2.730491 41.030548 0.007274
-2.416668 41.030548 0.007334
-2.102845 41.030548 0.007298
-1.789022 41.030548 0.007392
-1.475199 41.030548 0.007523
-1.161376 41.030548 0.007512
-0.847553 41.030548 0.007489
-0.533730 41.030548 0.007525
-0.219907 41.030548 0.007801
0.093916 41.030548 0.008154
0.407739 41.030548 0.008142
0.721562 41.030548 0.008174
1.035385 41.030548 0.008457
1.349208 41.030548 0.008849
1.663032 41.030548 0.009041
1.976854 41.030548 0.009350
2.290677 41.030548 0.009872
2.604500 41.030548 0.010409
2.918324 41.030548 0.011072
3.232146 41.030548 0.011780
3.545969 41.030548 0.012448
3.859793 41.030548 0.013257
4.173615 41.030548 0.014488
4.487438 41.030548 0.015956
4.801261 41.030548 0.017466
5.115085 41.030548 0.019477
5.428907 41.030548 0.021798
5.742730 41.030548 0.024720
6.056554 41.030548 0.028047
6.370377 41.030548 0.032409
6.684199 41.030548 0.037354
6.998022 41.030548 0.043883
7.311846 41.030548 0.052990
7.625669 41.030548 0.065065
7.939491 41.030548 0.080065
8.253315 41.030548 0.097519
8.567138 41.030548 0.119533
8.880960 41.030548 0.150417
9.194784 41.030548 0.193326
9.508606 41.030548 0.247731
9.822430 41.030548 0.310148
10.136253 41.030548 0.385693
10.450075 41.030548 0.469677
10.763899 41.030548 0.572933
11.077723 41.030548 0.679182
11.391544 41.030548 0.793836
11.705368 41.030548 0.898355
12.019190 41.030548 1.005728
12.333014 41.030548 1.103306
12.646837 41.030548 1.193714
12.960659 41.030548 1.285494
13.274483 41.030548 1.363693
13.588306 41.030548 1.424150
13.902128 41.030548 1.463462
14.215952 41.030548 1.501914
14.529776 41.030548 1.529795
14.843597 41.030548 1.527008
15.157421 41.030548 1.507058
15.471243 41.030548 1.471119
15.785067 41.030548 1.426374
16.098890 41.030548 1.369560
16.412712 41.030548 1.317261
16.726536 41.030548 1.279469
17.040359 41.030548 1.258014
17.354181 41.030548 1.247418
17.668005 41.030548 1.249123
17.981829 41.030548 1.257111
18.295650 41.030548 1.278403
18.609474 41.030548 1.312014
18.923298 41.030548 1.362103
19.237120 41.030548 0.000000
-6.810190 40.716728 0.000000
-6.496367 40.716728 0.000000
-6.182544 40.716728 0.008206
-5.868721 40.716728 0.007092
-5.554898 40.716728 0.007100
-5.241075 40.716728 0.007079
-4.927252 40.716728 0.007079
-4.613429 40.716728 0.007089
-4.299606 40.716728 0.007111
-3.985783 40.716728 0.007143
-3.671960 40.716728 0.007171
-3.358137 40.716728 0.007224
-3.044314 40.716728 0.007263
-2.730491 40.716728 0.007226
-2.416668 40.716728 0.007291
-2.102845 40.716728 0.007224
-1.789022 40.716728 0.007310
-1.475199 40.716728 0.007458
-1.161376 40.716728 0.007463
-0.847553 40.716728 0.007425
-0.533730 40.716728 0.007509
-0.219907 40.716728 0.007753
0.093916 40.716728 0.008063
0.407739 40.716728 0.008071
0.721562 40.716728 0.008180
1.035385 40.716728 0.008456
1.349208 40.716728 0.008850
1.663032 40.716728 0.009093
1.976854 40.716728 0.009257
2.290677 40.716728 0.009736
2.604500 40.716728 0.010330
2.918324 40.716728 0.011043
3.232146 40.716728 0.011786
3.545969 40.716728 0.012387
3.859793 40.716728 0.013164
4.173615 40.716728 0.014409
4.487438 40.716728 0.015819
4.801261 40.716728 0.017323
5.115085 40.716728 0.019339
5.428907 40.716728 0.021769
5.742730 40.716728 0.024589
6.056554 40.716728 0.028060
6.370377 40.716728 0.032349
6.684199 40.716728 0.037094
6.998022 40.716728 0.043410
7.311846 40.716728 0.052851
7.625669 40.716728 0.064540
7.939491 40.716728 0.079449
8.253315 40.716728 0.097878
8.567138 40.716728 0.118942
8.880960 40.716728 0.151234
9.194784 40.716728 0.193628
9.508606 40.716728 0.240188
9.822430 40.716728 0.305806
10.136253 40.716728 0.379582
10.450075 40.716728 0.466022
10.763899 40.716728 0.576021
11.077723 40.716728 0.683752
11.391544 40.716728 0.785889
11.705368 40.716728 0.899383
12.019190 40.716728 1.006199
12.333014 40.716728 1.106246
12.646837 40.716728 1.199054
12.960659 40.716728 1.284356
13.274483 40.716728 1.366879
13.588306 40.716728 1.430496
13.902128 40.716728 1.468043
14.215952 40.716728 1.501202
14.529776 40.716728 1.534382
14.843597 40.716728 1.530887
15.157421 40.716728 1.510933
15.471243 40.716728 1.482046
15.785067 40.716728 1.436820
16.098890 40.716728 1.368822
16.412712 40.716728 1.319488
16.726536 40.716728 1.285800
17.040359 40.716728 1.263960
17.354181 40.716728 1.245883
17.668005 40.716728 1.246858
17.981829 40.716728 1.255235
18.295650 40.716728 1.274378
18.609474 40.716728 1.306805
18.923298 40.716728 1.349675
19.237120 40.716728 0.000000
-6.810190 40.402905 0.000000
-6.496367 40.402905 0.000000
-6.182544 40.402905 0.008039
-5.868721 40.402905 0.006993
-5.554898 40.402905 0.007045
-5.241075 40.402905 0.007002
-4.927252 40.402905 0.007028
-4.613429 40.402905 0.007050
-4.299606 40.402905 0.007048
-3.985783 40.402905 0.007074
-3.671960 40.402905 0.007153
-3.358137 40.402905 0.007218
-3.044314 40.402905 0.007178
-2.730491 40.402905 0.007141
-2.416668 40.402905 0.007244
-2.102845 40.402905 0.007191
-1.789022 40.402905 0.007233
-1.475199 40.402905 0.007339
-1.161376 40.402905 0.007392
-0.847553 40.402905 0.007375
-0.533730 40.402905 0.007475
-0.219907 40.402905 0.007682
0.093916 40.402905 0.007878
0.407739 40.402905 0.007950
0.721562 40.402905 0.008129
1.035385 40.402905 0.008399
1.349208 40.402905 0.008909
1.663032 40.402905 0.009128
1.976854 40.402905 0.009252
2.290677 40.402905 0.009731
2.604500 40.402905 0.010350
2.918324 40.402905 0.011008
3.232146 40.402905 0.011724
3.545969 40.402905 0.012295
3.859793 40.402905 0.013095
4.173615 40.402905 0.014282
4.487438 40.402905 0.015671
4.801261 40.402905 0.017173
5.115085 40.402905 0.019220
5.428907 40.402905 0.021629
5.742730 40.402905 0.024404
6.056554 40.402905 0.027915
6.370377 40.402905 0.032273
6.684199 40.402905 0.036962
6.998022 40.402905 0.043554
7.311846 40.402905 0.052934
7.625669 40.402905 0.064178
7.939491 40.402905 0.079701
8.253315 40.402905 0.097449
8.567138 40.402905 0.120302
8.880960 40.402905 0.151952
9.194784 40.402905 0.194536
9.508606 40.402905 0.241966
9.822430 40.402905 0.305373
10.136253 40.402905 0.381799
10.450075 40.402905 0.470298
10.763899 40.402905 0.568313
11.077723 40.402905 0.668766
11.391544 40.402905 0.773417
11.705368 40.402905 0.885357
12.019190 40.402905 1.006594
12.333014 40.402905 1.116768
12.646837 40.402905 1.203665
12.960659 40.402905 1.285685
13.274483 40.402905 1.373410
13.588306 40.402905 1.442194
13.902128 40.402905 1.478976
14.215952 40.402905 1.506871
14.529776 40.402905 1.529748
14.843597 40.402905 1.536776
15.157421 40.402905 1.520674
15.471243 40.402905 1.478256
15.785067 40.402905 1.440274
16.098890 40.402905 1.376137
16.412712 40.402905 1.322636
16.726536 40.402905 1.285761
17.040359 40.402905 1.261145
17.354181 40.402905 1.246668
17.668005 40.402905 1.253336
17.981829 40.402905 1.258154
18.295650 40.402905 1.283085
18.609474 40.402905 1.307057
18.923298 40.402905 1.331548
19.237120 40.402905 0.000000
-6.810190 40.089081 0.000000
-6.496367 40.089081 0.000000
-6.182544 40.089081 0.007961
-5.868721 40.089081 0.006906
-5.554898 40.089081 0.007008
-5.241075 40.089081 0.006998
-4.927252 40.089081 0.007019
-4.613429 40.089081 0.007008
-4.299606 40.089081 0.006978
-3.985783 40.089081 0.007023
-3.671960 40.089081 0.007101
-3.358137 40.089081 0.007170
-3.044314 40.089081 0.007124
-2.730491 40.089081 0.007085
-2.416668 40.089081 0.007200
-2.102845 40.089081 0.007238
-1.789022 40.089081 0.007190
-1.475199 40.089081 0.007190
-1.161376 40.089081 0.007296
-0.847553 40.089081 0.007342
-0.533730 40.089081 0.007448
-0.219907 40.089081 0.007603
0.093916 40.089081 0.007709
0.407739 40.089081 0.007833
0.721562 40.089081 0.008006
1.035385 40.089081 0.008316
1.349208 40.089081 0.008828
1.663032 40.089081 0.009079
1.976854 40.089081 0.009261
2.290677 40.089081 0.009788
2.604500 40.089081 0.010293
2.918324 40.089081 0.010908
3.232146 40.089081 0.011591
3.545969 40.089081 0.012193
3.859793 40.089081 0.012990
4.173615 40.089081 0.014179
4.487438 40.089081 0.015580
4.801261 40.089081 0.017069
5.115085 40.089081 0.019040
5.428907 40.089081 0.021431
5.742730 40.089081 0.024304
6.056554 40.089081 0.027619
6.370377 40.089081 0.031622
6.684199 40.089081 0.036632
6.998022 40.089081 0.043403
7.311846 40.089081 0.052332
7.625669 40.089081 0.063022
7.939491 40.089081 0.078564
8.253315 40.089081 0.096601
8.567138 40.089081 0.121763
8.880960 40.089081 0.153241
9.194784 40.089081 0.194359
9.508606 40.089081 0.249280
9.822430 40.089081 0.308134
10.136253 40.089081 0.390426
10.450075 40.089081 0.471948
10.763899 40.089081 0.566050
11.077723 40.089081 0.662958
11.391544 40.089081 0.769913
11.705368 40.089081 0.886189
12.019190 40.089081 1.011652
12.333014 40.089081 1.114056
12.646837 40.089081 1.202605
12.960659 40.089081 1.288304
13.274483 40.089081 1.379594
13.588306 40.089081 1.453727
13.902128 40.089081 1.490584
14.215952 40.089081 1.514085
14.529776 40.089081 1.540369
14.843597 40.089081 1.535103
15.157421 40.089081 1.517624
15.471243 40.089081 1.483759
15.785067 40.089081 1.434727
16.098890 40.089081 1.378934
16.412712 40.089081 1.329121
16.726536 40.089081 1.283758
17.040359 40.089081 1.269295
17.354181 40.089081 1.257287
17.668005 40.089081 1.251747
17.981829 40.089081 1.261401
18.295650 40.089081 1.291051
18.609474 40.089081 1.310401
18.923298 40.089081 1.329866
19.237120 40.089081 0.000000
-6.810190 39.775257 0.000000
-6.496367 39.775257 0.000000
-6.182544 39.775257 0.007912
-5.868721 39.775257 0.006875
-5.554898 39.775257 0.006937
-5.241075 39.775257 0.006947
-4.927252 39.775257 0.006961
-4.613429 39.775257 0.006904
-4.299606 39.775257 0.006952
-3.985783 39.775257 0.007014
-3.671960 39.775257 0.007040
-3.358137 39.775257 0.007114
-3.044314 39.775257 0.007108
-2.730491 39.775257 0.007049
-2.416668 39.775257 0.007169
-2.102845 39.775257 0.007284
-1.789022 39.775257 0.007196
-1.475199 39.775257 0.007123
-1.161376 39.775257 0.007195
-0.847553 39.775257 0.007326
-0.533730 39.775257 0.007442
-0.219907 39.775257 0.007504
0.093916 39.775257 0.007554
0.407739 39.775257 0.007710
0.721562 39.775257 0.007883
1.035385 39.775257 0.008196
1.349208 39.775257 0.008628
1.663032 39.775257 0.008944
1.976854 39.775257 0.009224
2.290677 39.775257 0.009777
2.604500 39.775257 0.010263
2.918324 39.775257 0.010785
3.232146 39.775257 0.011424
3.545969 39.775257 0.012141
3.859793 39.775257 0.012921
4.173615 39.775257 0.014103
4.487438 39.775257 0.015492
4.801261 39.775257 0.016990
5.115085 39.775257 0.018932
5.428907 39.775257 0.021364
5.742730 39.775257 0.024204
6.056554 39.775257 0.027331
6.370377 39.775257 0.031159
6.684199 39.775257 0.036440
6.998022 39.775257 0.043528
7.311846 39.775257 0.052054
7.625669 39.775257 0.062694
7.939491 39.775257 0.077102
8.253315 39.775257 0.095094
8.567138 39.775257 0.120396
8.880960 39.775257 0.152774
9.194784 39.775257 0.195721
9.508606 39.775257 0.249545
9.822430 39.775257 0.308249
10.136253 39.775257 0.384143
10.450075 39.775257 0.471264
10.763899 39.775257 0.569104
11.077723 39.775257 0.668603
11.391544 39.775257 0.772566
11.705368 39.775257 0.884238
12.019190 39.775257 1.019155
12.333014 39.775257 1.119666
12.646837 39.775257 1.211339
12.960659 39.775257 1.294231
13.274483 39.775257 1.378264
13.588306 39.775257 1.455702
13.902128 39.775257 1.499805
14.215952 39.775257 1.525918
14.529776 39.775257 1.546872
14.843597 39.775257 1.531038
15.157421 39.775257 1.517887
15.471243 39.775257 1.489463
15.785067 39.775257 1.437645
16.098890 39.775257 1.386132
16.412712 39.775257 1.332967
16.726536 39.775257 1.298905
17.040359 39.775257 1.272275
17.354181 39.775257 1.262000
17.668005 39.775257 1.256221
17.981829 39.775257 1.263374
18.295650 39.775257 1.284066
18.609474 39.775257 1.307572
18.923298 39.775257 1.335495
19.237120 39.775257 0.000000
-6.810190 39.461433 0.000000
-6.496367 39.461433 0.000000
-6.182544 39.461433 0.007857
-5.868721 39.461433 0.006835
-5.554898 39.461433 0.006773
-5.241075 39.461433 0.006780
-4.927252 39.461433 0.006820
-4.613429 39.461433 0.006802
-4.299606 39.461433 0.006903
-3.985783 39.461433 0.006967
-3.671960 39.461433 0.006968
-3.358137 39.461433 0.007106
-3.044314 39.461433 0.007051
-2.730491 39.461433 0.006971
-2.416668 39.461433 0.007138
-2.102845 39.461433 0.007271
-1.789022 39.461433 0.007178
-1.475199 39.461433 0.007073
-1.161376 39.461433 0.007100
-0.847553 39.461433 0.007294
-0.533730 39.461433 0.007434
-0.219907 39.461433 0.007416
0.093916 39.461433 0.007448
0.407739 39.461433 0.007599
0.721562 39.461433 0.007794
1.035385 39.461433 0.008048
1.349208 39.461433 0.008402
1.663032 39.461433 0.008720
1.976854 39.461433 0.009150
2.290677 39.461433 0.009690
2.604500 39.461433 0.010166
2.918324 39.461433 0.010613
3.232146 39.461433 0.011295
3.545969 39.461433 0.012066
3.859793 39.461433 0.012930
4.173615 39.461433 0.014058
4.487438 39.461433 0.015389
4.801261 39.461433 0.016807
5.115085 39.461433 0.018716
5.428907 39.461433 0.021226
5.742730 39.461433 0.023999
6.056554 39.461433 0.027154
6.370377 39.461433 0.031012
6.684199 39.461433 0.036032
6.998022 39.461433 0.043017
7.311846 39.461433 0.051439
7.625669 39.461433 0.062550
7.939491 39.461433 0.076989
8.253315 39.461433 0.095038
8.567138 39.461433 0.118894
8.880960 39.461433 0.151766
9.194784 39.461433 0.195486
9.508606 39.461433 0.248876
9.822430 39.461433 0.308529
10.136253 39.461433 0.380036
10.450075 39.461433 0.467899
10.763899 39.461433 0.568329
11.077723 39.461433 0.675981
11.391544 39.461433 0.775579
11.705368 39.461433 0.895558
12.019190 39.461433 1.008677
12.333014 39.461433 1.120079
12.646837 39.461433 1.214371
12.960659 39.461433 1.297307
13.274483 39.461433 1.379506
13.588306 39.461433 1.452982
13.902128 39.461433 1.507052
14.215952 39.461433 1.532906
14.529776 39.461433 1.544370
14.843597 39.461433 1.539026
15.157421 39.461433 1.521187
15.471243 39.461433 1.489017
15.785067 39.461433 1.446520
16.098890 39.461433 1.379912
16.412712 39.461433 1.334689
16.726536 39.461433 1.293781
17.040359 39.461433 1.267356
17.354181 39.461433 1.257158
17.668005 39.461433 1.252374
17.981829 39.461433 1.270142
18.295650 39.461433 1.275826
18.609474 39.461433 1.315599
18.923298 39.461433 1.337494
19.237120 39.461433 0.000000
-6.810190 39.147614 0.000000
-6.496367 39.147614 0.000000
-6.182544 39.147614 0.007772
-5.868721 39.147614 0.006746
-5.554898 39.147614 0.006649
-5.241075 39.147614 0.006644
-4.927252 39.147614 0.006641
-4.613429 39.147614 0.006639
-4.299606 39.147614 0.006801
-3.985783 39.147614 0.006866
-3.671960 39.147614 0.006854
-3.358137 39.147614 0.007030
-3.044314 39.147614 0.006997
-2.730491 39.147614 0.006849
-2.416668 39.147614 0.007050
-2.102845 39.147614 0.007121
-1.789022 39.147614 0.007102
-1.475199 39.147614 0.007032
-1.161376 39.147614 0.007034
-0.847553 39.147614 0.007234
-0.533730 39.147614 0.007387
-0.219907 39.147614 0.007369
0.093916 39.147614 0.007365
0.407739 39.147614 0.007553
0.721562 39.147614 0.007742
1.035385 39.147614 0.007920
1.349208 39.147614 0.008186
1.663032 39.147614 0.008557
1.976854 39.147614 0.009025
2.290677 39.147614 0.009598
2.604500 39.147614 0.010045
2.918324 39.147614 0.010490
3.232146 39.147614 0.011187
3.545969 39.147614 0.011955
3.859793 39.147614 0.012862
4.173615 39.147614 0.014038
4.487438 39.147614 0.015267
4.801261 39.147614 0.016657
5.115085 39.147614 0.018548
5.428907 39.147614 0.020997
5.742730 39.147614 0.023682
6.056554 39.147614 0.026795
6.370377 39.147614 0.030801
6.684199 39.147614 0.035805
6.998022 39.147614 0.042571
7.311846 39.147614 0.051244
7.625669 39.147614 0.062265
7.939491 39.147614 0.076809
8.253315 39.147614 0.095170
8.567138 39.147614 0.118176
8.880960 39.147614 0.148883
9.194784 39.147614 0.193138
9.508606 39.147614 0.245237
9.822430 39.147614 0.307769
10.136253 39.147614 0.373449
10.450075 39.147614 0.466422
10.763899 39.147614 0.569804
11.077723 39.147614 0.678471
11.391544 39.147614 0.780171
11.705368 39.147614 0.891092
12.019190 39.147614 1.006451
12.333014 39.147614 1.114892
12.646837 39.147614 1.214641
12.960659 39.147614 1.310500
13.274483 39.147614 1.383329
13.588306 39.147614 1.449408
13.902128 39.147614 1.516472
14.215952 39.147614 1.542567
14.529776 39.147614 1.545362
14.843597 39.147614 1.539106
15.157421 39.147614 1.523762
15.471243 39.147614 1.489486
15.785067 39.147614 1.439989
16.098890 39.147614 1.378127
16.412712 39.147614 1.317126
16.726536 39.147614 1.284893
17.040359 39.147614 1.258879
17.354181 39.147614 1.248963
17.668005 39.147614 1.252045
17.981829 39.147614 1.261279
18.295650 39.147614 1.276581
18.609474 39.147614 1.311623
18.923298 39.147614 1.342691
19.237120 39.147614 0.000000
-6.810190 38.833786 0.000000
-6.496367 38.833786 0.000000
-6.182544 38.833786 0.007676
-5.868721 38.833786 0.006717
-5.554898 38.833786 0.006630
-5.241075 38.833786 0.006539
-4.927252 38.833786 0.006558
-4.613429 38.833786 0.006545
-4.299606 38.833786 0.006705
-3.985783 38.833786 0.006803
-3.671960 38.833786 0.006805
-3.358137 38.833786 0.006922
-3.044314 38.833786 0.006865
-2.730491 38.833786 0.006747
-2.416668 38.833786 0.006893
-2.102845 38.833786 0.006950
-1.789022 38.833786 0.006988
-1.475199 38.833786 0.006946
-1.161376 38.833786 0.006982
-0.847553 38.833786 0.007168
-0.533730 38.833786 0.007297
-0.219907 38.833786 0.007345
0.093916 38.833786 0.007371
0.407739 38.833786 0.007504
0.721562 38.833786 0.007691
1.035385 38.833786 0.007832
1.349208 38.833786 0.008005
1.663032 38.833786 0.008431
1.976854 38.833786 0.008875
2.290677 38.833786 0.009411
2.604500 38.833786 0.009920
2.918324 38.833786 0.010393
3.232146 38.833786 0.011079
3.545969 38.833786 0.011866
3.859793 38.833786 0.012856
4.173615 38.833786 0.014004
4.487438 38.833786 0.015204
4.801261 38.833786 0.016554
5.115085 38.833786 0.018406
5.428907 38.833786 0.020783
5.742730 38.833786 0.023445
6.056554 38.833786 0.026668
6.370377 38.833786 0.030832
6.684199 38.833786 0.036012
6.998022 38.833786 0.042768
7.311846 38.833786 0.051118
7.625669 38.833786 0.061474
7.939491 38.833786 0.077159
8.253315 38.833786 0.095862
8.567138 38.833786 0.118670
8.880960 38.833786 0.148745
9.194784 38.833786 0.191983
9.508606 38.833786 0.243240
9.822430 38.833786 0.304650
10.136253 38.833786 0.375448
10.450075 38.833786 0.466200
10.763899 38.833786 0.570444
11.077723 38.833786 0.668057
11.391544 38.833786 0.779475
11.705368 38.833786 0.882335
12.019190 38.833786 1.006706
12.333014 38.833786 1.108325
12.646837 38.833786 1.211642
12.960659 38.833786 1.306369
13.274483 38.833786 1.379981
13.588306 38.833786 1.447810
13.902128 38.833786 1.517902
14.215952 38.833786 1.539210
14.529776 38.833786 1.542572
14.843597 38.833786 1.542545
15.157421 38.833786 1.529245
15.471243 38.833786 1.495753
15.785067 38.833786 1.446280
16.098890 38.833786 1.370872
16.412712 38.833786 1.313608
16.726536 38.833786 1.282272
17.040359 38.833786 1.264061
17.354181 38.833786 1.254660
17.668005 38.833786 1.252587
17.981829 38.833786 1.259681
18.295650 38.833786 1.275100
18.609474 38.833786 1.310560
18.923298 38.833786 1.341055
19.237120 38.833786 0.000000
-6.810190 38.519966 0.000000
-6.496367 38.519966 0.000000
-6.182544 38.519966 0.007572
-5.868721 38.519966 0.006715
-5.554898 38.519966 0.006701
-5.241075 38.519966 0.006577
-4.927252 38.519966 0.006567
-4.613429 38.519966 0.006546
-4.299606 38.519966 0.006630
-3.985783 38.519966 0.006762
-3.671960 38.519966 0.006775
-3.358137 38.519966 0.006782
-3.044314 38.519966 0.006740
-2.730491 38.519966 0.006638
-2.416668 38.519966 0.006778
-2.102845 38.519966 0.006833
-1.789022 38.519966 0.006863
-1.475199 38.519966 0.006845
-1.161376 38.519966 0.006928
-0.847553 38.519966 0.007110
-0.533730 38.519966 0.007163
-0.219907 38.519966 0.007289
0.093916 38.519966 0.007373
0.407739 38.519966 0.007426
0.721562 38.519966 0.007634
1.035385 38.519966 0.007735
1.349208 38.519966 0.007859
1.663032 38.519966 0.008266
1.976854 38.519966 0.008712
2.290677 38.519966 0.009245
2.604500 38.519966 0.009806
2.918324 38.519966 0.010276
3.232146 38.519966 0.010965
3.545969 38.519966 0.011707
3.859793 38.519966 0.012762
4.173615 38.519966 0.013885
4.487438 38.519966 0.015104
4.801261 38.519966 0.016550
5.115085 38.519966 0.018331
5.428907 38.519966 0.020668
5.742730 38.519966 0.023194
6.056554 38.519966 0.026592
6.370377 38.519966 0.030785
6.684199 38.519966 0.035664
6.998022 38.519966 0.042001
7.311846 38.519966 0.050666
7.625669 38.519966 0.061818
7.939491 38.519966 0.077452
8.253315 38.519966 0.096928
8.567138 38.519966 0.119607
8.880960 38.519966 0.149748
9.194784 38.519966 0.191961
9.508606 38.519966 0.242893
9.822430 38.519966 0.304095
10.136253 38.519966 0.381360
10.450075 38.519966 0.474492
10.763899 38.519966 0.559893
11.077723 38.519966 0.660055
11.391544 38.519966 0.768955
11.705368 38.519966 0.884862
12.019190 38.519966 1.009442
12.333014 38.519966 1.118784
12.646837 38.519966 1.219792
12.960659 38.519966 1.305776
13.274483 38.519966 1.384366
13.588306 38.519966 1.452665
13.902128 38.519966 1.510564
14.215952 38.519966 1.531856
14.529776 38.519966 1.547783
14.843597 38.519966 1.548499
15.157421 38.519966 1.535002
15.471243 38.519966 1.500823
15.785067 38.519966 1.450610
16.098890 38.519966 1.388263
16.412712 38.519966 1.325463
16.726536 38.519966 1.292765
17.040359 38.519966 1.278746
17.354181 38.519966 1.264102
17.668005 38.519966 1.256696
17.981829 38.519966 1.258292
18.295650 38.519966 1.279423
18.609474 38.519966 1.315962
18.923298 38.519966 1.342370
19.237120 38.519966 0.000000
-6.810190 38.206142 0.000000
-6.496367 38.206142 0.000000
-6.182544 38.206142 0.007459
-5.868721 38.206142 0.006679
-5.554898 38.206142 0.006777
-5.241075 38.206142 0.006646
-4.927252 38.206142 0.006647
-4.613429 38.206142 0.006643
-4.299606 38.206142 0.006603
-3.985783 38.206142 0.006667
-3.671960 38.206142 0.006726
-3.358137 38.206142 0.006710
-3.044314 38.206142 0.006677
-2.730491 38.206142 0.006599
-2.416668 38.206142 0.006689
-2.102845 38.206142 0.006736
-1.789022 38.206142 0.006778
-1.475199 38.206142 0.006732
-1.161376 38.206142 0.006837
-0.847553 38.206142 0.006989
-0.533730 38.206142 0.007052
-0.219907 38.206142 0.007185
0.093916 38.206142 0.007310
0.407739 38.206142 0.007374
0.721562 38.206142 0.007575
1.035385 38.206142 0.007660
1.349208 38.206142 0.007749
1.663032 38.206142 0.008132
1.976854 38.206142 0.008561
2.290677 38.206142 0.009071
2.604500 38.206142 0.009649
2.918324 38.206142 0.010200
3.232146 38.206142 0.010899
3.545969 38.206142 0.011539
3.859793 38.206142 0.012453
4.173615 38.206142 0.013706
4.487438 38.206142 0.015041
4.801261 38.206142 0.016586
5.115085 38.206142 0.018404
5.428907 38.206142 0.020481
5.742730 38.206142 0.023145
6.056554 38.206142 0.026618
6.370377 38.206142 0.030867
6.684199 38.206142 0.035687
6.998022 38.206142 0.042127
7.311846 38.206142 0.050594
7.625669 38.206142 0.061235
7.939491 38.206142 0.076998
8.253315 38.206142 0.095246
8.567138 38.206142 0.119527
8.880960 38.206142 0.152929
9.194784 38.206142 0.193752
9.508606 38.206142 0.244069
9.822430 38.206142 0.308084
10.136253 38.206142 0.384544
10.450075 38.206142 0.468751
10.763899 38.206142 0.559828
11.077723 38.206142 0.660138
11.391544 38.206142 0.776026
11.705368 38.206142 0.886464
12.019190 38.206142 1.015121
12.333014 38.206142 1.133430
12.646837 38.206142 1.233260
12.960659 38.206142 1.322430
13.274483 38.206142 1.401395
13.588306 38.206142 1.469894
13.902128 38.206142 1.524172
14.215952 38.206142 1.546659
14.529776 38.206142 1.552700
14.843597 38.206142 1.557623
15.157421 38.206142 1.539638
15.471243 38.206142 1.510800
15.785067 38.206142 1.453454
16.098890 38.206142 1.390784
16.412712 38.206142 1.338922
16.726536 38.206142 1.308171
17.040359 38.206142 1.281607
17.354181 38.206142 1.257037
17.668005 38.206142 1.248630
17.981829 38.206142 1.252473
18.295650 38.206142 1.273449
18.609474 38.206142 1.326089
18.923298 38.206142 1.352579
19.237120 38.206142 0.000000
-6.810190 37.892319 0.000000
-6.496367 37.892319 0.000000
-6.182544 37.892319 0.007344
-5.868721 37.892319 0.006620
-5.554898 37.892319 0.006748
-5.241075 37.892319 0.006712
-4.927252 37.892319 0.006673
-4.613429 37.892319 0.006689
-4.299606 37.892319 0.006644
-3.985783 37.892319 0.006625
-3.671960 37.892319 0.006708
-3.358137 37.892319 0.006673
-3.044314 37.892319 0.006624
-2.730491 37.892319 0.006611
-2.416668 37.892319 0.006673
-2.102845 37.892319 0.006704
-1.789022 37.892319 0.006695
-1.475199 37.892319 0.006689
-1.161376 37.892319 0.006780
-0.847553 37.892319 0.006884
-0.533730 37.892319 0.006982
-0.219907 37.892319 0.007079
0.093916 37.892319 0.007220
0.407739 37.892319 0.007325
0.721562 37.892319 0.007532
1.035385 37.892319 0.007626
1.349208 37.892319 0.007712
1.663032 37.892319 0.008021
1.976854 37.892319 0.008430
2.290677 37.892319 0.008929
2.604500 37.892319 0.009549
2.918324 37.892319 0.010117
3.232146 37.892319 0.010735
3.545969 37.892319 0.011440
3.859793 37.892319 0.012247
4.173615 37.892319 0.013454
4.487438 37.892319 0.014950
4.801261 37.892319 0.016592
5.115085 37.892319 0.018332
5.428907 37.892319 0.020452
5.742730 37.892319 0.023113
6.056554 37.892319 0.026517
6.370377 37.892319 0.030706
6.684199 37.892319 0.035937
6.998022 37.892319 0.041998
7.311846 37.892319 0.050622
7.625669 37.892319 0.061370
7.939491 37.892319 0.076244
8.253315 37.892319 0.094626
8.567138 37.892319 0.120124
8.880960 37.892319 0.153055
9.194784 37.892319 0.192409
9.508606 37.892319 0.246895
9.822430 37.892319 0.312277
10.136253 37.892319 0.389907
10.450075 37.892319 0.473200
10.763899 37.892319 0.560551
11.077723 37.892319 0.672094
11.391544 37.892319 0.780517
11.705368 37.892319 0.897904
12.019190 37.892319 1.024238
12.333014 37.892319 1.133300
12.646837 37.892319 1.234037
12.960659 37.892319 1.332277
13.274483 37.892319 1.419801
13.588306 37.892319 1.482477
13.902128 37.892319 1.535362
14.215952 37.892319 1.559274
14.529776 37.892319 1.568179
14.843597 37.892319 1.571270
15.157421 37.892319 1.556197
15.471243 37.892319 1.515085
15.785067 37.892319 1.456589
16.098890 37.892319 1.390040
16.412712 37.892319 1.340375
16.726536 37.892319 1.299980
17.040359 37.892319 1.279626
17.354181 37.892319 1.252769
17.668005 37.892319 1.242609
17.981829 37.892319 1.252002
18.295650 37.892319 1.278026
18.609474 37.892319 1.324953
18.923298 37.892319 1.335765
19.237120 37.892319 0.000000
-6.810190 37.578495 0.000000
-6.496367 37.578495 0.000000
-6.182544 37.578495 0.007310
-5.868721 37.578495 0.006525
-5.554898 37.578495 0.006650
-5.241075 37.578495 0.006633
-4.927252 37.578495 0.006589
-4.613429 37.578495 0.006632
-4.299606 37.578495 0.006682
-3.985783 37.578495 0.006612
-3.671960 37.578495 0.006687
-3.358137 37.578495 0.006659
-3.044314 37.578495 0.006610
-2.730491 37.578495 0.006623
-2.416668 37.578495 0.006721
-2.102845 37.578495 0.006722
-1.789022 37.578495 0.006704
-1.475199 37.578495 0.006713
-1.161376 37.578495 0.006743
-0.847553 37.578495 0.006790
-0.533730 37.578495 0.006887
-0.219907 37.578495 0.006977
0.093916 37.578495 0.007136
0.407739 37.578495 0.007250
0.721562 37.578495 0.007461
1.035385 37.578495 0.007620
1.349208 37.578495 0.007706
1.663032 37.578495 0.007963
1.976854 37.578495 0.008329
2.290677 37.578495 0.008802
2.604500 37.578495 0.009450
2.918324 37.578495 0.010022
3.232146 37.578495 0.010642
3.545969 37.578495 0.011240
3.859793 37.578495 0.012115
4.173615 37.578495 0.013269
4.487438 37.578495 0.014799
4.801261 37.578495 0.016505
5.115085 37.578495 0.018264
5.428907 37.578495 0.020419
5.742730 37.578495 0.023094
6.056554 37.578495 0.026378
6.370377 37.578495 0.030417
6.684199 37.578495 0.035589
6.998022 37.578495 0.041837
7.311846 37.578495 0.050317
7.625669 37.578495 0.061059
7.939491 37.578495 0.076192
8.253315 37.578495 0.095793
8.567138 37.578495 0.118994
8.880960 37.578495 0.149794
9.194784 37.578495 0.193591
9.508606 37.578495 0.249528
9.822430 37.578495 0.312852
10.136253 37.578495 0.385718
10.450075 37.578495 0.469845
10.763899 37.578495 0.565319
11.077723 37.578495 0.676039
11.391544 37.578495 0.777778
11.705368 37.578495 0.893170
12.019190 37.578495 1.015733
12.333014 37.578495 1.138411
12.646837 37.578495 1.237847
12.960659 37.578495 1.335955
13.274483 37.578495 1.420705
13.588306 37.578495 1.491468
13.902128 37.578495 1.543801
14.215952 37.578495 1.559424
14.529776 37.578495 1.575820
14.843597 37.578495 1.580316
15.157421 37.578495 1.563056
15.471243 37.578495 1.519782
15.785067 37.578495 1.454708
16.098890 37.578495 1.387565
16.412712 37.578495 1.340605
16.726536 37.578495 1.306873
17.040359 37.578495 1.277423
17.354181 37.578495 1.255570
17.668005 37.578495 1.250091
17.981829 37.578495 1.254979
18.295650 37.578495 1.274899
18.609474 37.578495 1.323097
18.923298 37.578495 1.334914
19.237120 37.578495 0.000000
-6.810190 37.264671 0.000000
-6.496367 37.264671 0.000000
-6.182544 37.264671 0.007316
-5.868721 37.264671 0.006478
-5.554898 37.264671 0.006533
-5.241075 37.264671 0.006499
-4.927252 37.264671 0.006478
-4.613429 37.264671 0.006536
-4.299606 37.264671 0.006644
-3.985783 37.264671 0.006628
-3.671960 37.264671 0.006616
-3.358137 37.264671 0.006602
-3.044314 37.264671 0.006590
-2.730491 37.264671 0.006598
-2.416668 37.264671 0.006691
-2.102845 37.264671 0.006706
-1.789022 37.264671 0.006709
-1.475199 37.264671 0.006741
-1.161376 37.264671 0.006726
-0.847553 37.264671 0.006723
-0.533730 37.264671 0.006765
-0.219907 37.264671 0.006888
0.093916 37.264671 0.007054
0.407739 37.264671 0.007185
0.721562 37.264671 0.007390
1.035385 37.264671 0.007612
1.349208 37.264671 0.007742
1.663032 37.264671 0.007948
1.976854 37.264671 0.008255
2.290677 37.264671 0.008731
2.604500 37.264671 0.009370
2.918324 37.264671 0.009941
3.232146 37.264671 0.010530
3.545969 37.264671 0.011203
3.859793 37.264671 0.012000
4.173615 37.264671 0.013149
4.487438 37.264671 0.014630
4.801261 37.264671 0.016367
5.115085 37.264671 0.018156
5.428907 37.264671 0.020273
5.742730 37.264671 0.022956
6.056554 37.264671 0.026056
6.370377 37.264671 0.030195
6.684199 37.264671 0.035285
6.998022 37.264671 0.041770
7.311846 37.264671 0.050213
7.625669 37.264671 0.061580
7.939491 37.264671 0.075899
8.253315 37.264671 0.093488
8.567138 37.264671 0.117899
8.880960 37.264671 0.148190
9.194784 37.264671 0.191791
9.508606 37.264671 0.247490
9.822430 37.264671 0.309722
10.136253 37.264671 0.384089
10.450075 37.264671 0.471812
10.763899 37.264671 0.559209
11.077723 37.264671 0.667633
11.391544 37.264671 0.775781
11.705368 37.264671 0.883250
12.019190 37.264671 1.013077
12.333014 37.264671 1.136166
12.646837 37.264671 1.238781
12.960659 37.264671 1.341018
13.274483 37.264671 1.423320
13.588306 37.264671 1.485550
13.902128 37.264671 1.540535
14.215952 37.264671 1.560650
14.529776 37.264671 1.578087
14.843597 37.264671 1.576149
15.157421 37.264671 1.561331
15.471243 37.264671 1.518677
15.785067 37.264671 1.453231
16.098890 37.264671 1.391094
16.412712 37.264671 1.346945
16.726536 37.264671 1.309723
17.040359 37.264671 1.269666
17.354181 37.264671 1.254899
17.668005 37.264671 1.256521
17.981829 37.264671 1.254644
18.295650 37.264671 1.282464
18.609474 37.264671 1.323482
18.923298 37.264671 1.320499
19.237120 37.264671 0.000000
-6.810190 36.950851 0.000000
-6.496367 36.950851 0.000000
-6.182544 36.950851 0.007288
-5.868721 36.950851 0.006490
-5.554898 36.950851 0.006483
-5.241075 36.950851 0.006411
-4.927252 36.950851 0.006397
-4.613429 36.950851 0.006446
-4.299606 36.950851 0.006526
-3.985783 36.950851 0.006487
-3.671960 36.950851 0.006485
-3.358137 36.950851 0.006551
-3.044314 36.950851 0.006558
-2.730491 36.950851 0.006563
-2.416668 36.950851 0.006604
-2.102845 36.950851 0.006622
-1.789022 36.950851 0.006697
-1.475199 36.950851 0.006749
-1.161376 36.950851 0.006723
-0.847553 36.950851 0.006642
-0.533730 36.950851 0.006680
-0.219907 36.950851 0.006828
0.093916 36.950851 0.006977
0.407739 36.950851 0.007109
0.721562 36.950851 0.007308
1.035385 36.950851 0.007574
1.349208 36.950851 0.007779
1.663032 36.950851 0.007984
1.976854 36.950851 0.008184
2.290677 36.950851 0.008702
2.604500 36.950851 0.009346
2.918324 36.950851 0.009907
3.232146 36.950851 0.010460
3.545969 36.950851 0.011162
3.859793 36.950851 0.011956
4.173615 36.950851 0.013067
4.487438 36.950851 0.014502
4.801261 36.950851 0.016210
5.115085 36.950851 0.018090
5.428907 36.950851 0.020194
5.742730 36.950851 0.022846
6.056554 36.950851 0.025990
6.370377 36.950851 0.030060
6.684199 36.950851 0.034931
6.998022 36.950851 0.041505
7.311846 36.950851 0.050314
7.625669 36.950851 0.061454
7.939491 36.950851 0.076164
8.253315 36.950851 0.093900
8.567138 36.950851 0.118152
8.880960 36.950851 0.150315
9.194784 36.950851 0.189815
9.508606 36.950851 0.244042
9.822430 36.950851 0.304767
10.136253 36.950851 0.389825
10.450075 36.950851 0.471515
10.763899 36.950851 0.560241
11.077723 36.950851 0.662115
11.391544 36.950851 0.764878
11.705368 36.950851 0.880397
12.019190 36.950851 1.008259
12.333014 36.950851 1.130661
12.646837 36.950851 1.241690
12.960659 36.950851 1.344656
13.274483 36.950851 1.420576
13.588306 36.950851 1.495078
13.902128 36.950851 1.544083
14.215952 36.950851 1.569605
14.529776 36.950851 1.571366
14.843597 36.950851 1.573529
15.157421 36.950851 1.552443
15.471243 36.950851 1.518214
15.785067 36.950851 1.456758
16.098890 36.950851 1.406747
16.412712 36.950851 1.361297
16.726536 36.950851 1.312427
17.040359 36.950851 1.268615
17.354181 36.950851 1.249382
17.668005 36.950851 1.252094
17.981829 36.950851 1.263790
18.295650 36.950851 1.277623
18.609474 36.950851 1.320304
18.923298 36.950851 1.318488
19.237120 36.950851 0.000000
-6.810190 36.637028 0.000000
-6.496367 36.637028 0.000000
-6.182544 36.637028 0.007158
-5.868721 36.637028 0.006464
-5.554898 36.637028 0.006484
-5.241075 36.637028 0.006359
-4.927252 36.637028 0.006404
-4.613429 36.637028 0.006393
-4.299606 36.637028 0.006380
-3.985783 36.637028 0.006324
-3.671960 36.637028 0.006354
-3.358137 36.637028 0.006468
-3.044314 36.637028 0.006504
-2.730491 36.637028 0.006493
-2.416668 36.637028 0.006481
-2.102845 36.637028 0.006475
-1.789022 36.637028 0.006601
-1.475199 36.637028 0.006654
-1.161376 36.637028 0.006690
-0.847553 36.637028 0.006606
-0.533730 36.637028 0.006626
-0.219907 36.637028 0.006773
0.093916 36.637028 0.006898
0.407739 36.637028 0.007012
0.721562 36.637028 0.007257
1.035385 36.637028 0.007546
1.349208 36.637028 0.007763
1.663032 36.637028 0.007946
1.976854 36.637028 0.008166
2.290677 36.637028 0.008660
2.604500 36.637028 0.009268
2.918324 36.637028 0.009817
3.232146 36.637028 0.010431
3.545969 36.637028 0.011106
3.859793 36.637028 0.011901
4.173615 36.637028 0.013015
4.487438 36.637028 0.014386
4.801261 36.637028 0.016030
5.115085 36.637028 0.017919
5.428907 36.637028 0.020086
5.742730 36.637028 0.022779
6.056554 36.637028 0.026073
6.370377 36.637028 0.030122
6.684199 36.637028 0.034752
6.998022 36.637028 0.041185
7.311846 36.637028 0.049684
7.625669 36.637028 0.061131
7.939491 36.637028 0.076177
8.253315 36.637028 0.094561
8.567138 36.637028 0.118698
8.880960 36.637028 0.150012
9.194784 36.637028 0.191585
9.508606 36.637028 0.243963
9.822430 36.637028 0.302098
10.136253 36.637028 0.377159
10.450075 36.637028 0.468474
10.763899 36.637028 0.559301
11.077723 36.637028 0.664485
11.391544 36.637028 0.768191
11.705368 36.637028 0.882258
12.019190 36.637028 1.010012
12.333014 36.637028 1.131192
12.646837 36.637028 1.244473
12.960659 36.637028 1.339296
13.274483 36.637028 1.416200
13.588306 36.637028 1.493288
13.902128 36.637028 1.550301
14.215952 36.637028 1.581887
14.529776 36.637028 1.584677
14.843597 36.637028 1.582932
15.157421 36.637028 1.553080
15.471243 36.637028 1.513587
15.785067 36.637028 1.458641
16.098890 36.637028 1.414617
16.412712 36.637028 1.357541
16.726536 36.637028 1.313876
17.040359 36.637028 1.267767
17.354181 36.637028 1.241619
17.668005 36.637028 1.258079
17.981829 36.637028 1.261143
18.295650 36.637028 1.278440
18.609474 36.637028 1.318905
18.923298 36.637028 1.295012
19.237120 36.637028 0.000000
-6.810190 36.323204 0.000000
-6.496367 36.323204 0.000000
-6.182544 36.323204 0.007046
-5.868721 36.323204 0.006395
-5.554898 36.323204 0.006448
-5.241075 36.323204 0.006349
-4.927252 36.323204 0.006442
-4.613429 36.323204 0.006397
-4.299606 36.323204 0.006209
-3.985783 36.323204 0.006234
-3.671960 36.323204 0.006263
-3.358137 36.323204 0.006332
-3.044314 36.323204 0.006390
-2.730491 36.323204 0.006372
-2.416668 36.323204 0.006362
-2.102845 36.323204 0.006373
-1.789022 36.323204 0.006462
-1.475199 36.323204 0.006465
-1.161376 36.323204 0.006555
-0.847553 36.323204 0.006586
-0.533730 36.323204 0.006605
-0.219907 36.323204 0.006699
0.093916 36.323204 0.006774
0.407739 36.323204 0.006904
0.721562 36.323204 0.007174
1.035385 36.323204 0.007428
1.349208 36.323204 0.007686
1.663032 36.323204 0.007868
1.976854 36.323204 0.008144
2.290677 36.323204 0.008568
2.604500 36.323204 0.009116
2.918324 36.323204 0.009662
3.232146 36.323204 0.010389
3.545969 36.323204 0.011099
3.859793 36.323204 0.011889
4.173615 36.323204 0.012948
4.487438 36.323204 0.014247
4.801261 36.323204 0.015867
5.115085 36.323204 0.017776
5.428907 36.323204 0.020048
5.742730 36.323204 0.022731
6.056554 36.323204 0.026057
6.370377 36.323204 0.030103
6.684199 36.323204 0.034588
6.998022 36.323204 0.041013
7.311846 36.323204 0.049425
7.625669 36.323204 0.060322
7.939491 36.323204 0.075285
8.253315 36.323204 0.094794
8.567138 36.323204 0.118698
8.880960 36.323204 0.152234
9.194784 36.323204 0.193716
9.508606 36.323204 0.247265
9.822430 36.323204 0.307198
10.136253 36.323204 0.381776
10.450075 36.323204 0.476019
10.763899 36.323204 0.563501
11.077723 36.323204 0.664999
11.391544 36.323204 0.775439
11.705368 36.323204 0.888392
12.019190 36.323204 1.007717
12.333014 36.323204 1.123616
12.646837 36.323204 1.229912
12.960659 36.323204 1.333978
13.274483 36.323204 1.422560
13.588306 36.323204 1.501858
13.902128 36.323204 1.549001
14.215952 36.323204 1.582381
14.529776 36.323204 1.595588
14.843597 36.323204 1.586333
15.157421 36.323204 1.541662
15.471243 36.323204 1.504813
15.785067 36.323204 1.459397
16.098890 36.323204 1.413517
16.412712 36.323204 1.356676
16.726536 36.323204 1.312666
17.040359 36.323204 1.264534
17.354181 36.323204 1.242529
17.668005 36.323204 1.251036
17.981829 36.323204 1.258968
18.295650 36.323204 1.284231
18.609474 36.323204 1.325476
18.923298 36.323204 1.289681
19.237120 36.323204 0.000000
-6.810190 36.009380 0.000000
-6.496367 36.009380 0.000000
-6.182544 36.009380 0.006992
-5.868721 36.009380 0.006336
-5.554898 36.009380 0.006384
-5.241075 36.009380 0.006346
-4.927252 36.009380 0.006419
-4.613429 36.009380 0.006304
-4.299606 36.009380 0.006143
-3.985783 36.009380 0.006144
-3.671960 36.009380 0.006203
-3.358137 36.009380 0.006219
-3.044314 36.009380 0.006215
-2.730491 36.009380 0.006218
-2.416668 36.009380 0.006242
-2.102845 36.009380 0.006268
-1.789022 36.009380 0.006346
-1.475199 36.009380 0.006332
-1.161376 36.009380 0.006384
-0.847553 36.009380 0.006511
-0.533730 36.009380 0.006567
-0.219907 36.009380 0.006614
0.093916 36.009380 0.006672
0.407739 36.009380 0.006819
0.721562 36.009380 0.007036
1.035385 36.009380 0.007280
1.349208 36.009380 0.007565
1.663032 36.009380 0.007803
1.976854 36.009380 0.008125
2.290677 36.009380 0.008492
2.604500 36.009380 0.008986
2.918324 36.009380 0.009564
3.232146 36.009380 0.010298
3.545969 36.009380 0.011083
3.859793 36.009380 0.011905
4.173615 36.009380 0.012905
4.487438 36.009380 0.014122
4.801261 36.009380 0.015706
5.115085 36.009380 0.017583
5.428907 36.009380 0.019956
5.742730 36.009380 0.022628
6.056554 36.009380 0.026001
6.370377 36.009380 0.029900
6.684199 36.009380 0.034632
6.998022 36.009380 0.041015
7.311846 36.009380 0.049492
7.625669 36.009380 0.059964
7.939491 36.009380 0.073971
8.253315 36.009380 0.093907
8.567138 36.009380 0.118214
8.880960 36.009380 0.152825
9.194784 36.009380 0.194196
9.508606 36.009380 0.249861
9.822430 36.009380 0.311531
10.136253 36.009380 0.383493
10.450075 36.009380 0.471126
10.763899 36.009380 0.561497
11.077723 36.009380 0.671302
11.391544 36.009380 0.773738
11.705368 36.009380 0.890919
12.019190 36.009380 1.011801
12.333014 36.009380 1.129975
12.646837 36.009380 1.225609
12.960659 36.009380 1.317558
13.274483 36.009380 1.421407
13.588306 36.009380 1.505801
13.902128 36.009380 1.545499
14.215952 36.009380 1.576970
14.529776 36.009380 1.589843
14.843597 36.009380 1.571496
15.157421 36.009380 1.533721
15.471243 36.009380 1.499420
15.785067 36.009380 1.458972
16.098890 36.009380 1.412918
16.412712 36.009380 1.356086
16.726536 36.009380 1.306824
17.040359 36.009380 1.269044
17.354181 36.009380 1.249895
17.668005 36.009380 1.252918
17.981829 36.009380 1.264019
18.295650 36.009380 1.288218
18.609474 36.009380 1.333833
18.923298 36.009380 1.291985
19.237120 36.009380 0.000000
-6.810190 35.695557 0.000000
-6.496367 35.695557 0.000000
-6.182544 35.695557 0.007018
-5.868721 35.695557 0.006299
-5.554898 35.695557 0.006349
-5.241075 35.695557 0.006301
-4.927252 35.695557 0.006292
-4.613429 35.695557 0.006224
-4.299606 35.695557 0.006150
-3.985783 35.695557 0.006178
-3.671960 35.695557 0.006210
-3.358137 35.695557 0.006182
-3.044314 35.695557 0.006135
-2.730491 35.695557 0.006095
-2.416668 35.695557 0.006182
-2.102845 35.695557 0.006185
-1.789022 35.695557 0.006214
-1.475199 35.695557 0.006245
-1.161376 35.695557 0.006210
-0.847553 35.695557 0.006363
-0.533730 35.695557 0.006516
-0.219907 35.695557 0.006561
0.093916 35.695557 0.006605
0.407739 35.695557 0.006754
0.721562 35.695557 0.006920
1.035385 35.695557 0.007133
1.349208 35.695557 0.007451
1.663032 35.695557 0.007755
1.976854 35.695557 0.008088
2.290677 35.695557 0.008428
2.604500 35.695557 0.008860
2.918324 35.695557 0.009442
3.232146 35.695557 0.010137
3.545969 35.695557 0.010958
3.859793 35.695557 0.011840
4.173615 35.695557 0.012823
4.487438 35.695557 0.014024
4.801261 35.695557 0.015520
5.115085 35.695557 0.017379
5.428907 35.695557 0.019725
5.742730 35.695557 0.022440
6.056554 35.695557 0.025812
6.370377 35.695557 0.029569
6.684199 35.695557 0.034374
6.998022 35.695557 0.040739
7.311846 35.695557 0.049090
7.625669 35.695557 0.060426
7.939491 35.695557 0.074493
8.253315 35.695557 0.093694
8.567138 35.695557 0.118495
8.880960 35.695557 0.150062
9.194784 35.695557 0.193628
9.508606 35.695557 0.249584
9.822430 35.695557 0.306608
10.136253 35.695557 0.383411
10.450075 35.695557 0.471332
10.763899 35.695557 0.567756
11.077723 35.695557 0.672707
11.391544 35.695557 0.772890
11.705368 35.695557 0.890208
12.019190 35.695557 1.016498
12.333014 35.695557 1.145774
12.646837 35.695557 1.227136
12.960659 35.695557 1.321470
13.274483 35.695557 1.420682
13.588306 35.695557 1.503660
13.902128 35.695557 1.548835
14.215952 35.695557 1.574283
14.529776 35.695557 1.581772
14.843597 35.695557 1.565016
15.157421 35.695557 1.534946
15.471243 35.695557 1.499245
15.785067 35.695557 1.464847
16.098890 35.695557 1.413556
16.412712 35.695557 1.351979
16.726536 35.695557 1.297383
17.040359 35.695557 1.275659
17.354181 35.695557 1.260534
17.668005 35.695557 1.250924
17.981829 35.695557 1.269781
18.295650 35.695557 1.295716
18.609474 35.695557 1.342926
18.923298 35.695557 1.282434
19.237120 35.695557 0.000000
-6.810190 35.381737 0.000000
-6.496367 35.381737 0.000000
-6.182544 35.381737 0.007061
-5.868721 35.381737 0.006248
-5.554898 35.381737 0.006251
-5.241075 35.381737 0.006266
-4.927252 35.381737 0.006186
-4.613429 35.381737 0.006128
-4.299606 35.381737 0.006160
-3.985783 35.381737 0.006244
-3.671960 35.381737 0.006224
-3.358137 35.381737 0.006204
-3.044314 35.381737 0.006078
-2.730491 35.381737 0.006029
-2.416668 35.381737 0.006159
-2.102845 35.381737 0.006123
-1.789022 35.381737 0.006115
-1.475199 35.381737 0.006190
-1.161376 35.381737 0.006111
-0.847553 35.381737 0.006240
-0.533730 35.381737 0.006436
-0.219907 35.381737 0.006530
0.093916 35.381737 0.006581
0.407739 35.381737 0.006717
0.721562 35.381737 0.006815
1.035385 35.381737 0.006984
1.349208 35.381737 0.007301
1.663032 35.381737 0.007644
1.976854 35.381737 0.008058
2.290677 35.381737 0.008388
2.604500 35.381737 0.008809
2.918324 35.381737 0.009291
3.232146 35.381737 0.009974
3.545969 35.381737 0.010790
3.859793 35.381737 0.011759
4.173615 35.381737 0.012739
4.487438 35.381737 0.013880
4.801261 35.381737 0.015370
5.115085 35.381737 0.017243
5.428907 35.381737 0.019426
5.742730 35.381737 0.022162
6.056554 35.381737 0.025475
6.370377 35.381737 0.029419
6.684199 35.381737 0.034375
6.998022 35.381737 0.040677
7.311846 35.381737 0.049189
7.625669 35.381737 0.060607
7.939491 35.381737 0.075590
8.253315 35.381737 0.093653
8.567138 35.381737 0.117638
8.880960 35.381737 0.148120
9.194784 35.381737 0.192496
9.508606 35.381737 0.244740
9.822430 35.381737 0.309246
10.136253 35.381737 0.389169
10.450075 35.381737 0.465298
10.763899 35.381737 0.562007
11.077723 35.381737 0.663213
11.391544 35.381737 0.769162
11.705368 35.381737 0.890170
12.019190 35.381737 1.019329
12.333014 35.381737 1.141228
12.646837 35.381737 1.231011
12.960659 35.381737 1.332169
13.274483 35.381737 1.424427
13.588306 35.381737 1.509037
13.902128 35.381737 1.562719
14.215952 35.381737 1.574216
14.529776 35.381737 1.581024
14.843597 35.381737 1.559732
15.157421 35.381737 1.528248
15.471243 35.381737 1.500079
15.785067 35.381737 1.464394
16.098890 35.381737 1.411218
16.412712 35.381737 1.355034
16.726536 35.381737 1.290554
17.040359 35.381737 1.269384
17.354181 35.381737 1.257283
17.668005 35.381737 1.259269
17.981829 35.381737 1.270248
18.295650 35.381737 1.308368
18.609474 35.381737 1.364360
18.923298 35.381737 1.280165
19.237120 35.381737 0.000000
-6.810190 35.067913 0.000000
-6.496367 35.067913 0.000000
-6.182544 35.067913 0.007089
-5.868721 35.067913 0.006178
-5.554898 35.067913 0.006141
-5.241075 35.067913 0.006191
-4.927252 35.067913 0.006090
-4.613429 35.067913 0.006071
-4.299606 35.067913 0.006131
-3.985783 35.067913 0.006242
-3.671960 35.067913 0.006192
-3.358137 35.067913 0.006170
-3.044314 35.067913 0.005987
-2.730491 35.067913 0.005987
-2.416668 35.067913 0.006113
-2.102845 35.067913 0.006071
-1.789022 35.067913 0.006045
-1.475199 35.067913 0.006105
-1.161376 35.067913 0.006037
-0.847553 35.067913 0.006113
-0.533730 35.067913 0.006288
-0.219907 35.067913 0.006412
0.093916 35.067913 0.006514
0.407739 35.067913 0.006651
0.721562 35.067913 0.006749
1.035385 35.067913 0.006904
1.349208 35.067913 0.007151
1.663032 35.067913 0.007499
1.976854 35.067913 0.007915
2.290677 35.067913 0.008344
2.604500 35.067913 0.008754
2.918324 35.067913 0.009197
3.232146 35.067913 0.009880
3.545969 35.067913 0.010674
3.859793 35.067913 0.011694
4.173615 35.067913 0.012646
4.487438 35.067913 0.013760
4.801261 35.067913 0.015252
5.115085 35.067913 0.017047
5.428907 35.067913 0.019228
5.742730 35.067913 0.021920
6.056554 35.067913 0.025167
6.370377 35.067913 0.029430
6.684199 35.067913 0.034248
6.998022 35.067913 0.040532
7.311846 35.067913 0.049420
7.625669 35.067913 0.060501
7.939491 35.067913 0.075608
8.253315 35.067913 0.093567
8.567138 35.067913 0.117472
8.880960 35.067913 0.148078
9.194784 35.067913 0.191156
9.508606 35.067913 0.246954
9.822430 35.067913 0.303489
10.136253 35.067913 0.377727
10.450075 35.067913 0.467544
10.763899 35.067913 0.558453
11.077723 35.067913 0.663456
11.391544 35.067913 0.766179
11.705368 35.067913 0.887596
12.019190 35.067913 1.025070
12.333014 35.067913 1.131267
12.646837 35.067913 1.238522
12.960659 35.067913 1.343713
13.274483 35.067913 1.430603
13.588306 35.067913 1.511513
13.902128 35.067913 1.563479
14.215952 35.067913 1.577180
14.529776 35.067913 1.582434
14.843597 35.067913 1.558534
15.157421 35.067913 1.531119
15.471243 35.067913 1.501663
15.785067 35.067913 1.463180
16.098890 35.067913 1.420103
16.412712 35.067913 1.358275
16.726536 35.067913 1.284320
17.040359 35.067913 1.267487
17.354181 35.067913 1.261335
17.668005 35.067913 1.252543
17.981829 35.067913 1.264912
18.295650 35.067913 1.303803
18.609474 35.067913 1.363115
18.923298 35.067913 1.248581
19.237120 35.067913 0.000000
-6.810190 34.754089 0.000000
-6.496367 34.754089 0.004697
-6.182544 34.754089 0.007017
-5.868721 34.754089 0.006028
-5.554898 34.754089 0.006017
-5.241075 34.754089 0.006077
-4.927252 34.754089 0.006047
-4.613429 34.754089 0.005975
-4.299606 34.754089 0.006030
-3.985783 34.754089 0.006167
-3.671960 34.754089 0.006146
-3.358137 34.754089 0.006045
-3.044314 34.754089 0.005924
-2.730491 34.754089 0.005947
-2.416668 34.754089 0.006035
-2.102845 34.754089 0.005989
-1.789022 34.754089 0.005995
-1.475199 34.754089 0.006025
-1.161376 34.754089 0.006003
-0.847553 34.754089 0.006023
-0.533730 34.754089 0.006126
-0.219907 34.754089 0.006280
0.093916 34.754089 0.006425
0.407739 34.754089 0.006566
0.721562 34.754089 0.006681
1.035385 34.754089 0.006827
1.349208 34.754089 0.007031
1.663032 34.754089 0.007386
1.976854 34.754089 0.007809
2.290677 34.754089 0.008281
2.604500 34.754089 0.008696
2.918324 34.754089 0.009120
3.232146 34.754089 0.009764
3.545969 34.754089 0.010570
3.859793 34.754089 0.011631
4.173615 34.754089 0.012551
4.487438 34.754089 0.013637
4.801261 34.754089 0.015187
5.115085 34.754089 0.016974
5.428907 34.754089 0.019098
5.742730 34.754089 0.021711
6.056554 34.754089 0.024957
6.370377 34.754089 0.029266
6.684199 34.754089 0.034220
6.998022 34.754089 0.040808
7.311846 34.754089 0.049429
7.625669 34.754089 0.060001
7.939491 34.754089 0.075131
8.253315 34.754089 0.092884
8.567138 34.754089 0.117451
8.880960 34.754089 0.150042
9.194784 34.754089 0.190950
9.508606 34.754089 0.243872
9.822430 34.754089 0.300580
10.136253 34.754089 0.376825
10.450075 34.754089 0.463765
10.763899 34.754089 0.560194
11.077723 34.754089 0.658388
11.391544 34.754089 0.769728
11.705368 34.754089 0.896610
12.019190 34.754089 1.023967
12.333014 34.754089 1.127618
12.646837 34.754089 1.238307
12.960659 34.754089 1.345901
13.274483 34.754089 1.438080
13.588306 34.754089 1.517851
13.902128 34.754089 1.563284
14.215952 34.754089 1.581572
14.529776 34.754089 1.580702
14.843597 34.754089 1.560640
15.157421 34.754089 1.538643
15.471243 34.754089 1.503330
15.785067 34.754089 1.465144
16.098890 34.754089 1.430324
16.412712 34.754089 1.362962
16.726536 34.754089 1.295847
17.040359 34.754089 1.263816
17.354181 34.754089 1.255544
17.668005 34.754089 1.250667
17.981829 34.754089 1.274184
18.295650 34.754089 1.298881
18.609474 34.754089 1.350212
18.923298 34.754089 1.232550
19.237120 34.754089 0.000000
-6.810190 34.440266 0.000000
-6.496367 34.440266 0.002056
-6.182544 34.440266 0.006868
-5.868721 34.440266 0.005925
-5.554898 34.440266 0.005949
-5.241075 34.440266 0.006003
-4.927252 34.440266 0.006006
-4.613429 34.440266 0.005901
-4.299606 34.440266 0.005928
-3.985783 34.440266 0.006083
-3.671960 34.440266 0.006060
-3.358137 34.440266 0.005954
-3.044314 34.440266 0.005868
-2.730491 34.440266 0.005903
-2.416668 34.440266 0.005899
-2.102845 34.440266 0.005877
-1.789022 34.440266 0.005975
-1.475199 34.440266 0.005964
-1.161376 34.440266 0.005975
-0.847553 34.440266 0.005956
-0.533730 34.440266 0.006026
-0.219907 34.440266 0.006152
0.093916 34.440266 0.006314
0.407739 34.440266 0.006491
0.721562 34.440266 0.006580
1.035385 34.440266 0.006719
1.349208 34.440266 0.006936
1.663032 34.440266 0.007277
1.976854 34.440266 0.007726
2.290677 34.440266 0.008178
2.604500 34.440266 0.008623
2.918324 34.440266 0.009046
3.232146 34.440266 0.009667
3.545969 34.440266 0.010516
3.859793 34.440266 0.011506
4.173615 34.440266 0.012450
4.487438 34.440266 0.013598
4.801261 34.440266 0.015132
5.115085 34.440266 0.016911
5.428907 34.440266 0.019090
5.742730 34.440266 0.021723
6.056554 34.440266 0.024961
6.370377 34.440266 0.029198
6.684199 34.440266 0.034056
6.998022 34.440266 0.040616
7.311846 34.440266 0.048718
7.625669 34.440266 0.059260
7.939491 34.440266 0.073472
8.253315 34.440266 0.094115
8.567138 34.440266 0.118608
8.880960 34.440266 0.150592
9.194784 34.440266 0.193517
9.508606 34.440266 0.246237
9.822430 34.440266 0.302908
10.136253 34.440266 0.374812
10.450075 34.440266 0.466823
10.763899 34.440266 0.562670
11.077723 34.440266 0.659601
11.391544 34.440266 0.774120
11.705368 34.440266 0.901587
12.019190 34.440266 1.019912
12.333014 34.440266 1.131018
12.646837 34.440266 1.237710
12.960659 34.440266 1.347499
13.274483 34.440266 1.441942
13.588306 34.440266 1.518555
13.902128 34.440266 1.565125
14.215952 34.440266 1.574492
14.529776 34.440266 1.579718
14.843597 34.440266 1.557381
15.157421 34.440266 1.541926
15.471243 34.440266 1.510085
15.785067 34.440266 1.474194
16.098890 34.440266 1.431692
16.412712 34.440266 1.372691
16.726536 34.440266 1.308825
17.040359 34.440266 1.273051
17.354181 34.440266 1.252259
17.668005 34.440266 1.256925
17.981829 34.440266 1.273308
18.295650 34.440266 1.300037
18.609474 34.440266 1.357369
18.923298 34.440266 1.222918
19.237120 34.440266 0.000000
-6.810190 34.126442 0.000000
-6.496367 34.126442 0.002419
-6.182544 34.126442 0.006701
-5.868721 34.126442 0.005933
-5.554898 34.126442 0.005966
-5.241075 34.126442 0.005996
-4.927252 34.126442 0.005986
-4.613429 34.126442 0.005886
-4.299606 34.126442 0.005921
-3.985783 34.126442 0.006006
-3.671960 34.126442 0.005985
-3.358137 34.126442 0.005871
-3.044314 34.126442 0.005844
-2.730491 34.126442 0.005817
-2.416668 34.126442 0.005750
-2.102845 34.126442 0.005770
-1.789022 34.126442 0.005914
-1.475199 34.126442 0.005938
-1.161376 34.126442 0.005901
-0.847553 34.126442 0.005862
-0.533730 34.126442 0.005914
-0.219907 34.126442 0.006038
0.093916 34.126442 0.006269
0.407739 34.126442 0.006436
0.721562 34.126442 0.006492
1.035385 34.126442 0.006628
1.349208 34.126442 0.006845
1.663032 34.126442 0.007212
1.976854 34.126442 0.007707
2.290677 34.126442 0.008130
2.604500 34.126442 0.008503
2.918324 34.126442 0.008984
3.232146 34.126442 0.009625
3.545969 34.126442 0.010447
3.859793 34.126442 0.011404
4.173615 34.126442 0.012406
4.487438 34.126442 0.013558
4.801261 34.126442 0.015072
5.115085 34.126442 0.016750
5.428907 34.126442 0.019037
5.742730 34.126442 0.021596
6.056554 34.126442 0.024860
6.370377 34.126442 0.028916
6.684199 34.126442 0.033999
6.998022 34.126442 0.040431
7.311846 34.126442 0.048474
7.625669 34.126442 0.058698
7.939491 34.126442 0.072718
8.253315 34.126442 0.092660
8.567138 34.126442 0.117688
8.880960 34.126442 0.151081
9.194784 34.126442 0.193371
9.508606 34.126442 0.246731
9.822430 34.126442 0.305509
10.136253 34.126442 0.381078
10.450075 34.126442 0.470201
10.763899 34.126442 0.559571
11.077723 34.126442 0.658106
11.391544 34.126442 0.776108
11.705368 34.126442 0.900731
12.019190 34.126442 1.025012
12.333014 34.126442 1.139486
12.646837 34.126442 1.253838
12.960659 34.126442 1.350386
13.274483 34.126442 1.438858
13.588306 34.126442 1.511730
13.902128 34.126442 1.561077
14.215952 34.126442 1.580171
14.529776 34.126442 1.573600
14.843597 34.126442 1.561183
15.157421 34.126442 1.548932
15.471243 34.126442 1.509663
15.785067 34.126442 1.475082
16.098890 34.126442 1.425691
16.412712 34.126442 1.380724
16.726536 34.126442 1.322443
17.040359 34.126442 1.275793
17.354181 34.126442 1.253873
17.668005 34.126442 1.252542
17.981829 34.126442 1.268731
18.295650 34.126442 1.298658
18.609474 34.126442 1.362902
18.923298 34.126442 1.214003
19.237120 34.126442 0.000000
-6.810190 33.812622 0.000000
-6.496367 33.812622 0.003291
-6.182544 33.812622 0.006661
-5.868721 33.812622 0.005996
-5.554898 33.812622 0.006062
-5.241075 33.812622 0.006010
-4.927252 33.812622 0.005972
-4.613429 33.812622 0.005935
-4.299606 33.812622 0.005966
-3.985783 33.812622 0.006000
-3.671960 33.812622 0.005918
-3.358137 33.812622 0.005832
-3.044314 33.812622 0.005802
-2.730491 33.812622 0.005749
-2.416668 33.812622 0.005685
-2.102845 33.812622 0.005671
-1.789022 33.812622 0.005860
-1.475199 33.812622 0.005904
-1.161376 33.812622 0.005813
-0.847553 33.812622 0.005728
-0.533730 33.812622 0.005800
-0.219907 33.812622 0.005989
0.093916 33.812622 0.006205
0.407739 33.812622 0.006369
0.721562 33.812622 0.006461
1.035385 33.812622 0.006622
1.349208 33.812622 0.006843
1.663032 33.812622 0.007206
1.976854 33.812622 0.007643
2.290677 33.812622 0.008011
2.604500 33.812622 0.008395
2.918324 33.812622 0.008892
3.232146 33.812622 0.009592
3.545969 33.812622 0.010399
3.859793 33.812622 0.011327
4.173615 33.812622 0.012355
4.487438 33.812622 0.013527
4.801261 33.812622 0.014957
5.115085 33.812622 0.016698
5.428907 33.812622 0.018886
5.742730 33.812622 0.021457
6.056554 33.812622 0.024691
6.370377 33.812622 0.028753
6.684199 33.812622 0.033822
6.998022 33.812622 0.040435
7.311846 33.812622 0.048689
7.625669 33.812622 0.059190
7.939491 33.812622 0.073076
8.253315 33.812622 0.092329
8.567138 33.812622 0.116793
8.880960 33.812622 0.149557
9.194784 33.812622 0.193138
9.508606 33.812622 0.248565
9.822430 33.812622 0.305788
10.136253 33.812622 0.383502
10.450075 33.812622 0.473407
10.763899 33.812622 0.569691
11.077723 33.812622 0.661736
11.391544 33.812622 0.763776
11.705368 33.812622 0.898825
12.019190 33.812622 1.028237
12.333014 33.812622 1.149268
12.646837 33.812622 1.253631
12.960659 33.812622 1.356932
13.274483 33.812622 1.444022
13.588306 33.812622 1.509911
13.902128 33.812622 1.562751
14.215952 33.812622 1.592788
14.529776 33.812622 1.586630
14.843597 33.812622 1.575476
15.157421 33.812622 1.544093
15.471243 33.812622 1.516552
15.785067 33.812622 1.473722
16.098890 33.812622 1.421449
16.412712 33.812622 1.375848
16.726536 33.812622 1.327050
17.040359 33.812622 1.280324
17.354181 33.812622 1.255152
17.668005 33.812622 1.251640
17.981829 33.812622 1.264648
18.295650 33.812622 1.303070
18.609474 33.812622 1.368550
18.923298 33.812622 1.190177
19.237120 33.812622 0.000000
-6.810190 33.498795 0.000000
-6.496367 33.498795 0.003283
-6.182544 33.498795 0.006706
-5.868721 33.498795 0.006059
-5.554898 33.498795 0.006139
-5.241075 33.498795 0.006054
-4.927252 33.498795 0.005975
-4.613429 33.498795 0.005955
-4.299606 33.498795 0.005989
-3.985783 33.498795 0.005966
-3.671960 33.498795 0.005851
-3.358137 33.498795 0.005771
-3.044314 33.498795 0.005726
-2.730491 33.498795 0.005721
-2.416668 33.498795 0.005657
-2.102845 33.498795 0.005654
-1.789022 33.498795 0.005816
-1.475199 33.498795 0.005836
-1.161376 33.498795 0.005725
-0.847553 33.498795 0.005610
-0.533730 33.498795 0.005700
-0.219907 33.498795 0.005955
0.093916 33.498795 0.006121
0.407739 33.498795 0.006273
0.721562 33.498795 0.006448
1.035385 33.498795 0.006674
1.349208 33.498795 0.006891
1.663032 33.498795 0.007187
1.976854 33.498795 0.007560
2.290677 33.498795 0.007908
2.604500 33.498795 0.008307
2.918324 33.498795 0.008837
3.232146 33.498795 0.009554
3.545969 33.498795 0.010320
3.859793 33.498795 0.011252
4.173615 33.498795 0.012278
4.487438 33.498795 0.013463
4.801261 33.498795 0.014887
5.115085 33.498795 0.016660
5.428907 33.498795 0.018874
5.742730 33.498795 0.021436
6.056554 33.498795 0.024654
6.370377 33.498795 0.028719
6.684199 33.498795 0.033637
6.998022 33.498795 0.040455
7.311846 33.498795 0.048937
7.625669 33.498795 0.060346
7.939491 33.498795 0.073787
8.253315 33.498795 0.092817
8.567138 33.498795 0.116945
8.880960 33.498795 0.149682
9.194784 33.498795 0.191678
9.508606 33.498795 0.244154
9.822430 33.498795 0.306259
10.136253 33.498795 0.385860
10.450075 33.498795 0.473227
10.763899 33.498795 0.567092
11.077723 33.498795 0.658215
11.391544 33.498795 0.761281
11.705368 33.498795 0.900766
12.019190 33.498795 1.029605
12.333014 33.498795 1.147770
12.646837 33.498795 1.258517
12.960659 33.498795 1.360243
13.274483 33.498795 1.448594
13.588306 33.498795 1.515246
13.902128 33.498795 1.563074
14.215952 33.498795 1.600526
14.529776 33.498795 1.600366
14.843597 33.498795 1.581128
15.157421 33.498795 1.556161
15.471243 33.498795 1.516152
15.785067 33.498795 1.477157
16.098890 33.498795 1.428722
16.412712 33.498795 1.382008
16.726536 33.498795 1.322577
17.040359 33.498795 1.282298
17.354181 33.498795 1.257727
17.668005 33.498795 1.250512
17.981829 33.498795 1.268005
18.295650 33.498795 1.310678
18.609474 33.498795 1.373943
18.923298 33.498795 1.180684
19.237120 33.498795 0.000000
-6.810190 33.184975 0.000000
-6.496367 33.184975 0.003353
-6.182544 33.184975 0.006835
-5.868721 33.184975 0.006057
-5.554898 33.184975 0.006161
-5.241075 33.184975 0.006078
-4.927252 33.184975 0.005949
-4.613429 33.184975 0.005893
-4.299606 33.184975 0.005917
-3.985783 33.184975 0.005892
-3.671960 33.184975 0.005760
-3.358137 33.184975 0.005734
-3.044314 33.184975 0.005708
-2.730491 33.184975 0.005722
-2.416668 33.184975 0.005691
-2.102845 33.184975 0.005689
-1.789022 33.184975 0.005763
-1.475199 33.184975 0.005754
-1.161376 33.184975 0.005673
-0.847553 33.184975 0.005590
-0.533730 33.184975 0.005699
-0.219907 33.184975 0.005923
0.093916 33.184975 0.006021
0.407739 33.184975 0.006198
0.721562 33.184975 0.006433
1.035385 33.184975 0.006712
1.349208 33.184975 0.006898
1.663032 33.184975 0.007141
1.976854 33.184975 0.007445
2.290677 33.184975 0.007780
2.604500 33.184975 0.008250
2.918324 33.184975 0.008809
3.232146 33.184975 0.009515
3.545969 33.184975 0.010224
3.859793 33.184975 0.011166
4.173615 33.184975 0.012245
4.487438 33.184975 0.013456
4.801261 33.184975 0.014904
5.115085 33.184975 0.016647
5.428907 33.184975 0.018766
5.742730 33.184975 0.021313
6.056554 33.184975 0.024613
6.370377 33.184975 0.028651
6.684199 33.184975 0.033757
6.998022 33.184975 0.039921
7.311846 33.184975 0.049014
7.625669 33.184975 0.059831
7.939491 33.184975 0.074461
8.253315 33.184975 0.092852
8.567138 33.184975 0.117053
8.880960 33.184975 0.149566
9.194784 33.184975 0.189427
9.508606 33.184975 0.244510
9.822430 33.184975 0.308340
10.136253 33.184975 0.385339
10.450075 33.184975 0.470245
10.763899 33.184975 0.562080
11.077723 33.184975 0.654736
11.391544 33.184975 0.765677
11.705368 33.184975 0.899673
12.019190 33.184975 1.029687
12.333014 33.184975 1.146126
12.646837 33.184975 1.261861
12.960659 33.184975 1.367670
13.274483 33.184975 1.454658
13.588306 33.184975 1.522635
13.902128 33.184975 1.574119
14.215952 33.184975 1.605936
14.529776 33.184975 1.609186
14.843597 33.184975 1.587251
15.157421 33.184975 1.561604
15.471243 33.184975 1.518107
15.785067 33.184975 1.482704
16.098890 33.184975 1.441106
16.412712 33.184975 1.394491
16.726536 33.184975 1.329217
17.040359 33.184975 1.282990
17.354181 33.184975 1.253761
17.668005 33.184975 1.255947
17.981829 33.184975 1.276246
18.295650 33.184975 1.317667
18.609474 33.184975 1.378301
18.923298 33.184975 1.164909
19.237120 33.184975 0.000000
-6.810190 32.871151 0.000000
-6.496367 32.871151 0.003766
-6.182544 32.871151 0.006834
-5.868721 32.871151 0.005979
-5.554898 32.871151 0.006071
-5.241075 32.871151 0.006001
-4.927252 32.871151 0.005869
-4.613429 32.871151 0.005798
-4.299606 32.871151 0.005794
-3.985783 32.871151 0.005785
-3.671960 32.871151 0.005707
-3.358137 32.871151 0.005691
-3.044314 32.871151 0.005684
-2.730491 32.871151 0.005702
-2.416668 32.871151 0.005708
-2.102845 32.871151 0.005728
-1.789022 32.871151 0.005731
-1.475199 32.871151 0.005675
-1.161376 32.871151 0.005663
-0.847553 32.871151 0.005620
-0.533730 32.871151 0.005738
-0.219907 32.871151 0.005878
0.093916 32.871151 0.005963
0.407739 32.871151 0.006129
0.721562 32.871151 0.006393
1.035385 32.871151 0.006673
1.349208 32.871151 0.006888
1.663032 32.871151 0.007095
1.976854 32.871151 0.007343
2.290677 32.871151 0.007697
2.604500 32.871151 0.008231
2.918324 32.871151 0.008776
3.232146 32.871151 0.009430
3.545969 32.871151 0.010153
3.859793 32.871151 0.011099
4.173615 32.871151 0.012199
4.487438 32.871151 0.013444
4.801261 32.871151 0.014887
5.115085 32.871151 0.016601
5.428907 32.871151 0.018687
5.742730 32.871151 0.021316
6.056554 32.871151 0.024635
6.370377 32.871151 0.028553
6.684199 32.871151 0.033536
6.998022 32.871151 0.039927
7.311846 32.871151 0.049067
7.625669 32.871151 0.059945
7.939491 32.871151 0.074580
8.253315 32.871151 0.093924
8.567138 32.871151 0.116769
8.880960 32.871151 0.149449
9.194784 32.871151 0.192111
9.508606 32.871151 0.245504
9.822430 32.871151 0.309259
10.136253 32.871151 0.383235
10.450075 32.871151 0.471421
10.763899 32.871151 0.567650
11.077723 32.871151 0.661949
11.391544 32.871151 0.767395
11.705368 32.871151 0.900615
12.019190 32.871151 1.035960
12.333014 32.871151 1.157828
12.646837 32.871151 1.265132
12.960659 32.871151 1.371167
13.274483 32.871151 1.460075
13.588306 32.871151 1.532391
13.902128 32.871151 1.577216
14.215952 32.871151 1.596876
14.529776 32.871151 1.609949
14.843597 32.871151 1.590440
15.157421 32.871151 1.554597
15.471243 32.871151 1.514108
15.785067 32.871151 1.479311
16.098890 32.871151 1.441454
16.412712 32.871151 1.388147
16.726536 32.871151 1.331502
17.040359 32.871151 1.285023
17.354181 32.871151 1.256440
17.668005 32.871151 1.252270
17.981829 32.871151 1.281971
18.295650 32.871151 1.315458
18.609474 32.871151 1.370205
18.923298 32.871151 1.128804
19.237120 32.871151 0.000000
-6.810190 32.557327 0.000000
-6.496367 32.557327 0.004429
-6.182544 32.557327 0.006732
-5.868721 32.557327 0.005879
-5.554898 32.557327 0.005928
-5.241075 32.557327 0.005913
-4.927252 32.557327 0.005837
-4.613429 32.557327 0.005715
-4.299606 32.557327 0.005664
-3.985783 32.557327 0.005705
-3.671960 32.557327 0.005663
-3.358137 32.557327 0.005673
-3.044314 32.557327 0.005642
-2.730491 32.557327 0.005657
-2.416668 32.557327 0.005698
-2.102845 32.557327 0.005710
-1.789022 32.557327 0.005661
-1.475199 32.557327 0.005604
-1.161376 32.557327 0.005640
-0.847553 32.557327 0.005638
-0.533730 32.557327 0.005781
-0.219907 32.557327 0.005879
0.093916 32.557327 0.005962
0.407739 32.557327 0.006094
0.721562 32.557327 0.006319
1.035385 32.557327 0.006607
1.349208 32.557327 0.006882
1.663032 32.557327 0.007113
1.976854 32.557327 0.007325
2.290677 32.557327 0.007658
2.604500 32.557327 0.008198
2.918324 32.557327 0.008776
3.232146 32.557327 0.009390
3.545969 32.557327 0.010079
3.859793 32.557327 0.010931
4.173615 32.557327 0.012127
4.487438 32.557327 0.013432
4.801261 32.557327 0.014854
5.115085 32.557327 0.016504
5.428907 32.557327 0.018590
5.742730 32.557327 0.021274
6.056554 32.557327 0.024439
6.370377 32.557327 0.028500
6.684199 32.557327 0.033276
6.998022 32.557327 0.039558
7.311846 32.557327 0.048439
7.625669 32.557327 0.058543
7.939491 32.557327 0.073421
8.253315 32.557327 0.093290
8.567138 32.557327 0.117656
8.880960 32.557327 0.150257
9.194784 32.557327 0.192450
9.508606 32.557327 0.245263
9.822430 32.557327 0.306955
10.136253 32.557327 0.389971
10.450075 32.557327 0.473968
10.763899 32.557327 0.564677
11.077723 32.557327 0.665850
11.391544 32.557327 0.780956
11.705368 32.557327 0.908335
12.019190 32.557327 1.039354
12.333014 32.557327 1.167506
12.646837 32.557327 1.273601
12.960659 32.557327 1.372366
13.274483 32.557327 1.460805
13.588306 32.557327 1.536316
13.902128 32.557327 1.576559
14.215952 32.557327 1.601766
14.529776 32.557327 1.603457
14.843597 32.557327 1.589121
15.157421 32.557327 1.556776
15.471243 32.557327 1.515934
15.785067 32.557327 1.478843
16.098890 32.557327 1.442741
16.412712 32.557327 1.382486
16.726536 32.557327 1.336900
17.040359 32.557327 1.298976
17.354181 32.557327 1.263232
17.668005 32.557327 1.260612
17.981829 32.557327 1.284766
18.295650 32.557327 1.312217
18.609474 32.557327 1.357983
18.923298 32.557327 1.099594
19.237120 32.557327 0.000000
-6.810190 32.243507 0.000000
-6.496367 32.243507 0.005341
-6.182544 32.243507 0.006627
-5.868721 32.243507 0.005833
-5.554898 32.243507 0.005861
-5.241075 32.243507 0.005887
-4.927252 32.243507 0.005854
-4.613429 32.243507 0.005668
-4.299606 32.243507 0.005597
-3.985783 32.243507 0.005632
-3.671960 32.243507 0.005660
-3.358137 32.243507 0.005651
-3.044314 32.243507 0.005581
-2.730491 32.243507 0.005610
-2.416668 32.243507 0.005629
-2.102845 32.243507 0.005653
-1.789022 32.243507 0.005599
-1.475199 32.243507 0.005540
-1.161376 32.243507 0.005556
-0.847553 32.243507 0.005613
-0.533730 32.243507 0.005743
-0.219907 32.243507 0.005865
0.093916 32.243507 0.005999
0.407739 32.243507 0.006075
0.721562 32.243507 0.006265
1.035385 32.243507 0.006524
1.349208 32.243507 0.006843
1.663032 32.243507 0.007106
1.976854 32.243507 0.007331
2.290677 32.243507 0.007662
2.604500 32.243507 0.008120
2.918324 32.243507 0.008709
3.232146 32.243507 0.009309
3.545969 32.243507 0.010009
3.859793 32.243507 0.010856
4.173615 32.243507 0.012025
4.487438 32.243507 0.013337
4.801261 32.243507 0.014703
5.115085 32.243507 0.016388
5.428907 32.243507 0.018550
5.742730 32.243507 0.021129
6.056554 32.243507 0.024247
6.370377 32.243507 0.028355
6.684199 32.243507 0.033114
6.998022 32.243507 0.039257
7.311846 32.243507 0.047609
7.625669 32.243507 0.058681
7.939491 32.243507 0.073158
8.253315 32.243507 0.091936
8.567138 32.243507 0.117552
8.880960 32.243507 0.149732
9.194784 32.243507 0.193744
9.508606 32.243507 0.246809
9.822430 32.243507 0.309085
10.136253 32.243507 0.389517
10.450075 32.243507 0.477783
10.763899 32.243507 0.572866
11.077723 32.243507 0.671456
11.391544 32.243507 0.780100
11.705368 32.243507 0.904150
12.019190 32.243507 1.043948
12.333014 32.243507 1.175478
12.646837 32.243507 1.280244
12.960659 32.243507 1.370643
13.274483 32.243507 1.468489
13.588306 32.243507 1.554334
13.902128 32.243507 1.596160
14.215952 32.243507 1.613704
14.529776 32.243507 1.613717
14.843597 32.243507 1.602178
15.157421 32.243507 1.568641
15.471243 32.243507 1.522758
15.785067 32.243507 1.484360
16.098890 32.243507 1.442497
16.412712 32.243507 1.393975
16.726536 32.243507 1.350577
17.040359 32.243507 1.295747
17.354181 32.243507 1.272740
17.668005 32.243507 1.268105
17.981829 32.243507 1.286087
18.295650 32.243507 1.310944
18.609474 32.243507 1.352189
18.923298 32.243507 1.059969
19.237120 32.243507 0.000000
-6.810190 31.929682 0.000000
-6.496367 31.929682 0.006547
-6.182544 31.929682 0.006555
-5.868721 31.929682 0.005822
-5.554898 31.929682 0.005851
-5.241075 31.929682 0.005883
-4.927252 31.929682 0.005831
-4.613429 31.929682 0.005669
-4.299606 31.929682 0.005578
-3.985783 31.929682 0.005603
-3.671960 31.929682 0.005656
-3.358137 31.929682 0.005604
-3.044314 31.929682 0.005501
-2.730491 31.929682 0.005547
-2.416668 31.929682 0.005562
-2.102845 31.929682 0.005572
-1.789022 31.929682 0.005529
-1.475199 31.929682 0.005479
-1.161376 31.929682 0.005479
-0.847553 31.929682 0.005565
-0.533730 31.929682 0.005704
-0.219907 31.929682 0.005875
0.093916 31.929682 0.006002
0.407739 31.929682 0.006099
0.721562 31.929682 0.006239
1.035385 31.929682 0.006426
1.349208 31.929682 0.006755
1.663032 31.929682 0.007090
1.976854 31.929682 0.007332
2.290677 31.929682 0.007640
2.604500 31.929682 0.008101
2.918324 31.929682 0.008667
3.232146 31.929682 0.009247
3.545969 31.929682 0.009924
3.859793 31.929682 0.010795
4.173615 31.929682 0.011881
4.487438 31.929682 0.013178
4.801261 31.929682 0.014557
5.115085 31.929682 0.016316
5.428907 31.929682 0.018458
5.742730 31.929682 0.021038
6.056554 31.929682 0.024176
6.370377 31.929682 0.028117
6.684199 31.929682 0.033043
6.998022 31.929682 0.039364
7.311846 31.929682 0.047839
7.625669 31.929682 0.058664
7.939491 31.929682 0.073472
8.253315 31.929682 0.092740
8.567138 31.929682 0.117895
8.880960 31.929682 0.150981
9.194784 31.929682 0.191668
9.508606 31.929682 0.245013
9.822430 31.929682 0.310811
10.136253 31.929682 0.388439
10.450075 31.929682 0.475907
10.763899 31.929682 0.563170
11.077723 31.929682 0.663418
11.391544 31.929682 0.778922
11.705368 31.929682 0.907423
12.019190 31.929682 1.034289
12.333014 31.929682 1.173095
12.646837 31.929682 1.277963
12.960659 31.929682 1.371405
13.274483 31.929682 1.478492
13.588306 31.929682 1.560140
13.902128 31.929682 1.594069
14.215952 31.929682 1.616516
14.529776 31.929682 1.628251
14.843597 31.929682 1.616773
15.157421 31.929682 1.575990
15.471243 31.929682 1.532546
15.785067 31.929682 1.484396
16.098890 31.929682 1.449822
16.412712 31.929682 1.410215
16.726536 31.929682 1.362322
17.040359 31.929682 1.320554
17.354181 31.929682 1.289039
17.668005 31.929682 1.278201
17.981829 31.929682 1.294513
18.295650 31.929682 1.320806
18.609474 31.929682 1.339987
18.923298 31.929682 1.032629
19.237120 31.929682 0.000000
-6.810190 31.615858 0.000000
-6.496367 31.615858 0.007618
-6.182544 31.615858 0.006536
-5.868721 31.615858 0.005813
-5.554898 31.615858 0.005855
-5.241075 31.615858 0.005856
-4.927252 31.615858 0.005806
-4.613429 31.615858 0.005716
-4.299606 31.615858 0.005653
-3.985783 31.615858 0.005607
-3.671960 31.615858 0.005638
-3.358137 31.615858 0.005547
-3.044314 31.615858 0.005446
-2.730491 31.615858 0.005461
-2.416668 31.615858 0.005512
-2.102845 31.615858 0.005484
-1.789022 31.615858 0.005472
-1.475199 31.615858 0.005417
-1.161376 31.615858 0.005439
-0.847553 31.615858 0.005546
-0.533730 31.615858 0.005667
-0.219907 31.615858 0.005864
0.093916 31.615858 0.005994
0.407739 31.615858 0.006100
0.721562 31.615858 0.006195
1.035385 31.615858 0.006335
1.349208 31.615858 0.006667
1.663032 31.615858 0.007042
1.976854 31.615858 0.007350
2.290677 31.615858 0.007609
2.604500 31.615858 0.008074
2.918324 31.615858 0.008639
3.232146 31.615858 0.009211
3.545969 31.615858 0.009863
3.859793 31.615858 0.010743
4.173615 31.615858 0.011758
4.487438 31.615858 0.013004
4.801261 31.615858 0.014437
5.115085 31.615858 0.016214
5.428907 31.615858 0.018435
5.742730 31.615858 0.020966
6.056554 31.615858 0.023986
6.370377 31.615858 0.027876
6.684199 31.615858 0.032951
6.998022 31.615858 0.039142
7.311846 31.615858 0.047783
7.625669 31.615858 0.059230
7.939491 31.615858 0.074001
8.253315 31.615858 0.092488
8.567138 31.615858 0.116687
8.880960 31.615858 0.150377
9.194784 31.615858 0.191376
9.508606 31.615858 0.244050
9.822430 31.615858 0.307246
10.136253 31.615858 0.385195
10.450075 31.615858 0.481396
10.763899 31.615858 0.563071
11.077723 31.615858 0.666215
11.391544 31.615858 0.778147
11.705368 31.615858 0.913058
12.019190 31.615858 1.039510
12.333014 31.615858 1.166687
12.646837 31.615858 1.279227
12.960659 31.615858 1.384174
13.274483 31.615858 1.486401
13.588306 31.615858 1.561419
13.902128 31.615858 1.595488
14.215952 31.615858 1.615051
14.529776 31.615858 1.626171
14.843597 31.615858 1.619175
15.157421 31.615858 1.583667
15.471243 31.615858 1.534858
15.785067 31.615858 1.491155
16.098890 31.615858 1.469891
16.412712 31.615858 1.424118
16.726536 31.615858 1.372422
17.040359 31.615858 1.323271
17.354181 31.615858 1.298953
17.668005 31.615858 1.275913
17.981829 31.615858 1.300666
18.295650 31.615858 1.324694
18.609474 31.615858 1.348782
18.923298 31.615858 1.014154
19.237120 31.615858 0.000000
-6.810190 31.302036 0.000000
-6.496367 31.302036 0.008255
-6.182544 31.302036 0.006555
-5.868721 31.302036 0.005780
-5.554898 31.302036 0.005776
-5.241075 31.302036 0.005737
-4.927252 31.302036 0.005763
-4.613429 31.302036 0.005730
-4.299606 31.302036 0.005673
-3.985783 31.302036 0.005642
-3.671960 31.302036 0.005592
-3.358137 31.302036 0.005527
-3.044314 31.302036 0.005412
-2.730491 31.302036 0.005406
-2.416668 31.302036 0.005475
-2.102845 31.302036 0.005466
-1.789022 31.302036 0.005399
-1.475199 31.302036 0.005374
-1.161376 31.302036 0.005433
-0.847553 31.302036 0.005548
-0.533730 31.302036 0.005656
-0.219907 31.302036 0.005790
0.093916 31.302036 0.005919
0.407739 31.302036 0.006026
0.721562 31.302036 0.006121
1.035385 31.302036 0.006230
1.349208 31.302036 0.006559
1.663032 31.302036 0.007016
1.976854 31.302036 0.007327
2.290677 31.302036 0.007558
2.604500 31.302036 0.007976
2.918324 31.302036 0.008579
3.232146 31.302036 0.009107
3.545969 31.302036 0.009770
3.859793 31.302036 0.010695
4.173615 31.302036 0.011662
4.487438 31.302036 0.012858
4.801261 31.302036 0.014364
5.115085 31.302036 0.016222
5.428907 31.302036 0.018340
5.742730 31.302036 0.020737
6.056554 31.302036 0.023768
6.370377 31.302036 0.027753
6.684199 31.302036 0.032620
6.998022 31.302036 0.039018
7.311846 31.302036 0.047762
7.625669 31.302036 0.058911
7.939491 31.302036 0.074356
8.253315 31.302036 0.092210
8.567138 31.302036 0.115797
8.880960 31.302036 0.149542
9.194784 31.302036 0.192185
9.508606 31.302036 0.242557
9.822430 31.302036 0.306679
10.136253 31.302036 0.383362
10.450075 31.302036 0.478814
10.763899 31.302036 0.570056
11.077723 31.302036 0.671353
11.391544 31.302036 0.776627
11.705368 31.302036 0.909643
12.019190 31.302036 1.030863
12.333014 31.302036 1.164953
12.646837 31.302036 1.288776
12.960659 31.302036 1.385164
13.274483 31.302036 1.482065
13.588306 31.302036 1.559610
13.902128 31.302036 1.587136
14.215952 31.302036 1.610806
14.529776 31.302036 1.628169
14.843597 31.302036 1.623517
15.157421 31.302036 1.579945
15.471243 31.302036 1.533775
15.785067 31.302036 1.502935
16.098890 31.302036 1.483462
16.412712 31.302036 1.438054
16.726536 31.302036 1.385030
17.040359 31.302036 1.335888
17.354181 31.302036 1.295680
17.668005 31.302036 1.275771
17.981829 31.302036 1.293978
18.295650 31.302036 1.328517
18.609474 31.302036 1.357613
18.923298 31.302036 0.962595
19.237120 31.302036 0.000000
-6.810190 30.988213 0.000000
-6.496367 30.988213 0.008579
-6.182544 30.988213 0.006533
-5.868721 30.988213 0.005734
-5.554898 30.988213 0.005671
-5.241075 30.988213 0.005578
-4.927252 30.988213 0.005681
-4.613429 30.988213 0.005711
-4.299606 30.988213 0.005709
-3.985783 30.988213 0.005680
-3.671960 30.988213 0.005546
-3.358137 30.988213 0.005500
-3.044314 30.988213 0.005394
-2.730491 30.988213 0.005360
-2.416668 30.988213 0.005437
-2.102845 30.988213 0.005441
-1.789022 30.988213 0.005340
-1.475199 30.988213 0.005328
-1.161376 30.988213 0.005427
-0.847553 30.988213 0.005549
-0.533730 30.988213 0.005639
-0.219907 30.988213 0.005716
0.093916 30.988213 0.005836
0.407739 30.988213 0.005945
0.721562 30.988213 0.006039
1.035385 30.988213 0.006187
1.349208 30.988213 0.006452
1.663032 30.988213 0.006880
1.976854 30.988213 0.007221
2.290677 30.988213 0.007466
2.604500 30.988213 0.007877
2.918324 30.988213 0.008454
3.232146 30.988213 0.009005
3.545969 30.988213 0.009690
3.859793 30.988213 0.010606
4.173615 30.988213 0.011574
4.487438 30.988213 0.012726
4.801261 30.988213 0.014299
5.115085 30.988213 0.016103
5.428907 30.988213 0.018203
5.742730 30.988213 0.020587
6.056554 30.988213 0.023619
6.370377 30.988213 0.027607
6.684199 30.988213 0.032752
6.998022 30.988213 0.039371
7.311846 30.988213 0.047894
7.625669 30.988213 0.058769
7.939491 30.988213 0.073440
8.253315 30.988213 0.090994
8.567138 30.988213 0.116121
8.880960 30.988213 0.149686
9.194784 30.988213 0.189124
9.508606 30.988213 0.242723
9.822430 30.988213 0.304485
10.136253 30.988213 0.384086
10.450075 30.988213 0.478525
10.763899 30.988213 0.574957
11.077723 30.988213 0.676778
11.391544 30.988213 0.780640
11.705368 30.988213 0.907111
12.019190 30.988213 1.031392
12.333014 30.988213 1.161405
12.646837 30.988213 1.288009
12.960659 30.988213 1.390045
13.274483 30.988213 1.478827
13.588306 30.988213 1.549410
13.902128 30.988213 1.568810
14.215952 30.988213 1.603519
14.529776 30.988213 1.624120
14.843597 30.988213 1.631811
15.157421 30.988213 1.581800
15.471243 30.988213 1.544377
15.785067 30.988213 1.511519
16.098890 30.988213 1.490886
16.412712 30.988213 1.436781
16.726536 30.988213 1.377077
17.040359 30.988213 1.328150
17.354181 30.988213 1.293123
17.668005 30.988213 1.277131
17.981829 30.988213 1.295151
18.295650 30.988213 1.326218
18.609474 30.988213 1.369740
18.923298 30.988213 0.937519
19.237120 30.988213 0.000000
-6.810190 30.674389 0.000000
-6.496367 30.674389 0.008568
-6.182544 30.674389 0.006458
-5.868721 30.674389 0.005701
-5.554898 30.674389 0.005629
-5.241075 30.674389 0.005527
-4.927252 30.674389 0.005590
-4.613429 30.674389 0.005677
-4.299606 30.674389 0.005688
-3.985783 30.674389 0.005643
-3.671960 30.674389 0.005504
-3.358137 30.674389 0.005447
-3.044314 30.674389 0.005345
-2.730491 30.674389 0.005333
-2.416668 30.674389 0.005387
-2.102845 30.674389 0.005415
-1.789022 30.674389 0.005335
-1.475199 30.674389 0.005312
-1.161376 30.674389 0.005415
-0.847553 30.674389 0.005542
-0.533730 30.674389 0.005618
-0.219907 30.674389 0.005667
0.093916 30.674389 0.005799
0.407739 30.674389 0.005919
0.721562 30.674389 0.006019
1.035385 30.674389 0.006134
1.349208 30.674389 0.006345
1.663032 30.674389 0.006747
1.976854 30.674389 0.007103
2.290677 30.674389 0.007420
2.604500 30.674389 0.007808
2.918324 30.674389 0.008307
3.232146 30.674389 0.008890
3.545969 30.674389 0.009634
3.859793 30.674389 0.010562
4.173615 30.674389 0.011557
4.487438 30.674389 0.012656
4.801261 30.674389 0.014218
5.115085 30.674389 0.015931
5.428907 30.674389 0.018050
5.742730 30.674389 0.020374
6.056554 30.674389 0.023544
6.370377 30.674389 0.027777
6.684199 30.674389 0.032739
6.998022 30.674389 0.039496
7.311846 30.674389 0.047490
7.625669 30.674389 0.057887
7.939491 30.674389 0.072655
8.253315 30.674389 0.092053
8.567138 30.674389 0.117923
8.880960 30.674389 0.149257
9.194784 30.674389 0.189284
9.508606 30.674389 0.245142
9.822430 30.674389 0.306115
10.136253 30.674389 0.390324
10.450075 30.674389 0.476978
10.763899 30.674389 0.579842
11.077723 30.674389 0.678737
11.391544 30.674389 0.781460
11.705368 30.674389 0.912441
12.019190 30.674389 1.032067
12.333014 30.674389 1.171242
12.646837 30.674389 1.283385
12.960659 30.674389 1.374889
13.274483 30.674389 1.471204
13.588306 30.674389 1.528543
13.902128 30.674389 1.568172
14.215952 30.674389 1.604472
14.529776 30.674389 1.628477
14.843597 30.674389 1.631172
15.157421 30.674389 1.602274
15.471243 30.674389 1.555342
15.785067 30.674389 1.532197
16.098890 30.674389 1.485046
16.412712 30.674389 1.432244
16.726536 30.674389 1.370121
17.040359 30.674389 1.317001
17.354181 30.674389 1.280241
17.668005 30.674389 1.275852
17.981829 30.674389 1.299592
18.295650 30.674389 1.330667
18.609474 30.674389 1.358116
18.923298 30.674389 0.898164
19.237120 30.674389 0.000000
-6.810190 30.360567 0.000000
-6.496367 30.360567 0.008302
-6.182544 30.360567 0.006366
-5.868721 30.360567 0.005721
-5.554898 30.360567 0.005693
-5.241075 30.360567 0.005648
-4.927252 30.360567 0.005628
-4.613429 30.360567 0.005601
-4.299606 30.360567 0.005670
-3.985783 30.360567 0.005612
-3.671960 30.360567 0.005461
-3.358137 30.360567 0.005381
-3.044314 30.360567 0.005305
-2.730491 30.360567 0.005305
-2.416668 30.360567 0.005329
-2.102845 30.360567 0.005395
-1.789022 30.360567 0.005318
-1.475199 30.360567 0.005295
-1.161376 30.360567 0.005398
-0.847553 30.360567 0.005530
-0.533730 30.360567 0.005563
-0.219907 30.360567 0.005605
0.093916 30.360567 0.005789
0.407739 30.360567 0.005926
0.721562 30.360567 0.006040
1.035385 30.360567 0.006121
1.349208 30.360567 0.006324
1.663032 30.360567 0.006672
1.976854 30.360567 0.007034
2.290677 30.360567 0.007392
2.604500 30.360567 0.007770
2.918324 30.360567 0.008228
3.232146 30.360567 0.008844
3.545969 30.360567 0.009614
3.859793 30.360567 0.010469
4.173615 30.360567 0.011499
4.487438 30.360567 0.012651
4.801261 30.360567 0.014128
5.115085 30.360567 0.015842
5.428907 30.360567 0.017891
5.742730 30.360567 0.020294
6.056554 30.360567 0.023449
6.370377 30.360567 0.027709
6.684199 30.360567 0.032767
6.998022 30.360567 0.039342
7.311846 30.360567 0.047281
7.625669 30.360567 0.057388
7.939491 30.360567 0.072482
8.253315 30.360567 0.091445
8.567138 30.360567 0.118068
8.880960 30.360567 0.148599
9.194784 30.360567 0.192770
9.508606 30.360567 0.245778
9.822430 30.360567 0.310213
10.136253 30.360567 0.387366
10.450075 30.360567 0.482333
10.763899 30.360567 0.575609
11.077723 30.360567 0.676442
11.391544 30.360567 0.781829
11.705368 30.360567 0.914434
12.019190 30.360567 1.042461
12.333014 30.360567 1.169104
12.646837 30.360567 1.287134
12.960659 30.360567 1.378472
13.274483 30.360567 1.464993
13.588306 30.360567 1.524755
13.902128 30.360567 1.559181
14.215952 30.360567 1.597623
14.529776 30.360567 1.620857
14.843597 30.360567 1.628521
15.157421 30.360567 1.611762
15.471243 30.360567 1.572145
15.785067 30.360567 1.538947
16.098890 30.360567 1.493078
16.412712 30.360567 1.438618
16.726536 30.360567 1.383172
17.040359 30.360567 1.316453
17.354181 30.360567 1.280816
17.668005 30.360567 1.263953
17.981829 30.360567 1.286458
18.295650 30.360567 1.331383
18.609474 30.360567 1.355259
18.923298 30.360567 0.882753
19.237120 30.360567 0.000000
-6.810190 30.046743 0.000000
-6.496367 30.046743 0.008135
-6.182544 30.046743 0.006338
-5.868721 30.046743 0.005750
-5.554898 30.046743 0.005778
-5.241075 30.046743 0.005803
-4.927252 30.046743 0.005726
-4.613429 30.046743 0.005559
-4.299606 30.046743 0.005614
-3.985783 30.046743 0.005555
-3.671960 30.046743 0.005451
-3.358137 30.046743 0.005345
-3.044314 30.046743 0.005264
-2.730491 30.046743 0.005307
-2.416668 30.046743 0.005345
-2.102845 30.046743 0.005383
-1.789022 30.046743 0.005318
-1.475199 30.046743 0.005316
-1.161376 30.046743 0.005400
-0.847553 30.046743 0.005499
-0.533730 30.046743 0.005508
-0.219907 30.046743 0.005601
0.093916 30.046743 0.005817
0.407739 30.046743 0.005947
0.721562 30.046743 0.006055
1.035385 30.046743 0.006171
1.349208 30.046743 0.006344
1.663032 30.046743 0.006627
1.976854 30.046743 0.007011
2.290677 30.046743 0.007392
2.604500 30.046743 0.007758
2.918324 30.046743 0.008206
3.232146 30.046743 0.008836
3.545969 30.046743 0.009588
3.859793 30.046743 0.010403
4.173615 30.046743 0.011422
4.487438 30.046743 0.012648
4.801261 30.046743 0.014090
5.115085 30.046743 0.015846
5.428907 30.046743 0.017853
5.742730 30.046743 0.020228
6.056554 30.046743 0.023460
6.370377 30.046743 0.027715
6.684199 30.046743 0.032893
6.998022 30.046743 0.039581
7.311846 30.046743 0.047342
7.625669 30.046743 0.057361
7.939491 30.046743 0.072674
8.253315 30.046743 0.092934
8.567138 30.046743 0.117186
8.880960 30.046743 0.148896
9.194784 30.046743 0.190792
9.508606 30.046743 0.245138
9.822430 30.046743 0.310718
10.136253 30.046743 0.390924
10.450075 30.046743 0.481872
10.763899 30.046743 0.577775
11.077723 30.046743 0.685848
11.391544 30.046743 0.785304
11.705368 30.046743 0.916278
12.019190 30.046743 1.043804
12.333014 30.046743 1.171516
12.646837 30.046743 1.294940
12.960659 30.046743 1.389648
13.274483 30.046743 1.471504
13.588306 30.046743 1.526898
13.902128 30.046743 1.565871
14.215952 30.046743 1.600341
14.529776 30.046743 1.618412
14.843597 30.046743 1.624985
15.157421 30.046743 1.615999
15.471243 30.046743 1.581985
15.785067 30.046743 1.543937
16.098890 30.046743 1.496841
16.412712 30.046743 1.446833
16.726536 30.046743 1.385870
17.040359 30.046743 1.321262
17.354181 30.046743 1.277711
17.668005 30.046743 1.265689
17.981829 30.046743 1.291034
18.295650 30.046743 1.334400
18.609474 30.046743 1.368570
18.923298 30.046743 0.846387
19.237120 30.046743 0.000000
-6.810190 29.732922 0.000000
-6.496367 29.732922 0.008111
-6.182544 29.732922 0.006315
-5.868721 29.732922 0.005768
-5.554898 29.732922 0.005800
-5.241075 29.732922 0.005857
-4.927252 29.732922 0.005763
-4.613429 29.732922 0.005566
-4.299606 29.732922 0.005562
-3.985783 29.732922 0.005522
-3.671960 29.732922 0.005398
-3.358137 29.732922 0.005329
-3.044314 29.732922 0.005270
-2.730491 29.732922 0.005321
-2.416668 29.732922 0.005419
-2.102845 29.732922 0.005401
-1.789022 29.732922 0.005349
-1.475199 29.732922 0.005348
-1.161376 29.732922 0.005377
-0.847553 29.732922 0.005452
-0.533730 29.732922 0.005504
-0.219907 29.732922 0.005625
0.093916 29.732922 0.005830
0.407739 29.732922 0.005930
0.721562 29.732922 0.006049
1.035385 29.732922 0.006189
1.349208 29.732922 0.006396
1.663032 29.732922 0.006684
1.976854 29.732922 0.007059
2.290677 29.732922 0.007403
2.604500 29.732922 0.007749
2.918324 29.732922 0.008241
3.232146 29.732922 0.008856
3.545969 29.732922 0.009507
3.859793 29.732922 0.010395
4.173615 29.732922 0.011365
4.487438 29.732922 0.012596
4.801261 29.732922 0.014047
5.115085 29.732922 0.015825
5.428907 29.732922 0.017813
5.742730 29.732922 0.020187
6.056554 29.732922 0.023471
6.370377 29.732922 0.027493
6.684199 29.732922 0.032598
6.998022 29.732922 0.039307
7.311846 29.732922 0.047298
7.625669 29.732922 0.058354
7.939491 29.732922 0.072627
8.253315 29.732922 0.093257
8.567138 29.732922 0.118109
8.880960 29.732922 0.150393
9.194784 29.732922 0.193390
9.508606 29.732922 0.246394
9.822430 29.732922 0.309738
10.136253 29.732922 0.389348
10.450075 29.732922 0.481153
10.763899 29.732922 0.576571
11.077723 29.732922 0.687269
11.391544 29.732922 0.796183
11.705368 29.732922 0.928557
12.019190 29.732922 1.056590
12.333014 29.732922 1.178969
12.646837 29.732922 1.298469
12.960659 29.732922 1.394318
13.274483 29.732922 1.475107
13.588306 29.732922 1.526690
13.902128 29.732922 1.567041
14.215952 29.732922 1.594568
14.529776 29.732922 1.610774
14.843597 29.732922 1.630178
15.157421 29.732922 1.612713
15.471243 29.732922 1.585000
15.785067 29.732922 1.551019
16.098890 29.732922 1.491612
16.412712 29.732922 1.447111
16.726536 29.732922 1.390629
17.040359 29.732922 1.330127
17.354181 29.732922 1.281711
17.668005 29.732922 1.275777
17.981829 29.732922 1.308214
18.295650 29.732922 1.349708
18.609474 29.732922 1.394599
18.923298 29.732922 0.809144
19.237120 29.732922 0.000000
-6.810190 29.419098 0.000000
-6.496367 29.419098 0.008070
-6.182544 29.419098 0.006295
-5.868721 29.419098 0.005729
-5.554898 29.419098 0.005770
-5.241075 29.419098 0.005790
-4.927252 29.419098 0.005736
-4.613429 29.419098 0.005579
-4.299606 29.419098 0.005526
-3.985783 29.419098 0.005477
-3.671960 29.419098 0.005366
-3.358137 29.419098 0.005355
-3.044314 29.419098 0.005299
-2.730491 29.419098 0.005342
-2.416668 29.419098 0.005482
-2.102845 29.419098 0.005438
-1.789022 29.419098 0.005412
-1.475199 29.419098 0.005384
-1.161376 29.419098 0.005349
-0.847553 29.419098 0.005410
-0.533730 29.419098 0.005497
-0.219907 29.419098 0.005660
0.093916 29.419098 0.005798
0.407739 29.419098 0.005860
0.721562 29.419098 0.005996
1.035385 29.419098 0.006228
1.349208 29.419098 0.006482
1.663032 29.419098 0.006743
1.976854 29.419098 0.007100
2.290677 29.419098 0.007446
2.604500 29.419098 0.007780
2.918324 29.419098 0.008305
3.232146 29.419098 0.008892
3.545969 29.419098 0.009543
3.859793 29.419098 0.010410
4.173615 29.419098 0.011389
4.487438 29.419098 0.012556
4.801261 29.419098 0.014008
5.115085 29.419098 0.015816
5.428907 29.419098 0.017789
5.742730 29.419098 0.020207
6.056554 29.419098 0.023488
6.370377 29.419098 0.027560
6.684199 29.419098 0.032490
6.998022 29.419098 0.038917
7.311846 29.419098 0.047841
7.625669 29.419098 0.058651
7.939491 29.419098 0.073482
8.253315 29.419098 0.093328
8.567138 29.419098 0.118085
8.880960 29.419098 0.150732
9.194784 29.419098 0.194036
9.508606 29.419098 0.246394
9.822430 29.419098 0.311028
10.136253 29.419098 0.388083
10.450075 29.419098 0.481993
10.763899 29.419098 0.581702
11.077723 29.419098 0.697894
11.391544 29.419098 0.809034
11.705368 29.419098 0.935546
12.019190 29.419098 1.055160
12.333014 29.419098 1.179309
12.646837 29.419098 1.303646
12.960659 29.419098 1.398374
13.274483 29.419098 1.479573
13.588306 29.419098 1.527399
13.902128 29.419098 1.574741
14.215952 29.419098 1.595346
14.529776 29.419098 1.624128
14.843597 29.419098 1.625371
15.157421 29.419098 1.619741
15.471243 29.419098 1.583836
15.785067 29.419098 1.548894
16.098890 29.419098 1.500479
16.412712 29.419098 1.448041
16.726536 29.419098 1.401668
17.040359 29.419098 1.342973
17.354181 29.419098 1.288908
17.668005 29.419098 1.291349
17.981829 29.419098 1.310990
18.295650 29.419098 1.343977
18.609474 29.419098 1.382171
18.923298 29.419098 0.780500
19.237120 29.419098 0.000000
-6.810190 29.105274 0.000000
-6.496367 29.105274 0.007974
-6.182544 29.105274 0.006234
-5.868721 29.105274 0.005695
-5.554898 29.105274 0.005692
-5.241075 29.105274 0.005674
-4.927252 29.105274 0.005701
-4.613429 29.105274 0.005605
-4.299606 29.105274 0.005491
-3.985783 29.105274 0.005451
-3.671960 29.105274 0.005385
-3.358137 29.105274 0.005414
-3.044314 29.105274 0.005348
-2.730491 29.105274 0.005374
-2.416668 29.105274 0.005464
-2.102845 29.105274 0.005457
-1.789022 29.105274 0.005465
-1.475199 29.105274 0.005400
-1.161376 29.105274 0.005358
-0.847553 29.105274 0.005407
-0.533730 29.105274 0.005525
-0.219907 29.105274 0.005694
0.093916 29.105274 0.005726
0.407739 29.105274 0.005785
0.721562 29.105274 0.005946
1.035385 29.105274 0.006261
1.349208 29.105274 0.006509
1.663032 29.105274 0.006725
1.976854 29.105274 0.007038
2.290677 29.105274 0.007429
2.604500 29.105274 0.007795
2.918324 29.105274 0.008312
3.232146 29.105274 0.008895
3.545969 29.105274 0.009555
3.859793 29.105274 0.010450
4.173615 29.105274 0.011471
4.487438 29.105274 0.012552
4.801261 29.105274 0.013967
5.115085 29.105274 0.015768
5.428907 29.105274 0.017815
5.742730 29.105274 0.020314
6.056554 29.105274 0.023537
6.370377 29.105274 0.027464
6.684199 29.105274 0.032198
6.998022 29.105274 0.038811
7.311846 29.105274 0.047718
7.625669 29.105274 0.058137
7.939491 29.105274 0.073543
8.253315 29.105274 0.093203
8.567138 29.105274 0.116608
8.880960 29.105274 0.150463
9.194784 29.105274 0.192246
9.508606 29.105274 0.247287
9.822430 29.105274 0.315693
10.136253 29.105274 0.392886
10.450075 29.105274 0.490458
10.763899 29.105274 0.585903
11.077723 29.105274 0.695091
11.391544 29.105274 0.810919
11.705368 29.105274 0.932889
12.019190 29.105274 1.049586
12.333014 29.105274 1.172597
12.646837 29.105274 1.296053
12.960659 29.105274 1.401642
13.274483 29.105274 1.484758
13.588306 29.105274 1.542982
13.902128 29.105274 1.578747
14.215952 29.105274 1.605717
14.529776 29.105274 1.624718
14.843597 29.105274 1.626752
15.157421 29.105274 1.619820
15.471243 29.105274 1.597890
15.785067 29.105274 1.559187
16.098890 29.105274 1.511714
16.412712 29.105274 1.456605
16.726536 29.105274 1.407655
17.040359 29.105274 1.348172
17.354181 29.105274 1.295003
17.668005 29.105274 1.296000
17.981829 29.105274 1.306878
18.295650 29.105274 1.337602
18.609474 29.105274 1.382126
18.923298 29.105274 0.738735
19.237120 29.105274 0.000000
-6.810190 28.791452 0.000000
-6.496367 28.791452 0.007867
-6.182544 28.791452 0.006151
-5.868721 28.791452 0.005687
-5.554898 28.791452 0.005654
-5.241075 28.791452 0.005591
-4.927252 28.791452 0.005647
-4.613429 28.791452 0.005568
-4.299606 28.791452 0.005438
-3.985783 28.791452 0.005397
-3.671960 28.791452 0.005412
-3.358137 28.791452 0.005449
-3.044314 28.791452 0.005398
-2.730491 28.791452 0.005349
-2.416668 28.791452 0.005371
-2.102845 28.791452 0.005467
-1.789022 28.791452 0.005477
-1.475199 28.791452 0.005427
-1.161376 28.791452 0.005443
-0.847553 28.791452 0.005471
-0.533730 28.791452 0.005566
-0.219907 28.791452 0.005687
0.093916 28.791452 0.005723
0.407739 28.791452 0.005698
0.721562 28.791452 0.005931
1.035385 28.791452 0.006271
1.349208 28.791452 0.006469
1.663032 28.791452 0.006630
1.976854 28.791452 0.006974
2.290677 28.791452 0.007405
2.604500 28.791452 0.007802
2.918324 28.791452 0.008299
3.232146 28.791452 0.008892
3.545969 28.791452 0.009541
3.859793 28.791452 0.010439
4.173615 28.791452 0.011485
4.487438 28.791452 0.012578
4.801261 28.791452 0.013926
5.115085 28.791452 0.015705
5.428907 28.791452 0.017725
5.742730 28.791452 0.020410
6.056554 28.791452 0.023611
6.370377 28.791452 0.027369
6.684199 28.791452 0.032079
6.998022 28.791452 0.038264
7.311846 28.791452 0.047175
7.625669 28.791452 0.058157
7.939491 28.791452 0.072964
8.253315 28.791452 0.093091
8.567138 28.791452 0.119234
8.880960 28.791452 0.151154
9.194784 28.791452 0.191703
9.508606 28.791452 0.248398
9.822430 28.791452 0.316794
10.136253 28.791452 0.394409
10.450075 28.791452 0.492125
10.763899 28.791452 0.593875
11.077723 28.791452 0.689161
11.391544 28.791452 0.803534
11.705368 28.791452 0.928443
12.019190 28.791452 1.045891
12.333014 28.791452 1.170720
12.646837 28.791452 1.291802
12.960659 28.791452 1.404532
13.274483 28.791452 1.494888
13.588306 28.791452 1.546243
13.902128 28.791452 1.580734
14.215952 28.791452 1.606437
14.529776 28.791452 1.625203
14.843597 28.791452 1.632488
15.157421 28.791452 1.624594
15.471243 28.791452 1.600013
15.785067 28.791452 1.568403
16.098890 28.791452 1.520927
16.412712 28.791452 1.473505
16.726536 28.791452 1.423389
17.040359 28.791452 1.354953
17.354181 28.791452 1.311444
17.668005 28.791452 1.308273
17.981829 28.791452 1.318935
18.295650 28.791452 1.343854
18.609474 28.791452 1.398486
18.923298 28.791452 0.707146
19.237120 28.791452 0.000000
-6.810190 28.477629 0.000000
-6.496367 28.477629 0.007787
-6.182544 28.477629 0.006114
-5.868721 28.477629 0.005646
-5.554898 28.477629 0.005613
-5.241075 28.477629 0.005541
-4.927252 28.477629 0.005573
-4.613429 28.477629 0.005498
-4.299606 28.477629 0.005372
-3.985783 28.477629 0.005383
-3.671960 28.477629 0.005429
-3.358137 28.477629 0.005429
-3.044314 28.477629 0.005431
-2.730491 28.477629 0.005337
-2.416668 28.477629 0.005312
-2.102845 28.477629 0.005467
-1.789022 28.477629 0.005464
-1.475199 28.477629 0.005448
-1.161376 28.477629 0.005545
-0.847553 28.477629 0.005586
-0.533730 28.477629 0.005589
-0.219907 28.477629 0.005643
0.093916 28.477629 0.005685
0.407739 28.477629 0.005695
0.721562 28.477629 0.005937
1.035385 28.477629 0.006251
1.349208 28.477629 0.006422
1.663032 28.477629 0.006591
1.976854 28.477629 0.006966
2.290677 28.477629 0.007459
2.604500 28.477629 0.007823
2.918324 28.477629 0.008262
3.232146 28.477629 0.008872
3.545969 28.477629 0.009463
3.859793 28.477629 0.010348
4.173615 28.477629 0.011434
4.487438 28.477629 0.012572
4.801261 28.477629 0.013993
5.115085 28.477629 0.015687
5.428907 28.477629 0.017745
5.742730 28.477629 0.020377
6.056554 28.477629 0.023621
6.370377 28.477629 0.027413
6.684199 28.477629 0.031983
6.998022 28.477629 0.038337
7.311846 28.477629 0.047010
7.625669 28.477629 0.057743
7.939491 28.477629 0.072978
8.253315 28.477629 0.093233
8.567138 28.477629 0.118001
8.880960 28.477629 0.151795
9.194784 28.477629 0.191318
9.508606 28.477629 0.249676
9.822430 28.477629 0.311901
10.136253 28.477629 0.396859
10.450075 28.477629 0.490290
10.763899 28.477629 0.583619
11.077723 28.477629 0.686538
11.391544 28.477629 0.798583
11.705368 28.477629 0.924460
12.019190 28.477629 1.042920
12.333014 28.477629 1.161170
12.646837 28.477629 1.285235
12.960659 28.477629 1.400865
13.274483 28.477629 1.489478
13.588306 28.477629 1.556462
13.902128 28.477629 1.578297
14.215952 28.477629 1.605597
14.529776 28.477629 1.628960
14.843597 28.477629 1.638561
15.157421 28.477629 1.631246
15.471243 28.477629 1.601800
15.785067 28.477629 1.566865
16.098890 28.477629 1.538283
16.412712 28.477629 1.489403
16.726536 28.477629 1.435254
17.040359 28.477629 1.370453
17.354181 28.477629 1.327297
17.668005 28.477629 1.317676
17.981829 28.477629 1.332898
18.295650 28.477629 1.361457
18.609474 28.477629 1.419699
18.923298 28.477629 0.659228
19.237120 28.477629 0.000000
-6.810190 28.163805 0.000000
-6.496367 28.163805 0.007652
-6.182544 28.163805 0.006056
-5.868721 28.163805 0.005592
-5.554898 28.163805 0.005594
-5.241075 28.163805 0.005540
-4.927252 28.163805 0.005471
-4.613429 28.163805 0.005399
-4.299606 28.163805 0.005327
-3.985783 28.163805 0.005377
-3.671960 28.163805 0.005433
-3.358137 28.163805 0.005411
-3.044314 28.163805 0.005421
-2.730491 28.163805 0.005351
-2.416668 28.163805 0.005301
-2.102845 28.163805 0.005431
-1.789022 28.163805 0.005445
-1.475199 28.163805 0.005442
-1.161376 28.163805 0.005608
-0.847553 28.163805 0.005648
-0.533730 28.163805 0.005578
-0.219907 28.163805 0.005609
0.093916 28.163805 0.005703
0.407739 28.163805 0.005751
0.721562 28.163805 0.005947
1.035385 28.163805 0.006242
1.349208 28.163805 0.006427
1.663032 28.163805 0.006647
1.976854 28.163805 0.007051
2.290677 28.163805 0.007483
2.604500 28.163805 0.007791
2.918324 28.163805 0.008231
3.232146 28.163805 0.008831
3.545969 28.163805 0.009425
3.859793 28.163805 0.010285
4.173615 28.163805 0.011368
4.487438 28.163805 0.012590
4.801261 28.163805 0.013948
5.115085 28.163805 0.015666
5.428907 28.163805 0.017721
5.742730 28.163805 0.020349
6.056554 28.163805 0.023529
6.370377 28.163805 0.027351
6.684199 28.163805 0.031870
6.998022 28.163805 0.038064
7.311846 28.163805 0.046334
7.625669 28.163805 0.057289
7.939491 28.163805 0.071915
8.253315 28.163805 0.093296
8.567138 28.163805 0.118235
8.880960 28.163805 0.153383
9.194784 28.163805 0.193837
9.508606 28.163805 0.246638
9.822430 28.163805 0.312971
10.136253 28.163805 0.391516
10.450075 28.163805 0.485260
10.763899 28.163805 0.580405
11.077723 28.163805 0.686960
11.391544 28.163805 0.803521
11.705368 28.163805 0.924011
12.019190 28.163805 1.041990
12.333014 28.163805 1.161214
12.646837 28.163805 1.274228
12.960659 28.163805 1.386748
13.274483 28.163805 1.484223
13.588306 28.163805 1.553090
13.902128 28.163805 1.590971
14.215952 28.163805 1.625075
14.529776 28.163805 1.637513
14.843597 28.163805 1.646270
15.157421 28.163805 1.634910
15.471243 28.163805 1.619264
15.785067 28.163805 1.580402
16.098890 28.163805 1.542645
16.412712 28.163805 1.496885
16.726536 28.163805 1.437977
17.040359 28.163805 1.371867
17.354181 28.163805 1.330574
17.668005 28.163805 1.317635
17.981829 28.163805 1.338032
18.295650 28.163805 1.371117
18.609474 28.163805 1.421636
18.923298 28.163805 0.623596
19.237120 28.163805 0.000000
-6.810190 27.849983 0.000000
-6.496367 27.849983 0.007645
-6.182544 27.849983 0.006058
-5.868721 27.849983 0.005542
-5.554898 27.849983 0.005545
-5.241075 27.849983 0.005491
-4.927252 27.849983 0.005434
-4.613429 27.849983 0.005337
-4.299606 27.849983 0.005334
-3.985783 27.849983 0.005409
-3.671960 27.849983 0.005432
-3.358137 27.849983 0.005383
-3.044314 27.849983 0.005396
-2.730491 27.849983 0.005386
-2.416668 27.849983 0.005342
-2.102845 27.849983 0.005361
-1.789022 27.849983 0.005382
-1.475199 27.849983 0.005453
-1.161376 27.849983 0.005586
-0.847553 27.849983 0.005607
-0.533730 27.849983 0.005552
-0.219907 27.849983 0.005595
0.093916 27.849983 0.005758
0.407739 27.849983 0.005842
0.721562 27.849983 0.005996
1.035385 27.849983 0.006241
1.349208 27.849983 0.006488
1.663032 27.849983 0.006785
1.976854 27.849983 0.007118
2.290677 27.849983 0.007485
2.604500 27.849983 0.007736
2.918324 27.849983 0.008187
3.232146 27.849983 0.008765
3.545969 27.849983 0.009405
3.859793 27.849983 0.010239
4.173615 27.849983 0.011304
4.487438 27.849983 0.012533
4.801261 27.849983 0.013869
5.115085 27.849983 0.015616
5.428907 27.849983 0.017703
5.742730 27.849983 0.020249
6.056554 27.849983 0.023344
6.370377 27.849983 0.027213
6.684199 27.849983 0.031679
6.998022 27.849983 0.037801
7.311846 27.849983 0.046037
7.625669 27.849983 0.057134
7.939491 27.849983 0.071699
8.253315 27.849983 0.092077
8.567138 27.849983 0.118121
8.880960 27.849983 0.152461
9.194784 27.849983 0.196951
9.508606 27.849983 0.247969
9.822430 27.849983 0.314513
10.136253 27.849983 0.390530
10.450075 27.849983 0.483041
10.763899 27.849983 0.586097
11.077723 27.849983 0.689340
11.391544 27.849983 0.810249
11.705368 27.849983 0.928974
12.019190 27.849983 1.048567
12.333014 27.849983 1.165898
12.646837 27.849983 1.277833
12.960659 27.849983 1.378024
13.274483 27.849983 1.481451
13.588306 27.849983 1.561074
13.902128 27.849983 1.603151
14.215952 27.849983 1.625312
14.529776 27.849983 1.646119
14.843597 27.849983 1.641121
15.157421 27.849983 1.644804
15.471243 27.849983 1.629169
15.785067 27.849983 1.596696
16.098890 27.849983 1.553741
16.412712 27.849983 1.497689
16.726536 27.849983 1.443721
17.040359 27.849983 1.371097
17.354181 27.849983 1.335747
17.668005 27.849983 1.325137
17.981829 27.849983 1.345688
18.295650 27.849983 1.376683
18.609474 27.849983 1.424072
18.923298 27.849983 0.578046
19.237120 27.849983 0.000000
-6.810190 27.536160 0.000000
-6.496367 27.536160 0.007707
-6.182544 27.536160 0.006067
-5.868721 27.536160 0.005520
-5.554898 27.536160 0.005492
-5.241075 27.536160 0.005438
-4.927252 27.536160 0.005435
-4.613429 27.536160 0.005349
-4.299606 27.536160 0.005353
-3.985783 27.536160 0.005403
-3.671960 27.536160 0.005399
-3.358137 27.536160 0.005368
-3.044314 27.536160 0.005346
-2.730491 27.536160 0.005384
-2.416668 27.536160 0.005345
-2.102845 27.536160 0.005307
-1.789022 27.536160 0.005308
-1.475199 27.536160 0.005406
-1.161376 27.536160 0.005504
-0.847553 27.536160 0.005518
-0.533730 27.536160 0.005513
-0.219907 27.536160 0.005635
0.093916 27.536160 0.005822
0.407739 27.536160 0.005898
0.721562 27.536160 0.006043
1.035385 27.536160 0.006241
1.349208 27.536160 0.006506
1.663032 27.536160 0.006868
1.976854 27.536160 0.007169
2.290677 27.536160 0.007447
2.604500 27.536160 0.007687
2.918324 27.536160 0.008144
3.232146 27.536160 0.008734
3.545969 27.536160 0.009401
3.859793 27.536160 0.010239
4.173615 27.536160 0.011223
4.487438 27.536160 0.012431
4.801261 27.536160 0.013831
5.115085 27.536160 0.015513
5.428907 27.536160 0.017648
5.742730 27.536160 0.020063
6.056554 27.536160 0.023179
6.370377 27.536160 0.027155
6.684199 27.536160 0.031734
6.998022 27.536160 0.037858
7.311846 27.536160 0.046114
7.625669 27.536160 0.057818
7.939491 27.536160 0.072699
8.253315 27.536160 0.091832
8.567138 27.536160 0.117840
8.880960 27.536160 0.150023
9.194784 27.536160 0.194201
9.508606 27.536160 0.247717
9.822430 27.536160 0.311335
10.136253 27.536160 0.389893
10.450075 27.536160 0.486464
10.763899 27.536160 0.589404
11.077723 27.536160 0.700141
11.391544 27.536160 0.813577
11.705368 27.536160 0.934561
12.019190 27.536160 1.056660
12.333014 27.536160 1.172632
12.646837 27.536160 1.278661
12.960659 27.536160 1.382452
13.274483 27.536160 1.489450
13.588306 27.536160 1.558409
13.902128 27.536160 1.602406
14.215952 27.536160 1.623865
14.529776 27.536160 1.636922
14.843597 27.536160 1.645696
15.157421 27.536160 1.655015
15.471243 27.536160 1.639751
15.785067 27.536160 1.609277
16.098890 27.536160 1.570807
16.412712 27.536160 1.503409
16.726536 27.536160 1.452263
17.040359 27.536160 1.385327
17.354181 27.536160 1.350648
17.668005 27.536160 1.337783
17.981829 27.536160 1.355418
18.295650 27.536160 1.388681
18.609474 27.536160 1.432465
18.923298 27.536160 0.547441
19.237120 27.536160 0.000000
-6.810190 27.222336 0.000000
-6.496367 27.222336 0.007599
-6.182544 27.222336 0.006025
-5.868721 27.222336 0.005519
-5.554898 27.222336 0.005479
-5.241075 27.222336 0.005424
-4.927252 27.222336 0.005456
-4.613429 27.222336 0.005379
-4.299606 27.222336 0.005346
-3.985783 27.222336 0.005361
-3.671960 27.222336 0.005355
-3.358137 27.222336 0.005360
-3.044314 27.222336 0.005304
-2.730491 27.222336 0.005351
-2.416668 27.222336 0.005344
-2.102845 27.222336 0.005265
-1.789022 27.222336 0.005251
-1.475199 27.222336 0.005331
-1.161376 27.222336 0.005423
-0.847553 27.222336 0.005423
-0.533730 27.222336 0.005487
-0.219907 27.222336 0.005654
0.093916 27.222336 0.005848
0.407739 27.222336 0.005937
0.721562 27.222336 0.006077
1.035385 27.222336 0.006240
1.349208 27.222336 0.006482
1.663032 27.222336 0.006861
1.976854 27.222336 0.007157
2.290677 27.222336 0.007372
2.604500 27.222336 0.007620
2.918324 27.222336 0.008136
3.232146 27.222336 0.008754
3.545969 27.222336 0.009474
3.859793 27.222336 0.010287
4.173615 27.222336 0.011185
4.487438 27.222336 0.012340
4.801261 27.222336 0.013803
5.115085 27.222336 0.015454
5.428907 27.222336 0.017464
5.742730 27.222336 0.019883
6.056554 27.222336 0.022957
6.370377 27.222336 0.027085
6.684199 27.222336 0.031890
6.998022 27.222336 0.038338
7.311846 27.222336 0.046588
7.625669 27.222336 0.058052
7.939491 27.222336 0.073585
8.253315 27.222336 0.092626
8.567138 27.222336 0.118028
8.880960 27.222336 0.151328
9.194784 27.222336 0.195594
9.508606 27.222336 0.249895
9.822430 27.222336 0.315797
10.136253 27.222336 0.391987
10.450075 27.222336 0.483983
10.763899 27.222336 0.588824
11.077723 27.222336 0.704367
11.391544 27.222336 0.820064
11.705368 27.222336 0.948233
12.019190 27.222336 1.056414
12.333014 27.222336 1.175452
12.646837 27.222336 1.286119
12.960659 27.222336 1.387281
13.274483 27.222336 1.489269
13.588306 27.222336 1.558296
13.902128 27.222336 1.602716
14.215952 27.222336 1.629989
14.529776 27.222336 1.644067
14.843597 27.222336 1.645513
15.157421 27.222336 1.665922
15.471243 27.222336 1.649234
15.785067 27.222336 1.613669
16.098890 27.222336 1.570831
16.412712 27.222336 1.509042
16.726536 27.222336 1.444861
17.040359 27.222336 1.390114
17.354181 27.222336 1.346895
17.668005 27.222336 1.339799
17.981829 27.222336 1.367998
18.295650 27.222336 1.386016
18.609474 27.222336 1.431384
18.923298 27.222336 0.505606
19.237120 27.222336 0.000000
-6.810190 26.908514 0.000000
-6.496367 26.908514 0.007504
-6.182544 26.908514 0.005972
-5.868721 26.908514 0.005534
-5.554898 26.908514 0.005525
-5.241075 26.908514 0.005499
-4.927252 26.908514 0.005514
-4.613429 26.908514 0.005417
-4.299606 26.908514 0.005365
-3.985783 26.908514 0.005322
-3.671960 26.908514 0.005318
-3.358137 26.908514 0.005333
-3.044314 26.908514 0.005299
-2.730491 26.908514 0.005323
-2.416668 26.908514 0.005348
-2.102845 26.908514 0.005300
-1.789022 26.908514 0.005280
-1.475199 26.908514 0.005317
-1.161376 26.908514 0.005382
-0.847553 26.908514 0.005384
-0.533730 26.908514 0.005463
-0.219907 26.908514 0.005677
0.093916 26.908514 0.005853
0.407739 26.908514 0.005962
0.721562 26.908514 0.006084
1.035385 26.908514 0.006185
1.349208 26.908514 0.006415
1.663032 26.908514 0.006781
1.976854 26.908514 0.007081
2.290677 26.908514 0.007302
2.604500 26.908514 0.007581
2.918324 26.908514 0.008137
3.232146 26.908514 0.008817
3.545969 26.908514 0.009506
3.859793 26.908514 0.010313
4.173615 26.908514 0.011165
4.487438 26.908514 0.012292
4.801261 26.908514 0.013745
5.115085 26.908514 0.015423
5.428907 26.908514 0.017336
5.742730 26.908514 0.019798
6.056554 26.908514 0.022934
6.370377 26.908514 0.027084
6.684199 26.908514 0.031950
6.998022 26.908514 0.038144
7.311846 26.908514 0.046612
7.625669 26.908514 0.058000
7.939491 26.908514 0.073450
8.253315 26.908514 0.093100
8.567138 26.908514 0.118422
8.880960 26.908514 0.151227
9.194784 26.908514 0.194500
9.508606 26.908514 0.250800
9.822430 26.908514 0.318745
10.136253 26.908514 0.398395
10.450075 26.908514 0.490649
10.763899 26.908514 0.593892
11.077723 26.908514 0.709588
11.391544 26.908514 0.822327
11.705368 26.908514 0.949161
12.019190 26.908514 1.066393
12.333014 26.908514 1.182695
12.646837 26.908514 1.299588
12.960659 26.908514 1.392636
13.274483 26.908514 1.490401
13.588306 26.908514 1.562514
13.902128 26.908514 1.613279
14.215952 26.908514 1.631418
14.529776 26.908514 1.648569
14.843597 26.908514 1.655264
15.157421 26.908514 1.654713
15.471243 26.908514 1.645516
15.785067 26.908514 1.612647
16.098890 26.908514 1.571642
16.412712 26.908514 1.508437
16.726536 26.908514 1.446645
17.040359 26.908514 1.397010
17.354181 26.908514 1.349794
17.668005 26.908514 1.338588
17.981829 26.908514 1.358181
18.295650 26.908514 1.385634
18.609474 26.908514 1.415142
18.923298 26.908514 0.469573
19.237120 26.908514 0.000000
-6.810190 26.594690 0.000000
-6.496367 26.594690 0.007418
-6.182544 26.594690 0.005968
-5.868721 26.594690 0.005570
-5.554898 26.594690 0.005593
-5.241075 26.594690 0.005588
-4.927252 26.594690 0.005515
-4.613429 26.594690 0.005426
-4.299606 26.594690 0.005388
-3.985783 26.594690 0.005314
-3.671960 26.594690 0.005239
-3.358137 26.594690 0.005278
-3.044314 26.594690 0.005304
-2.730491 26.594690 0.005316
-2.416668 26.594690 0.005379
-2.102845 26.594690 0.005360
-1.789022 26.594690 0.005307
-1.475199 26.594690 0.005288
-1.161376 26.594690 0.005340
-0.847553 26.594690 0.005368
-0.533730 26.594690 0.005456
-0.219907 26.594690 0.005659
0.093916 26.594690 0.005823
0.407739 26.594690 0.005916
0.721562 26.594690 0.006026
1.035385 26.594690 0.006104
1.349208 26.594690 0.006334
1.663032 26.594690 0.006655
1.976854 26.594690 0.006993
2.290677 26.594690 0.007234
2.604500 26.594690 0.007571
2.918324 26.594690 0.008125
3.232146 26.594690 0.008792
3.545969 26.594690 0.009487
3.859793 26.594690 0.010279
4.173615 26.594690 0.011148
4.487438 26.594690 0.012273
4.801261 26.594690 0.013722
5.115085 26.594690 0.015382
5.428907 26.594690 0.017267
5.742730 26.594690 0.019788
6.056554 26.594690 0.022958
6.370377 26.594690 0.026989
6.684199 26.594690 0.031951
6.998022 26.594690 0.038183
7.311846 26.594690 0.046773
7.625669 26.594690 0.058198
7.939491 26.594690 0.073095
8.253315 26.594690 0.092179
8.567138 26.594690 0.118621
8.880960 26.594690 0.151236
9.194784 26.594690 0.193821
9.508606 26.594690 0.250325
9.822430 26.594690 0.312988
10.136253 26.594690 0.390537
10.450075 26.594690 0.485476
10.763899 26.594690 0.596867
11.077723 26.594690 0.709080
11.391544 26.594690 0.830199
11.705368 26.594690 0.949155
12.019190 26.594690 1.070137
12.333014 26.594690 1.187313
12.646837 26.594690 1.302993
12.960659 26.594690 1.395410
13.274483 26.594690 1.490370
13.588306 26.594690 1.571244
13.902128 26.594690 1.618652
14.215952 26.594690 1.642258
14.529776 26.594690 1.656839
14.843597 26.594690 1.659273
15.157421 26.594690 1.659613
15.471243 26.594690 1.648953
15.785067 26.594690 1.620609
16.098890 26.594690 1.571933
16.412712 26.594690 1.509165
16.726536 26.594690 1.452955
17.040359 26.594690 1.397505
17.354181 26.594690 1.352653
17.668005 26.594690 1.339718
17.981829 26.594690 1.349744
18.295650 26.594690 1.367676
18.609474 26.594690 1.423115
18.923298 26.594690 0.437722
19.237120 26.594690 0.000000
-6.810190 26.280869 0.000000
-6.496367 26.280869 0.007533
-6.182544 26.280869 0.006035
-5.868721 26.280869 0.005591
-5.554898 26.280869 0.005637
-5.241075 26.280869 0.005601
-4.927252 26.280869 0.005494
-4.613429 26.280869 0.005399
-4.299606 26.280869 0.005375
-3.985783 26.280869 0.005329
-3.671960 26.280869 0.005206
-3.358137 26.280869 0.005238
-3.044314 26.280869 0.005330
-2.730491 26.280869 0.005338
-2.416668 26.280869 0.005395
-2.102845 26.280869 0.005379
-1.789022 26.280869 0.005293
-1.475199 26.280869 0.005266
-1.161376 26.280869 0.005295
-0.847553 26.280869 0.005353
-0.533730 26.280869 0.005446
-0.219907 26.280869 0.005619
0.093916 26.280869 0.005756
0.407739 26.280869 0.005833
0.721562 26.280869 0.005934
1.035385 26.280869 0.006046
1.349208 26.280869 0.006264
1.663032 26.280869 0.006555
1.976854 26.280869 0.006883
2.290677 26.280869 0.007207
2.604500 26.280869 0.007594
2.918324 26.280869 0.008121
3.232146 26.280869 0.008729
3.545969 26.280869 0.009396
3.859793 26.280869 0.010173
4.173615 26.280869 0.011133
4.487438 26.280869 0.012257
4.801261 26.280869 0.013688
5.115085 26.280869 0.015340
5.428907 26.280869 0.017221
5.742730 26.280869 0.019721
6.056554 26.280869 0.022934
6.370377 26.280869 0.027049
6.684199 26.280869 0.031871
6.998022 26.280869 0.037999
7.311846 26.280869 0.046680
7.625669 26.280869 0.058431
7.939491 26.280869 0.073576
8.253315 26.280869 0.093166
8.567138 26.280869 0.119519
8.880960 26.280869 0.152553
9.194784 26.280869 0.194889
9.508606 26.280869 0.248331
9.822430 26.280869 0.312636
10.136253 26.280869 0.390914
10.450075 26.280869 0.487503
10.763899 26.280869 0.591454
11.077723 26.280869 0.708104
11.391544 26.280869 0.823353
11.705368 26.280869 0.940045
12.019190 26.280869 1.068860
12.333014 26.280869 1.182101
12.646837 26.280869 1.294409
12.960659 26.280869 1.400516
13.274483 26.280869 1.501538
13.588306 26.280869 1.583051
13.902128 26.280869 1.622090
14.215952 26.280869 1.643288
14.529776 26.280869 1.662229
14.843597 26.280869 1.655812
15.157421 26.280869 1.654405
15.471243 26.280869 1.649721
15.785067 26.280869 1.619694
16.098890 26.280869 1.574422
16.412712 26.280869 1.521004
16.726536 26.280869 1.452477
17.040359 26.280869 1.414449
17.354181 26.280869 1.372837
17.668005 26.280869 1.349561
17.981829 26.280869 1.342745
18.295650 26.280869 1.374007
18.609474 26.280869 1.446397
18.923298 26.280869 0.405563
19.237120 26.280869 0.000000
-6.810190 25.967045 0.000000
-6.496367 25.967045 0.007585
-6.182544 25.967045 0.006076
-5.868721 25.967045 0.005567
-5.554898 25.967045 0.005587
-5.241075 25.967045 0.005556
-4.927252 25.967045 0.005497
-4.613429 25.967045 0.005424
-4.299606 25.967045 0.005364
-3.985783 25.967045 0.005361
-3.671960 25.967045 0.005202
-3.358137 25.967045 0.005218
-3.044314 25.967045 0.005328
-2.730491 25.967045 0.005360
-2.416668 25.967045 0.005384
-2.102845 25.967045 0.005354
-1.789022 25.967045 0.005277
-1.475199 25.967045 0.005260
-1.161376 25.967045 0.005289
-0.847553 25.967045 0.005353
-0.533730 25.967045 0.005445
-0.219907 25.967045 0.005587
0.093916 25.967045 0.005696
0.407739 25.967045 0.005775
0.721562 25.967045 0.005894
1.035385 25.967045 0.006050
1.349208 25.967045 0.006239
1.663032 25.967045 0.006485
1.976854 25.967045 0.006841
2.290677 25.967045 0.007229
2.604500 25.967045 0.007646
2.918324 25.967045 0.008126
3.232146 25.967045 0.008671
3.545969 25.967045 0.009323
3.859793 25.967045 0.010109
4.173615 25.967045 0.011102
4.487438 25.967045 0.012199
4.801261 25.967045 0.013615
5.115085 25.967045 0.015241
5.428907 25.967045 0.017178
5.742730 25.967045 0.019653
6.056554 25.967045 0.022902
6.370377 25.967045 0.026976
6.684199 25.967045 0.031746
6.998022 25.967045 0.038173
7.311846 25.967045 0.046747
7.625669 25.967045 0.058501
7.939491 25.967045 0.073391
8.253315 25.967045 0.093023
8.567138 25.967045 0.117925
8.880960 25.967045 0.151250
9.194784 25.967045 0.196346
9.508606 25.967045 0.251772
9.822430 25.967045 0.318655
10.136253 25.967045 0.395172
10.450075 25.967045 0.488348
10.763899 25.967045 0.580911
11.077723 25.967045 0.699824
11.391544 25.967045 0.818627
11.705368 25.967045 0.936659
12.019190 25.967045 1.069423
12.333014 25.967045 1.182452
12.646837 25.967045 1.292322
12.960659 25.967045 1.407920
13.274483 25.967045 1.514493
13.588306 25.967045 1.597952
13.902128 25.967045 1.637108
14.215952 25.967045 1.653766
14.529776 25.967045 1.656395
14.843597 25.967045 1.655376
15.157421 25.967045 1.660121
15.471243 25.967045 1.649348
15.785067 25.967045 1.621778
16.098890 25.967045 1.572886
16.412712 25.967045 1.533834
16.726536 25.967045 1.468709
17.040359 25.967045 1.426131
17.354181 25.967045 1.386885
17.668005 25.967045 1.349457
17.981829 25.967045 1.353405
18.295650 25.967045 1.378036
18.609474 25.967045 1.445410
18.923298 25.967045 0.364023
19.237120 25.967045 0.000000
-6.810190 25.653221 0.000000
-6.496367 25.653221 0.007624
-6.182544 25.653221 0.006036
-5.868721 25.653221 0.005508
-5.554898 25.653221 0.005522
-5.241075 25.653221 0.005524
-4.927252 25.653221 0.005527
-4.613429 25.653221 0.005413
-4.299606 25.653221 0.005349
-3.985783 25.653221 0.005390
-3.671960 25.653221 0.005258
-3.358137 25.653221 0.005244
-3.044314 25.653221 0.005309
-2.730491 25.653221 0.005362
-2.416668 25.653221 0.005369
-2.102845 25.653221 0.005351
-1.789022 25.653221 0.005302
-1.475199 25.653221 0.005278
-1.161376 25.653221 0.005307
-0.847553 25.653221 0.005358
-0.533730 25.653221 0.005459
-0.219907 25.653221 0.005593
0.093916 25.653221 0.005682
0.407739 25.653221 0.005752
0.721562 25.653221 0.005910
1.035385 25.653221 0.006078
1.349208 25.653221 0.006252
1.663032 25.653221 0.006461
1.976854 25.653221 0.006822
2.290677 25.653221 0.007288
2.604500 25.653221 0.007693
2.918324 25.653221 0.008150
3.232146 25.653221 0.008652
3.545969 25.653221 0.009280
3.859793 25.653221 0.010092
4.173615 25.653221 0.011089
4.487438 25.653221 0.012155
4.801261 25.653221 0.013547
5.115085 25.653221 0.015142
5.428907 25.653221 0.017134
5.742730 25.653221 0.019693
6.056554 25.653221 0.022876
6.370377 25.653221 0.026997
6.684199 25.653221 0.031653
6.998022 25.653221 0.038145
7.311846 25.653221 0.046920
7.625669 25.653221 0.058202
7.939491 25.653221 0.074166
8.253315 25.653221 0.093513
8.567138 25.653221 0.117847
8.880960 25.653221 0.151352
9.194784 25.653221 0.195581
9.508606 25.653221 0.251007
9.822430 25.653221 0.317422
10.136253 25.653221 0.399432
10.450075 25.653221 0.491946
10.763899 25.653221 0.590386
11.077723 25.653221 0.705077
11.391544 25.653221 0.814794
11.705368 25.653221 0.935239
12.019190 25.653221 1.070245
12.333014 25.653221 1.191406
12.646837 25.653221 1.299028
12.960659 25.653221 1.413571
13.274483 25.653221 1.511815
13.588306 25.653221 1.601501
13.902128 25.653221 1.643548
14.215952 25.653221 1.650762
14.529776 25.653221 1.643414
14.843597 25.653221 1.653342
15.157421 25.653221 1.659882
15.471243 25.653221 1.653315
15.785067 25.653221 1.618585
16.098890 25.653221 1.576370
16.412712 25.653221 1.527831
16.726536 25.653221 1.475780
17.040359 25.653221 1.434162
17.354181 25.653221 1.406578
17.668005 25.653221 1.366058
17.981829 25.653221 1.352747
18.295650 25.653221 1.387959
18.609474 25.653221 1.448368
18.923298 25.653221 0.331287
19.237120 25.653221 0.000000
-6.810190 25.339399 0.000000
-6.496367 25.339399 0.007577
-6.182544 25.339399 0.005976
-5.868721 25.339399 0.005485
-5.554898 25.339399 0.005515
-5.241075 25.339399 0.005552
-4.927252 25.339399 0.005544
-4.613429 25.339399 0.005369
-4.299606 25.339399 0.005340
-3.985783 25.339399 0.005392
-3.671960 25.339399 0.005296
-3.358137 25.339399 0.005285
-3.044314 25.339399 0.005295
-2.730491 25.339399 0.005325
-2.416668 25.339399 0.005325
-2.102845 25.339399 0.005364
-1.789022 25.339399 0.005373
-1.475199 25.339399 0.005335
-1.161376 25.339399 0.005338
-0.847553 25.339399 0.005390
-0.533730 25.339399 0.005488
-0.219907 25.339399 0.005599
0.093916 25.339399 0.005672
0.407739 25.339399 0.005748
0.721562 25.339399 0.005942
1.035385 25.339399 0.006120
1.349208 25.339399 0.006306
1.663032 25.339399 0.006516
1.976854 25.339399 0.006818
2.290677 25.339399 0.007344
2.604500 25.339399 0.007805
2.918324 25.339399 0.008205
3.232146 25.339399 0.008672
3.545969 25.339399 0.009291
3.859793 25.339399 0.010142
4.173615 25.339399 0.011099
4.487438 25.339399 0.012114
4.801261 25.339399 0.013473
5.115085 25.339399 0.015092
5.428907 25.339399 0.017190
5.742730 25.339399 0.019710
6.056554 25.339399 0.022921
6.370377 25.339399 0.026868
6.684199 25.339399 0.031640
6.998022 25.339399 0.038295
7.311846 25.339399 0.047041
7.625669 25.339399 0.058375
7.939491 25.339399 0.073508
8.253315 25.339399 0.094503
8.567138 25.339399 0.119710
8.880960 25.339399 0.154109
9.194784 25.339399 0.194962
9.508606 25.339399 0.254215
9.822430 25.339399 0.317375
10.136253 25.339399 0.404633
10.450075 25.339399 0.498905
10.763899 25.339399 0.597030
11.077723 25.339399 0.698821
11.391544 25.339399 0.816647
11.705368 25.339399 0.954968
12.019190 25.339399 1.075928
12.333014 25.339399 1.201866
12.646837 25.339399 1.301623
12.960659 25.339399 1.414299
13.274483 25.339399 1.503386
13.588306 25.339399 1.588163
13.902128 25.339399 1.650227
14.215952 25.339399 1.657368
14.529776 25.339399 1.649212
14.843597 25.339399 1.661111
15.157421 25.339399 1.662682
15.471243 25.339399 1.652115
15.785067 25.339399 1.624344
16.098890 25.339399 1.578389
16.412712 25.339399 1.523259
16.726536 25.339399 1.474602
17.040359 25.339399 1.435897
17.354181 25.339399 1.396985
17.668005 25.339399 1.361297
17.981829 25.339399 1.370670
18.295650 25.339399 1.397655
18.609474 25.339399 1.475403
18.923298 25.339399 0.301230
19.237120 25.339399 0.000000
-6.810190 25.025576 0.000000
-6.496367 25.025576 0.007532
-6.182544 25.025576 0.005964
-5.868721 25.025576 0.005497
-5.554898 25.025576 0.005550
-5.241075 25.025576 0.005602
-4.927252 25.025576 0.005531
-4.613429 25.025576 0.005301
-4.299606 25.025576 0.005301
-3.985783 25.025576 0.005367
-3.671960 25.025576 0.005319
-3.358137 25.025576 0.005311
-3.044314 25.025576 0.005255
-2.730491 25.025576 0.005252
-2.416668 25.025576 0.005289
-2.102845 25.025576 0.005380
-1.789022 25.025576 0.005455
-1.475199 25.025576 0.005398
-1.161376 25.025576 0.005385
-0.847553 25.025576 0.005426
-0.533730 25.025576 0.005493
-0.219907 25.025576 0.005581
0.093916 25.025576 0.005664
0.407739 25.025576 0.005748
0.721562 25.025576 0.005974
1.035385 25.025576 0.006179
1.349208 25.025576 0.006378
1.663032 25.025576 0.006552
1.976854 25.025576 0.006879
2.290677 25.025576 0.007382
2.604500 25.025576 0.007899
2.918324 25.025576 0.008284
3.232146 25.025576 0.008688
3.545969 25.025576 0.009324
3.859793 25.025576 0.010207
4.173615 25.025576 0.011138
4.487438 25.025576 0.012140
4.801261 25.025576 0.013466
5.115085 25.025576 0.015117
5.428907 25.025576 0.017253
5.742730 25.025576 0.019874
6.056554 25.025576 0.022965
6.370377 25.025576 0.026829
6.684199 25.025576 0.031670
6.998022 25.025576 0.038191
7.311846 25.025576 0.046992
7.625669 25.025576 0.057720
7.939491 25.025576 0.073861
8.253315 25.025576 0.094743
8.567138 25.025576 0.121081
8.880960 25.025576 0.154966
9.194784 25.025576 0.198708
9.508606 25.025576 0.256936
9.822430 25.025576 0.317663
10.136253 25.025576 0.397611
10.450075 25.025576 0.500123
10.763899 25.025576 0.601380
11.077723 25.025576 0.708642
11.391544 25.025576 0.826922
11.705368 25.025576 0.958982
12.019190 25.025576 1.083746
12.333014 25.025576 1.194645
12.646837 25.025576 1.299564
12.960659 25.025576 1.413128
13.274483 25.025576 1.505729
13.588306 25.025576 1.586263
13.902128 25.025576 1.638316
14.215952 25.025576 1.660767
14.529776 25.025576 1.669976
14.843597 25.025576 1.676116
15.157421 25.025576 1.659769
15.471243 25.025576 1.649151
15.785067 25.025576 1.629561
16.098890 25.025576 1.580545
16.412712 25.025576 1.527640
16.726536 25.025576 1.473038
17.040359 25.025576 1.437667
17.354181 25.025576 1.396621
17.668005 25.025576 1.377434
17.981829 25.025576 1.369450
18.295650 25.025576 1.406470
18.609474 25.025576 1.484472
18.923298 25.025576 0.265319
19.237120 25.025576 0.000000
-6.810190 24.711752 0.000000
-6.496367 24.711752 0.007479
-6.182544 24.711752 0.005948
-5.868721 24.711752 0.005516
-5.554898 24.711752 0.005564
-5.241075 24.711752 0.005622
-4.927252 24.711752 0.005490
-4.613429 24.711752 0.005235
-4.299606 24.711752 0.005256
-3.985783 24.711752 0.005333
-3.671960 24.711752 0.005307
-3.358137 24.711752 0.005299
-3.044314 24.711752 0.005228
-2.730491 24.711752 0.005209
-2.416668 24.711752 0.005253
-2.102845 24.711752 0.005367
-1.789022 24.711752 0.005479
-1.475199 24.711752 0.005430
-1.161376 24.711752 0.005446
-0.847553 24.711752 0.005468
-0.533730 24.711752 0.005476
-0.219907 24.711752 0.005550
0.093916 24.711752 0.005652
0.407739 24.711752 0.005768
0.721562 24.711752 0.006010
1.035385 24.711752 0.006234
1.349208 24.711752 0.006435
1.663032 24.711752 0.006631
1.976854 24.711752 0.006934
2.290677 24.711752 0.007406
2.604500 24.711752 0.007939
2.918324 24.711752 0.008318
3.232146 24.711752 0.008691
3.545969 24.711752 0.009342
3.859793 24.711752 0.010238
4.173615 24.711752 0.011151
4.487438 24.711752 0.012185
4.801261 24.711752 0.013459
5.115085 24.711752 0.015168
5.428907 24.711752 0.017327
5.742730 24.711752 0.019992
6.056554 24.711752 0.022982
6.370377 24.711752 0.026837
6.684199 24.711752 0.031809
6.998022 24.711752 0.038374
7.311846 24.711752 0.046833
7.625669 24.711752 0.057812
7.939491 24.711752 0.072605
8.253315 24.711752 0.094461
8.567138 24.711752 0.121348
8.880960 24.711752 0.154963
9.194784 24.711752 0.196186
9.508606 24.711752 0.255191
9.822430 24.711752 0.321457
10.136253 24.711752 0.397397
10.450075 24.711752 0.496192
10.763899 24.711752 0.605529
11.077723 24.711752 0.712667
11.391544 24.711752 0.825655
11.705368 24.711752 0.954019
12.019190 24.711752 1.086453
12.333014 24.711752 1.189482
12.646837 24.711752 1.289518
12.960659 24.711752 1.407787
13.274483 24.711752 1.496732
13.588306 24.711752 1.584692
13.902128 24.711752 1.632614
14.215952 24.711752 1.665493
14.529776 24.711752 1.686200
14.843597 24.711752 1.693579
15.157421 24.711752 1.676283
15.471243 24.711752 1.661538
15.785067 24.711752 1.628566
16.098890 24.711752 1.592132
16.412712 24.711752 1.535981
16.726536 24.711752 1.483113
17.040359 24.711752 1.438781
17.354181 24.711752 1.407438
17.668005 24.711752 1.384636
17.981829 24.711752 1.382208
18.295650 24.711752 1.414401
18.609474 24.711752 1.494403
18.923298 24.711752 0.246032
19.237120 24.711752 0.000000
-6.810190 24.397930 0.000000
-6.496367 24.397930 0.007484
-6.182544 24.397930 0.005928
-5.868721 24.397930 0.005466
-5.554898 24.397930 0.005502
-5.241075 24.397930 0.005565
-4.927252 24.397930 0.005418
-4.613429 24.397930 0.005200
-4.299606 24.397930 0.005222
-3.985783 24.397930 0.005297
-3.671960 24.397930 0.005296
-3.358137 24.397930 0.005301
-3.044314 24.397930 0.005219
-2.730491 24.397930 0.005168
-2.416668 24.397930 0.005186
-2.102845 24.397930 0.005316
-1.789022 24.397930 0.005421
-1.475199 24.397930 0.005413
-1.161376 24.397930 0.005454
-0.847553 24.397930 0.005484
-0.533730 24.397930 0.005452
-0.219907 24.397930 0.005550
0.093916 24.397930 0.005628
0.407739 24.397930 0.005768
0.721562 24.397930 0.006006
1.035385 24.397930 0.006218
1.349208 24.397930 0.006480
1.663032 24.397930 0.006701
1.976854 24.397930 0.006971
2.290677 24.397930 0.007415
2.604500 24.397930 0.007915
2.918324 24.397930 0.008331
3.232146 24.397930 0.008689
3.545969 24.397930 0.009333
3.859793 24.397930 0.010178
4.173615 24.397930 0.011144
4.487438 24.397930 0.012200
4.801261 24.397930 0.013519
5.115085 24.397930 0.015253
5.428907 24.397930 0.017411
5.742730 24.397930 0.020040
6.056554 24.397930 0.023050
6.370377 24.397930 0.026795
6.684199 24.397930 0.031689
6.998022 24.397930 0.038371
7.311846 24.397930 0.046467
7.625669 24.397930 0.057056
7.939491 24.397930 0.072535
8.253315 24.397930 0.095080
8.567138 24.397930 0.121448
8.880960 24.397930 0.157131
9.194784 24.397930 0.198844
9.508606 24.397930 0.255510
9.822430 24.397930 0.324771
10.136253 24.397930 0.403800
10.450075 24.397930 0.494640
10.763899 24.397930 0.603526
11.077723 24.397930 0.720866
11.391544 24.397930 0.831587
11.705368 24.397930 0.956665
12.019190 24.397930 1.082579
12.333014 24.397930 1.193063
12.646837 24.397930 1.296427
12.960659 24.397930 1.396596
13.274483 24.397930 1.496721
13.588306 24.397930 1.584411
13.902128 24.397930 1.636859
14.215952 24.397930 1.670799
14.529776 24.397930 1.697659
14.843597 24.397930 1.697771
15.157421 24.397930 1.687739
15.471243 24.397930 1.669098
15.785067 24.397930 1.639641
16.098890 24.397930 1.592295
16.412712 24.397930 1.541851
16.726536 24.397930 1.495858
17.040359 24.397930 1.443355
17.354181 24.397930 1.416954
17.668005 24.397930 1.392202
17.981829 24.397930 1.389030
18.295650 24.397930 1.424056
18.609474 24.397930 1.488197
18.923298 24.397930 0.219226
19.237120 24.397930 0.000000
-6.810190 24.084106 0.000000
-6.496367 24.084106 0.007554
-6.182544 24.084106 0.005849
-5.868721 24.084106 0.005382
-5.554898 24.084106 0.005389
-5.241075 24.084106 0.005422
-4.927252 24.084106 0.005355
-4.613429 24.084106 0.005190
-4.299606 24.084106 0.005194
-3.985783 24.084106 0.005283
-3.671960 24.084106 0.005284
-3.358137 24.084106 0.005304
-3.044314 24.084106 0.005243
-2.730491 24.084106 0.005161
-2.416668 24.084106 0.005129
-2.102845 24.084106 0.005221
-1.789022 24.084106 0.005312
-1.475199 24.084106 0.005357
-1.161376 24.084106 0.005439
-0.847553 24.084106 0.005455
-0.533730 24.084106 0.005442
-0.219907 24.084106 0.005538
0.093916 24.084106 0.005601
0.407739 24.084106 0.005749
0.721562 24.084106 0.005969
1.035385 24.084106 0.006161
1.349208 24.084106 0.006468
1.663032 24.084106 0.006729
1.976854 24.084106 0.006988
2.290677 24.084106 0.007405
2.604500 24.084106 0.007841
2.918324 24.084106 0.008254
3.232146 24.084106 0.008673
3.545969 24.084106 0.009299
3.859793 24.084106 0.010135
4.173615 24.084106 0.011103
4.487438 24.084106 0.012226
4.801261 24.084106 0.013560
5.115085 24.084106 0.015331
5.428907 24.084106 0.017426
5.742730 24.084106 0.019939
6.056554 24.084106 0.023037
6.370377 24.084106 0.026862
6.684199 24.084106 0.031627
6.998022 24.084106 0.037947
7.311846 24.084106 0.046387
7.625669 24.084106 0.057605
7.939491 24.084106 0.073588
8.253315 24.084106 0.094633
8.567138 24.084106 0.120689
8.880960 24.084106 0.155435
9.194784 24.084106 0.198149
9.508606 24.084106 0.255307
9.822430 24.084106 0.325035
10.136253 24.084106 0.409923
10.450075 24.084106 0.502917
10.763899 24.084106 0.603737
11.077723 24.084106 0.719606
11.391544 24.084106 0.832455
11.705368 24.084106 0.966212
12.019190 24.084106 1.090157
12.333014 24.084106 1.201515
12.646837 24.084106 1.293710
12.960659 24.084106 1.401872
13.274483 24.084106 1.499649
13.588306 24.084106 1.583771
13.902128 24.084106 1.642318
14.215952 24.084106 1.674862
14.529776 24.084106 1.707043
14.843597 24.084106 1.711718
15.157421 24.084106 1.693155
15.471243 24.084106 1.680368
15.785067 24.084106 1.639992
16.098890 24.084106 1.598930
16.412712 24.084106 1.555164
16.726536 24.084106 1.504756
17.040359 24.084106 1.455364
17.354181 24.084106 1.423882
17.668005 24.084106 1.400913
17.981829 24.084106 1.392186
18.295650 24.084106 1.430081
18.609474 24.084106 1.492157
18.923298 24.084106 0.199167
19.237120 24.084106 0.000000
-6.810190 23.770283 0.000000
-6.496367 23.770283 0.007587
-6.182544 23.770283 0.005719
-5.868721 23.770283 0.005281
-5.554898 23.770283 0.005274
-5.241075 23.770283 0.005292
-4.927252 23.770283 0.005281
-4.613429 23.770283 0.005167
-4.299606 23.770283 0.005145
-3.985783 23.770283 0.005241
-3.671960 23.770283 0.005262
-3.358137 23.770283 0.005288
-3.044314 23.770283 0.005276
-2.730491 23.770283 0.005180
-2.416668 23.770283 0.005115
-2.102845 23.770283 0.005151
-1.789022 23.770283 0.005248
-1.475199 23.770283 0.005330
-1.161376 23.770283 0.005428
-0.847553 23.770283 0.005437
-0.533730 23.770283 0.005424
-0.219907 23.770283 0.005502
0.093916 23.770283 0.005581
0.407739 23.770283 0.005715
0.721562 23.770283 0.005894
1.035385 23.770283 0.006061
1.349208 23.770283 0.006415
1.663032 23.770283 0.006719
1.976854 23.770283 0.006975
2.290677 23.770283 0.007328
2.604500 23.770283 0.007714
2.918324 23.770283 0.008135
3.232146 23.770283 0.008634
3.545969 23.770283 0.009277
3.859793 23.770283 0.010099
4.173615 23.770283 0.011070
4.487438 23.770283 0.012227
4.801261 23.770283 0.013596
5.115085 23.770283 0.015316
5.428907 23.770283 0.017376
5.742730 23.770283 0.019740
6.056554 23.770283 0.022782
6.370377 23.770283 0.026763
6.684199 23.770283 0.031606
6.998022 23.770283 0.038168
7.311846 23.770283 0.046796
7.625669 23.770283 0.057601
7.939491 23.770283 0.073354
8.253315 23.770283 0.093592
8.567138 23.770283 0.121273
8.880960 23.770283 0.154280
9.194784 23.770283 0.197590
9.508606 23.770283 0.257374
9.822430 23.770283 0.326944
10.136253 23.770283 0.416781
10.450075 23.770283 0.507650
10.763899 23.770283 0.613851
11.077723 23.770283 0.719626
11.391544 23.770283 0.844176
11.705368 23.770283 0.966846
12.019190 23.770283 1.091606
12.333014 23.770283 1.199646
12.646837 23.770283 1.290257
12.960659 23.770283 1.402895
13.274483 23.770283 1.493480
13.588306 23.770283 1.584808
13.902128 23.770283 1.649682
14.215952 23.770283 1.679782
14.529776 23.770283 1.712997
14.843597 23.770283 1.719405
15.157421 23.770283 1.707255
15.471243 23.770283 1.689743
15.785067 23.770283 1.652992
16.098890 23.770283 1.608365
16.412712 23.770283 1.558357
16.726536 23.770283 1.511782
17.040359 23.770283 1.474196
17.354181 23.770283 1.435286
17.668005 23.770283 1.421592
17.981829 23.770283 1.417313
18.295650 23.770283 1.451947
18.609474 23.770283 1.495021
18.923298 23.770283 0.173283
19.237120 23.770283 0.000000
-6.810190 23.456461 0.000000
-6.496367 23.456461 0.007613
-6.182544 23.456461 0.005598
-5.868721 23.456461 0.005190
-5.554898 23.456461 0.005188
-5.241075 23.456461 0.005232
-4.927252 23.456461 0.005259
-4.613429 23.456461 0.005149
-4.299606 23.456461 0.005109
-3.985783 23.456461 0.005168
-3.671960 23.456461 0.005195
-3.358137 23.456461 0.005229
-3.044314 23.456461 0.005244
-2.730491 23.456461 0.005188
-2.416668 23.456461 0.005113
-2.102845 23.456461 0.005124
-1.789022 23.456461 0.005216
-1.475199 23.456461 0.005324
-1.161376 23.456461 0.005410
-0.847553 23.456461 0.005419
-0.533730 23.456461 0.005418
-0.219907 23.456461 0.005460
0.093916 23.456461 0.005570
0.407739 23.456461 0.005688
0.721562 23.456461 0.005807
1.035385 23.456461 0.005955
1.349208 23.456461 0.006350
1.663032 23.456461 0.006675
1.976854 23.456461 0.006919
2.290677 23.456461 0.007210
2.604500 23.456461 0.007593
2.918324 23.456461 0.008063
3.232146 23.456461 0.008601
3.545969 23.456461 0.009297
3.859793 23.456461 0.010095
4.173615 23.456461 0.011082
4.487438 23.456461 0.012223
4.801261 23.456461 0.013562
5.115085 23.456461 0.015269
5.428907 23.456461 0.017316
5.742730 23.456461 0.019686
6.056554 23.456461 0.022620
6.370377 23.456461 0.026592
6.684199 23.456461 0.031698
6.998022 23.456461 0.038444
7.311846 23.456461 0.046821
7.625669 23.456461 0.058069
7.939491 23.456461 0.073335
8.253315 23.456461 0.094739
8.567138 23.456461 0.122954
8.880960 23.456461 0.157879
9.194784 23.456461 0.201188
9.508606 23.456461 0.257604
9.822430 23.456461 0.333732
10.136253 23.456461 0.413210
10.450075 23.456461 0.503943
10.763899 23.456461 0.609823
11.077723 23.456461 0.719397
11.391544 23.456461 0.831630
11.705368 23.456461 0.957782
12.019190 23.456461 1.081271
12.333014 23.456461 1.195054
12.646837 23.456461 1.286360
12.960659 23.456461 1.399672
13.274483 23.456461 1.489682
13.588306 23.456461 1.583998
13.902128 23.456461 1.647086
14.215952 23.456461 1.688352
14.529776 23.456461 1.704733
14.843597 23.456461 1.722080
15.157421 23.456461 1.728904
15.471243 23.456461 1.703529
15.785067 23.456461 1.660026
16.098890 23.456461 1.621216
16.412712 23.456461 1.555091
16.726536 23.456461 1.515331
17.040359 23.456461 1.477801
17.354181 23.456461 1.453165
17.668005 23.456461 1.427057
17.981829 23.456461 1.431240
18.295650 23.456461 1.475452
18.609474 23.456461 1.529358
18.923298 23.456461 0.149185
19.237120 23.456461 0.000000
-6.810190 23.142637 0.000000
-6.496367 23.142637 0.007553
-6.182544 23.142637 0.005509
-5.868721 23.142637 0.005165
-5.554898 23.142637 0.005197
-5.241075 23.142637 0.005222
-4.927252 23.142637 0.005221
-4.613429 23.142637 0.005093
-4.299606 23.142637 0.005054
-3.985783 23.142637 0.005073
-3.671960 23.142637 0.005105
-3.358137 23.142637 0.005121
-3.044314 23.142637 0.005168
-2.730491 23.142637 0.005177
-2.416668 23.142637 0.005123
-2.102845 23.142637 0.005075
-1.789022 23.142637 0.005171
-1.475199 23.142637 0.005298
-1.161376 23.142637 0.005377
-0.847553 23.142637 0.005367
-0.533730 23.142637 0.005355
-0.219907 23.142637 0.005446
0.093916 23.142637 0.005563
0.407739 23.142637 0.005674
0.721562 23.142637 0.005770
1.035385 23.142637 0.005920
1.349208 23.142637 0.006285
1.663032 23.142637 0.006609
1.976854 23.142637 0.006834
2.290677 23.142637 0.007094
2.604500 23.142637 0.007486
2.918324 23.142637 0.008006
3.232146 23.142637 0.008595
3.545969 23.142637 0.009259
3.859793 23.142637 0.010108
4.173615 23.142637 0.011101
4.487438 23.142637 0.012223
4.801261 23.142637 0.013529
5.115085 23.142637 0.015187
5.428907 23.142637 0.017270
5.742730 23.142637 0.019608
6.056554 23.142637 0.022629
6.370377 23.142637 0.026438
6.684199 23.142637 0.031545
6.998022 23.142637 0.038431
7.311846 23.142637 0.046821
7.625669 23.142637 0.057981
7.939491 23.142637 0.074618
8.253315 23.142637 0.096474
8.567138 23.142637 0.124184
8.880960 23.142637 0.159496
9.194784 23.142637 0.204586
9.508606 23.142637 0.261244
9.822430 23.142637 0.333285
10.136253 23.142637 0.415679
10.450075 23.142637 0.506501
10.763899 23.142637 0.605545
11.077723 23.142637 0.725027
11.391544 23.142637 0.841673
11.705368 23.142637 0.970615
12.019190 23.142637 1.085960
12.333014 23.142637 1.183102
12.646837 23.142637 1.282685
12.960659 23.142637 1.389795
13.274483 23.142637 1.495875
13.588306 23.142637 1.581742
13.902128 23.142637 1.650594
14.215952 23.142637 1.700074
14.529776 23.142637 1.722596
14.843597 23.142637 1.725783
15.157421 23.142637 1.738772
15.471243 23.142637 1.707203
15.785067 23.142637 1.659078
16.098890 23.142637 1.618454
16.412712 23.142637 1.561556
16.726536 23.142637 1.513564
17.040359 23.142637 1.475942
17.354181 23.142637 1.453671
17.668005 23.142637 1.432472
17.981829 23.142637 1.433250
18.295650 23.142637 1.485686
18.609474 23.142637 1.544037
18.923298 23.142637 0.128786
19.237120 23.142637 0.000000
-6.810190 22.828814 0.000000
-6.496367 22.828814 0.007397
-6.182544 22.828814 0.005405
-5.868721 22.828814 0.005149
-5.554898 22.828814 0.005176
-5.241075 22.828814 0.005198
-4.927252 22.828814 0.005143
-4.613429 22.828814 0.005007
-4.299606 22.828814 0.004998
-3.985783 22.828814 0.004999
-3.671960 22.828814 0.004991
-3.358137 22.828814 0.004998
-3.044314 22.828814 0.005079
-2.730491 22.828814 0.005123
-2.416668 22.828814 0.005088
-2.102845 22.828814 0.005028
-1.789022 22.828814 0.005112
-1.475199 22.828814 0.005233
-1.161376 22.828814 0.005306
-0.847553 22.828814 0.005292
-0.533730 22.828814 0.005256
-0.219907 22.828814 0.005422
0.093916 22.828814 0.005575
0.407739 22.828814 0.005683
0.721562 22.828814 0.005783
1.035385 22.828814 0.005941
1.349208 22.828814 0.006234
1.663032 22.828814 0.006538
1.976854 22.828814 0.006781
2.290677 22.828814 0.006988
2.604500 22.828814 0.007360
2.918324 22.828814 0.007935
3.232146 22.828814 0.008584
3.545969 22.828814 0.009252
3.859793 22.828814 0.010089
4.173615 22.828814 0.011070
4.487438 22.828814 0.012204
4.801261 22.828814 0.013477
5.115085 22.828814 0.015111
5.428907 22.828814 0.017164
5.742730 22.828814 0.019569
6.056554 22.828814 0.022618
6.370377 22.828814 0.026449
6.684199 22.828814 0.031624
6.998022 22.828814 0.038037
7.311846 22.828814 0.046572
7.625669 22.828814 0.058388
7.939491 22.828814 0.075064
8.253315 22.828814 0.096007
8.567138 22.828814 0.124643
8.880960 22.828814 0.158843
9.194784 22.828814 0.205346
9.508606 22.828814 0.263521
9.822430 22.828814 0.329341
10.136253 22.828814 0.408186
10.450075 22.828814 0.506820
10.763899 22.828814 0.602493
11.077723 22.828814 0.717313
11.391544 22.828814 0.842828
11.705368 22.828814 0.976200
12.019190 22.828814 1.084666
12.333014 22.828814 1.183855
12.646837 22.828814 1.284040
12.960659 22.828814 1.397928
13.274483 22.828814 1.496623
13.588306 22.828814 1.596595
13.902128 22.828814 1.662511
14.215952 22.828814 1.707237
14.529776 22.828814 1.735913
14.843597 22.828814 1.741878
15.157421 22.828814 1.751473
15.471243 22.828814 1.730688
15.785067 22.828814 1.665184
16.098890 22.828814 1.618586
16.412712 22.828814 1.560123
16.726536 22.828814 1.506948
17.040359 22.828814 1.485393
17.354181 22.828814 1.461014
17.668005 22.828814 1.448263
17.981829 22.828814 1.445313
18.295650 22.828814 1.489120
18.609474 22.828814 1.541828
18.923298 22.828814 0.108699
19.237120 22.828814 0.000000
-6.810190 22.514992 0.000000
-6.496367 22.514992 0.007199
-6.182544 22.514992 0.005333
-5.868721 22.514992 0.005116
-5.554898 22.514992 0.005144
-5.241075 22.514992 0.005145
-4.927252 22.514992 0.005053
-4.613429 22.514992 0.004920
-4.299606 22.514992 0.004956
-3.985783 22.514992 0.004949
-3.671960 22.514992 0.004881
-3.358137 22.514992 0.004910
-3.044314 22.514992 0.004981
-2.730491 22.514992 0.005011
-2.416668 22.514992 0.005012
-2.102845 22.514992 0.004975
-1.789022 22.514992 0.005025
-1.475199 22.514992 0.005132
-1.161376 22.514992 0.005216
-0.847553 22.514992 0.005217
-0.533730 22.514992 0.005190
-0.219907 22.514992 0.005392
0.093916 22.514992 0.005553
0.407739 22.514992 0.005677
0.721562 22.514992 0.005801
1.035385 22.514992 0.005945
1.349208 22.514992 0.006189
1.663032 22.514992 0.006475
1.976854 22.514992 0.006738
2.290677 22.514992 0.006943
2.604500 22.514992 0.007293
2.918324 22.514992 0.007901
3.232146 22.514992 0.008579
3.545969 22.514992 0.009253
3.859793 22.514992 0.010034
4.173615 22.514992 0.011020
4.487438 22.514992 0.012115
4.801261 22.514992 0.013394
5.115085 22.514992 0.015018
5.428907 22.514992 0.017054
5.742730 22.514992 0.019569
6.056554 22.514992 0.022534
6.370377 22.514992 0.026337
6.684199 22.514992 0.031650
6.998022 22.514992 0.037973
7.311846 22.514992 0.046492
7.625669 22.514992 0.058183
7.939491 22.514992 0.074354
8.253315 22.514992 0.095981
8.567138 22.514992 0.123898
8.880960 22.514992 0.159773
9.194784 22.514992 0.206651
9.508606 22.514992 0.263811
9.822430 22.514992 0.332875
10.136253 22.514992 0.410416
10.450075 22.514992 0.508023
10.763899 22.514992 0.604539
11.077723 22.514992 0.720683
11.391544 22.514992 0.841594
11.705368 22.514992 0.969785
12.019190 22.514992 1.089910
12.333014 22.514992 1.185701
12.646837 22.514992 1.291497
12.960659 22.514992 1.405071
13.274483 22.514992 1.508222
13.588306 22.514992 1.605538
13.902128 22.514992 1.671912
14.215952 22.514992 1.725552
14.529776 22.514992 1.744641
14.843597 22.514992 1.752901
15.157421 22.514992 1.752550
15.471243 22.514992 1.723114
15.785067 22.514992 1.667930
16.098890 22.514992 1.613835
16.412712 22.514992 1.566462
16.726536 22.514992 1.524464
17.040359 22.514992 1.491833
17.354181 22.514992 1.461654
17.668005 22.514992 1.454285
17.981829 22.514992 1.455685
18.295650 22.514992 1.482614
18.609474 22.514992 1.527182
18.923298 22.514992 0.103088
19.237120 22.514992 0.000000
-6.810190 22.201168 0.000000
-6.496367 22.201168 0.007041
-6.182544 22.201168 0.005270
-5.868721 22.201168 0.005050
-5.554898 22.201168 0.005064
-5.241075 22.201168 0.005035
-4.927252 22.201168 0.004984
-4.613429 22.201168 0.004863
-4.299606 22.201168 0.004920
-3.985783 22.201168 0.004913
-3.671960 22.201168 0.004820
-3.358137 22.201168 0.004845
-3.044314 22.201168 0.004897
-2.730491 22.201168 0.004892
-2.416668 22.201168 0.004900
-2.102845 22.201168 0.004885
-1.789022 22.201168 0.004945
-1.475199 22.201168 0.005014
-1.161376 22.201168 0.005077
-0.847553 22.201168 0.005135
-0.533730 22.201168 0.005182
-0.219907 22.201168 0.005337
0.093916 22.201168 0.005479
0.407739 22.201168 0.005645
0.721562 22.201168 0.005801
1.035385 22.201168 0.005941
1.349208 22.201168 0.006162
1.663032 22.201168 0.006412
1.976854 22.201168 0.006688
2.290677 22.201168 0.006928
2.604500 22.201168 0.007292
2.918324 22.201168 0.007867
3.232146 22.201168 0.008560
3.545969 22.201168 0.009202
3.859793 22.201168 0.010036
4.173615 22.201168 0.010956
4.487438 22.201168 0.012006
4.801261 22.201168 0.013302
5.115085 22.201168 0.014905
5.428907 22.201168 0.016955
5.742730 22.201168 0.019526
6.056554 22.201168 0.022651
6.370377 22.201168 0.026625
6.684199 22.201168 0.031844
6.998022 22.201168 0.037900
7.311846 22.201168 0.046699
7.625669 22.201168 0.058759
7.939491 22.201168 0.074993
8.253315 22.201168 0.096412
8.567138 22.201168 0.124429
8.880960 22.201168 0.157842
9.194784 22.201168 0.205867
9.508606 22.201168 0.267082
9.822430 22.201168 0.336533
10.136253 22.201168 0.416730
10.450075 22.201168 0.513360
10.763899 22.201168 0.608252
11.077723 22.201168 0.727842
11.391544 22.201168 0.838261
11.705368 22.201168 0.961484
12.019190 22.201168 1.088298
12.333014 22.201168 1.188580
12.646837 22.201168 1.298488
12.960659 22.201168 1.408344
13.274483 22.201168 1.513273
13.588306 22.201168 1.612448
13.902128 22.201168 1.680348
14.215952 22.201168 1.723798
14.529776 22.201168 1.765060
14.843597 22.201168 1.762329
15.157421 22.201168 1.749338
15.471243 22.201168 1.725505
15.785067 22.201168 1.662505
16.098890 22.201168 1.620318
16.412712 22.201168 1.571686
16.726536 22.201168 1.525799
17.040359 22.201168 1.493037
17.354181 22.201168 1.452749
17.668005 22.201168 1.441442
17.981829 22.201168 1.451075
18.295650 22.201168 1.477866
18.609474 22.201168 1.517699
18.923298 22.201168 0.087191
19.237120 22.201168 0.000000
-6.810190 21.887346 0.000000
-6.496367 21.887346 0.006971
-6.182544 21.887346 0.005225
-5.868721 21.887346 0.004957
-5.554898 21.887346 0.004959
-5.241075 21.887346 0.004945
-4.927252 21.887346 0.004940
-4.613429 21.887346 0.004854
-4.299606 21.887346 0.004907
-3.985783 21.887346 0.004902
-3.671960 21.887346 0.004823
-3.358137 21.887346 0.004828
-3.044314 21.887346 0.004853
-2.730491 21.887346 0.004821
-2.416668 21.887346 0.004824
-2.102845 21.887346 0.004847
-1.789022 21.887346 0.004894
-1.475199 21.887346 0.004899
-1.161376 21.887346 0.004950
-0.847553 21.887346 0.005071
-0.533730 21.887346 0.005198
-0.219907 21.887346 0.005291
0.093916 21.887346 0.005376
0.407739 21.887346 0.005580
0.721562 21.887346 0.005745
1.035385 21.887346 0.005902
1.349208 21.887346 0.006154
1.663032 21.887346 0.006359
1.976854 21.887346 0.006612
2.290677 21.887346 0.006927
2.604500 21.887346 0.007297
2.918324 21.887346 0.007815
3.232146 21.887346 0.008482
3.545969 21.887346 0.009157
3.859793 21.887346 0.009993
4.173615 21.887346 0.010884
4.487438 21.887346 0.011911
4.801261 21.887346 0.013230
5.115085 21.887346 0.014871
5.428907 21.887346 0.016958
5.742730 21.887346 0.019485
6.056554 21.887346 0.022773
6.370377 21.887346 0.026778
6.684199 21.887346 0.031836
6.998022 21.887346 0.037985
7.311846 21.887346 0.046848
7.625669 21.887346 0.058995
7.939491 21.887346 0.074599
8.253315 21.887346 0.095710
8.567138 21.887346 0.123923
8.880960 21.887346 0.158545
9.194784 21.887346 0.205064
9.508606 21.887346 0.267056
9.822430 21.887346 0.340254
10.136253 21.887346 0.422404
10.450075 21.887346 0.507968
10.763899 21.887346 0.613560
11.077723 21.887346 0.727096
11.391544 21.887346 0.836185
11.705368 21.887346 0.965959
12.019190 21.887346 1.087403
12.333014 21.887346 1.200956
12.646837 21.887346 1.299081
12.960659 21.887346 1.414490
13.274483 21.887346 1.515686
13.588306 21.887346 1.619801
13.902128 21.887346 1.677263
14.215952 21.887346 1.716727
14.529776 21.887346 1.752822
14.843597 21.887346 1.757837
15.157421 21.887346 1.759930
15.471243 21.887346 1.725507
15.785067 21.887346 1.672731
16.098890 21.887346 1.626185
16.412712 21.887346 1.559146
16.726536 21.887346 1.521893
17.040359 21.887346 1.479623
17.354181 21.887346 1.440335
17.668005 21.887346 1.427927
17.981829 21.887346 1.437863
18.295650 21.887346 1.467321
18.609474 21.887346 1.511065
18.923298 21.887346 0.078836
19.237120 21.887346 0.000000
-6.810190 21.573523 0.000000
-6.496367 21.573523 0.006919
-6.182544 21.573523 0.005189
-5.868721 21.573523 0.004913
-5.554898 21.573523 0.004872
-5.241075 21.573523 0.004875
-4.927252 21.573523 0.004910
-4.613429 21.573523 0.004848
-4.299606 21.573523 0.004893
-3.985783 21.573523 0.004857
-3.671960 21.573523 0.004795
-3.358137 21.573523 0.004787
-3.044314 21.573523 0.004804
-2.730491 21.573523 0.004776
-2.416668 21.573523 0.004790
-2.102845 21.573523 0.004832
-1.789022 21.573523 0.004863
-1.475199 21.573523 0.004814
-1.161376 21.573523 0.004843
-0.847553 21.573523 0.005029
-0.533730 21.573523 0.005199
-0.219907 21.573523 0.005281
0.093916 21.573523 0.005300
0.407739 21.573523 0.005479
0.721562 21.573523 0.005656
1.035385 21.573523 0.005847
1.349208 21.573523 0.006117
1.663032 21.573523 0.006278
1.976854 21.573523 0.006566
2.290677 21.573523 0.006969
2.604500 21.573523 0.007373
2.918324 21.573523 0.007773
3.232146 21.573523 0.008392
3.545969 21.573523 0.009086
3.859793 21.573523 0.009935
4.173615 21.573523 0.010819
4.487438 21.573523 0.011853
4.801261 21.573523 0.013239
5.115085 21.573523 0.014898
5.428907 21.573523 0.016943
5.742730 21.573523 0.019498
6.056554 21.573523 0.022590
6.370377 21.573523 0.026694
6.684199 21.573523 0.032020
6.998022 21.573523 0.038407
7.311846 21.573523 0.046892
7.625669 21.573523 0.058916
7.939491 21.573523 0.074375
8.253315 21.573523 0.095605
8.567138 21.573523 0.126351
8.880960 21.573523 0.160226
9.194784 21.573523 0.208437
9.508606 21.573523 0.269264
9.822430 21.573523 0.341864
10.136253 21.573523 0.425840
10.450075 21.573523 0.515173
10.763899 21.573523 0.613932
11.077723 21.573523 0.724787
11.391544 21.573523 0.844801
11.705368 21.573523 0.969337
12.019190 21.573523 1.097812
12.333014 21.573523 1.198707
12.646837 21.573523 1.308914
12.960659 21.573523 1.422272
13.274483 21.573523 1.521264
13.588306 21.573523 1.619825
13.902128 21.573523 1.680474
14.215952 21.573523 1.728823
14.529776 21.573523 1.746433
14.843597 21.573523 1.760368
15.157421 21.573523 1.749325
15.471243 21.573523 1.722903
15.785067 21.573523 1.681202
16.098890 21.573523 1.643574
16.412712 21.573523 1.574204
16.726536 21.573523 1.517024
17.040359 21.573523 1.488953
17.354181 21.573523 1.448621
17.668005 21.573523 1.430711
17.981829 21.573523 1.432168
18.295650 21.573523 1.460047
18.609474 21.573523 1.511497
18.923298 21.573523 0.077181
19.237120 21.573523 0.000000
-6.810190 21.259699 0.000000
-6.496367 21.259699 0.006795
-6.182544 21.259699 0.005142
-5.868721 21.259699 0.004903
-5.554898 21.259699 0.004834
-5.241075 21.259699 0.004787
-4.927252 21.259699 0.004842
-4.613429 21.259699 0.004836
-4.299606 21.259699 0.004830
-3.985783 21.259699 0.004756
-3.671960 21.259699 0.004732
-3.358137 21.259699 0.004721
-3.044314 21.259699 0.004753
-2.730491 21.259699 0.004749
-2.416668 21.259699 0.004733
-2.102845 21.259699 0.004800
-1.789022 21.259699 0.004803
-1.475199 21.259699 0.004761
-1.161376 21.259699 0.004786
-0.847553 21.259699 0.004961
-0.533730 21.259699 0.005127
-0.219907 21.259699 0.005248
0.093916 21.259699 0.005252
0.407739 21.259699 0.005407
0.721562 21.259699 0.005588
1.035385 21.259699 0.005782
1.349208 21.259699 0.006063
1.663032 21.259699 0.006231
1.976854 21.259699 0.006543
2.290677 21.259699 0.007015
2.604500 21.259699 0.007415
2.918324 21.259699 0.007789
3.232146 21.259699 0.008356
3.545969 21.259699 0.009018
3.859793 21.259699 0.009874
4.173615 21.259699 0.010776
4.487438 21.259699 0.011863
4.801261 21.259699 0.013328
5.115085 21.259699 0.015013
5.428907 21.259699 0.017012
5.742730 21.259699 0.019478
6.056554 21.259699 0.022682
6.370377 21.259699 0.026712
6.684199 21.259699 0.031983
6.998022 21.259699 0.038328
7.311846 21.259699 0.046979
7.625669 21.259699 0.058464
7.939491 21.259699 0.074562
8.253315 21.259699 0.097188
8.567138 21.259699 0.126308
8.880960 21.259699 0.164807
9.194784 21.259699 0.211689
9.508606 21.259699 0.268614
9.822430 21.259699 0.337898
10.136253 21.259699 0.425873
10.450075 21.259699 0.514839
10.763899 21.259699 0.616509
11.077723 21.259699 0.722905
11.391544 21.259699 0.842939
11.705368 21.259699 0.968506
12.019190 21.259699 1.093910
12.333014 21.259699 1.196573
12.646837 21.259699 1.308261
12.960659 21.259699 1.423298
13.274483 21.259699 1.527578
13.588306 21.259699 1.614956
13.902128 21.259699 1.681491
14.215952 21.259699 1.732590
14.529776 21.259699 1.759797
14.843597 21.259699 1.768784
15.157421 21.259699 1.756744
15.471243 21.259699 1.732378
15.785067 21.259699 1.681634
16.098890 21.259699 1.643459
16.412712 21.259699 1.594763
16.726536 21.259699 1.542173
17.040359 21.259699 1.495575
17.354181 21.259699 1.451781
17.668005 21.259699 1.432143
17.981829 21.259699 1.437738
18.295650 21.259699 1.467694
18.609474 21.259699 1.518569
18.923298 21.259699 0.000000
19.237120 21.259699 0.000000
-6.810190 20.945877 0.000000
-6.496367 20.945877 0.006589
-6.182544 20.945877 0.005055
-5.868721 20.945877 0.004841
-5.554898 20.945877 0.004793
-5.241075 20.945877 0.004729
-4.927252 20.945877 0.004739
-4.613429 20.945877 0.004759
-4.299606 20.945877 0.004697
-3.985783 20.945877 0.004639
-3.671960 20.945877 0.004647
-3.358137 20.945877 0.004642
-3.044314 20.945877 0.004681
-2.730491 20.945877 0.004687
-2.416668 20.945877 0.004676
-2.102845 20.945877 0.004720
-1.789022 20.945877 0.004727
-1.475199 20.945877 0.004759
-1.161376 20.945877 0.004791
-0.847553 20.945877 0.004897
-0.533730 20.945877 0.005019
-0.219907 20.945877 0.005173
0.093916 20.945877 0.005265
0.407739 20.945877 0.005393
0.721562 20.945877 0.005558
1.035385 20.945877 0.005734
1.349208 20.945877 0.005999
1.663032 20.945877 0.006214
1.976854 20.945877 0.006600
2.290677 20.945877 0.007075
2.604500 20.945877 0.007466
2.918324 20.945877 0.007838
3.232146 20.945877 0.008352
3.545969 20.945877 0.008993
3.859793 20.945877 0.009833
4.173615 20.945877 0.010777
4.487438 20.945877 0.011906
4.801261 20.945877 0.013390
5.115085 20.945877 0.015097
5.428907 20.945877 0.017030
5.742730 20.945877 0.019500
6.056554 20.945877 0.022713
6.370377 20.945877 0.026627
6.684199 20.945877 0.031808
6.998022 20.945877 0.038154
7.311846 20.945877 0.046724
7.625669 20.945877 0.058406
7.939491 20.945877 0.074933
8.253315 20.945877 0.096087
8.567138 20.945877 0.125288
8.880960 20.945877 0.163085
9.194784 20.945877 0.212494
9.508606 20.945877 0.268095
9.822430 20.945877 0.335925
10.136253 20.945877 0.422093
10.450075 20.945877 0.517214
10.763899 20.945877 0.619928
11.077723 20.945877 0.722620
11.391544 20.945877 0.845042
11.705368 20.945877 0.968214
12.019190 20.945877 1.088324
12.333014 20.945877 1.202247
12.646837 20.945877 1.299364
12.960659 20.945877 1.410014
13.274483 20.945877 1.520730
13.588306 20.945877 1.609663
13.902128 20.945877 1.686859
14.215952 20.945877 1.741585
14.529776 20.945877 1.766553
14.843597 20.945877 1.779011
15.157421 20.945877 1.771675
15.471243 20.945877 1.750700
15.785067 20.945877 1.702733
16.098890 20.945877 1.632796
16.412712 20.945877 1.594531
16.726536 20.945877 1.548757
17.040359 20.945877 1.487588
17.354181 20.945877 1.446669
17.668005 20.945877 1.431269
17.981829 20.945877 1.438156
18.295650 20.945877 1.458490
18.609474 20.945877 1.521635
18.923298 20.945877 0.000000
19.237120 20.945877 0.000000
-6.810190 20.632053 0.000000
-6.496367 20.632053 0.006454
-6.182544 20.632053 0.004953
-5.868721 20.632053 0.004723
-5.554898 20.632053 0.004700
-5.241075 20.632053 0.004655
-4.927252 20.632053 0.004607
-4.613429 20.632053 0.004616
-4.299606 20.632053 0.004572
-3.985783 20.632053 0.004536
-3.671960 20.632053 0.004542
-3.358137 20.632053 0.004570
-3.044314 20.632053 0.004604
-2.730491 20.632053 0.004628
-2.416668 20.632053 0.004604
-2.102845 20.632053 0.004612
-1.789022 20.632053 0.004646
-1.475199 20.632053 0.004752
-1.161376 20.632053 0.004820
-0.847553 20.632053 0.004809
-0.533730 20.632053 0.004891
-0.219907 20.632053 0.005081
0.093916 20.632053 0.005221
0.407739 20.632053 0.005345
0.721562 20.632053 0.005502
1.035385 20.632053 0.005699
1.349208 20.632053 0.005928
1.663032 20.632053 0.006202
1.976854 20.632053 0.006625
2.290677 20.632053 0.007103
2.604500 20.632053 0.007493
2.918324 20.632053 0.007885
3.232146 20.632053 0.008386
3.545969 20.632053 0.009006
3.859793 20.632053 0.009812
4.173615 20.632053 0.010782
4.487438 20.632053 0.011963
4.801261 20.632053 0.013404
5.115085 20.632053 0.015090
5.428907 20.632053 0.017041
5.742730 20.632053 0.019469
6.056554 20.632053 0.022673
6.370377 20.632053 0.026499
6.684199 20.632053 0.031605
6.998022 20.632053 0.038083
7.311846 20.632053 0.046412
7.625669 20.632053 0.058520
7.939491 20.632053 0.074503
8.253315 20.632053 0.096421
8.567138 20.632053 0.126056
8.880960 20.632053 0.162480
9.194784 20.632053 0.212885
9.508606 20.632053 0.272117
9.822430 20.632053 0.341283
10.136253 20.632053 0.428733
10.450075 20.632053 0.519017
10.763899 20.632053 0.618422
11.077723 20.632053 0.720214
11.391544 20.632053 0.850357
11.705368 20.632053 0.974407
12.019190 20.632053 1.097269
12.333014 20.632053 1.203825
12.646837 20.632053 1.306335
12.960659 20.632053 1.418877
13.274483 20.632053 1.529768
13.588306 20.632053 1.616773
13.902128 20.632053 1.682304
14.215952 20.632053 1.736212
14.529776 20.632053 1.767578
14.843597 20.632053 1.779861
15.157421 20.632053 1.779232
15.471243 20.632053 1.759553
15.785067 20.632053 1.709153
16.098890 20.632053 1.656728
16.412712 20.632053 1.612472
16.726536 20.632053 1.550007
17.040359 20.632053 1.477407
17.354181 20.632053 1.432774
17.668005 20.632053 1.427268
17.981829 20.632053 1.444068
18.295650 20.632053 1.462425
18.609474 20.632053 1.542179
18.923298 20.632053 0.000000
19.237120 20.632053 0.000000
-6.810190 20.318230 0.000000
-6.496367 20.318230 0.006242
-6.182544 20.318230 0.004816
-5.868721 20.318230 0.004587
-5.554898 20.318230 0.004575
-5.241075 20.318230 0.004538
-4.927252 20.318230 0.004481
-4.613429 20.318230 0.004472
-4.299606 20.318230 0.004491
-3.985783 20.318230 0.004438
-3.671960 20.318230 0.004440
-3.358137 20.318230 0.004498
-3.044314 20.318230 0.004524
-2.730491 20.318230 0.004540
-2.416668 20.318230 0.004523
-2.102845 20.318230 0.004523
-1.789022 20.318230 0.004578
-1.475199 20.318230 0.004712
-1.161376 20.318230 0.004817
-0.847553 20.318230 0.004757
-0.533730 20.318230 0.004818
-0.219907 20.318230 0.005014
0.093916 20.318230 0.005160
0.407739 20.318230 0.005277
0.721562 20.318230 0.005434
1.035385 20.318230 0.005627
1.349208 20.318230 0.005875
1.663032 20.318230 0.006177
1.976854 20.318230 0.006594
2.290677 20.318230 0.007040
2.604500 20.318230 0.007461
2.918324 20.318230 0.007883
3.232146 20.318230 0.008402
3.545969 20.318230 0.009018
3.859793 20.318230 0.009805
4.173615 20.318230 0.010784
4.487438 20.318230 0.011973
4.801261 20.318230 0.013365
5.115085 20.318230 0.015098
5.428907 20.318230 0.017031
5.742730 20.318230 0.019438
6.056554 20.318230 0.022595
6.370377 20.318230 0.026527
6.684199 20.318230 0.031547
6.998022 20.318230 0.038227
7.311846 20.318230 0.046632
7.625669 20.318230 0.057880
7.939491 20.318230 0.074683
8.253315 20.318230 0.097641
8.567138 20.318230 0.126862
8.880960 20.318230 0.161764
9.194784 20.318230 0.211805
9.508606 20.318230 0.272165
9.822430 20.318230 0.347557
10.136253 20.318230 0.431828
10.450075 20.318230 0.523120
10.763899 20.318230 0.628046
11.077723 20.318230 0.730014
11.391544 20.318230 0.849868
11.705368 20.318230 0.965123
12.019190 20.318230 1.098825
12.333014 20.318230 1.209603
12.646837 20.318230 1.303966
12.960659 20.318230 1.413576
13.274483 20.318230 1.523111
13.588306 20.318230 1.607812
13.902128 20.318230 1.678331
14.215952 20.318230 1.737592
14.529776 20.318230 1.747655
14.843597 20.318230 1.768132
15.157421 20.318230 1.764018
15.471243 20.318230 1.752412
15.785067 20.318230 1.711942
16.098890 20.318230 1.665107
16.412712 20.318230 1.603185
16.726536 20.318230 1.546260
17.040359 20.318230 1.475074
17.354181 20.318230 1.444542
17.668005 20.318230 1.436809
17.981829 20.318230 1.437685
18.295650 20.318230 1.477469
18.609474 20.318230 1.569360
18.923298 20.318230 0.000000
19.237120 20.318230 0.000000
-6.810190 20.004408 0.000000
-6.496367 20.004408 0.006026
-6.182544 20.004408 0.004657
-5.868721 20.004408 0.004450
-5.554898 20.004408 0.004463
-5.241075 20.004408 0.004450
-4.927252 20.004408 0.004381
-4.613429 20.004408 0.004374
-4.299606 20.004408 0.004432
-3.985783 20.004408 0.004373
-3.671960 20.004408 0.004347
-3.358137 20.004408 0.004410
-3.044314 20.004408 0.004456
-2.730491 20.004408 0.004441
-2.416668 20.004408 0.004451
-2.102845 20.004408 0.004450
-1.789022 20.004408 0.004540
-1.475199 20.004408 0.004644
-1.161376 20.004408 0.004760
-0.847553 20.004408 0.004748
-0.533730 20.004408 0.004803
-0.219907 20.004408 0.004927
0.093916 20.004408 0.005078
0.407739 20.004408 0.005220
0.721562 20.004408 0.005345
1.035385 20.004408 0.005571
1.349208 20.004408 0.005864
1.663032 20.004408 0.006165
1.976854 20.004408 0.006493
2.290677 20.004408 0.006938
2.604500 20.004408 0.007364
2.918324 20.004408 0.007802
3.232146 20.004408 0.008378
3.545969 20.004408 0.009004
3.859793 20.004408 0.009812
4.173615 20.004408 0.010786
4.487438 20.004408 0.011954
4.801261 20.004408 0.013306
5.115085 20.004408 0.014963
5.428907 20.004408 0.016999
5.742730 20.004408 0.019376
6.056554 20.004408 0.022594
6.370377 20.004408 0.026697
6.684199 20.004408 0.031732
6.998022 20.004408 0.038419
7.311846 20.004408 0.047078
7.625669 20.004408 0.058397
7.939491 20.004408 0.074611
8.253315 20.004408 0.097724
8.567138 20.004408 0.125879
8.880960 20.004408 0.162311
9.194784 20.004408 0.212135
9.508606 20.004408 0.276100
9.822430 20.004408 0.351078
10.136253 20.004408 0.439567
10.450075 20.004408 0.532065
10.763899 20.004408 0.633835
11.077723 20.004408 0.740948
11.391544 20.004408 0.858552
11.705368 20.004408 0.970194
12.019190 20.004408 1.087282
12.333014 20.004408 1.198170
12.646837 20.004408 1.307269
12.960659 20.004408 1.406810
13.274483 20.004408 1.511095
13.588306 20.004408 1.605740
13.902128 20.004408 1.683314
14.215952 20.004408 1.721687
14.529776 20.004408 1.742386
14.843597 20.004408 1.764713
15.157421 20.004408 1.758765
15.471243 20.004408 1.751029
15.785067 20.004408 1.705628
16.098890 20.004408 1.663305
16.412712 20.004408 1.608963
16.726536 20.004408 1.551476
17.040359 20.004408 1.483243
17.354181 20.004408 1.460896
17.668005 20.004408 1.444198
17.981829 20.004408 1.448835
18.295650 20.004408 1.506308
18.609474 20.004408 1.575073
18.923298 20.004408 0.000000
19.237120 20.004408 0.000000
-6.810190 19.690584 0.000000
-6.496367 19.690584 0.005797
-6.182544 19.690584 0.004501
-5.868721 19.690584 0.004329
-5.554898 19.690584 0.004337
-5.241075 19.690584 0.004358
-4.927252 19.690584 0.004310
-4.613429 19.690584 0.004326
-4.299606 19.690584 0.004399
-3.985783 19.690584 0.004340
-3.671960 19.690584 0.004274
-3.358137 19.690584 0.004332
-3.044314 19.690584 0.004371
-2.730491 19.690584 0.004321
-2.416668 19.690584 0.004357
-2.102845 19.690584 0.004397
-1.789022 19.690584 0.004461
-1.475199 19.690584 0.004557
-1.161376 19.690584 0.004699
-0.847553 19.690584 0.004753
-0.533730 19.690584 0.004786
-0.219907 19.690584 0.004879
0.093916 19.690584 0.005006
0.407739 19.690584 0.005174
0.721562 19.690584 0.005266
1.035385 19.690584 0.005487
1.349208 19.690584 0.005869
1.663032 19.690584 0.006156
1.976854 19.690584 0.006398
2.290677 19.690584 0.006792
2.604500 19.690584 0.007218
2.918324 19.690584 0.007696
3.232146 19.690584 0.008316
3.545969 19.690584 0.008997
3.859793 19.690584 0.009803
4.173615 19.690584 0.010744
4.487438 19.690584 0.011896
4.801261 19.690584 0.013218
5.115085 19.690584 0.014840
5.428907 19.690584 0.016883
5.742730 19.690584 0.019370
6.056554 19.690584 0.022550
6.370377 19.690584 0.026530
6.684199 19.690584 0.031740
6.998022 19.690584 0.038531
7.311846 19.690584 0.047661
7.625669 19.690584 0.058767
7.939491 19.690584 0.075414
8.253315 19.690584 0.097860
8.567138 19.690584 0.127919
8.880960 19.690584 0.166387
9.194784 19.690584 0.216699
9.508606 19.690584 0.279312
9.822430 19.690584 0.353215
10.136253 19.690584 0.445199
10.450075 19.690584 0.539065
10.763899 19.690584 0.636208
11.077723 19.690584 0.741314
11.391544 19.690584 0.859911
11.705368 19.690584 0.976843
12.019190 19.690584 1.084811
12.333014 19.690584 1.195293
12.646837 19.690584 1.302496
12.960659 19.690584 1.400083
13.274483 19.690584 1.504803
13.588306 19.690584 1.601734
13.902128 19.690584 1.675504
14.215952 19.690584 1.725087
14.529776 19.690584 1.748227
14.843597 19.690584 1.754780
15.157421 19.690584 1.761930
15.471243 19.690584 1.753018
15.785067 19.690584 1.721461
16.098890 19.690584 1.668052
16.412712 19.690584 1.611710
16.726536 19.690584 1.544958
17.040359 19.690584 1.496469
17.354181 19.690584 1.461767
17.668005 19.690584 1.451588
17.981829 19.690584 1.449406
18.295650 19.690584 1.513280
18.609474 19.690584 1.584446
18.923298 19.690584 0.000000
19.237120 19.690584 0.000000
-6.810190 19.376760 0.000000
-6.496367 19.376760 0.005622
-6.182544 19.376760 0.004370
-5.868721 19.376760 0.004228
-5.554898 19.376760 0.004245
-5.241075 19.376760 0.004296
-4.927252 19.376760 0.004264
-4.613429 19.376760 0.004281
-4.299606 19.376760 0.004320
-3.985783 19.376760 0.004297
-3.671960 19.376760 0.004224
-3.358137 19.376760 0.004260
-3.044314 19.376760 0.004281
-2.730491 19.376760 0.004239
-2.416668 19.376760 0.004248
-2.102845 19.376760 0.004300
-1.789022 19.376760 0.004364
-1.475199 19.376760 0.004446
-1.161376 19.376760 0.004611
-0.847553 19.376760 0.004706
-0.533730 19.376760 0.004763
-0.219907 19.376760 0.004828
0.093916 19.376760 0.004942
0.407739 19.376760 0.005122
0.721562 19.376760 0.005230
1.035385 19.376760 0.005455
1.349208 19.376760 0.005863
1.663032 19.376760 0.006147
1.976854 19.376760 0.006294
2.290677 19.376760 0.006659
2.604500 19.376760 0.007043
2.918324 19.376760 0.007563
3.232146 19.376760 0.008200
3.545969 19.376760 0.008947
3.859793 19.376760 0.009744
4.173615 19.376760 0.010685
4.487438 19.376760 0.011837
4.801261 19.376760 0.013152
5.115085 19.376760 0.014713
5.428907 19.376760 0.016783
5.742730 19.376760 0.019276
6.056554 19.376760 0.022379
6.370377 19.376760 0.026565
6.684199 19.376760 0.031635
6.998022 19.376760 0.038391
7.311846 19.376760 0.047587
7.625669 19.376760 0.059824
7.939491 19.376760 0.076560
8.253315 19.376760 0.097554
8.567138 19.376760 0.129858
8.880960 19.376760 0.169255
9.194784 19.376760 0.216516
9.508606 19.376760 0.281052
9.822430 19.376760 0.353187
10.136253 19.376760 0.441245
10.450075 19.376760 0.534450
10.763899 19.376760 0.630546
11.077723 19.376760 0.737653
11.391544 19.376760 0.861345
11.705368 19.376760 0.982361
12.019190 19.376760 1.094774
12.333014 19.376760 1.195739
12.646837 19.376760 1.309665
12.960659 19.376760 1.405524
13.274483 19.376760 1.499522
13.588306 19.376760 1.587984
13.902128 19.376760 1.662893
14.215952 19.376760 1.737425
14.529776 19.376760 1.765870
14.843597 19.376760 1.767045
15.157421 19.376760 1.769720
15.471243 19.376760 1.758204
15.785067 19.376760 1.731190
16.098890 19.376760 1.675496
16.412712 19.376760 1.613442
16.726536 19.376760 1.547013
17.040359 19.376760 1.498903
17.354181 19.376760 1.467286
17.668005 19.376760 1.465169
17.981829 19.376760 1.477079
18.295650 19.376760 1.513430
18.609474 19.376760 1.575678
18.923298 19.376760 0.000000
19.237120 19.376760 0.000000
-6.810190 19.062939 0.000000
-6.496367 19.062939 0.005471
-6.182544 19.062939 0.004281
-5.868721 19.062939 0.004138
-5.554898 19.062939 0.004176
-5.241075 19.062939 0.004248
-4.927252 19.062939 0.004216
-4.613429 19.062939 0.004193
-4.299606 19.062939 0.004225
-3.985783 19.062939 0.004227
-3.671960 19.062939 0.004160
-3.358137 19.062939 0.004184
-3.044314 19.062939 0.004185
-2.730491 19.062939 0.004191
-2.416668 19.062939 0.004188
-2.102845 19.062939 0.004233
-1.789022 19.062939 0.004280
-1.475199 19.062939 0.004332
-1.161376 19.062939 0.004500
-0.847553 19.062939 0.004596
-0.533730 19.062939 0.004672
-0.219907 19.062939 0.004769
0.093916 19.062939 0.004871
0.407739 19.062939 0.005050
0.721562 19.062939 0.005176
1.035385 19.062939 0.005403
1.349208 19.062939 0.005788
1.663032 19.062939 0.006081
1.976854 19.062939 0.006228
2.290677 19.062939 0.006547
2.604500 19.062939 0.006901
2.918324 19.062939 0.007433
3.232146 19.062939 0.008133
3.545969 19.062939 0.008862
3.859793 19.062939 0.009629
4.173615 19.062939 0.010610
4.487438 19.062939 0.011786
4.801261 19.062939 0.013075
5.115085 19.062939 0.014652
5.428907 19.062939 0.016716
5.742730 19.062939 0.019270
6.056554 19.062939 0.022484
6.370377 19.062939 0.026537
6.684199 19.062939 0.031600
6.998022 19.062939 0.038434
7.311846 19.062939 0.047862
7.625669 19.062939 0.060509
7.939491 19.062939 0.076201
8.253315 19.062939 0.098028
8.567138 19.062939 0.130089
8.880960 19.062939 0.170018
9.194784 19.062939 0.221945
9.508606 19.062939 0.281963
9.822430 19.062939 0.351939
10.136253 19.062939 0.434533
10.450075 19.062939 0.531147
10.763899 19.062939 0.627068
11.077723 19.062939 0.733013
11.391544 19.062939 0.859418
11.705368 19.062939 0.980233
12.019190 19.062939 1.097941
12.333014 19.062939 1.212342
12.646837 19.062939 1.317328
12.960659 19.062939 1.413136
13.274483 19.062939 1.491424
13.588306 19.062939 1.575870
13.902128 19.062939 1.671074
14.215952 19.062939 1.724751
14.529776 19.062939 1.774129
14.843597 19.062939 1.778290
15.157421 19.062939 1.768785
15.471243 19.062939 1.755450
15.785067 19.062939 1.733577
16.098890 19.062939 1.689367
16.412712 19.062939 1.621046
16.726536 19.062939 1.559551
17.040359 19.062939 1.500733
17.354181 19.062939 1.470880
17.668005 19.062939 1.464226
17.981829 19.062939 1.487233
18.295650 19.062939 1.503717
18.609474 19.062939 1.562009
18.923298 19.062939 0.000000
19.237120 19.062939 0.000000
-6.810190 18.749115 0.000000
-6.496367 18.749115 0.005354
-6.182544 18.749115 0.004204
-5.868721 18.749115 0.004045
-5.554898 18.749115 0.004074
-5.241075 18.749115 0.004169
-4.927252 18.749115 0.004139
-4.613429 18.749115 0.004114
-4.299606 18.749115 0.004125
-3.985783 18.749115 0.004124
-3.671960 18.749115 0.004093
-3.358137 18.749115 0.004117
-3.044314 18.749115 0.004121
-2.730491 18.749115 0.004151
-2.416668 18.749115 0.004159
-2.102845 18.749115 0.004173
-1.789022 18.749115 0.004198
-1.475199 18.749115 0.004233
-1.161376 18.749115 0.004347
-0.847553 18.749115 0.004467
-0.533730 18.749115 0.004578
-0.219907 18.749115 0.004685
0.093916 18.749115 0.004825
0.407739 18.749115 0.004987
0.721562 18.749115 0.005130
1.035385 18.749115 0.005342
1.349208 18.749115 0.005662
1.663032 18.749115 0.005972
1.976854 18.749115 0.006189
2.290677 18.749115 0.006494
2.604500 18.749115 0.006811
2.918324 18.749115 0.007355
3.232146 18.749115 0.008061
3.545969 18.749115 0.008760
3.859793 18.749115 0.009567
4.173615 18.749115 0.010530
4.487438 18.749115 0.011673
4.801261 18.749115 0.012990
5.115085 18.749115 0.014604
5.428907 18.749115 0.016690
5.742730 18.749115 0.019311
6.056554 18.749115 0.022466
6.370377 18.749115 0.026374
6.684199 18.749115 0.031573
6.998022 18.749115 0.038543
7.311846 18.749115 0.048093
7.625669 18.749115 0.060459
7.939491 18.749115 0.076682
8.253315 18.749115 0.099361
8.567138 18.749115 0.129659
8.880960 18.749115 0.167246
9.194784 18.749115 0.220037
9.508606 18.749115 0.283720
9.822430 18.749115 0.352059
10.136253 18.749115 0.435889
10.450075 18.749115 0.531253
10.763899 18.749115 0.625935
11.077723 18.749115 0.735140
11.391544 18.749115 0.853436
11.705368 18.749115 0.982470
12.019190 18.749115 1.107736
12.333014 18.749115 1.229345
12.646837 18.749115 1.339979
12.960659 18.749115 1.423879
13.274483 18.749115 1.500254
13.588306 18.749115 1.590593
13.902128 18.749115 1.662281
14.215952 18.749115 1.731465
14.529776 18.749115 1.785300
14.843597 18.749115 1.789042
15.157421 18.749115 1.780692
15.471243 18.749115 1.757397
15.785067 18.749115 1.729279
16.098890 18.749115 1.686662
16.412712 18.749115 1.623369
16.726536 18.749115 1.551592
17.040359 18.749115 1.499646
17.354181 18.749115 1.467763
17.668005 18.749115 1.469854
17.981829 18.749115 1.487890
18.295650 18.749115 1.523929
18.609474 18.749115 1.561725
18.923298 18.749115 0.000000
19.237120 18.749115 0.000000
-6.810190 18.435291 0.000000
-6.496367 18.435291 0.005302
-6.182544 18.435291 0.004176
-5.868721 18.435291 0.003992
-5.554898 18.435291 0.004001
-5.241075 18.435291 0.004101
-4.927252 18.435291 0.004068
-4.613429 18.435291 0.004027
-4.299606 18.435291 0.004018
-3.985783 18.435291 0.004021
-3.671960 18.435291 0.004026
-3.358137 18.435291 0.004050
-3.044314 18.435291 0.004085
-2.730491 18.435291 0.004114
-2.416668 18.435291 0.004117
-2.102845 18.435291 0.004122
-1.789022 18.435291 0.004153
-1.475199 18.435291 0.004143
-1.161376 18.435291 0.004209
-0.847553 18.435291 0.004342
-0.533730 18.435291 0.004485
-0.219907 18.435291 0.004590
0.093916 18.435291 0.004760
0.407739 18.435291 0.004912
0.721562 18.435291 0.005059
1.035385 18.435291 0.005267
1.349208 18.435291 0.005507
1.663032 18.435291 0.005853
1.976854 18.435291 0.006202
2.290677 18.435291 0.006513
2.604500 18.435291 0.006770
2.918324 18.435291 0.007270
3.232146 18.435291 0.007997
3.545969 18.435291 0.008700
3.859793 18.435291 0.009511
4.173615 18.435291 0.010411
4.487438 18.435291 0.011523
4.801261 18.435291 0.012864
5.115085 18.435291 0.014525
5.428907 18.435291 0.016647
5.742730 18.435291 0.019267
6.056554 18.435291 0.022435
6.370377 18.435291 0.026339
6.684199 18.435291 0.031370
6.998022 18.435291 0.038788
7.311846 18.435291 0.048591
7.625669 18.435291 0.060687
7.939491 18.435291 0.076973
8.253315 18.435291 0.099435
8.567138 18.435291 0.129808
8.880960 18.435291 0.168510
9.194784 18.435291 0.218309
9.508606 18.435291 0.282631
9.822430 18.435291 0.358753
10.136253 18.435291 0.441056
10.450075 18.435291 0.533556
10.763899 18.435291 0.633955
11.077723 18.435291 0.749997
11.391544 18.435291 0.864262
11.705368 18.435291 0.989407
12.019190 18.435291 1.120967
12.333014 18.435291 1.233659
12.646837 18.435291 1.348266
12.960659 18.435291 1.436824
13.274483 18.435291 1.511012
13.588306 18.435291 1.589905
13.902128 18.435291 1.660818
14.215952 18.435291 1.736341
14.529776 18.435291 1.796741
14.843597 18.435291 1.811691
15.157421 18.435291 1.793408
15.471243 18.435291 1.761189
15.785067 18.435291 1.736342
16.098890 18.435291 1.691926
16.412712 18.435291 1.632736
16.726536 18.435291 1.553795
17.040359 18.435291 1.489312
17.354181 18.435291 1.456680
17.668005 18.435291 1.456850
17.981829 18.435291 1.474276
18.295650 18.435291 1.519813
18.609474 18.435291 1.583127
18.923298 18.435291 0.000000
19.237120 18.435291 0.000000
-6.810190 18.121469 0.000000
-6.496367 18.121469 0.005273
-6.182544 18.121469 0.004150
-5.868721 18.121469 0.003975
-5.554898 18.121469 0.003964
-5.241075 18.121469 0.004048
-4.927252 18.121469 0.004034
-4.613429 18.121469 0.003979
-4.299606 18.121469 0.003947
-3.985783 18.121469 0.003938
-3.671960 18.121469 0.003960
-3.358137 18.121469 0.003989
-3.044314 18.121469 0.004027
-2.730491 18.121469 0.004047
-2.416668 18.121469 0.004024
-2.102845 18.121469 0.004046
-1.789022 18.121469 0.004088
-1.475199 18.121469 0.004073
-1.161376 18.121469 0.004114
-0.847553 18.121469 0.004263
-0.533730 18.121469 0.004423
-0.219907 18.121469 0.004506
0.093916 18.121469 0.004719
0.407739 18.121469 0.004849
0.721562 18.121469 0.004959
1.035385 18.121469 0.005167
1.349208 18.121469 0.005392
1.663032 18.121469 0.005756
1.976854 18.121469 0.006180
2.290677 18.121469 0.006515
2.604500 18.121469 0.006775
2.918324 18.121469 0.007252
3.232146 18.121469 0.007927
3.545969 18.121469 0.008656
3.859793 18.121469 0.009462
4.173615 18.121469 0.010282
4.487438 18.121469 0.011384
4.801261 18.121469 0.012721
5.115085 18.121469 0.014406
5.428907 18.121469 0.016509
5.742730 18.121469 0.019197
6.056554 18.121469 0.022343
6.370377 18.121469 0.026432
6.684199 18.121469 0.031608
6.998022 18.121469 0.039048
7.311846 18.121469 0.049036
7.625669 18.121469 0.061699
7.939491 18.121469 0.077693
8.253315 18.121469 0.099922
8.567138 18.121469 0.131466
8.880960 18.121469 0.168567
9.194784 18.121469 0.221708
9.508606 18.121469 0.282658
9.822430 18.121469 0.363850
10.136253 18.121469 0.448704
10.450075 18.121469 0.545700
10.763899 18.121469 0.648728
11.077723 18.121469 0.764614
11.391544 18.121469 0.866298
11.705368 18.121469 0.985139
12.019190 18.121469 1.121612
12.333014 18.121469 1.243272
12.646837 18.121469 1.359875
12.960659 18.121469 1.447019
13.274483 18.121469 1.516198
13.588306 18.121469 1.602926
13.902128 18.121469 1.662830
14.215952 18.121469 1.758263
14.529776 18.121469 1.808688
14.843597 18.121469 1.813096
15.157421 18.121469 1.800813
15.471243 18.121469 1.768324
15.785067 18.121469 1.744083
16.098890 18.121469 1.700424
16.412712 18.121469 1.645592
16.726536 18.121469 1.569265
17.040359 18.121469 1.504878
17.354181 18.121469 1.467601
17.668005 18.121469 1.452021
17.981829 18.121469 1.469544
18.295650 18.121469 1.520971
18.609474 18.121469 1.604292
18.923298 18.121469 0.000000
19.237120 18.121469 0.000000
-6.810190 17.807646 0.000000
-6.496367 17.807646 0.005207
-6.182544 17.807646 0.004132
-5.868721 17.807646 0.003968
-5.554898 17.807646 0.003932
-5.241075 17.807646 0.003986
-4.927252 17.807646 0.003971
-4.613429 17.807646 0.003945
-4.299606 17.807646 0.003909
-3.985783 17.807646 0.003902
-3.671960 17.807646 0.003919
-3.358137 17.807646 0.003954
-3.044314 17.807646 0.003972
-2.730491 17.807646 0.003967
-2.416668 17.807646 0.003944
-2.102845 17.807646 0.003990
-1.789022 17.807646 0.004030
-1.475199 17.807646 0.004041
-1.161376 17.807646 0.004088
-0.847553 17.807646 0.004226
-0.533730 17.807646 0.004331
-0.219907 17.807646 0.004459
0.093916 17.807646 0.004642
0.407739 17.807646 0.004769
0.721562 17.807646 0.004884
1.035385 17.807646 0.005090
1.349208 17.807646 0.005326
1.663032 17.807646 0.005676
1.976854 17.807646 0.006107
2.290677 17.807646 0.006454
2.604500 17.807646 0.006777
2.918324 17.807646 0.007256
3.232146 17.807646 0.007888
3.545969 17.807646 0.008646
3.859793 17.807646 0.009357
4.173615 17.807646 0.010172
4.487438 17.807646 0.011293
4.801261 17.807646 0.012620
5.115085 17.807646 0.014286
5.428907 17.807646 0.016369
5.742730 17.807646 0.018945
6.056554 17.807646 0.022098
6.370377 17.807646 0.026335
6.684199 17.807646 0.031817
6.998022 17.807646 0.039045
7.311846 17.807646 0.049126
7.625669 17.807646 0.062194
7.939491 17.807646 0.078741
8.253315 17.807646 0.102126
8.567138 17.807646 0.132688
8.880960 17.807646 0.170958
9.194784 17.807646 0.222613
9.508606 17.807646 0.287122
9.822430 17.807646 0.363619
10.136253 17.807646 0.447483
10.450075 17.807646 0.549167
10.763899 17.807646 0.650689
11.077723 17.807646 0.760025
11.391544 17.807646 0.866482
11.705368 17.807646 0.984095
12.019190 17.807646 1.123719
12.333014 17.807646 1.248315
12.646837 17.807646 1.359802
12.960659 17.807646 1.448648
13.274483 17.807646 1.524923
13.588306 17.807646 1.606713
13.902128 17.807646 1.669878
14.215952 17.807646 1.747679
14.529776 17.807646 1.811410
14.843597 17.807646 1.819231
15.157421 17.807646 1.804011
15.471243 17.807646 1.777329
15.785067 17.807646 1.744359
16.098890 17.807646 1.696113
16.412712 17.807646 1.642704
16.726536 17.807646 1.575769
17.040359 17.807646 1.507640
17.354181 17.807646 1.460261
17.668005 17.807646 1.448203
17.981829 17.807646 1.471760
18.295650 17.807646 1.535205
18.609474 17.807646 1.619792
18.923298 17.807646 0.000000
19.237120 17.807646 0.000000
-6.810190 17.493824 0.000000
-6.496367 17.493824 0.005174
-6.182544 17.493824 0.004118
-5.868721 17.493824 0.003937
-5.554898 17.493824 0.003881
-5.241075 17.493824 0.003886
-4.927252 17.493824 0.003898
-4.613429 17.493824 0.003893
-4.299606 17.493824 0.003853
-3.985783 17.493824 0.003874
-3.671960 17.493824 0.003907
-3.358137 17.493824 0.003923
-3.044314 17.493824 0.003911
-2.730491 17.493824 0.003907
-2.416668 17.493824 0.003928
-2.102845 17.493824 0.003965
-1.789022 17.493824 0.003998
-1.475199 17.493824 0.004007
-1.161376 17.493824 0.004094
-0.847553 17.493824 0.004210
-0.533730 17.493824 0.004285
-0.219907 17.493824 0.004434
0.093916 17.493824 0.004575
0.407739 17.493824 0.004703
0.721562 17.493824 0.004824
1.035385 17.493824 0.005011
1.349208 17.493824 0.005264
1.663032 17.493824 0.005612
1.976854 17.493824 0.006017
2.290677 17.493824 0.006420
2.604500 17.493824 0.006801
2.918324 17.493824 0.007222
3.232146 17.493824 0.007846
3.545969 17.493824 0.008597
3.859793 17.493824 0.009289
4.173615 17.493824 0.010119
4.487438 17.493824 0.011261
4.801261 17.493824 0.012580
5.115085 17.493824 0.014202
5.428907 17.493824 0.016278
5.742730 17.493824 0.018770
6.056554 17.493824 0.021984
6.370377 17.493824 0.026366
6.684199 17.493824 0.031776
6.998022 17.493824 0.039129
7.311846 17.493824 0.049298
7.625669 17.493824 0.062286
7.939491 17.493824 0.079120
8.253315 17.493824 0.101778
8.567138 17.493824 0.134237
8.880960 17.493824 0.176994
9.194784 17.493824 0.226408
9.508606 17.493824 0.289896
9.822430 17.493824 0.365143
10.136253 17.493824 0.449035
10.450075 17.493824 0.547873
10.763899 17.493824 0.642641
11.077723 17.493824 0.758707
11.391544 17.493824 0.869341
11.705368 17.493824 0.986911
12.019190 17.493824 1.112718
12.333014 17.493824 1.247366
12.646837 17.493824 1.353560
12.960659 17.493824 1.447717
13.274483 17.493824 1.538203
13.588306 17.493824 1.613970
13.902128 17.493824 1.671712
14.215952 17.493824 1.735062
14.529776 17.493824 1.795729
14.843597 17.493824 1.820151
15.157421 17.493824 1.811987
15.471243 17.493824 1.776155
15.785067 17.493824 1.735911
16.098890 17.493824 1.694525
16.412712 17.493824 1.636256
16.726536 17.493824 1.596185
17.040359 17.493824 1.523313
17.354181 17.493824 1.476979
17.668005 17.493824 1.450577
17.981829 17.493824 1.475316
18.295650 17.493824 1.553142
18.609474 17.493824 1.637442
18.923298 17.493824 0.000000
19.237120 17.493824 0.000000
-6.810190 17.180000 0.000000
-6.496367 17.180000 0.005125
-6.182544 17.180000 0.004073
-5.868721 17.180000 0.003858
-5.554898 17.180000 0.003793
-5.241075 17.180000 0.003786
-4.927252 17.180000 0.003827
-4.613429 17.180000 0.003833
-4.299606 17.180000 0.003803
-3.985783 17.180000 0.003833
-3.671960 17.180000 0.003858
-3.358137 17.180000 0.003853
-3.044314 17.180000 0.003823
-2.730491 17.180000 0.003870
-2.416668 17.180000 0.003921
-2.102845 17.180000 0.003932
-1.789022 17.180000 0.003969
-1.475199 17.180000 0.003978
-1.161376 17.180000 0.004083
-0.847553 17.180000 0.004176
-0.533730 17.180000 0.004259
-0.219907 17.180000 0.004393
0.093916 17.180000 0.004511
0.407739 17.180000 0.004662
0.721562 17.180000 0.004854
1.035385 17.180000 0.005008
1.349208 17.180000 0.005215
1.663032 17.180000 0.005550
1.976854 17.180000 0.005960
2.290677 17.180000 0.006415
2.604500 17.180000 0.006828
2.918324 17.180000 0.007225
3.232146 17.180000 0.007827
3.545969 17.180000 0.008556
3.859793 17.180000 0.009233
4.173615 17.180000 0.010122
4.487438 17.180000 0.011262
4.801261 17.180000 0.012607
5.115085 17.180000 0.014207
5.428907 17.180000 0.016191
5.742730 17.180000 0.018655
6.056554 17.180000 0.021879
6.370377 17.180000 0.026192
6.684199 17.180000 0.031858
6.998022 17.180000 0.039286
7.311846 17.180000 0.049180
7.625669 17.180000 0.062327
7.939491 17.180000 0.079513
8.253315 17.180000 0.103568
8.567138 17.180000 0.134556
8.880960 17.180000 0.175815
9.194784 17.180000 0.228780
9.508606 17.180000 0.290673
9.822430 17.180000 0.361586
10.136253 17.180000 0.450811
10.450075 17.180000 0.546838
10.763899 17.180000 0.643043
11.077723 17.180000 0.748869
11.391544 17.180000 0.865231
11.705368 17.180000 0.984785
12.019190 17.180000 1.115258
12.333014 17.180000 1.234891
12.646837 17.180000 1.345991
12.960659 17.180000 1.452931
13.274483 17.180000 1.540107
13.588306 17.180000 1.621588
13.902128 17.180000 1.667516
14.215952 17.180000 1.733384
14.529776 17.180000 1.791380
14.843597 17.180000 1.816672
15.157421 17.180000 1.806699
15.471243 17.180000 1.782496
15.785067 17.180000 1.734830
16.098890 17.180000 1.712461
16.412712 17.180000 1.655190
16.726536 17.180000 1.590333
17.040359 17.180000 1.531348
17.354181 17.180000 1.489990
17.668005 17.180000 1.464815
17.981829 17.180000 1.487668
18.295650 17.180000 1.557807
18.609474 17.180000 1.641265
18.923298 17.180000 0.000000
19.237120 17.180000 0.000000
-6.810190 16.866177 0.000000
-6.496367 16.866177 0.005076
-6.182544 16.866177 0.004000
-5.868721 16.866177 0.003780
-5.554898 16.866177 0.003728
-5.241075 16.866177 0.003732
-4.927252 16.866177 0.003770
-4.613429 16.866177 0.003782
-4.299606 16.866177 0.003755
-3.985783 16.866177 0.003781
-3.671960 16.866177 0.003801
-3.358137 16.866177 0.003785
-3.044314 16.866177 0.003776
-2.730491 16.866177 0.003833
-2.416668 16.866177 0.003882
-2.102845 16.866177 0.003909
-1.789022 16.866177 0.003931
-1.475199 16.866177 0.003994
-1.161376 16.866177 0.004056
-0.847553 16.866177 0.004123
-0.533730 16.866177 0.004245
-0.219907 16.866177 0.004379
0.093916 16.866177 0.004470
0.407739 16.866177 0.004624
0.721562 16.866177 0.004860
1.035385 16.866177 0.005007
1.349208 16.866177 0.005218
1.663032 16.866177 0.005539
1.976854 16.866177 0.005933
2.290677 16.866177 0.006438
2.604500 16.866177 0.006850
2.918324 16.866177 0.007196
3.232146 16.866177 0.007733
3.545969 16.866177 0.008432
3.859793 16.866177 0.009196
4.173615 16.866177 0.010148
4.487438 16.866177 0.011261
4.801261 16.866177 0.012671
5.115085 16.866177 0.014246
5.428907 16.866177 0.016159
5.742730 16.866177 0.018638
6.056554 16.866177 0.021991
6.370377 16.866177 0.026274
6.684199 16.866177 0.031989
6.998022 16.866177 0.039094
7.311846 16.866177 0.048852
7.625669 16.866177 0.062218
7.939491 16.866177 0.079820
8.253315 16.866177 0.103872
8.567138 16.866177 0.136016
8.880960 16.866177 0.176172
9.194784 16.866177 0.226864
9.508606 16.866177 0.289968
9.822430 16.866177 0.364375
10.136253 16.866177 0.452151
10.450075 16.866177 0.548727
10.763899 16.866177 0.653434
11.077723 16.866177 0.758919
11.391544 16.866177 0.877398
11.705368 16.866177 0.995823
12.019190 16.866177 1.119007
12.333014 16.866177 1.222038
12.646837 16.866177 1.325980
12.960659 16.866177 1.444473
13.274483 16.866177 1.527703
13.588306 16.866177 1.615723
13.902128 16.866177 1.687198
14.215952 16.866177 1.733864
14.529776 16.866177 1.790629
14.843597 16.866177 1.817264
15.157421 16.866177 1.809962
15.471243 16.866177 1.798357
15.785067 16.866177 1.760205
16.098890 16.866177 1.725717
16.412712 16.866177 1.648903
16.726536 16.866177 1.585349
17.040359 16.866177 1.524903
17.354181 16.866177 1.489162
17.668005 16.866177 1.469809
17.981829 16.866177 1.504236
18.295650 16.866177 1.565542
18.609474 16.866177 1.649827
18.923298 16.866177 0.000000
19.237120 16.866177 0.000000
-6.810190 16.552353 0.000000
-6.496367 16.552353 0.004977
-6.182544 16.552353 0.003893
-5.868721 16.552353 0.003714
-5.554898 16.552353 0.003685
-5.241075 16.552353 0.003700
-4.927252 16.552353 0.003732
-4.613429 16.552353 0.003777
-4.299606 16.552353 0.003736
-3.985783 16.552353 0.003733
-3.671960 16.552353 0.003744
-3.358137 16.552353 0.003711
-3.044314 16.552353 0.003752
-2.730491 16.552353 0.003801
-2.416668 16.552353 0.003845
-2.102845 16.552353 0.003877
-1.789022 16.552353 0.003934
-1.475199 16.552353 0.004025
-1.161376 16.552353 0.004066
-0.847553 16.552353 0.004098
-0.533730 16.552353 0.004231
-0.219907 16.552353 0.004382
0.093916 16.552353 0.004492
0.407739 16.552353 0.004620
0.721562 16.552353 0.004851
1.035385 16.552353 0.005015
1.349208 16.552353 0.005226
1.663032 16.552353 0.005506
1.976854 16.552353 0.005918
2.290677 16.552353 0.006425
2.604500 16.552353 0.006835
2.918324 16.552353 0.007174
3.232146 16.552353 0.007655
3.545969 16.552353 0.008286
3.859793 16.552353 0.009104
4.173615 16.552353 0.010142
4.487438 16.552353 0.011284
4.801261 16.552353 0.012708
5.115085 16.552353 0.014291
5.428907 16.552353 0.016247
5.742730 16.552353 0.018763
6.056554 16.552353 0.022137
6.370377 16.552353 0.026323
6.684199 16.552353 0.031924
6.998022 16.552353 0.039057
7.311846 16.552353 0.048401
7.625669 16.552353 0.061565
7.939491 16.552353 0.080364
8.253315 16.552353 0.103675
8.567138 16.552353 0.135542
8.880960 16.552353 0.176652
9.194784 16.552353 0.229880
9.508606 16.552353 0.292119
9.822430 16.552353 0.365488
10.136253 16.552353 0.457360
10.450075 16.552353 0.550991
10.763899 16.552353 0.658016
11.077723 16.552353 0.766184
11.391544 16.552353 0.884646
11.705368 16.552353 0.999803
12.019190 16.552353 1.116969
12.333014 16.552353 1.224393
12.646837 16.552353 1.330991
12.960659 16.552353 1.427521
13.274483 16.552353 1.508546
13.588306 16.552353 1.600514
13.902128 16.552353 1.690055
14.215952 16.552353 1.751781
14.529776 16.552353 1.792798
14.843597 16.552353 1.813648
15.157421 16.552353 1.831249
15.471243 16.552353 1.815563
15.785067 16.552353 1.782487
16.098890 16.552353 1.729797
16.412712 16.552353 1.654172
16.726536 16.552353 1.585251
17.040359 16.552353 1.523577
17.354181 16.552353 1.502028
17.668005 16.552353 1.485688
17.981829 16.552353 1.510800
18.295650 16.552353 1.569942
18.609474 16.552353 1.643130
18.923298 16.552353 0.000000
19.237120 16.552353 0.000000
-6.810190 16.238533 0.000000
-6.496367 16.238533 0.004870
-6.182544 16.238533 0.003800
-5.868721 16.238533 0.003631
-5.554898 16.238533 0.003645
-5.241075 16.238533 0.003668
-4.927252 16.238533 0.003712
-4.613429 16.238533 0.003782
-4.299606 16.238533 0.003752
-3.985783 16.238533 0.003704
-3.671960 16.238533 0.003689
-3.358137 16.238533 0.003672
-3.044314 16.238533 0.003732
-2.730491 16.238533 0.003815
-2.416668 16.238533 0.003807
-2.102845 16.238533 0.003842
-1.789022 16.238533 0.003959
-1.475199 16.238533 0.004052
-1.161376 16.238533 0.004065
-0.847553 16.238533 0.004128
-0.533730 16.238533 0.004278
-0.219907 16.238533 0.004404
0.093916 16.238533 0.004527
0.407739 16.238533 0.004638
0.721562 16.238533 0.004832
1.035385 16.238533 0.005033
1.349208 16.238533 0.005225
1.663032 16.238533 0.005472
1.976854 16.238533 0.005894
2.290677 16.238533 0.006355
2.604500 16.238533 0.006758
2.918324 16.238533 0.007162
3.232146 16.238533 0.007589
3.545969 16.238533 0.008189
3.859793 16.238533 0.009048
4.173615 16.238533 0.010078
4.487438 16.238533 0.011291
4.801261 16.238533 0.012729
5.115085 16.238533 0.014300
5.428907 16.238533 0.016278
5.742730 16.238533 0.018876
6.056554 16.238533 0.022369
6.370377 16.238533 0.026529
6.684199 16.238533 0.032065
6.998022 16.238533 0.039403
7.311846 16.238533 0.048759
7.625669 16.238533 0.062448
7.939491 16.238533 0.080454
8.253315 16.238533 0.104305
8.567138 16.238533 0.136994
8.880960 16.238533 0.177870
9.194784 16.238533 0.231213
9.508606 16.238533 0.299646
9.822430 16.238533 0.373962
10.136253 16.238533 0.462511
10.450075 16.238533 0.557018
10.763899 16.238533 0.659348
11.077723 16.238533 0.772418
11.391544 16.238533 0.888887
11.705368 16.238533 1.005113
12.019190 16.238533 1.117684
12.333014 16.238533 1.245440
12.646837 16.238533 1.343060
12.960659 16.238533 1.436677
13.274483 16.238533 1.514263
13.588306 16.238533 1.591625
13.902128 16.238533 1.673524
14.215952 16.238533 1.741788
14.529776 16.238533 1.795415
14.843597 16.238533 1.821205
15.157421 16.238533 1.839304
15.471243 16.238533 1.827378
15.785067 16.238533 1.793302
16.098890 16.238533 1.748780
16.412712 16.238533 1.669298
16.726536 16.238533 1.575503
17.040359 16.238533 1.530686
17.354181 16.238533 1.514298
17.668005 16.238533 1.507672
17.981829 16.238533 1.512291
18.295650 16.238533 1.570633
18.609474 16.238533 1.656403
18.923298 16.238533 0.000000
19.237120 16.238533 0.000000
-6.810190 15.924709 0.000000
-6.496367 15.924709 0.004780
-6.182544 15.924709 0.003728
-5.868721 15.924709 0.003545
-5.554898 15.924709 0.003596
-5.241075 15.924709 0.003645
-4.927252 15.924709 0.003719
-4.613429 15.924709 0.003796
-4.299606 15.924709 0.003777
-3.985783 15.924709 0.003704
-3.671960 15.924709 0.003655
-3.358137 15.924709 0.003672
-3.044314 15.924709 0.003721
-2.730491 15.924709 0.003812
-2.416668 15.924709 0.003795
-2.102845 15.924709 0.003823
-1.789022 15.924709 0.003996
-1.475199 15.924709 0.004089
-1.161376 15.924709 0.004065
-0.847553 15.924709 0.004160
-0.533730 15.924709 0.004319
-0.219907 15.924709 0.004437
0.093916 15.924709 0.004555
0.407739 15.924709 0.004628
0.721562 15.924709 0.004824
1.035385 15.924709 0.005059
1.349208 15.924709 0.005232
1.663032 15.924709 0.005435
1.976854 15.924709 0.005812
2.290677 15.924709 0.006248
2.604500 15.924709 0.006637
2.918324 15.924709 0.007100
3.232146 15.924709 0.007519
3.545969 15.924709 0.008127
3.859793 15.924709 0.009023
4.173615 15.924709 0.010056
4.487438 15.924709 0.011275
4.801261 15.924709 0.012661
5.115085 15.924709 0.014261
5.428907 15.924709 0.016278
5.742730 15.924709 0.019015
6.056554 15.924709 0.022290
6.370377 15.924709 0.026550
6.684199 15.924709 0.032283
6.998022 15.924709 0.039595
7.311846 15.924709 0.049342
7.625669 15.924709 0.063090
7.939491 15.924709 0.081711
8.253315 15.924709 0.105606
8.567138 15.924709 0.138931
8.880960 15.924709 0.183985
9.194784 15.924709 0.236431
9.508606 15.924709 0.301620
9.822430 15.924709 0.376699
10.136253 15.924709 0.461547
10.450075 15.924709 0.560684
10.763899 15.924709 0.665009
11.077723 15.924709 0.783823
11.391544 15.924709 0.890884
11.705368 15.924709 0.991025
12.019190 15.924709 1.124052
12.333014 15.924709 1.250967
12.646837 15.924709 1.357902
12.960659 15.924709 1.446298
13.274483 15.924709 1.513688
13.588306 15.924709 1.586205
13.902128 15.924709 1.670846
14.215952 15.924709 1.756757
14.529776 15.924709 1.802372
14.843597 15.924709 1.816877
15.157421 15.924709 1.830339
15.471243 15.924709 1.847313
15.785067 15.924709 1.811106
16.098890 15.924709 1.757942
16.412712 15.924709 1.670501
16.726536 15.924709 1.586922
17.040359 15.924709 1.543314
17.354181 15.924709 1.518479
17.668005 15.924709 1.503558
17.981829 15.924709 1.509122
18.295650 15.924709 1.582470
18.609474 15.924709 1.648711
18.923298 15.924709 0.000000
19.237120 15.924709 0.000000
-6.810190 15.610886 0.000000
-6.496367 15.610886 0.004744
-6.182544 15.610886 0.003688
-5.868721 15.610886 0.003535
-5.554898 15.610886 0.003579
-5.241075 15.610886 0.003627
-4.927252 15.610886 0.003729
-4.613429 15.610886 0.003773
-4.299606 15.610886 0.003763
-3.985783 15.610886 0.003716
-3.671960 15.610886 0.003663
-3.358137 15.610886 0.003679
-3.044314 15.610886 0.003727
-2.730491 15.610886 0.003797
-2.416668 15.610886 0.003780
-2.102845 15.610886 0.003821
-1.789022 15.610886 0.003999
-1.475199 15.610886 0.004084
-1.161376 15.610886 0.004063
-0.847553 15.610886 0.004169
-0.533730 15.610886 0.004288
-0.219907 15.610886 0.004439
0.093916 15.610886 0.004559
0.407739 15.610886 0.004656
0.721562 15.610886 0.004831
1.035385 15.610886 0.005061
1.349208 15.610886 0.005235
1.663032 15.610886 0.005444
1.976854 15.610886 0.005759
2.290677 15.610886 0.006154
2.604500 15.610886 0.006551
2.918324 15.610886 0.007054
3.232146 15.610886 0.007476
3.545969 15.610886 0.008079
3.859793 15.610886 0.008974
4.173615 15.610886 0.010072
4.487438 15.610886 0.011244
4.801261 15.610886 0.012620
5.115085 15.610886 0.014285
5.428907 15.610886 0.016350
5.742730 15.610886 0.019032
6.056554 15.610886 0.022326
6.370377 15.610886 0.026723
6.684199 15.610886 0.032355
6.998022 15.610886 0.039830
7.311846 15.610886 0.049836
7.625669 15.610886 0.063308
7.939491 15.610886 0.081928
8.253315 15.610886 0.107294
8.567138 15.610886 0.141421
8.880960 15.610886 0.184466
9.194784 15.610886 0.237610
9.508606 15.610886 0.301707
9.822430 15.610886 0.378944
10.136253 15.610886 0.461924
10.450075 15.610886 0.565743
10.763899 15.610886 0.669093
11.077723 15.610886 0.783849
11.391544 15.610886 0.883780
11.705368 15.610886 0.999418
12.019190 15.610886 1.126259
12.333014 15.610886 1.247861
12.646837 15.610886 1.357958
12.960659 15.610886 1.438491
13.274483 15.610886 1.509846
13.588306 15.610886 1.591313
13.902128 15.610886 1.673840
14.215952 15.610886 1.765273
14.529776 15.610886 1.807843
14.843597 15.610886 1.825261
15.157421 15.610886 1.846825
15.471243 15.610886 1.851550
15.785067 15.610886 1.818449
16.098890 15.610886 1.758812
16.412712 15.610886 1.682586
16.726536 15.610886 1.597988
17.040359 15.610886 1.546447
17.354181 15.610886 1.519406
17.668005 15.610886 1.490148
17.981829 15.610886 1.514520
18.295650 15.610886 1.574246
18.609474 15.610886 1.651662
18.923298 15.610886 0.000000
19.237120 15.610886 0.000000
-6.810190 15.297062 0.000000
-6.496367 15.297062 0.004764
-6.182544 15.297062 0.003659
-5.868721 15.297062 0.003554
-5.554898 15.297062 0.003602
-5.241075 15.297062 0.003632
-4.927252 15.297062 0.003698
-4.613429 15.297062 0.003728
-4.299606 15.297062 0.003718
-3.985783 15.297062 0.003679
-3.671960 15.297062 0.003657
-3.358137 15.297062 0.003695
-3.044314 15.297062 0.003726
-2.730491 15.297062 0.003787
-2.416668 15.297062 0.003780
-2.102845 15.297062 0.003823
-1.789022 15.297062 0.003972
-1.475199 15.297062 0.004060
-1.161376 15.297062 0.004067
-0.847553 15.297062 0.004162
-0.533730 15.297062 0.004264
-0.219907 15.297062 0.004390
0.093916 15.297062 0.004541
0.407739 15.297062 0.004654
0.721562 15.297062 0.004829
1.035385 15.297062 0.005050
1.349208 15.297062 0.005271
1.663032 15.297062 0.005487
1.976854 15.297062 0.005718
2.290677 15.297062 0.006060
2.604500 15.297062 0.006477
2.918324 15.297062 0.006989
3.232146 15.297062 0.007503
3.545969 15.297062 0.008104
3.859793 15.297062 0.009008
4.173615 15.297062 0.010051
4.487438 15.297062 0.011213
4.801261 15.297062 0.012580
5.115085 15.297062 0.014302
5.428907 15.297062 0.016422
5.742730 15.297062 0.019009
6.056554 15.297062 0.022318
6.370377 15.297062 0.026727
6.684199 15.297062 0.032257
6.998022 15.297062 0.039988
7.311846 15.297062 0.050643
7.625669 15.297062 0.063732
7.939491 15.297062 0.081912
8.253315 15.297062 0.108562
8.567138 15.297062 0.141958
8.880960 15.297062 0.182336
9.194784 15.297062 0.237224
9.508606 15.297062 0.302704
9.822430 15.297062 0.378681
10.136253 15.297062 0.465249
10.450075 15.297062 0.560488
10.763899 15.297062 0.674139
11.077723 15.297062 0.781286
11.391544 15.297062 0.879486
11.705368 15.297062 1.007067
12.019190 15.297062 1.126999
12.333014 15.297062 1.235897
12.646837 15.297062 1.339079
12.960659 15.297062 1.433078
13.274483 15.297062 1.509561
13.588306 15.297062 1.593822
13.902128 15.297062 1.679647
14.215952 15.297062 1.750858
14.529776 15.297062 1.805622
14.843597 15.297062 1.823090
15.157421 15.297062 1.855644
15.471243 15.297062 1.849017
15.785067 15.297062 1.819446
16.098890 15.297062 1.759567
16.412712 15.297062 1.687793
16.726536 15.297062 1.610168
17.040359 15.297062 1.554753
17.354181 15.297062 1.527997
17.668005 15.297062 1.503857
17.981829 15.297062 1.510757
18.295650 15.297062 1.584927
18.609474 15.297062 1.655901
18.923298 15.297062 0.000000
19.237120 15.297062 0.000000
-6.810190 14.983238 0.000000
-6.496367 14.983238 0.004838
-6.182544 14.983238 0.003696
-5.868721 14.983238 0.003615
-5.554898 14.983238 0.003660
-5.241075 14.983238 0.003667
-4.927252 14.983238 0.003696
-4.613429 14.983238 0.003696
-4.299606 14.983238 0.003666
-3.985783 14.983238 0.003643
-3.671960 14.983238 0.003658
-3.358137 14.983238 0.003706
-3.044314 14.983238 0.003730
-2.730491 14.983238 0.003782
-2.416668 14.983238 0.003799
-2.102845 14.983238 0.003830
-1.789022 14.983238 0.003943
-1.475199 14.983238 0.004028
-1.161376 14.983238 0.004065
-0.847553 14.983238 0.004146
-0.533730 14.983238 0.004245
-0.219907 14.983238 0.004358
0.093916 14.983238 0.004495
0.407739 14.983238 0.004639
0.721562 14.983238 0.004838
1.035385 14.983238 0.005050
1.349208 14.983238 0.005334
1.663032 14.983238 0.005567
1.976854 14.983238 0.005733
2.290677 14.983238 0.006020
2.604500 14.983238 0.006417
2.918324 14.983238 0.006946
3.232146 14.983238 0.007544
3.545969 14.983238 0.008196
3.859793 14.983238 0.009076
4.173615 14.983238 0.010064
4.487438 14.983238 0.011172
4.801261 14.983238 0.012554
5.115085 14.983238 0.014313
5.428907 14.983238 0.016468
5.742730 14.983238 0.019060
6.056554 14.983238 0.022404
6.370377 14.983238 0.026711
6.684199 14.983238 0.032413
6.998022 14.983238 0.040032
7.311846 14.983238 0.050781
7.625669 14.983238 0.064200
7.939491 14.983238 0.081554
8.253315 14.983238 0.107212
8.567138 14.983238 0.140425
8.880960 14.983238 0.182121
9.194784 14.983238 0.236706
9.508606 14.983238 0.298644
9.822430 14.983238 0.375098
10.136253 14.983238 0.464379
10.450075 14.983238 0.562624
10.763899 14.983238 0.673852
11.077723 14.983238 0.784417
11.391544 14.983238 0.890331
11.705368 14.983238 1.008453
12.019190 14.983238 1.118963
12.333014 14.983238 1.231008
12.646837 14.983238 1.326783
12.960659 14.983238 1.424362
13.274483 14.983238 1.515194
13.588306 14.983238 1.583684
13.902128 14.983238 1.674103
14.215952 14.983238 1.742199
14.529776 14.983238 1.798959
14.843597 14.983238 1.820073
15.157421 14.983238 1.835257
15.471243 14.983238 1.849223
15.785067 14.983238 1.831955
16.098890 14.983238 1.766501
16.412712 14.983238 1.706936
16.726536 14.983238 1.635860
17.040359 14.983238 1.571328
17.354181 14.983238 1.536287
17.668005 14.983238 1.519343
17.981829 14.983238 1.525975
18.295650 14.983238 1.588235
18.609474 14.983238 1.681277
18.923298 14.983238 0.000000
19.237120 14.983238 0.000000
-6.810190 14.669415 0.000000
-6.496367 14.669415 0.004932
-6.182544 14.669415 0.003760
-5.868721 14.669415 0.003674
-5.554898 14.669415 0.003704
-5.241075 14.669415 0.003728
-4.927252 14.669415 0.003719
-4.613429 14.669415 0.003693
-4.299606 14.669415 0.003677
-3.985783 14.669415 0.003669
-3.671960 14.669415 0.003687
-3.358137 14.669415 0.003706
-3.044314 14.669415 0.003751
-2.730491 14.669415 0.003789
-2.416668 14.669415 0.003807
-2.102845 14.669415 0.003843
-1.789022 14.669415 0.003938
-1.475199 14.669415 0.004029
-1.161376 14.669415 0.004070
-0.847553 14.669415 0.004150
-0.533730 14.669415 0.004262
-0.219907 14.669415 0.004354
0.093916 14.669415 0.004444
0.407739 14.669415 0.004643
0.721562 14.669415 0.004863
1.035385 14.669415 0.005075
1.349208 14.669415 0.005401
1.663032 14.669415 0.005619
1.976854 14.669415 0.005767
2.290677 14.669415 0.005994
2.604500 14.669415 0.006360
2.918324 14.669415 0.006938
3.232146 14.669415 0.007600
3.545969 14.669415 0.008297
3.859793 14.669415 0.009089
4.173615 14.669415 0.010070
4.487438 14.669415 0.011135
4.801261 14.669415 0.012493
5.115085 14.669415 0.014293
5.428907 14.669415 0.016450
5.742730 14.669415 0.019114
6.056554 14.669415 0.022477
6.370377 14.669415 0.026951
6.684199 14.669415 0.032674
6.998022 14.669415 0.040337
7.311846 14.669415 0.050649
7.625669 14.669415 0.063880
7.939491 14.669415 0.081827
8.253315 14.669415 0.107764
8.567138 14.669415 0.140968
8.880960 14.669415 0.183720
9.194784 14.669415 0.239914
9.508606 14.669415 0.303053
9.822430 14.669415 0.374857
10.136253 14.669415 0.466176
10.450075 14.669415 0.570064
10.763899 14.669415 0.676411
11.077723 14.669415 0.794347
11.391544 14.669415 0.891804
11.705368 14.669415 1.006585
12.019190 14.669415 1.120678
12.333014 14.669415 1.231816
12.646837 14.669415 1.329450
12.960659 14.669415 1.424950
13.274483 14.669415 1.509806
13.588306 14.669415 1.583020
13.902128 14.669415 1.670118
14.215952 14.669415 1.746017
14.529776 14.669415 1.795045
14.843597 14.669415 1.821899
15.157421 14.669415 1.830467
15.471243 14.669415 1.834981
15.785067 14.669415 1.817311
16.098890 14.669415 1.776466
16.412712 14.669415 1.712571
16.726536 14.669415 1.649385
17.040359 14.669415 1.584628
17.354181 14.669415 1.537264
17.668005 14.669415 1.529010
17.981829 14.669415 1.540869
18.295650 14.669415 1.602407
18.609474 14.669415 1.677416
18.923298 14.669415 0.000000
19.237120 14.669415 0.000000
-6.810190 14.355595 0.000000
-6.496367 14.355595 0.004985
-6.182544 14.355595 0.003821
-5.868721 14.355595 0.003713
-5.554898 14.355595 0.003750
-5.241075 14.355595 0.003760
-4.927252 14.355595 0.003721
-4.613429 14.355595 0.003716
-4.299606 14.355595 0.003726
-3.985783 14.355595 0.003736
-3.671960 14.355595 0.003732
-3.358137 14.355595 0.003724
-3.044314 14.355595 0.003766
-2.730491 14.355595 0.003791
-2.416668 14.355595 0.003844
-2.102845 14.355595 0.003907
-1.789022 14.355595 0.003983
-1.475199 14.355595 0.004063
-1.161376 14.355595 0.004102
-0.847553 14.355595 0.004177
-0.533730 14.355595 0.004275
-0.219907 14.355595 0.004369
0.093916 14.355595 0.004464
0.407739 14.355595 0.004651
0.721562 14.355595 0.004873
1.035385 14.355595 0.005111
1.349208 14.355595 0.005428
1.663032 14.355595 0.005651
1.976854 14.355595 0.005785
2.290677 14.355595 0.005995
2.604500 14.355595 0.006371
2.918324 14.355595 0.006956
3.232146 14.355595 0.007669
3.545969 14.355595 0.008371
3.859793 14.355595 0.009107
4.173615 14.355595 0.010037
4.487438 14.355595 0.011114
4.801261 14.355595 0.012429
5.115085 14.355595 0.014245
5.428907 14.355595 0.016443
5.742730 14.355595 0.019098
6.056554 14.355595 0.022531
6.370377 14.355595 0.027044
6.684199 14.355595 0.032885
6.998022 14.355595 0.040946
7.311846 14.355595 0.051259
7.625669 14.355595 0.065217
7.939491 14.355595 0.083447
8.253315 14.355595 0.108352
8.567138 14.355595 0.143480
8.880960 14.355595 0.187515
9.194784 14.355595 0.244774
9.508606 14.355595 0.313269
9.822430 14.355595 0.386467
10.136253 14.355595 0.478787
10.450075 14.355595 0.582335
10.763899 14.355595 0.685721
11.077723 14.355595 0.791036
11.391544 14.355595 0.891846
11.705368 14.355595 1.004771
12.019190 14.355595 1.120571
12.333014 14.355595 1.224161
12.646837 14.355595 1.323789
12.960659 14.355595 1.420700
13.274483 14.355595 1.503968
13.588306 14.355595 1.590361
13.902128 14.355595 1.671489
14.215952 14.355595 1.755250
14.529776 14.355595 1.801233
14.843597 14.355595 1.799734
15.157421 14.355595 1.822190
15.471243 14.355595 1.813956
15.785067 14.355595 1.811374
16.098890 14.355595 1.763371
16.412712 14.355595 1.704354
16.726536 14.355595 1.643400
17.040359 14.355595 1.594236
17.354181 14.355595 1.553095
17.668005 14.355595 1.535309
17.981829 14.355595 1.550868
18.295650 14.355595 1.608927
18.609474 14.355595 1.711712
18.923298 14.355595 0.000000
19.237120 14.355595 0.000000
-6.810190 14.041771 0.000000
-6.496367 14.041771 0.005005
-6.182544 14.041771 0.003839
-5.868721 14.041771 0.003738
-5.554898 14.041771 0.003782
-5.241075 14.041771 0.003789
-4.927252 14.041771 0.003753
-4.613429 14.041771 0.003757
-4.299606 14.041771 0.003810
-3.985783 14.041771 0.003843
-3.671960 14.041771 0.003826
-3.358137 14.041771 0.003769
-3.044314 14.041771 0.003781
-2.730491 14.041771 0.003818
-2.416668 14.041771 0.003894
-2.102845 14.041771 0.003991
-1.789022 14.041771 0.004050
-1.475199 14.041771 0.004112
-1.161376 14.041771 0.004140
-0.847553 14.041771 0.004239
-0.533730 14.041771 0.004327
-0.219907 14.041771 0.004399
0.093916 14.041771 0.004491
0.407739 14.041771 0.004666
0.721562 14.041771 0.004882
1.035385 14.041771 0.005097
1.349208 14.041771 0.005403
1.663032 14.041771 0.005634
1.976854 14.041771 0.005820
2.290677 14.041771 0.006061
2.604500 14.041771 0.006452
2.918324 14.041771 0.007021
3.232146 14.041771 0.007749
3.545969 14.041771 0.008424
3.859793 14.041771 0.009112
4.173615 14.041771 0.010027
4.487438 14.041771 0.011091
4.801261 14.041771 0.012428
5.115085 14.041771 0.014229
5.428907 14.041771 0.016399
5.742730 14.041771 0.018976
6.056554 14.041771 0.022537
6.370377 14.041771 0.027009
6.684199 14.041771 0.033007
6.998022 14.041771 0.041102
7.311846 14.041771 0.051534
7.625669 14.041771 0.065449
7.939491 14.041771 0.084296
8.253315 14.041771 0.110215
8.567138 14.041771 0.148667
8.880960 14.041771 0.191916
9.194784 14.041771 0.249301
9.508606 14.041771 0.315767
9.822430 14.041771 0.393023
10.136253 14.041771 0.479308
10.450075 14.041771 0.586861
10.763899 14.041771 0.682786
11.077723 14.041771 0.790367
11.391544 14.041771 0.898713
11.705368 14.041771 1.010082
12.019190 14.041771 1.123244
12.333014 14.041771 1.235653
12.646837 14.041771 1.314698
12.960659 14.041771 1.401566
13.274483 14.041771 1.499881
13.588306 14.041771 1.597717
13.902128 14.041771 1.676513
14.215952 14.041771 1.760185
14.529776 14.041771 1.792779
14.843597 14.041771 1.813417
15.157421 14.041771 1.816779
15.471243 14.041771 1.829473
15.785067 14.041771 1.801596
16.098890 14.041771 1.768949
16.412712 14.041771 1.717851
16.726536 14.041771 1.657288
17.040359 14.041771 1.599333
17.354181 14.041771 1.558755
17.668005 14.041771 1.552093
17.981829 14.041771 1.558375
18.295650 14.041771 1.628723
18.609474 14.041771 1.718637
18.923298 14.041771 0.000000
19.237120 14.041771 0.000000
-6.810190 13.727947 0.000000
-6.496367 13.727947 0.005014
-6.182544 13.727947 0.003860
-5.868721 13.727947 0.003756
-5.554898 13.727947 0.003807
-5.241075 13.727947 0.003832
-4.927252 13.727947 0.003817
-4.613429 13.727947 0.003809
-4.299606 13.727947 0.003902
-3.985783 13.727947 0.003930
-3.671960 13.727947 0.003903
-3.358137 13.727947 0.003854
-3.044314 13.727947 0.003820
-2.730491 13.727947 0.003868
-2.416668 13.727947 0.003951
-2.102845 13.727947 0.004040
-1.789022 13.727947 0.004096
-1.475199 13.727947 0.004145
-1.161376 13.727947 0.004189
-0.847553 13.727947 0.004318
-0.533730 13.727947 0.004401
-0.219907 13.727947 0.004477
0.093916 13.727947 0.004568
0.407739 13.727947 0.004706
0.721562 13.727947 0.004909
1.035385 13.727947 0.005114
1.349208 13.727947 0.005373
1.663032 13.727947 0.005625
1.976854 13.727947 0.005913
2.290677 13.727947 0.006174
2.604500 13.727947 0.006530
2.918324 13.727947 0.007098
3.232146 13.727947 0.007781
3.545969 13.727947 0.008416
3.859793 13.727947 0.009148
4.173615 13.727947 0.010047
4.487438 13.727947 0.011132
4.801261 13.727947 0.012534
5.115085 13.727947 0.014336
5.428907 13.727947 0.016418
5.742730 13.727947 0.018936
6.056554 13.727947 0.022444
6.370377 13.727947 0.027241
6.684199 13.727947 0.033153
6.998022 13.727947 0.041190
7.311846 13.727947 0.052293
7.625669 13.727947 0.065955
7.939491 13.727947 0.084564
8.253315 13.727947 0.112430
8.567138 13.727947 0.149967
8.880960 13.727947 0.194866
9.194784 13.727947 0.248548
9.508606 13.727947 0.312165
9.822430 13.727947 0.394270
10.136253 13.727947 0.486573
10.450075 13.727947 0.586758
10.763899 13.727947 0.684449
11.077723 13.727947 0.790916
11.391544 13.727947 0.905010
11.705368 13.727947 1.020308
12.019190 13.727947 1.134361
12.333014 13.727947 1.233200
12.646837 13.727947 1.316157
12.960659 13.727947 1.408575
13.274483 13.727947 1.502528
13.588306 13.727947 1.610383
13.902128 13.727947 1.681645
14.215952 13.727947 1.752684
14.529776 13.727947 1.787157
14.843597 13.727947 1.797250
15.157421 13.727947 1.815888
15.471243 13.727947 1.818644
15.785067 13.727947 1.800750
16.098890 13.727947 1.783068
16.412712 13.727947 1.746591
16.726536 13.727947 1.681075
17.040359 13.727947 1.626380
17.354181 13.727947 1.582234
17.668005 13.727947 1.559941
17.981829 13.727947 1.569787
18.295650 13.727947 1.644293
18.609474 13.727947 1.730598
18.923298 13.727947 0.000000
19.237120 13.727947 0.000000
-6.810190 13.414124 0.000000
-6.496367 13.414124 0.004996
-6.182544 13.414124 0.003858
-5.868721 13.414124 0.003767
-5.554898 13.414124 0.003795
-5.241075 13.414124 0.003858
-4.927252 13.414124 0.003898
-4.613429 13.414124 0.003881
-4.299606 13.414124 0.003956
-3.985783 13.414124 0.003970
-3.671960 13.414124 0.003942
-3.358137 13.414124 0.003904
-3.044314 13.414124 0.003889
-2.730491 13.414124 0.003924
-2.416668 13.414124 0.003982
-2.102845 13.414124 0.004055
-1.789022 13.414124 0.004128
-1.475199 13.414124 0.004164
-1.161376 13.414124 0.004238
-0.847553 13.414124 0.004394
-0.533730 13.414124 0.004461
-0.219907 13.414124 0.004567
0.093916 13.414124 0.004664
0.407739 13.414124 0.004774
0.721562 13.414124 0.004964
1.035385 13.414124 0.005119
1.349208 13.414124 0.005343
1.663032 13.414124 0.005660
1.976854 13.414124 0.006031
2.290677 13.414124 0.006336
2.604500 13.414124 0.006645
2.918324 13.414124 0.007173
3.232146 13.414124 0.007793
3.545969 13.414124 0.008417
3.859793 13.414124 0.009184
4.173615 13.414124 0.010098
4.487438 13.414124 0.011191
4.801261 13.414124 0.012643
5.115085 13.414124 0.014480
5.428907 13.414124 0.016573
5.742730 13.414124 0.019077
6.056554 13.414124 0.022466
6.370377 13.414124 0.027105
6.684199 13.414124 0.033047
6.998022 13.414124 0.040905
7.311846 13.414124 0.052215
7.625669 13.414124 0.066412
7.939491 13.414124 0.085264
8.253315 13.414124 0.112937
8.567138 13.414124 0.148573
8.880960 13.414124 0.193807
9.194784 13.414124 0.250742
9.508606 13.414124 0.313142
9.822430 13.414124 0.388508
10.136253 13.414124 0.486780
10.450075 13.414124 0.592566
10.763899 13.414124 0.686782
11.077723 13.414124 0.787163
11.391544 13.414124 0.906235
11.705368 13.414124 1.030916
12.019190 13.414124 1.135159
12.333014 13.414124 1.234085
12.646837 13.414124 1.333945
12.960659 13.414124 1.419723
13.274483 13.414124 1.519570
13.588306 13.414124 1.607335
13.902128 13.414124 1.684146
14.215952 13.414124 1.738926
14.529776 13.414124 1.775480
14.843597 13.414124 1.782008
15.157421 13.414124 1.795877
15.471243 13.414124 1.830969
15.785067 13.414124 1.809416
16.098890 13.414124 1.779870
16.412712 13.414124 1.744421
16.726536 13.414124 1.704024
17.040359 13.414124 1.656392
17.354181 13.414124 1.598535
17.668005 13.414124 1.567274
17.981829 13.414124 1.582300
18.295650 13.414124 1.654015
18.609474 13.414124 1.736386
18.923298 13.414124 0.000000
19.237120 13.414124 0.000000
-6.810190 13.100300 0.000000
-6.496367 13.100300 0.004972
-6.182544 13.100300 0.003864
-5.868721 13.100300 0.003790
-5.554898 13.100300 0.003796
-5.241075 13.100300 0.003881
-4.927252 13.100300 0.003943
-4.613429 13.100300 0.003939
-4.299606 13.100300 0.003981
-3.985783 13.100300 0.003969
-3.671960 13.100300 0.003934
-3.358137 13.100300 0.003930
-3.044314 13.100300 0.003971
-2.730491 13.100300 0.003988
-2.416668 13.100300 0.004032
-2.102845 13.100300 0.004106
-1.789022 13.100300 0.004163
-1.475199 13.100300 0.004202
-1.161376 13.100300 0.004309
-0.847553 13.100300 0.004455
-0.533730 13.100300 0.004531
-0.219907 13.100300 0.004656
0.093916 13.100300 0.004764
0.407739 13.100300 0.004893
0.721562 13.100300 0.005084
1.035385 13.100300 0.005187
1.349208 13.100300 0.005357
1.663032 13.100300 0.005743
1.976854 13.100300 0.006156
2.290677 13.100300 0.006477
2.604500 13.100300 0.006737
2.918324 13.100300 0.007243
3.232146 13.100300 0.007849
3.545969 13.100300 0.008470
3.859793 13.100300 0.009232
4.173615 13.100300 0.010141
4.487438 13.100300 0.011281
4.801261 13.100300 0.012842
5.115085 13.100300 0.014610
5.428907 13.100300 0.016726
5.742730 13.100300 0.019268
6.056554 13.100300 0.022644
6.370377 13.100300 0.027174
6.684199 13.100300 0.033191
6.998022 13.100300 0.041246
7.311846 13.100300 0.052143
7.625669 13.100300 0.067805
7.939491 13.100300 0.085806
8.253315 13.100300 0.113677
8.567138 13.100300 0.149361
8.880960 13.100300 0.194966
9.194784 13.100300 0.250999
9.508606 13.100300 0.316429
9.822430 13.100300 0.395161
10.136253 13.100300 0.493658
10.450075 13.100300 0.598497
10.763899 13.100300 0.703395
11.077723 13.100300 0.810791
11.391544 13.100300 0.920838
11.705368 13.100300 1.034211
12.019190 13.100300 1.138768
12.333014 13.100300 1.244195
12.646837 13.100300 1.349062
12.960659 13.100300 1.433743
13.274483 13.100300 1.510601
13.588306 13.100300 1.601292
13.902128 13.100300 1.673947
14.215952 13.100300 1.740091
14.529776 13.100300 1.761545
14.843597 13.100300 1.783210
15.157421 13.100300 1.811389
15.471243 13.100300 1.819187
15.785067 13.100300 1.808342
16.098890 13.100300 1.771470
16.412712 13.100300 1.752448
16.726536 13.100300 1.714016
17.040359 13.100300 1.672994
17.354181 13.100300 1.614392
17.668005 13.100300 1.591375
17.981829 13.100300 1.617105
18.295650 13.100300 1.678829
18.609474 13.100300 1.744961
18.923298 13.100300 0.000000
19.237120 13.100300 0.000000
-6.810190 12.786476 0.000000
-6.496367 12.786476 0.004927
-6.182544 12.786476 0.003896
-5.868721 12.786476 0.003845
-5.554898 12.786476 0.003833
-5.241075 12.786476 0.003887
-4.927252 12.786476 0.003960
-4.613429 12.786476 0.003965
-4.299606 12.786476 0.003976
-3.985783 12.786476 0.003928
-3.671960 12.786476 0.003924
-3.358137 12.786476 0.003969
-3.044314 12.786476 0.004059
-2.730491 12.786476 0.004059
-2.416668 12.786476 0.004089
-2.102845 12.786476 0.004176
-1.789022 12.786476 0.004238
-1.475199 12.786476 0.004309
-1.161376 12.786476 0.004370
-0.847553 12.786476 0.004476
-0.533730 12.786476 0.004583
-0.219907 12.786476 0.004741
0.093916 12.786476 0.004874
0.407739 12.786476 0.005042
0.721562 12.786476 0.005219
1.035385 12.786476 0.005273
1.349208 12.786476 0.005436
1.663032 12.786476 0.005817
1.976854 12.786476 0.006222
2.290677 12.786476 0.006535
2.604500 12.786476 0.006813
2.918324 12.786476 0.007289
3.232146 12.786476 0.007876
3.545969 12.786476 0.008540
3.859793 12.786476 0.009310
4.173615 12.786476 0.010215
4.487438 12.786476 0.011379
4.801261 12.786476 0.012934
5.115085 12.786476 0.014700
5.428907 12.786476 0.016806
5.742730 12.786476 0.019544
6.056554 12.786476 0.022991
6.370377 12.786476 0.027514
6.684199 12.786476 0.033431
6.998022 12.786476 0.041374
7.311846 12.786476 0.051905
7.625669 12.786476 0.067278
7.939491 12.786476 0.087649
8.253315 12.786476 0.114655
8.567138 12.786476 0.150956
8.880960 12.786476 0.196356
9.194784 12.786476 0.256101
9.508606 12.786476 0.325628
9.822430 12.786476 0.401543
10.136253 12.786476 0.501236
10.450075 12.786476 0.609024
10.763899 12.786476 0.709580
11.077723 12.786476 0.809288
11.391544 12.786476 0.919778
11.705368 12.786476 1.034364
12.019190 12.786476 1.144585
12.333014 12.786476 1.251017
12.646837 12.786476 1.361612
12.960659 12.786476 1.443084
13.274483 12.786476 1.506825
13.588306 12.786476 1.586542
13.902128 12.786476 1.658546
14.215952 12.786476 1.737568
14.529776 12.786476 1.765893
14.843597 12.786476 1.775946
15.157421 12.786476 1.823362
15.471243 12.786476 1.822510
15.785067 12.786476 1.804532
16.098890 12.786476 1.770286
16.412712 12.786476 1.773600
16.726536 12.786476 1.731833
17.040359 12.786476 1.678896
17.354181 12.786476 1.635788
17.668005 12.786476 1.616438
17.981829 12.786476 1.632569
18.295650 12.786476 1.690409
18.609474 12.786476 1.767783
18.923298 12.786476 0.000000
19.237120 12.786476 0.000000
-6.810190 12.472656 0.000000
-6.496367 12.472656 0.004888
-6.182544 12.472656 0.003926
-5.868721 12.472656 0.003922
-5.554898 12.472656 0.003907
-5.241075 12.472656 0.003918
-4.927252 12.472656 0.003960
-4.613429 12.472656 0.003969
-4.299606 12.472656 0.003954
-3.985783 12.472656 0.003909
-3.671960 12.472656 0.003931
-3.358137 12.472656 0.004033
-3.044314 12.472656 0.004137
-2.730491 12.472656 0.004131
-2.416668 12.472656 0.004169
-2.102845 12.472656 0.004253
-1.789022 12.472656 0.004348
-1.475199 12.472656 0.004422
-1.161376 12.472656 0.004429
-0.847553 12.472656 0.004512
-0.533730 12.472656 0.004665
-0.219907 12.472656 0.004820
0.093916 12.472656 0.004957
0.407739 12.472656 0.005164
0.721562 12.472656 0.005337
1.035385 12.472656 0.005392
1.349208 12.472656 0.005517
1.663032 12.472656 0.005887
1.976854 12.472656 0.006219
2.290677 12.472656 0.006545
2.604500 12.472656 0.006890
2.918324 12.472656 0.007352
3.232146 12.472656 0.007905
3.545969 12.472656 0.008622
3.859793 12.472656 0.009419
4.173615 12.472656 0.010298
4.487438 12.472656 0.011451
4.801261 12.472656 0.012998
5.115085 12.472656 0.014760
5.428907 12.472656 0.016895
5.742730 12.472656 0.019691
6.056554 12.472656 0.022929
6.370377 12.472656 0.027599
6.684199 12.472656 0.033943
6.998022 12.472656 0.042036
7.311846 12.472656 0.053190
7.625669 12.472656 0.068306
7.939491 12.472656 0.087855
8.253315 12.472656 0.115506
8.567138 12.472656 0.153453
8.880960 12.472656 0.200328
9.194784 12.472656 0.258085
9.508606 12.472656 0.331167
9.822430 12.472656 0.412553
10.136253 12.472656 0.503973
10.450075 12.472656 0.607399
10.763899 12.472656 0.707674
11.077723 12.472656 0.805710
11.391544 12.472656 0.918686
11.705368 12.472656 1.033911
12.019190 12.472656 1.151307
12.333014 12.472656 1.256045
12.646837 12.472656 1.348268
12.960659 12.472656 1.437296
13.274483 12.472656 1.506548
13.588306 12.472656 1.582551
13.902128 12.472656 1.662999
14.215952 12.472656 1.733209
14.529776 12.472656 1.759584
14.843597 12.472656 1.781173
15.157421 12.472656 1.813354
15.471243 12.472656 1.835713
15.785067 12.472656 1.798272
16.098890 12.472656 1.791685
16.412712 12.472656 1.778701
16.726536 12.472656 1.754794
17.040359 12.472656 1.699116
17.354181 12.472656 1.648228
17.668005 12.472656 1.646474
17.981829 12.472656 1.651555
18.295650 12.472656 1.702961
18.609474 12.472656 1.802361
18.923298 12.472656 0.000000
19.237120 12.472656 0.000000
-6.810190 12.158833 0.000000
-6.496367 12.158833 0.004868
-6.182544 12.158833 0.003991
-5.868721 12.158833 0.004015
-5.554898 12.158833 0.003974
-5.241075 12.158833 0.003944
-4.927252 12.158833 0.003980
-4.613429 12.158833 0.003989
-4.299606 12.158833 0.003943
-3.985783 12.158833 0.003919
-3.671960 12.158833 0.004007
-3.358137 12.158833 0.004114
-3.044314 12.158833 0.004184
-2.730491 12.158833 0.004202
-2.416668 12.158833 0.004242
-2.102845 12.158833 0.004320
-1.789022 12.158833 0.004451
-1.475199 12.158833 0.004520
-1.161376 12.158833 0.004487
-0.847553 12.158833 0.004548
-0.533730 12.158833 0.004714
-0.219907 12.158833 0.004881
0.093916 12.158833 0.005018
0.407739 12.158833 0.005226
0.721562 12.158833 0.005392
1.035385 12.158833 0.005484
1.349208 12.158833 0.005641
1.663032 12.158833 0.005945
1.976854 12.158833 0.006204
2.290677 12.158833 0.006569
2.604500 12.158833 0.006985
2.918324 12.158833 0.007406
3.232146 12.158833 0.007967
3.545969 12.158833 0.008721
3.859793 12.158833 0.009536
4.173615 12.158833 0.010385
4.487438 12.158833 0.011507
4.801261 12.158833 0.012975
5.115085 12.158833 0.014708
5.428907 12.158833 0.017036
5.742730 12.158833 0.019720
6.056554 12.158833 0.023299
6.370377 12.158833 0.027840
6.684199 12.158833 0.034092
6.998022 12.158833 0.042157
7.311846 12.158833 0.053445
7.625669 12.158833 0.069152
7.939491 12.158833 0.088646
8.253315 12.158833 0.116690
8.567138 12.158833 0.155878
8.880960 12.158833 0.201983
9.194784 12.158833 0.261908
9.508606 12.158833 0.331287
9.822430 12.158833 0.416307
10.136253 12.158833 0.513174
10.450075 12.158833 0.609498
10.763899 12.158833 0.720444
11.077723 12.158833 0.813170
11.391544 12.158833 0.914135
11.705368 12.158833 1.035191
12.019190 12.158833 1.151698
12.333014 12.158833 1.256255
12.646837 12.158833 1.346667
12.960659 12.158833 1.423782
13.274483 12.158833 1.497391
13.588306 12.158833 1.577755
13.902128 12.158833 1.658707
14.215952 12.158833 1.723498
14.529776 12.158833 1.754936
14.843597 12.158833 1.792035
15.157421 12.158833 1.798616
15.471243 12.158833 1.814158
15.785067 12.158833 1.787835
16.098890 12.158833 1.784073
16.412712 12.158833 1.782445
16.726536 12.158833 1.769323
17.040359 12.158833 1.695273
17.354181 12.158833 1.679335
17.668005 12.158833 1.671760
17.981829 12.158833 1.684275
18.295650 12.158833 1.738027
18.609474 12.158833 1.805276
18.923298 12.158833 0.000000
19.237120 12.158833 0.000000
-6.810190 11.845009 0.000000
-6.496367 11.845009 0.004843
-6.182544 11.845009 0.004035
-5.868721 11.845009 0.004078
-5.554898 11.845009 0.004023
-5.241075 11.845009 0.003954
-4.927252 11.845009 0.003980
-4.613429 11.845009 0.003991
-4.299606 11.845009 0.003963
-3.985783 11.845009 0.003970
-3.671960 11.845009 0.004121
-3.358137 11.845009 0.004185
-3.044314 11.845009 0.004220
-2.730491 11.845009 0.004271
-2.416668 11.845009 0.004307
-2.102845 11.845009 0.004388
-1.789022 11.845009 0.004537
-1.475199 11.845009 0.004588
-1.161376 11.845009 0.004507
-0.847553 11.845009 0.004565
-0.533730 11.845009 0.004762
-0.219907 11.845009 0.004919
0.093916 11.845009 0.005022
0.407739 11.845009 0.005237
0.721562 11.845009 0.005420
1.035385 11.845009 0.005544
1.349208 11.845009 0.005744
1.663032 11.845009 0.005982
1.976854 11.845009 0.006216
2.290677 11.845009 0.006604
2.604500 11.845009 0.007054
2.918324 11.845009 0.007480
3.232146 11.845009 0.008043
3.545969 11.845009 0.008835
3.859793 11.845009 0.009659
4.173615 11.845009 0.010522
4.487438 11.845009 0.011589
4.801261 11.845009 0.012993
5.115085 11.845009 0.014749
5.428907 11.845009 0.017089
5.742730 11.845009 0.019853
6.056554 11.845009 0.023462
6.370377 11.845009 0.028032
6.684199 11.845009 0.034212
6.998022 11.845009 0.042523
7.311846 11.845009 0.054145
7.625669 11.845009 0.068662
7.939491 11.845009 0.089144
8.253315 11.845009 0.119943
8.567138 11.845009 0.156238
8.880960 11.845009 0.201373
9.194784 11.845009 0.262113
9.508606 11.845009 0.335325
9.822430 11.845009 0.417104
10.136253 11.845009 0.512860
10.450075 11.845009 0.613617
10.763899 11.845009 0.718250
11.077723 11.845009 0.816212
11.391544 11.845009 0.916502
11.705368 11.845009 1.033181
12.019190 11.845009 1.137311
12.333014 11.845009 1.252181
12.646837 11.845009 1.343989
12.960659 11.845009 1.432961
13.274483 11.845009 1.499637
13.588306 11.845009 1.578839
13.902128 11.845009 1.649595
14.215952 11.845009 1.717542
14.529776 11.845009 1.742866
14.843597 11.845009 1.772278
15.157421 11.845009 1.789558
15.471243 11.845009 1.801170
15.785067 11.845009 1.762454
16.098890 11.845009 1.769580
16.412712 11.845009 1.761234
16.726536 11.845009 1.754640
17.040359 11.845009 1.709356
17.354181 11.845009 1.682742
17.668005 11.845009 1.662420
17.981829 11.845009 1.688986
18.295650 11.845009 1.750958
18.609474 11.845009 1.800236
18.923298 11.845009 0.000000
19.237120 11.845009 0.000000
-6.810190 11.531185 0.000000
-6.496367 11.531185 0.004782
-6.182544 11.531185 0.004018
-5.868721 11.531185 0.004090
-5.554898 11.531185 0.004051
-5.241075 11.531185 0.003974
-4.927252 11.531185 0.003996
-4.613429 11.531185 0.004004
-4.299606 11.531185 0.004010
-3.985783 11.531185 0.004065
-3.671960 11.531185 0.004201
-3.358137 11.531185 0.004235
-3.044314 11.531185 0.004243
-2.730491 11.531185 0.004291
-2.416668 11.531185 0.004345
-2.102845 11.531185 0.004474
-1.789022 11.531185 0.004602
-1.475199 11.531185 0.004615
-1.161376 11.531185 0.004553
-0.847553 11.531185 0.004628
-0.533730 11.531185 0.004789
-0.219907 11.531185 0.004908
0.093916 11.531185 0.005029
0.407739 11.531185 0.005225
0.721562 11.531185 0.005432
1.035385 11.531185 0.005581
1.349208 11.531185 0.005795
1.663032 11.531185 0.006015
1.976854 11.531185 0.006254
2.290677 11.531185 0.006666
2.604500 11.531185 0.007123
2.918324 11.531185 0.007576
3.232146 11.531185 0.008123
3.545969 11.531185 0.008898
3.859793 11.531185 0.009743
4.173615 11.531185 0.010648
4.487438 11.531185 0.011689
4.801261 11.531185 0.013012
5.115085 11.531185 0.014865
5.428907 11.531185 0.017164
5.742730 11.531185 0.019871
6.056554 11.531185 0.023579
6.370377 11.531185 0.028317
6.684199 11.531185 0.034438
6.998022 11.531185 0.042763
7.311846 11.531185 0.054186
7.625669 11.531185 0.069847
7.939491 11.531185 0.090116
8.253315 11.531185 0.120575
8.567138 11.531185 0.159321
8.880960 11.531185 0.205218
9.194784 11.531185 0.264687
9.508606 11.531185 0.333753
9.822430 11.531185 0.416778
10.136253 11.531185 0.515512
10.450075 11.531185 0.615839
10.763899 11.531185 0.726830
11.077723 11.531185 0.831646
11.391544 11.531185 0.927254
11.705368 11.531185 1.034583
12.019190 11.531185 1.151742
12.333014 11.531185 1.263319
12.646837 11.531185 1.350816
12.960659 11.531185 1.441349
13.274483 11.531185 1.511818
13.588306 11.531185 1.567004
13.902128 11.531185 1.662335
14.215952 11.531185 1.714232
14.529776 11.531185 1.754917
14.843597 11.531185 1.765364
15.157421 11.531185 1.782022
15.471243 11.531185 1.771570
15.785067 11.531185 1.746132
16.098890 11.531185 1.758408
16.412712 11.531185 1.747282
16.726536 11.531185 1.726977
17.040359 11.531185 1.704421
17.354181 11.531185 1.669280
17.668005 11.531185 1.655059
17.981829 11.531185 1.675014
18.295650 11.531185 1.763119
18.609474 11.531185 1.813830
18.923298 11.531185 0.000000
19.237120 11.531185 0.000000
-6.810190 11.217361 0.000000
-6.496367 11.217361 0.004728
-6.182544 11.217361 0.003982
-5.868721 11.217361 0.004070
-5.554898 11.217361 0.004065
-5.241075 11.217361 0.004019
-4.927252 11.217361 0.004027
-4.613429 11.217361 0.004031
-4.299606 11.217361 0.004074
-3.985783 11.217361 0.004146
-3.671960 11.217361 0.004230
-3.358137 11.217361 0.004225
-3.044314 11.217361 0.004237
-2.730491 11.217361 0.004279
-2.416668 11.217361 0.004363
-2.102845 11.217361 0.004493
-1.789022 11.217361 0.004591
-1.475199 11.217361 0.004583
-1.161376 11.217361 0.004609
-0.847553 11.217361 0.004717
-0.533730 11.217361 0.004824
-0.219907 11.217361 0.004918
0.093916 11.217361 0.005027
0.407739 11.217361 0.005204
0.721562 11.217361 0.005431
1.035385 11.217361 0.005603
1.349208 11.217361 0.005841
1.663032 11.217361 0.006067
1.976854 11.217361 0.006316
2.290677 11.217361 0.006737
2.604500 11.217361 0.007168
2.918324 11.217361 0.007655
3.232146 11.217361 0.008202
3.545969 11.217361 0.008948
3.859793 11.217361 0.009779
4.173615 11.217361 0.010707
4.487438 11.217361 0.011750
4.801261 11.217361 0.013141
5.115085 11.217361 0.014941
5.428907 11.217361 0.017151
5.742730 11.217361 0.019906
6.056554 11.217361 0.023539
6.370377 11.217361 0.028483
6.684199 11.217361 0.034836
6.998022 11.217361 0.043484
7.311846 11.217361 0.055115
7.625669 11.217361 0.070564
7.939491 11.217361 0.091466
8.253315 11.217361 0.121818
8.567138 11.217361 0.159195
8.880960 11.217361 0.209251
9.194784 11.217361 0.271542
9.508606 11.217361 0.340240
9.822430 11.217361 0.421388
10.136253 11.217361 0.519799
10.450075 11.217361 0.624128
10.763899 11.217361 0.730743
11.077723 11.217361 0.828717
11.391544 11.217361 0.925309
11.705368 11.217361 1.031981
12.019190 11.217361 1.156335
12.333014 11.217361 1.258602
12.646837 11.217361 1.355932
12.960659 11.217361 1.437672
13.274483 11.217361 1.505989
13.588306 11.217361 1.576805
13.902128 11.217361 1.658047
14.215952 11.217361 1.714632
14.529776 11.217361 1.747325
14.843597 11.217361 1.760227
15.157421 11.217361 1.773713
15.471243 11.217361 1.760505
15.785067 11.217361 1.746520
16.098890 11.217361 1.749059
16.412712 11.217361 1.734630
16.726536 11.217361 1.709319
17.040359 11.217361 1.687949
17.354181 11.217361 1.660981
17.668005 11.217361 1.649968
17.981829 11.217361 1.674421
18.295650 11.217361 1.761431
18.609474 11.217361 1.834253
18.923298 11.217361 0.000000
19.237120 11.217361 0.000000
-6.810190 10.903542 0.000000
-6.496367 10.903542 0.004740
-6.182544 10.903542 0.003971
-5.868721 10.903542 0.004050
-5.554898 10.903542 0.004066
-5.241075 10.903542 0.004060
-4.927252 10.903542 0.004075
-4.613429 10.903542 0.004082
-4.299606 10.903542 0.004131
-3.985783 10.903542 0.004192
-3.671960 10.903542 0.004205
-3.358137 10.903542 0.004197
-3.044314 10.903542 0.004217
-2.730491 10.903542 0.004279
-2.416668 10.903542 0.004372
-2.102845 10.903542 0.004496
-1.789022 10.903542 0.004556
-1.475199 10.903542 0.004556
-1.161376 10.903542 0.004640
-0.847553 10.903542 0.004787
-0.533730 10.903542 0.004884
-0.219907 10.903542 0.004950
0.093916 10.903542 0.005041
0.407739 10.903542 0.005219
0.721562 10.903542 0.005442
1.035385 10.903542 0.005606
1.349208 10.903542 0.005851
1.663032 10.903542 0.006110
1.976854 10.903542 0.006354
2.290677 10.903542 0.006755
2.604500 10.903542 0.007166
2.918324 10.903542 0.007691
3.232146 10.903542 0.008220
3.545969 10.903542 0.008978
3.859793 10.903542 0.009800
4.173615 10.903542 0.010708
4.487438 10.903542 0.011803
4.801261 10.903542 0.013231
5.115085 10.903542 0.015021
5.428907 10.903542 0.017238
5.742730 10.903542 0.020050
6.056554 10.903542 0.023722
6.370377 10.903542 0.028656
6.684199 10.903542 0.035264
6.998022 10.903542 0.044054
7.311846 10.903542 0.055748
7.625669 10.903542 0.070732
7.939491 10.903542 0.093725
8.253315 10.903542 0.124486
8.567138 10.903542 0.162636
8.880960 10.903542 0.211569
9.194784 10.903542 0.275855
9.508606 10.903542 0.352775
9.822430 10.903542 0.433639
10.136253 10.903542 0.523220
10.450075 10.903542 0.625321
10.763899 10.903542 0.732079
11.077723 10.903542 0.825423
11.391544 10.903542 0.924791
11.705368 10.903542 1.031675
12.019190 10.903542 1.154553
12.333014 10.903542 1.262212
12.646837 10.903542 1.354672
12.960659 10.903542 1.437896
13.274483 10.903542 1.512109
13.588306 10.903542 1.589408
13.902128 10.903542 1.653739
14.215952 10.903542 1.707274
14.529776 10.903542 1.740034
14.843597 10.903542 1.750185
15.157421 10.903542 1.753850
15.471243 10.903542 1.749967
15.785067 10.903542 1.758418
16.098890 10.903542 1.740897
16.412712 10.903542 1.729434
16.726536 10.903542 1.707690
17.040359 10.903542 1.669050
17.354181 10.903542 1.661099
17.668005 10.903542 1.656737
17.981829 10.903542 1.697129
18.295650 10.903542 1.769981
18.609474 10.903542 1.817613
18.923298 10.903542 0.000000
19.237120 10.903542 0.000000
-6.810190 10.589718 0.000000
-6.496367 10.589718 0.004794
-6.182544 10.589718 0.003993
-5.868721 10.589718 0.004070
-5.554898 10.589718 0.004084
-5.241075 10.589718 0.004075
-4.927252 10.589718 0.004095
-4.613429 10.589718 0.004129
-4.299606 10.589718 0.004163
-3.985783 10.589718 0.004200
-3.671960 10.589718 0.004180
-3.358137 10.589718 0.004201
-3.044314 10.589718 0.004238
-2.730491 10.589718 0.004290
-2.416668 10.589718 0.004391
-2.102845 10.589718 0.004482
-1.789022 10.589718 0.004512
-1.475199 10.589718 0.004551
-1.161376 10.589718 0.004676
-0.847553 10.589718 0.004830
-0.533730 10.589718 0.004937
-0.219907 10.589718 0.004986
0.093916 10.589718 0.005052
0.407739 10.589718 0.005251
0.721562 10.589718 0.005450
1.035385 10.589718 0.005595
1.349208 10.589718 0.005838
1.663032 10.589718 0.006142
1.976854 10.589718 0.006414
2.290677 10.589718 0.006761
2.604500 10.589718 0.007157
2.918324 10.589718 0.007669
3.232146 10.589718 0.008237
3.545969 10.589718 0.008978
3.859793 10.589718 0.009826
4.173615 10.589718 0.010704
4.487438 10.589718 0.011886
4.801261 10.589718 0.013356
5.115085 10.589718 0.015076
5.428907 10.589718 0.017257
5.742730 10.589718 0.020331
6.056554 10.589718 0.023902
6.370377 10.589718 0.028669
6.684199 10.589718 0.035501
6.998022 10.589718 0.044540
7.311846 10.589718 0.056997
7.625669 10.589718 0.072758
7.939491 10.589718 0.093745
8.253315 10.589718 0.124072
8.567138 10.589718 0.166363
8.880960 10.589718 0.214688
9.194784 10.589718 0.276460
9.508606 10.589718 0.353940
9.822430 10.589718 0.440833
10.136253 10.589718 0.526127
10.450075 10.589718 0.633823
10.763899 10.589718 0.744950
11.077723 10.589718 0.837260
11.391544 10.589718 0.932858
11.705368 10.589718 1.036877
12.019190 10.589718 1.155248
12.333014 10.589718 1.262187
12.646837 10.589718 1.360568
12.960659 10.589718 1.447927
13.274483 10.589718 1.531494
13.588306 10.589718 1.594200
13.902128 10.589718 1.661291
14.215952 10.589718 1.687793
14.529776 10.589718 1.711339
14.843597 10.589718 1.735491
15.157421 10.589718 1.753453
15.471243 10.589718 1.759937
15.785067 10.589718 1.753302
16.098890 10.589718 1.755784
16.412712 10.589718 1.743785
16.726536 10.589718 1.722841
17.040359 10.589718 1.703010
17.354181 10.589718 1.676339
17.668005 10.589718 1.666106
17.981829 10.589718 1.694941
18.295650 10.589718 1.778877
18.609474 10.589718 1.822334
18.923298 10.589718 0.000000
19.237120 10.589718 0.000000
-6.810190 10.275894 0.000000
-6.496367 10.275894 0.004857
-6.182544 10.275894 0.004044
-5.868721 10.275894 0.004126
-5.554898 10.275894 0.004131
-5.241075 10.275894 0.004088
-4.927252 10.275894 0.004098
-4.613429 10.275894 0.004154
-4.299606 10.275894 0.004199
-3.985783 10.275894 0.004193
-3.671960 10.275894 0.004183
-3.358137 10.275894 0.004219
-3.044314 10.275894 0.004232
-2.730491 10.275894 0.004283
-2.416668 10.275894 0.004397
-2.102845 10.275894 0.004451
-1.789022 10.275894 0.004469
-1.475199 10.275894 0.004561
-1.161376 10.275894 0.004716
-0.847553 10.275894 0.004850
-0.533730 10.275894 0.004969
-0.219907 10.275894 0.005020
0.093916 10.275894 0.005042
0.407739 10.275894 0.005245
0.721562 10.275894 0.005440
1.035385 10.275894 0.005580
1.349208 10.275894 0.005867
1.663032 10.275894 0.006189
1.976854 10.275894 0.006448
2.290677 10.275894 0.006781
2.604500 10.275894 0.007161
2.918324 10.275894 0.007630
3.232146 10.275894 0.008232
3.545969 10.275894 0.008981
3.859793 10.275894 0.009812
4.173615 10.275894 0.010686
4.487438 10.275894 0.011886
4.801261 10.275894 0.013425
5.115085 10.275894 0.015146
5.428907 10.275894 0.017385
5.742730 10.275894 0.020297
6.056554 10.275894 0.024032
6.370377 10.275894 0.028755
6.684199 10.275894 0.035674
6.998022 10.275894 0.044915
7.311846 10.275894 0.057490
7.625669 10.275894 0.072637
7.939491 10.275894 0.095248
8.253315 10.275894 0.124185
8.567138 10.275894 0.166042
8.880960 10.275894 0.216780
9.194784 10.275894 0.278317
9.508606 10.275894 0.355135
9.822430 10.275894 0.444752
10.136253 10.275894 0.535543
10.450075 10.275894 0.643003
10.763899 10.275894 0.739056
11.077723 10.275894 0.837111
11.391544 10.275894 0.937583
11.705368 10.275894 1.040743
12.019190 10.275894 1.157051
12.333014 10.275894 1.269872
12.646837 10.275894 1.362109
12.960659 10.275894 1.457672
13.274483 10.275894 1.544628
13.588306 10.275894 1.586489
13.902128 10.275894 1.636326
14.215952 10.275894 1.670072
14.529776 10.275894 1.702781
14.843597 10.275894 1.723322
15.157421 10.275894 1.750925
15.471243 10.275894 1.761108
15.785067 10.275894 1.742564
16.098890 10.275894 1.768602
16.412712 10.275894 1.754486
16.726536 10.275894 1.747734
17.040359 10.275894 1.724139
17.354181 10.275894 1.695359
17.668005 10.275894 1.678290
17.981829 10.275894 1.695843
18.295650 10.275894 1.795844
18.609474 10.275894 1.808862
18.923298 10.275894 0.000000
19.237120 10.275894 0.000000
-6.810190 9.962070 0.000000
-6.496367 9.962070 0.004886
-6.182544 9.962070 0.004087
-5.868721 9.962070 0.004172
-5.554898 9.962070 0.004165
-5.241075 9.962070 0.004110
-4.927252 9.962070 0.004105
-4.613429 9.962070 0.004157
-4.299606 9.962070 0.004212
-3.985783 9.962070 0.004216
-3.671960 9.962070 0.004224
-3.358137 9.962070 0.004232
-3.044314 9.962070 0.004212
-2.730491 9.962070 0.004265
-2.416668 9.962070 0.004394
-2.102845 9.962070 0.004432
-1.789022 9.962070 0.004445
-1.475199 9.962070 0.004586
-1.161376 9.962070 0.004733
-0.847553 9.962070 0.004839
-0.533730 9.962070 0.004958
-0.219907 9.962070 0.004996
0.093916 9.962070 0.004969
0.407739 9.962070 0.005172
0.721562 9.962070 0.005401
1.035385 9.962070 0.005595
1.349208 9.962070 0.005877
1.663032 9.962070 0.006218
1.976854 9.962070 0.006479
2.290677 9.962070 0.006813
2.604500 9.962070 0.007128
2.918324 9.962070 0.007602
3.232146 9.962070 0.008213
3.545969 9.962070 0.008953
3.859793 9.962070 0.009768
4.173615 9.962070 0.010665
4.487438 9.962070 0.011873
4.801261 9.962070 0.013450
5.115085 9.962070 0.015226
5.428907 9.962070 0.017432
5.742730 9.962070 0.020392
6.056554 9.962070 0.024061
6.370377 9.962070 0.028756
6.684199 9.962070 0.035813
6.998022 9.962070 0.045464
7.311846 9.962070 0.057610
7.625669 9.962070 0.072676
7.939491 9.962070 0.095110
8.253315 9.962070 0.124847
8.567138 9.962070 0.165979
8.880960 9.962070 0.218264
9.194784 9.962070 0.280301
9.508606 9.962070 0.356727
9.822430 9.962070 0.442607
10.136253 9.962070 0.537040
10.450075 9.962070 0.639498
10.763899 9.962070 0.744604
11.077723 9.962070 0.829495
11.391544 9.962070 0.939166
11.705368 9.962070 1.044259
12.019190 9.962070 1.168800
12.333014 9.962070 1.276519
12.646837 9.962070 1.370967
12.960659 9.962070 1.445643
13.274483 9.962070 1.531989
13.588306 9.962070 1.591721
13.902128 9.962070 1.637297
14.215952 9.962070 1.663043
14.529776 9.962070 1.716366
14.843597 9.962070 1.730304
15.157421 9.962070 1.729584
15.471243 9.962070 1.742945
15.785067 9.962070 1.741414
16.098890 9.962070 1.748336
16.412712 9.962070 1.771065
16.726536 9.962070 1.771811
17.040359 9.962070 1.755804
17.354181 9.962070 1.713236
17.668005 9.962070 1.689368
17.981829 9.962070 1.708934
18.295650 9.962070 1.788595
18.609474 9.962070 1.812742
18.923298 9.962070 0.000000
19.237120 9.962070 0.000000
-6.810190 9.648247 0.000000
-6.496367 9.648247 0.004881
-6.182544 9.648247 0.004107
-5.868721 9.648247 0.004164
-5.554898 9.648247 0.004178
-5.241075 9.648247 0.004133
-4.927252 9.648247 0.004110
-4.613429 9.648247 0.004135
-4.299606 9.648247 0.004198
-3.985783 9.648247 0.004236
-3.671960 9.648247 0.004257
-3.358137 9.648247 0.004226
-3.044314 9.648247 0.004217
-2.730491 9.648247 0.004271
-2.416668 9.648247 0.004368
-2.102845 9.648247 0.004400
-1.789022 9.648247 0.004466
-1.475199 9.648247 0.004599
-1.161376 9.648247 0.004727
-0.847553 9.648247 0.004850
-0.533730 9.648247 0.004893
-0.219907 9.648247 0.004900
0.093916 9.648247 0.004882
0.407739 9.648247 0.005102
0.721562 9.648247 0.005355
1.035385 9.648247 0.005548
1.349208 9.648247 0.005912
1.663032 9.648247 0.006263
1.976854 9.648247 0.006479
2.290677 9.648247 0.006773
2.604500 9.648247 0.007128
2.918324 9.648247 0.007574
3.232146 9.648247 0.008164
3.545969 9.648247 0.008895
3.859793 9.648247 0.009712
4.173615 9.648247 0.010637
4.487438 9.648247 0.011850
4.801261 9.648247 0.013402
5.115085 9.648247 0.015223
5.428907 9.648247 0.017490
5.742730 9.648247 0.020383
6.056554 9.648247 0.024074
6.370377 9.648247 0.029145
6.684199 9.648247 0.036075
6.998022 9.648247 0.045425
7.311846 9.648247 0.057933
7.625669 9.648247 0.074294
7.939491 9.648247 0.096942
8.253315 9.648247 0.128727
8.567138 9.648247 0.168027
8.880960 9.648247 0.221039
9.194784 9.648247 0.287040
9.508606 9.648247 0.360162
9.822430 9.648247 0.450036
10.136253 9.648247 0.540628
10.450075 9.648247 0.638149
10.763899 9.648247 0.735148
11.077723 9.648247 0.827664
11.391544 9.648247 0.926709
11.705368 9.648247 1.049263
12.019190 9.648247 1.170430
12.333014 9.648247 1.274929
12.646837 9.648247 1.359713
12.960659 9.648247 1.439036
13.274483 9.648247 1.510368
13.588306 9.648247 1.575961
13.902128 9.648247 1.635633
14.215952 9.648247 1.675376
14.529776 9.648247 1.715938
14.843597 9.648247 1.722287
15.157421 9.648247 1.722069
15.471243 9.648247 1.749116
15.785067 9.648247 1.738201
16.098890 9.648247 1.723138
16.412712 9.648247 1.758519
16.726536 9.648247 1.790247
17.040359 9.648247 1.768342
17.354181 9.648247 1.721151
17.668005 9.648247 1.719749
17.981829 9.648247 1.745626
18.295650 9.648247 1.832422
18.609474 9.648247 1.839398
18.923298 9.648247 0.000000
19.237120 9.648247 0.000000
-6.810190 9.334423 0.000000
-6.496367 9.334423 0.004888
-6.182544 9.334423 0.004097
-5.868721 9.334423 0.004133
-5.554898 9.334423 0.004169
-5.241075 9.334423 0.004174
-4.927252 9.334423 0.004118
-4.613429 9.334423 0.004088
-4.299606 9.334423 0.004146
-3.985783 9.334423 0.004235
-3.671960 9.334423 0.004249
-3.358137 9.334423 0.004237
-3.044314 9.334423 0.004245
-2.730491 9.334423 0.004267
-2.416668 9.334423 0.004348
-2.102845 9.334423 0.004405
-1.789022 9.334423 0.004509
-1.475199 9.334423 0.004611
-1.161376 9.334423 0.004712
-0.847553 9.334423 0.004795
-0.533730 9.334423 0.004778
-0.219907 9.334423 0.004788
0.093916 9.334423 0.004846
0.407739 9.334423 0.005059
0.721562 9.334423 0.005283
1.035385 9.334423 0.005497
1.349208 9.334423 0.005903
1.663032 9.334423 0.006273
1.976854 9.334423 0.006446
2.290677 9.334423 0.006731
2.604500 9.334423 0.007109
2.918324 9.334423 0.007562
3.232146 9.334423 0.008113
3.545969 9.334423 0.008825
3.859793 9.334423 0.009653
4.173615 9.334423 0.010626
4.487438 9.334423 0.011855
4.801261 9.334423 0.013358
5.115085 9.334423 0.015251
5.428907 9.334423 0.017512
5.742730 9.334423 0.020410
6.056554 9.334423 0.024146
6.370377 9.334423 0.029238
6.684199 9.334423 0.036228
6.998022 9.334423 0.045650
7.311846 9.334423 0.058137
7.625669 9.334423 0.075265
7.939491 9.334423 0.099479
8.253315 9.334423 0.130403
8.567138 9.334423 0.172425
8.880960 9.334423 0.224940
9.194784 9.334423 0.288109
9.508606 9.334423 0.368344
9.822430 9.334423 0.459994
10.136253 9.334423 0.556588
10.450075 9.334423 0.649733
10.763899 9.334423 0.746399
11.077723 9.334423 0.836753
11.391544 9.334423 0.929964
11.705368 9.334423 1.051272
12.019190 9.334423 1.182140
12.333014 9.334423 1.278038
12.646837 9.334423 1.354537
12.960659 9.334423 1.434829
13.274483 9.334423 1.508065
13.588306 9.334423 1.579914
13.902128 9.334423 1.638754
14.215952 9.334423 1.685834
14.529776 9.334423 1.702145
14.843597 9.334423 1.709059
15.157421 9.334423 1.714682
15.471243 9.334423 1.741732
15.785067 9.334423 1.723905
16.098890 9.334423 1.712614
16.412712 9.334423 1.743832
16.726536 9.334423 1.786660
17.040359 9.334423 1.764992
17.354181 9.334423 1.735523
17.668005 9.334423 1.759268
17.981829 9.334423 1.795279
18.295650 9.334423 1.890024
18.609474 9.334423 1.892745
18.923298 9.334423 0.000000
19.237120 9.334423 0.000000
-6.810190 9.020603 0.000000
-6.496367 9.020603 0.004903
-6.182544 9.020603 0.004099
-5.868721 9.020603 0.004096
-5.554898 9.020603 0.004158
-5.241075 9.020603 0.004181
-4.927252 9.020603 0.004109
-4.613429 9.020603 0.004034
-4.299606 9.020603 0.004087
-3.985783 9.020603 0.004191
-3.671960 9.020603 0.004209
-3.358137 9.020603 0.004226
-3.044314 9.020603 0.004246
-2.730491 9.020603 0.004255
-2.416668 9.020603 0.004333
-2.102845 9.020603 0.004441
-1.789022 9.020603 0.004539
-1.475199 9.020603 0.004594
-1.161376 9.020603 0.004662
-0.847553 9.020603 0.004722
-0.533730 9.020603 0.004690
-0.219907 9.020603 0.004703
0.093916 9.020603 0.004834
0.407739 9.020603 0.005048
0.721562 9.020603 0.005240
1.035385 9.020603 0.005488
1.349208 9.020603 0.005890
1.663032 9.020603 0.006239
1.976854 9.020603 0.006432
2.290677 9.020603 0.006706
2.604500 9.020603 0.007081
2.918324 9.020603 0.007537
3.232146 9.020603 0.008081
3.545969 9.020603 0.008772
3.859793 9.020603 0.009602
4.173615 9.020603 0.010636
4.487438 9.020603 0.011831
4.801261 9.020603 0.013278
5.115085 9.020603 0.015204
5.428907 9.020603 0.017535
5.742730 9.020603 0.020597
6.056554 9.020603 0.024431
6.370377 9.020603 0.029540
6.684199 9.020603 0.036345
6.998022 9.020603 0.045945
7.311846 9.020603 0.058405
7.625669 9.020603 0.075395
7.939491 9.020603 0.099912
8.253315 9.020603 0.133628
8.567138 9.020603 0.176002
8.880960 9.020603 0.229261
9.194784 9.020603 0.293092
9.508606 9.020603 0.373502
9.822430 9.020603 0.465847
10.136253 9.020603 0.565151
10.450075 9.020603 0.662781
10.763899 9.020603 0.764385
11.077723 9.020603 0.852267
11.391544 9.020603 0.948781
11.705368 9.020603 1.061088
12.019190 9.020603 1.184941
12.333014 9.020603 1.291080
12.646837 9.020603 1.367340
12.960659 9.020603 1.439070
13.274483 9.020603 1.496943
13.588306 9.020603 1.557602
13.902128 9.020603 1.626347
14.215952 9.020603 1.672060
14.529776 9.020603 1.691726
14.843597 9.020603 1.701698
15.157421 9.020603 1.711943
15.471243 9.020603 1.719180
15.785067 9.020603 1.720111
16.098890 9.020603 1.711577
16.412712 9.020603 1.738497
16.726536 9.020603 1.770832
17.040359 9.020603 1.774394
17.354181 9.020603 1.767446
17.668005 9.020603 1.790761
17.981829 9.020603 1.816264
18.295650 9.020603 1.936339
18.609474 9.020603 1.900811
18.923298 9.020603 0.000000
19.237120 9.020603 0.000000
-6.810190 8.706779 0.000000
-6.496367 8.706779 0.004932
-6.182544 8.706779 0.004110
-5.868721 8.706779 0.004069
-5.554898 8.706779 0.004104
-5.241075 8.706779 0.004145
-4.927252 8.706779 0.004075
-4.613429 8.706779 0.003998
-4.299606 8.706779 0.004030
-3.985783 8.706779 0.004114
-3.671960 8.706779 0.004140
-3.358137 8.706779 0.004180
-3.044314 8.706779 0.004202
-2.730491 8.706779 0.004217
-2.416668 8.706779 0.004332
-2.102845 8.706779 0.004437
-1.789022 8.706779 0.004503
-1.475199 8.706779 0.004521
-1.161376 8.706779 0.004580
-0.847553 8.706779 0.004607
-0.533730 8.706779 0.004608
-0.219907 8.706779 0.004652
0.093916 8.706779 0.004817
0.407739 8.706779 0.005040
0.721562 8.706779 0.005245
1.035385 8.706779 0.005506
1.349208 8.706779 0.005845
1.663032 8.706779 0.006151
1.976854 8.706779 0.006393
2.290677 8.706779 0.006672
2.604500 8.706779 0.007009
2.918324 8.706779 0.007474
3.232146 8.706779 0.008060
3.545969 8.706779 0.008779
3.859793 8.706779 0.009612
4.173615 8.706779 0.010615
4.487438 8.706779 0.011820
4.801261 8.706779 0.013285
5.115085 8.706779 0.015189
5.428907 8.706779 0.017541
5.742730 8.706779 0.020711
6.056554 8.706779 0.024548
6.370377 8.706779 0.029656
6.684199 8.706779 0.036176
6.998022 8.706779 0.045517
7.311846 8.706779 0.057958
7.625669 8.706779 0.076073
7.939491 8.706779 0.101958
8.253315 8.706779 0.136174
8.567138 8.706779 0.180858
8.880960 8.706779 0.234727
9.194784 8.706779 0.296764
9.508606 8.706779 0.377291
9.822430 8.706779 0.467419
10.136253 8.706779 0.564357
10.450075 8.706779 0.667596
10.763899 8.706779 0.768165
11.077723 8.706779 0.866468
11.391544 8.706779 0.960481
11.705368 8.706779 1.071657
12.019190 8.706779 1.188095
12.333014 8.706779 1.291652
12.646837 8.706779 1.373405
12.960659 8.706779 1.444661
13.274483 8.706779 1.487374
13.588306 8.706779 1.550508
13.902128 8.706779 1.609032
14.215952 8.706779 1.655000
14.529776 8.706779 1.682168
14.843597 8.706779 1.688294
15.157421 8.706779 1.687974
15.471243 8.706779 1.710351
15.785067 8.706779 1.708873
16.098890 8.706779 1.694648
16.412712 8.706779 1.731024
16.726536 8.706779 1.783841
17.040359 8.706779 1.798497
17.354181 8.706779 1.795488
17.668005 8.706779 1.827869
17.981829 8.706779 1.868545
18.295650 8.706779 1.995274
18.609474 8.706779 1.917726
18.923298 8.706779 0.000000
19.237120 8.706779 0.000000
-6.810190 8.392956 0.000000
-6.496367 8.392956 0.004962
-6.182544 8.392956 0.004084
-5.868721 8.392956 0.004048
-5.554898 8.392956 0.004040
-5.241075 8.392956 0.004083
-4.927252 8.392956 0.004042
-4.613429 8.392956 0.003974
-4.299606 8.392956 0.003972
-3.985783 8.392956 0.004006
-3.671960 8.392956 0.004041
-3.358137 8.392956 0.004075
-3.044314 8.392956 0.004104
-2.730491 8.392956 0.004171
-2.416668 8.392956 0.004309
-2.102845 8.392956 0.004389
-1.789022 8.392956 0.004415
-1.475199 8.392956 0.004424
-1.161376 8.392956 0.004481
-0.847553 8.392956 0.004503
-0.533730 8.392956 0.004539
-0.219907 8.392956 0.004610
0.093916 8.392956 0.004794
0.407739 8.392956 0.005004
0.721562 8.392956 0.005260
1.035385 8.392956 0.005504
1.349208 8.392956 0.005753
1.663032 8.392956 0.006011
1.976854 8.392956 0.006315
2.290677 8.392956 0.006618
2.604500 8.392956 0.006908
2.918324 8.392956 0.007420
3.232146 8.392956 0.008068
3.545969 8.392956 0.008783
3.859793 8.392956 0.009615
4.173615 8.392956 0.010608
4.487438 8.392956 0.011764
4.801261 8.392956 0.013221
5.115085 8.392956 0.015139
5.428907 8.392956 0.017629
5.742730 8.392956 0.020737
6.056554 8.392956 0.024877
6.370377 8.392956 0.030049
6.684199 8.392956 0.036580
6.998022 8.392956 0.046104
7.311846 8.392956 0.059551
7.625669 8.392956 0.077351
7.939491 8.392956 0.103965
8.253315 8.392956 0.135952
8.567138 8.392956 0.178190
8.880960 8.392956 0.234075
9.194784 8.392956 0.300569
9.508606 8.392956 0.379053
9.822430 8.392956 0.469348
10.136253 8.392956 0.569300
10.450075 8.392956 0.669208
10.763899 8.392956 0.762165
11.077723 8.392956 0.868399
11.391544 8.392956 0.970976
11.705368 8.392956 1.084041
12.019190 8.392956 1.184471
12.333014 8.392956 1.283692
12.646837 8.392956 1.366799
12.960659 8.392956 1.434551
13.274483 8.392956 1.500661
13.588306 8.392956 1.554357
13.902128 8.392956 1.606673
14.215952 8.392956 1.654063
14.529776 8.392956 1.667922
14.843597 8.392956 1.678614
15.157421 8.392956 1.666909
15.471243 8.392956 1.701303
15.785067 8.392956 1.704400
16.098890 8.392956 1.704455
16.412712 8.392956 1.740118
16.726536 8.392956 1.773237
17.040359 8.392956 1.806152
17.354181 8.392956 1.834624
17.668005 8.392956 1.841553
17.981829 8.392956 1.903465
18.295650 8.392956 2.043616
18.609474 8.392956 1.935026
18.923298 8.392956 0.000000
19.237120 8.392956 0.000000
-6.810190 8.079132 0.000000
-6.496367 8.079132 0.004967
-6.182544 8.079132 0.004053
-5.868721 8.079132 0.004000
-5.554898 8.079132 0.003968
-5.241075 8.079132 0.003998
-4.927252 8.079132 0.003997
-4.613429 8.079132 0.003961
-4.299606 8.079132 0.003909
-3.985783 8.079132 0.003940
-3.671960 8.079132 0.003968
-3.358137 8.079132 0.003977
-3.044314 8.079132 0.004016
-2.730491 8.079132 0.004110
-2.416668 8.079132 0.004249
-2.102845 8.079132 0.004299
-1.789022 8.079132 0.004274
-1.475199 8.079132 0.004323
-1.161376 8.079132 0.004377
-0.847553 8.079132 0.004408
-0.533730 8.079132 0.004477
-0.219907 8.079132 0.004588
0.093916 8.079132 0.004779
0.407739 8.079132 0.005000
0.721562 8.079132 0.005242
1.035385 8.079132 0.005443
1.349208 8.079132 0.005621
1.663032 8.079132 0.005851
1.976854 8.079132 0.006165
2.290677 8.079132 0.006509
2.604500 8.079132 0.006830
2.918324 8.079132 0.007340
3.232146 8.079132 0.008015
3.545969 8.079132 0.008739
3.859793 8.079132 0.009590
4.173615 8.079132 0.010535
4.487438 8.079132 0.011703
4.801261 8.079132 0.013205
5.115085 8.079132 0.015128
5.428907 8.079132 0.017572
5.742730 8.079132 0.020851
6.056554 8.079132 0.025067
6.370377 8.079132 0.030261
6.684199 8.079132 0.037231
6.998022 8.079132 0.047069
7.311846 8.079132 0.060674
7.625669 8.079132 0.079609
7.939491 8.079132 0.105497
8.253315 8.079132 0.137729
8.567138 8.079132 0.180235
8.880960 8.079132 0.236810
9.194784 8.079132 0.305712
9.508606 8.079132 0.382154
9.822430 8.079132 0.476859
10.136253 8.079132 0.567539
10.450075 8.079132 0.665465
10.763899 8.079132 0.765194
11.077723 8.079132 0.865803
11.391544 8.079132 0.976961
11.705368 8.079132 1.086947
12.019190 8.079132 1.186876
12.333014 8.079132 1.282992
12.646837 8.079132 1.366521
12.960659 8.079132 1.440670
13.274483 8.079132 1.501878
13.588306 8.079132 1.572790
13.902128 8.079132 1.612556
14.215952 8.079132 1.645195
14.529776 8.079132 1.676993
14.843597 8.079132 1.676685
15.157421 8.079132 1.667999
15.471243 8.079132 1.693783
15.785067 8.079132 1.696227
16.098890 8.079132 1.717782
16.412712 8.079132 1.742970
16.726536 8.079132 1.760997
17.040359 8.079132 1.825365
17.354181 8.079132 1.864150
17.668005 8.079132 1.885661
17.981829 8.079132 1.945884
18.295650 8.079132 2.099605
18.609474 8.079132 1.927594
18.923298 8.079132 0.000000
19.237120 8.079132 0.000000
-6.810190 7.765308 0.000000
-6.496367 7.765308 0.004953
-6.182544 7.765308 0.003980
-5.868721 7.765308 0.003901
-5.554898 7.765308 0.003880
-5.241075 7.765308 0.003904
-4.927252 7.765308 0.003942
-4.613429 7.765308 0.003923
-4.299606 7.765308 0.003861
-3.985783 7.765308 0.003898
-3.671960 7.765308 0.003924
-3.358137 7.765308 0.003900
-3.044314 7.765308 0.003930
-2.730491 7.765308 0.004024
-2.416668 7.765308 0.004160
-2.102845 7.765308 0.004202
-1.789022 7.765308 0.004174
-1.475199 7.765308 0.004193
-1.161376 7.765308 0.004267
-0.847553 7.765308 0.004345
-0.533730 7.765308 0.004453
-0.219907 7.765308 0.004551
0.093916 7.765308 0.004739
0.407739 7.765308 0.004978
0.721562 7.765308 0.005172
1.035385 7.765308 0.005308
1.349208 7.765308 0.005457
1.663032 7.765308 0.005677
1.976854 7.765308 0.005966
2.290677 7.765308 0.006370
2.604500 7.765308 0.006741
2.918324 7.765308 0.007221
3.232146 7.765308 0.007882
3.545969 7.765308 0.008617
3.859793 7.765308 0.009495
4.173615 7.765308 0.010473
4.487438 7.765308 0.011655
4.801261 7.765308 0.013223
5.115085 7.765308 0.015185
5.428907 7.765308 0.017537
5.742730 7.765308 0.020688
6.056554 7.765308 0.025119
6.370377 7.765308 0.030579
6.684199 7.765308 0.038031
6.998022 7.765308 0.048011
7.311846 7.765308 0.061576
7.625669 7.765308 0.080912
7.939491 7.765308 0.108049
8.253315 7.765308 0.141656
8.567138 7.765308 0.182544
8.880960 7.765308 0.242136
9.194784 7.765308 0.309151
9.508606 7.765308 0.390895
9.822430 7.765308 0.482497
10.136253 7.765308 0.573453
10.450075 7.765308 0.669566
10.763899 7.765308 0.768674
11.077723 7.765308 0.882601
11.391544 7.765308 0.988353
11.705368 7.765308 1.094322
12.019190 7.765308 1.189752
12.333014 7.765308 1.288467
12.646837 7.765308 1.369009
12.960659 7.765308 1.442877
13.274483 7.765308 1.512688
13.588306 7.765308 1.579632
13.902128 7.765308 1.631552
14.215952 7.765308 1.664890
14.529776 7.765308 1.682493
14.843597 7.765308 1.666015
15.157421 7.765308 1.669006
15.471243 7.765308 1.687752
15.785067 7.765308 1.695582
16.098890 7.765308 1.716682
16.412712 7.765308 1.743202
16.726536 7.765308 1.775660
17.040359 7.765308 1.830995
17.354181 7.765308 1.881774
17.668005 7.765308 1.941927
17.981829 7.765308 2.003751
18.295650 7.765308 2.100435
18.609474 7.765308 1.910901
18.923298 7.765308 0.000000
19.237120 7.765308 0.000000
-6.810190 7.451488 0.000000
-6.496367 7.451488 0.004917
-6.182544 7.451488 0.003900
-5.868721 7.451488 0.003817
-5.554898 7.451488 0.003805
-5.241075 7.451488 0.003833
-4.927252 7.451488 0.003867
-4.613429 7.451488 0.003844
-4.299606 7.451488 0.003805
-3.985783 7.451488 0.003863
-3.671960 7.451488 0.003885
-3.358137 7.451488 0.003841
-3.044314 7.451488 0.003864
-2.730491 7.451488 0.003921
-2.416668 7.451488 0.004038
-2.102845 7.451488 0.004093
-1.789022 7.451488 0.004099
-1.475199 7.451488 0.004089
-1.161376 7.451488 0.004187
-0.847553 7.451488 0.004339
-0.533730 7.451488 0.004442
-0.219907 7.451488 0.004500
0.093916 7.451488 0.004680
0.407739 7.451488 0.004911
0.721562 7.451488 0.005070
1.035385 7.451488 0.005173
1.349208 7.451488 0.005289
1.663032 7.451488 0.005527
1.976854 7.451488 0.005822
2.290677 7.451488 0.006233
2.604500 7.451488 0.006664
2.918324 7.451488 0.007092
3.232146 7.451488 0.007725
3.545969 7.451488 0.008507
3.859793 7.451488 0.009402
4.173615 7.451488 0.010425
4.487438 7.451488 0.011671
4.801261 7.451488 0.013186
5.115085 7.451488 0.015248
5.428907 7.451488 0.017609
5.742730 7.451488 0.020638
6.056554 7.451488 0.024968
6.370377 7.451488 0.030874
6.684199 7.451488 0.038861
6.998022 7.451488 0.049127
7.311846 7.451488 0.062845
7.625669 7.451488 0.081158
7.939491 7.451488 0.108857
8.253315 7.451488 0.144363
8.567138 7.451488 0.189439
8.880960 7.451488 0.248421
9.194784 7.451488 0.313725
9.508606 7.451488 0.399311
9.822430 7.451488 0.488979
10.136253 7.451488 0.578475
10.450075 7.451488 0.673253
10.763899 7.451488 0.784553
11.077723 7.451488 0.899010
11.391544 7.451488 1.009849
11.705368 7.451488 1.108150
12.019190 7.451488 1.189229
12.333014 7.451488 1.279318
12.646837 7.451488 1.350994
12.960659 7.451488 1.442925
13.274483 7.451488 1.524715
13.588306 7.451488 1.597602
13.902128 7.451488 1.642309
14.215952 7.451488 1.675736
14.529776 7.451488 1.685765
14.843597 7.451488 1.662101
15.157421 7.451488 1.656263
15.471243 7.451488 1.676814
15.785067 7.451488 1.706943
16.098890 7.451488 1.722965
16.412712 7.451488 1.725846
16.726536 7.451488 1.767589
17.040359 7.451488 1.830779
17.354181 7.451488 1.892675
17.668005 7.451488 1.969993
17.981829 7.451488 2.045860
18.295650 7.451488 2.116744
18.609474 7.451488 1.894730
18.923298 7.451488 0.000000
19.237120 7.451488 0.000000
-6.810190 7.137665 0.000000
-6.496367 7.137665 0.004871
-6.182544 7.137665 0.003831
-5.868721 7.137665 0.003754
-5.554898 7.137665 0.003777
-5.241075 7.137665 0.003800
-4.927252 7.137665 0.003784
-4.613429 7.137665 0.003747
-4.299606 7.137665 0.003751
-3.985783 7.137665 0.003807
-3.671960 7.137665 0.003831
-3.358137 7.137665 0.003809
-3.044314 7.137665 0.003788
-2.730491 7.137665 0.003817
-2.416668 7.137665 0.003942
-2.102845 7.137665 0.004006
-1.789022 7.137665 0.004034
-1.475199 7.137665 0.003997
-1.161376 7.137665 0.004136
-0.847553 7.137665 0.004340
-0.533730 7.137665 0.004423
-0.219907 7.137665 0.004448
0.093916 7.137665 0.004602
0.407739 7.137665 0.004819
0.721562 7.137665 0.004981
1.035385 7.137665 0.005089
1.349208 7.137665 0.005182
1.663032 7.137665 0.005412
1.976854 7.137665 0.005732
2.290677 7.137665 0.006141
2.604500 7.137665 0.006578
2.918324 7.137665 0.006985
3.232146 7.137665 0.007615
3.545969 7.137665 0.008428
3.859793 7.137665 0.009345
4.173615 7.137665 0.010384
4.487438 7.137665 0.011662
4.801261 7.137665 0.013270
5.115085 7.137665 0.015342
5.428907 7.137665 0.017726
5.742730 7.137665 0.020667
6.056554 7.137665 0.024757
6.370377 7.137665 0.030828
6.684199 7.137665 0.039122
6.998022 7.137665 0.049724
7.311846 7.137665 0.063919
7.625669 7.137665 0.082979
7.939491 7.137665 0.109466
8.253315 7.137665 0.144741
8.567138 7.137665 0.192999
8.880960 7.137665 0.254138
9.194784 7.137665 0.318790
9.508606 7.137665 0.403384
9.822430 7.137665 0.496430
10.136253 7.137665 0.581740
10.450075 7.137665 0.680637
10.763899 7.137665 0.787822
11.077723 7.137665 0.907395
11.391544 7.137665 1.012388
11.705368 7.137665 1.105593
12.019190 7.137665 1.192961
12.333014 7.137665 1.276103
12.646837 7.137665 1.360922
12.960659 7.137665 1.446074
13.274483 7.137665 1.533827
13.588306 7.137665 1.603564
13.902128 7.137665 1.644283
14.215952 7.137665 1.668827
14.529776 7.137665 1.685942
14.843597 7.137665 1.671437
15.157421 7.137665 1.654501
15.471243 7.137665 1.675399
15.785067 7.137665 1.687785
16.098890 7.137665 1.695268
16.412712 7.137665 1.713241
16.726536 7.137665 1.751498
17.040359 7.137665 1.804220
17.354181 7.137665 1.902395
17.668005 7.137665 1.983240
17.981829 7.137665 2.081152
18.295650 7.137665 2.172553
18.609474 7.137665 1.876292
18.923298 7.137665 0.000000
19.237120 7.137665 0.000000
-6.810190 6.823841 0.000000
-6.496367 6.823841 0.004749
-6.182544 6.823841 0.003741
-5.868721 6.823841 0.003681
-5.554898 6.823841 0.003745
-5.241075 6.823841 0.003769
-4.927252 6.823841 0.003717
-4.613429 6.823841 0.003695
-4.299606 6.823841 0.003712
-3.985783 6.823841 0.003727
-3.671960 6.823841 0.003778
-3.358137 6.823841 0.003774
-3.044314 6.823841 0.003709
-2.730491 6.823841 0.003737
-2.416668 6.823841 0.003875
-2.102845 6.823841 0.003948
-1.789022 6.823841 0.003934
-1.475199 6.823841 0.003944
-1.161376 6.823841 0.004112
-0.847553 6.823841 0.004314
-0.533730 6.823841 0.004383
-0.219907 6.823841 0.004427
0.093916 6.823841 0.004553
0.407739 6.823841 0.004700
0.721562 6.823841 0.004870
1.035385 6.823841 0.005044
1.349208 6.823841 0.005173
1.663032 6.823841 0.005364
1.976854 6.823841 0.005698
2.290677 6.823841 0.006076
2.604500 6.823841 0.006499
2.918324 6.823841 0.006946
3.232146 6.823841 0.007579
3.545969 6.823841 0.008381
3.859793 6.823841 0.009282
4.173615 6.823841 0.010385
4.487438 6.823841 0.011651
4.801261 6.823841 0.013259
5.115085 6.823841 0.015391
5.428907 6.823841 0.017932
5.742730 6.823841 0.020928
6.056554 6.823841 0.025303
6.370377 6.823841 0.031355
6.684199 6.823841 0.039032
6.998022 6.823841 0.050178
7.311846 6.823841 0.064884
7.625669 6.823841 0.083495
7.939491 6.823841 0.110073
8.253315 6.823841 0.145987
8.567138 6.823841 0.196457
8.880960 6.823841 0.253945
9.194784 6.823841 0.323493
9.508606 6.823841 0.404182
9.822430 6.823841 0.493758
10.136253 6.823841 0.584150
10.450075 6.823841 0.684076
10.763899 6.823841 0.792967
11.077723 6.823841 0.906527
11.391544 6.823841 1.003225
11.705368 6.823841 1.102922
12.019190 6.823841 1.203331
12.333014 6.823841 1.279582
12.646837 6.823841 1.358367
12.960659 6.823841 1.443966
13.274483 6.823841 1.530718
13.588306 6.823841 1.599041
13.902128 6.823841 1.643062
14.215952 6.823841 1.661494
14.529776 6.823841 1.671054
14.843597 6.823841 1.668031
15.157421 6.823841 1.658057
15.471243 6.823841 1.664173
15.785067 6.823841 1.669238
16.098890 6.823841 1.650743
16.412712 6.823841 1.688088
16.726536 6.823841 1.736409
17.040359 6.823841 1.809416
17.354181 6.823841 1.875393
17.668005 6.823841 1.969537
17.981829 6.823841 2.070711
18.295650 6.823841 2.189197
18.609474 6.823841 1.846306
18.923298 6.823841 0.000000
19.237120 6.823841 0.000000
-6.810190 6.510017 0.000000
-6.496367 6.510017 0.004595
-6.182544 6.510017 0.003661
-5.868721 6.510017 0.003632
-5.554898 6.510017 0.003699
-5.241075 6.510017 0.003721
-4.927252 6.510017 0.003668
-4.613429 6.510017 0.003640
-4.299606 6.510017 0.003654
-3.985783 6.510017 0.003649
-3.671960 6.510017 0.003715
-3.358137 6.510017 0.003702
-3.044314 6.510017 0.003623
-2.730491 6.510017 0.003677
-2.416668 6.510017 0.003818
-2.102845 6.510017 0.003868
-1.789022 6.510017 0.003868
-1.475199 6.510017 0.003907
-1.161376 6.510017 0.004051
-0.847553 6.510017 0.004251
-0.533730 6.510017 0.004358
-0.219907 6.510017 0.004396
0.093916 6.510017 0.004474
0.407739 6.510017 0.004571
0.721562 6.510017 0.004769
1.035385 6.510017 0.005014
1.349208 6.510017 0.005181
1.663032 6.510017 0.005385
1.976854 6.510017 0.005691
2.290677 6.510017 0.006057
2.604500 6.510017 0.006450
2.918324 6.510017 0.006938
3.232146 6.510017 0.007618
3.545969 6.510017 0.008407
3.859793 6.510017 0.009288
4.173615 6.510017 0.010365
4.487438 6.510017 0.011697
4.801261 6.510017 0.013294
5.115085 6.510017 0.015435
5.428907 6.510017 0.017969
5.742730 6.510017 0.021294
6.056554 6.510017 0.025700
6.370377 6.510017 0.031470
6.684199 6.510017 0.039503
6.998022 6.510017 0.050916
7.311846 6.510017 0.066029
7.625669 6.510017 0.084958
7.939491 6.510017 0.112664
8.253315 6.510017 0.148198
8.567138 6.510017 0.196173
8.880960 6.510017 0.256678
9.194784 6.510017 0.327973
9.508606 6.510017 0.411187
9.822430 6.510017 0.492685
10.136253 6.510017 0.586489
10.450075 6.510017 0.688412
10.763899 6.510017 0.796218
11.077723 6.510017 0.896437
11.391544 6.510017 0.994865
11.705368 6.510017 1.097706
12.019190 6.510017 1.208262
12.333014 6.510017 1.274674
12.646837 6.510017 1.347421
12.960659 6.510017 1.435279
13.274483 6.510017 1.521387
13.588306 6.510017 1.587327
13.902128 6.510017 1.639341
14.215952 6.510017 1.655036
14.529776 6.510017 1.669120
14.843597 6.510017 1.671738
15.157421 6.510017 1.654600
15.471243 6.510017 1.641910
15.785067 6.510017 1.635309
16.098890 6.510017 1.619121
16.412712 6.510017 1.655913
16.726536 6.510017 1.728478
17.040359 6.510017 1.775191
17.354181 6.510017 1.869142
17.668005 6.510017 1.983101
17.981829 6.510017 2.093138
18.295650 6.510017 2.222069
18.609474 6.510017 1.848843
18.923298 6.510017 0.000000
19.237120 6.510017 0.000000
-6.810190 6.196194 0.000000
-6.496367 6.196194 0.004470
-6.182544 6.196194 0.003601
-5.868721 6.196194 0.003596
-5.554898 6.196194 0.003643
-5.241075 6.196194 0.003625
-4.927252 6.196194 0.003582
-4.613429 6.196194 0.003575
-4.299606 6.196194 0.003586
-3.985783 6.196194 0.003593
-3.671960 6.196194 0.003653
-3.358137 6.196194 0.003636
-3.044314 6.196194 0.003555
-2.730491 6.196194 0.003641
-2.416668 6.196194 0.003758
-2.102845 6.196194 0.003787
-1.789022 6.196194 0.003761
-1.475199 6.196194 0.003850
-1.161376 6.196194 0.003986
-0.847553 6.196194 0.004183
-0.533730 6.196194 0.004291
-0.219907 6.196194 0.004320
0.093916 6.196194 0.004373
0.407739 6.196194 0.004465
0.721562 6.196194 0.004689
1.035385 6.196194 0.005016
1.349208 6.196194 0.005244
1.663032 6.196194 0.005411
1.976854 6.196194 0.005729
2.290677 6.196194 0.006068
2.604500 6.196194 0.006450
2.918324 6.196194 0.007012
3.232146 6.196194 0.007688
3.545969 6.196194 0.008490
3.859793 6.196194 0.009370
4.173615 6.196194 0.010392
4.487438 6.196194 0.011700
4.801261 6.196194 0.013272
5.115085 6.196194 0.015436
5.428907 6.196194 0.018131
5.742730 6.196194 0.021595
6.056554 6.196194 0.025983
6.370377 6.196194 0.031823
6.684199 6.196194 0.040009
6.998022 6.196194 0.051626
7.311846 6.196194 0.066970
7.625669 6.196194 0.086903
7.939491 6.196194 0.115706
8.253315 6.196194 0.151444
8.567138 6.196194 0.199208
8.880960 6.196194 0.259585
9.194784 6.196194 0.335005
9.508606 6.196194 0.411253
9.822430 6.196194 0.494941
10.136253 6.196194 0.594719
10.450075 6.196194 0.700475
10.763899 6.196194 0.806771
11.077723 6.196194 0.892381
11.391544 6.196194 0.999157
11.705368 6.196194 1.104721
12.019190 6.196194 1.195233
12.333014 6.196194 1.274964
12.646837 6.196194 1.351982
12.960659 6.196194 1.428863
13.274483 6.196194 1.520795
13.588306 6.196194 1.588107
13.902128 6.196194 1.632845
14.215952 6.196194 1.639167
14.529776 6.196194 1.656822
14.843597 6.196194 1.655900
15.157421 6.196194 1.634906
15.471243 6.196194 1.640768
15.785067 6.196194 1.616456
16.098890 6.196194 1.614208
16.412712 6.196194 1.633890
16.726536 6.196194 1.706197
17.040359 6.196194 1.774354
17.354181 6.196194 1.881008
17.668005 6.196194 2.011599
17.981829 6.196194 2.109867
18.295650 6.196194 2.268930
18.609474 6.196194 1.866433
18.923298 6.196194 0.000000
19.237120 6.196194 0.000000
-6.810190 5.882370 0.000000
-6.496367 5.882370 0.004360
-6.182544 5.882370 0.003525
-5.868721 5.882370 0.003559
-5.554898 5.882370 0.003573
-5.241075 5.882370 0.003536
-4.927252 5.882370 0.003495
-4.613429 5.882370 0.003482
-4.299606 5.882370 0.003507
-3.985783 5.882370 0.003539
-3.671960 5.882370 0.003595
-3.358137 5.882370 0.003568
-3.044314 5.882370 0.003530
-2.730491 5.882370 0.003610
-2.416668 5.882370 0.003718
-2.102845 5.882370 0.003702
-1.789022 5.882370 0.003706
-1.475199 5.882370 0.003808
-1.161376 5.882370 0.003953
-0.847553 5.882370 0.004135
-0.533730 5.882370 0.004241
-0.219907 5.882370 0.004230
0.093916 5.882370 0.004266
0.407739 5.882370 0.004391
0.721562 5.882370 0.004645
1.035385 5.882370 0.005019
1.349208 5.882370 0.005302
1.663032 5.882370 0.005441
1.976854 5.882370 0.005778
2.290677 5.882370 0.006116
2.604500 5.882370 0.006509
2.918324 5.882370 0.007075
3.232146 5.882370 0.007749
3.545969 5.882370 0.008566
3.859793 5.882370 0.009473
4.173615 5.882370 0.010467
4.487438 5.882370 0.011747
4.801261 5.882370 0.013282
5.115085 5.882370 0.015479
5.428907 5.882370 0.018251
5.742730 5.882370 0.021834
6.056554 5.882370 0.026311
6.370377 5.882370 0.031937
6.684199 5.882370 0.040346
6.998022 5.882370 0.052534
7.311846 5.882370 0.068186
7.625669 5.882370 0.088428
7.939491 5.882370 0.118709
8.253315 5.882370 0.155456
8.567138 5.882370 0.203569
8.880960 5.882370 0.265451
9.194784 5.882370 0.338394
9.508606 5.882370 0.420551
9.822430 5.882370 0.506266
10.136253 5.882370 0.602278
10.450075 5.882370 0.713317
10.763899 5.882370 0.807451
11.077723 5.882370 0.908661
11.391544 5.882370 1.010572
11.705368 5.882370 1.116038
12.019190 5.882370 1.196209
12.333014 5.882370 1.280958
12.646837 5.882370 1.356386
12.960659 5.882370 1.440480
13.274483 5.882370 1.532926
13.588306 5.882370 1.591834
13.902128 5.882370 1.627704
14.215952 5.882370 1.641324
14.529776 5.882370 1.633829
14.843597 5.882370 1.640320
15.157421 5.882370 1.626461
15.471243 5.882370 1.635566
15.785067 5.882370 1.612966
16.098890 5.882370 1.592031
16.412712 5.882370 1.616575
16.726536 5.882370 1.647137
17.040359 5.882370 1.764448
17.354181 5.882370 1.882463
17.668005 5.882370 2.045705
17.981829 5.882370 2.127946
18.295650 5.882370 2.312453
18.609474 5.882370 1.835893
18.923298 5.882370 0.000000
19.237120 5.882370 0.000000
-6.810190 5.568550 0.000000
-6.496367 5.568550 0.004236
-6.182544 5.568550 0.003448
-5.868721 5.568550 0.003483
-5.554898 5.568550 0.003490
-5.241075 5.568550 0.003439
-4.927252 5.568550 0.003398
-4.613429 5.568550 0.003419
-4.299606 5.568550 0.003462
-3.985783 5.568550 0.003513
-3.671960 5.568550 0.003544
-3.358137 5.568550 0.003544
-3.044314 5.568550 0.003532
-2.730491 5.568550 0.003618
-2.416668 5.568550 0.003668
-2.102845 5.568550 0.003661
-1.789022 5.568550 0.003693
-1.475199 5.568550 0.003787
-1.161376 5.568550 0.003944
-0.847553 5.568550 0.004102
-0.533730 5.568550 0.004210
-0.219907 5.568550 0.004168
0.093916 5.568550 0.004202
0.407739 5.568550 0.004362
0.721562 5.568550 0.004650
1.035385 5.568550 0.005012
1.349208 5.568550 0.005335
1.663032 5.568550 0.005517
1.976854 5.568550 0.005827
2.290677 5.568550 0.006170
2.604500 5.568550 0.006608
2.918324 5.568550 0.007147
3.232146 5.568550 0.007821
3.545969 5.568550 0.008710
3.859793 5.568550 0.009585
4.173615 5.568550 0.010585
4.487438 5.568550 0.011867
4.801261 5.568550 0.013516
5.115085 5.568550 0.015639
5.428907 5.568550 0.018432
5.742730 5.568550 0.021986
6.056554 5.568550 0.026412
6.370377 5.568550 0.032278
6.684199 5.568550 0.041292
6.998022 5.568550 0.052666
7.311846 5.568550 0.067923
7.625669 5.568550 0.090206
7.939491 5.568550 0.121602
8.253315 5.568550 0.160488
8.567138 5.568550 0.207025
8.880960 5.568550 0.273349
9.194784 5.568550 0.346204
9.508606 5.568550 0.430064
9.822430 5.568550 0.511703
10.136253 5.568550 0.609292
10.450075 5.568550 0.715492
10.763899 5.568550 0.811218
11.077723 5.568550 0.919498
11.391544 5.568550 1.027760
11.705368 5.568550 1.131520
12.019190 5.568550 1.212277
12.333014 5.568550 1.283286
12.646837 5.568550 1.356584
12.960659 5.568550 1.447578
13.274483 5.568550 1.526601
13.588306 5.568550 1.584534
13.902128 5.568550 1.611064
14.215952 5.568550 1.619063
14.529776 5.568550 1.630959
14.843597 5.568550 1.621738
15.157421 5.568550 1.609495
15.471243 5.568550 1.614195
15.785067 5.568550 1.591818
16.098890 5.568550 1.566688
16.412712 5.568550 1.586374
16.726536 5.568550 1.628235
17.040359 5.568550 1.728765
17.354181 5.568550 1.900900
17.668005 5.568550 2.106866
17.981829 5.568550 2.194479
18.295650 5.568550 2.333141
18.609474 5.568550 1.805453
18.923298 5.568550 0.000000
19.237120 5.568550 0.000000
-6.810190 5.254726 0.000000
-6.496367 5.254726 0.004087
-6.182544 5.254726 0.003351
-5.868721 5.254726 0.003430
-5.554898 5.254726 0.003435
-5.241075 5.254726 0.003386
-4.927252 5.254726 0.003334
-4.613429 5.254726 0.003374
-4.299606 5.254726 0.003441
-3.985783 5.254726 0.003485
-3.671960 5.254726 0.003506
-3.358137 5.254726 0.003540
-3.044314 5.254726 0.003537
-2.730491 5.254726 0.003579
-2.416668 5.254726 0.003622
-2.102845 5.254726 0.003669
-1.789022 5.254726 0.003729
-1.475199 5.254726 0.003810
-1.161376 5.254726 0.003922
-0.847553 5.254726 0.004056
-0.533730 5.254726 0.004177
-0.219907 5.254726 0.004173
0.093916 5.254726 0.004231
0.407739 5.254726 0.004409
0.721562 5.254726 0.004680
1.035385 5.254726 0.005036
1.349208 5.254726 0.005369
1.663032 5.254726 0.005592
1.976854 5.254726 0.005908
2.290677 5.254726 0.006276
2.604500 5.254726 0.006695
2.918324 5.254726 0.007194
3.232146 5.254726 0.007880
3.545969 5.254726 0.008787
3.859793 5.254726 0.009717
4.173615 5.254726 0.010760
4.487438 5.254726 0.012081
4.801261 5.254726 0.013726
5.115085 5.254726 0.015763
5.428907 5.254726 0.018622
5.742730 5.254726 0.022167
6.056554 5.254726 0.026464
6.370377 5.254726 0.032353
6.684199 5.254726 0.040900
6.998022 5.254726 0.053275
7.311846 5.254726 0.068715
7.625669 5.254726 0.092677
7.939491 5.254726 0.124077
8.253315 5.254726 0.162590
8.567138 5.254726 0.212756
8.880960 5.254726 0.274090
9.194784 5.254726 0.351607
9.508606 5.254726 0.428885
9.822430 5.254726 0.520539
10.136253 5.254726 0.615927
10.450075 5.254726 0.717723
10.763899 5.254726 0.814535
11.077723 5.254726 0.919089
11.391544 5.254726 1.031044
11.705368 5.254726 1.138773
12.019190 5.254726 1.216960
12.333014 5.254726 1.286201
12.646837 5.254726 1.365112
12.960659 5.254726 1.443189
13.274483 5.254726 1.515694
13.588306 5.254726 1.577328
13.902128 5.254726 1.611281
14.215952 5.254726 1.605203
14.529776 5.254726 1.608205
14.843597 5.254726 1.602284
15.157421 5.254726 1.598935
15.471243 5.254726 1.587459
15.785067 5.254726 1.562236
16.098890 5.254726 1.539612
16.412712 5.254726 1.542781
16.726536 5.254726 1.590695
17.040359 5.254726 1.695017
17.354181 5.254726 1.898932
17.668005 5.254726 2.079743
17.981829 5.254726 2.254025
18.295650 5.254726 2.390162
18.609474 5.254726 1.776941
18.923298 5.254726 0.000000
19.237120 5.254726 0.000000
-6.810190 4.940903 0.000000
-6.496367 4.940903 0.003992
-6.182544 4.940903 0.003260
-5.868721 4.940903 0.003374
-5.554898 4.940903 0.003397
-5.241075 4.940903 0.003343
-4.927252 4.940903 0.003288
-4.613429 4.940903 0.003333
-4.299606 4.940903 0.003413
-3.985783 4.940903 0.003464
-3.671960 4.940903 0.003508
-3.358137 4.940903 0.003564
-3.044314 4.940903 0.003553
-2.730491 4.940903 0.003573
-2.416668 4.940903 0.003632
-2.102845 4.940903 0.003715
-1.789022 4.940903 0.003791
-1.475199 4.940903 0.003853
-1.161376 4.940903 0.003906
-0.847553 4.940903 0.004034
-0.533730 4.940903 0.004130
-0.219907 4.940903 0.004205
0.093916 4.940903 0.004313
0.407739 4.940903 0.004515
0.721562 4.940903 0.004776
1.035385 4.940903 0.005085
1.349208 4.940903 0.005404
1.663032 4.940903 0.005629
1.976854 4.940903 0.005969
2.290677 4.940903 0.006361
2.604500 4.940903 0.006801
2.918324 4.940903 0.007264
3.232146 4.940903 0.007948
3.545969 4.940903 0.008862
3.859793 4.940903 0.009814
4.173615 4.940903 0.010920
4.487438 4.940903 0.012309
4.801261 4.940903 0.013919
5.115085 4.940903 0.016012
5.428907 4.940903 0.018890
5.742730 4.940903 0.022272
6.056554 4.940903 0.026615
6.370377 4.940903 0.032493
6.684199 4.940903 0.041507
6.998022 4.940903 0.053704
7.311846 4.940903 0.069755
7.625669 4.940903 0.092809
7.939491 4.940903 0.125463
8.253315 4.940903 0.165987
8.567138 4.940903 0.218361
8.880960 4.940903 0.281221
9.194784 4.940903 0.353125
9.508606 4.940903 0.438883
9.822430 4.940903 0.529097
10.136253 4.940903 0.624255
10.450075 4.940903 0.719330
10.763899 4.940903 0.820700
11.077723 4.940903 0.923737
11.391544 4.940903 1.031945
11.705368 4.940903 1.135275
12.019190 4.940903 1.223471
12.333014 4.940903 1.296816
12.646837 4.940903 1.370639
12.960659 4.940903 1.445891
13.274483 4.940903 1.518009
13.588306 4.940903 1.562085
13.902128 4.940903 1.593535
14.215952 4.940903 1.616378
14.529776 4.940903 1.601509
14.843597 4.940903 1.606245
15.157421 4.940903 1.583883
15.471243 4.940903 1.553625
15.785067 4.940903 1.555129
16.098890 4.940903 1.528026
16.412712 4.940903 1.529006
16.726536 4.940903 1.570123
17.040359 4.940903 1.702584
17.354181 4.940903 1.889219
17.668005 4.940903 2.137114
17.981829 4.940903 2.286042
18.295650 4.940903 2.434829
18.609474 4.940903 1.761348
18.923298 4.940903 0.000000
19.237120 4.940903 0.000000
-6.810190 4.627079 0.000000
-6.496367 4.627079 0.003951
-6.182544 4.627079 0.003235
-5.868721 4.627079 0.003325
-5.554898 4.627079 0.003346
-5.241075 4.627079 0.003310
-4.927252 4.627079 0.003240
-4.613429 4.627079 0.003299
-4.299606 4.627079 0.003364
-3.985783 4.627079 0.003421
-3.671960 4.627079 0.003505
-3.358137 4.627079 0.003594
-3.044314 4.627079 0.003577
-2.730491 4.627079 0.003576
-2.416668 4.627079 0.003671
-2.102845 4.627079 0.003759
-1.789022 4.627079 0.003825
-1.475199 4.627079 0.003895
-1.161376 4.627079 0.003953
-0.847553 4.627079 0.004072
-0.533730 4.627079 0.004131
-0.219907 4.627079 0.004272
0.093916 4.627079 0.004461
0.407739 4.627079 0.004665
0.721562 4.627079 0.004911
1.035385 4.627079 0.005136
1.349208 4.627079 0.005410
1.663032 4.627079 0.005678
1.976854 4.627079 0.006025
2.290677 4.627079 0.006407
2.604500 4.627079 0.006866
2.918324 4.627079 0.007388
3.232146 4.627079 0.008052
3.545969 4.627079 0.008928
3.859793 4.627079 0.009891
4.173615 4.627079 0.011044
4.487438 4.627079 0.012443
4.801261 4.627079 0.013998
5.115085 4.627079 0.016150
5.428907 4.627079 0.019057
5.742730 4.627079 0.022619
6.056554 4.627079 0.027178
6.370377 4.627079 0.033336
6.684199 4.627079 0.042241
6.998022 4.627079 0.054565
7.311846 4.627079 0.071245
7.625669 4.627079 0.095200
7.939491 4.627079 0.126575
8.253315 4.627079 0.165343
8.567138 4.627079 0.217915
8.880960 4.627079 0.283700
9.194784 4.627079 0.358080
9.508606 4.627079 0.443959
9.822430 4.627079 0.536178
10.136253 4.627079 0.633864
10.450075 4.627079 0.727358
10.763899 4.627079 0.829006
11.077723 4.627079 0.940229
11.391544 4.627079 1.045142
11.705368 4.627079 1.142383
12.019190 4.627079 1.231352
12.333014 4.627079 1.302541
12.646837 4.627079 1.382612
12.960659 4.627079 1.455084
13.274483 4.627079 1.511026
13.588306 4.627079 1.553530
13.902128 4.627079 1.584509
14.215952 4.627079 1.612633
14.529776 4.627079 1.604799
14.843597 4.627079 1.591314
15.157421 4.627079 1.564798
15.471243 4.627079 1.552442
15.785067 4.627079 1.544824
16.098890 4.627079 1.525067
16.412712 4.627079 1.519640
16.726536 4.627079 1.563111
17.040359 4.627079 1.690760
17.354181 4.627079 1.914512
17.668005 4.627079 2.155065
17.981829 4.627079 2.330007
18.295650 4.627079 2.474190
18.609474 4.627079 1.726479
18.923298 4.627079 0.000000
19.237120 4.627079 0.000000
-6.810190 4.313255 0.000000
-6.496367 4.313255 0.003955
-6.182544 4.313255 0.003240
-5.868721 4.313255 0.003289
-5.554898 4.313255 0.003317
-5.241075 4.313255 0.003275
-4.927252 4.313255 0.003221
-4.613429 4.313255 0.003269
-4.299606 4.313255 0.003306
-3.985783 4.313255 0.003383
-3.671960 4.313255 0.003478
-3.358137 4.313255 0.003575
-3.044314 4.313255 0.003584
-2.730491 4.313255 0.003599
-2.416668 4.313255 0.003734
-2.102845 4.313255 0.003780
-1.789022 4.313255 0.003831
-1.475199 4.313255 0.003917
-1.161376 4.313255 0.004002
-0.847553 4.313255 0.004146
-0.533730 4.313255 0.004210
-0.219907 4.313255 0.004387
0.093916 4.313255 0.004582
0.407739 4.313255 0.004798
0.721562 4.313255 0.005028
1.035385 4.313255 0.005208
1.349208 4.313255 0.005411
1.663032 4.313255 0.005742
1.976854 4.313255 0.006116
2.290677 4.313255 0.006485
2.604500 4.313255 0.006949
2.918324 4.313255 0.007510
3.232146 4.313255 0.008132
3.545969 4.313255 0.009019
3.859793 4.313255 0.010052
4.173615 4.313255 0.011203
4.487438 4.313255 0.012542
4.801261 4.313255 0.014146
5.115085 4.313255 0.016356
5.428907 4.313255 0.019325
5.742730 4.313255 0.022931
6.056554 4.313255 0.027899
6.370377 4.313255 0.034482
6.684199 4.313255 0.043213
6.998022 4.313255 0.055973
7.311846 4.313255 0.072911
7.625669 4.313255 0.096663
7.939491 4.313255 0.128896
8.253315 4.313255 0.168964
8.567138 4.313255 0.221677
8.880960 4.313255 0.291232
9.194784 4.313255 0.363376
9.508606 4.313255 0.453831
9.822430 4.313255 0.543109
10.136253 4.313255 0.638133
10.450075 4.313255 0.737371
10.763899 4.313255 0.847660
11.077723 4.313255 0.948898
11.391544 4.313255 1.060399
11.705368 4.313255 1.149253
12.019190 4.313255 1.222703
12.333014 4.313255 1.298055
12.646837 4.313255 1.385706
12.960659 4.313255 1.450074
13.274483 4.313255 1.515092
13.588306 4.313255 1.550049
13.902128 4.313255 1.564821
14.215952 4.313255 1.577209
14.529776 4.313255 1.585847
14.843597 4.313255 1.577999
15.157421 4.313255 1.553019
15.471243 4.313255 1.542207
15.785067 4.313255 1.529915
16.098890 4.313255 1.512504
16.412712 4.313255 1.515607
16.726536 4.313255 1.544262
17.040359 4.313255 1.673028
17.354181 4.313255 1.936819
17.668005 4.313255 2.175677
17.981829 4.313255 2.366264
18.295650 4.313255 2.585650
18.609474 4.313255 1.690092
18.923298 4.313255 0.000000
19.237120 4.313255 0.000000
-6.810190 3.999435 0.000000
-6.496367 3.999435 0.003996
-6.182544 3.999435 0.003253
-5.868721 3.999435 0.003270
-5.554898 3.999435 0.003289
-5.241075 3.999435 0.003254
-4.927252 3.999435 0.003211
-4.613429 3.999435 0.003247
-4.299606 3.999435 0.003299
-3.985783 3.999435 0.003394
-3.671960 3.999435 0.003473
-3.358137 3.999435 0.003568
-3.044314 3.999435 0.003606
-2.730491 3.999435 0.003658
-2.416668 3.999435 0.003804
-2.102845 3.999435 0.003819
-1.789022 3.999435 0.003862
-1.475199 3.999435 0.003966
-1.161376 3.999435 0.004089
-0.847553 3.999435 0.004244
-0.533730 3.999435 0.004338
-0.219907 3.999435 0.004493
0.093916 3.999435 0.004705
0.407739 3.999435 0.004936
0.721562 3.999435 0.005142
1.035385 3.999435 0.005306
1.349208 3.999435 0.005462
1.663032 3.999435 0.005810
1.976854 3.999435 0.006204
2.290677 3.999435 0.006542
2.604500 3.999435 0.007006
2.918324 3.999435 0.007589
3.232146 3.999435 0.008189
3.545969 3.999435 0.009079
3.859793 3.999435 0.010208
4.173615 3.999435 0.011371
4.487438 3.999435 0.012702
4.801261 3.999435 0.014386
5.115085 3.999435 0.016694
5.428907 3.999435 0.019679
5.742730 3.999435 0.023275
6.056554 3.999435 0.028821
6.370377 3.999435 0.035591
6.684199 3.999435 0.044283
6.998022 3.999435 0.056953
7.311846 3.999435 0.074622
7.625669 3.999435 0.098295
7.939491 3.999435 0.132460
8.253315 3.999435 0.175522
8.567138 3.999435 0.227058
8.880960 3.999435 0.294831
9.194784 3.999435 0.374584
9.508606 3.999435 0.457523
9.822430 3.999435 0.551789
10.136253 3.999435 0.648349
10.450075 3.999435 0.750130
10.763899 3.999435 0.853842
11.077723 3.999435 0.959406
11.391544 3.999435 1.067297
11.705368 3.999435 1.141725
12.019190 3.999435 1.216968
12.333014 3.999435 1.289799
12.646837 3.999435 1.384131
12.960659 3.999435 1.453997
13.274483 3.999435 1.512066
13.588306 3.999435 1.532498
13.902128 3.999435 1.546141
14.215952 3.999435 1.555368
14.529776 3.999435 1.567497
14.843597 3.999435 1.551830
15.157421 3.999435 1.530441
15.471243 3.999435 1.547967
15.785067 3.999435 1.516261
16.098890 3.999435 1.492519
16.412712 3.999435 1.475487
16.726536 3.999435 1.508234
17.040359 3.999435 1.657138
17.354181 3.999435 1.898843
17.668005 3.999435 2.232394
17.981829 3.999435 2.493305
18.295650 3.999435 2.795734
18.609474 3.999435 1.642958
18.923298 3.999435 0.000000
19.237120 3.999435 0.000000
-6.810190 3.685612 0.000000
-6.496367 3.685612 0.003983
-6.182544 3.685612 0.003220
-5.868721 3.685612 0.003245
-5.554898 3.685612 0.003297
-5.241075 3.685612 0.003259
-4.927252 3.685612 0.003217
-4.613429 3.685612 0.003270
-4.299606 3.685612 0.003362
-3.985783 3.685612 0.003440
-3.671960 3.685612 0.003513
-3.358137 3.685612 0.003587
-3.044314 3.685612 0.003638
-2.730491 3.685612 0.003710
-2.416668 3.685612 0.003852
-2.102845 3.685612 0.003887
-1.789022 3.685612 0.003964
-1.475199 3.685612 0.004054
-1.161376 3.685612 0.004171
-0.847553 3.685612 0.004310
-0.533730 3.685612 0.004446
-0.219907 3.685612 0.004606
0.093916 3.685612 0.004822
0.407739 3.685612 0.005067
0.721562 3.685612 0.005261
1.035385 3.685612 0.005427
1.349208 3.685612 0.005574
1.663032 3.685612 0.005866
1.976854 3.685612 0.006262
2.290677 3.685612 0.006616
2.604500 3.685612 0.007074
2.918324 3.685612 0.007663
3.232146 3.685612 0.008285
3.545969 3.685612 0.009233
3.859793 3.685612 0.010394
4.173615 3.685612 0.011526
4.487438 3.685612 0.012861
4.801261 3.685612 0.014704
5.115085 3.685612 0.017027
5.428907 3.685612 0.019774
5.742730 3.685612 0.023832
6.056554 3.685612 0.029452
6.370377 3.685612 0.036631
6.684199 3.685612 0.045432
6.998022 3.685612 0.058087
7.311846 3.685612 0.076834
7.625669 3.685612 0.101992
7.939491 3.685612 0.134386
8.253315 3.685612 0.177301
8.567138 3.685612 0.231688
8.880960 3.685612 0.299664
9.194784 3.685612 0.377964
9.508606 3.685612 0.465815
9.822430 3.685612 0.562950
10.136253 3.685612 0.652240
10.450075 3.685612 0.754239
10.763899 3.685612 0.855918
11.077723 3.685612 0.964996
11.391544 3.685612 1.063213
11.705368 3.685612 1.143341
12.019190 3.685612 1.212828
12.333014 3.685612 1.291949
12.646837 3.685612 1.385491
12.960659 3.685612 1.450558
13.274483 3.685612 1.511211
13.588306 3.685612 1.540190
13.902128 3.685612 1.530274
14.215952 3.685612 1.550723
14.529776 3.685612 1.536027
14.843597 3.685612 1.524858
15.157421 3.685612 1.510626
15.471243 3.685612 1.527381
15.785067 3.685612 1.510637
16.098890 3.685612 1.485191
16.412712 3.685612 1.450215
16.726536 3.685612 1.490158
17.040359 3.685612 1.624329
17.354181 3.685612 1.890769
17.668005 3.685612 2.264880
17.981829 3.685612 2.632327
18.295650 3.685612 2.873364
18.609474 3.685612 1.581549
18.923298 3.685612 0.000000
19.237120 3.685612 0.000000
-6.810190 3.371788 0.000000
-6.496367 3.371788 0.003966
-6.182544 3.371788 0.003223
-5.868721 3.371788 0.003249
-5.554898 3.371788 0.003326
-5.241075 3.371788 0.003268
-4.927252 3.371788 0.003231
-4.613429 3.371788 0.003336
-4.299606 3.371788 0.003448
-3.985783 3.371788 0.003503
-3.671960 3.371788 0.003572
-3.358137 3.371788 0.003642
-3.044314 3.371788 0.003672
-2.730491 3.371788 0.003745
-2.416668 3.371788 0.003880
-2.102845 3.371788 0.003966
-1.789022 3.371788 0.004094
-1.475199 3.371788 0.004191
-1.161376 3.371788 0.004231
-0.847553 3.371788 0.004345
-0.533730 3.371788 0.004521
-0.219907 3.371788 0.004711
0.093916 3.371788 0.004914
0.407739 3.371788 0.005191
0.721562 3.371788 0.005382
1.035385 3.371788 0.005531
1.349208 3.371788 0.005695
1.663032 3.371788 0.005931
1.976854 3.371788 0.006300
2.290677 3.371788 0.006722
2.604500 3.371788 0.007175
2.918324 3.371788 0.007741
3.232146 3.371788 0.008417
3.545969 3.371788 0.009433
3.859793 3.371788 0.010577
4.173615 3.371788 0.011636
4.487438 3.371788 0.013004
4.801261 3.371788 0.015074
5.115085 3.371788 0.017176
5.428907 3.371788 0.020012
5.742730 3.371788 0.024250
6.056554 3.371788 0.030113
6.370377 3.371788 0.037063
6.684199 3.371788 0.045934
6.998022 3.371788 0.058573
7.311846 3.371788 0.078249
7.625669 3.371788 0.103399
7.939491 3.371788 0.138558
8.253315 3.371788 0.181856
8.567138 3.371788 0.235548
8.880960 3.371788 0.302566
9.194784 3.371788 0.384916
9.508606 3.371788 0.473068
9.822430 3.371788 0.564234
10.136253 3.371788 0.658475
10.450075 3.371788 0.754989
10.763899 3.371788 0.861129
11.077723 3.371788 0.960533
11.391544 3.371788 1.058547
11.705368 3.371788 1.143172
12.019190 3.371788 1.217088
12.333014 3.371788 1.301903
12.646837 3.371788 1.372676
12.960659 3.371788 1.442381
13.274483 3.371788 1.508344
13.588306 3.371788 1.532090
13.902128 3.371788 1.534067
14.215952 3.371788 1.534229
14.529776 3.371788 1.521175
14.843597 3.371788 1.503785
15.157421 3.371788 1.495776
15.471243 3.371788 1.491357
15.785067 3.371788 1.498457
16.098890 3.371788 1.476479
16.412712 3.371788 1.453282
16.726536 3.371788 1.481809
17.040359 3.371788 1.647170
17.354181 3.371788 1.905728
17.668005 3.371788 2.344260
17.981829 3.371788 2.454001
18.295650 3.371788 6.388256
18.609474 3.371788 1.523462
18.923298 3.371788 0.000000
19.237120 3.371788 0.000000
-6.810190 3.057964 0.000000
-6.496367 3.057964 0.003943
-6.182544 3.057964 0.003200
-5.868721 3.057964 0.003281
-5.554898 3.057964 0.003344
-5.241075 3.057964 0.003271
-4.927252 3.057964 0.003283
-4.613429 3.057964 0.003405
-4.299606 3.057964 0.003502
-3.985783 3.057964 0.003535
-3.671960 3.057964 0.003610
-3.358137 3.057964 0.003673
-3.044314 3.057964 0.003717
-2.730491 3.057964 0.003783
-2.416668 3.057964 0.003919
-2.102845 3.057964 0.004059
-1.789022 3.057964 0.004236
-1.475199 3.057964 0.004298
-1.161376 3.057964 0.004296
-0.847553 3.057964 0.004354
-0.533730 3.057964 0.004556
-0.219907 3.057964 0.004788
0.093916 3.057964 0.004990
0.407739 3.057964 0.005290
0.721562 3.057964 0.005470
1.035385 3.057964 0.005623
1.349208 3.057964 0.005800
1.663032 3.057964 0.006035
1.976854 3.057964 0.006374
2.290677 3.057964 0.006834
2.604500 3.057964 0.007334
2.918324 3.057964 0.007921
3.232146 3.057964 0.008618
3.545969 3.057964 0.009576
3.859793 3.057964 0.010685
4.173615 3.057964 0.011714
4.487438 3.057964 0.013172
4.801261 3.057964 0.015234
5.115085 3.057964 0.017461
5.428907 3.057964 0.020339
5.742730 3.057964 0.024733
6.056554 3.057964 0.030464
6.370377 3.057964 0.037145
6.684199 3.057964 0.046271
6.998022 3.057964 0.059945
7.311846 3.057964 0.079157
7.625669 3.057964 0.106194
7.939491 3.057964 0.140460
8.253315 3.057964 0.183367
8.567138 3.057964 0.241808
8.880960 3.057964 0.313303
9.194784 3.057964 0.388734
9.508606 3.057964 0.478906
9.822430 3.057964 0.573463
10.136253 3.057964 0.667685
10.450075 3.057964 0.768050
10.763899 3.057964 0.871580
11.077723 3.057964 0.968274
11.391544 3.057964 1.062751
11.705368 3.057964 1.149376
12.019190 3.057964 1.225420
12.333014 3.057964 1.307186
12.646837 3.057964 1.375860
12.960659 3.057964 1.458439
13.274483 3.057964 1.512752
13.588306 3.057964 1.515915
13.902128 3.057964 1.541375
14.215952 3.057964 1.523504
14.529776 3.057964 1.513379
14.843597 3.057964 1.500418
15.157421 3.057964 1.481441
15.471243 3.057964 1.464464
15.785067 3.057964 1.465711
16.098890 3.057964 1.459596
16.412712 3.057964 1.454490
16.726536 3.057964 1.495203
17.040359 3.057964 1.628053
17.354181 3.057964 1.925860
17.668005 3.057964 2.294291
17.981829 3.057964 2.182300
18.295650 3.057964 0.000000
18.609474 3.057964 0.000000
18.923298 3.057964 0.000000
19.237120 3.057964 0.000000
-6.810190 2.744141 0.000000
-6.496367 2.744141 0.003959
-6.182544 2.744141 0.003241
-5.868721 2.744141 0.003279
-5.554898 2.744141 0.003317
-5.241075 2.744141 0.003286
-4.927252 2.744141 0.003339
-4.613429 2.744141 0.003471
-4.299606 2.744141 0.003525
-3.985783 2.744141 0.003576
-3.671960 2.744141 0.003647
-3.358137 2.744141 0.003712
-3.044314 2.744141 0.003765
-2.730491 2.744141 0.003851
-2.416668 2.744141 0.003984
-2.102845 2.744141 0.004112
-1.789022 2.744141 0.004283
-1.475199 2.744141 0.004381
-1.161376 2.744141 0.004380
-0.847553 2.744141 0.004412
-0.533730 2.744141 0.004609
-0.219907 2.744141 0.004849
0.093916 2.744141 0.005042
0.407739 2.744141 0.005357
0.721562 2.744141 0.005559
1.035385 2.744141 0.005726
1.349208 2.744141 0.005920
1.663032 2.744141 0.006181
1.976854 2.744141 0.006495
2.290677 2.744141 0.006944
2.604500 2.744141 0.007479
2.918324 2.744141 0.008094
3.232146 2.744141 0.008802
3.545969 2.744141 0.009683
3.859793 2.744141 0.010712
4.173615 2.744141 0.011802
4.487438 2.744141 0.013281
4.801261 2.744141 0.015251
5.115085 2.744141 0.017539
5.428907 2.744141 0.020531
5.742730 2.744141 0.025047
6.056554 2.744141 0.030684
6.370377 2.744141 0.037299
6.684199 2.744141 0.047152
6.998022 2.744141 0.061473
7.311846 2.744141 0.080522
7.625669 2.744141 0.107445
7.939491 2.744141 0.142862
8.253315 2.744141 0.189281
8.567138 2.744141 0.248827
8.880960 2.744141 0.318239
9.194784 2.744141 0.395868
9.508606 2.744141 0.486867
9.822430 2.744141 0.582916
10.136253 2.744141 0.676369
10.450075 2.744141 0.778015
10.763899 2.744141 0.878589
11.077723 2.744141 0.976573
11.391544 2.744141 1.074311
11.705368 2.744141 1.157142
12.019190 2.744141 1.238424
12.333014 2.744141 1.317479
12.646837 2.744141 1.389271
12.960659 2.744141 1.461428
13.274483 2.744141 1.510554
13.588306 2.744141 1.529656
13.902128 2.744141 1.526052
14.215952 2.744141 1.519245
14.529776 2.744141 1.501696
14.843597 2.744141 1.505311
15.157421 2.744141 1.481102
15.471243 2.744141 1.465915
15.785067 2.744141 1.455053
16.098890 2.744141 1.446122
16.412712 2.744141 1.480703
16.726536 2.744141 1.526879
17.040359 2.744141 1.681835
17.354181 2.744141 1.993499
17.668005 2.744141 2.016209
17.981829 2.744141 0.000000
18.295650 2.744141 0.000000
18.609474 2.744141 0.000000
18.923298 2.744141 0.000000
19.237120 2.744141 0.000000
-6.810190 2.430317 0.000000
-6.496367 2.430317 0.003942
-6.182544 2.430317 0.003293
-5.868721 2.430317 0.003283
-5.554898 2.430317 0.003321
-5.241075 2.430317 0.003350
-4.927252 2.430317 0.003412
-4.613429 2.430317 0.003503
-4.299606 2.430317 0.003534
-3.985783 2.430317 0.003607
-3.671960 2.430317 0.003680
-3.358137 2.430317 0.003751
-3.044314 2.430317 0.003834
-2.730491 2.430317 0.003932
-2.416668 2.430317 0.004068
-2.102845 2.430317 0.004132
-1.789022 2.430317 0.004309
-1.475199 2.430317 0.004440
-1.161376 2.430317 0.004479
-0.847553 2.430317 0.004549
-0.533730 2.430317 0.004696
-0.219907 2.430317 0.004925
0.093916 2.430317 0.005095
0.407739 2.430317 0.005379
0.721562 2.430317 0.005653
1.035385 2.430317 0.005867
1.349208 2.430317 0.006067
1.663032 2.430317 0.006352
1.976854 2.430317 0.006665
2.290677 2.430317 0.007054
2.604500 2.430317 0.007633
2.918324 2.430317 0.008264
3.232146 2.430317 0.008977
3.545969 2.430317 0.009787
3.859793 2.430317 0.010730
4.173615 2.430317 0.011938
4.487438 2.430317 0.013470
4.801261 2.430317 0.015268
5.115085 2.430317 0.017603
5.428907 2.430317 0.020701
5.742730 2.430317 0.025288
6.056554 2.430317 0.030696
6.370377 2.430317 0.037895
6.684199 2.430317 0.048627
6.998022 2.430317 0.062984
7.311846 2.430317 0.083377
7.625669 2.430317 0.110816
7.939491 2.430317 0.147607
8.253315 2.430317 0.192619
8.567138 2.430317 0.255114
8.880960 2.430317 0.327814
9.194784 2.430317 0.405140
9.508606 2.430317 0.492202
9.822430 2.430317 0.586650
10.136253 2.430317 0.682916
10.450075 2.430317 0.781667
10.763899 2.430317 0.885592
11.077723 2.430317 0.980115
11.391544 2.430317 1.075529
11.705368 2.430317 1.155173
12.019190 2.430317 1.235438
12.333014 2.430317 1.313818
12.646837 2.430317 1.390219
12.960659 2.430317 1.458763
13.274483 2.430317 1.520285
13.588306 2.430317 1.540866
13.902128 2.430317 1.545835
14.215952 2.430317 1.527226
14.529776 2.430317 1.512178
14.843597 2.430317 1.485767
15.157421 2.430317 1.467360
15.471243 2.430317 1.426964
15.785067 2.430317 1.423819
16.098890 2.430317 1.453107
16.412712 2.430317 1.495168
16.726536 2.430317 1.545773
17.040359 2.430317 1.752285
17.354181 2.430317 1.905060
17.668005 2.430317 0.000000
17.981829 2.430317 0.000000
18.295650 2.430317 0.000000
18.609474 2.430317 0.000000
18.923298 2.430317 0.000000
19.237120 2.430317 0.000000
-6.810190 2.116497 0.000000
-6.496367 2.116497 0.003949
-6.182544 2.116497 0.003339
-5.868721 2.116497 0.003320
-5.554898 2.116497 0.003361
-5.241075 2.116497 0.003460
-4.927252 2.116497 0.003521
-4.613429 2.116497 0.003525
-4.299606 2.116497 0.003574
-3.985783 2.116497 0.003642
-3.671960 2.116497 0.003717
-3.358137 2.116497 0.003819
-3.044314 2.116497 0.003924
-2.730491 2.116497 0.004016
-2.416668 2.116497 0.004146
-2.102845 2.116497 0.004199
-1.789022 2.116497 0.004366
-1.475199 2.116497 0.004513
-1.161376 2.116497 0.004616
-0.847553 2.116497 0.004729
-0.533730 2.116497 0.004830
-0.219907 2.116497 0.004987
0.093916 2.116497 0.005153
0.407739 2.116497 0.005467
0.721562 2.116497 0.005811
1.035385 2.116497 0.006057
1.349208 2.116497 0.006223
1.663032 2.116497 0.006537
1.976854 2.116497 0.006857
2.290677 2.116497 0.007225
2.604500 2.116497 0.007796
2.918324 2.116497 0.008408
3.232146 2.116497 0.009084
3.545969 2.116497 0.009836
3.859793 2.116497 0.010793
4.173615 2.116497 0.012179
4.487438 2.116497 0.013701
4.801261 2.116497 0.015434
5.115085 2.116497 0.017757
5.428907 2.116497 0.020888
5.742730 2.116497 0.025186
6.056554 2.116497 0.030915
6.370377 2.116497 0.038817
6.684199 2.116497 0.050104
6.998022 2.116497 0.065418
7.311846 2.116497 0.085376
7.625669 2.116497 0.113263
7.939491 2.116497 0.150038
8.253315 2.116497 0.197204
8.567138 2.116497 0.259196
8.880960 2.116497 0.328504
9.194784 2.116497 0.413865
9.508606 2.116497 0.502331
9.822430 2.116497 0.593027
10.136253 2.116497 0.682615
10.450075 2.116497 0.784777
10.763899 2.116497 0.888215
11.077723 2.116497 0.979753
11.391544 2.116497 1.078555
11.705368 2.116497 1.156418
12.019190 2.116497 1.241299
12.333014 2.116497 1.318572
12.646837 2.116497 1.401642
12.960659 2.116497 1.462027
13.274483 2.116497 1.513511
13.588306 2.116497 1.550925
13.902128 2.116497 1.541560
14.215952 2.116497 1.497285
14.529776 2.116497 1.489826
14.843597 2.116497 1.475863
15.157421 2.116497 1.451697
15.471243 2.116497 1.410727
15.785067 2.116497 1.395668
16.098890 2.116497 1.425914
16.412712 2.116497 1.470172
16.726536 2.116497 1.614062
17.040359 2.116497 1.803953
17.354181 2.116497 1.980096
17.668005 2.116497 0.000000
17.981829 2.116497 0.000000
18.295650 2.116497 0.000000
18.609474 2.116497 0.000000
18.923298 2.116497 0.000000
19.237120 2.116497 0.000000
-6.810190 1.802673 0.000000
-6.496367 1.802673 0.004003
-6.182544 1.802673 0.003369
-5.868721 1.802673 0.003392
-5.554898 1.802673 0.003445
-5.241075 1.802673 0.003558
-4.927252 1.802673 0.003643
-4.613429 1.802673 0.003631
-4.299606 1.802673 0.003668
-3.985783 1.802673 0.003732
-3.671960 1.802673 0.003818
-3.358137 1.802673 0.003938
-3.044314 1.802673 0.004042
-2.730491 1.802673 0.004116
-2.416668 1.802673 0.004236
-2.102845 1.802673 0.004321
-1.789022 1.802673 0.004472
-1.475199 1.802673 0.004637
-1.161376 1.802673 0.004750
-0.847553 1.802673 0.004889
-0.533730 1.802673 0.004979
-0.219907 1.802673 0.005097
0.093916 1.802673 0.005266
0.407739 1.802673 0.005600
0.721562 1.802673 0.005979
1.035385 1.802673 0.006216
1.349208 1.802673 0.006372
1.663032 1.802673 0.006671
1.976854 1.802673 0.007003
2.290677 1.802673 0.007391
2.604500 1.802673 0.007919
2.918324 1.802673 0.008524
3.232146 1.802673 0.009185
3.545969 1.802673 0.009969
3.859793 1.802673 0.010941
4.173615 1.802673 0.012368
4.487438 1.802673 0.013906
4.801261 1.802673 0.015583
5.115085 1.802673 0.017919
5.428907 1.802673 0.021183
5.742730 1.802673 0.025367
6.056554 1.802673 0.031009
6.370377 1.802673 0.038987
6.684199 1.802673 0.051184
6.998022 1.802673 0.066582
7.311846 1.802673 0.087739
7.625669 1.802673 0.116913
7.939491 1.802673 0.154579
8.253315 1.802673 0.202510
8.567138 1.802673 0.263502
8.880960 1.802673 0.333760
9.194784 1.802673 0.422898
9.508606 1.802673 0.506683
9.822430 1.802673 0.594506
10.136253 1.802673 0.691711
10.450075 1.802673 0.792794
10.763899 1.802673 0.896463
11.077723 1.802673 0.996511
11.391544 1.802673 1.080811
11.705368 1.802673 1.161792
12.019190 1.802673 1.248191
12.333014 1.802673 1.316533
12.646837 1.802673 1.393644
12.960659 1.802673 1.458648
13.274483 1.802673 1.505932
13.588306 1.802673 1.534549
13.902128 1.802673 1.516750
14.215952 1.802673 1.489166
14.529776 1.802673 1.479270
14.843597 1.802673 1.461458
15.157421 1.802673 1.441695
15.471243 1.802673 1.401328
15.785067 1.802673 1.387600
16.098890 1.802673 1.382921
16.412712 1.802673 1.467987
16.726536 1.802673 1.644477
17.040359 1.802673 1.728447
17.354181 1.802673 0.000000
17.668005 1.802673 0.000000
17.981829 1.802673 0.000000
18.295650 1.802673 0.000000
18.609474 1.802673 0.000000
18.923298 1.802673 0.000000
19.237120 1.802673 0.000000
-6.810190 1.488850 0.000000
-6.496367 1.488850 0.004083
-6.182544 1.488850 0.003438
-5.868721 1.488850 0.003496
-5.554898 1.488850 0.003527
-5.241075 1.488850 0.003627
-4.927252 1.488850 0.003767
-4.613429 1.488850 0.003785
-4.299606 1.488850 0.003810
-3.985783 1.488850 0.003890
-3.671960 1.488850 0.004004
-3.358137 1.488850 0.004094
-3.044314 1.488850 0.004156
-2.730491 1.488850 0.004237
-2.416668 1.488850 0.004377
-2.102845 1.488850 0.004488
-1.789022 1.488850 0.004603
-1.475199 1.488850 0.004761
-1.161376 1.488850 0.004853
-0.847553 1.488850 0.004995
-0.533730 1.488850 0.005139
-0.219907 1.488850 0.005264
0.093916 1.488850 0.005428
0.407739 1.488850 0.005750
0.721562 1.488850 0.006078
1.035385 1.488850 0.006303
1.349208 1.488850 0.006476
1.663032 1.488850 0.006732
1.976854 1.488850 0.007061
2.290677 1.488850 0.007485
2.604500 1.488850 0.008021
2.918324 1.488850 0.008610
3.232146 1.488850 0.009318
3.545969 1.488850 0.010136
3.859793 1.488850 0.011135
4.173615 1.488850 0.012463
4.487438 1.488850 0.013989
4.801261 1.488850 0.015685
5.115085 1.488850 0.018192
5.428907 1.488850 0.021415
5.742730 1.488850 0.025570
6.056554 1.488850 0.030955
6.370377 1.488850 0.039094
6.684199 1.488850 0.051244
6.998022 1.488850 0.068091
7.311846 1.488850 0.089400
7.625669 1.488850 0.120378
7.939491 1.488850 0.159419
8.253315 1.488850 0.209738
8.567138 1.488850 0.270790
8.880960 1.488850 0.347427
9.194784 1.488850 0.429935
9.508606 1.488850 0.512636
9.822430 1.488850 0.600026
10.136253 1.488850 0.703411
10.450075 1.488850 0.797274
10.763899 1.488850 0.906083
11.077723 1.488850 1.007030
11.391544 1.488850 1.097348
11.705368 1.488850 1.179540
12.019190 1.488850 1.265043
12.333014 1.488850 1.329602
12.646837 1.488850 1.393230
12.960659 1.488850 1.457348
13.274483 1.488850 1.519276
13.588306 1.488850 1.532292
13.902128 1.488850 1.492475
14.215952 1.488850 1.469411
14.529776 1.488850 1.460852
14.843597 1.488850 1.453233
15.157421 1.488850 1.425634
15.471243 1.488850 1.372446
15.785067 1.488850 1.349780
16.098890 1.488850 1.319483
16.412712 1.488850 1.417406
16.726536 1.488850 1.608925
17.040359 1.488850 1.425081
17.354181 1.488850 0.000000
17.668005 1.488850 0.000000
17.981829 1.488850 0.000000
18.295650 1.488850 0.000000
18.609474 1.488850 0.000000
18.923298 1.488850 0.000000
19.237120 1.488850 0.000000
-6.810190 1.175026 0.000000
-6.496367 1.175026 0.004172
-6.182544 1.175026 0.003518
-5.868721 1.175026 0.003604
-5.554898 1.175026 0.003607
-5.241075 1.175026 0.003656
-4.927252 1.175026 0.003841
-4.613429 1.175026 0.003931
-4.299606 1.175026 0.003971
-3.985783 1.175026 0.004080
-3.671960 1.175026 0.004196
-3.358137 1.175026 0.004254
-3.044314 1.175026 0.004286
-2.730491 1.175026 0.004355
-2.416668 1.175026 0.004530
-2.102845 1.175026 0.004652
-1.789022 1.175026 0.004746
-1.475199 1.175026 0.004870
-1.161376 1.175026 0.004940
-0.847553 1.175026 0.005042
-0.533730 1.175026 0.005283
-0.219907 1.175026 0.005426
0.093916 1.175026 0.005584
0.407739 1.175026 0.005869
0.721562 1.175026 0.006112
1.035385 1.175026 0.006339
1.349208 1.175026 0.006564
1.663032 1.175026 0.006745
1.976854 1.175026 0.007036
2.290677 1.175026 0.007507
2.604500 1.175026 0.008094
2.918324 1.175026 0.008688
3.232146 1.175026 0.009387
3.545969 1.175026 0.010225
3.859793 1.175026 0.011192
4.173615 1.175026 0.012426
4.487438 1.175026 0.013931
4.801261 1.175026 0.015796
5.115085 1.175026 0.018345
5.428907 1.175026 0.021557
5.742730 1.175026 0.025681
6.056554 1.175026 0.031533
6.370377 1.175026 0.040253
6.684199 1.175026 0.052629
6.998022 1.175026 0.068658
7.311846 1.175026 0.091274
7.625669 1.175026 0.121372
7.939491 1.175026 0.161534
8.253315 1.175026 0.212260
8.567138 1.175026 0.275671
8.880960 1.175026 0.355198
9.194784 1.175026 0.440910
9.508606 1.175026 0.521958
9.822430 1.175026 0.611201
10.136253 1.175026 0.719883
10.450075 1.175026 0.810058
10.763899 1.175026 0.904785
11.077723 1.175026 1.010269
11.391544 1.175026 1.110976
11.705368 1.175026 1.190418
12.019190 1.175026 1.270072
12.333014 1.175026 1.336618
12.646837 1.175026 1.394854
12.960659 1.175026 1.456685
13.274483 1.175026 1.510488
13.588306 1.175026 1.519152
13.902128 1.175026 1.479208
14.215952 1.175026 1.474567
14.529776 1.175026 1.459254
14.843597 1.175026 1.435628
15.157421 1.175026 1.399212
15.471243 1.175026 1.338165
15.785067 1.175026 1.294740
16.098890 1.175026 1.218789
16.412712 1.175026 1.307362
16.726536 1.175026 1.507997
17.040359 1.175026 0.968323
17.354181 1.175026 0.000000
17.668005 1.175026 0.000000
17.981829 1.175026 0.000000
18.295650 1.175026 0.000000
18.609474 1.175026 0.000000
18.923298 1.175026 0.000000
19.237120 1.175026 0.000000
-6.810190 0.861202 0.000000
-6.496367 0.861202 0.004279
-6.182544 0.861202 0.003595
-5.868721 0.861202 0.003699
-5.554898 0.861202 0.003686
-5.241075 0.861202 0.003720
-4.927252 0.861202 0.003922
-4.613429 0.861202 0.004061
-4.299606 0.861202 0.004131
-3.985783 0.861202 0.004216
-3.671960 0.861202 0.004337
-3.358137 0.861202 0.004409
-3.044314 0.861202 0.004446
-2.730491 0.861202 0.004525
-2.416668 0.861202 0.004669
-2.102845 0.861202 0.004763
-1.789022 0.861202 0.004849
-1.475199 0.861202 0.004946
-1.161376 0.861202 0.004999
-0.847553 0.861202 0.005100
-0.533730 0.861202 0.005359
-0.219907 0.861202 0.005522
0.093916 0.861202 0.005704
0.407739 0.861202 0.005936
0.721562 0.861202 0.006119
1.035385 0.861202 0.006370
1.349208 0.861202 0.006596
1.663032 0.861202 0.006769
1.976854 0.861202 0.007002
2.290677 0.861202 0.007485
2.604500 0.861202 0.008111
2.918324 0.861202 0.008696
3.232146 0.861202 0.009396
3.545969 0.861202 0.010232
3.859793 0.861202 0.011116
4.173615 0.861202 0.012238
4.487438 0.861202 0.013786
4.801261 0.861202 0.015898
5.115085 0.861202 0.018587
5.428907 0.861202 0.021875
5.742730 0.861202 0.026052
6.056554 0.861202 0.032384
6.370377 0.861202 0.041224
6.684199 0.861202 0.053250
6.998022 0.861202 0.070057
7.311846 0.861202 0.093000
7.625669 0.861202 0.123770
7.939491 0.861202 0.165718
8.253315 0.861202 0.214961
8.567138 0.861202 0.281675
8.880960 0.861202 0.363532
9.194784 0.861202 0.444963
9.508606 0.861202 0.531248
9.822430 0.861202 0.620417
10.136253 0.861202 0.726473
10.450075 0.861202 0.818582
10.763899 0.861202 0.910422
11.077723 0.861202 1.009167
11.391544 0.861202 1.115549
11.705368 0.861202 1.196254
12.019190 0.861202 1.259320
12.333014 0.861202 1.329090
12.646837 0.861202 1.394916
12.960659 0.861202 1.466667
13.274483 0.861202 1.500365
13.588306 0.861202 1.498270
13.902128 0.861202 1.469661
14.215952 0.861202 1.461372
14.529776 0.861202 1.458337
14.843597 0.861202 1.422266
15.157421 0.861202 1.373934
15.471243 0.861202 1.313453
15.785067 0.861202 1.235357
16.098890 0.861202 1.120781
16.412712 0.861202 1.166262
16.726536 0.861202 1.306140
17.040359 0.861202 0.193013
17.354181 0.861202 0.000000
17.668005 0.861202 0.000000
17.981829 0.861202 0.000000
18.295650 0.861202 0.000000
18.609474 0.861202 0.000000
18.923298 0.861202 0.000000
19.237120 0.861202 0.000000
-6.810190 0.547379 0.000000
-6.496367 0.547379 0.004381
-6.182544 0.547379 0.003670
-5.868721 0.547379 0.003782
-5.554898 0.547379 0.003816
-5.241075 0.547379 0.003823
-4.927252 0.547379 0.003988
-4.613429 0.547379 0.004139
-4.299606 0.547379 0.004224
-3.985783 0.547379 0.004309
-3.671960 0.547379 0.004442
-3.358137 0.547379 0.004558
-3.044314 0.547379 0.004628
-2.730491 0.547379 0.004720
-2.416668 0.547379 0.004764
-2.102845 0.547379 0.004822
-1.789022 0.547379 0.004911
-1.475199 0.547379 0.004997
-1.161376 0.547379 0.005033
-0.847553 0.547379 0.005123
-0.533730 0.547379 0.005420
-0.219907 0.547379 0.005579
0.093916 0.547379 0.005766
0.407739 0.547379 0.005956
0.721562 0.547379 0.006153
1.035385 0.547379 0.006382
1.349208 0.547379 0.006589
1.663032 0.547379 0.006763
1.976854 0.547379 0.006995
2.290677 0.547379 0.007458
2.604500 0.547379 0.008054
2.918324 0.547379 0.008628
3.232146 0.547379 0.009377
3.545969 0.547379 0.010195
3.859793 0.547379 0.010991
4.173615 0.547379 0.012048
4.487438 0.547379 0.013705
4.801261 0.547379 0.015935
5.115085 0.547379 0.018760
5.428907 0.547379 0.021970
5.742730 0.547379 0.026484
6.056554 0.547379 0.033024
6.370377 0.547379 0.041765
6.684199 0.547379 0.054300
6.998022 0.547379 0.071374
7.311846 0.547379 0.094518
7.625669 0.547379 0.125468
7.939491 0.547379 0.166852
8.253315 0.547379 0.218737
8.567138 0.547379 0.288059
8.880960 0.547379 0.368688
9.194784 0.547379 0.454740
9.508606 0.547379 0.549460
9.822430 0.547379 0.635582
10.136253 0.547379 0.729925
10.450075 0.547379 0.821895
10.763899 0.547379 0.915919
11.077723 0.547379 1.017843
11.391544 0.547379 1.119609
11.705368 0.547379 1.194547
12.019190 0.547379 1.263165
12.333014 0.547379 1.332919
12.646837 0.547379 1.390402
12.960659 0.547379 1.478573
13.274483 0.547379 1.505373
13.588306 0.547379 1.497897
13.902128 0.547379 1.455552
14.215952 0.547379 1.454646
14.529776 0.547379 1.463427
14.843597 0.547379 1.418067
15.157421 0.547379 1.330469
15.471243 0.547379 1.264725
15.785067 0.547379 1.134028
16.098890 0.547379 1.011021
16.412712 0.547379 1.026562
16.726536 0.547379 1.075790
17.040359 0.547379 0.000000
17.354181 0.547379 0.000000
17.668005 0.547379 0.000000
17.981829 0.547379 0.000000
18.295650 0.547379 0.000000
18.609474 0.547379 0.000000
18.923298 0.547379 0.000000
19.237120 0.547379 0.000000
-6.810190 0.233559 0.000000
-6.496367 0.233559 0.004474
-6.182544 0.233559 0.003712
-5.868721 0.233559 0.003853
-5.554898 0.233559 0.003922
-5.241075 0.233559 0.003912
-4.927252 0.233559 0.004007
-4.613429 0.233559 0.004173
-4.299606 0.233559 0.004270
-3.985783 0.233559 0.004380
-3.671960 0.233559 0.004536
-3.358137 0.233559 0.004660
-3.044314 0.233559 0.004804
-2.730491 0.233559 0.004861
-2.416668 0.233559 0.004856
-2.102845 0.233559 0.004874
-1.789022 0.233559 0.004930
-1.475199 0.233559 0.005024
-1.161376 0.233559 0.005077
-0.847553 0.233559 0.005212
-0.533730 0.233559 0.005463
-0.219907 0.233559 0.005594
0.093916 0.233559 0.005760
0.407739 0.233559 0.005975
0.721562 0.233559 0.006191
1.035385 0.233559 0.006361
1.349208 0.233559 0.006466
1.663032 0.233559 0.006731
1.976854 0.233559 0.006963
2.290677 0.233559 0.007410
2.604500 0.233559 0.007928
2.918324 0.233559 0.008525
3.232146 0.233559 0.009356
3.545969 0.233559 0.010092
3.859793 0.233559 0.010839
4.173615 0.233559 0.011935
4.487438 0.233559 0.013703
4.801261 0.233559 0.015984
5.115085 0.233559 0.018677
5.428907 0.233559 0.022039
5.742730 0.233559 0.026924
6.056554 0.233559 0.033585
6.370377 0.233559 0.042447
6.684199 0.233559 0.055401
6.998022 0.233559 0.073200
7.311846 0.233559 0.097398
7.625669 0.233559 0.128478
7.939491 0.233559 0.169520
8.253315 0.233559 0.224507
8.567138 0.233559 0.292905
8.880960 0.233559 0.375669
9.194784 0.233559 0.467227
9.508606 0.233559 0.562005
9.822430 0.233559 0.649692
10.136253 0.233559 0.740686
10.450075 0.233559 0.831499
10.763899 0.233559 0.923825
11.077723 0.233559 1.020777
11.391544 0.233559 1.128275
11.705368 0.233559 1.216772
12.019190 0.233559 1.284730
12.333014 0.233559 1.349159
12.646837 0.233559 1.406196
12.960659 0.233559 1.491449
13.274483 0.233559 1.518447
13.588306 0.233559 1.506842
13.902128 0.233559 1.465852
14.215952 0.233559 1.472194
14.529776 0.233559 1.451723
14.843597 0.233559 1.389736
15.157421 0.233559 1.287772
15.471243 0.233559 1.181120
15.785067 0.233559 1.067469
16.098890 0.233559 0.923939
16.412712 0.233559 0.934277
16.726536 0.233559 0.832571
17.040359 0.233559 0.000000
17.354181 0.233559 0.000000
17.668005 0.233559 0.000000
17.981829 0.233559 0.000000
18.295650 0.233559 0.000000
18.609474 0.233559 0.000000
18.923298 0.233559 0.000000
19.237120 0.233559 0.000000
-6.810190 -0.080265 0.000000
-6.496367 -0.080265 0.004699
-6.182544 -0.080265 0.003809
-5.868721 -0.080265 0.003964
-5.554898 -0.080265 0.004039
-5.241075 -0.080265 0.003992
-4.927252 -0.080265 0.004109
-4.613429 -0.080265 0.004265
-4.299606 -0.080265 0.004367
-3.985783 -0.080265 0.004496
-3.671960 -0.080265 0.004651
-3.358137 -0.080265 0.004771
-3.044314 -0.080265 0.004927
-2.730491 -0.080265 0.005010
-2.416668 -0.080265 0.005033
-2.102845 -0.080265 0.005019
-1.789022 -0.080265 0.005020
-1.475199 -0.080265 0.005125
-1.161376 -0.080265 0.005208
-0.847553 -0.080265 0.005340
-0.533730 -0.080265 0.005511
-0.219907 -0.080265 0.005625
0.093916 -0.080265 0.005776
0.407739 -0.080265 0.006006
0.721562 -0.080265 0.006223
1.035385 -0.080265 0.006282
1.349208 -0.080265 0.006372
1.663032 -0.080265 0.006670
1.976854 -0.080265 0.006951
2.290677 -0.080265 0.007343
2.604500 -0.080265 0.007855
2.918324 -0.080265 0.008505
3.232146 -0.080265 0.009361
3.545969 -0.080265 0.010023
3.859793 -0.080265 0.010772
4.173615 -0.080265 0.011985
4.487438 -0.080265 0.013791
4.801261 -0.080265 0.015949
5.115085 -0.080265 0.018517
5.428907 -0.080265 0.022349
5.742730 -0.080265 0.027504
6.056554 -0.080265 0.034085
6.370377 -0.080265 0.043185
6.684199 -0.080265 0.055484
6.998022 -0.080265 0.073044
7.311846 -0.080265 0.098565
7.625669 -0.080265 0.132554
7.939491 -0.080265 0.175618
8.253315 -0.080265 0.228718
8.567138 -0.080265 0.301723
8.880960 -0.080265 0.384119
9.194784 -0.080265 0.472363
9.508606 -0.080265 0.566543
9.822430 -0.080265 0.659235
10.136253 -0.080265 0.746571
10.450075 -0.080265 0.834141
10.763899 -0.080265 0.931525
11.077723 -0.080265 1.037047
11.391544 -0.080265 1.141180
11.705368 -0.080265 1.240910
12.019190 -0.080265 1.323911
12.333014 -0.080265 1.373001
12.646837 -0.080265 1.428347
12.960659 -0.080265 1.498189
13.274483 -0.080265 1.524285
13.588306 -0.080265 1.526152
13.902128 -0.080265 1.483371
14.215952 -0.080265 1.467060
14.529776 -0.080265 1.440630
14.843597 -0.080265 1.372510
15.157421 -0.080265 1.229580
15.471243 -0.080265 1.128287
15.785067 -0.080265 1.018827
16.098890 -0.080265 0.876403
16.412712 -0.080265 0.851898
16.726536 -0.080265 0.000000
17.040359 -0.080265 0.000000
17.354181 -0.080265 0.000000
17.668005 -0.080265 0.000000
17.981829 -0.080265 0.000000
18.295650 -0.080265 0.000000
18.609474 -0.080265 0.000000
18.923298 -0.080265 0.000000
19.237120 -0.080265 0.000000
-6.810190 -0.394089 0.000000
-6.496367 -0.394089 0.005033
-6.182544 -0.394089 0.004240
-5.868721 -0.394089 0.004337
-5.554898 -0.394089 0.004377
-5.241075 -0.394089 0.004383
-4.927252 -0.394089 0.004525
-4.613429 -0.394089 0.004688
-4.299606 -0.394089 0.004799
-3.985783 -0.394089 0.004925
-3.671960 -0.394089 0.005046
-3.358137 -0.394089 0.005113
-3.044314 -0.394089 0.005248
-2.730491 -0.394089 0.005381
-2.416668 -0.394089 0.005468
-2.102845 -0.394089 0.005420
-1.789022 -0.394089 0.005398
-1.475199 -0.394089 0.005545
-1.161376 -0.394089 0.005664
-0.847553 -0.394089 0.005770
-0.533730 -0.394089 0.005838
-0.219907 -0.394089 0.005920
0.093916 -0.394089 0.006065
0.407739 -0.394089 0.006271
0.721562 -0.394089 0.006441
1.035385 -0.394089 0.006397
1.349208 -0.394089 0.006492
1.663032 -0.394089 0.006862
1.976854 -0.394089 0.007221
2.290677 -0.394089 0.007496
2.604500 -0.394089 0.008004
2.918324 -0.394089 0.008728
3.232146 -0.394089 0.009607
3.545969 -0.394089 0.010248
3.859793 -0.394089 0.010969
4.173615 -0.394089 0.012269
4.487438 -0.394089 0.014016
4.801261 -0.394089 0.016102
5.115085 -0.394089 0.018790
5.428907 -0.394089 0.022875
5.742730 -0.394089 0.028527
6.056554 -0.394089 0.035675
6.370377 -0.394089 0.044930
6.684199 -0.394089 0.056973
6.998022 -0.394089 0.075323
7.311846 -0.394089 0.101902
7.625669 -0.394089 0.137651
7.939491 -0.394089 0.183714
8.253315 -0.394089 0.241430
8.567138 -0.394089 0.314399
8.880960 -0.394089 0.399582
9.194784 -0.394089 0.487451
9.508606 -0.394089 0.580444
9.822430 -0.394089 0.680322
10.136253 -0.394089 0.778034
10.450075 -0.394089 0.864124
10.763899 -0.394089 0.965149
11.077723 -0.394089 1.068801
11.391544 -0.394089 1.169250
11.705368 -0.394089 1.279220
12.019190 -0.394089 1.353909
12.333014 -0.394089 1.400756
12.646837 -0.394089 1.478369
12.960659 -0.394089 1.546469
13.274483 -0.394089 1.570724
13.588306 -0.394089 1.572032
13.902128 -0.394089 1.492841
14.215952 -0.394089 1.467305
14.529776 -0.394089 1.448641
14.843597 -0.394089 1.364317
15.157421 -0.394089 1.196762
15.471243 -0.394089 1.067941
15.785067 -0.394089 0.976715
16.098890 -0.394089 0.878802
16.412712 -0.394089 0.757758
16.726536 -0.394089 0.000000
17.040359 -0.394089 0.000000
17.354181 -0.394089 0.000000
17.668005 -0.394089 0.000000
17.981829 -0.394089 0.000000
18.295650 -0.394089 0.000000
18.609474 -0.394089 0.000000
18.923298 -0.394089 0.000000
19.237120 -0.394089 0.000000
-6.810190 -0.707912 0.000000
-6.496367 -0.707912 0.004311
-6.182544 -0.707912 0.005134
-5.868721 -0.707912 0.005367
-5.554898 -0.707912 0.005405
-5.241075 -0.707912 0.005448
-4.927252 -0.707912 0.005616
-4.613429 -0.707912 0.005756
-4.299606 -0.707912 0.005881
-3.985783 -0.707912 0.006003
-3.671960 -0.707912 0.006071
-3.358137 -0.707912 0.006074
-3.044314 -0.707912 0.006179
-2.730491 -0.707912 0.006382
-2.416668 -0.707912 0.006447
-2.102845 -0.707912 0.006414
-1.789022 -0.707912 0.006415
-1.475199 -0.707912 0.006602
-1.161376 -0.707912 0.006766
-0.847553 -0.707912 0.006795
-0.533730 -0.707912 0.006807
-0.219907 -0.707912 0.006847
0.093916 -0.707912 0.007016
0.407739 -0.707912 0.007164
0.721562 -0.707912 0.007249
1.035385 -0.707912 0.007165
1.349208 -0.707912 0.007319
1.663032 -0.707912 0.007766
1.976854 -0.707912 0.008110
2.290677 -0.707912 0.008364
2.604500 -0.707912 0.008826
2.918324 -0.707912 0.009584
3.232146 -0.707912 0.010462
3.545969 -0.707912 0.011094
3.859793 -0.707912 0.011860
4.173615 -0.707912 0.013215
4.487438 -0.707912 0.015014
4.801261 -0.707912 0.017017
5.115085 -0.707912 0.019895
5.428907 -0.707912 0.024305
5.742730 -0.707912 0.030277
6.056554 -0.707912 0.038131
6.370377 -0.707912 0.047204
6.684199 -0.707912 0.060558
6.998022 -0.707912 0.080446
7.311846 -0.707912 0.108454
7.625669 -0.707912 0.147878
7.939491 -0.707912 0.198871
8.253315 -0.707912 0.263604
8.567138 -0.707912 0.340117
8.880960 -0.707912 0.433692
9.194784 -0.707912 0.522291
9.508606 -0.707912 0.634458
9.822430 -0.707912 0.732111
10.136253 -0.707912 0.835381
10.450075 -0.707912 0.930063
10.763899 -0.707912 1.033490
11.077723 -0.707912 1.129973
11.391544 -0.707912 1.247808
11.705368 -0.707912 1.363719
12.019190 -0.707912 1.438058
12.333014 -0.707912 1.499541
12.646837 -0.707912 1.541759
12.960659 -0.707912 1.621492
13.274483 -0.707912 1.658021
13.588306 -0.707912 1.655050
13.902128 -0.707912 1.577117
14.215952 -0.707912 1.536075
14.529776 -0.707912 1.503860
14.843597 -0.707912 1.385378
15.157421 -0.707912 1.189659
15.471243 -0.707912 1.032532
15.785067 -0.707912 0.966876
16.098890 -0.707912 0.896923
16.412712 -0.707912 0.536657
16.726536 -0.707912 0.000000
17.040359 -0.707912 0.000000
17.354181 -0.707912 0.000000
17.668005 -0.707912 0.000000
17.981829 -0.707912 0.000000
18.295650 -0.707912 0.000000
18.609474 -0.707912 0.000000
18.923298 -0.707912 0.000000
19.237120 -0.707912 0.000000
-6.810190 -1.021736 0.000000
-6.496367 -1.021736 0.000000
-6.182544 -1.021736 0.000000
-5.868721 -1.021736 0.000000
-5.554898 -1.021736 0.000000
-5.241075 -1.021736 0.000000
-4.927252 -1.021736 0.000000
-4.613429 -1.021736 0.000000
-4.299606 -1.021736 0.000000
-3.985783 -1.021736 0.000000
-3.671960 -1.021736 0.000000
-3.358137 -1.021736 0.000000
-3.044314 -1.021736 0.000000
-2.730491 -1.021736 0.000000
-2.416668 -1.021736 0.000000
-2.102845 -1.021736 0.002846
-1.789022 -1.021736 0.009983
-1.475199 -1.021736 0.008318
-1.161376 -1.021736 0.009221
-0.847553 -1.021736 0.008786
-0.533730 -1.021736 0.008341
-0.219907 -1.021736 0.008389
0.093916 -1.021736 0.008515
0.407739 -1.021736 0.008691
0.721562 -1.021736 0.008770
1.035385 -1.021736 0.008798
1.349208 -1.021736 0.009104
1.663032 -1.021736 0.009754
1.976854 -1.021736 0.010001
2.290677 -1.021736 0.010248
2.604500 -1.021736 0.010766
2.918324 -1.021736 0.011435
3.232146 -1.021736 0.012252
3.545969 -1.021736 0.012935
3.859793 -1.021736 0.013813
4.173615 -1.021736 0.015157
4.487438 -1.021736 0.017059
4.801261 -1.021736 0.019049
5.115085 -1.021736 0.021996
5.428907 -1.021736 0.026831
5.742730 -1.021736 0.033391
6.056554 -1.021736 0.041837
6.370377 -1.021736 0.051802
6.684199 -1.021736 0.065467
6.998022 -1.021736 0.087651
7.311846 -1.021736 0.119559
7.625669 -1.021736 0.160770
7.939491 -1.021736 0.217029
8.253315 -1.021736 0.292472
8.567138 -1.021736 0.379452
8.880960 -1.021736 0.481463
9.194784 -1.021736 0.582169
9.508606 -1.021736 0.699911
9.822430 -1.021736 0.808640
10.136253 -1.021736 0.911339
10.450075 -1.021736 1.007365
10.763899 -1.021736 1.122848
11.077723 -1.021736 1.242280
11.391544 -1.021736 1.366420
11.705368 -1.021736 1.476721
12.019190 -1.021736 1.575178
12.333014 -1.021736 1.638109
12.646837 -1.021736 1.700024
12.960659 -1.021736 1.757836
13.274483 -1.021736 1.802714
13.588306 -1.021736 1.792492
13.902128 -1.021736 1.737552
14.215952 -1.021736 1.701719
14.529776 -1.021736 1.608204
14.843597 -1.021736 1.447266
15.157421 -1.021736 1.243499
15.471243 -1.021736 1.080027
15.785067 -1.021736 0.994099
16.098890 -1.021736 0.895298
16.412712 -1.021736 0.000000
16.726536 -1.021736 0.000000
17.040359 -1.021736 0.000000
17.354181 -1.021736 0.000000
17.668005 -1.021736 0.000000
17.981829 -1.021736 0.000000
18.295650 -1.021736 0.000000
18.609474 -1.021736 0.000000
18.923298 -1.021736 0.000000
19.237120 -1.021736 0.000000
-6.810190 -1.335556 0.000000
-6.496367 -1.335556 0.000000
-6.182544 -1.335556 0.000000
-5.868721 -1.335556 0.000000
-5.554898 -1.335556 0.000000
-5.241075 -1.335556 0.000000
-4.927252 -1.335556 0.000000
-4.613429 -1.335556 0.000000
-4.299606 -1.335556 0.000000
-3.985783 -1.335556 0.000000
-3.671960 -1.335556 0.000000
-3.358137 -1.335556 0.000000
-3.044314 -1.335556 0.000000
-2.730491 -1.335556 0.000000
-2.416668 -1.335556 0.000000
-2.102845 -1.335556 0.000000
-1.789022 -1.335556 0.000000
-1.475199 -1.335556 0.000000
-1.161376 -1.335556 0.000000
-0.847553 -1.335556 0.000000
-0.533730 -1.335556 0.000000
-0.219907 -1.335556 0.000000
0.093916 -1.335556 0.000000
0.407739 -1.335556 0.000000
0.721562 -1.335556 0.000000
1.035385 -1.335556 0.000000
1.349208 -1.335556 0.000000
1.663032 -1.335556 0.000000
1.976854 -1.335556 0.000000
2.290677 -1.335556 0.000000
2.604500 -1.335556 0.000000
2.918324 -1.335556 0.000000
3.232146 -1.335556 0.000000
3.545969 -1.335556 0.000000
3.859793 -1.335556 0.000000
4.173615 -1.335556 0.000000
4.487438 -1.335556 0.000000
4.801261 -1.335556 0.000000
5.115085 -1.335556 0.000000
5.428907 -1.335556 0.000000
5.742730 -1.335556 0.000000
6.056554 -1.335556 0.000000
6.370377 -1.335556 0.000000
6.684199 -1.335556 0.000000
6.998022 -1.335556 0.000000
7.311846 -1.335556 0.000000
7.625669 -1.335556 0.000000
7.939491 -1.335556 0.000000
8.253315 -1.335556 0.824523
8.567138 -1.335556 1.326113
8.880960 -1.335556 1.631684
9.194784 -1.335556 1.470781
9.508606 -1.335556 1.239946
9.822430 -1.335556 1.140945
10.136253 -1.335556 1.142053
10.450075 -1.335556 1.210902
10.763899 -1.335556 1.219420
11.077723 -1.335556 1.302569
11.391544 -1.335556 1.406793
11.705368 -1.335556 1.489004
12.019190 -1.335556 1.617048
12.333014 -1.335556 1.698133
12.646837 -1.335556 1.797715
12.960659 -1.335556 1.882073
13.274483 -1.335556 1.950699
13.588306 -1.335556 1.900935
13.902128 -1.335556 1.868008
14.215952 -1.335556 1.861011
14.529776 -1.335556 1.765483
14.843597 -1.335556 1.590408
15.157421 -1.335556 1.326612
15.471243 -1.335556 1.130640
15.785067 -1.335556 1.025722
16.098890 -1.335556 0.842738
16.412712 -1.335556 0.000000
16.726536 -1.335556 0.000000
17.040359 -1.335556 0.000000
17.354181 -1.335556 0.000000
17.668005 -1.335556 0.000000
17.981829 -1.335556 0.000000
18.295650 -1.335556 0.000000
18.609474 -1.335556 0.000000
18.923298 -1.335556 0.000000
19.237120 -1.335556 0.000000
-6.810190 -1.649380 0.000000
-6.496367 -1.649380 0.000000
-6.182544 -1.649380 0.000000
-5.868721 -1.649380 0.000000
-5.554898 -1.649380 0.000000
-5.241075 -1.649380 0.000000
-4.927252 -1.649380 0.000000
-4.613429 -1.649380 0.000000
-4.299606 -1.649380 0.000000
-3.985783 -1.649380 0.000000
-3.671960 -1.649380 0.000000
-3.358137 -1.649380 0.000000
-3.044314 -1.649380 0.000000
-2.730491 -1.649380 0.000000
-2.416668 -1.649380 0.000000
-2.102845 -1.649380 0.000000
-1.789022 -1.649380 0.000000
-1.475199 -1.649380 0.000000
-1.161376 -1.649380 0.000000
-0.847553 -1.649380 0.000000
-0.533730 -1.649380 0.000000
-0.219907 -1.649380 0.000000
0.093916 -1.649380 0.000000
0.407739 -1.649380 0.000000
0.721562 -1.649380 0.000000
1.035385 -1.649380 0.000000
1.349208 -1.649380 0.000000
1.663032 -1.649380 0.000000
1.976854 -1.649380 0.000000
2.290677 -1.649380 0.000000
2.604500 -1.649380 0.000000
2.918324 -1.649380 0.000000
3.232146 -1.649380 0.000000
3.545969 -1.649380 0.000000
3.859793 -1.649380 0.000000
4.173615 -1.649380 0.000000
4.487438 -1.649380 0.000000
4.801261 -1.649380 0.000000
5.115085 -1.649380 0.000000
5.428907 -1.649380 0.000000
5.742730 -1.649380 0.000000
6.056554 -1.649380 0.000000
6.370377 -1.649380 0.000000
6.684199 -1.649380 0.000000
6.998022 -1.649380 0.000000
7.311846 -1.649380 0.000000
7.625669 -1.649380 0.000000
7.939491 -1.649380 0.000000
8.253315 -1.649380 0.000000
8.567138 -1.649380 0.000000
8.880960 -1.649380 0.000000
9.194784 -1.649380 0.000000
9.508606 -1.649380 0.000000
9.822430 -1.649380 0.000000
10.136253 -1.649380 0.000000
10.450075 -1.649380 0.000000
10.763899 -1.649380 1.395080
11.077723 -1.649380 2.396889
11.391544 -1.649380 1.967100
11.705368 -1.649380 1.679676
12.019190 -1.649380 2.352238
12.333014 -1.649380 2.568952
12.646837 -1.649380 2.277146
12.960659 -1.649380 1.910258
13.274483 -1.649380 1.893160
13.588306 -1.649380 1.666267
13.902128 -1.649380 1.576336
14.215952 -1.649380 1.540944
14.529776 -1.649380 1.508505
14.843597 -1.649380 1.366408
15.157421 -1.649380 1.162617
15.471243 -1.649380 0.975071
15.785067 -1.649380 0.869915
16.098890 -1.649380 0.551343
16.412712 -1.649380 0.000000
16.726536 -1.649380 0.000000
17.040359 -1.649380 0.000000
17.354181 -1.649380 0.000000
17.668005 -1.649380 0.000000
17.981829 -1.649380 0.000000
18.295650 -1.649380 0.000000
18.609474 -1.649380 0.000000
18.923298 -1.649380 0.000000
19.237120 -1.649380 0.000000
-6.810190 -1.963203 0.000000
-6.496367 -1.963203 0.000000
-6.182544 -1.963203 0.000000
-5.868721 -1.963203 0.000000
-5.554898 -1.963203 0.000000
-5.241075 -1.963203 0.000000
-4.927252 -1.963203 0.000000
-4.613429 -1.963203 0.000000
-4.299606 -1.963203 0.000000
-3.985783 -1.963203 0.000000
-3.671960 -1.963203 0.000000
-3.358137 -1.963203 0.000000
-3.044314 -1.963203 0.000000
-2.730491 -1.963203 0.000000
-2.416668 -1.963203 0.000000
-2.102845 -1.963203 0.000000
-1.789022 -1.963203 0.000000
-1.475199 -1.963203 0.000000
-1.161376 -1.963203 0.000000
-0.847553 -1.963203 0.000000
-0.533730 -1.963203 0.000000
-0.219907 -1.963203 0.000000
0.093916 -1.963203 0.000000
0.407739 -1.963203 0.000000
0.721562 -1.963203 0.000000
1.035385 -1.963203 0.000000
1.349208 -1.963203 0.000000
1.663032 -1.963203 0.000000
1.976854 -1.963203 0.000000
2.290677 -1.963203 0.000000
2.604500 -1.963203 0.000000
2.918324 -1.963203 0.000000
3.232146 -1.963203 0.000000
3.545969 -1.963203 0.000000
3.859793 -1.963203 0.000000
4.173615 -1.963203 0.000000
4.487438 -1.963203 0.000000
4.801261 -1.963203 0.000000
5.115085 -1.963203 0.000000
5.428907 -1.963203 0.000000
5.742730 -1.963203 0.000000
6.056554 -1.963203 0.000000
6.370377 -1.963203 0.000000
6.684199 -1.963203 0.000000
6.998022 -1.963203 0.000000
7.311846 -1.963203 0.000000
7.625669 -1.963203 0.000000
7.939491 -1.963203 0.000000
8.253315 -1.963203 0.000000
8.567138 -1.963203 0.000000
8.880960 -1.963203 0.000000
9.194784 -1.963203 0.000000
9.508606 -1.963203 0.000000
9.822430 -1.963203 0.000000
10.136253 -1.963203 0.000000
10.450075 -1.963203 0.000000
10.763899 -1.963203 0.000000
11.077723 -1.963203 0.000000
11.391544 -1.963203 0.000000
11.705368 -1.963203 0.000000
12.019190 -1.963203 0.000000
12.333014 -1.963203 0.000000
12.646837 -1.963203 0.000000
12.960659 -1.963203 0.000000
13.274483 -1.963203 1.662890
13.588306 -1.963203 9.113587
13.902128 -1.963203 6.740982
14.215952 -1.963203 5.148249
14.529776 -1.963203 3.692729
14.843597 -1.963203 3.320410
15.157421 -1.963203 3.062619
15.471243 -1.963203 2.453034
15.785067 -1.963203 1.860576
16.098890 -1.963203 0.000000
16.412712 -1.963203 0.000000
16.726536 -1.963203 0.000000
17.040359 -1.963203 0.000000
17.354181 -1.963203 0.000000
17.668005 -1.963203 0.000000
17.981829 -1.963203 0.000000
18.295650 -1.963203 0.000000
18.609474 -1.963203 0.000000
18.923298 -1.963203 0.000000
19.237120 -1.963203 0.000000
-6.810190 -2.277027 0.000000
-6.496367 -2.277027 0.000000
-6.182544 -2.277027 0.000000
-5.868721 -2.277027 0.000000
-5.554898 -2.277027 0.000000
-5.241075 -2.277027 0.000000
-4.927252 -2.277027 0.000000
-4.613429 -2.277027 0.000000
-4.299606 -2.277027 0.000000
-3.985783 -2.277027 0.000000
-3.671960 -2.277027 0.000000
-3.358137 -2.277027 0.000000
-3.044314 -2.277027 0.000000
-2.730491 -2.277027 0.000000
-2.416668 -2.277027 0.000000
-2.102845 -2.277027 0.000000
-1.789022 -2.277027 0.000000
-1.475199 -2.277027 0.000000
-1.161376 -2.277027 0.000000
-0.847553 -2.277027 0.000000
-0.533730 -2.277027 0.000000
-0.219907 -2.277027 0.000000
0.093916 -2.277027 0.000000
0.407739 -2.277027 0.000000
0.721562 -2.277027 0.000000
1.035385 -2.277027 0.000000
1.349208 -2.277027 0.000000
1.663032 -2.277027 0.000000
1.976854 -2.277027 0.000000
2.290677 -2.277027 0.000000
2.604500 -2.277027 0.000000
2.918324 -2.277027 0.000000
3.232146 -2.277027 0.000000
3.545969 -2.277027 0.000000
3.859793 -2.277027 0.000000
4.173615 -2.277027 0.000000
4.487438 -2.277027 0.000000
4.801261 -2.277027 0.000000
5.115085 -2.277027 0.000000
5.428907 -2.277027 0.000000
5.742730 -2.277027 0.000000
6.056554 -2.277027 0.000000
6.370377 -2.277027 0.000000
6.684199 -2.277027 0.000000
6.998022 -2.277027 0.000000
7.311846 -2.277027 0.000000
7.625669 -2.277027 0.000000
7.939491 -2.277027 0.000000
8.253315 -2.277027 0.000000
8.567138 -2.277027 0.000000
8.880960 -2.277027 0.000000
9.194784 -2.277027 0.000000
9.508606 -2.277027 0.000000
9.822430 -2.277027 0.000000
10.136253 -2.277027 0.000000
10.450075 -2.277027 0.000000
10.763899 -2.277027 0.000000
11.077723 -2.277027 0.000000
11.391544 -2.277027 0.000000
11.705368 -2.277027 0.000000
12.019190 -2.277027 0.000000
12.333014 -2.277027 0.000000
12.646837 -2.277027 0.000000
12.960659 -2.277027 0.000000
13.274483 -2.277027 0.000000
13.588306 -2.277027 0.000000
13.902128 -2.277027 0.000000
14.215952 -2.277027 0.000000
14.529776 -2.277027 0.000000
14.843597 -2.277027 0.000000
15.157421 -2.277027 0.000000
15.471243 -2.277027 0.000000
15.785067 -2.277027 0.000000
16.098890 -2.277027 0.000000
16.412712 -2.277027 0.000000
16.726536 -2.277027 0.000000
17.040359 -2.277027 0.000000
17.354181 -2.277027 0.000000
17.668005 -2.277027 0.000000
17.981829 -2.277027 0.000000
18.295650 -2.277027 0.000000
18.609474 -2.277027 0.000000
18.923298 -2.277027 0.000000
19.237120 -2.277027 0.000000
