TITLE = "B00009"
VARIABLES = "x", "y", "Reynold stress XY"
ZONE T="Frame 1" I=85, J=164, F=POINT
-7.237510 50.690701 0.000000
-6.922160 50.690701 0.000000
-6.606810 50.690701 0.000000
-6.291460 50.690701 0.000000
-5.976110 50.690701 0.000000
-5.660760 50.690701 0.000000
-5.345410 50.690701 0.000000
-5.030060 50.690701 0.000000
-4.714710 50.690701 0.000000
-4.399360 50.690701 0.000000
-4.084010 50.690701 0.000000
-3.768660 50.690701 0.000000
-3.453310 50.690701 0.000000
-3.137960 50.690701 0.000000
-2.822610 50.690701 0.000000
-2.507260 50.690701 0.000000
-2.191910 50.690701 0.000000
-1.876560 50.690701 0.000000
-1.561210 50.690701 0.000000
-1.245860 50.690701 0.000000
-0.930510 50.690701 0.000000
-0.615160 50.690701 0.000000
-0.299810 50.690701 0.000000
0.015540 50.690701 0.000000
0.330890 50.690701 0.000000
0.646240 50.690701 0.000000
0.961589 50.690701 0.000000
1.276940 50.690701 0.000000
1.592289 50.690701 0.000000
1.907640 50.690701 0.000000
2.222990 50.690701 0.000000
2.538340 50.690701 0.000000
2.853690 50.690701 0.000000
3.169039 50.690701 0.000000
3.484390 50.690701 0.000000
3.799739 50.690701 0.000000
4.115090 50.690701 0.000000
4.430439 50.690701 0.000000
4.745790 50.690701 0.000000
5.061140 50.690701 0.000000
5.376490 50.690701 0.000000
5.691840 50.690701 0.000000
6.007189 50.690701 0.000000
6.322540 50.690701 0.000000
6.637889 50.690701 0.000000
6.953240 50.690701 0.000000
7.268589 50.690701 0.000000
7.583940 50.690701 0.000000
7.899290 50.690701 0.000000
8.214640 50.690701 0.000000
8.529989 50.690701 0.000000
8.845339 50.690701 0.000000
9.160688 50.690701 0.000000
9.476040 50.690701 0.000000
9.791389 50.690701 0.000000
10.106739 50.690701 0.000000
10.422089 50.690701 0.000000
10.737438 50.690701 0.000000
11.052790 50.690701 0.000000
11.368139 50.690701 0.000000
11.683489 50.690701 0.000000
11.998838 50.690701 0.000000
12.314190 50.690701 0.000000
12.629539 50.690701 0.000000
12.944889 50.690701 0.000000
13.260239 50.690701 0.000000
13.575588 50.690701 0.000000
13.890940 50.690701 0.000000
14.206289 50.690701 0.000000
14.521639 50.690701 0.000000
14.836988 50.690701 0.000000
15.152340 50.690701 0.000000
15.467690 50.690701 0.000000
15.783039 50.690701 0.000000
16.098389 50.690701 0.000000
16.413738 50.690701 0.000000
16.729090 50.690701 0.000000
17.044439 50.690701 0.000000
17.359789 50.690701 0.000000
17.675138 50.690701 0.000000
17.990490 50.690701 0.000000
18.305840 50.690701 0.000000
18.621189 50.690701 0.000000
18.936539 50.690701 0.000000
19.251888 50.690701 0.000000
-7.237510 50.375351 0.000000
-6.922160 50.375351 0.000000
-6.606810 50.375351 0.000000
-6.291460 50.375351 0.000000
-5.976110 50.375351 0.000000
-5.660760 50.375351 0.000000
-5.345410 50.375351 0.000000
-5.030060 50.375351 0.000000
-4.714710 50.375351 0.000000
-4.399360 50.375351 0.000000
-4.084010 50.375351 0.000000
-3.768660 50.375351 0.000000
-3.453310 50.375351 0.000000
-3.137960 50.375351 0.000000
-2.822610 50.375351 0.000000
-2.507260 50.375351 0.000000
-2.191910 50.375351 0.000000
-1.876560 50.375351 0.000000
-1.561210 50.375351 0.000000
-1.245860 50.375351 0.000000
-0.930510 50.375351 0.000000
-0.615160 50.375351 0.000000
-0.299810 50.375351 0.000000
0.015540 50.375351 0.000000
0.330890 50.375351 0.000000
0.646240 50.375351 0.000000
0.961589 50.375351 0.000000
1.276940 50.375351 0.000000
1.592289 50.375351 0.000000
1.907640 50.375351 0.000000
2.222990 50.375351 0.000000
2.538340 50.375351 0.000000
2.853690 50.375351 0.000000
3.169039 50.375351 0.000000
3.484390 50.375351 0.000000
3.799739 50.375351 0.000000
4.115090 50.375351 0.000000
4.430439 50.375351 0.000000
4.745790 50.375351 0.000000
5.061140 50.375351 0.000000
5.376490 50.375351 0.000000
5.691840 50.375351 0.000000
6.007189 50.375351 0.000000
6.322540 50.375351 0.000000
6.637889 50.375351 0.000000
6.953240 50.375351 0.000000
7.268589 50.375351 0.000000
7.583940 50.375351 0.000000
7.899290 50.375351 0.000000
8.214640 50.375351 0.000000
8.529989 50.375351 0.000000
8.845339 50.375351 0.000000
9.160688 50.375351 0.000000
9.476040 50.375351 0.000000
9.791389 50.375351 0.000000
10.106739 50.375351 0.000000
10.422089 50.375351 0.000000
10.737438 50.375351 0.000000
11.052790 50.375351 0.000000
11.368139 50.375351 0.000000
11.683489 50.375351 0.000000
11.998838 50.375351 0.000000
12.314190 50.375351 0.000000
12.629539 50.375351 0.000000
12.944889 50.375351 0.000000
13.260239 50.375351 0.000000
13.575588 50.375351 -0.286354
13.890940 50.375351 0.000000
14.206289 50.375351 0.000000
14.521639 50.375351 0.000000
14.836988 50.375351 0.000000
15.152340 50.375351 -0.444933
15.467690 50.375351 0.569266
15.783039 50.375351 0.313624
16.098389 50.375351 -1.400021
16.413738 50.375351 0.814204
16.729090 50.375351 -0.124089
17.044439 50.375351 0.155150
17.359789 50.375351 0.321212
17.675138 50.375351 0.150851
17.990490 50.375351 -0.220309
18.305840 50.375351 -0.967389
18.621189 50.375351 -0.758616
18.936539 50.375351 0.531465
19.251888 50.375351 0.000000
-7.237510 50.060001 0.000000
-6.922160 50.060001 0.000000
-6.606810 50.060001 0.000000
-6.291460 50.060001 0.000000
-5.976110 50.060001 0.000000
-5.660760 50.060001 0.000000
-5.345410 50.060001 0.000000
-5.030060 50.060001 0.000000
-4.714710 50.060001 0.000000
-4.399360 50.060001 0.000000
-4.084010 50.060001 0.000000
-3.768660 50.060001 0.000000
-3.453310 50.060001 0.000000
-3.137960 50.060001 0.000000
-2.822610 50.060001 0.000000
-2.507260 50.060001 0.000000
-2.191910 50.060001 0.000000
-1.876560 50.060001 0.000000
-1.561210 50.060001 0.000000
-1.245860 50.060001 0.000000
-0.930510 50.060001 0.000000
-0.615160 50.060001 0.000000
-0.299810 50.060001 0.000000
0.015540 50.060001 0.000000
0.330890 50.060001 0.000000
0.646240 50.060001 0.000000
0.961589 50.060001 0.000000
1.276940 50.060001 0.000000
1.592289 50.060001 0.000000
1.907640 50.060001 0.000000
2.222990 50.060001 0.000000
2.538340 50.060001 0.000000
2.853690 50.060001 0.000000
3.169039 50.060001 0.000000
3.484390 50.060001 0.000000
3.799739 50.060001 0.000000
4.115090 50.060001 0.000000
4.430439 50.060001 0.000000
4.745790 50.060001 0.000000
5.061140 50.060001 0.000000
5.376490 50.060001 0.000000
5.691840 50.060001 0.000000
6.007189 50.060001 0.000000
6.322540 50.060001 0.000000
6.637889 50.060001 0.000000
6.953240 50.060001 0.000000
7.268589 50.060001 0.000000
7.583940 50.060001 0.000000
7.899290 50.060001 0.000000
8.214640 50.060001 0.000000
8.529989 50.060001 -0.035345
8.845339 50.060001 0.012875
9.160688 50.060001 -4.267443
9.476040 50.060001 -2.827475
9.791389 50.060001 -2.843633
10.106739 50.060001 0.943051
10.422089 50.060001 1.045067
10.737438 50.060001 0.476527
11.052790 50.060001 -0.344165
11.368139 50.060001 -0.449287
11.683489 50.060001 0.567523
11.998838 50.060001 0.306612
12.314190 50.060001 0.079902
12.629539 50.060001 0.373196
12.944889 50.060001 0.168297
13.260239 50.060001 -0.235678
13.575588 50.060001 0.100124
13.890940 50.060001 -0.017021
14.206289 50.060001 -0.211736
14.521639 50.060001 0.311133
14.836988 50.060001 0.294451
15.152340 50.060001 0.035357
15.467690 50.060001 0.181218
15.783039 50.060001 0.314373
16.098389 50.060001 0.289946
16.413738 50.060001 0.121863
16.729090 50.060001 0.044022
17.044439 50.060001 0.064432
17.359789 50.060001 0.055217
17.675138 50.060001 0.019700
17.990490 50.060001 -0.030315
18.305840 50.060001 0.052457
18.621189 50.060001 0.005691
18.936539 50.060001 -0.353467
19.251888 50.060001 0.000000
-7.237510 49.744652 0.000000
-6.922160 49.744652 0.000000
-6.606810 49.744652 0.001249
-6.291460 49.744652 0.001134
-5.976110 49.744652 0.001126
-5.660760 49.744652 0.001066
-5.345410 49.744652 0.000762
-5.030060 49.744652 0.000654
-4.714710 49.744652 0.000408
-4.399360 49.744652 0.000037
-4.084010 49.744652 0.000060
-3.768660 49.744652 0.000293
-3.453310 49.744652 0.000449
-3.137960 49.744652 0.000631
-2.822610 49.744652 0.000547
-2.507260 49.744652 0.000545
-2.191910 49.744652 0.000135
-1.876560 49.744652 0.000157
-1.561210 49.744652 0.000320
-1.245860 49.744652 0.000083
-0.930510 49.744652 0.000418
-0.615160 49.744652 0.000151
-0.299810 49.744652 0.000297
0.015540 49.744652 0.000582
0.330890 49.744652 0.000364
0.646240 49.744652 -0.000072
0.961589 49.744652 -0.000162
1.276940 49.744652 -0.001084
1.592289 49.744652 -0.001748
1.907640 49.744652 -0.001226
2.222990 49.744652 -0.000323
2.538340 49.744652 0.007001
2.853690 49.744652 0.105602
3.169039 49.744652 -0.033544
3.484390 49.744652 -0.055485
3.799739 49.744652 1.352948
4.115090 49.744652 -2.454794
4.430439 49.744652 -0.524979
4.745790 49.744652 0.578907
5.061140 49.744652 0.000000
5.376490 49.744652 0.000000
5.691840 49.744652 0.000000
6.007189 49.744652 0.475516
6.322540 49.744652 0.692094
6.637889 49.744652 0.013307
6.953240 49.744652 -0.148524
7.268589 49.744652 -0.224314
7.583940 49.744652 0.052045
7.899290 49.744652 0.043901
8.214640 49.744652 0.148573
8.529989 49.744652 0.330476
8.845339 49.744652 0.251730
9.160688 49.744652 0.342068
9.476040 49.744652 0.311663
9.791389 49.744652 0.362759
10.106739 49.744652 0.397934
10.422089 49.744652 0.438179
10.737438 49.744652 0.396298
11.052790 49.744652 0.423989
11.368139 49.744652 0.489148
11.683489 49.744652 0.548621
11.998838 49.744652 0.610548
12.314190 49.744652 0.696659
12.629539 49.744652 0.775909
12.944889 49.744652 0.803130
13.260239 49.744652 0.825966
13.575588 49.744652 0.837550
13.890940 49.744652 0.821281
14.206289 49.744652 0.842517
14.521639 49.744652 0.836216
14.836988 49.744652 0.788416
15.152340 49.744652 0.763235
15.467690 49.744652 0.752181
15.783039 49.744652 0.759314
16.098389 49.744652 0.775462
16.413738 49.744652 0.732690
16.729090 49.744652 0.548520
17.044439 49.744652 0.227611
17.359789 49.744652 -0.166981
17.675138 49.744652 -0.483607
17.990490 49.744652 -0.656083
18.305840 49.744652 -0.671494
18.621189 49.744652 -0.694198
18.936539 49.744652 -0.613212
19.251888 49.744652 0.000000
-7.237510 49.429302 0.000000
-6.922160 49.429302 0.000000
-6.606810 49.429302 0.001323
-6.291460 49.429302 0.001257
-5.976110 49.429302 0.001115
-5.660760 49.429302 0.001160
-5.345410 49.429302 0.001144
-5.030060 49.429302 0.000924
-4.714710 49.429302 0.000610
-4.399360 49.429302 0.000344
-4.084010 49.429302 0.000301
-3.768660 49.429302 0.000377
-3.453310 49.429302 0.000563
-3.137960 49.429302 0.000990
-2.822610 49.429302 0.001064
-2.507260 49.429302 0.001101
-2.191910 49.429302 0.001012
-1.876560 49.429302 0.000954
-1.561210 49.429302 0.000858
-1.245860 49.429302 0.000626
-0.930510 49.429302 0.000683
-0.615160 49.429302 0.000726
-0.299810 49.429302 0.000707
0.015540 49.429302 0.000766
0.330890 49.429302 0.000486
0.646240 49.429302 0.000295
0.961589 49.429302 0.000398
1.276940 49.429302 0.000442
1.592289 49.429302 0.000550
1.907640 49.429302 0.000662
2.222990 49.429302 0.000775
2.538340 49.429302 0.000654
2.853690 49.429302 0.000424
3.169039 49.429302 0.000445
3.484390 49.429302 0.000329
3.799739 49.429302 0.000238
4.115090 49.429302 0.000441
4.430439 49.429302 0.000679
4.745790 49.429302 0.000756
5.061140 49.429302 0.000655
5.376490 49.429302 0.000598
5.691840 49.429302 0.001023
6.007189 49.429302 0.001838
6.322540 49.429302 0.002246
6.637889 49.429302 0.003240
6.953240 49.429302 0.005621
7.268589 49.429302 0.009299
7.583940 49.429302 0.015494
7.899290 49.429302 0.025357
8.214640 49.429302 0.043187
8.529989 49.429302 0.069851
8.845339 49.429302 0.111496
9.160688 49.429302 0.170869
9.476040 49.429302 0.247927
9.791389 49.429302 0.344808
10.106739 49.429302 0.434773
10.422089 49.429302 0.534907
10.737438 49.429302 0.623229
11.052790 49.429302 0.728519
11.368139 49.429302 0.826555
11.683489 49.429302 0.903920
11.998838 49.429302 0.989196
12.314190 49.429302 1.061754
12.629539 49.429302 1.113536
12.944889 49.429302 1.127964
13.260239 49.429302 1.131712
13.575588 49.429302 1.141254
13.890940 49.429302 1.123551
14.206289 49.429302 1.078930
14.521639 49.429302 1.026790
14.836988 49.429302 0.952698
15.152340 49.429302 0.869679
15.467690 49.429302 0.802260
15.783039 49.429302 0.812477
16.098389 49.429302 0.802208
16.413738 49.429302 0.756739
16.729090 49.429302 0.548630
17.044439 49.429302 0.214396
17.359789 49.429302 -0.195940
17.675138 49.429302 -0.528810
17.990490 49.429302 -0.760547
18.305840 49.429302 -0.761523
18.621189 49.429302 -0.731094
18.936539 49.429302 -0.696000
19.251888 49.429302 0.000000
-7.237510 49.113949 0.000000
-6.922160 49.113949 0.000000
-6.606810 49.113949 0.001548
-6.291460 49.113949 0.001170
-5.976110 49.113949 0.001010
-5.660760 49.113949 0.001254
-5.345410 49.113949 0.001406
-5.030060 49.113949 0.001173
-4.714710 49.113949 0.000847
-4.399360 49.113949 0.000733
-4.084010 49.113949 0.000583
-3.768660 49.113949 0.000458
-3.453310 49.113949 0.000572
-3.137960 49.113949 0.000964
-2.822610 49.113949 0.001118
-2.507260 49.113949 0.001083
-2.191910 49.113949 0.000924
-1.876560 49.113949 0.000836
-1.561210 49.113949 0.000824
-1.245860 49.113949 0.000656
-0.930510 49.113949 0.000680
-0.615160 49.113949 0.000707
-0.299810 49.113949 0.000667
0.015540 49.113949 0.000707
0.330890 49.113949 0.000556
0.646240 49.113949 0.000427
0.961589 49.113949 0.000405
1.276940 49.113949 0.000443
1.592289 49.113949 0.000529
1.907640 49.113949 0.000692
2.222990 49.113949 0.000763
2.538340 49.113949 0.000554
2.853690 49.113949 0.000385
3.169039 49.113949 0.000364
3.484390 49.113949 0.000257
3.799739 49.113949 0.000244
4.115090 49.113949 0.000405
4.430439 49.113949 0.000500
4.745790 49.113949 0.000551
5.061140 49.113949 0.000518
5.376490 49.113949 0.000526
5.691840 49.113949 0.000959
6.007189 49.113949 0.001703
6.322540 49.113949 0.002107
6.637889 49.113949 0.002726
6.953240 49.113949 0.004576
7.268589 49.113949 0.007983
7.583940 49.113949 0.013521
7.899290 49.113949 0.022693
8.214640 49.113949 0.037901
8.529989 49.113949 0.065240
8.845339 49.113949 0.102184
9.160688 49.113949 0.163039
9.476040 49.113949 0.242473
9.791389 49.113949 0.333261
10.106739 49.113949 0.429008
10.422089 49.113949 0.518614
10.737438 49.113949 0.611143
11.052790 49.113949 0.710629
11.368139 49.113949 0.809794
11.683489 49.113949 0.900506
11.998838 49.113949 0.974559
12.314190 49.113949 1.033525
12.629539 49.113949 1.088008
12.944889 49.113949 1.106076
13.260239 49.113949 1.115230
13.575588 49.113949 1.097364
13.890940 49.113949 1.090517
14.206289 49.113949 1.060327
14.521639 49.113949 1.005448
14.836988 49.113949 0.919061
15.152340 49.113949 0.833136
15.467690 49.113949 0.778622
15.783039 49.113949 0.783580
16.098389 49.113949 0.744870
16.413738 49.113949 0.742921
16.729090 49.113949 0.526353
17.044439 49.113949 0.197308
17.359789 49.113949 -0.210081
17.675138 49.113949 -0.489864
17.990490 49.113949 -0.734856
18.305840 49.113949 -0.763399
18.621189 49.113949 -0.675132
18.936539 49.113949 -0.740384
19.251888 49.113949 0.000000
-7.237510 48.798599 0.000000
-6.922160 48.798599 0.000000
-6.606810 48.798599 0.001160
-6.291460 48.798599 0.000928
-5.976110 48.798599 0.000950
-5.660760 48.798599 0.001286
-5.345410 48.798599 0.001530
-5.030060 48.798599 0.001371
-4.714710 48.798599 0.001189
-4.399360 48.798599 0.001064
-4.084010 48.798599 0.000892
-3.768660 48.798599 0.000620
-3.453310 48.798599 0.000658
-3.137960 48.798599 0.000926
-2.822610 48.798599 0.001151
-2.507260 48.798599 0.001046
-2.191910 48.798599 0.000782
-1.876560 48.798599 0.000743
-1.561210 48.798599 0.000792
-1.245860 48.798599 0.000644
-0.930510 48.798599 0.000662
-0.615160 48.798599 0.000691
-0.299810 48.798599 0.000662
0.015540 48.798599 0.000693
0.330890 48.798599 0.000681
0.646240 48.798599 0.000588
0.961589 48.798599 0.000487
1.276940 48.798599 0.000445
1.592289 48.798599 0.000534
1.907640 48.798599 0.000688
2.222990 48.798599 0.000725
2.538340 48.798599 0.000522
2.853690 48.798599 0.000294
3.169039 48.798599 0.000285
3.484390 48.798599 0.000226
3.799739 48.798599 0.000304
4.115090 48.798599 0.000389
4.430439 48.798599 0.000397
4.745790 48.798599 0.000383
5.061140 48.798599 0.000402
5.376490 48.798599 0.000510
5.691840 48.798599 0.000979
6.007189 48.798599 0.001515
6.322540 48.798599 0.001880
6.637889 48.798599 0.002496
6.953240 48.798599 0.003849
7.268589 48.798599 0.007116
7.583940 48.798599 0.012085
7.899290 48.798599 0.021983
8.214640 48.798599 0.036652
8.529989 48.798599 0.059912
8.845339 48.798599 0.100540
9.160688 48.798599 0.158281
9.476040 48.798599 0.234426
9.791389 48.798599 0.328813
10.106739 48.798599 0.415292
10.422089 48.798599 0.519465
10.737438 48.798599 0.599205
11.052790 48.798599 0.691648
11.368139 48.798599 0.783956
11.683489 48.798599 0.894167
11.998838 48.798599 0.969474
12.314190 48.798599 1.032813
12.629539 48.798599 1.065561
12.944889 48.798599 1.103321
13.260239 48.798599 1.113443
13.575588 48.798599 1.099508
13.890940 48.798599 1.063210
14.206289 48.798599 1.045545
14.521639 48.798599 0.978805
14.836988 48.798599 0.905545
15.152340 48.798599 0.828555
15.467690 48.798599 0.775772
15.783039 48.798599 0.781711
16.098389 48.798599 0.758663
16.413738 48.798599 0.726162
16.729090 48.798599 0.542050
17.044439 48.798599 0.235312
17.359789 48.798599 -0.184287
17.675138 48.798599 -0.509098
17.990490 48.798599 -0.760083
18.305840 48.798599 -0.827659
18.621189 48.798599 -0.819663
18.936539 48.798599 -0.763513
19.251888 48.798599 0.000000
-7.237510 48.483250 0.000000
-6.922160 48.483250 0.000000
-6.606810 48.483250 0.000972
-6.291460 48.483250 0.000807
-5.976110 48.483250 0.001006
-5.660760 48.483250 0.001347
-5.345410 48.483250 0.001570
-5.030060 48.483250 0.001464
-4.714710 48.483250 0.001344
-4.399360 48.483250 0.001323
-4.084010 48.483250 0.001142
-3.768660 48.483250 0.000871
-3.453310 48.483250 0.000745
-3.137960 48.483250 0.000902
-2.822610 48.483250 0.001196
-2.507260 48.483250 0.000952
-2.191910 48.483250 0.000689
-1.876560 48.483250 0.000680
-1.561210 48.483250 0.000695
-1.245860 48.483250 0.000619
-0.930510 48.483250 0.000656
-0.615160 48.483250 0.000676
-0.299810 48.483250 0.000603
0.015540 48.483250 0.000724
0.330890 48.483250 0.000777
0.646240 48.483250 0.000712
0.961589 48.483250 0.000560
1.276940 48.483250 0.000451
1.592289 48.483250 0.000581
1.907640 48.483250 0.000723
2.222990 48.483250 0.000694
2.538340 48.483250 0.000539
2.853690 48.483250 0.000347
3.169039 48.483250 0.000249
3.484390 48.483250 0.000286
3.799739 48.483250 0.000400
4.115090 48.483250 0.000511
4.430439 48.483250 0.000395
4.745790 48.483250 0.000294
5.061140 48.483250 0.000415
5.376490 48.483250 0.000565
5.691840 48.483250 0.000895
6.007189 48.483250 0.001259
6.322540 48.483250 0.001661
6.637889 48.483250 0.002317
6.953240 48.483250 0.004145
7.268589 48.483250 0.007068
7.583940 48.483250 0.011679
7.899290 48.483250 0.019384
8.214640 48.483250 0.034935
8.529989 48.483250 0.060254
8.845339 48.483250 0.099306
9.160688 48.483250 0.153254
9.476040 48.483250 0.240368
9.791389 48.483250 0.325602
10.106739 48.483250 0.417164
10.422089 48.483250 0.509696
10.737438 48.483250 0.592428
11.052790 48.483250 0.686076
11.368139 48.483250 0.787632
11.683489 48.483250 0.887885
11.998838 48.483250 0.974093
12.314190 48.483250 1.050560
12.629539 48.483250 1.065934
12.944889 48.483250 1.099433
13.260239 48.483250 1.114406
13.575588 48.483250 1.102789
13.890940 48.483250 1.068743
14.206289 48.483250 1.038207
14.521639 48.483250 0.976637
14.836988 48.483250 0.898455
15.152340 48.483250 0.824915
15.467690 48.483250 0.777877
15.783039 48.483250 0.752549
16.098389 48.483250 0.768374
16.413738 48.483250 0.717326
16.729090 48.483250 0.528837
17.044439 48.483250 0.181374
17.359789 48.483250 -0.185487
17.675138 48.483250 -0.549058
17.990490 48.483250 -0.770482
18.305840 48.483250 -0.805448
18.621189 48.483250 -0.799126
18.936539 48.483250 -0.860834
19.251888 48.483250 0.000000
-7.237510 48.167900 0.000000
-6.922160 48.167900 0.000000
-6.606810 48.167900 0.001156
-6.291460 48.167900 0.000813
-5.976110 48.167900 0.001122
-5.660760 48.167900 0.001428
-5.345410 48.167900 0.001472
-5.030060 48.167900 0.001408
-4.714710 48.167900 0.001398
-4.399360 48.167900 0.001404
-4.084010 48.167900 0.001253
-3.768660 48.167900 0.000972
-3.453310 48.167900 0.000777
-3.137960 48.167900 0.000929
-2.822610 48.167900 0.001179
-2.507260 48.167900 0.000945
-2.191910 48.167900 0.000652
-1.876560 48.167900 0.000585
-1.561210 48.167900 0.000631
-1.245860 48.167900 0.000617
-0.930510 48.167900 0.000632
-0.615160 48.167900 0.000655
-0.299810 48.167900 0.000566
0.015540 48.167900 0.000690
0.330890 48.167900 0.000810
0.646240 48.167900 0.000732
0.961589 48.167900 0.000542
1.276940 48.167900 0.000434
1.592289 48.167900 0.000614
1.907640 48.167900 0.000760
2.222990 48.167900 0.000735
2.538340 48.167900 0.000568
2.853690 48.167900 0.000469
3.169039 48.167900 0.000334
3.484390 48.167900 0.000358
3.799739 48.167900 0.000557
4.115090 48.167900 0.000631
4.430439 48.167900 0.000403
4.745790 48.167900 0.000340
5.061140 48.167900 0.000675
5.376490 48.167900 0.000826
5.691840 48.167900 0.000769
6.007189 48.167900 0.001016
6.322540 48.167900 0.001650
6.637889 48.167900 0.002237
6.953240 48.167900 0.004004
7.268589 48.167900 0.006650
7.583940 48.167900 0.011494
7.899290 48.167900 0.020673
8.214640 48.167900 0.034113
8.529989 48.167900 0.059455
8.845339 48.167900 0.100654
9.160688 48.167900 0.157841
9.476040 48.167900 0.233229
9.791389 48.167900 0.316729
10.106739 48.167900 0.421994
10.422089 48.167900 0.516082
10.737438 48.167900 0.595448
11.052790 48.167900 0.691999
11.368139 48.167900 0.793503
11.683489 48.167900 0.893997
11.998838 48.167900 0.967776
12.314190 48.167900 1.041657
12.629539 48.167900 1.074386
12.944889 48.167900 1.113003
13.260239 48.167900 1.123572
13.575588 48.167900 1.118707
13.890940 48.167900 1.102307
14.206289 48.167900 1.034994
14.521639 48.167900 0.976172
14.836988 48.167900 0.879713
15.152340 48.167900 0.799569
15.467690 48.167900 0.749961
15.783039 48.167900 0.748676
16.098389 48.167900 0.761170
16.413738 48.167900 0.723978
16.729090 48.167900 0.549092
17.044439 48.167900 0.221539
17.359789 48.167900 -0.183135
17.675138 48.167900 -0.569377
17.990490 48.167900 -0.813680
18.305840 48.167900 -0.860730
18.621189 48.167900 -0.798470
18.936539 48.167900 -0.783399
19.251888 48.167900 0.000000
-7.237510 47.852551 0.000000
-6.922160 47.852551 0.000000
-6.606810 47.852551 0.001124
-6.291460 47.852551 0.000860
-5.976110 47.852551 0.001149
-5.660760 47.852551 0.001401
-5.345410 47.852551 0.001360
-5.030060 47.852551 0.001273
-4.714710 47.852551 0.001387
-4.399360 47.852551 0.001400
-4.084010 47.852551 0.001280
-3.768660 47.852551 0.001065
-3.453310 47.852551 0.000803
-3.137960 47.852551 0.000925
-2.822610 47.852551 0.001087
-2.507260 47.852551 0.000902
-2.191910 47.852551 0.000739
-1.876560 47.852551 0.000636
-1.561210 47.852551 0.000684
-1.245860 47.852551 0.000672
-0.930510 47.852551 0.000681
-0.615160 47.852551 0.000632
-0.299810 47.852551 0.000550
0.015540 47.852551 0.000673
0.330890 47.852551 0.000807
0.646240 47.852551 0.000738
0.961589 47.852551 0.000520
1.276940 47.852551 0.000381
1.592289 47.852551 0.000640
1.907640 47.852551 0.000805
2.222990 47.852551 0.000686
2.538340 47.852551 0.000611
2.853690 47.852551 0.000508
3.169039 47.852551 0.000386
3.484390 47.852551 0.000428
3.799739 47.852551 0.000661
4.115090 47.852551 0.000717
4.430439 47.852551 0.000435
4.745790 47.852551 0.000420
5.061140 47.852551 0.000824
5.376490 47.852551 0.000859
5.691840 47.852551 0.000806
6.007189 47.852551 0.000967
6.322540 47.852551 0.001672
6.637889 47.852551 0.002272
6.953240 47.852551 0.003705
7.268589 47.852551 0.006971
7.583940 47.852551 0.012088
7.899290 47.852551 0.020055
8.214640 47.852551 0.035533
8.529989 47.852551 0.059056
8.845339 47.852551 0.100845
9.160688 47.852551 0.156401
9.476040 47.852551 0.229261
9.791389 47.852551 0.329328
10.106739 47.852551 0.433942
10.422089 47.852551 0.529354
10.737438 47.852551 0.600876
11.052790 47.852551 0.694932
11.368139 47.852551 0.801165
11.683489 47.852551 0.901140
11.998838 47.852551 0.981801
12.314190 47.852551 1.041941
12.629539 47.852551 1.087289
12.944889 47.852551 1.123796
13.260239 47.852551 1.143214
13.575588 47.852551 1.115161
13.890940 47.852551 1.095079
14.206289 47.852551 1.051964
14.521639 47.852551 0.966085
14.836988 47.852551 0.875442
15.152340 47.852551 0.791832
15.467690 47.852551 0.739069
15.783039 47.852551 0.729771
16.098389 47.852551 0.714918
16.413738 47.852551 0.723836
16.729090 47.852551 0.537934
17.044439 47.852551 0.251164
17.359789 47.852551 -0.185647
17.675138 47.852551 -0.586893
17.990490 47.852551 -0.791259
18.305840 47.852551 -0.837747
18.621189 47.852551 -0.782405
18.936539 47.852551 -0.649974
19.251888 47.852551 0.000000
-7.237510 47.537201 0.000000
-6.922160 47.537201 0.000000
-6.606810 47.537201 0.001178
-6.291460 47.537201 0.000919
-5.976110 47.537201 0.001153
-5.660760 47.537201 0.001252
-5.345410 47.537201 0.001124
-5.030060 47.537201 0.001099
-4.714710 47.537201 0.001217
-4.399360 47.537201 0.001319
-4.084010 47.537201 0.001264
-3.768660 47.537201 0.001083
-3.453310 47.537201 0.000876
-3.137960 47.537201 0.000970
-2.822610 47.537201 0.000993
-2.507260 47.537201 0.000956
-2.191910 47.537201 0.000953
-1.876560 47.537201 0.000865
-1.561210 47.537201 0.000887
-1.245860 47.537201 0.000779
-0.930510 47.537201 0.000779
-0.615160 47.537201 0.000703
-0.299810 47.537201 0.000585
0.015540 47.537201 0.000726
0.330890 47.537201 0.000849
0.646240 47.537201 0.000765
0.961589 47.537201 0.000544
1.276940 47.537201 0.000456
1.592289 47.537201 0.000646
1.907640 47.537201 0.000802
2.222990 47.537201 0.000669
2.538340 47.537201 0.000626
2.853690 47.537201 0.000551
3.169039 47.537201 0.000425
3.484390 47.537201 0.000471
3.799739 47.537201 0.000612
4.115090 47.537201 0.000653
4.430439 47.537201 0.000437
4.745790 47.537201 0.000455
5.061140 47.537201 0.000818
5.376490 47.537201 0.001010
5.691840 47.537201 0.000933
6.007189 47.537201 0.001071
6.322540 47.537201 0.001439
6.637889 47.537201 0.002781
6.953240 47.537201 0.003965
7.268589 47.537201 0.006492
7.583940 47.537201 0.011753
7.899290 47.537201 0.020126
8.214640 47.537201 0.035522
8.529989 47.537201 0.057583
8.845339 47.537201 0.100370
9.160688 47.537201 0.161955
9.476040 47.537201 0.242297
9.791389 47.537201 0.333970
10.106739 47.537201 0.433344
10.422089 47.537201 0.530063
10.737438 47.537201 0.608270
11.052790 47.537201 0.709206
11.368139 47.537201 0.803104
11.683489 47.537201 0.906262
11.998838 47.537201 1.001124
12.314190 47.537201 1.047690
12.629539 47.537201 1.092236
12.944889 47.537201 1.126670
13.260239 47.537201 1.125786
13.575588 47.537201 1.125248
13.890940 47.537201 1.086237
14.206289 47.537201 1.041899
14.521639 47.537201 0.969882
14.836988 47.537201 0.890146
15.152340 47.537201 0.774854
15.467690 47.537201 0.719071
15.783039 47.537201 0.709563
16.098389 47.537201 0.704033
16.413738 47.537201 0.700196
16.729090 47.537201 0.559410
17.044439 47.537201 0.285189
17.359789 47.537201 -0.180986
17.675138 47.537201 -0.581479
17.990490 47.537201 -0.758940
18.305840 47.537201 -0.719501
18.621189 47.537201 -0.722542
18.936539 47.537201 -0.642816
19.251888 47.537201 0.000000
-7.237510 47.221851 0.000000
-6.922160 47.221851 0.000000
-6.606810 47.221851 0.001290
-6.291460 47.221851 0.001113
-5.976110 47.221851 0.001140
-5.660760 47.221851 0.001060
-5.345410 47.221851 0.000928
-5.030060 47.221851 0.000908
-4.714710 47.221851 0.001059
-4.399360 47.221851 0.001240
-4.084010 47.221851 0.001249
-3.768660 47.221851 0.001113
-3.453310 47.221851 0.001019
-3.137960 47.221851 0.001046
-2.822610 47.221851 0.001010
-2.507260 47.221851 0.001067
-2.191910 47.221851 0.001165
-1.876560 47.221851 0.001093
-1.561210 47.221851 0.001113
-1.245860 47.221851 0.000951
-0.930510 47.221851 0.000956
-0.615160 47.221851 0.000820
-0.299810 47.221851 0.000610
0.015540 47.221851 0.000755
0.330890 47.221851 0.000891
0.646240 47.221851 0.000806
0.961589 47.221851 0.000628
1.276940 47.221851 0.000554
1.592289 47.221851 0.000656
1.907640 47.221851 0.000695
2.222990 47.221851 0.000630
2.538340 47.221851 0.000624
2.853690 47.221851 0.000600
3.169039 47.221851 0.000485
3.484390 47.221851 0.000468
3.799739 47.221851 0.000474
4.115090 47.221851 0.000510
4.430439 47.221851 0.000311
4.745790 47.221851 0.000357
5.061140 47.221851 0.000829
5.376490 47.221851 0.001008
5.691840 47.221851 0.000990
6.007189 47.221851 0.001128
6.322540 47.221851 0.001610
6.637889 47.221851 0.002487
6.953240 47.221851 0.003836
7.268589 47.221851 0.006845
7.583940 47.221851 0.011231
7.899290 47.221851 0.018108
8.214640 47.221851 0.034543
8.529989 47.221851 0.058462
8.845339 47.221851 0.098954
9.160688 47.221851 0.166792
9.476040 47.221851 0.244385
9.791389 47.221851 0.332380
10.106739 47.221851 0.426376
10.422089 47.221851 0.506023
10.737438 47.221851 0.605283
11.052790 47.221851 0.709299
11.368139 47.221851 0.816165
11.683489 47.221851 0.919057
11.998838 47.221851 1.002774
12.314190 47.221851 1.078337
12.629539 47.221851 1.104073
12.944889 47.221851 1.131393
13.260239 47.221851 1.140075
13.575588 47.221851 1.140056
13.890940 47.221851 1.089523
14.206289 47.221851 1.023993
14.521639 47.221851 0.980774
14.836988 47.221851 0.883506
15.152340 47.221851 0.790488
15.467690 47.221851 0.694114
15.783039 47.221851 0.673090
16.098389 47.221851 0.679368
16.413738 47.221851 0.663103
16.729090 47.221851 0.570903
17.044439 47.221851 0.308384
17.359789 47.221851 -0.184682
17.675138 47.221851 -0.604513
17.990490 47.221851 -0.768258
18.305840 47.221851 -0.679623
18.621189 47.221851 -0.708405
18.936539 47.221851 -0.672765
19.251888 47.221851 0.000000
-7.237510 46.906502 0.000000
-6.922160 46.906502 0.000000
-6.606810 46.906502 0.001443
-6.291460 46.906502 0.001239
-5.976110 46.906502 0.001081
-5.660760 46.906502 0.000902
-5.345410 46.906502 0.000840
-5.030060 46.906502 0.000807
-4.714710 46.906502 0.000929
-4.399360 46.906502 0.001190
-4.084010 46.906502 0.001246
-3.768660 46.906502 0.001137
-3.453310 46.906502 0.001124
-3.137960 46.906502 0.001175
-2.822610 46.906502 0.001094
-2.507260 46.906502 0.001166
-2.191910 46.906502 0.001303
-1.876560 46.906502 0.001287
-1.561210 46.906502 0.001211
-1.245860 46.906502 0.001118
-0.930510 46.906502 0.001040
-0.615160 46.906502 0.000874
-0.299810 46.906502 0.000704
0.015540 46.906502 0.000774
0.330890 46.906502 0.000879
0.646240 46.906502 0.000817
0.961589 46.906502 0.000738
1.276940 46.906502 0.000626
1.592289 46.906502 0.000604
1.907640 46.906502 0.000550
2.222990 46.906502 0.000531
2.538340 46.906502 0.000634
2.853690 46.906502 0.000654
3.169039 46.906502 0.000583
3.484390 46.906502 0.000467
3.799739 46.906502 0.000332
4.115090 46.906502 0.000288
4.430439 46.906502 0.000250
4.745790 46.906502 0.000291
5.061140 46.906502 0.000670
5.376490 46.906502 0.000917
5.691840 46.906502 0.001004
6.007189 46.906502 0.000997
6.322540 46.906502 0.001434
6.637889 46.906502 0.002352
6.953240 46.906502 0.003969
7.268589 46.906502 0.006681
7.583940 46.906502 0.010612
7.899290 46.906502 0.019584
8.214640 46.906502 0.032243
8.529989 46.906502 0.055134
8.845339 46.906502 0.098750
9.160688 46.906502 0.169995
9.476040 46.906502 0.250156
9.791389 46.906502 0.333771
10.106739 46.906502 0.424128
10.422089 46.906502 0.510371
10.737438 46.906502 0.603946
11.052790 46.906502 0.704638
11.368139 46.906502 0.814757
11.683489 46.906502 0.916142
11.998838 46.906502 0.998622
12.314190 46.906502 1.071497
12.629539 46.906502 1.111367
12.944889 46.906502 1.138786
13.260239 46.906502 1.148656
13.575588 46.906502 1.145670
13.890940 46.906502 1.079588
14.206289 46.906502 1.046648
14.521639 46.906502 0.967838
14.836988 46.906502 0.881315
15.152340 46.906502 0.771794
15.467690 46.906502 0.690348
15.783039 46.906502 0.665337
16.098389 46.906502 0.639502
16.413738 46.906502 0.644065
16.729090 46.906502 0.600043
17.044439 46.906502 0.365826
17.359789 46.906502 -0.192934
17.675138 46.906502 -0.685610
17.990490 46.906502 -0.728579
18.305840 46.906502 -0.824453
18.621189 46.906502 -0.764966
18.936539 46.906502 -0.657762
19.251888 46.906502 0.000000
-7.237510 46.591152 0.000000
-6.922160 46.591152 0.000000
-6.606810 46.591152 0.001621
-6.291460 46.591152 0.001390
-5.976110 46.591152 0.001102
-5.660760 46.591152 0.000924
-5.345410 46.591152 0.000885
-5.030060 46.591152 0.000811
-4.714710 46.591152 0.000992
-4.399360 46.591152 0.001157
-4.084010 46.591152 0.001154
-3.768660 46.591152 0.001188
-3.453310 46.591152 0.001167
-3.137960 46.591152 0.001212
-2.822610 46.591152 0.001166
-2.507260 46.591152 0.001285
-2.191910 46.591152 0.001423
-1.876560 46.591152 0.001403
-1.561210 46.591152 0.001234
-1.245860 46.591152 0.001138
-0.930510 46.591152 0.001042
-0.615160 46.591152 0.000859
-0.299810 46.591152 0.000775
0.015540 46.591152 0.000793
0.330890 46.591152 0.000734
0.646240 46.591152 0.000656
0.961589 46.591152 0.000687
1.276940 46.591152 0.000652
1.592289 46.591152 0.000546
1.907640 46.591152 0.000480
2.222990 46.591152 0.000516
2.538340 46.591152 0.000646
2.853690 46.591152 0.000735
3.169039 46.591152 0.000675
3.484390 46.591152 0.000440
3.799739 46.591152 0.000238
4.115090 46.591152 0.000117
4.430439 46.591152 0.000132
4.745790 46.591152 0.000263
5.061140 46.591152 0.000492
5.376490 46.591152 0.000776
5.691840 46.591152 0.000975
6.007189 46.591152 0.001159
6.322540 46.591152 0.001295
6.637889 46.591152 0.002071
6.953240 46.591152 0.004015
7.268589 46.591152 0.007003
7.583940 46.591152 0.010811
7.899290 46.591152 0.018058
8.214640 46.591152 0.031650
8.529989 46.591152 0.057989
8.845339 46.591152 0.099241
9.160688 46.591152 0.162956
9.476040 46.591152 0.242225
9.791389 46.591152 0.327982
10.106739 46.591152 0.421359
10.422089 46.591152 0.513457
10.737438 46.591152 0.599474
11.052790 46.591152 0.703219
11.368139 46.591152 0.805696
11.683489 46.591152 0.908081
11.998838 46.591152 1.017441
12.314190 46.591152 1.064856
12.629539 46.591152 1.125660
12.944889 46.591152 1.139681
13.260239 46.591152 1.148389
13.575588 46.591152 1.143513
13.890940 46.591152 1.092555
14.206289 46.591152 1.035794
14.521639 46.591152 0.968007
14.836988 46.591152 0.865991
15.152340 46.591152 0.788818
15.467690 46.591152 0.675464
15.783039 46.591152 0.628422
16.098389 46.591152 0.627148
16.413738 46.591152 0.674599
16.729090 46.591152 0.687090
17.044439 46.591152 0.400506
17.359789 46.591152 -0.159157
17.675138 46.591152 -0.585552
17.990490 46.591152 -0.758933
18.305840 46.591152 -0.676053
18.621189 46.591152 -0.783319
18.936539 46.591152 -0.630225
19.251888 46.591152 0.000000
-7.237510 46.275803 0.000000
-6.922160 46.275803 0.000000
-6.606810 46.275803 0.001755
-6.291460 46.275803 0.001542
-5.976110 46.275803 0.001255
-5.660760 46.275803 0.001154
-5.345410 46.275803 0.001078
-5.030060 46.275803 0.000992
-4.714710 46.275803 0.001072
-4.399360 46.275803 0.001166
-4.084010 46.275803 0.001155
-3.768660 46.275803 0.001155
-3.453310 46.275803 0.001189
-3.137960 46.275803 0.001244
-2.822610 46.275803 0.001236
-2.507260 46.275803 0.001375
-2.191910 46.275803 0.001454
-1.876560 46.275803 0.001351
-1.561210 46.275803 0.001260
-1.245860 46.275803 0.001091
-0.930510 46.275803 0.000970
-0.615160 46.275803 0.000834
-0.299810 46.275803 0.000828
0.015540 46.275803 0.000801
0.330890 46.275803 0.000611
0.646240 46.275803 0.000561
0.961589 46.275803 0.000667
1.276940 46.275803 0.000736
1.592289 46.275803 0.000580
1.907640 46.275803 0.000476
2.222990 46.275803 0.000523
2.538340 46.275803 0.000633
2.853690 46.275803 0.000764
3.169039 46.275803 0.000719
3.484390 46.275803 0.000439
3.799739 46.275803 0.000199
4.115090 46.275803 0.000107
4.430439 46.275803 0.000149
4.745790 46.275803 0.000169
5.061140 46.275803 0.000258
5.376490 46.275803 0.000617
5.691840 46.275803 0.000959
6.007189 46.275803 0.001012
6.322540 46.275803 0.001201
6.637889 46.275803 0.001920
6.953240 46.275803 0.004108
7.268589 46.275803 0.007050
7.583940 46.275803 0.011076
7.899290 46.275803 0.019678
8.214640 46.275803 0.033901
8.529989 46.275803 0.058096
8.845339 46.275803 0.101619
9.160688 46.275803 0.163911
9.476040 46.275803 0.242140
9.791389 46.275803 0.327679
10.106739 46.275803 0.422495
10.422089 46.275803 0.510929
10.737438 46.275803 0.602547
11.052790 46.275803 0.708092
11.368139 46.275803 0.815679
11.683489 46.275803 0.924641
11.998838 46.275803 0.999780
12.314190 46.275803 1.068692
12.629539 46.275803 1.124569
12.944889 46.275803 1.147399
13.260239 46.275803 1.163731
13.575588 46.275803 1.161548
13.890940 46.275803 1.106014
14.206289 46.275803 1.045025
14.521639 46.275803 0.960283
14.836988 46.275803 0.883783
15.152340 46.275803 0.780158
15.467690 46.275803 0.686879
15.783039 46.275803 0.556798
16.098389 46.275803 0.563903
16.413738 46.275803 0.691519
16.729090 46.275803 0.721127
17.044439 46.275803 0.478949
17.359789 46.275803 -0.095193
17.675138 46.275803 -0.435436
17.990490 46.275803 -0.687158
18.305840 46.275803 -3.049093
18.621189 46.275803 -0.655917
18.936539 46.275803 -0.719652
19.251888 46.275803 0.000000
-7.237510 45.960449 0.000000
-6.922160 45.960449 0.000000
-6.606810 45.960449 0.001630
-6.291460 45.960449 0.001513
-5.976110 45.960449 0.001381
-5.660760 45.960449 0.001376
-5.345410 45.960449 0.001337
-5.030060 45.960449 0.001206
-4.714710 45.960449 0.001239
-4.399360 45.960449 0.001275
-4.084010 45.960449 0.001176
-3.768660 45.960449 0.001156
-3.453310 45.960449 0.001211
-3.137960 45.960449 0.001325
-2.822610 45.960449 0.001306
-2.507260 45.960449 0.001303
-2.191910 45.960449 0.001327
-1.876560 45.960449 0.001320
-1.561210 45.960449 0.001230
-1.245860 45.960449 0.001030
-0.930510 45.960449 0.000888
-0.615160 45.960449 0.000761
-0.299810 45.960449 0.000784
0.015540 45.960449 0.000719
0.330890 45.960449 0.000575
0.646240 45.960449 0.000553
0.961589 45.960449 0.000860
1.276940 45.960449 0.000888
1.592289 45.960449 0.000689
1.907640 45.960449 0.000474
2.222990 45.960449 0.000507
2.538340 45.960449 0.000647
2.853690 45.960449 0.000807
3.169039 45.960449 0.000759
3.484390 45.960449 0.000469
3.799739 45.960449 0.000234
4.115090 45.960449 0.000295
4.430439 45.960449 0.000291
4.745790 45.960449 0.000114
5.061140 45.960449 0.000093
5.376490 45.960449 0.000503
5.691840 45.960449 0.000873
6.007189 45.960449 0.000971
6.322540 45.960449 0.001211
6.637889 45.960449 0.001789
6.953240 45.960449 0.003727
7.268589 45.960449 0.006873
7.583940 45.960449 0.011647
7.899290 45.960449 0.020715
8.214640 45.960449 0.036586
8.529989 45.960449 0.058359
8.845339 45.960449 0.102449
9.160688 45.960449 0.159801
9.476040 45.960449 0.240524
9.791389 45.960449 0.329143
10.106739 45.960449 0.430846
10.422089 45.960449 0.511718
10.737438 45.960449 0.607909
11.052790 45.960449 0.712483
11.368139 45.960449 0.825039
11.683489 45.960449 0.916583
11.998838 45.960449 1.006538
12.314190 45.960449 1.064294
12.629539 45.960449 1.131729
12.944889 45.960449 1.147182
13.260239 45.960449 1.159464
13.575588 45.960449 1.160510
13.890940 45.960449 1.115314
14.206289 45.960449 1.039523
14.521639 45.960449 0.957894
14.836988 45.960449 0.864088
15.152340 45.960449 0.769807
15.467690 45.960449 0.671645
15.783039 45.960449 0.532362
16.098389 45.960449 0.767009
16.413738 45.960449 0.228135
16.729090 45.960449 0.706370
17.044439 45.960449 0.682363
17.359789 45.960449 0.175746
17.675138 45.960449 -1.607896
17.990490 45.960449 -2.262124
18.305840 45.960449 -6.768863
18.621189 45.960449 -0.700457
18.936539 45.960449 -0.710465
19.251888 45.960449 0.000000
-7.237510 45.645100 0.000000
-6.922160 45.645100 0.000000
-6.606810 45.645100 0.001422
-6.291460 45.645100 0.001340
-5.976110 45.645100 0.001323
-5.660760 45.645100 0.001421
-5.345410 45.645100 0.001529
-5.030060 45.645100 0.001435
-4.714710 45.645100 0.001360
-4.399360 45.645100 0.001395
-4.084010 45.645100 0.001314
-3.768660 45.645100 0.001262
-3.453310 45.645100 0.001286
-3.137960 45.645100 0.001412
-2.822610 45.645100 0.001285
-2.507260 45.645100 0.001218
-2.191910 45.645100 0.001119
-1.876560 45.645100 0.001194
-1.561210 45.645100 0.001164
-1.245860 45.645100 0.001012
-0.930510 45.645100 0.000817
-0.615160 45.645100 0.000748
-0.299810 45.645100 0.000756
0.015540 45.645100 0.000656
0.330890 45.645100 0.000573
0.646240 45.645100 0.000634
0.961589 45.645100 0.001001
1.276940 45.645100 0.001011
1.592289 45.645100 0.000809
1.907640 45.645100 0.000606
2.222990 45.645100 0.000589
2.538340 45.645100 0.000654
2.853690 45.645100 0.000806
3.169039 45.645100 0.000785
3.484390 45.645100 0.000499
3.799739 45.645100 0.000377
4.115090 45.645100 0.000470
4.430439 45.645100 0.000482
4.745790 45.645100 0.000159
5.061140 45.645100 0.000068
5.376490 45.645100 0.000493
5.691840 45.645100 0.000871
6.007189 45.645100 0.001053
6.322540 45.645100 0.001377
6.637889 45.645100 0.002101
6.953240 45.645100 0.004080
7.268589 45.645100 0.006816
7.583940 45.645100 0.011854
7.899290 45.645100 0.020883
8.214640 45.645100 0.036097
8.529989 45.645100 0.060562
8.845339 45.645100 0.103319
9.160688 45.645100 0.164290
9.476040 45.645100 0.247841
9.791389 45.645100 0.335156
10.106739 45.645100 0.422754
10.422089 45.645100 0.513889
10.737438 45.645100 0.617027
11.052790 45.645100 0.717320
11.368139 45.645100 0.826407
11.683489 45.645100 0.919999
11.998838 45.645100 1.000996
12.314190 45.645100 1.062443
12.629539 45.645100 1.120208
12.944889 45.645100 1.159603
13.260239 45.645100 1.166548
13.575588 45.645100 1.161318
13.890940 45.645100 1.113042
14.206289 45.645100 1.047116
14.521639 45.645100 0.951305
14.836988 45.645100 0.869735
15.152340 45.645100 0.788417
15.467690 45.645100 0.612251
15.783039 45.645100 0.539819
16.098389 45.645100 0.404430
16.413738 45.645100 4.879393
16.729090 45.645100 11.121050
17.044439 45.645100 0.000000
17.359789 45.645100 0.000000
17.675138 45.645100 0.000000
17.990490 45.645100 -1.796621
18.305840 45.645100 -1.626596
18.621189 45.645100 -0.802402
18.936539 45.645100 -0.719882
19.251888 45.645100 0.000000
-7.237510 45.329750 0.000000
-6.922160 45.329750 0.000000
-6.606810 45.329750 0.001175
-6.291460 45.329750 0.001129
-5.976110 45.329750 0.001242
-5.660760 45.329750 0.001471
-5.345410 45.329750 0.001632
-5.030060 45.329750 0.001544
-4.714710 45.329750 0.001384
-4.399360 45.329750 0.001437
-4.084010 45.329750 0.001400
-3.768660 45.329750 0.001296
-3.453310 45.329750 0.001448
-3.137960 45.329750 0.001453
-2.822610 45.329750 0.001268
-2.507260 45.329750 0.001099
-2.191910 45.329750 0.000984
-1.876560 45.329750 0.001060
-1.561210 45.329750 0.001156
-1.245860 45.329750 0.000983
-0.930510 45.329750 0.000780
-0.615160 45.329750 0.000739
-0.299810 45.329750 0.000763
0.015540 45.329750 0.000738
0.330890 45.329750 0.000716
0.646240 45.329750 0.000778
0.961589 45.329750 0.001092
1.276940 45.329750 0.001062
1.592289 45.329750 0.000928
1.907640 45.329750 0.000771
2.222990 45.329750 0.000623
2.538340 45.329750 0.000581
2.853690 45.329750 0.000743
3.169039 45.329750 0.000795
3.484390 45.329750 0.000641
3.799739 45.329750 0.000607
4.115090 45.329750 0.000653
4.430439 45.329750 0.000556
4.745790 45.329750 0.000367
5.061140 45.329750 0.000244
5.376490 45.329750 0.000558
5.691840 45.329750 0.000973
6.007189 45.329750 0.001228
6.322540 45.329750 0.001283
6.637889 45.329750 0.002099
6.953240 45.329750 0.003675
7.268589 45.329750 0.007084
7.583940 45.329750 0.011694
7.899290 45.329750 0.019982
8.214640 45.329750 0.034039
8.529989 45.329750 0.060807
8.845339 45.329750 0.100516
9.160688 45.329750 0.163398
9.476040 45.329750 0.249597
9.791389 45.329750 0.333260
10.106739 45.329750 0.431829
10.422089 45.329750 0.516567
10.737438 45.329750 0.614645
11.052790 45.329750 0.727174
11.368139 45.329750 0.823193
11.683489 45.329750 0.933343
11.998838 45.329750 1.008585
12.314190 45.329750 1.067748
12.629539 45.329750 1.122875
12.944889 45.329750 1.150953
13.260239 45.329750 1.175057
13.575588 45.329750 1.147750
13.890940 45.329750 1.120489
14.206289 45.329750 1.057428
14.521639 45.329750 0.937639
14.836988 45.329750 0.873454
15.152340 45.329750 0.764065
15.467690 45.329750 0.663685
15.783039 45.329750 0.584273
16.098389 45.329750 0.366553
16.413738 45.329750 0.000000
16.729090 45.329750 0.000000
17.044439 45.329750 0.000000
17.359789 45.329750 0.000000
17.675138 45.329750 0.000000
17.990490 45.329750 0.000000
18.305840 45.329750 -0.833325
18.621189 45.329750 -0.828672
18.936539 45.329750 -0.326270
19.251888 45.329750 0.000000
-7.237510 45.014400 0.000000
-6.922160 45.014400 0.000000
-6.606810 45.014400 0.001146
-6.291460 45.014400 0.000969
-5.976110 45.014400 0.001074
-5.660760 45.014400 0.001332
-5.345410 45.014400 0.001609
-5.030060 45.014400 0.001566
-4.714710 45.014400 0.001413
-4.399360 45.014400 0.001383
-4.084010 45.014400 0.001379
-3.768660 45.014400 0.001354
-3.453310 45.014400 0.001439
-3.137960 45.014400 0.001404
-2.822610 45.014400 0.001258
-2.507260 45.014400 0.001037
-2.191910 45.014400 0.000963
-1.876560 45.014400 0.001044
-1.561210 45.014400 0.001095
-1.245860 45.014400 0.000973
-0.930510 45.014400 0.000841
-0.615160 45.014400 0.000829
-0.299810 45.014400 0.000886
0.015540 45.014400 0.000934
0.330890 45.014400 0.000938
0.646240 45.014400 0.000960
0.961589 45.014400 0.001152
1.276940 45.014400 0.001119
1.592289 45.014400 0.001070
1.907640 45.014400 0.000939
2.222990 45.014400 0.000670
2.538340 45.014400 0.000468
2.853690 45.014400 0.000557
3.169039 45.014400 0.000651
3.484390 45.014400 0.000675
3.799739 45.014400 0.000709
4.115090 45.014400 0.000666
4.430439 45.014400 0.000575
4.745790 45.014400 0.000458
5.061140 45.014400 0.000361
5.376490 45.014400 0.000589
5.691840 45.014400 0.000996
6.007189 45.014400 0.001168
6.322540 45.014400 0.001292
6.637889 45.014400 0.001602
6.953240 45.014400 0.003601
7.268589 45.014400 0.006867
7.583940 45.014400 0.011126
7.899290 45.014400 0.018340
8.214640 45.014400 0.034051
8.529989 45.014400 0.057951
8.845339 45.014400 0.104681
9.160688 45.014400 0.162503
9.476040 45.014400 0.247695
9.791389 45.014400 0.331266
10.106739 45.014400 0.430214
10.422089 45.014400 0.524619
10.737438 45.014400 0.615249
11.052790 45.014400 0.725044
11.368139 45.014400 0.825235
11.683489 45.014400 0.934145
11.998838 45.014400 1.017557
12.314190 45.014400 1.081009
12.629539 45.014400 1.134652
12.944889 45.014400 1.152084
13.260239 45.014400 1.186255
13.575588 45.014400 1.144983
13.890940 45.014400 1.118620
14.206289 45.014400 1.031671
14.521639 45.014400 0.941629
14.836988 45.014400 0.846120
15.152340 45.014400 0.788529
15.467690 45.014400 0.703301
15.783039 45.014400 0.637135
16.098389 45.014400 0.501041
16.413738 45.014400 0.000000
16.729090 45.014400 0.000000
17.044439 45.014400 0.000000
17.359789 45.014400 0.000000
17.675138 45.014400 0.000000
17.990490 45.014400 0.000000
18.305840 45.014400 1.102066
18.621189 45.014400 -1.412804
18.936539 45.014400 -2.053673
19.251888 45.014400 0.000000
-7.237510 44.699051 0.000000
-6.922160 44.699051 0.000000
-6.606810 44.699051 0.001057
-6.291460 44.699051 0.000940
-5.976110 44.699051 0.000996
-5.660760 44.699051 0.001131
-5.345410 44.699051 0.001462
-5.030060 44.699051 0.001533
-4.714710 44.699051 0.001309
-4.399360 44.699051 0.001243
-4.084010 44.699051 0.001291
-3.768660 44.699051 0.001312
-3.453310 44.699051 0.001365
-3.137960 44.699051 0.001333
-2.822610 44.699051 0.001210
-2.507260 44.699051 0.001053
-2.191910 44.699051 0.001061
-1.876560 44.699051 0.001124
-1.561210 44.699051 0.001135
-1.245860 44.699051 0.001037
-0.930510 44.699051 0.000974
-0.615160 44.699051 0.001022
-0.299810 44.699051 0.001116
0.015540 44.699051 0.001167
0.330890 44.699051 0.001127
0.646240 44.699051 0.001043
0.961589 44.699051 0.001088
1.276940 44.699051 0.001049
1.592289 44.699051 0.001046
1.907640 44.699051 0.000938
2.222990 44.699051 0.000661
2.538340 44.699051 0.000373
2.853690 44.699051 0.000454
3.169039 44.699051 0.000501
3.484390 44.699051 0.000602
3.799739 44.699051 0.000711
4.115090 44.699051 0.000673
4.430439 44.699051 0.000579
4.745790 44.699051 0.000544
5.061140 44.699051 0.000492
5.376490 44.699051 0.000655
5.691840 44.699051 0.000871
6.007189 44.699051 0.001318
6.322540 44.699051 0.001263
6.637889 44.699051 0.001567
6.953240 44.699051 0.003402
7.268589 44.699051 0.006825
7.583940 44.699051 0.010562
7.899290 44.699051 0.018006
8.214640 44.699051 0.032925
8.529989 44.699051 0.057402
8.845339 44.699051 0.105454
9.160688 44.699051 0.161995
9.476040 44.699051 0.245606
9.791389 44.699051 0.334424
10.106739 44.699051 0.432547
10.422089 44.699051 0.513000
10.737438 44.699051 0.607966
11.052790 44.699051 0.718400
11.368139 44.699051 0.820029
11.683489 44.699051 0.918555
11.998838 44.699051 1.015422
12.314190 44.699051 1.087913
12.629539 44.699051 1.146402
12.944889 44.699051 1.173652
13.260239 44.699051 1.182047
13.575588 44.699051 1.162805
13.890940 44.699051 1.121088
14.206289 44.699051 1.037061
14.521639 44.699051 0.945661
14.836988 44.699051 0.863155
15.152340 44.699051 0.742780
15.467690 44.699051 0.676993
15.783039 44.699051 0.663213
16.098389 44.699051 0.755142
16.413738 44.699051 0.000000
16.729090 44.699051 0.000000
17.044439 44.699051 0.000000
17.359789 44.699051 0.000000
17.675138 44.699051 0.000000
17.990490 44.699051 0.000000
18.305840 44.699051 0.000000
18.621189 44.699051 -9.385814
18.936539 44.699051 0.000000
19.251888 44.699051 0.000000
-7.237510 44.383701 0.000000
-6.922160 44.383701 0.000000
-6.606810 44.383701 0.001159
-6.291460 44.383701 0.000924
-5.976110 44.383701 0.000910
-5.660760 44.383701 0.000971
-5.345410 44.383701 0.001218
-5.030060 44.383701 0.001389
-4.714710 44.383701 0.001166
-4.399360 44.383701 0.001068
-4.084010 44.383701 0.001198
-3.768660 44.383701 0.001215
-3.453310 44.383701 0.001238
-3.137960 44.383701 0.001263
-2.822610 44.383701 0.001193
-2.507260 44.383701 0.001125
-2.191910 44.383701 0.001146
-1.876560 44.383701 0.001276
-1.561210 44.383701 0.001245
-1.245860 44.383701 0.001157
-0.930510 44.383701 0.001146
-0.615160 44.383701 0.001148
-0.299810 44.383701 0.001268
0.015540 44.383701 0.001358
0.330890 44.383701 0.001194
0.646240 44.383701 0.000977
0.961589 44.383701 0.000895
1.276940 44.383701 0.000897
1.592289 44.383701 0.000950
1.907640 44.383701 0.000894
2.222990 44.383701 0.000650
2.538340 44.383701 0.000369
2.853690 44.383701 0.000365
3.169039 44.383701 0.000380
3.484390 44.383701 0.000464
3.799739 44.383701 0.000626
4.115090 44.383701 0.000561
4.430439 44.383701 0.000529
4.745790 44.383701 0.000593
5.061140 44.383701 0.000665
5.376490 44.383701 0.000681
5.691840 44.383701 0.000847
6.007189 44.383701 0.001306
6.322540 44.383701 0.001405
6.637889 44.383701 0.001668
6.953240 44.383701 0.003308
7.268589 44.383701 0.006340
7.583940 44.383701 0.010681
7.899290 44.383701 0.018319
8.214640 44.383701 0.033767
8.529989 44.383701 0.058618
8.845339 44.383701 0.099875
9.160688 44.383701 0.166700
9.476040 44.383701 0.238875
9.791389 44.383701 0.332735
10.106739 44.383701 0.435178
10.422089 44.383701 0.525059
10.737438 44.383701 0.616031
11.052790 44.383701 0.716596
11.368139 44.383701 0.825323
11.683489 44.383701 0.930677
11.998838 44.383701 1.011225
12.314190 44.383701 1.098483
12.629539 44.383701 1.154993
12.944889 44.383701 1.183485
13.260239 44.383701 1.182553
13.575588 44.383701 1.159294
13.890940 44.383701 1.105322
14.206289 44.383701 1.022526
14.521639 44.383701 0.939156
14.836988 44.383701 0.851224
15.152340 44.383701 0.728228
15.467690 44.383701 0.656484
15.783039 44.383701 0.592586
16.098389 44.383701 6.539254
16.413738 44.383701 0.000000
16.729090 44.383701 0.000000
17.044439 44.383701 0.000000
17.359789 44.383701 0.000000
17.675138 44.383701 0.000000
17.990490 44.383701 0.000000
18.305840 44.383701 0.000000
18.621189 44.383701 0.000000
18.936539 44.383701 0.000000
19.251888 44.383701 0.000000
-7.237510 44.068352 0.000000
-6.922160 44.068352 0.000000
-6.606810 44.068352 0.001208
-6.291460 44.068352 0.000993
-5.976110 44.068352 0.000935
-5.660760 44.068352 0.000870
-5.345410 44.068352 0.001119
-5.030060 44.068352 0.001215
-4.714710 44.068352 0.001066
-4.399360 44.068352 0.000882
-4.084010 44.068352 0.001094
-3.768660 44.068352 0.001060
-3.453310 44.068352 0.001059
-3.137960 44.068352 0.001180
-2.822610 44.068352 0.001265
-2.507260 44.068352 0.001114
-2.191910 44.068352 0.001203
-1.876560 44.068352 0.001343
-1.561210 44.068352 0.001310
-1.245860 44.068352 0.001167
-0.930510 44.068352 0.001168
-0.615160 44.068352 0.001284
-0.299810 44.068352 0.001467
0.015540 44.068352 0.001458
0.330890 44.068352 0.001172
0.646240 44.068352 0.000920
0.961589 44.068352 0.000743
1.276940 44.068352 0.000767
1.592289 44.068352 0.000813
1.907640 44.068352 0.000817
2.222990 44.068352 0.000649
2.538340 44.068352 0.000424
2.853690 44.068352 0.000369
3.169039 44.068352 0.000309
3.484390 44.068352 0.000292
3.799739 44.068352 0.000369
4.115090 44.068352 0.000458
4.430439 44.068352 0.000493
4.745790 44.068352 0.000539
5.061140 44.068352 0.000734
5.376490 44.068352 0.000696
5.691840 44.068352 0.000765
6.007189 44.068352 0.001035
6.322540 44.068352 0.001362
6.637889 44.068352 0.001797
6.953240 44.068352 0.003299
7.268589 44.068352 0.006154
7.583940 44.068352 0.011302
7.899290 44.068352 0.018545
8.214640 44.068352 0.032791
8.529989 44.068352 0.057947
8.845339 44.068352 0.099074
9.160688 44.068352 0.162265
9.476040 44.068352 0.244304
9.791389 44.068352 0.337223
10.106739 44.068352 0.440142
10.422089 44.068352 0.535124
10.737438 44.068352 0.631126
11.052790 44.068352 0.725953
11.368139 44.068352 0.834460
11.683489 44.068352 0.948846
11.998838 44.068352 1.017053
12.314190 44.068352 1.104930
12.629539 44.068352 1.160366
12.944889 44.068352 1.185002
13.260239 44.068352 1.186398
13.575588 44.068352 1.164489
13.890940 44.068352 1.105836
14.206289 44.068352 1.033434
14.521639 44.068352 0.947187
14.836988 44.068352 0.822348
15.152340 44.068352 0.670241
15.467690 44.068352 0.589439
15.783039 44.068352 0.521611
16.098389 44.068352 0.000000
16.413738 44.068352 0.000000
16.729090 44.068352 0.000000
17.044439 44.068352 0.000000
17.359789 44.068352 0.000000
17.675138 44.068352 0.000000
17.990490 44.068352 0.000000
18.305840 44.068352 0.000000
18.621189 44.068352 0.000000
18.936539 44.068352 0.000000
19.251888 44.068352 0.000000
-7.237510 43.753002 0.000000
-6.922160 43.753002 0.000000
-6.606810 43.753002 0.001317
-6.291460 43.753002 0.001114
-5.976110 43.753002 0.001002
-5.660760 43.753002 0.000963
-5.345410 43.753002 0.001079
-5.030060 43.753002 0.001141
-4.714710 43.753002 0.001051
-4.399360 43.753002 0.000892
-4.084010 43.753002 0.001012
-3.768660 43.753002 0.000935
-3.453310 43.753002 0.000843
-3.137960 43.753002 0.001053
-2.822610 43.753002 0.001130
-2.507260 43.753002 0.001078
-2.191910 43.753002 0.001146
-1.876560 43.753002 0.001223
-1.561210 43.753002 0.001247
-1.245860 43.753002 0.001214
-0.930510 43.753002 0.001178
-0.615160 43.753002 0.001302
-0.299810 43.753002 0.001499
0.015540 43.753002 0.001485
0.330890 43.753002 0.001139
0.646240 43.753002 0.000816
0.961589 43.753002 0.000672
1.276940 43.753002 0.000690
1.592289 43.753002 0.000701
1.907640 43.753002 0.000708
2.222990 43.753002 0.000678
2.538340 43.753002 0.000561
2.853690 43.753002 0.000435
3.169039 43.753002 0.000281
3.484390 43.753002 0.000204
3.799739 43.753002 0.000261
4.115090 43.753002 0.000410
4.430439 43.753002 0.000561
4.745790 43.753002 0.000619
5.061140 43.753002 0.000679
5.376490 43.753002 0.000624
5.691840 43.753002 0.000527
6.007189 43.753002 0.000752
6.322540 43.753002 0.001274
6.637889 43.753002 0.002280
6.953240 43.753002 0.003771
7.268589 43.753002 0.006658
7.583940 43.753002 0.011935
7.899290 43.753002 0.018927
8.214640 43.753002 0.033113
8.529989 43.753002 0.055372
8.845339 43.753002 0.096657
9.160688 43.753002 0.156852
9.476040 43.753002 0.239399
9.791389 43.753002 0.342011
10.106739 43.753002 0.438698
10.422089 43.753002 0.534199
10.737438 43.753002 0.632793
11.052790 43.753002 0.730927
11.368139 43.753002 0.849121
11.683489 43.753002 0.951012
11.998838 43.753002 1.053615
12.314190 43.753002 1.110505
12.629539 43.753002 1.148163
12.944889 43.753002 1.171185
13.260239 43.753002 1.181944
13.575588 43.753002 1.182815
13.890940 43.753002 1.118736
14.206289 43.753002 1.027100
14.521639 43.753002 0.940144
14.836988 43.753002 0.794699
15.152340 43.753002 0.644750
15.467690 43.753002 0.542834
15.783039 43.753002 0.462799
16.098389 43.753002 0.000000
16.413738 43.753002 0.000000
16.729090 43.753002 0.000000
17.044439 43.753002 0.000000
17.359789 43.753002 0.000000
17.675138 43.753002 0.000000
17.990490 43.753002 0.000000
18.305840 43.753002 0.000000
18.621189 43.753002 0.000000
18.936539 43.753002 0.000000
19.251888 43.753002 0.000000
-7.237510 43.437653 0.000000
-6.922160 43.437653 0.000000
-6.606810 43.437653 0.001331
-6.291460 43.437653 0.001261
-5.976110 43.437653 0.001203
-5.660760 43.437653 0.001150
-5.345410 43.437653 0.001174
-5.030060 43.437653 0.001168
-4.714710 43.437653 0.001130
-4.399360 43.437653 0.001015
-4.084010 43.437653 0.000997
-3.768660 43.437653 0.000831
-3.453310 43.437653 0.000757
-3.137960 43.437653 0.000923
-2.822610 43.437653 0.001035
-2.507260 43.437653 0.001020
-2.191910 43.437653 0.001067
-1.876560 43.437653 0.001116
-1.561210 43.437653 0.001174
-1.245860 43.437653 0.001160
-0.930510 43.437653 0.001105
-0.615160 43.437653 0.001218
-0.299810 43.437653 0.001404
0.015540 43.437653 0.001336
0.330890 43.437653 0.001101
0.646240 43.437653 0.000816
0.961589 43.437653 0.000619
1.276940 43.437653 0.000619
1.592289 43.437653 0.000622
1.907640 43.437653 0.000680
2.222990 43.437653 0.000729
2.538340 43.437653 0.000669
2.853690 43.437653 0.000487
3.169039 43.437653 0.000328
3.484390 43.437653 0.000200
3.799739 43.437653 0.000203
4.115090 43.437653 0.000348
4.430439 43.437653 0.000549
4.745790 43.437653 0.000650
5.061140 43.437653 0.000538
5.376490 43.437653 0.000433
5.691840 43.437653 0.000463
6.007189 43.437653 0.000765
6.322540 43.437653 0.001534
6.637889 43.437653 0.002576
6.953240 43.437653 0.004195
7.268589 43.437653 0.006897
7.583940 43.437653 0.011670
7.899290 43.437653 0.018488
8.214640 43.437653 0.031149
8.529989 43.437653 0.051470
8.845339 43.437653 0.091822
9.160688 43.437653 0.156787
9.476040 43.437653 0.245340
9.791389 43.437653 0.334345
10.106739 43.437653 0.445259
10.422089 43.437653 0.548072
10.737438 43.437653 0.647842
11.052790 43.437653 0.740493
11.368139 43.437653 0.859470
11.683489 43.437653 0.962319
11.998838 43.437653 1.058182
12.314190 43.437653 1.127835
12.629539 43.437653 1.165300
12.944889 43.437653 1.168021
13.260239 43.437653 1.185958
13.575588 43.437653 1.168596
13.890940 43.437653 1.106780
14.206289 43.437653 1.023018
14.521639 43.437653 0.925325
14.836988 43.437653 0.798480
15.152340 43.437653 0.630644
15.467690 43.437653 0.512039
15.783039 43.437653 0.429935
16.098389 43.437653 0.000000
16.413738 43.437653 0.000000
16.729090 43.437653 0.000000
17.044439 43.437653 0.000000
17.359789 43.437653 0.000000
17.675138 43.437653 0.000000
17.990490 43.437653 0.000000
18.305840 43.437653 0.000000
18.621189 43.437653 0.000000
18.936539 43.437653 0.000000
19.251888 43.437653 0.000000
-7.237510 43.122299 0.000000
-6.922160 43.122299 0.000000
-6.606810 43.122299 0.001361
-6.291460 43.122299 0.001390
-5.976110 43.122299 0.001378
-5.660760 43.122299 0.001307
-5.345410 43.122299 0.001311
-5.030060 43.122299 0.001292
-4.714710 43.122299 0.001298
-4.399360 43.122299 0.001226
-4.084010 43.122299 0.001117
-3.768660 43.122299 0.000876
-3.453310 43.122299 0.000703
-3.137960 43.122299 0.000858
-2.822610 43.122299 0.000981
-2.507260 43.122299 0.000955
-2.191910 43.122299 0.000996
-1.876560 43.122299 0.001042
-1.561210 43.122299 0.001099
-1.245860 43.122299 0.001080
-0.930510 43.122299 0.001126
-0.615160 43.122299 0.001153
-0.299810 43.122299 0.001259
0.015540 43.122299 0.001198
0.330890 43.122299 0.001061
0.646240 43.122299 0.000808
0.961589 43.122299 0.000651
1.276940 43.122299 0.000558
1.592289 43.122299 0.000578
1.907640 43.122299 0.000755
2.222990 43.122299 0.000828
2.538340 43.122299 0.000772
2.853690 43.122299 0.000609
3.169039 43.122299 0.000491
3.484390 43.122299 0.000326
3.799739 43.122299 0.000161
4.115090 43.122299 0.000319
4.430439 43.122299 0.000510
4.745790 43.122299 0.000646
5.061140 43.122299 0.000527
5.376490 43.122299 0.000336
5.691840 43.122299 0.000401
6.007189 43.122299 0.000786
6.322540 43.122299 0.001611
6.637889 43.122299 0.002609
6.953240 43.122299 0.004398
7.268589 43.122299 0.006965
7.583940 43.122299 0.010685
7.899290 43.122299 0.017990
8.214640 43.122299 0.030844
8.529989 43.122299 0.053972
8.845339 43.122299 0.097249
9.160688 43.122299 0.154679
9.476040 43.122299 0.240062
9.791389 43.122299 0.342787
10.106739 43.122299 0.443335
10.422089 43.122299 0.540781
10.737438 43.122299 0.639413
11.052790 43.122299 0.740072
11.368139 43.122299 0.846431
11.683489 43.122299 0.944947
11.998838 43.122299 1.033939
12.314190 43.122299 1.103232
12.629539 43.122299 1.146396
12.944889 43.122299 1.172462
13.260239 43.122299 1.178510
13.575588 43.122299 1.173014
13.890940 43.122299 1.123671
14.206289 43.122299 1.035248
14.521639 43.122299 0.924396
14.836988 43.122299 0.784487
15.152340 43.122299 0.630933
15.467690 43.122299 0.486248
15.783039 43.122299 0.413255
16.098389 43.122299 0.000000
16.413738 43.122299 0.000000
16.729090 43.122299 0.000000
17.044439 43.122299 0.000000
17.359789 43.122299 0.000000
17.675138 43.122299 0.000000
17.990490 43.122299 0.000000
18.305840 43.122299 0.000000
18.621189 43.122299 0.000000
18.936539 43.122299 0.000000
19.251888 43.122299 0.000000
-7.237510 42.806950 0.000000
-6.922160 42.806950 0.000000
-6.606810 42.806950 0.001376
-6.291460 42.806950 0.001468
-5.976110 42.806950 0.001496
-5.660760 42.806950 0.001413
-5.345410 42.806950 0.001417
-5.030060 42.806950 0.001401
-4.714710 42.806950 0.001373
-4.399360 42.806950 0.001325
-4.084010 42.806950 0.001190
-3.768660 42.806950 0.000934
-3.453310 42.806950 0.000852
-3.137960 42.806950 0.000965
-2.822610 42.806950 0.001007
-2.507260 42.806950 0.000989
-2.191910 42.806950 0.000964
-1.876560 42.806950 0.000989
-1.561210 42.806950 0.001015
-1.245860 42.806950 0.001076
-0.930510 42.806950 0.001056
-0.615160 42.806950 0.001095
-0.299810 42.806950 0.001169
0.015540 42.806950 0.001141
0.330890 42.806950 0.001055
0.646240 42.806950 0.000899
0.961589 42.806950 0.000683
1.276940 42.806950 0.000543
1.592289 42.806950 0.000632
1.907640 42.806950 0.000839
2.222990 42.806950 0.000890
2.538340 42.806950 0.000838
2.853690 42.806950 0.000738
3.169039 42.806950 0.000629
3.484390 42.806950 0.000460
3.799739 42.806950 0.000213
4.115090 42.806950 0.000266
4.430439 42.806950 0.000502
4.745790 42.806950 0.000604
5.061140 42.806950 0.000580
5.376490 42.806950 0.000334
5.691840 42.806950 0.000399
6.007189 42.806950 0.000832
6.322540 42.806950 0.001654
6.637889 42.806950 0.002342
6.953240 42.806950 0.003874
7.268589 42.806950 0.006384
7.583940 42.806950 0.009724
7.899290 42.806950 0.017906
8.214640 42.806950 0.031050
8.529989 42.806950 0.055203
8.845339 42.806950 0.097231
9.160688 42.806950 0.161795
9.476040 42.806950 0.246213
9.791389 42.806950 0.339073
10.106739 42.806950 0.456170
10.422089 42.806950 0.535497
10.737438 42.806950 0.638741
11.052790 42.806950 0.735266
11.368139 42.806950 0.840949
11.683489 42.806950 0.932523
11.998838 42.806950 1.034741
12.314190 42.806950 1.090952
12.629539 42.806950 1.133179
12.944889 42.806950 1.169256
13.260239 42.806950 1.177888
13.575588 42.806950 1.168750
13.890940 42.806950 1.120023
14.206289 42.806950 1.043122
14.521639 42.806950 0.920860
14.836988 42.806950 0.788645
15.152340 42.806950 0.642861
15.467690 42.806950 0.497496
15.783039 42.806950 0.398754
16.098389 42.806950 0.000000
16.413738 42.806950 0.000000
16.729090 42.806950 0.000000
17.044439 42.806950 0.000000
17.359789 42.806950 0.000000
17.675138 42.806950 0.000000
17.990490 42.806950 0.000000
18.305840 42.806950 0.000000
18.621189 42.806950 0.000000
18.936539 42.806950 0.000000
19.251888 42.806950 0.000000
-7.237510 42.491600 0.000000
-6.922160 42.491600 0.000000
-6.606810 42.491600 0.001371
-6.291460 42.491600 0.001450
-5.976110 42.491600 0.001538
-5.660760 42.491600 0.001480
-5.345410 42.491600 0.001450
-5.030060 42.491600 0.001448
-4.714710 42.491600 0.001421
-4.399360 42.491600 0.001388
-4.084010 42.491600 0.001315
-3.768660 42.491600 0.001038
-3.453310 42.491600 0.001020
-3.137960 42.491600 0.001153
-2.822610 42.491600 0.001193
-2.507260 42.491600 0.001137
-2.191910 42.491600 0.001013
-1.876560 42.491600 0.000987
-1.561210 42.491600 0.001015
-1.245860 42.491600 0.001070
-0.930510 42.491600 0.001028
-0.615160 42.491600 0.001020
-0.299810 42.491600 0.001096
0.015540 42.491600 0.001016
0.330890 42.491600 0.000926
0.646240 42.491600 0.000877
0.961589 42.491600 0.000758
1.276940 42.491600 0.000593
1.592289 42.491600 0.000713
1.907640 42.491600 0.000892
2.222990 42.491600 0.000901
2.538340 42.491600 0.000834
2.853690 42.491600 0.000799
3.169039 42.491600 0.000695
3.484390 42.491600 0.000575
3.799739 42.491600 0.000413
4.115090 42.491600 0.000377
4.430439 42.491600 0.000465
4.745790 42.491600 0.000559
5.061140 42.491600 0.000540
5.376490 42.491600 0.000393
5.691840 42.491600 0.000419
6.007189 42.491600 0.000888
6.322540 42.491600 0.001463
6.637889 42.491600 0.002115
6.953240 42.491600 0.003442
7.268589 42.491600 0.005859
7.583940 42.491600 0.010272
7.899290 42.491600 0.018523
8.214640 42.491600 0.032877
8.529989 42.491600 0.057054
8.845339 42.491600 0.100163
9.160688 42.491600 0.164807
9.476040 42.491600 0.246378
9.791389 42.491600 0.341944
10.106739 42.491600 0.444193
10.422089 42.491600 0.532330
10.737438 42.491600 0.639692
11.052790 42.491600 0.747466
11.368139 42.491600 0.845207
11.683489 42.491600 0.947187
11.998838 42.491600 1.024500
12.314190 42.491600 1.083691
12.629539 42.491600 1.142611
12.944889 42.491600 1.185210
13.260239 42.491600 1.185230
13.575588 42.491600 1.162237
13.890940 42.491600 1.117120
14.206289 42.491600 0.999311
14.521639 42.491600 0.900916
14.836988 42.491600 0.800101
15.152340 42.491600 0.664058
15.467690 42.491600 0.516521
15.783039 42.491600 0.390154
16.098389 42.491600 0.000000
16.413738 42.491600 0.000000
16.729090 42.491600 0.000000
17.044439 42.491600 0.000000
17.359789 42.491600 0.000000
17.675138 42.491600 0.000000
17.990490 42.491600 0.000000
18.305840 42.491600 0.000000
18.621189 42.491600 0.000000
18.936539 42.491600 0.000000
19.251888 42.491600 0.000000
-7.237510 42.176250 0.000000
-6.922160 42.176250 0.000000
-6.606810 42.176250 0.001342
-6.291460 42.176250 0.001473
-5.976110 42.176250 0.001530
-5.660760 42.176250 0.001480
-5.345410 42.176250 0.001362
-5.030060 42.176250 0.001375
-4.714710 42.176250 0.001407
-4.399360 42.176250 0.001305
-4.084010 42.176250 0.001256
-3.768660 42.176250 0.001159
-3.453310 42.176250 0.001226
-3.137960 42.176250 0.001362
-2.822610 42.176250 0.001384
-2.507260 42.176250 0.001265
-2.191910 42.176250 0.001065
-1.876560 42.176250 0.001018
-1.561210 42.176250 0.001121
-1.245860 42.176250 0.001220
-0.930510 42.176250 0.001069
-0.615160 42.176250 0.000982
-0.299810 42.176250 0.000974
0.015540 42.176250 0.000838
0.330890 42.176250 0.000841
0.646240 42.176250 0.000899
0.961589 42.176250 0.000785
1.276940 42.176250 0.000649
1.592289 42.176250 0.000837
1.907640 42.176250 0.000908
2.222990 42.176250 0.000828
2.538340 42.176250 0.000723
2.853690 42.176250 0.000782
3.169039 42.176250 0.000800
3.484390 42.176250 0.000668
3.799739 42.176250 0.000604
4.115090 42.176250 0.000527
4.430439 42.176250 0.000472
4.745790 42.176250 0.000475
5.061140 42.176250 0.000492
5.376490 42.176250 0.000410
5.691840 42.176250 0.000507
6.007189 42.176250 0.001069
6.322540 42.176250 0.001413
6.637889 42.176250 0.001778
6.953240 42.176250 0.003115
7.268589 42.176250 0.006085
7.583940 42.176250 0.010531
7.899290 42.176250 0.018298
8.214640 42.176250 0.032861
8.529989 42.176250 0.058328
8.845339 42.176250 0.098447
9.160688 42.176250 0.162496
9.476040 42.176250 0.243370
9.791389 42.176250 0.346604
10.106739 42.176250 0.447520
10.422089 42.176250 0.535991
10.737438 42.176250 0.643697
11.052790 42.176250 0.743717
11.368139 42.176250 0.849416
11.683489 42.176250 0.949815
11.998838 42.176250 1.035074
12.314190 42.176250 1.090698
12.629539 42.176250 1.163671
12.944889 42.176250 1.174064
13.260239 42.176250 1.186978
13.575588 42.176250 1.163884
13.890940 42.176250 1.109426
14.206289 42.176250 1.008002
14.521639 42.176250 0.903016
14.836988 42.176250 0.802469
15.152340 42.176250 0.688406
15.467690 42.176250 0.538747
15.783039 42.176250 0.416828
16.098389 42.176250 0.000000
16.413738 42.176250 0.000000
16.729090 42.176250 0.000000
17.044439 42.176250 0.000000
17.359789 42.176250 0.000000
17.675138 42.176250 0.000000
17.990490 42.176250 0.000000
18.305840 42.176250 0.000000
18.621189 42.176250 0.000000
18.936539 42.176250 0.000000
19.251888 42.176250 0.000000
-7.237510 41.860901 0.000000
-6.922160 41.860901 0.000000
-6.606810 41.860901 0.001272
-6.291460 41.860901 0.001354
-5.976110 41.860901 0.001412
-5.660760 41.860901 0.001373
-5.345410 41.860901 0.001244
-5.030060 41.860901 0.001218
-4.714710 41.860901 0.001306
-4.399360 41.860901 0.001193
-4.084010 41.860901 0.001181
-3.768660 41.860901 0.001225
-3.453310 41.860901 0.001416
-3.137960 41.860901 0.001496
-2.822610 41.860901 0.001460
-2.507260 41.860901 0.001337
-2.191910 41.860901 0.001106
-1.876560 41.860901 0.001091
-1.561210 41.860901 0.001190
-1.245860 41.860901 0.001329
-0.930510 41.860901 0.001163
-0.615160 41.860901 0.001007
-0.299810 41.860901 0.000850
0.015540 41.860901 0.000680
0.330890 41.860901 0.000760
0.646240 41.860901 0.000921
0.961589 41.860901 0.000820
1.276940 41.860901 0.000694
1.592289 41.860901 0.000864
1.907640 41.860901 0.000827
2.222990 41.860901 0.000780
2.538340 41.860901 0.000677
2.853690 41.860901 0.000879
3.169039 41.860901 0.000944
3.484390 41.860901 0.000890
3.799739 41.860901 0.000767
4.115090 41.860901 0.000555
4.430439 41.860901 0.000445
4.745790 41.860901 0.000400
5.061140 41.860901 0.000383
5.376490 41.860901 0.000367
5.691840 41.860901 0.000662
6.007189 41.860901 0.001189
6.322540 41.860901 0.001342
6.637889 41.860901 0.001749
6.953240 41.860901 0.003280
7.268589 41.860901 0.006124
7.583940 41.860901 0.010424
7.899290 41.860901 0.019318
8.214640 41.860901 0.033532
8.529989 41.860901 0.058778
8.845339 41.860901 0.095431
9.160688 41.860901 0.158738
9.476040 41.860901 0.244512
9.791389 41.860901 0.343264
10.106739 41.860901 0.446413
10.422089 41.860901 0.541042
10.737438 41.860901 0.643419
11.052790 41.860901 0.741217
11.368139 41.860901 0.851506
11.683489 41.860901 0.954796
11.998838 41.860901 1.039607
12.314190 41.860901 1.096180
12.629539 41.860901 1.149897
12.944889 41.860901 1.171594
13.260239 41.860901 1.171777
13.575588 41.860901 1.164618
13.890940 41.860901 1.103516
14.206289 41.860901 0.997004
14.521639 41.860901 0.897041
14.836988 41.860901 0.793500
15.152340 41.860901 0.666351
15.467690 41.860901 0.552176
15.783039 41.860901 0.446192
16.098389 41.860901 0.000000
16.413738 41.860901 0.000000
16.729090 41.860901 0.000000
17.044439 41.860901 0.000000
17.359789 41.860901 0.000000
17.675138 41.860901 0.000000
17.990490 41.860901 0.000000
18.305840 41.860901 0.000000
18.621189 41.860901 0.000000
18.936539 41.860901 0.000000
19.251888 41.860901 0.000000
-7.237510 41.545551 0.000000
-6.922160 41.545551 0.000000
-6.606810 41.545551 0.001238
-6.291460 41.545551 0.001223
-5.976110 41.545551 0.001229
-5.660760 41.545551 0.001189
-5.345410 41.545551 0.001112
-5.030060 41.545551 0.001077
-4.714710 41.545551 0.001139
-4.399360 41.545551 0.001074
-4.084010 41.545551 0.001077
-3.768660 41.545551 0.001241
-3.453310 41.545551 0.001497
-3.137960 41.545551 0.001552
-2.822610 41.545551 0.001392
-2.507260 41.545551 0.001310
-2.191910 41.545551 0.001124
-1.876560 41.545551 0.001074
-1.561210 41.545551 0.001221
-1.245860 41.545551 0.001311
-0.930510 41.545551 0.001198
-0.615160 41.545551 0.001009
-0.299810 41.545551 0.000776
0.015540 41.545551 0.000709
0.330890 41.545551 0.000707
0.646240 41.545551 0.000864
0.961589 41.545551 0.000800
1.276940 41.545551 0.000744
1.592289 41.545551 0.000788
1.907640 41.545551 0.000752
2.222990 41.545551 0.000702
2.538340 41.545551 0.000725
2.853690 41.545551 0.000997
3.169039 41.545551 0.001098
3.484390 41.545551 0.001033
3.799739 41.545551 0.000796
4.115090 41.545551 0.000571
4.430439 41.545551 0.000482
4.745790 41.545551 0.000370
5.061140 41.545551 0.000278
5.376490 41.545551 0.000458
5.691840 41.545551 0.000921
6.007189 41.545551 0.001236
6.322540 41.545551 0.001300
6.637889 41.545551 0.001424
6.953240 41.545551 0.003132
7.268589 41.545551 0.005975
7.583940 41.545551 0.011003
7.899290 41.545551 0.020103
8.214640 41.545551 0.034039
8.529989 41.545551 0.055652
8.845339 41.545551 0.097654
9.160688 41.545551 0.158196
9.476040 41.545551 0.245673
9.791389 41.545551 0.335227
10.106739 41.545551 0.447689
10.422089 41.545551 0.552813
10.737438 41.545551 0.653060
11.052790 41.545551 0.750331
11.368139 41.545551 0.844556
11.683489 41.545551 0.959756
11.998838 41.545551 1.040570
12.314190 41.545551 1.095443
12.629539 41.545551 1.137437
12.944889 41.545551 1.174528
13.260239 41.545551 1.180948
13.575588 41.545551 1.164721
13.890940 41.545551 1.090265
14.206289 41.545551 0.999884
14.521639 41.545551 0.907758
14.836988 41.545551 0.789155
15.152340 41.545551 0.671020
15.467690 41.545551 0.550697
15.783039 41.545551 0.447795
16.098389 41.545551 0.000000
16.413738 41.545551 0.000000
16.729090 41.545551 0.000000
17.044439 41.545551 0.000000
17.359789 41.545551 0.000000
17.675138 41.545551 0.000000
17.990490 41.545551 0.000000
18.305840 41.545551 0.000000
18.621189 41.545551 0.000000
18.936539 41.545551 0.000000
19.251888 41.545551 0.000000
-7.237510 41.230202 0.000000
-6.922160 41.230202 0.000000
-6.606810 41.230202 0.001108
-6.291460 41.230202 0.001139
-5.976110 41.230202 0.001117
-5.660760 41.230202 0.001037
-5.345410 41.230202 0.000974
-5.030060 41.230202 0.000939
-4.714710 41.230202 0.001005
-4.399360 41.230202 0.000944
-4.084010 41.230202 0.000968
-3.768660 41.230202 0.001216
-3.453310 41.230202 0.001480
-3.137960 41.230202 0.001471
-2.822610 41.230202 0.001296
-2.507260 41.230202 0.001193
-2.191910 41.230202 0.001125
-1.876560 41.230202 0.001053
-1.561210 41.230202 0.001113
-1.245860 41.230202 0.001213
-0.930510 41.230202 0.001205
-0.615160 41.230202 0.001043
-0.299810 41.230202 0.000821
0.015540 41.230202 0.000739
0.330890 41.230202 0.000689
0.646240 41.230202 0.000815
0.961589 41.230202 0.000874
1.276940 41.230202 0.000810
1.592289 41.230202 0.000727
1.907640 41.230202 0.000723
2.222990 41.230202 0.000663
2.538340 41.230202 0.000714
2.853690 41.230202 0.000967
3.169039 41.230202 0.001033
3.484390 41.230202 0.001020
3.799739 41.230202 0.000775
4.115090 41.230202 0.000627
4.430439 41.230202 0.000502
4.745790 41.230202 0.000377
5.061140 41.230202 0.000262
5.376490 41.230202 0.000515
5.691840 41.230202 0.001145
6.007189 41.230202 0.001408
6.322540 41.230202 0.001430
6.637889 41.230202 0.001650
6.953240 41.230202 0.003118
7.268589 41.230202 0.005782
7.583940 41.230202 0.011066
7.899290 41.230202 0.019196
8.214640 41.230202 0.032699
8.529989 41.230202 0.059023
8.845339 41.230202 0.100130
9.160688 41.230202 0.165535
9.476040 41.230202 0.250450
9.791389 41.230202 0.349349
10.106739 41.230202 0.455217
10.422089 41.230202 0.559939
10.737438 41.230202 0.660481
11.052790 41.230202 0.738940
11.368139 41.230202 0.844439
11.683489 41.230202 0.952273
11.998838 41.230202 1.048787
12.314190 41.230202 1.118194
12.629539 41.230202 1.145091
12.944889 41.230202 1.170730
13.260239 41.230202 1.174069
13.575588 41.230202 1.139398
13.890940 41.230202 1.082126
14.206289 41.230202 0.998859
14.521639 41.230202 0.917892
14.836988 41.230202 0.787971
15.152340 41.230202 0.667525
15.467690 41.230202 0.548467
15.783039 41.230202 0.444228
16.098389 41.230202 0.000000
16.413738 41.230202 0.000000
16.729090 41.230202 0.000000
17.044439 41.230202 0.000000
17.359789 41.230202 0.000000
17.675138 41.230202 0.000000
17.990490 41.230202 0.000000
18.305840 41.230202 0.000000
18.621189 41.230202 0.000000
18.936539 41.230202 0.000000
19.251888 41.230202 0.000000
-7.237510 40.914848 0.000000
-6.922160 40.914848 0.000000
-6.606810 40.914848 0.001103
-6.291460 40.914848 0.001090
-5.976110 40.914848 0.001087
-5.660760 40.914848 0.001002
-5.345410 40.914848 0.000949
-5.030060 40.914848 0.000918
-4.714710 40.914848 0.000912
-4.399360 40.914848 0.000912
-4.084010 40.914848 0.000990
-3.768660 40.914848 0.001128
-3.453310 40.914848 0.001337
-3.137960 40.914848 0.001324
-2.822610 40.914848 0.001216
-2.507260 40.914848 0.001153
-2.191910 40.914848 0.001081
-1.876560 40.914848 0.001052
-1.561210 40.914848 0.001036
-1.245860 40.914848 0.001113
-0.930510 40.914848 0.001146
-0.615160 40.914848 0.001035
-0.299810 40.914848 0.000879
0.015540 40.914848 0.000830
0.330890 40.914848 0.000708
0.646240 40.914848 0.000795
0.961589 40.914848 0.000983
1.276940 40.914848 0.000874
1.592289 40.914848 0.000779
1.907640 40.914848 0.000746
2.222990 40.914848 0.000747
2.538340 40.914848 0.000812
2.853690 40.914848 0.000864
3.169039 40.914848 0.000902
3.484390 40.914848 0.000841
3.799739 40.914848 0.000768
4.115090 40.914848 0.000588
4.430439 40.914848 0.000368
4.745790 40.914848 0.000356
5.061140 40.914848 0.000427
5.376490 40.914848 0.000681
5.691840 40.914848 0.001180
6.007189 40.914848 0.001448
6.322540 40.914848 0.001437
6.637889 40.914848 0.001664
6.953240 40.914848 0.002923
7.268589 40.914848 0.005713
7.583940 40.914848 0.010519
7.899290 40.914848 0.017237
8.214640 40.914848 0.031476
8.529989 40.914848 0.058490
8.845339 40.914848 0.099888
9.160688 40.914848 0.166989
9.476040 40.914848 0.251881
9.791389 40.914848 0.349909
10.106739 40.914848 0.459725
10.422089 40.914848 0.560083
10.737438 40.914848 0.657164
11.052790 40.914848 0.756251
11.368139 40.914848 0.848145
11.683489 40.914848 0.953413
11.998838 40.914848 1.053088
12.314190 40.914848 1.125358
12.629539 40.914848 1.153294
12.944889 40.914848 1.183075
13.260239 40.914848 1.180042
13.575588 40.914848 1.156049
13.890940 40.914848 1.078785
14.206289 40.914848 1.014935
14.521639 40.914848 0.921152
14.836988 40.914848 0.790971
15.152340 40.914848 0.661731
15.467690 40.914848 0.545937
15.783039 40.914848 0.452727
16.098389 40.914848 0.000000
16.413738 40.914848 0.000000
16.729090 40.914848 0.000000
17.044439 40.914848 0.000000
17.359789 40.914848 0.000000
17.675138 40.914848 0.000000
17.990490 40.914848 0.000000
18.305840 40.914848 0.000000
18.621189 40.914848 0.000000
18.936539 40.914848 0.000000
19.251888 40.914848 0.000000
-7.237510 40.599503 0.000000
-6.922160 40.599503 0.000000
-6.606810 40.599503 0.001172
-6.291460 40.599503 0.001136
-5.976110 40.599503 0.001095
-5.660760 40.599503 0.001014
-5.345410 40.599503 0.000990
-5.030060 40.599503 0.000927
-4.714710 40.599503 0.000892
-4.399360 40.599503 0.000887
-4.084010 40.599503 0.000974
-3.768660 40.599503 0.001122
-3.453310 40.599503 0.001225
-3.137960 40.599503 0.001216
-2.822610 40.599503 0.001131
-2.507260 40.599503 0.001116
-2.191910 40.599503 0.001109
-1.876560 40.599503 0.001055
-1.561210 40.599503 0.000992
-1.245860 40.599503 0.001049
-0.930510 40.599503 0.001060
-0.615160 40.599503 0.001052
-0.299810 40.599503 0.000987
0.015540 40.599503 0.000942
0.330890 40.599503 0.000755
0.646240 40.599503 0.000793
0.961589 40.599503 0.001001
1.276940 40.599503 0.000941
1.592289 40.599503 0.000845
1.907640 40.599503 0.000840
2.222990 40.599503 0.000824
2.538340 40.599503 0.000859
2.853690 40.599503 0.000740
3.169039 40.599503 0.000704
3.484390 40.599503 0.000734
3.799739 40.599503 0.000771
4.115090 40.599503 0.000591
4.430439 40.599503 0.000371
4.745790 40.599503 0.000369
5.061140 40.599503 0.000552
5.376490 40.599503 0.000791
5.691840 40.599503 0.001152
6.007189 40.599503 0.001395
6.322540 40.599503 0.001515
6.637889 40.599503 0.001866
6.953240 40.599503 0.003093
7.268589 40.599503 0.005835
7.583940 40.599503 0.010773
7.899290 40.599503 0.018366
8.214640 40.599503 0.031541
8.529989 40.599503 0.057663
8.845339 40.599503 0.098036
9.160688 40.599503 0.162983
9.476040 40.599503 0.246054
9.791389 40.599503 0.350991
10.106739 40.599503 0.453046
10.422089 40.599503 0.566915
10.737438 40.599503 0.664119
11.052790 40.599503 0.751108
11.368139 40.599503 0.850741
11.683489 40.599503 0.964586
11.998838 40.599503 1.056624
12.314190 40.599503 1.119022
12.629539 40.599503 1.161223
12.944889 40.599503 1.191035
13.260239 40.599503 1.193177
13.575588 40.599503 1.169991
13.890940 40.599503 1.113183
14.206289 40.599503 1.029335
14.521639 40.599503 0.937269
14.836988 40.599503 0.797579
15.152340 40.599503 0.663159
15.467690 40.599503 0.546715
15.783039 40.599503 0.454517
16.098389 40.599503 0.000000
16.413738 40.599503 0.000000
16.729090 40.599503 0.000000
17.044439 40.599503 0.000000
17.359789 40.599503 0.000000
17.675138 40.599503 0.000000
17.990490 40.599503 0.000000
18.305840 40.599503 0.000000
18.621189 40.599503 0.000000
18.936539 40.599503 0.000000
19.251888 40.599503 0.000000
-7.237510 40.284149 0.000000
-6.922160 40.284149 0.000000
-6.606810 40.284149 0.001339
-6.291460 40.284149 0.001223
-5.976110 40.284149 0.001118
-5.660760 40.284149 0.001104
-5.345410 40.284149 0.001079
-5.030060 40.284149 0.001014
-4.714710 40.284149 0.000930
-4.399360 40.284149 0.000879
-4.084010 40.284149 0.000953
-3.768660 40.284149 0.001081
-3.453310 40.284149 0.001171
-3.137960 40.284149 0.001156
-2.822610 40.284149 0.001091
-2.507260 40.284149 0.001060
-2.191910 40.284149 0.001024
-1.876560 40.284149 0.001052
-1.561210 40.284149 0.000974
-1.245860 40.284149 0.000971
-0.930510 40.284149 0.001001
-0.615160 40.284149 0.001015
-0.299810 40.284149 0.001018
0.015540 40.284149 0.000955
0.330890 40.284149 0.000793
0.646240 40.284149 0.000849
0.961589 40.284149 0.000979
1.276940 40.284149 0.000947
1.592289 40.284149 0.000879
1.907640 40.284149 0.000876
2.222990 40.284149 0.000914
2.538340 40.284149 0.000831
2.853690 40.284149 0.000620
3.169039 40.284149 0.000611
3.484390 40.284149 0.000660
3.799739 40.284149 0.000788
4.115090 40.284149 0.000656
4.430439 40.284149 0.000522
4.745790 40.284149 0.000460
5.061140 40.284149 0.000628
5.376490 40.284149 0.000963
5.691840 40.284149 0.001114
6.007189 40.284149 0.001180
6.322540 40.284149 0.001226
6.637889 40.284149 0.002005
6.953240 40.284149 0.003327
7.268589 40.284149 0.006352
7.583940 40.284149 0.010947
7.899290 40.284149 0.018755
8.214640 40.284149 0.032094
8.529989 40.284149 0.054311
8.845339 40.284149 0.096559
9.160688 40.284149 0.159211
9.476040 40.284149 0.248665
9.791389 40.284149 0.353888
10.106739 40.284149 0.459451
10.422089 40.284149 0.567632
10.737438 40.284149 0.667853
11.052790 40.284149 0.762125
11.368139 40.284149 0.859038
11.683489 40.284149 0.961750
11.998838 40.284149 1.049622
12.314190 40.284149 1.100253
12.629539 40.284149 1.150795
12.944889 40.284149 1.195771
13.260239 40.284149 1.219080
13.575588 40.284149 1.195978
13.890940 40.284149 1.132612
14.206289 40.284149 1.053241
14.521639 40.284149 0.955713
14.836988 40.284149 0.802369
15.152340 40.284149 0.670300
15.467690 40.284149 0.557726
15.783039 40.284149 0.447106
16.098389 40.284149 0.000000
16.413738 40.284149 0.000000
16.729090 40.284149 0.000000
17.044439 40.284149 0.000000
17.359789 40.284149 0.000000
17.675138 40.284149 0.000000
17.990490 40.284149 0.000000
18.305840 40.284149 0.000000
18.621189 40.284149 0.000000
18.936539 40.284149 0.000000
19.251888 40.284149 0.000000
-7.237510 39.968800 0.000000
-6.922160 39.968800 0.000000
-6.606810 39.968800 0.001420
-6.291460 39.968800 0.001274
-5.976110 39.968800 0.001166
-5.660760 39.968800 0.001184
-5.345410 39.968800 0.001182
-5.030060 39.968800 0.001157
-4.714710 39.968800 0.001049
-4.399360 39.968800 0.000896
-4.084010 39.968800 0.000876
-3.768660 39.968800 0.000993
-3.453310 39.968800 0.001086
-3.137960 39.968800 0.001086
-2.822610 39.968800 0.001056
-2.507260 39.968800 0.000996
-2.191910 39.968800 0.000995
-1.876560 39.968800 0.001027
-1.561210 39.968800 0.000969
-1.245860 39.968800 0.000941
-0.930510 39.968800 0.000985
-0.615160 39.968800 0.000998
-0.299810 39.968800 0.001001
0.015540 39.968800 0.000939
0.330890 39.968800 0.000844
0.646240 39.968800 0.000874
0.961589 39.968800 0.000909
1.276940 39.968800 0.000888
1.592289 39.968800 0.000876
1.907640 39.968800 0.000906
2.222990 39.968800 0.000869
2.538340 39.968800 0.000809
2.853690 39.968800 0.000644
3.169039 39.968800 0.000552
3.484390 39.968800 0.000594
3.799739 39.968800 0.000775
4.115090 39.968800 0.000751
4.430439 39.968800 0.000682
4.745790 39.968800 0.000651
5.061140 39.968800 0.000811
5.376490 39.968800 0.000892
5.691840 39.968800 0.000805
6.007189 39.968800 0.000827
6.322540 39.968800 0.001270
6.637889 39.968800 0.002291
6.953240 39.968800 0.003620
7.268589 39.968800 0.006356
7.583940 39.968800 0.011542
7.899290 39.968800 0.018626
8.214640 39.968800 0.030358
8.529989 39.968800 0.053371
8.845339 39.968800 0.095432
9.160688 39.968800 0.157922
9.476040 39.968800 0.252872
9.791389 39.968800 0.349848
10.106739 39.968800 0.465491
10.422089 39.968800 0.556574
10.737438 39.968800 0.675633
11.052790 39.968800 0.775295
11.368139 39.968800 0.863949
11.683489 39.968800 0.960387
11.998838 39.968800 1.047645
12.314190 39.968800 1.110726
12.629539 39.968800 1.149045
12.944889 39.968800 1.188558
13.260239 39.968800 1.218566
13.575588 39.968800 1.209945
13.890940 39.968800 1.141496
14.206289 39.968800 1.062956
14.521639 39.968800 0.942136
14.836988 39.968800 0.789488
15.152340 39.968800 0.654545
15.467690 39.968800 0.547638
15.783039 39.968800 0.455412
16.098389 39.968800 0.000000
16.413738 39.968800 0.000000
16.729090 39.968800 0.000000
17.044439 39.968800 0.000000
17.359789 39.968800 0.000000
17.675138 39.968800 0.000000
17.990490 39.968800 0.000000
18.305840 39.968800 0.000000
18.621189 39.968800 0.000000
18.936539 39.968800 0.000000
19.251888 39.968800 0.000000
-7.237510 39.653450 0.000000
-6.922160 39.653450 0.000000
-6.606810 39.653450 0.001436
-6.291460 39.653450 0.001297
-5.976110 39.653450 0.001211
-5.660760 39.653450 0.001213
-5.345410 39.653450 0.001228
-5.030060 39.653450 0.001240
-4.714710 39.653450 0.001116
-4.399360 39.653450 0.000968
-4.084010 39.653450 0.000846
-3.768660 39.653450 0.000901
-3.453310 39.653450 0.001008
-3.137960 39.653450 0.001062
-2.822610 39.653450 0.000988
-2.507260 39.653450 0.000945
-2.191910 39.653450 0.000971
-1.876560 39.653450 0.000992
-1.561210 39.653450 0.001017
-1.245860 39.653450 0.000983
-0.930510 39.653450 0.001043
-0.615160 39.653450 0.001062
-0.299810 39.653450 0.001036
0.015540 39.653450 0.000923
0.330890 39.653450 0.000892
0.646240 39.653450 0.000875
0.961589 39.653450 0.000826
1.276940 39.653450 0.000808
1.592289 39.653450 0.000867
1.907640 39.653450 0.000920
2.222990 39.653450 0.000928
2.538340 39.653450 0.000859
2.853690 39.653450 0.000681
3.169039 39.653450 0.000621
3.484390 39.653450 0.000547
3.799739 39.653450 0.000795
4.115090 39.653450 0.000809
4.430439 39.653450 0.000743
4.745790 39.653450 0.000810
5.061140 39.653450 0.000890
5.376490 39.653450 0.000802
5.691840 39.653450 0.000582
6.007189 39.653450 0.000613
6.322540 39.653450 0.001202
6.637889 39.653450 0.002044
6.953240 39.653450 0.003982
7.268589 39.653450 0.006349
7.583940 39.653450 0.010872
7.899290 39.653450 0.018592
8.214640 39.653450 0.031221
8.529989 39.653450 0.053268
8.845339 39.653450 0.097917
9.160688 39.653450 0.162849
9.476040 39.653450 0.249467
9.791389 39.653450 0.349594
10.106739 39.653450 0.455853
10.422089 39.653450 0.564813
10.737438 39.653450 0.663854
11.052790 39.653450 0.775006
11.368139 39.653450 0.863192
11.683489 39.653450 0.959830
11.998838 39.653450 1.047215
12.314190 39.653450 1.118087
12.629539 39.653450 1.183590
12.944889 39.653450 1.200160
13.260239 39.653450 1.217532
13.575588 39.653450 1.202094
13.890940 39.653450 1.133330
14.206289 39.653450 1.064513
14.521639 39.653450 0.943344
14.836988 39.653450 0.802283
15.152340 39.653450 0.660295
15.467690 39.653450 0.538164
15.783039 39.653450 0.444701
16.098389 39.653450 0.000000
16.413738 39.653450 0.000000
16.729090 39.653450 0.000000
17.044439 39.653450 0.000000
17.359789 39.653450 0.000000
17.675138 39.653450 0.000000
17.990490 39.653450 0.000000
18.305840 39.653450 0.000000
18.621189 39.653450 0.000000
18.936539 39.653450 0.000000
19.251888 39.653450 0.000000
-7.237510 39.338100 0.000000
-6.922160 39.338100 0.000000
-6.606810 39.338100 0.001429
-6.291460 39.338100 0.001201
-5.976110 39.338100 0.001198
-5.660760 39.338100 0.001172
-5.345410 39.338100 0.001177
-5.030060 39.338100 0.001215
-4.714710 39.338100 0.001170
-4.399360 39.338100 0.001053
-4.084010 39.338100 0.000928
-3.768660 39.338100 0.000893
-3.453310 39.338100 0.001028
-3.137960 39.338100 0.001049
-2.822610 39.338100 0.000962
-2.507260 39.338100 0.000899
-2.191910 39.338100 0.000926
-1.876560 39.338100 0.000974
-1.561210 39.338100 0.001039
-1.245860 39.338100 0.001017
-0.930510 39.338100 0.001041
-0.615160 39.338100 0.001098
-0.299810 39.338100 0.001146
0.015540 39.338100 0.001039
0.330890 39.338100 0.000956
0.646240 39.338100 0.000872
0.961589 39.338100 0.000755
1.276940 39.338100 0.000736
1.592289 39.338100 0.000793
1.907640 39.338100 0.000872
2.222990 39.338100 0.000934
2.538340 39.338100 0.000837
2.853690 39.338100 0.000767
3.169039 39.338100 0.000658
3.484390 39.338100 0.000619
3.799739 39.338100 0.000785
4.115090 39.338100 0.000795
4.430439 39.338100 0.000783
4.745790 39.338100 0.000884
5.061140 39.338100 0.000976
5.376490 39.338100 0.000822
5.691840 39.338100 0.000451
6.007189 39.338100 0.000559
6.322540 39.338100 0.001028
6.637889 39.338100 0.001911
6.953240 39.338100 0.003646
7.268589 39.338100 0.006281
7.583940 39.338100 0.010076
7.899290 39.338100 0.018013
8.214640 39.338100 0.029954
8.529989 39.338100 0.054352
8.845339 39.338100 0.097975
9.160688 39.338100 0.161724
9.476040 39.338100 0.245230
9.791389 39.338100 0.354775
10.106739 39.338100 0.457916
10.422089 39.338100 0.566911
10.737438 39.338100 0.673083
11.052790 39.338100 0.773375
11.368139 39.338100 0.861124
11.683489 39.338100 0.959568
11.998838 39.338100 1.065408
12.314190 39.338100 1.134317
12.629539 39.338100 1.192874
12.944889 39.338100 1.202344
13.260239 39.338100 1.211656
13.575588 39.338100 1.185239
13.890940 39.338100 1.153512
14.206289 39.338100 1.051639
14.521639 39.338100 0.943355
14.836988 39.338100 0.794017
15.152340 39.338100 0.668876
15.467690 39.338100 0.546572
15.783039 39.338100 0.454042
16.098389 39.338100 0.000000
16.413738 39.338100 0.000000
16.729090 39.338100 0.000000
17.044439 39.338100 0.000000
17.359789 39.338100 0.000000
17.675138 39.338100 0.000000
17.990490 39.338100 0.000000
18.305840 39.338100 0.000000
18.621189 39.338100 0.000000
18.936539 39.338100 0.000000
19.251888 39.338100 0.000000
-7.237510 39.022751 0.000000
-6.922160 39.022751 0.000000
-6.606810 39.022751 0.001330
-6.291460 39.022751 0.001156
-5.976110 39.022751 0.001145
-5.660760 39.022751 0.001107
-5.345410 39.022751 0.001126
-5.030060 39.022751 0.001193
-4.714710 39.022751 0.001223
-4.399360 39.022751 0.001210
-4.084010 39.022751 0.001087
-3.768660 39.022751 0.000986
-3.453310 39.022751 0.001094
-3.137960 39.022751 0.001115
-2.822610 39.022751 0.001009
-2.507260 39.022751 0.000915
-2.191910 39.022751 0.000943
-1.876560 39.022751 0.000982
-1.561210 39.022751 0.001059
-1.245860 39.022751 0.001100
-0.930510 39.022751 0.001094
-0.615160 39.022751 0.001102
-0.299810 39.022751 0.001152
0.015540 39.022751 0.001098
0.330890 39.022751 0.001013
0.646240 39.022751 0.000867
0.961589 39.022751 0.000734
1.276940 39.022751 0.000674
1.592289 39.022751 0.000730
1.907640 39.022751 0.000868
2.222990 39.022751 0.000928
2.538340 39.022751 0.000840
2.853690 39.022751 0.000796
3.169039 39.022751 0.000749
3.484390 39.022751 0.000676
3.799739 39.022751 0.000782
4.115090 39.022751 0.000795
4.430439 39.022751 0.000764
4.745790 39.022751 0.000824
5.061140 39.022751 0.000960
5.376490 39.022751 0.000779
5.691840 39.022751 0.000390
6.007189 39.022751 0.000525
6.322540 39.022751 0.001116
6.637889 39.022751 0.001913
6.953240 39.022751 0.003392
7.268589 39.022751 0.005545
7.583940 39.022751 0.010429
7.899290 39.022751 0.017927
8.214640 39.022751 0.032499
8.529989 39.022751 0.058030
8.845339 39.022751 0.096703
9.160688 39.022751 0.156620
9.476040 39.022751 0.249897
9.791389 39.022751 0.356551
10.106739 39.022751 0.464375
10.422089 39.022751 0.562701
10.737438 39.022751 0.671917
11.052790 39.022751 0.781001
11.368139 39.022751 0.871279
11.683489 39.022751 0.973702
11.998838 39.022751 1.058500
12.314190 39.022751 1.142993
12.629539 39.022751 1.206280
12.944889 39.022751 1.216970
13.260239 39.022751 1.206662
13.575588 39.022751 1.200707
13.890940 39.022751 1.125308
14.206289 39.022751 1.052942
14.521639 39.022751 0.932244
14.836988 39.022751 0.788586
15.152340 39.022751 0.659825
15.467690 39.022751 0.559744
15.783039 39.022751 0.461202
16.098389 39.022751 0.000000
16.413738 39.022751 0.000000
16.729090 39.022751 0.000000
17.044439 39.022751 0.000000
17.359789 39.022751 0.000000
17.675138 39.022751 0.000000
17.990490 39.022751 0.000000
18.305840 39.022751 0.000000
18.621189 39.022751 0.000000
18.936539 39.022751 0.000000
19.251888 39.022751 0.000000
-7.237510 38.707401 0.000000
-6.922160 38.707401 0.000000
-6.606810 38.707401 0.001256
-6.291460 38.707401 0.001200
-5.976110 38.707401 0.001122
-5.660760 38.707401 0.001113
-5.345410 38.707401 0.001104
-5.030060 38.707401 0.001209
-4.714710 38.707401 0.001301
-4.399360 38.707401 0.001343
-4.084010 38.707401 0.001228
-3.768660 38.707401 0.001117
-3.453310 38.707401 0.001174
-3.137960 38.707401 0.001155
-2.822610 38.707401 0.001078
-2.507260 38.707401 0.001027
-2.191910 38.707401 0.001033
-1.876560 38.707401 0.001010
-1.561210 38.707401 0.001087
-1.245860 38.707401 0.001159
-0.930510 38.707401 0.001102
-0.615160 38.707401 0.001084
-0.299810 38.707401 0.001109
0.015540 38.707401 0.001081
0.330890 38.707401 0.001054
0.646240 38.707401 0.000914
0.961589 38.707401 0.000720
1.276940 38.707401 0.000695
1.592289 38.707401 0.000734
1.907640 38.707401 0.000847
2.222990 38.707401 0.000895
2.538340 38.707401 0.000875
2.853690 38.707401 0.000860
3.169039 38.707401 0.000821
3.484390 38.707401 0.000811
3.799739 38.707401 0.000790
4.115090 38.707401 0.000751
4.430439 38.707401 0.000749
4.745790 38.707401 0.000710
5.061140 38.707401 0.000870
5.376490 38.707401 0.000737
5.691840 38.707401 0.000467
6.007189 38.707401 0.000609
6.322540 38.707401 0.001193
6.637889 38.707401 0.002060
6.953240 38.707401 0.003312
7.268589 38.707401 0.005555
7.583940 38.707401 0.010935
7.899290 38.707401 0.018086
8.214640 38.707401 0.032606
8.529989 38.707401 0.054769
8.845339 38.707401 0.096427
9.160688 38.707401 0.160143
9.476040 38.707401 0.246485
9.791389 38.707401 0.359014
10.106739 38.707401 0.452741
10.422089 38.707401 0.572981
10.737438 38.707401 0.679898
11.052790 38.707401 0.780923
11.368139 38.707401 0.876419
11.683489 38.707401 0.975258
11.998838 38.707401 1.064312
12.314190 38.707401 1.129539
12.629539 38.707401 1.197619
12.944889 38.707401 1.216359
13.260239 38.707401 1.224759
13.575588 38.707401 1.191437
13.890940 38.707401 1.149875
14.206289 38.707401 1.056945
14.521639 38.707401 0.932064
14.836988 38.707401 0.805881
15.152340 38.707401 0.663037
15.467690 38.707401 0.561315
15.783039 38.707401 0.471082
16.098389 38.707401 0.000000
16.413738 38.707401 0.000000
16.729090 38.707401 0.000000
17.044439 38.707401 0.000000
17.359789 38.707401 0.000000
17.675138 38.707401 0.000000
17.990490 38.707401 0.000000
18.305840 38.707401 0.000000
18.621189 38.707401 0.000000
18.936539 38.707401 0.000000
19.251888 38.707401 0.000000
-7.237510 38.392052 0.000000
-6.922160 38.392052 0.000000
-6.606810 38.392052 0.001226
-6.291460 38.392052 0.001281
-5.976110 38.392052 0.001199
-5.660760 38.392052 0.001156
-5.345410 38.392052 0.001179
-5.030060 38.392052 0.001255
-4.714710 38.392052 0.001310
-4.399360 38.392052 0.001425
-4.084010 38.392052 0.001381
-3.768660 38.392052 0.001229
-3.453310 38.392052 0.001237
-3.137960 38.392052 0.001200
-2.822610 38.392052 0.001160
-2.507260 38.392052 0.001126
-2.191910 38.392052 0.001088
-1.876560 38.392052 0.001079
-1.561210 38.392052 0.001088
-1.245860 38.392052 0.001212
-0.930510 38.392052 0.001178
-0.615160 38.392052 0.001083
-0.299810 38.392052 0.001088
0.015540 38.392052 0.001086
0.330890 38.392052 0.001083
0.646240 38.392052 0.000936
0.961589 38.392052 0.000779
1.276940 38.392052 0.000731
1.592289 38.392052 0.000791
1.907640 38.392052 0.000857
2.222990 38.392052 0.000889
2.538340 38.392052 0.000880
2.853690 38.392052 0.000936
3.169039 38.392052 0.000951
3.484390 38.392052 0.000921
3.799739 38.392052 0.000775
4.115090 38.392052 0.000758
4.430439 38.392052 0.000704
4.745790 38.392052 0.000761
5.061140 38.392052 0.000799
5.376490 38.392052 0.000659
5.691840 38.392052 0.000620
6.007189 38.392052 0.000854
6.322540 38.392052 0.001341
6.637889 38.392052 0.001913
6.953240 38.392052 0.003293
7.268589 38.392052 0.006085
7.583940 38.392052 0.010535
7.899290 38.392052 0.018082
8.214640 38.392052 0.032157
8.529989 38.392052 0.054472
8.845339 38.392052 0.100458
9.160688 38.392052 0.162763
9.476040 38.392052 0.251311
9.791389 38.392052 0.354579
10.106739 38.392052 0.464171
10.422089 38.392052 0.579729
10.737438 38.392052 0.685349
11.052790 38.392052 0.780945
11.368139 38.392052 0.888462
11.683489 38.392052 0.968341
11.998838 38.392052 1.051840
12.314190 38.392052 1.107624
12.629539 38.392052 1.176261
12.944889 38.392052 1.232701
13.260239 38.392052 1.232384
13.575588 38.392052 1.206594
13.890940 38.392052 1.154000
14.206289 38.392052 1.052307
14.521639 38.392052 0.937585
14.836988 38.392052 0.796056
15.152340 38.392052 0.702961
15.467690 38.392052 0.579568
15.783039 38.392052 0.482434
16.098389 38.392052 0.000000
16.413738 38.392052 0.000000
16.729090 38.392052 0.000000
17.044439 38.392052 0.000000
17.359789 38.392052 0.000000
17.675138 38.392052 0.000000
17.990490 38.392052 0.000000
18.305840 38.392052 0.000000
18.621189 38.392052 0.000000
18.936539 38.392052 0.000000
19.251888 38.392052 0.000000
-7.237510 38.076698 0.000000
-6.922160 38.076698 0.000000
-6.606810 38.076698 0.001170
-6.291460 38.076698 0.001297
-5.976110 38.076698 0.001278
-5.660760 38.076698 0.001242
-5.345410 38.076698 0.001262
-5.030060 38.076698 0.001329
-4.714710 38.076698 0.001310
-4.399360 38.076698 0.001393
-4.084010 38.076698 0.001422
-3.768660 38.076698 0.001323
-3.453310 38.076698 0.001262
-3.137960 38.076698 0.001210
-2.822610 38.076698 0.001220
-2.507260 38.076698 0.001166
-2.191910 38.076698 0.001134
-1.876560 38.076698 0.001092
-1.561210 38.076698 0.001105
-1.245860 38.076698 0.001212
-0.930510 38.076698 0.001229
-0.615160 38.076698 0.001103
-0.299810 38.076698 0.001041
0.015540 38.076698 0.001066
0.330890 38.076698 0.001070
0.646240 38.076698 0.000959
0.961589 38.076698 0.000850
1.276940 38.076698 0.000790
1.592289 38.076698 0.000791
1.907640 38.076698 0.000852
2.222990 38.076698 0.000801
2.538340 38.076698 0.000903
2.853690 38.076698 0.000964
3.169039 38.076698 0.001015
3.484390 38.076698 0.000985
3.799739 38.076698 0.000824
4.115090 38.076698 0.000667
4.430439 38.076698 0.000704
4.745790 38.076698 0.000825
5.061140 38.076698 0.000777
5.376490 38.076698 0.000775
5.691840 38.076698 0.001002
6.007189 38.076698 0.001235
6.322540 38.076698 0.001536
6.637889 38.076698 0.002072
6.953240 38.076698 0.003346
7.268589 38.076698 0.006045
7.583940 38.076698 0.010849
7.899290 38.076698 0.019289
8.214640 38.076698 0.032096
8.529989 38.076698 0.054683
8.845339 38.076698 0.095916
9.160688 38.076698 0.161848
9.476040 38.076698 0.256765
9.791389 38.076698 0.352102
10.106739 38.076698 0.465151
10.422089 38.076698 0.589246
10.737438 38.076698 0.690845
11.052790 38.076698 0.798329
11.368139 38.076698 0.890962
11.683489 38.076698 0.980202
11.998838 38.076698 1.043898
12.314190 38.076698 1.114485
12.629539 38.076698 1.178457
12.944889 38.076698 1.226178
13.260239 38.076698 1.217510
13.575588 38.076698 1.206039
13.890940 38.076698 1.139311
14.206289 38.076698 1.031728
14.521639 38.076698 0.915607
14.836988 38.076698 0.792755
15.152340 38.076698 0.700697
15.467690 38.076698 0.589964
15.783039 38.076698 0.397633
16.098389 38.076698 0.000000
16.413738 38.076698 0.000000
16.729090 38.076698 0.000000
17.044439 38.076698 0.000000
17.359789 38.076698 0.000000
17.675138 38.076698 0.000000
17.990490 38.076698 0.000000
18.305840 38.076698 0.000000
18.621189 38.076698 0.000000
18.936539 38.076698 0.000000
19.251888 38.076698 0.000000
-7.237510 37.761353 0.000000
-6.922160 37.761353 0.000000
-6.606810 37.761353 0.001200
-6.291460 37.761353 0.001297
-5.976110 37.761353 0.001307
-5.660760 37.761353 0.001349
-5.345410 37.761353 0.001342
-5.030060 37.761353 0.001328
-4.714710 37.761353 0.001276
-4.399360 37.761353 0.001338
-4.084010 37.761353 0.001384
-3.768660 37.761353 0.001349
-3.453310 37.761353 0.001278
-3.137960 37.761353 0.001221
-2.822610 37.761353 0.001234
-2.507260 37.761353 0.001225
-2.191910 37.761353 0.001179
-1.876560 37.761353 0.001147
-1.561210 37.761353 0.001107
-1.245860 37.761353 0.001163
-0.930510 37.761353 0.001141
-0.615160 37.761353 0.001157
-0.299810 37.761353 0.001112
0.015540 37.761353 0.001041
0.330890 37.761353 0.001100
0.646240 37.761353 0.000996
0.961589 37.761353 0.000903
1.276940 37.761353 0.000851
1.592289 37.761353 0.000849
1.907640 37.761353 0.000821
2.222990 37.761353 0.000775
2.538340 37.761353 0.000868
2.853690 37.761353 0.001035
3.169039 37.761353 0.001043
3.484390 37.761353 0.000927
3.799739 37.761353 0.000888
4.115090 37.761353 0.000810
4.430439 37.761353 0.000842
4.745790 37.761353 0.000866
5.061140 37.761353 0.000743
5.376490 37.761353 0.000850
5.691840 37.761353 0.001196
6.007189 37.761353 0.001453
6.322540 37.761353 0.001583
6.637889 37.761353 0.002011
6.953240 37.761353 0.003417
7.268589 37.761353 0.006039
7.583940 37.761353 0.010733
7.899290 37.761353 0.018827
8.214640 37.761353 0.031289
8.529989 37.761353 0.053328
8.845339 37.761353 0.098913
9.160688 37.761353 0.162566
9.476040 37.761353 0.251898
9.791389 37.761353 0.366373
10.106739 37.761353 0.468920
10.422089 37.761353 0.579973
10.737438 37.761353 0.692246
11.052790 37.761353 0.791984
11.368139 37.761353 0.898722
11.683489 37.761353 0.992760
11.998838 37.761353 1.068092
12.314190 37.761353 1.144112
12.629539 37.761353 1.181951
12.944889 37.761353 1.213737
13.260239 37.761353 1.216060
13.575588 37.761353 1.180410
13.890940 37.761353 1.123748
14.206289 37.761353 1.051375
14.521639 37.761353 0.907819
14.836988 37.761353 0.774976
15.152340 37.761353 0.662285
15.467690 37.761353 0.580903
15.783039 37.761353 0.304726
16.098389 37.761353 0.000000
16.413738 37.761353 0.000000
16.729090 37.761353 0.000000
17.044439 37.761353 0.000000
17.359789 37.761353 0.000000
17.675138 37.761353 0.000000
17.990490 37.761353 0.000000
18.305840 37.761353 0.000000
18.621189 37.761353 0.000000
18.936539 37.761353 0.000000
19.251888 37.761353 0.000000
-7.237510 37.445999 0.000000
-6.922160 37.445999 0.000000
-6.606810 37.445999 0.001193
-6.291460 37.445999 0.001190
-5.976110 37.445999 0.001257
-5.660760 37.445999 0.001301
-5.345410 37.445999 0.001336
-5.030060 37.445999 0.001301
-4.714710 37.445999 0.001248
-4.399360 37.445999 0.001260
-4.084010 37.445999 0.001301
-3.768660 37.445999 0.001321
-3.453310 37.445999 0.001279
-3.137960 37.445999 0.001248
-2.822610 37.445999 0.001277
-2.507260 37.445999 0.001303
-2.191910 37.445999 0.001248
-1.876560 37.445999 0.001210
-1.561210 37.445999 0.001124
-1.245860 37.445999 0.001086
-0.930510 37.445999 0.001095
-0.615160 37.445999 0.001193
-0.299810 37.445999 0.001151
0.015540 37.445999 0.001013
0.330890 37.445999 0.001028
0.646240 37.445999 0.001027
0.961589 37.445999 0.000928
1.276940 37.445999 0.000908
1.592289 37.445999 0.000895
1.907640 37.445999 0.000832
2.222990 37.445999 0.000836
2.538340 37.445999 0.000840
2.853690 37.445999 0.000993
3.169039 37.445999 0.001035
3.484390 37.445999 0.000966
3.799739 37.445999 0.000823
4.115090 37.445999 0.000895
4.430439 37.445999 0.000979
4.745790 37.445999 0.000924
5.061140 37.445999 0.000793
5.376490 37.445999 0.000996
5.691840 37.445999 0.001333
6.007189 37.445999 0.001735
6.322540 37.445999 0.001810
6.637889 37.445999 0.001944
6.953240 37.445999 0.003383
7.268589 37.445999 0.005862
7.583940 37.445999 0.011038
7.899290 37.445999 0.018198
8.214640 37.445999 0.030063
8.529989 37.445999 0.055201
8.845339 37.445999 0.105320
9.160688 37.445999 0.162847
9.476040 37.445999 0.249120
9.791389 37.445999 0.356539
10.106739 37.445999 0.469695
10.422089 37.445999 0.582108
10.737438 37.445999 0.685435
11.052790 37.445999 0.784413
11.368139 37.445999 0.877833
11.683489 37.445999 0.981346
11.998838 37.445999 1.078235
12.314190 37.445999 1.147482
12.629539 37.445999 1.205922
12.944889 37.445999 1.231275
13.260239 37.445999 1.229931
13.575588 37.445999 1.201477
13.890940 37.445999 1.130370
14.206289 37.445999 1.048171
14.521639 37.445999 0.911331
14.836988 37.445999 0.797733
15.152340 37.445999 0.657325
15.467690 37.445999 0.561427
15.783039 37.445999 0.295425
16.098389 37.445999 0.000000
16.413738 37.445999 0.000000
16.729090 37.445999 0.000000
17.044439 37.445999 0.000000
17.359789 37.445999 0.000000
17.675138 37.445999 0.000000
17.990490 37.445999 0.000000
18.305840 37.445999 0.000000
18.621189 37.445999 0.000000
18.936539 37.445999 0.000000
19.251888 37.445999 0.000000
-7.237510 37.130650 0.000000
-6.922160 37.130650 0.000000
-6.606810 37.130650 0.001233
-6.291460 37.130650 0.001154
-5.976110 37.130650 0.001160
-5.660760 37.130650 0.001243
-5.345410 37.130650 0.001248
-5.030060 37.130650 0.001253
-4.714710 37.130650 0.001210
-4.399360 37.130650 0.001189
-4.084010 37.130650 0.001224
-3.768660 37.130650 0.001278
-3.453310 37.130650 0.001276
-3.137960 37.130650 0.001247
-2.822610 37.130650 0.001321
-2.507260 37.130650 0.001334
-2.191910 37.130650 0.001276
-1.876560 37.130650 0.001266
-1.561210 37.130650 0.001153
-1.245860 37.130650 0.001034
-0.930510 37.130650 0.001069
-0.615160 37.130650 0.001183
-0.299810 37.130650 0.001158
0.015540 37.130650 0.001003
0.330890 37.130650 0.000986
0.646240 37.130650 0.000973
0.961589 37.130650 0.000959
1.276940 37.130650 0.000979
1.592289 37.130650 0.000886
1.907640 37.130650 0.000782
2.222990 37.130650 0.000766
2.538340 37.130650 0.000804
2.853690 37.130650 0.000922
3.169039 37.130650 0.001026
3.484390 37.130650 0.000981
3.799739 37.130650 0.000871
4.115090 37.130650 0.000937
4.430439 37.130650 0.001006
4.745790 37.130650 0.001004
5.061140 37.130650 0.000922
5.376490 37.130650 0.001183
5.691840 37.130650 0.001530
6.007189 37.130650 0.001742
6.322540 37.130650 0.001681
6.637889 37.130650 0.001921
6.953240 37.130650 0.003027
7.268589 37.130650 0.005861
7.583940 37.130650 0.010710
7.899290 37.130650 0.018876
8.214640 37.130650 0.031562
8.529989 37.130650 0.056117
8.845339 37.130650 0.099683
9.160688 37.130650 0.162118
9.476040 37.130650 0.248708
9.791389 37.130650 0.361257
10.106739 37.130650 0.466235
10.422089 37.130650 0.586349
10.737438 37.130650 0.693533
11.052790 37.130650 0.782653
11.368139 37.130650 0.885608
11.683489 37.130650 0.979694
11.998838 37.130650 1.077287
12.314190 37.130650 1.157153
12.629539 37.130650 1.200037
12.944889 37.130650 1.252823
13.260239 37.130650 1.246875
13.575588 37.130650 1.209950
13.890940 37.130650 1.141373
14.206289 37.130650 1.044232
14.521639 37.130650 0.920459
14.836988 37.130650 0.793641
15.152340 37.130650 0.662812
15.467690 37.130650 0.547391
15.783039 37.130650 0.276450
16.098389 37.130650 0.000000
16.413738 37.130650 0.000000
16.729090 37.130650 0.000000
17.044439 37.130650 0.000000
17.359789 37.130650 0.000000
17.675138 37.130650 0.000000
17.990490 37.130650 0.000000
18.305840 37.130650 0.000000
18.621189 37.130650 0.000000
18.936539 37.130650 0.000000
19.251888 37.130650 0.000000
-7.237510 36.815300 0.000000
-6.922160 36.815300 0.000000
-6.606810 36.815300 0.001253
-6.291460 36.815300 0.001161
-5.976110 36.815300 0.001138
-5.660760 36.815300 0.001168
-5.345410 36.815300 0.001154
-5.030060 36.815300 0.001200
-4.714710 36.815300 0.001166
-4.399360 36.815300 0.001178
-4.084010 36.815300 0.001187
-3.768660 36.815300 0.001278
-3.453310 36.815300 0.001256
-3.137960 36.815300 0.001240
-2.822610 36.815300 0.001263
-2.507260 36.815300 0.001238
-2.191910 36.815300 0.001288
-1.876560 36.815300 0.001249
-1.561210 36.815300 0.001123
-1.245860 36.815300 0.001010
-0.930510 36.815300 0.001072
-0.615160 36.815300 0.001173
-0.299810 36.815300 0.001138
0.015540 36.815300 0.000983
0.330890 36.815300 0.000935
0.646240 36.815300 0.000950
0.961589 36.815300 0.000963
1.276940 36.815300 0.001025
1.592289 36.815300 0.000915
1.907640 36.815300 0.000760
2.222990 36.815300 0.000742
2.538340 36.815300 0.000779
2.853690 36.815300 0.000880
3.169039 36.815300 0.000981
3.484390 36.815300 0.001004
3.799739 36.815300 0.000946
4.115090 36.815300 0.001035
4.430439 36.815300 0.001050
4.745790 36.815300 0.001081
5.061140 36.815300 0.001023
5.376490 36.815300 0.001280
5.691840 36.815300 0.001597
6.007189 36.815300 0.001793
6.322540 36.815300 0.001690
6.637889 36.815300 0.001672
6.953240 36.815300 0.003007
7.268589 36.815300 0.006009
7.583940 36.815300 0.011036
7.899290 36.815300 0.020017
8.214640 36.815300 0.034112
8.529989 36.815300 0.056924
8.845339 36.815300 0.103531
9.160688 36.815300 0.164628
9.476040 36.815300 0.252452
9.791389 36.815300 0.353935
10.106739 36.815300 0.470250
10.422089 36.815300 0.589013
10.737438 36.815300 0.696538
11.052790 36.815300 0.785398
11.368139 36.815300 0.886384
11.683489 36.815300 0.979740
11.998838 36.815300 1.070445
12.314190 36.815300 1.155242
12.629539 36.815300 1.205738
12.944889 36.815300 1.243693
13.260239 36.815300 1.261733
13.575588 36.815300 1.214094
13.890940 36.815300 1.149382
14.206289 36.815300 1.064028
14.521639 36.815300 0.942080
14.836988 36.815300 0.782311
15.152340 36.815300 0.645948
15.467690 36.815300 0.541476
15.783039 36.815300 0.254623
16.098389 36.815300 0.000000
16.413738 36.815300 0.000000
16.729090 36.815300 0.000000
17.044439 36.815300 0.000000
17.359789 36.815300 0.000000
17.675138 36.815300 0.000000
17.990490 36.815300 0.000000
18.305840 36.815300 0.000000
18.621189 36.815300 0.000000
18.936539 36.815300 0.000000
19.251888 36.815300 0.000000
-7.237510 36.499950 0.000000
-6.922160 36.499950 0.000000
-6.606810 36.499950 0.001300
-6.291460 36.499950 0.001203
-5.976110 36.499950 0.001140
-5.660760 36.499950 0.001115
-5.345410 36.499950 0.001110
-5.030060 36.499950 0.001226
-4.714710 36.499950 0.001188
-4.399360 36.499950 0.001187
-4.084010 36.499950 0.001213
-3.768660 36.499950 0.001322
-3.453310 36.499950 0.001258
-3.137960 36.499950 0.001235
-2.822610 36.499950 0.001156
-2.507260 36.499950 0.001098
-2.191910 36.499950 0.001200
-1.876560 36.499950 0.001260
-1.561210 36.499950 0.001152
-1.245860 36.499950 0.001068
-0.930510 36.499950 0.001075
-0.615160 36.499950 0.001190
-0.299810 36.499950 0.001114
0.015540 36.499950 0.000988
0.330890 36.499950 0.000898
0.646240 36.499950 0.000902
0.961589 36.499950 0.000956
1.276940 36.499950 0.001040
1.592289 36.499950 0.000889
1.907640 36.499950 0.000738
2.222990 36.499950 0.000767
2.538340 36.499950 0.000791
2.853690 36.499950 0.000739
3.169039 36.499950 0.000798
3.484390 36.499950 0.000890
3.799739 36.499950 0.001021
4.115090 36.499950 0.001141
4.430439 36.499950 0.001192
4.745790 36.499950 0.001227
5.061140 36.499950 0.001261
5.376490 36.499950 0.001436
5.691840 36.499950 0.001463
6.007189 36.499950 0.001571
6.322540 36.499950 0.001390
6.637889 36.499950 0.001700
6.953240 36.499950 0.003061
7.268589 36.499950 0.006373
7.583940 36.499950 0.011359
7.899290 36.499950 0.019410
8.214640 36.499950 0.031592
8.529989 36.499950 0.057143
8.845339 36.499950 0.104812
9.160688 36.499950 0.167351
9.476040 36.499950 0.248051
9.791389 36.499950 0.365161
10.106739 36.499950 0.475016
10.422089 36.499950 0.582273
10.737438 36.499950 0.689701
11.052790 36.499950 0.791593
11.368139 36.499950 0.896334
11.683489 36.499950 0.988192
11.998838 36.499950 1.076866
12.314190 36.499950 1.162215
12.629539 36.499950 1.207566
12.944889 36.499950 1.230688
13.260239 36.499950 1.246523
13.575588 36.499950 1.195958
13.890940 36.499950 1.156122
14.206289 36.499950 1.070158
14.521639 36.499950 0.971953
14.836988 36.499950 0.805832
15.152340 36.499950 0.650083
15.467690 36.499950 0.546980
15.783039 36.499950 0.226762
16.098389 36.499950 0.000000
16.413738 36.499950 0.000000
16.729090 36.499950 0.000000
17.044439 36.499950 0.000000
17.359789 36.499950 0.000000
17.675138 36.499950 0.000000
17.990490 36.499950 0.000000
18.305840 36.499950 0.000000
18.621189 36.499950 0.000000
18.936539 36.499950 0.000000
19.251888 36.499950 0.000000
-7.237510 36.184601 0.000000
-6.922160 36.184601 0.000000
-6.606810 36.184601 0.001333
-6.291460 36.184601 0.001307
-5.976110 36.184601 0.001203
-5.660760 36.184601 0.001152
-5.345410 36.184601 0.001174
-5.030060 36.184601 0.001252
-4.714710 36.184601 0.001252
-4.399360 36.184601 0.001247
-4.084010 36.184601 0.001280
-3.768660 36.184601 0.001391
-3.453310 36.184601 0.001317
-3.137960 36.184601 0.001192
-2.822610 36.184601 0.001061
-2.507260 36.184601 0.001025
-2.191910 36.184601 0.001177
-1.876560 36.184601 0.001228
-1.561210 36.184601 0.001183
-1.245860 36.184601 0.001093
-0.930510 36.184601 0.001100
-0.615160 36.184601 0.001225
-0.299810 36.184601 0.001151
0.015540 36.184601 0.001049
0.330890 36.184601 0.000914
0.646240 36.184601 0.000897
0.961589 36.184601 0.000965
1.276940 36.184601 0.000948
1.592289 36.184601 0.000903
1.907640 36.184601 0.000841
2.222990 36.184601 0.000820
2.538340 36.184601 0.000712
2.853690 36.184601 0.000584
3.169039 36.184601 0.000667
3.484390 36.184601 0.000855
3.799739 36.184601 0.001053
4.115090 36.184601 0.001210
4.430439 36.184601 0.001282
4.745790 36.184601 0.001305
5.061140 36.184601 0.001303
5.376490 36.184601 0.001426
5.691840 36.184601 0.001460
6.007189 36.184601 0.001434
6.322540 36.184601 0.001462
6.637889 36.184601 0.001863
6.953240 36.184601 0.003201
7.268589 36.184601 0.006319
7.583940 36.184601 0.011196
7.899290 36.184601 0.018351
8.214640 36.184601 0.030080
8.529989 36.184601 0.054037
8.845339 36.184601 0.101064
9.160688 36.184601 0.168567
9.476040 36.184601 0.259595
9.791389 36.184601 0.365699
10.106739 36.184601 0.482793
10.422089 36.184601 0.578528
10.737438 36.184601 0.686190
11.052790 36.184601 0.801611
11.368139 36.184601 0.902398
11.683489 36.184601 0.994411
11.998838 36.184601 1.087734
12.314190 36.184601 1.152868
12.629539 36.184601 1.219694
12.944889 36.184601 1.237988
13.260239 36.184601 1.245885
13.575588 36.184601 1.209064
13.890940 36.184601 1.165170
14.206289 36.184601 1.084590
14.521639 36.184601 0.949587
14.836988 36.184601 0.810035
15.152340 36.184601 0.651585
15.467690 36.184601 0.530701
15.783039 36.184601 0.197138
16.098389 36.184601 0.000000
16.413738 36.184601 0.000000
16.729090 36.184601 0.000000
17.044439 36.184601 0.000000
17.359789 36.184601 0.000000
17.675138 36.184601 0.000000
17.990490 36.184601 0.000000
18.305840 36.184601 0.000000
18.621189 36.184601 0.000000
18.936539 36.184601 0.000000
19.251888 36.184601 0.000000
-7.237510 35.869251 0.000000
-6.922160 35.869251 0.000000
-6.606810 35.869251 0.001452
-6.291460 35.869251 0.001382
-5.976110 35.869251 0.001342
-5.660760 35.869251 0.001244
-5.345410 35.869251 0.001238
-5.030060 35.869251 0.001298
-4.714710 35.869251 0.001337
-4.399360 35.869251 0.001336
-4.084010 35.869251 0.001369
-3.768660 35.869251 0.001465
-3.453310 35.869251 0.001359
-3.137960 35.869251 0.001226
-2.822610 35.869251 0.001107
-2.507260 35.869251 0.001081
-2.191910 35.869251 0.001124
-1.876560 35.869251 0.001242
-1.561210 35.869251 0.001208
-1.245860 35.869251 0.001136
-0.930510 35.869251 0.001172
-0.615160 35.869251 0.001269
-0.299810 35.869251 0.001245
0.015540 35.869251 0.001143
0.330890 35.869251 0.000998
0.646240 35.869251 0.000981
0.961589 35.869251 0.000938
1.276940 35.869251 0.000942
1.592289 35.869251 0.000921
1.907640 35.869251 0.000869
2.222990 35.869251 0.000878
2.538340 35.869251 0.000774
2.853690 35.869251 0.000575
3.169039 35.869251 0.000643
3.484390 35.869251 0.000818
3.799739 35.869251 0.001067
4.115090 35.869251 0.001247
4.430439 35.869251 0.001292
4.745790 35.869251 0.001286
5.061140 35.869251 0.001317
5.376490 35.869251 0.001424
5.691840 35.869251 0.001417
6.007189 35.869251 0.001446
6.322540 35.869251 0.001749
6.637889 35.869251 0.002567
6.953240 35.869251 0.003315
7.268589 35.869251 0.006270
7.583940 35.869251 0.011246
7.899290 35.869251 0.019551
8.214640 35.869251 0.030643
8.529989 35.869251 0.056805
8.845339 35.869251 0.103484
9.160688 35.869251 0.169607
9.476040 35.869251 0.259649
9.791389 35.869251 0.367075
10.106739 35.869251 0.473592
10.422089 35.869251 0.574697
10.737438 35.869251 0.689483
11.052790 35.869251 0.804374
11.368139 35.869251 0.908333
11.683489 35.869251 0.996735
11.998838 35.869251 1.078851
12.314190 35.869251 1.170177
12.629539 35.869251 1.205361
12.944889 35.869251 1.246920
13.260239 35.869251 1.240857
13.575588 35.869251 1.243684
13.890940 35.869251 1.169756
14.206289 35.869251 1.078420
14.521639 35.869251 0.964588
14.836988 35.869251 0.802931
15.152340 35.869251 0.653065
15.467690 35.869251 0.530503
15.783039 35.869251 0.155524
16.098389 35.869251 0.000000
16.413738 35.869251 0.000000
16.729090 35.869251 0.000000
17.044439 35.869251 0.000000
17.359789 35.869251 0.000000
17.675138 35.869251 0.000000
17.990490 35.869251 0.000000
18.305840 35.869251 0.000000
18.621189 35.869251 0.000000
18.936539 35.869251 0.000000
19.251888 35.869251 0.000000
-7.237510 35.553902 0.000000
-6.922160 35.553902 -0.007845
-6.606810 35.553902 0.001482
-6.291460 35.553902 0.001477
-5.976110 35.553902 0.001476
-5.660760 35.553902 0.001397
-5.345410 35.553902 0.001304
-5.030060 35.553902 0.001328
-4.714710 35.553902 0.001341
-4.399360 35.553902 0.001378
-4.084010 35.553902 0.001394
-3.768660 35.553902 0.001436
-3.453310 35.553902 0.001399
-3.137960 35.553902 0.001282
-2.822610 35.553902 0.001149
-2.507260 35.553902 0.001094
-2.191910 35.553902 0.001120
-1.876560 35.553902 0.001206
-1.561210 35.553902 0.001234
-1.245860 35.553902 0.001235
-0.930510 35.553902 0.001313
-0.615160 35.553902 0.001371
-0.299810 35.553902 0.001327
0.015540 35.553902 0.001251
0.330890 35.553902 0.001145
0.646240 35.553902 0.001049
0.961589 35.553902 0.000899
1.276940 35.553902 0.000944
1.592289 35.553902 0.000876
1.907640 35.553902 0.000908
2.222990 35.553902 0.000927
2.538340 35.553902 0.000811
2.853690 35.553902 0.000637
3.169039 35.553902 0.000692
3.484390 35.553902 0.000831
3.799739 35.553902 0.001026
4.115090 35.553902 0.001259
4.430439 35.553902 0.001306
4.745790 35.553902 0.001303
5.061140 35.553902 0.001258
5.376490 35.553902 0.001273
5.691840 35.553902 0.001314
6.007189 35.553902 0.001481
6.322540 35.553902 0.001990
6.637889 35.553902 0.002541
6.953240 35.553902 0.003814
7.268589 35.553902 0.006342
7.583940 35.553902 0.010541
7.899290 35.553902 0.017668
8.214640 35.553902 0.032982
8.529989 35.553902 0.058252
8.845339 35.553902 0.102661
9.160688 35.553902 0.170630
9.476040 35.553902 0.264586
9.791389 35.553902 0.367896
10.106739 35.553902 0.462764
10.422089 35.553902 0.573530
10.737438 35.553902 0.695346
11.052790 35.553902 0.823936
11.368139 35.553902 0.916282
11.683489 35.553902 1.010485
11.998838 35.553902 1.073002
12.314190 35.553902 1.153054
12.629539 35.553902 1.230449
12.944889 35.553902 1.239942
13.260239 35.553902 1.259658
13.575588 35.553902 1.248507
13.890940 35.553902 1.153336
14.206289 35.553902 1.084260
14.521639 35.553902 0.954406
14.836988 35.553902 0.799054
15.152340 35.553902 0.651700
15.467690 35.553902 0.526336
15.783039 35.553902 0.141242
16.098389 35.553902 0.000000
16.413738 35.553902 0.000000
16.729090 35.553902 0.000000
17.044439 35.553902 0.000000
17.359789 35.553902 0.000000
17.675138 35.553902 0.000000
17.990490 35.553902 0.000000
18.305840 35.553902 0.000000
18.621189 35.553902 0.000000
18.936539 35.553902 0.000000
19.251888 35.553902 0.000000
-7.237510 35.238552 0.000000
-6.922160 35.238552 0.026225
-6.606810 35.238552 0.001460
-6.291460 35.238552 0.001560
-5.976110 35.238552 0.001588
-5.660760 35.238552 0.001508
-5.345410 35.238552 0.001418
-5.030060 35.238552 0.001396
-4.714710 35.238552 0.001389
-4.399360 35.238552 0.001418
-4.084010 35.238552 0.001368
-3.768660 35.238552 0.001359
-3.453310 35.238552 0.001377
-3.137960 35.238552 0.001323
-2.822610 35.238552 0.001201
-2.507260 35.238552 0.001144
-2.191910 35.238552 0.001151
-1.876560 35.238552 0.001240
-1.561210 35.238552 0.001308
-1.245860 35.238552 0.001324
-0.930510 35.238552 0.001432
-0.615160 35.238552 0.001425
-0.299810 35.238552 0.001381
0.015540 35.238552 0.001273
0.330890 35.238552 0.001204
0.646240 35.238552 0.001080
0.961589 35.238552 0.000993
1.276940 35.238552 0.000959
1.592289 35.238552 0.000836
1.907640 35.238552 0.000891
2.222990 35.238552 0.000968
2.538340 35.238552 0.000859
2.853690 35.238552 0.000743
3.169039 35.238552 0.000857
3.484390 35.238552 0.000910
3.799739 35.238552 0.000959
4.115090 35.238552 0.001145
4.430439 35.238552 0.001206
4.745790 35.238552 0.001122
5.061140 35.238552 0.001055
5.376490 35.238552 0.001098
5.691840 35.238552 0.001268
6.007189 35.238552 0.001515
6.322540 35.238552 0.001929
6.637889 35.238552 0.002472
6.953240 35.238552 0.003784
7.268589 35.238552 0.005661
7.583940 35.238552 0.010281
7.899290 35.238552 0.018309
8.214640 35.238552 0.034336
8.529989 35.238552 0.058379
8.845339 35.238552 0.102045
9.160688 35.238552 0.169143
9.476040 35.238552 0.261368
9.791389 35.238552 0.369630
10.106739 35.238552 0.472703
10.422089 35.238552 0.584024
10.737438 35.238552 0.693349
11.052790 35.238552 0.812396
11.368139 35.238552 0.915716
11.683489 35.238552 1.018990
11.998838 35.238552 1.086792
12.314190 35.238552 1.157239
12.629539 35.238552 1.246023
12.944889 35.238552 1.277233
13.260239 35.238552 1.268516
13.575588 35.238552 1.249593
13.890940 35.238552 1.185446
14.206289 35.238552 1.091650
14.521639 35.238552 0.951158
14.836988 35.238552 0.789790
15.152340 35.238552 0.651368
15.467690 35.238552 0.509254
15.783039 35.238552 0.124577
16.098389 35.238552 0.000000
16.413738 35.238552 0.000000
16.729090 35.238552 0.000000
17.044439 35.238552 0.000000
17.359789 35.238552 0.000000
17.675138 35.238552 0.000000
17.990490 35.238552 0.000000
18.305840 35.238552 0.000000
18.621189 35.238552 0.000000
18.936539 35.238552 0.000000
19.251888 35.238552 0.000000
-7.237510 34.923203 0.000000
-6.922160 34.923203 0.015693
-6.606810 34.923203 0.001430
-6.291460 34.923203 0.001599
-5.976110 34.923203 0.001650
-5.660760 34.923203 0.001631
-5.345410 34.923203 0.001527
-5.030060 34.923203 0.001456
-4.714710 34.923203 0.001394
-4.399360 34.923203 0.001405
-4.084010 34.923203 0.001354
-3.768660 34.923203 0.001284
-3.453310 34.923203 0.001334
-3.137960 34.923203 0.001345
-2.822610 34.923203 0.001242
-2.507260 34.923203 0.001175
-2.191910 34.923203 0.001180
-1.876560 34.923203 0.001249
-1.561210 34.923203 0.001328
-1.245860 34.923203 0.001414
-0.930510 34.923203 0.001460
-0.615160 34.923203 0.001431
-0.299810 34.923203 0.001445
0.015540 34.923203 0.001355
0.330890 34.923203 0.001228
0.646240 34.923203 0.001121
0.961589 34.923203 0.001041
1.276940 34.923203 0.000947
1.592289 34.923203 0.000806
1.907640 34.923203 0.000766
2.222990 34.923203 0.000861
2.538340 34.923203 0.000868
2.853690 34.923203 0.000911
3.169039 34.923203 0.000981
3.484390 34.923203 0.000938
3.799739 34.923203 0.000881
4.115090 34.923203 0.000981
4.430439 34.923203 0.001164
4.745790 34.923203 0.001104
5.061140 34.923203 0.001044
5.376490 34.923203 0.001085
5.691840 34.923203 0.001261
6.007189 34.923203 0.001612
6.322540 34.923203 0.001895
6.637889 34.923203 0.002385
6.953240 34.923203 0.003489
7.268589 34.923203 0.006133
7.583940 34.923203 0.010178
7.899290 34.923203 0.018339
8.214640 34.923203 0.033982
8.529989 34.923203 0.060119
8.845339 34.923203 0.103615
9.160688 34.923203 0.172548
9.476040 34.923203 0.256445
9.791389 34.923203 0.363377
10.106739 34.923203 0.481207
10.422089 34.923203 0.593350
10.737438 34.923203 0.688223
11.052790 34.923203 0.807358
11.368139 34.923203 0.894224
11.683489 34.923203 1.023275
11.998838 34.923203 1.109156
12.314190 34.923203 1.185138
12.629539 34.923203 1.231482
12.944889 34.923203 1.253998
13.260239 34.923203 1.272566
13.575588 34.923203 1.245313
13.890940 34.923203 1.191455
14.206289 34.923203 1.116073
14.521639 34.923203 0.961797
14.836988 34.923203 0.768508
15.152340 34.923203 0.639773
15.467690 34.923203 0.488971
15.783039 34.923203 0.108601
16.098389 34.923203 0.000000
16.413738 34.923203 0.000000
16.729090 34.923203 0.000000
17.044439 34.923203 0.000000
17.359789 34.923203 0.000000
17.675138 34.923203 0.000000
17.990490 34.923203 0.000000
18.305840 34.923203 0.000000
18.621189 34.923203 0.000000
18.936539 34.923203 0.000000
19.251888 34.923203 0.000000
-7.237510 34.607849 0.000000
-6.922160 34.607849 0.003389
-6.606810 34.607849 0.001513
-6.291460 34.607849 0.001718
-5.976110 34.607849 0.001711
-5.660760 34.607849 0.001656
-5.345410 34.607849 0.001595
-5.030060 34.607849 0.001505
-4.714710 34.607849 0.001436
-4.399360 34.607849 0.001425
-4.084010 34.607849 0.001375
-3.768660 34.607849 0.001267
-3.453310 34.607849 0.001260
-3.137960 34.607849 0.001323
-2.822610 34.607849 0.001241
-2.507260 34.607849 0.001174
-2.191910 34.607849 0.001123
-1.876560 34.607849 0.001281
-1.561210 34.607849 0.001405
-1.245860 34.607849 0.001500
-0.930510 34.607849 0.001423
-0.615160 34.607849 0.001369
-0.299810 34.607849 0.001382
0.015540 34.607849 0.001359
0.330890 34.607849 0.001268
0.646240 34.607849 0.001202
0.961589 34.607849 0.001135
1.276940 34.607849 0.001030
1.592289 34.607849 0.000827
1.907640 34.607849 0.000723
2.222990 34.607849 0.000842
2.538340 34.607849 0.000894
2.853690 34.607849 0.001050
3.169039 34.607849 0.001081
3.484390 34.607849 0.000884
3.799739 34.607849 0.000790
4.115090 34.607849 0.000931
4.430439 34.607849 0.001109
4.745790 34.607849 0.001126
5.061140 34.607849 0.001076
5.376490 34.607849 0.001127
5.691840 34.607849 0.001308
6.007189 34.607849 0.001593
6.322540 34.607849 0.001913
6.637889 34.607849 0.002506
6.953240 34.607849 0.003965
7.268589 34.607849 0.006061
7.583940 34.607849 0.010603
7.899290 34.607849 0.018694
8.214640 34.607849 0.032665
8.529989 34.607849 0.059789
8.845339 34.607849 0.100301
9.160688 34.607849 0.170064
9.476040 34.607849 0.253313
9.791389 34.607849 0.364890
10.106739 34.607849 0.482029
10.422089 34.607849 0.591007
10.737438 34.607849 0.696533
11.052790 34.607849 0.791434
11.368139 34.607849 0.890126
11.683489 34.607849 1.002362
11.998838 34.607849 1.113972
12.314190 34.607849 1.184201
12.629539 34.607849 1.231943
12.944889 34.607849 1.267966
13.260239 34.607849 1.272536
13.575588 34.607849 1.252809
13.890940 34.607849 1.187531
14.206289 34.607849 1.100001
14.521639 34.607849 0.945967
14.836988 34.607849 0.784036
15.152340 34.607849 0.634241
15.467690 34.607849 0.498627
15.783039 34.607849 0.082632
16.098389 34.607849 0.000000
16.413738 34.607849 0.000000
16.729090 34.607849 0.000000
17.044439 34.607849 0.000000
17.359789 34.607849 0.000000
17.675138 34.607849 0.000000
17.990490 34.607849 0.000000
18.305840 34.607849 0.000000
18.621189 34.607849 0.000000
18.936539 34.607849 0.000000
19.251888 34.607849 0.000000
-7.237510 34.292503 0.000000
-6.922160 34.292503 0.000666
-6.606810 34.292503 0.001666
-6.291460 34.292503 0.001827
-5.976110 34.292503 0.001810
-5.660760 34.292503 0.001674
-5.345410 34.292503 0.001623
-5.030060 34.292503 0.001544
-4.714710 34.292503 0.001456
-4.399360 34.292503 0.001375
-4.084010 34.292503 0.001380
-3.768660 34.292503 0.001264
-3.453310 34.292503 0.001209
-3.137960 34.292503 0.001237
-2.822610 34.292503 0.001185
-2.507260 34.292503 0.001112
-2.191910 34.292503 0.001150
-1.876560 34.292503 0.001324
-1.561210 34.292503 0.001509
-1.245860 34.292503 0.001581
-0.930510 34.292503 0.001485
-0.615160 34.292503 0.001369
-0.299810 34.292503 0.001316
0.015540 34.292503 0.001332
0.330890 34.292503 0.001324
0.646240 34.292503 0.001234
0.961589 34.292503 0.001170
1.276940 34.292503 0.001113
1.592289 34.292503 0.000895
1.907640 34.292503 0.000687
2.222990 34.292503 0.000806
2.538340 34.292503 0.000986
2.853690 34.292503 0.001101
3.169039 34.292503 0.001136
3.484390 34.292503 0.000873
3.799739 34.292503 0.000763
4.115090 34.292503 0.000881
4.430439 34.292503 0.001068
4.745790 34.292503 0.001113
5.061140 34.292503 0.001199
5.376490 34.292503 0.001194
5.691840 34.292503 0.001405
6.007189 34.292503 0.001843
6.322540 34.292503 0.002000
6.637889 34.292503 0.002495
6.953240 34.292503 0.003800
7.268589 34.292503 0.006294
7.583940 34.292503 0.010451
7.899290 34.292503 0.017742
8.214640 34.292503 0.032650
8.529989 34.292503 0.058101
8.845339 34.292503 0.102691
9.160688 34.292503 0.173322
9.476040 34.292503 0.265520
9.791389 34.292503 0.376668
10.106739 34.292503 0.488836
10.422089 34.292503 0.601772
10.737438 34.292503 0.691538
11.052790 34.292503 0.796060
11.368139 34.292503 0.887577
11.683489 34.292503 1.002801
11.998838 34.292503 1.115708
12.314190 34.292503 1.184381
12.629539 34.292503 1.237381
12.944889 34.292503 1.259519
13.260239 34.292503 1.269850
13.575588 34.292503 1.243753
13.890940 34.292503 1.178373
14.206289 34.292503 1.088058
14.521639 34.292503 0.946945
14.836988 34.292503 0.779316
15.152340 34.292503 0.648076
15.467690 34.292503 0.506462
15.783039 34.292503 0.072523
16.098389 34.292503 0.000000
16.413738 34.292503 0.000000
16.729090 34.292503 0.000000
17.044439 34.292503 0.000000
17.359789 34.292503 0.000000
17.675138 34.292503 0.000000
17.990490 34.292503 0.000000
18.305840 34.292503 0.000000
18.621189 34.292503 0.000000
18.936539 34.292503 0.000000
19.251888 34.292503 0.000000
-7.237510 33.977150 0.000000
-6.922160 33.977150 0.002151
-6.606810 33.977150 0.001870
-6.291460 33.977150 0.001955
-5.976110 33.977150 0.001905
-5.660760 33.977150 0.001713
-5.345410 33.977150 0.001675
-5.030060 33.977150 0.001495
-4.714710 33.977150 0.001373
-4.399360 33.977150 0.001417
-4.084010 33.977150 0.001432
-3.768660 33.977150 0.001277
-3.453310 33.977150 0.001180
-3.137960 33.977150 0.001176
-2.822610 33.977150 0.001209
-2.507260 33.977150 0.001097
-2.191910 33.977150 0.001079
-1.876560 33.977150 0.001356
-1.561210 33.977150 0.001539
-1.245860 33.977150 0.001555
-0.930510 33.977150 0.001463
-0.615160 33.977150 0.001396
-0.299810 33.977150 0.001282
0.015540 33.977150 0.001353
0.330890 33.977150 0.001359
0.646240 33.977150 0.001283
0.961589 33.977150 0.001288
1.276940 33.977150 0.001250
1.592289 33.977150 0.000952
1.907640 33.977150 0.000742
2.222990 33.977150 0.000883
2.538340 33.977150 0.001121
2.853690 33.977150 0.001163
3.169039 33.977150 0.001173
3.484390 33.977150 0.000920
3.799739 33.977150 0.000730
4.115090 33.977150 0.000844
4.430439 33.977150 0.001117
4.745790 33.977150 0.001261
5.061140 33.977150 0.001321
5.376490 33.977150 0.001352
5.691840 33.977150 0.001519
6.007189 33.977150 0.001818
6.322540 33.977150 0.002026
6.637889 33.977150 0.002739
6.953240 33.977150 0.003744
7.268589 33.977150 0.006502
7.583940 33.977150 0.010357
7.899290 33.977150 0.018397
8.214640 33.977150 0.033357
8.529989 33.977150 0.059308
8.845339 33.977150 0.102669
9.160688 33.977150 0.171106
9.476040 33.977150 0.262332
9.791389 33.977150 0.384544
10.106739 33.977150 0.491121
10.422089 33.977150 0.595268
10.737438 33.977150 0.692002
11.052790 33.977150 0.786364
11.368139 33.977150 0.896700
11.683489 33.977150 1.019292
11.998838 33.977150 1.111781
12.314190 33.977150 1.175660
12.629539 33.977150 1.226339
12.944889 33.977150 1.268838
13.260239 33.977150 1.279340
13.575588 33.977150 1.245781
13.890940 33.977150 1.177231
14.206289 33.977150 1.073342
14.521639 33.977150 0.934600
14.836988 33.977150 0.784645
15.152340 33.977150 0.612228
15.467690 33.977150 0.490479
15.783039 33.977150 0.072886
16.098389 33.977150 0.000000
16.413738 33.977150 0.000000
16.729090 33.977150 0.000000
17.044439 33.977150 0.000000
17.359789 33.977150 0.000000
17.675138 33.977150 0.000000
17.990490 33.977150 0.000000
18.305840 33.977150 0.000000
18.621189 33.977150 0.000000
18.936539 33.977150 0.000000
19.251888 33.977150 0.000000
-7.237510 33.661800 0.000000
-6.922160 33.661800 0.002150
-6.606810 33.661800 0.002105
-6.291460 33.661800 0.001998
-5.976110 33.661800 0.001937
-5.660760 33.661800 0.001797
-5.345410 33.661800 0.001700
-5.030060 33.661800 0.001469
-4.714710 33.661800 0.001372
-4.399360 33.661800 0.001455
-4.084010 33.661800 0.001520
-3.768660 33.661800 0.001327
-3.453310 33.661800 0.001181
-3.137960 33.661800 0.001193
-2.822610 33.661800 0.001216
-2.507260 33.661800 0.001061
-2.191910 33.661800 0.001086
-1.876560 33.661800 0.001319
-1.561210 33.661800 0.001414
-1.245860 33.661800 0.001426
-0.930510 33.661800 0.001417
-0.615160 33.661800 0.001357
-0.299810 33.661800 0.001289
0.015540 33.661800 0.001363
0.330890 33.661800 0.001364
0.646240 33.661800 0.001383
0.961589 33.661800 0.001406
1.276940 33.661800 0.001303
1.592289 33.661800 0.001074
1.907640 33.661800 0.000854
2.222990 33.661800 0.000957
2.538340 33.661800 0.001190
2.853690 33.661800 0.001125
3.169039 33.661800 0.001088
3.484390 33.661800 0.000859
3.799739 33.661800 0.000720
4.115090 33.661800 0.000831
4.430439 33.661800 0.001205
4.745790 33.661800 0.001420
5.061140 33.661800 0.001514
5.376490 33.661800 0.001568
5.691840 33.661800 0.001574
6.007189 33.661800 0.001956
6.322540 33.661800 0.002221
6.637889 33.661800 0.002743
6.953240 33.661800 0.003759
7.268589 33.661800 0.006424
7.583940 33.661800 0.010902
7.899290 33.661800 0.018831
8.214640 33.661800 0.033971
8.529989 33.661800 0.061125
8.845339 33.661800 0.106295
9.160688 33.661800 0.170850
9.476040 33.661800 0.264182
9.791389 33.661800 0.387433
10.106739 33.661800 0.495689
10.422089 33.661800 0.592150
10.737438 33.661800 0.690497
11.052790 33.661800 0.797799
11.368139 33.661800 0.909599
11.683489 33.661800 1.012588
11.998838 33.661800 1.105848
12.314190 33.661800 1.165032
12.629539 33.661800 1.207261
12.944889 33.661800 1.282214
13.260239 33.661800 1.289947
13.575588 33.661800 1.232919
13.890940 33.661800 1.165449
14.206289 33.661800 1.097344
14.521639 33.661800 0.962897
14.836988 33.661800 0.788319
15.152340 33.661800 0.647269
15.467690 33.661800 0.500305
15.783039 33.661800 0.059958
16.098389 33.661800 0.000000
16.413738 33.661800 0.000000
16.729090 33.661800 0.000000
17.044439 33.661800 0.000000
17.359789 33.661800 0.000000
17.675138 33.661800 0.000000
17.990490 33.661800 0.000000
18.305840 33.661800 0.000000
18.621189 33.661800 0.000000
18.936539 33.661800 0.000000
19.251888 33.661800 0.000000
-7.237510 33.346451 0.000000
-6.922160 33.346451 0.002225
-6.606810 33.346451 0.002271
-6.291460 33.346451 0.002017
-5.976110 33.346451 0.001948
-5.660760 33.346451 0.001824
-5.345410 33.346451 0.001713
-5.030060 33.346451 0.001519
-4.714710 33.346451 0.001412
-4.399360 33.346451 0.001569
-4.084010 33.346451 0.001600
-3.768660 33.346451 0.001404
-3.453310 33.346451 0.001204
-3.137960 33.346451 0.001226
-2.822610 33.346451 0.001223
-2.507260 33.346451 0.001094
-2.191910 33.346451 0.001083
-1.876560 33.346451 0.001226
-1.561210 33.346451 0.001344
-1.245860 33.346451 0.001309
-0.930510 33.346451 0.001333
-0.615160 33.346451 0.001299
-0.299810 33.346451 0.001292
0.015540 33.346451 0.001319
0.330890 33.346451 0.001339
0.646240 33.346451 0.001436
0.961589 33.346451 0.001489
1.276940 33.346451 0.001306
1.592289 33.346451 0.001132
1.907640 33.346451 0.001027
2.222990 33.346451 0.001106
2.538340 33.346451 0.001232
2.853690 33.346451 0.001130
3.169039 33.346451 0.001027
3.484390 33.346451 0.000873
3.799739 33.346451 0.000795
4.115090 33.346451 0.000895
4.430439 33.346451 0.001236
4.745790 33.346451 0.001529
5.061140 33.346451 0.001647
5.376490 33.346451 0.001649
5.691840 33.346451 0.001579
6.007189 33.346451 0.001803
6.322540 33.346451 0.002151
6.637889 33.346451 0.002517
6.953240 33.346451 0.003897
7.268589 33.346451 0.006250
7.583940 33.346451 0.011286
7.899290 33.346451 0.019373
8.214640 33.346451 0.035782
8.529989 33.346451 0.059238
8.845339 33.346451 0.100656
9.160688 33.346451 0.169970
9.476040 33.346451 0.265373
9.791389 33.346451 0.388234
10.106739 33.346451 0.497774
10.422089 33.346451 0.592308
10.737438 33.346451 0.704641
11.052790 33.346451 0.811857
11.368139 33.346451 0.925146
11.683489 33.346451 1.019025
11.998838 33.346451 1.111910
12.314190 33.346451 1.157583
12.629539 33.346451 1.234551
12.944889 33.346451 1.258681
13.260239 33.346451 1.289759
13.575588 33.346451 1.253255
13.890940 33.346451 1.170235
14.206289 33.346451 1.125975
14.521639 33.346451 0.972438
14.836988 33.346451 0.817095
15.152340 33.346451 0.656128
15.467690 33.346451 0.494799
15.783039 33.346451 0.045212
16.098389 33.346451 0.000000
16.413738 33.346451 0.000000
16.729090 33.346451 0.000000
17.044439 33.346451 0.000000
17.359789 33.346451 0.000000
17.675138 33.346451 0.000000
17.990490 33.346451 0.000000
18.305840 33.346451 0.000000
18.621189 33.346451 0.000000
18.936539 33.346451 0.000000
19.251888 33.346451 0.000000
-7.237510 33.031101 0.000000
-6.922160 33.031101 0.002401
-6.606810 33.031101 0.002404
-6.291460 33.031101 0.002027
-5.976110 33.031101 0.001891
-5.660760 33.031101 0.001819
-5.345410 33.031101 0.001640
-5.030060 33.031101 0.001495
-4.714710 33.031101 0.001526
-4.399360 33.031101 0.001652
-4.084010 33.031101 0.001676
-3.768660 33.031101 0.001469
-3.453310 33.031101 0.001254
-3.137960 33.031101 0.001217
-2.822610 33.031101 0.001187
-2.507260 33.031101 0.001088
-2.191910 33.031101 0.001053
-1.876560 33.031101 0.001145
-1.561210 33.031101 0.001194
-1.245860 33.031101 0.001228
-0.930510 33.031101 0.001279
-0.615160 33.031101 0.001323
-0.299810 33.031101 0.001358
0.015540 33.031101 0.001281
0.330890 33.031101 0.001326
0.646240 33.031101 0.001498
0.961589 33.031101 0.001502
1.276940 33.031101 0.001334
1.592289 33.031101 0.001289
1.907640 33.031101 0.001256
2.222990 33.031101 0.001271
2.538340 33.031101 0.001208
2.853690 33.031101 0.001127
3.169039 33.031101 0.000973
3.484390 33.031101 0.000885
3.799739 33.031101 0.000954
4.115090 33.031101 0.001011
4.430439 33.031101 0.001363
4.745790 33.031101 0.001620
5.061140 33.031101 0.001716
5.376490 33.031101 0.001770
5.691840 33.031101 0.001572
6.007189 33.031101 0.001616
6.322540 33.031101 0.001861
6.637889 33.031101 0.002605
6.953240 33.031101 0.004230
7.268589 33.031101 0.006583
7.583940 33.031101 0.011152
7.899290 33.031101 0.018983
8.214640 33.031101 0.034729
8.529989 33.031101 0.060771
8.845339 33.031101 0.105581
9.160688 33.031101 0.168353
9.476040 33.031101 0.258021
9.791389 33.031101 0.392948
10.106739 33.031101 0.500074
10.422089 33.031101 0.610980
10.737438 33.031101 0.710943
11.052790 33.031101 0.831370
11.368139 33.031101 0.931090
11.683489 33.031101 1.036399
11.998838 33.031101 1.111960
12.314190 33.031101 1.159469
12.629539 33.031101 1.217461
12.944889 33.031101 1.234341
13.260239 33.031101 1.298344
13.575588 33.031101 1.227241
13.890940 33.031101 1.176307
14.206289 33.031101 1.108930
14.521639 33.031101 1.001387
14.836988 33.031101 0.823171
15.152340 33.031101 0.669848
15.467690 33.031101 0.526835
15.783039 33.031101 0.070459
16.098389 33.031101 0.000000
16.413738 33.031101 0.000000
16.729090 33.031101 0.000000
17.044439 33.031101 0.000000
17.359789 33.031101 0.000000
17.675138 33.031101 0.000000
17.990490 33.031101 0.000000
18.305840 33.031101 0.000000
18.621189 33.031101 0.000000
18.936539 33.031101 0.000000
19.251888 33.031101 0.000000
-7.237510 32.715752 0.000000
-6.922160 32.715752 0.002746
-6.606810 32.715752 0.002433
-6.291460 32.715752 0.001946
-5.976110 32.715752 0.001836
-5.660760 32.715752 0.001858
-5.345410 32.715752 0.001695
-5.030060 32.715752 0.001569
-4.714710 32.715752 0.001598
-4.399360 32.715752 0.001661
-4.084010 32.715752 0.001759
-3.768660 32.715752 0.001548
-3.453310 32.715752 0.001368
-3.137960 32.715752 0.001328
-2.822610 32.715752 0.001242
-2.507260 32.715752 0.001161
-2.191910 32.715752 0.001085
-1.876560 32.715752 0.001133
-1.561210 32.715752 0.001128
-1.245860 32.715752 0.001225
-0.930510 32.715752 0.001323
-0.615160 32.715752 0.001401
-0.299810 32.715752 0.001428
0.015540 32.715752 0.001285
0.330890 32.715752 0.001334
0.646240 32.715752 0.001507
0.961589 32.715752 0.001489
1.276940 32.715752 0.001374
1.592289 32.715752 0.001413
1.907640 32.715752 0.001465
2.222990 32.715752 0.001409
2.538340 32.715752 0.001201
2.853690 32.715752 0.001112
3.169039 32.715752 0.000947
3.484390 32.715752 0.000999
3.799739 32.715752 0.001076
4.115090 32.715752 0.001162
4.430439 32.715752 0.001423
4.745790 32.715752 0.001633
5.061140 32.715752 0.001637
5.376490 32.715752 0.001682
5.691840 32.715752 0.001470
6.007189 32.715752 0.001421
6.322540 32.715752 0.001882
6.637889 32.715752 0.002449
6.953240 32.715752 0.004014
7.268589 32.715752 0.006779
7.583940 32.715752 0.010559
7.899290 32.715752 0.019622
8.214640 32.715752 0.032914
8.529989 32.715752 0.059887
8.845339 32.715752 0.105506
9.160688 32.715752 0.175201
9.476040 32.715752 0.266192
9.791389 32.715752 0.392769
10.106739 32.715752 0.497542
10.422089 32.715752 0.607193
10.737438 32.715752 0.716129
11.052790 32.715752 0.819684
11.368139 32.715752 0.926706
11.683489 32.715752 1.039362
11.998838 32.715752 1.106395
12.314190 32.715752 1.153791
12.629539 32.715752 1.211056
12.944889 32.715752 1.243638
13.260239 32.715752 1.269894
13.575588 32.715752 1.248438
13.890940 32.715752 1.163061
14.206289 32.715752 1.106601
14.521639 32.715752 0.991394
14.836988 32.715752 0.858133
15.152340 32.715752 0.670854
15.467690 32.715752 0.527463
15.783039 32.715752 0.097619
16.098389 32.715752 0.000000
16.413738 32.715752 0.000000
16.729090 32.715752 0.000000
17.044439 32.715752 0.000000
17.359789 32.715752 0.000000
17.675138 32.715752 0.000000
17.990490 32.715752 0.000000
18.305840 32.715752 0.000000
18.621189 32.715752 0.000000
18.936539 32.715752 0.000000
19.251888 32.715752 0.000000
-7.237510 32.400398 0.000000
-6.922160 32.400398 0.003113
-6.606810 32.400398 0.002407
-6.291460 32.400398 0.001875
-5.976110 32.400398 0.001800
-5.660760 32.400398 0.001924
-5.345410 32.400398 0.001818
-5.030060 32.400398 0.001739
-4.714710 32.400398 0.001650
-4.399360 32.400398 0.001706
-4.084010 32.400398 0.001856
-3.768660 32.400398 0.001729
-3.453310 32.400398 0.001532
-3.137960 32.400398 0.001457
-2.822610 32.400398 0.001439
-2.507260 32.400398 0.001305
-2.191910 32.400398 0.001180
-1.876560 32.400398 0.001183
-1.561210 32.400398 0.001193
-1.245860 32.400398 0.001237
-0.930510 32.400398 0.001357
-0.615160 32.400398 0.001477
-0.299810 32.400398 0.001485
0.015540 32.400398 0.001367
0.330890 32.400398 0.001268
0.646240 32.400398 0.001474
0.961589 32.400398 0.001498
1.276940 32.400398 0.001352
1.592289 32.400398 0.001424
1.907640 32.400398 0.001552
2.222990 32.400398 0.001430
2.538340 32.400398 0.001186
2.853690 32.400398 0.001056
3.169039 32.400398 0.001057
3.484390 32.400398 0.001090
3.799739 32.400398 0.001207
4.115090 32.400398 0.001275
4.430439 32.400398 0.001441
4.745790 32.400398 0.001514
5.061140 32.400398 0.001524
5.376490 32.400398 0.001626
5.691840 32.400398 0.001532
6.007189 32.400398 0.001276
6.322540 32.400398 0.001673
6.637889 32.400398 0.002365
6.953240 32.400398 0.004139
7.268589 32.400398 0.006740
7.583940 32.400398 0.010319
7.899290 32.400398 0.017680
8.214640 32.400398 0.032213
8.529989 32.400398 0.060942
8.845339 32.400398 0.106371
9.160688 32.400398 0.177912
9.476040 32.400398 0.266871
9.791389 32.400398 0.393269
10.106739 32.400398 0.506422
10.422089 32.400398 0.612363
10.737438 32.400398 0.710602
11.052790 32.400398 0.830060
11.368139 32.400398 0.936981
11.683489 32.400398 1.048314
11.998838 32.400398 1.129498
12.314190 32.400398 1.179204
12.629539 32.400398 1.217885
12.944889 32.400398 1.272359
13.260239 32.400398 1.263147
13.575588 32.400398 1.246434
13.890940 32.400398 1.180125
14.206289 32.400398 1.107168
14.521639 32.400398 0.987008
14.836988 32.400398 0.849907
15.152340 32.400398 0.698550
15.467690 32.400398 0.569691
15.783039 32.400398 -0.135322
16.098389 32.400398 0.000000
16.413738 32.400398 0.000000
16.729090 32.400398 0.000000
17.044439 32.400398 0.000000
17.359789 32.400398 0.000000
17.675138 32.400398 0.000000
17.990490 32.400398 0.000000
18.305840 32.400398 0.000000
18.621189 32.400398 0.000000
18.936539 32.400398 0.000000
19.251888 32.400398 0.000000
-7.237510 32.085052 0.000000
-6.922160 32.085052 0.003143
-6.606810 32.085052 0.002304
-6.291460 32.085052 0.001917
-5.976110 32.085052 0.001876
-5.660760 32.085052 0.002026
-5.345410 32.085052 0.002075
-5.030060 32.085052 0.001955
-4.714710 32.085052 0.001831
-4.399360 32.085052 0.001713
-4.084010 32.085052 0.001844
-3.768660 32.085052 0.001850
-3.453310 32.085052 0.001677
-3.137960 32.085052 0.001564
-2.822610 32.085052 0.001579
-2.507260 32.085052 0.001517
-2.191910 32.085052 0.001364
-1.876560 32.085052 0.001278
-1.561210 32.085052 0.001292
-1.245860 32.085052 0.001375
-0.930510 32.085052 0.001431
-0.615160 32.085052 0.001529
-0.299810 32.085052 0.001539
0.015540 32.085052 0.001422
0.330890 32.085052 0.001261
0.646240 32.085052 0.001406
0.961589 32.085052 0.001465
1.276940 32.085052 0.001270
1.592289 32.085052 0.001357
1.907640 32.085052 0.001454
2.222990 32.085052 0.001401
2.538340 32.085052 0.001179
2.853690 32.085052 0.001008
3.169039 32.085052 0.001151
3.484390 32.085052 0.001317
3.799739 32.085052 0.001367
4.115090 32.085052 0.001402
4.430439 32.085052 0.001349
4.745790 32.085052 0.001424
5.061140 32.085052 0.001526
5.376490 32.085052 0.001531
5.691840 32.085052 0.001577
6.007189 32.085052 0.001423
6.322540 32.085052 0.001698
6.637889 32.085052 0.002268
6.953240 32.085052 0.003746
7.268589 32.085052 0.006661
7.583940 32.085052 0.010376
7.899290 32.085052 0.018419
8.214640 32.085052 0.033762
8.529989 32.085052 0.058436
8.845339 32.085052 0.110081
9.160688 32.085052 0.181127
9.476040 32.085052 0.267078
9.791389 32.085052 0.383538
10.106739 32.085052 0.503314
10.422089 32.085052 0.607128
10.737438 32.085052 0.695083
11.052790 32.085052 0.813828
11.368139 32.085052 0.932503
11.683489 32.085052 1.053580
11.998838 32.085052 1.131817
12.314190 32.085052 1.181321
12.629539 32.085052 1.240162
12.944889 32.085052 1.293495
13.260239 32.085052 1.278388
13.575588 32.085052 1.243135
13.890940 32.085052 1.172275
14.206289 32.085052 1.101661
14.521639 32.085052 1.008153
14.836988 32.085052 0.848172
15.152340 32.085052 0.705150
15.467690 32.085052 0.556154
15.783039 32.085052 0.000000
16.098389 32.085052 0.000000
16.413738 32.085052 0.000000
16.729090 32.085052 0.000000
17.044439 32.085052 0.000000
17.359789 32.085052 0.000000
17.675138 32.085052 0.000000
17.990490 32.085052 0.000000
18.305840 32.085052 0.000000
18.621189 32.085052 0.000000
18.936539 32.085052 0.000000
19.251888 32.085052 0.000000
-7.237510 31.769701 0.000000
-6.922160 31.769701 0.002644
-6.606810 31.769701 0.002218
-6.291460 31.769701 0.002009
-5.976110 31.769701 0.001940
-5.660760 31.769701 0.002060
-5.345410 31.769701 0.002200
-5.030060 31.769701 0.002192
-4.714710 31.769701 0.002015
-4.399360 31.769701 0.001792
-4.084010 31.769701 0.001848
-3.768660 31.769701 0.001935
-3.453310 31.769701 0.001775
-3.137960 31.769701 0.001614
-2.822610 31.769701 0.001605
-2.507260 31.769701 0.001618
-2.191910 31.769701 0.001496
-1.876560 31.769701 0.001410
-1.561210 31.769701 0.001432
-1.245860 31.769701 0.001514
-0.930510 31.769701 0.001524
-0.615160 31.769701 0.001511
-0.299810 31.769701 0.001593
0.015540 31.769701 0.001504
0.330890 31.769701 0.001360
0.646240 31.769701 0.001441
0.961589 31.769701 0.001355
1.276940 31.769701 0.001159
1.592289 31.769701 0.001273
1.907640 31.769701 0.001339
2.222990 31.769701 0.001332
2.538340 31.769701 0.001144
2.853690 31.769701 0.001102
3.169039 31.769701 0.001295
3.484390 31.769701 0.001468
3.799739 31.769701 0.001464
4.115090 31.769701 0.001465
4.430439 31.769701 0.001427
4.745790 31.769701 0.001406
5.061140 31.769701 0.001528
5.376490 31.769701 0.001511
5.691840 31.769701 0.001564
6.007189 31.769701 0.001530
6.322540 31.769701 0.001727
6.637889 31.769701 0.002201
6.953240 31.769701 0.003882
7.268589 31.769701 0.006489
7.583940 31.769701 0.011172
7.899290 31.769701 0.019138
8.214640 31.769701 0.034277
8.529989 31.769701 0.064702
8.845339 31.769701 0.109198
9.160688 31.769701 0.175283
9.476040 31.769701 0.271065
9.791389 31.769701 0.387402
10.106739 31.769701 0.496746
10.422089 31.769701 0.601109
10.737438 31.769701 0.707056
11.052790 31.769701 0.814905
11.368139 31.769701 0.933753
11.683489 31.769701 1.044497
11.998838 31.769701 1.140566
12.314190 31.769701 1.213060
12.629539 31.769701 1.264974
12.944889 31.769701 1.290262
13.260239 31.769701 1.295578
13.575588 31.769701 1.230950
13.890940 31.769701 1.209303
14.206289 31.769701 1.119928
14.521639 31.769701 0.991744
14.836988 31.769701 0.851975
15.152340 31.769701 0.724348
15.467690 31.769701 0.572238
15.783039 31.769701 0.000000
16.098389 31.769701 0.000000
16.413738 31.769701 0.000000
16.729090 31.769701 0.000000
17.044439 31.769701 0.000000
17.359789 31.769701 0.000000
17.675138 31.769701 0.000000
17.990490 31.769701 0.000000
18.305840 31.769701 0.000000
18.621189 31.769701 0.000000
18.936539 31.769701 0.000000
19.251888 31.769701 0.000000
-7.237510 31.454351 0.000000
-6.922160 31.454351 0.002433
-6.606810 31.454351 0.002223
-6.291460 31.454351 0.002165
-5.976110 31.454351 0.002027
-5.660760 31.454351 0.002020
-5.345410 31.454351 0.002178
-5.030060 31.454351 0.002271
-4.714710 31.454351 0.002214
-4.399360 31.454351 0.001905
-4.084010 31.454351 0.001886
-3.768660 31.454351 0.001972
-3.453310 31.454351 0.001800
-3.137960 31.454351 0.001614
-2.822610 31.454351 0.001523
-2.507260 31.454351 0.001592
-2.191910 31.454351 0.001596
-1.876560 31.454351 0.001485
-1.561210 31.454351 0.001570
-1.245860 31.454351 0.001576
-0.930510 31.454351 0.001525
-0.615160 31.454351 0.001427
-0.299810 31.454351 0.001521
0.015540 31.454351 0.001565
0.330890 31.454351 0.001495
0.646240 31.454351 0.001451
0.961589 31.454351 0.001205
1.276940 31.454351 0.001048
1.592289 31.454351 0.001097
1.907640 31.454351 0.001255
2.222990 31.454351 0.001276
2.538340 31.454351 0.001178
2.853690 31.454351 0.001125
3.169039 31.454351 0.001344
3.484390 31.454351 0.001444
3.799739 31.454351 0.001459
4.115090 31.454351 0.001484
4.430439 31.454351 0.001505
4.745790 31.454351 0.001458
5.061140 31.454351 0.001503
5.376490 31.454351 0.001452
5.691840 31.454351 0.001567
6.007189 31.454351 0.001667
6.322540 31.454351 0.001794
6.637889 31.454351 0.002451
6.953240 31.454351 0.003989
7.268589 31.454351 0.006524
7.583940 31.454351 0.011432
7.899290 31.454351 0.019797
8.214640 31.454351 0.036757
8.529989 31.454351 0.066761
8.845339 31.454351 0.110717
9.160688 31.454351 0.177935
9.476040 31.454351 0.268343
9.791389 31.454351 0.385645
10.106739 31.454351 0.503804
10.422089 31.454351 0.604861
10.737438 31.454351 0.707462
11.052790 31.454351 0.826466
11.368139 31.454351 0.935342
11.683489 31.454351 1.062500
11.998838 31.454351 1.149541
12.314190 31.454351 1.219876
12.629539 31.454351 1.276575
12.944889 31.454351 1.291993
13.260239 31.454351 1.300616
13.575588 31.454351 1.243026
13.890940 31.454351 1.202928
14.206289 31.454351 1.142485
14.521639 31.454351 0.992800
14.836988 31.454351 0.859528
15.152340 31.454351 0.704344
15.467690 31.454351 0.560784
15.783039 31.454351 0.000000
16.098389 31.454351 0.000000
16.413738 31.454351 0.000000
16.729090 31.454351 0.000000
17.044439 31.454351 0.000000
17.359789 31.454351 0.000000
17.675138 31.454351 0.000000
17.990490 31.454351 0.000000
18.305840 31.454351 0.000000
18.621189 31.454351 0.000000
18.936539 31.454351 0.000000
19.251888 31.454351 0.000000
-7.237510 31.139000 0.000000
-6.922160 31.139000 0.002425
-6.606810 31.139000 0.002306
-6.291460 31.139000 0.002251
-5.976110 31.139000 0.002079
-5.660760 31.139000 0.002014
-5.345410 31.139000 0.002106
-5.030060 31.139000 0.002312
-4.714710 31.139000 0.002331
-4.399360 31.139000 0.002033
-4.084010 31.139000 0.001837
-3.768660 31.139000 0.001854
-3.453310 31.139000 0.001787
-3.137960 31.139000 0.001584
-2.822610 31.139000 0.001467
-2.507260 31.139000 0.001613
-2.191910 31.139000 0.001578
-1.876560 31.139000 0.001551
-1.561210 31.139000 0.001652
-1.245860 31.139000 0.001593
-0.930510 31.139000 0.001489
-0.615160 31.139000 0.001319
-0.299810 31.139000 0.001361
0.015540 31.139000 0.001546
0.330890 31.139000 0.001552
0.646240 31.139000 0.001369
0.961589 31.139000 0.001100
1.276940 31.139000 0.000915
1.592289 31.139000 0.001034
1.907640 31.139000 0.001200
2.222990 31.139000 0.001303
2.538340 31.139000 0.001211
2.853690 31.139000 0.001240
3.169039 31.139000 0.001352
3.484390 31.139000 0.001405
3.799739 31.139000 0.001440
4.115090 31.139000 0.001507
4.430439 31.139000 0.001509
4.745790 31.139000 0.001507
5.061140 31.139000 0.001434
5.376490 31.139000 0.001428
5.691840 31.139000 0.001592
6.007189 31.139000 0.001683
6.322540 31.139000 0.002012
6.637889 31.139000 0.002490
6.953240 31.139000 0.003496
7.268589 31.139000 0.006516
7.583940 31.139000 0.011051
7.899290 31.139000 0.019908
8.214640 31.139000 0.037582
8.529989 31.139000 0.065827
8.845339 31.139000 0.110727
9.160688 31.139000 0.179761
9.476040 31.139000 0.272853
9.791389 31.139000 0.387037
10.106739 31.139000 0.506530
10.422089 31.139000 0.615267
10.737438 31.139000 0.713098
11.052790 31.139000 0.828722
11.368139 31.139000 0.947270
11.683489 31.139000 1.049134
11.998838 31.139000 1.150444
12.314190 31.139000 1.226220
12.629539 31.139000 1.268197
12.944889 31.139000 1.297095
13.260239 31.139000 1.314296
13.575588 31.139000 1.255112
13.890940 31.139000 1.216815
14.206289 31.139000 1.137427
14.521639 31.139000 1.013955
14.836988 31.139000 0.838249
15.152340 31.139000 0.711173
15.467690 31.139000 0.543425
15.783039 31.139000 0.000000
16.098389 31.139000 0.000000
16.413738 31.139000 0.000000
16.729090 31.139000 0.000000
17.044439 31.139000 0.000000
17.359789 31.139000 0.000000
17.675138 31.139000 0.000000
17.990490 31.139000 0.000000
18.305840 31.139000 0.000000
18.621189 31.139000 0.000000
18.936539 31.139000 0.000000
19.251888 31.139000 0.000000
-7.237510 30.823650 0.000000
-6.922160 30.823650 0.002503
-6.606810 30.823650 0.002342
-6.291460 30.823650 0.002342
-5.976110 30.823650 0.002170
-5.660760 30.823650 0.002018
-5.345410 30.823650 0.002077
-5.030060 30.823650 0.002260
-4.714710 30.823650 0.002338
-4.399360 30.823650 0.002104
-4.084010 30.823650 0.001816
-3.768660 30.823650 0.001720
-3.453310 30.823650 0.001663
-3.137960 30.823650 0.001548
-2.822610 30.823650 0.001469
-2.507260 30.823650 0.001648
-2.191910 30.823650 0.001605
-1.876560 30.823650 0.001574
-1.561210 30.823650 0.001692
-1.245860 30.823650 0.001537
-0.930510 30.823650 0.001365
-0.615160 30.823650 0.001230
-0.299810 30.823650 0.001239
0.015540 30.823650 0.001515
0.330890 30.823650 0.001583
0.646240 30.823650 0.001384
0.961589 30.823650 0.001072
1.276940 30.823650 0.000864
1.592289 30.823650 0.000932
1.907640 30.823650 0.001177
2.222990 30.823650 0.001319
2.538340 30.823650 0.001275
2.853690 30.823650 0.001268
3.169039 30.823650 0.001216
3.484390 30.823650 0.001303
3.799739 30.823650 0.001510
4.115090 30.823650 0.001596
4.430439 30.823650 0.001595
4.745790 30.823650 0.001538
5.061140 30.823650 0.001429
5.376490 30.823650 0.001424
5.691840 30.823650 0.001595
6.007189 30.823650 0.001878
6.322540 30.823650 0.002044
6.637889 30.823650 0.002412
6.953240 30.823650 0.003700
7.268589 30.823650 0.006008
7.583940 30.823650 0.010825
7.899290 30.823650 0.020170
8.214640 30.823650 0.035373
8.529989 30.823650 0.063165
8.845339 30.823650 0.111655
9.160688 30.823650 0.182183
9.476040 30.823650 0.275170
9.791389 30.823650 0.393911
10.106739 30.823650 0.507952
10.422089 30.823650 0.612333
10.737438 30.823650 0.711071
11.052790 30.823650 0.812387
11.368139 30.823650 0.944728
11.683489 30.823650 1.036143
11.998838 30.823650 1.128469
12.314190 30.823650 1.218949
12.629539 30.823650 1.247049
12.944889 30.823650 1.310408
13.260239 30.823650 1.299975
13.575588 30.823650 1.264700
13.890940 30.823650 1.234480
14.206289 30.823650 1.136229
14.521639 30.823650 1.005894
14.836988 30.823650 0.850312
15.152340 30.823650 0.692194
15.467690 30.823650 0.535546
15.783039 30.823650 0.000000
16.098389 30.823650 0.000000
16.413738 30.823650 0.000000
16.729090 30.823650 0.000000
17.044439 30.823650 0.000000
17.359789 30.823650 0.000000
17.675138 30.823650 0.000000
17.990490 30.823650 0.000000
18.305840 30.823650 0.000000
18.621189 30.823650 0.000000
18.936539 30.823650 0.000000
19.251888 30.823650 0.000000
-7.237510 30.508301 0.000000
-6.922160 30.508301 0.002466
-6.606810 30.508301 0.002418
-6.291460 30.508301 0.002518
-5.976110 30.508301 0.002325
-5.660760 30.508301 0.002125
-5.345410 30.508301 0.002068
-5.030060 30.508301 0.002181
-4.714710 30.508301 0.002402
-4.399360 30.508301 0.002219
-4.084010 30.508301 0.001815
-3.768660 30.508301 0.001596
-3.453310 30.508301 0.001509
-3.137960 30.508301 0.001452
-2.822610 30.508301 0.001502
-2.507260 30.508301 0.001718
-2.191910 30.508301 0.001726
-1.876560 30.508301 0.001648
-1.561210 30.508301 0.001689
-1.245860 30.508301 0.001493
-0.930510 30.508301 0.001378
-0.615160 30.508301 0.001245
-0.299810 30.508301 0.001228
0.015540 30.508301 0.001487
0.330890 30.508301 0.001523
0.646240 30.508301 0.001305
0.961589 30.508301 0.001042
1.276940 30.508301 0.000958
1.592289 30.508301 0.000934
1.907640 30.508301 0.001123
2.222990 30.508301 0.001314
2.538340 30.508301 0.001264
2.853690 30.508301 0.001216
3.169039 30.508301 0.001015
3.484390 30.508301 0.001138
3.799739 30.508301 0.001464
4.115090 30.508301 0.001626
4.430439 30.508301 0.001687
4.745790 30.508301 0.001629
5.061140 30.508301 0.001560
5.376490 30.508301 0.001572
5.691840 30.508301 0.001732
6.007189 30.508301 0.001946
6.322540 30.508301 0.002224
6.637889 30.508301 0.002685
6.953240 30.508301 0.004077
7.268589 30.508301 0.005791
7.583940 30.508301 0.010674
7.899290 30.508301 0.018720
8.214640 30.508301 0.035230
8.529989 30.508301 0.060928
8.845339 30.508301 0.106943
9.160688 30.508301 0.178633
9.476040 30.508301 0.275176
9.791389 30.508301 0.399200
10.106739 30.508301 0.506721
10.422089 30.508301 0.615721
10.737438 30.508301 0.711020
11.052790 30.508301 0.827186
11.368139 30.508301 0.930138
11.683489 30.508301 1.050370
11.998838 30.508301 1.127289
12.314190 30.508301 1.217593
12.629539 30.508301 1.274373
12.944889 30.508301 1.307241
13.260239 30.508301 1.294388
13.575588 30.508301 1.272818
13.890940 30.508301 1.247661
14.206289 30.508301 1.157945
14.521639 30.508301 0.988791
14.836988 30.508301 0.854564
15.152340 30.508301 0.698175
15.467690 30.508301 0.549038
15.783039 30.508301 0.000000
16.098389 30.508301 0.000000
16.413738 30.508301 0.000000
16.729090 30.508301 0.000000
17.044439 30.508301 0.000000
17.359789 30.508301 0.000000
17.675138 30.508301 0.000000
17.990490 30.508301 0.000000
18.305840 30.508301 0.000000
18.621189 30.508301 0.000000
18.936539 30.508301 0.000000
19.251888 30.508301 0.000000
-7.237510 30.192951 0.000000
-6.922160 30.192951 0.002641
-6.606810 30.192951 0.002604
-6.291460 30.192951 0.002630
-5.976110 30.192951 0.002479
-5.660760 30.192951 0.002324
-5.345410 30.192951 0.002167
-5.030060 30.192951 0.002159
-4.714710 30.192951 0.002422
-4.399360 30.192951 0.002352
-4.084010 30.192951 0.001923
-3.768660 30.192951 0.001589
-3.453310 30.192951 0.001526
-3.137960 30.192951 0.001444
-2.822610 30.192951 0.001575
-2.507260 30.192951 0.001845
-2.191910 30.192951 0.001897
-1.876560 30.192951 0.001782
-1.561210 30.192951 0.001753
-1.245860 30.192951 0.001618
-0.930510 30.192951 0.001487
-0.615160 30.192951 0.001321
-0.299810 30.192951 0.001294
0.015540 30.192951 0.001423
0.330890 30.192951 0.001441
0.646240 30.192951 0.001216
0.961589 30.192951 0.001126
1.276940 30.192951 0.001082
1.592289 30.192951 0.001005
1.907640 30.192951 0.001037
2.222990 30.192951 0.001256
2.538340 30.192951 0.001284
2.853690 30.192951 0.001122
3.169039 30.192951 0.000875
3.484390 30.192951 0.000930
3.799739 30.192951 0.001362
4.115090 30.192951 0.001652
4.430439 30.192951 0.001722
4.745790 30.192951 0.001715
5.061140 30.192951 0.001645
5.376490 30.192951 0.001673
5.691840 30.192951 0.001804
6.007189 30.192951 0.002048
6.322540 30.192951 0.002295
6.637889 30.192951 0.002743
6.953240 30.192951 0.003902
7.268589 30.192951 0.006387
7.583940 30.192951 0.010262
7.899290 30.192951 0.018907
8.214640 30.192951 0.035345
8.529989 30.192951 0.064788
8.845339 30.192951 0.109915
9.160688 30.192951 0.180698
9.476040 30.192951 0.277694
9.791389 30.192951 0.396452
10.106739 30.192951 0.517902
10.422089 30.192951 0.616733
10.737438 30.192951 0.725260
11.052790 30.192951 0.827345
11.368139 30.192951 0.945146
11.683489 30.192951 1.044406
11.998838 30.192951 1.126682
12.314190 30.192951 1.214158
12.629539 30.192951 1.264359
12.944889 30.192951 1.311509
13.260239 30.192951 1.303041
13.575588 30.192951 1.285719
13.890940 30.192951 1.235321
14.206289 30.192951 1.133949
14.521639 30.192951 0.990995
14.836988 30.192951 0.821102
15.152340 30.192951 0.689851
15.467690 30.192951 0.561430
15.783039 30.192951 0.000000
16.098389 30.192951 0.000000
16.413738 30.192951 0.000000
16.729090 30.192951 0.000000
17.044439 30.192951 0.000000
17.359789 30.192951 0.000000
17.675138 30.192951 0.000000
17.990490 30.192951 0.000000
18.305840 30.192951 0.000000
18.621189 30.192951 0.000000
18.936539 30.192951 0.000000
19.251888 30.192951 0.000000
-7.237510 29.877602 0.000000
-6.922160 29.877602 0.003028
-6.606810 29.877602 0.002926
-6.291460 29.877602 0.002767
-5.976110 29.877602 0.002735
-5.660760 29.877602 0.002519
-5.345410 29.877602 0.002320
-5.030060 29.877602 0.002211
-4.714710 29.877602 0.002451
-4.399360 29.877602 0.002441
-4.084010 29.877602 0.001990
-3.768660 29.877602 0.001622
-3.453310 29.877602 0.001675
-3.137960 29.877602 0.001721
-2.822610 29.877602 0.001734
-2.507260 29.877602 0.001930
-2.191910 29.877602 0.002003
-1.876560 29.877602 0.001921
-1.561210 29.877602 0.001956
-1.245860 29.877602 0.001930
-0.930510 29.877602 0.001692
-0.615160 29.877602 0.001463
-0.299810 29.877602 0.001381
0.015540 29.877602 0.001410
0.330890 29.877602 0.001350
0.646240 29.877602 0.001248
0.961589 29.877602 0.001217
1.276940 29.877602 0.001166
1.592289 29.877602 0.001083
1.907640 29.877602 0.001017
2.222990 29.877602 0.001187
2.538340 29.877602 0.001311
2.853690 29.877602 0.001208
3.169039 29.877602 0.000830
3.484390 29.877602 0.000843
3.799739 29.877602 0.001261
4.115090 29.877602 0.001603
4.430439 29.877602 0.001718
4.745790 29.877602 0.001739
5.061140 29.877602 0.001703
5.376490 29.877602 0.001670
5.691840 29.877602 0.001789
6.007189 29.877602 0.002115
6.322540 29.877602 0.002246
6.637889 29.877602 0.002599
6.953240 29.877602 0.003782
7.268589 29.877602 0.006232
7.583940 29.877602 0.010318
7.899290 29.877602 0.019446
8.214640 29.877602 0.035735
8.529989 29.877602 0.066018
8.845339 29.877602 0.113636
9.160688 29.877602 0.183923
9.476040 29.877602 0.284963
9.791389 29.877602 0.399055
10.106739 29.877602 0.510154
10.422089 29.877602 0.626503
10.737438 29.877602 0.732804
11.052790 29.877602 0.833022
11.368139 29.877602 0.933971
11.683489 29.877602 1.042422
11.998838 29.877602 1.120392
12.314190 29.877602 1.210388
12.629539 29.877602 1.269819
12.944889 29.877602 1.305673
13.260239 29.877602 1.301438
13.575588 29.877602 1.275953
13.890940 29.877602 1.204918
14.206289 29.877602 1.111260
14.521639 29.877602 0.998206
14.836988 29.877602 0.845751
15.152340 29.877602 0.699369
15.467690 29.877602 0.551433
15.783039 29.877602 0.000000
16.098389 29.877602 0.000000
16.413738 29.877602 0.000000
16.729090 29.877602 0.000000
17.044439 29.877602 0.000000
17.359789 29.877602 0.000000
17.675138 29.877602 0.000000
17.990490 29.877602 0.000000
18.305840 29.877602 0.000000
18.621189 29.877602 0.000000
18.936539 29.877602 0.000000
19.251888 29.877602 0.000000
-7.237510 29.562250 0.000000
-6.922160 29.562250 0.003161
-6.606810 29.562250 0.003117
-6.291460 29.562250 0.002924
-5.976110 29.562250 0.002869
-5.660760 29.562250 0.002677
-5.345410 29.562250 0.002454
-5.030060 29.562250 0.002324
-4.714710 29.562250 0.002442
-4.399360 29.562250 0.002428
-4.084010 29.562250 0.002092
-3.768660 29.562250 0.001789
-3.453310 29.562250 0.001899
-3.137960 29.562250 0.001957
-2.822610 29.562250 0.001962
-2.507260 29.562250 0.002091
-2.191910 29.562250 0.002069
-1.876560 29.562250 0.002116
-1.561210 29.562250 0.002207
-1.245860 29.562250 0.002224
-0.930510 29.562250 0.002009
-0.615160 29.562250 0.001607
-0.299810 29.562250 0.001507
0.015540 29.562250 0.001474
0.330890 29.562250 0.001351
0.646240 29.562250 0.001340
0.961589 29.562250 0.001320
1.276940 29.562250 0.001312
1.592289 29.562250 0.001177
1.907640 29.562250 0.001079
2.222990 29.562250 0.001225
2.538340 29.562250 0.001415
2.853690 29.562250 0.001344
3.169039 29.562250 0.001031
3.484390 29.562250 0.000903
3.799739 29.562250 0.001260
4.115090 29.562250 0.001508
4.430439 29.562250 0.001596
4.745790 29.562250 0.001712
5.061140 29.562250 0.001734
5.376490 29.562250 0.001629
5.691840 29.562250 0.001694
6.007189 29.562250 0.001987
6.322540 29.562250 0.002078
6.637889 29.562250 0.002557
6.953240 29.562250 0.003619
7.268589 29.562250 0.006570
7.583940 29.562250 0.011786
7.899290 29.562250 0.021210
8.214640 29.562250 0.039313
8.529989 29.562250 0.070225
8.845339 29.562250 0.116370
9.160688 29.562250 0.187319
9.476040 29.562250 0.289497
9.791389 29.562250 0.398053
10.106739 29.562250 0.505097
10.422089 29.562250 0.622479
10.737438 29.562250 0.722628
11.052790 29.562250 0.839193
11.368139 29.562250 0.956749
11.683489 29.562250 1.042188
11.998838 29.562250 1.112308
12.314190 29.562250 1.213269
12.629539 29.562250 1.277311
12.944889 29.562250 1.313797
13.260239 29.562250 1.290893
13.575588 29.562250 1.278490
13.890940 29.562250 1.228382
14.206289 29.562250 1.135842
14.521639 29.562250 1.000751
14.836988 29.562250 0.858912
15.152340 29.562250 0.704461
15.467690 29.562250 0.569150
15.783039 29.562250 0.000000
16.098389 29.562250 0.000000
16.413738 29.562250 0.000000
16.729090 29.562250 0.000000
17.044439 29.562250 0.000000
17.359789 29.562250 0.000000
17.675138 29.562250 0.000000
17.990490 29.562250 0.000000
18.305840 29.562250 -0.424493
18.621189 29.562250 -0.003643
18.936539 29.562250 3.011073
19.251888 29.562250 0.000000
-7.237510 29.246901 0.000000
-6.922160 29.246901 0.003155
-6.606810 29.246901 0.003162
-6.291460 29.246901 0.003018
-5.976110 29.246901 0.002870
-5.660760 29.246901 0.002771
-5.345410 29.246901 0.002601
-5.030060 29.246901 0.002527
-4.714710 29.246901 0.002604
-4.399360 29.246901 0.002463
-4.084010 29.246901 0.002240
-3.768660 29.246901 0.002029
-3.453310 29.246901 0.002116
-3.137960 29.246901 0.002268
-2.822610 29.246901 0.002273
-2.507260 29.246901 0.002190
-2.191910 29.246901 0.002206
-1.876560 29.246901 0.002256
-1.561210 29.246901 0.002385
-1.245860 29.246901 0.002377
-0.930510 29.246901 0.002251
-0.615160 29.246901 0.001887
-0.299810 29.246901 0.001741
0.015540 29.246901 0.001498
0.330890 29.246901 0.001433
0.646240 29.246901 0.001484
0.961589 29.246901 0.001529
1.276940 29.246901 0.001561
1.592289 29.246901 0.001349
1.907640 29.246901 0.001150
2.222990 29.246901 0.001252
2.538340 29.246901 0.001498
2.853690 29.246901 0.001580
3.169039 29.246901 0.001268
3.484390 29.246901 0.001156
3.799739 29.246901 0.001352
4.115090 29.246901 0.001394
4.430439 29.246901 0.001471
4.745790 29.246901 0.001586
5.061140 29.246901 0.001728
5.376490 29.246901 0.001671
5.691840 29.246901 0.001659
6.007189 29.246901 0.001754
6.322540 29.246901 0.001846
6.637889 29.246901 0.002460
6.953240 29.246901 0.003873
7.268589 29.246901 0.007104
7.583940 29.246901 0.011624
7.899290 29.246901 0.020905
8.214640 29.246901 0.038295
8.529989 29.246901 0.071509
8.845339 29.246901 0.119248
9.160688 29.246901 0.195916
9.476040 29.246901 0.280807
9.791389 29.246901 0.398545
10.106739 29.246901 0.506239
10.422089 29.246901 0.615235
10.737438 29.246901 0.731945
11.052790 29.246901 0.833290
11.368139 29.246901 0.953954
11.683489 29.246901 1.051046
11.998838 29.246901 1.144116
12.314190 29.246901 1.227690
12.629539 29.246901 1.301744
12.944889 29.246901 1.323073
13.260239 29.246901 1.312087
13.575588 29.246901 1.270288
13.890940 29.246901 1.217547
14.206289 29.246901 1.136933
14.521639 29.246901 1.015052
14.836988 29.246901 0.854489
15.152340 29.246901 0.721573
15.467690 29.246901 0.570329
15.783039 29.246901 0.000000
16.098389 29.246901 0.000000
16.413738 29.246901 0.000000
16.729090 29.246901 0.000000
17.044439 29.246901 0.000000
17.359789 29.246901 0.000000
17.675138 29.246901 0.000000
17.990490 29.246901 0.000000
18.305840 29.246901 0.896086
18.621189 29.246901 0.512875
18.936539 29.246901 1.172062
19.251888 29.246901 0.000000
-7.237510 28.931551 0.000000
-6.922160 28.931551 0.003127
-6.606810 28.931551 0.003061
-6.291460 28.931551 0.002900
-5.976110 28.931551 0.002781
-5.660760 28.931551 0.002730
-5.345410 28.931551 0.002677
-5.030060 28.931551 0.002687
-4.714710 28.931551 0.002709
-4.399360 28.931551 0.002474
-4.084010 28.931551 0.002393
-3.768660 28.931551 0.002205
-3.453310 28.931551 0.002302
-3.137960 28.931551 0.002543
-2.822610 28.931551 0.002518
-2.507260 28.931551 0.002375
-2.191910 28.931551 0.002362
-1.876560 28.931551 0.002352
-1.561210 28.931551 0.002465
-1.245860 28.931551 0.002424
-0.930510 28.931551 0.002385
-0.615160 28.931551 0.002080
-0.299810 28.931551 0.001863
0.015540 28.931551 0.001592
0.330890 28.931551 0.001581
0.646240 28.931551 0.001687
0.961589 28.931551 0.001846
1.276940 28.931551 0.001838
1.592289 28.931551 0.001639
1.907640 28.931551 0.001320
2.222990 28.931551 0.001311
2.538340 28.931551 0.001610
2.853690 28.931551 0.001776
3.169039 28.931551 0.001616
3.484390 28.931551 0.001459
3.799739 28.931551 0.001581
4.115090 28.931551 0.001381
4.430439 28.931551 0.001356
4.745790 28.931551 0.001466
5.061140 28.931551 0.001658
5.376490 28.931551 0.001734
5.691840 28.931551 0.001663
6.007189 28.931551 0.001729
6.322540 28.931551 0.002104
6.637889 28.931551 0.002825
6.953240 28.931551 0.004417
7.268589 28.931551 0.006844
7.583940 28.931551 0.011375
7.899290 28.931551 0.021156
8.214640 28.931551 0.038627
8.529989 28.931551 0.069396
8.845339 28.931551 0.119382
9.160688 28.931551 0.193125
9.476040 28.931551 0.278806
9.791389 28.931551 0.395231
10.106739 28.931551 0.505900
10.422089 28.931551 0.619889
10.737438 28.931551 0.727387
11.052790 28.931551 0.844725
11.368139 28.931551 0.955730
11.683489 28.931551 1.052884
11.998838 28.931551 1.152862
12.314190 28.931551 1.239341
12.629539 28.931551 1.308551
12.944889 28.931551 1.326241
13.260239 28.931551 1.334815
13.575588 28.931551 1.275820
13.890940 28.931551 1.206968
14.206289 28.931551 1.136162
14.521639 28.931551 1.027917
14.836988 28.931551 0.885442
15.152340 28.931551 0.753993
15.467690 28.931551 0.602636
15.783039 28.931551 0.000000
16.098389 28.931551 0.000000
16.413738 28.931551 0.000000
16.729090 28.931551 0.000000
17.044439 28.931551 0.000000
17.359789 28.931551 0.000000
17.675138 28.931551 0.000000
17.990490 28.931551 0.000000
18.305840 28.931551 0.147826
18.621189 28.931551 -0.110084
18.936539 28.931551 0.461013
19.251888 28.931551 0.000000
-7.237510 28.616201 0.000000
-6.922160 28.616201 0.003113
-6.606810 28.616201 0.002927
-6.291460 28.616201 0.002784
-5.976110 28.616201 0.002637
-5.660760 28.616201 0.002632
-5.345410 28.616201 0.002697
-5.030060 28.616201 0.002750
-4.714710 28.616201 0.002775
-4.399360 28.616201 0.002527
-4.084010 28.616201 0.002454
-3.768660 28.616201 0.002305
-3.453310 28.616201 0.002459
-3.137960 28.616201 0.002750
-2.822610 28.616201 0.002712
-2.507260 28.616201 0.002516
-2.191910 28.616201 0.002358
-1.876560 28.616201 0.002319
-1.561210 28.616201 0.002373
-1.245860 28.616201 0.002380
-0.930510 28.616201 0.002387
-0.615160 28.616201 0.002185
-0.299810 28.616201 0.001994
0.015540 28.616201 0.001792
0.330890 28.616201 0.001788
0.646240 28.616201 0.001955
0.961589 28.616201 0.002135
1.276940 28.616201 0.002067
1.592289 28.616201 0.001820
1.907640 28.616201 0.001496
2.222990 28.616201 0.001409
2.538340 28.616201 0.001737
2.853690 28.616201 0.001970
3.169039 28.616201 0.001880
3.484390 28.616201 0.001805
3.799739 28.616201 0.001732
4.115090 28.616201 0.001399
4.430439 28.616201 0.001290
4.745790 28.616201 0.001469
5.061140 28.616201 0.001728
5.376490 28.616201 0.001817
5.691840 28.616201 0.001750
6.007189 28.616201 0.001727
6.322540 28.616201 0.002130
6.637889 28.616201 0.003130
6.953240 28.616201 0.004270
7.268589 28.616201 0.006453
7.583940 28.616201 0.012146
7.899290 28.616201 0.021452
8.214640 28.616201 0.038332
8.529989 28.616201 0.067230
8.845339 28.616201 0.118754
9.160688 28.616201 0.191541
9.476040 28.616201 0.285104
9.791389 28.616201 0.394011
10.106739 28.616201 0.516718
10.422089 28.616201 0.625332
10.737438 28.616201 0.736442
11.052790 28.616201 0.847231
11.368139 28.616201 0.952164
11.683489 28.616201 1.065089
11.998838 28.616201 1.150728
12.314190 28.616201 1.245454
12.629539 28.616201 1.314773
12.944889 28.616201 1.353332
13.260239 28.616201 1.346790
13.575588 28.616201 1.304023
13.890940 28.616201 1.229269
14.206289 28.616201 1.130397
14.521639 28.616201 1.036173
14.836988 28.616201 0.899888
15.152340 28.616201 0.734554
15.467690 28.616201 0.620188
15.783039 28.616201 0.000000
16.098389 28.616201 0.000000
16.413738 28.616201 0.000000
16.729090 28.616201 0.000000
17.044439 28.616201 0.000000
17.359789 28.616201 0.000000
17.675138 28.616201 0.000000
17.990490 28.616201 0.000000
18.305840 28.616201 0.365728
18.621189 28.616201 0.242161
18.936539 28.616201 1.265825
19.251888 28.616201 0.000000
-7.237510 28.300850 0.000000
-6.922160 28.300850 0.003063
-6.606810 28.300850 0.002787
-6.291460 28.300850 0.002708
-5.976110 28.300850 0.002597
-5.660760 28.300850 0.002569
-5.345410 28.300850 0.002680
-5.030060 28.300850 0.002770
-4.714710 28.300850 0.002808
-4.399360 28.300850 0.002677
-4.084010 28.300850 0.002515
-3.768660 28.300850 0.002393
-3.453310 28.300850 0.002566
-3.137960 28.300850 0.002875
-2.822610 28.300850 0.002823
-2.507260 28.300850 0.002667
-2.191910 28.300850 0.002347
-1.876560 28.300850 0.002198
-1.561210 28.300850 0.002159
-1.245860 28.300850 0.002256
-0.930510 28.300850 0.002326
-0.615160 28.300850 0.002256
-0.299810 28.300850 0.002124
0.015540 28.300850 0.001958
0.330890 28.300850 0.001978
0.646240 28.300850 0.002150
0.961589 28.300850 0.002306
1.276940 28.300850 0.002162
1.592289 28.300850 0.001981
1.907640 28.300850 0.001678
2.222990 28.300850 0.001545
2.538340 28.300850 0.001807
2.853690 28.300850 0.002076
3.169039 28.300850 0.002096
3.484390 28.300850 0.001957
3.799739 28.300850 0.001775
4.115090 28.300850 0.001452
4.430439 28.300850 0.001321
4.745790 28.300850 0.001557
5.061140 28.300850 0.001835
5.376490 28.300850 0.001963
5.691840 28.300850 0.001852
6.007189 28.300850 0.001949
6.322540 28.300850 0.002248
6.637889 28.300850 0.003108
6.953240 28.300850 0.004196
7.268589 28.300850 0.007289
7.583940 28.300850 0.011904
7.899290 28.300850 0.022402
8.214640 28.300850 0.039580
8.529989 28.300850 0.070098
8.845339 28.300850 0.117495
9.160688 28.300850 0.194791
9.476040 28.300850 0.284545
9.791389 28.300850 0.389686
10.106739 28.300850 0.514346
10.422089 28.300850 0.621264
10.737438 28.300850 0.741010
11.052790 28.300850 0.860837
11.368139 28.300850 0.949768
11.683489 28.300850 1.045123
11.998838 28.300850 1.147182
12.314190 28.300850 1.239112
12.629539 28.300850 1.304817
12.944889 28.300850 1.335659
13.260239 28.300850 1.351249
13.575588 28.300850 1.320771
13.890940 28.300850 1.268599
14.206289 28.300850 1.169199
14.521639 28.300850 1.039841
14.836988 28.300850 0.925314
15.152340 28.300850 0.756177
15.467690 28.300850 0.600503
15.783039 28.300850 0.000000
16.098389 28.300850 0.000000
16.413738 28.300850 0.000000
16.729090 28.300850 0.000000
17.044439 28.300850 0.000000
17.359789 28.300850 0.000000
17.675138 28.300850 0.000000
17.990490 28.300850 0.000000
18.305840 28.300850 0.682325
18.621189 28.300850 0.523795
18.936539 28.300850 0.833599
19.251888 28.300850 0.000000
-7.237510 27.985500 0.000000
-6.922160 27.985500 0.003293
-6.606810 27.985500 0.002995
-6.291460 27.985500 0.002765
-5.976110 27.985500 0.002663
-5.660760 27.985500 0.002633
-5.345410 27.985500 0.002723
-5.030060 27.985500 0.002812
-4.714710 27.985500 0.002840
-4.399360 27.985500 0.002800
-4.084010 27.985500 0.002599
-3.768660 27.985500 0.002490
-3.453310 27.985500 0.002645
-3.137960 27.985500 0.002926
-2.822610 27.985500 0.002903
-2.507260 27.985500 0.002647
-2.191910 27.985500 0.002303
-1.876560 27.985500 0.002066
-1.561210 27.985500 0.001974
-1.245860 27.985500 0.002105
-0.930510 27.985500 0.002253
-0.615160 27.985500 0.002277
-0.299810 27.985500 0.002309
0.015540 27.985500 0.002162
0.330890 27.985500 0.002156
0.646240 27.985500 0.002252
0.961589 27.985500 0.002335
1.276940 27.985500 0.002186
1.592289 27.985500 0.002053
1.907640 27.985500 0.001811
2.222990 27.985500 0.001702
2.538340 27.985500 0.001830
2.853690 27.985500 0.002095
3.169039 27.985500 0.002147
3.484390 27.985500 0.002056
3.799739 27.985500 0.001695
4.115090 27.985500 0.001493
4.430439 27.985500 0.001417
4.745790 27.985500 0.001564
5.061140 27.985500 0.001897
5.376490 27.985500 0.002088
5.691840 27.985500 0.001956
6.007189 27.985500 0.002021
6.322540 27.985500 0.002328
6.637889 27.985500 0.003183
6.953240 27.985500 0.004711
7.268589 27.985500 0.007485
7.583940 27.985500 0.012522
7.899290 27.985500 0.022015
8.214640 27.985500 0.040374
8.529989 27.985500 0.068996
8.845339 27.985500 0.118483
9.160688 27.985500 0.190640
9.476040 27.985500 0.283382
9.791389 27.985500 0.395922
10.106739 27.985500 0.508264
10.422089 27.985500 0.619134
10.737438 27.985500 0.739964
11.052790 27.985500 0.869531
11.368139 27.985500 0.954454
11.683489 27.985500 1.042321
11.998838 27.985500 1.157241
12.314190 27.985500 1.218356
12.629539 27.985500 1.310580
12.944889 27.985500 1.347865
13.260239 27.985500 1.341750
13.575588 27.985500 1.337138
13.890940 27.985500 1.263357
14.206289 27.985500 1.191271
14.521639 27.985500 1.046274
14.836988 27.985500 0.893821
15.152340 27.985500 0.769285
15.467690 27.985500 0.605166
15.783039 27.985500 0.000000
16.098389 27.985500 0.000000
16.413738 27.985500 0.000000
16.729090 27.985500 0.000000
17.044439 27.985500 0.000000
17.359789 27.985500 0.000000
17.675138 27.985500 0.000000
17.990490 27.985500 0.000000
18.305840 27.985500 0.168027
18.621189 27.985500 0.366395
18.936539 27.985500 0.309976
19.251888 27.985500 0.000000
-7.237510 27.670151 0.000000
-6.922160 27.670151 0.003757
-6.606810 27.670151 0.003353
-6.291460 27.670151 0.002971
-5.976110 27.670151 0.002908
-5.660760 27.670151 0.002815
-5.345410 27.670151 0.002859
-5.030060 27.670151 0.002910
-4.714710 27.670151 0.002937
-4.399360 27.670151 0.002808
-4.084010 27.670151 0.002663
-3.768660 27.670151 0.002562
-3.453310 27.670151 0.002717
-3.137960 27.670151 0.002987
-2.822610 27.670151 0.002930
-2.507260 27.670151 0.002705
-2.191910 27.670151 0.002343
-1.876560 27.670151 0.002106
-1.561210 27.670151 0.001916
-1.245860 27.670151 0.002000
-0.930510 27.670151 0.002183
-0.615160 27.670151 0.002378
-0.299810 27.670151 0.002484
0.015540 27.670151 0.002337
0.330890 27.670151 0.002266
0.646240 27.670151 0.002286
0.961589 27.670151 0.002255
1.276940 27.670151 0.002156
1.592289 27.670151 0.002133
1.907640 27.670151 0.002039
2.222990 27.670151 0.001880
2.538340 27.670151 0.001879
2.853690 27.670151 0.001974
3.169039 27.670151 0.002119
3.484390 27.670151 0.001997
3.799739 27.670151 0.001617
4.115090 27.670151 0.001513
4.430439 27.670151 0.001547
4.745790 27.670151 0.001655
5.061140 27.670151 0.001950
5.376490 27.670151 0.002135
5.691840 27.670151 0.001998
6.007189 27.670151 0.002065
6.322540 27.670151 0.002375
6.637889 27.670151 0.003147
6.953240 27.670151 0.004613
7.268589 27.670151 0.007514
7.583940 27.670151 0.013071
7.899290 27.670151 0.022723
8.214640 27.670151 0.040041
8.529989 27.670151 0.070687
8.845339 27.670151 0.120344
9.160688 27.670151 0.196008
9.476040 27.670151 0.287649
9.791389 27.670151 0.398508
10.106739 27.670151 0.505162
10.422089 27.670151 0.625646
10.737438 27.670151 0.749247
11.052790 27.670151 0.873173
11.368139 27.670151 0.962021
11.683489 27.670151 1.065526
11.998838 27.670151 1.149012
12.314190 27.670151 1.221429
12.629539 27.670151 1.299783
12.944889 27.670151 1.347137
13.260239 27.670151 1.361024
13.575588 27.670151 1.316820
13.890940 27.670151 1.287101
14.206289 27.670151 1.184343
14.521639 27.670151 1.047292
14.836988 27.670151 0.897145
15.152340 27.670151 0.764532
15.467690 27.670151 0.619111
15.783039 27.670151 0.000000
16.098389 27.670151 0.000000
16.413738 27.670151 0.000000
16.729090 27.670151 0.000000
17.044439 27.670151 0.000000
17.359789 27.670151 0.000000
17.675138 27.670151 0.000000
17.990490 27.670151 0.000000
18.305840 27.670151 -0.017788
18.621189 27.670151 0.101429
18.936539 27.670151 0.136937
19.251888 27.670151 0.000000
-7.237510 27.354801 0.000000
-6.922160 27.354801 0.004141
-6.606810 27.354801 0.003684
-6.291460 27.354801 0.003313
-5.976110 27.354801 0.003058
-5.660760 27.354801 0.002962
-5.345410 27.354801 0.003000
-5.030060 27.354801 0.003075
-4.714710 27.354801 0.003003
-4.399360 27.354801 0.002816
-4.084010 27.354801 0.002735
-3.768660 27.354801 0.002674
-3.453310 27.354801 0.002769
-3.137960 27.354801 0.002979
-2.822610 27.354801 0.003003
-2.507260 27.354801 0.002737
-2.191910 27.354801 0.002429
-1.876560 27.354801 0.002251
-1.561210 27.354801 0.002061
-1.245860 27.354801 0.001986
-0.930510 27.354801 0.002169
-0.615160 27.354801 0.002475
-0.299810 27.354801 0.002685
0.015540 27.354801 0.002456
0.330890 27.354801 0.002269
0.646240 27.354801 0.002238
0.961589 27.354801 0.002178
1.276940 27.354801 0.002060
1.592289 27.354801 0.002188
1.907640 27.354801 0.002296
2.222990 27.354801 0.002027
2.538340 27.354801 0.001824
2.853690 27.354801 0.001830
3.169039 27.354801 0.001968
3.484390 27.354801 0.001912
3.799739 27.354801 0.001581
4.115090 27.354801 0.001550
4.430439 27.354801 0.001704
4.745790 27.354801 0.001731
5.061140 27.354801 0.002053
5.376490 27.354801 0.002148
5.691840 27.354801 0.002094
6.007189 27.354801 0.002163
6.322540 27.354801 0.002377
6.637889 27.354801 0.003163
6.953240 27.354801 0.004357
7.268589 27.354801 0.007348
7.583940 27.354801 0.012953
7.899290 27.354801 0.022823
8.214640 27.354801 0.036990
8.529989 27.354801 0.069469
8.845339 27.354801 0.121801
9.160688 27.354801 0.193440
9.476040 27.354801 0.293630
9.791389 27.354801 0.402053
10.106739 27.354801 0.515904
10.422089 27.354801 0.634075
10.737438 27.354801 0.745000
11.052790 27.354801 0.854002
11.368139 27.354801 0.963212
11.683489 27.354801 1.062617
11.998838 27.354801 1.160457
12.314190 27.354801 1.213800
12.629539 27.354801 1.274108
12.944889 27.354801 1.334876
13.260239 27.354801 1.342913
13.575588 27.354801 1.327994
13.890940 27.354801 1.281573
14.206289 27.354801 1.189815
14.521639 27.354801 1.050117
14.836988 27.354801 0.918584
15.152340 27.354801 0.743424
15.467690 27.354801 0.612121
15.783039 27.354801 0.000000
16.098389 27.354801 0.000000
16.413738 27.354801 0.000000
16.729090 27.354801 0.000000
17.044439 27.354801 0.000000
17.359789 27.354801 0.000000
17.675138 27.354801 0.000000
17.990490 27.354801 0.000000
18.305840 27.354801 0.041059
18.621189 27.354801 0.215205
18.936539 27.354801 0.313875
19.251888 27.354801 0.000000
-7.237510 27.039452 0.000000
-6.922160 27.039452 0.004268
-6.606810 27.039452 0.003971
-6.291460 27.039452 0.003540
-5.976110 27.039452 0.003260
-5.660760 27.039452 0.003138
-5.345410 27.039452 0.003147
-5.030060 27.039452 0.003184
-4.714710 27.039452 0.003088
-4.399360 27.039452 0.002939
-4.084010 27.039452 0.002893
-3.768660 27.039452 0.002782
-3.453310 27.039452 0.002745
-3.137960 27.039452 0.002915
-2.822610 27.039452 0.003031
-2.507260 27.039452 0.002874
-2.191910 27.039452 0.002518
-1.876560 27.039452 0.002423
-1.561210 27.039452 0.002253
-1.245860 27.039452 0.002125
-0.930510 27.039452 0.002221
-0.615160 27.039452 0.002527
-0.299810 27.039452 0.002758
0.015540 27.039452 0.002519
0.330890 27.039452 0.002156
0.646240 27.039452 0.002188
0.961589 27.039452 0.002071
1.276940 27.039452 0.001923
1.592289 27.039452 0.002149
1.907640 27.039452 0.002442
2.222990 27.039452 0.002139
2.538340 27.039452 0.001745
2.853690 27.039452 0.001696
3.169039 27.039452 0.001787
3.484390 27.039452 0.001829
3.799739 27.039452 0.001673
4.115090 27.039452 0.001680
4.430439 27.039452 0.001917
4.745790 27.039452 0.001926
5.061140 27.039452 0.002064
5.376490 27.039452 0.002062
5.691840 27.039452 0.002024
6.007189 27.039452 0.002134
6.322540 27.039452 0.002435
6.637889 27.039452 0.003348
6.953240 27.039452 0.004717
7.268589 27.039452 0.007415
7.583940 27.039452 0.011978
7.899290 27.039452 0.020124
8.214640 27.039452 0.039673
8.529989 27.039452 0.068096
8.845339 27.039452 0.121674
9.160688 27.039452 0.193793
9.476040 27.039452 0.287623
9.791389 27.039452 0.400916
10.106739 27.039452 0.530042
10.422089 27.039452 0.641954
10.737438 27.039452 0.757862
11.052790 27.039452 0.849442
11.368139 27.039452 0.964268
11.683489 27.039452 1.047895
11.998838 27.039452 1.136852
12.314190 27.039452 1.236195
12.629539 27.039452 1.278981
12.944889 27.039452 1.326502
13.260239 27.039452 1.357713
13.575588 27.039452 1.349173
13.890940 27.039452 1.307243
14.206289 27.039452 1.205959
14.521639 27.039452 1.084809
14.836988 27.039452 0.941444
15.152340 27.039452 0.782876
15.467690 27.039452 0.642713
15.783039 27.039452 0.000000
16.098389 27.039452 0.000000
16.413738 27.039452 0.000000
16.729090 27.039452 0.000000
17.044439 27.039452 0.000000
17.359789 27.039452 0.000000
17.675138 27.039452 0.000000
17.990490 27.039452 0.000000
18.305840 27.039452 0.236670
18.621189 27.039452 0.328788
18.936539 27.039452 0.106377
19.251888 27.039452 0.000000
-7.237510 26.724100 0.000000
-6.922160 26.724100 0.004345
-6.606810 26.724100 0.003948
-6.291460 26.724100 0.003693
-5.976110 26.724100 0.003500
-5.660760 26.724100 0.003412
-5.345410 26.724100 0.003341
-5.030060 26.724100 0.003315
-4.714710 26.724100 0.003147
-4.399360 26.724100 0.003076
-4.084010 26.724100 0.003089
-3.768660 26.724100 0.002965
-3.453310 26.724100 0.002756
-3.137960 26.724100 0.002872
-2.822610 26.724100 0.003015
-2.507260 26.724100 0.002939
-2.191910 26.724100 0.002626
-1.876560 26.724100 0.002581
-1.561210 26.724100 0.002530
-1.245860 26.724100 0.002391
-0.930510 26.724100 0.002348
-0.615160 26.724100 0.002568
-0.299810 26.724100 0.002699
0.015540 26.724100 0.002432
0.330890 26.724100 0.002118
0.646240 26.724100 0.002183
0.961589 26.724100 0.002050
1.276940 26.724100 0.001814
1.592289 26.724100 0.002088
1.907640 26.724100 0.002449
2.222990 26.724100 0.002174
2.538340 26.724100 0.001695
2.853690 26.724100 0.001567
3.169039 26.724100 0.001574
3.484390 26.724100 0.001692
3.799739 26.724100 0.001803
4.115090 26.724100 0.001939
4.430439 26.724100 0.002175
4.745790 26.724100 0.002117
5.061140 26.724100 0.002068
5.376490 26.724100 0.001921
5.691840 26.724100 0.001924
6.007189 26.724100 0.002116
6.322540 26.724100 0.002559
6.637889 26.724100 0.003293
6.953240 26.724100 0.004777
7.268589 26.724100 0.007645
7.583940 26.724100 0.012382
7.899290 26.724100 0.021425
8.214640 26.724100 0.037040
8.529989 26.724100 0.069383
8.845339 26.724100 0.125246
9.160688 26.724100 0.201128
9.476040 26.724100 0.292356
9.791389 26.724100 0.409907
10.106739 26.724100 0.537426
10.422089 26.724100 0.639424
10.737438 26.724100 0.756150
11.052790 26.724100 0.842561
11.368139 26.724100 0.950926
11.683489 26.724100 1.046349
11.998838 26.724100 1.129185
12.314190 26.724100 1.242779
12.629539 26.724100 1.294652
12.944889 26.724100 1.321260
13.260239 26.724100 1.359977
13.575588 26.724100 1.356110
13.890940 26.724100 1.289862
14.206289 26.724100 1.220146
14.521639 26.724100 1.105199
14.836988 26.724100 0.953007
15.152340 26.724100 0.810464
15.467690 26.724100 0.658139
15.783039 26.724100 0.000000
16.098389 26.724100 0.000000
16.413738 26.724100 0.000000
16.729090 26.724100 0.000000
17.044439 26.724100 0.000000
17.359789 26.724100 0.000000
17.675138 26.724100 0.000000
17.990490 26.724100 0.000000
18.305840 26.724100 -0.012757
18.621189 26.724100 0.017862
18.936539 26.724100 -0.541998
19.251888 26.724100 0.000000
-7.237510 26.408751 0.000000
-6.922160 26.408751 0.004377
-6.606810 26.408751 0.003969
-6.291460 26.408751 0.003717
-5.976110 26.408751 0.003652
-5.660760 26.408751 0.003638
-5.345410 26.408751 0.003437
-5.030060 26.408751 0.003370
-4.714710 26.408751 0.003264
-4.399360 26.408751 0.003243
-4.084010 26.408751 0.003277
-3.768660 26.408751 0.003117
-3.453310 26.408751 0.002808
-3.137960 26.408751 0.002796
-2.822610 26.408751 0.002922
-2.507260 26.408751 0.002941
-2.191910 26.408751 0.002808
-1.876560 26.408751 0.002828
-1.561210 26.408751 0.002849
-1.245860 26.408751 0.002796
-0.930510 26.408751 0.002538
-0.615160 26.408751 0.002518
-0.299810 26.408751 0.002542
0.015540 26.408751 0.002363
0.330890 26.408751 0.002099
0.646240 26.408751 0.002129
0.961589 26.408751 0.001977
1.276940 26.408751 0.001829
1.592289 26.408751 0.002010
1.907640 26.408751 0.002419
2.222990 26.408751 0.002151
2.538340 26.408751 0.001720
2.853690 26.408751 0.001502
3.169039 26.408751 0.001449
3.484390 26.408751 0.001633
3.799739 26.408751 0.001940
4.115090 26.408751 0.002217
4.430439 26.408751 0.002452
4.745790 26.408751 0.002371
5.061140 26.408751 0.002130
5.376490 26.408751 0.001827
5.691840 26.408751 0.001838
6.007189 26.408751 0.002128
6.322540 26.408751 0.002432
6.637889 26.408751 0.003172
6.953240 26.408751 0.004746
7.268589 26.408751 0.008319
7.583940 26.408751 0.013112
7.899290 26.408751 0.021015
8.214640 26.408751 0.038031
8.529989 26.408751 0.074766
8.845339 26.408751 0.127822
9.160688 26.408751 0.205906
9.476040 26.408751 0.301022
9.791389 26.408751 0.426628
10.106739 26.408751 0.540324
10.422089 26.408751 0.648393
10.737438 26.408751 0.738668
11.052790 26.408751 0.842598
11.368139 26.408751 0.953144
11.683489 26.408751 1.036830
11.998838 26.408751 1.152539
12.314190 26.408751 1.232438
12.629539 26.408751 1.306297
12.944889 26.408751 1.330670
13.260239 26.408751 1.339741
13.575588 26.408751 1.347372
13.890940 26.408751 1.280570
14.206289 26.408751 1.211771
14.521639 26.408751 1.096873
14.836988 26.408751 0.938182
15.152340 26.408751 0.797192
15.467690 26.408751 0.670550
15.783039 26.408751 0.000000
16.098389 26.408751 0.000000
16.413738 26.408751 0.000000
16.729090 26.408751 0.000000
17.044439 26.408751 0.000000
17.359789 26.408751 0.000000
17.675138 26.408751 0.000000
17.990490 26.408751 0.000000
18.305840 26.408751 0.084514
18.621189 26.408751 0.194333
18.936539 26.408751 -0.085070
19.251888 26.408751 0.000000
-7.237510 26.093401 0.000000
-6.922160 26.093401 0.004099
-6.606810 26.093401 0.003815
-6.291460 26.093401 0.003645
-5.976110 26.093401 0.003726
-5.660760 26.093401 0.003612
-5.345410 26.093401 0.003412
-5.030060 26.093401 0.003402
-4.714710 26.093401 0.003356
-4.399360 26.093401 0.003407
-4.084010 26.093401 0.003425
-3.768660 26.093401 0.003253
-3.453310 26.093401 0.002931
-3.137960 26.093401 0.002813
-2.822610 26.093401 0.002855
-2.507260 26.093401 0.002922
-2.191910 26.093401 0.002928
-1.876560 26.093401 0.003039
-1.561210 26.093401 0.003153
-1.245860 26.093401 0.003058
-0.930510 26.093401 0.002665
-0.615160 26.093401 0.002414
-0.299810 26.093401 0.002361
0.015540 26.093401 0.002261
0.330890 26.093401 0.002055
0.646240 26.093401 0.002038
0.961589 26.093401 0.001950
1.276940 26.093401 0.001887
1.592289 26.093401 0.002031
1.907640 26.093401 0.002332
2.222990 26.093401 0.002167
2.538340 26.093401 0.001779
2.853690 26.093401 0.001540
3.169039 26.093401 0.001481
3.484390 26.093401 0.001757
3.799739 26.093401 0.002147
4.115090 26.093401 0.002474
4.430439 26.093401 0.002632
4.745790 26.093401 0.002522
5.061140 26.093401 0.002152
5.376490 26.093401 0.001814
5.691840 26.093401 0.001875
6.007189 26.093401 0.002282
6.322540 26.093401 0.002427
6.637889 26.093401 0.003317
6.953240 26.093401 0.004983
7.268589 26.093401 0.008347
7.583940 26.093401 0.013363
7.899290 26.093401 0.022049
8.214640 26.093401 0.038453
8.529989 26.093401 0.073071
8.845339 26.093401 0.128240
9.160688 26.093401 0.209061
9.476040 26.093401 0.304965
9.791389 26.093401 0.419519
10.106739 26.093401 0.533404
10.422089 26.093401 0.648438
10.737438 26.093401 0.748919
11.052790 26.093401 0.858655
11.368139 26.093401 0.969735
11.683489 26.093401 1.061434
11.998838 26.093401 1.146784
12.314190 26.093401 1.258177
12.629539 26.093401 1.319031
12.944889 26.093401 1.345735
13.260239 26.093401 1.354118
13.575588 26.093401 1.353770
13.890940 26.093401 1.311525
14.206289 26.093401 1.232505
14.521639 26.093401 1.104729
14.836988 26.093401 0.956912
15.152340 26.093401 0.809854
15.467690 26.093401 0.676726
15.783039 26.093401 0.000000
16.098389 26.093401 0.000000
16.413738 26.093401 0.000000
16.729090 26.093401 0.000000
17.044439 26.093401 0.000000
17.359789 26.093401 0.000000
17.675138 26.093401 0.000000
17.990490 26.093401 0.000000
18.305840 26.093401 0.072225
18.621189 26.093401 0.034565
18.936539 26.093401 0.305068
19.251888 26.093401 0.000000
-7.237510 25.778051 0.000000
-6.922160 25.778051 0.003745
-6.606810 25.778051 0.003549
-6.291460 25.778051 0.003441
-5.976110 25.778051 0.003515
-5.660760 25.778051 0.003465
-5.345410 25.778051 0.003315
-5.030060 25.778051 0.003301
-4.714710 25.778051 0.003290
-4.399360 25.778051 0.003413
-4.084010 25.778051 0.003457
-3.768660 25.778051 0.003370
-3.453310 25.778051 0.003184
-3.137960 25.778051 0.002877
-2.822610 25.778051 0.002771
-2.507260 25.778051 0.002878
-2.191910 25.778051 0.003022
-1.876560 25.778051 0.003263
-1.561210 25.778051 0.003349
-1.245860 25.778051 0.003183
-0.930510 25.778051 0.002747
-0.615160 25.778051 0.002398
-0.299810 25.778051 0.002264
0.015540 25.778051 0.002175
0.330890 25.778051 0.002021
0.646240 25.778051 0.001959
0.961589 25.778051 0.001984
1.276940 25.778051 0.001948
1.592289 25.778051 0.002058
1.907640 25.778051 0.002264
2.222990 25.778051 0.002182
2.538340 25.778051 0.001921
2.853690 25.778051 0.001624
3.169039 25.778051 0.001667
3.484390 25.778051 0.001979
3.799739 25.778051 0.002313
4.115090 25.778051 0.002526
4.430439 25.778051 0.002694
4.745790 25.778051 0.002538
5.061140 25.778051 0.002130
5.376490 25.778051 0.001781
5.691840 25.778051 0.001875
6.007189 25.778051 0.002270
6.322540 25.778051 0.002604
6.637889 25.778051 0.003416
6.953240 25.778051 0.005060
7.268589 25.778051 0.008392
7.583940 25.778051 0.013233
7.899290 25.778051 0.021771
8.214640 25.778051 0.039250
8.529989 25.778051 0.073387
8.845339 25.778051 0.128458
9.160688 25.778051 0.206202
9.476040 25.778051 0.301607
9.791389 25.778051 0.416110
10.106739 25.778051 0.526035
10.422089 25.778051 0.646460
10.737438 25.778051 0.758545
11.052790 25.778051 0.858512
11.368139 25.778051 0.974017
11.683489 25.778051 1.074086
11.998838 25.778051 1.161381
12.314190 25.778051 1.253428
12.629539 25.778051 1.307630
12.944889 25.778051 1.357356
13.260239 25.778051 1.348299
13.575588 25.778051 1.346376
13.890940 25.778051 1.308565
14.206289 25.778051 1.215316
14.521639 25.778051 1.109077
14.836988 25.778051 0.989411
15.152340 25.778051 0.839092
15.467690 25.778051 0.712858
15.783039 25.778051 0.000000
16.098389 25.778051 0.000000
16.413738 25.778051 0.000000
16.729090 25.778051 0.000000
17.044439 25.778051 0.000000
17.359789 25.778051 0.000000
17.675138 25.778051 0.000000
17.990490 25.778051 0.000000
18.305840 25.778051 0.121598
18.621189 25.778051 0.166509
18.936539 25.778051 -0.252416
19.251888 25.778051 0.000000
-7.237510 25.462700 0.000000
-6.922160 25.462700 0.003469
-6.606810 25.462700 0.003189
-6.291460 25.462700 0.003172
-5.976110 25.462700 0.003227
-5.660760 25.462700 0.003269
-5.345410 25.462700 0.003225
-5.030060 25.462700 0.003190
-4.714710 25.462700 0.003173
-4.399360 25.462700 0.003375
-4.084010 25.462700 0.003484
-3.768660 25.462700 0.003478
-3.453310 25.462700 0.003236
-3.137960 25.462700 0.002922
-2.822610 25.462700 0.002780
-2.507260 25.462700 0.002892
-2.191910 25.462700 0.003117
-1.876560 25.462700 0.003413
-1.561210 25.462700 0.003424
-1.245860 25.462700 0.003206
-0.930510 25.462700 0.002743
-0.615160 25.462700 0.002343
-0.299810 25.462700 0.002166
0.015540 25.462700 0.002207
0.330890 25.462700 0.002123
0.646240 25.462700 0.002039
0.961589 25.462700 0.002113
1.276940 25.462700 0.002067
1.592289 25.462700 0.002055
1.907640 25.462700 0.002192
2.222990 25.462700 0.002218
2.538340 25.462700 0.002078
2.853690 25.462700 0.001801
3.169039 25.462700 0.001802
3.484390 25.462700 0.002147
3.799739 25.462700 0.002318
4.115090 25.462700 0.002403
4.430439 25.462700 0.002499
4.745790 25.462700 0.002415
5.061140 25.462700 0.002081
5.376490 25.462700 0.001827
5.691840 25.462700 0.001952
6.007189 25.462700 0.002200
6.322540 25.462700 0.002495
6.637889 25.462700 0.003116
6.953240 25.462700 0.004527
7.268589 25.462700 0.007782
7.583940 25.462700 0.012849
7.899290 25.462700 0.021421
8.214640 25.462700 0.039342
8.529989 25.462700 0.072961
8.845339 25.462700 0.127458
9.160688 25.462700 0.200712
9.476040 25.462700 0.307585
9.791389 25.462700 0.414957
10.106739 25.462700 0.521081
10.422089 25.462700 0.639912
10.737438 25.462700 0.765641
11.052790 25.462700 0.863635
11.368139 25.462700 0.975383
11.683489 25.462700 1.084234
11.998838 25.462700 1.162745
12.314190 25.462700 1.246756
12.629539 25.462700 1.299495
12.944889 25.462700 1.345514
13.260239 25.462700 1.353967
13.575588 25.462700 1.333607
13.890940 25.462700 1.276391
14.206289 25.462700 1.234043
14.521639 25.462700 1.122595
14.836988 25.462700 0.964626
15.152340 25.462700 0.850946
15.467690 25.462700 0.727741
15.783039 25.462700 0.000000
16.098389 25.462700 0.000000
16.413738 25.462700 0.000000
16.729090 25.462700 0.000000
17.044439 25.462700 0.000000
17.359789 25.462700 0.000000
17.675138 25.462700 0.000000
17.990490 25.462700 0.000000
18.305840 25.462700 0.365484
18.621189 25.462700 0.299344
18.936539 25.462700 -0.149691
19.251888 25.462700 0.000000
-7.237510 25.147350 0.000000
-6.922160 25.147350 0.003236
-6.606810 25.147350 0.002982
-6.291460 25.147350 0.002933
-5.976110 25.147350 0.003065
-5.660760 25.147350 0.003225
-5.345410 25.147350 0.003214
-5.030060 25.147350 0.003142
-4.714710 25.147350 0.003099
-4.399360 25.147350 0.003341
-4.084010 25.147350 0.003463
-3.768660 25.147350 0.003406
-3.453310 25.147350 0.003182
-3.137960 25.147350 0.002879
-2.822610 25.147350 0.002847
-2.507260 25.147350 0.002968
-2.191910 25.147350 0.003190
-1.876560 25.147350 0.003389
-1.561210 25.147350 0.003396
-1.245860 25.147350 0.003171
-0.930510 25.147350 0.002713
-0.615160 25.147350 0.002277
-0.299810 25.147350 0.002076
0.015540 25.147350 0.002170
0.330890 25.147350 0.002240
0.646240 25.147350 0.002207
0.961589 25.147350 0.002264
1.276940 25.147350 0.002199
1.592289 25.147350 0.002095
1.907640 25.147350 0.002116
2.222990 25.147350 0.002222
2.538340 25.147350 0.002225
2.853690 25.147350 0.002009
3.169039 25.147350 0.001978
3.484390 25.147350 0.002184
3.799739 25.147350 0.002269
4.115090 25.147350 0.002214
4.430439 25.147350 0.002195
4.745790 25.147350 0.002242
5.061140 25.147350 0.002027
5.376490 25.147350 0.001924
5.691840 25.147350 0.002009
6.007189 25.147350 0.002147
6.322540 25.147350 0.002312
6.637889 25.147350 0.002965
6.953240 25.147350 0.004368
7.268589 25.147350 0.007586
7.583940 25.147350 0.013017
7.899290 25.147350 0.021156
8.214640 25.147350 0.040153
8.529989 25.147350 0.070856
8.845339 25.147350 0.127304
9.160688 25.147350 0.208106
9.476040 25.147350 0.305243
9.791389 25.147350 0.420847
10.106739 25.147350 0.537312
10.422089 25.147350 0.636618
10.737438 25.147350 0.758095
11.052790 25.147350 0.863928
11.368139 25.147350 0.973412
11.683489 25.147350 1.078829
11.998838 25.147350 1.160704
12.314190 25.147350 1.248268
12.629539 25.147350 1.286553
12.944889 25.147350 1.331859
13.260239 25.147350 1.357919
13.575588 25.147350 1.334218
13.890940 25.147350 1.316294
14.206289 25.147350 1.212105
14.521639 25.147350 1.112143
14.836988 25.147350 0.988844
15.152340 25.147350 0.857519
15.467690 25.147350 0.740215
15.783039 25.147350 0.000000
16.098389 25.147350 0.000000
16.413738 25.147350 0.000000
16.729090 25.147350 0.000000
17.044439 25.147350 0.000000
17.359789 25.147350 0.000000
17.675138 25.147350 0.000000
17.990490 25.147350 0.000000
18.305840 25.147350 0.555097
18.621189 25.147350 0.398998
18.936539 25.147350 -0.367858
19.251888 25.147350 0.000000
-7.237510 24.832001 0.000000
-6.922160 24.832001 0.003352
-6.606810 24.832001 0.002999
-6.291460 24.832001 0.003014
-5.976110 24.832001 0.003105
-5.660760 24.832001 0.003306
-5.345410 24.832001 0.003353
-5.030060 24.832001 0.003230
-4.714710 24.832001 0.003182
-4.399360 24.832001 0.003328
-4.084010 24.832001 0.003353
-3.768660 24.832001 0.003247
-3.453310 24.832001 0.003051
-3.137960 24.832001 0.002882
-2.822610 24.832001 0.002953
-2.507260 24.832001 0.003009
-2.191910 24.832001 0.003159
-1.876560 24.832001 0.003252
-1.561210 24.832001 0.003191
-1.245860 24.832001 0.003045
-0.930510 24.832001 0.002672
-0.615160 24.832001 0.002203
-0.299810 24.832001 0.002037
0.015540 24.832001 0.002251
0.330890 24.832001 0.002354
0.646240 24.832001 0.002455
0.961589 24.832001 0.002452
1.276940 24.832001 0.002350
1.592289 24.832001 0.002169
1.907640 24.832001 0.002107
2.222990 24.832001 0.002248
2.538340 24.832001 0.002336
2.853690 24.832001 0.002238
3.169039 24.832001 0.002063
3.484390 24.832001 0.002159
3.799739 24.832001 0.002156
4.115090 24.832001 0.001962
4.430439 24.832001 0.001922
4.745790 24.832001 0.002127
5.061140 24.832001 0.002108
5.376490 24.832001 0.001982
5.691840 24.832001 0.001936
6.007189 24.832001 0.002031
6.322540 24.832001 0.002239
6.637889 24.832001 0.003227
6.953240 24.832001 0.004374
7.268589 24.832001 0.007412
7.583940 24.832001 0.012515
7.899290 24.832001 0.021833
8.214640 24.832001 0.039162
8.529989 24.832001 0.072907
8.845339 24.832001 0.133439
9.160688 24.832001 0.208186
9.476040 24.832001 0.314034
9.791389 24.832001 0.431028
10.106739 24.832001 0.545395
10.422089 24.832001 0.660053
10.737438 24.832001 0.758335
11.052790 24.832001 0.868448
11.368139 24.832001 0.971894
11.683489 24.832001 1.063286
11.998838 24.832001 1.156204
12.314190 24.832001 1.231551
12.629539 24.832001 1.278003
12.944889 24.832001 1.320857
13.260239 24.832001 1.363216
13.575588 24.832001 1.353351
13.890940 24.832001 1.344433
14.206289 24.832001 1.251189
14.521639 24.832001 1.158137
14.836988 24.832001 0.978432
15.152340 24.832001 0.837406
15.467690 24.832001 0.732474
15.783039 24.832001 0.000000
16.098389 24.832001 0.000000
16.413738 24.832001 0.000000
16.729090 24.832001 0.000000
17.044439 24.832001 0.000000
17.359789 24.832001 0.000000
17.675138 24.832001 0.000000
17.990490 24.832001 0.000000
18.305840 24.832001 0.390930
18.621189 24.832001 0.223288
18.936539 24.832001 0.000000
19.251888 24.832001 0.000000
-7.237510 24.516651 0.000000
-6.922160 24.516651 0.003413
-6.606810 24.516651 0.003145
-6.291460 24.516651 0.003057
-5.976110 24.516651 0.003137
-5.660760 24.516651 0.003380
-5.345410 24.516651 0.003467
-5.030060 24.516651 0.003451
-4.714710 24.516651 0.003344
-4.399360 24.516651 0.003239
-4.084010 24.516651 0.003188
-3.768660 24.516651 0.003068
-3.453310 24.516651 0.003059
-3.137960 24.516651 0.003035
-2.822610 24.516651 0.003153
-2.507260 24.516651 0.003085
-2.191910 24.516651 0.003007
-1.876560 24.516651 0.002970
-1.561210 24.516651 0.002946
-1.245860 24.516651 0.002848
-0.930510 24.516651 0.002579
-0.615160 24.516651 0.002238
-0.299810 24.516651 0.002156
0.015540 24.516651 0.002348
0.330890 24.516651 0.002491
0.646240 24.516651 0.002583
0.961589 24.516651 0.002593
1.276940 24.516651 0.002501
1.592289 24.516651 0.002297
1.907640 24.516651 0.002186
2.222990 24.516651 0.002290
2.538340 24.516651 0.002498
2.853690 24.516651 0.002437
3.169039 24.516651 0.002148
3.484390 24.516651 0.002085
3.799739 24.516651 0.002025
4.115090 24.516651 0.001818
4.430439 24.516651 0.001706
4.745790 24.516651 0.002113
5.061140 24.516651 0.002188
5.376490 24.516651 0.001921
5.691840 24.516651 0.001851
6.007189 24.516651 0.001890
6.322540 24.516651 0.002260
6.637889 24.516651 0.003042
6.953240 24.516651 0.004621
7.268589 24.516651 0.007237
7.583940 24.516651 0.012173
7.899290 24.516651 0.021206
8.214640 24.516651 0.039434
8.529989 24.516651 0.074496
8.845339 24.516651 0.133750
9.160688 24.516651 0.214520
9.476040 24.516651 0.313827
9.791389 24.516651 0.429408
10.106739 24.516651 0.540624
10.422089 24.516651 0.667198
10.737438 24.516651 0.785789
11.052790 24.516651 0.863906
11.368139 24.516651 0.971035
11.683489 24.516651 1.075197
11.998838 24.516651 1.161260
12.314190 24.516651 1.229673
12.629539 24.516651 1.281084
12.944889 24.516651 1.336063
13.260239 24.516651 1.381167
13.575588 24.516651 1.358971
13.890940 24.516651 1.334539
14.206289 24.516651 1.255286
14.521639 24.516651 1.153752
14.836988 24.516651 0.994654
15.152340 24.516651 0.837452
15.467690 24.516651 0.687627
15.783039 24.516651 0.000000
16.098389 24.516651 0.000000
16.413738 24.516651 0.000000
16.729090 24.516651 0.000000
17.044439 24.516651 0.000000
17.359789 24.516651 0.000000
17.675138 24.516651 0.000000
17.990490 24.516651 0.000000
18.305840 24.516651 0.258966
18.621189 24.516651 0.203973
18.936539 24.516651 0.000000
19.251888 24.516651 0.000000
-7.237510 24.201302 0.000000
-6.922160 24.201302 0.003563
-6.606810 24.201302 0.003290
-6.291460 24.201302 0.003153
-5.976110 24.201302 0.003200
-5.660760 24.201302 0.003382
-5.345410 24.201302 0.003591
-5.030060 24.201302 0.003578
-4.714710 24.201302 0.003369
-4.399360 24.201302 0.003109
-4.084010 24.201302 0.003021
-3.768660 24.201302 0.003007
-3.453310 24.201302 0.003104
-3.137960 24.201302 0.003232
-2.822610 24.201302 0.003241
-2.507260 24.201302 0.003068
-2.191910 24.201302 0.002832
-1.876560 24.201302 0.002655
-1.561210 24.201302 0.002640
-1.245860 24.201302 0.002557
-0.930510 24.201302 0.002482
-0.615160 24.201302 0.002294
-0.299810 24.201302 0.002330
0.015540 24.201302 0.002530
0.330890 24.201302 0.002568
0.646240 24.201302 0.002604
0.961589 24.201302 0.002555
1.276940 24.201302 0.002528
1.592289 24.201302 0.002463
1.907640 24.201302 0.002381
2.222990 24.201302 0.002466
2.538340 24.201302 0.002582
2.853690 24.201302 0.002511
3.169039 24.201302 0.002181
3.484390 24.201302 0.001967
3.799739 24.201302 0.001964
4.115090 24.201302 0.001794
4.430439 24.201302 0.001702
4.745790 24.201302 0.002080
5.061140 24.201302 0.002196
5.376490 24.201302 0.001949
5.691840 24.201302 0.001871
6.007189 24.201302 0.001910
6.322540 24.201302 0.002228
6.637889 24.201302 0.003257
6.953240 24.201302 0.004648
7.268589 24.201302 0.007080
7.583940 24.201302 0.011784
7.899290 24.201302 0.021604
8.214640 24.201302 0.040687
8.529989 24.201302 0.075709
8.845339 24.201302 0.134981
9.160688 24.201302 0.213400
9.476040 24.201302 0.320735
9.791389 24.201302 0.419848
10.106739 24.201302 0.553499
10.422089 24.201302 0.680743
10.737438 24.201302 0.791623
11.052790 24.201302 0.865079
11.368139 24.201302 0.984554
11.683489 24.201302 1.070123
11.998838 24.201302 1.168548
12.314190 24.201302 1.258150
12.629539 24.201302 1.294188
12.944889 24.201302 1.342504
13.260239 24.201302 1.388187
13.575588 24.201302 1.361325
13.890940 24.201302 1.313451
14.206289 24.201302 1.260640
14.521639 24.201302 1.137498
14.836988 24.201302 0.972441
15.152340 24.201302 0.840857
15.467690 24.201302 0.686912
15.783039 24.201302 0.000000
16.098389 24.201302 0.000000
16.413738 24.201302 0.000000
16.729090 24.201302 0.000000
17.044439 24.201302 0.000000
17.359789 24.201302 0.000000
17.675138 24.201302 0.000000
17.990490 24.201302 0.000000
18.305840 24.201302 0.253268
18.621189 24.201302 0.193507
18.936539 24.201302 0.000000
19.251888 24.201302 0.000000
-7.237510 23.885950 0.000000
-6.922160 23.885950 0.003578
-6.606810 23.885950 0.003429
-6.291460 23.885950 0.003301
-5.976110 23.885950 0.003249
-5.660760 23.885950 0.003333
-5.345410 23.885950 0.003616
-5.030060 23.885950 0.003572
-4.714710 23.885950 0.003242
-4.399360 23.885950 0.002932
-4.084010 23.885950 0.002913
-3.768660 23.885950 0.003013
-3.453310 23.885950 0.003127
-3.137960 23.885950 0.003270
-2.822610 23.885950 0.003302
-2.507260 23.885950 0.002962
-2.191910 23.885950 0.002687
-1.876560 23.885950 0.002443
-1.561210 23.885950 0.002356
-1.245860 23.885950 0.002294
-0.930510 23.885950 0.002316
-0.615160 23.885950 0.002477
-0.299810 23.885950 0.002522
0.015540 23.885950 0.002565
0.330890 23.885950 0.002559
0.646240 23.885950 0.002534
0.961589 23.885950 0.002546
1.276940 23.885950 0.002609
1.592289 23.885950 0.002589
1.907640 23.885950 0.002523
2.222990 23.885950 0.002512
2.538340 23.885950 0.002622
2.853690 23.885950 0.002547
3.169039 23.885950 0.002195
3.484390 23.885950 0.001834
3.799739 23.885950 0.001872
4.115090 23.885950 0.001813
4.430439 23.885950 0.001777
4.745790 23.885950 0.002080
5.061140 23.885950 0.002115
5.376490 23.885950 0.001862
5.691840 23.885950 0.001731
6.007189 23.885950 0.001923
6.322540 23.885950 0.002320
6.637889 23.885950 0.003110
6.953240 23.885950 0.004424
7.268589 23.885950 0.007117
7.583940 23.885950 0.011095
7.899290 23.885950 0.022377
8.214640 23.885950 0.040158
8.529989 23.885950 0.077182
8.845339 23.885950 0.134842
9.160688 23.885950 0.216975
9.476040 23.885950 0.311193
9.791389 23.885950 0.424604
10.106739 23.885950 0.554477
10.422089 23.885950 0.677956
10.737438 23.885950 0.790067
11.052790 23.885950 0.876473
11.368139 23.885950 0.986864
11.683489 23.885950 1.075209
11.998838 23.885950 1.190280
12.314190 23.885950 1.255247
12.629539 23.885950 1.309656
12.944889 23.885950 1.368307
13.260239 23.885950 1.396644
13.575588 23.885950 1.370234
13.890940 23.885950 1.325798
14.206289 23.885950 1.229674
14.521639 23.885950 1.146709
14.836988 23.885950 0.992528
15.152340 23.885950 0.844454
15.467690 23.885950 0.663588
15.783039 23.885950 0.000000
16.098389 23.885950 0.000000
16.413738 23.885950 0.000000
16.729090 23.885950 0.000000
17.044439 23.885950 0.000000
17.359789 23.885950 0.000000
17.675138 23.885950 0.000000
17.990490 23.885950 0.000000
18.305840 23.885950 0.264237
18.621189 23.885950 0.168900
18.936539 23.885950 0.000000
19.251888 23.885950 0.000000
-7.237510 23.570601 0.000000
-6.922160 23.570601 0.003512
-6.606810 23.570601 0.003383
-6.291460 23.570601 0.003359
-5.976110 23.570601 0.003184
-5.660760 23.570601 0.003358
-5.345410 23.570601 0.003580
-5.030060 23.570601 0.003534
-4.714710 23.570601 0.003187
-4.399360 23.570601 0.002804
-4.084010 23.570601 0.002789
-3.768660 23.570601 0.002858
-3.453310 23.570601 0.003069
-3.137960 23.570601 0.003144
-2.822610 23.570601 0.003063
-2.507260 23.570601 0.002765
-2.191910 23.570601 0.002573
-1.876560 23.570601 0.002322
-1.561210 23.570601 0.002140
-1.245860 23.570601 0.002099
-0.930510 23.570601 0.002198
-0.615160 23.570601 0.002536
-0.299810 23.570601 0.002634
0.015540 23.570601 0.002537
0.330890 23.570601 0.002440
0.646240 23.570601 0.002427
0.961589 23.570601 0.002495
1.276940 23.570601 0.002652
1.592289 23.570601 0.002628
1.907640 23.570601 0.002522
2.222990 23.570601 0.002438
2.538340 23.570601 0.002515
2.853690 23.570601 0.002466
3.169039 23.570601 0.002121
3.484390 23.570601 0.001747
3.799739 23.570601 0.001893
4.115090 23.570601 0.001907
4.430439 23.570601 0.001888
4.745790 23.570601 0.002043
5.061140 23.570601 0.002000
5.376490 23.570601 0.001858
5.691840 23.570601 0.001760
6.007189 23.570601 0.001877
6.322540 23.570601 0.002368
6.637889 23.570601 0.003184
6.953240 23.570601 0.004470
7.268589 23.570601 0.007084
7.583940 23.570601 0.012373
7.899290 23.570601 0.023248
8.214640 23.570601 0.042583
8.529989 23.570601 0.077319
8.845339 23.570601 0.138573
9.160688 23.570601 0.220327
9.476040 23.570601 0.316444
9.791389 23.570601 0.428443
10.106739 23.570601 0.548634
10.422089 23.570601 0.662995
10.737438 23.570601 0.783254
11.052790 23.570601 0.885658
11.368139 23.570601 0.980504
11.683489 23.570601 1.083808
11.998838 23.570601 1.177799
12.314190 23.570601 1.268276
12.629539 23.570601 1.314648
12.944889 23.570601 1.343194
13.260239 23.570601 1.369107
13.575588 23.570601 1.361997
13.890940 23.570601 1.324733
14.206289 23.570601 1.238713
14.521639 23.570601 1.114166
14.836988 23.570601 0.987976
15.152340 23.570601 0.834150
15.467690 23.570601 0.682452
15.783039 23.570601 0.000000
16.098389 23.570601 0.000000
16.413738 23.570601 0.000000
16.729090 23.570601 0.000000
17.044439 23.570601 0.000000
17.359789 23.570601 0.000000
17.675138 23.570601 0.000000
17.990490 23.570601 0.000000
18.305840 23.570601 0.179575
18.621189 23.570601 0.185784
18.936539 23.570601 0.000000
19.251888 23.570601 0.000000
-7.237510 23.255251 0.000000
-6.922160 23.255251 0.003507
-6.606810 23.255251 0.003424
-6.291460 23.255251 0.003297
-5.976110 23.255251 0.003211
-5.660760 23.255251 0.003333
-5.345410 23.255251 0.003448
-5.030060 23.255251 0.003456
-4.714710 23.255251 0.003088
-4.399360 23.255251 0.002799
-4.084010 23.255251 0.002741
-3.768660 23.255251 0.002819
-3.453310 23.255251 0.002952
-3.137960 23.255251 0.002946
-2.822610 23.255251 0.002833
-2.507260 23.255251 0.002549
-2.191910 23.255251 0.002438
-1.876560 23.255251 0.002271
-1.561210 23.255251 0.002090
-1.245860 23.255251 0.002023
-0.930510 23.255251 0.002249
-0.615160 23.255251 0.002529
-0.299810 23.255251 0.002667
0.015540 23.255251 0.002426
0.330890 23.255251 0.002295
0.646240 23.255251 0.002290
0.961589 23.255251 0.002364
1.276940 23.255251 0.002617
1.592289 23.255251 0.002624
1.907640 23.255251 0.002397
2.222990 23.255251 0.002187
2.538340 23.255251 0.002281
2.853690 23.255251 0.002306
3.169039 23.255251 0.001985
3.484390 23.255251 0.001763
3.799739 23.255251 0.001955
4.115090 23.255251 0.002059
4.430439 23.255251 0.001983
4.745790 23.255251 0.001966
5.061140 23.255251 0.001835
5.376490 23.255251 0.001804
5.691840 23.255251 0.001858
6.007189 23.255251 0.001962
6.322540 23.255251 0.002263
6.637889 23.255251 0.002851
6.953240 23.255251 0.004752
7.268589 23.255251 0.007450
7.583940 23.255251 0.013839
7.899290 23.255251 0.022829
8.214640 23.255251 0.044042
8.529989 23.255251 0.078229
8.845339 23.255251 0.139553
9.160688 23.255251 0.221782
9.476040 23.255251 0.326796
9.791389 23.255251 0.432112
10.106739 23.255251 0.544903
10.422089 23.255251 0.665805
10.737438 23.255251 0.777391
11.052790 23.255251 0.881815
11.368139 23.255251 0.982845
11.683489 23.255251 1.072816
11.998838 23.255251 1.178430
12.314190 23.255251 1.249761
12.629539 23.255251 1.302792
12.944889 23.255251 1.358709
13.260239 23.255251 1.372689
13.575588 23.255251 1.340412
13.890940 23.255251 1.328755
14.206289 23.255251 1.224167
14.521639 23.255251 1.129327
14.836988 23.255251 0.984729
15.152340 23.255251 0.854281
15.467690 23.255251 0.672758
15.783039 23.255251 0.000000
16.098389 23.255251 0.000000
16.413738 23.255251 0.000000
16.729090 23.255251 0.000000
17.044439 23.255251 0.000000
17.359789 23.255251 0.000000
17.675138 23.255251 0.000000
17.990490 23.255251 0.000000
18.305840 23.255251 0.237939
18.621189 23.255251 0.178546
18.936539 23.255251 0.000000
19.251888 23.255251 0.000000
-7.237510 22.939901 0.000000
-6.922160 22.939901 0.003586
-6.606810 22.939901 0.003498
-6.291460 22.939901 0.003246
-5.976110 22.939901 0.003271
-5.660760 22.939901 0.003270
-5.345410 22.939901 0.003272
-5.030060 22.939901 0.003252
-4.714710 22.939901 0.002963
-4.399360 22.939901 0.002732
-4.084010 22.939901 0.002670
-3.768660 22.939901 0.002778
-3.453310 22.939901 0.002852
-3.137960 22.939901 0.002717
-2.822610 22.939901 0.002484
-2.507260 22.939901 0.002362
-2.191910 22.939901 0.002370
-1.876560 22.939901 0.002325
-1.561210 22.939901 0.002104
-1.245860 22.939901 0.002149
-0.930510 22.939901 0.002383
-0.615160 22.939901 0.002508
-0.299810 22.939901 0.002561
0.015540 22.939901 0.002323
0.330890 22.939901 0.002180
0.646240 22.939901 0.002164
0.961589 22.939901 0.002201
1.276940 22.939901 0.002449
1.592289 22.939901 0.002497
1.907640 22.939901 0.002199
2.222990 22.939901 0.001911
2.538340 22.939901 0.002067
2.853690 22.939901 0.002153
3.169039 22.939901 0.001918
3.484390 22.939901 0.001874
3.799739 22.939901 0.002099
4.115090 22.939901 0.002121
4.430439 22.939901 0.001948
4.745790 22.939901 0.001890
5.061140 22.939901 0.001724
5.376490 22.939901 0.001694
5.691840 22.939901 0.001879
6.007189 22.939901 0.002058
6.322540 22.939901 0.002394
6.637889 22.939901 0.003047
6.953240 22.939901 0.004949
7.268589 22.939901 0.008144
7.583940 22.939901 0.012832
7.899290 22.939901 0.022938
8.214640 22.939901 0.041737
8.529989 22.939901 0.079743
8.845339 22.939901 0.142769
9.160688 22.939901 0.228686
9.476040 22.939901 0.329390
9.791389 22.939901 0.427197
10.106739 22.939901 0.537728
10.422089 22.939901 0.654917
10.737438 22.939901 0.767875
11.052790 22.939901 0.893225
11.368139 22.939901 0.986968
11.683489 22.939901 1.060277
11.998838 22.939901 1.162401
12.314190 22.939901 1.250143
12.629539 22.939901 1.305174
12.944889 22.939901 1.371385
13.260239 22.939901 1.384594
13.575588 22.939901 1.351128
13.890940 22.939901 1.330401
14.206289 22.939901 1.254987
14.521639 22.939901 1.139821
14.836988 22.939901 0.966601
15.152340 22.939901 0.866607
15.467690 22.939901 0.691372
15.783039 22.939901 0.000000
16.098389 22.939901 0.000000
16.413738 22.939901 0.000000
16.729090 22.939901 0.000000
17.044439 22.939901 0.000000
17.359789 22.939901 0.000000
17.675138 22.939901 0.000000
17.990490 22.939901 0.000000
18.305840 22.939901 0.270238
18.621189 22.939901 0.163927
18.936539 22.939901 0.000000
19.251888 22.939901 0.000000
-7.237510 22.624552 0.000000
-6.922160 22.624552 0.003562
-6.606810 22.624552 0.003460
-6.291460 22.624552 0.003243
-5.976110 22.624552 0.003249
-5.660760 22.624552 0.003179
-5.345410 22.624552 0.003127
-5.030060 22.624552 0.003032
-4.714710 22.624552 0.002798
-4.399360 22.624552 0.002649
-4.084010 22.624552 0.002664
-3.768660 22.624552 0.002774
-3.453310 22.624552 0.002732
-3.137960 22.624552 0.002486
-2.822610 22.624552 0.002260
-2.507260 22.624552 0.002231
-2.191910 22.624552 0.002311
-1.876560 22.624552 0.002343
-1.561210 22.624552 0.002322
-1.245860 22.624552 0.002385
-0.930510 22.624552 0.002490
-0.615160 22.624552 0.002455
-0.299810 22.624552 0.002465
0.015540 22.624552 0.002310
0.330890 22.624552 0.002178
0.646240 22.624552 0.002074
0.961589 22.624552 0.002084
1.276940 22.624552 0.002187
1.592289 22.624552 0.002275
1.907640 22.624552 0.001962
2.222990 22.624552 0.001702
2.538340 22.624552 0.001886
2.853690 22.624552 0.002060
3.169039 22.624552 0.001969
3.484390 22.624552 0.002088
3.799739 22.624552 0.002283
4.115090 22.624552 0.002155
4.430439 22.624552 0.001901
4.745790 22.624552 0.001777
5.061140 22.624552 0.001667
5.376490 22.624552 0.001666
5.691840 22.624552 0.001903
6.007189 22.624552 0.002159
6.322540 22.624552 0.002365
6.637889 22.624552 0.003155
6.953240 22.624552 0.005168
7.268589 22.624552 0.008228
7.583940 22.624552 0.013025
7.899290 22.624552 0.022043
8.214640 22.624552 0.039493
8.529989 22.624552 0.079706
8.845339 22.624552 0.143468
9.160688 22.624552 0.228699
9.476040 22.624552 0.325070
9.791389 22.624552 0.434610
10.106739 22.624552 0.529088
10.422089 22.624552 0.652472
10.737438 22.624552 0.764165
11.052790 22.624552 0.867877
11.368139 22.624552 0.980681
11.683489 22.624552 1.067781
11.998838 22.624552 1.176620
12.314190 22.624552 1.270841
12.629539 22.624552 1.321064
12.944889 22.624552 1.367100
13.260239 22.624552 1.390954
13.575588 22.624552 1.384894
13.890940 22.624552 1.312803
14.206289 22.624552 1.259246
14.521639 22.624552 1.145756
14.836988 22.624552 1.006829
15.152340 22.624552 0.885560
15.467690 22.624552 0.692588
15.783039 22.624552 0.000000
16.098389 22.624552 0.000000
16.413738 22.624552 0.000000
16.729090 22.624552 0.000000
17.044439 22.624552 0.000000
17.359789 22.624552 0.000000
17.675138 22.624552 0.000000
17.990490 22.624552 0.000000
18.305840 22.624552 0.289574
18.621189 22.624552 0.024102
18.936539 22.624552 0.000000
19.251888 22.624552 0.000000
-7.237510 22.309200 0.000000
-6.922160 22.309200 0.003390
-6.606810 22.309200 0.003349
-6.291460 22.309200 0.003262
-5.976110 22.309200 0.003150
-5.660760 22.309200 0.002982
-5.345410 22.309200 0.002955
-5.030060 22.309200 0.002855
-4.714710 22.309200 0.002679
-4.399360 22.309200 0.002597
-4.084010 22.309200 0.002646
-3.768660 22.309200 0.002745
-3.453310 22.309200 0.002605
-3.137960 22.309200 0.002337
-2.822610 22.309200 0.002167
-2.507260 22.309200 0.002261
-2.191910 22.309200 0.002328
-1.876560 22.309200 0.002438
-1.561210 22.309200 0.002506
-1.245860 22.309200 0.002569
-0.930510 22.309200 0.002591
-0.615160 22.309200 0.002429
-0.299810 22.309200 0.002385
0.015540 22.309200 0.002318
0.330890 22.309200 0.002167
0.646240 22.309200 0.002017
0.961589 22.309200 0.001943
1.276940 22.309200 0.002033
1.592289 22.309200 0.002082
1.907640 22.309200 0.001812
2.222990 22.309200 0.001671
2.538340 22.309200 0.001877
2.853690 22.309200 0.002111
3.169039 22.309200 0.002091
3.484390 22.309200 0.002265
3.799739 22.309200 0.002377
4.115090 22.309200 0.002187
4.430439 22.309200 0.001802
4.745790 22.309200 0.001602
5.061140 22.309200 0.001618
5.376490 22.309200 0.001635
5.691840 22.309200 0.001947
6.007189 22.309200 0.002199
6.322540 22.309200 0.002245
6.637889 22.309200 0.002991
6.953240 22.309200 0.004922
7.268589 22.309200 0.008450
7.583940 22.309200 0.012814
7.899290 22.309200 0.021704
8.214640 22.309200 0.041428
8.529989 22.309200 0.082284
8.845339 22.309200 0.137760
9.160688 22.309200 0.223610
9.476040 22.309200 0.325073
9.791389 22.309200 0.437705
10.106739 22.309200 0.546452
10.422089 22.309200 0.651147
10.737438 22.309200 0.768699
11.052790 22.309200 0.875609
11.368139 22.309200 0.977077
11.683489 22.309200 1.069507
11.998838 22.309200 1.200914
12.314190 22.309200 1.258085
12.629539 22.309200 1.327180
12.944889 22.309200 1.378437
13.260239 22.309200 1.394276
13.575588 22.309200 1.382939
13.890940 22.309200 1.361516
14.206289 22.309200 1.249878
14.521639 22.309200 1.159638
14.836988 22.309200 1.006409
15.152340 22.309200 0.875826
15.467690 22.309200 0.709746
15.783039 22.309200 0.000000
16.098389 22.309200 0.000000
16.413738 22.309200 0.000000
16.729090 22.309200 0.000000
17.044439 22.309200 0.000000
17.359789 22.309200 0.000000
17.675138 22.309200 0.000000
17.990490 22.309200 0.000000
18.305840 22.309200 0.157388
18.621189 22.309200 0.054301
18.936539 22.309200 0.000000
19.251888 22.309200 0.000000
-7.237510 21.993851 0.000000
-6.922160 21.993851 0.003066
-6.606810 21.993851 0.003147
-6.291460 21.993851 0.003152
-5.976110 21.993851 0.003010
-5.660760 21.993851 0.002744
-5.345410 21.993851 0.002677
-5.030060 21.993851 0.002653
-4.714710 21.993851 0.002525
-4.399360 21.993851 0.002522
-4.084010 21.993851 0.002626
-3.768660 21.993851 0.002664
-3.453310 21.993851 0.002491
-3.137960 21.993851 0.002303
-2.822610 21.993851 0.002235
-2.507260 21.993851 0.002340
-2.191910 21.993851 0.002390
-1.876560 21.993851 0.002507
-1.561210 21.993851 0.002624
-1.245860 21.993851 0.002670
-0.930510 21.993851 0.002605
-0.615160 21.993851 0.002382
-0.299810 21.993851 0.002259
0.015540 21.993851 0.002301
0.330890 21.993851 0.002214
0.646240 21.993851 0.002027
0.961589 21.993851 0.001916
1.276940 21.993851 0.001876
1.592289 21.993851 0.001912
1.907640 21.993851 0.001762
2.222990 21.993851 0.001742
2.538340 21.993851 0.001990
2.853690 21.993851 0.002195
3.169039 21.993851 0.002173
3.484390 21.993851 0.002292
3.799739 21.993851 0.002336
4.115090 21.993851 0.002171
4.430439 21.993851 0.001833
4.745790 21.993851 0.001583
5.061140 21.993851 0.001560
5.376490 21.993851 0.001664
5.691840 21.993851 0.001888
6.007189 21.993851 0.002029
6.322540 21.993851 0.002302
6.637889 21.993851 0.003245
6.953240 21.993851 0.004838
7.268589 21.993851 0.008246
7.583940 21.993851 0.013869
7.899290 21.993851 0.023649
8.214640 21.993851 0.044862
8.529989 21.993851 0.084783
8.845339 21.993851 0.138489
9.160688 21.993851 0.219341
9.476040 21.993851 0.329820
9.791389 21.993851 0.451105
10.106739 21.993851 0.556373
10.422089 21.993851 0.663657
10.737438 21.993851 0.775471
11.052790 21.993851 0.883981
11.368139 21.993851 0.973403
11.683489 21.993851 1.080404
11.998838 21.993851 1.146150
12.314190 21.993851 1.259445
12.629539 21.993851 1.323170
12.944889 21.993851 1.366860
13.260239 21.993851 1.363145
13.575588 21.993851 1.393002
13.890940 21.993851 1.362630
14.206289 21.993851 1.275779
14.521639 21.993851 1.154864
14.836988 21.993851 1.044242
15.152340 21.993851 0.891609
15.467690 21.993851 0.692831
15.783039 21.993851 0.000000
16.098389 21.993851 0.000000
16.413738 21.993851 0.000000
16.729090 21.993851 0.000000
17.044439 21.993851 0.000000
17.359789 21.993851 0.000000
17.675138 21.993851 0.000000
17.990490 21.993851 0.000000
18.305840 21.993851 0.073798
18.621189 21.993851 -0.019993
18.936539 21.993851 0.000000
19.251888 21.993851 0.000000
-7.237510 21.678501 0.000000
-6.922160 21.678501 0.002857
-6.606810 21.678501 0.002920
-6.291460 21.678501 0.002969
-5.976110 21.678501 0.002792
-5.660760 21.678501 0.002527
-5.345410 21.678501 0.002449
-5.030060 21.678501 0.002476
-4.714710 21.678501 0.002425
-4.399360 21.678501 0.002483
-4.084010 21.678501 0.002625
-3.768660 21.678501 0.002605
-3.453310 21.678501 0.002471
-3.137960 21.678501 0.002395
-2.822610 21.678501 0.002384
-2.507260 21.678501 0.002402
-2.191910 21.678501 0.002443
-1.876560 21.678501 0.002503
-1.561210 21.678501 0.002610
-1.245860 21.678501 0.002639
-0.930510 21.678501 0.002504
-0.615160 21.678501 0.002285
-0.299810 21.678501 0.002160
0.015540 21.678501 0.002252
0.330890 21.678501 0.002259
0.646240 21.678501 0.002125
0.961589 21.678501 0.001937
1.276940 21.678501 0.001836
1.592289 21.678501 0.001856
1.907640 21.678501 0.001873
2.222990 21.678501 0.001951
2.538340 21.678501 0.002140
2.853690 21.678501 0.002230
3.169039 21.678501 0.002158
3.484390 21.678501 0.002211
3.799739 21.678501 0.002179
4.115090 21.678501 0.002107
4.430439 21.678501 0.001841
4.745790 21.678501 0.001559
5.061140 21.678501 0.001561
5.376490 21.678501 0.001710
5.691840 21.678501 0.001820
6.007189 21.678501 0.001855
6.322540 21.678501 0.002195
6.637889 21.678501 0.003050
6.953240 21.678501 0.004950
7.268589 21.678501 0.007739
7.583940 21.678501 0.013996
7.899290 21.678501 0.026951
8.214640 21.678501 0.047894
8.529989 21.678501 0.087505
8.845339 21.678501 0.144790
9.160688 21.678501 0.227019
9.476040 21.678501 0.339570
9.791389 21.678501 0.463313
10.106739 21.678501 0.566600
10.422089 21.678501 0.674714
10.737438 21.678501 0.778874
11.052790 21.678501 0.902058
11.368139 21.678501 0.989286
11.683489 21.678501 1.092317
11.998838 21.678501 1.188050
12.314190 21.678501 1.261753
12.629539 21.678501 1.336972
12.944889 21.678501 1.347680
13.260239 21.678501 1.366794
13.575588 21.678501 1.373216
13.890940 21.678501 1.334281
14.206289 21.678501 1.275498
14.521639 21.678501 1.183583
14.836988 21.678501 1.049119
15.152340 21.678501 0.887857
15.467690 21.678501 0.667866
15.783039 21.678501 0.000000
16.098389 21.678501 0.000000
16.413738 21.678501 0.000000
16.729090 21.678501 0.000000
17.044439 21.678501 0.000000
17.359789 21.678501 0.000000
17.675138 21.678501 0.000000
17.990490 21.678501 0.000000
18.305840 21.678501 0.174848
18.621189 21.678501 0.193053
18.936539 21.678501 0.000000
19.251888 21.678501 0.000000
-7.237510 21.363152 0.000000
-6.922160 21.363152 0.002667
-6.606810 21.363152 0.002638
-6.291460 21.363152 0.002723
-5.976110 21.363152 0.002581
-5.660760 21.363152 0.002330
-5.345410 21.363152 0.002242
-5.030060 21.363152 0.002320
-4.714710 21.363152 0.002318
-4.399360 21.363152 0.002455
-4.084010 21.363152 0.002574
-3.768660 21.363152 0.002535
-3.453310 21.363152 0.002452
-3.137960 21.363152 0.002486
-2.822610 21.363152 0.002512
-2.507260 21.363152 0.002507
-2.191910 21.363152 0.002402
-1.876560 21.363152 0.002373
-1.561210 21.363152 0.002478
-1.245860 21.363152 0.002531
-0.930510 21.363152 0.002347
-0.615160 21.363152 0.002121
-0.299810 21.363152 0.002091
0.015540 21.363152 0.002248
0.330890 21.363152 0.002336
0.646240 21.363152 0.002266
0.961589 21.363152 0.002043
1.276940 21.363152 0.001889
1.592289 21.363152 0.001775
1.907640 21.363152 0.001973
2.222990 21.363152 0.002124
2.538340 21.363152 0.002211
2.853690 21.363152 0.002193
3.169039 21.363152 0.002059
3.484390 21.363152 0.002035
3.799739 21.363152 0.001994
4.115090 21.363152 0.001998
4.430439 21.363152 0.001854
4.745790 21.363152 0.001671
5.061140 21.363152 0.001615
5.376490 21.363152 0.001676
5.691840 21.363152 0.001690
6.007189 21.363152 0.001714
6.322540 21.363152 0.002135
6.637889 21.363152 0.002888
6.953240 21.363152 0.004577
7.268589 21.363152 0.008232
7.583940 21.363152 0.015396
7.899290 21.363152 0.025931
8.214640 21.363152 0.047607
8.529989 21.363152 0.085352
8.845339 21.363152 0.148723
9.160688 21.363152 0.236098
9.476040 21.363152 0.343907
9.791389 21.363152 0.460262
10.106739 21.363152 0.571233
10.422089 21.363152 0.675567
10.737438 21.363152 0.776817
11.052790 21.363152 0.891593
11.368139 21.363152 0.998174
11.683489 21.363152 1.084983
11.998838 21.363152 1.202340
12.314190 21.363152 1.278468
12.629539 21.363152 1.337108
12.944889 21.363152 1.356188
13.260239 21.363152 1.378425
13.575588 21.363152 1.366244
13.890940 21.363152 1.368159
14.206289 21.363152 1.285605
14.521639 21.363152 1.173712
14.836988 21.363152 1.015862
15.152340 21.363152 0.891404
15.467690 21.363152 0.684947
15.783039 21.363152 0.000000
16.098389 21.363152 0.000000
16.413738 21.363152 0.000000
16.729090 21.363152 0.000000
17.044439 21.363152 0.000000
17.359789 21.363152 0.000000
17.675138 21.363152 0.000000
17.990490 21.363152 0.000000
18.305840 21.363152 0.153806
18.621189 21.363152 0.186356
18.936539 21.363152 0.000000
19.251888 21.363152 0.000000
-7.237510 21.047800 0.000000
-6.922160 21.047800 0.002530
-6.606810 21.047800 0.002435
-6.291460 21.047800 0.002448
-5.976110 21.047800 0.002425
-5.660760 21.047800 0.002215
-5.345410 21.047800 0.002140
-5.030060 21.047800 0.002217
-4.714710 21.047800 0.002264
-4.399360 21.047800 0.002419
-4.084010 21.047800 0.002554
-3.768660 21.047800 0.002456
-3.453310 21.047800 0.002456
-3.137960 21.047800 0.002559
-2.822610 21.047800 0.002631
-2.507260 21.047800 0.002482
-2.191910 21.047800 0.002265
-1.876560 21.047800 0.002205
-1.561210 21.047800 0.002280
-1.245860 21.047800 0.002342
-0.930510 21.047800 0.002166
-0.615160 21.047800 0.001959
-0.299810 21.047800 0.001984
0.015540 21.047800 0.002233
0.330890 21.047800 0.002437
0.646240 21.047800 0.002388
0.961589 21.047800 0.002145
1.276940 21.047800 0.001884
1.592289 21.047800 0.001723
1.907640 21.047800 0.001979
2.222990 21.047800 0.002264
2.538340 21.047800 0.002223
2.853690 21.047800 0.002114
3.169039 21.047800 0.001969
3.484390 21.047800 0.001914
3.799739 21.047800 0.001828
4.115090 21.047800 0.001877
4.430439 21.047800 0.001871
4.745790 21.047800 0.001703
5.061140 21.047800 0.001623
5.376490 21.047800 0.001632
5.691840 21.047800 0.001572
6.007189 21.047800 0.001814
6.322540 21.047800 0.002391
6.637889 21.047800 0.003116
6.953240 21.047800 0.004444
7.268589 21.047800 0.008178
7.583940 21.047800 0.015525
7.899290 21.047800 0.025267
8.214640 21.047800 0.048061
8.529989 21.047800 0.085097
8.845339 21.047800 0.153097
9.160688 21.047800 0.243976
9.476040 21.047800 0.339489
9.791389 21.047800 0.454708
10.106739 21.047800 0.571336
10.422089 21.047800 0.679328
10.737438 21.047800 0.785287
11.052790 21.047800 0.888123
11.368139 21.047800 1.005072
11.683489 21.047800 1.109120
11.998838 21.047800 1.187131
12.314190 21.047800 1.274990
12.629539 21.047800 1.331705
12.944889 21.047800 1.406125
13.260239 21.047800 1.387280
13.575588 21.047800 1.374169
13.890940 21.047800 1.378319
14.206289 21.047800 1.294907
14.521639 21.047800 1.164683
14.836988 21.047800 1.002587
15.152340 21.047800 0.837150
15.467690 21.047800 0.659579
15.783039 21.047800 0.000000
16.098389 21.047800 0.000000
16.413738 21.047800 0.000000
16.729090 21.047800 0.000000
17.044439 21.047800 0.000000
17.359789 21.047800 0.000000
17.675138 21.047800 0.000000
17.990490 21.047800 0.000000
18.305840 21.047800 0.126295
18.621189 21.047800 0.139304
18.936539 21.047800 0.000000
19.251888 21.047800 0.000000
-7.237510 20.732450 0.000000
-6.922160 20.732450 0.002463
-6.606810 20.732450 0.002236
-6.291460 20.732450 0.002178
-5.976110 20.732450 0.002301
-5.660760 20.732450 0.002287
-5.345410 20.732450 0.002198
-5.030060 20.732450 0.002171
-4.714710 20.732450 0.002219
-4.399360 20.732450 0.002304
-4.084010 20.732450 0.002417
-3.768660 20.732450 0.002387
-3.453310 20.732450 0.002446
-3.137960 20.732450 0.002571
-2.822610 20.732450 0.002650
-2.507260 20.732450 0.002416
-2.191910 20.732450 0.002100
-1.876560 20.732450 0.002030
-1.561210 20.732450 0.002116
-1.245860 20.732450 0.002152
-0.930510 20.732450 0.002000
-0.615160 20.732450 0.001870
-0.299810 20.732450 0.001913
0.015540 20.732450 0.002139
0.330890 20.732450 0.002448
0.646240 20.732450 0.002454
0.961589 20.732450 0.002166
1.276940 20.732450 0.001891
1.592289 20.732450 0.001757
1.907640 20.732450 0.001982
2.222990 20.732450 0.002237
2.538340 20.732450 0.002170
2.853690 20.732450 0.002013
3.169039 20.732450 0.001869
3.484390 20.732450 0.001827
3.799739 20.732450 0.001784
4.115090 20.732450 0.001835
4.430439 20.732450 0.001863
4.745790 20.732450 0.001760
5.061140 20.732450 0.001614
5.376490 20.732450 0.001590
5.691840 20.732450 0.001595
6.007189 20.732450 0.001872
6.322540 20.732450 0.002554
6.637889 20.732450 0.003495
6.953240 20.732450 0.004997
7.268589 20.732450 0.008378
7.583940 20.732450 0.015393
7.899290 20.732450 0.025601
8.214640 20.732450 0.046186
8.529989 20.732450 0.089380
8.845339 20.732450 0.155444
9.160688 20.732450 0.244577
9.476040 20.732450 0.351888
9.791389 20.732450 0.463804
10.106739 20.732450 0.574506
10.422089 20.732450 0.683543
10.737438 20.732450 0.784840
11.052790 20.732450 0.898523
11.368139 20.732450 1.007369
11.683489 20.732450 1.104311
11.998838 20.732450 1.200383
12.314190 20.732450 1.258863
12.629539 20.732450 1.339689
12.944889 20.732450 1.361108
13.260239 20.732450 1.414504
13.575588 20.732450 1.402960
13.890940 20.732450 1.377738
14.206289 20.732450 1.280522
14.521639 20.732450 1.164508
14.836988 20.732450 1.017642
15.152340 20.732450 0.844072
15.467690 20.732450 0.648177
15.783039 20.732450 0.000000
16.098389 20.732450 0.000000
16.413738 20.732450 0.000000
16.729090 20.732450 0.000000
17.044439 20.732450 0.000000
17.359789 20.732450 0.000000
17.675138 20.732450 0.000000
17.990490 20.732450 0.000000
18.305840 20.732450 0.023983
18.621189 20.732450 0.135073
18.936539 20.732450 0.000000
19.251888 20.732450 0.000000
-7.237510 20.417101 0.000000
-6.922160 20.417101 0.002423
-6.606810 20.417101 0.002088
-6.291460 20.417101 0.002038
-5.976110 20.417101 0.002278
-5.660760 20.417101 0.002397
-5.345410 20.417101 0.002342
-5.030060 20.417101 0.002206
-4.714710 20.417101 0.002193
-4.399360 20.417101 0.002276
-4.084010 20.417101 0.002319
-3.768660 20.417101 0.002266
-3.453310 20.417101 0.002352
-3.137960 20.417101 0.002467
-2.822610 20.417101 0.002476
-2.507260 20.417101 0.002220
-2.191910 20.417101 0.001965
-1.876560 20.417101 0.001915
-1.561210 20.417101 0.001951
-1.245860 20.417101 0.001995
-0.930510 20.417101 0.001890
-0.615160 20.417101 0.001823
-0.299810 20.417101 0.001938
0.015540 20.417101 0.002091
0.330890 20.417101 0.002386
0.646240 20.417101 0.002454
0.961589 20.417101 0.002181
1.276940 20.417101 0.001876
1.592289 20.417101 0.001753
1.907640 20.417101 0.001900
2.222990 20.417101 0.002099
2.538340 20.417101 0.002007
2.853690 20.417101 0.001826
3.169039 20.417101 0.001749
3.484390 20.417101 0.001745
3.799739 20.417101 0.001834
4.115090 20.417101 0.001852
4.430439 20.417101 0.001840
4.745790 20.417101 0.001762
5.061140 20.417101 0.001609
5.376490 20.417101 0.001612
5.691840 20.417101 0.001630
6.007189 20.417101 0.001828
6.322540 20.417101 0.002414
6.637889 20.417101 0.003352
6.953240 20.417101 0.004797
7.268589 20.417101 0.008864
7.583940 20.417101 0.015098
7.899290 20.417101 0.025284
8.214640 20.417101 0.045978
8.529989 20.417101 0.089759
8.845339 20.417101 0.157874
9.160688 20.417101 0.248040
9.476040 20.417101 0.357942
9.791389 20.417101 0.474469
10.106739 20.417101 0.589490
10.422089 20.417101 0.688120
10.737438 20.417101 0.804416
11.052790 20.417101 0.909065
11.368139 20.417101 1.000651
11.683489 20.417101 1.101355
11.998838 20.417101 1.187971
12.314190 20.417101 1.238021
12.629539 20.417101 1.322290
12.944889 20.417101 1.401066
13.260239 20.417101 1.394606
13.575588 20.417101 1.400260
13.890940 20.417101 1.365573
14.206289 20.417101 1.304318
14.521639 20.417101 1.175260
14.836988 20.417101 1.054471
15.152340 20.417101 0.884721
15.467690 20.417101 0.625737
15.783039 20.417101 0.000000
16.098389 20.417101 0.000000
16.413738 20.417101 0.000000
16.729090 20.417101 0.000000
17.044439 20.417101 0.000000
17.359789 20.417101 0.000000
17.675138 20.417101 0.000000
17.990490 20.417101 0.000000
18.305840 20.417101 -0.003270
18.621189 20.417101 0.008804
18.936539 20.417101 0.000000
19.251888 20.417101 0.000000
-7.237510 20.101751 0.000000
-6.922160 20.101751 0.002421
-6.606810 20.101751 0.002022
-6.291460 20.101751 0.001958
-5.976110 20.101751 0.002265
-5.660760 20.101751 0.002516
-5.345410 20.101751 0.002480
-5.030060 20.101751 0.002298
-4.714710 20.101751 0.002206
-4.399360 20.101751 0.002194
-4.084010 20.101751 0.002192
-3.768660 20.101751 0.002138
-3.453310 20.101751 0.002209
-3.137960 20.101751 0.002251
-2.822610 20.101751 0.002201
-2.507260 20.101751 0.002068
-2.191910 20.101751 0.001957
-1.876560 20.101751 0.001893
-1.561210 20.101751 0.001865
-1.245860 20.101751 0.001851
-0.930510 20.101751 0.001834
-0.615160 20.101751 0.001836
-0.299810 20.101751 0.001942
0.015540 20.101751 0.002011
0.330890 20.101751 0.002241
0.646240 20.101751 0.002314
0.961589 20.101751 0.002062
1.276940 20.101751 0.001899
1.592289 20.101751 0.001806
1.907640 20.101751 0.001818
2.222990 20.101751 0.001891
2.538340 20.101751 0.001772
2.853690 20.101751 0.001649
3.169039 20.101751 0.001603
3.484390 20.101751 0.001713
3.799739 20.101751 0.001884
4.115090 20.101751 0.001967
4.430439 20.101751 0.001808
4.745790 20.101751 0.001700
5.061140 20.101751 0.001629
5.376490 20.101751 0.001673
5.691840 20.101751 0.001662
6.007189 20.101751 0.001872
6.322540 20.101751 0.002161
6.637889 20.101751 0.003035
6.953240 20.101751 0.004695
7.268589 20.101751 0.008207
7.583940 20.101751 0.014194
7.899290 20.101751 0.026119
8.214640 20.101751 0.048558
8.529989 20.101751 0.092117
8.845339 20.101751 0.156237
9.160688 20.101751 0.247436
9.476040 20.101751 0.362715
9.791389 20.101751 0.480643
10.106739 20.101751 0.587617
10.422089 20.101751 0.705469
10.737438 20.101751 0.805364
11.052790 20.101751 0.911646
11.368139 20.101751 1.005712
11.683489 20.101751 1.097115
11.998838 20.101751 1.194727
12.314190 20.101751 1.269797
12.629539 20.101751 1.342085
12.944889 20.101751 1.392900
13.260239 20.101751 1.404569
13.575588 20.101751 1.447615
13.890940 20.101751 1.357332
14.206289 20.101751 1.279882
14.521639 20.101751 1.196381
14.836988 20.101751 1.017301
15.152340 20.101751 0.895930
15.467690 20.101751 0.617616
15.783039 20.101751 0.000000
16.098389 20.101751 0.000000
16.413738 20.101751 0.000000
16.729090 20.101751 0.000000
17.044439 20.101751 0.000000
17.359789 20.101751 0.000000
17.675138 20.101751 0.000000
17.990490 20.101751 0.000000
18.305840 20.101751 -0.101171
18.621189 20.101751 -0.017143
18.936539 20.101751 0.000000
19.251888 20.101751 0.000000
-7.237510 19.786402 0.000000
-6.922160 19.786402 0.002416
-6.606810 19.786402 0.002075
-6.291460 19.786402 0.001993
-5.976110 19.786402 0.002252
-5.660760 19.786402 0.002567
-5.345410 19.786402 0.002566
-5.030060 19.786402 0.002397
-4.714710 19.786402 0.002247
-4.399360 19.786402 0.002082
-4.084010 19.786402 0.002061
-3.768660 19.786402 0.002039
-3.453310 19.786402 0.002006
-3.137960 19.786402 0.001974
-2.822610 19.786402 0.001924
-2.507260 19.786402 0.001952
-2.191910 19.786402 0.001997
-1.876560 19.786402 0.001962
-1.561210 19.786402 0.001808
-1.245860 19.786402 0.001781
-0.930510 19.786402 0.001829
-0.615160 19.786402 0.001908
-0.299810 19.786402 0.001954
0.015540 19.786402 0.001917
0.330890 19.786402 0.001981
0.646240 19.786402 0.002006
0.961589 19.786402 0.001932
1.276940 19.786402 0.001903
1.592289 19.786402 0.001860
1.907640 19.786402 0.001710
2.222990 19.786402 0.001669
2.538340 19.786402 0.001582
2.853690 19.786402 0.001508
3.169039 19.786402 0.001658
3.484390 19.786402 0.001774
3.799739 19.786402 0.001931
4.115090 19.786402 0.002011
4.430439 19.786402 0.001801
4.745790 19.786402 0.001658
5.061140 19.786402 0.001674
5.376490 19.786402 0.001776
5.691840 19.786402 0.001770
6.007189 19.786402 0.001800
6.322540 19.786402 0.002084
6.637889 19.786402 0.003094
6.953240 19.786402 0.004958
7.268589 19.786402 0.008282
7.583940 19.786402 0.014340
7.899290 19.786402 0.025473
8.214640 19.786402 0.049882
8.529989 19.786402 0.091074
8.845339 19.786402 0.157438
9.160688 19.786402 0.251101
9.476040 19.786402 0.358900
9.791389 19.786402 0.476495
10.106739 19.786402 0.592225
10.422089 19.786402 0.708408
10.737438 19.786402 0.811154
11.052790 19.786402 0.919286
11.368139 19.786402 1.011546
11.683489 19.786402 1.091786
11.998838 19.786402 1.186057
12.314190 19.786402 1.273415
12.629539 19.786402 1.355022
12.944889 19.786402 1.377892
13.260239 19.786402 1.431560
13.575588 19.786402 1.423527
13.890940 19.786402 1.373411
14.206289 19.786402 1.265957
14.521639 19.786402 1.199481
14.836988 19.786402 1.026444
15.152340 19.786402 0.902260
15.467690 19.786402 0.614576
15.783039 19.786402 0.000000
16.098389 19.786402 0.000000
16.413738 19.786402 0.000000
16.729090 19.786402 0.000000
17.044439 19.786402 0.000000
17.359789 19.786402 0.000000
17.675138 19.786402 0.000000
17.990490 19.786402 0.000000
18.305840 19.786402 -0.106236
18.621189 19.786402 -0.051152
18.936539 19.786402 0.000000
19.251888 19.786402 0.000000
-7.237510 19.471050 0.000000
-6.922160 19.471050 0.002399
-6.606810 19.471050 0.002210
-6.291460 19.471050 0.002075
-5.976110 19.471050 0.002288
-5.660760 19.471050 0.002526
-5.345410 19.471050 0.002570
-5.030060 19.471050 0.002445
-4.714710 19.471050 0.002266
-4.399360 19.471050 0.002018
-4.084010 19.471050 0.001937
-3.768660 19.471050 0.001923
-3.453310 19.471050 0.001837
-3.137960 19.471050 0.001782
-2.822610 19.471050 0.001705
-2.507260 19.471050 0.001908
-2.191910 19.471050 0.002099
-1.876560 19.471050 0.002038
-1.561210 19.471050 0.001867
-1.245860 19.471050 0.001786
-0.930510 19.471050 0.001864
-0.615160 19.471050 0.001969
-0.299810 19.471050 0.001883
0.015540 19.471050 0.001741
0.330890 19.471050 0.001701
0.646240 19.471050 0.001753
0.961589 19.471050 0.001746
1.276940 19.471050 0.001768
1.592289 19.471050 0.001812
1.907640 19.471050 0.001744
2.222990 19.471050 0.001619
2.538340 19.471050 0.001505
2.853690 19.471050 0.001539
3.169039 19.471050 0.001649
3.484390 19.471050 0.001786
3.799739 19.471050 0.002000
4.115090 19.471050 0.001914
4.430439 19.471050 0.001658
4.745790 19.471050 0.001582
5.061140 19.471050 0.001639
5.376490 19.471050 0.001840
5.691840 19.471050 0.001821
6.007189 19.471050 0.001842
6.322540 19.471050 0.002188
6.637889 19.471050 0.003258
6.953240 19.471050 0.005046
7.268589 19.471050 0.008641
7.583940 19.471050 0.014619
7.899290 19.471050 0.025885
8.214640 19.471050 0.051802
8.529989 19.471050 0.096549
8.845339 19.471050 0.163631
9.160688 19.471050 0.262528
9.476040 19.471050 0.360521
9.791389 19.471050 0.479488
10.106739 19.471050 0.589895
10.422089 19.471050 0.701479
10.737438 19.471050 0.811331
11.052790 19.471050 0.907534
11.368139 19.471050 1.004344
11.683489 19.471050 1.079354
11.998838 19.471050 1.176130
12.314190 19.471050 1.262681
12.629539 19.471050 1.349211
12.944889 19.471050 1.383589
13.260239 19.471050 1.400588
13.575588 19.471050 1.373881
13.890940 19.471050 1.354038
14.206289 19.471050 1.324936
14.521639 19.471050 1.201240
14.836988 19.471050 1.041577
15.152340 19.471050 0.852266
15.467690 19.471050 0.573826
15.783039 19.471050 0.000000
16.098389 19.471050 0.000000
16.413738 19.471050 0.000000
16.729090 19.471050 0.000000
17.044439 19.471050 0.000000
17.359789 19.471050 0.000000
17.675138 19.471050 0.000000
17.990490 19.471050 0.000000
18.305840 19.471050 -0.091902
18.621189 19.471050 -0.064795
18.936539 19.471050 0.000000
19.251888 19.471050 0.000000
-7.237510 19.155701 0.000000
-6.922160 19.155701 0.002585
-6.606810 19.155701 0.002399
-6.291460 19.155701 0.002208
-5.976110 19.155701 0.002295
-5.660760 19.155701 0.002449
-5.345410 19.155701 0.002494
-5.030060 19.155701 0.002412
-4.714710 19.155701 0.002278
-4.399360 19.155701 0.001936
-4.084010 19.155701 0.001823
-3.768660 19.155701 0.001779
-3.453310 19.155701 0.001753
-3.137960 19.155701 0.001694
-2.822610 19.155701 0.001664
-2.507260 19.155701 0.001895
-2.191910 19.155701 0.002177
-1.876560 19.155701 0.002137
-1.561210 19.155701 0.001966
-1.245860 19.155701 0.001858
-0.930510 19.155701 0.001897
-0.615160 19.155701 0.001930
-0.299810 19.155701 0.001776
0.015540 19.155701 0.001581
0.330890 19.155701 0.001522
0.646240 19.155701 0.001546
0.961589 19.155701 0.001584
1.276940 19.155701 0.001648
1.592289 19.155701 0.001713
1.907640 19.155701 0.001689
2.222990 19.155701 0.001617
2.538340 19.155701 0.001560
2.853690 19.155701 0.001571
3.169039 19.155701 0.001642
3.484390 19.155701 0.001756
3.799739 19.155701 0.001908
4.115090 19.155701 0.001844
4.430439 19.155701 0.001609
4.745790 19.155701 0.001529
5.061140 19.155701 0.001655
5.376490 19.155701 0.001846
5.691840 19.155701 0.001947
6.007189 19.155701 0.001920
6.322540 19.155701 0.002125
6.637889 19.155701 0.003030
6.953240 19.155701 0.005083
7.268589 19.155701 0.009625
7.583940 19.155701 0.015865
7.899290 19.155701 0.026571
8.214640 19.155701 0.053387
8.529989 19.155701 0.101534
8.845339 19.155701 0.169257
9.160688 19.155701 0.268002
9.476040 19.155701 0.365386
9.791389 19.155701 0.477447
10.106739 19.155701 0.594253
10.422089 19.155701 0.708110
10.737438 19.155701 0.812008
11.052790 19.155701 0.912942
11.368139 19.155701 0.996720
11.683489 19.155701 1.091915
11.998838 19.155701 1.175981
12.314190 19.155701 1.292976
12.629539 19.155701 1.363928
12.944889 19.155701 1.394663
13.260239 19.155701 1.395993
13.575588 19.155701 1.402581
13.890940 19.155701 1.333387
14.206289 19.155701 1.295243
14.521639 19.155701 1.187861
14.836988 19.155701 1.042070
15.152340 19.155701 0.893500
15.467690 19.155701 0.557717
15.783039 19.155701 0.000000
16.098389 19.155701 0.000000
16.413738 19.155701 0.000000
16.729090 19.155701 0.000000
17.044439 19.155701 0.000000
17.359789 19.155701 0.000000
17.675138 19.155701 0.000000
17.990490 19.155701 0.000000
18.305840 19.155701 0.025278
18.621189 19.155701 -0.009408
18.936539 19.155701 0.000000
19.251888 19.155701 0.000000
-7.237510 18.840351 0.000000
-6.922160 18.840351 0.002788
-6.606810 18.840351 0.002528
-6.291460 18.840351 0.002310
-5.976110 18.840351 0.002274
-5.660760 18.840351 0.002337
-5.345410 18.840351 0.002366
-5.030060 18.840351 0.002376
-4.714710 18.840351 0.002256
-4.399360 18.840351 0.001949
-4.084010 18.840351 0.001786
-3.768660 18.840351 0.001789
-3.453310 18.840351 0.001822
-3.137960 18.840351 0.001771
-2.822610 18.840351 0.001742
-2.507260 18.840351 0.001974
-2.191910 18.840351 0.002197
-1.876560 18.840351 0.002211
-1.561210 18.840351 0.002056
-1.245860 18.840351 0.001921
-0.930510 18.840351 0.001916
-0.615160 18.840351 0.001883
-0.299810 18.840351 0.001689
0.015540 18.840351 0.001532
0.330890 18.840351 0.001453
0.646240 18.840351 0.001501
0.961589 18.840351 0.001507
1.276940 18.840351 0.001565
1.592289 18.840351 0.001671
1.907640 18.840351 0.001703
2.222990 18.840351 0.001695
2.538340 18.840351 0.001677
2.853690 18.840351 0.001638
3.169039 18.840351 0.001636
3.484390 18.840351 0.001741
3.799739 18.840351 0.001832
4.115090 18.840351 0.001747
4.430439 18.840351 0.001624
4.745790 18.840351 0.001593
5.061140 18.840351 0.001729
5.376490 18.840351 0.001934
5.691840 18.840351 0.002048
6.007189 18.840351 0.001971
6.322540 18.840351 0.002113
6.637889 18.840351 0.002742
6.953240 18.840351 0.005309
7.268589 18.840351 0.009536
7.583940 18.840351 0.015708
7.899290 18.840351 0.026204
8.214640 18.840351 0.052421
8.529989 18.840351 0.102681
8.845339 18.840351 0.174419
9.160688 18.840351 0.271667
9.476040 18.840351 0.373763
9.791389 18.840351 0.487337
10.106739 18.840351 0.598420
10.422089 18.840351 0.710349
10.737438 18.840351 0.802681
11.052790 18.840351 0.904940
11.368139 18.840351 1.000948
11.683489 18.840351 1.099466
11.998838 18.840351 1.192689
12.314190 18.840351 1.270485
12.629539 18.840351 1.359911
12.944889 18.840351 1.394764
13.260239 18.840351 1.371537
13.575588 18.840351 1.371053
13.890940 18.840351 1.362139
14.206289 18.840351 1.307835
14.521639 18.840351 1.177517
14.836988 18.840351 1.051489
15.152340 18.840351 0.920525
15.467690 18.840351 0.572712
15.783039 18.840351 0.000000
16.098389 18.840351 0.000000
16.413738 18.840351 0.000000
16.729090 18.840351 0.000000
17.044439 18.840351 0.000000
17.359789 18.840351 0.000000
17.675138 18.840351 0.000000
17.990490 18.840351 0.000000
18.305840 18.840351 -0.055081
18.621189 18.840351 0.050212
18.936539 18.840351 0.000000
19.251888 18.840351 0.000000
-7.237510 18.525002 0.000000
-6.922160 18.525002 0.002839
-6.606810 18.525002 0.002548
-6.291460 18.525002 0.002354
-5.976110 18.525002 0.002220
-5.660760 18.525002 0.002188
-5.345410 18.525002 0.002223
-5.030060 18.525002 0.002326
-4.714710 18.525002 0.002269
-4.399360 18.525002 0.002005
-4.084010 18.525002 0.001873
-3.768660 18.525002 0.001851
-3.453310 18.525002 0.001964
-3.137960 18.525002 0.001987
-2.822610 18.525002 0.001952
-2.507260 18.525002 0.002020
-2.191910 18.525002 0.002224
-1.876560 18.525002 0.002212
-1.561210 18.525002 0.002059
-1.245860 18.525002 0.001904
-0.930510 18.525002 0.001850
-0.615160 18.525002 0.001796
-0.299810 18.525002 0.001680
0.015540 18.525002 0.001551
0.330890 18.525002 0.001548
0.646240 18.525002 0.001597
0.961589 18.525002 0.001579
1.276940 18.525002 0.001610
1.592289 18.525002 0.001704
1.907640 18.525002 0.001734
2.222990 18.525002 0.001752
2.538340 18.525002 0.001762
2.853690 18.525002 0.001640
3.169039 18.525002 0.001663
3.484390 18.525002 0.001697
3.799739 18.525002 0.001816
4.115090 18.525002 0.001788
4.430439 18.525002 0.001702
4.745790 18.525002 0.001648
5.061140 18.525002 0.001733
5.376490 18.525002 0.001870
5.691840 18.525002 0.001968
6.007189 18.525002 0.002022
6.322540 18.525002 0.002379
6.637889 18.525002 0.003253
6.953240 18.525002 0.005500
7.268589 18.525002 0.009714
7.583940 18.525002 0.015417
7.899290 18.525002 0.025748
8.214640 18.525002 0.052302
8.529989 18.525002 0.101914
8.845339 18.525002 0.174246
9.160688 18.525002 0.267185
9.476040 18.525002 0.381959
9.791389 18.525002 0.493433
10.106739 18.525002 0.593135
10.422089 18.525002 0.705289
10.737438 18.525002 0.796117
11.052790 18.525002 0.905371
11.368139 18.525002 0.997793
11.683489 18.525002 1.094412
11.998838 18.525002 1.184513
12.314190 18.525002 1.278463
12.629539 18.525002 1.339615
12.944889 18.525002 1.362532
13.260239 18.525002 1.395647
13.575588 18.525002 1.386567
13.890940 18.525002 1.375066
14.206289 18.525002 1.294338
14.521639 18.525002 1.173577
14.836988 18.525002 1.052241
15.152340 18.525002 0.915781
15.467690 18.525002 0.559473
15.783039 18.525002 0.000000
16.098389 18.525002 0.000000
16.413738 18.525002 0.000000
16.729090 18.525002 0.000000
17.044439 18.525002 0.000000
17.359789 18.525002 0.000000
17.675138 18.525002 0.000000
17.990490 18.525002 0.000000
18.305840 18.525002 -0.078643
18.621189 18.525002 0.030390
18.936539 18.525002 0.000000
19.251888 18.525002 0.000000
-7.237510 18.209652 0.000000
-6.922160 18.209652 0.002701
-6.606810 18.209652 0.002468
-6.291460 18.209652 0.002363
-5.976110 18.209652 0.002183
-5.660760 18.209652 0.002065
-5.345410 18.209652 0.002114
-5.030060 18.209652 0.002255
-4.714710 18.209652 0.002277
-4.399360 18.209652 0.002155
-4.084010 18.209652 0.002055
-3.768660 18.209652 0.002055
-3.453310 18.209652 0.002131
-3.137960 18.209652 0.002177
-2.822610 18.209652 0.002134
-2.507260 18.209652 0.002104
-2.191910 18.209652 0.002162
-1.876560 18.209652 0.002126
-1.561210 18.209652 0.001998
-1.245860 18.209652 0.001855
-0.930510 18.209652 0.001776
-0.615160 18.209652 0.001748
-0.299810 18.209652 0.001717
0.015540 18.209652 0.001660
0.330890 18.209652 0.001683
0.646240 18.209652 0.001743
0.961589 18.209652 0.001695
1.276940 18.209652 0.001697
1.592289 18.209652 0.001713
1.907640 18.209652 0.001736
2.222990 18.209652 0.001799
2.538340 18.209652 0.001740
2.853690 18.209652 0.001688
3.169039 18.209652 0.001715
3.484390 18.209652 0.001739
3.799739 18.209652 0.001776
4.115090 18.209652 0.001776
4.430439 18.209652 0.001715
4.745790 18.209652 0.001771
5.061140 18.209652 0.001819
5.376490 18.209652 0.001824
5.691840 18.209652 0.001871
6.007189 18.209652 0.002190
6.322540 18.209652 0.002760
6.637889 18.209652 0.003701
6.953240 18.209652 0.005870
7.268589 18.209652 0.009865
7.583940 18.209652 0.015262
7.899290 18.209652 0.028156
8.214640 18.209652 0.053957
8.529989 18.209652 0.103095
8.845339 18.209652 0.172290
9.160688 18.209652 0.266191
9.476040 18.209652 0.377517
9.791389 18.209652 0.501338
10.106739 18.209652 0.603863
10.422089 18.209652 0.702421
10.737438 18.209652 0.795246
11.052790 18.209652 0.898091
11.368139 18.209652 1.007949
11.683489 18.209652 1.115266
11.998838 18.209652 1.197111
12.314190 18.209652 1.278719
12.629539 18.209652 1.333116
12.944889 18.209652 1.363982
13.260239 18.209652 1.401381
13.575588 18.209652 1.407769
13.890940 18.209652 1.366039
14.206289 18.209652 1.275982
14.521639 18.209652 1.186382
14.836988 18.209652 1.085693
15.152340 18.209652 0.919443
15.467690 18.209652 0.539004
15.783039 18.209652 0.000000
16.098389 18.209652 0.000000
16.413738 18.209652 0.000000
16.729090 18.209652 0.000000
17.044439 18.209652 0.000000
17.359789 18.209652 0.000000
17.675138 18.209652 0.000000
17.990490 18.209652 0.000000
18.305840 18.209652 -0.266583
18.621189 18.209652 -0.249551
18.936539 18.209652 0.000000
19.251888 18.209652 0.000000
-7.237510 17.894302 0.000000
-6.922160 17.894302 0.002593
-6.606810 17.894302 0.002379
-6.291460 17.894302 0.002367
-5.976110 17.894302 0.002237
-5.660760 17.894302 0.002093
-5.345410 17.894302 0.002091
-5.030060 17.894302 0.002266
-4.714710 17.894302 0.002316
-4.399360 17.894302 0.002290
-4.084010 17.894302 0.002244
-3.768660 17.894302 0.002197
-3.453310 17.894302 0.002213
-3.137960 17.894302 0.002286
-2.822610 17.894302 0.002229
-2.507260 17.894302 0.002092
-2.191910 17.894302 0.002053
-1.876560 17.894302 0.002002
-1.561210 17.894302 0.001923
-1.245860 17.894302 0.001831
-0.930510 17.894302 0.001744
-0.615160 17.894302 0.001744
-0.299810 17.894302 0.001815
0.015540 17.894302 0.001822
0.330890 17.894302 0.001879
0.646240 17.894302 0.001917
0.961589 17.894302 0.001828
1.276940 17.894302 0.001779
1.592289 17.894302 0.001710
1.907640 17.894302 0.001742
2.222990 17.894302 0.001752
2.538340 17.894302 0.001739
2.853690 17.894302 0.001713
3.169039 17.894302 0.001743
3.484390 17.894302 0.001796
3.799739 17.894302 0.001846
4.115090 17.894302 0.001886
4.430439 17.894302 0.001819
4.745790 17.894302 0.001823
5.061140 17.894302 0.001840
5.376490 17.894302 0.001733
5.691840 17.894302 0.001791
6.007189 17.894302 0.002196
6.322540 17.894302 0.002984
6.637889 17.894302 0.004009
6.953240 17.894302 0.006321
7.268589 17.894302 0.009757
7.583940 17.894302 0.016093
7.899290 17.894302 0.029431
8.214640 17.894302 0.054330
8.529989 17.894302 0.103135
8.845339 17.894302 0.173753
9.160688 17.894302 0.266107
9.476040 17.894302 0.377236
9.791389 17.894302 0.501950
10.106739 17.894302 0.609200
10.422089 17.894302 0.710091
10.737438 17.894302 0.803335
11.052790 17.894302 0.914785
11.368139 17.894302 1.014224
11.683489 17.894302 1.125666
11.998838 17.894302 1.218723
12.314190 17.894302 1.287193
12.629539 17.894302 1.327398
12.944889 17.894302 1.358304
13.260239 17.894302 1.430804
13.575588 17.894302 1.401477
13.890940 17.894302 1.328431
14.206289 17.894302 1.271168
14.521639 17.894302 1.186569
14.836988 17.894302 1.052637
15.152340 17.894302 0.909836
15.467690 17.894302 0.500375
15.783039 17.894302 0.000000
16.098389 17.894302 0.000000
16.413738 17.894302 0.000000
16.729090 17.894302 0.000000
17.044439 17.894302 0.000000
17.359789 17.894302 0.000000
17.675138 17.894302 0.000000
17.990490 17.894302 0.000000
18.305840 17.894302 -0.403117
18.621189 17.894302 -0.309581
18.936539 17.894302 0.000000
19.251888 17.894302 0.000000
-7.237510 17.578953 0.000000
-6.922160 17.578953 0.002493
-6.606810 17.578953 0.002388
-6.291460 17.578953 0.002420
-5.976110 17.578953 0.002324
-5.660760 17.578953 0.002187
-5.345410 17.578953 0.002163
-5.030060 17.578953 0.002310
-4.714710 17.578953 0.002375
-4.399360 17.578953 0.002416
-4.084010 17.578953 0.002380
-3.768660 17.578953 0.002270
-3.453310 17.578953 0.002245
-3.137960 17.578953 0.002307
-2.822610 17.578953 0.002226
-2.507260 17.578953 0.002071
-2.191910 17.578953 0.001933
-1.876560 17.578953 0.001926
-1.561210 17.578953 0.001873
-1.245860 17.578953 0.001807
-0.930510 17.578953 0.001773
-0.615160 17.578953 0.001794
-0.299810 17.578953 0.001950
0.015540 17.578953 0.002013
0.330890 17.578953 0.002035
0.646240 17.578953 0.002016
0.961589 17.578953 0.001913
1.276940 17.578953 0.001765
1.592289 17.578953 0.001714
1.907640 17.578953 0.001733
2.222990 17.578953 0.001721
2.538340 17.578953 0.001712
2.853690 17.578953 0.001696
3.169039 17.578953 0.001809
3.484390 17.578953 0.001935
3.799739 17.578953 0.001943
4.115090 17.578953 0.002008
4.430439 17.578953 0.001984
4.745790 17.578953 0.001912
5.061140 17.578953 0.001777
5.376490 17.578953 0.001750
5.691840 17.578953 0.001885
6.007189 17.578953 0.002381
6.322540 17.578953 0.003006
6.637889 17.578953 0.004129
6.953240 17.578953 0.006367
7.268589 17.578953 0.010376
7.583940 17.578953 0.016414
7.899290 17.578953 0.029206
8.214640 17.578953 0.054879
8.529989 17.578953 0.108056
8.845339 17.578953 0.179964
9.160688 17.578953 0.274150
9.476040 17.578953 0.378622
9.791389 17.578953 0.506773
10.106739 17.578953 0.614759
10.422089 17.578953 0.722184
10.737438 17.578953 0.824213
11.052790 17.578953 0.924516
11.368139 17.578953 1.021693
11.683489 17.578953 1.115354
11.998838 17.578953 1.200624
12.314190 17.578953 1.275584
12.629539 17.578953 1.287172
12.944889 17.578953 1.361498
13.260239 17.578953 1.387014
13.575588 17.578953 1.412227
13.890940 17.578953 1.347158
14.206289 17.578953 1.277948
14.521639 17.578953 1.205120
14.836988 17.578953 1.083182
15.152340 17.578953 0.909772
15.467690 17.578953 0.531094
15.783039 17.578953 0.000000
16.098389 17.578953 0.000000
16.413738 17.578953 0.000000
16.729090 17.578953 0.000000
17.044439 17.578953 0.000000
17.359789 17.578953 0.000000
17.675138 17.578953 0.000000
17.990490 17.578953 0.000000
18.305840 17.578953 -0.352693
18.621189 17.578953 -0.222823
18.936539 17.578953 0.000000
19.251888 17.578953 0.000000
-7.237510 17.263599 0.000000
-6.922160 17.263599 0.002553
-6.606810 17.263599 0.002454
-6.291460 17.263599 0.002513
-5.976110 17.263599 0.002437
-5.660760 17.263599 0.002246
-5.345410 17.263599 0.002223
-5.030060 17.263599 0.002344
-4.714710 17.263599 0.002406
-4.399360 17.263599 0.002486
-4.084010 17.263599 0.002459
-3.768660 17.263599 0.002275
-3.453310 17.263599 0.002174
-3.137960 17.263599 0.002286
-2.822610 17.263599 0.002183
-2.507260 17.263599 0.002016
-2.191910 17.263599 0.001922
-1.876560 17.263599 0.001957
-1.561210 17.263599 0.001874
-1.245860 17.263599 0.001856
-0.930510 17.263599 0.001865
-0.615160 17.263599 0.001934
-0.299810 17.263599 0.002074
0.015540 17.263599 0.002138
0.330890 17.263599 0.002116
0.646240 17.263599 0.002051
0.961589 17.263599 0.001995
1.276940 17.263599 0.001794
1.592289 17.263599 0.001673
1.907640 17.263599 0.001716
2.222990 17.263599 0.001688
2.538340 17.263599 0.001684
2.853690 17.263599 0.001803
3.169039 17.263599 0.001903
3.484390 17.263599 0.002008
3.799739 17.263599 0.002006
4.115090 17.263599 0.002051
4.430439 17.263599 0.002049
4.745790 17.263599 0.002026
5.061140 17.263599 0.001918
5.376490 17.263599 0.001860
5.691840 17.263599 0.001994
6.007189 17.263599 0.002339
6.322540 17.263599 0.003040
6.637889 17.263599 0.003927
6.953240 17.263599 0.006246
7.268589 17.263599 0.010617
7.583940 17.263599 0.016060
7.899290 17.263599 0.028510
8.214640 17.263599 0.056773
8.529989 17.263599 0.110838
8.845339 17.263599 0.186013
9.160688 17.263599 0.275405
9.476040 17.263599 0.389325
9.791389 17.263599 0.516170
10.106739 17.263599 0.615353
10.422089 17.263599 0.724943
10.737438 17.263599 0.842081
11.052790 17.263599 0.945392
11.368139 17.263599 1.031357
11.683489 17.263599 1.133235
11.998838 17.263599 1.221667
12.314190 17.263599 1.256526
12.629539 17.263599 1.291574
12.944889 17.263599 1.361180
13.260239 17.263599 1.411343
13.575588 17.263599 1.412119
13.890940 17.263599 1.341111
14.206289 17.263599 1.293930
14.521639 17.263599 1.220683
14.836988 17.263599 1.104779
15.152340 17.263599 0.955001
15.467690 17.263599 0.535061
15.783039 17.263599 0.000000
16.098389 17.263599 0.000000
16.413738 17.263599 0.000000
16.729090 17.263599 0.000000
17.044439 17.263599 0.000000
17.359789 17.263599 0.000000
17.675138 17.263599 0.000000
17.990490 17.263599 0.573239
18.305840 17.263599 -0.271264
18.621189 17.263599 -0.228883
18.936539 17.263599 0.000000
19.251888 17.263599 0.000000
-7.237510 16.948250 0.000000
-6.922160 16.948250 0.002658
-6.606810 16.948250 0.002558
-6.291460 16.948250 0.002591
-5.976110 16.948250 0.002515
-5.660760 16.948250 0.002300
-5.345410 16.948250 0.002255
-5.030060 16.948250 0.002327
-4.714710 16.948250 0.002434
-4.399360 16.948250 0.002505
-4.084010 16.948250 0.002448
-3.768660 16.948250 0.002238
-3.453310 16.948250 0.002196
-3.137960 16.948250 0.002273
-2.822610 16.948250 0.002197
-2.507260 16.948250 0.002016
-2.191910 16.948250 0.001997
-1.876560 16.948250 0.002046
-1.561210 16.948250 0.001998
-1.245860 16.948250 0.001994
-0.930510 16.948250 0.002007
-0.615160 16.948250 0.002060
-0.299810 16.948250 0.002199
0.015540 16.948250 0.002205
0.330890 16.948250 0.002117
0.646240 16.948250 0.002087
0.961589 16.948250 0.002051
1.276940 16.948250 0.001851
1.592289 16.948250 0.001690
1.907640 16.948250 0.001696
2.222990 16.948250 0.001744
2.538340 16.948250 0.001766
2.853690 16.948250 0.001931
3.169039 16.948250 0.001979
3.484390 16.948250 0.002098
3.799739 16.948250 0.002031
4.115090 16.948250 0.002038
4.430439 16.948250 0.002077
4.745790 16.948250 0.002124
5.061140 16.948250 0.002045
5.376490 16.948250 0.001941
5.691840 16.948250 0.002116
6.007189 16.948250 0.002365
6.322540 16.948250 0.002837
6.637889 16.948250 0.003929
6.953240 16.948250 0.006315
7.268589 16.948250 0.010602
7.583940 16.948250 0.016084
7.899290 16.948250 0.030251
8.214640 16.948250 0.055897
8.529989 16.948250 0.114177
8.845339 16.948250 0.196844
9.160688 16.948250 0.297146
9.476040 16.948250 0.402122
9.791389 16.948250 0.520975
10.106739 16.948250 0.620830
10.422089 16.948250 0.736474
10.737438 16.948250 0.858233
11.052790 16.948250 0.953608
11.368139 16.948250 1.050479
11.683489 16.948250 1.134841
11.998838 16.948250 1.202056
12.314190 16.948250 1.251055
12.629539 16.948250 1.281681
12.944889 16.948250 1.347145
13.260239 16.948250 1.374337
13.575588 16.948250 1.402434
13.890940 16.948250 1.356739
14.206289 16.948250 1.322121
14.521639 16.948250 1.249281
14.836988 16.948250 1.127265
15.152340 16.948250 0.963973
15.467690 16.948250 0.499293
15.783039 16.948250 0.000000
16.098389 16.948250 0.000000
16.413738 16.948250 0.000000
16.729090 16.948250 0.000000
17.044439 16.948250 0.000000
17.359789 16.948250 0.000000
17.675138 16.948250 0.000000
17.990490 16.948250 0.895335
18.305840 16.948250 -0.232479
18.621189 16.948250 -0.340302
18.936539 16.948250 0.000000
19.251888 16.948250 0.000000
-7.237510 16.632900 0.000000
-6.922160 16.632900 0.002684
-6.606810 16.632900 0.002636
-6.291460 16.632900 0.002662
-5.976110 16.632900 0.002539
-5.660760 16.632900 0.002332
-5.345410 16.632900 0.002252
-5.030060 16.632900 0.002315
-4.714710 16.632900 0.002420
-4.399360 16.632900 0.002504
-4.084010 16.632900 0.002420
-3.768660 16.632900 0.002205
-3.453310 16.632900 0.002186
-3.137960 16.632900 0.002279
-2.822610 16.632900 0.002248
-2.507260 16.632900 0.002113
-2.191910 16.632900 0.002094
-1.876560 16.632900 0.002167
-1.561210 16.632900 0.002145
-1.245860 16.632900 0.002180
-0.930510 16.632900 0.002124
-0.615160 16.632900 0.002145
-0.299810 16.632900 0.002217
0.015540 16.632900 0.002189
0.330890 16.632900 0.002121
0.646240 16.632900 0.002104
0.961589 16.632900 0.002060
1.276940 16.632900 0.001921
1.592289 16.632900 0.001795
1.907640 16.632900 0.001797
2.222990 16.632900 0.001878
2.538340 16.632900 0.001949
2.853690 16.632900 0.002012
3.169039 16.632900 0.002084
3.484390 16.632900 0.002131
3.799739 16.632900 0.002069
4.115090 16.632900 0.001999
4.430439 16.632900 0.001962
4.745790 16.632900 0.002144
5.061140 16.632900 0.002229
5.376490 16.632900 0.002171
5.691840 16.632900 0.002174
6.007189 16.632900 0.002308
6.322540 16.632900 0.002725
6.637889 16.632900 0.003620
6.953240 16.632900 0.005883
7.268589 16.632900 0.009236
7.583940 16.632900 0.015913
7.899290 16.632900 0.030370
8.214640 16.632900 0.057670
8.529989 16.632900 0.114480
8.845339 16.632900 0.194048
9.160688 16.632900 0.300660
9.476040 16.632900 0.408620
9.791389 16.632900 0.522869
10.106739 16.632900 0.639372
10.422089 16.632900 0.752048
10.737438 16.632900 0.859151
11.052790 16.632900 0.954153
11.368139 16.632900 1.047468
11.683489 16.632900 1.123264
11.998838 16.632900 1.187586
12.314190 16.632900 1.260922
12.629539 16.632900 1.317170
12.944889 16.632900 1.361306
13.260239 16.632900 1.378894
13.575588 16.632900 1.393146
13.890940 16.632900 1.365501
14.206289 16.632900 1.295038
14.521639 16.632900 1.229224
14.836988 16.632900 1.074362
15.152340 16.632900 0.958270
15.467690 16.632900 0.463585
15.783039 16.632900 0.000000
16.098389 16.632900 0.000000
16.413738 16.632900 0.000000
16.729090 16.632900 0.000000
17.044439 16.632900 0.000000
17.359789 16.632900 0.000000
17.675138 16.632900 0.000000
17.990490 16.632900 0.330648
18.305840 16.632900 -0.339595
18.621189 16.632900 -0.328545
18.936539 16.632900 0.000000
19.251888 16.632900 0.000000
-7.237510 16.317551 0.000000
-6.922160 16.317551 0.002687
-6.606810 16.317551 0.002661
-6.291460 16.317551 0.002646
-5.976110 16.317551 0.002522
-5.660760 16.317551 0.002341
-5.345410 16.317551 0.002239
-5.030060 16.317551 0.002312
-4.714710 16.317551 0.002433
-4.399360 16.317551 0.002580
-4.084010 16.317551 0.002486
-3.768660 16.317551 0.002299
-3.453310 16.317551 0.002261
-3.137960 16.317551 0.002363
-2.822610 16.317551 0.002359
-2.507260 16.317551 0.002214
-2.191910 16.317551 0.002162
-1.876560 16.317551 0.002162
-1.561210 16.317551 0.002272
-1.245860 16.317551 0.002306
-0.930510 16.317551 0.002261
-0.615160 16.317551 0.002181
-0.299810 16.317551 0.002210
0.015540 16.317551 0.002118
0.330890 16.317551 0.002050
0.646240 16.317551 0.002105
0.961589 16.317551 0.002075
1.276940 16.317551 0.002012
1.592289 16.317551 0.001986
1.907640 16.317551 0.001964
2.222990 16.317551 0.002048
2.538340 16.317551 0.002097
2.853690 16.317551 0.002143
3.169039 16.317551 0.002170
3.484390 16.317551 0.002194
3.799739 16.317551 0.002099
4.115090 16.317551 0.002070
4.430439 16.317551 0.001954
4.745790 16.317551 0.002193
5.061140 16.317551 0.002478
5.376490 16.317551 0.002427
5.691840 16.317551 0.002271
6.007189 16.317551 0.002377
6.322540 16.317551 0.002643
6.637889 16.317551 0.003596
6.953240 16.317551 0.005183
7.268589 16.317551 0.009213
7.583940 16.317551 0.016631
7.899290 16.317551 0.031432
8.214640 16.317551 0.060547
8.529989 16.317551 0.115355
8.845339 16.317551 0.198274
9.160688 16.317551 0.302310
9.476040 16.317551 0.408321
9.791389 16.317551 0.528138
10.106739 16.317551 0.631828
10.422089 16.317551 0.760827
10.737438 16.317551 0.868354
11.052790 16.317551 0.948626
11.368139 16.317551 1.040650
11.683489 16.317551 1.124858
11.998838 16.317551 1.196830
12.314190 16.317551 1.262930
12.629539 16.317551 1.318494
12.944889 16.317551 1.335740
13.260239 16.317551 1.357725
13.575588 16.317551 1.367166
13.890940 16.317551 1.335094
14.206289 16.317551 1.291033
14.521639 16.317551 1.170315
14.836988 16.317551 1.080651
15.152340 16.317551 0.957652
15.467690 16.317551 0.464728
15.783039 16.317551 0.000000
16.098389 16.317551 0.000000
16.413738 16.317551 0.000000
16.729090 16.317551 0.000000
17.044439 16.317551 0.000000
17.359789 16.317551 0.000000
17.675138 16.317551 0.000000
17.990490 16.317551 0.592741
18.305840 16.317551 -0.409817
18.621189 16.317551 -0.279418
18.936539 16.317551 0.000000
19.251888 16.317551 0.000000
-7.237510 16.002201 0.000000
-6.922160 16.002201 0.002627
-6.606810 16.002201 0.002602
-6.291460 16.002201 0.002580
-5.976110 16.002201 0.002485
-5.660760 16.002201 0.002400
-5.345410 16.002201 0.002292
-5.030060 16.002201 0.002355
-4.714710 16.002201 0.002577
-4.399360 16.002201 0.002731
-4.084010 16.002201 0.002646
-3.768660 16.002201 0.002464
-3.453310 16.002201 0.002444
-3.137960 16.002201 0.002513
-2.822610 16.002201 0.002479
-2.507260 16.002201 0.002335
-2.191910 16.002201 0.002223
-1.876560 16.002201 0.002172
-1.561210 16.002201 0.002285
-1.245860 16.002201 0.002432
-0.930510 16.002201 0.002388
-0.615160 16.002201 0.002269
-0.299810 16.002201 0.002178
0.015540 16.002201 0.002046
0.330890 16.002201 0.002041
0.646240 16.002201 0.002062
0.961589 16.002201 0.002108
1.276940 16.002201 0.002134
1.592289 16.002201 0.002187
1.907640 16.002201 0.002209
2.222990 16.002201 0.002213
2.538340 16.002201 0.002261
2.853690 16.002201 0.002288
3.169039 16.002201 0.002260
3.484390 16.002201 0.002155
3.799739 16.002201 0.002109
4.115090 16.002201 0.002047
4.430439 16.002201 0.002079
4.745790 16.002201 0.002294
5.061140 16.002201 0.002564
5.376490 16.002201 0.002591
5.691840 16.002201 0.002485
6.007189 16.002201 0.002372
6.322540 16.002201 0.002575
6.637889 16.002201 0.003428
6.953240 16.002201 0.004993
7.268589 16.002201 0.009169
7.583940 16.002201 0.016409
7.899290 16.002201 0.032010
8.214640 16.002201 0.062484
8.529989 16.002201 0.118904
8.845339 16.002201 0.201521
9.160688 16.002201 0.298291
9.476040 16.002201 0.415420
9.791389 16.002201 0.530929
10.106739 16.002201 0.641474
10.422089 16.002201 0.748462
10.737438 16.002201 0.860191
11.052790 16.002201 0.945088
11.368139 16.002201 1.035181
11.683489 16.002201 1.131452
11.998838 16.002201 1.224363
12.314190 16.002201 1.276050
12.629539 16.002201 1.315778
12.944889 16.002201 1.334390
13.260239 16.002201 1.354384
13.575588 16.002201 1.349083
13.890940 16.002201 1.304385
14.206289 16.002201 1.275878
14.521639 16.002201 1.201953
14.836988 16.002201 1.096236
15.152340 16.002201 0.934598
15.467690 16.002201 0.434886
15.783039 16.002201 0.000000
16.098389 16.002201 0.000000
16.413738 16.002201 0.000000
16.729090 16.002201 0.000000
17.044439 16.002201 0.000000
17.359789 16.002201 0.000000
17.675138 16.002201 0.000000
17.990490 16.002201 0.039414
18.305840 16.002201 -0.316670
18.621189 16.002201 -0.136347
18.936539 16.002201 0.000000
19.251888 16.002201 0.000000
-7.237510 15.686852 0.000000
-6.922160 15.686852 0.002625
-6.606810 15.686852 0.002566
-6.291460 15.686852 0.002553
-5.976110 15.686852 0.002511
-5.660760 15.686852 0.002555
-5.345410 15.686852 0.002492
-5.030060 15.686852 0.002528
-4.714710 15.686852 0.002687
-4.399360 15.686852 0.002809
-4.084010 15.686852 0.002717
-3.768660 15.686852 0.002623
-3.453310 15.686852 0.002643
-3.137960 15.686852 0.002638
-2.822610 15.686852 0.002579
-2.507260 15.686852 0.002374
-2.191910 15.686852 0.002195
-1.876560 15.686852 0.002148
-1.561210 15.686852 0.002320
-1.245860 15.686852 0.002498
-0.930510 15.686852 0.002564
-0.615160 15.686852 0.002390
-0.299810 15.686852 0.002226
0.015540 15.686852 0.002055
0.330890 15.686852 0.002055
0.646240 15.686852 0.002043
0.961589 15.686852 0.002183
1.276940 15.686852 0.002343
1.592289 15.686852 0.002404
1.907640 15.686852 0.002446
2.222990 15.686852 0.002378
2.538340 15.686852 0.002342
2.853690 15.686852 0.002387
3.169039 15.686852 0.002367
3.484390 15.686852 0.002160
3.799739 15.686852 0.002064
4.115090 15.686852 0.002126
4.430439 15.686852 0.002135
4.745790 15.686852 0.002429
5.061140 15.686852 0.002738
5.376490 15.686852 0.002837
5.691840 15.686852 0.002616
6.007189 15.686852 0.002454
6.322540 15.686852 0.002701
6.637889 15.686852 0.003712
6.953240 15.686852 0.005165
7.268589 15.686852 0.009093
7.583940 15.686852 0.017050
7.899290 15.686852 0.033748
8.214640 15.686852 0.064215
8.529989 15.686852 0.123002
8.845339 15.686852 0.201638
9.160688 15.686852 0.302415
9.476040 15.686852 0.414714
9.791389 15.686852 0.528661
10.106739 15.686852 0.641232
10.422089 15.686852 0.753495
10.737438 15.686852 0.841639
11.052790 15.686852 0.937724
11.368139 15.686852 1.042978
11.683489 15.686852 1.129104
11.998838 15.686852 1.211438
12.314190 15.686852 1.271596
12.629539 15.686852 1.306546
12.944889 15.686852 1.334575
13.260239 15.686852 1.320322
13.575588 15.686852 1.362852
13.890940 15.686852 1.354293
14.206289 15.686852 1.257297
14.521639 15.686852 1.190954
14.836988 15.686852 1.125825
15.152340 15.686852 0.950054
15.467690 15.686852 0.421166
15.783039 15.686852 0.000000
16.098389 15.686852 0.000000
16.413738 15.686852 0.000000
16.729090 15.686852 0.000000
17.044439 15.686852 0.000000
17.359789 15.686852 0.000000
17.675138 15.686852 0.000000
17.990490 15.686852 -0.170445
18.305840 15.686852 -0.306897
18.621189 15.686852 -0.133145
18.936539 15.686852 0.000000
19.251888 15.686852 0.000000
-7.237510 15.371502 0.000000
-6.922160 15.371502 0.002701
-6.606810 15.371502 0.002650
-6.291460 15.371502 0.002605
-5.976110 15.371502 0.002607
-5.660760 15.371502 0.002757
-5.345410 15.371502 0.002779
-5.030060 15.371502 0.002769
-4.714710 15.371502 0.002784
-4.399360 15.371502 0.002819
-4.084010 15.371502 0.002714
-3.768660 15.371502 0.002717
-3.453310 15.371502 0.002820
-3.137960 15.371502 0.002766
-2.822610 15.371502 0.002673
-2.507260 15.371502 0.002470
-2.191910 15.371502 0.002205
-1.876560 15.371502 0.002206
-1.561210 15.371502 0.002403
-1.245860 15.371502 0.002600
-0.930510 15.371502 0.002701
-0.615160 15.371502 0.002558
-0.299810 15.371502 0.002325
0.015540 15.371502 0.002131
0.330890 15.371502 0.002137
0.646240 15.371502 0.002090
0.961589 15.371502 0.002271
1.276940 15.371502 0.002541
1.592289 15.371502 0.002627
1.907640 15.371502 0.002619
2.222990 15.371502 0.002533
2.538340 15.371502 0.002451
2.853690 15.371502 0.002499
3.169039 15.371502 0.002478
3.484390 15.371502 0.002340
3.799739 15.371502 0.002196
4.115090 15.371502 0.002204
4.430439 15.371502 0.002228
4.745790 15.371502 0.002502
5.061140 15.371502 0.002866
5.376490 15.371502 0.003008
5.691840 15.371502 0.002892
6.007189 15.371502 0.002661
6.322540 15.371502 0.002767
6.637889 15.371502 0.003578
6.953240 15.371502 0.005826
7.268589 15.371502 0.010282
7.583940 15.371502 0.016465
7.899290 15.371502 0.034206
8.214640 15.371502 0.068476
8.529989 15.371502 0.124674
8.845339 15.371502 0.206535
9.160688 15.371502 0.310168
9.476040 15.371502 0.412379
9.791389 15.371502 0.531536
10.106739 15.371502 0.642378
10.422089 15.371502 0.752133
10.737438 15.371502 0.844265
11.052790 15.371502 0.934116
11.368139 15.371502 1.025769
11.683489 15.371502 1.129829
11.998838 15.371502 1.214934
12.314190 15.371502 1.275751
12.629539 15.371502 1.313443
12.944889 15.371502 1.350811
13.260239 15.371502 1.338373
13.575588 15.371502 1.348992
13.890940 15.371502 1.335854
14.206289 15.371502 1.290298
14.521639 15.371502 1.184570
14.836988 15.371502 1.100086
15.152340 15.371502 1.025528
15.467690 15.371502 0.421335
15.783039 15.371502 0.000000
16.098389 15.371502 0.000000
16.413738 15.371502 0.000000
16.729090 15.371502 0.000000
17.044439 15.371502 0.000000
17.359789 15.371502 0.000000
17.675138 15.371502 0.000000
17.990490 15.371502 -0.172061
18.305840 15.371502 -0.229328
18.621189 15.371502 -0.193546
18.936539 15.371502 0.000000
19.251888 15.371502 0.000000
-7.237510 15.056152 0.000000
-6.922160 15.056152 0.003017
-6.606810 15.056152 0.002908
-6.291460 15.056152 0.002787
-5.976110 15.056152 0.002797
-5.660760 15.056152 0.002987
-5.345410 15.056152 0.003091
-5.030060 15.056152 0.002962
-4.714710 15.056152 0.002852
-4.399360 15.056152 0.002796
-4.084010 15.056152 0.002731
-3.768660 15.056152 0.002781
-3.453310 15.056152 0.002942
-3.137960 15.056152 0.002928
-2.822610 15.056152 0.002809
-2.507260 15.056152 0.002627
-2.191910 15.056152 0.002346
-1.876560 15.056152 0.002372
-1.561210 15.056152 0.002599
-1.245860 15.056152 0.002780
-0.930510 15.056152 0.002805
-0.615160 15.056152 0.002697
-0.299810 15.056152 0.002436
0.015540 15.056152 0.002303
0.330890 15.056152 0.002264
0.646240 15.056152 0.002271
0.961589 15.056152 0.002425
1.276940 15.056152 0.002743
1.592289 15.056152 0.002867
1.907640 15.056152 0.002805
2.222990 15.056152 0.002679
2.538340 15.056152 0.002534
2.853690 15.056152 0.002563
3.169039 15.056152 0.002549
3.484390 15.056152 0.002506
3.799739 15.056152 0.002385
4.115090 15.056152 0.002250
4.430439 15.056152 0.002397
4.745790 15.056152 0.002628
5.061140 15.056152 0.002972
5.376490 15.056152 0.003249
5.691840 15.056152 0.003163
6.007189 15.056152 0.002812
6.322540 15.056152 0.002994
6.637889 15.056152 0.003985
6.953240 15.056152 0.006101
7.268589 15.056152 0.011117
7.583940 15.056152 0.017766
7.899290 15.056152 0.033628
8.214640 15.056152 0.066622
8.529989 15.056152 0.119549
8.845339 15.056152 0.207213
9.160688 15.056152 0.309191
9.476040 15.056152 0.416779
9.791389 15.056152 0.531430
10.106739 15.056152 0.636844
10.422089 15.056152 0.757373
10.737438 15.056152 0.855443
11.052790 15.056152 0.948291
11.368139 15.056152 1.032406
11.683489 15.056152 1.128207
11.998838 15.056152 1.211627
12.314190 15.056152 1.261702
12.629539 15.056152 1.297699
12.944889 15.056152 1.311755
13.260239 15.056152 1.307945
13.575588 15.056152 1.340069
13.890940 15.056152 1.315557
14.206289 15.056152 1.270141
14.521639 15.056152 1.188251
14.836988 15.056152 1.137186
15.152340 15.056152 1.024139
15.467690 15.056152 0.422461
15.783039 15.056152 0.000000
16.098389 15.056152 0.000000
16.413738 15.056152 0.000000
16.729090 15.056152 0.000000
17.044439 15.056152 0.000000
17.359789 15.056152 0.000000
17.675138 15.056152 0.000000
17.990490 15.056152 -0.258277
18.305840 15.056152 -0.232388
18.621189 15.056152 -0.229668
18.936539 15.056152 0.000000
19.251888 15.056152 0.000000
-7.237510 14.740803 0.000000
-6.922160 14.740803 0.003517
-6.606810 14.740803 0.003260
-6.291460 14.740803 0.003064
-5.976110 14.740803 0.003043
-5.660760 14.740803 0.003173
-5.345410 14.740803 0.003323
-5.030060 14.740803 0.003178
-4.714710 14.740803 0.002916
-4.399360 14.740803 0.002807
-4.084010 14.740803 0.002702
-3.768660 14.740803 0.002833
-3.453310 14.740803 0.003060
-3.137960 14.740803 0.003090
-2.822610 14.740803 0.002941
-2.507260 14.740803 0.002786
-2.191910 14.740803 0.002554
-1.876560 14.740803 0.002653
-1.561210 14.740803 0.002845
-1.245860 14.740803 0.002967
-0.930510 14.740803 0.002914
-0.615160 14.740803 0.002773
-0.299810 14.740803 0.002621
0.015540 14.740803 0.002497
0.330890 14.740803 0.002446
0.646240 14.740803 0.002468
0.961589 14.740803 0.002699
1.276940 14.740803 0.002949
1.592289 14.740803 0.003098
1.907640 14.740803 0.002986
2.222990 14.740803 0.002773
2.538340 14.740803 0.002638
2.853690 14.740803 0.002586
3.169039 14.740803 0.002578
3.484390 14.740803 0.002627
3.799739 14.740803 0.002626
4.115090 14.740803 0.002512
4.430439 14.740803 0.002561
4.745790 14.740803 0.002711
5.061140 14.740803 0.003005
5.376490 14.740803 0.003363
5.691840 14.740803 0.003275
6.007189 14.740803 0.003167
6.322540 14.740803 0.003186
6.637889 14.740803 0.004222
6.953240 14.740803 0.006271
7.268589 14.740803 0.010663
7.583940 14.740803 0.018382
7.899290 14.740803 0.037054
8.214640 14.740803 0.066787
8.529989 14.740803 0.119257
8.845339 14.740803 0.206131
9.160688 14.740803 0.313972
9.476040 14.740803 0.417846
9.791389 14.740803 0.533551
10.106739 14.740803 0.637686
10.422089 14.740803 0.746122
10.737438 14.740803 0.852320
11.052790 14.740803 0.946713
11.368139 14.740803 1.022790
11.683489 14.740803 1.107137
11.998838 14.740803 1.187023
12.314190 14.740803 1.267245
12.629539 14.740803 1.326412
12.944889 14.740803 1.330009
13.260239 14.740803 1.322427
13.575588 14.740803 1.344210
13.890940 14.740803 1.300884
14.206289 14.740803 1.279108
14.521639 14.740803 1.207474
14.836988 14.740803 1.130534
15.152340 14.740803 1.056758
15.467690 14.740803 0.498079
15.783039 14.740803 0.000000
16.098389 14.740803 0.000000
16.413738 14.740803 0.000000
16.729090 14.740803 0.000000
17.044439 14.740803 0.000000
17.359789 14.740803 0.000000
17.675138 14.740803 0.000000
17.990490 14.740803 -0.055457
18.305840 14.740803 -0.324547
18.621189 14.740803 -0.191357
18.936539 14.740803 0.000000
19.251888 14.740803 0.000000
-7.237510 14.425449 0.000000
-6.922160 14.425449 0.003837
-6.606810 14.425449 0.003519
-6.291460 14.425449 0.003323
-5.976110 14.425449 0.003234
-5.660760 14.425449 0.003329
-5.345410 14.425449 0.003448
-5.030060 14.425449 0.003311
-4.714710 14.425449 0.003097
-4.399360 14.425449 0.002955
-4.084010 14.425449 0.002871
-3.768660 14.425449 0.003044
-3.453310 14.425449 0.003233
-3.137960 14.425449 0.003147
-2.822610 14.425449 0.003059
-2.507260 14.425449 0.002997
-2.191910 14.425449 0.002907
-1.876560 14.425449 0.002955
-1.561210 14.425449 0.003052
-1.245860 14.425449 0.003116
-0.930510 14.425449 0.003061
-0.615160 14.425449 0.002893
-0.299810 14.425449 0.002799
0.015540 14.425449 0.002637
0.330890 14.425449 0.002694
0.646240 14.425449 0.002790
0.961589 14.425449 0.002969
1.276940 14.425449 0.003164
1.592289 14.425449 0.003315
1.907640 14.425449 0.003131
2.222990 14.425449 0.002882
2.538340 14.425449 0.002736
2.853690 14.425449 0.002644
3.169039 14.425449 0.002620
3.484390 14.425449 0.002798
3.799739 14.425449 0.002867
4.115090 14.425449 0.002824
4.430439 14.425449 0.002732
4.745790 14.425449 0.002872
5.061140 14.425449 0.003151
5.376490 14.425449 0.003396
5.691840 14.425449 0.003434
6.007189 14.425449 0.003299
6.322540 14.425449 0.003436
6.637889 14.425449 0.004412
6.953240 14.425449 0.006483
7.268589 14.425449 0.011392
7.583940 14.425449 0.020353
7.899290 14.425449 0.038532
8.214640 14.425449 0.069420
8.529989 14.425449 0.122739
8.845339 14.425449 0.211120
9.160688 14.425449 0.317276
9.476040 14.425449 0.423643
9.791389 14.425449 0.540751
10.106739 14.425449 0.640038
10.422089 14.425449 0.752825
10.737438 14.425449 0.845353
11.052790 14.425449 0.943822
11.368139 14.425449 1.034239
11.683489 14.425449 1.096184
11.998838 14.425449 1.190957
12.314190 14.425449 1.259916
12.629539 14.425449 1.305467
12.944889 14.425449 1.329018
13.260239 14.425449 1.342268
13.575588 14.425449 1.343556
13.890940 14.425449 1.350922
14.206289 14.425449 1.288390
14.521639 14.425449 1.203281
14.836988 14.425449 1.146124
15.152340 14.425449 1.073292
15.467690 14.425449 0.431907
15.783039 14.425449 0.000000
16.098389 14.425449 0.000000
16.413738 14.425449 0.000000
16.729090 14.425449 0.000000
17.044439 14.425449 0.000000
17.359789 14.425449 0.000000
17.675138 14.425449 0.000000
17.990490 14.425449 0.013240
18.305840 14.425449 -0.260970
18.621189 14.425449 -0.159991
18.936539 14.425449 0.000000
19.251888 14.425449 0.000000
-7.237510 14.110100 0.000000
-6.922160 14.110100 0.003939
-6.606810 14.110100 0.003717
-6.291460 14.110100 0.003434
-5.976110 14.110100 0.003386
-5.660760 14.110100 0.003458
-5.345410 14.110100 0.003586
-5.030060 14.110100 0.003522
-4.714710 14.110100 0.003349
-4.399360 14.110100 0.003201
-4.084010 14.110100 0.003170
-3.768660 14.110100 0.003350
-3.453310 14.110100 0.003451
-3.137960 14.110100 0.003243
-2.822610 14.110100 0.003179
-2.507260 14.110100 0.003261
-2.191910 14.110100 0.003255
-1.876560 14.110100 0.003316
-1.561210 14.110100 0.003230
-1.245860 14.110100 0.003196
-0.930510 14.110100 0.003170
-0.615160 14.110100 0.003060
-0.299810 14.110100 0.003019
0.015540 14.110100 0.002942
0.330890 14.110100 0.002975
0.646240 14.110100 0.003140
0.961589 14.110100 0.003256
1.276940 14.110100 0.003351
1.592289 14.110100 0.003350
1.907640 14.110100 0.003161
2.222990 14.110100 0.002959
2.538340 14.110100 0.002882
2.853690 14.110100 0.002838
3.169039 14.110100 0.002853
3.484390 14.110100 0.003008
3.799739 14.110100 0.003124
4.115090 14.110100 0.003183
4.430439 14.110100 0.003088
4.745790 14.110100 0.003047
5.061140 14.110100 0.003252
5.376490 14.110100 0.003505
5.691840 14.110100 0.003578
6.007189 14.110100 0.003440
6.322540 14.110100 0.003672
6.637889 14.110100 0.004661
6.953240 14.110100 0.006981
7.268589 14.110100 0.012231
7.583940 14.110100 0.022290
7.899290 14.110100 0.039117
8.214640 14.110100 0.069247
8.529989 14.110100 0.129839
8.845339 14.110100 0.212693
9.160688 14.110100 0.319042
9.476040 14.110100 0.429934
9.791389 14.110100 0.550165
10.106739 14.110100 0.648451
10.422089 14.110100 0.748262
10.737438 14.110100 0.853687
11.052790 14.110100 0.966421
11.368139 14.110100 1.048159
11.683489 14.110100 1.119092
11.998838 14.110100 1.168081
12.314190 14.110100 1.238671
12.629539 14.110100 1.274301
12.944889 14.110100 1.347914
13.260239 14.110100 1.348814
13.575588 14.110100 1.350398
13.890940 14.110100 1.324261
14.206289 14.110100 1.303738
14.521639 14.110100 1.222913
14.836988 14.110100 1.162704
15.152340 14.110100 1.093293
15.467690 14.110100 0.493648
15.783039 14.110100 0.000000
16.098389 14.110100 0.000000
16.413738 14.110100 0.000000
16.729090 14.110100 0.000000
17.044439 14.110100 0.000000
17.359789 14.110100 0.000000
17.675138 14.110100 0.000000
17.990490 14.110100 0.152155
18.305840 14.110100 -0.152095
18.621189 14.110100 -0.233548
18.936539 14.110100 0.000000
19.251888 14.110100 0.000000
-7.237510 13.794750 0.000000
-6.922160 13.794750 0.003955
-6.606810 13.794750 0.003796
-6.291460 13.794750 0.003616
-5.976110 13.794750 0.003568
-5.660760 13.794750 0.003599
-5.345410 13.794750 0.003728
-5.030060 13.794750 0.003760
-4.714710 13.794750 0.003655
-4.399360 13.794750 0.003590
-4.084010 13.794750 0.003558
-3.768660 13.794750 0.003656
-3.453310 13.794750 0.003690
-3.137960 13.794750 0.003350
-2.822610 13.794750 0.003292
-2.507260 13.794750 0.003482
-2.191910 13.794750 0.003640
-1.876560 13.794750 0.003692
-1.561210 13.794750 0.003460
-1.245860 13.794750 0.003297
-0.930510 13.794750 0.003314
-0.615160 13.794750 0.003290
-0.299810 13.794750 0.003308
0.015540 13.794750 0.003241
0.330890 13.794750 0.003326
0.646240 13.794750 0.003521
0.961589 13.794750 0.003484
1.276940 13.794750 0.003391
1.592289 13.794750 0.003259
1.907640 13.794750 0.003164
2.222990 13.794750 0.003129
2.538340 13.794750 0.003146
2.853690 13.794750 0.003208
3.169039 13.794750 0.003152
3.484390 13.794750 0.003210
3.799739 13.794750 0.003360
4.115090 13.794750 0.003493
4.430439 13.794750 0.003436
4.745790 13.794750 0.003340
5.061140 13.794750 0.003473
5.376490 13.794750 0.003615
5.691840 13.794750 0.003705
6.007189 13.794750 0.003705
6.322540 13.794750 0.003936
6.637889 13.794750 0.004888
6.953240 13.794750 0.006729
7.268589 13.794750 0.012158
7.583940 13.794750 0.020031
7.899290 13.794750 0.037729
8.214640 13.794750 0.071608
8.529989 13.794750 0.133032
8.845339 13.794750 0.217775
9.160688 13.794750 0.325441
9.476040 13.794750 0.431027
9.791389 13.794750 0.549850
10.106739 13.794750 0.648030
10.422089 13.794750 0.750708
10.737438 13.794750 0.862118
11.052790 13.794750 0.968732
11.368139 13.794750 1.039961
11.683489 13.794750 1.122054
11.998838 13.794750 1.187017
12.314190 13.794750 1.240492
12.629539 13.794750 1.287621
12.944889 13.794750 1.328821
13.260239 13.794750 1.366078
13.575588 13.794750 1.357307
13.890940 13.794750 1.376155
14.206289 13.794750 1.304349
14.521639 13.794750 1.219791
14.836988 13.794750 1.171636
15.152340 13.794750 1.080524
15.467690 13.794750 0.455863
15.783039 13.794750 0.000000
16.098389 13.794750 0.000000
16.413738 13.794750 0.000000
16.729090 13.794750 0.000000
17.044439 13.794750 0.000000
17.359789 13.794750 0.000000
17.675138 13.794750 0.000000
17.990490 13.794750 0.370852
18.305840 13.794750 -0.078570
18.621189 13.794750 -0.358013
18.936539 13.794750 0.000000
19.251888 13.794750 0.000000
-7.237510 13.479401 0.000000
-6.922160 13.479401 0.003950
-6.606810 13.479401 0.003913
-6.291460 13.479401 0.003858
-5.976110 13.479401 0.003796
-5.660760 13.479401 0.003797
-5.345410 13.479401 0.003928
-5.030060 13.479401 0.004018
-4.714710 13.479401 0.004012
-4.399360 13.479401 0.003999
-4.084010 13.479401 0.003942
-3.768660 13.479401 0.003964
-3.453310 13.479401 0.003857
-3.137960 13.479401 0.003540
-2.822610 13.479401 0.003509
-2.507260 13.479401 0.003770
-2.191910 13.479401 0.003950
-1.876560 13.479401 0.003944
-1.561210 13.479401 0.003665
-1.245860 13.479401 0.003417
-0.930510 13.479401 0.003433
-0.615160 13.479401 0.003509
-0.299810 13.479401 0.003618
0.015540 13.479401 0.003647
0.330890 13.479401 0.003736
0.646240 13.479401 0.003818
0.961589 13.479401 0.003655
1.276940 13.479401 0.003393
1.592289 13.479401 0.003213
1.907640 13.479401 0.003212
2.222990 13.479401 0.003305
2.538340 13.479401 0.003486
2.853690 13.479401 0.003550
3.169039 13.479401 0.003507
3.484390 13.479401 0.003415
3.799739 13.479401 0.003541
4.115090 13.479401 0.003732
4.430439 13.479401 0.003733
4.745790 13.479401 0.003578
5.061140 13.479401 0.003575
5.376490 13.479401 0.003657
5.691840 13.479401 0.003781
6.007189 13.479401 0.003931
6.322540 13.479401 0.004006
6.637889 13.479401 0.004881
6.953240 13.479401 0.007276
7.268589 13.479401 0.012273
7.583940 13.479401 0.019294
7.899290 13.479401 0.037612
8.214640 13.479401 0.074381
8.529989 13.479401 0.140064
8.845339 13.479401 0.224996
9.160688 13.479401 0.327392
9.476040 13.479401 0.433193
9.791389 13.479401 0.553538
10.106739 13.479401 0.663415
10.422089 13.479401 0.754683
10.737438 13.479401 0.856130
11.052790 13.479401 0.961523
11.368139 13.479401 1.051121
11.683489 13.479401 1.108837
11.998838 13.479401 1.178347
12.314190 13.479401 1.252021
12.629539 13.479401 1.280092
12.944889 13.479401 1.344967
13.260239 13.479401 1.333023
13.575588 13.479401 1.354161
13.890940 13.479401 1.378062
14.206289 13.479401 1.326974
14.521639 13.479401 1.232620
14.836988 13.479401 1.143696
15.152340 13.479401 1.069333
15.467690 13.479401 0.424620
15.783039 13.479401 0.000000
16.098389 13.479401 0.000000
16.413738 13.479401 0.000000
16.729090 13.479401 0.000000
17.044439 13.479401 0.000000
17.359789 13.479401 0.000000
17.675138 13.479401 0.000000
17.990490 13.479401 0.308474
18.305840 13.479401 -0.012073
18.621189 13.479401 -0.362001
18.936539 13.479401 0.000000
19.251888 13.479401 0.000000
-7.237510 13.164051 0.000000
-6.922160 13.164051 0.004037
-6.606810 13.164051 0.004105
-6.291460 13.164051 0.004168
-5.976110 13.164051 0.004079
-5.660760 13.164051 0.003997
-5.345410 13.164051 0.004144
-5.030060 13.164051 0.004233
-4.714710 13.164051 0.004326
-4.399360 13.164051 0.004344
-4.084010 13.164051 0.004186
-3.768660 13.164051 0.004158
-3.453310 13.164051 0.003994
-3.137960 13.164051 0.003721
-2.822610 13.164051 0.003771
-2.507260 13.164051 0.004057
-2.191910 13.164051 0.004208
-1.876560 13.164051 0.004110
-1.561210 13.164051 0.003823
-1.245860 13.164051 0.003550
-0.930510 13.164051 0.003581
-0.615160 13.164051 0.003670
-0.299810 13.164051 0.003825
0.015540 13.164051 0.003995
0.330890 13.164051 0.004098
0.646240 13.164051 0.004053
0.961589 13.164051 0.003789
1.276940 13.164051 0.003422
1.592289 13.164051 0.003293
1.907640 13.164051 0.003334
2.222990 13.164051 0.003538
2.538340 13.164051 0.003783
2.853690 13.164051 0.003857
3.169039 13.164051 0.003776
3.484390 13.164051 0.003635
3.799739 13.164051 0.003654
4.115090 13.164051 0.003902
4.430439 13.164051 0.003968
4.745790 13.164051 0.003708
5.061140 13.164051 0.003563
5.376490 13.164051 0.003636
5.691840 13.164051 0.003798
6.007189 13.164051 0.003913
6.322540 13.164051 0.003936
6.637889 13.164051 0.005114
6.953240 13.164051 0.007419
7.268589 13.164051 0.012037
7.583940 13.164051 0.018300
7.899290 13.164051 0.040588
8.214640 13.164051 0.078355
8.529989 13.164051 0.141081
8.845339 13.164051 0.232990
9.160688 13.164051 0.333722
9.476040 13.164051 0.438461
9.791389 13.164051 0.561780
10.106739 13.164051 0.669384
10.422089 13.164051 0.772517
10.737438 13.164051 0.868425
11.052790 13.164051 0.960637
11.368139 13.164051 1.043877
11.683489 13.164051 1.116606
11.998838 13.164051 1.185504
12.314190 13.164051 1.238588
12.629539 13.164051 1.271784
12.944889 13.164051 1.315962
13.260239 13.164051 1.310071
13.575588 13.164051 1.382695
13.890940 13.164051 1.358109
14.206289 13.164051 1.319349
14.521639 13.164051 1.203992
14.836988 13.164051 1.087227
15.152340 13.164051 1.035139
15.467690 13.164051 0.336347
15.783039 13.164051 0.000000
16.098389 13.164051 0.000000
16.413738 13.164051 0.000000
16.729090 13.164051 0.000000
17.044439 13.164051 0.000000
17.359789 13.164051 0.000000
17.675138 13.164051 0.000000
17.990490 13.164051 0.329920
18.305840 13.164051 0.132931
18.621189 13.164051 -0.194811
18.936539 13.164051 0.000000
19.251888 13.164051 0.000000
-7.237510 12.848701 0.000000
-6.922160 12.848701 0.004205
-6.606810 12.848701 0.004310
-6.291460 12.848701 0.004408
-5.976110 12.848701 0.004327
-5.660760 12.848701 0.004243
-5.345410 12.848701 0.004319
-5.030060 12.848701 0.004440
-4.714710 12.848701 0.004585
-4.399360 12.848701 0.004530
-4.084010 12.848701 0.004368
-3.768660 12.848701 0.004294
-3.453310 12.848701 0.004107
-3.137960 12.848701 0.003978
-2.822610 12.848701 0.004021
-2.507260 12.848701 0.004291
-2.191910 12.848701 0.004319
-1.876560 12.848701 0.004188
-1.561210 12.848701 0.003971
-1.245860 12.848701 0.003759
-0.930510 12.848701 0.003784
-0.615160 12.848701 0.003883
-0.299810 12.848701 0.004008
0.015540 12.848701 0.004218
0.330890 12.848701 0.004317
0.646240 12.848701 0.004254
0.961589 12.848701 0.003946
1.276940 12.848701 0.003612
1.592289 12.848701 0.003484
1.907640 12.848701 0.003557
2.222990 12.848701 0.003766
2.538340 12.848701 0.003975
2.853690 12.848701 0.004121
3.169039 12.848701 0.004009
3.484390 12.848701 0.003795
3.799739 12.848701 0.003740
4.115090 12.848701 0.004021
4.430439 12.848701 0.004061
4.745790 12.848701 0.003760
5.061140 12.848701 0.003487
5.376490 12.848701 0.003427
5.691840 12.848701 0.003654
6.007189 12.848701 0.003747
6.322540 12.848701 0.003910
6.637889 12.848701 0.005235
6.953240 12.848701 0.007384
7.268589 12.848701 0.011277
7.583940 12.848701 0.020267
7.899290 12.848701 0.041877
8.214640 12.848701 0.081118
8.529989 12.848701 0.149020
8.845339 12.848701 0.239436
9.160688 12.848701 0.346347
9.476040 12.848701 0.451794
9.791389 12.848701 0.569204
10.106739 12.848701 0.666755
10.422089 12.848701 0.780816
10.737438 12.848701 0.891245
11.052790 12.848701 0.991931
11.368139 12.848701 1.058148
11.683489 12.848701 1.133128
11.998838 12.848701 1.197607
12.314190 12.848701 1.235834
12.629539 12.848701 1.283602
12.944889 12.848701 1.324784
13.260239 12.848701 1.330472
13.575588 12.848701 1.362845
13.890940 12.848701 1.351538
14.206289 12.848701 1.324249
14.521639 12.848701 1.188263
14.836988 12.848701 1.114190
15.152340 12.848701 1.019411
15.467690 12.848701 0.255390
15.783039 12.848701 0.000000
16.098389 12.848701 0.000000
16.413738 12.848701 0.000000
16.729090 12.848701 0.000000
17.044439 12.848701 0.000000
17.359789 12.848701 0.000000
17.675138 12.848701 0.000000
17.990490 12.848701 0.469442
18.305840 12.848701 0.537375
18.621189 12.848701 0.217864
18.936539 12.848701 0.000000
19.251888 12.848701 0.000000
-7.237510 12.533352 0.000000
-6.922160 12.533352 0.004291
-6.606810 12.533352 0.004402
-6.291460 12.533352 0.004522
-5.976110 12.533352 0.004499
-5.660760 12.533352 0.004413
-5.345410 12.533352 0.004458
-5.030060 12.533352 0.004582
-4.714710 12.533352 0.004733
-4.399360 12.533352 0.004601
-4.084010 12.533352 0.004457
-3.768660 12.533352 0.004406
-3.453310 12.533352 0.004291
-3.137960 12.533352 0.004243
-2.822610 12.533352 0.004291
-2.507260 12.533352 0.004456
-2.191910 12.533352 0.004427
-1.876560 12.533352 0.004285
-1.561210 12.533352 0.004152
-1.245860 12.533352 0.004039
-0.930510 12.533352 0.004066
-0.615160 12.533352 0.004078
-0.299810 12.533352 0.004173
0.015540 12.533352 0.004382
0.330890 12.533352 0.004409
0.646240 12.533352 0.004362
0.961589 12.533352 0.004128
1.276940 12.533352 0.003903
1.592289 12.533352 0.003797
1.907640 12.533352 0.003826
2.222990 12.533352 0.003948
2.538340 12.533352 0.004112
2.853690 12.533352 0.004254
3.169039 12.533352 0.004125
3.484390 12.533352 0.003894
3.799739 12.533352 0.003866
4.115090 12.533352 0.004056
4.430439 12.533352 0.004125
4.745790 12.533352 0.003841
5.061140 12.533352 0.003502
5.376490 12.533352 0.003367
5.691840 12.533352 0.003498
6.007189 12.533352 0.003569
6.322540 12.533352 0.003891
6.637889 12.533352 0.005195
6.953240 12.533352 0.007844
7.268589 12.533352 0.012382
7.583940 12.533352 0.022208
7.899290 12.533352 0.041560
8.214640 12.533352 0.080490
8.529989 12.533352 0.153638
8.845339 12.533352 0.246746
9.160688 12.533352 0.352955
9.476040 12.533352 0.465108
9.791389 12.533352 0.582612
10.106739 12.533352 0.668813
10.422089 12.533352 0.794578
10.737438 12.533352 0.904833
11.052790 12.533352 0.995411
11.368139 12.533352 1.054015
11.683489 12.533352 1.114800
11.998838 12.533352 1.176278
12.314190 12.533352 1.228324
12.629539 12.533352 1.292828
12.944889 12.533352 1.317103
13.260239 12.533352 1.346818
13.575588 12.533352 1.381405
13.890940 12.533352 1.360171
14.206289 12.533352 1.296232
14.521639 12.533352 1.203906
14.836988 12.533352 1.084542
15.152340 12.533352 1.008333
15.467690 12.533352 0.234061
15.783039 12.533352 0.000000
16.098389 12.533352 0.000000
16.413738 12.533352 0.000000
16.729090 12.533352 0.000000
17.044439 12.533352 0.000000
17.359789 12.533352 0.000000
17.675138 12.533352 0.000000
17.990490 12.533352 0.375492
18.305840 12.533352 0.692390
18.621189 12.533352 0.425909
18.936539 12.533352 0.000000
19.251888 12.533352 0.000000
-7.237510 12.218002 0.000000
-6.922160 12.218002 0.004346
-6.606810 12.218002 0.004428
-6.291460 12.218002 0.004605
-5.976110 12.218002 0.004641
-5.660760 12.218002 0.004538
-5.345410 12.218002 0.004634
-5.030060 12.218002 0.004705
-4.714710 12.218002 0.004756
-4.399360 12.218002 0.004595
-4.084010 12.218002 0.004482
-3.768660 12.218002 0.004496
-3.453310 12.218002 0.004500
-3.137960 12.218002 0.004494
-2.822610 12.218002 0.004526
-2.507260 12.218002 0.004607
-2.191910 12.218002 0.004564
-1.876560 12.218002 0.004408
-1.561210 12.218002 0.004369
-1.245860 12.218002 0.004323
-0.930510 12.218002 0.004331
-0.615160 12.218002 0.004303
-0.299810 12.218002 0.004348
0.015540 12.218002 0.004488
0.330890 12.218002 0.004402
0.646240 12.218002 0.004351
0.961589 12.218002 0.004299
1.276940 12.218002 0.004236
1.592289 12.218002 0.004123
1.907640 12.218002 0.004130
2.222990 12.218002 0.004182
2.538340 12.218002 0.004267
2.853690 12.218002 0.004314
3.169039 12.218002 0.004146
3.484390 12.218002 0.003962
3.799739 12.218002 0.003971
4.115090 12.218002 0.004126
4.430439 12.218002 0.004221
4.745790 12.218002 0.003990
5.061140 12.218002 0.003661
5.376490 12.218002 0.003507
5.691840 12.218002 0.003250
6.007189 12.218002 0.003113
6.322540 12.218002 0.003638
6.637889 12.218002 0.004854
6.953240 12.218002 0.008035
7.268589 12.218002 0.012142
7.583940 12.218002 0.022058
7.899290 12.218002 0.042050
8.214640 12.218002 0.083260
8.529989 12.218002 0.155786
8.845339 12.218002 0.247835
9.160688 12.218002 0.358107
9.476040 12.218002 0.473437
9.791389 12.218002 0.581087
10.106739 12.218002 0.683067
10.422089 12.218002 0.794181
10.737438 12.218002 0.908248
11.052790 12.218002 1.004807
11.368139 12.218002 1.065057
11.683489 12.218002 1.135015
11.998838 12.218002 1.175586
12.314190 12.218002 1.231433
12.629539 12.218002 1.272077
12.944889 12.218002 1.298466
13.260239 12.218002 1.340683
13.575588 12.218002 1.336648
13.890940 12.218002 1.340891
14.206289 12.218002 1.304624
14.521639 12.218002 1.206558
14.836988 12.218002 1.084938
15.152340 12.218002 1.001795
15.467690 12.218002 0.240089
15.783039 12.218002 0.000000
16.098389 12.218002 0.000000
16.413738 12.218002 0.000000
16.729090 12.218002 0.000000
17.044439 12.218002 0.000000
17.359789 12.218002 0.000000
17.675138 12.218002 0.000000
17.990490 12.218002 0.279232
18.305840 12.218002 0.738821
18.621189 12.218002 0.537583
18.936539 12.218002 0.000000
19.251888 12.218002 0.000000
-7.237510 11.902653 0.000000
-6.922160 11.902653 0.004261
-6.606810 11.902653 0.004382
-6.291460 11.902653 0.004702
-5.976110 11.902653 0.004770
-5.660760 11.902653 0.004779
-5.345410 11.902653 0.004874
-5.030060 11.902653 0.004791
-4.714710 11.902653 0.004712
-4.399360 11.902653 0.004564
-4.084010 11.902653 0.004524
-3.768660 11.902653 0.004600
-3.453310 11.902653 0.004669
-3.137960 11.902653 0.004669
-2.822610 11.902653 0.004640
-2.507260 11.902653 0.004691
-2.191910 11.902653 0.004599
-1.876560 11.902653 0.004525
-1.561210 11.902653 0.004594
-1.245860 11.902653 0.004599
-0.930510 11.902653 0.004537
-0.615160 11.902653 0.004448
-0.299810 11.902653 0.004446
0.015540 11.902653 0.004555
0.330890 11.902653 0.004370
0.646240 11.902653 0.004297
0.961589 11.902653 0.004416
1.276940 11.902653 0.004545
1.592289 11.902653 0.004435
1.907640 11.902653 0.004388
2.222990 11.902653 0.004386
2.538340 11.902653 0.004412
2.853690 11.902653 0.004313
3.169039 11.902653 0.004136
3.484390 11.902653 0.004008
3.799739 11.902653 0.004088
4.115090 11.902653 0.004225
4.430439 11.902653 0.004313
4.745790 11.902653 0.004132
5.061140 11.902653 0.003879
5.376490 11.902653 0.003609
5.691840 11.902653 0.003270
6.007189 11.902653 0.003132
6.322540 11.902653 0.003476
6.637889 11.902653 0.004787
6.953240 11.902653 0.008284
7.268589 11.902653 0.012698
7.583940 11.902653 0.022097
7.899290 11.902653 0.046441
8.214640 11.902653 0.088591
8.529989 11.902653 0.162438
8.845339 11.902653 0.257885
9.160688 11.902653 0.367045
9.476040 11.902653 0.477104
9.791389 11.902653 0.591878
10.106739 11.902653 0.691933
10.422089 11.902653 0.801643
10.737438 11.902653 0.910471
11.052790 11.902653 1.018680
11.368139 11.902653 1.090029
11.683489 11.902653 1.142966
11.998838 11.902653 1.167017
12.314190 11.902653 1.208797
12.629539 11.902653 1.272087
12.944889 11.902653 1.308547
13.260239 11.902653 1.335013
13.575588 11.902653 1.341599
13.890940 11.902653 1.327125
14.206289 11.902653 1.283095
14.521639 11.902653 1.169175
14.836988 11.902653 1.075832
15.152340 11.902653 0.988238
15.467690 11.902653 0.217863
15.783039 11.902653 0.000000
16.098389 11.902653 0.000000
16.413738 11.902653 0.000000
16.729090 11.902653 0.000000
17.044439 11.902653 0.000000
17.359789 11.902653 0.000000
17.675138 11.902653 0.000000
17.990490 11.902653 0.399096
18.305840 11.902653 0.677831
18.621189 11.902653 0.538795
18.936539 11.902653 0.000000
19.251888 11.902653 0.000000
-7.237510 11.587299 0.000000
-6.922160 11.587299 0.004322
-6.606810 11.587299 0.004435
-6.291460 11.587299 0.004786
-5.976110 11.587299 0.004911
-5.660760 11.587299 0.005045
-5.345410 11.587299 0.005104
-5.030060 11.587299 0.004897
-4.714710 11.587299 0.004695
-4.399360 11.587299 0.004526
-4.084010 11.587299 0.004589
-3.768660 11.587299 0.004747
-3.453310 11.587299 0.004818
-3.137960 11.587299 0.004772
-2.822610 11.587299 0.004733
-2.507260 11.587299 0.004683
-2.191910 11.587299 0.004640
-1.876560 11.587299 0.004632
-1.561210 11.587299 0.004730
-1.245860 11.587299 0.004744
-0.930510 11.587299 0.004611
-0.615160 11.587299 0.004529
-0.299810 11.587299 0.004527
0.015540 11.587299 0.004511
0.330890 11.587299 0.004370
0.646240 11.587299 0.004312
0.961589 11.587299 0.004516
1.276940 11.587299 0.004717
1.592289 11.587299 0.004584
1.907640 11.587299 0.004555
2.222990 11.587299 0.004559
2.538340 11.587299 0.004455
2.853690 11.587299 0.004244
3.169039 11.587299 0.004104
3.484390 11.587299 0.004039
3.799739 11.587299 0.004134
4.115090 11.587299 0.004271
4.430439 11.587299 0.004326
4.745790 11.587299 0.004264
5.061140 11.587299 0.004014
5.376490 11.587299 0.003779
5.691840 11.587299 0.003567
6.007189 11.587299 0.003326
6.322540 11.587299 0.003577
6.637889 11.587299 0.004794
6.953240 11.587299 0.008720
7.268589 11.587299 0.013155
7.583940 11.587299 0.021634
7.899290 11.587299 0.047116
8.214640 11.587299 0.092945
8.529989 11.587299 0.168172
8.845339 11.587299 0.260705
9.160688 11.587299 0.363792
9.476040 11.587299 0.478853
9.791389 11.587299 0.600038
10.106739 11.587299 0.702229
10.422089 11.587299 0.815922
10.737438 11.587299 0.922687
11.052790 11.587299 1.031028
11.368139 11.587299 1.089556
11.683489 11.587299 1.140229
11.998838 11.587299 1.185549
12.314190 11.587299 1.211285
12.629539 11.587299 1.252803
12.944889 11.587299 1.301368
13.260239 11.587299 1.346164
13.575588 11.587299 1.339667
13.890940 11.587299 1.319768
14.206289 11.587299 1.267420
14.521639 11.587299 1.188803
14.836988 11.587299 1.125016
15.152340 11.587299 1.013550
15.467690 11.587299 0.642551
15.783039 11.587299 0.000000
16.098389 11.587299 0.000000
16.413738 11.587299 0.000000
16.729090 11.587299 0.000000
17.044439 11.587299 0.000000
17.359789 11.587299 0.000000
17.675138 11.587299 0.000000
17.990490 11.587299 0.460996
18.305840 11.587299 0.700202
18.621189 11.587299 0.603089
18.936539 11.587299 0.000000
19.251888 11.587299 0.000000
-7.237510 11.271950 0.000000
-6.922160 11.271950 0.004624
-6.606810 11.271950 0.004661
-6.291460 11.271950 0.004930
-5.976110 11.271950 0.005095
-5.660760 11.271950 0.005245
-5.345410 11.271950 0.005311
-5.030060 11.271950 0.005074
-4.714710 11.271950 0.004752
-4.399360 11.271950 0.004512
-4.084010 11.271950 0.004645
-3.768660 11.271950 0.004915
-3.453310 11.271950 0.004929
-3.137960 11.271950 0.004818
-2.822610 11.271950 0.004752
-2.507260 11.271950 0.004684
-2.191910 11.271950 0.004646
-1.876560 11.271950 0.004703
-1.561210 11.271950 0.004770
-1.245860 11.271950 0.004735
-0.930510 11.271950 0.004619
-0.615160 11.271950 0.004610
-0.299810 11.271950 0.004537
0.015540 11.271950 0.004458
0.330890 11.271950 0.004395
0.646240 11.271950 0.004388
0.961589 11.271950 0.004651
1.276940 11.271950 0.004777
1.592289 11.271950 0.004617
1.907640 11.271950 0.004614
2.222990 11.271950 0.004607
2.538340 11.271950 0.004380
2.853690 11.271950 0.004160
3.169039 11.271950 0.004139
3.484390 11.271950 0.004151
3.799739 11.271950 0.004152
4.115090 11.271950 0.004239
4.430439 11.271950 0.004293
4.745790 11.271950 0.004236
5.061140 11.271950 0.004053
5.376490 11.271950 0.003891
5.691840 11.271950 0.003856
6.007189 11.271950 0.003797
6.322540 11.271950 0.003745
6.637889 11.271950 0.005286
6.953240 11.271950 0.008212
7.268589 11.271950 0.013253
7.583940 11.271950 0.024812
7.899290 11.271950 0.047634
8.214640 11.271950 0.098415
8.529989 11.271950 0.172692
8.845339 11.271950 0.265293
9.160688 11.271950 0.363660
9.476040 11.271950 0.480343
9.791389 11.271950 0.601686
10.106739 11.271950 0.705044
10.422089 11.271950 0.825959
10.737438 11.271950 0.940108
11.052790 11.271950 1.029101
11.368139 11.271950 1.080813
11.683489 11.271950 1.146003
11.998838 11.271950 1.169858
12.314190 11.271950 1.217588
12.629539 11.271950 1.263493
12.944889 11.271950 1.320011
13.260239 11.271950 1.358911
13.575588 11.271950 1.349329
13.890940 11.271950 1.310311
14.206289 11.271950 1.305161
14.521639 11.271950 1.240082
14.836988 11.271950 1.151422
15.152340 11.271950 1.090145
15.467690 11.271950 0.000000
15.783039 11.271950 0.000000
16.098389 11.271950 0.000000
16.413738 11.271950 0.000000
16.729090 11.271950 0.000000
17.044439 11.271950 0.000000
17.359789 11.271950 0.000000
17.675138 11.271950 0.000000
17.990490 11.271950 0.546453
18.305840 11.271950 0.715260
18.621189 11.271950 0.512783
18.936539 11.271950 0.000000
19.251888 11.271950 0.000000
-7.237510 10.956600 0.000000
-6.922160 10.956600 0.005046
-6.606810 10.956600 0.004921
-6.291460 10.956600 0.005041
-5.976110 10.956600 0.005226
-5.660760 10.956600 0.005435
-5.345410 10.956600 0.005495
-5.030060 10.956600 0.005233
-4.714710 10.956600 0.004863
-4.399360 10.956600 0.004576
-4.084010 10.956600 0.004740
-3.768660 10.956600 0.005047
-3.453310 10.956600 0.004974
-3.137960 10.956600 0.004805
-2.822610 10.956600 0.004755
-2.507260 10.956600 0.004711
-2.191910 10.956600 0.004698
-1.876560 10.956600 0.004719
-1.561210 10.956600 0.004722
-1.245860 10.956600 0.004659
-0.930510 10.956600 0.004605
-0.615160 10.956600 0.004652
-0.299810 10.956600 0.004524
0.015540 10.956600 0.004446
0.330890 10.956600 0.004412
0.646240 10.956600 0.004447
0.961589 10.956600 0.004673
1.276940 10.956600 0.004739
1.592289 10.956600 0.004563
1.907640 10.956600 0.004589
2.222990 10.956600 0.004565
2.538340 10.956600 0.004252
2.853690 10.956600 0.004085
3.169039 10.956600 0.004174
3.484390 10.956600 0.004235
3.799739 10.956600 0.004140
4.115090 10.956600 0.004101
4.430439 10.956600 0.004072
4.745790 10.956600 0.004062
5.061140 10.956600 0.003981
5.376490 10.956600 0.003928
5.691840 10.956600 0.004018
6.007189 10.956600 0.004041
6.322540 10.956600 0.004264
6.637889 10.956600 0.005382
6.953240 10.956600 0.008103
7.268589 10.956600 0.013316
7.583940 10.956600 0.026722
7.899290 10.956600 0.047359
8.214640 10.956600 0.096376
8.529989 10.956600 0.175637
8.845339 10.956600 0.268524
9.160688 10.956600 0.368974
9.476040 10.956600 0.489177
9.791389 10.956600 0.605980
10.106739 10.956600 0.722886
10.422089 10.956600 0.835343
10.737438 10.956600 0.952710
11.052790 10.956600 1.037851
11.368139 10.956600 1.103642
11.683489 10.956600 1.121470
11.998838 10.956600 1.149808
12.314190 10.956600 1.214543
12.629539 10.956600 1.256319
12.944889 10.956600 1.323232
13.260239 10.956600 1.356897
13.575588 10.956600 1.353995
13.890940 10.956600 1.298317
14.206289 10.956600 1.284923
14.521639 10.956600 1.225747
14.836988 10.956600 1.209717
15.152340 10.956600 1.134596
15.467690 10.956600 0.000000
15.783039 10.956600 0.000000
16.098389 10.956600 0.000000
16.413738 10.956600 0.000000
16.729090 10.956600 0.000000
17.044439 10.956600 0.000000
17.359789 10.956600 0.000000
17.675138 10.956600 0.000000
17.990490 10.956600 0.603256
18.305840 10.956600 0.705963
18.621189 10.956600 0.464812
18.936539 10.956600 0.000000
19.251888 10.956600 0.000000
-7.237510 10.641251 0.000000
-6.922160 10.641251 0.005272
-6.606810 10.641251 0.005080
-6.291460 10.641251 0.005092
-5.976110 10.641251 0.005292
-5.660760 10.641251 0.005526
-5.345410 10.641251 0.005598
-5.030060 10.641251 0.005359
-4.714710 10.641251 0.004942
-4.399360 10.641251 0.004673
-4.084010 10.641251 0.004936
-3.768660 10.641251 0.005170
-3.453310 10.641251 0.004978
-3.137960 10.641251 0.004822
-2.822610 10.641251 0.004826
-2.507260 10.641251 0.004806
-2.191910 10.641251 0.004773
-1.876560 10.641251 0.004726
-1.561210 10.641251 0.004587
-1.245860 10.641251 0.004580
-0.930510 10.641251 0.004599
-0.615160 10.641251 0.004667
-0.299810 10.641251 0.004534
0.015540 10.641251 0.004410
0.330890 10.641251 0.004452
0.646240 10.641251 0.004430
0.961589 10.641251 0.004582
1.276940 10.641251 0.004591
1.592289 10.641251 0.004432
1.907640 10.641251 0.004483
2.222990 10.641251 0.004422
2.538340 10.641251 0.004119
2.853690 10.641251 0.004035
3.169039 10.641251 0.004184
3.484390 10.641251 0.004241
3.799739 10.641251 0.004050
4.115090 10.641251 0.003870
4.430439 10.641251 0.003812
4.745790 10.641251 0.003874
5.061140 10.641251 0.003946
5.376490 10.641251 0.004020
5.691840 10.641251 0.004026
6.007189 10.641251 0.004102
6.322540 10.641251 0.004364
6.637889 10.641251 0.005192
6.953240 10.641251 0.008358
7.268589 10.641251 0.013714
7.583940 10.641251 0.026006
7.899290 10.641251 0.051053
8.214640 10.641251 0.099068
8.529989 10.641251 0.174562
8.845339 10.641251 0.269996
9.160688 10.641251 0.375193
9.476040 10.641251 0.497633
9.791389 10.641251 0.617744
10.106739 10.641251 0.727764
10.422089 10.641251 0.844404
10.737438 10.641251 0.956476
11.052790 10.641251 1.052419
11.368139 10.641251 1.099475
11.683489 10.641251 1.143623
11.998838 10.641251 1.185058
12.314190 10.641251 1.223543
12.629539 10.641251 1.254641
12.944889 10.641251 1.308596
13.260239 10.641251 1.347169
13.575588 10.641251 1.351895
13.890940 10.641251 1.314030
14.206289 10.641251 1.278190
14.521639 10.641251 1.241697
14.836988 10.641251 1.224789
15.152340 10.641251 1.152643
15.467690 10.641251 0.000000
15.783039 10.641251 0.000000
16.098389 10.641251 0.000000
16.413738 10.641251 0.000000
16.729090 10.641251 0.000000
17.044439 10.641251 0.000000
17.359789 10.641251 0.000000
17.675138 10.641251 0.000000
17.990490 10.641251 0.499870
18.305840 10.641251 0.518150
18.621189 10.641251 0.421614
18.936539 10.641251 0.000000
19.251888 10.641251 0.000000
-7.237510 10.325901 0.000000
-6.922160 10.325901 0.005337
-6.606810 10.325901 0.005119
-6.291460 10.325901 0.005097
-5.976110 10.325901 0.005309
-5.660760 10.325901 0.005487
-5.345410 10.325901 0.005563
-5.030060 10.325901 0.005375
-4.714710 10.325901 0.005065
-4.399360 10.325901 0.004849
-4.084010 10.325901 0.005044
-3.768660 10.325901 0.005162
-3.453310 10.325901 0.005011
-3.137960 10.325901 0.004864
-2.822610 10.325901 0.004910
-2.507260 10.325901 0.004878
-2.191910 10.325901 0.004814
-1.876560 10.325901 0.004665
-1.561210 10.325901 0.004480
-1.245860 10.325901 0.004500
-0.930510 10.325901 0.004570
-0.615160 10.325901 0.004676
-0.299810 10.325901 0.004594
0.015540 10.325901 0.004453
0.330890 10.325901 0.004423
0.646240 10.325901 0.004340
0.961589 10.325901 0.004353
1.276940 10.325901 0.004245
1.592289 10.325901 0.004198
1.907640 10.325901 0.004353
2.222990 10.325901 0.004271
2.538340 10.325901 0.004015
2.853690 10.325901 0.004016
3.169039 10.325901 0.004171
3.484390 10.325901 0.004217
3.799739 10.325901 0.003979
4.115090 10.325901 0.003615
4.430439 10.325901 0.003520
4.745790 10.325901 0.003620
5.061140 10.325901 0.003880
5.376490 10.325901 0.004059
5.691840 10.325901 0.003959
6.007189 10.325901 0.004002
6.322540 10.325901 0.004358
6.637889 10.325901 0.005422
6.953240 10.325901 0.008122
7.268589 10.325901 0.014062
7.583940 10.325901 0.025925
7.899290 10.325901 0.051523
8.214640 10.325901 0.099427
8.529989 10.325901 0.181362
8.845339 10.325901 0.277770
9.160688 10.325901 0.389762
9.476040 10.325901 0.507374
9.791389 10.325901 0.623609
10.106739 10.325901 0.743518
10.422089 10.325901 0.854595
10.737438 10.325901 0.951916
11.052790 10.325901 1.040643
11.368139 10.325901 1.112717
11.683489 10.325901 1.150582
11.998838 10.325901 1.189526
12.314190 10.325901 1.228553
12.629539 10.325901 1.255048
12.944889 10.325901 1.294399
13.260239 10.325901 1.326128
13.575588 10.325901 1.352344
13.890940 10.325901 1.329037
14.206289 10.325901 1.259040
14.521639 10.325901 1.230569
14.836988 10.325901 1.186504
15.152340 10.325901 1.171124
15.467690 10.325901 0.000000
15.783039 10.325901 0.000000
16.098389 10.325901 0.000000
16.413738 10.325901 0.000000
16.729090 10.325901 0.000000
17.044439 10.325901 0.000000
17.359789 10.325901 0.000000
17.675138 10.325901 0.000000
17.990490 10.325901 0.481295
18.305840 10.325901 0.521836
18.621189 10.325901 0.357906
18.936539 10.325901 0.000000
19.251888 10.325901 0.000000
-7.237510 10.010551 0.000000
-6.922160 10.010551 0.005389
-6.606810 10.010551 0.005110
-6.291460 10.010551 0.005128
-5.976110 10.010551 0.005277
-5.660760 10.010551 0.005397
-5.345410 10.010551 0.005373
-5.030060 10.010551 0.005266
-4.714710 10.010551 0.005147
-4.399360 10.010551 0.005068
-4.084010 10.010551 0.005126
-3.768660 10.010551 0.005093
-3.453310 10.010551 0.004961
-3.137960 10.010551 0.004895
-2.822610 10.010551 0.004939
-2.507260 10.010551 0.004924
-2.191910 10.010551 0.004803
-1.876560 10.010551 0.004570
-1.561210 10.010551 0.004399
-1.245860 10.010551 0.004453
-0.930510 10.010551 0.004547
-0.615160 10.010551 0.004658
-0.299810 10.010551 0.004593
0.015540 10.010551 0.004462
0.330890 10.010551 0.004362
0.646240 10.010551 0.004190
0.961589 10.010551 0.004046
1.276940 10.010551 0.003905
1.592289 10.010551 0.003977
1.907640 10.010551 0.004141
2.222990 10.010551 0.004097
2.538340 10.010551 0.003916
2.853690 10.010551 0.003954
3.169039 10.010551 0.004086
3.484390 10.010551 0.004124
3.799739 10.010551 0.003854
4.115090 10.010551 0.003399
4.430439 10.010551 0.003262
4.745790 10.010551 0.003407
5.061140 10.010551 0.003663
5.376490 10.010551 0.003816
5.691840 10.010551 0.003850
6.007189 10.010551 0.003926
6.322540 10.010551 0.004212
6.637889 10.010551 0.005095
6.953240 10.010551 0.008134
7.268589 10.010551 0.014780
7.583940 10.010551 0.027465
7.899290 10.010551 0.054325
8.214640 10.010551 0.105613
8.529989 10.010551 0.189417
8.845339 10.010551 0.293351
9.160688 10.010551 0.392805
9.476040 10.010551 0.512007
9.791389 10.010551 0.621598
10.106739 10.010551 0.730604
10.422089 10.010551 0.854573
10.737438 10.010551 0.953820
11.052790 10.010551 1.043642
11.368139 10.010551 1.094410
11.683489 10.010551 1.155908
11.998838 10.010551 1.187077
12.314190 10.010551 1.219987
12.629539 10.010551 1.263424
12.944889 10.010551 1.285914
13.260239 10.010551 1.303181
13.575588 10.010551 1.292959
13.890940 10.010551 1.301993
14.206289 10.010551 1.267254
14.521639 10.010551 1.223069
14.836988 10.010551 1.195430
15.152340 10.010551 1.179488
15.467690 10.010551 0.000000
15.783039 10.010551 0.000000
16.098389 10.010551 0.000000
16.413738 10.010551 0.000000
16.729090 10.010551 0.000000
17.044439 10.010551 0.000000
17.359789 10.010551 0.000000
17.675138 10.010551 0.000000
17.990490 10.010551 0.544564
18.305840 10.010551 0.524769
18.621189 10.010551 0.407005
18.936539 10.010551 0.000000
19.251888 10.010551 0.000000
-7.237510 9.695202 0.000000
-6.922160 9.695202 0.005401
-6.606810 9.695202 0.005155
-6.291460 9.695202 0.005161
-5.976110 9.695202 0.005191
-5.660760 9.695202 0.005236
-5.345410 9.695202 0.005178
-5.030060 9.695202 0.005140
-4.714710 9.695202 0.005226
-4.399360 9.695202 0.005254
-4.084010 9.695202 0.005146
-3.768660 9.695202 0.005020
-3.453310 9.695202 0.004876
-3.137960 9.695202 0.004876
-2.822610 9.695202 0.004881
-2.507260 9.695202 0.004877
-2.191910 9.695202 0.004732
-1.876560 9.695202 0.004442
-1.561210 9.695202 0.004326
-1.245860 9.695202 0.004404
-0.930510 9.695202 0.004520
-0.615160 9.695202 0.004592
-0.299810 9.695202 0.004526
0.015540 9.695202 0.004445
0.330890 9.695202 0.004309
0.646240 9.695202 0.004040
0.961589 9.695202 0.003816
1.276940 9.695202 0.003715
1.592289 9.695202 0.003845
1.907640 9.695202 0.003973
2.222990 9.695202 0.003905
2.538340 9.695202 0.003816
2.853690 9.695202 0.003836
3.169039 9.695202 0.003917
3.484390 9.695202 0.004009
3.799739 9.695202 0.003770
4.115090 9.695202 0.003317
4.430439 9.695202 0.003146
4.745790 9.695202 0.003261
5.061140 9.695202 0.003416
5.376490 9.695202 0.003458
5.691840 9.695202 0.003554
6.007189 9.695202 0.003582
6.322540 9.695202 0.003587
6.637889 9.695202 0.004720
6.953240 9.695202 0.008091
7.268589 9.695202 0.014447
7.583940 9.695202 0.028632
7.899290 9.695202 0.056128
8.214640 9.695202 0.110890
8.529989 9.695202 0.195961
8.845339 9.695202 0.294893
9.160688 9.695202 0.405690
9.476040 9.695202 0.527887
9.791389 9.695202 0.630771
10.106739 9.695202 0.741857
10.422089 9.695202 0.854532
10.737438 9.695202 0.951304
11.052790 9.695202 1.046630
11.368139 9.695202 1.091053
11.683489 9.695202 1.142468
11.998838 9.695202 1.181954
12.314190 9.695202 1.214824
12.629539 9.695202 1.266460
12.944889 9.695202 1.278245
13.260239 9.695202 1.317646
13.575588 9.695202 1.299358
13.890940 9.695202 1.279363
14.206289 9.695202 1.283629
14.521639 9.695202 1.212300
14.836988 9.695202 1.174214
15.152340 9.695202 1.171092
15.467690 9.695202 0.000000
15.783039 9.695202 0.000000
16.098389 9.695202 0.000000
16.413738 9.695202 0.000000
16.729090 9.695202 0.000000
17.044439 9.695202 0.000000
17.359789 9.695202 0.000000
17.675138 9.695202 0.000000
17.990490 9.695202 0.580353
18.305840 9.695202 0.626916
18.621189 9.695202 0.545154
18.936539 9.695202 0.000000
19.251888 9.695202 0.000000
-7.237510 9.379852 0.000000
-6.922160 9.379852 0.005369
-6.606810 9.379852 0.005195
-6.291460 9.379852 0.005163
-5.976110 9.379852 0.005093
-5.660760 9.379852 0.005051
-5.345410 9.379852 0.004967
-5.030060 9.379852 0.005044
-4.714710 9.379852 0.005211
-4.399360 9.379852 0.005262
-4.084010 9.379852 0.005101
-3.768660 9.379852 0.004909
-3.453310 9.379852 0.004730
-3.137960 9.379852 0.004711
-2.822610 9.379852 0.004741
-2.507260 9.379852 0.004757
-2.191910 9.379852 0.004588
-1.876560 9.379852 0.004339
-1.561210 9.379852 0.004254
-1.245860 9.379852 0.004344
-0.930510 9.379852 0.004416
-0.615160 9.379852 0.004484
-0.299810 9.379852 0.004364
0.015540 9.379852 0.004314
0.330890 9.379852 0.004206
0.646240 9.379852 0.003920
0.961589 9.379852 0.003697
1.276940 9.379852 0.003699
1.592289 9.379852 0.003815
1.907640 9.379852 0.003835
2.222990 9.379852 0.003815
2.538340 9.379852 0.003708
2.853690 9.379852 0.003623
3.169039 9.379852 0.003642
3.484390 9.379852 0.003814
3.799739 9.379852 0.003685
4.115090 9.379852 0.003357
4.430439 9.379852 0.003118
4.745790 9.379852 0.003160
5.061140 9.379852 0.003166
5.376490 9.379852 0.003099
5.691840 9.379852 0.003292
6.007189 9.379852 0.003567
6.322540 9.379852 0.003743
6.637889 9.379852 0.004290
6.953240 9.379852 0.007632
7.268589 9.379852 0.014079
7.583940 9.379852 0.028873
7.899290 9.379852 0.058260
8.214640 9.379852 0.116998
8.529989 9.379852 0.197174
8.845339 9.379852 0.298990
9.160688 9.379852 0.416415
9.476040 9.379852 0.537612
9.791389 9.379852 0.635293
10.106739 9.379852 0.751899
10.422089 9.379852 0.863282
10.737438 9.379852 0.954217
11.052790 9.379852 1.037619
11.368139 9.379852 1.100647
11.683489 9.379852 1.132223
11.998838 9.379852 1.178123
12.314190 9.379852 1.218448
12.629539 9.379852 1.273286
12.944889 9.379852 1.261989
13.260239 9.379852 1.298216
13.575588 9.379852 1.289949
13.890940 9.379852 1.270538
14.206289 9.379852 1.249109
14.521639 9.379852 1.225790
14.836988 9.379852 1.164753
15.152340 9.379852 1.191395
15.467690 9.379852 0.000000
15.783039 9.379852 0.000000
16.098389 9.379852 0.000000
16.413738 9.379852 0.000000
16.729090 9.379852 0.000000
17.044439 9.379852 0.000000
17.359789 9.379852 0.000000
17.675138 9.379852 0.000000
17.990490 9.379852 0.567186
18.305840 9.379852 0.722902
18.621189 9.379852 0.666715
18.936539 9.379852 0.000000
19.251888 9.379852 0.000000
-7.237510 9.064503 0.000000
-6.922160 9.064503 0.005132
-6.606810 9.064503 0.005164
-6.291460 9.064503 0.005092
-5.976110 9.064503 0.004949
-5.660760 9.064503 0.004804
-5.345410 9.064503 0.004801
-5.030060 9.064503 0.004965
-4.714710 9.064503 0.005148
-4.399360 9.064503 0.005140
-4.084010 9.064503 0.004938
-3.768660 9.064503 0.004728
-3.453310 9.064503 0.004505
-3.137960 9.064503 0.004504
-2.822610 9.064503 0.004624
-2.507260 9.064503 0.004646
-2.191910 9.064503 0.004411
-1.876560 9.064503 0.004262
-1.561210 9.064503 0.004158
-1.245860 9.064503 0.004241
-0.930510 9.064503 0.004294
-0.615160 9.064503 0.004235
-0.299810 9.064503 0.004117
0.015540 9.064503 0.004060
0.330890 9.064503 0.004044
0.646240 9.064503 0.003834
0.961589 9.064503 0.003725
1.276940 9.064503 0.003745
1.592289 9.064503 0.003743
1.907640 9.064503 0.003705
2.222990 9.064503 0.003685
2.538340 9.064503 0.003594
2.853690 9.064503 0.003427
3.169039 9.064503 0.003411
3.484390 9.064503 0.003638
3.799739 9.064503 0.003646
4.115090 9.064503 0.003367
4.430439 9.064503 0.003181
4.745790 9.064503 0.003142
5.061140 9.064503 0.003070
5.376490 9.064503 0.002961
5.691840 9.064503 0.003181
6.007189 9.064503 0.003688
6.322540 9.064503 0.003822
6.637889 9.064503 0.005060
6.953240 9.064503 0.007951
7.268589 9.064503 0.014908
7.583940 9.064503 0.029498
7.899290 9.064503 0.058805
8.214640 9.064503 0.118163
8.529989 9.064503 0.197566
8.845339 9.064503 0.301608
9.160688 9.064503 0.419872
9.476040 9.064503 0.519297
9.791389 9.064503 0.639312
10.106739 9.064503 0.751428
10.422089 9.064503 0.864009
10.737438 9.064503 0.953462
11.052790 9.064503 1.034489
11.368139 9.064503 1.110226
11.683489 9.064503 1.149418
11.998838 9.064503 1.182441
12.314190 9.064503 1.215833
12.629539 9.064503 1.250274
12.944889 9.064503 1.265132
13.260239 9.064503 1.284825
13.575588 9.064503 1.296173
13.890940 9.064503 1.249103
14.206289 9.064503 1.249113
14.521639 9.064503 1.230391
14.836988 9.064503 1.162140
15.152340 9.064503 1.154256
15.467690 9.064503 0.000000
15.783039 9.064503 0.000000
16.098389 9.064503 0.000000
16.413738 9.064503 0.000000
16.729090 9.064503 0.000000
17.044439 9.064503 0.000000
17.359789 9.064503 0.000000
17.675138 9.064503 0.000000
17.990490 9.064503 0.630991
18.305840 9.064503 0.868490
18.621189 9.064503 0.800502
18.936539 9.064503 0.000000
19.251888 9.064503 0.000000
-7.237510 8.749149 0.000000
-6.922160 8.749149 0.004918
-6.606810 8.749149 0.005018
-6.291460 8.749149 0.005005
-5.976110 8.749149 0.004813
-5.660760 8.749149 0.004634
-5.345410 8.749149 0.004689
-5.030060 8.749149 0.004917
-4.714710 8.749149 0.005037
-4.399360 8.749149 0.004987
-4.084010 8.749149 0.004780
-3.768660 8.749149 0.004516
-3.453310 8.749149 0.004206
-3.137960 8.749149 0.004269
-2.822610 8.749149 0.004452
-2.507260 8.749149 0.004445
-2.191910 8.749149 0.004179
-1.876560 8.749149 0.004163
-1.561210 8.749149 0.004111
-1.245860 8.749149 0.004083
-0.930510 8.749149 0.004074
-0.615160 8.749149 0.003929
-0.299810 8.749149 0.003801
0.015540 8.749149 0.003768
0.330890 8.749149 0.003817
0.646240 8.749149 0.003757
0.961589 8.749149 0.003778
1.276940 8.749149 0.003753
1.592289 8.749149 0.003714
1.907640 8.749149 0.003561
2.222990 8.749149 0.003582
2.538340 8.749149 0.003483
2.853690 8.749149 0.003258
3.169039 8.749149 0.003273
3.484390 8.749149 0.003469
3.799739 8.749149 0.003538
4.115090 8.749149 0.003423
4.430439 8.749149 0.003253
4.745790 8.749149 0.003128
5.061140 8.749149 0.003048
5.376490 8.749149 0.002986
5.691840 8.749149 0.003240
6.007189 8.749149 0.003787
6.322540 8.749149 0.004346
6.637889 8.749149 0.005437
6.953240 8.749149 0.008199
7.268589 8.749149 0.014475
7.583940 8.749149 0.031224
7.899290 8.749149 0.063038
8.214640 8.749149 0.119373
8.529989 8.749149 0.208341
8.845339 8.749149 0.311160
9.160688 8.749149 0.426889
9.476040 8.749149 0.530122
9.791389 8.749149 0.635803
10.106739 8.749149 0.756215
10.422089 8.749149 0.859418
10.737438 8.749149 0.957910
11.052790 8.749149 1.046705
11.368139 8.749149 1.116426
11.683489 8.749149 1.165084
11.998838 8.749149 1.202787
12.314190 8.749149 1.239307
12.629539 8.749149 1.234607
12.944889 8.749149 1.234395
13.260239 8.749149 1.296105
13.575588 8.749149 1.317840
13.890940 8.749149 1.277627
14.206289 8.749149 1.228158
14.521639 8.749149 1.190883
14.836988 8.749149 1.188622
15.152340 8.749149 1.177341
15.467690 8.749149 0.000000
15.783039 8.749149 0.000000
16.098389 8.749149 0.000000
16.413738 8.749149 0.000000
16.729090 8.749149 0.000000
17.044439 8.749149 0.000000
17.359789 8.749149 0.000000
17.675138 8.749149 0.000000
17.990490 8.749149 0.576818
18.305840 8.749149 0.705987
18.621189 8.749149 0.782261
18.936539 8.749149 0.000000
19.251888 8.749149 0.000000
-7.237510 8.433800 0.000000
-6.922160 8.433800 0.004754
-6.606810 8.433800 0.004936
-6.291460 8.433800 0.004950
-5.976110 8.433800 0.004676
-5.660760 8.433800 0.004503
-5.345410 8.433800 0.004604
-5.030060 8.433800 0.004837
-4.714710 8.433800 0.004860
-4.399360 8.433800 0.004757
-4.084010 8.433800 0.004563
-3.768660 8.433800 0.004330
-3.453310 8.433800 0.004015
-3.137960 8.433800 0.004054
-2.822610 8.433800 0.004239
-2.507260 8.433800 0.004200
-2.191910 8.433800 0.004009
-1.876560 8.433800 0.004029
-1.561210 8.433800 0.004022
-1.245860 8.433800 0.003948
-0.930510 8.433800 0.003845
-0.615160 8.433800 0.003664
-0.299810 8.433800 0.003557
0.015540 8.433800 0.003500
0.330890 8.433800 0.003560
0.646240 8.433800 0.003655
0.961589 8.433800 0.003712
1.276940 8.433800 0.003697
1.592289 8.433800 0.003641
1.907640 8.433800 0.003489
2.222990 8.433800 0.003480
2.538340 8.433800 0.003369
2.853690 8.433800 0.003146
3.169039 8.433800 0.003153
3.484390 8.433800 0.003373
3.799739 8.433800 0.003480
4.115090 8.433800 0.003491
4.430439 8.433800 0.003343
4.745790 8.433800 0.003162
5.061140 8.433800 0.003094
5.376490 8.433800 0.003096
5.691840 8.433800 0.003334
6.007189 8.433800 0.003868
6.322540 8.433800 0.004586
6.637889 8.433800 0.005879
6.953240 8.433800 0.008411
7.268589 8.433800 0.014420
7.583940 8.433800 0.030303
7.899290 8.433800 0.064815
8.214640 8.433800 0.125958
8.529989 8.433800 0.218957
8.845339 8.433800 0.328293
9.160688 8.433800 0.433154
9.476040 8.433800 0.547110
9.791389 8.433800 0.660033
10.106739 8.433800 0.762820
10.422089 8.433800 0.875293
10.737438 8.433800 0.960360
11.052790 8.433800 1.052254
11.368139 8.433800 1.115512
11.683489 8.433800 1.157716
11.998838 8.433800 1.224574
12.314190 8.433800 1.260741
12.629539 8.433800 1.234760
12.944889 8.433800 1.274787
13.260239 8.433800 1.285557
13.575588 8.433800 1.290839
13.890940 8.433800 1.283353
14.206289 8.433800 1.291959
14.521639 8.433800 1.223310
14.836988 8.433800 1.185126
15.152340 8.433800 1.180336
15.467690 8.433800 0.000000
15.783039 8.433800 0.000000
16.098389 8.433800 0.000000
16.413738 8.433800 0.000000
16.729090 8.433800 0.000000
17.044439 8.433800 0.000000
17.359789 8.433800 0.000000
17.675138 8.433800 0.000000
17.990490 8.433800 0.431555
18.305840 8.433800 0.544447
18.621189 8.433800 0.711915
18.936539 8.433800 0.000000
19.251888 8.433800 0.000000
-7.237510 8.118450 0.000000
-6.922160 8.118450 0.004758
-6.606810 8.118450 0.004901
-6.291460 8.118450 0.004800
-5.976110 8.118450 0.004489
-5.660760 8.118450 0.004370
-5.345410 8.118450 0.004508
-5.030060 8.118450 0.004684
-4.714710 8.118450 0.004627
-4.399360 8.118450 0.004491
-4.084010 8.118450 0.004342
-3.768660 8.118450 0.004130
-3.453310 8.118450 0.003910
-3.137960 8.118450 0.003878
-2.822610 8.118450 0.004054
-2.507260 8.118450 0.004003
-2.191910 8.118450 0.003847
-1.876560 8.118450 0.003872
-1.561210 8.118450 0.003861
-1.245860 8.118450 0.003809
-0.930510 8.118450 0.003727
-0.615160 8.118450 0.003517
-0.299810 8.118450 0.003375
0.015540 8.118450 0.003290
0.330890 8.118450 0.003349
0.646240 8.118450 0.003499
0.961589 8.118450 0.003587
1.276940 8.118450 0.003596
1.592289 8.118450 0.003516
1.907640 8.118450 0.003431
2.222990 8.118450 0.003393
2.538340 8.118450 0.003291
2.853690 8.118450 0.003175
3.169039 8.118450 0.003159
3.484390 8.118450 0.003276
3.799739 8.118450 0.003452
4.115090 8.118450 0.003540
4.430439 8.118450 0.003490
4.745790 8.118450 0.003279
5.061140 8.118450 0.003167
5.376490 8.118450 0.003251
5.691840 8.118450 0.003516
6.007189 8.118450 0.003962
6.322540 8.118450 0.004765
6.637889 8.118450 0.006593
6.953240 8.118450 0.009409
7.268589 8.118450 0.015861
7.583940 8.118450 0.032666
7.899290 8.118450 0.069105
8.214640 8.118450 0.129274
8.529989 8.118450 0.221191
8.845339 8.118450 0.331856
9.160688 8.118450 0.441455
9.476040 8.118450 0.558919
9.791389 8.118450 0.663029
10.106739 8.118450 0.778710
10.422089 8.118450 0.883009
10.737438 8.118450 0.964490
11.052790 8.118450 1.040691
11.368139 8.118450 1.125145
11.683489 8.118450 1.174551
11.998838 8.118450 1.228638
12.314190 8.118450 1.265348
12.629539 8.118450 1.266810
12.944889 8.118450 1.274921
13.260239 8.118450 1.261165
13.575588 8.118450 1.270285
13.890940 8.118450 1.264238
14.206289 8.118450 1.265625
14.521639 8.118450 1.244656
14.836988 8.118450 1.235566
15.152340 8.118450 1.203979
15.467690 8.118450 0.000000
15.783039 8.118450 0.000000
16.098389 8.118450 0.000000
16.413738 8.118450 0.000000
16.729090 8.118450 0.000000
17.044439 8.118450 0.000000
17.359789 8.118450 0.000000
17.675138 8.118450 0.000000
17.990490 8.118450 0.250364
18.305840 8.118450 0.336093
18.621189 8.118450 0.430610
18.936539 8.118450 0.000000
19.251888 8.118450 0.000000
-7.237510 7.803101 0.000000
-6.922160 7.803101 0.004893
-6.606810 7.803101 0.004897
-6.291460 7.803101 0.004727
-5.976110 7.803101 0.004389
-5.660760 7.803101 0.004231
-5.345410 7.803101 0.004394
-5.030060 7.803101 0.004490
-4.714710 7.803101 0.004355
-4.399360 7.803101 0.004214
-4.084010 7.803101 0.004138
-3.768660 7.803101 0.004003
-3.453310 7.803101 0.003835
-3.137960 7.803101 0.003822
-2.822610 7.803101 0.003932
-2.507260 7.803101 0.003838
-2.191910 7.803101 0.003703
-1.876560 7.803101 0.003729
-1.561210 7.803101 0.003729
-1.245860 7.803101 0.003672
-0.930510 7.803101 0.003567
-0.615160 7.803101 0.003441
-0.299810 7.803101 0.003308
0.015540 7.803101 0.003136
0.330890 7.803101 0.003172
0.646240 7.803101 0.003376
0.961589 7.803101 0.003453
1.276940 7.803101 0.003456
1.592289 7.803101 0.003371
1.907640 7.803101 0.003307
2.222990 7.803101 0.003307
2.538340 7.803101 0.003246
2.853690 7.803101 0.003164
3.169039 7.803101 0.003095
3.484390 7.803101 0.003163
3.799739 7.803101 0.003275
4.115090 7.803101 0.003391
4.430439 7.803101 0.003502
4.745790 7.803101 0.003419
5.061140 7.803101 0.003329
5.376490 7.803101 0.003530
5.691840 7.803101 0.003769
6.007189 7.803101 0.004129
6.322540 7.803101 0.004634
6.637889 7.803101 0.006424
6.953240 7.803101 0.009510
7.268589 7.803101 0.016840
7.583940 7.803101 0.035090
7.899290 7.803101 0.070903
8.214640 7.803101 0.139027
8.529989 7.803101 0.227827
8.845339 7.803101 0.335062
9.160688 7.803101 0.451826
9.476040 7.803101 0.559452
9.791389 7.803101 0.670130
10.106739 7.803101 0.785354
10.422089 7.803101 0.897064
10.737438 7.803101 0.970390
11.052790 7.803101 1.043561
11.368139 7.803101 1.124556
11.683489 7.803101 1.182247
11.998838 7.803101 1.218837
12.314190 7.803101 1.269850
12.629539 7.803101 1.274167
12.944889 7.803101 1.278255
13.260239 7.803101 1.250715
13.575588 7.803101 1.272368
13.890940 7.803101 1.243254
14.206289 7.803101 1.233162
14.521639 7.803101 1.217849
14.836988 7.803101 1.258970
15.152340 7.803101 1.224301
15.467690 7.803101 0.000000
15.783039 7.803101 0.000000
16.098389 7.803101 0.000000
16.413738 7.803101 0.000000
16.729090 7.803101 0.000000
17.044439 7.803101 0.000000
17.359789 7.803101 0.000000
17.675138 7.803101 0.000000
17.990490 7.803101 0.098635
18.305840 7.803101 0.187586
18.621189 7.803101 0.282304
18.936539 7.803101 0.000000
19.251888 7.803101 0.000000
-7.237510 7.487751 0.000000
-6.922160 7.487751 0.005000
-6.606810 7.487751 0.004858
-6.291460 7.487751 0.004609
-5.976110 7.487751 0.004317
-5.660760 7.487751 0.004204
-5.345410 7.487751 0.004267
-5.030060 7.487751 0.004227
-4.714710 7.487751 0.004058
-4.399360 7.487751 0.003978
-4.084010 7.487751 0.004014
-3.768660 7.487751 0.003942
-3.453310 7.487751 0.003823
-3.137960 7.487751 0.003849
-2.822610 7.487751 0.003837
-2.507260 7.487751 0.003712
-2.191910 7.487751 0.003633
-1.876560 7.487751 0.003674
-1.561210 7.487751 0.003668
-1.245860 7.487751 0.003549
-0.930510 7.487751 0.003484
-0.615160 7.487751 0.003450
-0.299810 7.487751 0.003254
0.015540 7.487751 0.003043
0.330890 7.487751 0.003115
0.646240 7.487751 0.003293
0.961589 7.487751 0.003311
1.276940 7.487751 0.003340
1.592289 7.487751 0.003305
1.907640 7.487751 0.003227
2.222990 7.487751 0.003229
2.538340 7.487751 0.003223
2.853690 7.487751 0.003150
3.169039 7.487751 0.003116
3.484390 7.487751 0.003129
3.799739 7.487751 0.003188
4.115090 7.487751 0.003319
4.430439 7.487751 0.003518
4.745790 7.487751 0.003517
5.061140 7.487751 0.003403
5.376490 7.487751 0.003620
5.691840 7.487751 0.003824
6.007189 7.487751 0.004142
6.322540 7.487751 0.004886
6.637889 7.487751 0.006693
6.953240 7.487751 0.010699
7.268589 7.487751 0.017775
7.583940 7.487751 0.036980
7.899290 7.487751 0.071975
8.214640 7.487751 0.140341
8.529989 7.487751 0.231205
8.845339 7.487751 0.341597
9.160688 7.487751 0.457122
9.476040 7.487751 0.559640
9.791389 7.487751 0.675197
10.106739 7.487751 0.794801
10.422089 7.487751 0.905084
10.737438 7.487751 0.992952
11.052790 7.487751 1.058117
11.368139 7.487751 1.119151
11.683489 7.487751 1.162541
11.998838 7.487751 1.228758
12.314190 7.487751 1.244862
12.629539 7.487751 1.242417
12.944889 7.487751 1.260844
13.260239 7.487751 1.277393
13.575588 7.487751 1.258788
13.890940 7.487751 1.238395
14.206289 7.487751 1.211975
14.521639 7.487751 1.195270
14.836988 7.487751 1.243604
15.152340 7.487751 1.247408
15.467690 7.487751 0.000000
15.783039 7.487751 0.000000
16.098389 7.487751 0.000000
16.413738 7.487751 0.000000
16.729090 7.487751 0.000000
17.044439 7.487751 0.000000
17.359789 7.487751 0.000000
17.675138 7.487751 0.000000
17.990490 7.487751 0.094382
18.305840 7.487751 0.088533
18.621189 7.487751 0.104447
18.936539 7.487751 0.000000
19.251888 7.487751 0.000000
-7.237510 7.172401 0.000000
-6.922160 7.172401 0.004992
-6.606810 7.172401 0.004753
-6.291460 7.172401 0.004519
-5.976110 7.172401 0.004273
-5.660760 7.172401 0.004166
-5.345410 7.172401 0.004139
-5.030060 7.172401 0.003958
-4.714710 7.172401 0.003792
-4.399360 7.172401 0.003795
-4.084010 7.172401 0.003884
-3.768660 7.172401 0.003869
-3.453310 7.172401 0.003791
-3.137960 7.172401 0.003865
-2.822610 7.172401 0.003800
-2.507260 7.172401 0.003636
-2.191910 7.172401 0.003579
-1.876560 7.172401 0.003617
-1.561210 7.172401 0.003624
-1.245860 7.172401 0.003484
-0.930510 7.172401 0.003425
-0.615160 7.172401 0.003423
-0.299810 7.172401 0.003275
0.015540 7.172401 0.003099
0.330890 7.172401 0.003105
0.646240 7.172401 0.003226
0.961589 7.172401 0.003242
1.276940 7.172401 0.003160
1.592289 7.172401 0.003237
1.907640 7.172401 0.003207
2.222990 7.172401 0.003142
2.538340 7.172401 0.003154
2.853690 7.172401 0.003166
3.169039 7.172401 0.003154
3.484390 7.172401 0.003102
3.799739 7.172401 0.003114
4.115090 7.172401 0.003230
4.430439 7.172401 0.003464
4.745790 7.172401 0.003542
5.061140 7.172401 0.003581
5.376490 7.172401 0.003681
5.691840 7.172401 0.003844
6.007189 7.172401 0.004098
6.322540 7.172401 0.005317
6.637889 7.172401 0.007136
6.953240 7.172401 0.010326
7.268589 7.172401 0.018526
7.583940 7.172401 0.039807
7.899290 7.172401 0.073840
8.214640 7.172401 0.139753
8.529989 7.172401 0.235553
8.845339 7.172401 0.348476
9.160688 7.172401 0.461848
9.476040 7.172401 0.571763
9.791389 7.172401 0.682880
10.106739 7.172401 0.796966
10.422089 7.172401 0.912541
10.737438 7.172401 0.998164
11.052790 7.172401 1.063931
11.368139 7.172401 1.122409
11.683489 7.172401 1.188059
11.998838 7.172401 1.217784
12.314190 7.172401 1.262066
12.629539 7.172401 1.278083
12.944889 7.172401 1.283360
13.260239 7.172401 1.266689
13.575588 7.172401 1.233751
13.890940 7.172401 1.221510
14.206289 7.172401 1.224800
14.521639 7.172401 1.200705
14.836988 7.172401 1.226710
15.152340 7.172401 1.215755
15.467690 7.172401 0.000000
15.783039 7.172401 0.000000
16.098389 7.172401 0.000000
16.413738 7.172401 0.000000
16.729090 7.172401 0.000000
17.044439 7.172401 0.000000
17.359789 7.172401 0.000000
17.675138 7.172401 0.000000
17.990490 7.172401 0.011621
18.305840 7.172401 -0.064030
18.621189 7.172401 -0.115833
18.936539 7.172401 0.000000
19.251888 7.172401 0.000000
-7.237510 6.857052 0.000000
-6.922160 6.857052 0.004838
-6.606810 6.857052 0.004580
-6.291460 6.857052 0.004385
-5.976110 6.857052 0.004227
-5.660760 6.857052 0.004091
-5.345410 6.857052 0.003959
-5.030060 6.857052 0.003767
-4.714710 6.857052 0.003655
-4.399360 6.857052 0.003709
-4.084010 6.857052 0.003804
-3.768660 6.857052 0.003779
-3.453310 6.857052 0.003709
-3.137960 6.857052 0.003804
-2.822610 6.857052 0.003752
-2.507260 6.857052 0.003553
-2.191910 6.857052 0.003534
-1.876560 6.857052 0.003607
-1.561210 6.857052 0.003596
-1.245860 6.857052 0.003467
-0.930510 6.857052 0.003385
-0.615160 6.857052 0.003385
-0.299810 6.857052 0.003326
0.015540 6.857052 0.003188
0.330890 6.857052 0.003136
0.646240 6.857052 0.003192
0.961589 6.857052 0.003141
1.276940 6.857052 0.003078
1.592289 6.857052 0.003202
1.907640 6.857052 0.003168
2.222990 6.857052 0.003108
2.538340 6.857052 0.003121
2.853690 6.857052 0.003172
3.169039 6.857052 0.003224
3.484390 6.857052 0.003196
3.799739 6.857052 0.003107
4.115090 6.857052 0.003242
4.430439 6.857052 0.003529
4.745790 6.857052 0.003618
5.061140 6.857052 0.003654
5.376490 6.857052 0.003690
5.691840 6.857052 0.003697
6.007189 6.857052 0.004136
6.322540 6.857052 0.005499
6.637889 6.857052 0.007214
6.953240 6.857052 0.011110
7.268589 6.857052 0.020431
7.583940 6.857052 0.039330
7.899290 6.857052 0.078965
8.214640 6.857052 0.147601
8.529989 6.857052 0.241763
8.845339 6.857052 0.352972
9.160688 6.857052 0.470754
9.476040 6.857052 0.580166
9.791389 6.857052 0.697700
10.106739 6.857052 0.808893
10.422089 6.857052 0.914417
10.737438 6.857052 1.006802
11.052790 6.857052 1.073360
11.368139 6.857052 1.138355
11.683489 6.857052 1.192834
11.998838 6.857052 1.230124
12.314190 6.857052 1.257411
12.629539 6.857052 1.281541
12.944889 6.857052 1.280527
13.260239 6.857052 1.230995
13.575588 6.857052 1.219922
13.890940 6.857052 1.229716
14.206289 6.857052 1.229426
14.521639 6.857052 1.201740
14.836988 6.857052 1.190729
15.152340 6.857052 1.243032
15.467690 6.857052 0.000000
15.783039 6.857052 0.000000
16.098389 6.857052 0.000000
16.413738 6.857052 0.000000
16.729090 6.857052 0.000000
17.044439 6.857052 0.000000
17.359789 6.857052 0.000000
17.675138 6.857052 0.000000
17.990490 6.857052 -0.162047
18.305840 6.857052 -0.215977
18.621189 6.857052 -0.105516
18.936539 6.857052 0.000000
19.251888 6.857052 0.000000
-7.237510 6.541702 0.000000
-6.922160 6.541702 0.004529
-6.606810 6.541702 0.004334
-6.291460 6.541702 0.004255
-5.976110 6.541702 0.004122
-5.660760 6.541702 0.003974
-5.345410 6.541702 0.003823
-5.030060 6.541702 0.003670
-4.714710 6.541702 0.003631
-4.399360 6.541702 0.003732
-4.084010 6.541702 0.003741
-3.768660 6.541702 0.003645
-3.453310 6.541702 0.003590
-3.137960 6.541702 0.003751
-2.822610 6.541702 0.003662
-2.507260 6.541702 0.003457
-2.191910 6.541702 0.003451
-1.876560 6.541702 0.003559
-1.561210 6.541702 0.003524
-1.245860 6.541702 0.003373
-0.930510 6.541702 0.003341
-0.615160 6.541702 0.003413
-0.299810 6.541702 0.003452
0.015540 6.541702 0.003338
0.330890 6.541702 0.003185
0.646240 6.541702 0.003177
0.961589 6.541702 0.003060
1.276940 6.541702 0.003019
1.592289 6.541702 0.003178
1.907640 6.541702 0.003186
2.222990 6.541702 0.003152
2.538340 6.541702 0.003194
2.853690 6.541702 0.003297
3.169039 6.541702 0.003375
3.484390 6.541702 0.003334
3.799739 6.541702 0.003264
4.115090 6.541702 0.003386
4.430439 6.541702 0.003640
4.745790 6.541702 0.003786
5.061140 6.541702 0.003841
5.376490 6.541702 0.003819
5.691840 6.541702 0.003675
6.007189 6.541702 0.004022
6.322540 6.541702 0.005438
6.637889 6.541702 0.007523
6.953240 6.541702 0.011771
7.268589 6.541702 0.021283
7.583940 6.541702 0.041575
7.899290 6.541702 0.082573
8.214640 6.541702 0.153636
8.529989 6.541702 0.251964
8.845339 6.541702 0.360842
9.160688 6.541702 0.481638
9.476040 6.541702 0.594889
9.791389 6.541702 0.706337
10.106739 6.541702 0.825156
10.422089 6.541702 0.933795
10.737438 6.541702 1.007295
11.052790 6.541702 1.070154
11.368139 6.541702 1.143087
11.683489 6.541702 1.173563
11.998838 6.541702 1.223945
12.314190 6.541702 1.248835
12.629539 6.541702 1.295887
12.944889 6.541702 1.278724
13.260239 6.541702 1.264074
13.575588 6.541702 1.219989
13.890940 6.541702 1.230942
14.206289 6.541702 1.218048
14.521639 6.541702 1.234361
14.836988 6.541702 1.211985
15.152340 6.541702 1.224869
15.467690 6.541702 0.000000
15.783039 6.541702 0.000000
16.098389 6.541702 0.000000
16.413738 6.541702 0.000000
16.729090 6.541702 0.000000
17.044439 6.541702 0.000000
17.359789 6.541702 0.000000
17.675138 6.541702 0.000000
17.990490 6.541702 -0.348744
18.305840 6.541702 -0.257362
18.621189 6.541702 -0.189145
18.936539 6.541702 0.000000
19.251888 6.541702 0.000000
-7.237510 6.226353 0.000000
-6.922160 6.226353 0.004270
-6.606810 6.226353 0.004137
-6.291460 6.226353 0.004081
-5.976110 6.226353 0.004025
-5.660760 6.226353 0.003902
-5.345410 6.226353 0.003800
-5.030060 6.226353 0.003696
-4.714710 6.226353 0.003700
-4.399360 6.226353 0.003766
-4.084010 6.226353 0.003704
-3.768660 6.226353 0.003582
-3.453310 6.226353 0.003545
-3.137960 6.226353 0.003666
-2.822610 6.226353 0.003588
-2.507260 6.226353 0.003402
-2.191910 6.226353 0.003394
-1.876560 6.226353 0.003475
-1.561210 6.226353 0.003418
-1.245860 6.226353 0.003279
-0.930510 6.226353 0.003271
-0.615160 6.226353 0.003407
-0.299810 6.226353 0.003532
0.015540 6.226353 0.003484
0.330890 6.226353 0.003291
0.646240 6.226353 0.003185
0.961589 6.226353 0.003075
1.276940 6.226353 0.003050
1.592289 6.226353 0.003167
1.907640 6.226353 0.003190
2.222990 6.226353 0.003214
2.538340 6.226353 0.003331
2.853690 6.226353 0.003394
3.169039 6.226353 0.003530
3.484390 6.226353 0.003571
3.799739 6.226353 0.003529
4.115090 6.226353 0.003623
4.430439 6.226353 0.003810
4.745790 6.226353 0.004050
5.061140 6.226353 0.004004
5.376490 6.226353 0.003788
5.691840 6.226353 0.003799
6.007189 6.226353 0.003992
6.322540 6.226353 0.005530
6.637889 6.226353 0.007913
6.953240 6.226353 0.011432
7.268589 6.226353 0.021668
7.583940 6.226353 0.042698
7.899290 6.226353 0.090707
8.214640 6.226353 0.161834
8.529989 6.226353 0.260818
8.845339 6.226353 0.372630
9.160688 6.226353 0.487673
9.476040 6.226353 0.597309
9.791389 6.226353 0.721203
10.106739 6.226353 0.826293
10.422089 6.226353 0.932163
10.737438 6.226353 1.002321
11.052790 6.226353 1.077312
11.368139 6.226353 1.115564
11.683489 6.226353 1.171614
11.998838 6.226353 1.228808
12.314190 6.226353 1.260490
12.629539 6.226353 1.277380
12.944889 6.226353 1.307107
13.260239 6.226353 1.273317
13.575588 6.226353 1.247557
13.890940 6.226353 1.234046
14.206289 6.226353 1.247272
14.521639 6.226353 1.269194
14.836988 6.226353 1.250287
15.152340 6.226353 1.280091
15.467690 6.226353 0.000000
15.783039 6.226353 0.000000
16.098389 6.226353 0.000000
16.413738 6.226353 0.000000
16.729090 6.226353 0.000000
17.044439 6.226353 0.000000
17.359789 6.226353 0.000000
17.675138 6.226353 0.000000
17.990490 6.226353 -0.478092
18.305840 6.226353 -0.362787
18.621189 6.226353 -0.191407
18.936539 6.226353 0.000000
19.251888 6.226353 0.000000
-7.237510 5.910999 0.000000
-6.922160 5.910999 0.004086
-6.606810 5.910999 0.003983
-6.291460 5.910999 0.003916
-5.976110 5.910999 0.003909
-5.660760 5.910999 0.003869
-5.345410 5.910999 0.003843
-5.030060 5.910999 0.003788
-4.714710 5.910999 0.003791
-4.399360 5.910999 0.003803
-4.084010 5.910999 0.003733
-3.768660 5.910999 0.003586
-3.453310 5.910999 0.003530
-3.137960 5.910999 0.003591
-2.822610 5.910999 0.003529
-2.507260 5.910999 0.003411
-2.191910 5.910999 0.003360
-1.876560 5.910999 0.003380
-1.561210 5.910999 0.003328
-1.245860 5.910999 0.003238
-0.930510 5.910999 0.003271
-0.615160 5.910999 0.003407
-0.299810 5.910999 0.003583
0.015540 5.910999 0.003602
0.330890 5.910999 0.003419
0.646240 5.910999 0.003235
0.961589 5.910999 0.003131
1.276940 5.910999 0.003129
1.592289 5.910999 0.003174
1.907640 5.910999 0.003231
2.222990 5.910999 0.003322
2.538340 5.910999 0.003422
2.853690 5.910999 0.003551
3.169039 5.910999 0.003724
3.484390 5.910999 0.003861
3.799739 5.910999 0.003833
4.115090 5.910999 0.003819
4.430439 5.910999 0.004037
4.745790 5.910999 0.004203
5.061140 5.910999 0.004067
5.376490 5.910999 0.003826
5.691840 5.910999 0.003867
6.007189 5.910999 0.004176
6.322540 5.910999 0.005220
6.637889 5.910999 0.007718
6.953240 5.910999 0.012143
7.268589 5.910999 0.021708
7.583940 5.910999 0.043728
7.899290 5.910999 0.092249
8.214640 5.910999 0.171429
8.529989 5.910999 0.263049
8.845339 5.910999 0.377414
9.160688 5.910999 0.499357
9.476040 5.910999 0.603383
9.791389 5.910999 0.717868
10.106739 5.910999 0.832437
10.422089 5.910999 0.921042
10.737438 5.910999 1.004761
11.052790 5.910999 1.071203
11.368139 5.910999 1.135949
11.683489 5.910999 1.186617
11.998838 5.910999 1.240774
12.314190 5.910999 1.270672
12.629539 5.910999 1.292295
12.944889 5.910999 1.293984
13.260239 5.910999 1.276976
13.575588 5.910999 1.249545
13.890940 5.910999 1.224465
14.206289 5.910999 1.266559
14.521639 5.910999 1.255059
14.836988 5.910999 1.276848
15.152340 5.910999 1.288807
15.467690 5.910999 0.000000
15.783039 5.910999 0.000000
16.098389 5.910999 0.000000
16.413738 5.910999 0.000000
16.729090 5.910999 0.000000
17.044439 5.910999 0.000000
17.359789 5.910999 0.000000
17.675138 5.910999 0.000000
17.990490 5.910999 -0.471483
18.305840 5.910999 -0.281085
18.621189 5.910999 -0.176118
18.936539 5.910999 0.000000
19.251888 5.910999 0.000000
-7.237510 5.595650 0.000000
-6.922160 5.595650 0.004000
-6.606810 5.595650 0.003850
-6.291460 5.595650 0.003788
-5.976110 5.595650 0.003793
-5.660760 5.595650 0.003823
-5.345410 5.595650 0.003846
-5.030060 5.595650 0.003867
-4.714710 5.595650 0.003804
-4.399360 5.595650 0.003814
-4.084010 5.595650 0.003747
-3.768660 5.595650 0.003626
-3.453310 5.595650 0.003550
-3.137960 5.595650 0.003526
-2.822610 5.595650 0.003484
-2.507260 5.595650 0.003438
-2.191910 5.595650 0.003373
-1.876560 5.595650 0.003322
-1.561210 5.595650 0.003293
-1.245860 5.595650 0.003263
-0.930510 5.595650 0.003287
-0.615160 5.595650 0.003434
-0.299810 5.595650 0.003639
0.015540 5.595650 0.003666
0.330890 5.595650 0.003517
0.646240 5.595650 0.003351
0.961589 5.595650 0.003268
1.276940 5.595650 0.003241
1.592289 5.595650 0.003250
1.907640 5.595650 0.003361
2.222990 5.595650 0.003518
2.538340 5.595650 0.003633
2.853690 5.595650 0.003768
3.169039 5.595650 0.003943
3.484390 5.595650 0.004095
3.799739 5.595650 0.004053
4.115090 5.595650 0.003990
4.430439 5.595650 0.004123
4.745790 5.595650 0.004278
5.061140 5.595650 0.004202
5.376490 5.595650 0.003950
5.691840 5.595650 0.004137
6.007189 5.595650 0.004425
6.322540 5.595650 0.005623
6.637889 5.595650 0.008072
6.953240 5.595650 0.013527
7.268589 5.595650 0.024605
7.583940 5.595650 0.047308
7.899290 5.595650 0.094872
8.214640 5.595650 0.173181
8.529989 5.595650 0.260624
8.845339 5.595650 0.377930
9.160688 5.595650 0.500756
9.476040 5.595650 0.612073
9.791389 5.595650 0.728738
10.106739 5.595650 0.816510
10.422089 5.595650 0.922313
10.737438 5.595650 1.002978
11.052790 5.595650 1.072340
11.368139 5.595650 1.130103
11.683489 5.595650 1.191735
11.998838 5.595650 1.239861
12.314190 5.595650 1.283169
12.629539 5.595650 1.304942
12.944889 5.595650 1.290257
13.260239 5.595650 1.243037
13.575588 5.595650 1.250408
13.890940 5.595650 1.235925
14.206289 5.595650 1.240042
14.521639 5.595650 1.284573
14.836988 5.595650 1.330162
15.152340 5.595650 1.356082
15.467690 5.595650 0.000000
15.783039 5.595650 0.000000
16.098389 5.595650 0.000000
16.413738 5.595650 0.000000
16.729090 5.595650 0.000000
17.044439 5.595650 0.000000
17.359789 5.595650 0.000000
17.675138 5.595650 0.000000
17.990490 5.595650 -0.356343
18.305840 5.595650 -0.270019
18.621189 5.595650 -0.181189
18.936539 5.595650 0.000000
19.251888 5.595650 0.000000
-7.237510 5.280300 0.000000
-6.922160 5.280300 0.003968
-6.606810 5.280300 0.003801
-6.291460 5.280300 0.003737
-5.976110 5.280300 0.003717
-5.660760 5.280300 0.003779
-5.345410 5.280300 0.003839
-5.030060 5.280300 0.003875
-4.714710 5.280300 0.003842
-4.399360 5.280300 0.003787
-4.084010 5.280300 0.003768
-3.768660 5.280300 0.003681
-3.453310 5.280300 0.003606
-3.137960 5.280300 0.003513
-2.822610 5.280300 0.003491
-2.507260 5.280300 0.003464
-2.191910 5.280300 0.003407
-1.876560 5.280300 0.003333
-1.561210 5.280300 0.003313
-1.245860 5.280300 0.003351
-0.930510 5.280300 0.003396
-0.615160 5.280300 0.003518
-0.299810 5.280300 0.003673
0.015540 5.280300 0.003709
0.330890 5.280300 0.003623
0.646240 5.280300 0.003517
0.961589 5.280300 0.003449
1.276940 5.280300 0.003393
1.592289 5.280300 0.003364
1.907640 5.280300 0.003547
2.222990 5.280300 0.003761
2.538340 5.280300 0.003904
2.853690 5.280300 0.004024
3.169039 5.280300 0.004185
3.484390 5.280300 0.004277
3.799739 5.280300 0.004240
4.115090 5.280300 0.004129
4.430439 5.280300 0.004173
4.745790 5.280300 0.004315
5.061140 5.280300 0.004256
5.376490 5.280300 0.004219
5.691840 5.280300 0.004265
6.007189 5.280300 0.004921
6.322540 5.280300 0.005945
6.637889 5.280300 0.008084
6.953240 5.280300 0.014130
7.268589 5.280300 0.027480
7.583940 5.280300 0.049472
7.899290 5.280300 0.098599
8.214640 5.280300 0.178327
8.529989 5.280300 0.271410
8.845339 5.280300 0.391970
9.160688 5.280300 0.510419
9.476040 5.280300 0.622611
9.791389 5.280300 0.738845
10.106739 5.280300 0.834492
10.422089 5.280300 0.931827
10.737438 5.280300 1.007435
11.052790 5.280300 1.086942
11.368139 5.280300 1.136308
11.683489 5.280300 1.194731
11.998838 5.280300 1.221566
12.314190 5.280300 1.272941
12.629539 5.280300 1.316350
12.944889 5.280300 1.290698
13.260239 5.280300 1.255886
13.575588 5.280300 1.204556
13.890940 5.280300 1.215430
14.206289 5.280300 1.210753
14.521639 5.280300 1.277369
14.836988 5.280300 1.305049
15.152340 5.280300 1.278422
15.467690 5.280300 0.000000
15.783039 5.280300 0.000000
16.098389 5.280300 0.000000
16.413738 5.280300 0.000000
16.729090 5.280300 0.000000
17.044439 5.280300 0.000000
17.359789 5.280300 0.000000
17.675138 5.280300 0.000000
17.990490 5.280300 -0.157522
18.305840 5.280300 -0.145210
18.621189 5.280300 -0.099876
18.936539 5.280300 0.000000
19.251888 5.280300 0.000000
-7.237510 4.964951 0.000000
-6.922160 4.964951 0.003946
-6.606810 4.964951 0.003821
-6.291460 4.964951 0.003724
-5.976110 4.964951 0.003727
-5.660760 4.964951 0.003756
-5.345410 4.964951 0.003815
-5.030060 4.964951 0.003839
-4.714710 4.964951 0.003816
-4.399360 4.964951 0.003760
-4.084010 4.964951 0.003749
-3.768660 4.964951 0.003745
-3.453310 4.964951 0.003690
-3.137960 4.964951 0.003539
-2.822610 4.964951 0.003504
-2.507260 4.964951 0.003483
-2.191910 4.964951 0.003450
-1.876560 4.964951 0.003401
-1.561210 4.964951 0.003431
-1.245860 4.964951 0.003528
-0.930510 4.964951 0.003585
-0.615160 4.964951 0.003607
-0.299810 4.964951 0.003664
0.015540 4.964951 0.003675
0.330890 4.964951 0.003713
0.646240 4.964951 0.003722
0.961589 4.964951 0.003682
1.276940 4.964951 0.003595
1.592289 4.964951 0.003592
1.907640 4.964951 0.003804
2.222990 4.964951 0.004027
2.538340 4.964951 0.004158
2.853690 4.964951 0.004279
3.169039 4.964951 0.004391
3.484390 4.964951 0.004476
3.799739 4.964951 0.004450
4.115090 4.964951 0.004351
4.430439 4.964951 0.004348
4.745790 4.964951 0.004395
5.061140 4.964951 0.004361
5.376490 4.964951 0.004554
5.691840 4.964951 0.004804
6.007189 4.964951 0.005046
6.322540 4.964951 0.006040
6.637889 4.964951 0.008555
6.953240 4.964951 0.014087
7.268589 4.964951 0.028074
7.583940 4.964951 0.052721
7.899290 4.964951 0.104374
8.214640 4.964951 0.181973
8.529989 4.964951 0.281770
8.845339 4.964951 0.399287
9.160688 4.964951 0.519797
9.476040 4.964951 0.627544
9.791389 4.964951 0.746063
10.106739 4.964951 0.852920
10.422089 4.964951 0.945965
10.737438 4.964951 1.022757
11.052790 4.964951 1.080090
11.368139 4.964951 1.105357
11.683489 4.964951 1.154167
11.998838 4.964951 1.215274
12.314190 4.964951 1.260200
12.629539 4.964951 1.283947
12.944889 4.964951 1.281101
13.260239 4.964951 1.234045
13.575588 4.964951 1.224549
13.890940 4.964951 1.228774
14.206289 4.964951 1.262297
14.521639 4.964951 1.314289
14.836988 4.964951 1.247997
15.152340 4.964951 1.199765
15.467690 4.964951 0.000000
15.783039 4.964951 0.000000
16.098389 4.964951 0.000000
16.413738 4.964951 0.000000
16.729090 4.964951 0.000000
17.044439 4.964951 0.000000
17.359789 4.964951 0.000000
17.675138 4.964951 0.000000
17.990490 4.964951 0.058332
18.305840 4.964951 0.010081
18.621189 4.964951 -0.053129
18.936539 4.964951 0.000000
19.251888 4.964951 0.000000
-7.237510 4.649601 0.000000
-6.922160 4.649601 0.003921
-6.606810 4.649601 0.003840
-6.291460 4.649601 0.003742
-5.976110 4.649601 0.003718
-5.660760 4.649601 0.003710
-5.345410 4.649601 0.003742
-5.030060 4.649601 0.003788
-4.714710 4.649601 0.003784
-4.399360 4.649601 0.003710
-4.084010 4.649601 0.003729
-3.768660 4.649601 0.003833
-3.453310 4.649601 0.003769
-3.137960 4.649601 0.003574
-2.822610 4.649601 0.003514
-2.507260 4.649601 0.003536
-2.191910 4.649601 0.003514
-1.876560 4.649601 0.003521
-1.561210 4.649601 0.003618
-1.245860 4.649601 0.003760
-0.930510 4.649601 0.003794
-0.615160 4.649601 0.003716
-0.299810 4.649601 0.003661
0.015540 4.649601 0.003703
0.330890 4.649601 0.003824
0.646240 4.649601 0.003973
0.961589 4.649601 0.003971
1.276940 4.649601 0.003904
1.592289 4.649601 0.003927
1.907640 4.649601 0.004163
2.222990 4.649601 0.004350
2.538340 4.649601 0.004405
2.853690 4.649601 0.004533
3.169039 4.649601 0.004615
3.484390 4.649601 0.004693
3.799739 4.649601 0.004716
4.115090 4.649601 0.004675
4.430439 4.649601 0.004650
4.745790 4.649601 0.004598
5.061140 4.649601 0.004655
5.376490 4.649601 0.005043
5.691840 4.649601 0.005076
6.007189 4.649601 0.005032
6.322540 4.649601 0.006004
6.637889 4.649601 0.009437
6.953240 4.649601 0.014771
7.268589 4.649601 0.027969
7.583940 4.649601 0.056924
7.899290 4.649601 0.111856
8.214640 4.649601 0.195480
8.529989 4.649601 0.295989
8.845339 4.649601 0.412989
9.160688 4.649601 0.535898
9.476040 4.649601 0.640894
9.791389 4.649601 0.754656
10.106739 4.649601 0.855075
10.422089 4.649601 0.938453
10.737438 4.649601 1.014044
11.052790 4.649601 1.084075
11.368139 4.649601 1.119029
11.683489 4.649601 1.160831
11.998838 4.649601 1.213296
12.314190 4.649601 1.254206
12.629539 4.649601 1.232645
12.944889 4.649601 1.254018
13.260239 4.649601 1.204760
13.575588 4.649601 1.231172
13.890940 4.649601 1.231393
14.206289 4.649601 1.242420
14.521639 4.649601 1.256806
14.836988 4.649601 1.240130
15.152340 4.649601 1.185008
15.467690 4.649601 0.000000
15.783039 4.649601 0.000000
16.098389 4.649601 0.000000
16.413738 4.649601 0.000000
16.729090 4.649601 0.000000
17.044439 4.649601 0.000000
17.359789 4.649601 0.000000
17.675138 4.649601 0.000000
17.990490 4.649601 0.228812
18.305840 4.649601 0.173508
18.621189 4.649601 0.095936
18.936539 4.649601 0.000000
19.251888 4.649601 0.000000
-7.237510 4.334251 0.000000
-6.922160 4.334251 0.003906
-6.606810 4.334251 0.003830
-6.291460 4.334251 0.003754
-5.976110 4.334251 0.003683
-5.660760 4.334251 0.003640
-5.345410 4.334251 0.003653
-5.030060 4.334251 0.003748
-4.714710 4.334251 0.003776
-4.399360 4.334251 0.003667
-4.084010 4.334251 0.003707
-3.768660 4.334251 0.003900
-3.453310 4.334251 0.003861
-3.137960 4.334251 0.003651
-2.822610 4.334251 0.003537
-2.507260 4.334251 0.003584
-2.191910 4.334251 0.003626
-1.876560 4.334251 0.003682
-1.561210 4.334251 0.003808
-1.245860 4.334251 0.003969
-0.930510 4.334251 0.004002
-0.615160 4.334251 0.003843
-0.299810 4.334251 0.003703
0.015540 4.334251 0.003770
0.330890 4.334251 0.003969
0.646240 4.334251 0.004216
0.961589 4.334251 0.004286
1.276940 4.334251 0.004291
1.592289 4.334251 0.004325
1.907640 4.334251 0.004522
2.222990 4.334251 0.004621
2.538340 4.334251 0.004673
2.853690 4.334251 0.004785
3.169039 4.334251 0.004873
3.484390 4.334251 0.004957
3.799739 4.334251 0.005032
4.115090 4.334251 0.005063
4.430439 4.334251 0.004985
4.745790 4.334251 0.004854
5.061140 4.334251 0.004829
5.376490 4.334251 0.005050
5.691840 4.334251 0.005015
6.007189 4.334251 0.005227
6.322540 4.334251 0.006822
6.637889 4.334251 0.009232
6.953240 4.334251 0.015569
7.268589 4.334251 0.027097
7.583940 4.334251 0.056812
7.899290 4.334251 0.117661
8.214640 4.334251 0.202638
8.529989 4.334251 0.306949
8.845339 4.334251 0.428913
9.160688 4.334251 0.552624
9.476040 4.334251 0.665086
9.791389 4.334251 0.760465
10.106739 4.334251 0.855781
10.422089 4.334251 0.944372
10.737438 4.334251 1.026618
11.052790 4.334251 1.065361
11.368139 4.334251 1.102884
11.683489 4.334251 1.160811
11.998838 4.334251 1.170393
12.314190 4.334251 1.210433
12.629539 4.334251 1.225632
12.944889 4.334251 1.242165
13.260239 4.334251 1.189084
13.575588 4.334251 1.222253
13.890940 4.334251 1.216939
14.206289 4.334251 1.228166
14.521639 4.334251 1.292200
14.836988 4.334251 1.342812
15.152340 4.334251 1.271556
15.467690 4.334251 0.000000
15.783039 4.334251 0.000000
16.098389 4.334251 0.000000
16.413738 4.334251 0.000000
16.729090 4.334251 0.000000
17.044439 4.334251 0.000000
17.359789 4.334251 0.000000
17.675138 4.334251 0.000000
17.990490 4.334251 0.382330
18.305840 4.334251 0.307201
18.621189 4.334251 0.204729
18.936539 4.334251 0.000000
19.251888 4.334251 0.000000
-7.237510 4.018902 0.000000
-6.922160 4.018902 0.003894
-6.606810 4.018902 0.003809
-6.291460 4.018902 0.003728
-5.976110 4.018902 0.003652
-5.660760 4.018902 0.003589
-5.345410 4.018902 0.003617
-5.030060 4.018902 0.003747
-4.714710 4.018902 0.003800
-4.399360 4.018902 0.003679
-4.084010 4.018902 0.003712
-3.768660 4.018902 0.003933
-3.453310 4.018902 0.003957
-3.137960 4.018902 0.003775
-2.822610 4.018902 0.003664
-2.507260 4.018902 0.003718
-2.191910 4.018902 0.003814
-1.876560 4.018902 0.003833
-1.561210 4.018902 0.003945
-1.245860 4.018902 0.004114
-0.930510 4.018902 0.004191
-0.615160 4.018902 0.004013
-0.299810 4.018902 0.003845
0.015540 4.018902 0.003944
0.330890 4.018902 0.004210
0.646240 4.018902 0.004475
0.961589 4.018902 0.004580
1.276940 4.018902 0.004653
1.592289 4.018902 0.004718
1.907640 4.018902 0.004869
2.222990 4.018902 0.004861
2.538340 4.018902 0.004893
2.853690 4.018902 0.004996
3.169039 4.018902 0.005083
3.484390 4.018902 0.005135
3.799739 4.018902 0.005277
4.115090 4.018902 0.005347
4.430439 4.018902 0.005273
4.745790 4.018902 0.005060
5.061140 4.018902 0.005011
5.376490 4.018902 0.005041
5.691840 4.018902 0.005021
6.007189 4.018902 0.005195
6.322540 4.018902 0.006963
6.637889 4.018902 0.009488
6.953240 4.018902 0.015317
7.268589 4.018902 0.028523
7.583940 4.018902 0.058256
7.899290 4.018902 0.118531
8.214640 4.018902 0.207836
8.529989 4.018902 0.317317
8.845339 4.018902 0.434130
9.160688 4.018902 0.565339
9.476040 4.018902 0.678265
9.791389 4.018902 0.777320
10.106739 4.018902 0.868328
10.422089 4.018902 0.968971
10.737438 4.018902 1.040905
11.052790 4.018902 1.080515
11.368139 4.018902 1.136330
11.683489 4.018902 1.170409
11.998838 4.018902 1.216258
12.314190 4.018902 1.217455
12.629539 4.018902 1.242693
12.944889 4.018902 1.232324
13.260239 4.018902 1.204577
13.575588 4.018902 1.183405
13.890940 4.018902 1.205070
14.206289 4.018902 1.215871
14.521639 4.018902 1.290433
14.836988 4.018902 1.475276
15.152340 4.018902 1.416802
15.467690 4.018902 0.000000
15.783039 4.018902 0.000000
16.098389 4.018902 0.000000
16.413738 4.018902 0.000000
16.729090 4.018902 0.000000
17.044439 4.018902 0.000000
17.359789 4.018902 0.000000
17.675138 4.018902 0.000000
17.990490 4.018902 0.429254
18.305840 4.018902 0.365027
18.621189 4.018902 0.243252
18.936539 4.018902 0.000000
19.251888 4.018902 0.000000
-7.237510 3.703552 0.000000
-6.922160 3.703552 0.003865
-6.606810 3.703552 0.003750
-6.291460 3.703552 0.003694
-5.976110 3.703552 0.003676
-5.660760 3.703552 0.003608
-5.345410 3.703552 0.003630
-5.030060 3.703552 0.003779
-4.714710 3.703552 0.003856
-4.399360 3.703552 0.003711
-4.084010 3.703552 0.003735
-3.768660 3.703552 0.003946
-3.453310 3.703552 0.004022
-3.137960 3.703552 0.003884
-2.822610 3.703552 0.003805
-2.507260 3.703552 0.003918
-2.191910 3.703552 0.004013
-1.876560 3.703552 0.004011
-1.561210 3.703552 0.004043
-1.245860 3.703552 0.004255
-0.930510 3.703552 0.004328
-0.615160 3.703552 0.004216
-0.299810 3.703552 0.004090
0.015540 3.703552 0.004230
0.330890 3.703552 0.004521
0.646240 3.703552 0.004755
0.961589 3.703552 0.004873
1.276940 3.703552 0.004996
1.592289 3.703552 0.005082
1.907640 3.703552 0.005126
2.222990 3.703552 0.005073
2.538340 3.703552 0.005083
2.853690 3.703552 0.005151
3.169039 3.703552 0.005208
3.484390 3.703552 0.005233
3.799739 3.703552 0.005443
4.115090 3.703552 0.005504
4.430439 3.703552 0.005414
4.745790 3.703552 0.005233
5.061140 3.703552 0.005087
5.376490 3.703552 0.004836
5.691840 3.703552 0.004781
6.007189 3.703552 0.005393
6.322540 3.703552 0.007141
6.637889 3.703552 0.010180
6.953240 3.703552 0.015475
7.268589 3.703552 0.031382
7.583940 3.703552 0.061926
7.899290 3.703552 0.120113
8.214640 3.703552 0.211334
8.529989 3.703552 0.326043
8.845339 3.703552 0.444464
9.160688 3.703552 0.570849
9.476040 3.703552 0.686811
9.791389 3.703552 0.787943
10.106739 3.703552 0.871710
10.422089 3.703552 0.970365
10.737438 3.703552 1.048275
11.052790 3.703552 1.099954
11.368139 3.703552 1.166194
11.683489 3.703552 1.201739
11.998838 3.703552 1.239583
12.314190 3.703552 1.226202
12.629539 3.703552 1.221749
12.944889 3.703552 1.235055
13.260239 3.703552 1.219672
13.575588 3.703552 1.199557
13.890940 3.703552 1.221246
14.206289 3.703552 1.187110
14.521639 3.703552 1.252271
14.836988 3.703552 1.442667
15.152340 3.703552 1.475753
15.467690 3.703552 0.000000
15.783039 3.703552 0.000000
16.098389 3.703552 0.000000
16.413738 3.703552 0.000000
16.729090 3.703552 0.000000
17.044439 3.703552 0.000000
17.359789 3.703552 0.000000
17.675138 3.703552 0.000000
17.990490 3.703552 0.376668
18.305840 3.703552 0.391303
18.621189 3.703552 0.252670
18.936539 3.703552 0.000000
19.251888 3.703552 0.000000
-7.237510 3.388203 0.000000
-6.922160 3.388203 0.003849
-6.606810 3.388203 0.003726
-6.291460 3.388203 0.003728
-5.976110 3.388203 0.003761
-5.660760 3.388203 0.003712
-5.345410 3.388203 0.003714
-5.030060 3.388203 0.003821
-4.714710 3.388203 0.003888
-4.399360 3.388203 0.003820
-4.084010 3.388203 0.003808
-3.768660 3.388203 0.003966
-3.453310 3.388203 0.004077
-3.137960 3.388203 0.004003
-2.822610 3.388203 0.004010
-2.507260 3.388203 0.004142
-2.191910 3.388203 0.004247
-1.876560 3.388203 0.004185
-1.561210 3.388203 0.004160
-1.245860 3.388203 0.004378
-0.930510 3.388203 0.004492
-0.615160 3.388203 0.004457
-0.299810 3.388203 0.004427
0.015540 3.388203 0.004576
0.330890 3.388203 0.004837
0.646240 3.388203 0.005058
0.961589 3.388203 0.005144
1.276940 3.388203 0.005268
1.592289 3.388203 0.005365
1.907640 3.388203 0.005362
2.222990 3.388203 0.005271
2.538340 3.388203 0.005228
2.853690 3.388203 0.005225
3.169039 3.388203 0.005203
3.484390 3.388203 0.005216
3.799739 3.388203 0.005470
4.115090 3.388203 0.005568
4.430439 3.388203 0.005376
4.745790 3.388203 0.005198
5.061140 3.388203 0.005121
5.376490 3.388203 0.004951
5.691840 3.388203 0.004766
6.007189 3.388203 0.005306
6.322540 3.388203 0.007290
6.637889 3.388203 0.010536
6.953240 3.388203 0.015934
7.268589 3.388203 0.033022
7.583940 3.388203 0.068268
7.899290 3.388203 0.129687
8.214640 3.388203 0.218259
8.529989 3.388203 0.330335
8.845339 3.388203 0.453848
9.160688 3.388203 0.579998
9.476040 3.388203 0.684864
9.791389 3.388203 0.791260
10.106739 3.388203 0.886977
10.422089 3.388203 0.979386
10.737438 3.388203 1.058231
11.052790 3.388203 1.140599
11.368139 3.388203 1.159527
11.683489 3.388203 1.209619
11.998838 3.388203 1.245266
12.314190 3.388203 1.215650
12.629539 3.388203 1.189980
12.944889 3.388203 1.191595
13.260239 3.388203 1.200452
13.575588 3.388203 1.168641
13.890940 3.388203 1.215650
14.206289 3.388203 1.220140
14.521639 3.388203 1.220891
14.836988 3.388203 1.364218
15.152340 3.388203 1.208635
15.467690 3.388203 0.000000
15.783039 3.388203 0.000000
16.098389 3.388203 0.000000
16.413738 3.388203 0.000000
16.729090 3.388203 0.000000
17.044439 3.388203 0.000000
17.359789 3.388203 0.000000
17.675138 3.388203 0.000000
17.990490 3.388203 0.353206
18.305840 3.388203 0.314312
18.621189 3.388203 0.201790
18.936539 3.388203 0.000000
19.251888 3.388203 0.000000
-7.237510 3.072849 0.000000
-6.922160 3.072849 0.003854
-6.606810 3.072849 0.003781
-6.291460 3.072849 0.003810
-5.976110 3.072849 0.003909
-5.660760 3.072849 0.003906
-5.345410 3.072849 0.003868
-5.030060 3.072849 0.003894
-4.714710 3.072849 0.003945
-4.399360 3.072849 0.003894
-4.084010 3.072849 0.003920
-3.768660 3.072849 0.004059
-3.453310 3.072849 0.004177
-3.137960 3.072849 0.004174
-2.822610 3.072849 0.004223
-2.507260 3.072849 0.004386
-2.191910 3.072849 0.004460
-1.876560 3.072849 0.004341
-1.561210 3.072849 0.004314
-1.245860 3.072849 0.004501
-0.930510 3.072849 0.004624
-0.615160 3.072849 0.004698
-0.299810 3.072849 0.004749
0.015540 3.072849 0.004942
0.330890 3.072849 0.005104
0.646240 3.072849 0.005275
0.961589 3.072849 0.005361
1.276940 3.072849 0.005474
1.592289 3.072849 0.005542
1.907640 3.072849 0.005511
2.222990 3.072849 0.005438
2.538340 3.072849 0.005326
2.853690 3.072849 0.005232
3.169039 3.072849 0.005162
3.484390 3.072849 0.005147
3.799739 3.072849 0.005430
4.115090 3.072849 0.005562
4.430439 3.072849 0.005410
4.745790 3.072849 0.005213
5.061140 3.072849 0.005059
5.376490 3.072849 0.004770
5.691840 3.072849 0.004862
6.007189 3.072849 0.005309
6.322540 3.072849 0.006993
6.637889 3.072849 0.011014
6.953240 3.072849 0.018163
7.268589 3.072849 0.036127
7.583940 3.072849 0.074745
7.899290 3.072849 0.138553
8.214640 3.072849 0.227410
8.529989 3.072849 0.339837
8.845339 3.072849 0.469112
9.160688 3.072849 0.592465
9.476040 3.072849 0.694763
9.791389 3.072849 0.790654
10.106739 3.072849 0.892727
10.422089 3.072849 0.979669
10.737438 3.072849 1.068580
11.052790 3.072849 1.141270
11.368139 3.072849 1.177233
11.683489 3.072849 1.219086
11.998838 3.072849 1.229638
12.314190 3.072849 1.212261
12.629539 3.072849 1.186017
12.944889 3.072849 1.190310
13.260239 3.072849 1.209471
13.575588 3.072849 1.196388
13.890940 3.072849 1.184490
14.206289 3.072849 1.217914
14.521639 3.072849 1.171958
14.836988 3.072849 1.261536
15.152340 3.072849 0.000000
15.467690 3.072849 0.000000
15.783039 3.072849 0.000000
16.098389 3.072849 0.000000
16.413738 3.072849 0.000000
16.729090 3.072849 0.000000
17.044439 3.072849 0.000000
17.359789 3.072849 0.000000
17.675138 3.072849 0.000000
17.990490 3.072849 0.313661
18.305840 3.072849 0.267547
18.621189 3.072849 0.143246
18.936539 3.072849 0.000000
19.251888 3.072849 0.000000
-7.237510 2.757500 0.000000
-6.922160 2.757500 0.003922
-6.606810 2.757500 0.003895
-6.291460 2.757500 0.003959
-5.976110 2.757500 0.004084
-5.660760 2.757500 0.004126
-5.345410 2.757500 0.004066
-5.030060 2.757500 0.003993
-4.714710 2.757500 0.004022
-4.399360 2.757500 0.004060
-4.084010 2.757500 0.004109
-3.768660 2.757500 0.004207
-3.453310 2.757500 0.004325
-3.137960 2.757500 0.004359
-2.822610 2.757500 0.004464
-2.507260 2.757500 0.004634
-2.191910 2.757500 0.004655
-1.876560 2.757500 0.004550
-1.561210 2.757500 0.004524
-1.245860 2.757500 0.004675
-0.930510 2.757500 0.004826
-0.615160 2.757500 0.004927
-0.299810 2.757500 0.005060
0.015540 2.757500 0.005201
0.330890 2.757500 0.005284
0.646240 2.757500 0.005396
0.961589 2.757500 0.005498
1.276940 2.757500 0.005607
1.592289 2.757500 0.005635
1.907640 2.757500 0.005600
2.222990 2.757500 0.005574
2.538340 2.757500 0.005426
2.853690 2.757500 0.005246
3.169039 2.757500 0.005123
3.484390 2.757500 0.005095
3.799739 2.757500 0.005362
4.115090 2.757500 0.005538
4.430439 2.757500 0.005413
4.745790 2.757500 0.005260
5.061140 2.757500 0.005069
5.376490 2.757500 0.004826
5.691840 2.757500 0.004855
6.007189 2.757500 0.005448
6.322540 2.757500 0.007592
6.637889 2.757500 0.011211
6.953240 2.757500 0.020062
7.268589 2.757500 0.037550
7.583940 2.757500 0.079936
7.899290 2.757500 0.145459
8.214640 2.757500 0.233446
8.529989 2.757500 0.355883
8.845339 2.757500 0.485989
9.160688 2.757500 0.609006
9.476040 2.757500 0.709201
9.791389 2.757500 0.803485
10.106739 2.757500 0.899379
10.422089 2.757500 0.990903
10.737438 2.757500 1.055725
11.052790 2.757500 1.144014
11.368139 2.757500 1.190347
11.683489 2.757500 1.210145
11.998838 2.757500 1.208824
12.314190 2.757500 1.176029
12.629539 2.757500 1.182221
12.944889 2.757500 1.179014
13.260239 2.757500 1.190240
13.575588 2.757500 1.195743
13.890940 2.757500 1.184152
14.206289 2.757500 1.188846
14.521639 2.757500 1.177662
14.836988 2.757500 1.229575
15.152340 2.757500 0.000000
15.467690 2.757500 0.000000
15.783039 2.757500 0.000000
16.098389 2.757500 0.000000
16.413738 2.757500 0.000000
16.729090 2.757500 0.000000
17.044439 2.757500 0.000000
17.359789 2.757500 0.000000
17.675138 2.757500 0.000000
17.990490 2.757500 0.351034
18.305840 2.757500 0.242487
18.621189 2.757500 0.140822
18.936539 2.757500 0.000000
19.251888 2.757500 0.000000
-7.237510 2.442150 0.000000
-6.922160 2.442150 0.004042
-6.606810 2.442150 0.004039
-6.291460 2.442150 0.004090
-5.976110 2.442150 0.004246
-5.660760 2.442150 0.004335
-5.345410 2.442150 0.004256
-5.030060 2.442150 0.004111
-4.714710 2.442150 0.004135
-4.399360 2.442150 0.004263
-4.084010 2.442150 0.004357
-3.768660 2.442150 0.004414
-3.453310 2.442150 0.004482
-3.137960 2.442150 0.004551
-2.822610 2.442150 0.004693
-2.507260 2.442150 0.004856
-2.191910 2.442150 0.004921
-1.876560 2.442150 0.004893
-1.561210 2.442150 0.004850
-1.245860 2.442150 0.004976
-0.930510 2.442150 0.005068
-0.615160 2.442150 0.005150
-0.299810 2.442150 0.005323
0.015540 2.442150 0.005416
0.330890 2.442150 0.005372
0.646240 2.442150 0.005425
0.961589 2.442150 0.005537
1.276940 2.442150 0.005649
1.592289 2.442150 0.005642
1.907640 2.442150 0.005623
2.222990 2.442150 0.005639
2.538340 2.442150 0.005515
2.853690 2.442150 0.005291
3.169039 2.442150 0.005123
3.484390 2.442150 0.005073
3.799739 2.442150 0.005307
4.115090 2.442150 0.005512
4.430439 2.442150 0.005491
4.745790 2.442150 0.005315
5.061140 2.442150 0.005020
5.376490 2.442150 0.004717
5.691840 2.442150 0.004760
6.007189 2.442150 0.005634
6.322540 2.442150 0.007749
6.637889 2.442150 0.011607
6.953240 2.442150 0.020915
7.268589 2.442150 0.040612
7.583940 2.442150 0.085144
7.899290 2.442150 0.156284
8.214640 2.442150 0.249333
8.529989 2.442150 0.362624
8.845339 2.442150 0.492430
9.160688 2.442150 0.606582
9.476040 2.442150 0.719450
9.791389 2.442150 0.807245
10.106739 2.442150 0.903801
10.422089 2.442150 1.001390
10.737438 2.442150 1.063461
11.052790 2.442150 1.126423
11.368139 2.442150 1.180673
11.683489 2.442150 1.212468
11.998838 2.442150 1.192766
12.314190 2.442150 1.162376
12.629539 2.442150 1.168792
12.944889 2.442150 1.176678
13.260239 2.442150 1.181534
13.575588 2.442150 1.196274
13.890940 2.442150 1.167179
14.206289 2.442150 1.209875
14.521639 2.442150 1.205285
14.836988 2.442150 1.242788
15.152340 2.442150 0.000000
15.467690 2.442150 0.000000
15.783039 2.442150 0.000000
16.098389 2.442150 0.000000
16.413738 2.442150 0.000000
16.729090 2.442150 0.000000
17.044439 2.442150 0.000000
17.359789 2.442150 0.000000
17.675138 2.442150 0.000000
17.990490 2.442150 0.424125
18.305840 2.442150 0.278490
18.621189 2.442150 0.083344
18.936539 2.442150 0.000000
19.251888 2.442150 0.000000
-7.237510 2.126801 0.000000
-6.922160 2.126801 0.004192
-6.606810 2.126801 0.004204
-6.291460 2.126801 0.004231
-5.976110 2.126801 0.004361
-5.660760 2.126801 0.004465
-5.345410 2.126801 0.004435
-5.030060 2.126801 0.004315
-4.714710 2.126801 0.004355
-4.399360 2.126801 0.004559
-4.084010 2.126801 0.004656
-3.768660 2.126801 0.004662
-3.453310 2.126801 0.004662
-3.137960 2.126801 0.004713
-2.822610 2.126801 0.004896
-2.507260 2.126801 0.005071
-2.191910 2.126801 0.005166
-1.876560 2.126801 0.005238
-1.561210 2.126801 0.005217
-1.245860 2.126801 0.005278
-0.930510 2.126801 0.005308
-0.615160 2.126801 0.005376
-0.299810 2.126801 0.005549
0.015540 2.126801 0.005581
0.330890 2.126801 0.005448
0.646240 2.126801 0.005438
0.961589 2.126801 0.005511
1.276940 2.126801 0.005615
1.592289 2.126801 0.005578
1.907640 2.126801 0.005588
2.222990 2.126801 0.005657
2.538340 2.126801 0.005597
2.853690 2.126801 0.005411
3.169039 2.126801 0.005237
3.484390 2.126801 0.005166
3.799739 2.126801 0.005229
4.115090 2.126801 0.005390
4.430439 2.126801 0.005438
4.745790 2.126801 0.005394
5.061140 2.126801 0.005010
5.376490 2.126801 0.004809
5.691840 2.126801 0.004913
6.007189 2.126801 0.005582
6.322540 2.126801 0.007783
6.637889 2.126801 0.011889
6.953240 2.126801 0.020090
7.268589 2.126801 0.040941
7.583940 2.126801 0.087385
7.899290 2.126801 0.162047
8.214640 2.126801 0.254725
8.529989 2.126801 0.375803
8.845339 2.126801 0.502873
9.160688 2.126801 0.615099
9.476040 2.126801 0.731971
9.791389 2.126801 0.823801
10.106739 2.126801 0.920459
10.422089 2.126801 1.006677
10.737438 2.126801 1.055838
11.052790 2.126801 1.092329
11.368139 2.126801 1.162896
11.683489 2.126801 1.193036
11.998838 2.126801 1.183108
12.314190 2.126801 1.175833
12.629539 2.126801 1.183622
12.944889 2.126801 1.176664
13.260239 2.126801 1.179561
13.575588 2.126801 1.180666
13.890940 2.126801 1.204688
14.206289 2.126801 1.262453
14.521639 2.126801 1.292868
14.836988 2.126801 1.299089
15.152340 2.126801 0.000000
15.467690 2.126801 0.000000
15.783039 2.126801 0.000000
16.098389 2.126801 0.000000
16.413738 2.126801 0.000000
16.729090 2.126801 0.000000
17.044439 2.126801 0.000000
17.359789 2.126801 0.000000
17.675138 2.126801 0.000000
17.990490 2.126801 0.506754
18.305840 2.126801 0.362635
18.621189 2.126801 0.174678
18.936539 2.126801 0.000000
19.251888 2.126801 0.000000
-7.237510 1.811451 0.000000
-6.922160 1.811451 0.004336
-6.606810 1.811451 0.004345
-6.291460 1.811451 0.004338
-5.976110 1.811451 0.004440
-5.660760 1.811451 0.004545
-5.345410 1.811451 0.004593
-5.030060 1.811451 0.004540
-4.714710 1.811451 0.004639
-4.399360 1.811451 0.004843
-4.084010 1.811451 0.004933
-3.768660 1.811451 0.004887
-3.453310 1.811451 0.004844
-3.137960 1.811451 0.004901
-2.822610 1.811451 0.005086
-2.507260 1.811451 0.005217
-2.191910 1.811451 0.005398
-1.876560 1.811451 0.005566
-1.561210 1.811451 0.005561
-1.245860 1.811451 0.005535
-0.930510 1.811451 0.005460
-0.615160 1.811451 0.005531
-0.299810 1.811451 0.005714
0.015540 1.811451 0.005797
0.330890 1.811451 0.005593
0.646240 1.811451 0.005503
0.961589 1.811451 0.005500
1.276940 1.811451 0.005522
1.592289 1.811451 0.005472
1.907640 1.811451 0.005526
2.222990 1.811451 0.005667
2.538340 1.811451 0.005692
2.853690 1.811451 0.005585
3.169039 1.811451 0.005421
3.484390 1.811451 0.005260
3.799739 1.811451 0.005152
4.115090 1.811451 0.005216
4.430439 1.811451 0.005303
4.745790 1.811451 0.005316
5.061140 1.811451 0.005055
5.376490 1.811451 0.005060
5.691840 1.811451 0.005188
6.007189 1.811451 0.006301
6.322540 1.811451 0.007838
6.637889 1.811451 0.012983
6.953240 1.811451 0.021834
7.268589 1.811451 0.043480
7.583940 1.811451 0.089461
7.899290 1.811451 0.163640
8.214640 1.811451 0.261680
8.529989 1.811451 0.382854
8.845339 1.811451 0.501412
9.160688 1.811451 0.624485
9.476040 1.811451 0.740652
9.791389 1.811451 0.826418
10.106739 1.811451 0.931843
10.422089 1.811451 1.023638
10.737438 1.811451 1.076592
11.052790 1.811451 1.113574
11.368139 1.811451 1.143253
11.683489 1.811451 1.192249
11.998838 1.811451 1.190443
12.314190 1.811451 1.171932
12.629539 1.811451 1.187652
12.944889 1.811451 1.196969
13.260239 1.811451 1.170535
13.575588 1.811451 1.178616
13.890940 1.811451 1.238404
14.206289 1.811451 1.266463
14.521639 1.811451 1.317036
14.836988 1.811451 0.000000
15.152340 1.811451 0.000000
15.467690 1.811451 0.000000
15.783039 1.811451 0.000000
16.098389 1.811451 0.000000
16.413738 1.811451 0.000000
16.729090 1.811451 0.000000
17.044439 1.811451 0.000000
17.359789 1.811451 0.000000
17.675138 1.811451 0.000000
17.990490 1.811451 0.511108
18.305840 1.811451 0.477684
18.621189 1.811451 0.181790
18.936539 1.811451 0.000000
19.251888 1.811451 0.000000
-7.237510 1.496101 0.000000
-6.922160 1.496101 0.004409
-6.606810 1.496101 0.004475
-6.291460 1.496101 0.004475
-5.976110 1.496101 0.004517
-5.660760 1.496101 0.004616
-5.345410 1.496101 0.004713
-5.030060 1.496101 0.004797
-4.714710 1.496101 0.004902
-4.399360 1.496101 0.005088
-4.084010 1.496101 0.005146
-3.768660 1.496101 0.005127
-3.453310 1.496101 0.005060
-3.137960 1.496101 0.005113
-2.822610 1.496101 0.005218
-2.507260 1.496101 0.005306
-2.191910 1.496101 0.005567
-1.876560 1.496101 0.005797
-1.561210 1.496101 0.005866
-1.245860 1.496101 0.005770
-0.930510 1.496101 0.005561
-0.615160 1.496101 0.005649
-0.299810 1.496101 0.005860
0.015540 1.496101 0.005966
0.330890 1.496101 0.005815
0.646240 1.496101 0.005614
0.961589 1.496101 0.005525
1.276940 1.496101 0.005501
1.592289 1.496101 0.005482
1.907640 1.496101 0.005550
2.222990 1.496101 0.005681
2.538340 1.496101 0.005778
2.853690 1.496101 0.005799
3.169039 1.496101 0.005637
3.484390 1.496101 0.005371
3.799739 1.496101 0.005103
4.115090 1.496101 0.005043
4.430439 1.496101 0.005161
4.745790 1.496101 0.005243
5.061140 1.496101 0.005080
5.376490 1.496101 0.005207
5.691840 1.496101 0.005470
6.007189 1.496101 0.005819
6.322540 1.496101 0.007520
6.637889 1.496101 0.012611
6.953240 1.496101 0.022750
7.268589 1.496101 0.044589
7.583940 1.496101 0.092165
7.899290 1.496101 0.170780
8.214640 1.496101 0.266909
8.529989 1.496101 0.388156
8.845339 1.496101 0.510363
9.160688 1.496101 0.628004
9.476040 1.496101 0.739949
9.791389 1.496101 0.834276
10.106739 1.496101 0.939335
10.422089 1.496101 1.040081
10.737438 1.496101 1.078814
11.052790 1.496101 1.111729
11.368139 1.496101 1.151852
11.683489 1.496101 1.180578
11.998838 1.496101 1.176249
12.314190 1.496101 1.168886
12.629539 1.496101 1.197896
12.944889 1.496101 1.184604
13.260239 1.496101 1.155796
13.575588 1.496101 1.136577
13.890940 1.496101 1.230030
14.206289 1.496101 1.252453
14.521639 1.496101 1.319719
14.836988 1.496101 0.000000
15.152340 1.496101 0.000000
15.467690 1.496101 0.000000
15.783039 1.496101 0.000000
16.098389 1.496101 0.000000
16.413738 1.496101 0.000000
16.729090 1.496101 0.000000
17.044439 1.496101 0.000000
17.359789 1.496101 0.000000
17.675138 1.496101 0.000000
17.990490 1.496101 0.567807
18.305840 1.496101 0.642986
18.621189 1.496101 0.126333
18.936539 1.496101 0.000000
19.251888 1.496101 0.000000
-7.237510 1.180752 0.000000
-6.922160 1.180752 0.004535
-6.606810 1.180752 0.004627
-6.291460 1.180752 0.004644
-5.976110 1.180752 0.004666
-5.660760 1.180752 0.004758
-5.345410 1.180752 0.004830
-5.030060 1.180752 0.004987
-4.714710 1.180752 0.005165
-4.399360 1.180752 0.005264
-4.084010 1.180752 0.005296
-3.768660 1.180752 0.005307
-3.453310 1.180752 0.005295
-3.137960 1.180752 0.005298
-2.822610 1.180752 0.005357
-2.507260 1.180752 0.005431
-2.191910 1.180752 0.005682
-1.876560 1.180752 0.006025
-1.561210 1.180752 0.006122
-1.245860 1.180752 0.005967
-0.930510 1.180752 0.005729
-0.615160 1.180752 0.005809
-0.299810 1.180752 0.006026
0.015540 1.180752 0.006139
0.330890 1.180752 0.005982
0.646240 1.180752 0.005796
0.961589 1.180752 0.005644
1.276940 1.180752 0.005547
1.592289 1.180752 0.005606
1.907640 1.180752 0.005644
2.222990 1.180752 0.005689
2.538340 1.180752 0.005834
2.853690 1.180752 0.005934
3.169039 1.180752 0.005767
3.484390 1.180752 0.005411
3.799739 1.180752 0.005005
4.115090 1.180752 0.004865
4.430439 1.180752 0.005006
4.745790 1.180752 0.005064
5.061140 1.180752 0.004983
5.376490 1.180752 0.005221
5.691840 1.180752 0.005382
6.007189 1.180752 0.005460
6.322540 1.180752 0.007519
6.637889 1.180752 0.013135
6.953240 1.180752 0.024566
7.268589 1.180752 0.048738
7.583940 1.180752 0.099857
7.899290 1.180752 0.181028
8.214640 1.180752 0.284358
8.529989 1.180752 0.400493
8.845339 1.180752 0.531150
9.160688 1.180752 0.646971
9.476040 1.180752 0.747617
9.791389 1.180752 0.849160
10.106739 1.180752 0.949703
10.422089 1.180752 1.035859
10.737438 1.180752 1.084749
11.052790 1.180752 1.121735
11.368139 1.180752 1.165626
11.683489 1.180752 1.152608
11.998838 1.180752 1.169132
12.314190 1.180752 1.183731
12.629539 1.180752 1.200765
12.944889 1.180752 1.205496
13.260239 1.180752 1.132987
13.575588 1.180752 1.132377
13.890940 1.180752 1.181575
14.206289 1.180752 1.244091
14.521639 1.180752 1.340773
14.836988 1.180752 0.000000
15.152340 1.180752 0.000000
15.467690 1.180752 0.000000
15.783039 1.180752 0.000000
16.098389 1.180752 0.000000
16.413738 1.180752 0.000000
16.729090 1.180752 0.000000
17.044439 1.180752 0.000000
17.359789 1.180752 0.000000
17.675138 1.180752 0.000000
17.990490 1.180752 0.658658
18.305840 1.180752 0.748510
18.621189 1.180752 0.069766
18.936539 1.180752 0.000000
19.251888 1.180752 0.000000
-7.237510 0.865402 0.000000
-6.922160 0.865402 0.004660
-6.606810 0.865402 0.004777
-6.291460 0.865402 0.004850
-5.976110 0.865402 0.004881
-5.660760 0.865402 0.004948
-5.345410 0.865402 0.004902
-5.030060 0.865402 0.005112
-4.714710 0.865402 0.005336
-4.399360 0.865402 0.005402
-4.084010 0.865402 0.005448
-3.768660 0.865402 0.005427
-3.453310 0.865402 0.005455
-3.137960 0.865402 0.005517
-2.822610 0.865402 0.005487
-2.507260 0.865402 0.005551
-2.191910 0.865402 0.005833
-1.876560 0.865402 0.006241
-1.561210 0.865402 0.006370
-1.245860 0.865402 0.006184
-0.930510 0.865402 0.005933
-0.615160 0.865402 0.006045
-0.299810 0.865402 0.006222
0.015540 0.865402 0.006286
0.330890 0.865402 0.006187
0.646240 0.865402 0.005931
0.961589 0.865402 0.005788
1.276940 0.865402 0.005743
1.592289 0.865402 0.005780
1.907640 0.865402 0.005772
2.222990 0.865402 0.005712
2.538340 0.865402 0.005862
2.853690 0.865402 0.005950
3.169039 0.865402 0.005777
3.484390 0.865402 0.005417
3.799739 0.865402 0.004907
4.115090 0.865402 0.004641
4.430439 0.865402 0.004763
4.745790 0.865402 0.004808
5.061140 0.865402 0.004787
5.376490 0.865402 0.004850
5.691840 0.865402 0.005183
6.007189 0.865402 0.005828
6.322540 0.865402 0.007404
6.637889 0.865402 0.013126
6.953240 0.865402 0.026943
7.268589 0.865402 0.053756
7.583940 0.865402 0.111238
7.899290 0.865402 0.198342
8.214640 0.865402 0.301324
8.529989 0.865402 0.417432
8.845339 0.865402 0.545008
9.160688 0.865402 0.671365
9.476040 0.865402 0.774628
9.791389 0.865402 0.868090
10.106739 0.865402 0.964346
10.422089 0.865402 1.035454
10.737438 0.865402 1.109845
11.052790 0.865402 1.146611
11.368139 0.865402 1.156165
11.683489 0.865402 1.167105
11.998838 0.865402 1.195727
12.314190 0.865402 1.201634
12.629539 0.865402 1.181243
12.944889 0.865402 1.190662
13.260239 0.865402 1.171072
13.575588 0.865402 1.134590
13.890940 0.865402 1.151863
14.206289 0.865402 1.223535
14.521639 0.865402 1.214545
14.836988 0.865402 0.000000
15.152340 0.865402 0.000000
15.467690 0.865402 0.000000
15.783039 0.865402 0.000000
16.098389 0.865402 0.000000
16.413738 0.865402 0.000000
16.729090 0.865402 0.000000
17.044439 0.865402 0.000000
17.359789 0.865402 0.000000
17.675138 0.865402 0.000000
17.990490 0.865402 0.777419
18.305840 0.865402 0.825716
18.621189 0.865402 0.056289
18.936539 0.865402 0.000000
19.251888 0.865402 0.000000
-7.237510 0.550053 0.000000
-6.922160 0.550053 0.004719
-6.606810 0.550053 0.004840
-6.291460 0.550053 0.005002
-5.976110 0.550053 0.004993
-5.660760 0.550053 0.005066
-5.345410 0.550053 0.005011
-5.030060 0.550053 0.005184
-4.714710 0.550053 0.005413
-4.399360 0.550053 0.005526
-4.084010 0.550053 0.005422
-3.768660 0.550053 0.005478
-3.453310 0.550053 0.005554
-3.137960 0.550053 0.005626
-2.822610 0.550053 0.005584
-2.507260 0.550053 0.005666
-2.191910 0.550053 0.005997
-1.876560 0.550053 0.006470
-1.561210 0.550053 0.006626
-1.245860 0.550053 0.006370
-0.930510 0.550053 0.006159
-0.615160 0.550053 0.006273
-0.299810 0.550053 0.006402
0.015540 0.550053 0.006373
0.330890 0.550053 0.006171
0.646240 0.550053 0.005982
0.961589 0.550053 0.005936
1.276940 0.550053 0.006006
1.592289 0.550053 0.005990
1.907640 0.550053 0.005847
2.222990 0.550053 0.005734
2.538340 0.550053 0.005874
2.853690 0.550053 0.005883
3.169039 0.550053 0.005674
3.484390 0.550053 0.005358
3.799739 0.550053 0.004750
4.115090 0.550053 0.004395
4.430439 0.550053 0.004432
4.745790 0.550053 0.004526
5.061140 0.550053 0.004453
5.376490 0.550053 0.004657
5.691840 0.550053 0.005142
6.007189 0.550053 0.005952
6.322540 0.550053 0.008288
6.637889 0.550053 0.013651
6.953240 0.550053 0.028518
7.268589 0.550053 0.058849
7.583940 0.550053 0.121799
7.899290 0.550053 0.210153
8.214640 0.550053 0.320385
8.529989 0.550053 0.435213
8.845339 0.550053 0.569048
9.160688 0.550053 0.694467
9.476040 0.550053 0.795973
9.791389 0.550053 0.887233
10.106739 0.550053 0.984015
10.422089 0.550053 1.050975
10.737438 0.550053 1.142588
11.052790 0.550053 1.168412
11.368139 0.550053 1.176335
11.683489 0.550053 1.189136
11.998838 0.550053 1.251953
12.314190 0.550053 1.255672
12.629539 0.550053 1.195947
12.944889 0.550053 1.172942
13.260239 0.550053 1.152034
13.575588 0.550053 1.115347
13.890940 0.550053 1.100032
14.206289 0.550053 1.149897
14.521639 0.550053 1.241570
14.836988 0.550053 0.000000
15.152340 0.550053 0.000000
15.467690 0.550053 0.000000
15.783039 0.550053 0.000000
16.098389 0.550053 0.000000
16.413738 0.550053 0.000000
16.729090 0.550053 0.000000
17.044439 0.550053 0.000000
17.359789 0.550053 0.000000
17.675138 0.550053 0.000000
17.990490 0.550053 0.958928
18.305840 0.550053 0.959253
18.621189 0.550053 0.092758
18.936539 0.550053 0.000000
19.251888 0.550053 0.000000
-7.237510 0.234699 0.000000
-6.922160 0.234699 0.000000
-6.606810 0.234699 0.000000
-6.291460 0.234699 0.000000
-5.976110 0.234699 0.000000
-5.660760 0.234699 0.000000
-5.345410 0.234699 0.000000
-5.030060 0.234699 0.000000
-4.714710 0.234699 0.000000
-4.399360 0.234699 0.000000
-4.084010 0.234699 0.000000
-3.768660 0.234699 0.000000
-3.453310 0.234699 0.000000
-3.137960 0.234699 0.000000
-2.822610 0.234699 0.000000
-2.507260 0.234699 0.000000
-2.191910 0.234699 0.000000
-1.876560 0.234699 0.000000
-1.561210 0.234699 0.000000
-1.245860 0.234699 0.000000
-0.930510 0.234699 0.000000
-0.615160 0.234699 0.000000
-0.299810 0.234699 0.000000
0.015540 0.234699 0.000000
0.330890 0.234699 0.000000
0.646240 0.234699 0.000000
0.961589 0.234699 0.000000
1.276940 0.234699 0.000000
1.592289 0.234699 0.000000
1.907640 0.234699 0.000000
2.222990 0.234699 0.000000
2.538340 0.234699 0.000000
2.853690 0.234699 0.000000
3.169039 0.234699 0.000000
3.484390 0.234699 0.000000
3.799739 0.234699 0.000000
4.115090 0.234699 0.000000
4.430439 0.234699 0.000000
4.745790 0.234699 0.000000
5.061140 0.234699 0.000000
5.376490 0.234699 0.000000
5.691840 0.234699 0.000000
6.007189 0.234699 0.000000
6.322540 0.234699 -0.407106
6.637889 0.234699 0.166326
6.953240 0.234699 0.292275
7.268589 0.234699 0.253097
7.583940 0.234699 0.178657
7.899290 0.234699 0.196008
8.214640 0.234699 0.306980
8.529989 0.234699 0.359429
8.845339 0.234699 0.454138
9.160688 0.234699 0.568350
9.476040 0.234699 0.690830
9.791389 0.234699 0.808522
10.106739 0.234699 0.936159
10.422089 0.234699 1.045861
10.737438 0.234699 1.128295
11.052790 0.234699 1.174100
11.368139 0.234699 1.196768
11.683489 0.234699 1.236267
11.998838 0.234699 1.269836
12.314190 0.234699 1.269295
12.629539 0.234699 1.185172
12.944889 0.234699 1.117864
13.260239 0.234699 1.127217
13.575588 0.234699 1.048501
13.890940 0.234699 1.040193
14.206289 0.234699 1.072309
14.521639 0.234699 0.000000
14.836988 0.234699 0.000000
15.152340 0.234699 0.000000
15.467690 0.234699 0.000000
15.783039 0.234699 0.000000
16.098389 0.234699 0.000000
16.413738 0.234699 0.000000
16.729090 0.234699 0.000000
17.044439 0.234699 0.000000
17.359789 0.234699 0.000000
17.675138 0.234699 0.000000
17.990490 0.234699 0.930553
18.305840 0.234699 0.900271
18.621189 0.234699 0.187095
18.936539 0.234699 0.000000
19.251888 0.234699 0.000000
-7.237510 -0.080650 0.000000
-6.922160 -0.080650 0.000000
-6.606810 -0.080650 0.000000
-6.291460 -0.080650 0.000000
-5.976110 -0.080650 0.000000
-5.660760 -0.080650 0.000000
-5.345410 -0.080650 0.000000
-5.030060 -0.080650 0.000000
-4.714710 -0.080650 0.000000
-4.399360 -0.080650 0.000000
-4.084010 -0.080650 0.000000
-3.768660 -0.080650 0.000000
-3.453310 -0.080650 0.000000
-3.137960 -0.080650 0.000000
-2.822610 -0.080650 0.000000
-2.507260 -0.080650 0.000000
-2.191910 -0.080650 0.000000
-1.876560 -0.080650 0.000000
-1.561210 -0.080650 0.000000
-1.245860 -0.080650 0.000000
-0.930510 -0.080650 0.000000
-0.615160 -0.080650 0.000000
-0.299810 -0.080650 0.000000
0.015540 -0.080650 0.000000
0.330890 -0.080650 0.000000
0.646240 -0.080650 0.000000
0.961589 -0.080650 0.000000
1.276940 -0.080650 0.000000
1.592289 -0.080650 0.000000
1.907640 -0.080650 0.000000
2.222990 -0.080650 0.000000
2.538340 -0.080650 0.000000
2.853690 -0.080650 0.000000
3.169039 -0.080650 0.000000
3.484390 -0.080650 0.000000
3.799739 -0.080650 0.000000
4.115090 -0.080650 0.000000
4.430439 -0.080650 0.000000
4.745790 -0.080650 0.000000
5.061140 -0.080650 0.000000
5.376490 -0.080650 0.000000
5.691840 -0.080650 0.000000
6.007189 -0.080650 0.000000
6.322540 -0.080650 0.000000
6.637889 -0.080650 0.000000
6.953240 -0.080650 0.000000
7.268589 -0.080650 0.000000
7.583940 -0.080650 0.000000
7.899290 -0.080650 0.000000
8.214640 -0.080650 0.000000
8.529989 -0.080650 6.738313
8.845339 -0.080650 -0.209234
9.160688 -0.080650 -1.420258
9.476040 -0.080650 -0.015056
9.791389 -0.080650 -0.060896
10.106739 -0.080650 -0.073037
10.422089 -0.080650 0.061050
10.737438 -0.080650 0.206487
11.052790 -0.080650 0.312710
11.368139 -0.080650 0.343224
11.683489 -0.080650 0.412418
11.998838 -0.080650 0.546000
12.314190 -0.080650 0.695964
12.629539 -0.080650 0.747526
12.944889 -0.080650 0.826713
13.260239 -0.080650 0.860794
13.575588 -0.080650 0.819564
13.890940 -0.080650 0.900099
14.206289 -0.080650 0.915282
14.521639 -0.080650 0.000000
14.836988 -0.080650 0.000000
15.152340 -0.080650 0.000000
15.467690 -0.080650 0.000000
15.783039 -0.080650 0.000000
16.098389 -0.080650 0.000000
16.413738 -0.080650 0.000000
16.729090 -0.080650 0.000000
17.044439 -0.080650 0.000000
17.359789 -0.080650 0.000000
17.675138 -0.080650 0.000000
17.990490 -0.080650 0.565706
18.305840 -0.080650 0.587411
18.621189 -0.080650 0.161909
18.936539 -0.080650 0.000000
19.251888 -0.080650 0.000000
-7.237510 -0.396000 0.000000
-6.922160 -0.396000 0.000000
-6.606810 -0.396000 0.000000
-6.291460 -0.396000 0.000000
-5.976110 -0.396000 0.000000
-5.660760 -0.396000 0.000000
-5.345410 -0.396000 0.000000
-5.030060 -0.396000 0.000000
-4.714710 -0.396000 0.000000
-4.399360 -0.396000 0.000000
-4.084010 -0.396000 0.000000
-3.768660 -0.396000 0.000000
-3.453310 -0.396000 0.000000
-3.137960 -0.396000 0.000000
-2.822610 -0.396000 0.000000
-2.507260 -0.396000 0.000000
-2.191910 -0.396000 0.000000
-1.876560 -0.396000 0.000000
-1.561210 -0.396000 0.000000
-1.245860 -0.396000 0.000000
-0.930510 -0.396000 0.000000
-0.615160 -0.396000 0.000000
-0.299810 -0.396000 0.000000
0.015540 -0.396000 0.000000
0.330890 -0.396000 0.000000
0.646240 -0.396000 0.000000
0.961589 -0.396000 0.000000
1.276940 -0.396000 0.000000
1.592289 -0.396000 0.000000
1.907640 -0.396000 0.000000
2.222990 -0.396000 0.000000
2.538340 -0.396000 0.000000
2.853690 -0.396000 0.000000
3.169039 -0.396000 0.000000
3.484390 -0.396000 0.000000
3.799739 -0.396000 0.000000
4.115090 -0.396000 0.000000
4.430439 -0.396000 0.000000
4.745790 -0.396000 0.000000
5.061140 -0.396000 0.000000
5.376490 -0.396000 0.000000
5.691840 -0.396000 0.000000
6.007189 -0.396000 0.000000
6.322540 -0.396000 0.000000
6.637889 -0.396000 0.000000
6.953240 -0.396000 0.000000
7.268589 -0.396000 0.000000
7.583940 -0.396000 0.000000
7.899290 -0.396000 0.000000
8.214640 -0.396000 0.000000
8.529989 -0.396000 0.000000
8.845339 -0.396000 0.000000
9.160688 -0.396000 0.000000
9.476040 -0.396000 0.000000
9.791389 -0.396000 0.000000
10.106739 -0.396000 0.000000
10.422089 -0.396000 0.000000
10.737438 -0.396000 0.000000
11.052790 -0.396000 1.453651
11.368139 -0.396000 -1.375090
11.683489 -0.396000 -0.769789
11.998838 -0.396000 -1.232384
12.314190 -0.396000 0.968554
12.629539 -0.396000 -0.404921
12.944889 -0.396000 0.446185
13.260239 -0.396000 -0.053938
13.575588 -0.396000 0.074925
13.890940 -0.396000 -0.071086
14.206289 -0.396000 0.071783
14.521639 -0.396000 0.000000
14.836988 -0.396000 0.000000
15.152340 -0.396000 0.000000
15.467690 -0.396000 0.000000
15.783039 -0.396000 0.000000
16.098389 -0.396000 0.000000
16.413738 -0.396000 0.000000
16.729090 -0.396000 0.000000
17.044439 -0.396000 0.000000
17.359789 -0.396000 0.000000
17.675138 -0.396000 0.000000
17.990490 -0.396000 0.129088
18.305840 -0.396000 0.125697
18.621189 -0.396000 0.061751
18.936539 -0.396000 0.000000
19.251888 -0.396000 0.000000
-7.237510 -0.711349 0.000000
-6.922160 -0.711349 0.000000
-6.606810 -0.711349 0.000000
-6.291460 -0.711349 0.000000
-5.976110 -0.711349 0.000000
-5.660760 -0.711349 0.000000
-5.345410 -0.711349 0.000000
-5.030060 -0.711349 0.000000
-4.714710 -0.711349 0.000000
-4.399360 -0.711349 0.000000
-4.084010 -0.711349 0.000000
-3.768660 -0.711349 0.000000
-3.453310 -0.711349 0.000000
-3.137960 -0.711349 0.000000
-2.822610 -0.711349 0.000000
-2.507260 -0.711349 0.000000
-2.191910 -0.711349 0.000000
-1.876560 -0.711349 0.000000
-1.561210 -0.711349 0.000000
-1.245860 -0.711349 0.000000
-0.930510 -0.711349 0.000000
-0.615160 -0.711349 0.000000
-0.299810 -0.711349 0.000000
0.015540 -0.711349 0.000000
0.330890 -0.711349 0.000000
0.646240 -0.711349 0.000000
0.961589 -0.711349 0.000000
1.276940 -0.711349 0.000000
1.592289 -0.711349 0.000000
1.907640 -0.711349 0.000000
2.222990 -0.711349 0.000000
2.538340 -0.711349 0.000000
2.853690 -0.711349 0.000000
3.169039 -0.711349 0.000000
3.484390 -0.711349 0.000000
3.799739 -0.711349 0.000000
4.115090 -0.711349 0.000000
4.430439 -0.711349 0.000000
4.745790 -0.711349 0.000000
5.061140 -0.711349 0.000000
5.376490 -0.711349 0.000000
5.691840 -0.711349 0.000000
6.007189 -0.711349 0.000000
6.322540 -0.711349 0.000000
6.637889 -0.711349 0.000000
6.953240 -0.711349 0.000000
7.268589 -0.711349 0.000000
7.583940 -0.711349 0.000000
7.899290 -0.711349 0.000000
8.214640 -0.711349 0.000000
8.529989 -0.711349 0.000000
8.845339 -0.711349 0.000000
9.160688 -0.711349 0.000000
9.476040 -0.711349 0.000000
9.791389 -0.711349 0.000000
10.106739 -0.711349 0.000000
10.422089 -0.711349 0.000000
10.737438 -0.711349 0.000000
11.052790 -0.711349 0.000000
11.368139 -0.711349 0.000000
11.683489 -0.711349 0.000000
11.998838 -0.711349 0.000000
12.314190 -0.711349 0.000000
12.629539 -0.711349 0.000000
12.944889 -0.711349 0.000000
13.260239 -0.711349 0.000000
13.575588 -0.711349 0.000000
13.890940 -0.711349 0.000000
14.206289 -0.711349 0.000000
14.521639 -0.711349 0.000000
14.836988 -0.711349 0.000000
15.152340 -0.711349 0.000000
15.467690 -0.711349 0.000000
15.783039 -0.711349 0.000000
16.098389 -0.711349 0.000000
16.413738 -0.711349 0.000000
16.729090 -0.711349 0.000000
17.044439 -0.711349 0.000000
17.359789 -0.711349 0.000000
17.675138 -0.711349 0.000000
17.990490 -0.711349 0.000000
18.305840 -0.711349 0.000000
18.621189 -0.711349 0.000000
18.936539 -0.711349 0.000000
19.251888 -0.711349 0.000000
