TITLE = "B00010"
VARIABLES = "x", "y", "Reynold stress XZ"
ZONE T="Frame 1" I=85, J=164, F=POINT
-7.237510 50.690701 0.000000
-6.922160 50.690701 0.000000
-6.606810 50.690701 0.000000
-6.291460 50.690701 0.000000
-5.976110 50.690701 0.000000
-5.660760 50.690701 0.000000
-5.345410 50.690701 0.000000
-5.030060 50.690701 0.000000
-4.714710 50.690701 0.000000
-4.399360 50.690701 0.000000
-4.084010 50.690701 0.000000
-3.768660 50.690701 0.000000
-3.453310 50.690701 0.000000
-3.137960 50.690701 0.000000
-2.822610 50.690701 0.000000
-2.507260 50.690701 0.000000
-2.191910 50.690701 0.000000
-1.876560 50.690701 0.000000
-1.561210 50.690701 0.000000
-1.245860 50.690701 0.000000
-0.930510 50.690701 0.000000
-0.615160 50.690701 0.000000
-0.299810 50.690701 0.000000
0.015540 50.690701 0.000000
0.330890 50.690701 0.000000
0.646240 50.690701 0.000000
0.961589 50.690701 0.000000
1.276940 50.690701 0.000000
1.592289 50.690701 0.000000
1.907640 50.690701 0.000000
2.222990 50.690701 0.000000
2.538340 50.690701 0.000000
2.853690 50.690701 0.000000
3.169039 50.690701 0.000000
3.484390 50.690701 0.000000
3.799739 50.690701 0.000000
4.115090 50.690701 0.000000
4.430439 50.690701 0.000000
4.745790 50.690701 0.000000
5.061140 50.690701 0.000000
5.376490 50.690701 0.000000
5.691840 50.690701 0.000000
6.007189 50.690701 0.000000
6.322540 50.690701 0.000000
6.637889 50.690701 0.000000
6.953240 50.690701 0.000000
7.268589 50.690701 0.000000
7.583940 50.690701 0.000000
7.899290 50.690701 0.000000
8.214640 50.690701 0.000000
8.529989 50.690701 0.000000
8.845339 50.690701 0.000000
9.160688 50.690701 0.000000
9.476040 50.690701 0.000000
9.791389 50.690701 0.000000
10.106739 50.690701 0.000000
10.422089 50.690701 0.000000
10.737438 50.690701 0.000000
11.052790 50.690701 0.000000
11.368139 50.690701 0.000000
11.683489 50.690701 0.000000
11.998838 50.690701 0.000000
12.314190 50.690701 0.000000
12.629539 50.690701 0.000000
12.944889 50.690701 0.000000
13.260239 50.690701 0.000000
13.575588 50.690701 0.000000
13.890940 50.690701 0.000000
14.206289 50.690701 0.000000
14.521639 50.690701 0.000000
14.836988 50.690701 0.000000
15.152340 50.690701 0.000000
15.467690 50.690701 0.000000
15.783039 50.690701 0.000000
16.098389 50.690701 0.000000
16.413738 50.690701 0.000000
16.729090 50.690701 0.000000
17.044439 50.690701 0.000000
17.359789 50.690701 0.000000
17.675138 50.690701 0.000000
17.990490 50.690701 0.000000
18.305840 50.690701 0.000000
18.621189 50.690701 0.000000
18.936539 50.690701 0.000000
19.251888 50.690701 0.000000
-7.237510 50.375351 0.000000
-6.922160 50.375351 0.000000
-6.606810 50.375351 0.000000
-6.291460 50.375351 0.000000
-5.976110 50.375351 0.000000
-5.660760 50.375351 0.000000
-5.345410 50.375351 0.000000
-5.030060 50.375351 0.000000
-4.714710 50.375351 0.000000
-4.399360 50.375351 0.000000
-4.084010 50.375351 0.000000
-3.768660 50.375351 0.000000
-3.453310 50.375351 0.000000
-3.137960 50.375351 0.000000
-2.822610 50.375351 0.000000
-2.507260 50.375351 0.000000
-2.191910 50.375351 0.000000
-1.876560 50.375351 0.000000
-1.561210 50.375351 0.000000
-1.245860 50.375351 0.000000
-0.930510 50.375351 0.000000
-0.615160 50.375351 0.000000
-0.299810 50.375351 0.000000
0.015540 50.375351 0.000000
0.330890 50.375351 0.000000
0.646240 50.375351 0.000000
0.961589 50.375351 0.000000
1.276940 50.375351 0.000000
1.592289 50.375351 0.000000
1.907640 50.375351 0.000000
2.222990 50.375351 0.000000
2.538340 50.375351 0.000000
2.853690 50.375351 0.000000
3.169039 50.375351 0.000000
3.484390 50.375351 0.000000
3.799739 50.375351 0.000000
4.115090 50.375351 0.000000
4.430439 50.375351 0.000000
4.745790 50.375351 0.000000
5.061140 50.375351 0.000000
5.376490 50.375351 0.000000
5.691840 50.375351 0.000000
6.007189 50.375351 0.000000
6.322540 50.375351 0.000000
6.637889 50.375351 0.000000
6.953240 50.375351 0.000000
7.268589 50.375351 0.000000
7.583940 50.375351 0.000000
7.899290 50.375351 0.000000
8.214640 50.375351 0.000000
8.529989 50.375351 0.000000
8.845339 50.375351 0.000000
9.160688 50.375351 0.000000
9.476040 50.375351 0.000000
9.791389 50.375351 0.000000
10.106739 50.375351 0.000000
10.422089 50.375351 0.000000
10.737438 50.375351 0.000000
11.052790 50.375351 0.000000
11.368139 50.375351 0.000000
11.683489 50.375351 0.000000
11.998838 50.375351 0.000000
12.314190 50.375351 0.000000
12.629539 50.375351 0.000000
12.944889 50.375351 0.000000
13.260239 50.375351 0.000000
13.575588 50.375351 -2.317924
13.890940 50.375351 0.000000
14.206289 50.375351 0.000000
14.521639 50.375351 0.000000
14.836988 50.375351 0.000000
15.152340 50.375351 -0.255240
15.467690 50.375351 -5.973433
15.783039 50.375351 -3.307129
16.098389 50.375351 0.968046
16.413738 50.375351 -5.634248
16.729090 50.375351 2.017683
17.044439 50.375351 0.658496
17.359789 50.375351 -0.198219
17.675138 50.375351 -0.988399
17.990490 50.375351 2.439432
18.305840 50.375351 -0.537435
18.621189 50.375351 -1.707798
18.936539 50.375351 -0.147320
19.251888 50.375351 0.000000
-7.237510 50.060001 0.000000
-6.922160 50.060001 0.000000
-6.606810 50.060001 0.000000
-6.291460 50.060001 0.000000
-5.976110 50.060001 0.000000
-5.660760 50.060001 0.000000
-5.345410 50.060001 0.000000
-5.030060 50.060001 0.000000
-4.714710 50.060001 0.000000
-4.399360 50.060001 0.000000
-4.084010 50.060001 0.000000
-3.768660 50.060001 0.000000
-3.453310 50.060001 0.000000
-3.137960 50.060001 0.000000
-2.822610 50.060001 0.000000
-2.507260 50.060001 0.000000
-2.191910 50.060001 0.000000
-1.876560 50.060001 0.000000
-1.561210 50.060001 0.000000
-1.245860 50.060001 0.000000
-0.930510 50.060001 0.000000
-0.615160 50.060001 0.000000
-0.299810 50.060001 0.000000
0.015540 50.060001 0.000000
0.330890 50.060001 0.000000
0.646240 50.060001 0.000000
0.961589 50.060001 0.000000
1.276940 50.060001 0.000000
1.592289 50.060001 0.000000
1.907640 50.060001 0.000000
2.222990 50.060001 0.000000
2.538340 50.060001 0.000000
2.853690 50.060001 0.000000
3.169039 50.060001 0.000000
3.484390 50.060001 0.000000
3.799739 50.060001 0.000000
4.115090 50.060001 0.000000
4.430439 50.060001 0.000000
4.745790 50.060001 0.000000
5.061140 50.060001 0.000000
5.376490 50.060001 0.000000
5.691840 50.060001 0.000000
6.007189 50.060001 0.000000
6.322540 50.060001 0.000000
6.637889 50.060001 0.000000
6.953240 50.060001 0.000000
7.268589 50.060001 0.000000
7.583940 50.060001 0.000000
7.899290 50.060001 0.000000
8.214640 50.060001 0.000000
8.529989 50.060001 0.127837
8.845339 50.060001 -0.544971
9.160688 50.060001 6.471841
9.476040 50.060001 0.858608
9.791389 50.060001 1.427352
10.106739 50.060001 3.060500
10.422089 50.060001 1.722199
10.737438 50.060001 4.254700
11.052790 50.060001 -1.555994
11.368139 50.060001 -0.572496
11.683489 50.060001 0.244013
11.998838 50.060001 0.541336
12.314190 50.060001 0.993028
12.629539 50.060001 -2.219631
12.944889 50.060001 0.139563
13.260239 50.060001 -0.958848
13.575588 50.060001 -0.966408
13.890940 50.060001 -1.538811
14.206289 50.060001 -2.165079
14.521639 50.060001 -1.934218
14.836988 50.060001 -1.271678
15.152340 50.060001 -1.461427
15.467690 50.060001 -1.046563
15.783039 50.060001 -1.201109
16.098389 50.060001 -0.932265
16.413738 50.060001 -0.447155
16.729090 50.060001 -0.228493
17.044439 50.060001 0.105615
17.359789 50.060001 0.689961
17.675138 50.060001 0.877432
17.990490 50.060001 1.944224
18.305840 50.060001 2.442425
18.621189 50.060001 2.305824
18.936539 50.060001 1.459457
19.251888 50.060001 0.000000
-7.237510 49.744652 0.000000
-6.922160 49.744652 0.000000
-6.606810 49.744652 0.003239
-6.291460 49.744652 0.002827
-5.976110 49.744652 0.003554
-5.660760 49.744652 0.003121
-5.345410 49.744652 0.002554
-5.030060 49.744652 0.002636
-4.714710 49.744652 0.002859
-4.399360 49.744652 0.002921
-4.084010 49.744652 0.003170
-3.768660 49.744652 0.003210
-3.453310 49.744652 0.002562
-3.137960 49.744652 0.002476
-2.822610 49.744652 0.003031
-2.507260 49.744652 0.002838
-2.191910 49.744652 0.002602
-1.876560 49.744652 0.003258
-1.561210 49.744652 0.002821
-1.245860 49.744652 0.002558
-0.930510 49.744652 0.002190
-0.615160 49.744652 0.002336
-0.299810 49.744652 0.002560
0.015540 49.744652 0.002939
0.330890 49.744652 0.003821
0.646240 49.744652 0.004127
0.961589 49.744652 0.004973
1.276940 49.744652 0.004585
1.592289 49.744652 0.003828
1.907640 49.744652 0.003632
2.222990 49.744652 0.002000
2.538340 49.744652 0.022543
2.853690 49.744652 0.261564
3.169039 49.744652 -0.032439
3.484390 49.744652 -0.022632
3.799739 49.744652 -1.897497
4.115090 49.744652 0.422400
4.430439 49.744652 0.196533
4.745790 49.744652 1.563689
5.061140 49.744652 0.000000
5.376490 49.744652 0.000000
5.691840 49.744652 0.000000
6.007189 49.744652 1.304595
6.322540 49.744652 -1.801835
6.637889 49.744652 -2.022213
6.953240 49.744652 -0.743692
7.268589 49.744652 -1.270471
7.583940 49.744652 0.296538
7.899290 49.744652 0.006344
8.214640 49.744652 -0.195237
8.529989 49.744652 -0.047637
8.845339 49.744652 -0.113663
9.160688 49.744652 -0.274447
9.476040 49.744652 -0.090994
9.791389 49.744652 -0.165240
10.106739 49.744652 -0.191601
10.422089 49.744652 -0.126265
10.737438 49.744652 -0.184903
11.052790 49.744652 -0.110427
11.368139 49.744652 -0.147289
11.683489 49.744652 -0.235068
11.998838 49.744652 -0.164496
12.314190 49.744652 -0.158020
12.629539 49.744652 -0.120264
12.944889 49.744652 -0.147207
13.260239 49.744652 -0.108797
13.575588 49.744652 -0.071349
13.890940 49.744652 -0.052688
14.206289 49.744652 -0.034416
14.521639 49.744652 -0.014146
14.836988 49.744652 0.012204
15.152340 49.744652 -0.016080
15.467690 49.744652 0.006944
15.783039 49.744652 -0.023085
16.098389 49.744652 0.003198
16.413738 49.744652 -0.067043
16.729090 49.744652 0.078180
17.044439 49.744652 0.150052
17.359789 49.744652 0.189002
17.675138 49.744652 0.349567
17.990490 49.744652 0.506695
18.305840 49.744652 0.401913
18.621189 49.744652 0.527340
18.936539 49.744652 0.240522
19.251888 49.744652 0.000000
-7.237510 49.429302 0.000000
-6.922160 49.429302 0.000000
-6.606810 49.429302 0.003016
-6.291460 49.429302 0.003258
-5.976110 49.429302 0.002915
-5.660760 49.429302 0.002621
-5.345410 49.429302 0.002340
-5.030060 49.429302 0.002053
-4.714710 49.429302 0.002238
-4.399360 49.429302 0.002375
-4.084010 49.429302 0.002662
-3.768660 49.429302 0.002476
-3.453310 49.429302 0.002061
-3.137960 49.429302 0.002150
-2.822610 49.429302 0.002591
-2.507260 49.429302 0.002227
-2.191910 49.429302 0.001794
-1.876560 49.429302 0.002141
-1.561210 49.429302 0.002082
-1.245860 49.429302 0.002081
-0.930510 49.429302 0.001999
-0.615160 49.429302 0.002048
-0.299810 49.429302 0.002016
0.015540 49.429302 0.002109
0.330890 49.429302 0.001898
0.646240 49.429302 0.001790
0.961589 49.429302 0.001835
1.276940 49.429302 0.001859
1.592289 49.429302 0.001796
1.907640 49.429302 0.001390
2.222990 49.429302 0.001354
2.538340 49.429302 0.001638
2.853690 49.429302 0.001647
3.169039 49.429302 0.001571
3.484390 49.429302 0.001156
3.799739 49.429302 0.001216
4.115090 49.429302 0.001578
4.430439 49.429302 0.001396
4.745790 49.429302 0.000773
5.061140 49.429302 0.000136
5.376490 49.429302 -0.000100
5.691840 49.429302 -0.000458
6.007189 49.429302 -0.000941
6.322540 49.429302 -0.001413
6.637889 49.429302 -0.002370
6.953240 49.429302 -0.003170
7.268589 49.429302 -0.004186
7.583940 49.429302 -0.004459
7.899290 49.429302 -0.003258
8.214640 49.429302 -0.000909
8.529989 49.429302 0.000934
8.845339 49.429302 0.003189
9.160688 49.429302 0.014773
9.476040 49.429302 0.025058
9.791389 49.429302 0.019650
10.106739 49.429302 0.017898
10.422089 49.429302 0.014799
10.737438 49.429302 0.031529
11.052790 49.429302 0.044209
11.368139 49.429302 0.042606
11.683489 49.429302 0.031350
11.998838 49.429302 0.030298
12.314190 49.429302 0.063361
12.629539 49.429302 0.036347
12.944889 49.429302 0.025154
13.260239 49.429302 0.002867
13.575588 49.429302 0.024507
13.890940 49.429302 0.045641
14.206289 49.429302 0.081291
14.521639 49.429302 0.083383
14.836988 49.429302 0.066994
15.152340 49.429302 0.037002
15.467690 49.429302 0.066534
15.783039 49.429302 0.053515
16.098389 49.429302 0.035625
16.413738 49.429302 0.105543
16.729090 49.429302 0.062523
17.044439 49.429302 0.100257
17.359789 49.429302 0.138327
17.675138 49.429302 0.234386
17.990490 49.429302 0.448239
18.305840 49.429302 0.438313
18.621189 49.429302 0.251746
18.936539 49.429302 0.233849
19.251888 49.429302 0.000000
-7.237510 49.113949 0.000000
-6.922160 49.113949 0.000000
-6.606810 49.113949 0.004219
-6.291460 49.113949 0.002835
-5.976110 49.113949 0.002381
-5.660760 49.113949 0.002224
-5.345410 49.113949 0.001887
-5.030060 49.113949 0.001687
-4.714710 49.113949 0.001726
-4.399360 49.113949 0.001891
-4.084010 49.113949 0.001947
-3.768660 49.113949 0.001818
-3.453310 49.113949 0.001541
-3.137960 49.113949 0.001591
-2.822610 49.113949 0.001778
-2.507260 49.113949 0.001449
-2.191910 49.113949 0.001398
-1.876560 49.113949 0.001513
-1.561210 49.113949 0.001630
-1.245860 49.113949 0.001659
-0.930510 49.113949 0.001587
-0.615160 49.113949 0.001680
-0.299810 49.113949 0.001654
0.015540 49.113949 0.001604
0.330890 49.113949 0.001403
0.646240 49.113949 0.001410
0.961589 49.113949 0.001331
1.276940 49.113949 0.001359
1.592289 49.113949 0.001319
1.907640 49.113949 0.001113
2.222990 49.113949 0.001078
2.538340 49.113949 0.001277
2.853690 49.113949 0.001096
3.169039 49.113949 0.000936
3.484390 49.113949 0.000606
3.799739 49.113949 0.000585
4.115090 49.113949 0.000918
4.430439 49.113949 0.000797
4.745790 49.113949 0.000263
5.061140 49.113949 -0.000360
5.376490 49.113949 -0.000420
5.691840 49.113949 -0.000848
6.007189 49.113949 -0.001461
6.322540 49.113949 -0.002230
6.637889 49.113949 -0.003257
6.953240 49.113949 -0.004099
7.268589 49.113949 -0.005121
7.583940 49.113949 -0.005203
7.899290 49.113949 -0.004567
8.214640 49.113949 -0.000917
8.529989 49.113949 -0.001596
8.845339 49.113949 -0.000063
9.160688 49.113949 0.012680
9.476040 49.113949 0.021360
9.791389 49.113949 0.016077
10.106739 49.113949 0.017670
10.422089 49.113949 0.014872
10.737438 49.113949 0.022618
11.052790 49.113949 0.032987
11.368139 49.113949 0.031446
11.683489 49.113949 0.029332
11.998838 49.113949 -0.002263
12.314190 49.113949 0.005919
12.629539 49.113949 0.042796
12.944889 49.113949 0.051585
13.260239 49.113949 0.033734
13.575588 49.113949 0.002114
13.890940 49.113949 0.012326
14.206289 49.113949 0.054648
14.521639 49.113949 0.034658
14.836988 49.113949 0.075865
15.152340 49.113949 0.026869
15.467690 49.113949 0.069395
15.783039 49.113949 0.045085
16.098389 49.113949 0.028362
16.413738 49.113949 0.066439
16.729090 49.113949 0.017452
17.044439 49.113949 0.084226
17.359789 49.113949 0.166747
17.675138 49.113949 0.226109
17.990490 49.113949 0.297106
18.305840 49.113949 0.271711
18.621189 49.113949 0.415441
18.936539 49.113949 0.116162
19.251888 49.113949 0.000000
-7.237510 48.798599 0.000000
-6.922160 48.798599 0.000000
-6.606810 48.798599 0.003573
-6.291460 48.798599 0.002470
-5.976110 48.798599 0.002162
-5.660760 48.798599 0.002097
-5.345410 48.798599 0.001809
-5.030060 48.798599 0.001563
-4.714710 48.798599 0.001559
-4.399360 48.798599 0.001607
-4.084010 48.798599 0.001704
-3.768660 48.798599 0.001567
-3.453310 48.798599 0.001471
-3.137960 48.798599 0.001277
-2.822610 48.798599 0.001236
-2.507260 48.798599 0.001117
-2.191910 48.798599 0.001116
-1.876560 48.798599 0.001296
-1.561210 48.798599 0.001482
-1.245860 48.798599 0.001459
-0.930510 48.798599 0.001362
-0.615160 48.798599 0.001440
-0.299810 48.798599 0.001428
0.015540 48.798599 0.001311
0.330890 48.798599 0.001193
0.646240 48.798599 0.001234
0.961589 48.798599 0.001095
1.276940 48.798599 0.001176
1.592289 48.798599 0.001252
1.907640 48.798599 0.000987
2.222990 48.798599 0.000878
2.538340 48.798599 0.001097
2.853690 48.798599 0.000897
3.169039 48.798599 0.000678
3.484390 48.798599 0.000443
3.799739 48.798599 0.000374
4.115090 48.798599 0.000599
4.430439 48.798599 0.000530
4.745790 48.798599 0.000248
5.061140 48.798599 -0.000237
5.376490 48.798599 -0.000569
5.691840 48.798599 -0.000962
6.007189 48.798599 -0.001781
6.322540 48.798599 -0.002656
6.637889 48.798599 -0.003473
6.953240 48.798599 -0.004600
7.268589 48.798599 -0.005704
7.583940 48.798599 -0.006365
7.899290 48.798599 -0.005672
8.214640 48.798599 -0.004391
8.529989 48.798599 -0.004476
8.845339 48.798599 0.000221
9.160688 48.798599 0.009583
9.476040 48.798599 0.015317
9.791389 48.798599 0.009259
10.106739 48.798599 0.003990
10.422089 48.798599 0.004084
10.737438 48.798599 0.000312
11.052790 48.798599 0.019408
11.368139 48.798599 0.026050
11.683489 48.798599 0.030718
11.998838 48.798599 0.013954
12.314190 48.798599 0.022821
12.629539 48.798599 0.032302
12.944889 48.798599 0.048769
13.260239 48.798599 0.017544
13.575588 48.798599 0.001343
13.890940 48.798599 0.030357
14.206289 48.798599 0.027370
14.521639 48.798599 0.033007
14.836988 48.798599 0.059977
15.152340 48.798599 0.035266
15.467690 48.798599 0.029193
15.783039 48.798599 0.021847
16.098389 48.798599 0.008524
16.413738 48.798599 -0.026122
16.729090 48.798599 0.032830
17.044439 48.798599 0.095980
17.359789 48.798599 0.198759
17.675138 48.798599 0.295495
17.990490 48.798599 0.258293
18.305840 48.798599 0.223179
18.621189 48.798599 0.171365
18.936539 48.798599 0.024810
19.251888 48.798599 0.000000
-7.237510 48.483250 0.000000
-6.922160 48.483250 0.000000
-6.606810 48.483250 0.003402
-6.291460 48.483250 0.002343
-5.976110 48.483250 0.002101
-5.660760 48.483250 0.002033
-5.345410 48.483250 0.001850
-5.030060 48.483250 0.001647
-4.714710 48.483250 0.001656
-4.399360 48.483250 0.001528
-4.084010 48.483250 0.001563
-3.768660 48.483250 0.001600
-3.453310 48.483250 0.001460
-3.137960 48.483250 0.001150
-2.822610 48.483250 0.001014
-2.507260 48.483250 0.000926
-2.191910 48.483250 0.001134
-1.876560 48.483250 0.001241
-1.561210 48.483250 0.001410
-1.245860 48.483250 0.001368
-0.930510 48.483250 0.001313
-0.615160 48.483250 0.001433
-0.299810 48.483250 0.001239
0.015540 48.483250 0.001152
0.330890 48.483250 0.001105
0.646240 48.483250 0.001132
0.961589 48.483250 0.001087
1.276940 48.483250 0.001135
1.592289 48.483250 0.001247
1.907640 48.483250 0.000907
2.222990 48.483250 0.000742
2.538340 48.483250 0.001064
2.853690 48.483250 0.000916
3.169039 48.483250 0.000608
3.484390 48.483250 0.000451
3.799739 48.483250 0.000352
4.115090 48.483250 0.000434
4.430439 48.483250 0.000375
4.745790 48.483250 0.000273
5.061140 48.483250 -0.000058
5.376490 48.483250 -0.000399
5.691840 48.483250 -0.000961
6.007189 48.483250 -0.001873
6.322540 48.483250 -0.002501
6.637889 48.483250 -0.003326
6.953240 48.483250 -0.004490
7.268589 48.483250 -0.006301
7.583940 48.483250 -0.007112
7.899290 48.483250 -0.006477
8.214640 48.483250 -0.005551
8.529989 48.483250 -0.003580
8.845339 48.483250 0.000062
9.160688 48.483250 0.006345
9.476040 48.483250 0.011625
9.791389 48.483250 0.010323
10.106739 48.483250 0.001388
10.422089 48.483250 0.006564
10.737438 48.483250 0.000888
11.052790 48.483250 0.010190
11.368139 48.483250 0.015371
11.683489 48.483250 0.036668
11.998838 48.483250 0.009502
12.314190 48.483250 0.019751
12.629539 48.483250 0.050413
12.944889 48.483250 0.036134
13.260239 48.483250 0.025133
13.575588 48.483250 -0.009966
13.890940 48.483250 0.010053
14.206289 48.483250 -0.007796
14.521639 48.483250 0.019562
14.836988 48.483250 0.026699
15.152340 48.483250 0.009312
15.467690 48.483250 0.043902
15.783039 48.483250 0.061853
16.098389 48.483250 0.035523
16.413738 48.483250 -0.030008
16.729090 48.483250 -0.049908
17.044439 48.483250 0.010613
17.359789 48.483250 0.263544
17.675138 48.483250 0.262184
17.990490 48.483250 0.195291
18.305840 48.483250 0.158602
18.621189 48.483250 0.159988
18.936539 48.483250 -0.129295
19.251888 48.483250 0.000000
-7.237510 48.167900 0.000000
-6.922160 48.167900 0.000000
-6.606810 48.167900 0.003569
-6.291460 48.167900 0.002190
-5.976110 48.167900 0.001983
-5.660760 48.167900 0.001838
-5.345410 48.167900 0.001777
-5.030060 48.167900 0.001731
-4.714710 48.167900 0.001643
-4.399360 48.167900 0.001539
-4.084010 48.167900 0.001598
-3.768660 48.167900 0.001614
-3.453310 48.167900 0.001426
-3.137960 48.167900 0.001091
-2.822610 48.167900 0.000949
-2.507260 48.167900 0.000834
-2.191910 48.167900 0.001066
-1.876560 48.167900 0.001251
-1.561210 48.167900 0.001298
-1.245860 48.167900 0.001280
-0.930510 48.167900 0.001293
-0.615160 48.167900 0.001392
-0.299810 48.167900 0.001074
0.015540 48.167900 0.001053
0.330890 48.167900 0.001102
0.646240 48.167900 0.001030
0.961589 48.167900 0.001043
1.276940 48.167900 0.001119
1.592289 48.167900 0.001106
1.907640 48.167900 0.000796
2.222990 48.167900 0.000633
2.538340 48.167900 0.000977
2.853690 48.167900 0.000950
3.169039 48.167900 0.000652
3.484390 48.167900 0.000488
3.799739 48.167900 0.000368
4.115090 48.167900 0.000328
4.430439 48.167900 0.000283
4.745790 48.167900 0.000406
5.061140 48.167900 0.000188
5.376490 48.167900 -0.000273
5.691840 48.167900 -0.000878
6.007189 48.167900 -0.001744
6.322540 48.167900 -0.002356
6.637889 48.167900 -0.002817
6.953240 48.167900 -0.004258
7.268589 48.167900 -0.005686
7.583940 48.167900 -0.006746
7.899290 48.167900 -0.005164
8.214640 48.167900 -0.004209
8.529989 48.167900 -0.006457
8.845339 48.167900 -0.003876
9.160688 48.167900 0.001465
9.476040 48.167900 0.003854
9.791389 48.167900 0.000354
10.106739 48.167900 0.007054
10.422089 48.167900 0.002735
10.737438 48.167900 -0.007080
11.052790 48.167900 -0.003666
11.368139 48.167900 0.008861
11.683489 48.167900 0.031569
11.998838 48.167900 0.022325
12.314190 48.167900 0.025706
12.629539 48.167900 0.031269
12.944889 48.167900 0.021983
13.260239 48.167900 0.023985
13.575588 48.167900 0.002894
13.890940 48.167900 0.024542
14.206289 48.167900 0.023661
14.521639 48.167900 0.018099
14.836988 48.167900 0.002992
15.152340 48.167900 -0.006098
15.467690 48.167900 0.018259
15.783039 48.167900 0.074740
16.098389 48.167900 0.037667
16.413738 48.167900 -0.030790
16.729090 48.167900 -0.074511
17.044439 48.167900 0.097349
17.359789 48.167900 0.215057
17.675138 48.167900 0.168681
17.990490 48.167900 0.078485
18.305840 48.167900 0.050087
18.621189 48.167900 0.109899
18.936539 48.167900 -0.044740
19.251888 48.167900 0.000000
-7.237510 47.852551 0.000000
-6.922160 47.852551 0.000000
-6.606810 47.852551 0.003058
-6.291460 47.852551 0.001799
-5.976110 47.852551 0.001646
-5.660760 47.852551 0.001670
-5.345410 47.852551 0.001706
-5.030060 47.852551 0.001717
-4.714710 47.852551 0.001567
-4.399360 47.852551 0.001449
-4.084010 47.852551 0.001581
-3.768660 47.852551 0.001499
-3.453310 47.852551 0.001330
-3.137960 47.852551 0.001059
-2.822610 47.852551 0.000925
-2.507260 47.852551 0.000897
-2.191910 47.852551 0.001124
-1.876560 47.852551 0.001214
-1.561210 47.852551 0.001060
-1.245860 47.852551 0.001009
-0.930510 47.852551 0.001265
-0.615160 47.852551 0.001320
-0.299810 47.852551 0.001022
0.015540 47.852551 0.001062
0.330890 47.852551 0.001106
0.646240 47.852551 0.001038
0.961589 47.852551 0.001079
1.276940 47.852551 0.000953
1.592289 47.852551 0.000949
1.907640 47.852551 0.000746
2.222990 47.852551 0.000614
2.538340 47.852551 0.000824
2.853690 47.852551 0.000851
3.169039 47.852551 0.000648
3.484390 47.852551 0.000408
3.799739 47.852551 0.000310
4.115090 47.852551 0.000185
4.430439 47.852551 0.000097
4.745790 47.852551 0.000265
5.061140 47.852551 0.000123
5.376490 47.852551 -0.000372
5.691840 47.852551 -0.000870
6.007189 47.852551 -0.001573
6.322540 47.852551 -0.002242
6.637889 47.852551 -0.002508
6.953240 47.852551 -0.003791
7.268589 47.852551 -0.004991
7.583940 47.852551 -0.006817
7.899290 47.852551 -0.005419
8.214640 47.852551 -0.005728
8.529989 47.852551 -0.004448
8.845339 47.852551 -0.006458
9.160688 47.852551 0.000726
9.476040 47.852551 0.000291
9.791389 47.852551 0.001172
10.106739 47.852551 0.000526
10.422089 47.852551 -0.005485
10.737438 47.852551 0.001249
11.052790 47.852551 -0.019132
11.368139 47.852551 0.015843
11.683489 47.852551 0.020188
11.998838 47.852551 0.012031
12.314190 47.852551 0.006459
12.629539 47.852551 0.042268
12.944889 47.852551 0.035631
13.260239 47.852551 0.026506
13.575588 47.852551 -0.002454
13.890940 47.852551 -0.001638
14.206289 47.852551 -0.009233
14.521639 47.852551 0.011124
14.836988 47.852551 0.011465
15.152340 47.852551 0.030758
15.467690 47.852551 0.037145
15.783039 47.852551 0.056208
16.098389 47.852551 0.026259
16.413738 47.852551 -0.037458
16.729090 47.852551 -0.017038
17.044439 47.852551 0.166552
17.359789 47.852551 0.249488
17.675138 47.852551 0.102830
17.990490 47.852551 0.079049
18.305840 47.852551 -0.010868
18.621189 47.852551 0.100104
18.936539 47.852551 -0.064810
19.251888 47.852551 0.000000
-7.237510 47.537201 0.000000
-6.922160 47.537201 0.000000
-6.606810 47.537201 0.002462
-6.291460 47.537201 0.001404
-5.976110 47.537201 0.001395
-5.660760 47.537201 0.001505
-5.345410 47.537201 0.001502
-5.030060 47.537201 0.001554
-4.714710 47.537201 0.001306
-4.399360 47.537201 0.001268
-4.084010 47.537201 0.001413
-3.768660 47.537201 0.001393
-3.453310 47.537201 0.001181
-3.137960 47.537201 0.001031
-2.822610 47.537201 0.000991
-2.507260 47.537201 0.000999
-2.191910 47.537201 0.001231
-1.876560 47.537201 0.001151
-1.561210 47.537201 0.000815
-1.245860 47.537201 0.000743
-0.930510 47.537201 0.001071
-0.615160 47.537201 0.001072
-0.299810 47.537201 0.000937
0.015540 47.537201 0.001084
0.330890 47.537201 0.001142
0.646240 47.537201 0.001038
0.961589 47.537201 0.001093
1.276940 47.537201 0.000837
1.592289 47.537201 0.000741
1.907640 47.537201 0.000668
2.222990 47.537201 0.000656
2.538340 47.537201 0.000727
2.853690 47.537201 0.000731
3.169039 47.537201 0.000675
3.484390 47.537201 0.000435
3.799739 47.537201 0.000138
4.115090 47.537201 0.000018
4.430439 47.537201 -0.000042
4.745790 47.537201 0.000002
5.061140 47.537201 -0.000177
5.376490 47.537201 -0.000617
5.691840 47.537201 -0.001018
6.007189 47.537201 -0.001414
6.322540 47.537201 -0.001986
6.637889 47.537201 -0.002523
6.953240 47.537201 -0.003669
7.268589 47.537201 -0.005080
7.583940 47.537201 -0.006146
7.899290 47.537201 -0.006922
8.214640 47.537201 -0.005186
8.529989 47.537201 -0.004386
8.845339 47.537201 -0.004668
9.160688 47.537201 -0.002823
9.476040 47.537201 0.005656
9.791389 47.537201 0.006674
10.106739 47.537201 -0.000292
10.422089 47.537201 -0.012535
10.737438 47.537201 -0.003963
11.052790 47.537201 -0.000196
11.368139 47.537201 0.005194
11.683489 47.537201 0.028900
11.998838 47.537201 0.021635
12.314190 47.537201 0.017720
12.629539 47.537201 0.041337
12.944889 47.537201 0.037611
13.260239 47.537201 0.042743
13.575588 47.537201 0.014246
13.890940 47.537201 -0.010234
14.206289 47.537201 -0.005330
14.521639 47.537201 0.031509
14.836988 47.537201 0.027080
15.152340 47.537201 0.013773
15.467690 47.537201 0.026196
15.783039 47.537201 0.045561
16.098389 47.537201 0.024848
16.413738 47.537201 0.017393
16.729090 47.537201 0.015154
17.044439 47.537201 0.183027
17.359789 47.537201 0.120039
17.675138 47.537201 0.115245
17.990490 47.537201 0.054876
18.305840 47.537201 0.099322
18.621189 47.537201 -0.104658
18.936539 47.537201 -0.088453
19.251888 47.537201 0.000000
-7.237510 47.221851 0.000000
-6.922160 47.221851 0.000000
-6.606810 47.221851 0.002150
-6.291460 47.221851 0.001361
-5.976110 47.221851 0.001333
-5.660760 47.221851 0.001282
-5.345410 47.221851 0.001194
-5.030060 47.221851 0.001159
-4.714710 47.221851 0.000962
-4.399360 47.221851 0.000935
-4.084010 47.221851 0.001091
-3.768660 47.221851 0.001202
-3.453310 47.221851 0.001061
-3.137960 47.221851 0.001038
-2.822610 47.221851 0.000992
-2.507260 47.221851 0.001092
-2.191910 47.221851 0.001329
-1.876560 47.221851 0.001079
-1.561210 47.221851 0.000691
-1.245860 47.221851 0.000646
-0.930510 47.221851 0.000872
-0.615160 47.221851 0.000902
-0.299810 47.221851 0.000849
0.015540 47.221851 0.001025
0.330890 47.221851 0.001059
0.646240 47.221851 0.001044
0.961589 47.221851 0.001055
1.276940 47.221851 0.000762
1.592289 47.221851 0.000620
1.907640 47.221851 0.000563
2.222990 47.221851 0.000552
2.538340 47.221851 0.000573
2.853690 47.221851 0.000616
3.169039 47.221851 0.000711
3.484390 47.221851 0.000521
3.799739 47.221851 0.000136
4.115090 47.221851 0.000005
4.430439 47.221851 -0.000112
4.745790 47.221851 -0.000261
5.061140 47.221851 -0.000514
5.376490 47.221851 -0.000822
5.691840 47.221851 -0.001053
6.007189 47.221851 -0.001231
6.322540 47.221851 -0.001808
6.637889 47.221851 -0.002425
6.953240 47.221851 -0.003790
7.268589 47.221851 -0.004886
7.583940 47.221851 -0.006176
7.899290 47.221851 -0.006602
8.214640 47.221851 -0.005882
8.529989 47.221851 -0.005009
8.845339 47.221851 -0.008558
9.160688 47.221851 -0.002893
9.476040 47.221851 0.002965
9.791389 47.221851 0.001511
10.106739 47.221851 0.002188
10.422089 47.221851 -0.001874
10.737438 47.221851 -0.011304
11.052790 47.221851 -0.003983
11.368139 47.221851 0.011557
11.683489 47.221851 0.031567
11.998838 47.221851 0.011529
12.314190 47.221851 0.025577
12.629539 47.221851 0.029866
12.944889 47.221851 0.034462
13.260239 47.221851 0.028778
13.575588 47.221851 0.017922
13.890940 47.221851 0.000158
14.206289 47.221851 -0.013891
14.521639 47.221851 0.023558
14.836988 47.221851 0.029995
15.152340 47.221851 0.069626
15.467690 47.221851 0.022273
15.783039 47.221851 0.065687
16.098389 47.221851 -0.020514
16.413738 47.221851 0.002489
16.729090 47.221851 0.039405
17.044439 47.221851 0.223830
17.359789 47.221851 0.049173
17.675138 47.221851 -0.077658
17.990490 47.221851 -0.026856
18.305840 47.221851 0.095000
18.621189 47.221851 0.037782
18.936539 47.221851 -0.151450
19.251888 47.221851 0.000000
-7.237510 46.906502 0.000000
-6.922160 46.906502 0.000000
-6.606810 46.906502 0.002358
-6.291460 46.906502 0.001391
-5.976110 46.906502 0.001272
-5.660760 46.906502 0.001105
-5.345410 46.906502 0.000936
-5.030060 46.906502 0.000834
-4.714710 46.906502 0.000741
-4.399360 46.906502 0.000781
-4.084010 46.906502 0.000967
-3.768660 46.906502 0.001007
-3.453310 46.906502 0.000968
-3.137960 46.906502 0.000989
-2.822610 46.906502 0.000960
-2.507260 46.906502 0.001074
-2.191910 46.906502 0.001260
-1.876560 46.906502 0.001043
-1.561210 46.906502 0.000621
-1.245860 46.906502 0.000617
-0.930510 46.906502 0.000748
-0.615160 46.906502 0.000745
-0.299810 46.906502 0.000817
0.015540 46.906502 0.000937
0.330890 46.906502 0.000906
0.646240 46.906502 0.000922
0.961589 46.906502 0.000969
1.276940 46.906502 0.000721
1.592289 46.906502 0.000583
1.907640 46.906502 0.000547
2.222990 46.906502 0.000494
2.538340 46.906502 0.000517
2.853690 46.906502 0.000603
3.169039 46.906502 0.000861
3.484390 46.906502 0.000668
3.799739 46.906502 0.000262
4.115090 46.906502 0.000197
4.430439 46.906502 -0.000023
4.745790 46.906502 -0.000384
5.061140 46.906502 -0.000648
5.376490 46.906502 -0.001029
5.691840 46.906502 -0.001168
6.007189 46.906502 -0.001241
6.322540 46.906502 -0.001731
6.637889 46.906502 -0.002571
6.953240 46.906502 -0.003513
7.268589 46.906502 -0.004997
7.583940 46.906502 -0.005770
7.899290 46.906502 -0.005751
8.214640 46.906502 -0.005935
8.529989 46.906502 -0.006298
8.845339 46.906502 -0.007746
9.160688 46.906502 -0.007866
9.476040 46.906502 -0.000402
9.791389 46.906502 0.002970
10.106739 46.906502 0.004232
10.422089 46.906502 -0.001536
10.737438 46.906502 -0.021507
11.052790 46.906502 -0.003916
11.368139 46.906502 0.006248
11.683489 46.906502 0.038223
11.998838 46.906502 0.015613
12.314190 46.906502 0.031058
12.629539 46.906502 0.028521
12.944889 46.906502 -0.006024
13.260239 46.906502 0.009726
13.575588 46.906502 0.009676
13.890940 46.906502 -0.013902
14.206289 46.906502 -0.010255
14.521639 46.906502 0.021475
14.836988 46.906502 0.045898
15.152340 46.906502 0.044890
15.467690 46.906502 0.006445
15.783039 46.906502 0.039873
16.098389 46.906502 0.011215
16.413738 46.906502 0.025365
16.729090 46.906502 0.139790
17.044439 46.906502 0.262890
17.359789 46.906502 -0.053438
17.675138 46.906502 -0.415192
17.990490 46.906502 -0.233372
18.305840 46.906502 -0.137739
18.621189 46.906502 -0.058064
18.936539 46.906502 -0.070215
19.251888 46.906502 0.000000
-7.237510 46.591152 0.000000
-6.922160 46.591152 0.000000
-6.606810 46.591152 0.002646
-6.291460 46.591152 0.001479
-5.976110 46.591152 0.001099
-5.660760 46.591152 0.000941
-5.345410 46.591152 0.000849
-5.030060 46.591152 0.000739
-4.714710 46.591152 0.000825
-4.399360 46.591152 0.000913
-4.084010 46.591152 0.001020
-3.768660 46.591152 0.000977
-3.453310 46.591152 0.000986
-3.137960 46.591152 0.000999
-2.822610 46.591152 0.000991
-2.507260 46.591152 0.001117
-2.191910 46.591152 0.001156
-1.876560 46.591152 0.000943
-1.561210 46.591152 0.000612
-1.245860 46.591152 0.000645
-0.930510 46.591152 0.000735
-0.615160 46.591152 0.000728
-0.299810 46.591152 0.000777
0.015540 46.591152 0.000858
0.330890 46.591152 0.000756
0.646240 46.591152 0.000825
0.961589 46.591152 0.000842
1.276940 46.591152 0.000665
1.592289 46.591152 0.000588
1.907640 46.591152 0.000607
2.222990 46.591152 0.000525
2.538340 46.591152 0.000491
2.853690 46.591152 0.000634
3.169039 46.591152 0.000885
3.484390 46.591152 0.000839
3.799739 46.591152 0.000537
4.115090 46.591152 0.000411
4.430439 46.591152 0.000076
4.745790 46.591152 -0.000385
5.061140 46.591152 -0.000689
5.376490 46.591152 -0.000976
5.691840 46.591152 -0.001260
6.007189 46.591152 -0.001293
6.322540 46.591152 -0.002108
6.637889 46.591152 -0.003186
6.953240 46.591152 -0.003966
7.268589 46.591152 -0.005680
7.583940 46.591152 -0.005540
7.899290 46.591152 -0.004758
8.214640 46.591152 -0.004693
8.529989 46.591152 -0.007565
8.845339 46.591152 -0.006340
9.160688 46.591152 -0.009442
9.476040 46.591152 -0.003383
9.791389 46.591152 0.006470
10.106739 46.591152 0.010789
10.422089 46.591152 -0.004374
10.737438 46.591152 -0.006108
11.052790 46.591152 -0.013512
11.368139 46.591152 0.003565
11.683489 46.591152 0.020692
11.998838 46.591152 0.016733
12.314190 46.591152 0.016957
12.629539 46.591152 0.017822
12.944889 46.591152 -0.033340
13.260239 46.591152 -0.024967
13.575588 46.591152 0.001962
13.890940 46.591152 -0.030462
14.206289 46.591152 -0.033821
14.521639 46.591152 0.029028
14.836988 46.591152 0.042293
15.152340 46.591152 0.055941
15.467690 46.591152 0.003450
15.783039 46.591152 -0.006228
16.098389 46.591152 -0.048972
16.413738 46.591152 0.055495
16.729090 46.591152 0.140306
17.044439 46.591152 0.014683
17.359789 46.591152 -0.228471
17.675138 46.591152 -0.542216
17.990490 46.591152 -0.689770
18.305840 46.591152 -0.541600
18.621189 46.591152 0.151437
18.936539 46.591152 -0.101991
19.251888 46.591152 0.000000
-7.237510 46.275803 0.000000
-6.922160 46.275803 0.000000
-6.606810 46.275803 0.002714
-6.291460 46.275803 0.001577
-5.976110 46.275803 0.001086
-5.660760 46.275803 0.001007
-5.345410 46.275803 0.000967
-5.030060 46.275803 0.000813
-4.714710 46.275803 0.000886
-4.399360 46.275803 0.001006
-4.084010 46.275803 0.000986
-3.768660 46.275803 0.001016
-3.453310 46.275803 0.001051
-3.137960 46.275803 0.001011
-2.822610 46.275803 0.000993
-2.507260 46.275803 0.001010
-2.191910 46.275803 0.000998
-1.876560 46.275803 0.000886
-1.561210 46.275803 0.000789
-1.245860 46.275803 0.000758
-0.930510 46.275803 0.000767
-0.615160 46.275803 0.000780
-0.299810 46.275803 0.000750
0.015540 46.275803 0.000775
0.330890 46.275803 0.000776
0.646240 46.275803 0.000753
0.961589 46.275803 0.000711
1.276940 46.275803 0.000683
1.592289 46.275803 0.000741
1.907640 46.275803 0.000674
2.222990 46.275803 0.000661
2.538340 46.275803 0.000591
2.853690 46.275803 0.000700
3.169039 46.275803 0.000956
3.484390 46.275803 0.000836
3.799739 46.275803 0.000714
4.115090 46.275803 0.000608
4.430439 46.275803 0.000258
4.745790 46.275803 -0.000244
5.061140 46.275803 -0.000549
5.376490 46.275803 -0.000769
5.691840 46.275803 -0.001147
6.007189 46.275803 -0.001525
6.322540 46.275803 -0.002275
6.637889 46.275803 -0.003409
6.953240 46.275803 -0.004574
7.268589 46.275803 -0.006113
7.583940 46.275803 -0.007154
7.899290 46.275803 -0.006007
8.214640 46.275803 -0.006848
8.529989 46.275803 -0.007748
8.845339 46.275803 -0.007782
9.160688 46.275803 -0.005487
9.476040 46.275803 0.001308
9.791389 46.275803 0.012511
10.106739 46.275803 0.019514
10.422089 46.275803 0.007025
10.737438 46.275803 -0.008863
11.052790 46.275803 -0.006841
11.368139 46.275803 0.006960
11.683489 46.275803 0.016141
11.998838 46.275803 0.021905
12.314190 46.275803 0.006803
12.629539 46.275803 0.014300
12.944889 46.275803 -0.002054
13.260239 46.275803 -0.006667
13.575588 46.275803 0.034233
13.890940 46.275803 -0.016838
14.206289 46.275803 -0.026198
14.521639 46.275803 -0.013605
14.836988 46.275803 0.010145
15.152340 46.275803 0.065453
15.467690 46.275803 0.082961
15.783039 46.275803 0.015334
16.098389 46.275803 -0.061012
16.413738 46.275803 0.045946
16.729090 46.275803 0.099505
17.044439 46.275803 0.130007
17.359789 46.275803 -0.669313
17.675138 46.275803 -1.317445
17.990490 46.275803 -2.607298
18.305840 46.275803 0.591532
18.621189 46.275803 0.640872
18.936539 46.275803 -0.124185
19.251888 46.275803 0.000000
-7.237510 45.960449 0.000000
-6.922160 45.960449 0.000000
-6.606810 45.960449 0.002735
-6.291460 45.960449 0.001641
-5.976110 45.960449 0.001236
-5.660760 45.960449 0.001173
-5.345410 45.960449 0.001123
-5.030060 45.960449 0.001003
-4.714710 45.960449 0.001076
-4.399360 45.960449 0.001108
-4.084010 45.960449 0.000969
-3.768660 45.960449 0.001055
-3.453310 45.960449 0.001035
-3.137960 45.960449 0.001057
-2.822610 45.960449 0.001006
-2.507260 45.960449 0.000901
-2.191910 45.960449 0.000818
-1.876560 45.960449 0.000955
-1.561210 45.960449 0.000978
-1.245860 45.960449 0.000897
-0.930510 45.960449 0.000879
-0.615160 45.960449 0.000825
-0.299810 45.960449 0.000557
0.015540 45.960449 0.000624
0.330890 45.960449 0.000755
0.646240 45.960449 0.000701
0.961589 45.960449 0.000682
1.276940 45.960449 0.000763
1.592289 45.960449 0.000854
1.907640 45.960449 0.000814
2.222990 45.960449 0.000702
2.538340 45.960449 0.000671
2.853690 45.960449 0.000890
3.169039 45.960449 0.001038
3.484390 45.960449 0.000854
3.799739 45.960449 0.000742
4.115090 45.960449 0.000710
4.430439 45.960449 0.000367
4.745790 45.960449 -0.000109
5.061140 45.960449 -0.000323
5.376490 45.960449 -0.000598
5.691840 45.960449 -0.000988
6.007189 45.960449 -0.001692
6.322540 45.960449 -0.002491
6.637889 45.960449 -0.003474
6.953240 45.960449 -0.004899
7.268589 45.960449 -0.006141
7.583940 45.960449 -0.007127
7.899290 45.960449 -0.007239
8.214640 45.960449 -0.007966
8.529989 45.960449 -0.007749
8.845339 45.960449 -0.003887
9.160688 45.960449 0.000915
9.476040 45.960449 0.005610
9.791389 45.960449 0.013752
10.106739 45.960449 0.018894
10.422089 45.960449 0.016283
10.737438 45.960449 -0.007349
11.052790 45.960449 0.003465
11.368139 45.960449 0.006014
11.683489 45.960449 0.012049
11.998838 45.960449 0.008860
12.314190 45.960449 0.012227
12.629539 45.960449 0.014435
12.944889 45.960449 0.010188
13.260239 45.960449 0.032683
13.575588 45.960449 0.066561
13.890940 45.960449 0.036599
14.206289 45.960449 -0.020563
14.521639 45.960449 -0.009652
14.836988 45.960449 0.039654
15.152340 45.960449 0.045390
15.467690 45.960449 -0.017527
15.783039 45.960449 -0.100108
16.098389 45.960449 -0.487087
16.413738 45.960449 -0.161481
16.729090 45.960449 -0.084298
17.044439 45.960449 0.149944
17.359789 45.960449 -0.424878
17.675138 45.960449 -5.465823
17.990490 45.960449 -5.918159
18.305840 45.960449 5.795597
18.621189 45.960449 0.327135
18.936539 45.960449 -0.109655
19.251888 45.960449 0.000000
-7.237510 45.645100 0.000000
-6.922160 45.645100 0.000000
-6.606810 45.645100 0.002544
-6.291460 45.645100 0.001631
-5.976110 45.645100 0.001428
-5.660760 45.645100 0.001337
-5.345410 45.645100 0.001294
-5.030060 45.645100 0.001262
-4.714710 45.645100 0.001202
-4.399360 45.645100 0.001157
-4.084010 45.645100 0.001014
-3.768660 45.645100 0.001055
-3.453310 45.645100 0.000989
-3.137960 45.645100 0.001049
-2.822610 45.645100 0.000967
-2.507260 45.645100 0.000840
-2.191910 45.645100 0.000755
-1.876560 45.645100 0.001001
-1.561210 45.645100 0.001124
-1.245860 45.645100 0.001105
-0.930510 45.645100 0.000958
-0.615160 45.645100 0.000802
-0.299810 45.645100 0.000373
0.015540 45.645100 0.000388
0.330890 45.645100 0.000653
0.646240 45.645100 0.000706
0.961589 45.645100 0.000676
1.276940 45.645100 0.000735
1.592289 45.645100 0.000817
1.907640 45.645100 0.000872
2.222990 45.645100 0.000722
2.538340 45.645100 0.000716
2.853690 45.645100 0.000980
3.169039 45.645100 0.001046
3.484390 45.645100 0.000689
3.799739 45.645100 0.000580
4.115090 45.645100 0.000614
4.430439 45.645100 0.000389
4.745790 45.645100 -0.000010
5.061140 45.645100 -0.000277
5.376490 45.645100 -0.000465
5.691840 45.645100 -0.000847
6.007189 45.645100 -0.001567
6.322540 45.645100 -0.002396
6.637889 45.645100 -0.003387
6.953240 45.645100 -0.004621
7.268589 45.645100 -0.005866
7.583940 45.645100 -0.006932
7.899290 45.645100 -0.008173
8.214640 45.645100 -0.008675
8.529989 45.645100 -0.007108
8.845339 45.645100 -0.003443
9.160688 45.645100 0.003393
9.476040 45.645100 0.007455
9.791389 45.645100 0.010725
10.106739 45.645100 0.006031
10.422089 45.645100 0.011785
10.737438 45.645100 0.002644
11.052790 45.645100 -0.009371
11.368139 45.645100 0.013424
11.683489 45.645100 0.024790
11.998838 45.645100 -0.003444
12.314190 45.645100 0.020820
12.629539 45.645100 0.014361
12.944889 45.645100 0.012421
13.260239 45.645100 0.031032
13.575588 45.645100 0.056409
13.890940 45.645100 0.046738
14.206289 45.645100 0.021028
14.521639 45.645100 0.003133
14.836988 45.645100 0.027209
15.152340 45.645100 0.037485
15.467690 45.645100 -0.024526
15.783039 45.645100 -0.119857
16.098389 45.645100 -0.074720
16.413738 45.645100 -11.144122
16.729090 45.645100 -27.230007
17.044439 45.645100 0.000000
17.359789 45.645100 0.000000
17.675138 45.645100 0.000000
17.990490 45.645100 -5.575498
18.305840 45.645100 -0.152510
18.621189 45.645100 0.131302
18.936539 45.645100 -0.107767
19.251888 45.645100 0.000000
-7.237510 45.329750 0.000000
-6.922160 45.329750 0.000000
-6.606810 45.329750 0.002145
-6.291460 45.329750 0.001569
-5.976110 45.329750 0.001418
-5.660760 45.329750 0.001443
-5.345410 45.329750 0.001381
-5.030060 45.329750 0.001363
-4.714710 45.329750 0.001178
-4.399360 45.329750 0.001111
-4.084010 45.329750 0.001025
-3.768660 45.329750 0.000956
-3.453310 45.329750 0.000989
-3.137960 45.329750 0.000939
-2.822610 45.329750 0.000904
-2.507260 45.329750 0.000824
-2.191910 45.329750 0.000795
-1.876560 45.329750 0.000971
-1.561210 45.329750 0.001029
-1.245860 45.329750 0.001158
-0.930510 45.329750 0.000965
-0.615160 45.329750 0.000760
-0.299810 45.329750 0.000421
0.015540 45.329750 0.000401
0.330890 45.329750 0.000643
0.646240 45.329750 0.000720
0.961589 45.329750 0.000686
1.276940 45.329750 0.000679
1.592289 45.329750 0.000674
1.907640 45.329750 0.000826
2.222990 45.329750 0.000635
2.538340 45.329750 0.000708
2.853690 45.329750 0.000940
3.169039 45.329750 0.000938
3.484390 45.329750 0.000540
3.799739 45.329750 0.000396
4.115090 45.329750 0.000392
4.430439 45.329750 0.000289
4.745790 45.329750 0.000081
5.061140 45.329750 -0.000157
5.376490 45.329750 -0.000361
5.691840 45.329750 -0.000660
6.007189 45.329750 -0.001282
6.322540 45.329750 -0.001939
6.637889 45.329750 -0.002886
6.953240 45.329750 -0.004266
7.268589 45.329750 -0.005383
7.583940 45.329750 -0.005829
7.899290 45.329750 -0.006309
8.214640 45.329750 -0.006330
8.529989 45.329750 -0.007282
8.845339 45.329750 -0.002734
9.160688 45.329750 -0.001315
9.476040 45.329750 0.001525
9.791389 45.329750 0.002993
10.106739 45.329750 -0.000120
10.422089 45.329750 0.003306
10.737438 45.329750 0.001557
11.052790 45.329750 0.000700
11.368139 45.329750 0.007610
11.683489 45.329750 0.025109
11.998838 45.329750 0.027696
12.314190 45.329750 0.030105
12.629539 45.329750 0.039896
12.944889 45.329750 0.020113
13.260239 45.329750 0.045758
13.575588 45.329750 0.039932
13.890940 45.329750 0.032524
14.206289 45.329750 0.045848
14.521639 45.329750 -0.027728
14.836988 45.329750 -0.021346
15.152340 45.329750 0.048793
15.467690 45.329750 0.033077
15.783039 45.329750 -0.021426
16.098389 45.329750 0.479710
16.413738 45.329750 0.000000
16.729090 45.329750 0.000000
17.044439 45.329750 0.000000
17.359789 45.329750 0.000000
17.675138 45.329750 0.000000
17.990490 45.329750 0.000000
18.305840 45.329750 -1.319839
18.621189 45.329750 0.189217
18.936539 45.329750 0.506915
19.251888 45.329750 0.000000
-7.237510 45.014400 0.000000
-6.922160 45.014400 0.000000
-6.606810 45.014400 0.001950
-6.291460 45.014400 0.001374
-5.976110 45.014400 0.001304
-5.660760 45.014400 0.001395
-5.345410 45.014400 0.001355
-5.030060 45.014400 0.001276
-4.714710 45.014400 0.001067
-4.399360 45.014400 0.001032
-4.084010 45.014400 0.000998
-3.768660 45.014400 0.001000
-3.453310 45.014400 0.000910
-3.137960 45.014400 0.000830
-2.822610 45.014400 0.000919
-2.507260 45.014400 0.000846
-2.191910 45.014400 0.000752
-1.876560 45.014400 0.000879
-1.561210 45.014400 0.000867
-1.245860 45.014400 0.001062
-0.930510 45.014400 0.000913
-0.615160 45.014400 0.000732
-0.299810 45.014400 0.000574
0.015540 45.014400 0.000592
0.330890 45.014400 0.000754
0.646240 45.014400 0.000758
0.961589 45.014400 0.000714
1.276940 45.014400 0.000648
1.592289 45.014400 0.000590
1.907640 45.014400 0.000696
2.222990 45.014400 0.000564
2.538340 45.014400 0.000623
2.853690 45.014400 0.000753
3.169039 45.014400 0.000606
3.484390 45.014400 0.000283
3.799739 45.014400 0.000235
4.115090 45.014400 0.000187
4.430439 45.014400 0.000189
4.745790 45.014400 0.000156
5.061140 45.014400 -0.000051
5.376490 45.014400 -0.000339
5.691840 45.014400 -0.000545
6.007189 45.014400 -0.000966
6.322540 45.014400 -0.001549
6.637889 45.014400 -0.002452
6.953240 45.014400 -0.003757
7.268589 45.014400 -0.004649
7.583940 45.014400 -0.004939
7.899290 45.014400 -0.005776
8.214640 45.014400 -0.005883
8.529989 45.014400 -0.005488
8.845339 45.014400 -0.004305
9.160688 45.014400 -0.004023
9.476040 45.014400 -0.000648
9.791389 45.014400 -0.002476
10.106739 45.014400 -0.002598
10.422089 45.014400 -0.006657
10.737438 45.014400 -0.003080
11.052790 45.014400 0.007470
11.368139 45.014400 0.000129
11.683489 45.014400 0.027226
11.998838 45.014400 0.032823
12.314190 45.014400 0.059617
12.629539 45.014400 0.028726
12.944889 45.014400 0.017526
13.260239 45.014400 0.038167
13.575588 45.014400 0.004735
13.890940 45.014400 0.048925
14.206289 45.014400 0.014569
14.521639 45.014400 0.021348
14.836988 45.014400 0.023977
15.152340 45.014400 0.103523
15.467690 45.014400 0.130073
15.783039 45.014400 0.144944
16.098389 45.014400 0.474493
16.413738 45.014400 0.000000
16.729090 45.014400 0.000000
17.044439 45.014400 0.000000
17.359789 45.014400 0.000000
17.675138 45.014400 0.000000
17.990490 45.014400 0.000000
18.305840 45.014400 23.499075
18.621189 45.014400 0.747592
18.936539 45.014400 5.956014
19.251888 45.014400 0.000000
-7.237510 44.699051 0.000000
-6.922160 44.699051 0.000000
-6.606810 44.699051 0.001790
-6.291460 44.699051 0.001298
-5.976110 44.699051 0.001063
-5.660760 44.699051 0.001140
-5.345410 44.699051 0.001208
-5.030060 44.699051 0.001084
-4.714710 44.699051 0.000910
-4.399360 44.699051 0.000923
-4.084010 44.699051 0.000946
-3.768660 44.699051 0.000972
-3.453310 44.699051 0.000765
-3.137960 44.699051 0.000681
-2.822610 44.699051 0.000858
-2.507260 44.699051 0.000861
-2.191910 44.699051 0.000815
-1.876560 44.699051 0.000852
-1.561210 44.699051 0.000835
-1.245860 44.699051 0.000837
-0.930510 44.699051 0.000855
-0.615160 44.699051 0.000703
-0.299810 44.699051 0.000637
0.015540 44.699051 0.000715
0.330890 44.699051 0.000787
0.646240 44.699051 0.000698
0.961589 44.699051 0.000654
1.276940 44.699051 0.000575
1.592289 44.699051 0.000555
1.907640 44.699051 0.000561
2.222990 44.699051 0.000561
2.538340 44.699051 0.000496
2.853690 44.699051 0.000552
3.169039 44.699051 0.000341
3.484390 44.699051 0.000097
3.799739 44.699051 0.000094
4.115090 44.699051 0.000098
4.430439 44.699051 0.000134
4.745790 44.699051 0.000182
5.061140 44.699051 0.000079
5.376490 44.699051 -0.000300
5.691840 44.699051 -0.000572
6.007189 44.699051 -0.000938
6.322540 44.699051 -0.001326
6.637889 44.699051 -0.002154
6.953240 44.699051 -0.002940
7.268589 44.699051 -0.003956
7.583940 44.699051 -0.004401
7.899290 44.699051 -0.004780
8.214640 44.699051 -0.004681
8.529989 44.699051 -0.005070
8.845339 44.699051 -0.003273
9.160688 44.699051 -0.004336
9.476040 44.699051 -0.000551
9.791389 44.699051 -0.000213
10.106739 44.699051 0.001857
10.422089 44.699051 -0.004915
10.737438 44.699051 -0.008655
11.052790 44.699051 -0.002858
11.368139 44.699051 -0.016978
11.683489 44.699051 0.021497
11.998838 44.699051 0.036159
12.314190 44.699051 0.052389
12.629539 44.699051 0.039574
12.944889 44.699051 -0.012909
13.260239 44.699051 0.014644
13.575588 44.699051 0.001473
13.890940 44.699051 0.044852
14.206289 44.699051 0.043891
14.521639 44.699051 0.018725
14.836988 44.699051 0.055243
15.152340 44.699051 0.070091
15.467690 44.699051 0.087646
15.783039 44.699051 0.142966
16.098389 44.699051 0.751447
16.413738 44.699051 0.000000
16.729090 44.699051 0.000000
17.044439 44.699051 0.000000
17.359789 44.699051 0.000000
17.675138 44.699051 0.000000
17.990490 44.699051 0.000000
18.305840 44.699051 0.000000
18.621189 44.699051 23.788551
18.936539 44.699051 0.000000
19.251888 44.699051 0.000000
-7.237510 44.383701 0.000000
-6.922160 44.383701 0.000000
-6.606810 44.383701 0.001791
-6.291460 44.383701 0.001123
-5.976110 44.383701 0.000940
-5.660760 44.383701 0.000926
-5.345410 44.383701 0.000949
-5.030060 44.383701 0.000906
-4.714710 44.383701 0.000793
-4.399360 44.383701 0.000876
-4.084010 44.383701 0.000992
-3.768660 44.383701 0.000936
-3.453310 44.383701 0.000696
-3.137960 44.383701 0.000637
-2.822610 44.383701 0.000820
-2.507260 44.383701 0.000907
-2.191910 44.383701 0.000810
-1.876560 44.383701 0.000924
-1.561210 44.383701 0.000830
-1.245860 44.383701 0.000723
-0.930510 44.383701 0.000849
-0.615160 44.383701 0.000797
-0.299810 44.383701 0.000758
0.015540 44.383701 0.000774
0.330890 44.383701 0.000738
0.646240 44.383701 0.000679
0.961589 44.383701 0.000616
1.276940 44.383701 0.000595
1.592289 44.383701 0.000434
1.907640 44.383701 0.000438
2.222990 44.383701 0.000553
2.538340 44.383701 0.000430
2.853690 44.383701 0.000467
3.169039 44.383701 0.000342
3.484390 44.383701 0.000021
3.799739 44.383701 -0.000071
4.115090 44.383701 0.000034
4.430439 44.383701 0.000063
4.745790 44.383701 0.000109
5.061140 44.383701 0.000081
5.376490 44.383701 -0.000288
5.691840 44.383701 -0.000614
6.007189 44.383701 -0.000939
6.322540 44.383701 -0.001266
6.637889 44.383701 -0.001889
6.953240 44.383701 -0.002688
7.268589 44.383701 -0.002846
7.583940 44.383701 -0.003324
7.899290 44.383701 -0.003850
8.214640 44.383701 -0.004805
8.529989 44.383701 -0.001320
8.845339 44.383701 -0.006230
9.160688 44.383701 -0.003169
9.476040 44.383701 0.000074
9.791389 44.383701 -0.000734
10.106739 44.383701 0.001018
10.422089 44.383701 0.001477
10.737438 44.383701 -0.006910
11.052790 44.383701 -0.011202
11.368139 44.383701 -0.012241
11.683489 44.383701 0.001177
11.998838 44.383701 0.025367
12.314190 44.383701 0.019410
12.629539 44.383701 0.010956
12.944889 44.383701 -0.016304
13.260239 44.383701 -0.001822
13.575588 44.383701 -0.006769
13.890940 44.383701 0.010322
14.206289 44.383701 0.009296
14.521639 44.383701 0.044196
14.836988 44.383701 0.048605
15.152340 44.383701 0.043054
15.467690 44.383701 0.132023
15.783039 44.383701 0.086353
16.098389 44.383701 5.343267
16.413738 44.383701 0.000000
16.729090 44.383701 0.000000
17.044439 44.383701 0.000000
17.359789 44.383701 0.000000
17.675138 44.383701 0.000000
17.990490 44.383701 0.000000
18.305840 44.383701 0.000000
18.621189 44.383701 0.000000
18.936539 44.383701 0.000000
19.251888 44.383701 0.000000
-7.237510 44.068352 0.000000
-6.922160 44.068352 0.000000
-6.606810 44.068352 0.001584
-6.291460 44.068352 0.000976
-5.976110 44.068352 0.000888
-5.660760 44.068352 0.000804
-5.345410 44.068352 0.000706
-5.030060 44.068352 0.000689
-4.714710 44.068352 0.000681
-4.399360 44.068352 0.000793
-4.084010 44.068352 0.000951
-3.768660 44.068352 0.000839
-3.453310 44.068352 0.000623
-3.137960 44.068352 0.000638
-2.822610 44.068352 0.000811
-2.507260 44.068352 0.000784
-2.191910 44.068352 0.000765
-1.876560 44.068352 0.000850
-1.561210 44.068352 0.000796
-1.245860 44.068352 0.000707
-0.930510 44.068352 0.000920
-0.615160 44.068352 0.000855
-0.299810 44.068352 0.000813
0.015540 44.068352 0.000756
0.330890 44.068352 0.000675
0.646240 44.068352 0.000620
0.961589 44.068352 0.000539
1.276940 44.068352 0.000518
1.592289 44.068352 0.000444
1.907640 44.068352 0.000328
2.222990 44.068352 0.000549
2.538340 44.068352 0.000513
2.853690 44.068352 0.000487
3.169039 44.068352 0.000397
3.484390 44.068352 -0.000033
3.799739 44.068352 -0.000218
4.115090 44.068352 -0.000055
4.430439 44.068352 0.000061
4.745790 44.068352 -0.000038
5.061140 44.068352 -0.000002
5.376490 44.068352 -0.000331
5.691840 44.068352 -0.000679
6.007189 44.068352 -0.001043
6.322540 44.068352 -0.001464
6.637889 44.068352 -0.001874
6.953240 44.068352 -0.002421
7.268589 44.068352 -0.003082
7.583940 44.068352 -0.003814
7.899290 44.068352 -0.004451
8.214640 44.068352 -0.004246
8.529989 44.068352 -0.003334
8.845339 44.068352 -0.004360
9.160688 44.068352 -0.002882
9.476040 44.068352 -0.006670
9.791389 44.068352 0.006111
10.106739 44.068352 0.010726
10.422089 44.068352 0.001495
10.737438 44.068352 -0.009045
11.052790 44.068352 -0.004707
11.368139 44.068352 -0.018565
11.683489 44.068352 -0.001727
11.998838 44.068352 0.002469
12.314190 44.068352 0.021731
12.629539 44.068352 0.045603
12.944889 44.068352 -0.002575
13.260239 44.068352 0.016006
13.575588 44.068352 -0.005862
13.890940 44.068352 -0.007007
14.206289 44.068352 0.037864
14.521639 44.068352 0.053511
14.836988 44.068352 0.016065
15.152340 44.068352 0.039974
15.467690 44.068352 0.072061
15.783039 44.068352 0.036453
16.098389 44.068352 0.000000
16.413738 44.068352 0.000000
16.729090 44.068352 0.000000
17.044439 44.068352 0.000000
17.359789 44.068352 0.000000
17.675138 44.068352 0.000000
17.990490 44.068352 0.000000
18.305840 44.068352 0.000000
18.621189 44.068352 0.000000
18.936539 44.068352 0.000000
19.251888 44.068352 0.000000
-7.237510 43.753002 0.000000
-6.922160 43.753002 0.000000
-6.606810 43.753002 0.001497
-6.291460 43.753002 0.000860
-5.976110 43.753002 0.000853
-5.660760 43.753002 0.000805
-5.345410 43.753002 0.000616
-5.030060 43.753002 0.000607
-4.714710 43.753002 0.000634
-4.399360 43.753002 0.000700
-4.084010 43.753002 0.000816
-3.768660 43.753002 0.000707
-3.453310 43.753002 0.000563
-3.137960 43.753002 0.000638
-2.822610 43.753002 0.000664
-2.507260 43.753002 0.000628
-2.191910 43.753002 0.000715
-1.876560 43.753002 0.000754
-1.561210 43.753002 0.000770
-1.245860 43.753002 0.000757
-0.930510 43.753002 0.000889
-0.615160 43.753002 0.000793
-0.299810 43.753002 0.000718
0.015540 43.753002 0.000763
0.330890 43.753002 0.000605
0.646240 43.753002 0.000532
0.961589 43.753002 0.000494
1.276940 43.753002 0.000452
1.592289 43.753002 0.000411
1.907640 43.753002 0.000283
2.222990 43.753002 0.000512
2.538340 43.753002 0.000537
2.853690 43.753002 0.000538
3.169039 43.753002 0.000405
3.484390 43.753002 -0.000074
3.799739 43.753002 -0.000281
4.115090 43.753002 -0.000213
4.430439 43.753002 -0.000072
4.745790 43.753002 -0.000001
5.061140 43.753002 -0.000150
5.376490 43.753002 -0.000486
5.691840 43.753002 -0.000784
6.007189 43.753002 -0.001157
6.322540 43.753002 -0.001462
6.637889 43.753002 -0.001729
6.953240 43.753002 -0.002354
7.268589 43.753002 -0.002682
7.583940 43.753002 -0.003616
7.899290 43.753002 -0.005172
8.214640 43.753002 -0.003784
8.529989 43.753002 -0.002043
8.845339 43.753002 -0.000979
9.160688 43.753002 -0.000586
9.476040 43.753002 0.000068
9.791389 43.753002 0.008838
10.106739 43.753002 0.008602
10.422089 43.753002 -0.000727
10.737438 43.753002 -0.001926
11.052790 43.753002 -0.003170
11.368139 43.753002 -0.015172
11.683489 43.753002 0.001844
11.998838 43.753002 0.001863
12.314190 43.753002 0.016974
12.629539 43.753002 0.017791
12.944889 43.753002 0.001853
13.260239 43.753002 -0.001358
13.575588 43.753002 -0.006474
13.890940 43.753002 -0.010165
14.206289 43.753002 0.009292
14.521639 43.753002 0.018523
14.836988 43.753002 0.036208
15.152340 43.753002 0.017298
15.467690 43.753002 0.063192
15.783039 43.753002 0.010437
16.098389 43.753002 0.000000
16.413738 43.753002 0.000000
16.729090 43.753002 0.000000
17.044439 43.753002 0.000000
17.359789 43.753002 0.000000
17.675138 43.753002 0.000000
17.990490 43.753002 0.000000
18.305840 43.753002 0.000000
18.621189 43.753002 0.000000
18.936539 43.753002 0.000000
19.251888 43.753002 0.000000
-7.237510 43.437653 0.000000
-6.922160 43.437653 0.000000
-6.606810 43.437653 0.001286
-6.291460 43.437653 0.000841
-5.976110 43.437653 0.000937
-5.660760 43.437653 0.000896
-5.345410 43.437653 0.000675
-5.030060 43.437653 0.000575
-4.714710 43.437653 0.000622
-4.399360 43.437653 0.000675
-4.084010 43.437653 0.000684
-3.768660 43.437653 0.000552
-3.453310 43.437653 0.000498
-3.137960 43.437653 0.000563
-2.822610 43.437653 0.000613
-2.507260 43.437653 0.000614
-2.191910 43.437653 0.000616
-1.876560 43.437653 0.000579
-1.561210 43.437653 0.000617
-1.245860 43.437653 0.000602
-0.930510 43.437653 0.000711
-0.615160 43.437653 0.000607
-0.299810 43.437653 0.000609
0.015540 43.437653 0.000667
0.330890 43.437653 0.000536
0.646240 43.437653 0.000490
0.961589 43.437653 0.000413
1.276940 43.437653 0.000377
1.592289 43.437653 0.000367
1.907640 43.437653 0.000298
2.222990 43.437653 0.000390
2.538340 43.437653 0.000461
2.853690 43.437653 0.000522
3.169039 43.437653 0.000383
3.484390 43.437653 0.000024
3.799739 43.437653 -0.000240
4.115090 43.437653 -0.000320
4.430439 43.437653 -0.000158
4.745790 43.437653 0.000007
5.061140 43.437653 -0.000196
5.376490 43.437653 -0.000558
5.691840 43.437653 -0.000892
6.007189 43.437653 -0.001317
6.322540 43.437653 -0.001536
6.637889 43.437653 -0.001562
6.953240 43.437653 -0.002258
7.268589 43.437653 -0.002956
7.583940 43.437653 -0.003607
7.899290 43.437653 -0.004641
8.214640 43.437653 -0.005299
8.529989 43.437653 -0.003241
8.845339 43.437653 -0.003951
9.160688 43.437653 -0.001160
9.476040 43.437653 0.003994
9.791389 43.437653 0.006590
10.106739 43.437653 0.007914
10.422089 43.437653 -0.001275
10.737438 43.437653 0.007459
11.052790 43.437653 -0.014801
11.368139 43.437653 -0.005810
11.683489 43.437653 -0.014747
11.998838 43.437653 0.001135
12.314190 43.437653 0.025353
12.629539 43.437653 0.039825
12.944889 43.437653 0.000721
13.260239 43.437653 -0.018560
13.575588 43.437653 0.005299
13.890940 43.437653 -0.018687
14.206289 43.437653 0.011862
14.521639 43.437653 -0.005015
14.836988 43.437653 -0.019490
15.152340 43.437653 0.023176
15.467690 43.437653 0.019155
15.783039 43.437653 -0.024426
16.098389 43.437653 0.000000
16.413738 43.437653 0.000000
16.729090 43.437653 0.000000
17.044439 43.437653 0.000000
17.359789 43.437653 0.000000
17.675138 43.437653 0.000000
17.990490 43.437653 0.000000
18.305840 43.437653 0.000000
18.621189 43.437653 0.000000
18.936539 43.437653 0.000000
19.251888 43.437653 0.000000
-7.237510 43.122299 0.000000
-6.922160 43.122299 0.000000
-6.606810 43.122299 0.001137
-6.291460 43.122299 0.000871
-5.976110 43.122299 0.001059
-5.660760 43.122299 0.000977
-5.345410 43.122299 0.000772
-5.030060 43.122299 0.000654
-4.714710 43.122299 0.000729
-4.399360 43.122299 0.000760
-4.084010 43.122299 0.000609
-3.768660 43.122299 0.000469
-3.453310 43.122299 0.000426
-3.137960 43.122299 0.000509
-2.822610 43.122299 0.000638
-2.507260 43.122299 0.000673
-2.191910 43.122299 0.000565
-1.876560 43.122299 0.000457
-1.561210 43.122299 0.000431
-1.245860 43.122299 0.000384
-0.930510 43.122299 0.000569
-0.615160 43.122299 0.000566
-0.299810 43.122299 0.000528
0.015540 43.122299 0.000563
0.330890 43.122299 0.000504
0.646240 43.122299 0.000546
0.961589 43.122299 0.000430
1.276940 43.122299 0.000360
1.592289 43.122299 0.000459
1.907640 43.122299 0.000377
2.222990 43.122299 0.000370
2.538340 43.122299 0.000339
2.853690 43.122299 0.000375
3.169039 43.122299 0.000287
3.484390 43.122299 0.000059
3.799739 43.122299 -0.000167
4.115090 43.122299 -0.000272
4.430439 43.122299 -0.000228
4.745790 43.122299 0.000001
5.061140 43.122299 -0.000106
5.376490 43.122299 -0.000640
5.691840 43.122299 -0.000982
6.007189 43.122299 -0.001347
6.322540 43.122299 -0.001727
6.637889 43.122299 -0.001885
6.953240 43.122299 -0.002226
7.268589 43.122299 -0.003203
7.583940 43.122299 -0.003440
7.899290 43.122299 -0.004810
8.214640 43.122299 -0.005474
8.529989 43.122299 -0.005406
8.845339 43.122299 -0.001196
9.160688 43.122299 0.001002
9.476040 43.122299 0.003471
9.791389 43.122299 0.008732
10.106739 43.122299 0.009645
10.422089 43.122299 0.006210
10.737438 43.122299 0.014215
11.052790 43.122299 0.008609
11.368139 43.122299 0.005532
11.683489 43.122299 0.007479
11.998838 43.122299 -0.005965
12.314190 43.122299 0.008003
12.629539 43.122299 0.024169
12.944889 43.122299 -0.004314
13.260239 43.122299 -0.015901
13.575588 43.122299 0.006629
13.890940 43.122299 0.022686
14.206289 43.122299 0.022634
14.521639 43.122299 0.000951
14.836988 43.122299 0.021436
15.152340 43.122299 0.038334
15.467690 43.122299 -0.015146
15.783039 43.122299 -0.048155
16.098389 43.122299 0.000000
16.413738 43.122299 0.000000
16.729090 43.122299 0.000000
17.044439 43.122299 0.000000
17.359789 43.122299 0.000000
17.675138 43.122299 0.000000
17.990490 43.122299 0.000000
18.305840 43.122299 0.000000
18.621189 43.122299 0.000000
18.936539 43.122299 0.000000
19.251888 43.122299 0.000000
-7.237510 42.806950 0.000000
-6.922160 42.806950 0.000000
-6.606810 42.806950 0.001159
-6.291460 42.806950 0.000899
-5.976110 42.806950 0.001073
-5.660760 42.806950 0.001046
-5.345410 42.806950 0.000832
-5.030060 42.806950 0.000716
-4.714710 42.806950 0.000793
-4.399360 42.806950 0.000822
-4.084010 42.806950 0.000627
-3.768660 42.806950 0.000496
-3.453310 42.806950 0.000485
-3.137960 42.806950 0.000510
-2.822610 42.806950 0.000642
-2.507260 42.806950 0.000689
-2.191910 42.806950 0.000601
-1.876560 42.806950 0.000426
-1.561210 42.806950 0.000336
-1.245860 42.806950 0.000213
-0.930510 42.806950 0.000436
-0.615160 42.806950 0.000623
-0.299810 42.806950 0.000599
0.015540 42.806950 0.000515
0.330890 42.806950 0.000518
0.646240 42.806950 0.000521
0.961589 42.806950 0.000358
1.276940 42.806950 0.000396
1.592289 42.806950 0.000503
1.907640 42.806950 0.000452
2.222990 42.806950 0.000426
2.538340 42.806950 0.000286
2.853690 42.806950 0.000152
3.169039 42.806950 0.000153
3.484390 42.806950 0.000031
3.799739 42.806950 -0.000021
4.115090 42.806950 -0.000186
4.430439 42.806950 -0.000184
4.745790 42.806950 -0.000092
5.061140 42.806950 -0.000138
5.376490 42.806950 -0.000615
5.691840 42.806950 -0.001109
6.007189 42.806950 -0.001404
6.322540 42.806950 -0.001847
6.637889 42.806950 -0.002090
6.953240 42.806950 -0.002585
7.268589 42.806950 -0.003842
7.583940 42.806950 -0.004355
7.899290 42.806950 -0.003229
8.214640 42.806950 -0.004618
8.529989 42.806950 -0.004073
8.845339 42.806950 -0.000582
9.160688 42.806950 0.000120
9.476040 42.806950 -0.003295
9.791389 42.806950 0.007154
10.106739 42.806950 0.008399
10.422089 42.806950 0.003248
10.737438 42.806950 0.020120
11.052790 42.806950 0.011975
11.368139 42.806950 0.009793
11.683489 42.806950 0.003883
11.998838 42.806950 0.005618
12.314190 42.806950 0.006228
12.629539 42.806950 0.008250
12.944889 42.806950 -0.016994
13.260239 42.806950 0.002025
13.575588 42.806950 0.016545
13.890940 42.806950 0.026355
14.206289 42.806950 0.044011
14.521639 42.806950 0.021734
14.836988 42.806950 0.004911
15.152340 42.806950 0.029523
15.467690 42.806950 -0.009868
15.783039 42.806950 -0.087902
16.098389 42.806950 0.000000
16.413738 42.806950 0.000000
16.729090 42.806950 0.000000
17.044439 42.806950 0.000000
17.359789 42.806950 0.000000
17.675138 42.806950 0.000000
17.990490 42.806950 0.000000
18.305840 42.806950 0.000000
18.621189 42.806950 0.000000
18.936539 42.806950 0.000000
19.251888 42.806950 0.000000
-7.237510 42.491600 0.000000
-6.922160 42.491600 0.000000
-6.606810 42.491600 0.001152
-6.291460 42.491600 0.000849
-5.976110 42.491600 0.000941
-5.660760 42.491600 0.000969
-5.345410 42.491600 0.000852
-5.030060 42.491600 0.000759
-4.714710 42.491600 0.000806
-4.399360 42.491600 0.000784
-4.084010 42.491600 0.000609
-3.768660 42.491600 0.000511
-3.453310 42.491600 0.000556
-3.137960 42.491600 0.000663
-2.822610 42.491600 0.000647
-2.507260 42.491600 0.000601
-2.191910 42.491600 0.000610
-1.876560 42.491600 0.000488
-1.561210 42.491600 0.000363
-1.245860 42.491600 0.000231
-0.930510 42.491600 0.000400
-0.615160 42.491600 0.000566
-0.299810 42.491600 0.000551
0.015540 42.491600 0.000470
0.330890 42.491600 0.000450
0.646240 42.491600 0.000418
0.961589 42.491600 0.000328
1.276940 42.491600 0.000365
1.592289 42.491600 0.000527
1.907640 42.491600 0.000586
2.222990 42.491600 0.000470
2.538340 42.491600 0.000239
2.853690 42.491600 0.000032
3.169039 42.491600 0.000009
3.484390 42.491600 0.000046
3.799739 42.491600 0.000103
4.115090 42.491600 0.000002
4.430439 42.491600 -0.000101
4.745790 42.491600 -0.000219
5.061140 42.491600 -0.000190
5.376490 42.491600 -0.000458
5.691840 42.491600 -0.001001
6.007189 42.491600 -0.001439
6.322540 42.491600 -0.001777
6.637889 42.491600 -0.002211
6.953240 42.491600 -0.002901
7.268589 42.491600 -0.004303
7.583940 42.491600 -0.004818
7.899290 42.491600 -0.003556
8.214640 42.491600 -0.003575
8.529989 42.491600 -0.002407
8.845339 42.491600 0.002983
9.160688 42.491600 0.001969
9.476040 42.491600 0.000667
9.791389 42.491600 0.004634
10.106739 42.491600 0.003385
10.422089 42.491600 -0.004391
10.737438 42.491600 0.018694
11.052790 42.491600 0.025475
11.368139 42.491600 0.019395
11.683489 42.491600 -0.002340
11.998838 42.491600 0.002204
12.314190 42.491600 0.002141
12.629539 42.491600 -0.002655
12.944889 42.491600 -0.008068
13.260239 42.491600 0.007447
13.575588 42.491600 0.030545
13.890940 42.491600 0.025927
14.206289 42.491600 -0.000409
14.521639 42.491600 0.024414
14.836988 42.491600 -0.002364
15.152340 42.491600 0.011500
15.467690 42.491600 -0.033626
15.783039 42.491600 -0.100923
16.098389 42.491600 0.000000
16.413738 42.491600 0.000000
16.729090 42.491600 0.000000
17.044439 42.491600 0.000000
17.359789 42.491600 0.000000
17.675138 42.491600 0.000000
17.990490 42.491600 0.000000
18.305840 42.491600 0.000000
18.621189 42.491600 0.000000
18.936539 42.491600 0.000000
19.251888 42.491600 0.000000
-7.237510 42.176250 0.000000
-6.922160 42.176250 0.000000
-6.606810 42.176250 0.001151
-6.291460 42.176250 0.000756
-5.976110 42.176250 0.000733
-5.660760 42.176250 0.000812
-5.345410 42.176250 0.000825
-5.030060 42.176250 0.000736
-4.714710 42.176250 0.000729
-4.399360 42.176250 0.000763
-4.084010 42.176250 0.000569
-3.768660 42.176250 0.000513
-3.453310 42.176250 0.000583
-3.137960 42.176250 0.000745
-2.822610 42.176250 0.000594
-2.507260 42.176250 0.000557
-2.191910 42.176250 0.000708
-1.876560 42.176250 0.000585
-1.561210 42.176250 0.000462
-1.245860 42.176250 0.000447
-0.930510 42.176250 0.000485
-0.615160 42.176250 0.000551
-0.299810 42.176250 0.000461
0.015540 42.176250 0.000433
0.330890 42.176250 0.000437
0.646240 42.176250 0.000354
0.961589 42.176250 0.000320
1.276940 42.176250 0.000368
1.592289 42.176250 0.000488
1.907640 42.176250 0.000572
2.222990 42.176250 0.000520
2.538340 42.176250 0.000223
2.853690 42.176250 -0.000072
3.169039 42.176250 -0.000042
3.484390 42.176250 0.000008
3.799739 42.176250 0.000160
4.115090 42.176250 0.000085
4.430439 42.176250 -0.000104
4.745790 42.176250 -0.000357
5.061140 42.176250 -0.000287
5.376490 42.176250 -0.000463
5.691840 42.176250 -0.000969
6.007189 42.176250 -0.001401
6.322540 42.176250 -0.001777
6.637889 42.176250 -0.002261
6.953240 42.176250 -0.003550
7.268589 42.176250 -0.004801
7.583940 42.176250 -0.004914
7.899290 42.176250 -0.004698
8.214640 42.176250 -0.005638
8.529989 42.176250 -0.003656
8.845339 42.176250 0.000550
9.160688 42.176250 0.008199
9.476040 42.176250 0.001670
9.791389 42.176250 0.004202
10.106739 42.176250 0.007865
10.422089 42.176250 -0.004503
10.737438 42.176250 0.002735
11.052790 42.176250 0.015943
11.368139 42.176250 0.015424
11.683489 42.176250 0.004551
11.998838 42.176250 0.012438
12.314190 42.176250 0.000910
12.629539 42.176250 -0.004311
12.944889 42.176250 0.000941
13.260239 42.176250 0.058038
13.575588 42.176250 0.016166
13.890940 42.176250 0.040696
14.206289 42.176250 -0.007943
14.521639 42.176250 -0.012074
14.836988 42.176250 0.035133
15.152340 42.176250 0.070006
15.467690 42.176250 -0.016575
15.783039 42.176250 -0.128465
16.098389 42.176250 0.000000
16.413738 42.176250 0.000000
16.729090 42.176250 0.000000
17.044439 42.176250 0.000000
17.359789 42.176250 0.000000
17.675138 42.176250 0.000000
17.990490 42.176250 0.000000
18.305840 42.176250 0.000000
18.621189 42.176250 0.000000
18.936539 42.176250 0.000000
19.251888 42.176250 0.000000
-7.237510 41.860901 0.000000
-6.922160 41.860901 0.000000
-6.606810 41.860901 0.001058
-6.291460 41.860901 0.000636
-5.976110 41.860901 0.000599
-5.660760 41.860901 0.000690
-5.345410 41.860901 0.000748
-5.030060 41.860901 0.000672
-4.714710 41.860901 0.000629
-4.399360 41.860901 0.000669
-4.084010 41.860901 0.000545
-3.768660 41.860901 0.000506
-3.453310 41.860901 0.000644
-3.137960 41.860901 0.000762
-2.822610 41.860901 0.000633
-2.507260 41.860901 0.000587
-2.191910 41.860901 0.000716
-1.876560 41.860901 0.000590
-1.561210 41.860901 0.000410
-1.245860 41.860901 0.000574
-0.930510 41.860901 0.000568
-0.615160 41.860901 0.000485
-0.299810 41.860901 0.000331
0.015540 41.860901 0.000351
0.330890 41.860901 0.000360
0.646240 41.860901 0.000304
0.961589 41.860901 0.000333
1.276940 41.860901 0.000334
1.592289 41.860901 0.000386
1.907640 41.860901 0.000441
2.222990 41.860901 0.000395
2.538340 41.860901 0.000175
2.853690 41.860901 -0.000113
3.169039 41.860901 0.000026
3.484390 41.860901 0.000020
3.799739 41.860901 0.000255
4.115090 41.860901 0.000212
4.430439 41.860901 -0.000104
4.745790 41.860901 -0.000395
5.061140 41.860901 -0.000518
5.376490 41.860901 -0.000476
5.691840 41.860901 -0.000881
6.007189 41.860901 -0.001380
6.322540 41.860901 -0.001808
6.637889 41.860901 -0.002304
6.953240 41.860901 -0.003149
7.268589 41.860901 -0.003942
7.583940 41.860901 -0.003960
7.899290 41.860901 -0.004137
8.214640 41.860901 -0.003595
8.529989 41.860901 -0.003114
8.845339 41.860901 0.000354
9.160688 41.860901 0.006159
9.476040 41.860901 0.007327
9.791389 41.860901 0.009607
10.106739 41.860901 0.000181
10.422089 41.860901 -0.012403
10.737438 41.860901 -0.009371
11.052790 41.860901 0.002489
11.368139 41.860901 0.008685
11.683489 41.860901 0.015124
11.998838 41.860901 0.021788
12.314190 41.860901 0.008481
12.629539 41.860901 0.008772
12.944889 41.860901 0.011955
13.260239 41.860901 0.024609
13.575588 41.860901 0.003902
13.890940 41.860901 0.000152
14.206289 41.860901 -0.015573
14.521639 41.860901 0.034671
14.836988 41.860901 0.028846
15.152340 41.860901 0.051794
15.467690 41.860901 0.029835
15.783039 41.860901 -0.125728
16.098389 41.860901 0.000000
16.413738 41.860901 0.000000
16.729090 41.860901 0.000000
17.044439 41.860901 0.000000
17.359789 41.860901 0.000000
17.675138 41.860901 0.000000
17.990490 41.860901 0.000000
18.305840 41.860901 0.000000
18.621189 41.860901 0.000000
18.936539 41.860901 0.000000
19.251888 41.860901 0.000000
-7.237510 41.545551 0.000000
-6.922160 41.545551 0.000000
-6.606810 41.545551 0.001072
-6.291460 41.545551 0.000571
-5.976110 41.545551 0.000554
-5.660760 41.545551 0.000627
-5.345410 41.545551 0.000659
-5.030060 41.545551 0.000576
-4.714710 41.545551 0.000507
-4.399360 41.545551 0.000572
-4.084010 41.545551 0.000529
-3.768660 41.545551 0.000501
-3.453310 41.545551 0.000643
-3.137960 41.545551 0.000768
-2.822610 41.545551 0.000641
-2.507260 41.545551 0.000594
-2.191910 41.545551 0.000675
-1.876560 41.545551 0.000503
-1.561210 41.545551 0.000385
-1.245860 41.545551 0.000582
-0.930510 41.545551 0.000629
-0.615160 41.545551 0.000442
-0.299810 41.545551 0.000327
0.015540 41.545551 0.000343
0.330890 41.545551 0.000305
0.646240 41.545551 0.000337
0.961589 41.545551 0.000416
1.276940 41.545551 0.000300
1.592289 41.545551 0.000409
1.907640 41.545551 0.000314
2.222990 41.545551 0.000295
2.538340 41.545551 0.000169
2.853690 41.545551 0.000020
3.169039 41.545551 0.000075
3.484390 41.545551 -0.000004
3.799739 41.545551 0.000163
4.115090 41.545551 0.000151
4.430439 41.545551 -0.000191
4.745790 41.545551 -0.000467
5.061140 41.545551 -0.000732
5.376490 41.545551 -0.000589
5.691840 41.545551 -0.000773
6.007189 41.545551 -0.001304
6.322540 41.545551 -0.001628
6.637889 41.545551 -0.002384
6.953240 41.545551 -0.002787
7.268589 41.545551 -0.002807
7.583940 41.545551 -0.002302
7.899290 41.545551 -0.002760
8.214640 41.545551 -0.002077
8.529989 41.545551 -0.002064
8.845339 41.545551 0.002331
9.160688 41.545551 0.004372
9.476040 41.545551 0.006286
9.791389 41.545551 0.008582
10.106739 41.545551 0.000576
10.422089 41.545551 -0.016207
10.737438 41.545551 -0.000808
11.052790 41.545551 -0.004270
11.368139 41.545551 0.015683
11.683489 41.545551 0.036056
11.998838 41.545551 0.021243
12.314190 41.545551 0.005008
12.629539 41.545551 -0.022640
12.944889 41.545551 -0.004876
13.260239 41.545551 0.012311
13.575588 41.545551 0.037620
13.890940 41.545551 0.000890
14.206289 41.545551 0.028328
14.521639 41.545551 0.029841
14.836988 41.545551 0.035511
15.152340 41.545551 0.031711
15.467690 41.545551 0.010530
15.783039 41.545551 -0.079644
16.098389 41.545551 0.000000
16.413738 41.545551 0.000000
16.729090 41.545551 0.000000
17.044439 41.545551 0.000000
17.359789 41.545551 0.000000
17.675138 41.545551 0.000000
17.990490 41.545551 0.000000
18.305840 41.545551 0.000000
18.621189 41.545551 0.000000
18.936539 41.545551 0.000000
19.251888 41.545551 0.000000
-7.237510 41.230202 0.000000
-6.922160 41.230202 0.000000
-6.606810 41.230202 0.001009
-6.291460 41.230202 0.000554
-5.976110 41.230202 0.000570
-5.660760 41.230202 0.000631
-5.345410 41.230202 0.000557
-5.030060 41.230202 0.000536
-4.714710 41.230202 0.000495
-4.399360 41.230202 0.000533
-4.084010 41.230202 0.000512
-3.768660 41.230202 0.000447
-3.453310 41.230202 0.000582
-3.137960 41.230202 0.000677
-2.822610 41.230202 0.000641
-2.507260 41.230202 0.000543
-2.191910 41.230202 0.000612
-1.876560 41.230202 0.000474
-1.561210 41.230202 0.000405
-1.245860 41.230202 0.000557
-0.930510 41.230202 0.000576
-0.615160 41.230202 0.000444
-0.299810 41.230202 0.000318
0.015540 41.230202 0.000362
0.330890 41.230202 0.000361
0.646240 41.230202 0.000381
0.961589 41.230202 0.000448
1.276940 41.230202 0.000343
1.592289 41.230202 0.000363
1.907640 41.230202 0.000233
2.222990 41.230202 0.000247
2.538340 41.230202 0.000276
2.853690 41.230202 0.000139
3.169039 41.230202 0.000128
3.484390 41.230202 0.000032
3.799739 41.230202 0.000152
4.115090 41.230202 0.000093
4.430439 41.230202 -0.000185
4.745790 41.230202 -0.000431
5.061140 41.230202 -0.000687
5.376490 41.230202 -0.000617
5.691840 41.230202 -0.000742
6.007189 41.230202 -0.001231
6.322540 41.230202 -0.001647
6.637889 41.230202 -0.002133
6.953240 41.230202 -0.002905
7.268589 41.230202 -0.002486
7.583940 41.230202 -0.002259
7.899290 41.230202 -0.002203
8.214640 41.230202 -0.002216
8.529989 41.230202 -0.002547
8.845339 41.230202 0.000965
9.160688 41.230202 0.006080
9.476040 41.230202 0.005792
9.791389 41.230202 0.004756
10.106739 41.230202 -0.000777
10.422089 41.230202 -0.010437
10.737438 41.230202 -0.006876
11.052790 41.230202 -0.000326
11.368139 41.230202 0.021609
11.683489 41.230202 0.028324
11.998838 41.230202 0.023071
12.314190 41.230202 0.007121
12.629539 41.230202 -0.043108
12.944889 41.230202 -0.040944
13.260239 41.230202 0.020555
13.575588 41.230202 0.012230
13.890940 41.230202 -0.007498
14.206289 41.230202 0.023788
14.521639 41.230202 0.050768
14.836988 41.230202 0.035918
15.152340 41.230202 0.050475
15.467690 41.230202 0.011111
15.783039 41.230202 -0.048942
16.098389 41.230202 0.000000
16.413738 41.230202 0.000000
16.729090 41.230202 0.000000
17.044439 41.230202 0.000000
17.359789 41.230202 0.000000
17.675138 41.230202 0.000000
17.990490 41.230202 0.000000
18.305840 41.230202 0.000000
18.621189 41.230202 0.000000
18.936539 41.230202 0.000000
19.251888 41.230202 0.000000
-7.237510 40.914848 0.000000
-6.922160 40.914848 0.000000
-6.606810 40.914848 0.000911
-6.291460 40.914848 0.000531
-5.976110 40.914848 0.000596
-5.660760 40.914848 0.000606
-5.345410 40.914848 0.000471
-5.030060 40.914848 0.000500
-4.714710 40.914848 0.000442
-4.399360 40.914848 0.000456
-4.084010 40.914848 0.000473
-3.768660 40.914848 0.000443
-3.453310 40.914848 0.000523
-3.137960 40.914848 0.000572
-2.822610 40.914848 0.000576
-2.507260 40.914848 0.000549
-2.191910 40.914848 0.000518
-1.876560 40.914848 0.000419
-1.561210 40.914848 0.000454
-1.245860 40.914848 0.000546
-0.930510 40.914848 0.000545
-0.615160 40.914848 0.000445
-0.299810 40.914848 0.000376
0.015540 40.914848 0.000432
0.330890 40.914848 0.000422
0.646240 40.914848 0.000406
0.961589 40.914848 0.000441
1.276940 40.914848 0.000272
1.592289 40.914848 0.000263
1.907640 40.914848 0.000174
2.222990 40.914848 0.000261
2.538340 40.914848 0.000363
2.853690 40.914848 0.000217
3.169039 40.914848 0.000081
3.484390 40.914848 0.000080
3.799739 40.914848 0.000163
4.115090 40.914848 0.000057
4.430439 40.914848 -0.000230
4.745790 40.914848 -0.000409
5.061140 40.914848 -0.000540
5.376490 40.914848 -0.000492
5.691840 40.914848 -0.000694
6.007189 40.914848 -0.001077
6.322540 40.914848 -0.001364
6.637889 40.914848 -0.002044
6.953240 40.914848 -0.002718
7.268589 40.914848 -0.002333
7.583940 40.914848 -0.002755
7.899290 40.914848 -0.002288
8.214640 40.914848 -0.001759
8.529989 40.914848 -0.001751
8.845339 40.914848 0.002239
9.160688 40.914848 0.004521
9.476040 40.914848 0.007722
9.791389 40.914848 0.006612
10.106739 40.914848 0.000614
10.422089 40.914848 0.001898
10.737438 40.914848 0.000698
11.052790 40.914848 0.016206
11.368139 40.914848 0.020889
11.683489 40.914848 0.030883
11.998838 40.914848 0.040981
12.314190 40.914848 0.003883
12.629539 40.914848 -0.004838
12.944889 40.914848 -0.020394
13.260239 40.914848 0.011725
13.575588 40.914848 -0.006424
13.890940 40.914848 -0.009300
14.206289 40.914848 0.002462
14.521639 40.914848 0.047031
14.836988 40.914848 0.030475
15.152340 40.914848 0.039776
15.467690 40.914848 0.016429
15.783039 40.914848 -0.055976
16.098389 40.914848 0.000000
16.413738 40.914848 0.000000
16.729090 40.914848 0.000000
17.044439 40.914848 0.000000
17.359789 40.914848 0.000000
17.675138 40.914848 0.000000
17.990490 40.914848 0.000000
18.305840 40.914848 0.000000
18.621189 40.914848 0.000000
18.936539 40.914848 0.000000
19.251888 40.914848 0.000000
-7.237510 40.599503 0.000000
-6.922160 40.599503 0.000000
-6.606810 40.599503 0.000927
-6.291460 40.599503 0.000500
-5.976110 40.599503 0.000570
-5.660760 40.599503 0.000577
-5.345410 40.599503 0.000410
-5.030060 40.599503 0.000444
-4.714710 40.599503 0.000416
-4.399360 40.599503 0.000429
-4.084010 40.599503 0.000446
-3.768660 40.599503 0.000486
-3.453310 40.599503 0.000461
-3.137960 40.599503 0.000475
-2.822610 40.599503 0.000468
-2.507260 40.599503 0.000479
-2.191910 40.599503 0.000517
-1.876560 40.599503 0.000479
-1.561210 40.599503 0.000493
-1.245860 40.599503 0.000566
-0.930510 40.599503 0.000511
-0.615160 40.599503 0.000440
-0.299810 40.599503 0.000428
0.015540 40.599503 0.000456
0.330890 40.599503 0.000358
0.646240 40.599503 0.000326
0.961589 40.599503 0.000305
1.276940 40.599503 0.000203
1.592289 40.599503 0.000112
1.907640 40.599503 0.000112
2.222990 40.599503 0.000203
2.538340 40.599503 0.000358
2.853690 40.599503 0.000213
3.169039 40.599503 0.000006
3.484390 40.599503 0.000041
3.799739 40.599503 0.000104
4.115090 40.599503 -0.000022
4.430439 40.599503 -0.000310
4.745790 40.599503 -0.000452
5.061140 40.599503 -0.000535
5.376490 40.599503 -0.000385
5.691840 40.599503 -0.000600
6.007189 40.599503 -0.001059
6.322540 40.599503 -0.001169
6.637889 40.599503 -0.001805
6.953240 40.599503 -0.002420
7.268589 40.599503 -0.002620
7.583940 40.599503 -0.002728
7.899290 40.599503 -0.002268
8.214640 40.599503 -0.001990
8.529989 40.599503 0.000283
8.845339 40.599503 0.004604
9.160688 40.599503 0.005787
9.476040 40.599503 0.011523
9.791389 40.599503 0.004750
10.106739 40.599503 0.005542
10.422089 40.599503 0.001385
10.737438 40.599503 -0.004882
11.052790 40.599503 -0.000830
11.368139 40.599503 0.002734
11.683489 40.599503 0.033810
11.998838 40.599503 0.006512
12.314190 40.599503 -0.004237
12.629539 40.599503 -0.013233
12.944889 40.599503 0.012616
13.260239 40.599503 -0.005663
13.575588 40.599503 -0.024752
13.890940 40.599503 0.009662
14.206289 40.599503 0.019879
14.521639 40.599503 0.033143
14.836988 40.599503 0.023144
15.152340 40.599503 0.030888
15.467690 40.599503 0.022114
15.783039 40.599503 -0.059213
16.098389 40.599503 0.000000
16.413738 40.599503 0.000000
16.729090 40.599503 0.000000
17.044439 40.599503 0.000000
17.359789 40.599503 0.000000
17.675138 40.599503 0.000000
17.990490 40.599503 0.000000
18.305840 40.599503 0.000000
18.621189 40.599503 0.000000
18.936539 40.599503 0.000000
19.251888 40.599503 0.000000
-7.237510 40.284149 0.000000
-6.922160 40.284149 0.000000
-6.606810 40.284149 0.001029
-6.291460 40.284149 0.000523
-5.976110 40.284149 0.000589
-5.660760 40.284149 0.000551
-5.345410 40.284149 0.000370
-5.030060 40.284149 0.000387
-4.714710 40.284149 0.000360
-4.399360 40.284149 0.000377
-4.084010 40.284149 0.000403
-3.768660 40.284149 0.000473
-3.453310 40.284149 0.000404
-3.137960 40.284149 0.000395
-2.822610 40.284149 0.000378
-2.507260 40.284149 0.000410
-2.191910 40.284149 0.000496
-1.876560 40.284149 0.000499
-1.561210 40.284149 0.000477
-1.245860 40.284149 0.000529
-0.930510 40.284149 0.000506
-0.615160 40.284149 0.000467
-0.299810 40.284149 0.000468
0.015540 40.284149 0.000454
0.330890 40.284149 0.000252
0.646240 40.284149 0.000201
0.961589 40.284149 0.000243
1.276940 40.284149 0.000195
1.592289 40.284149 0.000141
1.907640 40.284149 0.000087
2.222990 40.284149 0.000143
2.538340 40.284149 0.000229
2.853690 40.284149 0.000128
3.169039 40.284149 -0.000007
3.484390 40.284149 -0.000059
3.799739 40.284149 -0.000018
4.115090 40.284149 -0.000201
4.430439 40.284149 -0.000451
4.745790 40.284149 -0.000482
5.061140 40.284149 -0.000469
5.376490 40.284149 -0.000253
5.691840 40.284149 -0.000484
6.007189 40.284149 -0.000967
6.322540 40.284149 -0.001163
6.637889 40.284149 -0.001642
6.953240 40.284149 -0.002554
7.268589 40.284149 -0.003334
7.583940 40.284149 -0.003377
7.899290 40.284149 -0.003305
8.214640 40.284149 -0.003160
8.529989 40.284149 -0.001148
8.845339 40.284149 0.004735
9.160688 40.284149 0.004211
9.476040 40.284149 0.009057
9.791389 40.284149 0.009320
10.106739 40.284149 -0.001517
10.422089 40.284149 -0.003576
10.737438 40.284149 -0.008858
11.052790 40.284149 0.002813
11.368139 40.284149 -0.000241
11.683489 40.284149 0.012296
11.998838 40.284149 0.031155
12.314190 40.284149 -0.019383
12.629539 40.284149 -0.009781
12.944889 40.284149 -0.003520
13.260239 40.284149 0.011691
13.575588 40.284149 0.018422
13.890940 40.284149 0.049245
14.206289 40.284149 -0.003298
14.521639 40.284149 0.034326
14.836988 40.284149 -0.014681
15.152340 40.284149 0.035168
15.467690 40.284149 0.025612
15.783039 40.284149 -0.031860
16.098389 40.284149 0.000000
16.413738 40.284149 0.000000
16.729090 40.284149 0.000000
17.044439 40.284149 0.000000
17.359789 40.284149 0.000000
17.675138 40.284149 0.000000
17.990490 40.284149 0.000000
18.305840 40.284149 0.000000
18.621189 40.284149 0.000000
18.936539 40.284149 0.000000
19.251888 40.284149 0.000000
-7.237510 39.968800 0.000000
-6.922160 39.968800 0.000000
-6.606810 39.968800 0.001097
-6.291460 39.968800 0.000596
-5.976110 39.968800 0.000618
-5.660760 39.968800 0.000537
-5.345410 39.968800 0.000341
-5.030060 39.968800 0.000334
-4.714710 39.968800 0.000336
-4.399360 39.968800 0.000322
-4.084010 39.968800 0.000308
-3.768660 39.968800 0.000408
-3.453310 39.968800 0.000387
-3.137960 39.968800 0.000358
-2.822610 39.968800 0.000381
-2.507260 39.968800 0.000343
-2.191910 39.968800 0.000397
-1.876560 39.968800 0.000456
-1.561210 39.968800 0.000438
-1.245860 39.968800 0.000502
-0.930510 39.968800 0.000515
-0.615160 39.968800 0.000482
-0.299810 39.968800 0.000476
0.015540 39.968800 0.000401
0.330890 39.968800 0.000263
0.646240 39.968800 0.000214
0.961589 39.968800 0.000283
1.276940 39.968800 0.000248
1.592289 39.968800 0.000205
1.907640 39.968800 0.000172
2.222990 39.968800 0.000111
2.538340 39.968800 0.000106
2.853690 39.968800 0.000091
3.169039 39.968800 -0.000037
3.484390 39.968800 -0.000031
3.799739 39.968800 -0.000067
4.115090 39.968800 -0.000274
4.430439 39.968800 -0.000400
4.745790 39.968800 -0.000419
5.061140 39.968800 -0.000417
5.376490 39.968800 -0.000202
5.691840 39.968800 -0.000413
6.007189 39.968800 -0.000846
6.322540 39.968800 -0.001200
6.637889 39.968800 -0.002085
6.953240 39.968800 -0.002454
7.268589 39.968800 -0.003309
7.583940 39.968800 -0.003770
7.899290 39.968800 -0.004518
8.214640 39.968800 -0.003710
8.529989 39.968800 0.000288
8.845339 39.968800 0.002488
9.160688 39.968800 0.003676
9.476040 39.968800 -0.001258
9.791389 39.968800 0.003411
10.106739 39.968800 0.005669
10.422089 39.968800 -0.004300
10.737438 39.968800 0.001663
11.052790 39.968800 0.001696
11.368139 39.968800 0.005139
11.683489 39.968800 0.025178
11.998838 39.968800 0.011485
12.314190 39.968800 -0.008740
12.629539 39.968800 -0.005405
12.944889 39.968800 0.003927
13.260239 39.968800 0.008146
13.575588 39.968800 0.045017
13.890940 39.968800 0.013601
14.206289 39.968800 0.027389
14.521639 39.968800 -0.000117
14.836988 39.968800 -0.034629
15.152340 39.968800 -0.017781
15.467690 39.968800 -0.001417
15.783039 39.968800 -0.041873
16.098389 39.968800 0.000000
16.413738 39.968800 0.000000
16.729090 39.968800 0.000000
17.044439 39.968800 0.000000
17.359789 39.968800 0.000000
17.675138 39.968800 0.000000
17.990490 39.968800 0.000000
18.305840 39.968800 0.000000
18.621189 39.968800 0.000000
18.936539 39.968800 0.000000
19.251888 39.968800 0.000000
-7.237510 39.653450 0.000000
-6.922160 39.653450 0.000000
-6.606810 39.653450 0.001004
-6.291460 39.653450 0.000632
-5.976110 39.653450 0.000619
-5.660760 39.653450 0.000560
-5.345410 39.653450 0.000347
-5.030060 39.653450 0.000270
-4.714710 39.653450 0.000325
-4.399360 39.653450 0.000301
-4.084010 39.653450 0.000258
-3.768660 39.653450 0.000365
-3.453310 39.653450 0.000376
-3.137960 39.653450 0.000347
-2.822610 39.653450 0.000342
-2.507260 39.653450 0.000343
-2.191910 39.653450 0.000356
-1.876560 39.653450 0.000346
-1.561210 39.653450 0.000379
-1.245860 39.653450 0.000444
-0.930510 39.653450 0.000496
-0.615160 39.653450 0.000451
-0.299810 39.653450 0.000469
0.015540 39.653450 0.000394
0.330890 39.653450 0.000283
0.646240 39.653450 0.000244
0.961589 39.653450 0.000277
1.276940 39.653450 0.000313
1.592289 39.653450 0.000300
1.907640 39.653450 0.000263
2.222990 39.653450 0.000210
2.538340 39.653450 0.000123
2.853690 39.653450 0.000096
3.169039 39.653450 0.000041
3.484390 39.653450 -0.000065
3.799739 39.653450 -0.000093
4.115090 39.653450 -0.000344
4.430439 39.653450 -0.000336
4.745790 39.653450 -0.000208
5.061140 39.653450 -0.000288
5.376490 39.653450 -0.000223
5.691840 39.653450 -0.000528
6.007189 39.653450 -0.000850
6.322540 39.653450 -0.001183
6.637889 39.653450 -0.001974
6.953240 39.653450 -0.002492
7.268589 39.653450 -0.003207
7.583940 39.653450 -0.004101
7.899290 39.653450 -0.004017
8.214640 39.653450 -0.003787
8.529989 39.653450 -0.001364
8.845339 39.653450 -0.002379
9.160688 39.653450 -0.000176
9.476040 39.653450 -0.002066
9.791389 39.653450 0.008640
10.106739 39.653450 0.004908
10.422089 39.653450 -0.011986
10.737438 39.653450 0.003944
11.052790 39.653450 0.006844
11.368139 39.653450 0.013406
11.683489 39.653450 0.019189
11.998838 39.653450 -0.000859
12.314190 39.653450 -0.014087
12.629539 39.653450 0.019002
12.944889 39.653450 0.020846
13.260239 39.653450 0.011204
13.575588 39.653450 0.023621
13.890940 39.653450 0.034708
14.206289 39.653450 0.027680
14.521639 39.653450 -0.029194
14.836988 39.653450 -0.012731
15.152340 39.653450 -0.007019
15.467690 39.653450 -0.018521
15.783039 39.653450 -0.093459
16.098389 39.653450 0.000000
16.413738 39.653450 0.000000
16.729090 39.653450 0.000000
17.044439 39.653450 0.000000
17.359789 39.653450 0.000000
17.675138 39.653450 0.000000
17.990490 39.653450 0.000000
18.305840 39.653450 0.000000
18.621189 39.653450 0.000000
18.936539 39.653450 0.000000
19.251888 39.653450 0.000000
-7.237510 39.338100 0.000000
-6.922160 39.338100 0.000000
-6.606810 39.338100 0.000961
-6.291460 39.338100 0.000606
-5.976110 39.338100 0.000585
-5.660760 39.338100 0.000582
-5.345410 39.338100 0.000332
-5.030060 39.338100 0.000255
-4.714710 39.338100 0.000317
-4.399360 39.338100 0.000376
-4.084010 39.338100 0.000338
-3.768660 39.338100 0.000329
-3.453310 39.338100 0.000367
-3.137960 39.338100 0.000370
-2.822610 39.338100 0.000365
-2.507260 39.338100 0.000356
-2.191910 39.338100 0.000320
-1.876560 39.338100 0.000322
-1.561210 39.338100 0.000319
-1.245860 39.338100 0.000370
-0.930510 39.338100 0.000417
-0.615160 39.338100 0.000375
-0.299810 39.338100 0.000415
0.015540 39.338100 0.000359
0.330890 39.338100 0.000302
0.646240 39.338100 0.000249
0.961589 39.338100 0.000260
1.276940 39.338100 0.000301
1.592289 39.338100 0.000350
1.907640 39.338100 0.000302
2.222990 39.338100 0.000263
2.538340 39.338100 0.000122
2.853690 39.338100 0.000093
3.169039 39.338100 0.000088
3.484390 39.338100 -0.000027
3.799739 39.338100 -0.000066
4.115090 39.338100 -0.000209
4.430439 39.338100 -0.000186
4.745790 39.338100 0.000015
5.061140 39.338100 -0.000037
5.376490 39.338100 -0.000266
5.691840 39.338100 -0.000714
6.007189 39.338100 -0.000819
6.322540 39.338100 -0.001230
6.637889 39.338100 -0.001703
6.953240 39.338100 -0.002256
7.268589 39.338100 -0.003892
7.583940 39.338100 -0.004231
7.899290 39.338100 -0.003866
8.214640 39.338100 -0.002370
8.529989 39.338100 -0.001828
8.845339 39.338100 -0.001834
9.160688 39.338100 -0.000832
9.476040 39.338100 0.000629
9.791389 39.338100 -0.004379
10.106739 39.338100 0.003845
10.422089 39.338100 -0.010734
10.737438 39.338100 -0.002966
11.052790 39.338100 0.001656
11.368139 39.338100 0.009581
11.683489 39.338100 0.014675
11.998838 39.338100 0.021053
12.314190 39.338100 -0.010440
12.629539 39.338100 -0.000749
12.944889 39.338100 0.018769
13.260239 39.338100 -0.005511
13.575588 39.338100 0.009329
13.890940 39.338100 0.043849
14.206289 39.338100 -0.003124
14.521639 39.338100 0.001538
14.836988 39.338100 -0.061395
15.152340 39.338100 -0.026952
15.467690 39.338100 -0.006610
15.783039 39.338100 -0.077686
16.098389 39.338100 0.000000
16.413738 39.338100 0.000000
16.729090 39.338100 0.000000
17.044439 39.338100 0.000000
17.359789 39.338100 0.000000
17.675138 39.338100 0.000000
17.990490 39.338100 0.000000
18.305840 39.338100 0.000000
18.621189 39.338100 0.000000
18.936539 39.338100 0.000000
19.251888 39.338100 0.000000
-7.237510 39.022751 0.000000
-6.922160 39.022751 0.000000
-6.606810 39.022751 0.000966
-6.291460 39.022751 0.000526
-5.976110 39.022751 0.000536
-5.660760 39.022751 0.000579
-5.345410 39.022751 0.000343
-5.030060 39.022751 0.000314
-4.714710 39.022751 0.000430
-4.399360 39.022751 0.000485
-4.084010 39.022751 0.000479
-3.768660 39.022751 0.000425
-3.453310 39.022751 0.000455
-3.137960 39.022751 0.000434
-2.822610 39.022751 0.000424
-2.507260 39.022751 0.000395
-2.191910 39.022751 0.000318
-1.876560 39.022751 0.000315
-1.561210 39.022751 0.000310
-1.245860 39.022751 0.000261
-0.930510 39.022751 0.000281
-0.615160 39.022751 0.000307
-0.299810 39.022751 0.000347
0.015540 39.022751 0.000298
0.330890 39.022751 0.000243
0.646240 39.022751 0.000219
0.961589 39.022751 0.000273
1.276940 39.022751 0.000285
1.592289 39.022751 0.000353
1.907640 39.022751 0.000267
2.222990 39.022751 0.000227
2.538340 39.022751 0.000130
2.853690 39.022751 0.000099
3.169039 39.022751 0.000099
3.484390 39.022751 -0.000012
3.799739 39.022751 0.000014
4.115090 39.022751 -0.000095
4.430439 39.022751 -0.000049
4.745790 39.022751 0.000068
5.061140 39.022751 0.000112
5.376490 39.022751 -0.000261
5.691840 39.022751 -0.000836
6.007189 39.022751 -0.000881
6.322540 39.022751 -0.001250
6.637889 39.022751 -0.001538
6.953240 39.022751 -0.002021
7.268589 39.022751 -0.003436
7.583940 39.022751 -0.003602
7.899290 39.022751 -0.004120
8.214640 39.022751 -0.002200
8.529989 39.022751 0.000693
8.845339 39.022751 -0.001549
9.160688 39.022751 0.000203
9.476040 39.022751 0.001481
9.791389 39.022751 0.002430
10.106739 39.022751 0.001900
10.422089 39.022751 -0.016658
10.737438 39.022751 -0.014010
11.052790 39.022751 0.001588
11.368139 39.022751 -0.002857
11.683489 39.022751 0.000754
11.998838 39.022751 -0.001939
12.314190 39.022751 -0.016088
12.629539 39.022751 -0.005801
12.944889 39.022751 -0.004411
13.260239 39.022751 0.002041
13.575588 39.022751 0.018296
13.890940 39.022751 0.008652
14.206289 39.022751 0.058269
14.521639 39.022751 0.013552
14.836988 39.022751 -0.054162
15.152340 39.022751 -0.028674
15.467690 39.022751 0.005088
15.783039 39.022751 -0.009450
16.098389 39.022751 0.000000
16.413738 39.022751 0.000000
16.729090 39.022751 0.000000
17.044439 39.022751 0.000000
17.359789 39.022751 0.000000
17.675138 39.022751 0.000000
17.990490 39.022751 0.000000
18.305840 39.022751 0.000000
18.621189 39.022751 0.000000
18.936539 39.022751 0.000000
19.251888 39.022751 0.000000
-7.237510 38.707401 0.000000
-6.922160 38.707401 0.000000
-6.606810 38.707401 0.000887
-6.291460 38.707401 0.000499
-5.976110 38.707401 0.000534
-5.660760 38.707401 0.000629
-5.345410 38.707401 0.000412
-5.030060 38.707401 0.000409
-4.714710 38.707401 0.000506
-4.399360 38.707401 0.000559
-4.084010 38.707401 0.000582
-3.768660 38.707401 0.000517
-3.453310 38.707401 0.000521
-3.137960 38.707401 0.000492
-2.822610 38.707401 0.000484
-2.507260 38.707401 0.000421
-2.191910 38.707401 0.000336
-1.876560 38.707401 0.000302
-1.561210 38.707401 0.000255
-1.245860 38.707401 0.000177
-0.930510 38.707401 0.000244
-0.615160 38.707401 0.000292
-0.299810 38.707401 0.000320
0.015540 38.707401 0.000267
0.330890 38.707401 0.000200
0.646240 38.707401 0.000195
0.961589 38.707401 0.000239
1.276940 38.707401 0.000271
1.592289 38.707401 0.000260
1.907640 38.707401 0.000204
2.222990 38.707401 0.000196
2.538340 38.707401 0.000025
2.853690 38.707401 -0.000036
3.169039 38.707401 0.000031
3.484390 38.707401 0.000042
3.799739 38.707401 0.000012
4.115090 38.707401 -0.000094
4.430439 38.707401 -0.000076
4.745790 38.707401 0.000131
5.061140 38.707401 0.000097
5.376490 38.707401 -0.000369
5.691840 38.707401 -0.000879
6.007189 38.707401 -0.001008
6.322540 38.707401 -0.001103
6.637889 38.707401 -0.001344
6.953240 38.707401 -0.002049
7.268589 38.707401 -0.003173
7.583940 38.707401 -0.003476
7.899290 38.707401 -0.003298
8.214640 38.707401 -0.001091
8.529989 38.707401 0.001983
8.845339 38.707401 0.002681
9.160688 38.707401 0.002302
9.476040 38.707401 0.003248
9.791389 38.707401 0.002723
10.106739 38.707401 0.001962
10.422089 38.707401 -0.015345
10.737438 38.707401 -0.018446
11.052790 38.707401 -0.001558
11.368139 38.707401 -0.000168
11.683489 38.707401 0.003171
11.998838 38.707401 0.005779
12.314190 38.707401 -0.013676
12.629539 38.707401 -0.003055
12.944889 38.707401 -0.012806
13.260239 38.707401 0.007569
13.575588 38.707401 0.017532
13.890940 38.707401 0.051146
14.206289 38.707401 0.054592
14.521639 38.707401 0.002851
14.836988 38.707401 -0.034995
15.152340 38.707401 -0.031585
15.467690 38.707401 -0.001207
15.783039 38.707401 -0.012681
16.098389 38.707401 0.000000
16.413738 38.707401 0.000000
16.729090 38.707401 0.000000
17.044439 38.707401 0.000000
17.359789 38.707401 0.000000
17.675138 38.707401 0.000000
17.990490 38.707401 0.000000
18.305840 38.707401 0.000000
18.621189 38.707401 0.000000
18.936539 38.707401 0.000000
19.251888 38.707401 0.000000
-7.237510 38.392052 0.000000
-6.922160 38.392052 0.000000
-6.606810 38.392052 0.000780
-6.291460 38.392052 0.000506
-5.976110 38.392052 0.000566
-5.660760 38.392052 0.000635
-5.345410 38.392052 0.000492
-5.030060 38.392052 0.000492
-4.714710 38.392052 0.000496
-4.399360 38.392052 0.000487
-4.084010 38.392052 0.000549
-3.768660 38.392052 0.000508
-3.453310 38.392052 0.000473
-3.137960 38.392052 0.000504
-2.822610 38.392052 0.000514
-2.507260 38.392052 0.000450
-2.191910 38.392052 0.000352
-1.876560 38.392052 0.000308
-1.561210 38.392052 0.000265
-1.245860 38.392052 0.000205
-0.930510 38.392052 0.000237
-0.615160 38.392052 0.000255
-0.299810 38.392052 0.000290
0.015540 38.392052 0.000264
0.330890 38.392052 0.000187
0.646240 38.392052 0.000197
0.961589 38.392052 0.000194
1.276940 38.392052 0.000194
1.592289 38.392052 0.000200
1.907640 38.392052 0.000180
2.222990 38.392052 0.000159
2.538340 38.392052 -0.000050
2.853690 38.392052 -0.000103
3.169039 38.392052 0.000043
3.484390 38.392052 0.000039
3.799739 38.392052 -0.000067
4.115090 38.392052 -0.000212
4.430439 38.392052 -0.000166
4.745790 38.392052 0.000057
5.061140 38.392052 0.000029
5.376490 38.392052 -0.000388
5.691840 38.392052 -0.000855
6.007189 38.392052 -0.001098
6.322540 38.392052 -0.001075
6.637889 38.392052 -0.001441
6.953240 38.392052 -0.002430
7.268589 38.392052 -0.002802
7.583940 38.392052 -0.003247
7.899290 38.392052 -0.003577
8.214640 38.392052 -0.000884
8.529989 38.392052 0.002604
8.845339 38.392052 0.007326
9.160688 38.392052 0.006830
9.476040 38.392052 0.006392
9.791389 38.392052 0.003197
10.106739 38.392052 -0.001870
10.422089 38.392052 -0.005915
10.737438 38.392052 -0.014022
11.052790 38.392052 0.003837
11.368139 38.392052 0.006843
11.683489 38.392052 0.009239
11.998838 38.392052 0.012825
12.314190 38.392052 -0.010797
12.629539 38.392052 -0.014209
12.944889 38.392052 0.001579
13.260239 38.392052 0.007056
13.575588 38.392052 0.044676
13.890940 38.392052 0.047199
14.206289 38.392052 0.046960
14.521639 38.392052 0.018096
14.836988 38.392052 -0.026726
15.152340 38.392052 0.000399
15.467690 38.392052 0.042775
15.783039 38.392052 0.010087
16.098389 38.392052 0.000000
16.413738 38.392052 0.000000
16.729090 38.392052 0.000000
17.044439 38.392052 0.000000
17.359789 38.392052 0.000000
17.675138 38.392052 0.000000
17.990490 38.392052 0.000000
18.305840 38.392052 0.000000
18.621189 38.392052 0.000000
18.936539 38.392052 0.000000
19.251888 38.392052 0.000000
-7.237510 38.076698 0.000000
-6.922160 38.076698 0.000000
-6.606810 38.076698 0.000739
-6.291460 38.076698 0.000576
-5.976110 38.076698 0.000607
-5.660760 38.076698 0.000586
-5.345410 38.076698 0.000522
-5.030060 38.076698 0.000475
-4.714710 38.076698 0.000417
-4.399360 38.076698 0.000414
-4.084010 38.076698 0.000448
-3.768660 38.076698 0.000428
-3.453310 38.076698 0.000424
-3.137960 38.076698 0.000490
-2.822610 38.076698 0.000508
-2.507260 38.076698 0.000420
-2.191910 38.076698 0.000349
-1.876560 38.076698 0.000348
-1.561210 38.076698 0.000329
-1.245860 38.076698 0.000293
-0.930510 38.076698 0.000308
-0.615160 38.076698 0.000254
-0.299810 38.076698 0.000296
0.015540 38.076698 0.000262
0.330890 38.076698 0.000170
0.646240 38.076698 0.000149
0.961589 38.076698 0.000142
1.276940 38.076698 0.000156
1.592289 38.076698 0.000237
1.907640 38.076698 0.000177
2.222990 38.076698 0.000102
2.538340 38.076698 -0.000018
2.853690 38.076698 -0.000120
3.169039 38.076698 0.000018
3.484390 38.076698 0.000039
3.799739 38.076698 -0.000125
4.115090 38.076698 -0.000306
4.430439 38.076698 -0.000248
4.745790 38.076698 -0.000078
5.061140 38.076698 -0.000077
5.376490 38.076698 -0.000333
5.691840 38.076698 -0.000742
6.007189 38.076698 -0.001073
6.322540 38.076698 -0.000977
6.637889 38.076698 -0.001527
6.953240 38.076698 -0.002238
7.268589 38.076698 -0.002920
7.583940 38.076698 -0.003187
7.899290 38.076698 -0.003065
8.214640 38.076698 -0.000096
8.529989 38.076698 0.001904
8.845339 38.076698 0.005989
9.160688 38.076698 0.006247
9.476040 38.076698 0.005379
9.791389 38.076698 0.001646
10.106739 38.076698 0.003668
10.422089 38.076698 -0.007009
10.737438 38.076698 -0.002088
11.052790 38.076698 0.007656
11.368139 38.076698 0.016448
11.683489 38.076698 0.018375
11.998838 38.076698 -0.001120
12.314190 38.076698 0.003481
12.629539 38.076698 0.006183
12.944889 38.076698 -0.015461
13.260239 38.076698 0.020659
13.575588 38.076698 0.046542
13.890940 38.076698 0.055493
14.206289 38.076698 0.045445
14.521639 38.076698 0.004589
14.836988 38.076698 -0.020278
15.152340 38.076698 0.028844
15.467690 38.076698 0.020719
15.783039 38.076698 0.006751
16.098389 38.076698 0.000000
16.413738 38.076698 0.000000
16.729090 38.076698 0.000000
17.044439 38.076698 0.000000
17.359789 38.076698 0.000000
17.675138 38.076698 0.000000
17.990490 38.076698 0.000000
18.305840 38.076698 0.000000
18.621189 38.076698 0.000000
18.936539 38.076698 0.000000
19.251888 38.076698 0.000000
-7.237510 37.761353 0.000000
-6.922160 37.761353 0.000000
-6.606810 37.761353 0.000757
-6.291460 37.761353 0.000654
-5.976110 37.761353 0.000639
-5.660760 37.761353 0.000568
-5.345410 37.761353 0.000509
-5.030060 37.761353 0.000462
-4.714710 37.761353 0.000392
-4.399360 37.761353 0.000398
-4.084010 37.761353 0.000388
-3.768660 37.761353 0.000420
-3.453310 37.761353 0.000451
-3.137960 37.761353 0.000479
-2.822610 37.761353 0.000456
-2.507260 37.761353 0.000404
-2.191910 37.761353 0.000419
-1.876560 37.761353 0.000392
-1.561210 37.761353 0.000393
-1.245860 37.761353 0.000408
-0.930510 37.761353 0.000370
-0.615160 37.761353 0.000282
-0.299810 37.761353 0.000340
0.015540 37.761353 0.000280
0.330890 37.761353 0.000204
0.646240 37.761353 0.000150
0.961589 37.761353 0.000086
1.276940 37.761353 0.000183
1.592289 37.761353 0.000257
1.907640 37.761353 0.000157
2.222990 37.761353 0.000077
2.538340 37.761353 0.000052
2.853690 37.761353 0.000019
3.169039 37.761353 0.000034
3.484390 37.761353 -0.000025
3.799739 37.761353 -0.000122
4.115090 37.761353 -0.000281
4.430439 37.761353 -0.000244
4.745790 37.761353 -0.000184
5.061140 37.761353 -0.000123
5.376490 37.761353 -0.000303
5.691840 37.761353 -0.000761
6.007189 37.761353 -0.000992
6.322540 37.761353 -0.000982
6.637889 37.761353 -0.001512
6.953240 37.761353 -0.001558
7.268589 37.761353 -0.001946
7.583940 37.761353 -0.002410
7.899290 37.761353 -0.002191
8.214640 37.761353 0.000466
8.529989 37.761353 0.001584
8.845339 37.761353 0.006044
9.160688 37.761353 0.004605
9.476040 37.761353 0.003956
9.791389 37.761353 0.005014
10.106739 37.761353 0.002529
10.422089 37.761353 -0.007117
10.737438 37.761353 -0.019507
11.052790 37.761353 -0.000386
11.368139 37.761353 0.017662
11.683489 37.761353 0.021545
11.998838 37.761353 0.017825
12.314190 37.761353 0.000722
12.629539 37.761353 0.003075
12.944889 37.761353 0.011095
13.260239 37.761353 0.027411
13.575588 37.761353 -0.001314
13.890940 37.761353 0.010504
14.206289 37.761353 0.013816
14.521639 37.761353 -0.000154
14.836988 37.761353 -0.053862
15.152340 37.761353 0.001284
15.467690 37.761353 0.012514
15.783039 37.761353 0.077230
16.098389 37.761353 0.000000
16.413738 37.761353 0.000000
16.729090 37.761353 0.000000
17.044439 37.761353 0.000000
17.359789 37.761353 0.000000
17.675138 37.761353 0.000000
17.990490 37.761353 0.000000
18.305840 37.761353 0.000000
18.621189 37.761353 0.000000
18.936539 37.761353 0.000000
19.251888 37.761353 0.000000
-7.237510 37.445999 0.000000
-6.922160 37.445999 0.000000
-6.606810 37.445999 0.000796
-6.291460 37.445999 0.000658
-5.976110 37.445999 0.000701
-5.660760 37.445999 0.000550
-5.345410 37.445999 0.000475
-5.030060 37.445999 0.000462
-4.714710 37.445999 0.000419
-4.399360 37.445999 0.000425
-4.084010 37.445999 0.000376
-3.768660 37.445999 0.000450
-3.453310 37.445999 0.000512
-3.137960 37.445999 0.000465
-2.822610 37.445999 0.000456
-2.507260 37.445999 0.000449
-2.191910 37.445999 0.000466
-1.876560 37.445999 0.000456
-1.561210 37.445999 0.000444
-1.245860 37.445999 0.000467
-0.930510 37.445999 0.000432
-0.615160 37.445999 0.000352
-0.299810 37.445999 0.000356
0.015540 37.445999 0.000305
0.330890 37.445999 0.000191
0.646240 37.445999 0.000130
0.961589 37.445999 0.000129
1.276940 37.445999 0.000255
1.592289 37.445999 0.000226
1.907640 37.445999 0.000104
2.222990 37.445999 0.000097
2.538340 37.445999 0.000114
2.853690 37.445999 0.000087
3.169039 37.445999 0.000012
3.484390 37.445999 -0.000019
3.799739 37.445999 -0.000249
4.115090 37.445999 -0.000267
4.430439 37.445999 -0.000212
4.745790 37.445999 -0.000162
5.061140 37.445999 -0.000129
5.376490 37.445999 -0.000266
5.691840 37.445999 -0.000573
6.007189 37.445999 -0.000825
6.322540 37.445999 -0.000866
6.637889 37.445999 -0.001356
6.953240 37.445999 -0.001421
7.268589 37.445999 -0.001557
7.583940 37.445999 -0.001914
7.899290 37.445999 -0.002661
8.214640 37.445999 -0.001156
8.529989 37.445999 -0.000506
8.845339 37.445999 0.004890
9.160688 37.445999 0.007056
9.476040 37.445999 0.006546
9.791389 37.445999 0.002683
10.106739 37.445999 0.006170
10.422089 37.445999 0.009948
10.737438 37.445999 -0.017326
11.052790 37.445999 -0.022267
11.368139 37.445999 -0.006838
11.683489 37.445999 0.010995
11.998838 37.445999 0.016942
12.314190 37.445999 0.033615
12.629539 37.445999 0.056636
12.944889 37.445999 -0.009975
13.260239 37.445999 0.023598
13.575588 37.445999 0.018563
13.890940 37.445999 0.022799
14.206289 37.445999 -0.001040
14.521639 37.445999 -0.027968
14.836988 37.445999 -0.039427
15.152340 37.445999 -0.009535
15.467690 37.445999 0.034959
15.783039 37.445999 0.100258
16.098389 37.445999 0.000000
16.413738 37.445999 0.000000
16.729090 37.445999 0.000000
17.044439 37.445999 0.000000
17.359789 37.445999 0.000000
17.675138 37.445999 0.000000
17.990490 37.445999 0.000000
18.305840 37.445999 0.000000
18.621189 37.445999 0.000000
18.936539 37.445999 0.000000
19.251888 37.445999 0.000000
-7.237510 37.130650 0.000000
-6.922160 37.130650 0.000000
-6.606810 37.130650 0.000847
-6.291460 37.130650 0.000609
-5.976110 37.130650 0.000648
-5.660760 37.130650 0.000557
-5.345410 37.130650 0.000459
-5.030060 37.130650 0.000499
-4.714710 37.130650 0.000493
-4.399360 37.130650 0.000422
-4.084010 37.130650 0.000390
-3.768660 37.130650 0.000471
-3.453310 37.130650 0.000508
-3.137960 37.130650 0.000473
-2.822610 37.130650 0.000477
-2.507260 37.130650 0.000463
-2.191910 37.130650 0.000491
-1.876560 37.130650 0.000469
-1.561210 37.130650 0.000449
-1.245860 37.130650 0.000483
-0.930510 37.130650 0.000495
-0.615160 37.130650 0.000399
-0.299810 37.130650 0.000333
0.015540 37.130650 0.000282
0.330890 37.130650 0.000198
0.646240 37.130650 0.000204
0.961589 37.130650 0.000227
1.276940 37.130650 0.000294
1.592289 37.130650 0.000206
1.907640 37.130650 0.000092
2.222990 37.130650 0.000096
2.538340 37.130650 0.000169
2.853690 37.130650 0.000002
3.169039 37.130650 -0.000026
3.484390 37.130650 -0.000023
3.799739 37.130650 -0.000212
4.115090 37.130650 -0.000277
4.430439 37.130650 -0.000210
4.745790 37.130650 -0.000183
5.061140 37.130650 -0.000012
5.376490 37.130650 -0.000177
5.691840 37.130650 -0.000544
6.007189 37.130650 -0.000785
6.322540 37.130650 -0.000911
6.637889 37.130650 -0.001327
6.953240 37.130650 -0.001993
7.268589 37.130650 -0.002199
7.583940 37.130650 -0.001994
7.899290 37.130650 -0.001809
8.214640 37.130650 -0.001619
8.529989 37.130650 -0.002927
8.845339 37.130650 0.004874
9.160688 37.130650 0.008876
9.476040 37.130650 0.013836
9.791389 37.130650 0.014761
10.106739 37.130650 0.007030
10.422089 37.130650 0.010018
10.737438 37.130650 -0.012641
11.052790 37.130650 -0.028574
11.368139 37.130650 -0.016702
11.683489 37.130650 -0.021086
11.998838 37.130650 0.009261
12.314190 37.130650 0.008378
12.629539 37.130650 0.009523
12.944889 37.130650 0.016693
13.260239 37.130650 0.006205
13.575588 37.130650 -0.002183
13.890940 37.130650 -0.001441
14.206289 37.130650 -0.004266
14.521639 37.130650 -0.006726
14.836988 37.130650 -0.002909
15.152340 37.130650 -0.010406
15.467690 37.130650 0.021069
15.783039 37.130650 0.099256
16.098389 37.130650 0.000000
16.413738 37.130650 0.000000
16.729090 37.130650 0.000000
17.044439 37.130650 0.000000
17.359789 37.130650 0.000000
17.675138 37.130650 0.000000
17.990490 37.130650 0.000000
18.305840 37.130650 0.000000
18.621189 37.130650 0.000000
18.936539 37.130650 0.000000
19.251888 37.130650 0.000000
-7.237510 36.815300 0.000000
-6.922160 36.815300 0.000000
-6.606810 36.815300 0.000904
-6.291460 36.815300 0.000654
-5.976110 36.815300 0.000615
-5.660760 36.815300 0.000540
-5.345410 36.815300 0.000493
-5.030060 36.815300 0.000593
-4.714710 36.815300 0.000550
-4.399360 36.815300 0.000450
-4.084010 36.815300 0.000416
-3.768660 36.815300 0.000469
-3.453310 36.815300 0.000461
-3.137960 36.815300 0.000473
-2.822610 36.815300 0.000458
-2.507260 36.815300 0.000433
-2.191910 36.815300 0.000476
-1.876560 36.815300 0.000515
-1.561210 36.815300 0.000447
-1.245860 36.815300 0.000446
-0.930510 36.815300 0.000532
-0.615160 36.815300 0.000440
-0.299810 36.815300 0.000300
0.015540 36.815300 0.000318
0.330890 36.815300 0.000305
0.646240 36.815300 0.000298
0.961589 36.815300 0.000246
1.276940 36.815300 0.000265
1.592289 36.815300 0.000165
1.907640 36.815300 0.000120
2.222990 36.815300 0.000144
2.538340 36.815300 0.000084
2.853690 36.815300 -0.000028
3.169039 36.815300 -0.000040
3.484390 36.815300 -0.000001
3.799739 36.815300 -0.000177
4.115090 36.815300 -0.000309
4.430439 36.815300 -0.000246
4.745790 36.815300 -0.000130
5.061140 36.815300 0.000072
5.376490 36.815300 -0.000084
5.691840 36.815300 -0.000588
6.007189 36.815300 -0.000756
6.322540 36.815300 -0.000914
6.637889 36.815300 -0.001335
6.953240 36.815300 -0.001956
7.268589 36.815300 -0.002664
7.583940 36.815300 -0.002461
7.899290 36.815300 -0.001192
8.214640 36.815300 -0.002262
8.529989 36.815300 -0.001354
8.845339 36.815300 0.001428
9.160688 36.815300 0.000412
9.476040 36.815300 0.007725
9.791389 36.815300 0.009830
10.106739 36.815300 0.011680
10.422089 36.815300 -0.004957
10.737438 36.815300 -0.009897
11.052790 36.815300 -0.012948
11.368139 36.815300 -0.008896
11.683489 36.815300 -0.003728
11.998838 36.815300 0.008778
12.314190 36.815300 -0.018840
12.629539 36.815300 0.004634
12.944889 36.815300 0.022126
13.260239 36.815300 0.051624
13.575588 36.815300 0.043610
13.890940 36.815300 0.000494
14.206289 36.815300 0.031483
14.521639 36.815300 -0.008538
14.836988 36.815300 -0.020963
15.152340 36.815300 0.018070
15.467690 36.815300 -0.008101
15.783039 36.815300 0.065942
16.098389 36.815300 0.000000
16.413738 36.815300 0.000000
16.729090 36.815300 0.000000
17.044439 36.815300 0.000000
17.359789 36.815300 0.000000
17.675138 36.815300 0.000000
17.990490 36.815300 0.000000
18.305840 36.815300 0.000000
18.621189 36.815300 0.000000
18.936539 36.815300 0.000000
19.251888 36.815300 0.000000
-7.237510 36.499950 0.000000
-6.922160 36.499950 0.000000
-6.606810 36.499950 0.000948
-6.291460 36.499950 0.000736
-5.976110 36.499950 0.000615
-5.660760 36.499950 0.000566
-5.345410 36.499950 0.000580
-5.030060 36.499950 0.000689
-4.714710 36.499950 0.000589
-4.399360 36.499950 0.000454
-4.084010 36.499950 0.000428
-3.768660 36.499950 0.000519
-3.453310 36.499950 0.000441
-3.137960 36.499950 0.000466
-2.822610 36.499950 0.000421
-2.507260 36.499950 0.000372
-2.191910 36.499950 0.000525
-1.876560 36.499950 0.000577
-1.561210 36.499950 0.000469
-1.245860 36.499950 0.000386
-0.930510 36.499950 0.000455
-0.615160 36.499950 0.000414
-0.299810 36.499950 0.000304
0.015540 36.499950 0.000408
0.330890 36.499950 0.000489
0.646240 36.499950 0.000406
0.961589 36.499950 0.000280
1.276940 36.499950 0.000243
1.592289 36.499950 0.000087
1.907640 36.499950 0.000127
2.222990 36.499950 0.000152
2.538340 36.499950 0.000003
2.853690 36.499950 -0.000101
3.169039 36.499950 -0.000120
3.484390 36.499950 -0.000079
3.799739 36.499950 -0.000124
4.115090 36.499950 -0.000232
4.430439 36.499950 -0.000293
4.745790 36.499950 -0.000174
5.061140 36.499950 -0.000082
5.376490 36.499950 -0.000121
5.691840 36.499950 -0.000391
6.007189 36.499950 -0.000596
6.322540 36.499950 -0.000737
6.637889 36.499950 -0.001179
6.953240 36.499950 -0.001941
7.268589 36.499950 -0.002818
7.583940 36.499950 -0.002366
7.899290 36.499950 -0.002415
8.214640 36.499950 -0.004029
8.529989 36.499950 -0.004357
8.845339 36.499950 -0.001315
9.160688 36.499950 -0.000521
9.476040 36.499950 -0.002351
9.791389 36.499950 0.005650
10.106739 36.499950 0.007150
10.422089 36.499950 -0.000803
10.737438 36.499950 0.000429
11.052790 36.499950 -0.009771
11.368139 36.499950 -0.008712
11.683489 36.499950 0.017284
11.998838 36.499950 0.009433
12.314190 36.499950 -0.028833
12.629539 36.499950 0.025752
12.944889 36.499950 0.053138
13.260239 36.499950 0.034231
13.575588 36.499950 0.024641
13.890940 36.499950 0.031002
14.206289 36.499950 0.053692
14.521639 36.499950 0.008472
14.836988 36.499950 0.028483
15.152340 36.499950 0.004672
15.467690 36.499950 -0.014049
15.783039 36.499950 0.051047
16.098389 36.499950 0.000000
16.413738 36.499950 0.000000
16.729090 36.499950 0.000000
17.044439 36.499950 0.000000
17.359789 36.499950 0.000000
17.675138 36.499950 0.000000
17.990490 36.499950 0.000000
18.305840 36.499950 0.000000
18.621189 36.499950 0.000000
18.936539 36.499950 0.000000
19.251888 36.499950 0.000000
-7.237510 36.184601 0.000000
-6.922160 36.184601 0.000000
-6.606810 36.184601 0.000955
-6.291460 36.184601 0.000775
-5.976110 36.184601 0.000686
-5.660760 36.184601 0.000645
-5.345410 36.184601 0.000659
-5.030060 36.184601 0.000683
-4.714710 36.184601 0.000563
-4.399360 36.184601 0.000467
-4.084010 36.184601 0.000457
-3.768660 36.184601 0.000537
-3.453310 36.184601 0.000455
-3.137960 36.184601 0.000413
-2.822610 36.184601 0.000423
-2.507260 36.184601 0.000432
-2.191910 36.184601 0.000591
-1.876560 36.184601 0.000633
-1.561210 36.184601 0.000508
-1.245860 36.184601 0.000329
-0.930510 36.184601 0.000362
-0.615160 36.184601 0.000352
-0.299810 36.184601 0.000319
0.015540 36.184601 0.000500
0.330890 36.184601 0.000588
0.646240 36.184601 0.000454
0.961589 36.184601 0.000297
1.276940 36.184601 0.000197
1.592289 36.184601 0.000077
1.907640 36.184601 0.000050
2.222990 36.184601 0.000102
2.538340 36.184601 0.000032
2.853690 36.184601 -0.000102
3.169039 36.184601 -0.000181
3.484390 36.184601 -0.000101
3.799739 36.184601 -0.000104
4.115090 36.184601 -0.000115
4.430439 36.184601 -0.000253
4.745790 36.184601 -0.000219
5.061140 36.184601 -0.000180
5.376490 36.184601 -0.000108
5.691840 36.184601 -0.000309
6.007189 36.184601 -0.000366
6.322540 36.184601 -0.000501
6.637889 36.184601 -0.001325
6.953240 36.184601 -0.001858
7.268589 36.184601 -0.002282
7.583940 36.184601 -0.002046
7.899290 36.184601 -0.002444
8.214640 36.184601 -0.003859
8.529989 36.184601 -0.002332
8.845339 36.184601 -0.001409
9.160688 36.184601 -0.000864
9.476040 36.184601 -0.001750
9.791389 36.184601 -0.005136
10.106739 36.184601 -0.005964
10.422089 36.184601 -0.000548
10.737438 36.184601 0.003424
11.052790 36.184601 0.005836
11.368139 36.184601 -0.003681
11.683489 36.184601 0.012526
11.998838 36.184601 -0.000348
12.314190 36.184601 -0.019488
12.629539 36.184601 0.018495
12.944889 36.184601 0.043667
13.260239 36.184601 0.041351
13.575588 36.184601 0.018988
13.890940 36.184601 0.044754
14.206289 36.184601 0.072246
14.521639 36.184601 -0.005878
14.836988 36.184601 0.023509
15.152340 36.184601 0.006279
15.467690 36.184601 0.011661
15.783039 36.184601 0.054476
16.098389 36.184601 0.000000
16.413738 36.184601 0.000000
16.729090 36.184601 0.000000
17.044439 36.184601 0.000000
17.359789 36.184601 0.000000
17.675138 36.184601 0.000000
17.990490 36.184601 0.000000
18.305840 36.184601 0.000000
18.621189 36.184601 0.000000
18.936539 36.184601 0.000000
19.251888 36.184601 0.000000
-7.237510 35.869251 0.000000
-6.922160 35.869251 0.000000
-6.606810 35.869251 0.001009
-6.291460 35.869251 0.000844
-5.976110 35.869251 0.000782
-5.660760 35.869251 0.000684
-5.345410 35.869251 0.000641
-5.030060 35.869251 0.000585
-4.714710 35.869251 0.000489
-4.399360 35.869251 0.000494
-4.084010 35.869251 0.000520
-3.768660 35.869251 0.000579
-3.453310 35.869251 0.000499
-3.137960 35.869251 0.000418
-2.822610 35.869251 0.000468
-2.507260 35.869251 0.000489
-2.191910 35.869251 0.000603
-1.876560 35.869251 0.000642
-1.561210 35.869251 0.000513
-1.245860 35.869251 0.000311
-0.930510 35.869251 0.000314
-0.615160 35.869251 0.000290
-0.299810 35.869251 0.000337
0.015540 35.869251 0.000511
0.330890 35.869251 0.000537
0.646240 35.869251 0.000483
0.961589 35.869251 0.000321
1.276940 35.869251 0.000233
1.592289 35.869251 0.000111
1.907640 35.869251 0.000064
2.222990 35.869251 0.000064
2.538340 35.869251 0.000037
2.853690 35.869251 -0.000079
3.169039 35.869251 -0.000201
3.484390 35.869251 -0.000166
3.799739 35.869251 -0.000131
4.115090 35.869251 -0.000037
4.430439 35.869251 -0.000138
4.745790 35.869251 -0.000312
5.061140 35.869251 -0.000226
5.376490 35.869251 -0.000148
5.691840 35.869251 -0.000184
6.007189 35.869251 -0.000175
6.322540 35.869251 -0.000136
6.637889 35.869251 -0.000688
6.953240 35.869251 -0.001217
7.268589 35.869251 -0.001805
7.583940 35.869251 -0.002479
7.899290 35.869251 -0.002773
8.214640 35.869251 -0.002964
8.529989 35.869251 -0.000005
8.845339 35.869251 0.000602
9.160688 35.869251 -0.000695
9.476040 35.869251 0.006188
9.791389 35.869251 0.003654
10.106739 35.869251 -0.006570
10.422089 35.869251 -0.001789
10.737438 35.869251 0.001877
11.052790 35.869251 0.010032
11.368139 35.869251 0.002164
11.683489 35.869251 -0.005243
11.998838 35.869251 -0.005425
12.314190 35.869251 0.005925
12.629539 35.869251 0.000039
12.944889 35.869251 0.033586
13.260239 35.869251 -0.017759
13.575588 35.869251 0.032340
13.890940 35.869251 0.055713
14.206289 35.869251 0.037891
14.521639 35.869251 0.013445
14.836988 35.869251 0.011007
15.152340 35.869251 -0.001845
15.467690 35.869251 -0.005451
15.783039 35.869251 0.046101
16.098389 35.869251 0.000000
16.413738 35.869251 0.000000
16.729090 35.869251 0.000000
17.044439 35.869251 0.000000
17.359789 35.869251 0.000000
17.675138 35.869251 0.000000
17.990490 35.869251 0.000000
18.305840 35.869251 0.000000
18.621189 35.869251 0.000000
18.936539 35.869251 0.000000
19.251888 35.869251 0.000000
-7.237510 35.553902 0.000000
-6.922160 35.553902 0.006196
-6.606810 35.553902 0.001184
-6.291460 35.553902 0.000958
-5.976110 35.553902 0.000835
-5.660760 35.553902 0.000692
-5.345410 35.553902 0.000561
-5.030060 35.553902 0.000526
-4.714710 35.553902 0.000469
-4.399360 35.553902 0.000516
-4.084010 35.553902 0.000575
-3.768660 35.553902 0.000620
-3.453310 35.553902 0.000546
-3.137960 35.553902 0.000455
-2.822610 35.553902 0.000493
-2.507260 35.553902 0.000471
-2.191910 35.553902 0.000568
-1.876560 35.553902 0.000607
-1.561210 35.553902 0.000498
-1.245860 35.553902 0.000334
-0.930510 35.553902 0.000346
-0.615160 35.553902 0.000333
-0.299810 35.553902 0.000365
0.015540 35.553902 0.000479
0.330890 35.553902 0.000494
0.646240 35.553902 0.000473
0.961589 35.553902 0.000351
1.276940 35.553902 0.000343
1.592289 35.553902 0.000263
1.907640 35.553902 0.000136
2.222990 35.553902 0.000116
2.538340 35.553902 0.000065
2.853690 35.553902 0.000027
3.169039 35.553902 -0.000070
3.484390 35.553902 -0.000111
3.799739 35.553902 -0.000038
4.115090 35.553902 0.000039
4.430439 35.553902 -0.000071
4.745790 35.553902 -0.000274
5.061140 35.553902 -0.000268
5.376490 35.553902 -0.000172
5.691840 35.553902 -0.000078
6.007189 35.553902 -0.000121
6.322540 35.553902 -0.000055
6.637889 35.553902 -0.000451
6.953240 35.553902 -0.001290
7.268589 35.553902 -0.001927
7.583940 35.553902 -0.002711
7.899290 35.553902 -0.002295
8.214640 35.553902 -0.002197
8.529989 35.553902 -0.000273
8.845339 35.553902 0.002438
9.160688 35.553902 0.004639
9.476040 35.553902 0.006953
9.791389 35.553902 0.002819
10.106739 35.553902 -0.003101
10.422089 35.553902 0.000086
10.737438 35.553902 0.014567
11.052790 35.553902 0.014585
11.368139 35.553902 -0.004514
11.683489 35.553902 -0.000470
11.998838 35.553902 -0.028198
12.314190 35.553902 -0.026072
12.629539 35.553902 0.018153
12.944889 35.553902 -0.031254
13.260239 35.553902 -0.023515
13.575588 35.553902 0.004662
13.890940 35.553902 0.014477
14.206289 35.553902 0.079307
14.521639 35.553902 0.007186
14.836988 35.553902 0.000827
15.152340 35.553902 -0.002452
15.467690 35.553902 -0.026898
15.783039 35.553902 0.055372
16.098389 35.553902 0.000000
16.413738 35.553902 0.000000
16.729090 35.553902 0.000000
17.044439 35.553902 0.000000
17.359789 35.553902 0.000000
17.675138 35.553902 0.000000
17.990490 35.553902 0.000000
18.305840 35.553902 0.000000
18.621189 35.553902 0.000000
18.936539 35.553902 0.000000
19.251888 35.553902 0.000000
-7.237510 35.238552 0.000000
-6.922160 35.238552 0.043845
-6.606810 35.238552 0.001245
-6.291460 35.238552 0.001018
-5.976110 35.238552 0.000906
-5.660760 35.238552 0.000747
-5.345410 35.238552 0.000573
-5.030060 35.238552 0.000578
-4.714710 35.238552 0.000548
-4.399360 35.238552 0.000554
-4.084010 35.238552 0.000640
-3.768660 35.238552 0.000651
-3.453310 35.238552 0.000554
-3.137960 35.238552 0.000481
-2.822610 35.238552 0.000493
-2.507260 35.238552 0.000455
-2.191910 35.238552 0.000482
-1.876560 35.238552 0.000585
-1.561210 35.238552 0.000506
-1.245860 35.238552 0.000386
-0.930510 35.238552 0.000433
-0.615160 35.238552 0.000427
-0.299810 35.238552 0.000453
0.015540 35.238552 0.000462
0.330890 35.238552 0.000521
0.646240 35.238552 0.000477
0.961589 35.238552 0.000345
1.276940 35.238552 0.000396
1.592289 35.238552 0.000310
1.907640 35.238552 0.000267
2.222990 35.238552 0.000169
2.538340 35.238552 0.000139
2.853690 35.238552 0.000138
3.169039 35.238552 0.000030
3.484390 35.238552 -0.000024
3.799739 35.238552 0.000018
4.115090 35.238552 0.000052
4.430439 35.238552 -0.000035
4.745790 35.238552 -0.000176
5.061140 35.238552 -0.000255
5.376490 35.238552 -0.000202
5.691840 35.238552 0.000040
6.007189 35.238552 0.000113
6.322540 35.238552 -0.000224
6.637889 35.238552 -0.000443
6.953240 35.238552 -0.001351
7.268589 35.238552 -0.002362
7.583940 35.238552 -0.002684
7.899290 35.238552 -0.003212
8.214640 35.238552 -0.002822
8.529989 35.238552 0.000871
8.845339 35.238552 0.003686
9.160688 35.238552 0.005938
9.476040 35.238552 0.001007
9.791389 35.238552 0.009227
10.106739 35.238552 -0.000007
10.422089 35.238552 0.002814
10.737438 35.238552 0.004287
11.052790 35.238552 0.025440
11.368139 35.238552 -0.008680
11.683489 35.238552 -0.002359
11.998838 35.238552 -0.020162
12.314190 35.238552 -0.018745
12.629539 35.238552 -0.006122
12.944889 35.238552 -0.016595
13.260239 35.238552 0.013456
13.575588 35.238552 -0.000241
13.890940 35.238552 0.033558
14.206289 35.238552 0.078891
14.521639 35.238552 0.027431
14.836988 35.238552 0.023174
15.152340 35.238552 0.017705
15.467690 35.238552 -0.019844
15.783039 35.238552 0.039806
16.098389 35.238552 0.000000
16.413738 35.238552 0.000000
16.729090 35.238552 0.000000
17.044439 35.238552 0.000000
17.359789 35.238552 0.000000
17.675138 35.238552 0.000000
17.990490 35.238552 0.000000
18.305840 35.238552 0.000000
18.621189 35.238552 0.000000
18.936539 35.238552 0.000000
19.251888 35.238552 0.000000
-7.237510 34.923203 0.000000
-6.922160 34.923203 0.017346
-6.606810 34.923203 0.001241
-6.291460 34.923203 0.000967
-5.976110 34.923203 0.000938
-5.660760 34.923203 0.000832
-5.345410 34.923203 0.000653
-5.030060 34.923203 0.000669
-4.714710 34.923203 0.000607
-4.399360 34.923203 0.000619
-4.084010 34.923203 0.000778
-3.768660 34.923203 0.000711
-3.453310 34.923203 0.000543
-3.137960 34.923203 0.000512
-2.822610 34.923203 0.000469
-2.507260 34.923203 0.000412
-2.191910 34.923203 0.000410
-1.876560 34.923203 0.000463
-1.561210 34.923203 0.000448
-1.245860 34.923203 0.000397
-0.930510 34.923203 0.000532
-0.615160 34.923203 0.000578
-0.299810 34.923203 0.000592
0.015540 34.923203 0.000566
0.330890 34.923203 0.000561
0.646240 34.923203 0.000431
0.961589 34.923203 0.000281
1.276940 34.923203 0.000311
1.592289 34.923203 0.000297
1.907640 34.923203 0.000243
2.222990 34.923203 0.000171
2.538340 34.923203 0.000175
2.853690 34.923203 0.000213
3.169039 34.923203 0.000027
3.484390 34.923203 0.000060
3.799739 34.923203 0.000067
4.115090 34.923203 0.000064
4.430439 34.923203 0.000003
4.745790 34.923203 -0.000158
5.061140 34.923203 -0.000226
5.376490 34.923203 -0.000010
5.691840 34.923203 0.000213
6.007189 34.923203 0.000192
6.322540 34.923203 -0.000340
6.637889 34.923203 -0.000517
6.953240 34.923203 -0.001146
7.268589 34.923203 -0.002298
7.583940 34.923203 -0.002236
7.899290 34.923203 -0.002558
8.214640 34.923203 -0.002109
8.529989 34.923203 0.000515
8.845339 34.923203 0.004102
9.160688 34.923203 0.007867
9.476040 34.923203 0.007183
9.791389 34.923203 0.003790
10.106739 34.923203 0.002251
10.422089 34.923203 0.019175
10.737438 34.923203 0.025274
11.052790 34.923203 0.010609
11.368139 34.923203 -0.011180
11.683489 34.923203 0.009239
11.998838 34.923203 -0.041805
12.314190 34.923203 -0.030414
12.629539 34.923203 -0.024576
12.944889 34.923203 0.010624
13.260239 34.923203 0.012941
13.575588 34.923203 0.034235
13.890940 34.923203 0.026570
14.206289 34.923203 0.074130
14.521639 34.923203 0.067090
14.836988 34.923203 0.026745
15.152340 34.923203 0.010964
15.467690 34.923203 -0.029572
15.783039 34.923203 0.037148
16.098389 34.923203 0.000000
16.413738 34.923203 0.000000
16.729090 34.923203 0.000000
17.044439 34.923203 0.000000
17.359789 34.923203 0.000000
17.675138 34.923203 0.000000
17.990490 34.923203 0.000000
18.305840 34.923203 0.000000
18.621189 34.923203 0.000000
18.936539 34.923203 0.000000
19.251888 34.923203 0.000000
-7.237510 34.607849 0.000000
-6.922160 34.607849 0.002803
-6.606810 34.607849 0.001201
-6.291460 34.607849 0.000959
-5.976110 34.607849 0.000881
-5.660760 34.607849 0.000903
-5.345410 34.607849 0.000826
-5.030060 34.607849 0.000748
-4.714710 34.607849 0.000672
-4.399360 34.607849 0.000709
-4.084010 34.607849 0.000905
-3.768660 34.607849 0.000808
-3.453310 34.607849 0.000575
-3.137960 34.607849 0.000556
-2.822610 34.607849 0.000497
-2.507260 34.607849 0.000458
-2.191910 34.607849 0.000379
-1.876560 34.607849 0.000404
-1.561210 34.607849 0.000441
-1.245860 34.607849 0.000464
-0.930510 34.607849 0.000597
-0.615160 34.607849 0.000678
-0.299810 34.607849 0.000684
0.015540 34.607849 0.000670
0.330890 34.607849 0.000598
0.646240 34.607849 0.000380
0.961589 34.607849 0.000165
1.276940 34.607849 0.000269
1.592289 34.607849 0.000322
1.907640 34.607849 0.000200
2.222990 34.607849 0.000173
2.538340 34.607849 0.000176
2.853690 34.607849 0.000210
3.169039 34.607849 0.000055
3.484390 34.607849 0.000034
3.799739 34.607849 0.000018
4.115090 34.607849 0.000016
4.430439 34.607849 -0.000076
4.745790 34.607849 -0.000190
5.061140 34.607849 -0.000195
5.376490 34.607849 0.000023
5.691840 34.607849 0.000265
6.007189 34.607849 0.000236
6.322540 34.607849 -0.000305
6.637889 34.607849 -0.000749
6.953240 34.607849 -0.001341
7.268589 34.607849 -0.001470
7.583940 34.607849 -0.001855
7.899290 34.607849 -0.001772
8.214640 34.607849 -0.001837
8.529989 34.607849 -0.000126
8.845339 34.607849 0.001517
9.160688 34.607849 0.004627
9.476040 34.607849 0.004572
9.791389 34.607849 0.001650
10.106739 34.607849 0.007623
10.422089 34.607849 0.014140
10.737438 34.607849 0.023670
11.052790 34.607849 0.013655
11.368139 34.607849 -0.017150
11.683489 34.607849 -0.012758
11.998838 34.607849 -0.013751
12.314190 34.607849 -0.009815
12.629539 34.607849 -0.005262
12.944889 34.607849 0.005885
13.260239 34.607849 0.018174
13.575588 34.607849 0.023253
13.890940 34.607849 0.057234
14.206289 34.607849 0.046971
14.521639 34.607849 0.019738
14.836988 34.607849 0.065167
15.152340 34.607849 -0.016348
15.467690 34.607849 -0.030476
15.783039 34.607849 0.036369
16.098389 34.607849 0.000000
16.413738 34.607849 0.000000
16.729090 34.607849 0.000000
17.044439 34.607849 0.000000
17.359789 34.607849 0.000000
17.675138 34.607849 0.000000
17.990490 34.607849 0.000000
18.305840 34.607849 0.000000
18.621189 34.607849 0.000000
18.936539 34.607849 0.000000
19.251888 34.607849 0.000000
-7.237510 34.292503 0.000000
-6.922160 34.292503 -0.001333
-6.606810 34.292503 0.001263
-6.291460 34.292503 0.001023
-5.976110 34.292503 0.000926
-5.660760 34.292503 0.001002
-5.345410 34.292503 0.000970
-5.030060 34.292503 0.000820
-4.714710 34.292503 0.000699
-4.399360 34.292503 0.000757
-4.084010 34.292503 0.000951
-3.768660 34.292503 0.000802
-3.453310 34.292503 0.000546
-3.137960 34.292503 0.000533
-2.822610 34.292503 0.000558
-2.507260 34.292503 0.000527
-2.191910 34.292503 0.000519
-1.876560 34.292503 0.000495
-1.561210 34.292503 0.000496
-1.245860 34.292503 0.000554
-0.930510 34.292503 0.000617
-0.615160 34.292503 0.000686
-0.299810 34.292503 0.000702
0.015540 34.292503 0.000645
0.330890 34.292503 0.000535
0.646240 34.292503 0.000322
0.961589 34.292503 0.000143
1.276940 34.292503 0.000262
1.592289 34.292503 0.000411
1.907640 34.292503 0.000275
2.222990 34.292503 0.000185
2.538340 34.292503 0.000196
2.853690 34.292503 0.000159
3.169039 34.292503 0.000048
3.484390 34.292503 -0.000060
3.799739 34.292503 -0.000008
4.115090 34.292503 0.000014
4.430439 34.292503 -0.000119
4.745790 34.292503 -0.000302
5.061140 34.292503 -0.000188
5.376490 34.292503 0.000097
5.691840 34.292503 0.000357
6.007189 34.292503 0.000217
6.322540 34.292503 -0.000374
6.637889 34.292503 -0.000812
6.953240 34.292503 -0.000943
7.268589 34.292503 -0.000919
7.583940 34.292503 -0.001141
7.899290 34.292503 -0.001413
8.214640 34.292503 -0.001324
8.529989 34.292503 -0.000959
8.845339 34.292503 0.003128
9.160688 34.292503 0.002655
9.476040 34.292503 -0.000474
9.791389 34.292503 0.001356
10.106739 34.292503 -0.000553
10.422089 34.292503 0.009765
10.737438 34.292503 0.010683
11.052790 34.292503 -0.006033
11.368139 34.292503 -0.017213
11.683489 34.292503 -0.023146
11.998838 34.292503 0.002195
12.314190 34.292503 0.017020
12.629539 34.292503 0.009669
12.944889 34.292503 0.001351
13.260239 34.292503 0.003854
13.575588 34.292503 0.035546
13.890940 34.292503 0.066024
14.206289 34.292503 0.051971
14.521639 34.292503 0.023500
14.836988 34.292503 0.020723
15.152340 34.292503 -0.023223
15.467690 34.292503 -0.052151
15.783039 34.292503 0.034376
16.098389 34.292503 0.000000
16.413738 34.292503 0.000000
16.729090 34.292503 0.000000
17.044439 34.292503 0.000000
17.359789 34.292503 0.000000
17.675138 34.292503 0.000000
17.990490 34.292503 0.000000
18.305840 34.292503 0.000000
18.621189 34.292503 0.000000
18.936539 34.292503 0.000000
19.251888 34.292503 0.000000
-7.237510 33.977150 0.000000
-6.922160 33.977150 0.001696
-6.606810 33.977150 0.001454
-6.291460 33.977150 0.001179
-5.976110 33.977150 0.001077
-5.660760 33.977150 0.001078
-5.345410 33.977150 0.001065
-5.030060 33.977150 0.000857
-4.714710 33.977150 0.000793
-4.399360 33.977150 0.000872
-4.084010 33.977150 0.000880
-3.768660 33.977150 0.000729
-3.453310 33.977150 0.000538
-3.137960 33.977150 0.000555
-2.822610 33.977150 0.000630
-2.507260 33.977150 0.000589
-2.191910 33.977150 0.000660
-1.876560 33.977150 0.000673
-1.561210 33.977150 0.000610
-1.245860 33.977150 0.000665
-0.930510 33.977150 0.000641
-0.615160 33.977150 0.000602
-0.299810 33.977150 0.000623
0.015540 33.977150 0.000565
0.330890 33.977150 0.000460
0.646240 33.977150 0.000344
0.961589 33.977150 0.000220
1.276940 33.977150 0.000354
1.592289 33.977150 0.000425
1.907640 33.977150 0.000359
2.222990 33.977150 0.000204
2.538340 33.977150 0.000186
2.853690 33.977150 0.000180
3.169039 33.977150 0.000066
3.484390 33.977150 -0.000007
3.799739 33.977150 0.000004
4.115090 33.977150 -0.000046
4.430439 33.977150 -0.000129
4.745790 33.977150 -0.000308
5.061140 33.977150 -0.000158
5.376490 33.977150 0.000090
5.691840 33.977150 0.000238
6.007189 33.977150 0.000092
6.322540 33.977150 -0.000302
6.637889 33.977150 -0.000685
6.953240 33.977150 -0.000701
7.268589 33.977150 -0.000812
7.583940 33.977150 -0.001247
7.899290 33.977150 -0.001534
8.214640 33.977150 -0.002096
8.529989 33.977150 0.000576
8.845339 33.977150 0.004013
9.160688 33.977150 0.000229
9.476040 33.977150 0.001914
9.791389 33.977150 -0.002075
10.106739 33.977150 0.002230
10.422089 33.977150 0.005925
10.737438 33.977150 0.020415
11.052790 33.977150 -0.003308
11.368139 33.977150 -0.015171
11.683489 33.977150 -0.002565
11.998838 33.977150 0.022012
12.314190 33.977150 0.028169
12.629539 33.977150 0.021606
12.944889 33.977150 0.011700
13.260239 33.977150 0.010995
13.575588 33.977150 0.042920
13.890940 33.977150 0.047115
14.206289 33.977150 -0.008371
14.521639 33.977150 0.011945
14.836988 33.977150 -0.017491
15.152340 33.977150 -0.007670
15.467690 33.977150 -0.024687
15.783039 33.977150 0.045141
16.098389 33.977150 0.000000
16.413738 33.977150 0.000000
16.729090 33.977150 0.000000
17.044439 33.977150 0.000000
17.359789 33.977150 0.000000
17.675138 33.977150 0.000000
17.990490 33.977150 0.000000
18.305840 33.977150 0.000000
18.621189 33.977150 0.000000
18.936539 33.977150 0.000000
19.251888 33.977150 0.000000
-7.237510 33.661800 0.000000
-6.922160 33.661800 0.001752
-6.606810 33.661800 0.001781
-6.291460 33.661800 0.001335
-5.976110 33.661800 0.001231
-5.660760 33.661800 0.001174
-5.345410 33.661800 0.001079
-5.030060 33.661800 0.000906
-4.714710 33.661800 0.000946
-4.399360 33.661800 0.000966
-4.084010 33.661800 0.000853
-3.768660 33.661800 0.000740
-3.453310 33.661800 0.000603
-3.137960 33.661800 0.000635
-2.822610 33.661800 0.000641
-2.507260 33.661800 0.000577
-2.191910 33.661800 0.000730
-1.876560 33.661800 0.000775
-1.561210 33.661800 0.000683
-1.245860 33.661800 0.000736
-0.930510 33.661800 0.000663
-0.615160 33.661800 0.000529
-0.299810 33.661800 0.000537
0.015540 33.661800 0.000557
0.330890 33.661800 0.000556
0.646240 33.661800 0.000509
0.961589 33.661800 0.000444
1.276940 33.661800 0.000425
1.592289 33.661800 0.000421
1.907640 33.661800 0.000357
2.222990 33.661800 0.000271
2.538340 33.661800 0.000199
2.853690 33.661800 0.000172
3.169039 33.661800 0.000201
3.484390 33.661800 0.000107
3.799739 33.661800 0.000131
4.115090 33.661800 0.000024
4.430439 33.661800 -0.000167
4.745790 33.661800 -0.000295
5.061140 33.661800 -0.000182
5.376490 33.661800 0.000072
5.691840 33.661800 0.000115
6.007189 33.661800 -0.000054
6.322540 33.661800 -0.000072
6.637889 33.661800 -0.000468
6.953240 33.661800 -0.000477
7.268589 33.661800 -0.000835
7.583940 33.661800 -0.001005
7.899290 33.661800 -0.001797
8.214640 33.661800 -0.001818
8.529989 33.661800 0.003220
8.845339 33.661800 0.002901
9.160688 33.661800 0.001460
9.476040 33.661800 0.000323
9.791389 33.661800 0.002349
10.106739 33.661800 -0.002250
10.422089 33.661800 0.000337
10.737438 33.661800 0.002723
11.052790 33.661800 -0.008064
11.368139 33.661800 -0.023501
11.683489 33.661800 0.012527
11.998838 33.661800 0.010410
12.314190 33.661800 0.010323
12.629539 33.661800 0.016884
12.944889 33.661800 0.032413
13.260239 33.661800 0.047159
13.575588 33.661800 0.035708
13.890940 33.661800 0.039051
14.206289 33.661800 0.018561
14.521639 33.661800 0.020212
14.836988 33.661800 -0.007408
15.152340 33.661800 0.028981
15.467690 33.661800 0.007716
15.783039 33.661800 0.025474
16.098389 33.661800 0.000000
16.413738 33.661800 0.000000
16.729090 33.661800 0.000000
17.044439 33.661800 0.000000
17.359789 33.661800 0.000000
17.675138 33.661800 0.000000
17.990490 33.661800 0.000000
18.305840 33.661800 0.000000
18.621189 33.661800 0.000000
18.936539 33.661800 0.000000
19.251888 33.661800 0.000000
-7.237510 33.346451 0.000000
-6.922160 33.346451 0.001661
-6.606810 33.346451 0.001944
-6.291460 33.346451 0.001473
-5.976110 33.346451 0.001351
-5.660760 33.346451 0.001264
-5.345410 33.346451 0.001107
-5.030060 33.346451 0.001026
-4.714710 33.346451 0.001048
-4.399360 33.346451 0.001034
-4.084010 33.346451 0.000892
-3.768660 33.346451 0.000848
-3.453310 33.346451 0.000750
-3.137960 33.346451 0.000745
-2.822610 33.346451 0.000591
-2.507260 33.346451 0.000447
-2.191910 33.346451 0.000669
-1.876560 33.346451 0.000873
-1.561210 33.346451 0.000775
-1.245860 33.346451 0.000852
-0.930510 33.346451 0.000704
-0.615160 33.346451 0.000504
-0.299810 33.346451 0.000549
0.015540 33.346451 0.000648
0.330890 33.346451 0.000678
0.646240 33.346451 0.000631
0.961589 33.346451 0.000606
1.276940 33.346451 0.000457
1.592289 33.346451 0.000380
1.907640 33.346451 0.000295
2.222990 33.346451 0.000293
2.538340 33.346451 0.000320
2.853690 33.346451 0.000254
3.169039 33.346451 0.000293
3.484390 33.346451 0.000254
3.799739 33.346451 0.000211
4.115090 33.346451 0.000137
4.430439 33.346451 -0.000043
4.745790 33.346451 -0.000160
5.061140 33.346451 -0.000078
5.376490 33.346451 0.000100
5.691840 33.346451 0.000051
6.007189 33.346451 -0.000150
6.322540 33.346451 -0.000004
6.637889 33.346451 -0.000121
6.953240 33.346451 -0.000396
7.268589 33.346451 -0.000683
7.583940 33.346451 -0.000441
7.899290 33.346451 -0.000896
8.214640 33.346451 0.000004
8.529989 33.346451 0.001488
8.845339 33.346451 0.002883
9.160688 33.346451 0.003440
9.476040 33.346451 -0.000175
9.791389 33.346451 0.001137
10.106739 33.346451 -0.003522
10.422089 33.346451 0.000653
10.737438 33.346451 0.011021
11.052790 33.346451 -0.005654
11.368139 33.346451 -0.004659
11.683489 33.346451 0.013771
11.998838 33.346451 0.003752
12.314190 33.346451 -0.001812
12.629539 33.346451 0.000067
12.944889 33.346451 -0.000786
13.260239 33.346451 0.039607
13.575588 33.346451 0.031215
13.890940 33.346451 0.032076
14.206289 33.346451 0.061462
14.521639 33.346451 0.025561
14.836988 33.346451 0.023942
15.152340 33.346451 0.021386
15.467690 33.346451 0.000254
15.783039 33.346451 0.057587
16.098389 33.346451 0.000000
16.413738 33.346451 0.000000
16.729090 33.346451 0.000000
17.044439 33.346451 0.000000
17.359789 33.346451 0.000000
17.675138 33.346451 0.000000
17.990490 33.346451 0.000000
18.305840 33.346451 0.000000
18.621189 33.346451 0.000000
18.936539 33.346451 0.000000
19.251888 33.346451 0.000000
-7.237510 33.031101 0.000000
-6.922160 33.031101 0.001875
-6.606810 33.031101 0.001980
-6.291460 33.031101 0.001508
-5.976110 33.031101 0.001344
-5.660760 33.031101 0.001303
-5.345410 33.031101 0.001100
-5.030060 33.031101 0.000973
-4.714710 33.031101 0.001033
-4.399360 33.031101 0.000999
-4.084010 33.031101 0.000899
-3.768660 33.031101 0.000920
-3.453310 33.031101 0.000881
-3.137960 33.031101 0.000847
-2.822610 33.031101 0.000613
-2.507260 33.031101 0.000361
-2.191910 33.031101 0.000555
-1.876560 33.031101 0.000829
-1.561210 33.031101 0.000788
-1.245860 33.031101 0.000842
-0.930510 33.031101 0.000777
-0.615160 33.031101 0.000615
-0.299810 33.031101 0.000623
0.015540 33.031101 0.000779
0.330890 33.031101 0.000775
0.646240 33.031101 0.000700
0.961589 33.031101 0.000655
1.276940 33.031101 0.000472
1.592289 33.031101 0.000374
1.907640 33.031101 0.000360
2.222990 33.031101 0.000385
2.538340 33.031101 0.000372
2.853690 33.031101 0.000266
3.169039 33.031101 0.000296
3.484390 33.031101 0.000306
3.799739 33.031101 0.000235
4.115090 33.031101 0.000177
4.430439 33.031101 0.000048
4.745790 33.031101 -0.000007
5.061140 33.031101 0.000089
5.376490 33.031101 0.000086
5.691840 33.031101 -0.000067
6.007189 33.031101 -0.000125
6.322540 33.031101 0.000150
6.637889 33.031101 0.000026
6.953240 33.031101 -0.000563
7.268589 33.031101 -0.000871
7.583940 33.031101 -0.000533
7.899290 33.031101 -0.000236
8.214640 33.031101 0.000226
8.529989 33.031101 0.003215
8.845339 33.031101 0.005015
9.160688 33.031101 0.001886
9.476040 33.031101 0.000380
9.791389 33.031101 -0.000076
10.106739 33.031101 -0.001972
10.422089 33.031101 0.006959
10.737438 33.031101 0.012033
11.052790 33.031101 0.032020
11.368139 33.031101 -0.003771
11.683489 33.031101 0.032399
11.998838 33.031101 0.017183
12.314190 33.031101 0.001437
12.629539 33.031101 0.008242
12.944889 33.031101 -0.022896
13.260239 33.031101 0.012791
13.575588 33.031101 -0.008118
13.890940 33.031101 0.019879
14.206289 33.031101 0.012901
14.521639 33.031101 0.052443
14.836988 33.031101 0.054502
15.152340 33.031101 0.070455
15.467690 33.031101 -0.009164
15.783039 33.031101 0.075957
16.098389 33.031101 0.000000
16.413738 33.031101 0.000000
16.729090 33.031101 0.000000
17.044439 33.031101 0.000000
17.359789 33.031101 0.000000
17.675138 33.031101 0.000000
17.990490 33.031101 0.000000
18.305840 33.031101 0.000000
18.621189 33.031101 0.000000
18.936539 33.031101 0.000000
19.251888 33.031101 0.000000
-7.237510 32.715752 0.000000
-6.922160 32.715752 0.002073
-6.606810 32.715752 0.001917
-6.291460 32.715752 0.001471
-5.976110 32.715752 0.001347
-5.660760 32.715752 0.001348
-5.345410 32.715752 0.001128
-5.030060 32.715752 0.000948
-4.714710 32.715752 0.000963
-4.399360 32.715752 0.000884
-4.084010 32.715752 0.000879
-3.768660 32.715752 0.000859
-3.453310 32.715752 0.000851
-3.137960 32.715752 0.000960
-2.822610 32.715752 0.000718
-2.507260 32.715752 0.000440
-2.191910 32.715752 0.000559
-1.876560 32.715752 0.000775
-1.561210 32.715752 0.000757
-1.245860 32.715752 0.000758
-0.930510 32.715752 0.000750
-0.615160 32.715752 0.000723
-0.299810 32.715752 0.000713
0.015540 32.715752 0.000817
0.330890 32.715752 0.000808
0.646240 32.715752 0.000763
0.961589 32.715752 0.000701
1.276940 32.715752 0.000537
1.592289 32.715752 0.000433
1.907640 32.715752 0.000408
2.222990 32.715752 0.000369
2.538340 32.715752 0.000360
2.853690 32.715752 0.000244
3.169039 32.715752 0.000288
3.484390 32.715752 0.000248
3.799739 32.715752 0.000208
4.115090 32.715752 0.000148
4.430439 32.715752 0.000050
4.745790 32.715752 0.000075
5.061140 32.715752 0.000165
5.376490 32.715752 0.000096
5.691840 32.715752 -0.000010
6.007189 32.715752 -0.000083
6.322540 32.715752 0.000217
6.637889 32.715752 0.000091
6.953240 32.715752 -0.000484
7.268589 32.715752 -0.000770
7.583940 32.715752 0.000037
7.899290 32.715752 -0.000282
8.214640 32.715752 -0.000498
8.529989 32.715752 -0.000789
8.845339 32.715752 0.002492
9.160688 32.715752 -0.001797
9.476040 32.715752 0.000140
9.791389 32.715752 -0.007205
10.106739 32.715752 -0.011633
10.422089 32.715752 0.013410
10.737438 32.715752 0.011048
11.052790 32.715752 0.030826
11.368139 32.715752 0.027423
11.683489 32.715752 0.031415
11.998838 32.715752 0.038001
12.314190 32.715752 -0.019267
12.629539 32.715752 0.011916
12.944889 32.715752 -0.011993
13.260239 32.715752 0.000633
13.575588 32.715752 0.035826
13.890940 32.715752 0.015773
14.206289 32.715752 -0.006494
14.521639 32.715752 0.067620
14.836988 32.715752 0.065297
15.152340 32.715752 0.027844
15.467690 32.715752 0.007463
15.783039 32.715752 0.100964
16.098389 32.715752 0.000000
16.413738 32.715752 0.000000
16.729090 32.715752 0.000000
17.044439 32.715752 0.000000
17.359789 32.715752 0.000000
17.675138 32.715752 0.000000
17.990490 32.715752 0.000000
18.305840 32.715752 0.000000
18.621189 32.715752 0.000000
18.936539 32.715752 0.000000
19.251888 32.715752 0.000000
-7.237510 32.400398 0.000000
-6.922160 32.400398 0.002433
-6.606810 32.400398 0.001836
-6.291460 32.400398 0.001339
-5.976110 32.400398 0.001342
-5.660760 32.400398 0.001433
-5.345410 32.400398 0.001184
-5.030060 32.400398 0.000922
-4.714710 32.400398 0.000930
-4.399360 32.400398 0.000877
-4.084010 32.400398 0.000862
-3.768660 32.400398 0.000805
-3.453310 32.400398 0.000792
-3.137960 32.400398 0.000959
-2.822610 32.400398 0.000910
-2.507260 32.400398 0.000652
-2.191910 32.400398 0.000586
-1.876560 32.400398 0.000703
-1.561210 32.400398 0.000728
-1.245860 32.400398 0.000756
-0.930510 32.400398 0.000805
-0.615160 32.400398 0.000788
-0.299810 32.400398 0.000744
0.015540 32.400398 0.000732
0.330890 32.400398 0.000630
0.646240 32.400398 0.000756
0.961589 32.400398 0.000803
1.276940 32.400398 0.000659
1.592289 32.400398 0.000490
1.907640 32.400398 0.000465
2.222990 32.400398 0.000388
2.538340 32.400398 0.000307
2.853690 32.400398 0.000300
3.169039 32.400398 0.000269
3.484390 32.400398 0.000235
3.799739 32.400398 0.000230
4.115090 32.400398 0.000165
4.430439 32.400398 0.000125
4.745790 32.400398 0.000097
5.061140 32.400398 0.000182
5.376490 32.400398 0.000186
5.691840 32.400398 0.000017
6.007189 32.400398 0.000006
6.322540 32.400398 0.000195
6.637889 32.400398 -0.000055
6.953240 32.400398 -0.000376
7.268589 32.400398 -0.000457
7.583940 32.400398 0.000155
7.899290 32.400398 0.000457
8.214640 32.400398 0.000483
8.529989 32.400398 -0.000225
8.845339 32.400398 0.000050
9.160688 32.400398 0.000411
9.476040 32.400398 -0.000252
9.791389 32.400398 -0.002169
10.106739 32.400398 0.001187
10.422089 32.400398 0.018834
10.737438 32.400398 0.014318
11.052790 32.400398 0.019746
11.368139 32.400398 0.035771
11.683489 32.400398 0.029076
11.998838 32.400398 0.023664
12.314190 32.400398 0.003209
12.629539 32.400398 0.015480
12.944889 32.400398 0.023001
13.260239 32.400398 0.018242
13.575588 32.400398 0.030660
13.890940 32.400398 0.007839
14.206289 32.400398 0.037848
14.521639 32.400398 0.039738
14.836988 32.400398 0.058926
15.152340 32.400398 0.043293
15.467690 32.400398 -0.007246
15.783039 32.400398 -0.177615
16.098389 32.400398 0.000000
16.413738 32.400398 0.000000
16.729090 32.400398 0.000000
17.044439 32.400398 0.000000
17.359789 32.400398 0.000000
17.675138 32.400398 0.000000
17.990490 32.400398 0.000000
18.305840 32.400398 0.000000
18.621189 32.400398 0.000000
18.936539 32.400398 0.000000
19.251888 32.400398 0.000000
-7.237510 32.085052 0.000000
-6.922160 32.085052 0.002549
-6.606810 32.085052 0.001829
-6.291460 32.085052 0.001409
-5.976110 32.085052 0.001452
-5.660760 32.085052 0.001511
-5.345410 32.085052 0.001279
-5.030060 32.085052 0.001021
-4.714710 32.085052 0.001064
-4.399360 32.085052 0.001007
-4.084010 32.085052 0.000960
-3.768660 32.085052 0.000776
-3.453310 32.085052 0.000702
-3.137960 32.085052 0.000972
-2.822610 32.085052 0.000987
-2.507260 32.085052 0.000823
-2.191910 32.085052 0.000665
-1.876560 32.085052 0.000625
-1.561210 32.085052 0.000707
-1.245860 32.085052 0.000804
-0.930510 32.085052 0.000757
-0.615160 32.085052 0.000828
-0.299810 32.085052 0.000700
0.015540 32.085052 0.000661
0.330890 32.085052 0.000578
0.646240 32.085052 0.000798
0.961589 32.085052 0.000874
1.276940 32.085052 0.000805
1.592289 32.085052 0.000626
1.907640 32.085052 0.000476
2.222990 32.085052 0.000421
2.538340 32.085052 0.000441
2.853690 32.085052 0.000375
3.169039 32.085052 0.000363
3.484390 32.085052 0.000283
3.799739 32.085052 0.000292
4.115090 32.085052 0.000223
4.430439 32.085052 0.000132
4.745790 32.085052 0.000204
5.061140 32.085052 0.000217
5.376490 32.085052 0.000228
5.691840 32.085052 0.000218
6.007189 32.085052 0.000185
6.322540 32.085052 0.000179
6.637889 32.085052 -0.000220
6.953240 32.085052 -0.000533
7.268589 32.085052 -0.000312
7.583940 32.085052 0.000119
7.899290 32.085052 0.000636
8.214640 32.085052 0.000255
8.529989 32.085052 0.001900
8.845339 32.085052 0.003871
9.160688 32.085052 0.002763
9.476040 32.085052 0.006312
9.791389 32.085052 0.002140
10.106739 32.085052 0.010523
10.422089 32.085052 0.018009
10.737438 32.085052 0.022137
11.052790 32.085052 0.011817
11.368139 32.085052 0.029552
11.683489 32.085052 0.047638
11.998838 32.085052 -0.000773
12.314190 32.085052 0.022427
12.629539 32.085052 0.010247
12.944889 32.085052 0.033191
13.260239 32.085052 0.009908
13.575588 32.085052 0.039200
13.890940 32.085052 0.021851
14.206289 32.085052 0.035398
14.521639 32.085052 0.061973
14.836988 32.085052 0.061799
15.152340 32.085052 0.024278
15.467690 32.085052 -0.003883
15.783039 32.085052 0.000000
16.098389 32.085052 0.000000
16.413738 32.085052 0.000000
16.729090 32.085052 0.000000
17.044439 32.085052 0.000000
17.359789 32.085052 0.000000
17.675138 32.085052 0.000000
17.990490 32.085052 0.000000
18.305840 32.085052 0.000000
18.621189 32.085052 0.000000
18.936539 32.085052 0.000000
19.251888 32.085052 0.000000
-7.237510 31.769701 0.000000
-6.922160 31.769701 0.002422
-6.606810 31.769701 0.001810
-6.291460 31.769701 0.001630
-5.976110 31.769701 0.001534
-5.660760 31.769701 0.001471
-5.345410 31.769701 0.001304
-5.030060 31.769701 0.001135
-4.714710 31.769701 0.001248
-4.399360 31.769701 0.001141
-4.084010 31.769701 0.001004
-3.768660 31.769701 0.000796
-3.453310 31.769701 0.000646
-3.137960 31.769701 0.000881
-2.822610 31.769701 0.000951
-2.507260 31.769701 0.000860
-2.191910 31.769701 0.000737
-1.876560 31.769701 0.000574
-1.561210 31.769701 0.000656
-1.245860 31.769701 0.000807
-0.930510 31.769701 0.000750
-0.615160 31.769701 0.000814
-0.299810 31.769701 0.000786
0.015540 31.769701 0.000814
0.330890 31.769701 0.000745
0.646240 31.769701 0.000935
0.961589 31.769701 0.000889
1.276940 31.769701 0.000744
1.592289 31.769701 0.000641
1.907640 31.769701 0.000454
2.222990 31.769701 0.000499
2.538340 31.769701 0.000562
2.853690 31.769701 0.000391
3.169039 31.769701 0.000378
3.484390 31.769701 0.000372
3.799739 31.769701 0.000299
4.115090 31.769701 0.000271
4.430439 31.769701 0.000325
4.745790 31.769701 0.000364
5.061140 31.769701 0.000260
5.376490 31.769701 0.000251
5.691840 31.769701 0.000412
6.007189 31.769701 0.000330
6.322540 31.769701 -0.000070
6.637889 31.769701 -0.000482
6.953240 31.769701 -0.000570
7.268589 31.769701 -0.000475
7.583940 31.769701 0.000147
7.899290 31.769701 0.001182
8.214640 31.769701 -0.000023
8.529989 31.769701 0.003290
8.845339 31.769701 0.006387
9.160688 31.769701 0.007416
9.476040 31.769701 0.007078
9.791389 31.769701 0.009262
10.106739 31.769701 0.012643
10.422089 31.769701 0.019008
10.737438 31.769701 0.034660
11.052790 31.769701 0.022339
11.368139 31.769701 0.020380
11.683489 31.769701 0.045668
11.998838 31.769701 0.018614
12.314190 31.769701 0.049985
12.629539 31.769701 0.031837
12.944889 31.769701 0.007235
13.260239 31.769701 0.040286
13.575588 31.769701 0.031284
13.890940 31.769701 0.053805
14.206289 31.769701 0.047351
14.521639 31.769701 0.082644
14.836988 31.769701 0.045786
15.152340 31.769701 0.053527
15.467690 31.769701 -0.034540
15.783039 31.769701 0.000000
16.098389 31.769701 0.000000
16.413738 31.769701 0.000000
16.729090 31.769701 0.000000
17.044439 31.769701 0.000000
17.359789 31.769701 0.000000
17.675138 31.769701 0.000000
17.990490 31.769701 0.000000
18.305840 31.769701 0.000000
18.621189 31.769701 0.000000
18.936539 31.769701 0.000000
19.251888 31.769701 0.000000
-7.237510 31.454351 0.000000
-6.922160 31.454351 0.002528
-6.606810 31.454351 0.001888
-6.291460 31.454351 0.001815
-5.976110 31.454351 0.001602
-5.660760 31.454351 0.001488
-5.345410 31.454351 0.001262
-5.030060 31.454351 0.001257
-4.714710 31.454351 0.001462
-4.399360 31.454351 0.001224
-4.084010 31.454351 0.000933
-3.768660 31.454351 0.000826
-3.453310 31.454351 0.000723
-3.137960 31.454351 0.000907
-2.822610 31.454351 0.000933
-2.507260 31.454351 0.000888
-2.191910 31.454351 0.000762
-1.876560 31.454351 0.000572
-1.561210 31.454351 0.000692
-1.245860 31.454351 0.000825
-0.930510 31.454351 0.000827
-0.615160 31.454351 0.000820
-0.299810 31.454351 0.000902
0.015540 31.454351 0.000939
0.330890 31.454351 0.000918
0.646240 31.454351 0.001009
0.961589 31.454351 0.000851
1.276940 31.454351 0.000685
1.592289 31.454351 0.000603
1.907640 31.454351 0.000479
2.222990 31.454351 0.000578
2.538340 31.454351 0.000623
2.853690 31.454351 0.000412
3.169039 31.454351 0.000458
3.484390 31.454351 0.000417
3.799739 31.454351 0.000406
4.115090 31.454351 0.000459
4.430439 31.454351 0.000547
4.745790 31.454351 0.000486
5.061140 31.454351 0.000313
5.376490 31.454351 0.000224
5.691840 31.454351 0.000383
6.007189 31.454351 0.000344
6.322540 31.454351 -0.000019
6.637889 31.454351 -0.000478
6.953240 31.454351 -0.000822
7.268589 31.454351 -0.000773
7.583940 31.454351 0.000510
7.899290 31.454351 0.000969
8.214640 31.454351 0.000655
8.529989 31.454351 0.006263
8.845339 31.454351 0.007963
9.160688 31.454351 0.005096
9.476040 31.454351 0.002883
9.791389 31.454351 0.001344
10.106739 31.454351 0.013838
10.422089 31.454351 0.023694
10.737438 31.454351 0.038470
11.052790 31.454351 0.037148
11.368139 31.454351 0.033229
11.683489 31.454351 0.053793
11.998838 31.454351 0.018354
12.314190 31.454351 0.036931
12.629539 31.454351 0.041933
12.944889 31.454351 0.025077
13.260239 31.454351 0.020676
13.575588 31.454351 0.058064
13.890940 31.454351 0.006578
14.206289 31.454351 0.067512
14.521639 31.454351 0.085654
14.836988 31.454351 0.069878
15.152340 31.454351 0.014090
15.467690 31.454351 -0.075092
15.783039 31.454351 0.000000
16.098389 31.454351 0.000000
16.413738 31.454351 0.000000
16.729090 31.454351 0.000000
17.044439 31.454351 0.000000
17.359789 31.454351 0.000000
17.675138 31.454351 0.000000
17.990490 31.454351 0.000000
18.305840 31.454351 0.000000
18.621189 31.454351 0.000000
18.936539 31.454351 0.000000
19.251888 31.454351 0.000000
-7.237510 31.139000 0.000000
-6.922160 31.139000 0.002661
-6.606810 31.139000 0.001938
-6.291460 31.139000 0.001851
-5.976110 31.139000 0.001784
-5.660760 31.139000 0.001659
-5.345410 31.139000 0.001333
-5.030060 31.139000 0.001375
-4.714710 31.139000 0.001543
-4.399360 31.139000 0.001319
-4.084010 31.139000 0.000860
-3.768660 31.139000 0.000878
-3.453310 31.139000 0.000969
-3.137960 31.139000 0.001025
-2.822610 31.139000 0.001045
-2.507260 31.139000 0.001007
-2.191910 31.139000 0.000847
-1.876560 31.139000 0.000726
-1.561210 31.139000 0.000782
-1.245860 31.139000 0.000874
-0.930510 31.139000 0.000897
-0.615160 31.139000 0.000832
-0.299810 31.139000 0.000817
0.015540 31.139000 0.000915
0.330890 31.139000 0.000973
0.646240 31.139000 0.001031
0.961589 31.139000 0.000766
1.276940 31.139000 0.000629
1.592289 31.139000 0.000594
1.907640 31.139000 0.000526
2.222990 31.139000 0.000646
2.538340 31.139000 0.000618
2.853690 31.139000 0.000438
3.169039 31.139000 0.000544
3.484390 31.139000 0.000495
3.799739 31.139000 0.000417
4.115090 31.139000 0.000499
4.430439 31.139000 0.000685
4.745790 31.139000 0.000557
5.061140 31.139000 0.000320
5.376490 31.139000 0.000283
5.691840 31.139000 0.000276
6.007189 31.139000 0.000330
6.322540 31.139000 0.000031
6.637889 31.139000 -0.000510
6.953240 31.139000 -0.000820
7.268589 31.139000 -0.000404
7.583940 31.139000 0.000777
7.899290 31.139000 0.001262
8.214640 31.139000 0.001357
8.529989 31.139000 0.004480
8.845339 31.139000 0.006222
9.160688 31.139000 0.004959
9.476040 31.139000 0.004049
9.791389 31.139000 0.004021
10.106739 31.139000 0.015682
10.422089 31.139000 0.026413
10.737438 31.139000 0.022799
11.052790 31.139000 0.036614
11.368139 31.139000 0.042193
11.683489 31.139000 0.027414
11.998838 31.139000 0.014574
12.314190 31.139000 0.011099
12.629539 31.139000 0.061842
12.944889 31.139000 0.061941
13.260239 31.139000 0.056796
13.575588 31.139000 0.036343
13.890940 31.139000 0.004689
14.206289 31.139000 0.027839
14.521639 31.139000 0.067758
14.836988 31.139000 0.018228
15.152340 31.139000 0.012406
15.467690 31.139000 -0.066303
15.783039 31.139000 0.000000
16.098389 31.139000 0.000000
16.413738 31.139000 0.000000
16.729090 31.139000 0.000000
17.044439 31.139000 0.000000
17.359789 31.139000 0.000000
17.675138 31.139000 0.000000
17.990490 31.139000 0.000000
18.305840 31.139000 0.000000
18.621189 31.139000 0.000000
18.936539 31.139000 0.000000
19.251888 31.139000 0.000000
-7.237510 30.823650 0.000000
-6.922160 30.823650 0.002867
-6.606810 30.823650 0.001964
-6.291460 30.823650 0.001861
-5.976110 30.823650 0.001913
-5.660760 30.823650 0.001750
-5.345410 30.823650 0.001512
-5.030060 30.823650 0.001517
-4.714710 30.823650 0.001569
-4.399360 30.823650 0.001388
-4.084010 30.823650 0.001009
-3.768660 30.823650 0.001000
-3.453310 30.823650 0.001105
-3.137960 30.823650 0.001205
-2.822610 30.823650 0.001280
-2.507260 30.823650 0.001175
-2.191910 30.823650 0.000926
-1.876560 30.823650 0.000808
-1.561210 30.823650 0.000825
-1.245860 30.823650 0.000892
-0.930510 30.823650 0.000951
-0.615160 30.823650 0.000920
-0.299810 30.823650 0.000822
0.015540 30.823650 0.000850
0.330890 30.823650 0.000961
0.646240 30.823650 0.001120
0.961589 30.823650 0.000796
1.276940 30.823650 0.000623
1.592289 30.823650 0.000607
1.907640 30.823650 0.000551
2.222990 30.823650 0.000619
2.538340 30.823650 0.000556
2.853690 30.823650 0.000478
3.169039 30.823650 0.000534
3.484390 30.823650 0.000498
3.799739 30.823650 0.000392
4.115090 30.823650 0.000553
4.430439 30.823650 0.000688
4.745790 30.823650 0.000519
5.061140 30.823650 0.000426
5.376490 30.823650 0.000350
5.691840 30.823650 0.000231
6.007189 30.823650 0.000223
6.322540 30.823650 -0.000065
6.637889 30.823650 -0.000441
6.953240 30.823650 -0.000313
7.268589 30.823650 0.000002
7.583940 30.823650 0.000726
7.899290 30.823650 0.000988
8.214640 30.823650 0.000911
8.529989 30.823650 0.002005
8.845339 30.823650 0.004410
9.160688 30.823650 0.006512
9.476040 30.823650 0.009257
9.791389 30.823650 0.010356
10.106739 30.823650 0.019059
10.422089 30.823650 0.031232
10.737438 30.823650 0.045790
11.052790 30.823650 0.034800
11.368139 30.823650 0.029299
11.683489 30.823650 0.026373
11.998838 30.823650 0.022174
12.314190 30.823650 0.012256
12.629539 30.823650 0.007563
12.944889 30.823650 0.039131
13.260239 30.823650 0.066179
13.575588 30.823650 0.013317
13.890940 30.823650 0.020798
14.206289 30.823650 0.014683
14.521639 30.823650 0.047104
14.836988 30.823650 0.013942
15.152340 30.823650 -0.000528
15.467690 30.823650 -0.039549
15.783039 30.823650 0.000000
16.098389 30.823650 0.000000
16.413738 30.823650 0.000000
16.729090 30.823650 0.000000
17.044439 30.823650 0.000000
17.359789 30.823650 0.000000
17.675138 30.823650 0.000000
17.990490 30.823650 0.000000
18.305840 30.823650 0.000000
18.621189 30.823650 0.000000
18.936539 30.823650 0.000000
19.251888 30.823650 0.000000
-7.237510 30.508301 0.000000
-6.922160 30.508301 0.002891
-6.606810 30.508301 0.002014
-6.291460 30.508301 0.001915
-5.976110 30.508301 0.001982
-5.660760 30.508301 0.001788
-5.345410 30.508301 0.001657
-5.030060 30.508301 0.001630
-4.714710 30.508301 0.001628
-4.399360 30.508301 0.001442
-4.084010 30.508301 0.001197
-3.768660 30.508301 0.001106
-3.453310 30.508301 0.001235
-3.137960 30.508301 0.001446
-2.822610 30.508301 0.001618
-2.507260 30.508301 0.001410
-2.191910 30.508301 0.001064
-1.876560 30.508301 0.000828
-1.561210 30.508301 0.000800
-1.245860 30.508301 0.000899
-0.930510 30.508301 0.001073
-0.615160 30.508301 0.001077
-0.299810 30.508301 0.000841
0.015540 30.508301 0.000820
0.330890 30.508301 0.000890
0.646240 30.508301 0.001136
0.961589 30.508301 0.000936
1.276940 30.508301 0.000704
1.592289 30.508301 0.000611
1.907640 30.508301 0.000575
2.222990 30.508301 0.000589
2.538340 30.508301 0.000522
2.853690 30.508301 0.000512
3.169039 30.508301 0.000496
3.484390 30.508301 0.000466
3.799739 30.508301 0.000419
4.115090 30.508301 0.000582
4.430439 30.508301 0.000653
4.745790 30.508301 0.000400
5.061140 30.508301 0.000489
5.376490 30.508301 0.000498
5.691840 30.508301 0.000259
6.007189 30.508301 0.000229
6.322540 30.508301 -0.000077
6.637889 30.508301 -0.000284
6.953240 30.508301 -0.000238
7.268589 30.508301 0.000368
7.583940 30.508301 0.001000
7.899290 30.508301 0.001152
8.214640 30.508301 0.002159
8.529989 30.508301 0.001925
8.845339 30.508301 0.003984
9.160688 30.508301 0.003569
9.476040 30.508301 0.004272
9.791389 30.508301 0.013237
10.106739 30.508301 0.015977
10.422089 30.508301 0.027795
10.737438 30.508301 0.037262
11.052790 30.508301 0.030278
11.368139 30.508301 0.010153
11.683489 30.508301 0.039124
11.998838 30.508301 0.013474
12.314190 30.508301 0.035311
12.629539 30.508301 0.032608
12.944889 30.508301 0.059635
13.260239 30.508301 0.026578
13.575588 30.508301 0.041740
13.890940 30.508301 0.020715
14.206289 30.508301 0.031686
14.521639 30.508301 -0.007320
14.836988 30.508301 0.016701
15.152340 30.508301 -0.026008
15.467690 30.508301 -0.028878
15.783039 30.508301 0.000000
16.098389 30.508301 0.000000
16.413738 30.508301 0.000000
16.729090 30.508301 0.000000
17.044439 30.508301 0.000000
17.359789 30.508301 0.000000
17.675138 30.508301 0.000000
17.990490 30.508301 0.000000
18.305840 30.508301 0.000000
18.621189 30.508301 0.000000
18.936539 30.508301 0.000000
19.251888 30.508301 0.000000
-7.237510 30.192951 0.000000
-6.922160 30.192951 0.003098
-6.606810 30.192951 0.002039
-6.291460 30.192951 0.001888
-5.976110 30.192951 0.002007
-5.660760 30.192951 0.001864
-5.345410 30.192951 0.001812
-5.030060 30.192951 0.001725
-4.714710 30.192951 0.001796
-4.399360 30.192951 0.001563
-4.084010 30.192951 0.001368
-3.768660 30.192951 0.001270
-3.453310 30.192951 0.001455
-3.137960 30.192951 0.001649
-2.822610 30.192951 0.001792
-2.507260 30.192951 0.001589
-2.191910 30.192951 0.001164
-1.876560 30.192951 0.000890
-1.561210 30.192951 0.000964
-1.245860 30.192951 0.001051
-0.930510 30.192951 0.001147
-0.615160 30.192951 0.001158
-0.299810 30.192951 0.000977
0.015540 30.192951 0.000907
0.330890 30.192951 0.000869
0.646240 30.192951 0.001155
0.961589 30.192951 0.001096
1.276940 30.192951 0.000862
1.592289 30.192951 0.000709
1.907640 30.192951 0.000552
2.222990 30.192951 0.000600
2.538340 30.192951 0.000667
2.853690 30.192951 0.000597
3.169039 30.192951 0.000520
3.484390 30.192951 0.000488
3.799739 30.192951 0.000464
4.115090 30.192951 0.000589
4.430439 30.192951 0.000513
4.745790 30.192951 0.000377
5.061140 30.192951 0.000594
5.376490 30.192951 0.000602
5.691840 30.192951 0.000370
6.007189 30.192951 0.000223
6.322540 30.192951 0.000056
6.637889 30.192951 -0.000143
6.953240 30.192951 -0.000115
7.268589 30.192951 -0.000011
7.583940 30.192951 0.000145
7.899290 30.192951 0.001023
8.214640 30.192951 0.002268
8.529989 30.192951 0.003244
8.845339 30.192951 0.004435
9.160688 30.192951 0.003639
9.476040 30.192951 0.002759
9.791389 30.192951 0.004731
10.106739 30.192951 0.014191
10.422089 30.192951 0.023927
10.737438 30.192951 0.037213
11.052790 30.192951 0.019032
11.368139 30.192951 0.002948
11.683489 30.192951 0.024121
11.998838 30.192951 0.019874
12.314190 30.192951 0.040351
12.629539 30.192951 0.050747
12.944889 30.192951 0.036676
13.260239 30.192951 0.045485
13.575588 30.192951 0.049754
13.890940 30.192951 0.037550
14.206289 30.192951 0.032554
14.521639 30.192951 0.008692
14.836988 30.192951 0.015975
15.152340 30.192951 0.002311
15.467690 30.192951 0.009224
15.783039 30.192951 0.000000
16.098389 30.192951 0.000000
16.413738 30.192951 0.000000
16.729090 30.192951 0.000000
17.044439 30.192951 0.000000
17.359789 30.192951 0.000000
17.675138 30.192951 0.000000
17.990490 30.192951 0.000000
18.305840 30.192951 0.000000
18.621189 30.192951 0.000000
18.936539 30.192951 0.000000
19.251888 30.192951 0.000000
-7.237510 29.877602 0.000000
-6.922160 29.877602 0.003495
-6.606810 29.877602 0.002249
-6.291460 29.877602 0.001813
-5.976110 29.877602 0.002026
-5.660760 29.877602 0.001855
-5.345410 29.877602 0.001929
-5.030060 29.877602 0.001714
-4.714710 29.877602 0.001868
-4.399360 29.877602 0.001616
-4.084010 29.877602 0.001414
-3.768660 29.877602 0.001390
-3.453310 29.877602 0.001580
-3.137960 29.877602 0.001797
-2.822610 29.877602 0.001822
-2.507260 29.877602 0.001632
-2.191910 29.877602 0.001269
-1.876560 29.877602 0.000966
-1.561210 29.877602 0.001168
-1.245860 29.877602 0.001389
-0.930510 29.877602 0.001297
-0.615160 29.877602 0.001252
-0.299810 29.877602 0.001173
0.015540 29.877602 0.001038
0.330890 29.877602 0.000958
0.646240 29.877602 0.001280
0.961589 29.877602 0.001318
1.276940 29.877602 0.000994
1.592289 29.877602 0.000782
1.907640 29.877602 0.000566
2.222990 29.877602 0.000680
2.538340 29.877602 0.000834
2.853690 29.877602 0.000735
3.169039 29.877602 0.000616
3.484390 29.877602 0.000579
3.799739 29.877602 0.000549
4.115090 29.877602 0.000581
4.430439 29.877602 0.000353
4.745790 29.877602 0.000337
5.061140 29.877602 0.000619
5.376490 29.877602 0.000629
5.691840 29.877602 0.000358
6.007189 29.877602 0.000266
6.322540 29.877602 0.000094
6.637889 29.877602 0.000072
6.953240 29.877602 -0.000193
7.268589 29.877602 -0.000233
7.583940 29.877602 0.000285
7.899290 29.877602 0.000812
8.214640 29.877602 0.000741
8.529989 29.877602 0.004231
8.845339 29.877602 0.004242
9.160688 29.877602 0.005669
9.476040 29.877602 0.003302
9.791389 29.877602 0.006987
10.106739 29.877602 0.004929
10.422089 29.877602 0.033660
10.737438 29.877602 0.026772
11.052790 29.877602 0.026968
11.368139 29.877602 0.035489
11.683489 29.877602 0.031224
11.998838 29.877602 0.010416
12.314190 29.877602 0.029867
12.629539 29.877602 0.024877
12.944889 29.877602 0.018560
13.260239 29.877602 0.022828
13.575588 29.877602 0.044703
13.890940 29.877602 0.082703
14.206289 29.877602 0.039556
14.521639 29.877602 0.046510
14.836988 29.877602 0.018657
15.152340 29.877602 0.032073
15.467690 29.877602 -0.003677
15.783039 29.877602 0.000000
16.098389 29.877602 0.000000
16.413738 29.877602 0.000000
16.729090 29.877602 0.000000
17.044439 29.877602 0.000000
17.359789 29.877602 0.000000
17.675138 29.877602 0.000000
17.990490 29.877602 0.000000
18.305840 29.877602 0.000000
18.621189 29.877602 0.000000
18.936539 29.877602 0.000000
19.251888 29.877602 0.000000
-7.237510 29.562250 0.000000
-6.922160 29.562250 0.003474
-6.606810 29.562250 0.002338
-6.291460 29.562250 0.001859
-5.976110 29.562250 0.001957
-5.660760 29.562250 0.001824
-5.345410 29.562250 0.001824
-5.030060 29.562250 0.001741
-4.714710 29.562250 0.001786
-4.399360 29.562250 0.001491
-4.084010 29.562250 0.001396
-3.768660 29.562250 0.001523
-3.453310 29.562250 0.001592
-3.137960 29.562250 0.001623
-2.822610 29.562250 0.001707
-2.507260 29.562250 0.001679
-2.191910 29.562250 0.001366
-1.876560 29.562250 0.001219
-1.561210 29.562250 0.001449
-1.245860 29.562250 0.001711
-0.930510 29.562250 0.001521
-0.615160 29.562250 0.001308
-0.299810 29.562250 0.001382
0.015540 29.562250 0.001233
0.330890 29.562250 0.001051
0.646240 29.562250 0.001292
0.961589 29.562250 0.001373
1.276940 29.562250 0.001100
1.592289 29.562250 0.000894
1.907640 29.562250 0.000663
2.222990 29.562250 0.000813
2.538340 29.562250 0.000973
2.853690 29.562250 0.000829
3.169039 29.562250 0.000765
3.484390 29.562250 0.000699
3.799739 29.562250 0.000606
4.115090 29.562250 0.000462
4.430439 29.562250 0.000225
4.745790 29.562250 0.000396
5.061140 29.562250 0.000619
5.376490 29.562250 0.000558
5.691840 29.562250 0.000292
6.007189 29.562250 0.000196
6.322540 29.562250 0.000206
6.637889 29.562250 0.000346
6.953240 29.562250 0.000011
7.268589 29.562250 0.000186
7.583940 29.562250 0.000554
7.899290 29.562250 -0.000085
8.214640 29.562250 0.000316
8.529989 29.562250 0.001728
8.845339 29.562250 0.001295
9.160688 29.562250 0.006429
9.476040 29.562250 0.007908
9.791389 29.562250 0.011693
10.106739 29.562250 0.011905
10.422089 29.562250 0.021764
10.737438 29.562250 0.026933
11.052790 29.562250 0.049522
11.368139 29.562250 0.046833
11.683489 29.562250 0.046095
11.998838 29.562250 0.012931
12.314190 29.562250 0.022226
12.629539 29.562250 0.025614
12.944889 29.562250 0.036347
13.260239 29.562250 -0.026896
13.575588 29.562250 0.038471
13.890940 29.562250 0.068968
14.206289 29.562250 0.050309
14.521639 29.562250 0.042449
14.836988 29.562250 0.053957
15.152340 29.562250 0.019648
15.467690 29.562250 -0.010207
15.783039 29.562250 0.000000
16.098389 29.562250 0.000000
16.413738 29.562250 0.000000
16.729090 29.562250 0.000000
17.044439 29.562250 0.000000
17.359789 29.562250 0.000000
17.675138 29.562250 0.000000
17.990490 29.562250 0.000000
18.305840 29.562250 -11.224600
18.621189 29.562250 -12.930076
18.936539 29.562250 -11.692654
19.251888 29.562250 0.000000
-7.237510 29.246901 0.000000
-6.922160 29.246901 0.003326
-6.606810 29.246901 0.002348
-6.291460 29.246901 0.001938
-5.976110 29.246901 0.001812
-5.660760 29.246901 0.001673
-5.345410 29.246901 0.001734
-5.030060 29.246901 0.001846
-4.714710 29.246901 0.001746
-4.399360 29.246901 0.001296
-4.084010 29.246901 0.001254
-3.768660 29.246901 0.001480
-3.453310 29.246901 0.001515
-3.137960 29.246901 0.001547
-2.822610 29.246901 0.001724
-2.507260 29.246901 0.001727
-2.191910 29.246901 0.001541
-1.876560 29.246901 0.001391
-1.561210 29.246901 0.001673
-1.245860 29.246901 0.001893
-0.930510 29.246901 0.001729
-0.615160 29.246901 0.001455
-0.299810 29.246901 0.001533
0.015540 29.246901 0.001268
0.330890 29.246901 0.001062
0.646240 29.246901 0.001303
0.961589 29.246901 0.001402
1.276940 29.246901 0.001179
1.592289 29.246901 0.001023
1.907640 29.246901 0.000861
2.222990 29.246901 0.001023
2.538340 29.246901 0.001072
2.853690 29.246901 0.000927
3.169039 29.246901 0.000859
3.484390 29.246901 0.000738
3.799739 29.246901 0.000645
4.115090 29.246901 0.000414
4.430439 29.246901 0.000198
4.745790 29.246901 0.000380
5.061140 29.246901 0.000516
5.376490 29.246901 0.000352
5.691840 29.246901 0.000263
6.007189 29.246901 0.000409
6.322540 29.246901 0.000485
6.637889 29.246901 0.000613
6.953240 29.246901 0.000625
7.268589 29.246901 0.000367
7.583940 29.246901 0.001056
7.899290 29.246901 0.000716
8.214640 29.246901 -0.001072
8.529989 29.246901 0.001277
8.845339 29.246901 0.003301
9.160688 29.246901 0.003950
9.476040 29.246901 0.009522
9.791389 29.246901 0.011933
10.106739 29.246901 0.004843
10.422089 29.246901 0.023539
10.737438 29.246901 0.027027
11.052790 29.246901 0.038321
11.368139 29.246901 0.045779
11.683489 29.246901 0.039115
11.998838 29.246901 0.022571
12.314190 29.246901 0.039674
12.629539 29.246901 0.060170
12.944889 29.246901 0.014168
13.260239 29.246901 0.030412
13.575588 29.246901 0.011055
13.890940 29.246901 0.015855
14.206289 29.246901 0.031893
14.521639 29.246901 0.029672
14.836988 29.246901 0.043519
15.152340 29.246901 0.022469
15.467690 29.246901 0.016394
15.783039 29.246901 0.000000
16.098389 29.246901 0.000000
16.413738 29.246901 0.000000
16.729090 29.246901 0.000000
17.044439 29.246901 0.000000
17.359789 29.246901 0.000000
17.675138 29.246901 0.000000
17.990490 29.246901 0.000000
18.305840 29.246901 -2.458273
18.621189 29.246901 -3.198858
18.936539 29.246901 -2.109036
19.251888 29.246901 0.000000
-7.237510 28.931551 0.000000
-6.922160 28.931551 0.003599
-6.606810 28.931551 0.002405
-6.291460 28.931551 0.001978
-5.976110 28.931551 0.001753
-5.660760 28.931551 0.001671
-5.345410 28.931551 0.001825
-5.030060 28.931551 0.001913
-4.714710 28.931551 0.001757
-4.399360 28.931551 0.001237
-4.084010 28.931551 0.001298
-3.768660 28.931551 0.001531
-3.453310 28.931551 0.001517
-3.137960 28.931551 0.001514
-2.822610 28.931551 0.001767
-2.507260 28.931551 0.001805
-2.191910 28.931551 0.001724
-1.876560 28.931551 0.001542
-1.561210 28.931551 0.001861
-1.245860 28.931551 0.002024
-0.930510 28.931551 0.001807
-0.615160 28.931551 0.001511
-0.299810 28.931551 0.001442
0.015540 28.931551 0.001175
0.330890 28.931551 0.001069
0.646240 28.931551 0.001270
0.961589 28.931551 0.001322
1.276940 28.931551 0.001108
1.592289 28.931551 0.001104
1.907640 28.931551 0.001056
2.222990 28.931551 0.001107
2.538340 28.931551 0.001117
2.853690 28.931551 0.000938
3.169039 28.931551 0.000833
3.484390 28.931551 0.000737
3.799739 28.931551 0.000796
4.115090 28.931551 0.000473
4.430439 28.931551 0.000346
4.745790 28.931551 0.000394
5.061140 28.931551 0.000357
5.376490 28.931551 0.000218
5.691840 28.931551 0.000344
6.007189 28.931551 0.000717
6.322540 28.931551 0.000860
6.637889 28.931551 0.000782
6.953240 28.931551 0.001004
7.268589 28.931551 0.001094
7.583940 28.931551 0.001455
7.899290 28.931551 0.002071
8.214640 28.931551 0.001825
8.529989 28.931551 0.002489
8.845339 28.931551 0.003630
9.160688 28.931551 0.006122
9.476040 28.931551 0.009898
9.791389 28.931551 0.009984
10.106739 28.931551 0.011315
10.422089 28.931551 0.016749
10.737438 28.931551 0.027365
11.052790 28.931551 0.026458
11.368139 28.931551 0.049835
11.683489 28.931551 0.036535
11.998838 28.931551 0.037052
12.314190 28.931551 0.043890
12.629539 28.931551 0.053193
12.944889 28.931551 0.039055
13.260239 28.931551 0.021248
13.575588 28.931551 0.010390
13.890940 28.931551 0.013426
14.206289 28.931551 0.031276
14.521639 28.931551 0.035118
14.836988 28.931551 0.065859
15.152340 28.931551 0.066109
15.467690 28.931551 0.055150
15.783039 28.931551 0.000000
16.098389 28.931551 0.000000
16.413738 28.931551 0.000000
16.729090 28.931551 0.000000
17.044439 28.931551 0.000000
17.359789 28.931551 0.000000
17.675138 28.931551 0.000000
17.990490 28.931551 0.000000
18.305840 28.931551 0.028814
18.621189 28.931551 -0.735235
18.936539 28.931551 -4.545378
19.251888 28.931551 0.000000
-7.237510 28.616201 0.000000
-6.922160 28.616201 0.003700
-6.606810 28.616201 0.002477
-6.291460 28.616201 0.001976
-5.976110 28.616201 0.001785
-5.660760 28.616201 0.001807
-5.345410 28.616201 0.001950
-5.030060 28.616201 0.001974
-4.714710 28.616201 0.001817
-4.399360 28.616201 0.001359
-4.084010 28.616201 0.001364
-3.768660 28.616201 0.001599
-3.453310 28.616201 0.001558
-3.137960 28.616201 0.001592
-2.822610 28.616201 0.001791
-2.507260 28.616201 0.001842
-2.191910 28.616201 0.001762
-1.876560 28.616201 0.001611
-1.561210 28.616201 0.001831
-1.245860 28.616201 0.002125
-0.930510 28.616201 0.001750
-0.615160 28.616201 0.001576
-0.299810 28.616201 0.001481
0.015540 28.616201 0.001173
0.330890 28.616201 0.001142
0.646240 28.616201 0.001372
0.961589 28.616201 0.001291
1.276940 28.616201 0.001139
1.592289 28.616201 0.001222
1.907640 28.616201 0.001254
2.222990 28.616201 0.001103
2.538340 28.616201 0.001002
2.853690 28.616201 0.000980
3.169039 28.616201 0.000841
3.484390 28.616201 0.000822
3.799739 28.616201 0.000869
4.115090 28.616201 0.000681
4.430439 28.616201 0.000628
4.745790 28.616201 0.000553
5.061140 28.616201 0.000397
5.376490 28.616201 0.000235
5.691840 28.616201 0.000418
6.007189 28.616201 0.000799
6.322540 28.616201 0.001042
6.637889 28.616201 0.001156
6.953240 28.616201 0.000829
7.268589 28.616201 0.000509
7.583940 28.616201 0.001271
7.899290 28.616201 0.001995
8.214640 28.616201 0.004037
8.529989 28.616201 0.002367
8.845339 28.616201 0.005820
9.160688 28.616201 0.007026
9.476040 28.616201 0.010347
9.791389 28.616201 0.006916
10.106739 28.616201 0.021991
10.422089 28.616201 0.016221
10.737438 28.616201 0.031498
11.052790 28.616201 0.045816
11.368139 28.616201 0.025910
11.683489 28.616201 0.041767
11.998838 28.616201 0.024880
12.314190 28.616201 0.014553
12.629539 28.616201 0.066797
12.944889 28.616201 0.016687
13.260239 28.616201 0.017526
13.575588 28.616201 0.003536
13.890940 28.616201 0.014078
14.206289 28.616201 0.000884
14.521639 28.616201 0.047290
14.836988 28.616201 0.014856
15.152340 28.616201 0.065961
15.467690 28.616201 0.030645
15.783039 28.616201 0.000000
16.098389 28.616201 0.000000
16.413738 28.616201 0.000000
16.729090 28.616201 0.000000
17.044439 28.616201 0.000000
17.359789 28.616201 0.000000
17.675138 28.616201 0.000000
17.990490 28.616201 0.000000
18.305840 28.616201 -0.551795
18.621189 28.616201 -0.128037
18.936539 28.616201 -4.668818
19.251888 28.616201 0.000000
-7.237510 28.300850 0.000000
-6.922160 28.300850 0.003907
-6.606810 28.300850 0.002541
-6.291460 28.300850 0.002086
-5.976110 28.300850 0.002041
-5.660760 28.300850 0.001965
-5.345410 28.300850 0.001983
-5.030060 28.300850 0.001931
-4.714710 28.300850 0.001946
-4.399360 28.300850 0.001595
-4.084010 28.300850 0.001513
-3.768660 28.300850 0.001637
-3.453310 28.300850 0.001555
-3.137960 28.300850 0.001673
-2.822610 28.300850 0.001829
-2.507260 28.300850 0.001873
-2.191910 28.300850 0.001720
-1.876560 28.300850 0.001488
-1.561210 28.300850 0.001648
-1.245860 28.300850 0.001940
-0.930510 28.300850 0.001627
-0.615160 28.300850 0.001584
-0.299810 28.300850 0.001623
0.015540 28.300850 0.001364
0.330890 28.300850 0.001435
0.646240 28.300850 0.001542
0.961589 28.300850 0.001367
1.276940 28.300850 0.001194
1.592289 28.300850 0.001330
1.907640 28.300850 0.001254
2.222990 28.300850 0.001066
2.538340 28.300850 0.001048
2.853690 28.300850 0.001084
3.169039 28.300850 0.001055
3.484390 28.300850 0.001027
3.799739 28.300850 0.001074
4.115090 28.300850 0.000951
4.430439 28.300850 0.000903
4.745790 28.300850 0.000850
5.061140 28.300850 0.000663
5.376490 28.300850 0.000540
5.691840 28.300850 0.000715
6.007189 28.300850 0.000964
6.322540 28.300850 0.001132
6.637889 28.300850 0.001158
6.953240 28.300850 0.000656
7.268589 28.300850 0.000380
7.583940 28.300850 0.001291
7.899290 28.300850 0.002530
8.214640 28.300850 0.003631
8.529989 28.300850 0.005364
8.845339 28.300850 0.008497
9.160688 28.300850 0.008575
9.476040 28.300850 0.004648
9.791389 28.300850 0.005772
10.106739 28.300850 0.012999
10.422089 28.300850 0.016684
10.737438 28.300850 0.033134
11.052790 28.300850 0.051422
11.368139 28.300850 0.022129
11.683489 28.300850 0.044767
11.998838 28.300850 0.024448
12.314190 28.300850 0.031510
12.629539 28.300850 0.028079
12.944889 28.300850 0.034002
13.260239 28.300850 0.039292
13.575588 28.300850 0.000831
13.890940 28.300850 0.019437
14.206289 28.300850 0.020306
14.521639 28.300850 0.060988
14.836988 28.300850 0.030264
15.152340 28.300850 0.028707
15.467690 28.300850 -0.015017
15.783039 28.300850 0.000000
16.098389 28.300850 0.000000
16.413738 28.300850 0.000000
16.729090 28.300850 0.000000
17.044439 28.300850 0.000000
17.359789 28.300850 0.000000
17.675138 28.300850 0.000000
17.990490 28.300850 0.000000
18.305840 28.300850 -0.930733
18.621189 28.300850 0.134621
18.936539 28.300850 -1.995251
19.251888 28.300850 0.000000
-7.237510 27.985500 0.000000
-6.922160 27.985500 0.004429
-6.606810 27.985500 0.002912
-6.291460 27.985500 0.002209
-5.976110 27.985500 0.002106
-5.660760 27.985500 0.002026
-5.345410 27.985500 0.001951
-5.030060 27.985500 0.001976
-4.714710 27.985500 0.002032
-4.399360 27.985500 0.001849
-4.084010 27.985500 0.001691
-3.768660 27.985500 0.001766
-3.453310 27.985500 0.001648
-3.137960 27.985500 0.001722
-2.822610 27.985500 0.001893
-2.507260 27.985500 0.001796
-2.191910 27.985500 0.001664
-1.876560 27.985500 0.001498
-1.561210 27.985500 0.001557
-1.245860 27.985500 0.001698
-0.930510 27.985500 0.001462
-0.615160 27.985500 0.001549
-0.299810 27.985500 0.001762
0.015540 27.985500 0.001627
0.330890 27.985500 0.001710
0.646240 27.985500 0.001719
0.961589 27.985500 0.001489
1.276940 27.985500 0.001396
1.592289 27.985500 0.001314
1.907640 27.985500 0.001147
2.222990 27.985500 0.001101
2.538340 27.985500 0.001203
2.853690 27.985500 0.001314
3.169039 27.985500 0.001323
3.484390 27.985500 0.001272
3.799739 27.985500 0.001172
4.115090 27.985500 0.001148
4.430439 27.985500 0.001201
4.745790 27.985500 0.001143
5.061140 27.985500 0.000980
5.376490 27.985500 0.000813
5.691840 27.985500 0.000934
6.007189 27.985500 0.001111
6.322540 27.985500 0.001112
6.637889 27.985500 0.001194
6.953240 27.985500 0.000217
7.268589 27.985500 -0.000249
7.583940 27.985500 0.000030
7.899290 27.985500 0.001319
8.214640 27.985500 0.003141
8.529989 27.985500 0.006763
8.845339 27.985500 0.007395
9.160688 27.985500 0.008568
9.476040 27.985500 0.005635
9.791389 27.985500 0.006825
10.106739 27.985500 0.016466
10.422089 27.985500 0.026896
10.737438 27.985500 0.033965
11.052790 27.985500 0.057944
11.368139 27.985500 0.027138
11.683489 27.985500 0.022751
11.998838 27.985500 0.038391
12.314190 27.985500 0.027826
12.629539 27.985500 0.036589
12.944889 27.985500 0.043589
13.260239 27.985500 0.038677
13.575588 27.985500 0.043081
13.890940 27.985500 0.046315
14.206289 27.985500 0.019934
14.521639 27.985500 -0.000115
14.836988 27.985500 0.017017
15.152340 27.985500 0.018466
15.467690 27.985500 -0.020402
15.783039 27.985500 0.000000
16.098389 27.985500 0.000000
16.413738 27.985500 0.000000
16.729090 27.985500 0.000000
17.044439 27.985500 0.000000
17.359789 27.985500 0.000000
17.675138 27.985500 0.000000
17.990490 27.985500 0.000000
18.305840 27.985500 -1.482623
18.621189 27.985500 -1.745145
18.936539 27.985500 -2.003480
19.251888 27.985500 0.000000
-7.237510 27.670151 0.000000
-6.922160 27.670151 0.004757
-6.606810 27.670151 0.003202
-6.291460 27.670151 0.002241
-5.976110 27.670151 0.002139
-5.660760 27.670151 0.001999
-5.345410 27.670151 0.002043
-5.030060 27.670151 0.002176
-4.714710 27.670151 0.002274
-4.399360 27.670151 0.001973
-4.084010 27.670151 0.001934
-3.768660 27.670151 0.001841
-3.453310 27.670151 0.001576
-3.137960 27.670151 0.001665
-2.822610 27.670151 0.001872
-2.507260 27.670151 0.001777
-2.191910 27.670151 0.001670
-1.876560 27.670151 0.001632
-1.561210 27.670151 0.001708
-1.245860 27.670151 0.001627
-0.930510 27.670151 0.001429
-0.615160 27.670151 0.001524
-0.299810 27.670151 0.001747
0.015540 27.670151 0.001696
0.330890 27.670151 0.001781
0.646240 27.670151 0.001750
0.961589 27.670151 0.001620
1.276940 27.670151 0.001622
1.592289 27.670151 0.001434
1.907640 27.670151 0.001127
2.222990 27.670151 0.001130
2.538340 27.670151 0.001413
2.853690 27.670151 0.001498
3.169039 27.670151 0.001472
3.484390 27.670151 0.001343
3.799739 27.670151 0.001136
4.115090 27.670151 0.001254
4.430439 27.670151 0.001409
4.745790 27.670151 0.001349
5.061140 27.670151 0.001212
5.376490 27.670151 0.000990
5.691840 27.670151 0.001054
6.007189 27.670151 0.001163
6.322540 27.670151 0.001155
6.637889 27.670151 0.000860
6.953240 27.670151 0.000069
7.268589 27.670151 -0.000461
7.583940 27.670151 0.000127
7.899290 27.670151 0.001716
8.214640 27.670151 0.002876
8.529989 27.670151 0.006921
8.845339 27.670151 0.007186
9.160688 27.670151 0.008414
9.476040 27.670151 0.006155
9.791389 27.670151 0.008751
10.106739 27.670151 0.014496
10.422089 27.670151 0.026564
10.737438 27.670151 0.025792
11.052790 27.670151 0.054592
11.368139 27.670151 0.040746
11.683489 27.670151 0.006400
11.998838 27.670151 0.013005
12.314190 27.670151 0.005494
12.629539 27.670151 0.000039
12.944889 27.670151 0.015274
13.260239 27.670151 0.023535
13.575588 27.670151 0.021967
13.890940 27.670151 0.078626
14.206289 27.670151 0.045002
14.521639 27.670151 0.026815
14.836988 27.670151 0.022169
15.152340 27.670151 0.025116
15.467690 27.670151 -0.008173
15.783039 27.670151 0.000000
16.098389 27.670151 0.000000
16.413738 27.670151 0.000000
16.729090 27.670151 0.000000
17.044439 27.670151 0.000000
17.359789 27.670151 0.000000
17.675138 27.670151 0.000000
17.990490 27.670151 0.000000
18.305840 27.670151 -2.270898
18.621189 27.670151 -1.548491
18.936539 27.670151 -2.306296
19.251888 27.670151 0.000000
-7.237510 27.354801 0.000000
-6.922160 27.354801 0.004708
-6.606810 27.354801 0.003123
-6.291460 27.354801 0.002382
-5.976110 27.354801 0.002083
-5.660760 27.354801 0.001946
-5.345410 27.354801 0.002131
-5.030060 27.354801 0.002328
-4.714710 27.354801 0.002355
-4.399360 27.354801 0.001964
-4.084010 27.354801 0.002049
-3.768660 27.354801 0.001972
-3.453310 27.354801 0.001504
-3.137960 27.354801 0.001581
-2.822610 27.354801 0.001834
-2.507260 27.354801 0.001743
-2.191910 27.354801 0.001699
-1.876560 27.354801 0.001811
-1.561210 27.354801 0.001880
-1.245860 27.354801 0.001669
-0.930510 27.354801 0.001590
-0.615160 27.354801 0.001642
-0.299810 27.354801 0.001756
0.015540 27.354801 0.001675
0.330890 27.354801 0.001686
0.646240 27.354801 0.001760
0.961589 27.354801 0.001729
1.276940 27.354801 0.001725
1.592289 27.354801 0.001562
1.907640 27.354801 0.001321
2.222990 27.354801 0.001230
2.538340 27.354801 0.001505
2.853690 27.354801 0.001543
3.169039 27.354801 0.001426
3.484390 27.354801 0.001286
3.799739 27.354801 0.001113
4.115090 27.354801 0.001167
4.430439 27.354801 0.001412
4.745790 27.354801 0.001315
5.061140 27.354801 0.001265
5.376490 27.354801 0.001036
5.691840 27.354801 0.001058
6.007189 27.354801 0.001124
6.322540 27.354801 0.001123
6.637889 27.354801 0.000483
6.953240 27.354801 -0.000027
7.268589 27.354801 -0.000532
7.583940 27.354801 0.000329
7.899290 27.354801 0.001399
8.214640 27.354801 0.003561
8.529989 27.354801 0.004372
8.845339 27.354801 0.007892
9.160688 27.354801 0.008228
9.476040 27.354801 0.012896
9.791389 27.354801 0.013660
10.106739 27.354801 0.018998
10.422089 27.354801 0.038656
10.737438 27.354801 0.034423
11.052790 27.354801 0.023264
11.368139 27.354801 0.033048
11.683489 27.354801 -0.000615
11.998838 27.354801 0.026076
12.314190 27.354801 -0.001543
12.629539 27.354801 -0.004130
12.944889 27.354801 0.032008
13.260239 27.354801 0.026150
13.575588 27.354801 0.020789
13.890940 27.354801 0.043733
14.206289 27.354801 0.054943
14.521639 27.354801 0.014519
14.836988 27.354801 0.032062
15.152340 27.354801 0.025499
15.467690 27.354801 -0.009255
15.783039 27.354801 0.000000
16.098389 27.354801 0.000000
16.413738 27.354801 0.000000
16.729090 27.354801 0.000000
17.044439 27.354801 0.000000
17.359789 27.354801 0.000000
17.675138 27.354801 0.000000
17.990490 27.354801 0.000000
18.305840 27.354801 -1.799746
18.621189 27.354801 -1.827792
18.936539 27.354801 -1.396840
19.251888 27.354801 0.000000
-7.237510 27.039452 0.000000
-6.922160 27.039452 0.004361
-6.606810 27.039452 0.002990
-6.291460 27.039452 0.002343
-5.976110 27.039452 0.002052
-5.660760 27.039452 0.001951
-5.345410 27.039452 0.002110
-5.030060 27.039452 0.002345
-4.714710 27.039452 0.002354
-4.399360 27.039452 0.001998
-4.084010 27.039452 0.002024
-3.768660 27.039452 0.001967
-3.453310 27.039452 0.001562
-3.137960 27.039452 0.001655
-2.822610 27.039452 0.001917
-2.507260 27.039452 0.001762
-2.191910 27.039452 0.001722
-1.876560 27.039452 0.001811
-1.561210 27.039452 0.002022
-1.245860 27.039452 0.001892
-0.930510 27.039452 0.001853
-0.615160 27.039452 0.001791
-0.299810 27.039452 0.001731
0.015540 27.039452 0.001646
0.330890 27.039452 0.001579
0.646240 27.039452 0.001797
0.961589 27.039452 0.001730
1.276940 27.039452 0.001689
1.592289 27.039452 0.001707
1.907640 27.039452 0.001549
2.222990 27.039452 0.001401
2.538340 27.039452 0.001552
2.853690 27.039452 0.001540
3.169039 27.039452 0.001279
3.484390 27.039452 0.001111
3.799739 27.039452 0.001024
4.115090 27.039452 0.001012
4.430439 27.039452 0.001221
4.745790 27.039452 0.001188
5.061140 27.039452 0.001203
5.376490 27.039452 0.001089
5.691840 27.039452 0.001051
6.007189 27.039452 0.000955
6.322540 27.039452 0.000618
6.637889 27.039452 0.000338
6.953240 27.039452 -0.000030
7.268589 27.039452 0.000046
7.583940 27.039452 0.000500
7.899290 27.039452 0.000538
8.214640 27.039452 0.003445
8.529989 27.039452 0.002745
8.845339 27.039452 0.007053
9.160688 27.039452 0.007744
9.476040 27.039452 0.008026
9.791389 27.039452 0.016441
10.106739 27.039452 0.022165
10.422089 27.039452 0.034936
10.737438 27.039452 0.033198
11.052790 27.039452 0.032584
11.368139 27.039452 0.019382
11.683489 27.039452 0.012258
11.998838 27.039452 0.000266
12.314190 27.039452 0.005433
12.629539 27.039452 -0.010969
12.944889 27.039452 0.008229
13.260239 27.039452 0.008586
13.575588 27.039452 0.005326
13.890940 27.039452 0.013046
14.206289 27.039452 0.027651
14.521639 27.039452 0.026456
14.836988 27.039452 0.015467
15.152340 27.039452 0.033737
15.467690 27.039452 0.037171
15.783039 27.039452 0.000000
16.098389 27.039452 0.000000
16.413738 27.039452 0.000000
16.729090 27.039452 0.000000
17.044439 27.039452 0.000000
17.359789 27.039452 0.000000
17.675138 27.039452 0.000000
17.990490 27.039452 0.000000
18.305840 27.039452 -1.904246
18.621189 27.039452 -2.146056
18.936539 27.039452 -1.990086
19.251888 27.039452 0.000000
-7.237510 26.724100 0.000000
-6.922160 26.724100 0.004295
-6.606810 26.724100 0.002729
-6.291460 26.724100 0.002306
-5.976110 26.724100 0.002080
-5.660760 26.724100 0.002069
-5.345410 26.724100 0.002150
-5.030060 26.724100 0.002238
-4.714710 26.724100 0.002190
-4.399360 26.724100 0.001955
-4.084010 26.724100 0.002008
-3.768660 26.724100 0.001928
-3.453310 26.724100 0.001653
-3.137960 26.724100 0.001888
-2.822610 26.724100 0.001976
-2.507260 26.724100 0.001813
-2.191910 26.724100 0.001759
-1.876560 26.724100 0.001700
-1.561210 26.724100 0.001998
-1.245860 26.724100 0.002108
-0.930510 26.724100 0.002112
-0.615160 26.724100 0.002016
-0.299810 26.724100 0.001721
0.015540 26.724100 0.001580
0.330890 26.724100 0.001706
0.646240 26.724100 0.001952
0.961589 26.724100 0.001815
1.276940 26.724100 0.001718
1.592289 26.724100 0.001810
1.907640 26.724100 0.001747
2.222990 26.724100 0.001535
2.538340 26.724100 0.001568
2.853690 26.724100 0.001503
3.169039 26.724100 0.001119
3.484390 26.724100 0.000888
3.799739 26.724100 0.001052
4.115090 26.724100 0.001038
4.430439 26.724100 0.001246
4.745790 26.724100 0.001192
5.061140 26.724100 0.001248
5.376490 26.724100 0.001124
5.691840 26.724100 0.001103
6.007189 26.724100 0.000777
6.322540 26.724100 0.000213
6.637889 26.724100 0.000180
6.953240 26.724100 -0.000153
7.268589 26.724100 0.000051
7.583940 26.724100 0.000715
7.899290 26.724100 0.001489
8.214640 26.724100 0.003676
8.529989 26.724100 0.005586
8.845339 26.724100 0.005247
9.160688 26.724100 0.008837
9.476040 26.724100 0.014236
9.791389 26.724100 0.016161
10.106739 26.724100 0.037220
10.422089 26.724100 0.039773
10.737438 26.724100 0.033063
11.052790 26.724100 0.025963
11.368139 26.724100 0.006450
11.683489 26.724100 -0.013033
11.998838 26.724100 0.007372
12.314190 26.724100 0.007101
12.629539 26.724100 0.024715
12.944889 26.724100 -0.031336
13.260239 26.724100 0.010054
13.575588 26.724100 -0.010556
13.890940 26.724100 -0.000782
14.206289 26.724100 0.046721
14.521639 26.724100 0.049305
14.836988 26.724100 0.040748
15.152340 26.724100 0.075642
15.467690 26.724100 0.015822
15.783039 26.724100 0.000000
16.098389 26.724100 0.000000
16.413738 26.724100 0.000000
16.729090 26.724100 0.000000
17.044439 26.724100 0.000000
17.359789 26.724100 0.000000
17.675138 26.724100 0.000000
17.990490 26.724100 0.000000
18.305840 26.724100 -1.295066
18.621189 26.724100 -1.677959
18.936539 26.724100 -2.900233
19.251888 26.724100 0.000000
-7.237510 26.408751 0.000000
-6.922160 26.408751 0.004250
-6.606810 26.408751 0.002549
-6.291460 26.408751 0.002190
-5.976110 26.408751 0.002087
-5.660760 26.408751 0.002149
-5.345410 26.408751 0.002159
-5.030060 26.408751 0.002156
-4.714710 26.408751 0.002124
-4.399360 26.408751 0.001951
-4.084010 26.408751 0.001905
-3.768660 26.408751 0.001935
-3.453310 26.408751 0.001833
-3.137960 26.408751 0.002015
-2.822610 26.408751 0.002085
-2.507260 26.408751 0.001999
-2.191910 26.408751 0.001873
-1.876560 26.408751 0.001613
-1.561210 26.408751 0.001915
-1.245860 26.408751 0.002223
-0.930510 26.408751 0.002157
-0.615160 26.408751 0.002030
-0.299810 26.408751 0.001707
0.015540 26.408751 0.001568
0.330890 26.408751 0.001845
0.646240 26.408751 0.002017
0.961589 26.408751 0.001864
1.276940 26.408751 0.001870
1.592289 26.408751 0.001910
1.907640 26.408751 0.001838
2.222990 26.408751 0.001542
2.538340 26.408751 0.001539
2.853690 26.408751 0.001441
3.169039 26.408751 0.001047
3.484390 26.408751 0.000813
3.799739 26.408751 0.001134
4.115090 26.408751 0.001273
4.430439 26.408751 0.001340
4.745790 26.408751 0.001323
5.061140 26.408751 0.001291
5.376490 26.408751 0.001082
5.691840 26.408751 0.001024
6.007189 26.408751 0.000510
6.322540 26.408751 -0.000263
6.637889 26.408751 -0.000033
6.953240 26.408751 0.000064
7.268589 26.408751 -0.000061
7.583940 26.408751 0.001042
7.899290 26.408751 0.002119
8.214640 26.408751 0.004658
8.529989 26.408751 0.009038
8.845339 26.408751 0.007623
9.160688 26.408751 0.012526
9.476040 26.408751 0.017298
9.791389 26.408751 0.027253
10.106739 26.408751 0.039136
10.422089 26.408751 0.032885
10.737438 26.408751 0.033893
11.052790 26.408751 0.010327
11.368139 26.408751 -0.011281
11.683489 26.408751 -0.023746
11.998838 26.408751 -0.004753
12.314190 26.408751 0.007662
12.629539 26.408751 0.017285
12.944889 26.408751 0.025079
13.260239 26.408751 -0.000023
13.575588 26.408751 0.014243
13.890940 26.408751 0.035034
14.206289 26.408751 0.032752
14.521639 26.408751 0.036799
14.836988 26.408751 0.060696
15.152340 26.408751 0.086894
15.467690 26.408751 0.040690
15.783039 26.408751 0.000000
16.098389 26.408751 0.000000
16.413738 26.408751 0.000000
16.729090 26.408751 0.000000
17.044439 26.408751 0.000000
17.359789 26.408751 0.000000
17.675138 26.408751 0.000000
17.990490 26.408751 0.000000
18.305840 26.408751 -1.530857
18.621189 26.408751 -1.166570
18.936539 26.408751 -1.953331
19.251888 26.408751 0.000000
-7.237510 26.093401 0.000000
-6.922160 26.093401 0.004022
-6.606810 26.093401 0.002481
-6.291460 26.093401 0.002067
-5.976110 26.093401 0.002121
-5.660760 26.093401 0.002161
-5.345410 26.093401 0.002222
-5.030060 26.093401 0.002293
-4.714710 26.093401 0.002102
-4.399360 26.093401 0.001876
-4.084010 26.093401 0.001809
-3.768660 26.093401 0.001937
-3.453310 26.093401 0.002046
-3.137960 26.093401 0.002145
-2.822610 26.093401 0.002176
-2.507260 26.093401 0.002092
-2.191910 26.093401 0.001964
-1.876560 26.093401 0.001679
-1.561210 26.093401 0.001767
-1.245860 26.093401 0.002125
-0.930510 26.093401 0.002008
-0.615160 26.093401 0.001915
-0.299810 26.093401 0.001685
0.015540 26.093401 0.001584
0.330890 26.093401 0.001874
0.646240 26.093401 0.001948
0.961589 26.093401 0.001887
1.276940 26.093401 0.001950
1.592289 26.093401 0.001898
1.907640 26.093401 0.001775
2.222990 26.093401 0.001589
2.538340 26.093401 0.001579
2.853690 26.093401 0.001409
3.169039 26.093401 0.001127
3.484390 26.093401 0.000973
3.799739 26.093401 0.001317
4.115090 26.093401 0.001577
4.430439 26.093401 0.001558
4.745790 26.093401 0.001438
5.061140 26.093401 0.001260
5.376490 26.093401 0.001048
5.691840 26.093401 0.000845
6.007189 26.093401 0.000311
6.322540 26.093401 -0.000184
6.637889 26.093401 -0.000029
6.953240 26.093401 0.000425
7.268589 26.093401 0.000976
7.583940 26.093401 0.001373
7.899290 26.093401 0.002924
8.214640 26.093401 0.005429
8.529989 26.093401 0.007605
8.845339 26.093401 0.012078
9.160688 26.093401 0.018328
9.476040 26.093401 0.023989
9.791389 26.093401 0.028671
10.106739 26.093401 0.034390
10.422089 26.093401 0.023792
10.737438 26.093401 0.021794
11.052790 26.093401 0.021862
11.368139 26.093401 0.010995
11.683489 26.093401 0.010330
11.998838 26.093401 -0.007019
12.314190 26.093401 0.001142
12.629539 26.093401 0.028911
12.944889 26.093401 0.059143
13.260239 26.093401 0.000791
13.575588 26.093401 0.022269
13.890940 26.093401 0.028929
14.206289 26.093401 0.017058
14.521639 26.093401 0.072224
14.836988 26.093401 0.085943
15.152340 26.093401 0.107248
15.467690 26.093401 0.028289
15.783039 26.093401 0.000000
16.098389 26.093401 0.000000
16.413738 26.093401 0.000000
16.729090 26.093401 0.000000
17.044439 26.093401 0.000000
17.359789 26.093401 0.000000
17.675138 26.093401 0.000000
17.990490 26.093401 0.000000
18.305840 26.093401 -1.522271
18.621189 26.093401 -1.866288
18.936539 26.093401 -1.469175
19.251888 26.093401 0.000000
-7.237510 25.778051 0.000000
-6.922160 25.778051 0.003622
-6.606810 25.778051 0.002446
-6.291460 25.778051 0.001984
-5.976110 25.778051 0.002009
-5.660760 25.778051 0.002113
-5.345410 25.778051 0.002294
-5.030060 25.778051 0.002431
-4.714710 25.778051 0.002087
-4.399360 25.778051 0.001789
-4.084010 25.778051 0.001752
-3.768660 25.778051 0.001952
-3.453310 25.778051 0.002210
-3.137960 25.778051 0.002237
-2.822610 25.778051 0.002260
-2.507260 25.778051 0.002125
-2.191910 25.778051 0.001997
-1.876560 25.778051 0.001836
-1.561210 25.778051 0.001755
-1.245860 25.778051 0.001923
-0.930510 25.778051 0.001849
-0.615160 25.778051 0.001803
-0.299810 25.778051 0.001689
0.015540 25.778051 0.001564
0.330890 25.778051 0.001792
0.646240 25.778051 0.001829
0.961589 25.778051 0.001899
1.276940 25.778051 0.001870
1.592289 25.778051 0.001758
1.907640 25.778051 0.001708
2.222990 25.778051 0.001653
2.538340 25.778051 0.001743
2.853690 25.778051 0.001492
3.169039 25.778051 0.001389
3.484390 25.778051 0.001272
3.799739 25.778051 0.001553
4.115090 25.778051 0.001796
4.430439 25.778051 0.001714
4.745790 25.778051 0.001549
5.061140 25.778051 0.001240
5.376490 25.778051 0.000940
5.691840 25.778051 0.000733
6.007189 25.778051 0.000265
6.322540 25.778051 0.000073
6.637889 25.778051 0.000353
6.953240 25.778051 0.000801
7.268589 25.778051 0.001400
7.583940 25.778051 0.002105
7.899290 25.778051 0.002732
8.214640 25.778051 0.005933
8.529989 25.778051 0.009926
8.845339 25.778051 0.014721
9.160688 25.778051 0.020445
9.476040 25.778051 0.026476
9.791389 25.778051 0.030349
10.106739 25.778051 0.035626
10.422089 25.778051 0.030399
10.737438 25.778051 0.039207
11.052790 25.778051 0.022536
11.368139 25.778051 0.016695
11.683489 25.778051 0.020961
11.998838 25.778051 -0.000476
12.314190 25.778051 0.004770
12.629539 25.778051 0.056399
12.944889 25.778051 0.030875
13.260239 25.778051 0.051699
13.575588 25.778051 0.097928
13.890940 25.778051 0.064733
14.206289 25.778051 0.051131
14.521639 25.778051 0.054364
14.836988 25.778051 0.135897
15.152340 25.778051 0.081001
15.467690 25.778051 0.000454
15.783039 25.778051 0.000000
16.098389 25.778051 0.000000
16.413738 25.778051 0.000000
16.729090 25.778051 0.000000
17.044439 25.778051 0.000000
17.359789 25.778051 0.000000
17.675138 25.778051 0.000000
17.990490 25.778051 0.000000
18.305840 25.778051 -1.640281
18.621189 25.778051 -1.516577
18.936539 25.778051 -2.029460
19.251888 25.778051 0.000000
-7.237510 25.462700 0.000000
-6.922160 25.462700 0.003438
-6.606810 25.462700 0.002224
-6.291460 25.462700 0.001886
-5.976110 25.462700 0.001913
-5.660760 25.462700 0.002084
-5.345410 25.462700 0.002330
-5.030060 25.462700 0.002392
-4.714710 25.462700 0.002040
-4.399360 25.462700 0.001680
-4.084010 25.462700 0.001732
-3.768660 25.462700 0.001965
-3.453310 25.462700 0.002085
-3.137960 25.462700 0.002168
-2.822610 25.462700 0.002177
-2.507260 25.462700 0.002057
-2.191910 25.462700 0.002044
-1.876560 25.462700 0.002057
-1.561210 25.462700 0.001870
-1.245860 25.462700 0.001830
-0.930510 25.462700 0.001760
-0.615160 25.462700 0.001703
-0.299810 25.462700 0.001660
0.015540 25.462700 0.001543
0.330890 25.462700 0.001722
0.646240 25.462700 0.001874
0.961589 25.462700 0.001837
1.276940 25.462700 0.001681
1.592289 25.462700 0.001636
1.907640 25.462700 0.001679
2.222990 25.462700 0.001747
2.538340 25.462700 0.001786
2.853690 25.462700 0.001600
3.169039 25.462700 0.001529
3.484390 25.462700 0.001582
3.799739 25.462700 0.001648
4.115090 25.462700 0.001817
4.430439 25.462700 0.001765
4.745790 25.462700 0.001534
5.061140 25.462700 0.001169
5.376490 25.462700 0.000878
5.691840 25.462700 0.000691
6.007189 25.462700 0.000465
6.322540 25.462700 0.000515
6.637889 25.462700 0.000653
6.953240 25.462700 0.001037
7.268589 25.462700 0.001226
7.583940 25.462700 0.002298
7.899290 25.462700 0.002291
8.214640 25.462700 0.005583
8.529989 25.462700 0.006531
8.845339 25.462700 0.014421
9.160688 25.462700 0.021169
9.476040 25.462700 0.031816
9.791389 25.462700 0.034385
10.106739 25.462700 0.028222
10.422089 25.462700 0.028720
10.737438 25.462700 0.050574
11.052790 25.462700 0.038689
11.368139 25.462700 0.014468
11.683489 25.462700 0.028114
11.998838 25.462700 0.011999
12.314190 25.462700 0.014674
12.629539 25.462700 0.024317
12.944889 25.462700 0.028468
13.260239 25.462700 0.068913
13.575588 25.462700 0.056354
13.890940 25.462700 0.013133
14.206289 25.462700 0.028641
14.521639 25.462700 0.054688
14.836988 25.462700 0.090821
15.152340 25.462700 0.085141
15.467690 25.462700 0.021759
15.783039 25.462700 0.000000
16.098389 25.462700 0.000000
16.413738 25.462700 0.000000
16.729090 25.462700 0.000000
17.044439 25.462700 0.000000
17.359789 25.462700 0.000000
17.675138 25.462700 0.000000
17.990490 25.462700 0.000000
18.305840 25.462700 -1.380674
18.621189 25.462700 -1.435820
18.936539 25.462700 -2.307127
19.251888 25.462700 0.000000
-7.237510 25.147350 0.000000
-6.922160 25.147350 0.003076
-6.606810 25.147350 0.001991
-6.291460 25.147350 0.001671
-5.976110 25.147350 0.001805
-5.660760 25.147350 0.002076
-5.345410 25.147350 0.002227
-5.030060 25.147350 0.002201
-4.714710 25.147350 0.001958
-4.399360 25.147350 0.001701
-4.084010 25.147350 0.001667
-3.768660 25.147350 0.001818
-3.453310 25.147350 0.001893
-3.137960 25.147350 0.001969
-2.822610 25.147350 0.002058
-2.507260 25.147350 0.002015
-2.191910 25.147350 0.002067
-1.876560 25.147350 0.002038
-1.561210 25.147350 0.001900
-1.245860 25.147350 0.001883
-0.930510 25.147350 0.001737
-0.615160 25.147350 0.001651
-0.299810 25.147350 0.001646
0.015540 25.147350 0.001507
0.330890 25.147350 0.001692
0.646240 25.147350 0.001894
0.961589 25.147350 0.001725
1.276940 25.147350 0.001512
1.592289 25.147350 0.001697
1.907640 25.147350 0.001725
2.222990 25.147350 0.001686
2.538340 25.147350 0.001795
2.853690 25.147350 0.001702
3.169039 25.147350 0.001621
3.484390 25.147350 0.001635
3.799739 25.147350 0.001674
4.115090 25.147350 0.001725
4.430439 25.147350 0.001627
4.745790 25.147350 0.001320
5.061140 25.147350 0.000966
5.376490 25.147350 0.000809
5.691840 25.147350 0.000717
6.007189 25.147350 0.000776
6.322540 25.147350 0.000829
6.637889 25.147350 0.001021
6.953240 25.147350 0.000920
7.268589 25.147350 0.001729
7.583940 25.147350 0.002539
7.899290 25.147350 0.002819
8.214640 25.147350 0.004190
8.529989 25.147350 0.002957
8.845339 25.147350 0.008744
9.160688 25.147350 0.017614
9.476040 25.147350 0.027259
9.791389 25.147350 0.027543
10.106739 25.147350 0.023873
10.422089 25.147350 0.031810
10.737438 25.147350 0.033503
11.052790 25.147350 0.032904
11.368139 25.147350 0.012372
11.683489 25.147350 0.053827
11.998838 25.147350 0.044252
12.314190 25.147350 0.047614
12.629539 25.147350 0.011716
12.944889 25.147350 0.008800
13.260239 25.147350 0.045676
13.575588 25.147350 0.077201
13.890940 25.147350 0.035750
14.206289 25.147350 0.021406
14.521639 25.147350 0.065126
14.836988 25.147350 0.062576
15.152340 25.147350 0.098165
15.467690 25.147350 -0.034151
15.783039 25.147350 0.000000
16.098389 25.147350 0.000000
16.413738 25.147350 0.000000
16.729090 25.147350 0.000000
17.044439 25.147350 0.000000
17.359789 25.147350 0.000000
17.675138 25.147350 0.000000
17.990490 25.147350 0.000000
18.305840 25.147350 -1.109634
18.621189 25.147350 -1.089548
18.936539 25.147350 -1.908745
19.251888 25.147350 0.000000
-7.237510 24.832001 0.000000
-6.922160 24.832001 0.003238
-6.606810 24.832001 0.001882
-6.291460 24.832001 0.001633
-5.976110 24.832001 0.001637
-5.660760 24.832001 0.001957
-5.345410 24.832001 0.002116
-5.030060 24.832001 0.001921
-4.714710 24.832001 0.001779
-4.399360 24.832001 0.001679
-4.084010 24.832001 0.001656
-3.768660 24.832001 0.001651
-3.453310 24.832001 0.001738
-3.137960 24.832001 0.001939
-2.822610 24.832001 0.001986
-2.507260 24.832001 0.001993
-2.191910 24.832001 0.002019
-1.876560 24.832001 0.001914
-1.561210 24.832001 0.001886
-1.245860 24.832001 0.001937
-0.930510 24.832001 0.001853
-0.615160 24.832001 0.001711
-0.299810 24.832001 0.001748
0.015540 24.832001 0.001587
0.330890 24.832001 0.001678
0.646240 24.832001 0.001853
0.961589 24.832001 0.001514
1.276940 24.832001 0.001416
1.592289 24.832001 0.001773
1.907640 24.832001 0.001673
2.222990 24.832001 0.001530
2.538340 24.832001 0.001700
2.853690 24.832001 0.001770
3.169039 24.832001 0.001562
3.484390 24.832001 0.001618
3.799739 24.832001 0.001694
4.115090 24.832001 0.001695
4.430439 24.832001 0.001524
4.745790 24.832001 0.001152
5.061140 24.832001 0.000893
5.376490 24.832001 0.000805
5.691840 24.832001 0.000905
6.007189 24.832001 0.001045
6.322540 24.832001 0.001107
6.637889 24.832001 0.001027
6.953240 24.832001 0.000820
7.268589 24.832001 0.001305
7.583940 24.832001 0.002674
7.899290 24.832001 0.004261
8.214640 24.832001 0.005020
8.529989 24.832001 0.005011
8.845339 24.832001 0.007790
9.160688 24.832001 0.013753
9.476040 24.832001 0.026233
9.791389 24.832001 0.021220
10.106739 24.832001 0.019169
10.422089 24.832001 0.033788
10.737438 24.832001 0.039547
11.052790 24.832001 0.022476
11.368139 24.832001 0.020313
11.683489 24.832001 0.053574
11.998838 24.832001 0.033796
12.314190 24.832001 -0.005046
12.629539 24.832001 0.001577
12.944889 24.832001 -0.001559
13.260239 24.832001 0.067242
13.575588 24.832001 0.091595
13.890940 24.832001 0.066524
14.206289 24.832001 0.074588
14.521639 24.832001 0.092154
14.836988 24.832001 0.096740
15.152340 24.832001 0.052699
15.467690 24.832001 0.035968
15.783039 24.832001 0.000000
16.098389 24.832001 0.000000
16.413738 24.832001 0.000000
16.729090 24.832001 0.000000
17.044439 24.832001 0.000000
17.359789 24.832001 0.000000
17.675138 24.832001 0.000000
17.990490 24.832001 0.000000
18.305840 24.832001 -1.282806
18.621189 24.832001 -1.027669
18.936539 24.832001 0.000000
19.251888 24.832001 0.000000
-7.237510 24.516651 0.000000
-6.922160 24.516651 0.003167
-6.606810 24.516651 0.001954
-6.291460 24.516651 0.001474
-5.976110 24.516651 0.001501
-5.660760 24.516651 0.001831
-5.345410 24.516651 0.001858
-5.030060 24.516651 0.001642
-4.714710 24.516651 0.001633
-4.399360 24.516651 0.001717
-4.084010 24.516651 0.001718
-3.768660 24.516651 0.001667
-3.453310 24.516651 0.001818
-3.137960 24.516651 0.001984
-2.822610 24.516651 0.002038
-2.507260 24.516651 0.001965
-2.191910 24.516651 0.001901
-1.876560 24.516651 0.001653
-1.561210 24.516651 0.001749
-1.245860 24.516651 0.001830
-0.930510 24.516651 0.001835
-0.615160 24.516651 0.001744
-0.299810 24.516651 0.001815
0.015540 24.516651 0.001678
0.330890 24.516651 0.001694
0.646240 24.516651 0.001737
0.961589 24.516651 0.001472
1.276940 24.516651 0.001444
1.592289 24.516651 0.001834
1.907640 24.516651 0.001575
2.222990 24.516651 0.001401
2.538340 24.516651 0.001690
2.853690 24.516651 0.001893
3.169039 24.516651 0.001555
3.484390 24.516651 0.001526
3.799739 24.516651 0.001716
4.115090 24.516651 0.001650
4.430439 24.516651 0.001492
4.745790 24.516651 0.001162
5.061140 24.516651 0.000954
5.376490 24.516651 0.000878
5.691840 24.516651 0.001182
6.007189 24.516651 0.001294
6.322540 24.516651 0.001460
6.637889 24.516651 0.000919
6.953240 24.516651 0.000586
7.268589 24.516651 0.000652
7.583940 24.516651 0.001534
7.899290 24.516651 0.003827
8.214640 24.516651 0.006313
8.529989 24.516651 0.008514
8.845339 24.516651 0.008314
9.160688 24.516651 0.020317
9.476040 24.516651 0.027713
9.791389 24.516651 0.028664
10.106739 24.516651 0.024110
10.422089 24.516651 0.033254
10.737438 24.516651 0.030486
11.052790 24.516651 0.021437
11.368139 24.516651 0.032817
11.683489 24.516651 0.036347
11.998838 24.516651 0.029860
12.314190 24.516651 -0.001503
12.629539 24.516651 0.019723
12.944889 24.516651 0.041784
13.260239 24.516651 0.084195
13.575588 24.516651 0.071071
13.890940 24.516651 0.111488
14.206289 24.516651 0.083286
14.521639 24.516651 0.078979
14.836988 24.516651 0.088304
15.152340 24.516651 0.066526
15.467690 24.516651 0.042753
15.783039 24.516651 0.000000
16.098389 24.516651 0.000000
16.413738 24.516651 0.000000
16.729090 24.516651 0.000000
17.044439 24.516651 0.000000
17.359789 24.516651 0.000000
17.675138 24.516651 0.000000
17.990490 24.516651 0.000000
18.305840 24.516651 -1.447636
18.621189 24.516651 -1.211233
18.936539 24.516651 0.000000
19.251888 24.516651 0.000000
-7.237510 24.201302 0.000000
-6.922160 24.201302 0.003140
-6.606810 24.201302 0.001930
-6.291460 24.201302 0.001448
-5.976110 24.201302 0.001476
-5.660760 24.201302 0.001689
-5.345410 24.201302 0.001726
-5.030060 24.201302 0.001499
-4.714710 24.201302 0.001592
-4.399360 24.201302 0.001718
-4.084010 24.201302 0.001822
-3.768660 24.201302 0.001828
-3.453310 24.201302 0.001934
-3.137960 24.201302 0.002018
-2.822610 24.201302 0.002009
-2.507260 24.201302 0.001893
-2.191910 24.201302 0.001724
-1.876560 24.201302 0.001390
-1.561210 24.201302 0.001543
-1.245860 24.201302 0.001633
-0.930510 24.201302 0.001568
-0.615160 24.201302 0.001650
-0.299810 24.201302 0.001716
0.015540 24.201302 0.001706
0.330890 24.201302 0.001669
0.646240 24.201302 0.001624
0.961589 24.201302 0.001451
1.276940 24.201302 0.001525
1.592289 24.201302 0.001814
1.907640 24.201302 0.001489
2.222990 24.201302 0.001295
2.538340 24.201302 0.001661
2.853690 24.201302 0.001917
3.169039 24.201302 0.001588
3.484390 24.201302 0.001504
3.799739 24.201302 0.001709
4.115090 24.201302 0.001677
4.430439 24.201302 0.001454
4.745790 24.201302 0.001245
5.061140 24.201302 0.001174
5.376490 24.201302 0.001168
5.691840 24.201302 0.001374
6.007189 24.201302 0.001503
6.322540 24.201302 0.001576
6.637889 24.201302 0.001111
6.953240 24.201302 0.000243
7.268589 24.201302 0.000201
7.583940 24.201302 0.001014
7.899290 24.201302 0.002873
8.214640 24.201302 0.006726
8.529989 24.201302 0.007465
8.845339 24.201302 0.012307
9.160688 24.201302 0.019948
9.476040 24.201302 0.031859
9.791389 24.201302 0.026972
10.106739 24.201302 0.031743
10.422089 24.201302 0.032387
10.737438 24.201302 0.033168
11.052790 24.201302 0.014821
11.368139 24.201302 0.034381
11.683489 24.201302 0.075099
11.998838 24.201302 0.022746
12.314190 24.201302 0.023275
12.629539 24.201302 0.038570
12.944889 24.201302 0.041294
13.260239 24.201302 0.102198
13.575588 24.201302 0.081283
13.890940 24.201302 0.045493
14.206289 24.201302 0.036964
14.521639 24.201302 0.056765
14.836988 24.201302 0.041353
15.152340 24.201302 0.066187
15.467690 24.201302 0.043201
15.783039 24.201302 0.000000
16.098389 24.201302 0.000000
16.413738 24.201302 0.000000
16.729090 24.201302 0.000000
17.044439 24.201302 0.000000
17.359789 24.201302 0.000000
17.675138 24.201302 0.000000
17.990490 24.201302 0.000000
18.305840 24.201302 -1.488932
18.621189 24.201302 -1.383106
18.936539 24.201302 0.000000
19.251888 24.201302 0.000000
-7.237510 23.885950 0.000000
-6.922160 23.885950 0.002896
-6.606810 23.885950 0.001854
-6.291460 23.885950 0.001493
-5.976110 23.885950 0.001367
-5.660760 23.885950 0.001479
-5.345410 23.885950 0.001600
-5.030060 23.885950 0.001463
-4.714710 23.885950 0.001543
-4.399360 23.885950 0.001715
-4.084010 23.885950 0.001908
-3.768660 23.885950 0.001924
-3.453310 23.885950 0.001890
-3.137960 23.885950 0.001801
-2.822610 23.885950 0.001832
-2.507260 23.885950 0.001719
-2.191910 23.885950 0.001615
-1.876560 23.885950 0.001347
-1.561210 23.885950 0.001374
-1.245860 23.885950 0.001361
-0.930510 23.885950 0.001279
-0.615160 23.885950 0.001437
-0.299810 23.885950 0.001461
0.015540 23.885950 0.001530
0.330890 23.885950 0.001671
0.646240 23.885950 0.001565
0.961589 23.885950 0.001482
1.276940 23.885950 0.001606
1.592289 23.885950 0.001721
1.907640 23.885950 0.001368
2.222990 23.885950 0.001274
2.538340 23.885950 0.001691
2.853690 23.885950 0.001894
3.169039 23.885950 0.001568
3.484390 23.885950 0.001464
3.799739 23.885950 0.001579
4.115090 23.885950 0.001592
4.430439 23.885950 0.001482
4.745790 23.885950 0.001443
5.061140 23.885950 0.001403
5.376490 23.885950 0.001414
5.691840 23.885950 0.001493
6.007189 23.885950 0.001537
6.322540 23.885950 0.001548
6.637889 23.885950 0.001111
6.953240 23.885950 0.000263
7.268589 23.885950 -0.000179
7.583940 23.885950 0.000951
7.899290 23.885950 0.001384
8.214640 23.885950 0.003849
8.529989 23.885950 0.008959
8.845339 23.885950 0.012826
9.160688 23.885950 0.021921
9.476040 23.885950 0.023710
9.791389 23.885950 0.037430
10.106739 23.885950 0.033754
10.422089 23.885950 0.033497
10.737438 23.885950 0.041271
11.052790 23.885950 0.036617
11.368139 23.885950 0.040714
11.683489 23.885950 0.054146
11.998838 23.885950 0.067644
12.314190 23.885950 0.050028
12.629539 23.885950 0.020752
12.944889 23.885950 0.078358
13.260239 23.885950 0.085349
13.575588 23.885950 0.046315
13.890940 23.885950 0.037534
14.206289 23.885950 0.019828
14.521639 23.885950 0.033008
14.836988 23.885950 0.034645
15.152340 23.885950 0.069842
15.467690 23.885950 0.081730
15.783039 23.885950 0.000000
16.098389 23.885950 0.000000
16.413738 23.885950 0.000000
16.729090 23.885950 0.000000
17.044439 23.885950 0.000000
17.359789 23.885950 0.000000
17.675138 23.885950 0.000000
17.990490 23.885950 0.000000
18.305840 23.885950 -1.721081
18.621189 23.885950 -1.548797
18.936539 23.885950 0.000000
19.251888 23.885950 0.000000
-7.237510 23.570601 0.000000
-6.922160 23.570601 0.002856
-6.606810 23.570601 0.001685
-6.291460 23.570601 0.001451
-5.976110 23.570601 0.001242
-5.660760 23.570601 0.001288
-5.345410 23.570601 0.001518
-5.030060 23.570601 0.001568
-4.714710 23.570601 0.001616
-4.399360 23.570601 0.001747
-4.084010 23.570601 0.001927
-3.768660 23.570601 0.001732
-3.453310 23.570601 0.001688
-3.137960 23.570601 0.001479
-2.822610 23.570601 0.001468
-2.507260 23.570601 0.001475
-2.191910 23.570601 0.001538
-1.876560 23.570601 0.001317
-1.561210 23.570601 0.001173
-1.245860 23.570601 0.001225
-0.930510 23.570601 0.001117
-0.615160 23.570601 0.001151
-0.299810 23.570601 0.001138
0.015540 23.570601 0.001245
0.330890 23.570601 0.001534
0.646240 23.570601 0.001494
0.961589 23.570601 0.001486
1.276940 23.570601 0.001571
1.592289 23.570601 0.001598
1.907640 23.570601 0.001219
2.222990 23.570601 0.001191
2.538340 23.570601 0.001547
2.853690 23.570601 0.001678
3.169039 23.570601 0.001432
3.484390 23.570601 0.001236
3.799739 23.570601 0.001304
4.115090 23.570601 0.001424
4.430439 23.570601 0.001455
4.745790 23.570601 0.001516
5.061140 23.570601 0.001603
5.376490 23.570601 0.001622
5.691840 23.570601 0.001493
6.007189 23.570601 0.001314
6.322540 23.570601 0.001394
6.637889 23.570601 0.000989
6.953240 23.570601 0.000486
7.268589 23.570601 0.000098
7.583940 23.570601 0.000121
7.899290 23.570601 0.001329
8.214640 23.570601 0.002202
8.529989 23.570601 0.006863
8.845339 23.570601 0.012346
9.160688 23.570601 0.017289
9.476040 23.570601 0.016546
9.791389 23.570601 0.030459
10.106739 23.570601 0.030871
10.422089 23.570601 0.032025
10.737438 23.570601 0.045260
11.052790 23.570601 0.036500
11.368139 23.570601 0.066567
11.683489 23.570601 0.060976
11.998838 23.570601 0.050685
12.314190 23.570601 0.058347
12.629539 23.570601 0.041583
12.944889 23.570601 0.019659
13.260239 23.570601 0.037195
13.575588 23.570601 0.018242
13.890940 23.570601 0.007864
14.206289 23.570601 0.037503
14.521639 23.570601 -0.019876
14.836988 23.570601 0.031482
15.152340 23.570601 0.084921
15.467690 23.570601 0.082680
15.783039 23.570601 0.000000
16.098389 23.570601 0.000000
16.413738 23.570601 0.000000
16.729090 23.570601 0.000000
17.044439 23.570601 0.000000
17.359789 23.570601 0.000000
17.675138 23.570601 0.000000
17.990490 23.570601 0.000000
18.305840 23.570601 -1.408614
18.621189 23.570601 -1.270088
18.936539 23.570601 0.000000
19.251888 23.570601 0.000000
-7.237510 23.255251 0.000000
-6.922160 23.255251 0.002713
-6.606810 23.255251 0.001618
-6.291460 23.255251 0.001331
-5.976110 23.255251 0.001196
-5.660760 23.255251 0.001213
-5.345410 23.255251 0.001512
-5.030060 23.255251 0.001647
-4.714710 23.255251 0.001690
-4.399360 23.255251 0.001749
-4.084010 23.255251 0.001802
-3.768660 23.255251 0.001472
-3.453310 23.255251 0.001367
-3.137960 23.255251 0.001250
-2.822610 23.255251 0.001163
-2.507260 23.255251 0.001237
-2.191910 23.255251 0.001304
-1.876560 23.255251 0.001194
-1.561210 23.255251 0.001079
-1.245860 23.255251 0.001110
-0.930510 23.255251 0.001088
-0.615160 23.255251 0.000988
-0.299810 23.255251 0.000978
0.015540 23.255251 0.000991
0.330890 23.255251 0.001305
0.646240 23.255251 0.001383
0.961589 23.255251 0.001377
1.276940 23.255251 0.001548
1.592289 23.255251 0.001522
1.907640 23.255251 0.001142
2.222990 23.255251 0.001077
2.538340 23.255251 0.001313
2.853690 23.255251 0.001380
3.169039 23.255251 0.001176
3.484390 23.255251 0.001043
3.799739 23.255251 0.001099
4.115090 23.255251 0.001312
4.430439 23.255251 0.001540
4.745790 23.255251 0.001643
5.061140 23.255251 0.001637
5.376490 23.255251 0.001629
5.691840 23.255251 0.001444
6.007189 23.255251 0.001198
6.322540 23.255251 0.001097
6.637889 23.255251 0.000773
6.953240 23.255251 0.000373
7.268589 23.255251 0.000221
7.583940 23.255251 0.000343
7.899290 23.255251 0.000800
8.214640 23.255251 0.004303
8.529989 23.255251 0.007882
8.845339 23.255251 0.013212
9.160688 23.255251 0.016298
9.476040 23.255251 0.020358
9.791389 23.255251 0.027122
10.106739 23.255251 0.029011
10.422089 23.255251 0.035084
10.737438 23.255251 0.053377
11.052790 23.255251 0.056095
11.368139 23.255251 0.058381
11.683489 23.255251 0.046937
11.998838 23.255251 0.063661
12.314190 23.255251 0.029297
12.629539 23.255251 0.014920
12.944889 23.255251 -0.005396
13.260239 23.255251 0.033072
13.575588 23.255251 0.007423
13.890940 23.255251 0.006710
14.206289 23.255251 -0.011673
14.521639 23.255251 0.006001
14.836988 23.255251 0.011781
15.152340 23.255251 0.033273
15.467690 23.255251 0.065518
15.783039 23.255251 0.000000
16.098389 23.255251 0.000000
16.413738 23.255251 0.000000
16.729090 23.255251 0.000000
17.044439 23.255251 0.000000
17.359789 23.255251 0.000000
17.675138 23.255251 0.000000
17.990490 23.255251 0.000000
18.305840 23.255251 -1.267208
18.621189 23.255251 -0.913848
18.936539 23.255251 0.000000
19.251888 23.255251 0.000000
-7.237510 22.939901 0.000000
-6.922160 22.939901 0.002807
-6.606810 22.939901 0.001647
-6.291460 22.939901 0.001258
-5.976110 22.939901 0.001222
-5.660760 22.939901 0.001256
-5.345410 22.939901 0.001529
-5.030060 22.939901 0.001625
-4.714710 22.939901 0.001608
-4.399360 22.939901 0.001602
-4.084010 22.939901 0.001553
-3.768660 22.939901 0.001247
-3.453310 22.939901 0.001122
-3.137960 22.939901 0.001083
-2.822610 22.939901 0.001032
-2.507260 22.939901 0.001093
-2.191910 22.939901 0.001092
-1.876560 22.939901 0.001017
-1.561210 22.939901 0.001018
-1.245860 22.939901 0.001149
-0.930510 22.939901 0.001194
-0.615160 22.939901 0.001079
-0.299810 22.939901 0.000997
0.015540 22.939901 0.000891
0.330890 22.939901 0.001061
0.646240 22.939901 0.001135
0.961589 22.939901 0.001201
1.276940 22.939901 0.001450
1.592289 22.939901 0.001340
1.907640 22.939901 0.000969
2.222990 22.939901 0.000870
2.538340 22.939901 0.001079
2.853690 22.939901 0.001148
3.169039 22.939901 0.000984
3.484390 22.939901 0.000942
3.799739 22.939901 0.001079
4.115090 22.939901 0.001295
4.430439 22.939901 0.001485
4.745790 22.939901 0.001587
5.061140 22.939901 0.001545
5.376490 22.939901 0.001519
5.691840 22.939901 0.001291
6.007189 22.939901 0.000909
6.322540 22.939901 0.000838
6.637889 22.939901 0.000678
6.953240 22.939901 0.000690
7.268589 22.939901 0.000870
7.583940 22.939901 0.000545
7.899290 22.939901 0.000712
8.214640 22.939901 0.004259
8.529989 22.939901 0.009231
8.845339 22.939901 0.012936
9.160688 22.939901 0.013799
9.476040 22.939901 0.015073
9.791389 22.939901 0.023038
10.106739 22.939901 0.026811
10.422089 22.939901 0.047373
10.737438 22.939901 0.052635
11.052790 22.939901 0.059152
11.368139 22.939901 0.069256
11.683489 22.939901 0.044382
11.998838 22.939901 0.030387
12.314190 22.939901 0.022445
12.629539 22.939901 0.022287
12.944889 22.939901 0.026503
13.260239 22.939901 0.023951
13.575588 22.939901 0.025112
13.890940 22.939901 0.021812
14.206289 22.939901 -0.010059
14.521639 22.939901 -0.008032
14.836988 22.939901 0.031895
15.152340 22.939901 0.029456
15.467690 22.939901 0.060501
15.783039 22.939901 0.000000
16.098389 22.939901 0.000000
16.413738 22.939901 0.000000
16.729090 22.939901 0.000000
17.044439 22.939901 0.000000
17.359789 22.939901 0.000000
17.675138 22.939901 0.000000
17.990490 22.939901 0.000000
18.305840 22.939901 -0.778069
18.621189 22.939901 -0.780825
18.936539 22.939901 0.000000
19.251888 22.939901 0.000000
-7.237510 22.624552 0.000000
-6.922160 22.624552 0.002751
-6.606810 22.624552 0.001548
-6.291460 22.624552 0.001183
-5.976110 22.624552 0.001241
-5.660760 22.624552 0.001361
-5.345410 22.624552 0.001481
-5.030060 22.624552 0.001412
-4.714710 22.624552 0.001364
-4.399360 22.624552 0.001339
-4.084010 22.624552 0.001328
-3.768660 22.624552 0.001247
-3.453310 22.624552 0.001056
-3.137960 22.624552 0.001021
-2.822610 22.624552 0.001061
-2.507260 22.624552 0.000999
-2.191910 22.624552 0.000931
-1.876560 22.624552 0.000938
-1.561210 22.624552 0.001088
-1.245860 22.624552 0.001240
-0.930510 22.624552 0.001317
-0.615160 22.624552 0.001193
-0.299810 22.624552 0.001060
0.015540 22.624552 0.000806
0.330890 22.624552 0.000914
0.646240 22.624552 0.000863
0.961589 22.624552 0.000975
1.276940 22.624552 0.001147
1.592289 22.624552 0.001104
1.907640 22.624552 0.000762
2.222990 22.624552 0.000655
2.538340 22.624552 0.000951
2.853690 22.624552 0.001036
3.169039 22.624552 0.000962
3.484390 22.624552 0.001038
3.799739 22.624552 0.001220
4.115090 22.624552 0.001254
4.430439 22.624552 0.001356
4.745790 22.624552 0.001385
5.061140 22.624552 0.001398
5.376490 22.624552 0.001321
5.691840 22.624552 0.001057
6.007189 22.624552 0.000694
6.322540 22.624552 0.000832
6.637889 22.624552 0.000687
6.953240 22.624552 0.001112
7.268589 22.624552 0.000884
7.583940 22.624552 0.000362
7.899290 22.624552 0.002301
8.214640 22.624552 0.005318
8.529989 22.624552 0.007252
8.845339 22.624552 0.010226
9.160688 22.624552 0.010091
9.476040 22.624552 0.016962
9.791389 22.624552 0.019111
10.106739 22.624552 0.022229
10.422089 22.624552 0.041801
10.737438 22.624552 0.040736
11.052790 22.624552 0.029191
11.368139 22.624552 0.040634
11.683489 22.624552 0.031000
11.998838 22.624552 0.060098
12.314190 22.624552 0.027955
12.629539 22.624552 0.048707
12.944889 22.624552 0.008803
13.260239 22.624552 0.043799
13.575588 22.624552 0.092486
13.890940 22.624552 0.035226
14.206289 22.624552 -0.003468
14.521639 22.624552 0.020562
14.836988 22.624552 0.029103
15.152340 22.624552 0.056131
15.467690 22.624552 0.057261
15.783039 22.624552 0.000000
16.098389 22.624552 0.000000
16.413738 22.624552 0.000000
16.729090 22.624552 0.000000
17.044439 22.624552 0.000000
17.359789 22.624552 0.000000
17.675138 22.624552 0.000000
17.990490 22.624552 0.000000
18.305840 22.624552 -0.872923
18.621189 22.624552 -0.798068
18.936539 22.624552 0.000000
19.251888 22.624552 0.000000
-7.237510 22.309200 0.000000
-6.922160 22.309200 0.002485
-6.606810 22.309200 0.001443
-6.291460 22.309200 0.001321
-5.976110 22.309200 0.001380
-5.660760 22.309200 0.001412
-5.345410 22.309200 0.001469
-5.030060 22.309200 0.001175
-4.714710 22.309200 0.001071
-4.399360 22.309200 0.001110
-4.084010 22.309200 0.001159
-3.768660 22.309200 0.001212
-3.453310 22.309200 0.001136
-3.137960 22.309200 0.001026
-2.822610 22.309200 0.001073
-2.507260 22.309200 0.000932
-2.191910 22.309200 0.000844
-1.876560 22.309200 0.000951
-1.561210 22.309200 0.001198
-1.245860 22.309200 0.001241
-0.930510 22.309200 0.001308
-0.615160 22.309200 0.001247
-0.299810 22.309200 0.001086
0.015540 22.309200 0.000908
0.330890 22.309200 0.000852
0.646240 22.309200 0.000704
0.961589 22.309200 0.000867
1.276940 22.309200 0.000983
1.592289 22.309200 0.000935
1.907640 22.309200 0.000670
2.222990 22.309200 0.000634
2.538340 22.309200 0.000942
2.853690 22.309200 0.001152
3.169039 22.309200 0.001091
3.484390 22.309200 0.001209
3.799739 22.309200 0.001247
4.115090 22.309200 0.001187
4.430439 22.309200 0.001103
4.745790 22.309200 0.001083
5.061140 22.309200 0.001121
5.376490 22.309200 0.001096
5.691840 22.309200 0.000849
6.007189 22.309200 0.000712
6.322540 22.309200 0.000963
6.637889 22.309200 0.001066
6.953240 22.309200 0.001223
7.268589 22.309200 0.001281
7.583940 22.309200 0.000688
7.899290 22.309200 0.002096
8.214640 22.309200 0.004672
8.529989 22.309200 0.007513
8.845339 22.309200 0.007533
9.160688 22.309200 0.012882
9.476040 22.309200 0.016441
9.791389 22.309200 0.017902
10.106739 22.309200 0.018556
10.422089 22.309200 0.029019
10.737438 22.309200 0.024435
11.052790 22.309200 0.009153
11.368139 22.309200 0.024176
11.683489 22.309200 0.050483
11.998838 22.309200 0.078335
12.314190 22.309200 0.013988
12.629539 22.309200 0.045293
12.944889 22.309200 0.069931
13.260239 22.309200 0.066203
13.575588 22.309200 0.086094
13.890940 22.309200 0.040893
14.206289 22.309200 0.024643
14.521639 22.309200 0.056008
14.836988 22.309200 0.015271
15.152340 22.309200 0.071630
15.467690 22.309200 0.087852
15.783039 22.309200 0.000000
16.098389 22.309200 0.000000
16.413738 22.309200 0.000000
16.729090 22.309200 0.000000
17.044439 22.309200 0.000000
17.359789 22.309200 0.000000
17.675138 22.309200 0.000000
17.990490 22.309200 0.000000
18.305840 22.309200 -1.006367
18.621189 22.309200 -0.747942
18.936539 22.309200 0.000000
19.251888 22.309200 0.000000
-7.237510 21.993851 0.000000
-6.922160 21.993851 0.002139
-6.606810 21.993851 0.001338
-6.291460 21.993851 0.001367
-5.976110 21.993851 0.001435
-5.660760 21.993851 0.001390
-5.345410 21.993851 0.001327
-5.030060 21.993851 0.000953
-4.714710 21.993851 0.000749
-4.399360 21.993851 0.000880
-4.084010 21.993851 0.000975
-3.768660 21.993851 0.001088
-3.453310 21.993851 0.001116
-3.137960 21.993851 0.001032
-2.822610 21.993851 0.001050
-2.507260 21.993851 0.000921
-2.191910 21.993851 0.000830
-1.876560 21.993851 0.001046
-1.561210 21.993851 0.001301
-1.245860 21.993851 0.001210
-0.930510 21.993851 0.001194
-0.615160 21.993851 0.001088
-0.299810 21.993851 0.001041
0.015540 21.993851 0.000966
0.330890 21.993851 0.000745
0.646240 21.993851 0.000603
0.961589 21.993851 0.000848
1.276940 21.993851 0.000924
1.592289 21.993851 0.000838
1.907640 21.993851 0.000658
2.222990 21.993851 0.000719
2.538340 21.993851 0.001031
2.853690 21.993851 0.001195
3.169039 21.993851 0.001149
3.484390 21.993851 0.001280
3.799739 21.993851 0.001194
4.115090 21.993851 0.001019
4.430439 21.993851 0.000914
4.745790 21.993851 0.000832
5.061140 21.993851 0.000905
5.376490 21.993851 0.001030
5.691840 21.993851 0.000855
6.007189 21.993851 0.000853
6.322540 21.993851 0.001164
6.637889 21.993851 0.001338
6.953240 21.993851 0.001409
7.268589 21.993851 0.000989
7.583940 21.993851 0.001051
7.899290 21.993851 0.003193
8.214640 21.993851 0.004973
8.529989 21.993851 0.007683
8.845339 21.993851 0.011337
9.160688 21.993851 0.015135
9.476040 21.993851 0.022607
9.791389 21.993851 0.028803
10.106739 21.993851 0.027088
10.422089 21.993851 0.026790
10.737438 21.993851 0.018123
11.052790 21.993851 -0.006978
11.368139 21.993851 0.023975
11.683489 21.993851 0.044850
11.998838 21.993851 0.025013
12.314190 21.993851 0.014696
12.629539 21.993851 0.024440
12.944889 21.993851 0.029422
13.260239 21.993851 0.030969
13.575588 21.993851 0.086404
13.890940 21.993851 0.082568
14.206289 21.993851 0.077877
14.521639 21.993851 0.063409
14.836988 21.993851 0.108488
15.152340 21.993851 0.081877
15.467690 21.993851 0.107139
15.783039 21.993851 0.000000
16.098389 21.993851 0.000000
16.413738 21.993851 0.000000
16.729090 21.993851 0.000000
17.044439 21.993851 0.000000
17.359789 21.993851 0.000000
17.675138 21.993851 0.000000
17.990490 21.993851 0.000000
18.305840 21.993851 -0.930087
18.621189 21.993851 -0.940973
18.936539 21.993851 0.000000
19.251888 21.993851 0.000000
-7.237510 21.678501 0.000000
-6.922160 21.678501 0.001946
-6.606810 21.678501 0.001196
-6.291460 21.678501 0.001265
-5.976110 21.678501 0.001288
-5.660760 21.678501 0.001218
-5.345410 21.678501 0.001203
-5.030060 21.678501 0.000873
-4.714710 21.678501 0.000560
-4.399360 21.678501 0.000714
-4.084010 21.678501 0.000809
-3.768660 21.678501 0.000954
-3.453310 21.678501 0.001052
-3.137960 21.678501 0.001076
-2.822610 21.678501 0.001056
-2.507260 21.678501 0.001028
-2.191910 21.678501 0.000962
-1.876560 21.678501 0.001117
-1.561210 21.678501 0.001223
-1.245860 21.678501 0.001116
-0.930510 21.678501 0.000975
-0.615160 21.678501 0.000939
-0.299810 21.678501 0.000901
0.015540 21.678501 0.000923
0.330890 21.678501 0.000686
0.646240 21.678501 0.000461
0.961589 21.678501 0.000753
1.276940 21.678501 0.000844
1.592289 21.678501 0.000795
1.907640 21.678501 0.000767
2.222990 21.678501 0.000900
2.538340 21.678501 0.001058
2.853690 21.678501 0.001145
3.169039 21.678501 0.001096
3.484390 21.678501 0.001243
3.799739 21.678501 0.001147
4.115090 21.678501 0.000939
4.430439 21.678501 0.000806
4.745790 21.678501 0.000633
5.061140 21.678501 0.000799
5.376490 21.678501 0.001085
5.691840 21.678501 0.001078
6.007189 21.678501 0.001167
6.322540 21.678501 0.001414
6.637889 21.678501 0.001517
6.953240 21.678501 0.001272
7.268589 21.678501 0.000829
7.583940 21.678501 0.001340
7.899290 21.678501 0.002538
8.214640 21.678501 0.005559
8.529989 21.678501 0.007330
8.845339 21.678501 0.010416
9.160688 21.678501 0.018768
9.476040 21.678501 0.023750
9.791389 21.678501 0.031187
10.106739 21.678501 0.037749
10.422089 21.678501 0.037721
10.737438 21.678501 0.026294
11.052790 21.678501 0.033317
11.368139 21.678501 0.046698
11.683489 21.678501 0.041861
11.998838 21.678501 0.020226
12.314190 21.678501 0.003214
12.629539 21.678501 0.016558
12.944889 21.678501 0.019259
13.260239 21.678501 0.003357
13.575588 21.678501 0.030723
13.890940 21.678501 0.047158
14.206289 21.678501 0.062862
14.521639 21.678501 0.065471
14.836988 21.678501 0.097334
15.152340 21.678501 0.061530
15.467690 21.678501 0.058587
15.783039 21.678501 0.000000
16.098389 21.678501 0.000000
16.413738 21.678501 0.000000
16.729090 21.678501 0.000000
17.044439 21.678501 0.000000
17.359789 21.678501 0.000000
17.675138 21.678501 0.000000
17.990490 21.678501 0.000000
18.305840 21.678501 -1.050118
18.621189 21.678501 -0.842948
18.936539 21.678501 0.000000
19.251888 21.678501 0.000000
-7.237510 21.363152 0.000000
-6.922160 21.363152 0.001687
-6.606810 21.363152 0.001006
-6.291460 21.363152 0.001028
-5.976110 21.363152 0.001045
-5.660760 21.363152 0.001016
-5.345410 21.363152 0.001042
-5.030060 21.363152 0.000818
-4.714710 21.363152 0.000540
-4.399360 21.363152 0.000628
-4.084010 21.363152 0.000760
-3.768660 21.363152 0.000839
-3.453310 21.363152 0.001059
-3.137960 21.363152 0.001091
-2.822610 21.363152 0.001096
-2.507260 21.363152 0.001136
-2.191910 21.363152 0.001041
-1.876560 21.363152 0.001103
-1.561210 21.363152 0.001092
-1.245860 21.363152 0.001002
-0.930510 21.363152 0.000794
-0.615160 21.363152 0.000754
-0.299810 21.363152 0.000730
0.015540 21.363152 0.000754
0.330890 21.363152 0.000569
0.646240 21.363152 0.000430
0.961589 21.363152 0.000633
1.276940 21.363152 0.000727
1.592289 21.363152 0.000716
1.907640 21.363152 0.000897
2.222990 21.363152 0.001077
2.538340 21.363152 0.001040
2.853690 21.363152 0.001026
3.169039 21.363152 0.001010
3.484390 21.363152 0.001123
3.799739 21.363152 0.001013
4.115090 21.363152 0.000867
4.430439 21.363152 0.000746
4.745790 21.363152 0.000629
5.061140 21.363152 0.000864
5.376490 21.363152 0.001178
5.691840 21.363152 0.001132
6.007189 21.363152 0.001256
6.322540 21.363152 0.001433
6.637889 21.363152 0.001354
6.953240 21.363152 0.001112
7.268589 21.363152 0.001179
7.583940 21.363152 0.001668
7.899290 21.363152 0.003805
8.214640 21.363152 0.004227
8.529989 21.363152 0.003158
8.845339 21.363152 0.008705
9.160688 21.363152 0.013694
9.476040 21.363152 0.029043
9.791389 21.363152 0.038330
10.106739 21.363152 0.043697
10.422089 21.363152 0.058188
10.737438 21.363152 0.050022
11.052790 21.363152 0.038947
11.368139 21.363152 0.047388
11.683489 21.363152 0.043648
11.998838 21.363152 0.028223
12.314190 21.363152 -0.008297
12.629539 21.363152 0.014248
12.944889 21.363152 0.059622
13.260239 21.363152 0.037297
13.575588 21.363152 0.033802
13.890940 21.363152 0.040652
14.206289 21.363152 0.067188
14.521639 21.363152 0.064131
14.836988 21.363152 0.057402
15.152340 21.363152 0.032790
15.467690 21.363152 0.084098
15.783039 21.363152 0.000000
16.098389 21.363152 0.000000
16.413738 21.363152 0.000000
16.729090 21.363152 0.000000
17.044439 21.363152 0.000000
17.359789 21.363152 0.000000
17.675138 21.363152 0.000000
17.990490 21.363152 0.000000
18.305840 21.363152 -1.123787
18.621189 21.363152 -0.954447
18.936539 21.363152 0.000000
19.251888 21.363152 0.000000
-7.237510 21.047800 0.000000
-6.922160 21.047800 0.001512
-6.606810 21.047800 0.000819
-6.291460 21.047800 0.000760
-5.976110 21.047800 0.000879
-5.660760 21.047800 0.000866
-5.345410 21.047800 0.000896
-5.030060 21.047800 0.000773
-4.714710 21.047800 0.000584
-4.399360 21.047800 0.000654
-4.084010 21.047800 0.000780
-3.768660 21.047800 0.000817
-3.453310 21.047800 0.001042
-3.137960 21.047800 0.001136
-2.822610 21.047800 0.001103
-2.507260 21.047800 0.001140
-2.191910 21.047800 0.000973
-1.876560 21.047800 0.000968
-1.561210 21.047800 0.000976
-1.245860 21.047800 0.000811
-0.930510 21.047800 0.000645
-0.615160 21.047800 0.000612
-0.299810 21.047800 0.000593
0.015540 21.047800 0.000596
0.330890 21.047800 0.000539
0.646240 21.047800 0.000511
0.961589 21.047800 0.000710
1.276940 21.047800 0.000783
1.592289 21.047800 0.000787
1.907640 21.047800 0.000908
2.222990 21.047800 0.001070
2.538340 21.047800 0.000956
2.853690 21.047800 0.000881
3.169039 21.047800 0.000914
3.484390 21.047800 0.001037
3.799739 21.047800 0.000965
4.115090 21.047800 0.000879
4.430439 21.047800 0.000750
4.745790 21.047800 0.000697
5.061140 21.047800 0.000949
5.376490 21.047800 0.001195
5.691840 21.047800 0.001106
6.007189 21.047800 0.001227
6.322540 21.047800 0.001282
6.637889 21.047800 0.001025
6.953240 21.047800 0.001017
7.268589 21.047800 0.000889
7.583940 21.047800 0.001776
7.899290 21.047800 0.003551
8.214640 21.047800 0.006212
8.529989 21.047800 0.007522
8.845339 21.047800 0.011512
9.160688 21.047800 0.016090
9.476040 21.047800 0.029019
9.791389 21.047800 0.045531
10.106739 21.047800 0.051415
10.422089 21.047800 0.056363
10.737438 21.047800 0.064351
11.052790 21.047800 0.043340
11.368139 21.047800 0.038559
11.683489 21.047800 0.049202
11.998838 21.047800 0.005490
12.314190 21.047800 0.014736
12.629539 21.047800 0.005068
12.944889 21.047800 0.048014
13.260239 21.047800 0.084830
13.575588 21.047800 0.052007
13.890940 21.047800 0.058765
14.206289 21.047800 0.054008
14.521639 21.047800 0.048350
14.836988 21.047800 0.079874
15.152340 21.047800 0.018778
15.467690 21.047800 0.018327
15.783039 21.047800 0.000000
16.098389 21.047800 0.000000
16.413738 21.047800 0.000000
16.729090 21.047800 0.000000
17.044439 21.047800 0.000000
17.359789 21.047800 0.000000
17.675138 21.047800 0.000000
17.990490 21.047800 0.000000
18.305840 21.047800 -1.218459
18.621189 21.047800 -1.243832
18.936539 21.047800 0.000000
19.251888 21.047800 0.000000
-7.237510 20.732450 0.000000
-6.922160 20.732450 0.001499
-6.606810 20.732450 0.000690
-6.291460 20.732450 0.000600
-5.976110 20.732450 0.000793
-5.660760 20.732450 0.000817
-5.345410 20.732450 0.000781
-5.030060 20.732450 0.000737
-4.714710 20.732450 0.000682
-4.399360 20.732450 0.000741
-4.084010 20.732450 0.000831
-3.768660 20.732450 0.000825
-3.453310 20.732450 0.000974
-3.137960 20.732450 0.001096
-2.822610 20.732450 0.001009
-2.507260 20.732450 0.000947
-2.191910 20.732450 0.000727
-1.876560 20.732450 0.000736
-1.561210 20.732450 0.000831
-1.245860 20.732450 0.000643
-0.930510 20.732450 0.000527
-0.615160 20.732450 0.000540
-0.299810 20.732450 0.000531
0.015540 20.732450 0.000534
0.330890 20.732450 0.000509
0.646240 20.732450 0.000686
0.961589 20.732450 0.000726
1.276940 20.732450 0.000771
1.592289 20.732450 0.000868
1.907640 20.732450 0.000878
2.222990 20.732450 0.000905
2.538340 20.732450 0.000757
2.853690 20.732450 0.000666
3.169039 20.732450 0.000729
3.484390 20.732450 0.001003
3.799739 20.732450 0.001040
4.115090 20.732450 0.000996
4.430439 20.732450 0.000857
4.745790 20.732450 0.000807
5.061140 20.732450 0.000943
5.376490 20.732450 0.001035
5.691840 20.732450 0.000948
6.007189 20.732450 0.001031
6.322540 20.732450 0.001168
6.637889 20.732450 0.000884
6.953240 20.732450 0.000552
7.268589 20.732450 0.001011
7.583940 20.732450 0.002068
7.899290 20.732450 0.004766
8.214640 20.732450 0.007724
8.529989 20.732450 0.010221
8.845339 20.732450 0.011694
9.160688 20.732450 0.020360
9.476040 20.732450 0.035959
9.791389 20.732450 0.029835
10.106739 20.732450 0.040500
10.422089 20.732450 0.052669
10.737438 20.732450 0.043531
11.052790 20.732450 0.042432
11.368139 20.732450 0.047400
11.683489 20.732450 0.025299
11.998838 20.732450 0.019557
12.314190 20.732450 0.024570
12.629539 20.732450 0.022713
12.944889 20.732450 0.021631
13.260239 20.732450 0.041350
13.575588 20.732450 0.034690
13.890940 20.732450 0.031428
14.206289 20.732450 0.016032
14.521639 20.732450 0.025998
14.836988 20.732450 0.080073
15.152340 20.732450 0.044600
15.467690 20.732450 0.086263
15.783039 20.732450 0.000000
16.098389 20.732450 0.000000
16.413738 20.732450 0.000000
16.729090 20.732450 0.000000
17.044439 20.732450 0.000000
17.359789 20.732450 0.000000
17.675138 20.732450 0.000000
17.990490 20.732450 0.000000
18.305840 20.732450 -1.423615
18.621189 20.732450 -1.493427
18.936539 20.732450 0.000000
19.251888 20.732450 0.000000
-7.237510 20.417101 0.000000
-6.922160 20.417101 0.001516
-6.606810 20.417101 0.000683
-6.291460 20.417101 0.000587
-5.976110 20.417101 0.000723
-5.660760 20.417101 0.000760
-5.345410 20.417101 0.000779
-5.030060 20.417101 0.000765
-4.714710 20.417101 0.000777
-4.399360 20.417101 0.000865
-4.084010 20.417101 0.000910
-3.768660 20.417101 0.000863
-3.453310 20.417101 0.000867
-3.137960 20.417101 0.000906
-2.822610 20.417101 0.000798
-2.507260 20.417101 0.000647
-2.191910 20.417101 0.000473
-1.876560 20.417101 0.000502
-1.561210 20.417101 0.000591
-1.245860 20.417101 0.000507
-0.930510 20.417101 0.000424
-0.615160 20.417101 0.000439
-0.299810 20.417101 0.000552
0.015540 20.417101 0.000528
0.330890 20.417101 0.000644
0.646240 20.417101 0.000829
0.961589 20.417101 0.000720
1.276940 20.417101 0.000705
1.592289 20.417101 0.000780
1.907640 20.417101 0.000691
2.222990 20.417101 0.000635
2.538340 20.417101 0.000515
2.853690 20.417101 0.000459
3.169039 20.417101 0.000581
3.484390 20.417101 0.000859
3.799739 20.417101 0.001086
4.115090 20.417101 0.001097
4.430439 20.417101 0.000908
4.745790 20.417101 0.000867
5.061140 20.417101 0.000879
5.376490 20.417101 0.000925
5.691840 20.417101 0.000794
6.007189 20.417101 0.000671
6.322540 20.417101 0.000764
6.637889 20.417101 0.000686
6.953240 20.417101 0.000266
7.268589 20.417101 0.000882
7.583940 20.417101 0.002890
7.899290 20.417101 0.005781
8.214640 20.417101 0.007103
8.529989 20.417101 0.008564
8.845339 20.417101 0.012612
9.160688 20.417101 0.021082
9.476040 20.417101 0.033476
9.791389 20.417101 0.033214
10.106739 20.417101 0.039830
10.422089 20.417101 0.046431
10.737438 20.417101 0.044027
11.052790 20.417101 0.033899
11.368139 20.417101 0.054828
11.683489 20.417101 0.045714
11.998838 20.417101 0.019164
12.314190 20.417101 0.005643
12.629539 20.417101 0.029482
12.944889 20.417101 0.065347
13.260239 20.417101 0.061283
13.575588 20.417101 0.070798
13.890940 20.417101 0.043607
14.206289 20.417101 0.034591
14.521639 20.417101 -0.028723
14.836988 20.417101 0.085279
15.152340 20.417101 0.081422
15.467690 20.417101 0.114057
15.783039 20.417101 0.000000
16.098389 20.417101 0.000000
16.413738 20.417101 0.000000
16.729090 20.417101 0.000000
17.044439 20.417101 0.000000
17.359789 20.417101 0.000000
17.675138 20.417101 0.000000
17.990490 20.417101 0.000000
18.305840 20.417101 -1.443654
18.621189 20.417101 -1.674285
18.936539 20.417101 0.000000
19.251888 20.417101 0.000000
-7.237510 20.101751 0.000000
-6.922160 20.101751 0.001426
-6.606810 20.101751 0.000790
-6.291460 20.101751 0.000680
-5.976110 20.101751 0.000671
-5.660760 20.101751 0.000728
-5.345410 20.101751 0.000835
-5.030060 20.101751 0.000809
-4.714710 20.101751 0.000825
-4.399360 20.101751 0.000897
-4.084010 20.101751 0.000924
-3.768660 20.101751 0.000802
-3.453310 20.101751 0.000689
-3.137960 20.101751 0.000710
-2.822610 20.101751 0.000568
-2.507260 20.101751 0.000407
-2.191910 20.101751 0.000331
-1.876560 20.101751 0.000390
-1.561210 20.101751 0.000397
-1.245860 20.101751 0.000348
-0.930510 20.101751 0.000361
-0.615160 20.101751 0.000413
-0.299810 20.101751 0.000542
0.015540 20.101751 0.000608
0.330890 20.101751 0.000775
0.646240 20.101751 0.000847
0.961589 20.101751 0.000659
1.276940 20.101751 0.000564
1.592289 20.101751 0.000583
1.907640 20.101751 0.000396
2.222990 20.101751 0.000388
2.538340 20.101751 0.000307
2.853690 20.101751 0.000239
3.169039 20.101751 0.000437
3.484390 20.101751 0.000701
3.799739 20.101751 0.000931
4.115090 20.101751 0.001004
4.430439 20.101751 0.000870
4.745790 20.101751 0.000777
5.061140 20.101751 0.000674
5.376490 20.101751 0.000766
5.691840 20.101751 0.000663
6.007189 20.101751 0.000416
6.322540 20.101751 0.000332
6.637889 20.101751 0.000206
6.953240 20.101751 0.000297
7.268589 20.101751 0.000772
7.583940 20.101751 0.002588
7.899290 20.101751 0.004844
8.214640 20.101751 0.005686
8.529989 20.101751 0.008713
8.845339 20.101751 0.011917
9.160688 20.101751 0.023413
9.476040 20.101751 0.024953
9.791389 20.101751 0.028388
10.106739 20.101751 0.034613
10.422089 20.101751 0.050767
10.737438 20.101751 0.052019
11.052790 20.101751 0.040660
11.368139 20.101751 0.038270
11.683489 20.101751 0.054618
11.998838 20.101751 0.054509
12.314190 20.101751 0.017123
12.629539 20.101751 0.025184
12.944889 20.101751 0.050266
13.260239 20.101751 0.092589
13.575588 20.101751 0.056309
13.890940 20.101751 0.035471
14.206289 20.101751 -0.016520
14.521639 20.101751 -0.007234
14.836988 20.101751 0.035410
15.152340 20.101751 0.068120
15.467690 20.101751 0.087537
15.783039 20.101751 0.000000
16.098389 20.101751 0.000000
16.413738 20.101751 0.000000
16.729090 20.101751 0.000000
17.044439 20.101751 0.000000
17.359789 20.101751 0.000000
17.675138 20.101751 0.000000
17.990490 20.101751 0.000000
18.305840 20.101751 -1.930727
18.621189 20.101751 -1.889538
18.936539 20.101751 0.000000
19.251888 20.101751 0.000000
-7.237510 19.786402 0.000000
-6.922160 19.786402 0.001459
-6.606810 19.786402 0.000931
-6.291460 19.786402 0.000769
-5.976110 19.786402 0.000714
-5.660760 19.786402 0.000774
-5.345410 19.786402 0.000882
-5.030060 19.786402 0.000832
-4.714710 19.786402 0.000792
-4.399360 19.786402 0.000842
-4.084010 19.786402 0.000838
-3.768660 19.786402 0.000694
-3.453310 19.786402 0.000518
-3.137960 19.786402 0.000555
-2.822610 19.786402 0.000492
-2.507260 19.786402 0.000329
-2.191910 19.786402 0.000307
-1.876560 19.786402 0.000373
-1.561210 19.786402 0.000314
-1.245860 19.786402 0.000325
-0.930510 19.786402 0.000365
-0.615160 19.786402 0.000452
-0.299810 19.786402 0.000567
0.015540 19.786402 0.000616
0.330890 19.786402 0.000721
0.646240 19.786402 0.000640
0.961589 19.786402 0.000488
1.276940 19.786402 0.000393
1.592289 19.786402 0.000367
1.907640 19.786402 0.000215
2.222990 19.786402 0.000193
2.538340 19.786402 0.000133
2.853690 19.786402 0.000076
3.169039 19.786402 0.000278
3.484390 19.786402 0.000564
3.799739 19.786402 0.000729
4.115090 19.786402 0.000926
4.430439 19.786402 0.000851
4.745790 19.786402 0.000662
5.061140 19.786402 0.000485
5.376490 19.786402 0.000598
5.691840 19.786402 0.000497
6.007189 19.786402 0.000227
6.322540 19.786402 0.000202
6.637889 19.786402 0.000286
6.953240 19.786402 0.000635
7.268589 19.786402 0.001243
7.583940 19.786402 0.002160
7.899290 19.786402 0.002883
8.214640 19.786402 0.003296
8.529989 19.786402 0.004080
8.845339 19.786402 0.008938
9.160688 19.786402 0.019433
9.476040 19.786402 0.027526
9.791389 19.786402 0.038096
10.106739 19.786402 0.040400
10.422089 19.786402 0.038144
10.737438 19.786402 0.065378
11.052790 19.786402 0.059108
11.368139 19.786402 0.045375
11.683489 19.786402 0.074340
11.998838 19.786402 0.049950
12.314190 19.786402 0.040023
12.629539 19.786402 0.046737
12.944889 19.786402 0.033994
13.260239 19.786402 0.095416
13.575588 19.786402 0.076626
13.890940 19.786402 -0.005342
14.206289 19.786402 0.006450
14.521639 19.786402 0.015104
14.836988 19.786402 0.083179
15.152340 19.786402 0.116412
15.467690 19.786402 0.018670
15.783039 19.786402 0.000000
16.098389 19.786402 0.000000
16.413738 19.786402 0.000000
16.729090 19.786402 0.000000
17.044439 19.786402 0.000000
17.359789 19.786402 0.000000
17.675138 19.786402 0.000000
17.990490 19.786402 0.000000
18.305840 19.786402 -1.876030
18.621189 19.786402 -1.974849
18.936539 19.786402 0.000000
19.251888 19.786402 0.000000
-7.237510 19.471050 0.000000
-6.922160 19.471050 0.001482
-6.606810 19.471050 0.001040
-6.291460 19.471050 0.000833
-5.976110 19.471050 0.000822
-5.660760 19.471050 0.000858
-5.345410 19.471050 0.000924
-5.030060 19.471050 0.000798
-4.714710 19.471050 0.000705
-4.399360 19.471050 0.000703
-4.084010 19.471050 0.000625
-3.768660 19.471050 0.000528
-3.453310 19.471050 0.000406
-3.137960 19.471050 0.000458
-2.822610 19.471050 0.000469
-2.507260 19.471050 0.000366
-2.191910 19.471050 0.000366
-1.876560 19.471050 0.000402
-1.561210 19.471050 0.000359
-1.245860 19.471050 0.000410
-0.930510 19.471050 0.000478
-0.615160 19.471050 0.000485
-0.299810 19.471050 0.000505
0.015540 19.471050 0.000518
0.330890 19.471050 0.000551
0.646240 19.471050 0.000469
0.961589 19.471050 0.000330
1.276940 19.471050 0.000276
1.592289 19.471050 0.000242
1.907640 19.471050 0.000178
2.222990 19.471050 0.000151
2.538340 19.471050 0.000080
2.853690 19.471050 0.000067
3.169039 19.471050 0.000215
3.484390 19.471050 0.000374
3.799739 19.471050 0.000495
4.115090 19.471050 0.000660
4.430439 19.471050 0.000693
4.745790 19.471050 0.000558
5.061140 19.471050 0.000284
5.376490 19.471050 0.000495
5.691840 19.471050 0.000368
6.007189 19.471050 0.000211
6.322540 19.471050 0.000346
6.637889 19.471050 0.000479
6.953240 19.471050 0.001103
7.268589 19.471050 0.001482
7.583940 19.471050 0.001580
7.899290 19.471050 0.003344
8.214640 19.471050 0.004334
8.529989 19.471050 0.006997
8.845339 19.471050 0.009809
9.160688 19.471050 0.013609
9.476040 19.471050 0.023414
9.791389 19.471050 0.042496
10.106739 19.471050 0.053407
10.422089 19.471050 0.053055
10.737438 19.471050 0.058291
11.052790 19.471050 0.063549
11.368139 19.471050 0.067532
11.683489 19.471050 0.052094
11.998838 19.471050 0.034441
12.314190 19.471050 0.061542
12.629539 19.471050 0.036666
12.944889 19.471050 0.035291
13.260239 19.471050 0.055533
13.575588 19.471050 0.049119
13.890940 19.471050 -0.006108
14.206289 19.471050 -0.003131
14.521639 19.471050 0.059581
14.836988 19.471050 0.117003
15.152340 19.471050 0.053962
15.467690 19.471050 0.064047
15.783039 19.471050 0.000000
16.098389 19.471050 0.000000
16.413738 19.471050 0.000000
16.729090 19.471050 0.000000
17.044439 19.471050 0.000000
17.359789 19.471050 0.000000
17.675138 19.471050 0.000000
17.990490 19.471050 0.000000
18.305840 19.471050 -1.809757
18.621189 19.471050 -1.975671
18.936539 19.471050 0.000000
19.251888 19.471050 0.000000
-7.237510 19.155701 0.000000
-6.922160 19.155701 0.001489
-6.606810 19.155701 0.001036
-6.291460 19.155701 0.000822
-5.976110 19.155701 0.000793
-5.660760 19.155701 0.000830
-5.345410 19.155701 0.000832
-5.030060 19.155701 0.000698
-4.714710 19.155701 0.000554
-4.399360 19.155701 0.000499
-4.084010 19.155701 0.000442
-3.768660 19.155701 0.000377
-3.453310 19.155701 0.000368
-3.137960 19.155701 0.000365
-2.822610 19.155701 0.000445
-2.507260 19.155701 0.000441
-2.191910 19.155701 0.000459
-1.876560 19.155701 0.000521
-1.561210 19.155701 0.000477
-1.245860 19.155701 0.000525
-0.930510 19.155701 0.000566
-0.615160 19.155701 0.000498
-0.299810 19.155701 0.000428
0.015540 19.155701 0.000398
0.330890 19.155701 0.000398
0.646240 19.155701 0.000339
0.961589 19.155701 0.000234
1.276940 19.155701 0.000213
1.592289 19.155701 0.000175
1.907640 19.155701 0.000212
2.222990 19.155701 0.000149
2.538340 19.155701 0.000095
2.853690 19.155701 0.000158
3.169039 19.155701 0.000227
3.484390 19.155701 0.000247
3.799739 19.155701 0.000257
4.115090 19.155701 0.000366
4.430439 19.155701 0.000463
4.745790 19.155701 0.000387
5.061140 19.155701 0.000225
5.376490 19.155701 0.000451
5.691840 19.155701 0.000449
6.007189 19.155701 0.000463
6.322540 19.155701 0.000506
6.637889 19.155701 0.000407
6.953240 19.155701 0.000673
7.268589 19.155701 0.001226
7.583940 19.155701 0.001590
7.899290 19.155701 0.003077
8.214640 19.155701 0.005285
8.529989 19.155701 0.009687
8.845339 19.155701 0.007859
9.160688 19.155701 0.015830
9.476040 19.155701 0.022571
9.791389 19.155701 0.035856
10.106739 19.155701 0.053399
10.422089 19.155701 0.055474
10.737438 19.155701 0.055501
11.052790 19.155701 0.038007
11.368139 19.155701 0.082077
11.683489 19.155701 0.061264
11.998838 19.155701 0.049059
12.314190 19.155701 0.060984
12.629539 19.155701 0.082428
12.944889 19.155701 0.003036
13.260239 19.155701 0.033783
13.575588 19.155701 0.034311
13.890940 19.155701 -0.003176
14.206289 19.155701 0.000229
14.521639 19.155701 0.069177
14.836988 19.155701 0.103108
15.152340 19.155701 0.078081
15.467690 19.155701 0.077904
15.783039 19.155701 0.000000
16.098389 19.155701 0.000000
16.413738 19.155701 0.000000
16.729090 19.155701 0.000000
17.044439 19.155701 0.000000
17.359789 19.155701 0.000000
17.675138 19.155701 0.000000
17.990490 19.155701 0.000000
18.305840 19.155701 -1.394282
18.621189 19.155701 -1.678695
18.936539 19.155701 0.000000
19.251888 19.155701 0.000000
-7.237510 18.840351 0.000000
-6.922160 18.840351 0.001488
-6.606810 18.840351 0.000939
-6.291460 18.840351 0.000760
-5.976110 18.840351 0.000742
-5.660760 18.840351 0.000737
-5.345410 18.840351 0.000669
-5.030060 18.840351 0.000582
-4.714710 18.840351 0.000410
-4.399360 18.840351 0.000327
-4.084010 18.840351 0.000315
-3.768660 18.840351 0.000360
-3.453310 18.840351 0.000397
-3.137960 18.840351 0.000372
-2.822610 18.840351 0.000421
-2.507260 18.840351 0.000489
-2.191910 18.840351 0.000553
-1.876560 18.840351 0.000641
-1.561210 18.840351 0.000623
-1.245860 18.840351 0.000582
-0.930510 18.840351 0.000556
-0.615160 18.840351 0.000444
-0.299810 18.840351 0.000337
0.015540 18.840351 0.000311
0.330890 18.840351 0.000289
0.646240 18.840351 0.000306
0.961589 18.840351 0.000202
1.276940 18.840351 0.000172
1.592289 18.840351 0.000162
1.907640 18.840351 0.000232
2.222990 18.840351 0.000202
2.538340 18.840351 0.000232
2.853690 18.840351 0.000221
3.169039 18.840351 0.000148
3.484390 18.840351 0.000144
3.799739 18.840351 0.000069
4.115090 18.840351 0.000152
4.430439 18.840351 0.000288
4.745790 18.840351 0.000290
5.061140 18.840351 0.000257
5.376490 18.840351 0.000520
5.691840 18.840351 0.000592
6.007189 18.840351 0.000719
6.322540 18.840351 0.000754
6.637889 18.840351 0.000391
6.953240 18.840351 -0.000059
7.268589 18.840351 0.000010
7.583940 18.840351 0.000992
7.899290 18.840351 0.002594
8.214640 18.840351 0.006743
8.529989 18.840351 0.010003
8.845339 18.840351 0.012738
9.160688 18.840351 0.016458
9.476040 18.840351 0.026894
9.791389 18.840351 0.032645
10.106739 18.840351 0.043946
10.422089 18.840351 0.033499
10.737438 18.840351 0.034495
11.052790 18.840351 0.047224
11.368139 18.840351 0.065935
11.683489 18.840351 0.067865
11.998838 18.840351 0.047826
12.314190 18.840351 0.093584
12.629539 18.840351 0.044122
12.944889 18.840351 0.042258
13.260239 18.840351 0.002622
13.575588 18.840351 0.046011
13.890940 18.840351 0.021495
14.206289 18.840351 0.075246
14.521639 18.840351 0.079626
14.836988 18.840351 0.088827
15.152340 18.840351 0.083497
15.467690 18.840351 0.112313
15.783039 18.840351 0.000000
16.098389 18.840351 0.000000
16.413738 18.840351 0.000000
16.729090 18.840351 0.000000
17.044439 18.840351 0.000000
17.359789 18.840351 0.000000
17.675138 18.840351 0.000000
17.990490 18.840351 0.000000
18.305840 18.840351 -1.312417
18.621189 18.840351 -1.763553
18.936539 18.840351 0.000000
19.251888 18.840351 0.000000
-7.237510 18.525002 0.000000
-6.922160 18.525002 0.001427
-6.606810 18.525002 0.000794
-6.291460 18.525002 0.000672
-5.976110 18.525002 0.000653
-5.660760 18.525002 0.000616
-5.345410 18.525002 0.000521
-5.030060 18.525002 0.000461
-4.714710 18.525002 0.000332
-4.399360 18.525002 0.000242
-4.084010 18.525002 0.000351
-3.768660 18.525002 0.000457
-3.453310 18.525002 0.000508
-3.137960 18.525002 0.000484
-2.822610 18.525002 0.000473
-2.507260 18.525002 0.000528
-2.191910 18.525002 0.000602
-1.876560 18.525002 0.000645
-1.561210 18.525002 0.000602
-1.245860 18.525002 0.000517
-0.930510 18.525002 0.000429
-0.615160 18.525002 0.000358
-0.299810 18.525002 0.000259
0.015540 18.525002 0.000244
0.330890 18.525002 0.000236
0.646240 18.525002 0.000288
0.961589 18.525002 0.000241
1.276940 18.525002 0.000143
1.592289 18.525002 0.000173
1.907640 18.525002 0.000297
2.222990 18.525002 0.000268
2.538340 18.525002 0.000261
2.853690 18.525002 0.000236
3.169039 18.525002 0.000093
3.484390 18.525002 0.000020
3.799739 18.525002 -0.000043
4.115090 18.525002 0.000063
4.430439 18.525002 0.000199
4.745790 18.525002 0.000212
5.061140 18.525002 0.000338
5.376490 18.525002 0.000612
5.691840 18.525002 0.000638
6.007189 18.525002 0.000855
6.322540 18.525002 0.000934
6.637889 18.525002 0.000419
6.953240 18.525002 0.000134
7.268589 18.525002 -0.000140
7.583940 18.525002 0.001091
7.899290 18.525002 0.003178
8.214640 18.525002 0.006269
8.529989 18.525002 0.010980
8.845339 18.525002 0.015243
9.160688 18.525002 0.019158
9.476040 18.525002 0.028791
9.791389 18.525002 0.033621
10.106739 18.525002 0.040071
10.422089 18.525002 0.032104
10.737438 18.525002 0.030799
11.052790 18.525002 0.034111
11.368139 18.525002 0.068999
11.683489 18.525002 0.088236
11.998838 18.525002 0.041546
12.314190 18.525002 0.060374
12.629539 18.525002 0.032331
12.944889 18.525002 0.000695
13.260239 18.525002 0.016161
13.575588 18.525002 0.019559
13.890940 18.525002 -0.015726
14.206289 18.525002 0.082427
14.521639 18.525002 0.115410
14.836988 18.525002 0.050207
15.152340 18.525002 0.056455
15.467690 18.525002 0.060903
15.783039 18.525002 0.000000
16.098389 18.525002 0.000000
16.413738 18.525002 0.000000
16.729090 18.525002 0.000000
17.044439 18.525002 0.000000
17.359789 18.525002 0.000000
17.675138 18.525002 0.000000
17.990490 18.525002 0.000000
18.305840 18.525002 -1.241402
18.621189 18.525002 -1.650391
18.936539 18.525002 0.000000
19.251888 18.525002 0.000000
-7.237510 18.209652 0.000000
-6.922160 18.209652 0.001245
-6.606810 18.209652 0.000670
-6.291460 18.209652 0.000601
-5.976110 18.209652 0.000552
-5.660760 18.209652 0.000569
-5.345410 18.209652 0.000499
-5.030060 18.209652 0.000417
-4.714710 18.209652 0.000336
-4.399360 18.209652 0.000321
-4.084010 18.209652 0.000510
-3.768660 18.209652 0.000627
-3.453310 18.209652 0.000654
-3.137960 18.209652 0.000637
-2.822610 18.209652 0.000559
-2.507260 18.209652 0.000561
-2.191910 18.209652 0.000578
-1.876560 18.209652 0.000477
-1.561210 18.209652 0.000421
-1.245860 18.209652 0.000338
-0.930510 18.209652 0.000279
-0.615160 18.209652 0.000270
-0.299810 18.209652 0.000243
0.015540 18.209652 0.000247
0.330890 18.209652 0.000242
0.646240 18.209652 0.000306
0.961589 18.209652 0.000295
1.276940 18.209652 0.000180
1.592289 18.209652 0.000225
1.907640 18.209652 0.000327
2.222990 18.209652 0.000280
2.538340 18.209652 0.000220
2.853690 18.209652 0.000213
3.169039 18.209652 0.000083
3.484390 18.209652 -0.000035
3.799739 18.209652 -0.000104
4.115090 18.209652 -0.000021
4.430439 18.209652 0.000152
4.745790 18.209652 0.000290
5.061140 18.209652 0.000465
5.376490 18.209652 0.000580
5.691840 18.209652 0.000578
6.007189 18.209652 0.000761
6.322540 18.209652 0.001013
6.637889 18.209652 0.000730
6.953240 18.209652 0.000571
7.268589 18.209652 0.001067
7.583940 18.209652 0.001720
7.899290 18.209652 0.004964
8.214640 18.209652 0.008015
8.529989 18.209652 0.011346
8.845339 18.209652 0.012344
9.160688 18.209652 0.019545
9.476040 18.209652 0.027927
9.791389 18.209652 0.036643
10.106739 18.209652 0.047377
10.422089 18.209652 0.026496
10.737438 18.209652 0.016731
11.052790 18.209652 0.034275
11.368139 18.209652 0.063181
11.683489 18.209652 0.064991
11.998838 18.209652 0.056298
12.314190 18.209652 0.068401
12.629539 18.209652 -0.006632
12.944889 18.209652 0.057571
13.260239 18.209652 0.054690
13.575588 18.209652 0.045661
13.890940 18.209652 0.076992
14.206289 18.209652 0.039098
14.521639 18.209652 0.056515
14.836988 18.209652 0.067820
15.152340 18.209652 0.093947
15.467690 18.209652 0.148592
15.783039 18.209652 0.000000
16.098389 18.209652 0.000000
16.413738 18.209652 0.000000
16.729090 18.209652 0.000000
17.044439 18.209652 0.000000
17.359789 18.209652 0.000000
17.675138 18.209652 0.000000
17.990490 18.209652 0.000000
18.305840 18.209652 -1.750631
18.621189 18.209652 -1.763881
18.936539 18.209652 0.000000
19.251888 18.209652 0.000000
-7.237510 17.894302 0.000000
-6.922160 17.894302 0.001117
-6.606810 17.894302 0.000625
-6.291460 17.894302 0.000559
-5.976110 17.894302 0.000506
-5.660760 17.894302 0.000598
-5.345410 17.894302 0.000566
-5.030060 17.894302 0.000431
-4.714710 17.894302 0.000427
-4.399360 17.894302 0.000509
-4.084010 17.894302 0.000723
-3.768660 17.894302 0.000779
-3.453310 17.894302 0.000716
-3.137960 17.894302 0.000704
-2.822610 17.894302 0.000594
-2.507260 17.894302 0.000519
-2.191910 17.894302 0.000471
-1.876560 17.894302 0.000346
-1.561210 17.894302 0.000236
-1.245860 17.894302 0.000201
-0.930510 17.894302 0.000209
-0.615160 17.894302 0.000241
-0.299810 17.894302 0.000267
0.015540 17.894302 0.000282
0.330890 17.894302 0.000256
0.646240 17.894302 0.000336
0.961589 17.894302 0.000344
1.276940 17.894302 0.000247
1.592289 17.894302 0.000288
1.907640 17.894302 0.000343
2.222990 17.894302 0.000226
2.538340 17.894302 0.000164
2.853690 17.894302 0.000188
3.169039 17.894302 0.000074
3.484390 17.894302 -0.000014
3.799739 17.894302 -0.000080
4.115090 17.894302 0.000028
4.430439 17.894302 0.000164
4.745790 17.894302 0.000296
5.061140 17.894302 0.000437
5.376490 17.894302 0.000500
5.691840 17.894302 0.000385
6.007189 17.894302 0.000590
6.322540 17.894302 0.000837
6.637889 17.894302 0.000888
6.953240 17.894302 0.001068
7.268589 17.894302 0.001639
7.583940 17.894302 0.002260
7.899290 17.894302 0.005167
8.214640 17.894302 0.008257
8.529989 17.894302 0.012105
8.845339 17.894302 0.013986
9.160688 17.894302 0.020643
9.476040 17.894302 0.024665
9.791389 17.894302 0.041488
10.106739 17.894302 0.040915
10.422089 17.894302 0.020464
10.737438 17.894302 0.024941
11.052790 17.894302 0.060053
11.368139 17.894302 0.088693
11.683489 17.894302 0.095438
11.998838 17.894302 0.091766
12.314190 17.894302 0.058345
12.629539 17.894302 0.027878
12.944889 17.894302 0.012896
13.260239 17.894302 0.046491
13.575588 17.894302 0.049640
13.890940 17.894302 0.020204
14.206289 17.894302 0.041430
14.521639 17.894302 0.121014
14.836988 17.894302 0.057360
15.152340 17.894302 0.074614
15.467690 17.894302 0.079421
15.783039 17.894302 0.000000
16.098389 17.894302 0.000000
16.413738 17.894302 0.000000
16.729090 17.894302 0.000000
17.044439 17.894302 0.000000
17.359789 17.894302 0.000000
17.675138 17.894302 0.000000
17.990490 17.894302 0.000000
18.305840 17.894302 -2.041364
18.621189 17.894302 -1.835906
18.936539 17.894302 0.000000
19.251888 17.894302 0.000000
-7.237510 17.578953 0.000000
-6.922160 17.578953 0.001034
-6.606810 17.578953 0.000593
-6.291460 17.578953 0.000511
-5.976110 17.578953 0.000545
-5.660760 17.578953 0.000694
-5.345410 17.578953 0.000681
-5.030060 17.578953 0.000538
-4.714710 17.578953 0.000581
-4.399360 17.578953 0.000713
-4.084010 17.578953 0.000809
-3.768660 17.578953 0.000757
-3.453310 17.578953 0.000688
-3.137960 17.578953 0.000644
-2.822610 17.578953 0.000516
-2.507260 17.578953 0.000448
-2.191910 17.578953 0.000395
-1.876560 17.578953 0.000290
-1.561210 17.578953 0.000189
-1.245860 17.578953 0.000178
-0.930510 17.578953 0.000259
-0.615160 17.578953 0.000297
-0.299810 17.578953 0.000363
0.015540 17.578953 0.000359
0.330890 17.578953 0.000327
0.646240 17.578953 0.000357
0.961589 17.578953 0.000325
1.276940 17.578953 0.000260
1.592289 17.578953 0.000283
1.907640 17.578953 0.000258
2.222990 17.578953 0.000131
2.538340 17.578953 0.000067
2.853690 17.578953 0.000096
3.169039 17.578953 0.000024
3.484390 17.578953 -0.000000
3.799739 17.578953 -0.000006
4.115090 17.578953 0.000110
4.430439 17.578953 0.000225
4.745790 17.578953 0.000360
5.061140 17.578953 0.000304
5.376490 17.578953 0.000276
5.691840 17.578953 0.000147
6.007189 17.578953 0.000204
6.322540 17.578953 0.000417
6.637889 17.578953 0.000853
6.953240 17.578953 0.001612
7.268589 17.578953 0.001655
7.583940 17.578953 0.003457
7.899290 17.578953 0.004814
8.214640 17.578953 0.007213
8.529989 17.578953 0.011516
8.845339 17.578953 0.015672
9.160688 17.578953 0.022214
9.476040 17.578953 0.028726
9.791389 17.578953 0.039202
10.106739 17.578953 0.040238
10.422089 17.578953 0.034369
10.737438 17.578953 0.058124
11.052790 17.578953 0.070211
11.368139 17.578953 0.103779
11.683489 17.578953 0.099384
11.998838 17.578953 0.056566
12.314190 17.578953 0.041086
12.629539 17.578953 0.004706
12.944889 17.578953 0.023810
13.260239 17.578953 0.016852
13.575588 17.578953 0.061367
13.890940 17.578953 0.051075
14.206289 17.578953 0.044754
14.521639 17.578953 0.012667
14.836988 17.578953 0.083665
15.152340 17.578953 0.053029
15.467690 17.578953 0.140816
15.783039 17.578953 0.000000
16.098389 17.578953 0.000000
16.413738 17.578953 0.000000
16.729090 17.578953 0.000000
17.044439 17.578953 0.000000
17.359789 17.578953 0.000000
17.675138 17.578953 0.000000
17.990490 17.578953 0.000000
18.305840 17.578953 -2.117994
18.621189 17.578953 -1.934823
18.936539 17.578953 0.000000
19.251888 17.578953 0.000000
-7.237510 17.263599 0.000000
-6.922160 17.263599 0.001031
-6.606810 17.263599 0.000585
-6.291460 17.263599 0.000563
-5.976110 17.263599 0.000672
-5.660760 17.263599 0.000798
-5.345410 17.263599 0.000766
-5.030060 17.263599 0.000643
-4.714710 17.263599 0.000665
-4.399360 17.263599 0.000729
-4.084010 17.263599 0.000697
-3.768660 17.263599 0.000599
-3.453310 17.263599 0.000536
-3.137960 17.263599 0.000544
-2.822610 17.263599 0.000444
-2.507260 17.263599 0.000397
-2.191910 17.263599 0.000402
-1.876560 17.263599 0.000299
-1.561210 17.263599 0.000223
-1.245860 17.263599 0.000239
-0.930510 17.263599 0.000349
-0.615160 17.263599 0.000403
-0.299810 17.263599 0.000447
0.015540 17.263599 0.000445
0.330890 17.263599 0.000365
0.646240 17.263599 0.000357
0.961589 17.263599 0.000318
1.276940 17.263599 0.000264
1.592289 17.263599 0.000183
1.907640 17.263599 0.000146
2.222990 17.263599 0.000025
2.538340 17.263599 0.000018
2.853690 17.263599 0.000095
3.169039 17.263599 0.000008
3.484390 17.263599 -0.000007
3.799739 17.263599 0.000054
4.115090 17.263599 0.000226
4.430439 17.263599 0.000265
4.745790 17.263599 0.000240
5.061140 17.263599 0.000232
5.376490 17.263599 0.000124
5.691840 17.263599 -0.000006
6.007189 17.263599 -0.000161
6.322540 17.263599 0.000099
6.637889 17.263599 0.000763
6.953240 17.263599 0.001406
7.268589 17.263599 0.001478
7.583940 17.263599 0.002642
7.899290 17.263599 0.004919
8.214640 17.263599 0.005589
8.529989 17.263599 0.012424
8.845339 17.263599 0.020157
9.160688 17.263599 0.025447
9.476040 17.263599 0.036354
9.791389 17.263599 0.045598
10.106739 17.263599 0.041364
10.422089 17.263599 0.049948
10.737438 17.263599 0.066474
11.052790 17.263599 0.093745
11.368139 17.263599 0.093752
11.683489 17.263599 0.104195
11.998838 17.263599 0.082851
12.314190 17.263599 0.064720
12.629539 17.263599 -0.003083
12.944889 17.263599 0.021336
13.260239 17.263599 0.051904
13.575588 17.263599 0.083163
13.890940 17.263599 0.042334
14.206289 17.263599 0.066338
14.521639 17.263599 0.059190
14.836988 17.263599 0.089551
15.152340 17.263599 0.074741
15.467690 17.263599 0.169670
15.783039 17.263599 0.000000
16.098389 17.263599 0.000000
16.413738 17.263599 0.000000
16.729090 17.263599 0.000000
17.044439 17.263599 0.000000
17.359789 17.263599 0.000000
17.675138 17.263599 0.000000
17.990490 17.263599 -0.454567
18.305840 17.263599 -2.358052
18.621189 17.263599 -2.122835
18.936539 17.263599 0.000000
19.251888 17.263599 0.000000
-7.237510 16.948250 0.000000
-6.922160 16.948250 0.001110
-6.606810 16.948250 0.000665
-6.291460 16.948250 0.000697
-5.976110 16.948250 0.000825
-5.660760 16.948250 0.000833
-5.345410 16.948250 0.000781
-5.030060 16.948250 0.000705
-4.714710 16.948250 0.000638
-4.399360 16.948250 0.000597
-4.084010 16.948250 0.000489
-3.768660 16.948250 0.000443
-3.453310 16.948250 0.000463
-3.137960 16.948250 0.000491
-2.822610 16.948250 0.000437
-2.507260 16.948250 0.000390
-2.191910 16.948250 0.000472
-1.876560 16.948250 0.000406
-1.561210 16.948250 0.000344
-1.245860 16.948250 0.000366
-0.930510 16.948250 0.000498
-0.615160 16.948250 0.000514
-0.299810 16.948250 0.000503
0.015540 16.948250 0.000497
0.330890 16.948250 0.000349
0.646240 16.948250 0.000307
0.961589 16.948250 0.000280
1.276940 16.948250 0.000221
1.592289 16.948250 0.000128
1.907640 16.948250 0.000023
2.222990 16.948250 -0.000040
2.538340 16.948250 0.000052
2.853690 16.948250 0.000137
3.169039 16.948250 -0.000048
3.484390 16.948250 0.000015
3.799739 16.948250 0.000090
4.115090 16.948250 0.000204
4.430439 16.948250 0.000223
4.745790 16.948250 0.000173
5.061140 16.948250 0.000076
5.376490 16.948250 -0.000041
5.691840 16.948250 -0.000148
6.007189 16.948250 -0.000425
6.322540 16.948250 -0.000151
6.637889 16.948250 0.000514
6.953240 16.948250 0.000664
7.268589 16.948250 0.000605
7.583940 16.948250 0.001772
7.899290 16.948250 0.004058
8.214640 16.948250 0.004132
8.529989 16.948250 0.012335
8.845339 16.948250 0.021131
9.160688 16.948250 0.033009
9.476040 16.948250 0.031642
9.791389 16.948250 0.040078
10.106739 16.948250 0.039993
10.422089 16.948250 0.058721
10.737438 16.948250 0.083712
11.052790 16.948250 0.082559
11.368139 16.948250 0.079023
11.683489 16.948250 0.083283
11.998838 16.948250 0.065580
12.314190 16.948250 0.090861
12.629539 16.948250 0.029282
12.944889 16.948250 0.041999
13.260239 16.948250 0.063098
13.575588 16.948250 0.062086
13.890940 16.948250 0.064704
14.206289 16.948250 0.080810
14.521639 16.948250 0.094270
14.836988 16.948250 0.130215
15.152340 16.948250 0.147047
15.467690 16.948250 0.228250
15.783039 16.948250 0.000000
16.098389 16.948250 0.000000
16.413738 16.948250 0.000000
16.729090 16.948250 0.000000
17.044439 16.948250 0.000000
17.359789 16.948250 0.000000
17.675138 16.948250 0.000000
17.990490 16.948250 1.539201
18.305840 16.948250 -2.384457
18.621189 16.948250 -2.538529
18.936539 16.948250 0.000000
19.251888 16.948250 0.000000
-7.237510 16.632900 0.000000
-6.922160 16.632900 0.001152
-6.606810 16.632900 0.000761
-6.291460 16.632900 0.000819
-5.976110 16.632900 0.000886
-5.660760 16.632900 0.000748
-5.345410 16.632900 0.000665
-5.030060 16.632900 0.000618
-4.714710 16.632900 0.000502
-4.399360 16.632900 0.000434
-4.084010 16.632900 0.000353
-3.768660 16.632900 0.000348
-3.453310 16.632900 0.000445
-3.137960 16.632900 0.000505
-2.822610 16.632900 0.000489
-2.507260 16.632900 0.000452
-2.191910 16.632900 0.000529
-1.876560 16.632900 0.000526
-1.561210 16.632900 0.000452
-1.245860 16.632900 0.000500
-0.930510 16.632900 0.000596
-0.615160 16.632900 0.000578
-0.299810 16.632900 0.000529
0.015540 16.632900 0.000495
0.330890 16.632900 0.000316
0.646240 16.632900 0.000243
0.961589 16.632900 0.000178
1.276940 16.632900 0.000172
1.592289 16.632900 0.000117
1.907640 16.632900 0.000052
2.222990 16.632900 -0.000005
2.538340 16.632900 0.000095
2.853690 16.632900 0.000156
3.169039 16.632900 0.000017
3.484390 16.632900 0.000047
3.799739 16.632900 0.000136
4.115090 16.632900 0.000150
4.430439 16.632900 0.000032
4.745790 16.632900 0.000030
5.061140 16.632900 0.000031
5.376490 16.632900 0.000014
5.691840 16.632900 -0.000053
6.007189 16.632900 -0.000346
6.322540 16.632900 -0.000190
6.637889 16.632900 0.000185
6.953240 16.632900 0.000149
7.268589 16.632900 0.000069
7.583940 16.632900 0.001503
7.899290 16.632900 0.003179
8.214640 16.632900 0.004562
8.529989 16.632900 0.008211
8.845339 16.632900 0.021004
9.160688 16.632900 0.033742
9.476040 16.632900 0.032261
9.791389 16.632900 0.033893
10.106739 16.632900 0.031625
10.422089 16.632900 0.055294
10.737438 16.632900 0.073799
11.052790 16.632900 0.069827
11.368139 16.632900 0.070250
11.683489 16.632900 0.067638
11.998838 16.632900 0.053522
12.314190 16.632900 0.052113
12.629539 16.632900 0.059218
12.944889 16.632900 0.049029
13.260239 16.632900 0.023861
13.575588 16.632900 0.016080
13.890940 16.632900 0.029824
14.206289 16.632900 0.072120
14.521639 16.632900 0.114268
14.836988 16.632900 0.116355
15.152340 16.632900 0.105928
15.467690 16.632900 0.196355
15.783039 16.632900 0.000000
16.098389 16.632900 0.000000
16.413738 16.632900 0.000000
16.729090 16.632900 0.000000
17.044439 16.632900 0.000000
17.359789 16.632900 0.000000
17.675138 16.632900 0.000000
17.990490 16.632900 -0.728119
18.305840 16.632900 -2.743637
18.621189 16.632900 -2.601206
18.936539 16.632900 0.000000
19.251888 16.632900 0.000000
-7.237510 16.317551 0.000000
-6.922160 16.317551 0.001175
-6.606810 16.317551 0.000837
-6.291460 16.317551 0.000831
-5.976110 16.317551 0.000827
-5.660760 16.317551 0.000641
-5.345410 16.317551 0.000538
-5.030060 16.317551 0.000526
-4.714710 16.317551 0.000470
-4.399360 16.317551 0.000411
-4.084010 16.317551 0.000378
-3.768660 16.317551 0.000404
-3.453310 16.317551 0.000508
-3.137960 16.317551 0.000525
-2.822610 16.317551 0.000547
-2.507260 16.317551 0.000546
-2.191910 16.317551 0.000558
-1.876560 16.317551 0.000506
-1.561210 16.317551 0.000500
-1.245860 16.317551 0.000504
-0.930510 16.317551 0.000548
-0.615160 16.317551 0.000537
-0.299810 16.317551 0.000494
0.015540 16.317551 0.000433
0.330890 16.317551 0.000246
0.646240 16.317551 0.000201
0.961589 16.317551 0.000119
1.276940 16.317551 0.000128
1.592289 16.317551 0.000193
1.907640 16.317551 0.000188
2.222990 16.317551 0.000089
2.538340 16.317551 0.000127
2.853690 16.317551 0.000106
3.169039 16.317551 0.000076
3.484390 16.317551 0.000091
3.799739 16.317551 0.000129
4.115090 16.317551 0.000070
4.430439 16.317551 -0.000099
4.745790 16.317551 -0.000157
5.061140 16.317551 0.000016
5.376490 16.317551 0.000187
5.691840 16.317551 0.000003
6.007189 16.317551 -0.000167
6.322540 16.317551 -0.000085
6.637889 16.317551 0.000007
6.953240 16.317551 0.000096
7.268589 16.317551 0.000139
7.583940 16.317551 0.001916
7.899290 16.317551 0.004035
8.214640 16.317551 0.005315
8.529989 16.317551 0.011162
8.845339 16.317551 0.020484
9.160688 16.317551 0.032452
9.476040 16.317551 0.030240
9.791389 16.317551 0.026927
10.106739 16.317551 0.029665
10.422089 16.317551 0.045085
10.737438 16.317551 0.060781
11.052790 16.317551 0.063138
11.368139 16.317551 0.071602
11.683489 16.317551 0.075756
11.998838 16.317551 0.065930
12.314190 16.317551 0.057703
12.629539 16.317551 0.052686
12.944889 16.317551 0.024620
13.260239 16.317551 0.015156
13.575588 16.317551 -0.013732
13.890940 16.317551 0.074916
14.206289 16.317551 0.046207
14.521639 16.317551 0.061736
14.836988 16.317551 0.105479
15.152340 16.317551 0.113572
15.467690 16.317551 0.154595
15.783039 16.317551 0.000000
16.098389 16.317551 0.000000
16.413738 16.317551 0.000000
16.729090 16.317551 0.000000
17.044439 16.317551 0.000000
17.359789 16.317551 0.000000
17.675138 16.317551 0.000000
17.990490 16.317551 -2.337928
18.305840 16.317551 -2.930310
18.621189 16.317551 -2.754783
18.936539 16.317551 0.000000
19.251888 16.317551 0.000000
-7.237510 16.002201 0.000000
-6.922160 16.002201 0.001224
-6.606810 16.002201 0.000849
-6.291460 16.002201 0.000798
-5.976110 16.002201 0.000714
-5.660760 16.002201 0.000579
-5.345410 16.002201 0.000507
-5.030060 16.002201 0.000538
-4.714710 16.002201 0.000574
-4.399360 16.002201 0.000562
-4.084010 16.002201 0.000551
-3.768660 16.002201 0.000558
-3.453310 16.002201 0.000598
-3.137960 16.002201 0.000596
-2.822610 16.002201 0.000599
-2.507260 16.002201 0.000640
-2.191910 16.002201 0.000547
-1.876560 16.002201 0.000444
-1.561210 16.002201 0.000428
-1.245860 16.002201 0.000438
-0.930510 16.002201 0.000433
-0.615160 16.002201 0.000405
-0.299810 16.002201 0.000400
0.015540 16.002201 0.000299
0.330890 16.002201 0.000219
0.646240 16.002201 0.000243
0.961589 16.002201 0.000214
1.276940 16.002201 0.000193
1.592289 16.002201 0.000320
1.907640 16.002201 0.000369
2.222990 16.002201 0.000202
2.538340 16.002201 0.000157
2.853690 16.002201 0.000125
3.169039 16.002201 0.000077
3.484390 16.002201 0.000084
3.799739 16.002201 0.000049
4.115090 16.002201 -0.000064
4.430439 16.002201 -0.000157
4.745790 16.002201 -0.000264
5.061140 16.002201 -0.000014
5.376490 16.002201 0.000294
5.691840 16.002201 0.000172
6.007189 16.002201 0.000008
6.322540 16.002201 -0.000114
6.637889 16.002201 0.000036
6.953240 16.002201 0.000263
7.268589 16.002201 0.001060
7.583940 16.002201 0.001342
7.899290 16.002201 0.003936
8.214640 16.002201 0.006176
8.529989 16.002201 0.010720
8.845339 16.002201 0.021827
9.160688 16.002201 0.031665
9.476040 16.002201 0.033125
9.791389 16.002201 0.036005
10.106739 16.002201 0.038211
10.422089 16.002201 0.044086
10.737438 16.002201 0.045334
11.052790 16.002201 0.040676
11.368139 16.002201 0.055973
11.683489 16.002201 0.079419
11.998838 16.002201 0.082073
12.314190 16.002201 0.055461
12.629539 16.002201 0.030098
12.944889 16.002201 0.015067
13.260239 16.002201 0.004549
13.575588 16.002201 -0.021640
13.890940 16.002201 0.018390
14.206289 16.002201 0.072687
14.521639 16.002201 0.034651
14.836988 16.002201 0.093912
15.152340 16.002201 0.110448
15.467690 16.002201 0.206224
15.783039 16.002201 0.000000
16.098389 16.002201 0.000000
16.413738 16.002201 0.000000
16.729090 16.002201 0.000000
17.044439 16.002201 0.000000
17.359789 16.002201 0.000000
17.675138 16.002201 0.000000
17.990490 16.002201 -1.875838
18.305840 16.002201 -2.627864
18.621189 16.002201 -2.693965
18.936539 16.002201 0.000000
19.251888 16.002201 0.000000
-7.237510 15.686852 0.000000
-6.922160 15.686852 0.001276
-6.606810 15.686852 0.000849
-6.291460 15.686852 0.000787
-5.976110 15.686852 0.000705
-5.660760 15.686852 0.000571
-5.345410 15.686852 0.000551
-5.030060 15.686852 0.000661
-4.714710 15.686852 0.000786
-4.399360 15.686852 0.000774
-4.084010 15.686852 0.000747
-3.768660 15.686852 0.000729
-3.453310 15.686852 0.000717
-3.137960 15.686852 0.000676
-2.822610 15.686852 0.000628
-2.507260 15.686852 0.000682
-2.191910 15.686852 0.000520
-1.876560 15.686852 0.000395
-1.561210 15.686852 0.000374
-1.245860 15.686852 0.000364
-0.930510 15.686852 0.000359
-0.615160 15.686852 0.000307
-0.299810 15.686852 0.000333
0.015540 15.686852 0.000207
0.330890 15.686852 0.000211
0.646240 15.686852 0.000338
0.961589 15.686852 0.000338
1.276940 15.686852 0.000337
1.592289 15.686852 0.000424
1.907640 15.686852 0.000440
2.222990 15.686852 0.000248
2.538340 15.686852 0.000148
2.853690 15.686852 0.000161
3.169039 15.686852 0.000119
3.484390 15.686852 0.000059
3.799739 15.686852 -0.000003
4.115090 15.686852 -0.000033
4.430439 15.686852 -0.000149
4.745790 15.686852 -0.000186
5.061140 15.686852 0.000028
5.376490 15.686852 0.000312
5.691840 15.686852 0.000336
6.007189 15.686852 0.000188
6.322540 15.686852 0.000067
6.637889 15.686852 0.000169
6.953240 15.686852 0.000366
7.268589 15.686852 0.000459
7.583940 15.686852 0.000932
7.899290 15.686852 0.003859
8.214640 15.686852 0.006110
8.529989 15.686852 0.011663
8.845339 15.686852 0.019206
9.160688 15.686852 0.028730
9.476040 15.686852 0.030970
9.791389 15.686852 0.041833
10.106739 15.686852 0.033433
10.422089 15.686852 0.026577
10.737438 15.686852 0.027831
11.052790 15.686852 0.034485
11.368139 15.686852 0.050879
11.683489 15.686852 0.080484
11.998838 15.686852 0.070459
12.314190 15.686852 0.039112
12.629539 15.686852 0.018171
12.944889 15.686852 0.004395
13.260239 15.686852 -0.004531
13.575588 15.686852 0.013867
13.890940 15.686852 0.096549
14.206289 15.686852 0.014676
14.521639 15.686852 0.081623
14.836988 15.686852 0.090212
15.152340 15.686852 0.088654
15.467690 15.686852 0.226428
15.783039 15.686852 0.000000
16.098389 15.686852 0.000000
16.413738 15.686852 0.000000
16.729090 15.686852 0.000000
17.044439 15.686852 0.000000
17.359789 15.686852 0.000000
17.675138 15.686852 0.000000
17.990490 15.686852 -1.572119
18.305840 15.686852 -2.810071
18.621189 15.686852 -2.567356
18.936539 15.686852 0.000000
19.251888 15.686852 0.000000
-7.237510 15.371502 0.000000
-6.922160 15.371502 0.001259
-6.606810 15.371502 0.000876
-6.291460 15.371502 0.000828
-5.976110 15.371502 0.000757
-5.660760 15.371502 0.000623
-5.345410 15.371502 0.000663
-5.030060 15.371502 0.000858
-4.714710 15.371502 0.001057
-4.399360 15.371502 0.001002
-4.084010 15.371502 0.000897
-3.768660 15.371502 0.000836
-3.453310 15.371502 0.000812
-3.137960 15.371502 0.000756
-2.822610 15.371502 0.000641
-2.507260 15.371502 0.000670
-2.191910 15.371502 0.000531
-1.876560 15.371502 0.000395
-1.561210 15.371502 0.000395
-1.245860 15.371502 0.000351
-0.930510 15.371502 0.000327
-0.615160 15.371502 0.000317
-0.299810 15.371502 0.000365
0.015540 15.371502 0.000261
0.330890 15.371502 0.000311
0.646240 15.371502 0.000435
0.961589 15.371502 0.000446
1.276940 15.371502 0.000458
1.592289 15.371502 0.000458
1.907640 15.371502 0.000382
2.222990 15.371502 0.000257
2.538340 15.371502 0.000154
2.853690 15.371502 0.000170
3.169039 15.371502 0.000183
3.484390 15.371502 0.000082
3.799739 15.371502 -0.000061
4.115090 15.371502 -0.000061
4.430439 15.371502 -0.000102
4.745790 15.371502 -0.000139
5.061140 15.371502 0.000089
5.376490 15.371502 0.000363
5.691840 15.371502 0.000467
6.007189 15.371502 0.000217
6.322540 15.371502 -0.000075
6.637889 15.371502 0.000068
6.953240 15.371502 0.000027
7.268589 15.371502 0.000091
7.583940 15.371502 0.000629
7.899290 15.371502 0.003022
8.214640 15.371502 0.007107
8.529989 15.371502 0.011379
8.845339 15.371502 0.022872
9.160688 15.371502 0.029638
9.476040 15.371502 0.032521
9.791389 15.371502 0.039645
10.106739 15.371502 0.033672
10.422089 15.371502 0.019491
10.737438 15.371502 0.023880
11.052790 15.371502 0.022019
11.368139 15.371502 0.042515
11.683489 15.371502 0.064248
11.998838 15.371502 0.060921
12.314190 15.371502 0.033363
12.629539 15.371502 0.023801
12.944889 15.371502 0.028874
13.260239 15.371502 0.017343
13.575588 15.371502 0.046240
13.890940 15.371502 -0.000727
14.206289 15.371502 0.013982
14.521639 15.371502 0.035946
14.836988 15.371502 0.080233
15.152340 15.371502 0.084954
15.467690 15.371502 0.181406
15.783039 15.371502 0.000000
16.098389 15.371502 0.000000
16.413738 15.371502 0.000000
16.729090 15.371502 0.000000
17.044439 15.371502 0.000000
17.359789 15.371502 0.000000
17.675138 15.371502 0.000000
17.990490 15.371502 -1.604361
18.305840 15.371502 -3.081296
18.621189 15.371502 -2.761814
18.936539 15.371502 0.000000
19.251888 15.371502 0.000000
-7.237510 15.056152 0.000000
-6.922160 15.056152 0.001391
-6.606810 15.056152 0.000945
-6.291460 15.056152 0.000937
-5.976110 15.056152 0.000852
-5.660760 15.056152 0.000751
-5.345410 15.056152 0.000840
-5.030060 15.056152 0.001024
-4.714710 15.056152 0.001126
-4.399360 15.056152 0.001068
-4.084010 15.056152 0.000948
-3.768660 15.056152 0.000886
-3.453310 15.056152 0.000895
-3.137960 15.056152 0.000876
-2.822610 15.056152 0.000672
-2.507260 15.056152 0.000624
-2.191910 15.056152 0.000609
-1.876560 15.056152 0.000554
-1.561210 15.056152 0.000506
-1.245860 15.056152 0.000414
-0.930510 15.056152 0.000386
-0.615160 15.056152 0.000412
-0.299810 15.056152 0.000470
0.015540 15.056152 0.000408
0.330890 15.056152 0.000414
0.646240 15.056152 0.000445
0.961589 15.056152 0.000462
1.276940 15.056152 0.000525
1.592289 15.056152 0.000467
1.907640 15.056152 0.000286
2.222990 15.056152 0.000257
2.538340 15.056152 0.000161
2.853690 15.056152 0.000183
3.169039 15.056152 0.000189
3.484390 15.056152 0.000051
3.799739 15.056152 -0.000086
4.115090 15.056152 -0.000092
4.430439 15.056152 -0.000032
4.745790 15.056152 -0.000065
5.061140 15.056152 0.000192
5.376490 15.056152 0.000462
5.691840 15.056152 0.000433
6.007189 15.056152 0.000292
6.322540 15.056152 -0.000101
6.637889 15.056152 0.000034
6.953240 15.056152 -0.000009
7.268589 15.056152 -0.000087
7.583940 15.056152 0.000507
7.899290 15.056152 0.003514
8.214640 15.056152 0.005769
8.529989 15.056152 0.008757
8.845339 15.056152 0.022931
9.160688 15.056152 0.033714
9.476040 15.056152 0.036383
9.791389 15.056152 0.023453
10.106739 15.056152 0.019202
10.422089 15.056152 0.027651
10.737438 15.056152 0.026638
11.052790 15.056152 0.015585
11.368139 15.056152 0.056758
11.683489 15.056152 0.083685
11.998838 15.056152 0.076651
12.314190 15.056152 0.040976
12.629539 15.056152 0.003460
12.944889 15.056152 0.039895
13.260239 15.056152 0.008054
13.575588 15.056152 0.022508
13.890940 15.056152 -0.032353
14.206289 15.056152 -0.029338
14.521639 15.056152 0.036971
14.836988 15.056152 0.111582
15.152340 15.056152 0.071878
15.467690 15.056152 0.265220
15.783039 15.056152 0.000000
16.098389 15.056152 0.000000
16.413738 15.056152 0.000000
16.729090 15.056152 0.000000
17.044439 15.056152 0.000000
17.359789 15.056152 0.000000
17.675138 15.056152 0.000000
17.990490 15.056152 -1.708043
18.305840 15.056152 -3.240752
18.621189 15.056152 -2.873567
18.936539 15.056152 0.000000
19.251888 15.056152 0.000000
-7.237510 14.740803 0.000000
-6.922160 14.740803 0.001750
-6.606810 14.740803 0.001135
-6.291460 14.740803 0.001086
-5.976110 14.740803 0.000986
-5.660760 14.740803 0.000897
-5.345410 14.740803 0.000988
-5.030060 14.740803 0.001059
-4.714710 14.740803 0.000989
-4.399360 14.740803 0.000986
-4.084010 14.740803 0.000930
-3.768660 14.740803 0.000825
-3.453310 14.740803 0.000944
-3.137960 14.740803 0.000951
-2.822610 14.740803 0.000756
-2.507260 14.740803 0.000706
-2.191910 14.740803 0.000671
-1.876560 14.740803 0.000724
-1.561210 14.740803 0.000657
-1.245860 14.740803 0.000609
-0.930510 14.740803 0.000546
-0.615160 14.740803 0.000526
-0.299810 14.740803 0.000568
0.015540 14.740803 0.000592
0.330890 14.740803 0.000523
0.646240 14.740803 0.000429
0.961589 14.740803 0.000430
1.276940 14.740803 0.000515
1.592289 14.740803 0.000535
1.907640 14.740803 0.000304
2.222990 14.740803 0.000238
2.538340 14.740803 0.000186
2.853690 14.740803 0.000204
3.169039 14.740803 0.000157
3.484390 14.740803 0.000076
3.799739 14.740803 0.000001
4.115090 14.740803 0.000027
4.430439 14.740803 -0.000032
4.745790 14.740803 0.000026
5.061140 14.740803 0.000267
5.376490 14.740803 0.000493
5.691840 14.740803 0.000468
6.007189 14.740803 0.000332
6.322540 14.740803 -0.000092
6.637889 14.740803 -0.000114
6.953240 14.740803 0.000663
7.268589 14.740803 0.000337
7.583940 14.740803 0.000459
7.899290 14.740803 0.005098
8.214640 14.740803 0.007036
8.529989 14.740803 0.007364
8.845339 14.740803 0.022435
9.160688 14.740803 0.036671
9.476040 14.740803 0.031537
9.791389 14.740803 0.029354
10.106739 14.740803 0.022260
10.422089 14.740803 0.025416
10.737438 14.740803 0.035684
11.052790 14.740803 0.032532
11.368139 14.740803 0.065726
11.683489 14.740803 0.090755
11.998838 14.740803 0.077295
12.314190 14.740803 0.081695
12.629539 14.740803 0.032660
12.944889 14.740803 0.027928
13.260239 14.740803 0.009072
13.575588 14.740803 0.011732
13.890940 14.740803 -0.015466
14.206289 14.740803 0.017299
14.521639 14.740803 0.063482
14.836988 14.740803 0.201503
15.152340 14.740803 0.172582
15.467690 14.740803 0.379999
15.783039 14.740803 0.000000
16.098389 14.740803 0.000000
16.413738 14.740803 0.000000
16.729090 14.740803 0.000000
17.044439 14.740803 0.000000
17.359789 14.740803 0.000000
17.675138 14.740803 0.000000
17.990490 14.740803 -1.363793
18.305840 14.740803 -3.430277
18.621189 14.740803 -3.023219
18.936539 14.740803 0.000000
19.251888 14.740803 0.000000
-7.237510 14.425449 0.000000
-6.922160 14.425449 0.002089
-6.606810 14.425449 0.001347
-6.291460 14.425449 0.001200
-5.976110 14.425449 0.001045
-5.660760 14.425449 0.001007
-5.345410 14.425449 0.001022
-5.030060 14.425449 0.000976
-4.714710 14.425449 0.000899
-4.399360 14.425449 0.000935
-4.084010 14.425449 0.000866
-3.768660 14.425449 0.000841
-3.453310 14.425449 0.000945
-3.137960 14.425449 0.000951
-2.822610 14.425449 0.000852
-2.507260 14.425449 0.000886
-2.191910 14.425449 0.000822
-1.876560 14.425449 0.000874
-1.561210 14.425449 0.000806
-1.245860 14.425449 0.000771
-0.930510 14.425449 0.000704
-0.615160 14.425449 0.000629
-0.299810 14.425449 0.000703
0.015540 14.425449 0.000723
0.330890 14.425449 0.000662
0.646240 14.425449 0.000436
0.961589 14.425449 0.000395
1.276940 14.425449 0.000613
1.592289 14.425449 0.000688
1.907640 14.425449 0.000457
2.222990 14.425449 0.000265
2.538340 14.425449 0.000163
2.853690 14.425449 0.000198
3.169039 14.425449 0.000153
3.484390 14.425449 0.000141
3.799739 14.425449 0.000166
4.115090 14.425449 0.000176
4.430439 14.425449 0.000086
4.745790 14.425449 0.000195
5.061140 14.425449 0.000402
5.376490 14.425449 0.000496
5.691840 14.425449 0.000483
6.007189 14.425449 0.000313
6.322540 14.425449 0.000046
6.637889 14.425449 0.000155
6.953240 14.425449 0.001189
7.268589 14.425449 0.001881
7.583940 14.425449 0.001798
7.899290 14.425449 0.005588
8.214640 14.425449 0.008685
8.529989 14.425449 0.008791
8.845339 14.425449 0.019094
9.160688 14.425449 0.026917
9.476040 14.425449 0.027799
9.791389 14.425449 0.025210
10.106739 14.425449 0.032046
10.422089 14.425449 0.027231
10.737438 14.425449 0.016521
11.052790 14.425449 0.041223
11.368139 14.425449 0.066409
11.683489 14.425449 0.066217
11.998838 14.425449 0.058409
12.314190 14.425449 0.065289
12.629539 14.425449 0.063212
12.944889 14.425449 -0.011120
13.260239 14.425449 0.010128
13.575588 14.425449 0.004004
13.890940 14.425449 0.024199
14.206289 14.425449 0.031733
14.521639 14.425449 0.103923
14.836988 14.425449 0.173019
15.152340 14.425449 0.193181
15.467690 14.425449 0.408214
15.783039 14.425449 0.000000
16.098389 14.425449 0.000000
16.413738 14.425449 0.000000
16.729090 14.425449 0.000000
17.044439 14.425449 0.000000
17.359789 14.425449 0.000000
17.675138 14.425449 0.000000
17.990490 14.425449 -1.353345
18.305840 14.425449 -3.361248
18.621189 14.425449 -3.072425
18.936539 14.425449 0.000000
19.251888 14.425449 0.000000
-7.237510 14.110100 0.000000
-6.922160 14.110100 0.002164
-6.606810 14.110100 0.001413
-6.291460 14.110100 0.001147
-5.976110 14.110100 0.001072
-5.660760 14.110100 0.001005
-5.345410 14.110100 0.000997
-5.030060 14.110100 0.000888
-4.714710 14.110100 0.000823
-4.399360 14.110100 0.000932
-4.084010 14.110100 0.000911
-3.768660 14.110100 0.000951
-3.453310 14.110100 0.001004
-3.137960 14.110100 0.000918
-2.822610 14.110100 0.000967
-2.507260 14.110100 0.001058
-2.191910 14.110100 0.000988
-1.876560 14.110100 0.000956
-1.561210 14.110100 0.000875
-1.245860 14.110100 0.000845
-0.930510 14.110100 0.000806
-0.615160 14.110100 0.000731
-0.299810 14.110100 0.000740
0.015540 14.110100 0.000792
0.330890 14.110100 0.000654
0.646240 14.110100 0.000473
0.961589 14.110100 0.000484
1.276940 14.110100 0.000733
1.592289 14.110100 0.000810
1.907640 14.110100 0.000671
2.222990 14.110100 0.000344
2.538340 14.110100 0.000190
2.853690 14.110100 0.000290
3.169039 14.110100 0.000331
3.484390 14.110100 0.000322
3.799739 14.110100 0.000330
4.115090 14.110100 0.000337
4.430439 14.110100 0.000321
4.745790 14.110100 0.000317
5.061140 14.110100 0.000343
5.376490 14.110100 0.000338
5.691840 14.110100 0.000421
6.007189 14.110100 0.000184
6.322540 14.110100 0.000133
6.637889 14.110100 0.000325
6.953240 14.110100 0.001489
7.268589 14.110100 0.002654
7.583940 14.110100 0.002328
7.899290 14.110100 0.005416
8.214640 14.110100 0.008975
8.529989 14.110100 0.012838
8.845339 14.110100 0.018290
9.160688 14.110100 0.029866
9.476040 14.110100 0.030067
9.791389 14.110100 0.028566
10.106739 14.110100 0.029586
10.422089 14.110100 0.027824
10.737438 14.110100 0.026845
11.052790 14.110100 0.045357
11.368139 14.110100 0.066186
11.683489 14.110100 0.058548
11.998838 14.110100 0.050370
12.314190 14.110100 0.057870
12.629539 14.110100 0.057204
12.944889 14.110100 0.002312
13.260239 14.110100 0.021493
13.575588 14.110100 0.040375
13.890940 14.110100 0.022365
14.206289 14.110100 0.081608
14.521639 14.110100 0.112380
14.836988 14.110100 0.170790
15.152340 14.110100 0.207848
15.467690 14.110100 0.411426
15.783039 14.110100 0.000000
16.098389 14.110100 0.000000
16.413738 14.110100 0.000000
16.729090 14.110100 0.000000
17.044439 14.110100 0.000000
17.359789 14.110100 0.000000
17.675138 14.110100 0.000000
17.990490 14.110100 -1.036935
18.305840 14.110100 -2.991665
18.621189 14.110100 -2.621455
18.936539 14.110100 0.000000
19.251888 14.110100 0.000000
-7.237510 13.794750 0.000000
-6.922160 13.794750 0.001958
-6.606810 13.794750 0.001228
-6.291460 13.794750 0.001110
-5.976110 13.794750 0.001096
-5.660760 13.794750 0.000989
-5.345410 13.794750 0.000939
-5.030060 13.794750 0.000835
-4.714710 13.794750 0.000831
-4.399360 13.794750 0.000975
-4.084010 13.794750 0.001022
-3.768660 13.794750 0.001120
-3.453310 13.794750 0.001113
-3.137960 13.794750 0.000965
-2.822610 13.794750 0.001042
-2.507260 13.794750 0.001156
-2.191910 13.794750 0.001141
-1.876560 13.794750 0.001059
-1.561210 13.794750 0.000960
-1.245860 13.794750 0.000877
-0.930510 13.794750 0.000949
-0.615160 13.794750 0.000893
-0.299810 13.794750 0.000794
0.015540 13.794750 0.000827
0.330890 13.794750 0.000696
0.646240 13.794750 0.000600
0.961589 13.794750 0.000625
1.276940 13.794750 0.000833
1.592289 13.794750 0.000815
1.907640 13.794750 0.000742
2.222990 13.794750 0.000492
2.538340 13.794750 0.000359
2.853690 13.794750 0.000482
3.169039 13.794750 0.000533
3.484390 13.794750 0.000510
3.799739 13.794750 0.000405
4.115090 13.794750 0.000425
4.430439 13.794750 0.000498
4.745790 13.794750 0.000468
5.061140 13.794750 0.000352
5.376490 13.794750 0.000162
5.691840 13.794750 0.000311
6.007189 13.794750 0.000213
6.322540 13.794750 0.000473
6.637889 13.794750 0.000755
6.953240 13.794750 0.001109
7.268589 13.794750 0.002178
7.583940 13.794750 0.002887
7.899290 13.794750 0.004824
8.214640 13.794750 0.008714
8.529989 13.794750 0.012676
8.845339 13.794750 0.019895
9.160688 13.794750 0.027954
9.476040 13.794750 0.035984
9.791389 13.794750 0.035544
10.106739 13.794750 0.031952
10.422089 13.794750 0.032162
10.737438 13.794750 0.033835
11.052790 13.794750 0.044312
11.368139 13.794750 0.047849
11.683489 13.794750 0.068291
11.998838 13.794750 0.052273
12.314190 13.794750 0.049376
12.629539 13.794750 0.071154
12.944889 13.794750 0.042626
13.260239 13.794750 0.052152
13.575588 13.794750 0.034874
13.890940 13.794750 0.098706
14.206289 13.794750 0.101314
14.521639 13.794750 0.150099
14.836988 13.794750 0.127806
15.152340 13.794750 0.167130
15.467690 13.794750 0.342436
15.783039 13.794750 0.000000
16.098389 13.794750 0.000000
16.413738 13.794750 0.000000
16.729090 13.794750 0.000000
17.044439 13.794750 0.000000
17.359789 13.794750 0.000000
17.675138 13.794750 0.000000
17.990490 13.794750 -0.693511
18.305840 13.794750 -2.608222
18.621189 13.794750 -2.690787
18.936539 13.794750 0.000000
19.251888 13.794750 0.000000
-7.237510 13.479401 0.000000
-6.922160 13.479401 0.001765
-6.606810 13.479401 0.001136
-6.291460 13.479401 0.001220
-5.976110 13.479401 0.001265
-5.660760 13.479401 0.001072
-5.345410 13.479401 0.001086
-5.030060 13.479401 0.000991
-4.714710 13.479401 0.001001
-4.399360 13.479401 0.001085
-4.084010 13.479401 0.001198
-3.768660 13.479401 0.001296
-3.453310 13.479401 0.001242
-3.137960 13.479401 0.001124
-2.822610 13.479401 0.001113
-2.507260 13.479401 0.001180
-2.191910 13.479401 0.001196
-1.876560 13.479401 0.001065
-1.561210 13.479401 0.000974
-1.245860 13.479401 0.000980
-0.930510 13.479401 0.001084
-0.615160 13.479401 0.000981
-0.299810 13.479401 0.000966
0.015540 13.479401 0.000997
0.330890 13.479401 0.000884
0.646240 13.479401 0.000844
0.961589 13.479401 0.000847
1.276940 13.479401 0.000900
1.592289 13.479401 0.000808
1.907640 13.479401 0.000753
2.222990 13.479401 0.000658
2.538340 13.479401 0.000599
2.853690 13.479401 0.000641
3.169039 13.479401 0.000636
3.484390 13.479401 0.000619
3.799739 13.479401 0.000448
4.115090 13.479401 0.000448
4.430439 13.479401 0.000620
4.745790 13.479401 0.000600
5.061140 13.479401 0.000434
5.376490 13.479401 0.000220
5.691840 13.479401 0.000289
6.007189 13.479401 0.000498
6.322540 13.479401 0.000591
6.637889 13.479401 0.000799
6.953240 13.479401 0.000924
7.268589 13.479401 0.001106
7.583940 13.479401 0.001483
7.899290 13.479401 0.004112
8.214640 13.479401 0.005827
8.529989 13.479401 0.013134
8.845339 13.479401 0.017499
9.160688 13.479401 0.030840
9.476040 13.479401 0.031883
9.791389 13.479401 0.038576
10.106739 13.479401 0.043702
10.422089 13.479401 0.024880
10.737438 13.479401 0.039634
11.052790 13.479401 0.055906
11.368139 13.479401 0.075374
11.683489 13.479401 0.068043
11.998838 13.479401 0.069397
12.314190 13.479401 0.065393
12.629539 13.479401 0.040140
12.944889 13.479401 0.058690
13.260239 13.479401 0.024075
13.575588 13.479401 0.016695
13.890940 13.479401 0.090268
14.206289 13.479401 0.122225
14.521639 13.479401 0.112380
14.836988 13.479401 0.165562
15.152340 13.479401 0.203101
15.467690 13.479401 0.311761
15.783039 13.479401 0.000000
16.098389 13.479401 0.000000
16.413738 13.479401 0.000000
16.729090 13.479401 0.000000
17.044439 13.479401 0.000000
17.359789 13.479401 0.000000
17.675138 13.479401 0.000000
17.990490 13.479401 -0.707326
18.305840 13.479401 -2.148515
18.621189 13.479401 -2.430259
18.936539 13.479401 0.000000
19.251888 13.479401 0.000000
-7.237510 13.164051 0.000000
-6.922160 13.164051 0.001864
-6.606810 13.164051 0.001311
-6.291460 13.164051 0.001431
-5.976110 13.164051 0.001461
-5.660760 13.164051 0.001194
-5.345410 13.164051 0.001241
-5.030060 13.164051 0.001190
-4.714710 13.164051 0.001237
-4.399360 13.164051 0.001247
-4.084010 13.164051 0.001275
-3.768660 13.164051 0.001355
-3.453310 13.164051 0.001335
-3.137960 13.164051 0.001210
-2.822610 13.164051 0.001142
-2.507260 13.164051 0.001215
-2.191910 13.164051 0.001210
-1.876560 13.164051 0.001083
-1.561210 13.164051 0.001022
-1.245860 13.164051 0.001071
-0.930510 13.164051 0.001200
-0.615160 13.164051 0.001098
-0.299810 13.164051 0.001105
0.015540 13.164051 0.001215
0.330890 13.164051 0.001178
0.646240 13.164051 0.001120
0.961589 13.164051 0.001059
1.276940 13.164051 0.000955
1.592289 13.164051 0.000802
1.907640 13.164051 0.000770
2.222990 13.164051 0.000791
2.538340 13.164051 0.000730
2.853690 13.164051 0.000680
3.169039 13.164051 0.000630
3.484390 13.164051 0.000651
3.799739 13.164051 0.000624
4.115090 13.164051 0.000615
4.430439 13.164051 0.000710
4.745790 13.164051 0.000665
5.061140 13.164051 0.000547
5.376490 13.164051 0.000419
5.691840 13.164051 0.000449
6.007189 13.164051 0.000608
6.322540 13.164051 0.000498
6.637889 13.164051 0.000550
6.953240 13.164051 0.000732
7.268589 13.164051 0.000490
7.583940 13.164051 0.000839
7.899290 13.164051 0.003509
8.214640 13.164051 0.009383
8.529989 13.164051 0.012117
8.845339 13.164051 0.018516
9.160688 13.164051 0.027014
9.476040 13.164051 0.027875
9.791389 13.164051 0.038808
10.106739 13.164051 0.046266
10.422089 13.164051 0.039266
10.737438 13.164051 0.042470
11.052790 13.164051 0.070319
11.368139 13.164051 0.083766
11.683489 13.164051 0.090974
11.998838 13.164051 0.071953
12.314190 13.164051 0.037765
12.629539 13.164051 0.003185
12.944889 13.164051 0.032794
13.260239 13.164051 -0.010904
13.575588 13.164051 0.052337
13.890940 13.164051 0.031792
14.206289 13.164051 0.084981
14.521639 13.164051 0.077478
14.836988 13.164051 0.151323
15.152340 13.164051 0.158950
15.467690 13.164051 0.414081
15.783039 13.164051 0.000000
16.098389 13.164051 0.000000
16.413738 13.164051 0.000000
16.729090 13.164051 0.000000
17.044439 13.164051 0.000000
17.359789 13.164051 0.000000
17.675138 13.164051 0.000000
17.990490 13.164051 -0.527779
18.305840 13.164051 -1.944625
18.621189 13.164051 -2.220315
18.936539 13.164051 0.000000
19.251888 13.164051 0.000000
-7.237510 12.848701 0.000000
-6.922160 12.848701 0.002214
-6.606810 12.848701 0.001499
-6.291460 12.848701 0.001553
-5.976110 12.848701 0.001536
-5.660760 12.848701 0.001343
-5.345410 12.848701 0.001347
-5.030060 12.848701 0.001337
-4.714710 12.848701 0.001398
-4.399360 12.848701 0.001291
-4.084010 12.848701 0.001221
-3.768660 12.848701 0.001288
-3.453310 12.848701 0.001287
-3.137960 12.848701 0.001257
-2.822610 12.848701 0.001189
-2.507260 12.848701 0.001279
-2.191910 12.848701 0.001216
-1.876560 12.848701 0.001084
-1.561210 12.848701 0.001051
-1.245860 12.848701 0.001128
-0.930510 12.848701 0.001333
-0.615160 12.848701 0.001258
-0.299810 12.848701 0.001256
0.015540 12.848701 0.001340
0.330890 12.848701 0.001327
0.646240 12.848701 0.001279
0.961589 12.848701 0.001165
1.276940 12.848701 0.001045
1.592289 12.848701 0.000832
1.907640 12.848701 0.000818
2.222990 12.848701 0.000908
2.538340 12.848701 0.000791
2.853690 12.848701 0.000772
3.169039 12.848701 0.000722
3.484390 12.848701 0.000843
3.799739 12.848701 0.000895
4.115090 12.848701 0.000828
4.430439 12.848701 0.000820
4.745790 12.848701 0.000691
5.061140 12.848701 0.000610
5.376490 12.848701 0.000560
5.691840 12.848701 0.000451
6.007189 12.848701 0.000328
6.322540 12.848701 0.000311
6.637889 12.848701 0.000196
6.953240 12.848701 0.000314
7.268589 12.848701 -0.000245
7.583940 12.848701 0.000020
7.899290 12.848701 0.003346
8.214640 12.848701 0.010812
8.529989 12.848701 0.016905
8.845339 12.848701 0.020612
9.160688 12.848701 0.023032
9.476040 12.848701 0.024089
9.791389 12.848701 0.040368
10.106739 12.848701 0.046532
10.422089 12.848701 0.041286
10.737438 12.848701 0.048669
11.052790 12.848701 0.078217
11.368139 12.848701 0.083186
11.683489 12.848701 0.095758
11.998838 12.848701 0.100646
12.314190 12.848701 0.057690
12.629539 12.848701 0.050839
12.944889 12.848701 0.069748
13.260239 12.848701 0.016051
13.575588 12.848701 0.040938
13.890940 12.848701 0.033065
14.206289 12.848701 0.051683
14.521639 12.848701 0.048927
14.836988 12.848701 0.123927
15.152340 12.848701 0.094123
15.467690 12.848701 0.307767
15.783039 12.848701 0.000000
16.098389 12.848701 0.000000
16.413738 12.848701 0.000000
16.729090 12.848701 0.000000
17.044439 12.848701 0.000000
17.359789 12.848701 0.000000
17.675138 12.848701 0.000000
17.990490 12.848701 -0.166584
18.305840 12.848701 -1.139699
18.621189 12.848701 -1.460973
18.936539 12.848701 0.000000
19.251888 12.848701 0.000000
-7.237510 12.533352 0.000000
-6.922160 12.533352 0.002431
-6.606810 12.533352 0.001507
-6.291460 12.533352 0.001463
-5.976110 12.533352 0.001409
-5.660760 12.533352 0.001352
-5.345410 12.533352 0.001393
-5.030060 12.533352 0.001339
-4.714710 12.533352 0.001376
-4.399360 12.533352 0.001275
-4.084010 12.533352 0.001142
-3.768660 12.533352 0.001192
-3.453310 12.533352 0.001241
-3.137960 12.533352 0.001298
-2.822610 12.533352 0.001291
-2.507260 12.533352 0.001330
-2.191910 12.533352 0.001218
-1.876560 12.533352 0.001150
-1.561210 12.533352 0.001193
-1.245860 12.533352 0.001239
-0.930510 12.533352 0.001468
-0.615160 12.533352 0.001401
-0.299810 12.533352 0.001361
0.015540 12.533352 0.001376
0.330890 12.533352 0.001284
0.646240 12.533352 0.001224
0.961589 12.533352 0.001175
1.276940 12.533352 0.001160
1.592289 12.533352 0.000949
1.907640 12.533352 0.000964
2.222990 12.533352 0.001052
2.538340 12.533352 0.000916
2.853690 12.533352 0.000917
3.169039 12.533352 0.000952
3.484390 12.533352 0.001094
3.799739 12.533352 0.001222
4.115090 12.533352 0.001048
4.430439 12.533352 0.000946
4.745790 12.533352 0.000722
5.061140 12.533352 0.000630
5.376490 12.533352 0.000530
5.691840 12.533352 0.000236
6.007189 12.533352 -0.000099
6.322540 12.533352 0.000118
6.637889 12.533352 0.000494
6.953240 12.533352 0.000930
7.268589 12.533352 0.000639
7.583940 12.533352 0.000729
7.899290 12.533352 0.002891
8.214640 12.533352 0.008938
8.529989 12.533352 0.018128
8.845339 12.533352 0.021677
9.160688 12.533352 0.021816
9.476040 12.533352 0.025154
9.791389 12.533352 0.036568
10.106739 12.533352 0.027442
10.422089 12.533352 0.026276
10.737438 12.533352 0.047919
11.052790 12.533352 0.074960
11.368139 12.533352 0.089063
11.683489 12.533352 0.090508
11.998838 12.533352 0.071843
12.314190 12.533352 0.070232
12.629539 12.533352 0.049012
12.944889 12.533352 0.030708
13.260239 12.533352 0.054082
13.575588 12.533352 0.043719
13.890940 12.533352 0.057310
14.206289 12.533352 0.040256
14.521639 12.533352 0.062026
14.836988 12.533352 0.074079
15.152340 12.533352 -0.023519
15.467690 12.533352 0.273422
15.783039 12.533352 0.000000
16.098389 12.533352 0.000000
16.413738 12.533352 0.000000
16.729090 12.533352 0.000000
17.044439 12.533352 0.000000
17.359789 12.533352 0.000000
17.675138 12.533352 0.000000
17.990490 12.533352 -0.068863
18.305840 12.533352 -0.772626
18.621189 12.533352 -1.136011
18.936539 12.533352 0.000000
19.251888 12.533352 0.000000
-7.237510 12.218002 0.000000
-6.922160 12.218002 0.002405
-6.606810 12.218002 0.001450
-6.291460 12.218002 0.001348
-5.976110 12.218002 0.001252
-5.660760 12.218002 0.001336
-5.345410 12.218002 0.001455
-5.030060 12.218002 0.001338
-4.714710 12.218002 0.001272
-4.399360 12.218002 0.001226
-4.084010 12.218002 0.001152
-3.768660 12.218002 0.001216
-3.453310 12.218002 0.001303
-3.137960 12.218002 0.001371
-2.822610 12.218002 0.001385
-2.507260 12.218002 0.001384
-2.191910 12.218002 0.001259
-1.876560 12.218002 0.001251
-1.561210 12.218002 0.001363
-1.245860 12.218002 0.001388
-0.930510 12.218002 0.001459
-0.615160 12.218002 0.001408
-0.299810 12.218002 0.001403
0.015540 12.218002 0.001313
0.330890 12.218002 0.001087
0.646240 12.218002 0.000999
0.961589 12.218002 0.001137
1.276940 12.218002 0.001236
1.592289 12.218002 0.001072
1.907640 12.218002 0.001093
2.222990 12.218002 0.001184
2.538340 12.218002 0.001130
2.853690 12.218002 0.001102
3.169039 12.218002 0.001134
3.484390 12.218002 0.001229
3.799739 12.218002 0.001371
4.115090 12.218002 0.001241
4.430439 12.218002 0.001031
4.745790 12.218002 0.000799
5.061140 12.218002 0.000645
5.376490 12.218002 0.000425
5.691840 12.218002 0.000067
6.007189 12.218002 -0.000365
6.322540 12.218002 0.000057
6.637889 12.218002 0.000755
6.953240 12.218002 0.001419
7.268589 12.218002 0.001269
7.583940 12.218002 0.002358
7.899290 12.218002 0.004027
8.214640 12.218002 0.010830
8.529989 12.218002 0.017680
8.845339 12.218002 0.022927
9.160688 12.218002 0.024601
9.476040 12.218002 0.033260
9.791389 12.218002 0.027923
10.106739 12.218002 0.024521
10.422089 12.218002 0.034023
10.737438 12.218002 0.049639
11.052790 12.218002 0.082494
11.368139 12.218002 0.075110
11.683489 12.218002 0.103351
11.998838 12.218002 0.054296
12.314190 12.218002 0.064707
12.629539 12.218002 0.034187
12.944889 12.218002 0.014792
13.260239 12.218002 0.031317
13.575588 12.218002 0.015743
13.890940 12.218002 0.061862
14.206289 12.218002 0.057216
14.521639 12.218002 -0.008235
14.836988 12.218002 0.019197
15.152340 12.218002 -0.000687
15.467690 12.218002 0.261869
15.783039 12.218002 0.000000
16.098389 12.218002 0.000000
16.413738 12.218002 0.000000
16.729090 12.218002 0.000000
17.044439 12.218002 0.000000
17.359789 12.218002 0.000000
17.675138 12.218002 0.000000
17.990490 12.218002 -0.013365
18.305840 12.218002 -0.610393
18.621189 12.218002 -0.726971
18.936539 12.218002 0.000000
19.251888 12.218002 0.000000
-7.237510 11.902653 0.000000
-6.922160 11.902653 0.002234
-6.606810 11.902653 0.001314
-6.291460 11.902653 0.001296
-5.976110 11.902653 0.001213
-5.660760 11.902653 0.001378
-5.345410 11.902653 0.001507
-5.030060 11.902653 0.001344
-4.714710 11.902653 0.001217
-4.399360 11.902653 0.001279
-4.084010 11.902653 0.001324
-3.768660 11.902653 0.001357
-3.453310 11.902653 0.001361
-3.137960 11.902653 0.001449
-2.822610 11.902653 0.001434
-2.507260 11.902653 0.001438
-2.191910 11.902653 0.001285
-1.876560 11.902653 0.001306
-1.561210 11.902653 0.001454
-1.245860 11.902653 0.001420
-0.930510 11.902653 0.001336
-0.615160 11.902653 0.001223
-0.299810 11.902653 0.001308
0.015540 11.902653 0.001217
0.330890 11.902653 0.000892
0.646240 11.902653 0.000828
0.961589 11.902653 0.001084
1.276940 11.902653 0.001267
1.592289 11.902653 0.001196
1.907640 11.902653 0.001231
2.222990 11.902653 0.001309
2.538340 11.902653 0.001303
2.853690 11.902653 0.001188
3.169039 11.902653 0.001097
3.484390 11.902653 0.001133
3.799739 11.902653 0.001333
4.115090 11.902653 0.001298
4.430439 11.902653 0.001049
4.745790 11.902653 0.000884
5.061140 11.902653 0.000730
5.376490 11.902653 0.000404
5.691840 11.902653 0.000202
6.007189 11.902653 -0.000099
6.322540 11.902653 0.000238
6.637889 11.902653 0.000719
6.953240 11.902653 0.001074
7.268589 11.902653 0.001147
7.583940 11.902653 0.002577
7.899290 11.902653 0.003268
8.214640 11.902653 0.010043
8.529989 11.902653 0.019667
8.845339 11.902653 0.027803
9.160688 11.902653 0.028115
9.476040 11.902653 0.029177
9.791389 11.902653 0.038816
10.106739 11.902653 0.030946
10.422089 11.902653 0.036073
10.737438 11.902653 0.072430
11.052790 11.902653 0.064159
11.368139 11.902653 0.081151
11.683489 11.902653 0.092849
11.998838 11.902653 0.059435
12.314190 11.902653 0.041586
12.629539 11.902653 0.009740
12.944889 11.902653 0.047796
13.260239 11.902653 0.022418
13.575588 11.902653 0.021179
13.890940 11.902653 0.058379
14.206289 11.902653 0.029137
14.521639 11.902653 -0.011729
14.836988 11.902653 -0.026750
15.152340 11.902653 -0.081123
15.467690 11.902653 0.281328
15.783039 11.902653 0.000000
16.098389 11.902653 0.000000
16.413738 11.902653 0.000000
16.729090 11.902653 0.000000
17.044439 11.902653 0.000000
17.359789 11.902653 0.000000
17.675138 11.902653 0.000000
17.990490 11.902653 0.020245
18.305840 11.902653 -0.711305
18.621189 11.902653 -0.619167
18.936539 11.902653 0.000000
19.251888 11.902653 0.000000
-7.237510 11.587299 0.000000
-6.922160 11.587299 0.002197
-6.606810 11.587299 0.001375
-6.291460 11.587299 0.001396
-5.976110 11.587299 0.001322
-5.660760 11.587299 0.001479
-5.345410 11.587299 0.001550
-5.030060 11.587299 0.001466
-4.714710 11.587299 0.001326
-4.399360 11.587299 0.001391
-4.084010 11.587299 0.001475
-3.768660 11.587299 0.001526
-3.453310 11.587299 0.001451
-3.137960 11.587299 0.001495
-2.822610 11.587299 0.001462
-2.507260 11.587299 0.001395
-2.191910 11.587299 0.001277
-1.876560 11.587299 0.001256
-1.561210 11.587299 0.001309
-1.245860 11.587299 0.001287
-0.930510 11.587299 0.001194
-0.615160 11.587299 0.001101
-0.299810 11.587299 0.001198
0.015540 11.587299 0.001085
0.330890 11.587299 0.000858
0.646240 11.587299 0.000800
0.961589 11.587299 0.001060
1.276940 11.587299 0.001222
1.592289 11.587299 0.001208
1.907640 11.587299 0.001271
2.222990 11.587299 0.001349
2.538340 11.587299 0.001282
2.853690 11.587299 0.001084
3.169039 11.587299 0.000929
3.484390 11.587299 0.000909
3.799739 11.587299 0.001106
4.115090 11.587299 0.001169
4.430439 11.587299 0.001005
4.745790 11.587299 0.000987
5.061140 11.587299 0.000968
5.376490 11.587299 0.000673
5.691840 11.587299 0.000587
6.007189 11.587299 0.000357
6.322540 11.587299 0.000069
6.637889 11.587299 0.000451
6.953240 11.587299 0.000602
7.268589 11.587299 -0.000101
7.583940 11.587299 0.001179
7.899290 11.587299 0.003347
8.214640 11.587299 0.009017
8.529989 11.587299 0.017672
8.845339 11.587299 0.024727
9.160688 11.587299 0.029771
9.476040 11.587299 0.027580
9.791389 11.587299 0.037712
10.106739 11.587299 0.040486
10.422089 11.587299 0.055537
10.737438 11.587299 0.076186
11.052790 11.587299 0.068970
11.368139 11.587299 0.106038
11.683489 11.587299 0.086788
11.998838 11.587299 0.077410
12.314190 11.587299 0.049626
12.629539 11.587299 0.027904
12.944889 11.587299 0.052866
13.260239 11.587299 0.048353
13.575588 11.587299 -0.000962
13.890940 11.587299 0.060363
14.206289 11.587299 0.041819
14.521639 11.587299 -0.030395
14.836988 11.587299 -0.056514
15.152340 11.587299 -0.110891
15.467690 11.587299 1.047381
15.783039 11.587299 0.000000
16.098389 11.587299 0.000000
16.413738 11.587299 0.000000
16.729090 11.587299 0.000000
17.044439 11.587299 0.000000
17.359789 11.587299 0.000000
17.675138 11.587299 0.000000
17.990490 11.587299 0.232442
18.305840 11.587299 -0.640516
18.621189 11.587299 -0.633219
18.936539 11.587299 0.000000
19.251888 11.587299 0.000000
-7.237510 11.271950 0.000000
-6.922160 11.271950 0.002281
-6.606810 11.271950 0.001565
-6.291460 11.271950 0.001575
-5.976110 11.271950 0.001510
-5.660760 11.271950 0.001548
-5.345410 11.271950 0.001662
-5.030060 11.271950 0.001594
-4.714710 11.271950 0.001470
-4.399360 11.271950 0.001461
-4.084010 11.271950 0.001492
-3.768660 11.271950 0.001586
-3.453310 11.271950 0.001476
-3.137960 11.271950 0.001379
-2.822610 11.271950 0.001360
-2.507260 11.271950 0.001308
-2.191910 11.271950 0.001210
-1.876560 11.271950 0.001158
-1.561210 11.271950 0.001094
-1.245860 11.271950 0.001123
-0.930510 11.271950 0.001086
-0.615160 11.271950 0.001051
-0.299810 11.271950 0.001150
0.015540 11.271950 0.001035
0.330890 11.271950 0.000947
0.646240 11.271950 0.000910
0.961589 11.271950 0.001068
1.276940 11.271950 0.001179
1.592289 11.271950 0.001139
1.907640 11.271950 0.001158
2.222990 11.271950 0.001246
2.538340 11.271950 0.001098
2.853690 11.271950 0.000880
3.169039 11.271950 0.000753
3.484390 11.271950 0.000723
3.799739 11.271950 0.000933
4.115090 11.271950 0.001002
4.430439 11.271950 0.000945
4.745790 11.271950 0.001140
5.061140 11.271950 0.001199
5.376490 11.271950 0.001005
5.691840 11.271950 0.000975
6.007189 11.271950 0.000539
6.322540 11.271950 -0.000013
6.637889 11.271950 0.000097
6.953240 11.271950 0.000439
7.268589 11.271950 -0.000299
7.583940 11.271950 0.000310
7.899290 11.271950 0.003415
8.214640 11.271950 0.011022
8.529989 11.271950 0.018635
8.845339 11.271950 0.023299
9.160688 11.271950 0.025283
9.476040 11.271950 0.026908
9.791389 11.271950 0.039170
10.106739 11.271950 0.045633
10.422089 11.271950 0.058395
10.737438 11.271950 0.068114
11.052790 11.271950 0.078402
11.368139 11.271950 0.083844
11.683489 11.271950 0.075927
11.998838 11.271950 0.076853
12.314190 11.271950 0.074963
12.629539 11.271950 0.067148
12.944889 11.271950 0.066993
13.260239 11.271950 0.052385
13.575588 11.271950 0.073634
13.890940 11.271950 0.079237
14.206289 11.271950 0.089452
14.521639 11.271950 0.025176
14.836988 11.271950 -0.021088
15.152340 11.271950 -0.016363
15.467690 11.271950 0.000000
15.783039 11.271950 0.000000
16.098389 11.271950 0.000000
16.413738 11.271950 0.000000
16.729090 11.271950 0.000000
17.044439 11.271950 0.000000
17.359789 11.271950 0.000000
17.675138 11.271950 0.000000
17.990490 11.271950 0.280212
18.305840 11.271950 -0.421389
18.621189 11.271950 -0.572513
18.936539 11.271950 0.000000
19.251888 11.271950 0.000000
-7.237510 10.956600 0.000000
-6.922160 10.956600 0.002439
-6.606810 10.956600 0.001723
-6.291460 10.956600 0.001637
-5.976110 10.956600 0.001590
-5.660760 10.956600 0.001611
-5.345410 10.956600 0.001725
-5.030060 10.956600 0.001667
-4.714710 10.956600 0.001510
-4.399360 10.956600 0.001464
-4.084010 10.956600 0.001504
-3.768660 10.956600 0.001591
-3.453310 10.956600 0.001372
-3.137960 10.956600 0.001150
-2.822610 10.956600 0.001163
-2.507260 10.956600 0.001147
-2.191910 10.956600 0.001082
-1.876560 10.956600 0.001061
-1.561210 10.956600 0.001011
-1.245860 10.956600 0.001107
-0.930510 10.956600 0.001085
-0.615160 10.956600 0.001065
-0.299810 10.956600 0.001128
0.015540 10.956600 0.001043
0.330890 10.956600 0.001049
0.646240 10.956600 0.001009
0.961589 10.956600 0.001115
1.276940 10.956600 0.001127
1.592289 10.956600 0.001050
1.907640 10.956600 0.001034
2.222990 10.956600 0.001080
2.538340 10.956600 0.000896
2.853690 10.956600 0.000711
3.169039 10.956600 0.000653
3.484390 10.956600 0.000724
3.799739 10.956600 0.000841
4.115090 10.956600 0.000825
4.430439 10.956600 0.000784
4.745790 10.956600 0.001079
5.061140 10.956600 0.001190
5.376490 10.956600 0.001036
5.691840 10.956600 0.000960
6.007189 10.956600 0.000520
6.322540 10.956600 -0.000193
6.637889 10.956600 -0.000239
6.953240 10.956600 0.000692
7.268589 10.956600 0.001175
7.583940 10.956600 0.001776
7.899290 10.956600 0.003961
8.214640 10.956600 0.009627
8.529989 10.956600 0.014191
8.845339 10.956600 0.020997
9.160688 10.956600 0.022690
9.476040 10.956600 0.025954
9.791389 10.956600 0.034939
10.106739 10.956600 0.053744
10.422089 10.956600 0.062422
10.737438 10.956600 0.071706
11.052790 10.956600 0.066591
11.368139 10.956600 0.073886
11.683489 10.956600 0.076420
11.998838 10.956600 0.087215
12.314190 10.956600 0.079276
12.629539 10.956600 0.069677
12.944889 10.956600 0.067569
13.260239 10.956600 0.061916
13.575588 10.956600 0.091877
13.890940 10.956600 0.081396
14.206289 10.956600 0.098309
14.521639 10.956600 0.073158
14.836988 10.956600 0.068667
15.152340 10.956600 -0.016135
15.467690 10.956600 0.000000
15.783039 10.956600 0.000000
16.098389 10.956600 0.000000
16.413738 10.956600 0.000000
16.729090 10.956600 0.000000
17.044439 10.956600 0.000000
17.359789 10.956600 0.000000
17.675138 10.956600 0.000000
17.990490 10.956600 0.447709
18.305840 10.956600 -0.352630
18.621189 10.956600 -0.683144
18.936539 10.956600 0.000000
19.251888 10.956600 0.000000
-7.237510 10.641251 0.000000
-6.922160 10.641251 0.002279
-6.606810 10.641251 0.001686
-6.291460 10.641251 0.001555
-5.976110 10.641251 0.001527
-5.660760 10.641251 0.001570
-5.345410 10.641251 0.001677
-5.030060 10.641251 0.001566
-4.714710 10.641251 0.001400
-4.399360 10.641251 0.001395
-4.084010 10.641251 0.001506
-3.768660 10.641251 0.001554
-3.453310 10.641251 0.001287
-3.137960 10.641251 0.001037
-2.822610 10.641251 0.001033
-2.507260 10.641251 0.001072
-2.191910 10.641251 0.001070
-1.876560 10.641251 0.001019
-1.561210 10.641251 0.001010
-1.245860 10.641251 0.001158
-0.930510 10.641251 0.001116
-0.615160 10.641251 0.001113
-0.299810 10.641251 0.001146
0.015540 10.641251 0.001038
0.330890 10.641251 0.001103
0.646240 10.641251 0.001073
0.961589 10.641251 0.001113
1.276940 10.641251 0.001064
1.592289 10.641251 0.000976
1.907640 10.641251 0.000917
2.222990 10.641251 0.000946
2.538340 10.641251 0.000867
2.853690 10.641251 0.000733
3.169039 10.641251 0.000695
3.484390 10.641251 0.000760
3.799739 10.641251 0.000740
4.115090 10.641251 0.000666
4.430439 10.641251 0.000640
4.745790 10.641251 0.000842
5.061140 10.641251 0.000923
5.376490 10.641251 0.000887
5.691840 10.641251 0.000822
6.007189 10.641251 0.000421
6.322540 10.641251 -0.000281
6.637889 10.641251 -0.000343
6.953240 10.641251 0.000692
7.268589 10.641251 0.001473
7.583940 10.641251 0.002395
7.899290 10.641251 0.006274
8.214640 10.641251 0.007312
8.529989 10.641251 0.013984
8.845339 10.641251 0.021995
9.160688 10.641251 0.027410
9.476040 10.641251 0.029112
9.791389 10.641251 0.044526
10.106739 10.641251 0.043220
10.422089 10.641251 0.062582
10.737438 10.641251 0.075283
11.052790 10.641251 0.097389
11.368139 10.641251 0.083714
11.683489 10.641251 0.090845
11.998838 10.641251 0.098964
12.314190 10.641251 0.081934
12.629539 10.641251 0.081949
12.944889 10.641251 0.038227
13.260239 10.641251 0.078805
13.575588 10.641251 0.111231
13.890940 10.641251 0.122588
14.206289 10.641251 0.094518
14.521639 10.641251 0.079409
14.836988 10.641251 0.070118
15.152340 10.641251 -0.011169
15.467690 10.641251 0.000000
15.783039 10.641251 0.000000
16.098389 10.641251 0.000000
16.413738 10.641251 0.000000
16.729090 10.641251 0.000000
17.044439 10.641251 0.000000
17.359789 10.641251 0.000000
17.675138 10.641251 0.000000
17.990490 10.641251 0.414309
18.305840 10.641251 -0.371958
18.621189 10.641251 -0.739478
18.936539 10.641251 0.000000
19.251888 10.641251 0.000000
-7.237510 10.325901 0.000000
-6.922160 10.325901 0.001953
-6.606810 10.325901 0.001519
-6.291460 10.325901 0.001416
-5.976110 10.325901 0.001392
-5.660760 10.325901 0.001421
-5.345410 10.325901 0.001460
-5.030060 10.325901 0.001333
-4.714710 10.325901 0.001254
-4.399360 10.325901 0.001304
-4.084010 10.325901 0.001414
-3.768660 10.325901 0.001491
-3.453310 10.325901 0.001276
-3.137960 10.325901 0.001076
-2.822610 10.325901 0.001069
-2.507260 10.325901 0.001108
-2.191910 10.325901 0.001119
-1.876560 10.325901 0.001025
-1.561210 10.325901 0.001049
-1.245860 10.325901 0.001180
-0.930510 10.325901 0.001169
-0.615160 10.325901 0.001147
-0.299810 10.325901 0.001160
0.015540 10.325901 0.001092
0.330890 10.325901 0.001050
0.646240 10.325901 0.001045
0.961589 10.325901 0.001064
1.276940 10.325901 0.001022
1.592289 10.325901 0.000932
1.907640 10.325901 0.000871
2.222990 10.325901 0.000928
2.538340 10.325901 0.000962
2.853690 10.325901 0.000847
3.169039 10.325901 0.000727
3.484390 10.325901 0.000756
3.799739 10.325901 0.000711
4.115090 10.325901 0.000609
4.430439 10.325901 0.000531
4.745790 10.325901 0.000600
5.061140 10.325901 0.000669
5.376490 10.325901 0.000700
5.691840 10.325901 0.000658
6.007189 10.325901 0.000391
6.322540 10.325901 -0.000272
6.637889 10.325901 -0.000555
6.953240 10.325901 0.000223
7.268589 10.325901 0.001325
7.583940 10.325901 0.002943
7.899290 10.325901 0.005510
8.214640 10.325901 0.007885
8.529989 10.325901 0.017958
8.845339 10.325901 0.026453
9.160688 10.325901 0.030656
9.476040 10.325901 0.040478
9.791389 10.325901 0.037928
10.106739 10.325901 0.048608
10.422089 10.325901 0.054161
10.737438 10.325901 0.069328
11.052790 10.325901 0.075593
11.368139 10.325901 0.099906
11.683489 10.325901 0.091048
11.998838 10.325901 0.091628
12.314190 10.325901 0.080094
12.629539 10.325901 0.097268
12.944889 10.325901 0.054029
13.260239 10.325901 0.114917
13.575588 10.325901 0.075141
13.890940 10.325901 0.084381
14.206289 10.325901 0.104128
14.521639 10.325901 0.104367
14.836988 10.325901 0.057965
15.152340 10.325901 0.146182
15.467690 10.325901 0.000000
15.783039 10.325901 0.000000
16.098389 10.325901 0.000000
16.413738 10.325901 0.000000
16.729090 10.325901 0.000000
17.044439 10.325901 0.000000
17.359789 10.325901 0.000000
17.675138 10.325901 0.000000
17.990490 10.325901 0.357257
18.305840 10.325901 -0.303610
18.621189 10.325901 -0.715787
18.936539 10.325901 0.000000
19.251888 10.325901 0.000000
-7.237510 10.010551 0.000000
-6.922160 10.010551 0.001852
-6.606810 10.010551 0.001316
-6.291460 10.010551 0.001292
-5.976110 10.010551 0.001272
-5.660760 10.010551 0.001322
-5.345410 10.010551 0.001247
-5.030060 10.010551 0.001126
-4.714710 10.010551 0.001125
-4.399360 10.010551 0.001238
-4.084010 10.010551 0.001348
-3.768660 10.010551 0.001363
-3.453310 10.010551 0.001232
-3.137960 10.010551 0.001140
-2.822610 10.010551 0.001158
-2.507260 10.010551 0.001154
-2.191910 10.010551 0.001087
-1.876560 10.010551 0.000968
-1.561210 10.010551 0.001073
-1.245860 10.010551 0.001166
-0.930510 10.010551 0.001111
-0.615160 10.010551 0.001109
-0.299810 10.010551 0.001114
0.015540 10.010551 0.001032
0.330890 10.010551 0.000969
0.646240 10.010551 0.000954
0.961589 10.010551 0.000928
1.276940 10.010551 0.000894
1.592289 10.010551 0.000926
1.907640 10.010551 0.000867
2.222990 10.010551 0.000913
2.538340 10.010551 0.000957
2.853690 10.010551 0.000875
3.169039 10.010551 0.000760
3.484390 10.010551 0.000710
3.799739 10.010551 0.000687
4.115090 10.010551 0.000596
4.430439 10.010551 0.000526
4.745790 10.010551 0.000488
5.061140 10.010551 0.000538
5.376490 10.010551 0.000728
5.691840 10.010551 0.000619
6.007189 10.010551 0.000347
6.322540 10.010551 -0.000309
6.637889 10.010551 -0.000586
6.953240 10.010551 -0.000251
7.268589 10.010551 0.000842
7.583940 10.010551 0.002388
7.899290 10.010551 0.004419
8.214640 10.010551 0.011018
8.529989 10.010551 0.016086
8.845339 10.010551 0.029210
9.160688 10.010551 0.032054
9.476040 10.010551 0.043467
9.791389 10.010551 0.036408
10.106739 10.010551 0.045756
10.422089 10.010551 0.044796
10.737438 10.010551 0.068081
11.052790 10.010551 0.092846
11.368139 10.010551 0.093223
11.683489 10.010551 0.086509
11.998838 10.010551 0.098655
12.314190 10.010551 0.082084
12.629539 10.010551 0.074722
12.944889 10.010551 0.039131
13.260239 10.010551 0.037880
13.575588 10.010551 0.019191
13.890940 10.010551 0.103284
14.206289 10.010551 0.133556
14.521639 10.010551 0.132140
14.836988 10.010551 0.075887
15.152340 10.010551 0.097003
15.467690 10.010551 0.000000
15.783039 10.010551 0.000000
16.098389 10.010551 0.000000
16.413738 10.010551 0.000000
16.729090 10.010551 0.000000
17.044439 10.010551 0.000000
17.359789 10.010551 0.000000
17.675138 10.010551 0.000000
17.990490 10.010551 -0.010406
18.305840 10.010551 -0.282815
18.621189 10.010551 -0.606159
18.936539 10.010551 0.000000
19.251888 10.010551 0.000000
-7.237510 9.695202 0.000000
-6.922160 9.695202 0.001794
-6.606810 9.695202 0.001219
-6.291460 9.695202 0.001234
-5.976110 9.695202 0.001167
-5.660760 9.695202 0.001211
-5.345410 9.695202 0.001189
-5.030060 9.695202 0.001104
-4.714710 9.695202 0.001111
-4.399360 9.695202 0.001200
-4.084010 9.695202 0.001255
-3.768660 9.695202 0.001223
-3.453310 9.695202 0.001127
-3.137960 9.695202 0.001142
-2.822610 9.695202 0.001183
-2.507260 9.695202 0.001119
-2.191910 9.695202 0.000957
-1.876560 9.695202 0.000871
-1.561210 9.695202 0.001038
-1.245860 9.695202 0.001087
-0.930510 9.695202 0.001061
-0.615160 9.695202 0.001018
-0.299810 9.695202 0.001014
0.015540 9.695202 0.001014
0.330890 9.695202 0.000947
0.646240 9.695202 0.000869
0.961589 9.695202 0.000803
1.276940 9.695202 0.000782
1.592289 9.695202 0.000866
1.907640 9.695202 0.000817
2.222990 9.695202 0.000806
2.538340 9.695202 0.000857
2.853690 9.695202 0.000805
3.169039 9.695202 0.000706
3.484390 9.695202 0.000724
3.799739 9.695202 0.000719
4.115090 9.695202 0.000658
4.430439 9.695202 0.000589
4.745790 9.695202 0.000475
5.061140 9.695202 0.000548
5.376490 9.695202 0.000612
5.691840 9.695202 0.000322
6.007189 9.695202 0.000101
6.322540 9.695202 -0.000302
6.637889 9.695202 -0.001009
6.953240 9.695202 -0.000718
7.268589 9.695202 -0.000717
7.583940 9.695202 0.001535
7.899290 9.695202 0.005447
8.214640 9.695202 0.010678
8.529989 9.695202 0.015783
8.845339 9.695202 0.026544
9.160688 9.695202 0.034117
9.476040 9.695202 0.041855
9.791389 9.695202 0.047621
10.106739 9.695202 0.036550
10.422089 9.695202 0.042147
10.737438 9.695202 0.064430
11.052790 9.695202 0.081750
11.368139 9.695202 0.054357
11.683489 9.695202 0.068287
11.998838 9.695202 0.087230
12.314190 9.695202 0.075482
12.629539 9.695202 0.072455
12.944889 9.695202 0.028781
13.260239 9.695202 0.088063
13.575588 9.695202 0.077553
13.890940 9.695202 0.075429
14.206289 9.695202 0.038167
14.521639 9.695202 0.098074
14.836988 9.695202 0.036002
15.152340 9.695202 0.087845
15.467690 9.695202 0.000000
15.783039 9.695202 0.000000
16.098389 9.695202 0.000000
16.413738 9.695202 0.000000
16.729090 9.695202 0.000000
17.044439 9.695202 0.000000
17.359789 9.695202 0.000000
17.675138 9.695202 0.000000
17.990490 9.695202 -0.246952
18.305840 9.695202 -0.311679
18.621189 9.695202 -0.554098
18.936539 9.695202 0.000000
19.251888 9.695202 0.000000
-7.237510 9.379852 0.000000
-6.922160 9.379852 0.001821
-6.606810 9.379852 0.001211
-6.291460 9.379852 0.001181
-5.976110 9.379852 0.001088
-5.660760 9.379852 0.001115
-5.345410 9.379852 0.001180
-5.030060 9.379852 0.001145
-4.714710 9.379852 0.001115
-4.399360 9.379852 0.001120
-4.084010 9.379852 0.001126
-3.768660 9.379852 0.001068
-3.453310 9.379852 0.001016
-3.137960 9.379852 0.001041
-2.822610 9.379852 0.001099
-2.507260 9.379852 0.001039
-2.191910 9.379852 0.000800
-1.876560 9.379852 0.000799
-1.561210 9.379852 0.000992
-1.245860 9.379852 0.001030
-0.930510 9.379852 0.000979
-0.615160 9.379852 0.000905
-0.299810 9.379852 0.000900
0.015540 9.379852 0.000969
0.330890 9.379852 0.000857
0.646240 9.379852 0.000715
0.961589 9.379852 0.000668
1.276940 9.379852 0.000695
1.592289 9.379852 0.000697
1.907640 9.379852 0.000666
2.222990 9.379852 0.000633
2.538340 9.379852 0.000613
2.853690 9.379852 0.000630
3.169039 9.379852 0.000617
3.484390 9.379852 0.000743
3.799739 9.379852 0.000741
4.115090 9.379852 0.000689
4.430439 9.379852 0.000631
4.745790 9.379852 0.000488
5.061140 9.379852 0.000422
5.376490 9.379852 0.000339
5.691840 9.379852 -0.000027
6.007189 9.379852 -0.000388
6.322540 9.379852 -0.000751
6.637889 9.379852 -0.001228
6.953240 9.379852 -0.001597
7.268589 9.379852 -0.001027
7.583940 9.379852 0.002197
7.899290 9.379852 0.005614
8.214640 9.379852 0.011156
8.529989 9.379852 0.018910
8.845339 9.379852 0.025587
9.160688 9.379852 0.030843
9.476040 9.379852 0.036519
9.791389 9.379852 0.049614
10.106739 9.379852 0.052034
10.422089 9.379852 0.048061
10.737438 9.379852 0.062557
11.052790 9.379852 0.049765
11.368139 9.379852 0.063950
11.683489 9.379852 0.070174
11.998838 9.379852 0.105467
12.314190 9.379852 0.056944
12.629539 9.379852 0.064955
12.944889 9.379852 0.069982
13.260239 9.379852 0.071085
13.575588 9.379852 0.078093
13.890940 9.379852 0.038910
14.206289 9.379852 0.059250
14.521639 9.379852 0.103733
14.836988 9.379852 0.087983
15.152340 9.379852 0.180956
15.467690 9.379852 0.000000
15.783039 9.379852 0.000000
16.098389 9.379852 0.000000
16.413738 9.379852 0.000000
16.729090 9.379852 0.000000
17.044439 9.379852 0.000000
17.359789 9.379852 0.000000
17.675138 9.379852 0.000000
17.990490 9.379852 -0.195310
18.305840 9.379852 -0.373224
18.621189 9.379852 -0.857394
18.936539 9.379852 0.000000
19.251888 9.379852 0.000000
-7.237510 9.064503 0.000000
-6.922160 9.064503 0.001721
-6.606810 9.064503 0.001159
-6.291460 9.064503 0.001088
-5.976110 9.064503 0.001004
-5.660760 9.064503 0.001071
-5.345410 9.064503 0.001160
-5.030060 9.064503 0.001117
-4.714710 9.064503 0.001064
-4.399360 9.064503 0.001037
-4.084010 9.064503 0.000985
-3.768660 9.064503 0.000912
-3.453310 9.064503 0.000917
-3.137960 9.064503 0.000904
-2.822610 9.064503 0.000964
-2.507260 9.064503 0.000957
-2.191910 9.064503 0.000783
-1.876560 9.064503 0.000789
-1.561210 9.064503 0.000928
-1.245860 9.064503 0.000940
-0.930510 9.064503 0.000931
-0.615160 9.064503 0.000820
-0.299810 9.064503 0.000770
0.015540 9.064503 0.000826
0.330890 9.064503 0.000732
0.646240 9.064503 0.000549
0.961589 9.064503 0.000548
1.276940 9.064503 0.000565
1.592289 9.064503 0.000472
1.907640 9.064503 0.000458
2.222990 9.064503 0.000474
2.538340 9.064503 0.000496
2.853690 9.064503 0.000521
3.169039 9.064503 0.000582
3.484390 9.064503 0.000758
3.799739 9.064503 0.000696
4.115090 9.064503 0.000633
4.430439 9.064503 0.000578
4.745790 9.064503 0.000369
5.061140 9.064503 0.000209
5.376490 9.064503 -0.000053
5.691840 9.064503 -0.000382
6.007189 9.064503 -0.000641
6.322540 9.064503 -0.000599
6.637889 9.064503 -0.000719
6.953240 9.064503 -0.001129
7.268589 9.064503 -0.000219
7.583940 9.064503 0.001925
7.899290 9.064503 0.006302
8.214640 9.064503 0.009688
8.529989 9.064503 0.016218
8.845339 9.064503 0.025805
9.160688 9.064503 0.029053
9.476040 9.064503 0.031759
9.791389 9.064503 0.042994
10.106739 9.064503 0.047324
10.422089 9.064503 0.061954
10.737438 9.064503 0.061396
11.052790 9.064503 0.048256
11.368139 9.064503 0.055032
11.683489 9.064503 0.065682
11.998838 9.064503 0.078242
12.314190 9.064503 0.039746
12.629539 9.064503 0.043691
12.944889 9.064503 0.038151
13.260239 9.064503 0.029729
13.575588 9.064503 0.075042
13.890940 9.064503 0.070217
14.206289 9.064503 0.094745
14.521639 9.064503 0.059759
14.836988 9.064503 0.125713
15.152340 9.064503 0.142711
15.467690 9.064503 0.000000
15.783039 9.064503 0.000000
16.098389 9.064503 0.000000
16.413738 9.064503 0.000000
16.729090 9.064503 0.000000
17.044439 9.064503 0.000000
17.359789 9.064503 0.000000
17.675138 9.064503 0.000000
17.990490 9.064503 -0.226848
18.305840 9.064503 -0.553227
18.621189 9.064503 -0.816870
18.936539 9.064503 0.000000
19.251888 9.064503 0.000000
-7.237510 8.749149 0.000000
-6.922160 8.749149 0.001498
-6.606810 8.749149 0.001027
-6.291460 8.749149 0.000953
-5.976110 8.749149 0.000934
-5.660760 8.749149 0.001057
-5.345410 8.749149 0.001124
-5.030060 8.749149 0.001044
-4.714710 8.749149 0.000970
-4.399360 8.749149 0.000976
-4.084010 8.749149 0.000915
-3.768660 8.749149 0.000807
-3.453310 8.749149 0.000793
-3.137960 8.749149 0.000778
-2.822610 8.749149 0.000848
-2.507260 8.749149 0.000893
-2.191910 8.749149 0.000745
-1.876560 8.749149 0.000764
-1.561210 8.749149 0.000862
-1.245860 8.749149 0.000801
-0.930510 8.749149 0.000789
-0.615160 8.749149 0.000720
-0.299810 8.749149 0.000643
0.015540 8.749149 0.000678
0.330890 8.749149 0.000600
0.646240 8.749149 0.000471
0.961589 8.749149 0.000480
1.276940 8.749149 0.000461
1.592289 8.749149 0.000378
1.907640 8.749149 0.000372
2.222990 8.749149 0.000461
2.538340 8.749149 0.000491
2.853690 8.749149 0.000412
3.169039 8.749149 0.000485
3.484390 8.749149 0.000623
3.799739 8.749149 0.000517
4.115090 8.749149 0.000513
4.430439 8.749149 0.000450
4.745790 8.749149 0.000197
5.061140 8.749149 -0.000061
5.376490 8.749149 -0.000268
5.691840 8.749149 -0.000611
6.007189 8.749149 -0.000625
6.322540 8.749149 -0.000216
6.637889 8.749149 -0.000418
6.953240 8.749149 -0.000533
7.268589 8.749149 -0.000158
7.583940 8.749149 0.002244
7.899290 8.749149 0.007108
8.214640 8.749149 0.011844
8.529989 8.749149 0.019246
8.845339 8.749149 0.024672
9.160688 8.749149 0.032602
9.476040 8.749149 0.039432
9.791389 8.749149 0.046783
10.106739 8.749149 0.041411
10.422089 8.749149 0.043883
10.737438 8.749149 0.076217
11.052790 8.749149 0.062683
11.368139 8.749149 0.070743
11.683489 8.749149 0.062369
11.998838 8.749149 0.059042
12.314190 8.749149 0.073200
12.629539 8.749149 0.041794
12.944889 8.749149 0.020621
13.260239 8.749149 0.054445
13.575588 8.749149 0.094755
13.890940 8.749149 0.096094
14.206289 8.749149 0.113972
14.521639 8.749149 0.081429
14.836988 8.749149 0.085534
15.152340 8.749149 0.105864
15.467690 8.749149 0.000000
15.783039 8.749149 0.000000
16.098389 8.749149 0.000000
16.413738 8.749149 0.000000
16.729090 8.749149 0.000000
17.044439 8.749149 0.000000
17.359789 8.749149 0.000000
17.675138 8.749149 0.000000
17.990490 8.749149 -0.467371
18.305840 8.749149 -0.960492
18.621189 8.749149 -0.913642
18.936539 8.749149 0.000000
19.251888 8.749149 0.000000
-7.237510 8.433800 0.000000
-6.922160 8.433800 0.001335
-6.606810 8.433800 0.000906
-6.291460 8.433800 0.000843
-5.976110 8.433800 0.000860
-5.660760 8.433800 0.000975
-5.345410 8.433800 0.001025
-5.030060 8.433800 0.000922
-4.714710 8.433800 0.000869
-4.399360 8.433800 0.000854
-4.084010 8.433800 0.000849
-3.768660 8.433800 0.000805
-3.453310 8.433800 0.000751
-3.137960 8.433800 0.000707
-2.822610 8.433800 0.000801
-2.507260 8.433800 0.000843
-2.191910 8.433800 0.000700
-1.876560 8.433800 0.000678
-1.561210 8.433800 0.000724
-1.245860 8.433800 0.000650
-0.930510 8.433800 0.000648
-0.615160 8.433800 0.000584
-0.299810 8.433800 0.000545
0.015540 8.433800 0.000551
0.330890 8.433800 0.000515
0.646240 8.433800 0.000467
0.961589 8.433800 0.000399
1.276940 8.433800 0.000379
1.592289 8.433800 0.000340
1.907640 8.433800 0.000351
2.222990 8.433800 0.000425
2.538340 8.433800 0.000444
2.853690 8.433800 0.000321
3.169039 8.433800 0.000349
3.484390 8.433800 0.000422
3.799739 8.433800 0.000346
4.115090 8.433800 0.000372
4.430439 8.433800 0.000353
4.745790 8.433800 0.000085
5.061140 8.433800 -0.000176
5.376490 8.433800 -0.000375
5.691840 8.433800 -0.000629
6.007189 8.433800 -0.000448
6.322540 8.433800 -0.000205
6.637889 8.433800 -0.000629
6.953240 8.433800 -0.001404
7.268589 8.433800 -0.000494
7.583940 8.433800 0.001171
7.899290 8.433800 0.005308
8.214640 8.433800 0.014883
8.529989 8.433800 0.017126
8.845339 8.433800 0.028897
9.160688 8.433800 0.040647
9.476040 8.433800 0.045885
9.791389 8.433800 0.051497
10.106739 8.433800 0.036725
10.422089 8.433800 0.049160
10.737438 8.433800 0.058475
11.052790 8.433800 0.082017
11.368139 8.433800 0.081403
11.683489 8.433800 0.091547
11.998838 8.433800 0.089402
12.314190 8.433800 0.095870
12.629539 8.433800 0.077221
12.944889 8.433800 0.061264
13.260239 8.433800 0.030960
13.575588 8.433800 0.037781
13.890940 8.433800 0.059993
14.206289 8.433800 0.117874
14.521639 8.433800 0.097942
14.836988 8.433800 0.127954
15.152340 8.433800 0.201492
15.467690 8.433800 0.000000
15.783039 8.433800 0.000000
16.098389 8.433800 0.000000
16.413738 8.433800 0.000000
16.729090 8.433800 0.000000
17.044439 8.433800 0.000000
17.359789 8.433800 0.000000
17.675138 8.433800 0.000000
17.990490 8.433800 -0.827617
18.305840 8.433800 -0.997620
18.621189 8.433800 -0.806727
18.936539 8.433800 0.000000
19.251888 8.433800 0.000000
-7.237510 8.118450 0.000000
-6.922160 8.118450 0.001332
-6.606810 8.118450 0.000866
-6.291460 8.118450 0.000797
-5.976110 8.118450 0.000816
-5.660760 8.118450 0.000876
-5.345410 8.118450 0.000911
-5.030060 8.118450 0.000871
-4.714710 8.118450 0.000798
-4.399360 8.118450 0.000734
-4.084010 8.118450 0.000771
-3.768660 8.118450 0.000806
-3.453310 8.118450 0.000755
-3.137960 8.118450 0.000665
-2.822610 8.118450 0.000748
-2.507260 8.118450 0.000769
-2.191910 8.118450 0.000596
-1.876560 8.118450 0.000556
-1.561210 8.118450 0.000543
-1.245860 8.118450 0.000491
-0.930510 8.118450 0.000575
-0.615160 8.118450 0.000478
-0.299810 8.118450 0.000422
0.015540 8.118450 0.000444
0.330890 8.118450 0.000437
0.646240 8.118450 0.000404
0.961589 8.118450 0.000342
1.276940 8.118450 0.000330
1.592289 8.118450 0.000311
1.907640 8.118450 0.000298
2.222990 8.118450 0.000352
2.538340 8.118450 0.000321
2.853690 8.118450 0.000220
3.169039 8.118450 0.000209
3.484390 8.118450 0.000258
3.799739 8.118450 0.000222
4.115090 8.118450 0.000256
4.430439 8.118450 0.000288
4.745790 8.118450 0.000028
5.061140 8.118450 -0.000195
5.376490 8.118450 -0.000394
5.691840 8.118450 -0.000658
6.007189 8.118450 -0.000497
6.322540 8.118450 -0.000662
6.637889 8.118450 -0.001365
6.953240 8.118450 -0.002303
7.268589 8.118450 -0.000146
7.583940 8.118450 0.001578
7.899290 8.118450 0.005031
8.214640 8.118450 0.011403
8.529989 8.118450 0.020997
8.845339 8.118450 0.030041
9.160688 8.118450 0.043038
9.476040 8.118450 0.052989
9.791389 8.118450 0.052176
10.106739 8.118450 0.042075
10.422089 8.118450 0.049089
10.737438 8.118450 0.071032
11.052790 8.118450 0.076338
11.368139 8.118450 0.094445
11.683489 8.118450 0.075792
11.998838 8.118450 0.075705
12.314190 8.118450 0.076619
12.629539 8.118450 0.098959
12.944889 8.118450 0.065721
13.260239 8.118450 -0.004978
13.575588 8.118450 0.010236
13.890940 8.118450 0.005558
14.206289 8.118450 0.071910
14.521639 8.118450 0.110628
14.836988 8.118450 0.125534
15.152340 8.118450 0.281826
15.467690 8.118450 0.000000
15.783039 8.118450 0.000000
16.098389 8.118450 0.000000
16.413738 8.118450 0.000000
16.729090 8.118450 0.000000
17.044439 8.118450 0.000000
17.359789 8.118450 0.000000
17.675138 8.118450 0.000000
17.990490 8.118450 -1.264290
18.305840 8.118450 -1.331977
18.621189 8.118450 -0.941275
18.936539 8.118450 0.000000
19.251888 8.118450 0.000000
-7.237510 7.803101 0.000000
-6.922160 7.803101 0.001324
-6.606810 7.803101 0.000856
-6.291460 7.803101 0.000813
-5.976110 7.803101 0.000807
-5.660760 7.803101 0.000816
-5.345410 7.803101 0.000876
-5.030060 7.803101 0.000893
-4.714710 7.803101 0.000759
-4.399360 7.803101 0.000672
-4.084010 7.803101 0.000746
-3.768660 7.803101 0.000754
-3.453310 7.803101 0.000673
-3.137960 7.803101 0.000623
-2.822610 7.803101 0.000664
-2.507260 7.803101 0.000672
-2.191910 7.803101 0.000535
-1.876560 7.803101 0.000510
-1.561210 7.803101 0.000432
-1.245860 7.803101 0.000405
-0.930510 7.803101 0.000506
-0.615160 7.803101 0.000394
-0.299810 7.803101 0.000356
0.015540 7.803101 0.000377
0.330890 7.803101 0.000372
0.646240 7.803101 0.000345
0.961589 7.803101 0.000295
1.276940 7.803101 0.000294
1.592289 7.803101 0.000320
1.907640 7.803101 0.000252
2.222990 7.803101 0.000250
2.538340 7.803101 0.000249
2.853690 7.803101 0.000164
3.169039 7.803101 0.000127
3.484390 7.803101 0.000174
3.799739 7.803101 0.000130
4.115090 7.803101 0.000116
4.430439 7.803101 0.000182
4.745790 7.803101 0.000010
5.061140 7.803101 -0.000185
5.376490 7.803101 -0.000419
5.691840 7.803101 -0.000714
6.007189 7.803101 -0.000908
6.322540 7.803101 -0.001257
6.637889 7.803101 -0.002103
6.953240 7.803101 -0.001606
7.268589 7.803101 -0.000792
7.583940 7.803101 0.001225
7.899290 7.803101 0.004951
8.214640 7.803101 0.011130
8.529989 7.803101 0.022976
8.845339 7.803101 0.033965
9.160688 7.803101 0.044963
9.476040 7.803101 0.050625
9.791389 7.803101 0.048736
10.106739 7.803101 0.044240
10.422089 7.803101 0.064033
10.737438 7.803101 0.067623
11.052790 7.803101 0.088783
11.368139 7.803101 0.076777
11.683489 7.803101 0.081660
11.998838 7.803101 0.052745
12.314190 7.803101 0.082965
12.629539 7.803101 0.107411
12.944889 7.803101 0.079012
13.260239 7.803101 0.047146
13.575588 7.803101 0.032305
13.890940 7.803101 0.033850
14.206289 7.803101 0.062287
14.521639 7.803101 0.103242
14.836988 7.803101 0.195654
15.152340 7.803101 0.337637
15.467690 7.803101 0.000000
15.783039 7.803101 0.000000
16.098389 7.803101 0.000000
16.413738 7.803101 0.000000
16.729090 7.803101 0.000000
17.044439 7.803101 0.000000
17.359789 7.803101 0.000000
17.675138 7.803101 0.000000
17.990490 7.803101 -1.699184
18.305840 7.803101 -1.399848
18.621189 7.803101 -0.891588
18.936539 7.803101 0.000000
19.251888 7.803101 0.000000
-7.237510 7.487751 0.000000
-6.922160 7.487751 0.001269
-6.606810 7.487751 0.000895
-6.291460 7.487751 0.000849
-5.976110 7.487751 0.000817
-5.660760 7.487751 0.000811
-5.345410 7.487751 0.000897
-5.030060 7.487751 0.000913
-4.714710 7.487751 0.000743
-4.399360 7.487751 0.000667
-4.084010 7.487751 0.000737
-3.768660 7.487751 0.000719
-3.453310 7.487751 0.000619
-3.137960 7.487751 0.000575
-2.822610 7.487751 0.000573
-2.507260 7.487751 0.000556
-2.191910 7.487751 0.000520
-1.876560 7.487751 0.000506
-1.561210 7.487751 0.000393
-1.245860 7.487751 0.000349
-0.930510 7.487751 0.000439
-0.615160 7.487751 0.000367
-0.299810 7.487751 0.000325
0.015540 7.487751 0.000323
0.330890 7.487751 0.000295
0.646240 7.487751 0.000284
0.961589 7.487751 0.000191
1.276940 7.487751 0.000225
1.592289 7.487751 0.000288
1.907640 7.487751 0.000205
2.222990 7.487751 0.000199
2.538340 7.487751 0.000177
2.853690 7.487751 0.000154
3.169039 7.487751 0.000094
3.484390 7.487751 0.000116
3.799739 7.487751 0.000062
4.115090 7.487751 0.000001
4.430439 7.487751 0.000017
4.745790 7.487751 -0.000050
5.061140 7.487751 -0.000291
5.376490 7.487751 -0.000437
5.691840 7.487751 -0.000722
6.007189 7.487751 -0.000920
6.322540 7.487751 -0.001538
6.637889 7.487751 -0.001711
6.953240 7.487751 -0.001614
7.268589 7.487751 -0.000775
7.583940 7.487751 0.002604
7.899290 7.487751 0.007003
8.214640 7.487751 0.012801
8.529989 7.487751 0.017080
8.845339 7.487751 0.029875
9.160688 7.487751 0.042692
9.476040 7.487751 0.049925
9.791389 7.487751 0.035966
10.106739 7.487751 0.036349
10.422089 7.487751 0.068798
10.737438 7.487751 0.085251
11.052790 7.487751 0.081335
11.368139 7.487751 0.096369
11.683489 7.487751 0.075380
11.998838 7.487751 0.071539
12.314190 7.487751 0.097545
12.629539 7.487751 0.078078
12.944889 7.487751 0.059324
13.260239 7.487751 0.075595
13.575588 7.487751 0.046117
13.890940 7.487751 0.066361
14.206289 7.487751 0.088494
14.521639 7.487751 0.107343
14.836988 7.487751 0.229478
15.152340 7.487751 0.345654
15.467690 7.487751 0.000000
15.783039 7.487751 0.000000
16.098389 7.487751 0.000000
16.413738 7.487751 0.000000
16.729090 7.487751 0.000000
17.044439 7.487751 0.000000
17.359789 7.487751 0.000000
17.675138 7.487751 0.000000
17.990490 7.487751 -1.836740
18.305840 7.487751 -1.366588
18.621189 7.487751 -1.089509
18.936539 7.487751 0.000000
19.251888 7.487751 0.000000
-7.237510 7.172401 0.000000
-6.922160 7.172401 0.001247
-6.606810 7.172401 0.000876
-6.291460 7.172401 0.000797
-5.976110 7.172401 0.000780
-5.660760 7.172401 0.000753
-5.345410 7.172401 0.000829
-5.030060 7.172401 0.000820
-4.714710 7.172401 0.000642
-4.399360 7.172401 0.000611
-4.084010 7.172401 0.000691
-3.768660 7.172401 0.000677
-3.453310 7.172401 0.000585
-3.137960 7.172401 0.000540
-2.822610 7.172401 0.000511
-2.507260 7.172401 0.000504
-2.191910 7.172401 0.000519
-1.876560 7.172401 0.000453
-1.561210 7.172401 0.000378
-1.245860 7.172401 0.000333
-0.930510 7.172401 0.000377
-0.615160 7.172401 0.000388
-0.299810 7.172401 0.000352
0.015540 7.172401 0.000306
0.330890 7.172401 0.000242
0.646240 7.172401 0.000259
0.961589 7.172401 0.000173
1.276940 7.172401 0.000162
1.592289 7.172401 0.000237
1.907640 7.172401 0.000166
2.222990 7.172401 0.000135
2.538340 7.172401 0.000100
2.853690 7.172401 0.000117
3.169039 7.172401 0.000079
3.484390 7.172401 0.000026
3.799739 7.172401 -0.000049
4.115090 7.172401 -0.000107
4.430439 7.172401 -0.000121
4.745790 7.172401 -0.000103
5.061140 7.172401 -0.000294
5.376490 7.172401 -0.000456
5.691840 7.172401 -0.000603
6.007189 7.172401 -0.000880
6.322540 7.172401 -0.001028
6.637889 7.172401 -0.001207
6.953240 7.172401 -0.001354
7.268589 7.172401 -0.001265
7.583940 7.172401 0.001220
7.899290 7.172401 0.007087
8.214640 7.172401 0.012220
8.529989 7.172401 0.015934
8.845339 7.172401 0.028706
9.160688 7.172401 0.043757
9.476040 7.172401 0.052536
9.791389 7.172401 0.046128
10.106739 7.172401 0.037411
10.422089 7.172401 0.070712
10.737438 7.172401 0.078021
11.052790 7.172401 0.076330
11.368139 7.172401 0.072517
11.683489 7.172401 0.094946
11.998838 7.172401 0.091197
12.314190 7.172401 0.113009
12.629539 7.172401 0.077307
12.944889 7.172401 0.084980
13.260239 7.172401 0.053845
13.575588 7.172401 0.043430
13.890940 7.172401 0.063954
14.206289 7.172401 0.132694
14.521639 7.172401 0.118484
14.836988 7.172401 0.184383
15.152340 7.172401 0.177379
15.467690 7.172401 0.000000
15.783039 7.172401 0.000000
16.098389 7.172401 0.000000
16.413738 7.172401 0.000000
16.729090 7.172401 0.000000
17.044439 7.172401 0.000000
17.359789 7.172401 0.000000
17.675138 7.172401 0.000000
17.990490 7.172401 -2.012416
18.305840 7.172401 -1.848199
18.621189 7.172401 -1.526727
18.936539 7.172401 0.000000
19.251888 7.172401 0.000000
-7.237510 6.857052 0.000000
-6.922160 6.857052 0.001251
-6.606810 6.857052 0.000843
-6.291460 6.857052 0.000710
-5.976110 6.857052 0.000683
-5.660760 6.857052 0.000693
-5.345410 6.857052 0.000694
-5.030060 6.857052 0.000687
-4.714710 6.857052 0.000531
-4.399360 6.857052 0.000541
-4.084010 6.857052 0.000631
-3.768660 6.857052 0.000624
-3.453310 6.857052 0.000551
-3.137960 6.857052 0.000472
-2.822610 6.857052 0.000433
-2.507260 6.857052 0.000483
-2.191910 6.857052 0.000524
-1.876560 6.857052 0.000482
-1.561210 6.857052 0.000392
-1.245860 6.857052 0.000360
-0.930510 6.857052 0.000383
-0.615160 6.857052 0.000425
-0.299810 6.857052 0.000377
0.015540 6.857052 0.000266
0.330890 6.857052 0.000181
0.646240 6.857052 0.000268
0.961589 6.857052 0.000206
1.276940 6.857052 0.000154
1.592289 6.857052 0.000204
1.907640 6.857052 0.000162
2.222990 6.857052 0.000099
2.538340 6.857052 0.000080
2.853690 6.857052 0.000076
3.169039 6.857052 0.000029
3.484390 6.857052 -0.000105
3.799739 6.857052 -0.000162
4.115090 6.857052 -0.000199
4.430439 6.857052 -0.000195
4.745790 6.857052 -0.000113
5.061140 6.857052 -0.000290
5.376490 6.857052 -0.000491
5.691840 6.857052 -0.000604
6.007189 6.857052 -0.000819
6.322540 6.857052 -0.001219
6.637889 6.857052 -0.001585
6.953240 6.857052 -0.001264
7.268589 6.857052 -0.001571
7.583940 6.857052 0.000630
7.899290 6.857052 0.006380
8.214640 6.857052 0.011215
8.529989 6.857052 0.016934
8.845339 6.857052 0.033946
9.160688 6.857052 0.046100
9.476040 6.857052 0.061438
9.791389 6.857052 0.050936
10.106739 6.857052 0.047948
10.422089 6.857052 0.063894
10.737438 6.857052 0.075366
11.052790 6.857052 0.075044
11.368139 6.857052 0.054087
11.683489 6.857052 0.095015
11.998838 6.857052 0.081633
12.314190 6.857052 0.080705
12.629539 6.857052 0.048902
12.944889 6.857052 0.082498
13.260239 6.857052 0.051612
13.575588 6.857052 0.043021
13.890940 6.857052 0.101690
14.206289 6.857052 0.136003
14.521639 6.857052 0.132834
14.836988 6.857052 0.097352
15.152340 6.857052 0.264200
15.467690 6.857052 0.000000
15.783039 6.857052 0.000000
16.098389 6.857052 0.000000
16.413738 6.857052 0.000000
16.729090 6.857052 0.000000
17.044439 6.857052 0.000000
17.359789 6.857052 0.000000
17.675138 6.857052 0.000000
17.990490 6.857052 -2.032955
18.305840 6.857052 -2.049031
18.621189 6.857052 -1.700178
18.936539 6.857052 0.000000
19.251888 6.857052 0.000000
-7.237510 6.541702 0.000000
-6.922160 6.541702 0.001146
-6.606810 6.541702 0.000745
-6.291460 6.541702 0.000623
-5.976110 6.541702 0.000585
-5.660760 6.541702 0.000631
-5.345410 6.541702 0.000615
-5.030060 6.541702 0.000577
-4.714710 6.541702 0.000503
-4.399360 6.541702 0.000532
-4.084010 6.541702 0.000587
-3.768660 6.541702 0.000590
-3.453310 6.541702 0.000545
-3.137960 6.541702 0.000409
-2.822610 6.541702 0.000372
-2.507260 6.541702 0.000459
-2.191910 6.541702 0.000493
-1.876560 6.541702 0.000456
-1.561210 6.541702 0.000401
-1.245860 6.541702 0.000378
-0.930510 6.541702 0.000388
-0.615160 6.541702 0.000418
-0.299810 6.541702 0.000386
0.015540 6.541702 0.000255
0.330890 6.541702 0.000151
0.646240 6.541702 0.000261
0.961589 6.541702 0.000237
1.276940 6.541702 0.000156
1.592289 6.541702 0.000182
1.907640 6.541702 0.000134
2.222990 6.541702 0.000111
2.538340 6.541702 0.000118
2.853690 6.541702 0.000062
3.169039 6.541702 -0.000014
3.484390 6.541702 -0.000175
3.799739 6.541702 -0.000223
4.115090 6.541702 -0.000171
4.430439 6.541702 -0.000148
4.745790 6.541702 -0.000205
5.061140 6.541702 -0.000436
5.376490 6.541702 -0.000751
5.691840 6.541702 -0.000808
6.007189 6.541702 -0.001110
6.322540 6.541702 -0.001542
6.637889 6.541702 -0.001737
6.953240 6.541702 -0.002004
7.268589 6.541702 -0.002168
7.583940 6.541702 0.000471
7.899290 6.541702 0.004295
8.214640 6.541702 0.011568
8.529989 6.541702 0.019407
8.845339 6.541702 0.028987
9.160688 6.541702 0.045109
9.476040 6.541702 0.058523
9.791389 6.541702 0.043486
10.106739 6.541702 0.053539
10.422089 6.541702 0.069677
10.737438 6.541702 0.076789
11.052790 6.541702 0.068766
11.368139 6.541702 0.032651
11.683489 6.541702 0.070554
11.998838 6.541702 0.089491
12.314190 6.541702 0.088025
12.629539 6.541702 0.086619
12.944889 6.541702 0.074620
13.260239 6.541702 0.082953
13.575588 6.541702 0.058373
13.890940 6.541702 0.105332
14.206289 6.541702 0.104579
14.521639 6.541702 0.116697
14.836988 6.541702 0.078926
15.152340 6.541702 0.220988
15.467690 6.541702 0.000000
15.783039 6.541702 0.000000
16.098389 6.541702 0.000000
16.413738 6.541702 0.000000
16.729090 6.541702 0.000000
17.044439 6.541702 0.000000
17.359789 6.541702 0.000000
17.675138 6.541702 0.000000
17.990490 6.541702 -2.061726
18.305840 6.541702 -1.900334
18.621189 6.541702 -1.834292
18.936539 6.541702 0.000000
19.251888 6.541702 0.000000
-7.237510 6.226353 0.000000
-6.922160 6.226353 0.000908
-6.606810 6.226353 0.000585
-6.291460 6.226353 0.000537
-5.976110 6.226353 0.000528
-5.660760 6.226353 0.000533
-5.345410 6.226353 0.000513
-5.030060 6.226353 0.000527
-4.714710 6.226353 0.000501
-4.399360 6.226353 0.000524
-4.084010 6.226353 0.000586
-3.768660 6.226353 0.000606
-3.453310 6.226353 0.000541
-3.137960 6.226353 0.000373
-2.822610 6.226353 0.000317
-2.507260 6.226353 0.000414
-2.191910 6.226353 0.000453
-1.876560 6.226353 0.000426
-1.561210 6.226353 0.000422
-1.245860 6.226353 0.000415
-0.930510 6.226353 0.000359
-0.615160 6.226353 0.000383
-0.299810 6.226353 0.000393
0.015540 6.226353 0.000280
0.330890 6.226353 0.000197
0.646240 6.226353 0.000250
0.961589 6.226353 0.000246
1.276940 6.226353 0.000162
1.592289 6.226353 0.000136
1.907640 6.226353 0.000079
2.222990 6.226353 0.000122
2.538340 6.226353 0.000131
2.853690 6.226353 0.000082
3.169039 6.226353 0.000015
3.484390 6.226353 -0.000146
3.799739 6.226353 -0.000173
4.115090 6.226353 -0.000085
4.430439 6.226353 -0.000151
4.745790 6.226353 -0.000268
5.061140 6.226353 -0.000625
5.376490 6.226353 -0.000991
5.691840 6.226353 -0.001094
6.007189 6.226353 -0.001350
6.322540 6.226353 -0.001597
6.637889 6.226353 -0.001748
6.953240 6.226353 -0.002044
7.268589 6.226353 -0.001086
7.583940 6.226353 -0.000742
7.899290 6.226353 0.004996
8.214640 6.226353 0.012749
8.529989 6.226353 0.017339
8.845339 6.226353 0.028026
9.160688 6.226353 0.039310
9.476040 6.226353 0.054858
9.791389 6.226353 0.057753
10.106739 6.226353 0.062404
10.422089 6.226353 0.065552
10.737438 6.226353 0.054617
11.052790 6.226353 0.070447
11.368139 6.226353 0.026215
11.683489 6.226353 0.055123
11.998838 6.226353 0.082358
12.314190 6.226353 0.091567
12.629539 6.226353 0.104233
12.944889 6.226353 0.091261
13.260239 6.226353 0.078288
13.575588 6.226353 0.139289
13.890940 6.226353 0.092691
14.206289 6.226353 0.119253
14.521639 6.226353 0.154290
14.836988 6.226353 0.190477
15.152340 6.226353 0.174220
15.467690 6.226353 0.000000
15.783039 6.226353 0.000000
16.098389 6.226353 0.000000
16.413738 6.226353 0.000000
16.729090 6.226353 0.000000
17.044439 6.226353 0.000000
17.359789 6.226353 0.000000
17.675138 6.226353 0.000000
17.990490 6.226353 -1.929122
18.305840 6.226353 -1.745338
18.621189 6.226353 -1.582014
18.936539 6.226353 0.000000
19.251888 6.226353 0.000000
-7.237510 5.910999 0.000000
-6.922160 5.910999 0.000720
-6.606810 5.910999 0.000513
-6.291460 5.910999 0.000484
-5.976110 5.910999 0.000477
-5.660760 5.910999 0.000419
-5.345410 5.910999 0.000452
-5.030060 5.910999 0.000499
-4.714710 5.910999 0.000487
-4.399360 5.910999 0.000521
-4.084010 5.910999 0.000576
-3.768660 5.910999 0.000598
-3.453310 5.910999 0.000533
-3.137960 5.910999 0.000336
-2.822610 5.910999 0.000272
-2.507260 5.910999 0.000355
-2.191910 5.910999 0.000399
-1.876560 5.910999 0.000413
-1.561210 5.910999 0.000425
-1.245860 5.910999 0.000423
-0.930510 5.910999 0.000334
-0.615160 5.910999 0.000340
-0.299810 5.910999 0.000391
0.015540 5.910999 0.000316
0.330890 5.910999 0.000280
0.646240 5.910999 0.000268
0.961589 5.910999 0.000199
1.276940 5.910999 0.000166
1.592289 5.910999 0.000063
1.907640 5.910999 -0.000009
2.222990 5.910999 0.000091
2.538340 5.910999 0.000056
2.853690 5.910999 0.000040
3.169039 5.910999 0.000018
3.484390 5.910999 -0.000008
3.799739 5.910999 -0.000090
4.115090 5.910999 -0.000089
4.430439 5.910999 -0.000180
4.745790 5.910999 -0.000381
5.061140 5.910999 -0.000858
5.376490 5.910999 -0.001211
5.691840 5.910999 -0.001367
6.007189 5.910999 -0.001502
6.322540 5.910999 -0.001516
6.637889 5.910999 -0.001677
6.953240 5.910999 -0.002731
7.268589 5.910999 -0.002337
7.583940 5.910999 0.000072
7.899290 5.910999 0.007774
8.214640 5.910999 0.013008
8.529989 5.910999 0.015534
8.845339 5.910999 0.030224
9.160688 5.910999 0.041356
9.476040 5.910999 0.049019
9.791389 5.910999 0.049353
10.106739 5.910999 0.064525
10.422089 5.910999 0.070123
10.737438 5.910999 0.056669
11.052790 5.910999 0.071168
11.368139 5.910999 0.034034
11.683489 5.910999 0.039658
11.998838 5.910999 0.072253
12.314190 5.910999 0.067520
12.629539 5.910999 0.115825
12.944889 5.910999 0.079729
13.260239 5.910999 0.092437
13.575588 5.910999 0.105826
13.890940 5.910999 0.103453
14.206289 5.910999 0.203252
14.521639 5.910999 0.222811
14.836988 5.910999 0.221431
15.152340 5.910999 0.235412
15.467690 5.910999 0.000000
15.783039 5.910999 0.000000
16.098389 5.910999 0.000000
16.413738 5.910999 0.000000
16.729090 5.910999 0.000000
17.044439 5.910999 0.000000
17.359789 5.910999 0.000000
17.675138 5.910999 0.000000
17.990490 5.910999 -1.592188
18.305840 5.910999 -1.274568
18.621189 5.910999 -1.425441
18.936539 5.910999 0.000000
19.251888 5.910999 0.000000
-7.237510 5.595650 0.000000
-6.922160 5.595650 0.000674
-6.606810 5.595650 0.000498
-6.291460 5.595650 0.000471
-5.976110 5.595650 0.000409
-5.660760 5.595650 0.000384
-5.345410 5.595650 0.000442
-5.030060 5.595650 0.000477
-4.714710 5.595650 0.000458
-4.399360 5.595650 0.000507
-4.084010 5.595650 0.000546
-3.768660 5.595650 0.000560
-3.453310 5.595650 0.000513
-3.137960 5.595650 0.000366
-2.822610 5.595650 0.000318
-2.507260 5.595650 0.000349
-2.191910 5.595650 0.000391
-1.876560 5.595650 0.000437
-1.561210 5.595650 0.000411
-1.245860 5.595650 0.000370
-0.930510 5.595650 0.000299
-0.615160 5.595650 0.000318
-0.299810 5.595650 0.000391
0.015540 5.595650 0.000346
0.330890 5.595650 0.000351
0.646240 5.595650 0.000282
0.961589 5.595650 0.000148
1.276940 5.595650 0.000124
1.592289 5.595650 0.000034
1.907640 5.595650 -0.000045
2.222990 5.595650 -0.000019
2.538340 5.595650 -0.000041
2.853690 5.595650 -0.000007
3.169039 5.595650 0.000065
3.484390 5.595650 0.000043
3.799739 5.595650 -0.000058
4.115090 5.595650 -0.000135
4.430439 5.595650 -0.000275
4.745790 5.595650 -0.000524
5.061140 5.595650 -0.000891
5.376490 5.595650 -0.001176
5.691840 5.595650 -0.001521
6.007189 5.595650 -0.001595
6.322540 5.595650 -0.001545
6.637889 5.595650 -0.001688
6.953240 5.595650 -0.002618
7.268589 5.595650 -0.002598
7.583940 5.595650 0.001826
7.899290 5.595650 0.005028
8.214640 5.595650 0.011999
8.529989 5.595650 0.021690
8.845339 5.595650 0.034291
9.160688 5.595650 0.037886
9.476040 5.595650 0.040227
9.791389 5.595650 0.052287
10.106739 5.595650 0.052283
10.422089 5.595650 0.056128
10.737438 5.595650 0.054267
11.052790 5.595650 0.070190
11.368139 5.595650 0.038296
11.683489 5.595650 0.082218
11.998838 5.595650 0.096012
12.314190 5.595650 0.095096
12.629539 5.595650 0.088858
12.944889 5.595650 0.082000
13.260239 5.595650 0.053207
13.575588 5.595650 0.108889
13.890940 5.595650 0.171720
14.206289 5.595650 0.167898
14.521639 5.595650 0.246266
14.836988 5.595650 0.223654
15.152340 5.595650 0.328148
15.467690 5.595650 0.000000
15.783039 5.595650 0.000000
16.098389 5.595650 0.000000
16.413738 5.595650 0.000000
16.729090 5.595650 0.000000
17.044439 5.595650 0.000000
17.359789 5.595650 0.000000
17.675138 5.595650 0.000000
17.990490 5.595650 -1.174079
18.305840 5.595650 -1.003515
18.621189 5.595650 -1.174602
18.936539 5.595650 0.000000
19.251888 5.595650 0.000000
-7.237510 5.280300 0.000000
-6.922160 5.280300 0.000760
-6.606810 5.280300 0.000533
-6.291460 5.280300 0.000474
-5.976110 5.280300 0.000383
-5.660760 5.280300 0.000383
-5.345410 5.280300 0.000443
-5.030060 5.280300 0.000438
-4.714710 5.280300 0.000427
-4.399360 5.280300 0.000485
-4.084010 5.280300 0.000528
-3.768660 5.280300 0.000508
-3.453310 5.280300 0.000505
-3.137960 5.280300 0.000424
-2.822610 5.280300 0.000401
-2.507260 5.280300 0.000399
-2.191910 5.280300 0.000411
-1.876560 5.280300 0.000458
-1.561210 5.280300 0.000377
-1.245860 5.280300 0.000303
-0.930510 5.280300 0.000289
-0.615160 5.280300 0.000315
-0.299810 5.280300 0.000390
0.015540 5.280300 0.000349
0.330890 5.280300 0.000361
0.646240 5.280300 0.000288
0.961589 5.280300 0.000099
1.276940 5.280300 0.000075
1.592289 5.280300 0.000016
1.907640 5.280300 -0.000045
2.222990 5.280300 -0.000050
2.538340 5.280300 -0.000052
2.853690 5.280300 0.000052
3.169039 5.280300 0.000119
3.484390 5.280300 0.000032
3.799739 5.280300 -0.000072
4.115090 5.280300 -0.000154
4.430439 5.280300 -0.000346
4.745790 5.280300 -0.000604
5.061140 5.280300 -0.000805
5.376490 5.280300 -0.001006
5.691840 5.280300 -0.001537
6.007189 5.280300 -0.001785
6.322540 5.280300 -0.001630
6.637889 5.280300 -0.001725
6.953240 5.280300 -0.002164
7.268589 5.280300 -0.002181
7.583940 5.280300 -0.000549
7.899290 5.280300 0.005871
8.214640 5.280300 0.015314
8.529989 5.280300 0.023408
8.845339 5.280300 0.037312
9.160688 5.280300 0.043642
9.476040 5.280300 0.042645
9.791389 5.280300 0.048872
10.106739 5.280300 0.040023
10.422089 5.280300 0.048860
10.737438 5.280300 0.031407
11.052790 5.280300 0.062651
11.368139 5.280300 0.059156
11.683489 5.280300 0.093552
11.998838 5.280300 0.089718
12.314190 5.280300 0.083652
12.629539 5.280300 0.137415
12.944889 5.280300 0.103529
13.260239 5.280300 0.128557
13.575588 5.280300 0.061665
13.890940 5.280300 0.133156
14.206289 5.280300 0.165777
14.521639 5.280300 0.258660
14.836988 5.280300 0.207296
15.152340 5.280300 0.234536
15.467690 5.280300 0.000000
15.783039 5.280300 0.000000
16.098389 5.280300 0.000000
16.413738 5.280300 0.000000
16.729090 5.280300 0.000000
17.044439 5.280300 0.000000
17.359789 5.280300 0.000000
17.675138 5.280300 0.000000
17.990490 5.280300 -0.712302
18.305840 5.280300 -0.607257
18.621189 5.280300 -0.743586
18.936539 5.280300 0.000000
19.251888 5.280300 0.000000
-7.237510 4.964951 0.000000
-6.922160 4.964951 0.000802
-6.606810 4.964951 0.000542
-6.291460 4.964951 0.000461
-5.976110 4.964951 0.000392
-5.660760 4.964951 0.000418
-5.345410 4.964951 0.000464
-5.030060 4.964951 0.000418
-4.714710 4.964951 0.000406
-4.399360 4.964951 0.000453
-4.084010 4.964951 0.000479
-3.768660 4.964951 0.000486
-3.453310 4.964951 0.000502
-3.137960 4.964951 0.000438
-2.822610 4.964951 0.000427
-2.507260 4.964951 0.000418
-2.191910 4.964951 0.000399
-1.876560 4.964951 0.000411
-1.561210 4.964951 0.000312
-1.245860 4.964951 0.000253
-0.930510 4.964951 0.000295
-0.615160 4.964951 0.000315
-0.299810 4.964951 0.000356
0.015540 4.964951 0.000339
0.330890 4.964951 0.000357
0.646240 4.964951 0.000314
0.961589 4.964951 0.000145
1.276940 4.964951 0.000088
1.592289 4.964951 0.000081
1.907640 4.964951 0.000029
2.222990 4.964951 -0.000033
2.538340 4.964951 0.000039
2.853690 4.964951 0.000163
3.169039 4.964951 0.000127
3.484390 4.964951 -0.000036
3.799739 4.964951 -0.000078
4.115090 4.964951 -0.000108
4.430439 4.964951 -0.000355
4.745790 4.964951 -0.000570
5.061140 4.964951 -0.000608
5.376490 4.964951 -0.000842
5.691840 4.964951 -0.001397
6.007189 4.964951 -0.001919
6.322540 4.964951 -0.001987
6.637889 4.964951 -0.001763
6.953240 4.964951 -0.002235
7.268589 4.964951 -0.001125
7.583940 4.964951 0.001523
7.899290 4.964951 0.007493
8.214640 4.964951 0.017121
8.529989 4.964951 0.026325
8.845339 4.964951 0.036541
9.160688 4.964951 0.042744
9.476040 4.964951 0.043661
9.791389 4.964951 0.037175
10.106739 4.964951 0.028553
10.422089 4.964951 0.036148
10.737438 4.964951 0.032871
11.052790 4.964951 0.057590
11.368139 4.964951 0.060775
11.683489 4.964951 0.084770
11.998838 4.964951 0.091532
12.314190 4.964951 0.101220
12.629539 4.964951 0.143307
12.944889 4.964951 0.137408
13.260239 4.964951 0.094280
13.575588 4.964951 0.134354
13.890940 4.964951 0.121569
14.206289 4.964951 0.209257
14.521639 4.964951 0.298664
14.836988 4.964951 0.188840
15.152340 4.964951 0.209002
15.467690 4.964951 0.000000
15.783039 4.964951 0.000000
16.098389 4.964951 0.000000
16.413738 4.964951 0.000000
16.729090 4.964951 0.000000
17.044439 4.964951 0.000000
17.359789 4.964951 0.000000
17.675138 4.964951 0.000000
17.990490 4.964951 -0.331863
18.305840 4.964951 -0.259239
18.621189 4.964951 -0.454442
18.936539 4.964951 0.000000
19.251888 4.964951 0.000000
-7.237510 4.649601 0.000000
-6.922160 4.649601 0.000723
-6.606810 4.649601 0.000505
-6.291460 4.649601 0.000466
-5.976110 4.649601 0.000422
-5.660760 4.649601 0.000464
-5.345410 4.649601 0.000484
-5.030060 4.649601 0.000417
-4.714710 4.649601 0.000403
-4.399360 4.649601 0.000443
-4.084010 4.649601 0.000462
-3.768660 4.649601 0.000492
-3.453310 4.649601 0.000486
-3.137960 4.649601 0.000412
-2.822610 4.649601 0.000409
-2.507260 4.649601 0.000405
-2.191910 4.649601 0.000364
-1.876560 4.649601 0.000369
-1.561210 4.649601 0.000271
-1.245860 4.649601 0.000288
-0.930510 4.649601 0.000342
-0.615160 4.649601 0.000329
-0.299810 4.649601 0.000290
0.015540 4.649601 0.000276
0.330890 4.649601 0.000342
0.646240 4.649601 0.000345
0.961589 4.649601 0.000237
1.276940 4.649601 0.000202
1.592289 4.649601 0.000229
1.907640 4.649601 0.000142
2.222990 4.649601 0.000090
2.538340 4.649601 0.000170
2.853690 4.649601 0.000304
3.169039 4.649601 0.000149
3.484390 4.649601 -0.000068
3.799739 4.649601 -0.000041
4.115090 4.649601 -0.000016
4.430439 4.649601 -0.000236
4.745790 4.649601 -0.000398
5.061140 4.649601 -0.000319
5.376490 4.649601 -0.000727
5.691840 4.649601 -0.001305
6.007189 4.649601 -0.001697
6.322540 4.649601 -0.002407
6.637889 4.649601 -0.002144
6.953240 4.649601 -0.001930
7.268589 4.649601 0.000852
7.583940 4.649601 0.003646
7.899290 4.649601 0.008108
8.214640 4.649601 0.019197
8.529989 4.649601 0.028241
8.845339 4.649601 0.038373
9.160688 4.649601 0.048138
9.476040 4.649601 0.046573
9.791389 4.649601 0.031813
10.106739 4.649601 0.038290
10.422089 4.649601 0.037588
10.737438 4.649601 0.053988
11.052790 4.649601 0.071227
11.368139 4.649601 0.080813
11.683489 4.649601 0.112636
11.998838 4.649601 0.075634
12.314190 4.649601 0.125954
12.629539 4.649601 0.092289
12.944889 4.649601 0.120760
13.260239 4.649601 0.064198
13.575588 4.649601 0.169486
13.890940 4.649601 0.124582
14.206289 4.649601 0.108976
14.521639 4.649601 0.181642
14.836988 4.649601 0.170983
15.152340 4.649601 0.112107
15.467690 4.649601 0.000000
15.783039 4.649601 0.000000
16.098389 4.649601 0.000000
16.413738 4.649601 0.000000
16.729090 4.649601 0.000000
17.044439 4.649601 0.000000
17.359789 4.649601 0.000000
17.675138 4.649601 0.000000
17.990490 4.649601 -0.071563
18.305840 4.649601 0.012461
18.621189 4.649601 -0.164634
18.936539 4.649601 0.000000
19.251888 4.649601 0.000000
-7.237510 4.334251 0.000000
-6.922160 4.334251 0.000631
-6.606810 4.334251 0.000458
-6.291460 4.334251 0.000462
-5.976110 4.334251 0.000467
-5.660760 4.334251 0.000488
-5.345410 4.334251 0.000456
-5.030060 4.334251 0.000398
-4.714710 4.334251 0.000397
-4.399360 4.334251 0.000427
-4.084010 4.334251 0.000472
-3.768660 4.334251 0.000503
-3.453310 4.334251 0.000475
-3.137960 4.334251 0.000392
-2.822610 4.334251 0.000395
-2.507260 4.334251 0.000401
-2.191910 4.334251 0.000366
-1.876560 4.334251 0.000336
-1.561210 4.334251 0.000310
-1.245860 4.334251 0.000387
-0.930510 4.334251 0.000467
-0.615160 4.334251 0.000386
-0.299810 4.334251 0.000260
0.015540 4.334251 0.000232
0.330890 4.334251 0.000342
0.646240 4.334251 0.000376
0.961589 4.334251 0.000306
1.276940 4.334251 0.000307
1.592289 4.334251 0.000324
1.907640 4.334251 0.000292
2.222990 4.334251 0.000265
2.538340 4.334251 0.000309
2.853690 4.334251 0.000393
3.169039 4.334251 0.000240
3.484390 4.334251 0.000088
3.799739 4.334251 0.000105
4.115090 4.334251 0.000094
4.430439 4.334251 -0.000020
4.745790 4.334251 -0.000083
5.061140 4.334251 -0.000153
5.376490 4.334251 -0.000692
5.691840 4.334251 -0.001109
6.007189 4.334251 -0.001457
6.322540 4.334251 -0.001884
6.637889 4.334251 -0.002278
6.953240 4.334251 -0.001504
7.268589 4.334251 0.000379
7.583940 4.334251 0.002222
7.899290 4.334251 0.009439
8.214640 4.334251 0.017061
8.529989 4.334251 0.032062
8.845339 4.334251 0.043165
9.160688 4.334251 0.049760
9.476040 4.334251 0.052435
9.791389 4.334251 0.045377
10.106739 4.334251 0.043460
10.422089 4.334251 0.049987
10.737438 4.334251 0.053172
11.052790 4.334251 0.064103
11.368139 4.334251 0.064165
11.683489 4.334251 0.090618
11.998838 4.334251 0.087336
12.314190 4.334251 0.111047
12.629539 4.334251 0.053773
12.944889 4.334251 0.107437
13.260239 4.334251 0.094385
13.575588 4.334251 0.118168
13.890940 4.334251 0.139191
14.206289 4.334251 0.096701
14.521639 4.334251 0.123873
14.836988 4.334251 0.145501
15.152340 4.334251 0.168996
15.467690 4.334251 0.000000
15.783039 4.334251 0.000000
16.098389 4.334251 0.000000
16.413738 4.334251 0.000000
16.729090 4.334251 0.000000
17.044439 4.334251 0.000000
17.359789 4.334251 0.000000
17.675138 4.334251 0.000000
17.990490 4.334251 0.193694
18.305840 4.334251 0.261839
18.621189 4.334251 -0.015637
18.936539 4.334251 0.000000
19.251888 4.334251 0.000000
-7.237510 4.018902 0.000000
-6.922160 4.018902 0.000548
-6.606810 4.018902 0.000447
-6.291460 4.018902 0.000478
-5.976110 4.018902 0.000480
-5.660760 4.018902 0.000504
-5.345410 4.018902 0.000460
-5.030060 4.018902 0.000379
-4.714710 4.018902 0.000403
-4.399360 4.018902 0.000431
-4.084010 4.018902 0.000495
-3.768660 4.018902 0.000522
-3.453310 4.018902 0.000488
-3.137960 4.018902 0.000401
-2.822610 4.018902 0.000396
-2.507260 4.018902 0.000430
-2.191910 4.018902 0.000436
-1.876560 4.018902 0.000381
-1.561210 4.018902 0.000376
-1.245860 4.018902 0.000477
-0.930510 4.018902 0.000526
-0.615160 4.018902 0.000409
-0.299810 4.018902 0.000270
0.015540 4.018902 0.000246
0.330890 4.018902 0.000394
0.646240 4.018902 0.000400
0.961589 4.018902 0.000324
1.276940 4.018902 0.000371
1.592289 4.018902 0.000396
1.907640 4.018902 0.000446
2.222990 4.018902 0.000430
2.538340 4.018902 0.000459
2.853690 4.018902 0.000441
3.169039 4.018902 0.000300
3.484390 4.018902 0.000253
3.799739 4.018902 0.000260
4.115090 4.018902 0.000231
4.430439 4.018902 0.000249
4.745790 4.018902 0.000123
5.061140 4.018902 -0.000144
5.376490 4.018902 -0.000673
5.691840 4.018902 -0.001096
6.007189 4.018902 -0.001458
6.322540 4.018902 -0.001878
6.637889 4.018902 -0.002982
6.953240 4.018902 -0.002842
7.268589 4.018902 -0.001290
7.583940 4.018902 0.003117
7.899290 4.018902 0.011448
8.214640 4.018902 0.020576
8.529989 4.018902 0.034362
8.845339 4.018902 0.039932
9.160688 4.018902 0.046023
9.476040 4.018902 0.054186
9.791389 4.018902 0.056745
10.106739 4.018902 0.051918
10.422089 4.018902 0.065483
10.737438 4.018902 0.056490
11.052790 4.018902 0.059683
11.368139 4.018902 0.073334
11.683489 4.018902 0.104568
11.998838 4.018902 0.118803
12.314190 4.018902 0.089253
12.629539 4.018902 0.080310
12.944889 4.018902 0.070004
13.260239 4.018902 0.077935
13.575588 4.018902 0.117107
13.890940 4.018902 0.190805
14.206289 4.018902 0.157484
14.521639 4.018902 0.237100
14.836988 4.018902 0.391063
15.152340 4.018902 0.302067
15.467690 4.018902 0.000000
15.783039 4.018902 0.000000
16.098389 4.018902 0.000000
16.413738 4.018902 0.000000
16.729090 4.018902 0.000000
17.044439 4.018902 0.000000
17.359789 4.018902 0.000000
17.675138 4.018902 0.000000
17.990490 4.018902 0.342603
18.305840 4.018902 0.351989
18.621189 4.018902 -0.128048
18.936539 4.018902 0.000000
19.251888 4.018902 0.000000
-7.237510 3.703552 0.000000
-6.922160 3.703552 0.000502
-6.606810 3.703552 0.000436
-6.291460 3.703552 0.000483
-5.976110 3.703552 0.000476
-5.660760 3.703552 0.000526
-5.345410 3.703552 0.000453
-5.030060 3.703552 0.000371
-4.714710 3.703552 0.000422
-4.399360 3.703552 0.000456
-4.084010 3.703552 0.000527
-3.768660 3.703552 0.000550
-3.453310 3.703552 0.000501
-3.137960 3.703552 0.000432
-2.822610 3.703552 0.000408
-2.507260 3.703552 0.000454
-2.191910 3.703552 0.000530
-1.876560 3.703552 0.000492
-1.561210 3.703552 0.000462
-1.245860 3.703552 0.000511
-0.930510 3.703552 0.000495
-0.615160 3.703552 0.000420
-0.299810 3.703552 0.000325
0.015540 3.703552 0.000334
0.330890 3.703552 0.000481
0.646240 3.703552 0.000457
0.961589 3.703552 0.000390
1.276940 3.703552 0.000430
1.592289 3.703552 0.000489
1.907640 3.703552 0.000602
2.222990 3.703552 0.000580
2.538340 3.703552 0.000553
2.853690 3.703552 0.000471
3.169039 3.703552 0.000391
3.484390 3.703552 0.000395
3.799739 3.703552 0.000359
4.115090 3.703552 0.000349
4.430439 3.703552 0.000406
4.745790 3.703552 0.000225
5.061140 3.703552 -0.000250
5.376490 3.703552 -0.000724
5.691840 3.703552 -0.001111
6.007189 3.703552 -0.001612
6.322540 3.703552 -0.002490
6.637889 3.703552 -0.003337
6.953240 3.703552 -0.003777
7.268589 3.703552 -0.001965
7.583940 3.703552 0.001569
7.899290 3.703552 0.008436
8.214640 3.703552 0.021905
8.529989 3.703552 0.034830
8.845339 3.703552 0.037499
9.160688 3.703552 0.046752
9.476040 3.703552 0.045480
9.791389 3.703552 0.044451
10.106739 3.703552 0.061814
10.422089 3.703552 0.051813
10.737438 3.703552 0.046749
11.052790 3.703552 0.052635
11.368139 3.703552 0.070605
11.683489 3.703552 0.074978
11.998838 3.703552 0.086593
12.314190 3.703552 0.065752
12.629539 3.703552 0.059156
12.944889 3.703552 0.050990
13.260239 3.703552 0.102670
13.575588 3.703552 0.134262
13.890940 3.703552 0.214687
14.206289 3.703552 0.231488
14.521639 3.703552 0.300368
14.836988 3.703552 0.494644
15.152340 3.703552 0.522200
15.467690 3.703552 0.000000
15.783039 3.703552 0.000000
16.098389 3.703552 0.000000
16.413738 3.703552 0.000000
16.729090 3.703552 0.000000
17.044439 3.703552 0.000000
17.359789 3.703552 0.000000
17.675138 3.703552 0.000000
17.990490 3.703552 0.333080
18.305840 3.703552 0.317572
18.621189 3.703552 -0.159540
18.936539 3.703552 0.000000
19.251888 3.703552 0.000000
-7.237510 3.388203 0.000000
-6.922160 3.388203 0.000516
-6.606810 3.388203 0.000449
-6.291460 3.388203 0.000502
-5.976110 3.388203 0.000481
-5.660760 3.388203 0.000520
-5.345410 3.388203 0.000478
-5.030060 3.388203 0.000393
-4.714710 3.388203 0.000436
-4.399360 3.388203 0.000474
-4.084010 3.388203 0.000535
-3.768660 3.388203 0.000547
-3.453310 3.388203 0.000511
-3.137960 3.388203 0.000450
-2.822610 3.388203 0.000425
-2.507260 3.388203 0.000464
-2.191910 3.388203 0.000542
-1.876560 3.388203 0.000551
-1.561210 3.388203 0.000511
-1.245860 3.388203 0.000525
-0.930510 3.388203 0.000459
-0.615160 3.388203 0.000444
-0.299810 3.388203 0.000408
0.015540 3.388203 0.000467
0.330890 3.388203 0.000625
0.646240 3.388203 0.000614
0.961589 3.388203 0.000519
1.276940 3.388203 0.000503
1.592289 3.388203 0.000608
1.907640 3.388203 0.000794
2.222990 3.388203 0.000729
2.538340 3.388203 0.000577
2.853690 3.388203 0.000469
3.169039 3.388203 0.000477
3.484390 3.388203 0.000458
3.799739 3.388203 0.000415
4.115090 3.388203 0.000464
4.430439 3.388203 0.000428
4.745790 3.388203 0.000097
5.061140 3.388203 -0.000438
5.376490 3.388203 -0.000943
5.691840 3.388203 -0.001286
6.007189 3.388203 -0.001758
6.322540 3.388203 -0.002240
6.637889 3.388203 -0.002633
6.953240 3.388203 -0.002575
7.268589 3.388203 -0.002572
7.583940 3.388203 0.001486
7.899290 3.388203 0.011114
8.214640 3.388203 0.023760
8.529989 3.388203 0.031189
8.845339 3.388203 0.041874
9.160688 3.388203 0.041592
9.476040 3.388203 0.031862
9.791389 3.388203 0.037219
10.106739 3.388203 0.057903
10.422089 3.388203 0.060279
10.737438 3.388203 0.059361
11.052790 3.388203 0.061999
11.368139 3.388203 0.077017
11.683489 3.388203 0.092213
11.998838 3.388203 0.061532
12.314190 3.388203 0.064394
12.629539 3.388203 0.055471
12.944889 3.388203 0.032546
13.260239 3.388203 0.110203
13.575588 3.388203 0.184769
13.890940 3.388203 0.247462
14.206289 3.388203 0.301668
14.521639 3.388203 0.362837
14.836988 3.388203 0.501231
15.152340 3.388203 0.528172
15.467690 3.388203 0.000000
15.783039 3.388203 0.000000
16.098389 3.388203 0.000000
16.413738 3.388203 0.000000
16.729090 3.388203 0.000000
17.044439 3.388203 0.000000
17.359789 3.388203 0.000000
17.675138 3.388203 0.000000
17.990490 3.388203 0.393406
18.305840 3.388203 0.173409
18.621189 3.388203 -0.356003
18.936539 3.388203 0.000000
19.251888 3.388203 0.000000
-7.237510 3.072849 0.000000
-6.922160 3.072849 0.000571
-6.606810 3.072849 0.000471
-6.291460 3.072849 0.000523
-5.976110 3.072849 0.000519
-5.660760 3.072849 0.000525
-5.345410 3.072849 0.000492
-5.030060 3.072849 0.000431
-4.714710 3.072849 0.000434
-4.399360 3.072849 0.000460
-4.084010 3.072849 0.000519
-3.768660 3.072849 0.000550
-3.453310 3.072849 0.000482
-3.137960 3.072849 0.000428
-2.822610 3.072849 0.000455
-2.507260 3.072849 0.000470
-2.191910 3.072849 0.000537
-1.876560 3.072849 0.000570
-1.561210 3.072849 0.000557
-1.245860 3.072849 0.000575
-0.930510 3.072849 0.000446
-0.615160 3.072849 0.000452
-0.299810 3.072849 0.000491
0.015540 3.072849 0.000574
0.330890 3.072849 0.000723
0.646240 3.072849 0.000711
0.961589 3.072849 0.000587
1.276940 3.072849 0.000566
1.592289 3.072849 0.000726
1.907640 3.072849 0.000912
2.222990 3.072849 0.000791
2.538340 3.072849 0.000594
2.853690 3.072849 0.000476
3.169039 3.072849 0.000549
3.484390 3.072849 0.000474
3.799739 3.072849 0.000436
4.115090 3.072849 0.000531
4.430439 3.072849 0.000396
4.745790 3.072849 -0.000143
5.061140 3.072849 -0.000724
5.376490 3.072849 -0.001016
5.691840 3.072849 -0.001381
6.007189 3.072849 -0.001915
6.322540 3.072849 -0.002167
6.637889 3.072849 -0.002146
6.953240 3.072849 -0.001720
7.268589 3.072849 -0.002364
7.583940 3.072849 0.002759
7.899290 3.072849 0.009759
8.214640 3.072849 0.021647
8.529989 3.072849 0.025228
8.845339 3.072849 0.035531
9.160688 3.072849 0.042399
9.476040 3.072849 0.036517
9.791389 3.072849 0.051721
10.106739 3.072849 0.051270
10.422089 3.072849 0.065113
10.737438 3.072849 0.052837
11.052790 3.072849 0.068308
11.368139 3.072849 0.086336
11.683489 3.072849 0.101013
11.998838 3.072849 0.083805
12.314190 3.072849 0.078576
12.629539 3.072849 0.026969
12.944889 3.072849 0.040973
13.260239 3.072849 0.068259
13.575588 3.072849 0.175194
13.890940 3.072849 0.210457
14.206289 3.072849 0.288419
14.521639 3.072849 0.352777
14.836988 3.072849 0.488198
15.152340 3.072849 0.000000
15.467690 3.072849 0.000000
15.783039 3.072849 0.000000
16.098389 3.072849 0.000000
16.413738 3.072849 0.000000
16.729090 3.072849 0.000000
17.044439 3.072849 0.000000
17.359789 3.072849 0.000000
17.675138 3.072849 0.000000
17.990490 3.072849 0.471932
18.305840 3.072849 0.092623
18.621189 3.072849 -0.550725
18.936539 3.072849 0.000000
19.251888 3.072849 0.000000
-7.237510 2.757500 0.000000
-6.922160 2.757500 0.000612
-6.606810 2.757500 0.000503
-6.291460 2.757500 0.000584
-5.976110 2.757500 0.000572
-5.660760 2.757500 0.000532
-5.345410 2.757500 0.000494
-5.030060 2.757500 0.000430
-4.714710 2.757500 0.000423
-4.399360 2.757500 0.000439
-4.084010 2.757500 0.000508
-3.768660 2.757500 0.000574
-3.453310 2.757500 0.000485
-3.137960 2.757500 0.000417
-2.822610 2.757500 0.000440
-2.507260 2.757500 0.000478
-2.191910 2.757500 0.000551
-1.876560 2.757500 0.000634
-1.561210 2.757500 0.000633
-1.245860 2.757500 0.000640
-0.930510 2.757500 0.000518
-0.615160 2.757500 0.000473
-0.299810 2.757500 0.000555
0.015540 2.757500 0.000669
0.330890 2.757500 0.000764
0.646240 2.757500 0.000722
0.961589 2.757500 0.000601
1.276940 2.757500 0.000646
1.592289 2.757500 0.000847
1.907640 2.757500 0.000974
2.222990 2.757500 0.000787
2.538340 2.757500 0.000557
2.853690 2.757500 0.000495
3.169039 2.757500 0.000576
3.484390 2.757500 0.000447
3.799739 2.757500 0.000428
4.115090 2.757500 0.000438
4.430439 2.757500 0.000244
4.745790 2.757500 -0.000310
5.061140 2.757500 -0.000853
5.376490 2.757500 -0.001112
5.691840 2.757500 -0.001588
6.007189 2.757500 -0.002269
6.322540 2.757500 -0.002415
6.637889 2.757500 -0.001905
6.953240 2.757500 -0.001818
7.268589 2.757500 -0.000759
7.583940 2.757500 0.001648
7.899290 2.757500 0.009500
8.214640 2.757500 0.018587
8.529989 2.757500 0.030083
8.845339 2.757500 0.035829
9.160688 2.757500 0.040875
9.476040 2.757500 0.046015
9.791389 2.757500 0.045950
10.106739 2.757500 0.056958
10.422089 2.757500 0.068350
10.737438 2.757500 0.063802
11.052790 2.757500 0.068693
11.368139 2.757500 0.079855
11.683489 2.757500 0.064031
11.998838 2.757500 0.032250
12.314190 2.757500 0.041501
12.629539 2.757500 0.033465
12.944889 2.757500 0.010710
13.260239 2.757500 0.086443
13.575588 2.757500 0.149526
13.890940 2.757500 0.147527
14.206289 2.757500 0.224536
14.521639 2.757500 0.254502
14.836988 2.757500 0.327507
15.152340 2.757500 0.000000
15.467690 2.757500 0.000000
15.783039 2.757500 0.000000
16.098389 2.757500 0.000000
16.413738 2.757500 0.000000
16.729090 2.757500 0.000000
17.044439 2.757500 0.000000
17.359789 2.757500 0.000000
17.675138 2.757500 0.000000
17.990490 2.757500 0.559030
18.305840 2.757500 0.096225
18.621189 2.757500 -0.649199
18.936539 2.757500 0.000000
19.251888 2.757500 0.000000
-7.237510 2.442150 0.000000
-6.922160 2.442150 0.000583
-6.606810 2.442150 0.000554
-6.291460 2.442150 0.000623
-5.976110 2.442150 0.000622
-5.660760 2.442150 0.000561
-5.345410 2.442150 0.000512
-5.030060 2.442150 0.000438
-4.714710 2.442150 0.000435
-4.399360 2.442150 0.000451
-4.084010 2.442150 0.000493
-3.768660 2.442150 0.000617
-3.453310 2.442150 0.000533
-3.137960 2.442150 0.000444
-2.822610 2.442150 0.000453
-2.507260 2.442150 0.000504
-2.191910 2.442150 0.000624
-1.876560 2.442150 0.000751
-1.561210 2.442150 0.000717
-1.245860 2.442150 0.000718
-0.930510 2.442150 0.000615
-0.615160 2.442150 0.000513
-0.299810 2.442150 0.000616
0.015540 2.442150 0.000744
0.330890 2.442150 0.000770
0.646240 2.442150 0.000665
0.961589 2.442150 0.000616
1.276940 2.442150 0.000718
1.592289 2.442150 0.000952
1.907640 2.442150 0.000964
2.222990 2.442150 0.000689
2.538340 2.442150 0.000481
2.853690 2.442150 0.000497
3.169039 2.442150 0.000481
3.484390 2.442150 0.000346
3.799739 2.442150 0.000395
4.115090 2.442150 0.000321
4.430439 2.442150 0.000055
4.745790 2.442150 -0.000432
5.061140 2.442150 -0.000951
5.376490 2.442150 -0.001291
5.691840 2.442150 -0.001927
6.007189 2.442150 -0.002815
6.322540 2.442150 -0.002959
6.637889 2.442150 -0.002870
6.953240 2.442150 -0.002155
7.268589 2.442150 -0.000064
7.583940 2.442150 0.003828
7.899290 2.442150 0.010306
8.214640 2.442150 0.018744
8.529989 2.442150 0.035275
8.845339 2.442150 0.039471
9.160688 2.442150 0.039240
9.476040 2.442150 0.046218
9.791389 2.442150 0.034007
10.106739 2.442150 0.055708
10.422089 2.442150 0.085355
10.737438 2.442150 0.073012
11.052790 2.442150 0.035678
11.368139 2.442150 0.054514
11.683489 2.442150 0.057058
11.998838 2.442150 0.040896
12.314190 2.442150 0.022065
12.629539 2.442150 0.038219
12.944889 2.442150 0.058837
13.260239 2.442150 0.071153
13.575588 2.442150 0.173936
13.890940 2.442150 0.132750
14.206289 2.442150 0.112475
14.521639 2.442150 0.059175
14.836988 2.442150 0.176706
15.152340 2.442150 0.000000
15.467690 2.442150 0.000000
15.783039 2.442150 0.000000
16.098389 2.442150 0.000000
16.413738 2.442150 0.000000
16.729090 2.442150 0.000000
17.044439 2.442150 0.000000
17.359789 2.442150 0.000000
17.675138 2.442150 0.000000
17.990490 2.442150 0.621087
18.305840 2.442150 -0.026295
18.621189 2.442150 -0.908340
18.936539 2.442150 0.000000
19.251888 2.442150 0.000000
-7.237510 2.126801 0.000000
-6.922160 2.126801 0.000601
-6.606810 2.126801 0.000573
-6.291460 2.126801 0.000628
-5.976110 2.126801 0.000615
-5.660760 2.126801 0.000591
-5.345410 2.126801 0.000554
-5.030060 2.126801 0.000511
-4.714710 2.126801 0.000510
-4.399360 2.126801 0.000497
-4.084010 2.126801 0.000541
-3.768660 2.126801 0.000655
-3.453310 2.126801 0.000592
-3.137960 2.126801 0.000491
-2.822610 2.126801 0.000472
-2.507260 2.126801 0.000582
-2.191910 2.126801 0.000741
-1.876560 2.126801 0.000876
-1.561210 2.126801 0.000809
-1.245860 2.126801 0.000767
-0.930510 2.126801 0.000718
-0.615160 2.126801 0.000641
-0.299810 2.126801 0.000748
0.015540 2.126801 0.000852
0.330890 2.126801 0.000801
0.646240 2.126801 0.000630
0.961589 2.126801 0.000611
1.276940 2.126801 0.000762
1.592289 2.126801 0.000892
1.907640 2.126801 0.000838
2.222990 2.126801 0.000573
2.538340 2.126801 0.000460
2.853690 2.126801 0.000462
3.169039 2.126801 0.000334
3.484390 2.126801 0.000234
3.799739 2.126801 0.000295
4.115090 2.126801 0.000178
4.430439 2.126801 -0.000157
4.745790 2.126801 -0.000484
5.061140 2.126801 -0.000951
5.376490 2.126801 -0.001557
5.691840 2.126801 -0.002458
6.007189 2.126801 -0.003155
6.322540 2.126801 -0.003189
6.637889 2.126801 -0.003314
6.953240 2.126801 -0.002754
7.268589 2.126801 -0.001676
7.583940 2.126801 0.003777
7.899290 2.126801 0.009451
8.214640 2.126801 0.021644
8.529989 2.126801 0.035169
8.845339 2.126801 0.042250
9.160688 2.126801 0.041887
9.476040 2.126801 0.043975
9.791389 2.126801 0.046591
10.106739 2.126801 0.050777
10.422089 2.126801 0.082494
10.737438 2.126801 0.074061
11.052790 2.126801 0.032995
11.368139 2.126801 0.020022
11.683489 2.126801 0.042036
11.998838 2.126801 0.037878
12.314190 2.126801 -0.010889
12.629539 2.126801 0.060111
12.944889 2.126801 0.055806
13.260239 2.126801 0.043837
13.575588 2.126801 0.122681
13.890940 2.126801 0.087770
14.206289 2.126801 0.027758
14.521639 2.126801 -0.022456
14.836988 2.126801 -0.159625
15.152340 2.126801 0.000000
15.467690 2.126801 0.000000
15.783039 2.126801 0.000000
16.098389 2.126801 0.000000
16.413738 2.126801 0.000000
16.729090 2.126801 0.000000
17.044439 2.126801 0.000000
17.359789 2.126801 0.000000
17.675138 2.126801 0.000000
17.990490 2.126801 0.670101
18.305840 2.126801 -0.035656
18.621189 2.126801 -0.974271
18.936539 2.126801 0.000000
19.251888 2.126801 0.000000
-7.237510 1.811451 0.000000
-6.922160 1.811451 0.000646
-6.606810 1.811451 0.000536
-6.291460 1.811451 0.000569
-5.976110 1.811451 0.000593
-5.660760 1.811451 0.000615
-5.345410 1.811451 0.000609
-5.030060 1.811451 0.000611
-4.714710 1.811451 0.000629
-4.399360 1.811451 0.000592
-4.084010 1.811451 0.000603
-3.768660 1.811451 0.000642
-3.453310 1.811451 0.000625
-3.137960 1.811451 0.000593
-2.822610 1.811451 0.000557
-2.507260 1.811451 0.000688
-2.191910 1.811451 0.000886
-1.876560 1.811451 0.000996
-1.561210 1.811451 0.000832
-1.245860 1.811451 0.000820
-0.930510 1.811451 0.000788
-0.615160 1.811451 0.000749
-0.299810 1.811451 0.000874
0.015540 1.811451 0.000979
0.330890 1.811451 0.000861
0.646240 1.811451 0.000646
0.961589 1.811451 0.000621
1.276940 1.811451 0.000729
1.592289 1.811451 0.000742
1.907640 1.811451 0.000693
2.222990 1.811451 0.000522
2.538340 1.811451 0.000503
2.853690 1.811451 0.000479
3.169039 1.811451 0.000279
3.484390 1.811451 0.000180
3.799739 1.811451 0.000200
4.115090 1.811451 -0.000017
4.430439 1.811451 -0.000384
4.745790 1.811451 -0.000555
5.061140 1.811451 -0.000965
5.376490 1.811451 -0.001769
5.691840 1.811451 -0.002972
6.007189 1.811451 -0.003389
6.322540 1.811451 -0.003620
6.637889 1.811451 -0.004089
6.953240 1.811451 -0.004027
7.268589 1.811451 -0.000583
7.583940 1.811451 0.004118
7.899290 1.811451 0.011881
8.214640 1.811451 0.020838
8.529989 1.811451 0.031933
8.845339 1.811451 0.038653
9.160688 1.811451 0.038523
9.476040 1.811451 0.055010
9.791389 1.811451 0.044398
10.106739 1.811451 0.061099
10.422089 1.811451 0.074475
10.737438 1.811451 0.062330
11.052790 1.811451 0.052167
11.368139 1.811451 0.032262
11.683489 1.811451 0.041742
11.998838 1.811451 0.019807
12.314190 1.811451 -0.000866
12.629539 1.811451 0.023548
12.944889 1.811451 0.056089
13.260239 1.811451 0.041522
13.575588 1.811451 0.063884
13.890940 1.811451 0.088889
14.206289 1.811451 -0.063478
14.521639 1.811451 -0.309248
14.836988 1.811451 0.000000
15.152340 1.811451 0.000000
15.467690 1.811451 0.000000
15.783039 1.811451 0.000000
16.098389 1.811451 0.000000
16.413738 1.811451 0.000000
16.729090 1.811451 0.000000
17.044439 1.811451 0.000000
17.359789 1.811451 0.000000
17.675138 1.811451 0.000000
17.990490 1.811451 0.580323
18.305840 1.811451 -0.021036
18.621189 1.811451 -1.071916
18.936539 1.811451 0.000000
19.251888 1.811451 0.000000
-7.237510 1.496101 0.000000
-6.922160 1.496101 0.000704
-6.606810 1.496101 0.000500
-6.291460 1.496101 0.000516
-5.976110 1.496101 0.000585
-5.660760 1.496101 0.000693
-5.345410 1.496101 0.000675
-5.030060 1.496101 0.000688
-4.714710 1.496101 0.000721
-4.399360 1.496101 0.000662
-4.084010 1.496101 0.000659
-3.768660 1.496101 0.000663
-3.453310 1.496101 0.000686
-3.137960 1.496101 0.000711
-2.822610 1.496101 0.000684
-2.507260 1.496101 0.000777
-2.191910 1.496101 0.001007
-1.876560 1.496101 0.001006
-1.561210 1.496101 0.000825
-1.245860 1.496101 0.000859
-0.930510 1.496101 0.000836
-0.615160 1.496101 0.000817
-0.299810 1.496101 0.000913
0.015540 1.496101 0.000967
0.330890 1.496101 0.000874
0.646240 1.496101 0.000696
0.961589 1.496101 0.000678
1.276940 1.496101 0.000698
1.592289 1.496101 0.000662
1.907640 1.496101 0.000629
2.222990 1.496101 0.000540
2.538340 1.496101 0.000533
2.853690 1.496101 0.000512
3.169039 1.496101 0.000326
3.484390 1.496101 0.000245
3.799739 1.496101 0.000123
4.115090 1.496101 -0.000244
4.430439 1.496101 -0.000555
4.745790 1.496101 -0.000593
5.061140 1.496101 -0.001032
5.376490 1.496101 -0.001957
5.691840 1.496101 -0.002706
6.007189 1.496101 -0.003278
6.322540 1.496101 -0.003803
6.637889 1.496101 -0.004603
6.953240 1.496101 -0.004940
7.268589 1.496101 -0.001688
7.583940 1.496101 0.004902
7.899290 1.496101 0.015477
8.214640 1.496101 0.023022
8.529989 1.496101 0.032169
8.845339 1.496101 0.037662
9.160688 1.496101 0.047426
9.476040 1.496101 0.057505
9.791389 1.496101 0.051063
10.106739 1.496101 0.059887
10.422089 1.496101 0.053767
10.737438 1.496101 0.044011
11.052790 1.496101 0.032047
11.368139 1.496101 0.042447
11.683489 1.496101 0.052916
11.998838 1.496101 0.038648
12.314190 1.496101 0.039750
12.629539 1.496101 0.040961
12.944889 1.496101 -0.000060
13.260239 1.496101 -0.021985
13.575588 1.496101 -0.017809
13.890940 1.496101 -0.009817
14.206289 1.496101 -0.116410
14.521639 1.496101 -0.309581
14.836988 1.496101 0.000000
15.152340 1.496101 0.000000
15.467690 1.496101 0.000000
15.783039 1.496101 0.000000
16.098389 1.496101 0.000000
16.413738 1.496101 0.000000
16.729090 1.496101 0.000000
17.044439 1.496101 0.000000
17.359789 1.496101 0.000000
17.675138 1.496101 0.000000
17.990490 1.496101 0.464225
18.305840 1.496101 0.097807
18.621189 1.496101 -1.207078
18.936539 1.496101 0.000000
19.251888 1.496101 0.000000
-7.237510 1.180752 0.000000
-6.922160 1.180752 0.000758
-6.606810 1.180752 0.000503
-6.291460 1.180752 0.000502
-5.976110 1.180752 0.000626
-5.660760 1.180752 0.000755
-5.345410 1.180752 0.000714
-5.030060 1.180752 0.000712
-4.714710 1.180752 0.000814
-4.399360 1.180752 0.000730
-4.084010 1.180752 0.000731
-3.768660 1.180752 0.000777
-3.453310 1.180752 0.000800
-3.137960 1.180752 0.000883
-2.822610 1.180752 0.000844
-2.507260 1.180752 0.000861
-2.191910 1.180752 0.001066
-1.876560 1.180752 0.001008
-1.561210 1.180752 0.000866
-1.245860 1.180752 0.000909
-0.930510 1.180752 0.000893
-0.615160 1.180752 0.000860
-0.299810 1.180752 0.000902
0.015540 1.180752 0.000915
0.330890 1.180752 0.000851
0.646240 1.180752 0.000795
0.961589 1.180752 0.000767
1.276940 1.180752 0.000722
1.592289 1.180752 0.000725
1.907640 1.180752 0.000722
2.222990 1.180752 0.000597
2.538340 1.180752 0.000563
2.853690 1.180752 0.000564
3.169039 1.180752 0.000421
3.484390 1.180752 0.000328
3.799739 1.180752 0.000067
4.115090 1.180752 -0.000380
4.430439 1.180752 -0.000653
4.745790 1.180752 -0.000638
5.061140 1.180752 -0.001196
5.376490 1.180752 -0.002115
5.691840 1.180752 -0.002690
6.007189 1.180752 -0.003391
6.322540 1.180752 -0.004113
6.637889 1.180752 -0.004399
6.953240 1.180752 -0.003737
7.268589 1.180752 -0.002433
7.583940 1.180752 0.006056
7.899290 1.180752 0.016352
8.214640 1.180752 0.029264
8.529989 1.180752 0.036390
8.845339 1.180752 0.043975
9.160688 1.180752 0.054331
9.476040 1.180752 0.057141
9.791389 1.180752 0.057453
10.106739 1.180752 0.073224
10.422089 1.180752 0.059460
10.737438 1.180752 0.041791
11.052790 1.180752 0.045031
11.368139 1.180752 0.041538
11.683489 1.180752 0.024075
11.998838 1.180752 0.035372
12.314190 1.180752 0.051221
12.629539 1.180752 0.054394
12.944889 1.180752 0.042793
13.260239 1.180752 -0.026160
13.575588 1.180752 -0.076993
13.890940 1.180752 -0.042694
14.206289 1.180752 -0.203715
14.521639 1.180752 -0.341899
14.836988 1.180752 0.000000
15.152340 1.180752 0.000000
15.467690 1.180752 0.000000
15.783039 1.180752 0.000000
16.098389 1.180752 0.000000
16.413738 1.180752 0.000000
16.729090 1.180752 0.000000
17.044439 1.180752 0.000000
17.359789 1.180752 0.000000
17.675138 1.180752 0.000000
17.990490 1.180752 0.421451
18.305840 1.180752 0.113142
18.621189 1.180752 -1.239110
18.936539 1.180752 0.000000
19.251888 1.180752 0.000000
-7.237510 0.865402 0.000000
-6.922160 0.865402 0.000479
-6.606810 0.865402 0.000530
-6.291460 0.865402 0.000579
-5.976110 0.865402 0.000720
-5.660760 0.865402 0.000882
-5.345410 0.865402 0.000802
-5.030060 0.865402 0.000774
-4.714710 0.865402 0.000986
-4.399360 0.865402 0.000974
-4.084010 0.865402 0.001014
-3.768660 0.865402 0.001012
-3.453310 0.865402 0.000990
-3.137960 0.865402 0.001169
-2.822610 0.865402 0.001149
-2.507260 0.865402 0.001104
-2.191910 0.865402 0.001242
-1.876560 0.865402 0.001166
-1.561210 0.865402 0.001038
-1.245860 0.865402 0.001056
-0.930510 0.865402 0.000913
-0.615160 0.865402 0.000929
-0.299810 0.865402 0.000940
0.015540 0.865402 0.000947
0.330890 0.865402 0.000960
0.646240 0.865402 0.000973
0.961589 0.865402 0.000951
1.276940 0.865402 0.000948
1.592289 0.865402 0.000958
1.907640 0.865402 0.001017
2.222990 0.865402 0.000777
2.538340 0.865402 0.000694
2.853690 0.865402 0.000710
3.169039 0.865402 0.000595
3.484390 0.865402 0.000449
3.799739 0.865402 0.000004
4.115090 0.865402 -0.000503
4.430439 0.865402 -0.000629
4.745790 0.865402 -0.000764
5.061140 0.865402 -0.001488
5.376490 0.865402 -0.002234
5.691840 0.865402 -0.002778
6.007189 0.865402 -0.003597
6.322540 0.865402 -0.004566
6.637889 0.865402 -0.005944
6.953240 0.865402 -0.004387
7.268589 0.865402 0.001131
7.583940 0.865402 0.010924
7.899290 0.865402 0.025818
8.214640 0.865402 0.035312
8.529989 0.865402 0.046560
8.845339 0.865402 0.043400
9.160688 0.865402 0.054344
9.476040 0.865402 0.052314
9.791389 0.865402 0.057335
10.106739 0.865402 0.079737
10.422089 0.865402 0.066315
10.737438 0.865402 0.081585
11.052790 0.865402 0.040175
11.368139 0.865402 0.023246
11.683489 0.865402 0.038594
11.998838 0.865402 0.052564
12.314190 0.865402 0.028889
12.629539 0.865402 0.063100
12.944889 0.865402 0.040100
13.260239 0.865402 -0.001391
13.575588 0.865402 -0.090804
13.890940 0.865402 -0.117641
14.206289 0.865402 -0.212487
14.521639 0.865402 -0.299087
14.836988 0.865402 0.000000
15.152340 0.865402 0.000000
15.467690 0.865402 0.000000
15.783039 0.865402 0.000000
16.098389 0.865402 0.000000
16.413738 0.865402 0.000000
16.729090 0.865402 0.000000
17.044439 0.865402 0.000000
17.359789 0.865402 0.000000
17.675138 0.865402 0.000000
17.990490 0.865402 0.318055
18.305840 0.865402 0.081352
18.621189 0.865402 -1.242301
18.936539 0.865402 0.000000
19.251888 0.865402 0.000000
-7.237510 0.550053 0.000000
-6.922160 0.550053 0.000497
-6.606810 0.550053 0.000484
-6.291460 0.550053 0.000697
-5.976110 0.550053 0.000912
-5.660760 0.550053 0.001181
-5.345410 0.550053 0.001095
-5.030060 0.550053 0.001079
-4.714710 0.550053 0.001332
-4.399360 0.550053 0.001440
-4.084010 0.550053 0.001481
-3.768660 0.550053 0.001475
-3.453310 0.550053 0.001368
-3.137960 0.550053 0.001599
-2.822610 0.550053 0.001633
-2.507260 0.550053 0.001510
-2.191910 0.550053 0.001691
-1.876560 0.550053 0.001645
-1.561210 0.550053 0.001457
-1.245860 0.550053 0.001365
-0.930510 0.550053 0.001042
-0.615160 0.550053 0.001084
-0.299810 0.550053 0.001108
0.015540 0.550053 0.001127
0.330890 0.550053 0.001130
0.646240 0.550053 0.001240
0.961589 0.550053 0.001257
1.276940 0.550053 0.001278
1.592289 0.550053 0.001375
1.907640 0.550053 0.001415
2.222990 0.550053 0.001156
2.538340 0.550053 0.000972
2.853690 0.550053 0.001003
3.169039 0.550053 0.000866
3.484390 0.550053 0.000562
3.799739 0.550053 -0.000049
4.115090 0.550053 -0.000475
4.430439 0.550053 -0.000544
4.745790 0.550053 -0.000932
5.061140 0.550053 -0.001914
5.376490 0.550053 -0.002734
5.691840 0.550053 -0.003349
6.007189 0.550053 -0.004406
6.322540 0.550053 -0.006333
6.637889 0.550053 -0.006648
6.953240 0.550053 -0.005469
7.268589 0.550053 0.000696
7.583940 0.550053 0.015811
7.899290 0.550053 0.032914
8.214640 0.550053 0.038009
8.529989 0.550053 0.044105
8.845339 0.550053 0.046917
9.160688 0.550053 0.046854
9.476040 0.550053 0.053555
9.791389 0.550053 0.064552
10.106739 0.550053 0.076235
10.422089 0.550053 0.092068
10.737438 0.550053 0.103174
11.052790 0.550053 0.045790
11.368139 0.550053 0.071331
11.683489 0.550053 0.054645
11.998838 0.550053 0.068075
12.314190 0.550053 0.140276
12.629539 0.550053 0.075830
12.944889 0.550053 0.065200
13.260239 0.550053 0.056480
13.575588 0.550053 -0.089244
13.890940 0.550053 -0.084519
14.206289 0.550053 -0.193986
14.521639 0.550053 -0.465433
14.836988 0.550053 0.000000
15.152340 0.550053 0.000000
15.467690 0.550053 0.000000
15.783039 0.550053 0.000000
16.098389 0.550053 0.000000
16.413738 0.550053 0.000000
16.729090 0.550053 0.000000
17.044439 0.550053 0.000000
17.359789 0.550053 0.000000
17.675138 0.550053 0.000000
17.990490 0.550053 0.230882
18.305840 0.550053 -0.011761
18.621189 0.550053 -1.528064
18.936539 0.550053 0.000000
19.251888 0.550053 0.000000
-7.237510 0.234699 0.000000
-6.922160 0.234699 0.000000
-6.606810 0.234699 0.000000
-6.291460 0.234699 0.000000
-5.976110 0.234699 0.000000
-5.660760 0.234699 0.000000
-5.345410 0.234699 0.000000
-5.030060 0.234699 0.000000
-4.714710 0.234699 0.000000
-4.399360 0.234699 0.000000
-4.084010 0.234699 0.000000
-3.768660 0.234699 0.000000
-3.453310 0.234699 0.000000
-3.137960 0.234699 0.000000
-2.822610 0.234699 0.000000
-2.507260 0.234699 0.000000
-2.191910 0.234699 0.000000
-1.876560 0.234699 0.000000
-1.561210 0.234699 0.000000
-1.245860 0.234699 0.000000
-0.930510 0.234699 0.000000
-0.615160 0.234699 0.000000
-0.299810 0.234699 0.000000
0.015540 0.234699 0.000000
0.330890 0.234699 0.000000
0.646240 0.234699 0.000000
0.961589 0.234699 0.000000
1.276940 0.234699 0.000000
1.592289 0.234699 0.000000
1.907640 0.234699 0.000000
2.222990 0.234699 0.000000
2.538340 0.234699 0.000000
2.853690 0.234699 0.000000
3.169039 0.234699 0.000000
3.484390 0.234699 0.000000
3.799739 0.234699 0.000000
4.115090 0.234699 0.000000
4.430439 0.234699 0.000000
4.745790 0.234699 0.000000
5.061140 0.234699 0.000000
5.376490 0.234699 0.000000
5.691840 0.234699 0.000000
6.007189 0.234699 0.000000
6.322540 0.234699 -1.702152
6.637889 0.234699 -0.004307
6.953240 0.234699 -0.050400
7.268589 0.234699 -0.048632
7.583940 0.234699 0.126263
7.899290 0.234699 0.096230
8.214640 0.234699 0.047889
8.529989 0.234699 0.019320
8.845339 0.234699 0.013876
9.160688 0.234699 0.029562
9.476040 0.234699 0.020690
9.791389 0.234699 0.032586
10.106739 0.234699 0.054875
10.422089 0.234699 0.074901
10.737438 0.234699 0.080927
11.052790 0.234699 0.074788
11.368139 0.234699 0.052979
11.683489 0.234699 0.021026
11.998838 0.234699 0.086813
12.314190 0.234699 0.139841
12.629539 0.234699 0.033760
12.944889 0.234699 -0.014229
13.260239 0.234699 -0.056960
13.575588 0.234699 -0.120634
13.890940 0.234699 -0.210361
14.206289 0.234699 -0.262359
14.521639 0.234699 0.000000
14.836988 0.234699 0.000000
15.152340 0.234699 0.000000
15.467690 0.234699 0.000000
15.783039 0.234699 0.000000
16.098389 0.234699 0.000000
16.413738 0.234699 0.000000
16.729090 0.234699 0.000000
17.044439 0.234699 0.000000
17.359789 0.234699 0.000000
17.675138 0.234699 0.000000
17.990490 0.234699 0.162118
18.305840 0.234699 0.034477
18.621189 0.234699 -1.540210
18.936539 0.234699 0.000000
19.251888 0.234699 0.000000
-7.237510 -0.080650 0.000000
-6.922160 -0.080650 0.000000
-6.606810 -0.080650 0.000000
-6.291460 -0.080650 0.000000
-5.976110 -0.080650 0.000000
-5.660760 -0.080650 0.000000
-5.345410 -0.080650 0.000000
-5.030060 -0.080650 0.000000
-4.714710 -0.080650 0.000000
-4.399360 -0.080650 0.000000
-4.084010 -0.080650 0.000000
-3.768660 -0.080650 0.000000
-3.453310 -0.080650 0.000000
-3.137960 -0.080650 0.000000
-2.822610 -0.080650 0.000000
-2.507260 -0.080650 0.000000
-2.191910 -0.080650 0.000000
-1.876560 -0.080650 0.000000
-1.561210 -0.080650 0.000000
-1.245860 -0.080650 0.000000
-0.930510 -0.080650 0.000000
-0.615160 -0.080650 0.000000
-0.299810 -0.080650 0.000000
0.015540 -0.080650 0.000000
0.330890 -0.080650 0.000000
0.646240 -0.080650 0.000000
0.961589 -0.080650 0.000000
1.276940 -0.080650 0.000000
1.592289 -0.080650 0.000000
1.907640 -0.080650 0.000000
2.222990 -0.080650 0.000000
2.538340 -0.080650 0.000000
2.853690 -0.080650 0.000000
3.169039 -0.080650 0.000000
3.484390 -0.080650 0.000000
3.799739 -0.080650 0.000000
4.115090 -0.080650 0.000000
4.430439 -0.080650 0.000000
4.745790 -0.080650 0.000000
5.061140 -0.080650 0.000000
5.376490 -0.080650 0.000000
5.691840 -0.080650 0.000000
6.007189 -0.080650 0.000000
6.322540 -0.080650 0.000000
6.637889 -0.080650 0.000000
6.953240 -0.080650 0.000000
7.268589 -0.080650 0.000000
7.583940 -0.080650 0.000000
7.899290 -0.080650 0.000000
8.214640 -0.080650 0.000000
8.529989 -0.080650 3.296611
8.845339 -0.080650 0.192649
9.160688 -0.080650 -2.415874
9.476040 -0.080650 -2.641931
9.791389 -0.080650 -0.941925
10.106739 -0.080650 -0.976304
10.422089 -0.080650 -0.571448
10.737438 -0.080650 0.028639
11.052790 -0.080650 -0.185341
11.368139 -0.080650 -0.304097
11.683489 -0.080650 -0.343352
11.998838 -0.080650 -0.228842
12.314190 -0.080650 -0.060778
12.629539 -0.080650 -0.067690
12.944889 -0.080650 -0.041555
13.260239 -0.080650 -0.061351
13.575588 -0.080650 -0.090223
13.890940 -0.080650 -0.046496
14.206289 -0.080650 -0.112481
14.521639 -0.080650 0.000000
14.836988 -0.080650 0.000000
15.152340 -0.080650 0.000000
15.467690 -0.080650 0.000000
15.783039 -0.080650 0.000000
16.098389 -0.080650 0.000000
16.413738 -0.080650 0.000000
16.729090 -0.080650 0.000000
17.044439 -0.080650 0.000000
17.359789 -0.080650 0.000000
17.675138 -0.080650 0.000000
17.990490 -0.080650 0.128789
18.305840 -0.080650 0.151755
18.621189 -0.080650 -1.215184
18.936539 -0.080650 0.000000
19.251888 -0.080650 0.000000
-7.237510 -0.396000 0.000000
-6.922160 -0.396000 0.000000
-6.606810 -0.396000 0.000000
-6.291460 -0.396000 0.000000
-5.976110 -0.396000 0.000000
-5.660760 -0.396000 0.000000
-5.345410 -0.396000 0.000000
-5.030060 -0.396000 0.000000
-4.714710 -0.396000 0.000000
-4.399360 -0.396000 0.000000
-4.084010 -0.396000 0.000000
-3.768660 -0.396000 0.000000
-3.453310 -0.396000 0.000000
-3.137960 -0.396000 0.000000
-2.822610 -0.396000 0.000000
-2.507260 -0.396000 0.000000
-2.191910 -0.396000 0.000000
-1.876560 -0.396000 0.000000
-1.561210 -0.396000 0.000000
-1.245860 -0.396000 0.000000
-0.930510 -0.396000 0.000000
-0.615160 -0.396000 0.000000
-0.299810 -0.396000 0.000000
0.015540 -0.396000 0.000000
0.330890 -0.396000 0.000000
0.646240 -0.396000 0.000000
0.961589 -0.396000 0.000000
1.276940 -0.396000 0.000000
1.592289 -0.396000 0.000000
1.907640 -0.396000 0.000000
2.222990 -0.396000 0.000000
2.538340 -0.396000 0.000000
2.853690 -0.396000 0.000000
3.169039 -0.396000 0.000000
3.484390 -0.396000 0.000000
3.799739 -0.396000 0.000000
4.115090 -0.396000 0.000000
4.430439 -0.396000 0.000000
4.745790 -0.396000 0.000000
5.061140 -0.396000 0.000000
5.376490 -0.396000 0.000000
5.691840 -0.396000 0.000000
6.007189 -0.396000 0.000000
6.322540 -0.396000 0.000000
6.637889 -0.396000 0.000000
6.953240 -0.396000 0.000000
7.268589 -0.396000 0.000000
7.583940 -0.396000 0.000000
7.899290 -0.396000 0.000000
8.214640 -0.396000 0.000000
8.529989 -0.396000 0.000000
8.845339 -0.396000 0.000000
9.160688 -0.396000 0.000000
9.476040 -0.396000 0.000000
9.791389 -0.396000 0.000000
10.106739 -0.396000 0.000000
10.422089 -0.396000 0.000000
10.737438 -0.396000 0.000000
11.052790 -0.396000 0.826923
11.368139 -0.396000 -1.159338
11.683489 -0.396000 -1.529965
11.998838 -0.396000 -2.541151
12.314190 -0.396000 -2.940021
12.629539 -0.396000 -0.102241
12.944889 -0.396000 0.125775
13.260239 -0.396000 -0.638432
13.575588 -0.396000 -0.414863
13.890940 -0.396000 -0.321291
14.206289 -0.396000 -0.230746
14.521639 -0.396000 0.000000
14.836988 -0.396000 0.000000
15.152340 -0.396000 0.000000
15.467690 -0.396000 0.000000
15.783039 -0.396000 0.000000
16.098389 -0.396000 0.000000
16.413738 -0.396000 0.000000
16.729090 -0.396000 0.000000
17.044439 -0.396000 0.000000
17.359789 -0.396000 0.000000
17.675138 -0.396000 0.000000
17.990490 -0.396000 0.355431
18.305840 -0.396000 0.248726
18.621189 -0.396000 -0.194209
18.936539 -0.396000 0.000000
19.251888 -0.396000 0.000000
-7.237510 -0.711349 0.000000
-6.922160 -0.711349 0.000000
-6.606810 -0.711349 0.000000
-6.291460 -0.711349 0.000000
-5.976110 -0.711349 0.000000
-5.660760 -0.711349 0.000000
-5.345410 -0.711349 0.000000
-5.030060 -0.711349 0.000000
-4.714710 -0.711349 0.000000
-4.399360 -0.711349 0.000000
-4.084010 -0.711349 0.000000
-3.768660 -0.711349 0.000000
-3.453310 -0.711349 0.000000
-3.137960 -0.711349 0.000000
-2.822610 -0.711349 0.000000
-2.507260 -0.711349 0.000000
-2.191910 -0.711349 0.000000
-1.876560 -0.711349 0.000000
-1.561210 -0.711349 0.000000
-1.245860 -0.711349 0.000000
-0.930510 -0.711349 0.000000
-0.615160 -0.711349 0.000000
-0.299810 -0.711349 0.000000
0.015540 -0.711349 0.000000
0.330890 -0.711349 0.000000
0.646240 -0.711349 0.000000
0.961589 -0.711349 0.000000
1.276940 -0.711349 0.000000
1.592289 -0.711349 0.000000
1.907640 -0.711349 0.000000
2.222990 -0.711349 0.000000
2.538340 -0.711349 0.000000
2.853690 -0.711349 0.000000
3.169039 -0.711349 0.000000
3.484390 -0.711349 0.000000
3.799739 -0.711349 0.000000
4.115090 -0.711349 0.000000
4.430439 -0.711349 0.000000
4.745790 -0.711349 0.000000
5.061140 -0.711349 0.000000
5.376490 -0.711349 0.000000
5.691840 -0.711349 0.000000
6.007189 -0.711349 0.000000
6.322540 -0.711349 0.000000
6.637889 -0.711349 0.000000
6.953240 -0.711349 0.000000
7.268589 -0.711349 0.000000
7.583940 -0.711349 0.000000
7.899290 -0.711349 0.000000
8.214640 -0.711349 0.000000
8.529989 -0.711349 0.000000
8.845339 -0.711349 0.000000
9.160688 -0.711349 0.000000
9.476040 -0.711349 0.000000
9.791389 -0.711349 0.000000
10.106739 -0.711349 0.000000
10.422089 -0.711349 0.000000
10.737438 -0.711349 0.000000
11.052790 -0.711349 0.000000
11.368139 -0.711349 0.000000
11.683489 -0.711349 0.000000
11.998838 -0.711349 0.000000
12.314190 -0.711349 0.000000
12.629539 -0.711349 0.000000
12.944889 -0.711349 0.000000
13.260239 -0.711349 0.000000
13.575588 -0.711349 0.000000
13.890940 -0.711349 0.000000
14.206289 -0.711349 0.000000
14.521639 -0.711349 0.000000
14.836988 -0.711349 0.000000
15.152340 -0.711349 0.000000
15.467690 -0.711349 0.000000
15.783039 -0.711349 0.000000
16.098389 -0.711349 0.000000
16.413738 -0.711349 0.000000
16.729090 -0.711349 0.000000
17.044439 -0.711349 0.000000
17.359789 -0.711349 0.000000
17.675138 -0.711349 0.000000
17.990490 -0.711349 0.000000
18.305840 -0.711349 0.000000
18.621189 -0.711349 0.000000
18.936539 -0.711349 0.000000
19.251888 -0.711349 0.000000
