TITLE = "B00013"
VARIABLES = "x", "y", "Reynold stress YY"
ZONE T="Frame 1" I=85, J=164, F=POINT
-7.237510 50.690701 0.000000
-6.922160 50.690701 0.000000
-6.606810 50.690701 0.000000
-6.291460 50.690701 0.000000
-5.976110 50.690701 0.000000
-5.660760 50.690701 0.000000
-5.345410 50.690701 0.000000
-5.030060 50.690701 0.000000
-4.714710 50.690701 0.000000
-4.399360 50.690701 0.000000
-4.084010 50.690701 0.000000
-3.768660 50.690701 0.000000
-3.453310 50.690701 0.000000
-3.137960 50.690701 0.000000
-2.822610 50.690701 0.000000
-2.507260 50.690701 0.000000
-2.191910 50.690701 0.000000
-1.876560 50.690701 0.000000
-1.561210 50.690701 0.000000
-1.245860 50.690701 0.000000
-0.930510 50.690701 0.000000
-0.615160 50.690701 0.000000
-0.299810 50.690701 0.000000
0.015540 50.690701 0.000000
0.330890 50.690701 0.000000
0.646240 50.690701 0.000000
0.961589 50.690701 0.000000
1.276940 50.690701 0.000000
1.592289 50.690701 0.000000
1.907640 50.690701 0.000000
2.222990 50.690701 0.000000
2.538340 50.690701 0.000000
2.853690 50.690701 0.000000
3.169039 50.690701 0.000000
3.484390 50.690701 0.000000
3.799739 50.690701 0.000000
4.115090 50.690701 0.000000
4.430439 50.690701 0.000000
4.745790 50.690701 0.000000
5.061140 50.690701 0.000000
5.376490 50.690701 0.000000
5.691840 50.690701 0.000000
6.007189 50.690701 0.000000
6.322540 50.690701 0.000000
6.637889 50.690701 0.000000
6.953240 50.690701 0.000000
7.268589 50.690701 0.000000
7.583940 50.690701 0.000000
7.899290 50.690701 0.000000
8.214640 50.690701 0.000000
8.529989 50.690701 0.000000
8.845339 50.690701 0.000000
9.160688 50.690701 0.000000
9.476040 50.690701 0.000000
9.791389 50.690701 0.000000
10.106739 50.690701 0.000000
10.422089 50.690701 0.000000
10.737438 50.690701 0.000000
11.052790 50.690701 0.000000
11.368139 50.690701 0.000000
11.683489 50.690701 0.000000
11.998838 50.690701 0.000000
12.314190 50.690701 0.000000
12.629539 50.690701 0.000000
12.944889 50.690701 0.000000
13.260239 50.690701 0.000000
13.575588 50.690701 0.000000
13.890940 50.690701 0.000000
14.206289 50.690701 0.000000
14.521639 50.690701 0.000000
14.836988 50.690701 0.000000
15.152340 50.690701 0.000000
15.467690 50.690701 0.000000
15.783039 50.690701 0.000000
16.098389 50.690701 0.000000
16.413738 50.690701 0.000000
16.729090 50.690701 0.000000
17.044439 50.690701 0.000000
17.359789 50.690701 0.000000
17.675138 50.690701 0.000000
17.990490 50.690701 0.000000
18.305840 50.690701 0.000000
18.621189 50.690701 0.000000
18.936539 50.690701 0.000000
19.251888 50.690701 0.000000
-7.237510 50.375351 0.000000
-6.922160 50.375351 0.000000
-6.606810 50.375351 0.000000
-6.291460 50.375351 0.000000
-5.976110 50.375351 0.000000
-5.660760 50.375351 0.000000
-5.345410 50.375351 0.000000
-5.030060 50.375351 0.000000
-4.714710 50.375351 0.000000
-4.399360 50.375351 0.000000
-4.084010 50.375351 0.000000
-3.768660 50.375351 0.000000
-3.453310 50.375351 0.000000
-3.137960 50.375351 0.000000
-2.822610 50.375351 0.000000
-2.507260 50.375351 0.000000
-2.191910 50.375351 0.000000
-1.876560 50.375351 0.000000
-1.561210 50.375351 0.000000
-1.245860 50.375351 0.000000
-0.930510 50.375351 0.000000
-0.615160 50.375351 0.000000
-0.299810 50.375351 0.000000
0.015540 50.375351 0.000000
0.330890 50.375351 0.000000
0.646240 50.375351 0.000000
0.961589 50.375351 0.000000
1.276940 50.375351 0.000000
1.592289 50.375351 0.000000
1.907640 50.375351 0.000000
2.222990 50.375351 0.000000
2.538340 50.375351 0.000000
2.853690 50.375351 0.000000
3.169039 50.375351 0.000000
3.484390 50.375351 0.000000
3.799739 50.375351 0.000000
4.115090 50.375351 0.000000
4.430439 50.375351 0.000000
4.745790 50.375351 0.000000
5.061140 50.375351 0.000000
5.376490 50.375351 0.000000
5.691840 50.375351 0.000000
6.007189 50.375351 0.000000
6.322540 50.375351 0.000000
6.637889 50.375351 0.000000
6.953240 50.375351 0.000000
7.268589 50.375351 0.000000
7.583940 50.375351 0.000000
7.899290 50.375351 0.000000
8.214640 50.375351 0.000000
8.529989 50.375351 0.000000
8.845339 50.375351 0.000000
9.160688 50.375351 0.000000
9.476040 50.375351 0.000000
9.791389 50.375351 0.000000
10.106739 50.375351 0.000000
10.422089 50.375351 0.000000
10.737438 50.375351 0.000000
11.052790 50.375351 0.000000
11.368139 50.375351 0.000000
11.683489 50.375351 0.000000
11.998838 50.375351 0.000000
12.314190 50.375351 0.000000
12.629539 50.375351 0.000000
12.944889 50.375351 0.000000
13.260239 50.375351 0.000000
13.575588 50.375351 0.079366
13.890940 50.375351 0.000000
14.206289 50.375351 0.000000
14.521639 50.375351 0.000000
14.836988 50.375351 0.000000
15.152340 50.375351 4.745969
15.467690 50.375351 4.162072
15.783039 50.375351 3.664040
16.098389 50.375351 4.797727
16.413738 50.375351 6.423735
16.729090 50.375351 5.294226
17.044439 50.375351 3.815876
17.359789 50.375351 2.940960
17.675138 50.375351 3.001225
17.990490 50.375351 5.214723
18.305840 50.375351 4.702317
18.621189 50.375351 5.592432
18.936539 50.375351 6.893941
19.251888 50.375351 0.000000
-7.237510 50.060001 0.000000
-6.922160 50.060001 0.000000
-6.606810 50.060001 0.000000
-6.291460 50.060001 0.000000
-5.976110 50.060001 0.000000
-5.660760 50.060001 0.000000
-5.345410 50.060001 0.000000
-5.030060 50.060001 0.000000
-4.714710 50.060001 0.000000
-4.399360 50.060001 0.000000
-4.084010 50.060001 0.000000
-3.768660 50.060001 0.000000
-3.453310 50.060001 0.000000
-3.137960 50.060001 0.000000
-2.822610 50.060001 0.000000
-2.507260 50.060001 0.000000
-2.191910 50.060001 0.000000
-1.876560 50.060001 0.000000
-1.561210 50.060001 0.000000
-1.245860 50.060001 0.000000
-0.930510 50.060001 0.000000
-0.615160 50.060001 0.000000
-0.299810 50.060001 0.000000
0.015540 50.060001 0.000000
0.330890 50.060001 0.000000
0.646240 50.060001 0.000000
0.961589 50.060001 0.000000
1.276940 50.060001 0.000000
1.592289 50.060001 0.000000
1.907640 50.060001 0.000000
2.222990 50.060001 0.000000
2.538340 50.060001 0.000000
2.853690 50.060001 0.000000
3.169039 50.060001 0.000000
3.484390 50.060001 0.000000
3.799739 50.060001 0.000000
4.115090 50.060001 0.000000
4.430439 50.060001 0.000000
4.745790 50.060001 0.000000
5.061140 50.060001 0.000000
5.376490 50.060001 0.000000
5.691840 50.060001 0.000000
6.007189 50.060001 0.000000
6.322540 50.060001 0.000000
6.637889 50.060001 0.000000
6.953240 50.060001 0.000000
7.268589 50.060001 0.000000
7.583940 50.060001 0.000000
7.899290 50.060001 0.000000
8.214640 50.060001 0.000000
8.529989 50.060001 0.071228
8.845339 50.060001 0.000572
9.160688 50.060001 7.325347
9.476040 50.060001 12.513833
9.791389 50.060001 12.911602
10.106739 50.060001 11.805467
10.422089 50.060001 14.112936
10.737438 50.060001 5.542064
11.052790 50.060001 5.184620
11.368139 50.060001 4.589582
11.683489 50.060001 3.937795
11.998838 50.060001 5.731562
12.314190 50.060001 2.808574
12.629539 50.060001 3.795119
12.944889 50.060001 3.880679
13.260239 50.060001 2.933227
13.575588 50.060001 2.697811
13.890940 50.060001 2.834706
14.206289 50.060001 3.834533
14.521639 50.060001 4.095740
14.836988 50.060001 4.369155
15.152340 50.060001 3.850090
15.467690 50.060001 3.596791
15.783039 50.060001 2.964550
16.098389 50.060001 2.896672
16.413738 50.060001 2.612781
16.729090 50.060001 2.474613
17.044439 50.060001 2.715042
17.359789 50.060001 3.353081
17.675138 50.060001 4.470026
17.990490 50.060001 5.702071
18.305840 50.060001 7.281343
18.621189 50.060001 8.191659
18.936539 50.060001 9.914455
19.251888 50.060001 0.000000
-7.237510 49.744652 0.000000
-6.922160 49.744652 0.000000
-6.606810 49.744652 0.072105
-6.291460 49.744652 0.072020
-5.976110 49.744652 0.075504
-5.660760 49.744652 0.075134
-5.345410 49.744652 0.074623
-5.030060 49.744652 0.074559
-4.714710 49.744652 0.074560
-4.399360 49.744652 0.074194
-4.084010 49.744652 0.073856
-3.768660 49.744652 0.072976
-3.453310 49.744652 0.070871
-3.137960 49.744652 0.067773
-2.822610 49.744652 0.064466
-2.507260 49.744652 0.060887
-2.191910 49.744652 0.056156
-1.876560 49.744652 0.049550
-1.561210 49.744652 0.042183
-1.245860 49.744652 0.035099
-0.930510 49.744652 0.029143
-0.615160 49.744652 0.024872
-0.299810 49.744652 0.021866
0.015540 49.744652 0.019708
0.330890 49.744652 0.016853
0.646240 49.744652 0.013809
0.961589 49.744652 0.010242
1.276940 49.744652 0.008684
1.592289 49.744652 0.007139
1.907640 49.744652 0.006589
2.222990 49.744652 0.009251
2.538340 49.744652 0.010983
2.853690 49.744652 0.158761
3.169039 49.744652 0.067966
3.484390 49.744652 0.086353
3.799739 49.744652 4.699212
4.115090 49.744652 15.283064
4.430439 49.744652 2.684750
4.745790 49.744652 3.959943
5.061140 49.744652 0.000000
5.376490 49.744652 0.000000
5.691840 49.744652 0.000000
6.007189 49.744652 0.900860
6.322540 49.744652 1.113655
6.637889 49.744652 1.228487
6.953240 49.744652 2.182343
7.268589 49.744652 1.946794
7.583940 49.744652 0.787342
7.899290 49.744652 1.355681
8.214640 49.744652 1.616001
8.529989 49.744652 1.106861
8.845339 49.744652 1.063035
9.160688 49.744652 1.134037
9.476040 49.744652 1.136966
9.791389 49.744652 1.176969
10.106739 49.744652 1.281567
10.422089 49.744652 1.346742
10.737438 49.744652 1.404518
11.052790 49.744652 1.484764
11.368139 49.744652 1.664891
11.683489 49.744652 1.746548
11.998838 49.744652 1.899989
12.314190 49.744652 2.125556
12.629539 49.744652 2.317987
12.944889 49.744652 2.473547
13.260239 49.744652 2.572652
13.575588 49.744652 2.586152
13.890940 49.744652 2.623599
14.206289 49.744652 2.633861
14.521639 49.744652 2.714722
14.836988 49.744652 2.720257
15.152340 49.744652 2.812925
15.467690 49.744652 2.971727
15.783039 49.744652 3.341564
16.098389 49.744652 3.798798
16.413738 49.744652 4.194785
16.729090 49.744652 4.302247
17.044439 49.744652 4.469144
17.359789 49.744652 4.897669
17.675138 49.744652 5.385534
17.990490 49.744652 6.248244
18.305840 49.744652 7.420824
18.621189 49.744652 8.385898
18.936539 49.744652 9.247465
19.251888 49.744652 0.000000
-7.237510 49.429302 0.000000
-6.922160 49.429302 0.000000
-6.606810 49.429302 0.070433
-6.291460 49.429302 0.072150
-5.976110 49.429302 0.072236
-5.660760 49.429302 0.072340
-5.345410 49.429302 0.072294
-5.030060 49.429302 0.072321
-4.714710 49.429302 0.072452
-4.399360 49.429302 0.072666
-4.084010 49.429302 0.072959
-3.768660 49.429302 0.072961
-3.453310 49.429302 0.072085
-3.137960 49.429302 0.071301
-2.822610 49.429302 0.071060
-2.507260 49.429302 0.071266
-2.191910 49.429302 0.071525
-1.876560 49.429302 0.071377
-1.561210 49.429302 0.071237
-1.245860 49.429302 0.071881
-0.930510 49.429302 0.072261
-0.615160 49.429302 0.071661
-0.299810 49.429302 0.071368
0.015540 49.429302 0.071834
0.330890 49.429302 0.072382
0.646240 49.429302 0.072940
0.961589 49.429302 0.073212
1.276940 49.429302 0.073561
1.592289 49.429302 0.074129
1.907640 49.429302 0.074960
2.222990 49.429302 0.075750
2.538340 49.429302 0.075952
2.853690 49.429302 0.075761
3.169039 49.429302 0.076194
3.484390 49.429302 0.077186
3.799739 49.429302 0.077713
4.115090 49.429302 0.077756
4.430439 49.429302 0.078353
4.745790 49.429302 0.079700
5.061140 49.429302 0.081471
5.376490 49.429302 0.083719
5.691840 49.429302 0.086470
6.007189 49.429302 0.090008
6.322540 49.429302 0.094483
6.637889 49.429302 0.100286
6.953240 49.429302 0.107428
7.268589 49.429302 0.115794
7.583940 49.429302 0.129015
7.899290 49.429302 0.150205
8.214640 49.429302 0.192442
8.529989 49.429302 0.257174
8.845339 49.429302 0.366908
9.160688 49.429302 0.537754
9.476040 49.429302 0.786239
9.791389 49.429302 1.082865
10.106739 49.429302 1.373579
10.422089 49.429302 1.654516
10.737438 49.429302 1.965228
11.052790 49.429302 2.248766
11.368139 49.429302 2.478514
11.683489 49.429302 2.715960
11.998838 49.429302 2.956879
12.314190 49.429302 3.166222
12.629539 49.429302 3.297722
12.944889 49.429302 3.424258
13.260239 49.429302 3.413145
13.575588 49.429302 3.381387
13.890940 49.429302 3.402618
14.206289 49.429302 3.315824
14.521639 49.429302 3.279469
14.836988 49.429302 3.340513
15.152340 49.429302 3.303585
15.467690 49.429302 3.372916
15.783039 49.429302 3.690220
16.098389 49.429302 4.283808
16.413738 49.429302 4.774922
16.729090 49.429302 4.977319
17.044439 49.429302 5.353046
17.359789 49.429302 5.693389
17.675138 49.429302 6.366924
17.990490 49.429302 7.522559
18.305840 49.429302 9.029418
18.621189 49.429302 10.978327
18.936539 49.429302 12.330331
19.251888 49.429302 0.000000
-7.237510 49.113949 0.000000
-6.922160 49.113949 0.000000
-6.606810 49.113949 0.073164
-6.291460 49.113949 0.069933
-5.976110 49.113949 0.069841
-5.660760 49.113949 0.070225
-5.345410 49.113949 0.070225
-5.030060 49.113949 0.070193
-4.714710 49.113949 0.070301
-4.399360 49.113949 0.070622
-4.084010 49.113949 0.071236
-3.768660 49.113949 0.071374
-3.453310 49.113949 0.070768
-3.137960 49.113949 0.070024
-2.822610 49.113949 0.069813
-2.507260 49.113949 0.069983
-2.191910 49.113949 0.070131
-1.876560 49.113949 0.069895
-1.561210 49.113949 0.069608
-1.245860 49.113949 0.069984
-0.930510 49.113949 0.070055
-0.615160 49.113949 0.069413
-0.299810 49.113949 0.069035
0.015540 49.113949 0.069307
0.330890 49.113949 0.069515
0.646240 49.113949 0.069982
0.961589 49.113949 0.070180
1.276940 49.113949 0.070594
1.592289 49.113949 0.071105
1.907640 49.113949 0.071853
2.222990 49.113949 0.072689
2.538340 49.113949 0.072953
2.853690 49.113949 0.073317
3.169039 49.113949 0.074053
3.484390 49.113949 0.075098
3.799739 49.113949 0.076013
4.115090 49.113949 0.076529
4.430439 49.113949 0.077245
4.745790 49.113949 0.078630
5.061140 49.113949 0.080521
5.376490 49.113949 0.082648
5.691840 49.113949 0.084964
6.007189 49.113949 0.088327
6.322540 49.113949 0.092984
6.637889 49.113949 0.098832
6.953240 49.113949 0.105169
7.268589 49.113949 0.113626
7.583940 49.113949 0.126169
7.899290 49.113949 0.147436
8.214640 49.113949 0.184795
8.529989 49.113949 0.248980
8.845339 49.113949 0.352668
9.160688 49.113949 0.518720
9.476040 49.113949 0.760552
9.791389 49.113949 1.042346
10.106739 49.113949 1.341605
10.422089 49.113949 1.612369
10.737438 49.113949 1.895999
11.052790 49.113949 2.178547
11.368139 49.113949 2.402200
11.683489 49.113949 2.626108
11.998838 49.113949 2.836561
12.314190 49.113949 3.031086
12.629539 49.113949 3.111926
12.944889 49.113949 3.237403
13.260239 49.113949 3.249459
13.575588 49.113949 3.212620
13.890940 49.113949 3.227969
14.206289 49.113949 3.157667
14.521639 49.113949 3.144231
14.836988 49.113949 3.156503
15.152340 49.113949 3.101129
15.467690 49.113949 3.221866
15.783039 49.113949 3.558037
16.098389 49.113949 3.982157
16.413738 49.113949 4.570994
16.729090 49.113949 4.874980
17.044439 49.113949 5.330104
17.359789 49.113949 5.721653
17.675138 49.113949 6.586313
17.990490 49.113949 7.906894
18.305840 49.113949 9.939932
18.621189 49.113949 12.607462
18.936539 49.113949 14.968058
19.251888 49.113949 0.000000
-7.237510 48.798599 0.000000
-6.922160 48.798599 0.000000
-6.606810 48.798599 0.071707
-6.291460 48.798599 0.068713
-5.976110 48.798599 0.068903
-5.660760 48.798599 0.069296
-5.345410 48.798599 0.069223
-5.030060 48.798599 0.069163
-4.714710 48.798599 0.069273
-4.399360 48.798599 0.069635
-4.084010 48.798599 0.070472
-3.768660 48.798599 0.070696
-3.453310 48.798599 0.070264
-3.137960 48.798599 0.069701
-2.822610 48.798599 0.069588
-2.507260 48.798599 0.069834
-2.191910 48.798599 0.069906
-1.876560 48.798599 0.069709
-1.561210 48.798599 0.069540
-1.245860 48.798599 0.069593
-0.930510 48.798599 0.069462
-0.615160 48.798599 0.068879
-0.299810 48.798599 0.068522
0.015540 48.798599 0.068442
0.330890 48.798599 0.068288
0.646240 48.798599 0.068499
0.961589 48.798599 0.068674
1.276940 48.798599 0.068940
1.592289 48.798599 0.069285
1.907640 48.798599 0.069966
2.222990 48.798599 0.070560
2.538340 48.798599 0.071024
2.853690 48.798599 0.071624
3.169039 48.798599 0.072556
3.484390 48.798599 0.073600
3.799739 48.798599 0.074738
4.115090 48.798599 0.075548
4.430439 48.798599 0.076521
4.745790 48.798599 0.078104
5.061140 48.798599 0.080084
5.376490 48.798599 0.081788
5.691840 48.798599 0.084307
6.007189 48.798599 0.088111
6.322540 48.798599 0.092802
6.637889 48.798599 0.098317
6.953240 48.798599 0.105151
7.268589 48.798599 0.112788
7.583940 48.798599 0.124746
7.899290 48.798599 0.146047
8.214640 48.798599 0.183051
8.529989 48.798599 0.242445
8.845339 48.798599 0.348236
9.160688 48.798599 0.510913
9.476040 48.798599 0.732747
9.791389 48.798599 1.015627
10.106739 48.798599 1.291415
10.422089 48.798599 1.609800
10.737438 48.798599 1.860175
11.052790 48.798599 2.123121
11.368139 48.798599 2.324688
11.683489 48.798599 2.562103
11.998838 48.798599 2.767047
12.314190 48.798599 2.949272
12.629539 48.798599 3.049388
12.944889 48.798599 3.137303
13.260239 48.798599 3.178118
13.575588 48.798599 3.155044
13.890940 48.798599 3.139660
14.206289 48.798599 3.086109
14.521639 48.798599 3.030976
14.836988 48.798599 3.031482
15.152340 48.798599 2.981552
15.467690 48.798599 3.069952
15.783039 48.798599 3.470506
16.098389 48.798599 3.943836
16.413738 48.798599 4.583844
16.729090 48.798599 4.995102
17.044439 48.798599 5.419883
17.359789 48.798599 5.924258
17.675138 48.798599 6.665213
17.990490 48.798599 8.205733
18.305840 48.798599 10.549684
18.621189 48.798599 13.536442
18.936539 48.798599 16.893652
19.251888 48.798599 0.000000
-7.237510 48.483250 0.000000
-6.922160 48.483250 0.000000
-6.606810 48.483250 0.071120
-6.291460 48.483250 0.068375
-5.976110 48.483250 0.068686
-5.660760 48.483250 0.068850
-5.345410 48.483250 0.068733
-5.030060 48.483250 0.068592
-4.714710 48.483250 0.068598
-4.399360 48.483250 0.069169
-4.084010 48.483250 0.069877
-3.768660 48.483250 0.070067
-3.453310 48.483250 0.069685
-3.137960 48.483250 0.069410
-2.822610 48.483250 0.069507
-2.507260 48.483250 0.069867
-2.191910 48.483250 0.069955
-1.876560 48.483250 0.069983
-1.561210 48.483250 0.069945
-1.245860 48.483250 0.069988
-0.930510 48.483250 0.069825
-0.615160 48.483250 0.069303
-0.299810 48.483250 0.068991
0.015540 48.483250 0.068772
0.330890 48.483250 0.068452
0.646240 48.483250 0.068545
0.961589 48.483250 0.068611
1.276940 48.483250 0.068548
1.592289 48.483250 0.068651
1.907640 48.483250 0.069240
2.222990 48.483250 0.069505
2.538340 48.483250 0.069865
2.853690 48.483250 0.070532
3.169039 48.483250 0.071423
3.484390 48.483250 0.072342
3.799739 48.483250 0.073463
4.115090 48.483250 0.074454
4.430439 48.483250 0.075675
4.745790 48.483250 0.077360
5.061140 48.483250 0.079332
5.376490 48.483250 0.081237
5.691840 48.483250 0.084004
6.007189 48.483250 0.088199
6.322540 48.483250 0.092997
6.637889 48.483250 0.098833
6.953240 48.483250 0.105663
7.268589 48.483250 0.114225
7.583940 48.483250 0.126334
7.899290 48.483250 0.144775
8.214640 48.483250 0.183200
8.529989 48.483250 0.246622
8.845339 48.483250 0.349360
9.160688 48.483250 0.507987
9.476040 48.483250 0.750046
9.791389 48.483250 1.015183
10.106739 48.483250 1.293924
10.422089 48.483250 1.581803
10.737438 48.483250 1.843648
11.052790 48.483250 2.107310
11.368139 48.483250 2.334005
11.683489 48.483250 2.550195
11.998838 48.483250 2.743111
12.314190 48.483250 2.896689
12.629539 48.483250 3.013483
12.944889 48.483250 3.097870
13.260239 48.483250 3.132743
13.575588 48.483250 3.169072
13.890940 48.483250 3.091685
14.206289 48.483250 3.021720
14.521639 48.483250 3.000357
14.836988 48.483250 2.964046
15.152340 48.483250 2.931375
15.467690 48.483250 3.070671
15.783039 48.483250 3.392530
16.098389 48.483250 3.938019
16.413738 48.483250 4.642409
16.729090 48.483250 5.069851
17.044439 48.483250 5.533790
17.359789 48.483250 6.225680
17.675138 48.483250 7.183170
17.990490 48.483250 8.528644
18.305840 48.483250 11.330178
18.621189 48.483250 14.804154
18.936539 48.483250 18.233200
19.251888 48.483250 0.000000
-7.237510 48.167900 0.000000
-6.922160 48.167900 0.000000
-6.606810 48.167900 0.071530
-6.291460 48.167900 0.068751
-5.976110 48.167900 0.068811
-5.660760 48.167900 0.068734
-5.345410 48.167900 0.068522
-5.030060 48.167900 0.068127
-4.714710 48.167900 0.067999
-4.399360 48.167900 0.068577
-4.084010 48.167900 0.068917
-3.768660 48.167900 0.068950
-3.453310 48.167900 0.068698
-3.137960 48.167900 0.068729
-2.822610 48.167900 0.068943
-2.507260 48.167900 0.069313
-2.191910 48.167900 0.069546
-1.876560 48.167900 0.069777
-1.561210 48.167900 0.069954
-1.245860 48.167900 0.070112
-0.930510 48.167900 0.070163
-0.615160 48.167900 0.069885
-0.299810 48.167900 0.069825
0.015540 48.167900 0.069608
0.330890 48.167900 0.069313
0.646240 48.167900 0.069378
0.961589 48.167900 0.069402
1.276940 48.167900 0.069168
1.592289 48.167900 0.069085
1.907640 48.167900 0.069367
2.222990 48.167900 0.069421
2.538340 48.167900 0.069598
2.853690 48.167900 0.070096
3.169039 48.167900 0.070699
3.484390 48.167900 0.071324
3.799739 48.167900 0.072095
4.115090 48.167900 0.073065
4.430439 48.167900 0.074377
4.745790 48.167900 0.076025
5.061140 48.167900 0.077882
5.376490 48.167900 0.080015
5.691840 48.167900 0.082960
6.007189 48.167900 0.087307
6.322540 48.167900 0.092414
6.637889 48.167900 0.098710
6.953240 48.167900 0.105858
7.268589 48.167900 0.113436
7.583940 48.167900 0.126047
7.899290 48.167900 0.148399
8.214640 48.167900 0.185807
8.529989 48.167900 0.249954
8.845339 48.167900 0.355825
9.160688 48.167900 0.522716
9.476040 48.167900 0.753039
9.791389 48.167900 1.010091
10.106739 48.167900 1.302630
10.422089 48.167900 1.582007
10.737438 48.167900 1.838466
11.052790 48.167900 2.111576
11.368139 48.167900 2.339478
11.683489 48.167900 2.574501
11.998838 48.167900 2.729934
12.314190 48.167900 2.926642
12.629539 48.167900 3.029674
12.944889 48.167900 3.092674
13.260239 48.167900 3.164491
13.575588 48.167900 3.157817
13.890940 48.167900 3.123879
14.206289 48.167900 3.024177
14.521639 48.167900 3.001141
14.836988 48.167900 2.943102
15.152340 48.167900 2.876621
15.467690 48.167900 3.017999
15.783039 48.167900 3.355671
16.098389 48.167900 4.004748
16.413738 48.167900 4.709023
16.729090 48.167900 5.170793
17.044439 48.167900 5.665001
17.359789 48.167900 6.598046
17.675138 48.167900 7.781804
17.990490 48.167900 9.503489
18.305840 48.167900 12.602026
18.621189 48.167900 16.293247
18.936539 48.167900 19.845991
19.251888 48.167900 0.000000
-7.237510 47.852551 0.000000
-6.922160 47.852551 0.000000
-6.606810 47.852551 0.071911
-6.291460 47.852551 0.069285
-5.976110 47.852551 0.069229
-5.660760 47.852551 0.069021
-5.345410 47.852551 0.068582
-5.030060 47.852551 0.068076
-4.714710 47.852551 0.067765
-4.399360 47.852551 0.068006
-4.084010 47.852551 0.067968
-3.768660 47.852551 0.067699
-3.453310 47.852551 0.067561
-3.137960 47.852551 0.067804
-2.822610 47.852551 0.067965
-2.507260 47.852551 0.068112
-2.191910 47.852551 0.068392
-1.876560 47.852551 0.068859
-1.561210 47.852551 0.069156
-1.245860 47.852551 0.069391
-0.930510 47.852551 0.069859
-0.615160 47.852551 0.070005
-0.299810 47.852551 0.070196
0.015540 47.852551 0.070242
0.330890 47.852551 0.070199
0.646240 47.852551 0.070442
0.961589 47.852551 0.070528
1.276940 47.852551 0.070159
1.592289 47.852551 0.070185
1.907640 47.852551 0.070237
2.222990 47.852551 0.070113
2.538340 47.852551 0.070155
2.853690 47.852551 0.070416
3.169039 47.852551 0.070588
3.484390 47.852551 0.070821
3.799739 47.852551 0.071161
4.115090 47.852551 0.071964
4.430439 47.852551 0.073033
4.745790 47.852551 0.074535
5.061140 47.852551 0.076437
5.376490 47.852551 0.078551
5.691840 47.852551 0.081682
6.007189 47.852551 0.085592
6.322540 47.852551 0.090686
6.637889 47.852551 0.097671
6.953240 47.852551 0.104909
7.268589 47.852551 0.113500
7.583940 47.852551 0.126693
7.899290 47.852551 0.148388
8.214640 47.852551 0.186877
8.529989 47.852551 0.249346
8.845339 47.852551 0.358696
9.160688 47.852551 0.522951
9.476040 47.852551 0.744716
9.791389 47.852551 1.023814
10.106739 47.852551 1.318563
10.422089 47.852551 1.602337
10.737438 47.852551 1.832540
11.052790 47.852551 2.087734
11.368139 47.852551 2.323091
11.683489 47.852551 2.562365
11.998838 47.852551 2.802478
12.314190 47.852551 2.938538
12.629539 47.852551 3.050995
12.944889 47.852551 3.137791
13.260239 47.852551 3.158390
13.575588 47.852551 3.181292
13.890940 47.852551 3.156541
14.206289 47.852551 3.041867
14.521639 47.852551 2.962480
14.836988 47.852551 2.866354
15.152340 47.852551 2.836864
15.467690 47.852551 3.047370
15.783039 47.852551 3.435459
16.098389 47.852551 4.090529
16.413738 47.852551 4.701319
16.729090 47.852551 5.382129
17.044439 47.852551 5.900947
17.359789 47.852551 6.957662
17.675138 47.852551 8.713227
17.990490 47.852551 10.590096
18.305840 47.852551 13.529058
18.621189 47.852551 17.091553
18.936539 47.852551 20.938805
19.251888 47.852551 0.000000
-7.237510 47.537201 0.000000
-6.922160 47.537201 0.000000
-6.606810 47.537201 0.072763
-6.291460 47.537201 0.070321
-5.976110 47.537201 0.069988
-5.660760 47.537201 0.069643
-5.345410 47.537201 0.069158
-5.030060 47.537201 0.068426
-4.714710 47.537201 0.068092
-4.399360 47.537201 0.067996
-4.084010 47.537201 0.067554
-3.768660 47.537201 0.067039
-3.453310 47.537201 0.066935
-3.137960 47.537201 0.067207
-2.822610 47.537201 0.067057
-2.507260 47.537201 0.066923
-2.191910 47.537201 0.067073
-1.876560 47.537201 0.067481
-1.561210 47.537201 0.067761
-1.245860 47.537201 0.068069
-0.930510 47.537201 0.068699
-0.615160 47.537201 0.069199
-0.299810 47.537201 0.069726
0.015540 47.537201 0.070168
0.330890 47.537201 0.070416
0.646240 47.537201 0.071035
0.961589 47.537201 0.071167
1.276940 47.537201 0.070951
1.592289 47.537201 0.071046
1.907640 47.537201 0.071206
2.222990 47.537201 0.071249
2.538340 47.537201 0.071366
2.853690 47.537201 0.071550
3.169039 47.537201 0.071471
3.484390 47.537201 0.071435
3.799739 47.537201 0.071413
4.115090 47.537201 0.071949
4.430439 47.537201 0.072860
4.745790 47.537201 0.074130
5.061140 47.537201 0.075701
5.376490 47.537201 0.077646
5.691840 47.537201 0.080690
6.007189 47.537201 0.084211
6.322540 47.537201 0.089061
6.637889 47.537201 0.095446
6.953240 47.537201 0.102728
7.268589 47.537201 0.112182
7.583940 47.537201 0.126303
7.899290 47.537201 0.147758
8.214640 47.537201 0.184788
8.529989 47.537201 0.249005
8.845339 47.537201 0.359672
9.160688 47.537201 0.521280
9.476040 47.537201 0.747799
9.791389 47.537201 1.019058
10.106739 47.537201 1.314984
10.422089 47.537201 1.604324
10.737438 47.537201 1.839472
11.052790 47.537201 2.092400
11.368139 47.537201 2.333390
11.683489 47.537201 2.580584
11.998838 47.537201 2.814241
12.314190 47.537201 2.946188
12.629539 47.537201 3.086936
12.944889 47.537201 3.156258
13.260239 47.537201 3.203291
13.575588 47.537201 3.173625
13.890940 47.537201 3.131799
14.206289 47.537201 3.075778
14.521639 47.537201 2.973705
14.836988 47.537201 2.924992
15.152340 47.537201 2.844854
15.467690 47.537201 3.039320
15.783039 47.537201 3.468295
16.098389 47.537201 4.160583
16.413738 47.537201 4.794962
16.729090 47.537201 5.563931
17.044439 47.537201 6.461155
17.359789 47.537201 7.705144
17.675138 47.537201 9.018902
17.990490 47.537201 11.417475
18.305840 47.537201 14.435217
18.621189 47.537201 18.468370
18.936539 47.537201 22.076221
19.251888 47.537201 0.000000
-7.237510 47.221851 0.000000
-6.922160 47.221851 0.000000
-6.606810 47.221851 0.073220
-6.291460 47.221851 0.070751
-5.976110 47.221851 0.070494
-5.660760 47.221851 0.070109
-5.345410 47.221851 0.069626
-5.030060 47.221851 0.069062
-4.714710 47.221851 0.068890
-4.399360 47.221851 0.068717
-4.084010 47.221851 0.067984
-3.768660 47.221851 0.067264
-3.453310 47.221851 0.067242
-3.137960 47.221851 0.067378
-2.822610 47.221851 0.066866
-2.507260 47.221851 0.066420
-2.191910 47.221851 0.066240
-1.876560 47.221851 0.066326
-1.561210 47.221851 0.066452
-1.245860 47.221851 0.066579
-0.930510 47.221851 0.067163
-0.615160 47.221851 0.067807
-0.299810 47.221851 0.068600
0.015540 47.221851 0.069295
0.330890 47.221851 0.069884
0.646240 47.221851 0.070526
0.961589 47.221851 0.070794
1.276940 47.221851 0.070747
1.592289 47.221851 0.071309
1.907640 47.221851 0.071870
2.222990 47.221851 0.072162
2.538340 47.221851 0.072430
2.853690 47.221851 0.072796
3.169039 47.221851 0.072925
3.484390 47.221851 0.072775
3.799739 47.221851 0.072660
4.115090 47.221851 0.073072
4.430439 47.221851 0.073933
4.745790 47.221851 0.074926
5.061140 47.221851 0.076109
5.376490 47.221851 0.077856
5.691840 47.221851 0.080663
6.007189 47.221851 0.083755
6.322540 47.221851 0.087963
6.637889 47.221851 0.094239
6.953240 47.221851 0.100950
7.268589 47.221851 0.110559
7.583940 47.221851 0.123051
7.899290 47.221851 0.143904
8.214640 47.221851 0.182426
8.529989 47.221851 0.244889
8.845339 47.221851 0.359698
9.160688 47.221851 0.529617
9.476040 47.221851 0.744364
9.791389 47.221851 1.017004
10.106739 47.221851 1.303494
10.422089 47.221851 1.565556
10.737438 47.221851 1.839739
11.052790 47.221851 2.096727
11.368139 47.221851 2.350147
11.683489 47.221851 2.581271
11.998838 47.221851 2.783447
12.314190 47.221851 2.987806
12.629539 47.221851 3.112618
12.944889 47.221851 3.220458
13.260239 47.221851 3.224370
13.575588 47.221851 3.166024
13.890940 47.221851 3.100652
14.206289 47.221851 3.052418
14.521639 47.221851 2.970097
14.836988 47.221851 2.932877
15.152340 47.221851 2.858933
15.467690 47.221851 3.046049
15.783039 47.221851 3.589567
16.098389 47.221851 4.271358
16.413738 47.221851 4.961122
16.729090 47.221851 5.906069
17.044439 47.221851 6.998591
17.359789 47.221851 8.190427
17.675138 47.221851 9.861626
17.990490 47.221851 12.505577
18.305840 47.221851 15.903442
18.621189 47.221851 19.932646
18.936539 47.221851 23.804483
19.251888 47.221851 0.000000
-7.237510 46.906502 0.000000
-6.922160 46.906502 0.000000
-6.606810 46.906502 0.072729
-6.291460 46.906502 0.070246
-5.976110 46.906502 0.070034
-5.660760 46.906502 0.069946
-5.345410 46.906502 0.069541
-5.030060 46.906502 0.069386
-4.714710 46.906502 0.069666
-4.399360 46.906502 0.069523
-4.084010 46.906502 0.068887
-3.768660 46.906502 0.068150
-3.453310 46.906502 0.068143
-3.137960 46.906502 0.068215
-2.822610 46.906502 0.067666
-2.507260 46.906502 0.067014
-2.191910 46.906502 0.066450
-1.876560 46.906502 0.066091
-1.561210 46.906502 0.065921
-1.245860 46.906502 0.065806
-0.930510 46.906502 0.066046
-0.615160 46.906502 0.066522
-0.299810 46.906502 0.067235
0.015540 46.906502 0.067847
0.330890 46.906502 0.068462
0.646240 46.906502 0.068897
0.961589 46.906502 0.069179
1.276940 46.906502 0.069486
1.592289 46.906502 0.070399
1.907640 46.906502 0.071388
2.222990 46.906502 0.072100
2.538340 46.906502 0.072576
2.853690 46.906502 0.073246
3.169039 46.906502 0.073798
3.484390 46.906502 0.074080
3.799739 46.906502 0.074208
4.115090 46.906502 0.074787
4.430439 46.906502 0.075634
4.745790 46.906502 0.076530
5.061140 46.906502 0.077669
5.376490 46.906502 0.079361
5.691840 46.906502 0.081656
6.007189 46.906502 0.084406
6.322540 46.906502 0.088058
6.637889 46.906502 0.093548
6.953240 46.906502 0.100391
7.268589 46.906502 0.109272
7.583940 46.906502 0.121870
7.899290 46.906502 0.142632
8.214640 46.906502 0.177771
8.529989 46.906502 0.239083
8.845339 46.906502 0.362868
9.160688 46.906502 0.536918
9.476040 46.906502 0.750368
9.791389 46.906502 1.017585
10.106739 46.906502 1.293763
10.422089 46.906502 1.568097
10.737438 46.906502 1.838982
11.052790 46.906502 2.075637
11.368139 46.906502 2.308074
11.683489 46.906502 2.561418
11.998838 46.906502 2.783739
12.314190 46.906502 2.986995
12.629539 46.906502 3.131690
12.944889 46.906502 3.234991
13.260239 46.906502 3.218880
13.575588 46.906502 3.185235
13.890940 46.906502 3.113652
14.206289 46.906502 3.060379
14.521639 46.906502 2.991175
14.836988 46.906502 2.918419
15.152340 46.906502 2.945497
15.467690 46.906502 3.190029
15.783039 46.906502 3.896624
16.098389 46.906502 4.713271
16.413738 46.906502 5.402163
16.729090 46.906502 6.349524
17.044439 46.906502 7.467633
17.359789 46.906502 8.872166
17.675138 46.906502 11.028298
17.990490 46.906502 13.496646
18.305840 46.906502 16.775679
18.621189 46.906502 21.180679
18.936539 46.906502 24.666983
19.251888 46.906502 0.000000
-7.237510 46.591152 0.000000
-6.922160 46.591152 0.000000
-6.606810 46.591152 0.071440
-6.291460 46.591152 0.069001
-5.976110 46.591152 0.068729
-5.660760 46.591152 0.068721
-5.345410 46.591152 0.068658
-5.030060 46.591152 0.068894
-4.714710 46.591152 0.069612
-4.399360 46.591152 0.069892
-4.084010 46.591152 0.069534
-3.768660 46.591152 0.069040
-3.453310 46.591152 0.069194
-3.137960 46.591152 0.069276
-2.822610 46.591152 0.068773
-2.507260 46.591152 0.068314
-2.191910 46.591152 0.067651
-1.876560 46.591152 0.066985
-1.561210 46.591152 0.066507
-1.245860 46.591152 0.066102
-0.930510 46.591152 0.066035
-0.615160 46.591152 0.066213
-0.299810 46.591152 0.066476
0.015540 46.591152 0.066824
0.330890 46.591152 0.067039
0.646240 46.591152 0.067109
0.961589 46.591152 0.067195
1.276940 46.591152 0.067648
1.592289 46.591152 0.068733
1.907640 46.591152 0.069869
2.222990 46.591152 0.070861
2.538340 46.591152 0.071576
2.853690 46.591152 0.072551
3.169039 46.591152 0.073642
3.484390 46.591152 0.074512
3.799739 46.591152 0.075162
4.115090 46.591152 0.076160
4.430439 46.591152 0.077177
4.745790 46.591152 0.078070
5.061140 46.591152 0.079224
5.376490 46.591152 0.081148
5.691840 46.591152 0.083464
6.007189 46.591152 0.085853
6.322540 46.591152 0.089470
6.637889 46.591152 0.094499
6.953240 46.591152 0.100583
7.268589 46.591152 0.108816
7.583940 46.591152 0.120180
7.899290 46.591152 0.139956
8.214640 46.591152 0.176251
8.529989 46.591152 0.241718
8.845339 46.591152 0.357491
9.160688 46.591152 0.526009
9.476040 46.591152 0.740688
9.791389 46.591152 0.999054
10.106739 46.591152 1.291841
10.422089 46.591152 1.556714
10.737438 46.591152 1.819785
11.052790 46.591152 2.085398
11.368139 46.591152 2.305105
11.683489 46.591152 2.543148
11.998838 46.591152 2.797167
12.314190 46.591152 2.961580
12.629539 46.591152 3.147087
12.944889 46.591152 3.242121
13.260239 46.591152 3.177223
13.575588 46.591152 3.175097
13.890940 46.591152 3.106464
14.206289 46.591152 3.078177
14.521639 46.591152 2.993713
14.836988 46.591152 2.946016
15.152340 46.591152 3.068481
15.467690 46.591152 3.408130
15.783039 46.591152 4.252779
16.098389 46.591152 5.389462
16.413738 46.591152 6.155610
16.729090 46.591152 6.924825
17.044439 46.591152 7.843914
17.359789 46.591152 9.483823
17.675138 46.591152 11.447042
17.990490 46.591152 13.764270
18.305840 46.591152 16.366510
18.621189 46.591152 21.324787
18.936539 46.591152 25.031130
19.251888 46.591152 0.000000
-7.237510 46.275803 0.000000
-6.922160 46.275803 0.000000
-6.606810 46.275803 0.069988
-6.291460 46.275803 0.067362
-5.976110 46.275803 0.066889
-5.660760 46.275803 0.067059
-5.345410 46.275803 0.067155
-5.030060 46.275803 0.067539
-4.714710 46.275803 0.068522
-4.399360 46.275803 0.069239
-4.084010 46.275803 0.069322
-3.768660 46.275803 0.069157
-3.453310 46.275803 0.069453
-3.137960 46.275803 0.069661
-2.822610 46.275803 0.069678
-2.507260 46.275803 0.069551
-2.191910 46.275803 0.069329
-1.876560 46.275803 0.068596
-1.561210 46.275803 0.067996
-1.245860 46.275803 0.067563
-0.930510 46.275803 0.067205
-0.615160 46.275803 0.066926
-0.299810 46.275803 0.066845
0.015540 46.275803 0.066784
0.330890 46.275803 0.066528
0.646240 46.275803 0.066103
0.961589 46.275803 0.065908
1.276940 46.275803 0.066181
1.592289 46.275803 0.067056
1.907640 46.275803 0.068078
2.222990 46.275803 0.069054
2.538340 46.275803 0.069717
2.853690 46.275803 0.070856
3.169039 46.275803 0.072336
3.484390 46.275803 0.073646
3.799739 46.275803 0.074915
4.115090 46.275803 0.076317
4.430439 46.275803 0.077727
4.745790 46.275803 0.078901
5.061140 46.275803 0.080246
5.376490 46.275803 0.082438
5.691840 46.275803 0.084981
6.007189 46.275803 0.087721
6.322540 46.275803 0.091271
6.637889 46.275803 0.096109
6.953240 46.275803 0.101998
7.268589 46.275803 0.109850
7.583940 46.275803 0.121021
7.899290 46.275803 0.142288
8.214640 46.275803 0.176733
8.529989 46.275803 0.240931
8.845339 46.275803 0.357723
9.160688 46.275803 0.531727
9.476040 46.275803 0.741317
9.791389 46.275803 1.004729
10.106739 46.275803 1.303671
10.422089 46.275803 1.571094
10.737438 46.275803 1.831589
11.052790 46.275803 2.087000
11.368139 46.275803 2.319935
11.683489 46.275803 2.551815
11.998838 46.275803 2.787308
12.314190 46.275803 2.975211
12.629539 46.275803 3.108256
12.944889 46.275803 3.187777
13.260239 46.275803 3.198787
13.575588 46.275803 3.214664
13.890940 46.275803 3.144701
14.206289 46.275803 3.108712
14.521639 46.275803 3.070976
14.836988 46.275803 3.047870
15.152340 46.275803 3.287011
15.467690 46.275803 3.780121
15.783039 46.275803 4.904057
16.098389 46.275803 6.083774
16.413738 46.275803 6.784427
16.729090 46.275803 7.076625
17.044439 46.275803 7.386981
17.359789 46.275803 8.413840
17.675138 46.275803 10.116246
17.990490 46.275803 13.831988
18.305840 46.275803 22.086538
18.621189 46.275803 21.440613
18.936539 46.275803 24.297447
19.251888 46.275803 0.000000
-7.237510 45.960449 0.000000
-6.922160 45.960449 0.000000
-6.606810 45.960449 0.069309
-6.291460 45.960449 0.066395
-5.976110 45.960449 0.065652
-5.660760 45.960449 0.065587
-5.345410 45.960449 0.065576
-5.030060 45.960449 0.065864
-4.714710 45.960449 0.066807
-4.399360 45.960449 0.067597
-4.084010 45.960449 0.067980
-3.768660 45.960449 0.068237
-3.453310 45.960449 0.068568
-3.137960 45.960449 0.069032
-2.822610 45.960449 0.069532
-2.507260 45.960449 0.069968
-2.191910 45.960449 0.070258
-1.876560 45.960449 0.069926
-1.561210 45.960449 0.069578
-1.245860 45.960449 0.069330
-0.930510 45.960449 0.068976
-0.615160 45.960449 0.068477
-0.299810 45.960449 0.068139
0.015540 45.960449 0.067831
0.330890 45.960449 0.067294
0.646240 45.960449 0.066469
0.961589 45.960449 0.066016
1.276940 45.960449 0.065957
1.592289 45.960449 0.066304
1.907640 45.960449 0.066860
2.222990 45.960449 0.067543
2.538340 45.960449 0.068103
2.853690 45.960449 0.069133
3.169039 45.960449 0.070542
3.484390 45.960449 0.071955
3.799739 45.960449 0.073390
4.115090 45.960449 0.075170
4.430439 45.960449 0.077023
4.745790 45.960449 0.078376
5.061140 45.960449 0.079985
5.376490 45.960449 0.082488
5.691840 45.960449 0.085355
6.007189 45.960449 0.088555
6.322540 45.960449 0.092598
6.637889 45.960449 0.097697
6.953240 45.960449 0.103634
7.268589 45.960449 0.111226
7.583940 45.960449 0.123330
7.899290 45.960449 0.142773
8.214640 45.960449 0.180714
8.529989 45.960449 0.242304
8.845339 45.960449 0.360067
9.160688 45.960449 0.527726
9.476040 45.960449 0.743615
9.791389 45.960449 1.014292
10.106739 45.960449 1.323331
10.422089 45.960449 1.590551
10.737438 45.960449 1.848765
11.052790 45.960449 2.094382
11.368139 45.960449 2.339305
11.683489 45.960449 2.572943
11.998838 45.960449 2.788597
12.314190 45.960449 2.939359
12.629539 45.960449 3.128001
12.944889 45.960449 3.201497
13.260239 45.960449 3.240083
13.575588 45.960449 3.223303
13.890940 45.960449 3.210542
14.206289 45.960449 3.119417
14.521639 45.960449 3.063825
14.836988 45.960449 3.139113
15.152340 45.960449 3.344285
15.467690 45.960449 4.049266
15.783039 45.960449 5.504130
16.098389 45.960449 6.934580
16.413738 45.960449 5.503467
16.729090 45.960449 5.583122
17.044439 45.960449 5.800933
17.359789 45.960449 8.037636
17.675138 45.960449 11.422486
17.990490 45.960449 15.888103
18.305840 45.960449 35.766560
18.621189 45.960449 20.958847
18.936539 45.960449 22.224640
19.251888 45.960449 0.000000
-7.237510 45.645100 0.000000
-6.922160 45.645100 0.000000
-6.606810 45.645100 0.069347
-6.291460 45.645100 0.066484
-5.976110 45.645100 0.065572
-5.660760 45.645100 0.064986
-5.345410 45.645100 0.064725
-5.030060 45.645100 0.064818
-4.714710 45.645100 0.065204
-4.399360 45.645100 0.065590
-4.084010 45.645100 0.066030
-3.768660 45.645100 0.066449
-3.453310 45.645100 0.066838
-3.137960 45.645100 0.067456
-2.822610 45.645100 0.068182
-2.507260 45.645100 0.069064
-2.191910 45.645100 0.069731
-1.876560 45.645100 0.069996
-1.561210 45.645100 0.070247
-1.245860 45.645100 0.070441
-0.930510 45.645100 0.070316
-0.615160 45.645100 0.070031
-0.299810 45.645100 0.069703
0.015540 45.645100 0.069391
0.330890 45.645100 0.068810
0.646240 45.645100 0.067918
0.961589 45.645100 0.067402
1.276940 45.645100 0.067108
1.592289 45.645100 0.066905
1.907640 45.645100 0.066932
2.222990 45.645100 0.067008
2.538340 45.645100 0.067387
2.853690 45.645100 0.068072
3.169039 45.645100 0.069103
3.484390 45.645100 0.070184
3.799739 45.645100 0.071523
4.115090 45.645100 0.073350
4.430439 45.645100 0.075386
4.745790 45.645100 0.076848
5.061140 45.645100 0.078486
5.376490 45.645100 0.081110
5.691840 45.645100 0.084423
6.007189 45.645100 0.088219
6.322540 45.645100 0.092993
6.637889 45.645100 0.098396
6.953240 45.645100 0.104663
7.268589 45.645100 0.112748
7.583940 45.645100 0.125132
7.899290 45.645100 0.144498
8.214640 45.645100 0.179808
8.529989 45.645100 0.246019
8.845339 45.645100 0.358365
9.160688 45.645100 0.524053
9.476040 45.645100 0.758220
9.791389 45.645100 1.032241
10.106739 45.645100 1.323470
10.422089 45.645100 1.595429
10.737438 45.645100 1.860590
11.052790 45.645100 2.092963
11.368139 45.645100 2.367428
11.683489 45.645100 2.571539
11.998838 45.645100 2.773690
12.314190 45.645100 2.927743
12.629539 45.645100 3.092063
12.944889 45.645100 3.181161
13.260239 45.645100 3.262806
13.575588 45.645100 3.261694
13.890940 45.645100 3.181414
14.206289 45.645100 3.124282
14.521639 45.645100 3.142481
14.836988 45.645100 3.236891
15.152340 45.645100 3.583182
15.467690 45.645100 4.349667
15.783039 45.645100 5.938686
16.098389 45.645100 12.650730
16.413738 45.645100 22.035698
16.729090 45.645100 4.065742
17.044439 45.645100 0.000000
17.359789 45.645100 0.000000
17.675138 45.645100 0.000000
17.990490 45.645100 8.622632
18.305840 45.645100 24.990828
18.621189 45.645100 18.821362
18.936539 45.645100 21.659515
19.251888 45.645100 0.000000
-7.237510 45.329750 0.000000
-6.922160 45.329750 0.000000
-6.606810 45.329750 0.070190
-6.291460 45.329750 0.067768
-5.976110 45.329750 0.066756
-5.660760 45.329750 0.065803
-5.345410 45.329750 0.065098
-5.030060 45.329750 0.064819
-4.714710 45.329750 0.064664
-4.399360 45.329750 0.064494
-4.084010 45.329750 0.064572
-3.768660 45.329750 0.064794
-3.453310 45.329750 0.065113
-3.137960 45.329750 0.065483
-2.822610 45.329750 0.066116
-2.507260 45.329750 0.067139
-2.191910 45.329750 0.068008
-1.876560 45.329750 0.068688
-1.561210 45.329750 0.069520
-1.245860 45.329750 0.070126
-0.930510 45.329750 0.070393
-0.615160 45.329750 0.070519
-0.299810 45.329750 0.070660
0.015540 45.329750 0.070638
0.330890 45.329750 0.070325
0.646240 45.329750 0.069614
0.961589 45.329750 0.069308
1.276940 45.329750 0.069070
1.592289 45.329750 0.068617
1.907640 45.329750 0.068108
2.222990 45.329750 0.067882
2.538340 45.329750 0.067891
2.853690 45.329750 0.068123
3.169039 45.329750 0.068739
3.484390 45.329750 0.069337
3.799739 45.329750 0.070340
4.115090 45.329750 0.071846
4.430439 45.329750 0.073654
4.745790 45.329750 0.074908
5.061140 45.329750 0.076527
5.376490 45.329750 0.079023
5.691840 45.329750 0.082650
6.007189 45.329750 0.087091
6.322540 45.329750 0.092479
6.637889 45.329750 0.098618
6.953240 45.329750 0.105621
7.268589 45.329750 0.114369
7.583940 45.329750 0.126630
7.899290 45.329750 0.145629
8.214640 45.329750 0.180763
8.529989 45.329750 0.249362
8.845339 45.329750 0.354865
9.160688 45.329750 0.528110
9.476040 45.329750 0.762108
9.791389 45.329750 1.032385
10.106739 45.329750 1.335926
10.422089 45.329750 1.602422
10.737438 45.329750 1.864469
11.052790 45.329750 2.113432
11.368139 45.329750 2.341576
11.683489 45.329750 2.581050
11.998838 45.329750 2.764643
12.314190 45.329750 2.905794
12.629539 45.329750 3.097636
12.944889 45.329750 3.202379
13.260239 45.329750 3.284941
13.575588 45.329750 3.246195
13.890940 45.329750 3.202969
14.206289 45.329750 3.184206
14.521639 45.329750 3.140385
14.836988 45.329750 3.388401
15.152340 45.329750 3.775925
15.467690 45.329750 4.470990
15.783039 45.329750 5.848889
16.098389 45.329750 10.391172
16.413738 45.329750 0.000000
16.729090 45.329750 0.000000
17.044439 45.329750 0.000000
17.359789 45.329750 0.000000
17.675138 45.329750 0.000000
17.990490 45.329750 0.000000
18.305840 45.329750 17.450937
18.621189 45.329750 18.456280
18.936539 45.329750 24.848028
19.251888 45.329750 0.000000
-7.237510 45.014400 0.000000
-6.922160 45.014400 0.000000
-6.606810 45.014400 0.070881
-6.291460 45.014400 0.069095
-5.976110 45.014400 0.068550
-5.660760 45.014400 0.067517
-5.345410 45.014400 0.066600
-5.030060 45.014400 0.066032
-4.714710 45.014400 0.065315
-4.399360 45.014400 0.064636
-4.084010 45.014400 0.064374
-3.768660 45.014400 0.064301
-3.453310 45.014400 0.064246
-3.137960 45.014400 0.064228
-2.822610 45.014400 0.064394
-2.507260 45.014400 0.064986
-2.191910 45.014400 0.065797
-1.876560 45.014400 0.066705
-1.561210 45.014400 0.067784
-1.245860 45.014400 0.068563
-0.930510 45.014400 0.069135
-0.615160 45.014400 0.069827
-0.299810 45.014400 0.070538
0.015540 45.014400 0.070840
0.330890 45.014400 0.070983
0.646240 45.014400 0.070778
0.961589 45.014400 0.070878
1.276940 45.014400 0.071069
1.592289 45.014400 0.070584
1.907640 45.014400 0.069912
2.222990 45.014400 0.069519
2.538340 45.014400 0.069456
2.853690 45.014400 0.069415
3.169039 45.014400 0.069630
3.484390 45.014400 0.069788
3.799739 45.014400 0.070202
4.115090 45.014400 0.071210
4.430439 45.014400 0.072552
4.745790 45.014400 0.073566
5.061140 45.014400 0.074908
5.376490 45.014400 0.077207
5.691840 45.014400 0.080820
6.007189 45.014400 0.085573
6.322540 45.014400 0.090936
6.637889 45.014400 0.097480
6.953240 45.014400 0.104991
7.268589 45.014400 0.114325
7.583940 45.014400 0.126399
7.899290 45.014400 0.146229
8.214640 45.014400 0.182057
8.529989 45.014400 0.248779
8.845339 45.014400 0.363614
9.160688 45.014400 0.532864
9.476040 45.014400 0.766814
9.791389 45.014400 1.021555
10.106739 45.014400 1.325691
10.422089 45.014400 1.608238
10.737438 45.014400 1.855264
11.052790 45.014400 2.097980
11.368139 45.014400 2.340920
11.683489 45.014400 2.595350
11.998838 45.014400 2.755247
12.314190 45.014400 2.964463
12.629539 45.014400 3.091087
12.944889 45.014400 3.280018
13.260239 45.014400 3.298803
13.575588 45.014400 3.290061
13.890940 45.014400 3.247062
14.206289 45.014400 3.203435
14.521639 45.014400 3.188534
14.836988 45.014400 3.426574
15.152340 45.014400 3.714535
15.467690 45.014400 4.457039
15.783039 45.014400 5.519990
16.098389 45.014400 9.283596
16.413738 45.014400 0.000000
16.729090 45.014400 0.000000
17.044439 45.014400 0.000000
17.359789 45.014400 0.000000
17.675138 45.014400 0.000000
17.990490 45.014400 0.000000
18.305840 45.014400 0.172953
18.621189 45.014400 23.646479
18.936539 45.014400 37.177498
19.251888 45.014400 0.000000
-7.237510 44.699051 0.000000
-6.922160 44.699051 0.000000
-6.606810 44.699051 0.071110
-6.291460 44.699051 0.070086
-5.976110 44.699051 0.070024
-5.660760 44.699051 0.069243
-5.345410 44.699051 0.068510
-5.030060 44.699051 0.067808
-4.714710 44.699051 0.066812
-4.399360 44.699051 0.065979
-4.084010 44.699051 0.065474
-3.768660 44.699051 0.065053
-3.453310 44.699051 0.064693
-3.137960 44.699051 0.064248
-2.822610 44.699051 0.063776
-2.507260 44.699051 0.063786
-2.191910 44.699051 0.064133
-1.876560 44.699051 0.064770
-1.561210 44.699051 0.065707
-1.245860 44.699051 0.066402
-0.930510 44.699051 0.067199
-0.615160 44.699051 0.068175
-0.299810 44.699051 0.069174
0.015540 44.699051 0.069858
0.330890 44.699051 0.070381
0.646240 44.699051 0.070813
0.961589 44.699051 0.071454
1.276940 44.699051 0.072047
1.592289 44.699051 0.072005
1.907640 44.699051 0.071539
2.222990 44.699051 0.071250
2.538340 44.699051 0.071329
2.853690 44.699051 0.071355
3.169039 44.699051 0.071308
3.484390 44.699051 0.071135
3.799739 44.699051 0.071085
4.115090 44.699051 0.071539
4.430439 44.699051 0.072448
4.745790 44.699051 0.073136
5.061140 44.699051 0.074082
5.376490 44.699051 0.076044
5.691840 44.699051 0.079427
6.007189 44.699051 0.083782
6.322540 44.699051 0.089148
6.637889 44.699051 0.095402
6.953240 44.699051 0.103190
7.268589 44.699051 0.113126
7.583940 44.699051 0.126352
7.899290 44.699051 0.146158
8.214640 44.699051 0.182773
8.529989 44.699051 0.244920
8.845339 44.699051 0.362730
9.160688 44.699051 0.530324
9.476040 44.699051 0.769392
9.791389 44.699051 1.026793
10.106739 44.699051 1.331414
10.422089 44.699051 1.603788
10.737438 44.699051 1.853162
11.052790 44.699051 2.115275
11.368139 44.699051 2.356847
11.683489 44.699051 2.580678
11.998838 44.699051 2.790986
12.314190 44.699051 3.002085
12.629539 44.699051 3.169717
12.944889 44.699051 3.285163
13.260239 44.699051 3.321375
13.575588 44.699051 3.291862
13.890940 44.699051 3.290711
14.206289 44.699051 3.170636
14.521639 44.699051 3.233575
14.836988 44.699051 3.408301
15.152340 44.699051 3.649699
15.467690 44.699051 4.223283
15.783039 44.699051 5.172505
16.098389 44.699051 8.505911
16.413738 44.699051 0.000000
16.729090 44.699051 0.000000
17.044439 44.699051 0.000000
17.359789 44.699051 0.000000
17.675138 44.699051 0.000000
17.990490 44.699051 0.000000
18.305840 44.699051 0.000000
18.621189 44.699051 8.291296
18.936539 44.699051 0.000000
19.251888 44.699051 0.000000
-7.237510 44.383701 0.000000
-6.922160 44.383701 0.000000
-6.606810 44.383701 0.070585
-6.291460 44.383701 0.070043
-5.976110 44.383701 0.070323
-5.660760 44.383701 0.070073
-5.345410 44.383701 0.069797
-5.030060 44.383701 0.069309
-4.714710 44.383701 0.068486
-4.399360 44.383701 0.067817
-4.084010 44.383701 0.067321
-3.768660 44.383701 0.066805
-3.453310 44.383701 0.066204
-3.137960 44.383701 0.065546
-2.822610 44.383701 0.064610
-2.507260 44.383701 0.064050
-2.191910 44.383701 0.063858
-1.876560 44.383701 0.063912
-1.561210 44.383701 0.064229
-1.245860 44.383701 0.064753
-0.930510 44.383701 0.065500
-0.615160 44.383701 0.066339
-0.299810 44.383701 0.067347
0.015540 44.383701 0.068233
0.330890 44.383701 0.068919
0.646240 44.383701 0.069746
0.961589 44.383701 0.070734
1.276940 44.383701 0.071707
1.592289 44.383701 0.072303
1.907640 44.383701 0.072353
2.222990 44.383701 0.072494
2.538340 44.383701 0.072858
2.853690 44.383701 0.073042
3.169039 44.383701 0.073088
3.484390 44.383701 0.072790
3.799739 44.383701 0.072438
4.115090 44.383701 0.072642
4.430439 44.383701 0.073203
4.745790 44.383701 0.073719
5.061140 44.383701 0.074393
5.376490 44.383701 0.076047
5.691840 44.383701 0.078892
6.007189 44.383701 0.082731
6.322540 44.383701 0.087424
6.637889 44.383701 0.093441
6.953240 44.383701 0.101085
7.268589 44.383701 0.111867
7.583940 44.383701 0.124628
7.899290 44.383701 0.144687
8.214640 44.383701 0.180602
8.529989 44.383701 0.247662
8.845339 44.383701 0.353298
9.160688 44.383701 0.534181
9.476040 44.383701 0.755785
9.791389 44.383701 1.030794
10.106739 44.383701 1.329829
10.422089 44.383701 1.610182
10.737438 44.383701 1.867694
11.052790 44.383701 2.123587
11.368139 44.383701 2.378023
11.683489 44.383701 2.608149
11.998838 44.383701 2.811658
12.314190 44.383701 3.025255
12.629539 44.383701 3.182786
12.944889 44.383701 3.314649
13.260239 44.383701 3.375149
13.575588 44.383701 3.295203
13.890940 44.383701 3.258412
14.206289 44.383701 3.190422
14.521639 44.383701 3.251483
14.836988 44.383701 3.399218
15.152340 44.383701 3.585454
15.467690 44.383701 3.939317
15.783039 44.383701 4.582701
16.098389 44.383701 39.697796
16.413738 44.383701 0.000000
16.729090 44.383701 0.000000
17.044439 44.383701 0.000000
17.359789 44.383701 0.000000
17.675138 44.383701 0.000000
17.990490 44.383701 0.000000
18.305840 44.383701 0.000000
18.621189 44.383701 0.000000
18.936539 44.383701 0.000000
19.251888 44.383701 0.000000
-7.237510 44.068352 0.000000
-6.922160 44.068352 0.000000
-6.606810 44.068352 0.069148
-6.291460 44.068352 0.068594
-5.976110 44.068352 0.069295
-5.660760 44.068352 0.069494
-5.345410 44.068352 0.069885
-5.030060 44.068352 0.069842
-4.714710 44.068352 0.069475
-4.399360 44.068352 0.069236
-4.084010 44.068352 0.069159
-3.768660 44.068352 0.068898
-3.453310 44.068352 0.068429
-3.137960 44.068352 0.067696
-2.822610 44.068352 0.066622
-2.507260 44.068352 0.065590
-2.191910 44.068352 0.064939
-1.876560 44.068352 0.064350
-1.561210 44.068352 0.063966
-1.245860 44.068352 0.064227
-0.930510 44.068352 0.064619
-0.615160 44.068352 0.065051
-0.299810 44.068352 0.065860
0.015540 44.068352 0.066605
0.330890 44.068352 0.067191
0.646240 44.068352 0.068114
0.961589 44.068352 0.069105
1.276940 44.068352 0.070305
1.592289 44.068352 0.071291
1.907640 44.068352 0.071994
2.222990 44.068352 0.072665
2.538340 44.068352 0.073455
2.853690 44.068352 0.073979
3.169039 44.068352 0.074249
3.484390 44.068352 0.074041
3.799739 44.068352 0.073904
4.115090 44.068352 0.074054
4.430439 44.068352 0.074390
4.745790 44.068352 0.074892
5.061140 44.068352 0.075832
5.376490 44.068352 0.077102
5.691840 44.068352 0.079559
6.007189 44.068352 0.082801
6.322540 44.068352 0.087021
6.637889 44.068352 0.092444
6.953240 44.068352 0.099849
7.268589 44.068352 0.108802
7.583940 44.068352 0.123095
7.899290 44.068352 0.142814
8.214640 44.068352 0.178639
8.529989 44.068352 0.245847
8.845339 44.068352 0.357782
9.160688 44.068352 0.536271
9.476040 44.068352 0.761684
9.791389 44.068352 1.052558
10.106739 44.068352 1.338445
10.422089 44.068352 1.624044
10.737438 44.068352 1.886502
11.052790 44.068352 2.139035
11.368139 44.068352 2.386191
11.683489 44.068352 2.611713
11.998838 44.068352 2.786528
12.314190 44.068352 2.997159
12.629539 44.068352 3.160296
12.944889 44.068352 3.263045
13.260239 44.068352 3.383347
13.575588 44.068352 3.348135
13.890940 44.068352 3.253904
14.206289 44.068352 3.233287
14.521639 44.068352 3.237192
14.836988 44.068352 3.325629
15.152340 44.068352 3.450009
15.467690 44.068352 3.710531
15.783039 44.068352 4.183208
16.098389 44.068352 0.000000
16.413738 44.068352 0.000000
16.729090 44.068352 0.000000
17.044439 44.068352 0.000000
17.359789 44.068352 0.000000
17.675138 44.068352 0.000000
17.990490 44.068352 0.000000
18.305840 44.068352 0.000000
18.621189 44.068352 0.000000
18.936539 44.068352 0.000000
19.251888 44.068352 0.000000
-7.237510 43.753002 0.000000
-6.922160 43.753002 0.000000
-6.606810 43.753002 0.067380
-6.291460 43.753002 0.066651
-5.976110 43.753002 0.067297
-5.660760 43.753002 0.067965
-5.345410 43.753002 0.068817
-5.030060 43.753002 0.069152
-4.714710 43.753002 0.069456
-4.399360 43.753002 0.069750
-4.084010 43.753002 0.070045
-3.768660 43.753002 0.070193
-3.453310 43.753002 0.070195
-3.137960 43.753002 0.069789
-2.822610 43.753002 0.068783
-2.507260 43.753002 0.067684
-2.191910 43.753002 0.066648
-1.876560 43.753002 0.065656
-1.561210 43.753002 0.064942
-1.245860 43.753002 0.064877
-0.930510 43.753002 0.064806
-0.615160 43.753002 0.064828
-0.299810 43.753002 0.065203
0.015540 43.753002 0.065558
0.330890 43.753002 0.065915
0.646240 43.753002 0.066610
0.961589 43.753002 0.067513
1.276940 43.753002 0.068527
1.592289 43.753002 0.069514
1.907640 43.753002 0.070635
2.222990 43.753002 0.071794
2.538340 43.753002 0.073053
2.853690 43.753002 0.073865
3.169039 43.753002 0.074398
3.484390 43.753002 0.074607
3.799739 43.753002 0.074827
4.115090 43.753002 0.075253
4.430439 43.753002 0.075710
4.745790 43.753002 0.076445
5.061140 43.753002 0.077642
5.376490 43.753002 0.078947
5.691840 43.753002 0.080895
6.007189 43.753002 0.083479
6.322540 43.753002 0.087203
6.637889 43.753002 0.092366
6.953240 43.753002 0.099018
7.268589 43.753002 0.107995
7.583940 43.753002 0.121347
7.899290 43.753002 0.141773
8.214640 43.753002 0.179135
8.529989 43.753002 0.241450
8.845339 43.753002 0.353643
9.160688 43.753002 0.529663
9.476040 43.753002 0.756995
9.791389 43.753002 1.043788
10.106739 43.753002 1.337691
10.422089 43.753002 1.619172
10.737438 43.753002 1.900772
11.052790 43.753002 2.136888
11.368139 43.753002 2.375398
11.683489 43.753002 2.598998
11.998838 43.753002 2.834193
12.314190 43.753002 3.002732
12.629539 43.753002 3.133462
12.944889 43.753002 3.244077
13.260239 43.753002 3.308326
13.575588 43.753002 3.321137
13.890940 43.753002 3.272526
14.206289 43.753002 3.219885
14.521639 43.753002 3.250126
14.836988 43.753002 3.288686
15.152340 43.753002 3.283739
15.467690 43.753002 3.582062
15.783039 43.753002 3.884748
16.098389 43.753002 0.000000
16.413738 43.753002 0.000000
16.729090 43.753002 0.000000
17.044439 43.753002 0.000000
17.359789 43.753002 0.000000
17.675138 43.753002 0.000000
17.990490 43.753002 0.000000
18.305840 43.753002 0.000000
18.621189 43.753002 0.000000
18.936539 43.753002 0.000000
19.251888 43.753002 0.000000
-7.237510 43.437653 0.000000
-6.922160 43.437653 0.000000
-6.606810 43.437653 0.065819
-6.291460 43.437653 0.064787
-5.976110 43.437653 0.065266
-5.660760 43.437653 0.066043
-5.345410 43.437653 0.066924
-5.030060 43.437653 0.067667
-4.714710 43.437653 0.068342
-4.399360 43.437653 0.069072
-4.084010 43.437653 0.069640
-3.768660 43.437653 0.070148
-3.453310 43.437653 0.070709
-3.137960 43.437653 0.070843
-2.822610 43.437653 0.070314
-2.507260 43.437653 0.069515
-2.191910 43.437653 0.068471
-1.876560 43.437653 0.067459
-1.561210 43.437653 0.066658
-1.245860 43.437653 0.066340
-0.930510 43.437653 0.065886
-0.615160 43.437653 0.065413
-0.299810 43.437653 0.065486
0.015540 43.437653 0.065440
0.330890 43.437653 0.065420
0.646240 43.437653 0.065707
0.961589 43.437653 0.066248
1.276940 43.437653 0.066944
1.592289 43.437653 0.067752
1.907640 43.437653 0.068904
2.222990 43.437653 0.070334
2.538340 43.437653 0.071731
2.853690 43.437653 0.072744
3.169039 43.437653 0.073573
3.484390 43.437653 0.074198
3.799739 43.437653 0.074956
4.115090 43.437653 0.075823
4.430439 43.437653 0.076548
4.745790 43.437653 0.077684
5.061140 43.437653 0.079169
5.376490 43.437653 0.080664
5.691840 43.437653 0.082374
6.007189 43.437653 0.084466
6.322540 43.437653 0.087718
6.637889 43.437653 0.093300
6.953240 43.437653 0.099753
7.268589 43.437653 0.108227
7.583940 43.437653 0.121396
7.899290 43.437653 0.140792
8.214640 43.437653 0.175091
8.529989 43.437653 0.237549
8.845339 43.437653 0.351218
9.160688 43.437653 0.527194
9.476040 43.437653 0.764321
9.791389 43.437653 1.031300
10.106739 43.437653 1.348760
10.422089 43.437653 1.609811
10.737438 43.437653 1.902838
11.052790 43.437653 2.136399
11.368139 43.437653 2.379153
11.683489 43.437653 2.598532
11.998838 43.437653 2.833246
12.314190 43.437653 3.011003
12.629539 43.437653 3.152049
12.944889 43.437653 3.264286
13.260239 43.437653 3.295482
13.575588 43.437653 3.324677
13.890940 43.437653 3.229205
14.206289 43.437653 3.180578
14.521639 43.437653 3.188585
14.836988 43.437653 3.258453
15.152340 43.437653 3.314581
15.467690 43.437653 3.390288
15.783039 43.437653 3.724850
16.098389 43.437653 0.000000
16.413738 43.437653 0.000000
16.729090 43.437653 0.000000
17.044439 43.437653 0.000000
17.359789 43.437653 0.000000
17.675138 43.437653 0.000000
17.990490 43.437653 0.000000
18.305840 43.437653 0.000000
18.621189 43.437653 0.000000
18.936539 43.437653 0.000000
19.251888 43.437653 0.000000
-7.237510 43.122299 0.000000
-6.922160 43.122299 0.000000
-6.606810 43.122299 0.065137
-6.291460 43.122299 0.063706
-5.976110 43.122299 0.063927
-5.660760 43.122299 0.064409
-5.345410 43.122299 0.065074
-5.030060 43.122299 0.065946
-4.714710 43.122299 0.066760
-4.399360 43.122299 0.067592
-4.084010 43.122299 0.068152
-3.768660 43.122299 0.068909
-3.453310 43.122299 0.069895
-3.137960 43.122299 0.070567
-2.822610 43.122299 0.070751
-2.507260 43.122299 0.070398
-2.191910 43.122299 0.069810
-1.876560 43.122299 0.069056
-1.561210 43.122299 0.068494
-1.245860 43.122299 0.067983
-0.930510 43.122299 0.067337
-0.615160 43.122299 0.066722
-0.299810 43.122299 0.066397
0.015540 43.122299 0.066013
0.330890 43.122299 0.065767
0.646240 43.122299 0.065730
0.961589 43.122299 0.065899
1.276940 43.122299 0.066016
1.592289 43.122299 0.066535
1.907640 43.122299 0.067462
2.222990 43.122299 0.068762
2.538340 43.122299 0.070055
2.853690 43.122299 0.071116
3.169039 43.122299 0.072044
3.484390 43.122299 0.073021
3.799739 43.122299 0.074333
4.115090 43.122299 0.075634
4.430439 43.122299 0.076665
4.745790 43.122299 0.078230
5.061140 43.122299 0.080050
5.376490 43.122299 0.081823
5.691840 43.122299 0.083475
6.007189 43.122299 0.085554
6.322540 43.122299 0.089005
6.637889 43.122299 0.094478
6.953240 43.122299 0.100704
7.268589 43.122299 0.108641
7.583940 43.122299 0.120883
7.899290 43.122299 0.139965
8.214640 43.122299 0.174719
8.529989 43.122299 0.243161
8.845339 43.122299 0.361957
9.160688 43.122299 0.522824
9.476040 43.122299 0.748365
9.791389 43.122299 1.042161
10.106739 43.122299 1.334183
10.422089 43.122299 1.616187
10.737438 43.122299 1.891490
11.052790 43.122299 2.160056
11.368139 43.122299 2.373591
11.683489 43.122299 2.614982
11.998838 43.122299 2.813322
12.314190 43.122299 3.015981
12.629539 43.122299 3.130332
12.944889 43.122299 3.227755
13.260239 43.122299 3.297339
13.575588 43.122299 3.303684
13.890940 43.122299 3.246513
14.206289 43.122299 3.161618
14.521639 43.122299 3.122756
14.836988 43.122299 3.184764
15.152340 43.122299 3.244445
15.467690 43.122299 3.414453
15.783039 43.122299 3.704021
16.098389 43.122299 0.000000
16.413738 43.122299 0.000000
16.729090 43.122299 0.000000
17.044439 43.122299 0.000000
17.359789 43.122299 0.000000
17.675138 43.122299 0.000000
17.990490 43.122299 0.000000
18.305840 43.122299 0.000000
18.621189 43.122299 0.000000
18.936539 43.122299 0.000000
19.251888 43.122299 0.000000
-7.237510 42.806950 0.000000
-6.922160 42.806950 0.000000
-6.606810 42.806950 0.065705
-6.291460 42.806950 0.063889
-5.976110 42.806950 0.063604
-5.660760 42.806950 0.063610
-5.345410 42.806950 0.063937
-5.030060 42.806950 0.064523
-4.714710 42.806950 0.065316
-4.399360 42.806950 0.065903
-4.084010 42.806950 0.066241
-3.768660 42.806950 0.066903
-3.453310 42.806950 0.068096
-3.137960 42.806950 0.069273
-2.822610 42.806950 0.069976
-2.507260 42.806950 0.070111
-2.191910 42.806950 0.070058
-1.876560 42.806950 0.069998
-1.561210 42.806950 0.069788
-1.245860 42.806950 0.069358
-0.930510 42.806950 0.068820
-0.615160 42.806950 0.068188
-0.299810 42.806950 0.067686
0.015540 42.806950 0.067251
0.330890 42.806950 0.066863
0.646240 42.806950 0.066673
0.961589 42.806950 0.066541
1.276940 42.806950 0.066186
1.592289 42.806950 0.066344
1.907640 42.806950 0.066811
2.222990 42.806950 0.067590
2.538340 42.806950 0.068589
2.853690 42.806950 0.069454
3.169039 42.806950 0.070360
3.484390 42.806950 0.071611
3.799739 42.806950 0.073089
4.115090 42.806950 0.074714
4.430439 42.806950 0.076176
4.745790 42.806950 0.078048
5.061140 42.806950 0.080166
5.376490 42.806950 0.082109
5.691840 42.806950 0.083984
6.007189 42.806950 0.086251
6.322540 42.806950 0.090526
6.637889 42.806950 0.095728
6.953240 42.806950 0.101122
7.268589 42.806950 0.109231
7.583940 42.806950 0.121123
7.899290 42.806950 0.140814
8.214640 42.806950 0.176813
8.529989 42.806950 0.243537
8.845339 42.806950 0.357651
9.160688 42.806950 0.527006
9.476040 42.806950 0.757430
9.791389 42.806950 1.030564
10.106739 42.806950 1.345623
10.422089 42.806950 1.613075
10.737438 42.806950 1.889487
11.052790 42.806950 2.167161
11.368139 42.806950 2.385522
11.683489 42.806950 2.594007
11.998838 42.806950 2.836331
12.314190 42.806950 3.014885
12.629539 42.806950 3.147261
12.944889 42.806950 3.209378
13.260239 42.806950 3.275883
13.575588 42.806950 3.306014
13.890940 42.806950 3.234414
14.206289 42.806950 3.167827
14.521639 42.806950 3.124951
14.836988 42.806950 3.151047
15.152340 42.806950 3.221832
15.467690 42.806950 3.267724
15.783039 42.806950 3.630962
16.098389 42.806950 0.000000
16.413738 42.806950 0.000000
16.729090 42.806950 0.000000
17.044439 42.806950 0.000000
17.359789 42.806950 0.000000
17.675138 42.806950 0.000000
17.990490 42.806950 0.000000
18.305840 42.806950 0.000000
18.621189 42.806950 0.000000
18.936539 42.806950 0.000000
19.251888 42.806950 0.000000
-7.237510 42.491600 0.000000
-6.922160 42.491600 0.000000
-6.606810 42.491600 0.067008
-6.291460 42.491600 0.065009
-5.976110 42.491600 0.064285
-5.660760 42.491600 0.063869
-5.345410 42.491600 0.063640
-5.030060 42.491600 0.063850
-4.714710 42.491600 0.064404
-4.399360 42.491600 0.064620
-4.084010 42.491600 0.064648
-3.768660 42.491600 0.065036
-3.453310 42.491600 0.066178
-3.137960 42.491600 0.067475
-2.822610 42.491600 0.068461
-2.507260 42.491600 0.069012
-2.191910 42.491600 0.069467
-1.876560 42.491600 0.069983
-1.561210 42.491600 0.070325
-1.245860 42.491600 0.070255
-0.930510 42.491600 0.069864
-0.615160 42.491600 0.069418
-0.299810 42.491600 0.068865
0.015540 42.491600 0.068450
0.330890 42.491600 0.068068
0.646240 42.491600 0.067916
0.961589 42.491600 0.067640
1.276940 42.491600 0.067172
1.592289 42.491600 0.066973
1.907640 42.491600 0.066966
2.222990 42.491600 0.067096
2.538340 42.491600 0.067612
2.853690 42.491600 0.068278
3.169039 42.491600 0.069141
3.484390 42.491600 0.070332
3.799739 42.491600 0.071908
4.115090 42.491600 0.073475
4.430439 42.491600 0.075255
4.745790 42.491600 0.077283
5.061140 42.491600 0.079561
5.376490 42.491600 0.081672
5.691840 42.491600 0.083722
6.007189 42.491600 0.086624
6.322540 42.491600 0.091410
6.637889 42.491600 0.096351
6.953240 42.491600 0.101920
7.268589 42.491600 0.109385
7.583940 42.491600 0.122011
7.899290 42.491600 0.142174
8.214640 42.491600 0.177984
8.529989 42.491600 0.246025
8.845339 42.491600 0.351797
9.160688 42.491600 0.532991
9.476040 42.491600 0.763196
9.791389 42.491600 1.029014
10.106739 42.491600 1.340309
10.422089 42.491600 1.598937
10.737438 42.491600 1.905578
11.052790 42.491600 2.162566
11.368139 42.491600 2.385968
11.683489 42.491600 2.592950
11.998838 42.491600 2.830005
12.314190 42.491600 3.013825
12.629539 42.491600 3.159067
12.944889 42.491600 3.232897
13.260239 42.491600 3.281843
13.575588 42.491600 3.304171
13.890940 42.491600 3.200217
14.206289 42.491600 3.159847
14.521639 42.491600 3.108724
14.836988 42.491600 3.178174
15.152340 42.491600 3.282119
15.467690 42.491600 3.348868
15.783039 42.491600 3.637266
16.098389 42.491600 0.000000
16.413738 42.491600 0.000000
16.729090 42.491600 0.000000
17.044439 42.491600 0.000000
17.359789 42.491600 0.000000
17.675138 42.491600 0.000000
17.990490 42.491600 0.000000
18.305840 42.491600 0.000000
18.621189 42.491600 0.000000
18.936539 42.491600 0.000000
19.251888 42.491600 0.000000
-7.237510 42.176250 0.000000
-6.922160 42.176250 0.000000
-6.606810 42.176250 0.068574
-6.291460 42.176250 0.066564
-5.976110 42.176250 0.065604
-5.660760 42.176250 0.064845
-5.345410 42.176250 0.064385
-5.030060 42.176250 0.064175
-4.714710 42.176250 0.064290
-4.399360 42.176250 0.064091
-4.084010 42.176250 0.063713
-3.768660 42.176250 0.063778
-3.453310 42.176250 0.064541
-3.137960 42.176250 0.065700
-2.822610 42.176250 0.066776
-2.507260 42.176250 0.067500
-2.191910 42.176250 0.068206
-1.876560 42.176250 0.069144
-1.561210 42.176250 0.069974
-1.245860 42.176250 0.070413
-0.930510 42.176250 0.070322
-0.615160 42.176250 0.069989
-0.299810 42.176250 0.069558
0.015540 42.176250 0.069330
0.330890 42.176250 0.069175
0.646240 42.176250 0.069151
0.961589 42.176250 0.068885
1.276940 42.176250 0.068461
1.592289 42.176250 0.067993
1.907640 42.176250 0.067564
2.222990 42.176250 0.067255
2.538340 42.176250 0.067310
2.853690 42.176250 0.067838
3.169039 42.176250 0.068574
3.484390 42.176250 0.069519
3.799739 42.176250 0.070716
4.115090 42.176250 0.072283
4.430439 42.176250 0.074224
4.745790 42.176250 0.076262
5.061140 42.176250 0.078472
5.376490 42.176250 0.080704
5.691840 42.176250 0.082977
6.007189 42.176250 0.086536
6.322540 42.176250 0.091420
6.637889 42.176250 0.096427
6.953240 42.176250 0.101837
7.268589 42.176250 0.109949
7.583940 42.176250 0.121444
7.899290 42.176250 0.140689
8.214640 42.176250 0.176845
8.529989 42.176250 0.243769
8.845339 42.176250 0.353578
9.160688 42.176250 0.530885
9.476040 42.176250 0.763507
9.791389 42.176250 1.056083
10.106739 42.176250 1.341943
10.422089 42.176250 1.598863
10.737438 42.176250 1.916620
11.052790 42.176250 2.140580
11.368139 42.176250 2.393960
11.683489 42.176250 2.616334
11.998838 42.176250 2.845722
12.314190 42.176250 3.053216
12.629539 42.176250 3.132289
12.944889 42.176250 3.225113
13.260239 42.176250 3.355041
13.575588 42.176250 3.260401
13.890940 42.176250 3.278790
14.206289 42.176250 3.152968
14.521639 42.176250 3.176590
14.836988 42.176250 3.206800
15.152340 42.176250 3.284498
15.467690 42.176250 3.473104
15.783039 42.176250 3.733119
16.098389 42.176250 0.000000
16.413738 42.176250 0.000000
16.729090 42.176250 0.000000
17.044439 42.176250 0.000000
17.359789 42.176250 0.000000
17.675138 42.176250 0.000000
17.990490 42.176250 0.000000
18.305840 42.176250 0.000000
18.621189 42.176250 0.000000
18.936539 42.176250 0.000000
19.251888 42.176250 0.000000
-7.237510 41.860901 0.000000
-6.922160 41.860901 0.000000
-6.606810 41.860901 0.069818
-6.291460 41.860901 0.068012
-5.976110 41.860901 0.067156
-5.660760 41.860901 0.066469
-5.345410 41.860901 0.065797
-5.030060 41.860901 0.065209
-4.714710 41.860901 0.064893
-4.399360 41.860901 0.064232
-4.084010 41.860901 0.063630
-3.768660 41.860901 0.063356
-3.453310 41.860901 0.063746
-3.137960 41.860901 0.064518
-2.822610 41.860901 0.065360
-2.507260 41.860901 0.066028
-2.191910 41.860901 0.066764
-1.876560 41.860901 0.067815
-1.561210 41.860901 0.068923
-1.245860 41.860901 0.069764
-0.930510 41.860901 0.069964
-0.615160 41.860901 0.069832
-0.299810 41.860901 0.069709
0.015540 41.860901 0.069702
0.330890 41.860901 0.069731
0.646240 41.860901 0.069877
0.961589 41.860901 0.069799
1.276940 41.860901 0.069540
1.592289 41.860901 0.069099
1.907640 41.860901 0.068408
2.222990 41.860901 0.067748
2.538340 41.860901 0.067452
2.853690 41.860901 0.068088
3.169039 41.860901 0.068657
3.484390 41.860901 0.069196
3.799739 41.860901 0.070055
4.115090 41.860901 0.071479
4.430439 41.860901 0.073220
4.745790 41.860901 0.075100
5.061140 41.860901 0.077250
5.376490 41.860901 0.079601
5.691840 41.860901 0.082206
6.007189 41.860901 0.085982
6.322540 41.860901 0.090997
6.637889 41.860901 0.096101
6.953240 41.860901 0.102156
7.268589 41.860901 0.110421
7.583940 41.860901 0.122130
7.899290 41.860901 0.141841
8.214640 41.860901 0.176393
8.529989 41.860901 0.240599
8.845339 41.860901 0.344918
9.160688 41.860901 0.528495
9.476040 41.860901 0.765767
9.791389 41.860901 1.045802
10.106739 41.860901 1.336390
10.422089 41.860901 1.616104
10.737438 41.860901 1.902958
11.052790 41.860901 2.126166
11.368139 41.860901 2.415375
11.683489 41.860901 2.622641
11.998838 41.860901 2.815662
12.314190 41.860901 2.998072
12.629539 41.860901 3.124607
12.944889 41.860901 3.229659
13.260239 41.860901 3.312650
13.575588 41.860901 3.297734
13.890940 41.860901 3.236240
14.206289 41.860901 3.159705
14.521639 41.860901 3.147648
14.836988 41.860901 3.131754
15.152340 41.860901 3.229206
15.467690 41.860901 3.397941
15.783039 41.860901 3.661101
16.098389 41.860901 0.000000
16.413738 41.860901 0.000000
16.729090 41.860901 0.000000
17.044439 41.860901 0.000000
17.359789 41.860901 0.000000
17.675138 41.860901 0.000000
17.990490 41.860901 0.000000
18.305840 41.860901 0.000000
18.621189 41.860901 0.000000
18.936539 41.860901 0.000000
19.251888 41.860901 0.000000
-7.237510 41.545551 0.000000
-6.922160 41.545551 0.000000
-6.606810 41.545551 0.070339
-6.291460 41.545551 0.068950
-5.976110 41.545551 0.068516
-5.660760 41.545551 0.068020
-5.345410 41.545551 0.067356
-5.030060 41.545551 0.066596
-4.714710 41.545551 0.065854
-4.399360 41.545551 0.065077
-4.084010 41.545551 0.064386
-3.768660 41.545551 0.063857
-3.453310 41.545551 0.063837
-3.137960 41.545551 0.064102
-2.822610 41.545551 0.064522
-2.507260 41.545551 0.064900
-2.191910 41.545551 0.065478
-1.876560 41.545551 0.066384
-1.561210 41.545551 0.067601
-1.245860 41.545551 0.068622
-0.930510 41.545551 0.069031
-0.615160 41.545551 0.069197
-0.299810 41.545551 0.069228
0.015540 41.545551 0.069532
0.330890 41.545551 0.069752
0.646240 41.545551 0.069956
0.961589 41.545551 0.070053
1.276940 41.545551 0.070212
1.592289 41.545551 0.069946
1.907640 41.545551 0.069192
2.222990 41.545551 0.068519
2.538340 41.545551 0.068119
2.853690 41.545551 0.068662
3.169039 41.545551 0.069205
3.484390 41.545551 0.069352
3.799739 41.545551 0.069940
4.115090 41.545551 0.070928
4.430439 41.545551 0.072514
4.745790 41.545551 0.074184
5.061140 41.545551 0.076125
5.376490 41.545551 0.078337
5.691840 41.545551 0.081161
6.007189 41.545551 0.085475
6.322540 41.545551 0.090652
6.637889 41.545551 0.096188
6.953240 41.545551 0.102458
7.268589 41.545551 0.110315
7.583940 41.545551 0.122710
7.899290 41.545551 0.141860
8.214640 41.545551 0.175567
8.529989 41.545551 0.234924
8.845339 41.545551 0.348349
9.160688 41.545551 0.526076
9.476040 41.545551 0.772162
9.791389 41.545551 1.046325
10.106739 41.545551 1.346183
10.422089 41.545551 1.635736
10.737438 41.545551 1.924091
11.052790 41.545551 2.125702
11.368139 41.545551 2.374117
11.683489 41.545551 2.605232
11.998838 41.545551 2.826584
12.314190 41.545551 2.996099
12.629539 41.545551 3.135760
12.944889 41.545551 3.214760
13.260239 41.545551 3.289243
13.575588 41.545551 3.313012
13.890940 41.545551 3.213686
14.206289 41.545551 3.165014
14.521639 41.545551 3.161320
14.836988 41.545551 3.142704
15.152340 41.545551 3.146215
15.467690 41.545551 3.256424
15.783039 41.545551 3.558963
16.098389 41.545551 0.000000
16.413738 41.545551 0.000000
16.729090 41.545551 0.000000
17.044439 41.545551 0.000000
17.359789 41.545551 0.000000
17.675138 41.545551 0.000000
17.990490 41.545551 0.000000
18.305840 41.545551 0.000000
18.621189 41.545551 0.000000
18.936539 41.545551 0.000000
19.251888 41.545551 0.000000
-7.237510 41.230202 0.000000
-6.922160 41.230202 0.000000
-6.606810 41.230202 0.069997
-6.291460 41.230202 0.069187
-5.976110 41.230202 0.069267
-5.660760 41.230202 0.069076
-5.345410 41.230202 0.068549
-5.030060 41.230202 0.067851
-4.714710 41.230202 0.066957
-4.399360 41.230202 0.066227
-4.084010 41.230202 0.065685
-3.768660 41.230202 0.065099
-3.453310 41.230202 0.064615
-3.137960 41.230202 0.064378
-2.822610 41.230202 0.064406
-2.507260 41.230202 0.064510
-2.191910 41.230202 0.064771
-1.876560 41.230202 0.065417
-1.561210 41.230202 0.066529
-1.245860 41.230202 0.067457
-0.930510 41.230202 0.067957
-0.615160 41.230202 0.068337
-0.299810 41.230202 0.068536
0.015540 41.230202 0.069043
0.330890 41.230202 0.069420
0.646240 41.230202 0.069619
0.961589 41.230202 0.069944
1.276940 41.230202 0.070416
1.592289 41.230202 0.070437
1.907640 41.230202 0.069808
2.222990 41.230202 0.069249
2.538340 41.230202 0.068971
2.853690 41.230202 0.069320
3.169039 41.230202 0.069752
3.484390 41.230202 0.069835
3.799739 41.230202 0.070219
4.115090 41.230202 0.071079
4.430439 41.230202 0.072301
4.745790 41.230202 0.073621
5.061140 41.230202 0.075354
5.376490 41.230202 0.077536
5.691840 41.230202 0.080532
6.007189 41.230202 0.084883
6.322540 41.230202 0.089923
6.637889 41.230202 0.095328
6.953240 41.230202 0.101735
7.268589 41.230202 0.110428
7.583940 41.230202 0.122653
7.899290 41.230202 0.140498
8.214640 41.230202 0.175897
8.529989 41.230202 0.242705
8.845339 41.230202 0.352056
9.160688 41.230202 0.534743
9.476040 41.230202 0.768716
9.791389 41.230202 1.058272
10.106739 41.230202 1.345550
10.422089 41.230202 1.642501
10.737438 41.230202 1.927212
11.052790 41.230202 2.110547
11.368139 41.230202 2.357703
11.683489 41.230202 2.633207
11.998838 41.230202 2.866778
12.314190 41.230202 3.036073
12.629539 41.230202 3.107904
12.944889 41.230202 3.230754
13.260239 41.230202 3.306008
13.575588 41.230202 3.322826
13.890940 41.230202 3.179819
14.206289 41.230202 3.142117
14.521639 41.230202 3.097557
14.836988 41.230202 3.063879
15.152340 41.230202 3.100487
15.467690 41.230202 3.161766
15.783039 41.230202 3.562284
16.098389 41.230202 0.000000
16.413738 41.230202 0.000000
16.729090 41.230202 0.000000
17.044439 41.230202 0.000000
17.359789 41.230202 0.000000
17.675138 41.230202 0.000000
17.990490 41.230202 0.000000
18.305840 41.230202 0.000000
18.621189 41.230202 0.000000
18.936539 41.230202 0.000000
19.251888 41.230202 0.000000
-7.237510 40.914848 0.000000
-6.922160 40.914848 0.000000
-6.606810 40.914848 0.069077
-6.291460 40.914848 0.068611
-5.976110 40.914848 0.069190
-5.660760 40.914848 0.069387
-5.345410 40.914848 0.069231
-5.030060 40.914848 0.068710
-4.714710 40.914848 0.067878
-4.399360 40.914848 0.067304
-4.084010 40.914848 0.067040
-3.768660 40.914848 0.066485
-3.453310 40.914848 0.065803
-3.137960 40.914848 0.065238
-2.822610 40.914848 0.064813
-2.507260 40.914848 0.064657
-2.191910 40.914848 0.064683
-1.876560 40.914848 0.065156
-1.561210 40.914848 0.066029
-1.245860 40.914848 0.066622
-0.930510 40.914848 0.066992
-0.615160 40.914848 0.067444
-0.299810 40.914848 0.067783
0.015540 40.914848 0.068419
0.330890 40.914848 0.068869
0.646240 40.914848 0.069125
0.961589 40.914848 0.069555
1.276940 40.914848 0.070135
1.592289 40.914848 0.070415
1.907640 40.914848 0.070083
2.222990 40.914848 0.069743
2.538340 40.914848 0.069664
2.853690 40.914848 0.069969
3.169039 40.914848 0.070211
3.484390 40.914848 0.070395
3.799739 40.914848 0.070673
4.115090 40.914848 0.071459
4.430439 40.914848 0.072511
4.745790 40.914848 0.073523
5.061140 40.914848 0.075003
5.376490 40.914848 0.077070
5.691840 40.914848 0.080268
6.007189 40.914848 0.084649
6.322540 40.914848 0.089385
6.637889 40.914848 0.094916
6.953240 40.914848 0.101429
7.268589 40.914848 0.109901
7.583940 40.914848 0.122525
7.899290 40.914848 0.139428
8.214640 40.914848 0.174383
8.529989 40.914848 0.241494
8.845339 40.914848 0.348760
9.160688 40.914848 0.523371
9.476040 40.914848 0.766153
9.791389 40.914848 1.049852
10.106739 40.914848 1.356269
10.422089 40.914848 1.632176
10.737438 40.914848 1.902760
11.052790 40.914848 2.141332
11.368139 40.914848 2.402397
11.683489 40.914848 2.643230
11.998838 40.914848 2.870000
12.314190 40.914848 3.039512
12.629539 40.914848 3.169430
12.944889 40.914848 3.229586
13.260239 40.914848 3.313221
13.575588 40.914848 3.336127
13.890940 40.914848 3.254504
14.206289 40.914848 3.211130
14.521639 40.914848 3.052760
14.836988 40.914848 3.024051
15.152340 40.914848 3.037308
15.467690 40.914848 3.250853
15.783039 40.914848 3.545609
16.098389 40.914848 0.000000
16.413738 40.914848 0.000000
16.729090 40.914848 0.000000
17.044439 40.914848 0.000000
17.359789 40.914848 0.000000
17.675138 40.914848 0.000000
17.990490 40.914848 0.000000
18.305840 40.914848 0.000000
18.621189 40.914848 0.000000
18.936539 40.914848 0.000000
19.251888 40.914848 0.000000
-7.237510 40.599503 0.000000
-6.922160 40.599503 0.000000
-6.606810 40.599503 0.067828
-6.291460 40.599503 0.067600
-5.976110 40.599503 0.068426
-5.660760 40.599503 0.069003
-5.345410 40.599503 0.069227
-5.030060 40.599503 0.068964
-4.714710 40.599503 0.068372
-4.399360 40.599503 0.068024
-4.084010 40.599503 0.068023
-3.768660 40.599503 0.067670
-3.453310 40.599503 0.067061
-3.137960 40.599503 0.066336
-2.822610 40.599503 0.065631
-2.507260 40.599503 0.065169
-2.191910 40.599503 0.065124
-1.876560 40.599503 0.065434
-1.561210 40.599503 0.066104
-1.245860 40.599503 0.066329
-0.930510 40.599503 0.066406
-0.615160 40.599503 0.066850
-0.299810 40.599503 0.067280
0.015540 40.599503 0.067940
0.330890 40.599503 0.068327
0.646240 40.599503 0.068674
0.961589 40.599503 0.069147
1.276940 40.599503 0.069777
1.592289 40.599503 0.070170
1.907640 40.599503 0.070084
2.222990 40.599503 0.070008
2.538340 40.599503 0.070032
2.853690 40.599503 0.070227
3.169039 40.599503 0.070396
3.484390 40.599503 0.070661
3.799739 40.599503 0.071127
4.115090 40.599503 0.071896
4.430439 40.599503 0.072809
4.745790 40.599503 0.073749
5.061140 40.599503 0.075102
5.376490 40.599503 0.077076
5.691840 40.599503 0.080200
6.007189 40.599503 0.084194
6.322540 40.599503 0.088895
6.637889 40.599503 0.094530
6.953240 40.599503 0.101533
7.268589 40.599503 0.109594
7.583940 40.599503 0.122845
7.899290 40.599503 0.140935
8.214640 40.599503 0.174967
8.529989 40.599503 0.238062
8.845339 40.599503 0.343201
9.160688 40.599503 0.513816
9.476040 40.599503 0.763099
9.791389 40.599503 1.047198
10.106739 40.599503 1.350499
10.422089 40.599503 1.644081
10.737438 40.599503 1.909147
11.052790 40.599503 2.153118
11.368139 40.599503 2.402431
11.683489 40.599503 2.641671
11.998838 40.599503 2.920002
12.314190 40.599503 3.086339
12.629539 40.599503 3.148108
12.944889 40.599503 3.230260
13.260239 40.599503 3.346101
13.575588 40.599503 3.376730
13.890940 40.599503 3.297476
14.206289 40.599503 3.190637
14.521639 40.599503 3.079911
14.836988 40.599503 2.964572
15.152340 40.599503 3.030350
15.467690 40.599503 3.174644
15.783039 40.599503 3.590747
16.098389 40.599503 0.000000
16.413738 40.599503 0.000000
16.729090 40.599503 0.000000
17.044439 40.599503 0.000000
17.359789 40.599503 0.000000
17.675138 40.599503 0.000000
17.990490 40.599503 0.000000
18.305840 40.599503 0.000000
18.621189 40.599503 0.000000
18.936539 40.599503 0.000000
19.251888 40.599503 0.000000
-7.237510 40.284149 0.000000
-6.922160 40.284149 0.000000
-6.606810 40.284149 0.066787
-6.291460 40.284149 0.066472
-5.976110 40.284149 0.067338
-5.660760 40.284149 0.068066
-5.345410 40.284149 0.068601
-5.030060 40.284149 0.068624
-4.714710 40.284149 0.068372
-4.399360 40.284149 0.068302
-4.084010 40.284149 0.068537
-3.768660 40.284149 0.068471
-3.453310 40.284149 0.067980
-3.137960 40.284149 0.067284
-2.822610 40.284149 0.066542
-2.507260 40.284149 0.065900
-2.191910 40.284149 0.065777
-1.876560 40.284149 0.066085
-1.561210 40.284149 0.066552
-1.245860 40.284149 0.066416
-0.930510 40.284149 0.066211
-0.615160 40.284149 0.066541
-0.299810 40.284149 0.067021
0.015540 40.284149 0.067515
0.330890 40.284149 0.067987
0.646240 40.284149 0.068404
0.961589 40.284149 0.068856
1.276940 40.284149 0.069360
1.592289 40.284149 0.069676
1.907640 40.284149 0.069752
2.222990 40.284149 0.069841
2.538340 40.284149 0.070027
2.853690 40.284149 0.070114
3.169039 40.284149 0.070232
3.484390 40.284149 0.070841
3.799739 40.284149 0.071457
4.115090 40.284149 0.072242
4.430439 40.284149 0.073094
4.745790 40.284149 0.074090
5.061140 40.284149 0.075543
5.376490 40.284149 0.077534
5.691840 40.284149 0.080405
6.007189 40.284149 0.083856
6.322540 40.284149 0.088593
6.637889 40.284149 0.094026
6.953240 40.284149 0.101030
7.268589 40.284149 0.109738
7.583940 40.284149 0.121490
7.899290 40.284149 0.141474
8.214640 40.284149 0.175503
8.529989 40.284149 0.233182
8.845339 40.284149 0.342299
9.160688 40.284149 0.513624
9.476040 40.284149 0.760387
9.791389 40.284149 1.052819
10.106739 40.284149 1.356178
10.422089 40.284149 1.645649
10.737438 40.284149 1.930861
11.052790 40.284149 2.174845
11.368139 40.284149 2.407200
11.683489 40.284149 2.655347
11.998838 40.284149 2.911141
12.314190 40.284149 3.116894
12.629539 40.284149 3.191679
12.944889 40.284149 3.275207
13.260239 40.284149 3.417319
13.575588 40.284149 3.390127
13.890940 40.284149 3.356728
14.206289 40.284149 3.172901
14.521639 40.284149 3.071287
14.836988 40.284149 2.941213
15.152340 40.284149 2.976930
15.467690 40.284149 3.148744
15.783039 40.284149 3.613296
16.098389 40.284149 0.000000
16.413738 40.284149 0.000000
16.729090 40.284149 0.000000
17.044439 40.284149 0.000000
17.359789 40.284149 0.000000
17.675138 40.284149 0.000000
17.990490 40.284149 0.000000
18.305840 40.284149 0.000000
18.621189 40.284149 0.000000
18.936539 40.284149 0.000000
19.251888 40.284149 0.000000
-7.237510 39.968800 0.000000
-6.922160 39.968800 0.000000
-6.606810 39.968800 0.065962
-6.291460 39.968800 0.065573
-5.976110 39.968800 0.066330
-5.660760 39.968800 0.067105
-5.345410 39.968800 0.067694
-5.030060 39.968800 0.068045
-4.714710 39.968800 0.068075
-4.399360 39.968800 0.068270
-4.084010 39.968800 0.068593
-3.768660 39.968800 0.068634
-3.453310 39.968800 0.068365
-3.137960 39.968800 0.067851
-2.822610 39.968800 0.067151
-2.507260 39.968800 0.066564
-2.191910 39.968800 0.066420
-1.876560 39.968800 0.066704
-1.561210 39.968800 0.066982
-1.245860 39.968800 0.066719
-0.930510 39.968800 0.066335
-0.615160 39.968800 0.066497
-0.299810 39.968800 0.066967
0.015540 39.968800 0.067388
0.330890 39.968800 0.067833
0.646240 39.968800 0.068244
0.961589 39.968800 0.068628
1.276940 39.968800 0.068972
1.592289 39.968800 0.069202
1.907640 39.968800 0.069229
2.222990 39.968800 0.069432
2.538340 39.968800 0.069663
2.853690 39.968800 0.069766
3.169039 39.968800 0.069923
3.484390 39.968800 0.070592
3.799739 39.968800 0.071435
4.115090 39.968800 0.072324
4.430439 39.968800 0.073122
4.745790 39.968800 0.074441
5.061140 39.968800 0.076073
5.376490 39.968800 0.078042
5.691840 39.968800 0.080609
6.007189 39.968800 0.083798
6.322540 39.968800 0.088257
6.637889 39.968800 0.094120
6.953240 39.968800 0.100821
7.268589 39.968800 0.109275
7.583940 39.968800 0.121693
7.899290 39.968800 0.140551
8.214640 39.968800 0.173180
8.529989 39.968800 0.234442
8.845339 39.968800 0.344961
9.160688 39.968800 0.510187
9.476040 39.968800 0.766131
9.791389 39.968800 1.047902
10.106739 39.968800 1.352444
10.422089 39.968800 1.656906
10.737438 39.968800 1.931964
11.052790 39.968800 2.170285
11.368139 39.968800 2.408322
11.683489 39.968800 2.661465
11.998838 39.968800 2.874728
12.314190 39.968800 3.102717
12.629539 39.968800 3.269832
12.944889 39.968800 3.310033
13.260239 39.968800 3.397612
13.575588 39.968800 3.420201
13.890940 39.968800 3.300373
14.206289 39.968800 3.208608
14.521639 39.968800 3.089565
14.836988 39.968800 2.946969
15.152340 39.968800 2.965693
15.467690 39.968800 3.102229
15.783039 39.968800 3.552193
16.098389 39.968800 0.000000
16.413738 39.968800 0.000000
16.729090 39.968800 0.000000
17.044439 39.968800 0.000000
17.359789 39.968800 0.000000
17.675138 39.968800 0.000000
17.990490 39.968800 0.000000
18.305840 39.968800 0.000000
18.621189 39.968800 0.000000
18.936539 39.968800 0.000000
19.251888 39.968800 0.000000
-7.237510 39.653450 0.000000
-6.922160 39.653450 0.000000
-6.606810 39.653450 0.065542
-6.291460 39.653450 0.065038
-5.976110 39.653450 0.065678
-5.660760 39.653450 0.066325
-5.345410 39.653450 0.066858
-5.030060 39.653450 0.067380
-4.714710 39.653450 0.067646
-4.399360 39.653450 0.068026
-4.084010 39.653450 0.068293
-3.768660 39.653450 0.068379
-3.453310 39.653450 0.068294
-3.137960 39.653450 0.067984
-2.822610 39.653450 0.067490
-2.507260 39.653450 0.067060
-2.191910 39.653450 0.067004
-1.876560 39.653450 0.067120
-1.561210 39.653450 0.067181
-1.245860 39.653450 0.066950
-0.930510 39.653450 0.066684
-0.615160 39.653450 0.066683
-0.299810 39.653450 0.067057
0.015540 39.653450 0.067417
0.330890 39.653450 0.067737
0.646240 39.653450 0.068121
0.961589 39.653450 0.068453
1.276940 39.653450 0.068736
1.592289 39.653450 0.068817
1.907640 39.653450 0.068733
2.222990 39.653450 0.068930
2.538340 39.653450 0.069247
2.853690 39.653450 0.069235
3.169039 39.653450 0.069322
3.484390 39.653450 0.070014
3.799739 39.653450 0.071004
4.115090 39.653450 0.072001
4.430439 39.653450 0.072931
4.745790 39.653450 0.074511
5.061140 39.653450 0.076535
5.376490 39.653450 0.078609
5.691840 39.653450 0.080990
6.007189 39.653450 0.083852
6.322540 39.653450 0.088371
6.637889 39.653450 0.094417
6.953240 39.653450 0.100998
7.268589 39.653450 0.109825
7.583940 39.653450 0.121535
7.899290 39.653450 0.141149
8.214640 39.653450 0.173868
8.529989 39.653450 0.235741
8.845339 39.653450 0.347564
9.160688 39.653450 0.518805
9.476040 39.653450 0.762647
9.791389 39.653450 1.033695
10.106739 39.653450 1.332838
10.422089 39.653450 1.636708
10.737438 39.653450 1.922763
11.052790 39.653450 2.195820
11.368139 39.653450 2.411829
11.683489 39.653450 2.635369
11.998838 39.653450 2.870911
12.314190 39.653450 3.148143
12.629539 39.653450 3.310232
12.944889 39.653450 3.392082
13.260239 39.653450 3.450888
13.575588 39.653450 3.455162
13.890940 39.653450 3.339396
14.206289 39.653450 3.178927
14.521639 39.653450 3.027325
14.836988 39.653450 2.926685
15.152340 39.653450 2.916246
15.467690 39.653450 3.085004
15.783039 39.653450 3.538698
16.098389 39.653450 0.000000
16.413738 39.653450 0.000000
16.729090 39.653450 0.000000
17.044439 39.653450 0.000000
17.359789 39.653450 0.000000
17.675138 39.653450 0.000000
17.990490 39.653450 0.000000
18.305840 39.653450 0.000000
18.621189 39.653450 0.000000
18.936539 39.653450 0.000000
19.251888 39.653450 0.000000
-7.237510 39.338100 0.000000
-6.922160 39.338100 0.000000
-6.606810 39.338100 0.065567
-6.291460 39.338100 0.064829
-5.976110 39.338100 0.065307
-5.660760 39.338100 0.065763
-5.345410 39.338100 0.066296
-5.030060 39.338100 0.066906
-4.714710 39.338100 0.067296
-4.399360 39.338100 0.067616
-4.084010 39.338100 0.067834
-3.768660 39.338100 0.067894
-3.453310 39.338100 0.067919
-3.137960 39.338100 0.067880
-2.822610 39.338100 0.067576
-2.507260 39.338100 0.067202
-2.191910 39.338100 0.067169
-1.876560 39.338100 0.067253
-1.561210 39.338100 0.067206
-1.245860 39.338100 0.066995
-0.930510 39.338100 0.066942
-0.615160 39.338100 0.066936
-0.299810 39.338100 0.067238
0.015540 39.338100 0.067616
0.330890 39.338100 0.067774
0.646240 39.338100 0.068025
0.961589 39.338100 0.068339
1.276940 39.338100 0.068573
1.592289 39.338100 0.068617
1.907640 39.338100 0.068379
2.222990 39.338100 0.068495
2.538340 39.338100 0.068774
2.853690 39.338100 0.068762
3.169039 39.338100 0.068762
3.484390 39.338100 0.069353
3.799739 39.338100 0.070337
4.115090 39.338100 0.071360
4.430439 39.338100 0.072477
4.745790 39.338100 0.074345
5.061140 39.338100 0.076591
5.376490 39.338100 0.078796
5.691840 39.338100 0.081059
6.007189 39.338100 0.084011
6.322540 39.338100 0.088605
6.637889 39.338100 0.094761
6.953240 39.338100 0.101466
7.268589 39.338100 0.109938
7.583940 39.338100 0.121413
7.899290 39.338100 0.142655
8.214640 39.338100 0.176153
8.529989 39.338100 0.240848
8.845339 39.338100 0.349472
9.160688 39.338100 0.523740
9.476040 39.338100 0.762608
9.791389 39.338100 1.040726
10.106739 39.338100 1.329357
10.422089 39.338100 1.634854
10.737438 39.338100 1.950804
11.052790 39.338100 2.202565
11.368139 39.338100 2.404854
11.683489 39.338100 2.640059
11.998838 39.338100 2.874376
12.314190 39.338100 3.125995
12.629539 39.338100 3.297932
12.944889 39.338100 3.424127
13.260239 39.338100 3.399546
13.575588 39.338100 3.433796
13.890940 39.338100 3.323841
14.206289 39.338100 3.136538
14.521639 39.338100 3.001282
14.836988 39.338100 2.918684
15.152340 39.338100 2.915904
15.467690 39.338100 3.115399
15.783039 39.338100 3.632340
16.098389 39.338100 0.000000
16.413738 39.338100 0.000000
16.729090 39.338100 0.000000
17.044439 39.338100 0.000000
17.359789 39.338100 0.000000
17.675138 39.338100 0.000000
17.990490 39.338100 0.000000
18.305840 39.338100 0.000000
18.621189 39.338100 0.000000
18.936539 39.338100 0.000000
19.251888 39.338100 0.000000
-7.237510 39.022751 0.000000
-6.922160 39.022751 0.000000
-6.606810 39.022751 0.065987
-6.291460 39.022751 0.065089
-5.976110 39.022751 0.065235
-5.660760 39.022751 0.065486
-5.345410 39.022751 0.065992
-5.030060 39.022751 0.066610
-4.714710 39.022751 0.066964
-4.399360 39.022751 0.067185
-4.084010 39.022751 0.067356
-3.768660 39.022751 0.067321
-3.453310 39.022751 0.067511
-3.137960 39.022751 0.067581
-2.822610 39.022751 0.067411
-2.507260 39.022751 0.067116
-2.191910 39.022751 0.067039
-1.876560 39.022751 0.067106
-1.561210 39.022751 0.067013
-1.245860 39.022751 0.066856
-0.930510 39.022751 0.066980
-0.615160 39.022751 0.067046
-0.299810 39.022751 0.067371
0.015540 39.022751 0.067804
0.330890 39.022751 0.067936
0.646240 39.022751 0.068027
0.961589 39.022751 0.068197
1.276940 39.022751 0.068440
1.592289 39.022751 0.068378
1.907640 39.022751 0.068148
2.222990 39.022751 0.068234
2.538340 39.022751 0.068389
2.853690 39.022751 0.068322
3.169039 39.022751 0.068235
3.484390 39.022751 0.068746
3.799739 39.022751 0.069747
4.115090 39.022751 0.070783
4.430439 39.022751 0.071962
4.745790 39.022751 0.073842
5.061140 39.022751 0.076234
5.376490 39.022751 0.078795
5.691840 39.022751 0.081307
6.007189 39.022751 0.084486
6.322540 39.022751 0.089161
6.637889 39.022751 0.095102
6.953240 39.022751 0.102189
7.268589 39.022751 0.110118
7.583940 39.022751 0.123004
7.899290 39.022751 0.142452
8.214640 39.022751 0.179036
8.529989 39.022751 0.245035
8.845339 39.022751 0.347973
9.160688 39.022751 0.517865
9.476040 39.022751 0.771980
9.791389 39.022751 1.050979
10.106739 39.022751 1.342392
10.422089 39.022751 1.637292
10.737438 39.022751 1.939629
11.052790 39.022751 2.209998
11.368139 39.022751 2.444851
11.683489 39.022751 2.687186
11.998838 39.022751 2.889859
12.314190 39.022751 3.157857
12.629539 39.022751 3.324868
12.944889 39.022751 3.387418
13.260239 39.022751 3.403750
13.575588 39.022751 3.403755
13.890940 39.022751 3.284301
14.206289 39.022751 3.158932
14.521639 39.022751 2.973663
14.836988 39.022751 2.963140
15.152340 39.022751 2.911931
15.467690 39.022751 3.161311
15.783039 39.022751 3.617518
16.098389 39.022751 0.000000
16.413738 39.022751 0.000000
16.729090 39.022751 0.000000
17.044439 39.022751 0.000000
17.359789 39.022751 0.000000
17.675138 39.022751 0.000000
17.990490 39.022751 0.000000
18.305840 39.022751 0.000000
18.621189 39.022751 0.000000
18.936539 39.022751 0.000000
19.251888 39.022751 0.000000
-7.237510 38.707401 0.000000
-6.922160 38.707401 0.000000
-6.606810 38.707401 0.066624
-6.291460 38.707401 0.065585
-5.976110 38.707401 0.065456
-5.660760 38.707401 0.065500
-5.345410 38.707401 0.066004
-5.030060 38.707401 0.066502
-4.714710 38.707401 0.066742
-4.399360 38.707401 0.066898
-4.084010 38.707401 0.066980
-3.768660 38.707401 0.066911
-3.453310 38.707401 0.067086
-3.137960 38.707401 0.067182
-2.822610 38.707401 0.067103
-2.507260 38.707401 0.066940
-2.191910 38.707401 0.066888
-1.876560 38.707401 0.066833
-1.561210 38.707401 0.066635
-1.245860 38.707401 0.066598
-0.930510 38.707401 0.066848
-0.615160 38.707401 0.067075
-0.299810 38.707401 0.067412
0.015540 38.707401 0.067896
0.330890 38.707401 0.068160
0.646240 38.707401 0.068135
0.961589 38.707401 0.068111
1.276940 38.707401 0.068332
1.592289 38.707401 0.068318
1.907640 38.707401 0.068205
2.222990 38.707401 0.068165
2.538340 38.707401 0.068246
2.853690 38.707401 0.068045
3.169039 38.707401 0.067869
3.484390 38.707401 0.068401
3.799739 38.707401 0.069354
4.115090 38.707401 0.070317
4.430439 38.707401 0.071288
4.745790 38.707401 0.073032
5.061140 38.707401 0.075510
5.376490 38.707401 0.078429
5.691840 38.707401 0.081323
6.007189 38.707401 0.084958
6.322540 38.707401 0.089402
6.637889 38.707401 0.094948
6.953240 38.707401 0.102182
7.268589 38.707401 0.110448
7.583940 38.707401 0.123347
7.899290 38.707401 0.141714
8.214640 38.707401 0.179686
8.529989 38.707401 0.240062
8.845339 38.707401 0.351230
9.160688 38.707401 0.526024
9.476040 38.707401 0.770936
9.791389 38.707401 1.065947
10.106739 38.707401 1.338947
10.422089 38.707401 1.638411
10.737438 38.707401 1.934788
11.052790 38.707401 2.187810
11.368139 38.707401 2.444905
11.683489 38.707401 2.667383
11.998838 38.707401 2.916560
12.314190 38.707401 3.113853
12.629539 38.707401 3.294003
12.944889 38.707401 3.435808
13.260239 38.707401 3.366961
13.575588 38.707401 3.392498
13.890940 38.707401 3.265025
14.206289 38.707401 3.107134
14.521639 38.707401 2.961664
14.836988 38.707401 2.921852
15.152340 38.707401 2.938801
15.467690 38.707401 3.148103
15.783039 38.707401 3.597004
16.098389 38.707401 0.000000
16.413738 38.707401 0.000000
16.729090 38.707401 0.000000
17.044439 38.707401 0.000000
17.359789 38.707401 0.000000
17.675138 38.707401 0.000000
17.990490 38.707401 0.000000
18.305840 38.707401 0.000000
18.621189 38.707401 0.000000
18.936539 38.707401 0.000000
19.251888 38.707401 0.000000
-7.237510 38.392052 0.000000
-6.922160 38.392052 0.000000
-6.606810 38.392052 0.067138
-6.291460 38.392052 0.066064
-5.976110 38.392052 0.065852
-5.660760 38.392052 0.065774
-5.345410 38.392052 0.066197
-5.030060 38.392052 0.066553
-4.714710 38.392052 0.066731
-4.399360 38.392052 0.066813
-4.084010 38.392052 0.066766
-3.768660 38.392052 0.066642
-3.453310 38.392052 0.066713
-3.137960 38.392052 0.066839
-2.822610 38.392052 0.066803
-2.507260 38.392052 0.066696
-2.191910 38.392052 0.066637
-1.876560 38.392052 0.066432
-1.561210 38.392052 0.066266
-1.245860 38.392052 0.066270
-0.930510 38.392052 0.066590
-0.615160 38.392052 0.066944
-0.299810 38.392052 0.067273
0.015540 38.392052 0.067803
0.330890 38.392052 0.068224
0.646240 38.392052 0.068298
0.961589 38.392052 0.068173
1.276940 38.392052 0.068269
1.592289 38.392052 0.068403
1.907640 38.392052 0.068377
2.222990 38.392052 0.068338
2.538340 38.392052 0.068315
2.853690 38.392052 0.068083
3.169039 38.392052 0.067888
3.484390 38.392052 0.068370
3.799739 38.392052 0.069174
4.115090 38.392052 0.069910
4.430439 38.392052 0.070652
4.745790 38.392052 0.072026
5.061140 38.392052 0.074494
5.376490 38.392052 0.077529
5.691840 38.392052 0.080936
6.007189 38.392052 0.084945
6.322540 38.392052 0.089411
6.637889 38.392052 0.095350
6.953240 38.392052 0.102154
7.268589 38.392052 0.110947
7.583940 38.392052 0.123185
7.899290 38.392052 0.142565
8.214640 38.392052 0.176482
8.529989 38.392052 0.240149
8.845339 38.392052 0.351444
9.160688 38.392052 0.536140
9.476040 38.392052 0.778645
9.791389 38.392052 1.054083
10.106739 38.392052 1.352899
10.422089 38.392052 1.678363
10.737438 38.392052 1.939199
11.052790 38.392052 2.164780
11.368139 38.392052 2.443364
11.683489 38.392052 2.661419
11.998838 38.392052 2.889863
12.314190 38.392052 3.098976
12.629539 38.392052 3.314048
12.944889 38.392052 3.427069
13.260239 38.392052 3.430585
13.575588 38.392052 3.360208
13.890940 38.392052 3.246043
14.206289 38.392052 3.081031
14.521639 38.392052 2.968341
14.836988 38.392052 2.861994
15.152340 38.392052 2.949402
15.467690 38.392052 3.156412
15.783039 38.392052 3.501166
16.098389 38.392052 0.000000
16.413738 38.392052 0.000000
16.729090 38.392052 0.000000
17.044439 38.392052 0.000000
17.359789 38.392052 0.000000
17.675138 38.392052 0.000000
17.990490 38.392052 0.000000
18.305840 38.392052 0.000000
18.621189 38.392052 0.000000
18.936539 38.392052 0.000000
19.251888 38.392052 0.000000
-7.237510 38.076698 0.000000
-6.922160 38.076698 0.000000
-6.606810 38.076698 0.067501
-6.291460 38.076698 0.066548
-5.976110 38.076698 0.066273
-5.660760 38.076698 0.066146
-5.345410 38.076698 0.066422
-5.030060 38.076698 0.066695
-4.714710 38.076698 0.066894
-4.399360 38.076698 0.066943
-4.084010 38.076698 0.066828
-3.768660 38.076698 0.066569
-3.453310 38.076698 0.066541
-3.137960 38.076698 0.066667
-2.822610 38.076698 0.066632
-2.507260 38.076698 0.066542
-2.191910 38.076698 0.066406
-1.876560 38.076698 0.065997
-1.561210 38.076698 0.065741
-1.245860 38.076698 0.065891
-0.930510 38.076698 0.066245
-0.615160 38.076698 0.066527
-0.299810 38.076698 0.066864
0.015540 38.076698 0.067410
0.330890 38.076698 0.068044
0.646240 38.076698 0.068387
0.961589 38.076698 0.068302
1.276940 38.076698 0.068378
1.592289 38.076698 0.068590
1.907640 38.076698 0.068719
2.222990 38.076698 0.068772
2.538340 38.076698 0.068622
2.853690 38.076698 0.068333
3.169039 38.076698 0.068178
3.484390 38.076698 0.068532
3.799739 38.076698 0.069152
4.115090 38.076698 0.069555
4.430439 38.076698 0.070049
4.745790 38.076698 0.071280
5.061140 38.076698 0.073377
5.376490 38.076698 0.076383
5.691840 38.076698 0.080022
6.007189 38.076698 0.084618
6.322540 38.076698 0.089387
6.637889 38.076698 0.095189
6.953240 38.076698 0.101932
7.268589 38.076698 0.111246
7.583940 38.076698 0.123328
7.899290 38.076698 0.144023
8.214640 38.076698 0.175894
8.529989 38.076698 0.242413
8.845339 38.076698 0.351825
9.160688 38.076698 0.535009
9.476040 38.076698 0.782977
9.791389 38.076698 1.043439
10.106739 38.076698 1.359958
10.422089 38.076698 1.680605
10.737438 38.076698 1.952376
11.052790 38.076698 2.192688
11.368139 38.076698 2.427307
11.683489 38.076698 2.664059
11.998838 38.076698 2.896223
12.314190 38.076698 3.105325
12.629539 38.076698 3.298069
12.944889 38.076698 3.443303
13.260239 38.076698 3.455202
13.575588 38.076698 3.383384
13.890940 38.076698 3.210384
14.206289 38.076698 3.079101
14.521639 38.076698 2.926852
14.836988 38.076698 2.865344
15.152340 38.076698 2.892667
15.467690 38.076698 3.135929
15.783039 38.076698 3.439097
16.098389 38.076698 0.000000
16.413738 38.076698 0.000000
16.729090 38.076698 0.000000
17.044439 38.076698 0.000000
17.359789 38.076698 0.000000
17.675138 38.076698 0.000000
17.990490 38.076698 0.000000
18.305840 38.076698 0.000000
18.621189 38.076698 0.000000
18.936539 38.076698 0.000000
19.251888 38.076698 0.000000
-7.237510 37.761353 0.000000
-6.922160 37.761353 0.000000
-6.606810 37.761353 0.067731
-6.291460 37.761353 0.066845
-5.976110 37.761353 0.066570
-5.660760 37.761353 0.066496
-5.345410 37.761353 0.066637
-5.030060 37.761353 0.066819
-4.714710 37.761353 0.067004
-4.399360 37.761353 0.067162
-4.084010 37.761353 0.066997
-3.768660 37.761353 0.066722
-3.453310 37.761353 0.066657
-3.137960 37.761353 0.066706
-2.822610 37.761353 0.066649
-2.507260 37.761353 0.066469
-2.191910 37.761353 0.066160
-1.876560 37.761353 0.065587
-1.561210 37.761353 0.065290
-1.245860 37.761353 0.065446
-0.930510 37.761353 0.065760
-0.615160 37.761353 0.065982
-0.299810 37.761353 0.066314
0.015540 37.761353 0.066903
0.330890 37.761353 0.067730
0.646240 37.761353 0.068330
0.961589 37.761353 0.068440
1.276940 37.761353 0.068614
1.592289 37.761353 0.068885
1.907640 37.761353 0.069204
2.222990 37.761353 0.069319
2.538340 37.761353 0.069175
2.853690 37.761353 0.068806
3.169039 37.761353 0.068676
3.484390 37.761353 0.068887
3.799739 37.761353 0.069167
4.115090 37.761353 0.069309
4.430439 37.761353 0.069675
4.745790 37.761353 0.070656
5.061140 37.761353 0.072408
5.376490 37.761353 0.075104
5.691840 37.761353 0.079017
6.007189 37.761353 0.083837
6.322540 37.761353 0.089038
6.637889 37.761353 0.094977
6.953240 37.761353 0.102321
7.268589 37.761353 0.111263
7.583940 37.761353 0.123976
7.899290 37.761353 0.143779
8.214640 37.761353 0.178260
8.529989 37.761353 0.239106
8.845339 37.761353 0.351531
9.160688 37.761353 0.537499
9.476040 37.761353 0.774188
9.791389 37.761353 1.064312
10.106739 37.761353 1.358213
10.422089 37.761353 1.681406
10.737438 37.761353 1.968107
11.052790 37.761353 2.220921
11.368139 37.761353 2.426033
11.683489 37.761353 2.671814
11.998838 37.761353 2.904038
12.314190 37.761353 3.130107
12.629539 37.761353 3.321256
12.944889 37.761353 3.443489
13.260239 37.761353 3.434975
13.575588 37.761353 3.348021
13.890940 37.761353 3.240364
14.206289 37.761353 3.104313
14.521639 37.761353 2.954160
14.836988 37.761353 2.888093
15.152340 37.761353 2.809983
15.467690 37.761353 3.171377
15.783039 37.761353 3.335269
16.098389 37.761353 0.000000
16.413738 37.761353 0.000000
16.729090 37.761353 0.000000
17.044439 37.761353 0.000000
17.359789 37.761353 0.000000
17.675138 37.761353 0.000000
17.990490 37.761353 0.000000
18.305840 37.761353 0.000000
18.621189 37.761353 0.000000
18.936539 37.761353 0.000000
19.251888 37.761353 0.000000
-7.237510 37.445999 0.000000
-6.922160 37.445999 0.000000
-6.606810 37.445999 0.067541
-6.291460 37.445999 0.066826
-5.976110 37.445999 0.066640
-5.660760 37.445999 0.066645
-5.345410 37.445999 0.066788
-5.030060 37.445999 0.066917
-4.714710 37.445999 0.067203
-4.399360 37.445999 0.067482
-4.084010 37.445999 0.067405
-3.768660 37.445999 0.067080
-3.453310 37.445999 0.066881
-3.137960 37.445999 0.066851
-2.822610 37.445999 0.066819
-2.507260 37.445999 0.066614
-2.191910 37.445999 0.066033
-1.876560 37.445999 0.065335
-1.561210 37.445999 0.065002
-1.245860 37.445999 0.065113
-0.930510 37.445999 0.065219
-0.615160 37.445999 0.065316
-0.299810 37.445999 0.065584
0.015540 37.445999 0.066189
0.330890 37.445999 0.067135
0.646240 37.445999 0.067959
0.961589 37.445999 0.068518
1.276940 37.445999 0.068830
1.592289 37.445999 0.069172
1.907640 37.445999 0.069595
2.222990 37.445999 0.069968
2.538340 37.445999 0.069813
2.853690 37.445999 0.069483
3.169039 37.445999 0.069216
3.484390 37.445999 0.069173
3.799739 37.445999 0.069125
4.115090 37.445999 0.069182
4.430439 37.445999 0.069454
4.745790 37.445999 0.070231
5.061140 37.445999 0.071526
5.376490 37.445999 0.073911
5.691840 37.445999 0.077952
6.007189 37.445999 0.082698
6.322540 37.445999 0.088216
6.637889 37.445999 0.094421
6.953240 37.445999 0.102226
7.268589 37.445999 0.111715
7.583940 37.445999 0.124538
7.899290 37.445999 0.144239
8.214640 37.445999 0.177381
8.529989 37.445999 0.242479
8.845339 37.445999 0.360825
9.160688 37.445999 0.535636
9.476040 37.445999 0.771071
9.791389 37.445999 1.055067
10.106739 37.445999 1.370176
10.422089 37.445999 1.669310
10.737438 37.445999 1.958020
11.052790 37.445999 2.223360
11.368139 37.445999 2.417506
11.683489 37.445999 2.664118
11.998838 37.445999 2.891022
12.314190 37.445999 3.139463
12.629539 37.445999 3.281897
12.944889 37.445999 3.429506
13.260239 37.445999 3.427950
13.575588 37.445999 3.382950
13.890940 37.445999 3.190766
14.206289 37.445999 3.098648
14.521639 37.445999 2.949160
14.836988 37.445999 2.855865
15.152340 37.445999 2.817607
15.467690 37.445999 3.063282
15.783039 37.445999 3.194359
16.098389 37.445999 0.000000
16.413738 37.445999 0.000000
16.729090 37.445999 0.000000
17.044439 37.445999 0.000000
17.359789 37.445999 0.000000
17.675138 37.445999 0.000000
17.990490 37.445999 0.000000
18.305840 37.445999 0.000000
18.621189 37.445999 0.000000
18.936539 37.445999 0.000000
19.251888 37.445999 0.000000
-7.237510 37.130650 0.000000
-6.922160 37.130650 0.000000
-6.606810 37.130650 0.067046
-6.291460 37.130650 0.066508
-5.976110 37.130650 0.066587
-5.660760 37.130650 0.066554
-5.345410 37.130650 0.066756
-5.030060 37.130650 0.066987
-4.714710 37.130650 0.067447
-4.399360 37.130650 0.067855
-4.084010 37.130650 0.067849
-3.768660 37.130650 0.067554
-3.453310 37.130650 0.067292
-3.137960 37.130650 0.067205
-2.822610 37.130650 0.067142
-2.507260 37.130650 0.066768
-2.191910 37.130650 0.066044
-1.876560 37.130650 0.065336
-1.561210 37.130650 0.064990
-1.245860 37.130650 0.064895
-0.930510 37.130650 0.064697
-0.615160 37.130650 0.064677
-0.299810 37.130650 0.064857
0.015540 37.130650 0.065433
0.330890 37.130650 0.066403
0.646240 37.130650 0.067480
0.961589 37.130650 0.068434
1.276940 37.130650 0.069035
1.592289 37.130650 0.069368
1.907640 37.130650 0.069878
2.222990 37.130650 0.070435
2.538340 37.130650 0.070484
2.853690 37.130650 0.070139
3.169039 37.130650 0.069768
3.484390 37.130650 0.069445
3.799739 37.130650 0.069055
4.115090 37.130650 0.068973
4.430439 37.130650 0.069369
4.745790 37.130650 0.069930
5.061140 37.130650 0.071026
5.376490 37.130650 0.073149
5.691840 37.130650 0.077027
6.007189 37.130650 0.081737
6.322540 37.130650 0.087321
6.637889 37.130650 0.093806
6.953240 37.130650 0.102093
7.268589 37.130650 0.111775
7.583940 37.130650 0.124896
7.899290 37.130650 0.146343
8.214640 37.130650 0.182202
8.529989 37.130650 0.243117
8.845339 37.130650 0.352296
9.160688 37.130650 0.529080
9.476040 37.130650 0.772091
9.791389 37.130650 1.056032
10.106739 37.130650 1.352978
10.422089 37.130650 1.673909
10.737438 37.130650 1.959360
11.052790 37.130650 2.178111
11.368139 37.130650 2.441615
11.683489 37.130650 2.665700
11.998838 37.130650 2.907799
12.314190 37.130650 3.111427
12.629539 37.130650 3.294261
12.944889 37.130650 3.437778
13.260239 37.130650 3.448466
13.575588 37.130650 3.327925
13.890940 37.130650 3.208093
14.206289 37.130650 3.073758
14.521639 37.130650 2.971906
14.836988 37.130650 2.898539
15.152340 37.130650 2.898951
15.467690 37.130650 3.024133
15.783039 37.130650 3.102141
16.098389 37.130650 0.000000
16.413738 37.130650 0.000000
16.729090 37.130650 0.000000
17.044439 37.130650 0.000000
17.359789 37.130650 0.000000
17.675138 37.130650 0.000000
17.990490 37.130650 0.000000
18.305840 37.130650 0.000000
18.621189 37.130650 0.000000
18.936539 37.130650 0.000000
19.251888 37.130650 0.000000
-7.237510 36.815300 0.000000
-6.922160 36.815300 0.000000
-6.606810 36.815300 0.066452
-6.291460 36.815300 0.066141
-5.976110 36.815300 0.066346
-5.660760 36.815300 0.066332
-5.345410 36.815300 0.066487
-5.030060 36.815300 0.066948
-4.714710 36.815300 0.067583
-4.399360 36.815300 0.068205
-4.084010 36.815300 0.068302
-3.768660 36.815300 0.068200
-3.453310 36.815300 0.067864
-3.137960 36.815300 0.067590
-2.822610 36.815300 0.067450
-2.507260 36.815300 0.067051
-2.191910 36.815300 0.066242
-1.876560 36.815300 0.065500
-1.561210 36.815300 0.065087
-1.245860 36.815300 0.064723
-0.930510 36.815300 0.064268
-0.615160 36.815300 0.064086
-0.299810 36.815300 0.064208
0.015540 36.815300 0.064729
0.330890 36.815300 0.065722
0.646240 36.815300 0.066928
0.961589 36.815300 0.068130
1.276940 36.815300 0.068899
1.592289 36.815300 0.069374
1.907640 36.815300 0.070045
2.222990 36.815300 0.070727
2.538340 36.815300 0.070882
2.853690 36.815300 0.070668
3.169039 36.815300 0.070137
3.484390 36.815300 0.069548
3.799739 36.815300 0.068865
4.115090 36.815300 0.068940
4.430439 36.815300 0.069355
4.745790 36.815300 0.069794
5.061140 36.815300 0.070663
5.376490 36.815300 0.072775
5.691840 36.815300 0.076475
6.007189 36.815300 0.080912
6.322540 36.815300 0.086154
6.637889 36.815300 0.093131
6.953240 36.815300 0.102026
7.268589 36.815300 0.111849
7.583940 36.815300 0.124309
7.899290 36.815300 0.146977
8.214640 36.815300 0.186461
8.529989 36.815300 0.244792
8.845339 36.815300 0.363916
9.160688 36.815300 0.529592
9.476040 36.815300 0.770282
9.791389 36.815300 1.052261
10.106739 36.815300 1.363022
10.422089 36.815300 1.676736
10.737438 36.815300 1.963763
11.052790 36.815300 2.205756
11.368139 36.815300 2.423572
11.683489 36.815300 2.648703
11.998838 36.815300 2.877366
12.314190 36.815300 3.139909
12.629539 36.815300 3.300999
12.944889 36.815300 3.371149
13.260239 36.815300 3.424382
13.575588 36.815300 3.377117
13.890940 36.815300 3.209292
14.206289 36.815300 3.076035
14.521639 36.815300 2.974998
14.836988 36.815300 2.920794
15.152340 36.815300 2.849004
15.467690 36.815300 3.004611
15.783039 36.815300 3.094186
16.098389 36.815300 0.000000
16.413738 36.815300 0.000000
16.729090 36.815300 0.000000
17.044439 36.815300 0.000000
17.359789 36.815300 0.000000
17.675138 36.815300 0.000000
17.990490 36.815300 0.000000
18.305840 36.815300 0.000000
18.621189 36.815300 0.000000
18.936539 36.815300 0.000000
19.251888 36.815300 0.000000
-7.237510 36.499950 0.000000
-6.922160 36.499950 0.000000
-6.606810 36.499950 0.066021
-6.291460 36.499950 0.065834
-5.976110 36.499950 0.066033
-5.660760 36.499950 0.065997
-5.345410 36.499950 0.066122
-5.030060 36.499950 0.066798
-4.714710 36.499950 0.067678
-4.399360 36.499950 0.068406
-4.084010 36.499950 0.068657
-3.768660 36.499950 0.068691
-3.453310 36.499950 0.068536
-3.137960 36.499950 0.068045
-2.822610 36.499950 0.067766
-2.507260 36.499950 0.067325
-2.191910 36.499950 0.066596
-1.876560 36.499950 0.065769
-1.561210 36.499950 0.065243
-1.245860 36.499950 0.064689
-0.930510 36.499950 0.063954
-0.615160 36.499950 0.063641
-0.299810 36.499950 0.063749
0.015540 36.499950 0.064237
0.330890 36.499950 0.065137
0.646240 36.499950 0.066338
0.961589 36.499950 0.067584
1.276940 36.499950 0.068425
1.592289 36.499950 0.069099
1.907640 36.499950 0.069908
2.222990 36.499950 0.070759
2.538340 36.499950 0.071166
2.853690 36.499950 0.071104
3.169039 36.499950 0.070472
3.484390 36.499950 0.069703
3.799739 36.499950 0.068996
4.115090 36.499950 0.068935
4.430439 36.499950 0.069195
4.745790 36.499950 0.069621
5.061140 36.499950 0.070497
5.376490 36.499950 0.072465
5.691840 36.499950 0.075896
6.007189 36.499950 0.080012
6.322540 36.499950 0.085271
6.637889 36.499950 0.092475
6.953240 36.499950 0.101209
7.268589 36.499950 0.111359
7.583940 36.499950 0.124333
7.899290 36.499950 0.145939
8.214640 36.499950 0.182656
8.529989 36.499950 0.247864
8.845339 36.499950 0.361855
9.160688 36.499950 0.525625
9.476040 36.499950 0.758090
9.791389 36.499950 1.064766
10.106739 36.499950 1.375315
10.422089 36.499950 1.687029
10.737438 36.499950 1.971860
11.052790 36.499950 2.203875
11.368139 36.499950 2.444743
11.683489 36.499950 2.656074
11.998838 36.499950 2.938032
12.314190 36.499950 3.187807
12.629539 36.499950 3.330741
12.944889 36.499950 3.417748
13.260239 36.499950 3.437860
13.575588 36.499950 3.387219
13.890940 36.499950 3.221720
14.206289 36.499950 3.066602
14.521639 36.499950 2.995984
14.836988 36.499950 2.960925
15.152340 36.499950 2.883801
15.467690 36.499950 2.991682
15.783039 36.499950 3.027273
16.098389 36.499950 0.000000
16.413738 36.499950 0.000000
16.729090 36.499950 0.000000
17.044439 36.499950 0.000000
17.359789 36.499950 0.000000
17.675138 36.499950 0.000000
17.990490 36.499950 0.000000
18.305840 36.499950 0.000000
18.621189 36.499950 0.000000
18.936539 36.499950 0.000000
19.251888 36.499950 0.000000
-7.237510 36.184601 0.000000
-6.922160 36.184601 0.000000
-6.606810 36.184601 0.065795
-6.291460 36.184601 0.065549
-5.976110 36.184601 0.065723
-5.660760 36.184601 0.065553
-5.345410 36.184601 0.065687
-5.030060 36.184601 0.066537
-4.714710 36.184601 0.067532
-4.399360 36.184601 0.068229
-4.084010 36.184601 0.068685
-3.768660 36.184601 0.068947
-3.453310 36.184601 0.068948
-3.137960 36.184601 0.068518
-2.822610 36.184601 0.068105
-2.507260 36.184601 0.067627
-2.191910 36.184601 0.066998
-1.876560 36.184601 0.066220
-1.561210 36.184601 0.065395
-1.245860 36.184601 0.064611
-0.930510 36.184601 0.063716
-0.615160 36.184601 0.063291
-0.299810 36.184601 0.063430
0.015540 36.184601 0.063928
0.330890 36.184601 0.064762
0.646240 36.184601 0.065750
0.961589 36.184601 0.066786
1.276940 36.184601 0.067778
1.592289 36.184601 0.068752
1.907640 36.184601 0.069625
2.222990 36.184601 0.070518
2.538340 36.184601 0.071246
2.853690 36.184601 0.071398
3.169039 36.184601 0.070816
3.484390 36.184601 0.070003
3.799739 36.184601 0.069251
4.115090 36.184601 0.068883
4.430439 36.184601 0.069049
4.745790 36.184601 0.069510
5.061140 36.184601 0.070482
5.376490 36.184601 0.072430
5.691840 36.184601 0.075321
6.007189 36.184601 0.079216
6.322540 36.184601 0.084280
6.637889 36.184601 0.091806
6.953240 36.184601 0.100449
7.268589 36.184601 0.111045
7.583940 36.184601 0.123800
7.899290 36.184601 0.144159
8.214640 36.184601 0.179257
8.529989 36.184601 0.245503
8.845339 36.184601 0.358261
9.160688 36.184601 0.532536
9.476040 36.184601 0.773651
9.791389 36.184601 1.071718
10.106739 36.184601 1.383126
10.422089 36.184601 1.676884
10.737438 36.184601 1.972604
11.052790 36.184601 2.236335
11.368139 36.184601 2.456370
11.683489 36.184601 2.686884
11.998838 36.184601 2.953048
12.314190 36.184601 3.174214
12.629539 36.184601 3.391689
12.944889 36.184601 3.502807
13.260239 36.184601 3.456473
13.575588 36.184601 3.350281
13.890940 36.184601 3.277212
14.206289 36.184601 3.102818
14.521639 36.184601 2.983817
14.836988 36.184601 2.941477
15.152340 36.184601 2.883850
15.467690 36.184601 2.967877
15.783039 36.184601 2.986609
16.098389 36.184601 0.000000
16.413738 36.184601 0.000000
16.729090 36.184601 0.000000
17.044439 36.184601 0.000000
17.359789 36.184601 0.000000
17.675138 36.184601 0.000000
17.990490 36.184601 0.000000
18.305840 36.184601 0.000000
18.621189 36.184601 0.000000
18.936539 36.184601 0.000000
19.251888 36.184601 0.000000
-7.237510 35.869251 0.000000
-6.922160 35.869251 0.000000
-6.606810 35.869251 0.065711
-6.291460 35.869251 0.065261
-5.976110 35.869251 0.065299
-5.660760 35.869251 0.065102
-5.345410 35.869251 0.065274
-5.030060 35.869251 0.066290
-4.714710 35.869251 0.067203
-4.399360 35.869251 0.067824
-4.084010 35.869251 0.068462
-3.768660 35.869251 0.069050
-3.453310 35.869251 0.069270
-3.137960 35.869251 0.068967
-2.822610 35.869251 0.068407
-2.507260 35.869251 0.067969
-2.191910 35.869251 0.067364
-1.876560 35.869251 0.066549
-1.561210 35.869251 0.065553
-1.245860 35.869251 0.064533
-0.930510 35.869251 0.063544
-0.615160 35.869251 0.063061
-0.299810 35.869251 0.063215
0.015540 35.869251 0.063776
0.330890 35.869251 0.064420
0.646240 35.869251 0.065133
0.961589 35.869251 0.065945
1.276940 35.869251 0.067015
1.592289 35.869251 0.068282
1.907640 35.869251 0.069267
2.222990 35.869251 0.070184
2.538340 35.869251 0.071083
2.853690 35.869251 0.071478
3.169039 35.869251 0.071078
3.484390 35.869251 0.070337
3.799739 35.869251 0.069621
4.115090 35.869251 0.068991
4.430439 35.869251 0.068870
4.745790 35.869251 0.069490
5.061140 35.869251 0.070690
5.376490 35.869251 0.072515
5.691840 35.869251 0.075020
6.007189 35.869251 0.078734
6.322540 35.869251 0.083978
6.637889 35.869251 0.091299
6.953240 35.869251 0.099463
7.268589 35.869251 0.109863
7.583940 35.869251 0.123903
7.899290 35.869251 0.146103
8.214640 35.869251 0.180093
8.529989 35.869251 0.244706
8.845339 35.869251 0.369822
9.160688 35.869251 0.537104
9.476040 35.869251 0.778698
9.791389 35.869251 1.078635
10.106739 35.869251 1.377760
10.422089 35.869251 1.682488
10.737438 35.869251 1.967399
11.052790 35.869251 2.229569
11.368139 35.869251 2.474311
11.683489 35.869251 2.693616
11.998838 35.869251 2.947772
12.314190 35.869251 3.178701
12.629539 35.869251 3.410604
12.944889 35.869251 3.485480
13.260239 35.869251 3.458805
13.575588 35.869251 3.411775
13.890940 35.869251 3.280362
14.206289 35.869251 3.111015
14.521639 35.869251 3.000649
14.836988 35.869251 2.972657
15.152340 35.869251 2.879038
15.467690 35.869251 2.989328
15.783039 35.869251 2.788851
16.098389 35.869251 0.000000
16.413738 35.869251 0.000000
16.729090 35.869251 0.000000
17.044439 35.869251 0.000000
17.359789 35.869251 0.000000
17.675138 35.869251 0.000000
17.990490 35.869251 0.000000
18.305840 35.869251 0.000000
18.621189 35.869251 0.000000
18.936539 35.869251 0.000000
19.251888 35.869251 0.000000
-7.237510 35.553902 0.000000
-6.922160 35.553902 0.069721
-6.606810 35.553902 0.065656
-6.291460 35.553902 0.065035
-5.976110 35.553902 0.064912
-5.660760 35.553902 0.064776
-5.345410 35.553902 0.065027
-5.030060 35.553902 0.066064
-4.714710 35.553902 0.066886
-4.399360 35.553902 0.067407
-4.084010 35.553902 0.068042
-3.768660 35.553902 0.068993
-3.453310 35.553902 0.069428
-3.137960 35.553902 0.069394
-2.822610 35.553902 0.068975
-2.507260 35.553902 0.068426
-2.191910 35.553902 0.067741
-1.876560 35.553902 0.066809
-1.561210 35.553902 0.065630
-1.245860 35.553902 0.064353
-0.930510 35.553902 0.063339
-0.615160 35.553902 0.062856
-0.299810 35.553902 0.063066
0.015540 35.553902 0.063563
0.330890 35.553902 0.063970
0.646240 35.553902 0.064468
0.961589 35.553902 0.065243
1.276940 35.553902 0.066284
1.592289 35.553902 0.067711
1.907640 35.553902 0.068859
2.222990 35.553902 0.069917
2.538340 35.553902 0.070825
2.853690 35.553902 0.071362
3.169039 35.553902 0.071180
3.484390 35.553902 0.070489
3.799739 35.553902 0.069838
4.115090 35.553902 0.069129
4.430439 35.553902 0.068786
4.745790 35.553902 0.069467
5.061140 35.553902 0.070881
5.376490 35.553902 0.072697
5.691840 35.553902 0.074890
6.007189 35.553902 0.078670
6.322540 35.553902 0.083810
6.637889 35.553902 0.091231
6.953240 35.553902 0.099044
7.268589 35.553902 0.109789
7.583940 35.553902 0.123154
7.899290 35.553902 0.144251
8.214640 35.553902 0.182325
8.529989 35.553902 0.245736
8.845339 35.553902 0.369639
9.160688 35.553902 0.540726
9.476040 35.553902 0.786405
9.791389 35.553902 1.067907
10.106739 35.553902 1.366966
10.422089 35.553902 1.679928
10.737438 35.553902 1.941334
11.052790 35.553902 2.216760
11.368139 35.553902 2.457675
11.683489 35.553902 2.689032
11.998838 35.553902 2.947194
12.314190 35.553902 3.194591
12.629539 35.553902 3.409147
12.944889 35.553902 3.399777
13.260239 35.553902 3.462067
13.575588 35.553902 3.414332
13.890940 35.553902 3.260372
14.206289 35.553902 3.151013
14.521639 35.553902 2.989738
14.836988 35.553902 2.953178
15.152340 35.553902 2.944934
15.467690 35.553902 3.024399
15.783039 35.553902 2.783030
16.098389 35.553902 0.000000
16.413738 35.553902 0.000000
16.729090 35.553902 0.000000
17.044439 35.553902 0.000000
17.359789 35.553902 0.000000
17.675138 35.553902 0.000000
17.990490 35.553902 0.000000
18.305840 35.553902 0.000000
18.621189 35.553902 0.000000
18.936539 35.553902 0.000000
19.251888 35.553902 0.000000
-7.237510 35.238552 0.000000
-6.922160 35.238552 0.149237
-6.606810 35.238552 0.065686
-6.291460 35.238552 0.064656
-5.976110 35.238552 0.064619
-5.660760 35.238552 0.064641
-5.345410 35.238552 0.065042
-5.030060 35.238552 0.066012
-4.714710 35.238552 0.066748
-4.399360 35.238552 0.067097
-4.084010 35.238552 0.067789
-3.768660 35.238552 0.068865
-3.453310 35.238552 0.069550
-3.137960 35.238552 0.069703
-2.822610 35.238552 0.069468
-2.507260 35.238552 0.068862
-2.191910 35.238552 0.068066
-1.876560 35.238552 0.067037
-1.561210 35.238552 0.065610
-1.245860 35.238552 0.064256
-0.930510 35.238552 0.063181
-0.615160 35.238552 0.062610
-0.299810 35.238552 0.062844
0.015540 35.238552 0.063221
0.330890 35.238552 0.063511
0.646240 35.238552 0.063944
0.961589 35.238552 0.064635
1.276940 35.238552 0.065754
1.592289 35.238552 0.067239
1.907640 35.238552 0.068545
2.222990 35.238552 0.069684
2.538340 35.238552 0.070608
2.853690 35.238552 0.071199
3.169039 35.238552 0.071059
3.484390 35.238552 0.070574
3.799739 35.238552 0.070143
4.115090 35.238552 0.069407
4.430439 35.238552 0.068862
4.745790 35.238552 0.069410
5.061140 35.238552 0.070871
5.376490 35.238552 0.072748
5.691840 35.238552 0.074983
6.007189 35.238552 0.078716
6.322540 35.238552 0.084171
6.637889 35.238552 0.091275
6.953240 35.238552 0.098677
7.268589 35.238552 0.108858
7.583940 35.238552 0.123614
7.899290 35.238552 0.144757
8.214640 35.238552 0.184950
8.529989 35.238552 0.251623
8.845339 35.238552 0.369713
9.160688 35.238552 0.544184
9.476040 35.238552 0.790377
9.791389 35.238552 1.073057
10.106739 35.238552 1.372587
10.422089 35.238552 1.677411
10.737438 35.238552 1.927799
11.052790 35.238552 2.197119
11.368139 35.238552 2.451541
11.683489 35.238552 2.700353
11.998838 35.238552 2.962233
12.314190 35.238552 3.195756
12.629539 35.238552 3.404166
12.944889 35.238552 3.462007
13.260239 35.238552 3.506346
13.575588 35.238552 3.403953
13.890940 35.238552 3.249685
14.206289 35.238552 3.191180
14.521639 35.238552 3.018702
14.836988 35.238552 2.952132
15.152340 35.238552 2.944386
15.467690 35.238552 3.049086
15.783039 35.238552 2.727275
16.098389 35.238552 0.000000
16.413738 35.238552 0.000000
16.729090 35.238552 0.000000
17.044439 35.238552 0.000000
17.359789 35.238552 0.000000
17.675138 35.238552 0.000000
17.990490 35.238552 0.000000
18.305840 35.238552 0.000000
18.621189 35.238552 0.000000
18.936539 35.238552 0.000000
19.251888 35.238552 0.000000
-7.237510 34.923203 0.000000
-6.922160 34.923203 0.079871
-6.606810 34.923203 0.065558
-6.291460 34.923203 0.064245
-5.976110 34.923203 0.064195
-5.660760 34.923203 0.064479
-5.345410 34.923203 0.065085
-5.030060 34.923203 0.065890
-4.714710 34.923203 0.066483
-4.399360 34.923203 0.066828
-4.084010 34.923203 0.067595
-3.768660 34.923203 0.068815
-3.453310 34.923203 0.069625
-3.137960 34.923203 0.069931
-2.822610 34.923203 0.069788
-2.507260 34.923203 0.069227
-2.191910 34.923203 0.068228
-1.876560 34.923203 0.067026
-1.561210 34.923203 0.065597
-1.245860 34.923203 0.064185
-0.930510 34.923203 0.063069
-0.615160 34.923203 0.062464
-0.299810 34.923203 0.062513
0.015540 34.923203 0.062764
0.330890 34.923203 0.063061
0.646240 34.923203 0.063546
0.961589 34.923203 0.064275
1.276940 34.923203 0.065498
1.592289 34.923203 0.066881
1.907640 34.923203 0.068256
2.222990 34.923203 0.069474
2.538340 34.923203 0.070401
2.853690 34.923203 0.070879
3.169039 34.923203 0.070810
3.484390 34.923203 0.070681
3.799739 34.923203 0.070556
4.115090 34.923203 0.069857
4.430439 34.923203 0.069137
4.745790 34.923203 0.069441
5.061140 34.923203 0.070755
5.376490 34.923203 0.072573
5.691840 34.923203 0.074912
6.007189 34.923203 0.078779
6.322540 34.923203 0.084150
6.637889 34.923203 0.091031
6.953240 34.923203 0.098946
7.268589 34.923203 0.108475
7.583940 34.923203 0.122994
7.899290 34.923203 0.145997
8.214640 34.923203 0.183134
8.529989 34.923203 0.252379
8.845339 34.923203 0.366270
9.160688 34.923203 0.550982
9.476040 34.923203 0.780941
9.791389 34.923203 1.054428
10.106739 34.923203 1.377967
10.422089 34.923203 1.681588
10.737438 34.923203 1.934904
11.052790 34.923203 2.204104
11.368139 34.923203 2.432114
11.683489 34.923203 2.726066
11.998838 34.923203 2.990905
12.314190 34.923203 3.198565
12.629539 34.923203 3.390878
12.944889 34.923203 3.486231
13.260239 34.923203 3.598702
13.575588 34.923203 3.404506
13.890940 34.923203 3.274015
14.206289 34.923203 3.197527
14.521639 34.923203 3.063626
14.836988 34.923203 2.941469
15.152340 34.923203 3.042893
15.467690 34.923203 3.107516
15.783039 34.923203 2.774293
16.098389 34.923203 0.000000
16.413738 34.923203 0.000000
16.729090 34.923203 0.000000
17.044439 34.923203 0.000000
17.359789 34.923203 0.000000
17.675138 34.923203 0.000000
17.990490 34.923203 0.000000
18.305840 34.923203 0.000000
18.621189 34.923203 0.000000
18.936539 34.923203 0.000000
19.251888 34.923203 0.000000
-7.237510 34.607849 0.000000
-6.922160 34.607849 0.065844
-6.606810 34.607849 0.065248
-6.291460 34.607849 0.063773
-5.976110 34.607849 0.063821
-5.660760 34.607849 0.064306
-5.345410 34.607849 0.064975
-5.030060 34.607849 0.065630
-4.714710 34.607849 0.066051
-4.399360 34.607849 0.066552
-4.084010 34.607849 0.067519
-3.768660 34.607849 0.068709
-3.453310 34.607849 0.069615
-3.137960 34.607849 0.070039
-2.822610 34.607849 0.070024
-2.507260 34.607849 0.069378
-2.191910 34.607849 0.068235
-1.876560 34.607849 0.067005
-1.561210 34.607849 0.065572
-1.245860 34.607849 0.064157
-0.930510 34.607849 0.063003
-0.615160 34.607849 0.062248
-0.299810 34.607849 0.062175
0.015540 34.607849 0.062381
0.330890 34.607849 0.062671
0.646240 34.607849 0.063175
0.961589 34.607849 0.064002
1.276940 34.607849 0.065343
1.592289 34.607849 0.066712
1.907640 34.607849 0.068052
2.222990 34.607849 0.069234
2.538340 34.607849 0.070275
2.853690 34.607849 0.070714
3.169039 34.607849 0.070696
3.484390 34.607849 0.070850
3.799739 34.607849 0.070878
4.115090 34.607849 0.070200
4.430439 34.607849 0.069395
4.745790 34.607849 0.069450
5.061140 34.607849 0.070607
5.376490 34.607849 0.072346
5.691840 34.607849 0.074728
6.007189 34.607849 0.078631
6.322540 34.607849 0.083979
6.637889 34.607849 0.090653
6.953240 34.607849 0.098400
7.268589 34.607849 0.108085
7.583940 34.607849 0.123156
7.899290 34.607849 0.145107
8.214640 34.607849 0.181424
8.529989 34.607849 0.252313
8.845339 34.607849 0.362549
9.160688 34.607849 0.546181
9.476040 34.607849 0.775204
9.791389 34.607849 1.069926
10.106739 34.607849 1.369337
10.422089 34.607849 1.658402
10.737438 34.607849 1.948742
11.052790 34.607849 2.183497
11.368139 34.607849 2.454134
11.683489 34.607849 2.728739
11.998838 34.607849 2.999297
12.314190 34.607849 3.208545
12.629539 34.607849 3.372817
12.944889 34.607849 3.450855
13.260239 34.607849 3.556363
13.575588 34.607849 3.484460
13.890940 34.607849 3.324785
14.206289 34.607849 3.180272
14.521639 34.607849 3.065830
14.836988 34.607849 2.958264
15.152340 34.607849 2.951550
15.467690 34.607849 3.088176
15.783039 34.607849 2.699794
16.098389 34.607849 0.000000
16.413738 34.607849 0.000000
16.729090 34.607849 0.000000
17.044439 34.607849 0.000000
17.359789 34.607849 0.000000
17.675138 34.607849 0.000000
17.990490 34.607849 0.000000
18.305840 34.607849 0.000000
18.621189 34.607849 0.000000
18.936539 34.607849 0.000000
19.251888 34.607849 0.000000
-7.237510 34.292503 0.000000
-6.922160 34.292503 0.062626
-6.606810 34.292503 0.064968
-6.291460 34.292503 0.063292
-5.976110 34.292503 0.063519
-5.660760 34.292503 0.064092
-5.345410 34.292503 0.064742
-5.030060 34.292503 0.065239
-4.714710 34.292503 0.065553
-4.399360 34.292503 0.066188
-4.084010 34.292503 0.067254
-3.768660 34.292503 0.068513
-3.453310 34.292503 0.069459
-3.137960 34.292503 0.069958
-2.822610 34.292503 0.070099
-2.507260 34.292503 0.069558
-2.191910 34.292503 0.068322
-1.876560 34.292503 0.067098
-1.561210 34.292503 0.065726
-1.245860 34.292503 0.064354
-0.930510 34.292503 0.063129
-0.615160 34.292503 0.062302
-0.299810 34.292503 0.062049
0.015540 34.292503 0.062096
0.330890 34.292503 0.062315
0.646240 34.292503 0.062817
0.961589 34.292503 0.063839
1.276940 34.292503 0.065283
1.592289 34.292503 0.066587
1.907640 34.292503 0.067770
2.222990 34.292503 0.069065
2.538340 34.292503 0.070214
2.853690 34.292503 0.070682
3.169039 34.292503 0.070839
3.484390 34.292503 0.071164
3.799739 34.292503 0.071169
4.115090 34.292503 0.070469
4.430439 34.292503 0.069511
4.745790 34.292503 0.069382
5.061140 34.292503 0.070316
5.376490 34.292503 0.071936
5.691840 34.292503 0.074467
6.007189 34.292503 0.078209
6.322540 34.292503 0.083422
6.637889 34.292503 0.090203
6.953240 34.292503 0.097998
7.268589 34.292503 0.107626
7.583940 34.292503 0.121915
7.899290 34.292503 0.143886
8.214640 34.292503 0.181615
8.529989 34.292503 0.250697
8.845339 34.292503 0.370823
9.160688 34.292503 0.551282
9.476040 34.292503 0.796611
9.791389 34.292503 1.085404
10.106739 34.292503 1.389722
10.422089 34.292503 1.688774
10.737438 34.292503 1.930806
11.052790 34.292503 2.171670
11.368139 34.292503 2.464020
11.683489 34.292503 2.734808
11.998838 34.292503 2.960392
12.314190 34.292503 3.222982
12.629539 34.292503 3.404696
12.944889 34.292503 3.523436
13.260239 34.292503 3.534992
13.575588 34.292503 3.515830
13.890940 34.292503 3.391012
14.206289 34.292503 3.200370
14.521639 34.292503 3.060236
14.836988 34.292503 2.982274
15.152340 34.292503 2.989548
15.467690 34.292503 3.124601
15.783039 34.292503 2.737325
16.098389 34.292503 0.000000
16.413738 34.292503 0.000000
16.729090 34.292503 0.000000
17.044439 34.292503 0.000000
17.359789 34.292503 0.000000
17.675138 34.292503 0.000000
17.990490 34.292503 0.000000
18.305840 34.292503 0.000000
18.621189 34.292503 0.000000
18.936539 34.292503 0.000000
19.251888 34.292503 0.000000
-7.237510 33.977150 0.000000
-6.922160 33.977150 0.068479
-6.606810 33.977150 0.064956
-6.291460 33.977150 0.063048
-5.976110 33.977150 0.063263
-5.660760 33.977150 0.063773
-5.345410 33.977150 0.064259
-5.030060 33.977150 0.064766
-4.714710 33.977150 0.065009
-4.399360 33.977150 0.065687
-4.084010 33.977150 0.066962
-3.768660 33.977150 0.068281
-3.453310 33.977150 0.069188
-3.137960 33.977150 0.069832
-2.822610 33.977150 0.070038
-2.507260 33.977150 0.069672
-2.191910 33.977150 0.068685
-1.876560 33.977150 0.067416
-1.561210 33.977150 0.066024
-1.245860 33.977150 0.064554
-0.930510 33.977150 0.063326
-0.615160 33.977150 0.062448
-0.299810 33.977150 0.062097
0.015540 33.977150 0.061899
0.330890 33.977150 0.062017
0.646240 33.977150 0.062592
0.961589 33.977150 0.063574
1.276940 33.977150 0.065176
1.592289 33.977150 0.066453
1.907640 33.977150 0.067618
2.222990 33.977150 0.068936
2.538340 33.977150 0.070228
2.853690 33.977150 0.070786
3.169039 33.977150 0.071105
3.484390 33.977150 0.071409
3.799739 33.977150 0.071371
4.115090 33.977150 0.070603
4.430439 33.977150 0.069562
4.745790 33.977150 0.069396
5.061140 33.977150 0.069977
5.376490 33.977150 0.071487
5.691840 33.977150 0.074014
6.007189 33.977150 0.077918
6.322540 33.977150 0.083327
6.637889 33.977150 0.090199
6.953240 33.977150 0.098130
7.268589 33.977150 0.108559
7.583940 33.977150 0.122255
7.899290 33.977150 0.144479
8.214640 33.977150 0.182949
8.529989 33.977150 0.249094
8.845339 33.977150 0.366326
9.160688 33.977150 0.549127
9.476040 33.977150 0.787526
9.791389 33.977150 1.097130
10.106739 33.977150 1.388300
10.422089 33.977150 1.665918
10.737438 33.977150 1.926651
11.052790 33.977150 2.180857
11.368139 33.977150 2.468977
11.683489 33.977150 2.719537
11.998838 33.977150 2.945977
12.314190 33.977150 3.184986
12.629539 33.977150 3.388682
12.944889 33.977150 3.543184
13.260239 33.977150 3.608663
13.575588 33.977150 3.549424
13.890940 33.977150 3.356007
14.206289 33.977150 3.227361
14.521639 33.977150 3.091836
14.836988 33.977150 2.986419
15.152340 33.977150 3.017536
15.467690 33.977150 3.140610
15.783039 33.977150 2.736631
16.098389 33.977150 0.000000
16.413738 33.977150 0.000000
16.729090 33.977150 0.000000
17.044439 33.977150 0.000000
17.359789 33.977150 0.000000
17.675138 33.977150 0.000000
17.990490 33.977150 0.000000
18.305840 33.977150 0.000000
18.621189 33.977150 0.000000
18.936539 33.977150 0.000000
19.251888 33.977150 0.000000
-7.237510 33.661800 0.000000
-6.922160 33.661800 0.070763
-6.606810 33.661800 0.065099
-6.291460 33.661800 0.063003
-5.976110 33.661800 0.063073
-5.660760 33.661800 0.063450
-5.345410 33.661800 0.063822
-5.030060 33.661800 0.064132
-4.714710 33.661800 0.064322
-4.399360 33.661800 0.065136
-4.084010 33.661800 0.066624
-3.768660 33.661800 0.068012
-3.453310 33.661800 0.069046
-3.137960 33.661800 0.069769
-2.822610 33.661800 0.070064
-2.507260 33.661800 0.069854
-2.191910 33.661800 0.069070
-1.876560 33.661800 0.067974
-1.561210 33.661800 0.066555
-1.245860 33.661800 0.064889
-0.930510 33.661800 0.063581
-0.615160 33.661800 0.062655
-0.299810 33.661800 0.062137
0.015540 33.661800 0.061769
0.330890 33.661800 0.061804
0.646240 33.661800 0.062338
0.961589 33.661800 0.063327
1.276940 33.661800 0.064925
1.592289 33.661800 0.066203
1.907640 33.661800 0.067339
2.222990 33.661800 0.068917
2.538340 33.661800 0.070220
2.853690 33.661800 0.071023
3.169039 33.661800 0.071536
3.484390 33.661800 0.071692
3.799739 33.661800 0.071339
4.115090 33.661800 0.070590
4.430439 33.661800 0.069619
4.745790 33.661800 0.069314
5.061140 33.661800 0.069552
5.376490 33.661800 0.071050
5.691840 33.661800 0.073891
6.007189 33.661800 0.078032
6.322540 33.661800 0.083522
6.637889 33.661800 0.090399
6.953240 33.661800 0.098944
7.268589 33.661800 0.108751
7.583940 33.661800 0.123090
7.899290 33.661800 0.145043
8.214640 33.661800 0.183369
8.529989 33.661800 0.251401
8.845339 33.661800 0.371510
9.160688 33.661800 0.548319
9.476040 33.661800 0.798196
9.791389 33.661800 1.092215
10.106739 33.661800 1.398912
10.422089 33.661800 1.660611
10.737438 33.661800 1.921253
11.052790 33.661800 2.188897
11.368139 33.661800 2.493285
11.683489 33.661800 2.746100
11.998838 33.661800 2.984210
12.314190 33.661800 3.187199
12.629539 33.661800 3.393745
12.944889 33.661800 3.586956
13.260239 33.661800 3.589125
13.575588 33.661800 3.493091
13.890940 33.661800 3.358903
14.206289 33.661800 3.257011
14.521639 33.661800 3.090940
14.836988 33.661800 3.010874
15.152340 33.661800 3.082565
15.467690 33.661800 3.266950
15.783039 33.661800 2.760498
16.098389 33.661800 0.000000
16.413738 33.661800 0.000000
16.729090 33.661800 0.000000
17.044439 33.661800 0.000000
17.359789 33.661800 0.000000
17.675138 33.661800 0.000000
17.990490 33.661800 0.000000
18.305840 33.661800 0.000000
18.621189 33.661800 0.000000
18.936539 33.661800 0.000000
19.251888 33.661800 0.000000
-7.237510 33.346451 0.000000
-6.922160 33.346451 0.071078
-6.606810 33.346451 0.065254
-6.291460 33.346451 0.063164
-5.976110 33.346451 0.062927
-5.660760 33.346451 0.063160
-5.345410 33.346451 0.063481
-5.030060 33.346451 0.063712
-4.714710 33.346451 0.063843
-4.399360 33.346451 0.064778
-4.084010 33.346451 0.066418
-3.768660 33.346451 0.067843
-3.453310 33.346451 0.068922
-3.137960 33.346451 0.069720
-2.822610 33.346451 0.070198
-2.507260 33.346451 0.070199
-2.191910 33.346451 0.069507
-1.876560 33.346451 0.068512
-1.561210 33.346451 0.067063
-1.245860 33.346451 0.065331
-0.930510 33.346451 0.063986
-0.615160 33.346451 0.062931
-0.299810 33.346451 0.062259
0.015540 33.346451 0.061730
0.330890 33.346451 0.061678
0.646240 33.346451 0.062111
0.961589 33.346451 0.063093
1.276940 33.346451 0.064569
1.592289 33.346451 0.065864
1.907640 33.346451 0.067272
2.222990 33.346451 0.068917
2.538340 33.346451 0.070374
2.853690 33.346451 0.071357
3.169039 33.346451 0.071842
3.484390 33.346451 0.071785
3.799739 33.346451 0.071104
4.115090 33.346451 0.070171
4.430439 33.346451 0.069505
4.745790 33.346451 0.069282
5.061140 33.346451 0.069468
5.376490 33.346451 0.070858
5.691840 33.346451 0.073997
6.007189 33.346451 0.078406
6.322540 33.346451 0.083852
6.637889 33.346451 0.090718
6.953240 33.346451 0.099285
7.268589 33.346451 0.109223
7.583940 33.346451 0.123658
7.899290 33.346451 0.146119
8.214640 33.346451 0.185609
8.529989 33.346451 0.246007
8.845339 33.346451 0.363403
9.160688 33.346451 0.546495
9.476040 33.346451 0.797371
9.791389 33.346451 1.102950
10.106739 33.346451 1.400250
10.422089 33.346451 1.687469
10.737438 33.346451 1.945747
11.052790 33.346451 2.176616
11.368139 33.346451 2.476354
11.683489 33.346451 2.762686
11.998838 33.346451 2.945694
12.314190 33.346451 3.176205
12.629539 33.346451 3.400439
12.944889 33.346451 3.494854
13.260239 33.346451 3.582506
13.575588 33.346451 3.487495
13.890940 33.346451 3.356495
14.206289 33.346451 3.308730
14.521639 33.346451 3.170193
14.836988 33.346451 3.079483
15.152340 33.346451 3.093103
15.467690 33.346451 3.305394
15.783039 33.346451 2.807428
16.098389 33.346451 0.000000
16.413738 33.346451 0.000000
16.729090 33.346451 0.000000
17.044439 33.346451 0.000000
17.359789 33.346451 0.000000
17.675138 33.346451 0.000000
17.990490 33.346451 0.000000
18.305840 33.346451 0.000000
18.621189 33.346451 0.000000
18.936539 33.346451 0.000000
19.251888 33.346451 0.000000
-7.237510 33.031101 0.000000
-6.922160 33.031101 0.070319
-6.606810 33.031101 0.065359
-6.291460 33.031101 0.063427
-5.976110 33.031101 0.062854
-5.660760 33.031101 0.062965
-5.345410 33.031101 0.063282
-5.030060 33.031101 0.063451
-4.714710 33.031101 0.063678
-4.399360 33.031101 0.064726
-4.084010 33.031101 0.066362
-3.768660 33.031101 0.067754
-3.453310 33.031101 0.068834
-3.137960 33.031101 0.069744
-2.822610 33.031101 0.070513
-2.507260 33.031101 0.070504
-2.191910 33.031101 0.069843
-1.876560 33.031101 0.068889
-1.561210 33.031101 0.067317
-1.245860 33.031101 0.065607
-0.930510 33.031101 0.064172
-0.615160 33.031101 0.063193
-0.299810 33.031101 0.062402
0.015540 33.031101 0.061683
0.330890 33.031101 0.061574
0.646240 33.031101 0.062048
0.961589 33.031101 0.062993
1.276940 33.031101 0.064301
1.592289 33.031101 0.065725
1.907640 33.031101 0.067271
2.222990 33.031101 0.068974
2.538340 33.031101 0.070633
2.853690 33.031101 0.071565
3.169039 33.031101 0.071897
3.484390 33.031101 0.071615
3.799739 33.031101 0.070681
4.115090 33.031101 0.069710
4.430439 33.031101 0.069420
4.745790 33.031101 0.069313
5.061140 33.031101 0.069465
5.376490 33.031101 0.070889
5.691840 33.031101 0.074261
6.007189 33.031101 0.078766
6.322540 33.031101 0.084224
6.637889 33.031101 0.091005
6.953240 33.031101 0.100000
7.268589 33.031101 0.110050
7.583940 33.031101 0.124182
7.899290 33.031101 0.145757
8.214640 33.031101 0.184155
8.529989 33.031101 0.252205
8.845339 33.031101 0.370944
9.160688 33.031101 0.543402
9.476040 33.031101 0.783096
9.791389 33.031101 1.096557
10.106739 33.031101 1.404564
10.422089 33.031101 1.701995
10.737438 33.031101 1.956883
11.052790 33.031101 2.208865
11.368139 33.031101 2.465015
11.683489 33.031101 2.759843
11.998838 33.031101 2.980195
12.314190 33.031101 3.204088
12.629539 33.031101 3.387764
12.944889 33.031101 3.476151
13.260239 33.031101 3.550706
13.575588 33.031101 3.452014
13.890940 33.031101 3.386983
14.206289 33.031101 3.352434
14.521639 33.031101 3.185694
14.836988 33.031101 3.087934
15.152340 33.031101 3.143205
15.467690 33.031101 3.360430
15.783039 33.031101 2.984340
16.098389 33.031101 0.000000
16.413738 33.031101 0.000000
16.729090 33.031101 0.000000
17.044439 33.031101 0.000000
17.359789 33.031101 0.000000
17.675138 33.031101 0.000000
17.990490 33.031101 0.000000
18.305840 33.031101 0.000000
18.621189 33.031101 0.000000
18.936539 33.031101 0.000000
19.251888 33.031101 0.000000
-7.237510 32.715752 0.000000
-6.922160 32.715752 0.069983
-6.606810 32.715752 0.065515
-6.291460 32.715752 0.063514
-5.976110 32.715752 0.062787
-5.660760 32.715752 0.062827
-5.345410 32.715752 0.063116
-5.030060 32.715752 0.063468
-4.714710 32.715752 0.063810
-4.399360 32.715752 0.064963
-4.084010 32.715752 0.066522
-3.768660 32.715752 0.067975
-3.453310 32.715752 0.068895
-3.137960 32.715752 0.069907
-2.822610 32.715752 0.070694
-2.507260 32.715752 0.070710
-2.191910 32.715752 0.070072
-1.876560 32.715752 0.068996
-1.561210 32.715752 0.067354
-1.245860 32.715752 0.065655
-0.930510 32.715752 0.064272
-0.615160 32.715752 0.063300
-0.299810 32.715752 0.062474
0.015540 32.715752 0.061749
0.330890 32.715752 0.061741
0.646240 32.715752 0.062333
0.961589 32.715752 0.063175
1.276940 32.715752 0.064301
1.592289 32.715752 0.065774
1.907640 32.715752 0.067415
2.222990 32.715752 0.069165
2.538340 32.715752 0.070729
2.853690 32.715752 0.071560
3.169039 32.715752 0.071645
3.484390 32.715752 0.071163
3.799739 32.715752 0.070133
4.115090 32.715752 0.069378
4.430439 32.715752 0.069309
4.745790 32.715752 0.069310
5.061140 32.715752 0.069426
5.376490 32.715752 0.071070
5.691840 32.715752 0.074628
6.007189 32.715752 0.078933
6.322540 32.715752 0.084126
6.637889 32.715752 0.091090
6.953240 32.715752 0.100232
7.268589 32.715752 0.110125
7.583940 32.715752 0.123148
7.899290 32.715752 0.145240
8.214640 32.715752 0.182070
8.529989 32.715752 0.251999
8.845339 32.715752 0.373905
9.160688 32.715752 0.559390
9.476040 32.715752 0.792504
9.791389 32.715752 1.094616
10.106739 32.715752 1.400013
10.422089 32.715752 1.707096
10.737438 32.715752 1.982410
11.052790 32.715752 2.201829
11.368139 32.715752 2.438391
11.683489 32.715752 2.750230
11.998838 32.715752 2.988640
12.314190 32.715752 3.260692
12.629539 32.715752 3.428225
12.944889 32.715752 3.518546
13.260239 32.715752 3.542586
13.575588 32.715752 3.497581
13.890940 32.715752 3.411037
14.206289 32.715752 3.298557
14.521639 32.715752 3.213351
14.836988 32.715752 3.121564
15.152340 32.715752 3.192878
15.467690 32.715752 3.401844
15.783039 32.715752 2.816162
16.098389 32.715752 0.000000
16.413738 32.715752 0.000000
16.729090 32.715752 0.000000
17.044439 32.715752 0.000000
17.359789 32.715752 0.000000
17.675138 32.715752 0.000000
17.990490 32.715752 0.000000
18.305840 32.715752 0.000000
18.621189 32.715752 0.000000
18.936539 32.715752 0.000000
19.251888 32.715752 0.000000
-7.237510 32.400398 0.000000
-6.922160 32.400398 0.070521
-6.606810 32.400398 0.065524
-6.291460 32.400398 0.063514
-5.976110 32.400398 0.062849
-5.660760 32.400398 0.062773
-5.345410 32.400398 0.063076
-5.030060 32.400398 0.063628
-4.714710 32.400398 0.064176
-4.399360 32.400398 0.065403
-4.084010 32.400398 0.066941
-3.768660 32.400398 0.068215
-3.453310 32.400398 0.069196
-3.137960 32.400398 0.070075
-2.822610 32.400398 0.070760
-2.507260 32.400398 0.070621
-2.191910 32.400398 0.070086
-1.876560 32.400398 0.068927
-1.561210 32.400398 0.067246
-1.245860 32.400398 0.065607
-0.930510 32.400398 0.064343
-0.615160 32.400398 0.063289
-0.299810 32.400398 0.062431
0.015540 32.400398 0.061767
0.330890 32.400398 0.061872
0.646240 32.400398 0.062660
0.961589 32.400398 0.063627
1.276940 32.400398 0.064649
1.592289 32.400398 0.066087
1.907640 32.400398 0.067702
2.222990 32.400398 0.069257
2.538340 32.400398 0.070716
2.853690 32.400398 0.071396
3.169039 32.400398 0.071278
3.484390 32.400398 0.070569
3.799739 32.400398 0.069492
4.115090 32.400398 0.068931
4.430439 32.400398 0.069101
4.745790 32.400398 0.069257
5.061140 32.400398 0.069642
5.376490 32.400398 0.071405
5.691840 32.400398 0.074834
6.007189 32.400398 0.079172
6.322540 32.400398 0.084319
6.637889 32.400398 0.091119
6.953240 32.400398 0.100124
7.268589 32.400398 0.109654
7.583940 32.400398 0.122689
7.899290 32.400398 0.143319
8.214640 32.400398 0.181388
8.529989 32.400398 0.255528
8.845339 32.400398 0.374823
9.160688 32.400398 0.562967
9.476040 32.400398 0.811222
9.791389 32.400398 1.117769
10.106739 32.400398 1.426057
10.422089 32.400398 1.727547
10.737438 32.400398 1.979120
11.052790 32.400398 2.207522
11.368139 32.400398 2.475180
11.683489 32.400398 2.752330
11.998838 32.400398 3.017719
12.314190 32.400398 3.282029
12.629539 32.400398 3.475556
12.944889 32.400398 3.528175
13.260239 32.400398 3.551125
13.575588 32.400398 3.552840
13.890940 32.400398 3.428432
14.206289 32.400398 3.290725
14.521639 32.400398 3.181897
14.836988 32.400398 3.179356
15.152340 32.400398 3.338355
15.467690 32.400398 3.438334
15.783039 32.400398 3.385798
16.098389 32.400398 0.000000
16.413738 32.400398 0.000000
16.729090 32.400398 0.000000
17.044439 32.400398 0.000000
17.359789 32.400398 0.000000
17.675138 32.400398 0.000000
17.990490 32.400398 0.000000
18.305840 32.400398 0.000000
18.621189 32.400398 0.000000
18.936539 32.400398 0.000000
19.251888 32.400398 0.000000
-7.237510 32.085052 0.000000
-6.922160 32.085052 0.070515
-6.606810 32.085052 0.065676
-6.291460 32.085052 0.063614
-5.976110 32.085052 0.062871
-5.660760 32.085052 0.062792
-5.345410 32.085052 0.063149
-5.030060 32.085052 0.063863
-4.714710 32.085052 0.064527
-4.399360 32.085052 0.065922
-4.084010 32.085052 0.067597
-3.768660 32.085052 0.068788
-3.453310 32.085052 0.069599
-3.137960 32.085052 0.070310
-2.822610 32.085052 0.070810
-2.507260 32.085052 0.070676
-2.191910 32.085052 0.069896
-1.876560 32.085052 0.068530
-1.561210 32.085052 0.066871
-1.245860 32.085052 0.065408
-0.930510 32.085052 0.064318
-0.615160 32.085052 0.063398
-0.299810 32.085052 0.062501
0.015540 32.085052 0.061876
0.330890 32.085052 0.062070
0.646240 32.085052 0.062978
0.961589 32.085052 0.064039
1.276940 32.085052 0.065012
1.592289 32.085052 0.066444
1.907640 32.085052 0.068019
2.222990 32.085052 0.069409
2.538340 32.085052 0.070554
2.853690 32.085052 0.070936
3.169039 32.085052 0.070731
3.484390 32.085052 0.069905
3.799739 32.085052 0.068931
4.115090 32.085052 0.068561
4.430439 32.085052 0.068833
4.745790 32.085052 0.069259
5.061140 32.085052 0.069916
5.376490 32.085052 0.071793
5.691840 32.085052 0.074954
6.007189 32.085052 0.079022
6.322540 32.085052 0.084455
6.637889 32.085052 0.091491
6.953240 32.085052 0.099921
7.268589 32.085052 0.109665
7.583940 32.085052 0.122218
7.899290 32.085052 0.142611
8.214640 32.085052 0.183426
8.529989 32.085052 0.252970
8.845339 32.085052 0.384102
9.160688 32.085052 0.570302
9.476040 32.085052 0.811466
9.791389 32.085052 1.108930
10.106739 32.085052 1.426119
10.422089 32.085052 1.704619
10.737438 32.085052 1.965403
11.052790 32.085052 2.194839
11.368139 32.085052 2.476955
11.683489 32.085052 2.723599
11.998838 32.085052 2.983940
12.314190 32.085052 3.256157
12.629539 32.085052 3.473491
12.944889 32.085052 3.536960
13.260239 32.085052 3.568975
13.575588 32.085052 3.519173
13.890940 32.085052 3.427538
14.206289 32.085052 3.329578
14.521639 32.085052 3.299512
14.836988 32.085052 3.259641
15.152340 32.085052 3.368088
15.467690 32.085052 3.556743
15.783039 32.085052 0.000000
16.098389 32.085052 0.000000
16.413738 32.085052 0.000000
16.729090 32.085052 0.000000
17.044439 32.085052 0.000000
17.359789 32.085052 0.000000
17.675138 32.085052 0.000000
17.990490 32.085052 0.000000
18.305840 32.085052 0.000000
18.621189 32.085052 0.000000
18.936539 32.085052 0.000000
19.251888 32.085052 0.000000
-7.237510 31.769701 0.000000
-6.922160 31.769701 0.070357
-6.606810 31.769701 0.065626
-6.291460 31.769701 0.063753
-5.976110 31.769701 0.063236
-5.660760 31.769701 0.063042
-5.345410 31.769701 0.063436
-5.030060 31.769701 0.064244
-4.714710 31.769701 0.065087
-4.399360 31.769701 0.066508
-4.084010 31.769701 0.068222
-3.768660 31.769701 0.069436
-3.453310 31.769701 0.070059
-3.137960 31.769701 0.070600
-2.822610 31.769701 0.070884
-2.507260 31.769701 0.070599
-2.191910 31.769701 0.069587
-1.876560 31.769701 0.068033
-1.561210 31.769701 0.066368
-1.245860 31.769701 0.065053
-0.930510 31.769701 0.064174
-0.615160 31.769701 0.063466
-0.299810 31.769701 0.062705
0.015540 31.769701 0.062127
0.330890 31.769701 0.062312
0.646240 31.769701 0.063264
0.961589 31.769701 0.064403
1.276940 31.769701 0.065387
1.592289 31.769701 0.066814
1.907640 31.769701 0.068213
2.222990 31.769701 0.069424
2.538340 31.769701 0.070250
2.853690 31.769701 0.070494
3.169039 31.769701 0.070099
3.484390 31.769701 0.069176
3.799739 31.769701 0.068394
4.115090 31.769701 0.068214
4.430439 31.769701 0.068403
4.745790 31.769701 0.069090
5.061140 31.769701 0.070132
5.376490 31.769701 0.072031
5.691840 31.769701 0.075126
6.007189 31.769701 0.079292
6.322540 31.769701 0.084914
6.637889 31.769701 0.091683
6.953240 31.769701 0.099733
7.268589 31.769701 0.109157
7.583940 31.769701 0.122506
7.899290 31.769701 0.142550
8.214640 31.769701 0.180509
8.529989 31.769701 0.256912
8.845339 31.769701 0.384187
9.160688 31.769701 0.565124
9.476040 31.769701 0.817148
9.791389 31.769701 1.110146
10.106739 31.769701 1.424692
10.422089 31.769701 1.702683
10.737438 31.769701 1.980646
11.052790 31.769701 2.217177
11.368139 31.769701 2.482877
11.683489 31.769701 2.747963
11.998838 31.769701 3.042662
12.314190 31.769701 3.307214
12.629539 31.769701 3.512876
12.944889 31.769701 3.551821
13.260239 31.769701 3.575344
13.575588 31.769701 3.495252
13.890940 31.769701 3.436817
14.206289 31.769701 3.371594
14.521639 31.769701 3.352859
14.836988 31.769701 3.324728
15.152340 31.769701 3.367923
15.467690 31.769701 3.677883
15.783039 31.769701 0.000000
16.098389 31.769701 0.000000
16.413738 31.769701 0.000000
16.729090 31.769701 0.000000
17.044439 31.769701 0.000000
17.359789 31.769701 0.000000
17.675138 31.769701 0.000000
17.990490 31.769701 0.000000
18.305840 31.769701 0.000000
18.621189 31.769701 0.000000
18.936539 31.769701 0.000000
19.251888 31.769701 0.000000
-7.237510 31.454351 0.000000
-6.922160 31.454351 0.070306
-6.606810 31.454351 0.065533
-6.291460 31.454351 0.064023
-5.976110 31.454351 0.063520
-5.660760 31.454351 0.063555
-5.345410 31.454351 0.063934
-5.030060 31.454351 0.064626
-4.714710 31.454351 0.065555
-4.399360 31.454351 0.067022
-4.084010 31.454351 0.068712
-3.768660 31.454351 0.069783
-3.453310 31.454351 0.070469
-3.137960 31.454351 0.070923
-2.822610 31.454351 0.070854
-2.507260 31.454351 0.070510
-2.191910 31.454351 0.069239
-1.876560 31.454351 0.067517
-1.561210 31.454351 0.065758
-1.245860 31.454351 0.064609
-0.930510 31.454351 0.063905
-0.615160 31.454351 0.063361
-0.299810 31.454351 0.062878
0.015540 31.454351 0.062263
0.330890 31.454351 0.062450
0.646240 31.454351 0.063404
0.961589 31.454351 0.064676
1.276940 31.454351 0.065791
1.592289 31.454351 0.067136
1.907640 31.454351 0.068351
2.222990 31.454351 0.069299
2.538340 31.454351 0.069965
2.853690 31.454351 0.069995
3.169039 31.454351 0.069498
3.484390 31.454351 0.068543
3.799739 31.454351 0.067966
4.115090 31.454351 0.067887
4.430439 31.454351 0.068182
4.745790 31.454351 0.069086
5.061140 31.454351 0.070226
5.376490 31.454351 0.072326
5.691840 31.454351 0.075527
6.007189 31.454351 0.079855
6.322540 31.454351 0.085230
6.637889 31.454351 0.091678
6.953240 31.454351 0.099688
7.268589 31.454351 0.109719
7.583940 31.454351 0.123381
7.899290 31.454351 0.143788
8.214640 31.454351 0.185702
8.529989 31.454351 0.255720
8.845339 31.454351 0.382299
9.160688 31.454351 0.569019
9.476040 31.454351 0.802016
9.791389 31.454351 1.107231
10.106739 31.454351 1.415359
10.422089 31.454351 1.705970
10.737438 31.454351 1.973068
11.052790 31.454351 2.214631
11.368139 31.454351 2.488283
11.683489 31.454351 2.797687
11.998838 31.454351 3.059606
12.314190 31.454351 3.330194
12.629539 31.454351 3.475700
12.944889 31.454351 3.584271
13.260239 31.454351 3.598781
13.575588 31.454351 3.523839
13.890940 31.454351 3.451095
14.206289 31.454351 3.418901
14.521639 31.454351 3.326166
14.836988 31.454351 3.322322
15.152340 31.454351 3.257095
15.467690 31.454351 3.594701
15.783039 31.454351 0.000000
16.098389 31.454351 0.000000
16.413738 31.454351 0.000000
16.729090 31.454351 0.000000
17.044439 31.454351 0.000000
17.359789 31.454351 0.000000
17.675138 31.454351 0.000000
17.990490 31.454351 0.000000
18.305840 31.454351 0.000000
18.621189 31.454351 0.000000
18.936539 31.454351 0.000000
19.251888 31.454351 0.000000
-7.237510 31.139000 0.000000
-6.922160 31.139000 0.070398
-6.606810 31.139000 0.065537
-6.291460 31.139000 0.064055
-5.976110 31.139000 0.063804
-5.660760 31.139000 0.063951
-5.345410 31.139000 0.064407
-5.030060 31.139000 0.064947
-4.714710 31.139000 0.065911
-4.399360 31.139000 0.067386
-4.084010 31.139000 0.069066
-3.768660 31.139000 0.069993
-3.453310 31.139000 0.070744
-3.137960 31.139000 0.071160
-2.822610 31.139000 0.070832
-2.507260 31.139000 0.070290
-2.191910 31.139000 0.068876
-1.876560 31.139000 0.067031
-1.561210 31.139000 0.065405
-1.245860 31.139000 0.064126
-0.930510 31.139000 0.063561
-0.615160 31.139000 0.063184
-0.299810 31.139000 0.063009
0.015540 31.139000 0.062693
0.330890 31.139000 0.062827
0.646240 31.139000 0.063626
0.961589 31.139000 0.065016
1.276940 31.139000 0.066248
1.592289 31.139000 0.067508
1.907640 31.139000 0.068558
2.222990 31.139000 0.069295
2.538340 31.139000 0.069660
2.853690 31.139000 0.069415
3.169039 31.139000 0.068909
3.484390 31.139000 0.068082
3.799739 31.139000 0.067610
4.115090 31.139000 0.067655
4.430439 31.139000 0.068106
4.745790 31.139000 0.068909
5.061140 31.139000 0.070280
5.376490 31.139000 0.072594
5.691840 31.139000 0.075871
6.007189 31.139000 0.080286
6.322540 31.139000 0.085644
6.637889 31.139000 0.092314
6.953240 31.139000 0.100040
7.268589 31.139000 0.110244
7.583940 31.139000 0.122947
7.899290 31.139000 0.144361
8.214640 31.139000 0.186345
8.529989 31.139000 0.260171
8.845339 31.139000 0.380210
9.160688 31.139000 0.572676
9.476040 31.139000 0.809284
9.791389 31.139000 1.105173
10.106739 31.139000 1.415864
10.422089 31.139000 1.716387
10.737438 31.139000 1.980067
11.052790 31.139000 2.229645
11.368139 31.139000 2.502666
11.683489 31.139000 2.781458
11.998838 31.139000 3.087968
12.314190 31.139000 3.327935
12.629539 31.139000 3.497473
12.944889 31.139000 3.597921
13.260239 31.139000 3.635978
13.575588 31.139000 3.578356
13.890940 31.139000 3.496963
14.206289 31.139000 3.432738
14.521639 31.139000 3.380399
14.836988 31.139000 3.271466
15.152340 31.139000 3.332934
15.467690 31.139000 3.621047
15.783039 31.139000 0.000000
16.098389 31.139000 0.000000
16.413738 31.139000 0.000000
16.729090 31.139000 0.000000
17.044439 31.139000 0.000000
17.359789 31.139000 0.000000
17.675138 31.139000 0.000000
17.990490 31.139000 0.000000
18.305840 31.139000 0.000000
18.621189 31.139000 0.000000
18.936539 31.139000 0.000000
19.251888 31.139000 0.000000
-7.237510 30.823650 0.000000
-6.922160 30.823650 0.070266
-6.606810 30.823650 0.065382
-6.291460 30.823650 0.063866
-5.976110 30.823650 0.063812
-5.660760 30.823650 0.064096
-5.345410 30.823650 0.064644
-5.030060 30.823650 0.065313
-4.714710 30.823650 0.066328
-4.399360 30.823650 0.067764
-4.084010 30.823650 0.069051
-3.768660 30.823650 0.070028
-3.453310 30.823650 0.070894
-3.137960 30.823650 0.071171
-2.822610 30.823650 0.070692
-2.507260 30.823650 0.069772
-2.191910 30.823650 0.068343
-1.876560 30.823650 0.066648
-1.561210 30.823650 0.065100
-1.245860 30.823650 0.063853
-0.930510 30.823650 0.063195
-0.615160 30.823650 0.062990
-0.299810 30.823650 0.063061
0.015540 30.823650 0.063104
0.330890 30.823650 0.063352
0.646240 30.823650 0.064206
0.961589 30.823650 0.065530
1.276940 30.823650 0.066794
1.592289 30.823650 0.067901
1.907640 30.823650 0.068653
2.222990 30.823650 0.069208
2.538340 30.823650 0.069413
2.853690 30.823650 0.068895
3.169039 30.823650 0.068323
3.484390 30.823650 0.067785
3.799739 30.823650 0.067434
4.115090 30.823650 0.067600
4.430439 30.823650 0.067978
4.745790 30.823650 0.068868
5.061140 30.823650 0.070446
5.376490 30.823650 0.072841
5.691840 30.823650 0.076259
6.007189 30.823650 0.080657
6.322540 30.823650 0.086285
6.637889 30.823650 0.092738
6.953240 30.823650 0.100490
7.268589 30.823650 0.109290
7.583940 30.823650 0.121959
7.899290 30.823650 0.144343
8.214640 30.823650 0.182436
8.529989 30.823650 0.257720
8.845339 30.823650 0.387913
9.160688 30.823650 0.577616
9.476040 30.823650 0.820586
9.791389 30.823650 1.105234
10.106739 30.823650 1.421194
10.422089 30.823650 1.714060
10.737438 30.823650 1.986068
11.052790 30.823650 2.217108
11.368139 30.823650 2.483076
11.683489 30.823650 2.798871
11.998838 30.823650 3.096909
12.314190 30.823650 3.310093
12.629539 30.823650 3.525124
12.944889 30.823650 3.604950
13.260239 30.823650 3.665183
13.575588 30.823650 3.592138
13.890940 30.823650 3.494042
14.206289 30.823650 3.399727
14.521639 30.823650 3.310828
14.836988 30.823650 3.251157
15.152340 30.823650 3.276961
15.467690 30.823650 3.645017
15.783039 30.823650 0.000000
16.098389 30.823650 0.000000
16.413738 30.823650 0.000000
16.729090 30.823650 0.000000
17.044439 30.823650 0.000000
17.359789 30.823650 0.000000
17.675138 30.823650 0.000000
17.990490 30.823650 0.000000
18.305840 30.823650 0.000000
18.621189 30.823650 0.000000
18.936539 30.823650 0.000000
19.251888 30.823650 0.000000
-7.237510 30.508301 0.000000
-6.922160 30.508301 0.070025
-6.606810 30.508301 0.065090
-6.291460 30.508301 0.063619
-5.976110 30.508301 0.063687
-5.660760 30.508301 0.064092
-5.345410 30.508301 0.064808
-5.030060 30.508301 0.065735
-4.714710 30.508301 0.066960
-4.399360 30.508301 0.068166
-4.084010 30.508301 0.069066
-3.768660 30.508301 0.070079
-3.453310 30.508301 0.070895
-3.137960 30.508301 0.071076
-2.822610 30.508301 0.070357
-2.507260 30.508301 0.069181
-2.191910 30.508301 0.067836
-1.876560 30.508301 0.066457
-1.561210 30.508301 0.065002
-1.245860 30.508301 0.063711
-0.930510 30.508301 0.062988
-0.615160 30.508301 0.062831
-0.299810 30.508301 0.063234
0.015540 30.508301 0.063714
0.330890 30.508301 0.064088
0.646240 30.508301 0.065017
0.961589 30.508301 0.066355
1.276940 30.508301 0.067499
1.592289 30.508301 0.068238
1.907640 30.508301 0.068607
2.222990 30.508301 0.069103
2.538340 30.508301 0.069064
2.853690 30.508301 0.068494
3.169039 30.508301 0.067937
3.484390 30.508301 0.067548
3.799739 30.508301 0.067319
4.115090 30.508301 0.067523
4.430439 30.508301 0.068015
4.745790 30.508301 0.068882
5.061140 30.508301 0.070592
5.376490 30.508301 0.073197
5.691840 30.508301 0.076648
6.007189 30.508301 0.081045
6.322540 30.508301 0.086531
6.637889 30.508301 0.092579
6.953240 30.508301 0.100337
7.268589 30.508301 0.108268
7.583940 30.508301 0.121112
7.899290 30.508301 0.141242
8.214640 30.508301 0.183095
8.529989 30.508301 0.254158
8.845339 30.508301 0.380462
9.160688 30.508301 0.578368
9.476040 30.508301 0.822562
9.791389 30.508301 1.102228
10.106739 30.508301 1.410344
10.422089 30.508301 1.719357
10.737438 30.508301 1.997102
11.052790 30.508301 2.239640
11.368139 30.508301 2.491031
11.683489 30.508301 2.791459
11.998838 30.508301 3.026195
12.314190 30.508301 3.274523
12.629539 30.508301 3.518099
12.944889 30.508301 3.639873
13.260239 30.508301 3.697363
13.575588 30.508301 3.646092
13.890940 30.508301 3.594476
14.206289 30.508301 3.423970
14.521639 30.508301 3.299233
14.836988 30.508301 3.244898
15.152340 30.508301 3.184947
15.467690 30.508301 3.480528
15.783039 30.508301 0.000000
16.098389 30.508301 0.000000
16.413738 30.508301 0.000000
16.729090 30.508301 0.000000
17.044439 30.508301 0.000000
17.359789 30.508301 0.000000
17.675138 30.508301 0.000000
17.990490 30.508301 0.000000
18.305840 30.508301 0.000000
18.621189 30.508301 0.000000
18.936539 30.508301 0.000000
19.251888 30.508301 0.000000
-7.237510 30.192951 0.000000
-6.922160 30.192951 0.069997
-6.606810 30.192951 0.065059
-6.291460 30.192951 0.063467
-5.976110 30.192951 0.063645
-5.660760 30.192951 0.064119
-5.345410 30.192951 0.065085
-5.030060 30.192951 0.066261
-4.714710 30.192951 0.067798
-4.399360 30.192951 0.068853
-4.084010 30.192951 0.069386
-3.768660 30.192951 0.070130
-3.453310 30.192951 0.071004
-3.137960 30.192951 0.070902
-2.822610 30.192951 0.069923
-2.507260 30.192951 0.068630
-2.191910 30.192951 0.067403
-1.876560 30.192951 0.066349
-1.561210 30.192951 0.064994
-1.245860 30.192951 0.063751
-0.930510 30.192951 0.062939
-0.615160 30.192951 0.062883
-0.299810 30.192951 0.063533
0.015540 30.192951 0.064379
0.330890 30.192951 0.064953
0.646240 30.192951 0.065847
0.961589 30.192951 0.067112
1.276940 30.192951 0.068035
1.592289 30.192951 0.068332
1.907640 30.192951 0.068495
2.222990 30.192951 0.068769
2.538340 30.192951 0.068702
2.853690 30.192951 0.068139
3.169039 30.192951 0.067678
3.484390 30.192951 0.067236
3.799739 30.192951 0.067184
4.115090 30.192951 0.067468
4.430439 30.192951 0.068106
4.745790 30.192951 0.068905
5.061140 30.192951 0.070892
5.376490 30.192951 0.073802
5.691840 30.192951 0.077084
6.007189 30.192951 0.081497
6.322540 30.192951 0.086790
6.637889 30.192951 0.092915
6.953240 30.192951 0.099658
7.268589 30.192951 0.107511
7.583940 30.192951 0.119954
7.899290 30.192951 0.141270
8.214640 30.192951 0.180876
8.529989 30.192951 0.256569
8.845339 30.192951 0.386446
9.160688 30.192951 0.580053
9.476040 30.192951 0.830009
9.791389 30.192951 1.112424
10.106739 30.192951 1.428802
10.422089 30.192951 1.722392
10.737438 30.192951 2.009027
11.052790 30.192951 2.242478
11.368139 30.192951 2.498675
11.683489 30.192951 2.803191
11.998838 30.192951 3.028314
12.314190 30.192951 3.303212
12.629539 30.192951 3.452563
12.944889 30.192951 3.668776
13.260239 30.192951 3.702718
13.575588 30.192951 3.677969
13.890940 30.192951 3.572641
14.206289 30.192951 3.395503
14.521639 30.192951 3.375268
14.836988 30.192951 3.246542
15.152340 30.192951 3.273248
15.467690 30.192951 3.474198
15.783039 30.192951 0.000000
16.098389 30.192951 0.000000
16.413738 30.192951 0.000000
16.729090 30.192951 0.000000
17.044439 30.192951 0.000000
17.359789 30.192951 0.000000
17.675138 30.192951 0.000000
17.990490 30.192951 0.000000
18.305840 30.192951 0.000000
18.621189 30.192951 0.000000
18.936539 30.192951 0.000000
19.251888 30.192951 0.000000
-7.237510 29.877602 0.000000
-6.922160 29.877602 0.070102
-6.606810 29.877602 0.065133
-6.291460 29.877602 0.063660
-5.976110 29.877602 0.063980
-5.660760 29.877602 0.064514
-5.345410 29.877602 0.065651
-5.030060 29.877602 0.066967
-4.714710 29.877602 0.068436
-4.399360 29.877602 0.069495
-4.084010 29.877602 0.069839
-3.768660 29.877602 0.070342
-3.453310 29.877602 0.070966
-3.137960 29.877602 0.070640
-2.822610 29.877602 0.069414
-2.507260 29.877602 0.068004
-2.191910 29.877602 0.067040
-1.876560 29.877602 0.066252
-1.561210 29.877602 0.065255
-1.245860 29.877602 0.063962
-0.930510 29.877602 0.063214
-0.615160 29.877602 0.063256
-0.299810 29.877602 0.064003
0.015540 29.877602 0.065018
0.330890 29.877602 0.065764
0.646240 29.877602 0.066496
0.961589 29.877602 0.067530
1.276940 29.877602 0.068238
1.592289 29.877602 0.068346
1.907640 29.877602 0.068248
2.222990 29.877602 0.068330
2.538340 29.877602 0.068275
2.853690 29.877602 0.067882
3.169039 29.877602 0.067494
3.484390 29.877602 0.067137
3.799739 29.877602 0.067094
4.115090 29.877602 0.067569
4.430439 29.877602 0.068354
4.745790 29.877602 0.069239
5.061140 29.877602 0.071492
5.376490 29.877602 0.074539
5.691840 29.877602 0.077810
6.007189 29.877602 0.081919
6.322540 29.877602 0.087074
6.637889 29.877602 0.092552
6.953240 29.877602 0.098866
7.268589 29.877602 0.106781
7.583940 29.877602 0.119977
7.899290 29.877602 0.142033
8.214640 29.877602 0.183008
8.529989 29.877602 0.261408
8.845339 29.877602 0.390841
9.160688 29.877602 0.590168
9.476040 29.877602 0.841622
9.791389 29.877602 1.121816
10.106739 29.877602 1.426425
10.422089 29.877602 1.726452
10.737438 29.877602 2.000992
11.052790 29.877602 2.225985
11.368139 29.877602 2.481350
11.683489 29.877602 2.800825
11.998838 29.877602 2.997316
12.314190 29.877602 3.293242
12.629539 29.877602 3.502216
12.944889 29.877602 3.662853
13.260239 29.877602 3.732764
13.575588 29.877602 3.636476
13.890940 29.877602 3.529748
14.206289 29.877602 3.491723
14.521639 29.877602 3.341252
14.836988 29.877602 3.318528
15.152340 29.877602 3.280949
15.467690 29.877602 3.526721
15.783039 29.877602 0.000000
16.098389 29.877602 0.000000
16.413738 29.877602 0.000000
16.729090 29.877602 0.000000
17.044439 29.877602 0.000000
17.359789 29.877602 0.000000
17.675138 29.877602 0.000000
17.990490 29.877602 0.000000
18.305840 29.877602 0.000000
18.621189 29.877602 0.000000
18.936539 29.877602 0.000000
19.251888 29.877602 0.000000
-7.237510 29.562250 0.000000
-6.922160 29.562250 0.070322
-6.606810 29.562250 0.065638
-6.291460 29.562250 0.064167
-5.976110 29.562250 0.064511
-5.660760 29.562250 0.065184
-5.345410 29.562250 0.066423
-5.030060 29.562250 0.067761
-4.714710 29.562250 0.069182
-4.399360 29.562250 0.070063
-4.084010 29.562250 0.070522
-3.768660 29.562250 0.070670
-3.453310 29.562250 0.070836
-3.137960 29.562250 0.070235
-2.822610 29.562250 0.068988
-2.507260 29.562250 0.067587
-2.191910 29.562250 0.066652
-1.876560 29.562250 0.066132
-1.561210 29.562250 0.065449
-1.245860 29.562250 0.064327
-0.930510 29.562250 0.063693
-0.615160 29.562250 0.063730
-0.299810 29.562250 0.064483
0.015540 29.562250 0.065546
0.330890 29.562250 0.066478
0.646240 29.562250 0.067158
0.961589 29.562250 0.067792
1.276940 29.562250 0.068232
1.592289 29.562250 0.068210
1.907640 29.562250 0.068026
2.222990 29.562250 0.067990
2.538340 29.562250 0.067889
2.853690 29.562250 0.067673
3.169039 29.562250 0.067321
3.484390 29.562250 0.066904
3.799739 29.562250 0.067069
4.115090 29.562250 0.067643
4.430439 29.562250 0.068533
4.745790 29.562250 0.069786
5.061140 29.562250 0.072211
5.376490 29.562250 0.075370
5.691840 29.562250 0.078566
6.007189 29.562250 0.082139
6.322540 29.562250 0.086907
6.637889 29.562250 0.092220
6.953240 29.562250 0.098778
7.268589 29.562250 0.107168
7.583940 29.562250 0.121021
7.899290 29.562250 0.145302
8.214640 29.562250 0.187738
8.529989 29.562250 0.269763
8.845339 29.562250 0.399596
9.160688 29.562250 0.593236
9.476040 29.562250 0.853075
9.791389 29.562250 1.124458
10.106739 29.562250 1.408353
10.422089 29.562250 1.722704
10.737438 29.562250 1.987934
11.052790 29.562250 2.233526
11.368139 29.562250 2.513563
11.683489 29.562250 2.785756
11.998838 29.562250 3.019705
12.314190 29.562250 3.273447
12.629539 29.562250 3.511957
12.944889 29.562250 3.614758
13.260239 29.562250 3.701363
13.575588 29.562250 3.646407
13.890940 29.562250 3.623343
14.206289 29.562250 3.510892
14.521639 29.562250 3.420933
14.836988 29.562250 3.306060
15.152340 29.562250 3.224753
15.467690 29.562250 3.447982
15.783039 29.562250 0.000000
16.098389 29.562250 0.000000
16.413738 29.562250 0.000000
16.729090 29.562250 0.000000
17.044439 29.562250 0.000000
17.359789 29.562250 0.000000
17.675138 29.562250 0.000000
17.990490 29.562250 0.000000
18.305840 29.562250 18.886744
18.621189 29.562250 15.335764
18.936539 29.562250 15.400425
19.251888 29.562250 0.000000
-7.237510 29.246901 0.000000
-6.922160 29.246901 0.070414
-6.606810 29.246901 0.066180
-6.291460 29.246901 0.064904
-5.976110 29.246901 0.065312
-5.660760 29.246901 0.066226
-5.345410 29.246901 0.067285
-5.030060 29.246901 0.068587
-4.714710 29.246901 0.069877
-4.399360 29.246901 0.070941
-4.084010 29.246901 0.071187
-3.768660 29.246901 0.071061
-3.453310 29.246901 0.070513
-3.137960 29.246901 0.069772
-2.822610 29.246901 0.068548
-2.507260 29.246901 0.067239
-2.191910 29.246901 0.066376
-1.876560 29.246901 0.066058
-1.561210 29.246901 0.065651
-1.245860 29.246901 0.064820
-0.930510 29.246901 0.064310
-0.615160 29.246901 0.064357
-0.299810 29.246901 0.064999
0.015540 29.246901 0.065956
0.330890 29.246901 0.066836
0.646240 29.246901 0.067322
0.961589 29.246901 0.067685
1.276940 29.246901 0.067992
1.592289 29.246901 0.068002
1.907640 29.246901 0.067828
2.222990 29.246901 0.067803
2.538340 29.246901 0.067746
2.853690 29.246901 0.067615
3.169039 29.246901 0.067293
3.484390 29.246901 0.066880
3.799739 29.246901 0.067057
4.115090 29.246901 0.067727
4.430439 29.246901 0.068839
4.745790 29.246901 0.070387
5.061140 29.246901 0.072851
5.376490 29.246901 0.075931
5.691840 29.246901 0.078823
6.007189 29.246901 0.081953
6.322540 29.246901 0.086624
6.637889 29.246901 0.091990
6.953240 29.246901 0.098742
7.268589 29.246901 0.107184
7.583940 29.246901 0.120787
7.899290 29.246901 0.144713
8.214640 29.246901 0.190489
8.529989 29.246901 0.277973
8.845339 29.246901 0.407231
9.160688 29.246901 0.609688
9.476040 29.246901 0.839494
9.791389 29.246901 1.105265
10.106739 29.246901 1.406290
10.422089 29.246901 1.722343
10.737438 29.246901 1.995253
11.052790 29.246901 2.245375
11.368139 29.246901 2.517852
11.683489 29.246901 2.802018
11.998838 29.246901 3.054891
12.314190 29.246901 3.323457
12.629539 29.246901 3.510451
12.944889 29.246901 3.671925
13.260239 29.246901 3.689739
13.575588 29.246901 3.680746
13.890940 29.246901 3.609714
14.206289 29.246901 3.518257
14.521639 29.246901 3.437106
14.836988 29.246901 3.306309
15.152340 29.246901 3.228543
15.467690 29.246901 3.422119
15.783039 29.246901 0.000000
16.098389 29.246901 0.000000
16.413738 29.246901 0.000000
16.729090 29.246901 0.000000
17.044439 29.246901 0.000000
17.359789 29.246901 0.000000
17.675138 29.246901 0.000000
17.990490 29.246901 0.000000
18.305840 29.246901 29.101326
18.621189 29.246901 29.389490
18.936539 29.246901 29.347237
19.251888 29.246901 0.000000
-7.237510 28.931551 0.000000
-6.922160 28.931551 0.070701
-6.606810 28.931551 0.066633
-6.291460 28.931551 0.065691
-5.976110 28.931551 0.066141
-5.660760 28.931551 0.067222
-5.345410 28.931551 0.068289
-5.030060 28.931551 0.069473
-4.714710 28.931551 0.070570
-4.399360 28.931551 0.071394
-4.084010 28.931551 0.071610
-3.768660 28.931551 0.070982
-3.453310 28.931551 0.070144
-3.137960 28.931551 0.069215
-2.822610 28.931551 0.068077
-2.507260 28.931551 0.066916
-2.191910 28.931551 0.066107
-1.876560 28.931551 0.065900
-1.561210 28.931551 0.065735
-1.245860 28.931551 0.065403
-0.930510 28.931551 0.065082
-0.615160 28.931551 0.065145
-0.299810 28.931551 0.065685
0.015540 28.931551 0.066443
0.330890 28.931551 0.067207
0.646240 28.931551 0.067481
0.961589 28.931551 0.067524
1.276940 28.931551 0.067682
1.592289 28.931551 0.067866
1.907640 28.931551 0.067781
2.222990 28.931551 0.067717
2.538340 28.931551 0.067514
2.853690 28.931551 0.067478
3.169039 28.931551 0.067313
3.484390 28.931551 0.066955
3.799739 28.931551 0.067334
4.115090 28.931551 0.067963
4.430439 28.931551 0.069196
4.745790 28.931551 0.071022
5.061140 28.931551 0.073315
5.376490 28.931551 0.076159
5.691840 28.931551 0.078659
6.007189 28.931551 0.081532
6.322540 28.931551 0.085897
6.637889 28.931551 0.091352
6.953240 28.931551 0.098839
7.268589 28.931551 0.106975
7.583940 28.931551 0.120980
7.899290 28.931551 0.146587
8.214640 28.931551 0.191016
8.529989 28.931551 0.276097
8.845339 28.931551 0.406560
9.160688 28.931551 0.610949
9.476040 28.931551 0.838139
9.791389 28.931551 1.113757
10.106739 28.931551 1.415292
10.422089 28.931551 1.715072
10.737438 28.931551 1.998060
11.052790 28.931551 2.254084
11.368139 28.931551 2.519405
11.683489 28.931551 2.774100
11.998838 28.931551 3.070412
12.314190 28.931551 3.372355
12.629539 28.931551 3.571145
12.944889 28.931551 3.696458
13.260239 28.931551 3.675251
13.575588 28.931551 3.655889
13.890940 28.931551 3.626166
14.206289 28.931551 3.523171
14.521639 28.931551 3.427019
14.836988 28.931551 3.293556
15.152340 28.931551 3.290406
15.467690 28.931551 3.416039
15.783039 28.931551 0.000000
16.098389 28.931551 0.000000
16.413738 28.931551 0.000000
16.729090 28.931551 0.000000
17.044439 28.931551 0.000000
17.359789 28.931551 0.000000
17.675138 28.931551 0.000000
17.990490 28.931551 0.000000
18.305840 28.931551 33.707859
18.621189 28.931551 36.532497
18.936539 28.931551 27.091730
19.251888 28.931551 0.000000
-7.237510 28.616201 0.000000
-6.922160 28.616201 0.071283
-6.606810 28.616201 0.067289
-6.291460 28.616201 0.066489
-5.976110 28.616201 0.067060
-5.660760 28.616201 0.068273
-5.345410 28.616201 0.069284
-5.030060 28.616201 0.070298
-4.714710 28.616201 0.071124
-4.399360 28.616201 0.071611
-4.084010 28.616201 0.071593
-3.768660 28.616201 0.070803
-3.453310 28.616201 0.069631
-3.137960 28.616201 0.068541
-2.822610 28.616201 0.067633
-2.507260 28.616201 0.066567
-2.191910 28.616201 0.065692
-1.876560 28.616201 0.065591
-1.561210 28.616201 0.065700
-1.245860 28.616201 0.065843
-0.930510 28.616201 0.065785
-0.615160 28.616201 0.065894
-0.299810 28.616201 0.066340
0.015540 28.616201 0.066832
0.330890 28.616201 0.067470
0.646240 28.616201 0.067553
0.961589 28.616201 0.067393
1.276940 28.616201 0.067475
1.592289 28.616201 0.067701
1.907640 28.616201 0.067740
2.222990 28.616201 0.067372
2.538340 28.616201 0.067209
2.853690 28.616201 0.067255
3.169039 28.616201 0.067353
3.484390 28.616201 0.067301
3.799739 28.616201 0.067756
4.115090 28.616201 0.068458
4.430439 28.616201 0.069759
4.745790 28.616201 0.071552
5.061140 28.616201 0.073522
5.376490 28.616201 0.075907
5.691840 28.616201 0.078318
6.007189 28.616201 0.080950
6.322540 28.616201 0.085368
6.637889 28.616201 0.091100
6.953240 28.616201 0.098711
7.268589 28.616201 0.107709
7.583940 28.616201 0.122821
7.899290 28.616201 0.147203
8.214640 28.616201 0.194055
8.529989 28.616201 0.273709
8.845339 28.616201 0.406087
9.160688 28.616201 0.595804
9.476040 28.616201 0.838540
9.791389 28.616201 1.111977
10.106739 28.616201 1.445022
10.422089 28.616201 1.734597
10.737438 28.616201 2.005312
11.052790 28.616201 2.261743
11.368139 28.616201 2.523811
11.683489 28.616201 2.768958
11.998838 28.616201 3.022103
12.314190 28.616201 3.346813
12.629539 28.616201 3.573605
12.944889 28.616201 3.663818
13.260239 28.616201 3.697951
13.575588 28.616201 3.632733
13.890940 28.616201 3.605936
14.206289 28.616201 3.568397
14.521639 28.616201 3.398672
14.836988 28.616201 3.265350
15.152340 28.616201 3.172308
15.467690 28.616201 3.426714
15.783039 28.616201 0.000000
16.098389 28.616201 0.000000
16.413738 28.616201 0.000000
16.729090 28.616201 0.000000
17.044439 28.616201 0.000000
17.359789 28.616201 0.000000
17.675138 28.616201 0.000000
17.990490 28.616201 0.000000
18.305840 28.616201 31.095947
18.621189 28.616201 31.273859
18.936539 28.616201 39.592587
19.251888 28.616201 0.000000
-7.237510 28.300850 0.000000
-6.922160 28.300850 0.071600
-6.606810 28.300850 0.067856
-6.291460 28.300850 0.067235
-5.976110 28.300850 0.067938
-5.660760 28.300850 0.068947
-5.345410 28.300850 0.069865
-5.030060 28.300850 0.070840
-4.714710 28.300850 0.071232
-4.399360 28.300850 0.071430
-4.084010 28.300850 0.071326
-3.768660 28.300850 0.070355
-3.453310 28.300850 0.069119
-3.137960 28.300850 0.067870
-2.822610 28.300850 0.067196
-2.507260 28.300850 0.066284
-2.191910 28.300850 0.065410
-1.876560 28.300850 0.065296
-1.561210 28.300850 0.065657
-1.245860 28.300850 0.066080
-0.930510 28.300850 0.066348
-0.615160 28.300850 0.066647
-0.299810 28.300850 0.066881
0.015540 28.300850 0.067208
0.330890 28.300850 0.067560
0.646240 28.300850 0.067600
0.961589 28.300850 0.067184
1.276940 28.300850 0.067232
1.592289 28.300850 0.067447
1.907640 28.300850 0.067435
2.222990 28.300850 0.066990
2.538340 28.300850 0.066801
2.853690 28.300850 0.067151
3.169039 28.300850 0.067391
3.484390 28.300850 0.067533
3.799739 28.300850 0.068126
4.115090 28.300850 0.068925
4.430439 28.300850 0.070173
4.745790 28.300850 0.071896
5.061140 28.300850 0.073494
5.376490 28.300850 0.075445
5.691840 28.300850 0.077660
6.007189 28.300850 0.080400
6.322540 28.300850 0.084996
6.637889 28.300850 0.091284
6.953240 28.300850 0.098671
7.268589 28.300850 0.107598
7.583940 28.300850 0.123235
7.899290 28.300850 0.149741
8.214640 28.300850 0.195735
8.529989 28.300850 0.272782
8.845339 28.300850 0.403350
9.160688 28.300850 0.593438
9.476040 28.300850 0.838309
9.791389 28.300850 1.112808
10.106739 28.300850 1.428428
10.422089 28.300850 1.733009
10.737438 28.300850 2.034885
11.052790 28.300850 2.295106
11.368139 28.300850 2.536776
11.683489 28.300850 2.789172
11.998838 28.300850 3.063044
12.314190 28.300850 3.337053
12.629539 28.300850 3.602768
12.944889 28.300850 3.693369
13.260239 28.300850 3.721403
13.575588 28.300850 3.715189
13.890940 28.300850 3.614895
14.206289 28.300850 3.499935
14.521639 28.300850 3.395871
14.836988 28.300850 3.251455
15.152340 28.300850 3.228103
15.467690 28.300850 3.420563
15.783039 28.300850 0.000000
16.098389 28.300850 0.000000
16.413738 28.300850 0.000000
16.729090 28.300850 0.000000
17.044439 28.300850 0.000000
17.359789 28.300850 0.000000
17.675138 28.300850 0.000000
17.990490 28.300850 0.000000
18.305840 28.300850 31.016098
18.621189 28.300850 32.188881
18.936539 28.300850 37.691170
19.251888 28.300850 0.000000
-7.237510 27.985500 0.000000
-6.922160 27.985500 0.072362
-6.606810 27.985500 0.068540
-6.291460 27.985500 0.068002
-5.976110 27.985500 0.068754
-5.660760 27.985500 0.069427
-5.345410 27.985500 0.070270
-5.030060 27.985500 0.070897
-4.714710 27.985500 0.071024
-4.399360 27.985500 0.070988
-4.084010 27.985500 0.070539
-3.768660 27.985500 0.069465
-3.453310 27.985500 0.068213
-3.137960 27.985500 0.067263
-2.822610 27.985500 0.066769
-2.507260 27.985500 0.066076
-2.191910 27.985500 0.065300
-1.876560 27.985500 0.065220
-1.561210 27.985500 0.065779
-1.245860 27.985500 0.066415
-0.930510 27.985500 0.067016
-0.615160 27.985500 0.067296
-0.299810 27.985500 0.067317
0.015540 27.985500 0.067252
0.330890 27.985500 0.067392
0.646240 27.985500 0.067297
0.961589 27.985500 0.066820
1.276940 27.985500 0.066844
1.592289 27.985500 0.067105
1.907640 27.985500 0.067017
2.222990 27.985500 0.066724
2.538340 27.985500 0.066669
2.853690 27.985500 0.067218
3.169039 27.985500 0.067486
3.484390 27.985500 0.067865
3.799739 27.985500 0.068502
4.115090 27.985500 0.069218
4.430439 27.985500 0.070415
4.745790 27.985500 0.071822
5.061140 27.985500 0.073243
5.376490 27.985500 0.074909
5.691840 27.985500 0.076952
6.007189 27.985500 0.080041
6.322540 27.985500 0.085245
6.637889 27.985500 0.091096
6.953240 27.985500 0.099035
7.268589 27.985500 0.109296
7.583940 27.985500 0.123659
7.899290 27.985500 0.149394
8.214640 27.985500 0.195147
8.529989 27.985500 0.270470
8.845339 27.985500 0.405905
9.160688 27.985500 0.600294
9.476040 27.985500 0.841902
9.791389 27.985500 1.131593
10.106739 27.985500 1.418811
10.422089 27.985500 1.719243
10.737438 27.985500 2.020931
11.052790 27.985500 2.304744
11.368139 27.985500 2.542595
11.683489 27.985500 2.811042
11.998838 27.985500 3.093043
12.314190 27.985500 3.414306
12.629539 27.985500 3.616662
12.944889 27.985500 3.788523
13.260239 27.985500 3.802369
13.575588 27.985500 3.752597
13.890940 27.985500 3.705953
14.206289 27.985500 3.535710
14.521639 27.985500 3.393802
14.836988 27.985500 3.280998
15.152340 27.985500 3.259499
15.467690 27.985500 3.497792
15.783039 27.985500 0.000000
16.098389 27.985500 0.000000
16.413738 27.985500 0.000000
16.729090 27.985500 0.000000
17.044439 27.985500 0.000000
17.359789 27.985500 0.000000
17.675138 27.985500 0.000000
17.990490 27.985500 0.000000
18.305840 27.985500 32.608341
18.621189 27.985500 33.438339
18.936539 27.985500 36.784874
19.251888 27.985500 0.000000
-7.237510 27.670151 0.000000
-6.922160 27.670151 0.073077
-6.606810 27.670151 0.069055
-6.291460 27.670151 0.068556
-5.976110 27.670151 0.069446
-5.660760 27.670151 0.069854
-5.345410 27.670151 0.070464
-5.030060 27.670151 0.070672
-4.714710 27.670151 0.070591
-4.399360 27.670151 0.070144
-4.084010 27.670151 0.069510
-3.768660 27.670151 0.068506
-3.453310 27.670151 0.067506
-3.137960 27.670151 0.066948
-2.822610 27.670151 0.066615
-2.507260 27.670151 0.066082
-2.191910 27.670151 0.065431
-1.876560 27.670151 0.065322
-1.561210 27.670151 0.065980
-1.245860 27.670151 0.066811
-0.930510 27.670151 0.067558
-0.615160 27.670151 0.067788
-0.299810 27.670151 0.067588
0.015540 27.670151 0.067192
0.330890 27.670151 0.066876
0.646240 27.670151 0.066881
0.961589 27.670151 0.066472
1.276940 27.670151 0.066407
1.592289 27.670151 0.066648
1.907640 27.670151 0.066753
2.222990 27.670151 0.066682
2.538340 27.670151 0.066814
2.853690 27.670151 0.067385
3.169039 27.670151 0.067708
3.484390 27.670151 0.068188
3.799739 27.670151 0.068683
4.115090 27.670151 0.069239
4.430439 27.670151 0.070414
4.745790 27.670151 0.071553
5.061140 27.670151 0.072754
5.376490 27.670151 0.074221
5.691840 27.670151 0.076387
6.007189 27.670151 0.080122
6.322540 27.670151 0.085443
6.637889 27.670151 0.091718
6.953240 27.670151 0.099570
7.268589 27.670151 0.110872
7.583940 27.670151 0.125994
7.899290 27.670151 0.151938
8.214640 27.670151 0.194021
8.529989 27.670151 0.272717
8.845339 27.670151 0.412709
9.160688 27.670151 0.607098
9.476040 27.670151 0.854771
9.791389 27.670151 1.130031
10.106739 27.670151 1.412199
10.422089 27.670151 1.744528
10.737438 27.670151 2.041732
11.052790 27.670151 2.302873
11.368139 27.670151 2.530962
11.683489 27.670151 2.839710
11.998838 27.670151 3.130486
12.314190 27.670151 3.405152
12.629539 27.670151 3.616214
12.944889 27.670151 3.714475
13.260239 27.670151 3.756682
13.575588 27.670151 3.791935
13.890940 27.670151 3.711754
14.206289 27.670151 3.576500
14.521639 27.670151 3.356750
14.836988 27.670151 3.292003
15.152340 27.670151 3.324935
15.467690 27.670151 3.615506
15.783039 27.670151 0.000000
16.098389 27.670151 0.000000
16.413738 27.670151 0.000000
16.729090 27.670151 0.000000
17.044439 27.670151 0.000000
17.359789 27.670151 0.000000
17.675138 27.670151 0.000000
17.990490 27.670151 0.000000
18.305840 27.670151 32.299892
18.621189 27.670151 33.990582
18.936539 27.670151 35.933002
19.251888 27.670151 0.000000
-7.237510 27.354801 0.000000
-6.922160 27.354801 0.073798
-6.606810 27.354801 0.069624
-6.291460 27.354801 0.069375
-5.976110 27.354801 0.069993
-5.660760 27.354801 0.070314
-5.345410 27.354801 0.070482
-5.030060 27.354801 0.070369
-4.714710 27.354801 0.070003
-4.399360 27.354801 0.069132
-4.084010 27.354801 0.068406
-3.768660 27.354801 0.067637
-3.453310 27.354801 0.067064
-3.137960 27.354801 0.066789
-2.822610 27.354801 0.066574
-2.507260 27.354801 0.066149
-2.191910 27.354801 0.065726
-1.876560 27.354801 0.065673
-1.561210 27.354801 0.066251
-1.245860 27.354801 0.067014
-0.930510 27.354801 0.067593
-0.615160 27.354801 0.067864
-0.299810 27.354801 0.067688
0.015540 27.354801 0.067058
0.330890 27.354801 0.066698
0.646240 27.354801 0.066629
0.961589 27.354801 0.066308
1.276940 27.354801 0.066251
1.592289 27.354801 0.066441
1.907640 27.354801 0.066702
2.222990 27.354801 0.066870
2.538340 27.354801 0.067160
2.853690 27.354801 0.067570
3.169039 27.354801 0.067884
3.484390 27.354801 0.068456
3.799739 27.354801 0.068741
4.115090 27.354801 0.069127
4.430439 27.354801 0.069954
4.745790 27.354801 0.070984
5.061140 27.354801 0.072233
5.376490 27.354801 0.073721
5.691840 27.354801 0.076127
6.007189 27.354801 0.080002
6.322540 27.354801 0.085737
6.637889 27.354801 0.092236
6.953240 27.354801 0.100409
7.268589 27.354801 0.111720
7.583940 27.354801 0.128166
7.899290 27.354801 0.151692
8.214640 27.354801 0.190734
8.529989 27.354801 0.272338
8.845339 27.354801 0.412941
9.160688 27.354801 0.604787
9.476040 27.354801 0.860287
9.791389 27.354801 1.137990
10.106739 27.354801 1.425362
10.422089 27.354801 1.742653
10.737438 27.354801 2.020355
11.052790 27.354801 2.311084
11.368139 27.354801 2.568946
11.683489 27.354801 2.871915
11.998838 27.354801 3.171957
12.314190 27.354801 3.399569
12.629539 27.354801 3.572282
12.944889 27.354801 3.655949
13.260239 27.354801 3.745937
13.575588 27.354801 3.778195
13.890940 27.354801 3.745865
14.206289 27.354801 3.549182
14.521639 27.354801 3.374893
14.836988 27.354801 3.349971
15.152340 27.354801 3.363899
15.467690 27.354801 3.751067
15.783039 27.354801 0.000000
16.098389 27.354801 0.000000
16.413738 27.354801 0.000000
16.729090 27.354801 0.000000
17.044439 27.354801 0.000000
17.359789 27.354801 0.000000
17.675138 27.354801 0.000000
17.990490 27.354801 0.000000
18.305840 27.354801 35.137402
18.621189 27.354801 35.447754
18.936539 27.354801 37.062454
19.251888 27.354801 0.000000
-7.237510 27.039452 0.000000
-6.922160 27.039452 0.074421
-6.606810 27.039452 0.070398
-6.291460 27.039452 0.069914
-5.976110 27.039452 0.070515
-5.660760 27.039452 0.070577
-5.345410 27.039452 0.070489
-5.030060 27.039452 0.070011
-4.714710 27.039452 0.069332
-4.399360 27.039452 0.068276
-4.084010 27.039452 0.067594
-3.768660 27.039452 0.067008
-3.453310 27.039452 0.066817
-3.137960 27.039452 0.066673
-2.822610 27.039452 0.066490
-2.507260 27.039452 0.066314
-2.191910 27.039452 0.066131
-1.876560 27.039452 0.066246
-1.561210 27.039452 0.066553
-1.245860 27.039452 0.066960
-0.930510 27.039452 0.067177
-0.615160 27.039452 0.067500
-0.299810 27.039452 0.067358
0.015540 27.039452 0.066861
0.330890 27.039452 0.066556
0.646240 27.039452 0.066526
0.961589 27.039452 0.066387
1.276940 27.039452 0.066396
1.592289 27.039452 0.066498
1.907640 27.039452 0.066817
2.222990 27.039452 0.067144
2.538340 27.039452 0.067346
2.853690 27.039452 0.067643
3.169039 27.039452 0.068057
3.484390 27.039452 0.068579
3.799739 27.039452 0.068725
4.115090 27.039452 0.068795
4.430439 27.039452 0.069314
4.745790 27.039452 0.070198
5.061140 27.039452 0.071585
5.376490 27.039452 0.073456
5.691840 27.039452 0.076175
6.007189 27.039452 0.080395
6.322540 27.039452 0.086285
6.637889 27.039452 0.093008
6.953240 27.039452 0.101223
7.268589 27.039452 0.110548
7.583940 27.039452 0.125266
7.899290 27.039452 0.147717
8.214640 27.039452 0.193346
8.529989 27.039452 0.274707
8.845339 27.039452 0.414274
9.160688 27.039452 0.602449
9.476040 27.039452 0.847544
9.791389 27.039452 1.127712
10.106739 27.039452 1.440499
10.422089 27.039452 1.734722
10.737438 27.039452 2.017003
11.052790 27.039452 2.286064
11.368139 27.039452 2.565184
11.683489 27.039452 2.865398
11.998838 27.039452 3.127085
12.314190 27.039452 3.423437
12.629539 27.039452 3.638435
12.944889 27.039452 3.689904
13.260239 27.039452 3.763099
13.575588 27.039452 3.807535
13.890940 27.039452 3.706914
14.206289 27.039452 3.570574
14.521639 27.039452 3.439027
14.836988 27.039452 3.400388
15.152340 27.039452 3.490368
15.467690 27.039452 3.864875
15.783039 27.039452 0.000000
16.098389 27.039452 0.000000
16.413738 27.039452 0.000000
16.729090 27.039452 0.000000
17.044439 27.039452 0.000000
17.359789 27.039452 0.000000
17.675138 27.039452 0.000000
17.990490 27.039452 0.000000
18.305840 27.039452 35.978954
18.621189 27.039452 37.371056
18.936539 27.039452 38.419056
19.251888 27.039452 0.000000
-7.237510 26.724100 0.000000
-6.922160 26.724100 0.074930
-6.606810 26.724100 0.070781
-6.291460 26.724100 0.070236
-5.976110 26.724100 0.070610
-5.660760 26.724100 0.070711
-5.345410 26.724100 0.070344
-5.030060 26.724100 0.069651
-4.714710 26.724100 0.068661
-4.399360 26.724100 0.067644
-4.084010 26.724100 0.066934
-3.768660 26.724100 0.066705
-3.453310 26.724100 0.066629
-3.137960 26.724100 0.066623
-2.822610 26.724100 0.066479
-2.507260 26.724100 0.066610
-2.191910 26.724100 0.066658
-1.876560 26.724100 0.066729
-1.561210 26.724100 0.066718
-1.245860 26.724100 0.066798
-0.930510 26.724100 0.066630
-0.615160 26.724100 0.066629
-0.299810 26.724100 0.066694
0.015540 26.724100 0.066464
0.330890 26.724100 0.066371
0.646240 26.724100 0.066642
0.961589 26.724100 0.066851
1.276940 26.724100 0.066839
1.592289 26.724100 0.066879
1.907640 26.724100 0.066999
2.222990 26.724100 0.067193
2.538340 26.724100 0.067351
2.853690 26.724100 0.067471
3.169039 26.724100 0.067937
3.484390 26.724100 0.068334
3.799739 26.724100 0.068420
4.115090 26.724100 0.068303
4.430439 26.724100 0.068574
4.745790 26.724100 0.069523
5.061140 26.724100 0.071144
5.376490 26.724100 0.073529
5.691840 26.724100 0.076720
6.007189 26.724100 0.080907
6.322540 26.724100 0.086676
6.637889 26.724100 0.093559
6.953240 26.724100 0.101151
7.268589 26.724100 0.110379
7.583940 26.724100 0.125036
7.899290 26.724100 0.146989
8.214640 26.724100 0.188225
8.529989 26.724100 0.270518
8.845339 26.724100 0.420166
9.160688 26.724100 0.610532
9.476040 26.724100 0.848503
9.791389 26.724100 1.144490
10.106739 26.724100 1.456540
10.422089 26.724100 1.734601
10.737438 26.724100 2.016241
11.052790 26.724100 2.274473
11.368139 26.724100 2.550013
11.683489 26.724100 2.839832
11.998838 26.724100 3.079983
12.314190 26.724100 3.379035
12.629539 26.724100 3.679732
12.944889 26.724100 3.747753
13.260239 26.724100 3.768250
13.575588 26.724100 3.808038
13.890940 26.724100 3.647810
14.206289 26.724100 3.595456
14.521639 26.724100 3.441133
14.836988 26.724100 3.429144
15.152340 26.724100 3.575499
15.467690 26.724100 3.972913
15.783039 26.724100 0.000000
16.098389 26.724100 0.000000
16.413738 26.724100 0.000000
16.729090 26.724100 0.000000
17.044439 26.724100 0.000000
17.359789 26.724100 0.000000
17.675138 26.724100 0.000000
17.990490 26.724100 0.000000
18.305840 26.724100 37.853687
18.621189 26.724100 39.996456
18.936539 26.724100 41.085609
19.251888 26.724100 0.000000
-7.237510 26.408751 0.000000
-6.922160 26.408751 0.074959
-6.606810 26.408751 0.070859
-6.291460 26.408751 0.070018
-5.976110 26.408751 0.070374
-5.660760 26.408751 0.070379
-5.345410 26.408751 0.070040
-5.030060 26.408751 0.069266
-4.714710 26.408751 0.068187
-4.399360 26.408751 0.067206
-4.084010 26.408751 0.066728
-3.768660 26.408751 0.066538
-3.453310 26.408751 0.066552
-3.137960 26.408751 0.066678
-2.822610 26.408751 0.066729
-2.507260 26.408751 0.066990
-2.191910 26.408751 0.067153
-1.876560 26.408751 0.067201
-1.561210 26.408751 0.066751
-1.245860 26.408751 0.066485
-0.930510 26.408751 0.066061
-0.615160 26.408751 0.065811
-0.299810 26.408751 0.066065
0.015540 26.408751 0.066104
0.330890 26.408751 0.066176
0.646240 26.408751 0.066796
0.961589 26.408751 0.067397
1.276940 26.408751 0.067394
1.592289 26.408751 0.067290
1.907640 26.408751 0.067205
2.222990 26.408751 0.067168
2.538340 26.408751 0.066989
2.853690 26.408751 0.067028
3.169039 26.408751 0.067441
3.484390 26.408751 0.067877
3.799739 26.408751 0.067766
4.115090 26.408751 0.067726
4.430439 26.408751 0.068048
4.745790 26.408751 0.069045
5.061140 26.408751 0.071036
5.376490 26.408751 0.073982
5.691840 26.408751 0.077501
6.007189 26.408751 0.081713
6.322540 26.408751 0.087393
6.637889 26.408751 0.093893
6.953240 26.408751 0.101048
7.268589 26.408751 0.109794
7.583940 26.408751 0.124187
7.899290 26.408751 0.146232
8.214640 26.408751 0.185494
8.529989 26.408751 0.272773
8.845339 26.408751 0.419588
9.160688 26.408751 0.617758
9.476040 26.408751 0.871633
9.791389 26.408751 1.177725
10.106739 26.408751 1.465880
10.422089 26.408751 1.749579
10.737438 26.408751 2.020289
11.052790 26.408751 2.246650
11.368139 26.408751 2.537480
11.683489 26.408751 2.846074
11.998838 26.408751 3.151848
12.314190 26.408751 3.364839
12.629539 26.408751 3.614658
12.944889 26.408751 3.787879
13.260239 26.408751 3.810623
13.575588 26.408751 3.875122
13.890940 26.408751 3.727887
14.206289 26.408751 3.570863
14.521639 26.408751 3.498608
14.836988 26.408751 3.518857
15.152340 26.408751 3.561281
15.467690 26.408751 4.142292
15.783039 26.408751 0.000000
16.098389 26.408751 0.000000
16.413738 26.408751 0.000000
16.729090 26.408751 0.000000
17.044439 26.408751 0.000000
17.359789 26.408751 0.000000
17.675138 26.408751 0.000000
17.990490 26.408751 0.000000
18.305840 26.408751 38.646896
18.621189 26.408751 40.128197
18.936539 26.408751 38.214970
19.251888 26.408751 0.000000
-7.237510 26.093401 0.000000
-6.922160 26.093401 0.074642
-6.606810 26.093401 0.070405
-6.291460 26.093401 0.069284
-5.976110 26.093401 0.069575
-5.660760 26.093401 0.069676
-5.345410 26.093401 0.069424
-5.030060 26.093401 0.068709
-4.714710 26.093401 0.067593
-4.399360 26.093401 0.066986
-4.084010 26.093401 0.066617
-3.768660 26.093401 0.066609
-3.453310 26.093401 0.066948
-3.137960 26.093401 0.067078
-2.822610 26.093401 0.067171
-2.507260 26.093401 0.067258
-2.191910 26.093401 0.067476
-1.876560 26.093401 0.067462
-1.561210 26.093401 0.066630
-1.245860 26.093401 0.065974
-0.930510 26.093401 0.065529
-0.615160 26.093401 0.065287
-0.299810 26.093401 0.065726
0.015540 26.093401 0.066031
0.330890 26.093401 0.066358
0.646240 26.093401 0.067210
0.961589 26.093401 0.067979
1.276940 26.093401 0.067932
1.592289 26.093401 0.067549
1.907640 26.093401 0.067276
2.222990 26.093401 0.066823
2.538340 26.093401 0.066282
2.853690 26.093401 0.066317
3.169039 26.093401 0.066691
3.484390 26.093401 0.067002
3.799739 26.093401 0.067136
4.115090 26.093401 0.067335
4.430439 26.093401 0.067952
4.745790 26.093401 0.069189
5.061140 26.093401 0.071550
5.376490 26.093401 0.074785
5.691840 26.093401 0.078570
6.007189 26.093401 0.082745
6.322540 26.093401 0.087856
6.637889 26.093401 0.093708
6.953240 26.093401 0.100603
7.268589 26.093401 0.108902
7.583940 26.093401 0.122768
7.899290 26.093401 0.144690
8.214640 26.093401 0.187487
8.529989 26.093401 0.272294
8.845339 26.093401 0.417471
9.160688 26.093401 0.632452
9.476040 26.093401 0.873931
9.791389 26.093401 1.162266
10.106739 26.093401 1.448089
10.422089 26.093401 1.748549
10.737438 26.093401 2.015878
11.052790 26.093401 2.300653
11.368139 26.093401 2.564053
11.683489 26.093401 2.847748
11.998838 26.093401 3.103160
12.314190 26.093401 3.408485
12.629539 26.093401 3.632366
12.944889 26.093401 3.862452
13.260239 26.093401 3.838265
13.575588 26.093401 3.859597
13.890940 26.093401 3.788321
14.206289 26.093401 3.561153
14.521639 26.093401 3.497214
14.836988 26.093401 3.602070
15.152340 26.093401 3.744416
15.467690 26.093401 4.228643
15.783039 26.093401 0.000000
16.098389 26.093401 0.000000
16.413738 26.093401 0.000000
16.729090 26.093401 0.000000
17.044439 26.093401 0.000000
17.359789 26.093401 0.000000
17.675138 26.093401 0.000000
17.990490 26.093401 0.000000
18.305840 26.093401 38.688843
18.621189 26.093401 39.016113
18.936539 26.093401 36.930248
19.251888 26.093401 0.000000
-7.237510 25.778051 0.000000
-6.922160 25.778051 0.074269
-6.606810 25.778051 0.069744
-6.291460 25.778051 0.068482
-5.976110 25.778051 0.068641
-5.660760 25.778051 0.068824
-5.345410 25.778051 0.068617
-5.030060 25.778051 0.067966
-4.714710 25.778051 0.067340
-4.399360 25.778051 0.067014
-4.084010 25.778051 0.066776
-3.768660 25.778051 0.066913
-3.453310 25.778051 0.067415
-3.137960 25.778051 0.067520
-2.822610 25.778051 0.067374
-2.507260 25.778051 0.067360
-2.191910 25.778051 0.067368
-1.876560 25.778051 0.067322
-1.561210 25.778051 0.066382
-1.245860 25.778051 0.065538
-0.930510 25.778051 0.065193
-0.615160 25.778051 0.065146
-0.299810 25.778051 0.065539
0.015540 25.778051 0.066076
0.330890 25.778051 0.066687
0.646240 25.778051 0.067435
0.961589 25.778051 0.068211
1.276940 25.778051 0.068197
1.592289 25.778051 0.067590
1.907640 25.778051 0.067131
2.222990 25.778051 0.066440
2.538340 25.778051 0.065669
2.853690 25.778051 0.065659
3.169039 25.778051 0.065870
3.484390 25.778051 0.066160
3.799739 25.778051 0.066584
4.115090 25.778051 0.067235
4.430439 25.778051 0.068166
4.745790 25.778051 0.069910
5.061140 25.778051 0.072541
5.376490 25.778051 0.075993
5.691840 25.778051 0.079786
6.007189 25.778051 0.083686
6.322540 25.778051 0.087875
6.637889 25.778051 0.093209
6.953240 25.778051 0.100062
7.268589 25.778051 0.107961
7.583940 25.778051 0.121783
7.899290 25.778051 0.144647
8.214640 25.778051 0.188000
8.529989 25.778051 0.278562
8.845339 25.778051 0.422543
9.160688 25.778051 0.630333
9.476040 25.778051 0.876555
9.791389 25.778051 1.159033
10.106739 25.778051 1.453884
10.422089 25.778051 1.753220
10.737438 25.778051 2.040777
11.052790 25.778051 2.294265
11.368139 25.778051 2.572681
11.683489 25.778051 2.858170
11.998838 25.778051 3.107027
12.314190 25.778051 3.395028
12.629539 25.778051 3.694027
12.944889 25.778051 3.842950
13.260239 25.778051 3.841528
13.575588 25.778051 3.803147
13.890940 25.778051 3.780783
14.206289 25.778051 3.650190
14.521639 25.778051 3.563405
14.836988 25.778051 3.584997
15.152340 25.778051 3.723477
15.467690 25.778051 4.232567
15.783039 25.778051 0.000000
16.098389 25.778051 0.000000
16.413738 25.778051 0.000000
16.729090 25.778051 0.000000
17.044439 25.778051 0.000000
17.359789 25.778051 0.000000
17.675138 25.778051 0.000000
17.990490 25.778051 0.000000
18.305840 25.778051 38.508972
18.621189 25.778051 39.353344
18.936539 25.778051 36.239410
19.251888 25.778051 0.000000
-7.237510 25.462700 0.000000
-6.922160 25.462700 0.073659
-6.606810 25.462700 0.069153
-6.291460 25.462700 0.067903
-5.976110 25.462700 0.068087
-5.660760 25.462700 0.068158
-5.345410 25.462700 0.067859
-5.030060 25.462700 0.067347
-4.714710 25.462700 0.066983
-4.399360 25.462700 0.067134
-4.084010 25.462700 0.067102
-3.768660 25.462700 0.067343
-3.453310 25.462700 0.067804
-3.137960 25.462700 0.067623
-2.822610 25.462700 0.067224
-2.507260 25.462700 0.067083
-2.191910 25.462700 0.066875
-1.876560 25.462700 0.066648
-1.561210 25.462700 0.065878
-1.245860 25.462700 0.065190
-0.930510 25.462700 0.065012
-0.615160 25.462700 0.065291
-0.299810 25.462700 0.065645
0.015540 25.462700 0.066242
0.330890 25.462700 0.066799
0.646240 25.462700 0.067661
0.961589 25.462700 0.068196
1.276940 25.462700 0.068003
1.592289 25.462700 0.067365
1.907640 25.462700 0.066755
2.222990 25.462700 0.065968
2.538340 25.462700 0.065120
2.853690 25.462700 0.065009
3.169039 25.462700 0.065191
3.484390 25.462700 0.065428
3.799739 25.462700 0.066340
4.115090 25.462700 0.067641
4.430439 25.462700 0.069147
4.745790 25.462700 0.071186
5.061140 25.462700 0.073800
5.376490 25.462700 0.077129
5.691840 25.462700 0.080786
6.007189 25.462700 0.083993
6.322540 25.462700 0.087468
6.637889 25.462700 0.091909
6.953240 25.462700 0.098101
7.268589 25.462700 0.106613
7.583940 25.462700 0.120252
7.899290 25.462700 0.142019
8.214640 25.462700 0.191076
8.529989 25.462700 0.280653
8.845339 25.462700 0.427325
9.160688 25.462700 0.621418
9.476040 25.462700 0.884427
9.791389 25.462700 1.167347
10.106739 25.462700 1.445808
10.422089 25.462700 1.745242
10.737438 25.462700 2.037144
11.052790 25.462700 2.288210
11.368139 25.462700 2.582060
11.683489 25.462700 2.872210
11.998838 25.462700 3.139070
12.314190 25.462700 3.451808
12.629539 25.462700 3.627407
12.944889 25.462700 3.853931
13.260239 25.462700 3.867332
13.575588 25.462700 3.813590
13.890940 25.462700 3.754941
14.206289 25.462700 3.675251
14.521639 25.462700 3.595896
14.836988 25.462700 3.624937
15.152340 25.462700 3.783706
15.467690 25.462700 4.368243
15.783039 25.462700 0.000000
16.098389 25.462700 0.000000
16.413738 25.462700 0.000000
16.729090 25.462700 0.000000
17.044439 25.462700 0.000000
17.359789 25.462700 0.000000
17.675138 25.462700 0.000000
17.990490 25.462700 0.000000
18.305840 25.462700 37.685066
18.621189 25.462700 39.203800
18.936539 25.462700 40.838291
19.251888 25.462700 0.000000
-7.237510 25.147350 0.000000
-6.922160 25.147350 0.072931
-6.606810 25.147350 0.068927
-6.291460 25.147350 0.067669
-5.976110 25.147350 0.067907
-5.660760 25.147350 0.067946
-5.345410 25.147350 0.067434
-5.030060 25.147350 0.067086
-4.714710 25.147350 0.067039
-4.399360 25.147350 0.067310
-4.084010 25.147350 0.067434
-3.768660 25.147350 0.067520
-3.453310 25.147350 0.067686
-3.137960 25.147350 0.067346
-2.822610 25.147350 0.066803
-2.507260 25.147350 0.066454
-2.191910 25.147350 0.066068
-1.876560 25.147350 0.065714
-1.561210 25.147350 0.065305
-1.245860 25.147350 0.065145
-0.930510 25.147350 0.065299
-0.615160 25.147350 0.065727
-0.299810 25.147350 0.066015
0.015540 25.147350 0.066463
0.330890 25.147350 0.067006
0.646240 25.147350 0.067689
0.961589 25.147350 0.067731
1.276940 25.147350 0.067253
1.592289 25.147350 0.066605
1.907640 25.147350 0.066022
2.222990 25.147350 0.065324
2.538340 25.147350 0.064608
2.853690 25.147350 0.064449
3.169039 25.147350 0.064684
3.484390 25.147350 0.065134
3.799739 25.147350 0.066648
4.115090 25.147350 0.068567
4.430439 25.147350 0.070629
4.745790 25.147350 0.072753
5.061140 25.147350 0.074956
5.376490 25.147350 0.077866
5.691840 25.147350 0.080843
6.007189 25.147350 0.083580
6.322540 25.147350 0.086202
6.637889 25.147350 0.090469
6.953240 25.147350 0.096368
7.268589 25.147350 0.104872
7.583940 25.147350 0.119108
7.899290 25.147350 0.142542
8.214640 25.147350 0.191670
8.529989 25.147350 0.281245
8.845339 25.147350 0.429969
9.160688 25.147350 0.639409
9.476040 25.147350 0.888957
9.791389 25.147350 1.169528
10.106739 25.147350 1.462054
10.422089 25.147350 1.743704
10.737438 25.147350 2.017716
11.052790 25.147350 2.317059
11.368139 25.147350 2.618373
11.683489 25.147350 2.861119
11.998838 25.147350 3.125824
12.314190 25.147350 3.401531
12.629539 25.147350 3.640138
12.944889 25.147350 3.764221
13.260239 25.147350 3.902327
13.575588 25.147350 3.843652
13.890940 25.147350 3.842680
14.206289 25.147350 3.781084
14.521639 25.147350 3.682699
14.836988 25.147350 3.650797
15.152340 25.147350 3.840401
15.467690 25.147350 4.392285
15.783039 25.147350 0.000000
16.098389 25.147350 0.000000
16.413738 25.147350 0.000000
16.729090 25.147350 0.000000
17.044439 25.147350 0.000000
17.359789 25.147350 0.000000
17.675138 25.147350 0.000000
17.990490 25.147350 0.000000
18.305840 25.147350 37.424133
18.621189 25.147350 38.308937
18.936539 25.147350 36.007519
19.251888 25.147350 0.000000
-7.237510 24.832001 0.000000
-6.922160 24.832001 0.072777
-6.606810 24.832001 0.068710
-6.291460 24.832001 0.067530
-5.976110 24.832001 0.067805
-5.660760 24.832001 0.067863
-5.345410 24.832001 0.067328
-5.030060 24.832001 0.067211
-4.714710 24.832001 0.067402
-4.399360 24.832001 0.067566
-4.084010 24.832001 0.067488
-3.768660 24.832001 0.067307
-3.453310 24.832001 0.067049
-3.137960 24.832001 0.066592
-2.822610 24.832001 0.065933
-2.507260 24.832001 0.065520
-2.191910 24.832001 0.065347
-1.876560 24.832001 0.065084
-1.561210 24.832001 0.065013
-1.245860 24.832001 0.065446
-0.930510 24.832001 0.066031
-0.615160 24.832001 0.066561
-0.299810 24.832001 0.066680
0.015540 24.832001 0.067021
0.330890 24.832001 0.067182
0.646240 24.832001 0.067294
0.961589 24.832001 0.066689
1.276940 24.832001 0.065936
1.592289 24.832001 0.065399
1.907640 24.832001 0.064943
2.222990 24.832001 0.064582
2.538340 24.832001 0.064141
2.853690 24.832001 0.064409
3.169039 24.832001 0.064764
3.484390 24.832001 0.065551
3.799739 24.832001 0.067462
4.115090 24.832001 0.069916
4.430439 24.832001 0.072166
4.745790 24.832001 0.074054
5.061140 24.832001 0.075918
5.376490 24.832001 0.077936
5.691840 24.832001 0.080052
6.007189 24.832001 0.082138
6.322540 24.832001 0.084747
6.637889 24.832001 0.089024
6.953240 24.832001 0.094828
7.268589 24.832001 0.104435
7.583940 24.832001 0.118777
7.899290 24.832001 0.145327
8.214640 24.832001 0.193983
8.529989 24.832001 0.282150
8.845339 24.832001 0.439498
9.160688 24.832001 0.649837
9.476040 24.832001 0.908434
9.791389 24.832001 1.199712
10.106739 24.832001 1.476218
10.422089 24.832001 1.765946
10.737438 24.832001 2.033509
11.052790 24.832001 2.309150
11.368139 24.832001 2.627632
11.683489 24.832001 2.874424
11.998838 24.832001 3.157024
12.314190 24.832001 3.406461
12.629539 24.832001 3.625690
12.944889 24.832001 3.770879
13.260239 24.832001 3.862055
13.575588 24.832001 3.922131
13.890940 24.832001 3.826389
14.206289 24.832001 3.700107
14.521639 24.832001 3.672995
14.836988 24.832001 3.588156
15.152340 24.832001 3.692042
15.467690 24.832001 4.222969
15.783039 24.832001 0.000000
16.098389 24.832001 0.000000
16.413738 24.832001 0.000000
16.729090 24.832001 0.000000
17.044439 24.832001 0.000000
17.359789 24.832001 0.000000
17.675138 24.832001 0.000000
17.990490 24.832001 0.000000
18.305840 24.832001 35.314594
18.621189 24.832001 36.625099
18.936539 24.832001 0.000000
19.251888 24.832001 0.000000
-7.237510 24.516651 0.000000
-6.922160 24.516651 0.072579
-6.606810 24.516651 0.068576
-6.291460 24.516651 0.067624
-5.976110 24.516651 0.067749
-5.660760 24.516651 0.067706
-5.345410 24.516651 0.067262
-5.030060 24.516651 0.067419
-4.714710 24.516651 0.067653
-4.399360 24.516651 0.067448
-4.084010 24.516651 0.067145
-3.768660 24.516651 0.066632
-3.453310 24.516651 0.066093
-3.137960 24.516651 0.065487
-2.822610 24.516651 0.064906
-2.507260 24.516651 0.064583
-2.191910 24.516651 0.064646
-1.876560 24.516651 0.064858
-1.561210 24.516651 0.065304
-1.245860 24.516651 0.066016
-0.930510 24.516651 0.066973
-0.615160 24.516651 0.067379
-0.299810 24.516651 0.067432
0.015540 24.516651 0.067391
0.330890 24.516651 0.067077
0.646240 24.516651 0.066369
0.961589 24.516651 0.065275
1.276940 24.516651 0.064506
1.592289 24.516651 0.064091
1.907640 24.516651 0.063781
2.222990 24.516651 0.063815
2.538340 24.516651 0.064023
2.853690 24.516651 0.064722
3.169039 24.516651 0.065425
3.484390 24.516651 0.066690
3.799739 24.516651 0.068817
4.115090 24.516651 0.071244
4.430439 24.516651 0.073278
4.745790 24.516651 0.074701
5.061140 24.516651 0.075867
5.376490 24.516651 0.077033
5.691840 24.516651 0.078281
6.007189 24.516651 0.080221
6.322540 24.516651 0.083171
6.637889 24.516651 0.088398
6.953240 24.516651 0.094721
7.268589 24.516651 0.103869
7.583940 24.516651 0.120409
7.899290 24.516651 0.149001
8.214640 24.516651 0.196124
8.529989 24.516651 0.286822
8.845339 24.516651 0.441939
9.160688 24.516651 0.658357
9.476040 24.516651 0.909821
9.791389 24.516651 1.210116
10.106739 24.516651 1.491998
10.422089 24.516651 1.781696
10.737438 24.516651 2.070997
11.052790 24.516651 2.322898
11.368139 24.516651 2.601104
11.683489 24.516651 2.855789
11.998838 24.516651 3.172016
12.314190 24.516651 3.370816
12.629539 24.516651 3.572687
12.944889 24.516651 3.767123
13.260239 24.516651 3.869601
13.575588 24.516651 3.917874
13.890940 24.516651 3.829106
14.206289 24.516651 3.681088
14.521639 24.516651 3.602233
14.836988 24.516651 3.607312
15.152340 24.516651 3.697578
15.467690 24.516651 4.052512
15.783039 24.516651 0.000000
16.098389 24.516651 0.000000
16.413738 24.516651 0.000000
16.729090 24.516651 0.000000
17.044439 24.516651 0.000000
17.359789 24.516651 0.000000
17.675138 24.516651 0.000000
17.990490 24.516651 0.000000
18.305840 24.516651 34.220497
18.621189 24.516651 35.048203
18.936539 24.516651 0.000000
19.251888 24.516651 0.000000
-7.237510 24.201302 0.000000
-6.922160 24.201302 0.072347
-6.606810 24.201302 0.068638
-6.291460 24.201302 0.067697
-5.976110 24.201302 0.067838
-5.660760 24.201302 0.067567
-5.345410 24.201302 0.067114
-5.030060 24.201302 0.067230
-4.714710 24.201302 0.067380
-4.399360 24.201302 0.067013
-4.084010 24.201302 0.066341
-3.768660 24.201302 0.065668
-3.453310 24.201302 0.065069
-3.137960 24.201302 0.064520
-2.822610 24.201302 0.064301
-2.507260 24.201302 0.064149
-2.191910 24.201302 0.064444
-1.876560 24.201302 0.065124
-1.561210 24.201302 0.065917
-1.245860 24.201302 0.066845
-0.930510 24.201302 0.067885
-0.615160 24.201302 0.068121
-0.299810 24.201302 0.067867
0.015540 24.201302 0.067244
0.330890 24.201302 0.066365
0.646240 24.201302 0.065080
0.961589 24.201302 0.063841
1.276940 24.201302 0.063234
1.592289 24.201302 0.062895
1.907640 24.201302 0.062878
2.222990 24.201302 0.063338
2.538340 24.201302 0.064274
2.853690 24.201302 0.065507
3.169039 24.201302 0.066685
3.484390 24.201302 0.068205
3.799739 24.201302 0.070058
4.115090 24.201302 0.071996
4.430439 24.201302 0.073461
4.745790 24.201302 0.074164
5.061140 24.201302 0.074650
5.376490 24.201302 0.075107
5.691840 24.201302 0.076122
6.007189 24.201302 0.078336
6.322540 24.201302 0.082439
6.637889 24.201302 0.088320
6.953240 24.201302 0.096027
7.268589 24.201302 0.105324
7.583940 24.201302 0.122334
7.899290 24.201302 0.150548
8.214640 24.201302 0.200795
8.529989 24.201302 0.291698
8.845339 24.201302 0.439512
9.160688 24.201302 0.654008
9.476040 24.201302 0.927422
9.791389 24.201302 1.185138
10.106739 24.201302 1.508815
10.422089 24.201302 1.811567
10.737438 24.201302 2.074294
11.052790 24.201302 2.323076
11.368139 24.201302 2.624965
11.683489 24.201302 2.861033
11.998838 24.201302 3.087984
12.314190 24.201302 3.396802
12.629539 24.201302 3.563462
12.944889 24.201302 3.802152
13.260239 24.201302 3.873931
13.575588 24.201302 3.908052
13.890940 24.201302 3.803250
14.206289 24.201302 3.667850
14.521639 24.201302 3.565734
14.836988 24.201302 3.569886
15.152340 24.201302 3.579609
15.467690 24.201302 3.941597
15.783039 24.201302 0.000000
16.098389 24.201302 0.000000
16.413738 24.201302 0.000000
16.729090 24.201302 0.000000
17.044439 24.201302 0.000000
17.359789 24.201302 0.000000
17.675138 24.201302 0.000000
17.990490 24.201302 0.000000
18.305840 24.201302 32.890106
18.621189 24.201302 33.730057
18.936539 24.201302 0.000000
19.251888 24.201302 0.000000
-7.237510 23.885950 0.000000
-6.922160 23.885950 0.072782
-6.606810 23.885950 0.068879
-6.291460 23.885950 0.068003
-5.976110 23.885950 0.067803
-5.660760 23.885950 0.067516
-5.345410 23.885950 0.066810
-5.030060 23.885950 0.066637
-4.714710 23.885950 0.066578
-4.399360 23.885950 0.066058
-4.084010 23.885950 0.065197
-3.768660 23.885950 0.064593
-3.453310 23.885950 0.064329
-3.137960 23.885950 0.064066
-2.822610 23.885950 0.064336
-2.507260 23.885950 0.064248
-2.191910 23.885950 0.064774
-1.876560 23.885950 0.065837
-1.561210 23.885950 0.066650
-1.245860 23.885950 0.067509
-0.930510 23.885950 0.068190
-0.615160 23.885950 0.068285
-0.299810 23.885950 0.067553
0.015540 23.885950 0.066317
0.330890 23.885950 0.065032
0.646240 23.885950 0.063705
0.961589 23.885950 0.062493
1.276940 23.885950 0.062070
1.592289 23.885950 0.062140
1.907640 23.885950 0.062542
2.222990 23.885950 0.063513
2.538340 23.885950 0.065045
2.853690 23.885950 0.066707
3.169039 23.885950 0.068093
3.484390 23.885950 0.069407
3.799739 23.885950 0.070671
4.115090 23.885950 0.071743
4.430439 23.885950 0.072398
4.745790 23.885950 0.072579
5.061140 23.885950 0.072697
5.376490 23.885950 0.072900
5.691840 23.885950 0.074204
6.007189 23.885950 0.077143
6.322540 23.885950 0.082211
6.637889 23.885950 0.089243
6.953240 23.885950 0.097806
7.268589 23.885950 0.108286
7.583940 23.885950 0.124278
7.899290 23.885950 0.153657
8.214640 23.885950 0.200770
8.529989 23.885950 0.294846
8.845339 23.885950 0.438882
9.160688 23.885950 0.655446
9.476040 23.885950 0.908463
9.791389 23.885950 1.198241
10.106739 23.885950 1.493832
10.422089 23.885950 1.783769
10.737438 23.885950 2.076975
11.052790 23.885950 2.330617
11.368139 23.885950 2.631353
11.683489 23.885950 2.872842
11.998838 23.885950 3.136261
12.314190 23.885950 3.404585
12.629539 23.885950 3.598115
12.944889 23.885950 3.788480
13.260239 23.885950 3.878518
13.575588 23.885950 3.873832
13.890940 23.885950 3.744313
14.206289 23.885950 3.627031
14.521639 23.885950 3.514117
14.836988 23.885950 3.490390
15.152340 23.885950 3.659417
15.467690 23.885950 4.007417
15.783039 23.885950 0.000000
16.098389 23.885950 0.000000
16.413738 23.885950 0.000000
16.729090 23.885950 0.000000
17.044439 23.885950 0.000000
17.359789 23.885950 0.000000
17.675138 23.885950 0.000000
17.990490 23.885950 0.000000
18.305840 23.885950 32.320927
18.621189 23.885950 33.151588
18.936539 23.885950 0.000000
19.251888 23.885950 0.000000
-7.237510 23.570601 0.000000
-6.922160 23.570601 0.073174
-6.606810 23.570601 0.069000
-6.291460 23.570601 0.068041
-5.976110 23.570601 0.067556
-5.660760 23.570601 0.067067
-5.345410 23.570601 0.066251
-5.030060 23.570601 0.065710
-4.714710 23.570601 0.065412
-4.399360 23.570601 0.064825
-4.084010 23.570601 0.064036
-3.768660 23.570601 0.063797
-3.453310 23.570601 0.064027
-3.137960 23.570601 0.064218
-2.822610 23.570601 0.064694
-2.507260 23.570601 0.064892
-2.191910 23.570601 0.065505
-1.876560 23.570601 0.066481
-1.561210 23.570601 0.067097
-1.245860 23.570601 0.067467
-0.930510 23.570601 0.067717
-0.615160 23.570601 0.067541
-0.299810 23.570601 0.066366
0.015540 23.570601 0.064864
0.330890 23.570601 0.063495
0.646240 23.570601 0.062456
0.961589 23.570601 0.061640
1.276940 23.570601 0.061604
1.592289 23.570601 0.062123
1.907640 23.570601 0.063161
2.222990 23.570601 0.064565
2.538340 23.570601 0.066167
2.853690 23.570601 0.067995
3.169039 23.570601 0.069284
3.484390 23.570601 0.070061
3.799739 23.570601 0.070381
4.115090 23.570601 0.070515
4.430439 23.570601 0.070473
4.745790 23.570601 0.070481
5.061140 23.570601 0.070547
5.376490 23.570601 0.071074
5.691840 23.570601 0.073075
6.007189 23.570601 0.077107
6.322540 23.570601 0.082822
6.637889 23.570601 0.090827
6.953240 23.570601 0.099517
7.268589 23.570601 0.110100
7.583940 23.570601 0.126960
7.899290 23.570601 0.155409
8.214640 23.570601 0.205167
8.529989 23.570601 0.294613
8.845339 23.570601 0.446715
9.160688 23.570601 0.657849
9.476040 23.570601 0.909318
9.791389 23.570601 1.201230
10.106739 23.570601 1.479398
10.422089 23.570601 1.755616
10.737438 23.570601 2.075928
11.052790 23.570601 2.321988
11.368139 23.570601 2.625967
11.683489 23.570601 2.891606
11.998838 23.570601 3.148787
12.314190 23.570601 3.424472
12.629539 23.570601 3.654014
12.944889 23.570601 3.867795
13.260239 23.570601 3.935292
13.575588 23.570601 3.866786
13.890940 23.570601 3.820709
14.206289 23.570601 3.645127
14.521639 23.570601 3.511513
14.836988 23.570601 3.463657
15.152340 23.570601 3.602200
15.467690 23.570601 4.061235
15.783039 23.570601 0.000000
16.098389 23.570601 0.000000
16.413738 23.570601 0.000000
16.729090 23.570601 0.000000
17.044439 23.570601 0.000000
17.359789 23.570601 0.000000
17.675138 23.570601 0.000000
17.990490 23.570601 0.000000
18.305840 23.570601 32.709446
18.621189 23.570601 33.407684
18.936539 23.570601 0.000000
19.251888 23.570601 0.000000
-7.237510 23.255251 0.000000
-6.922160 23.255251 0.072797
-6.606810 23.255251 0.068653
-6.291460 23.255251 0.067455
-5.976110 23.255251 0.066809
-5.660760 23.255251 0.066088
-5.345410 23.255251 0.065221
-5.030060 23.255251 0.064584
-4.714710 23.255251 0.064141
-4.399360 23.255251 0.063795
-4.084010 23.255251 0.063446
-3.768660 23.255251 0.063603
-3.453310 23.255251 0.064319
-3.137960 23.255251 0.064899
-2.822610 23.255251 0.065439
-2.507260 23.255251 0.065757
-2.191910 23.255251 0.066255
-1.876560 23.255251 0.066760
-1.561210 23.255251 0.066895
-1.245860 23.255251 0.066554
-0.930510 23.255251 0.066319
-0.615160 23.255251 0.065852
-0.299810 23.255251 0.064552
0.015540 23.255251 0.063095
0.330890 23.255251 0.062005
0.646240 23.255251 0.061523
0.961589 23.255251 0.061509
1.276940 23.255251 0.062095
1.592289 23.255251 0.063130
1.907640 23.255251 0.064557
2.222990 23.255251 0.065918
2.538340 23.255251 0.067309
2.853690 23.255251 0.068841
3.169039 23.255251 0.069682
3.484390 23.255251 0.069838
3.799739 23.255251 0.069119
4.115090 23.255251 0.068547
4.430439 23.255251 0.068241
4.745790 23.255251 0.068371
5.061140 23.255251 0.068805
5.376490 23.255251 0.070109
5.691840 23.255251 0.073023
6.007189 23.255251 0.077746
6.322540 23.255251 0.084400
6.637889 23.255251 0.092262
6.953240 23.255251 0.101447
7.268589 23.255251 0.111562
7.583940 23.255251 0.127937
7.899290 23.255251 0.155301
8.214640 23.255251 0.208731
8.529989 23.255251 0.295961
8.845339 23.255251 0.447164
9.160688 23.255251 0.659564
9.476040 23.255251 0.934790
9.791389 23.255251 1.205533
10.106739 23.255251 1.477257
10.422089 23.255251 1.765363
10.737438 23.255251 2.057378
11.052790 23.255251 2.344143
11.368139 23.255251 2.629821
11.683489 23.255251 2.932527
11.998838 23.255251 3.196908
12.314190 23.255251 3.406614
12.629539 23.255251 3.614270
12.944889 23.255251 3.824984
13.260239 23.255251 3.962291
13.575588 23.255251 3.894047
13.890940 23.255251 3.895284
14.206289 23.255251 3.668547
14.521639 23.255251 3.535800
14.836988 23.255251 3.401391
15.152340 23.255251 3.530853
15.467690 23.255251 3.926174
15.783039 23.255251 0.000000
16.098389 23.255251 0.000000
16.413738 23.255251 0.000000
16.729090 23.255251 0.000000
17.044439 23.255251 0.000000
17.359789 23.255251 0.000000
17.675138 23.255251 0.000000
17.990490 23.255251 0.000000
18.305840 23.255251 32.760666
18.621189 23.255251 34.162262
18.936539 23.255251 0.000000
19.251888 23.255251 0.000000
-7.237510 22.939901 0.000000
-6.922160 22.939901 0.071873
-6.606810 22.939901 0.067703
-6.291460 22.939901 0.066465
-5.976110 22.939901 0.065655
-5.660760 22.939901 0.064935
-5.345410 22.939901 0.064260
-5.030060 22.939901 0.063723
-4.714710 22.939901 0.063295
-4.399360 22.939901 0.063267
-4.084010 22.939901 0.063602
-3.768660 22.939901 0.064329
-3.453310 22.939901 0.065305
-3.137960 22.939901 0.065901
-2.822610 22.939901 0.066290
-2.507260 22.939901 0.066501
-2.191910 22.939901 0.066612
-1.876560 22.939901 0.066379
-1.561210 22.939901 0.065783
-1.245860 22.939901 0.064948
-0.930510 22.939901 0.064167
-0.615160 22.939901 0.063604
-0.299810 22.939901 0.062449
0.015540 22.939901 0.061446
0.330890 22.939901 0.060931
0.646240 22.939901 0.061318
0.961589 22.939901 0.062084
1.276940 22.939901 0.063334
1.592289 22.939901 0.064779
1.907640 22.939901 0.066304
2.222990 22.939901 0.067255
2.538340 22.939901 0.067927
2.853690 22.939901 0.068712
3.169039 22.939901 0.068951
3.484390 22.939901 0.068553
3.799739 22.939901 0.067425
4.115090 22.939901 0.066462
4.430439 22.939901 0.066229
4.745790 22.939901 0.066877
5.061140 22.939901 0.067988
5.376490 22.939901 0.070245
5.691840 22.939901 0.074044
6.007189 22.939901 0.079483
6.322540 22.939901 0.086386
6.637889 22.939901 0.094207
6.953240 22.939901 0.102340
7.268589 22.939901 0.112354
7.583940 22.939901 0.126831
7.899290 22.939901 0.154136
8.214640 22.939901 0.203708
8.529989 22.939901 0.298532
8.845339 22.939901 0.457657
9.160688 22.939901 0.682578
9.476040 22.939901 0.944896
9.791389 22.939901 1.206982
10.106739 22.939901 1.484139
10.422089 22.939901 1.760925
10.737438 22.939901 2.043937
11.052790 22.939901 2.344846
11.368139 22.939901 2.612251
11.683489 22.939901 2.904053
11.998838 22.939901 3.155006
12.314190 22.939901 3.415655
12.629539 22.939901 3.636162
12.944889 22.939901 3.872308
13.260239 22.939901 3.960838
13.575588 22.939901 4.005868
13.890940 22.939901 3.972585
14.206289 22.939901 3.661113
14.521639 22.939901 3.531618
14.836988 22.939901 3.403083
15.152340 22.939901 3.587374
15.467690 22.939901 3.858963
15.783039 22.939901 0.000000
16.098389 22.939901 0.000000
16.413738 22.939901 0.000000
16.729090 22.939901 0.000000
17.044439 22.939901 0.000000
17.359789 22.939901 0.000000
17.675138 22.939901 0.000000
17.990490 22.939901 0.000000
18.305840 22.939901 33.881584
18.621189 22.939901 34.668549
18.936539 22.939901 0.000000
19.251888 22.939901 0.000000
-7.237510 22.624552 0.000000
-6.922160 22.624552 0.070887
-6.606810 22.624552 0.066476
-6.291460 22.624552 0.065298
-5.976110 22.624552 0.064457
-5.660760 22.624552 0.064017
-5.345410 22.624552 0.063746
-5.030060 22.624552 0.063373
-4.714710 22.624552 0.063309
-4.399360 22.624552 0.063779
-4.084010 22.624552 0.064500
-3.768660 22.624552 0.065523
-3.453310 22.624552 0.066411
-3.137960 22.624552 0.066804
-2.822610 22.624552 0.066878
-2.507260 22.624552 0.066601
-2.191910 22.624552 0.066306
-1.876560 22.624552 0.065442
-1.561210 22.624552 0.064237
-1.245860 22.624552 0.063060
-0.930510 22.624552 0.062015
-0.615160 22.624552 0.061421
-0.299810 22.624552 0.060834
0.015540 22.624552 0.060508
0.330890 22.624552 0.060826
0.646240 22.624552 0.061977
0.961589 22.624552 0.063451
1.276940 22.624552 0.065034
1.592289 22.624552 0.066481
1.907640 22.624552 0.067555
2.222990 22.624552 0.067835
2.538340 22.624552 0.067645
2.853690 22.624552 0.067526
3.169039 22.624552 0.067281
3.484390 22.624552 0.066521
3.799739 22.624552 0.065443
4.115090 22.624552 0.064744
4.430439 22.624552 0.065033
4.745790 22.624552 0.066348
5.061140 22.624552 0.068676
5.376490 22.624552 0.071694
5.691840 22.624552 0.076142
6.007189 22.624552 0.081493
6.322540 22.624552 0.088021
6.637889 22.624552 0.095049
6.953240 22.624552 0.102986
7.268589 22.624552 0.111436
7.583940 22.624552 0.126471
7.899290 22.624552 0.151830
8.214640 22.624552 0.201548
8.529989 22.624552 0.302127
8.845339 22.624552 0.458119
9.160688 22.624552 0.679826
9.476040 22.624552 0.938168
9.791389 22.624552 1.221258
10.106739 22.624552 1.469709
10.422089 22.624552 1.756356
10.737438 22.624552 2.033670
11.052790 22.624552 2.314008
11.368139 22.624552 2.628948
11.683489 22.624552 2.914263
11.998838 22.624552 3.147082
12.314190 22.624552 3.420663
12.629539 22.624552 3.648777
12.944889 22.624552 3.968712
13.260239 22.624552 4.053967
13.575588 22.624552 4.044001
13.890940 22.624552 4.008771
14.206289 22.624552 3.723966
14.521639 22.624552 3.628810
14.836988 22.624552 3.517242
15.152340 22.624552 3.641996
15.467690 22.624552 3.966797
15.783039 22.624552 0.000000
16.098389 22.624552 0.000000
16.413738 22.624552 0.000000
16.729090 22.624552 0.000000
17.044439 22.624552 0.000000
17.359789 22.624552 0.000000
17.675138 22.624552 0.000000
17.990490 22.624552 0.000000
18.305840 22.624552 34.027210
18.621189 22.624552 34.862808
18.936539 22.624552 0.000000
19.251888 22.624552 0.000000
-7.237510 22.309200 0.000000
-6.922160 22.309200 0.069473
-6.606810 22.309200 0.065207
-6.291460 22.309200 0.064194
-5.976110 22.309200 0.063705
-5.660760 22.309200 0.063610
-5.345410 22.309200 0.063875
-5.030060 22.309200 0.063907
-4.714710 22.309200 0.064105
-4.399360 22.309200 0.065029
-4.084010 22.309200 0.065972
-3.768660 22.309200 0.066816
-3.453310 22.309200 0.067390
-3.137960 22.309200 0.067386
-2.822610 22.309200 0.066775
-2.507260 22.309200 0.065954
-2.191910 22.309200 0.065168
-1.876560 22.309200 0.063914
-1.561210 22.309200 0.062407
-1.245860 22.309200 0.061106
-0.930510 22.309200 0.060234
-0.615160 22.309200 0.060059
-0.299810 22.309200 0.060227
0.015540 22.309200 0.060727
0.330890 22.309200 0.061843
0.646240 22.309200 0.063376
0.961589 22.309200 0.065196
1.276940 22.309200 0.066671
1.592289 22.309200 0.067572
1.907640 22.309200 0.067862
2.222990 22.309200 0.067304
2.538340 22.309200 0.066352
2.853690 22.309200 0.065670
3.169039 22.309200 0.065071
3.484390 22.309200 0.064425
3.799739 22.309200 0.063889
4.115090 22.309200 0.063960
4.430439 22.309200 0.065113
4.745790 22.309200 0.067191
5.061140 22.309200 0.070183
5.376490 22.309200 0.074007
5.691840 22.309200 0.078444
6.007189 22.309200 0.083371
6.322540 22.309200 0.088977
6.637889 22.309200 0.095049
6.953240 22.309200 0.101836
7.268589 22.309200 0.110027
7.583940 22.309200 0.124588
7.899290 22.309200 0.149947
8.214640 22.309200 0.203388
8.529989 22.309200 0.305918
8.845339 22.309200 0.452054
9.160688 22.309200 0.676503
9.476040 22.309200 0.933591
9.791389 22.309200 1.222921
10.106739 22.309200 1.490264
10.422089 22.309200 1.753111
10.737438 22.309200 2.020370
11.052790 22.309200 2.312428
11.368139 22.309200 2.616781
11.683489 22.309200 2.923317
11.998838 22.309200 3.195425
12.314190 22.309200 3.430987
12.629539 22.309200 3.680245
12.944889 22.309200 3.946659
13.260239 22.309200 4.122334
13.575588 22.309200 4.139442
13.890940 22.309200 4.015002
14.206289 22.309200 3.838558
14.521639 22.309200 3.623837
14.836988 22.309200 3.553925
15.152340 22.309200 3.828980
15.467690 22.309200 4.214040
15.783039 22.309200 0.000000
16.098389 22.309200 0.000000
16.413738 22.309200 0.000000
16.729090 22.309200 0.000000
17.044439 22.309200 0.000000
17.359789 22.309200 0.000000
17.675138 22.309200 0.000000
17.990490 22.309200 0.000000
18.305840 22.309200 33.765877
18.621189 22.309200 34.835442
18.936539 22.309200 0.000000
19.251888 22.309200 0.000000
-7.237510 21.993851 0.000000
-6.922160 21.993851 0.067727
-6.606810 21.993851 0.064089
-6.291460 21.993851 0.063552
-5.976110 21.993851 0.063478
-5.660760 21.993851 0.063905
-5.345410 21.993851 0.064729
-5.030060 21.993851 0.065148
-4.714710 21.993851 0.065668
-4.399360 21.993851 0.066500
-4.084010 21.993851 0.067181
-3.768660 21.993851 0.067558
-3.453310 21.993851 0.067557
-3.137960 21.993851 0.066969
-2.822610 21.993851 0.065737
-2.507260 21.993851 0.064579
-2.191910 21.993851 0.063437
-1.876560 21.993851 0.062176
-1.561210 21.993851 0.060928
-1.245860 21.993851 0.059907
-0.930510 21.993851 0.059552
-0.615160 21.993851 0.060050
-0.299810 21.993851 0.060967
0.015540 21.993851 0.062135
0.330890 21.993851 0.063696
0.646240 21.993851 0.065154
0.961589 21.993851 0.066570
1.276940 21.993851 0.067399
1.592289 21.993851 0.067445
1.907640 21.993851 0.066932
2.222990 21.993851 0.065591
2.538340 21.993851 0.064296
2.853690 21.993851 0.063416
3.169039 21.993851 0.062947
3.484390 21.993851 0.062822
3.799739 21.993851 0.063338
4.115090 21.993851 0.064425
4.430439 21.993851 0.066218
4.745790 21.993851 0.068940
5.061140 21.993851 0.072307
5.376490 21.993851 0.076299
5.691840 21.993851 0.080424
6.007189 21.993851 0.084243
6.322540 21.993851 0.088615
6.637889 21.993851 0.093957
6.953240 21.993851 0.100409
7.268589 21.993851 0.108531
7.583940 21.993851 0.125358
7.899290 21.993851 0.153326
8.214640 21.993851 0.206581
8.529989 21.993851 0.310795
8.845339 21.993851 0.453857
9.160688 21.993851 0.675813
9.476040 21.993851 0.950634
9.791389 21.993851 1.225910
10.106739 21.993851 1.489487
10.422089 21.993851 1.741324
10.737438 21.993851 2.047496
11.052790 21.993851 2.333834
11.368139 21.993851 2.614057
11.683489 21.993851 2.905602
11.998838 21.993851 3.157594
12.314190 21.993851 3.449282
12.629539 21.993851 3.735121
12.944889 21.993851 3.989160
13.260239 21.993851 4.122648
13.575588 21.993851 4.149077
13.890940 21.993851 4.082848
14.206289 21.993851 3.830215
14.521639 21.993851 3.735259
14.836988 21.993851 3.653854
15.152340 21.993851 3.869222
15.467690 21.993851 4.316308
15.783039 21.993851 0.000000
16.098389 21.993851 0.000000
16.413738 21.993851 0.000000
16.729090 21.993851 0.000000
17.044439 21.993851 0.000000
17.359789 21.993851 0.000000
17.675138 21.993851 0.000000
17.990490 21.993851 0.000000
18.305840 21.993851 33.569256
18.621189 21.993851 34.633579
18.936539 21.993851 0.000000
19.251888 21.993851 0.000000
-7.237510 21.678501 0.000000
-6.922160 21.678501 0.066417
-6.606810 21.678501 0.063533
-6.291460 21.678501 0.063529
-5.976110 21.678501 0.063909
-5.660760 21.678501 0.064780
-5.345410 21.678501 0.066093
-5.030060 21.678501 0.066786
-4.714710 21.678501 0.067090
-4.399360 21.678501 0.067442
-4.084010 21.678501 0.067466
-3.768660 21.678501 0.067261
-3.453310 21.678501 0.066544
-3.137960 21.678501 0.065547
-2.822610 21.678501 0.064059
-2.507260 21.678501 0.062726
-2.191910 21.678501 0.061688
-1.876560 21.678501 0.060798
-1.561210 21.678501 0.060123
-1.245860 21.678501 0.059794
-0.930510 21.678501 0.059977
-0.615160 21.678501 0.061076
-0.299810 21.678501 0.062539
0.015540 21.678501 0.064027
0.330890 21.678501 0.065465
0.646240 21.678501 0.066444
0.961589 21.678501 0.066984
1.276940 21.678501 0.066864
1.592289 21.678501 0.066099
1.907640 21.678501 0.064905
2.222990 21.678501 0.063320
2.538340 21.678501 0.062120
2.853690 21.678501 0.061738
3.169039 21.678501 0.061679
3.484390 21.678501 0.062443
3.799739 21.678501 0.064060
4.115090 21.678501 0.065992
4.430439 21.678501 0.068366
4.745790 21.678501 0.071159
5.061140 21.678501 0.074299
5.376490 21.678501 0.077715
5.691840 21.678501 0.080974
6.007189 21.678501 0.083714
6.322540 21.678501 0.087211
6.637889 21.678501 0.092206
6.953240 21.678501 0.098622
7.268589 21.678501 0.107144
7.583940 21.678501 0.125925
7.899290 21.678501 0.157320
8.214640 21.678501 0.208592
8.529989 21.678501 0.312338
8.845339 21.678501 0.461011
9.160688 21.678501 0.691563
9.476040 21.678501 0.964716
9.791389 21.678501 1.236578
10.106739 21.678501 1.501296
10.422089 21.678501 1.780020
10.737438 21.678501 2.038224
11.052790 21.678501 2.341480
11.368139 21.678501 2.648831
11.683489 21.678501 2.913114
11.998838 21.678501 3.226001
12.314190 21.678501 3.474716
12.629539 21.678501 3.777855
12.944889 21.678501 4.010175
13.260239 21.678501 4.074057
13.575588 21.678501 4.130089
13.890940 21.678501 4.148264
14.206289 21.678501 3.999593
14.521639 21.678501 3.769321
14.836988 21.678501 3.840528
15.152340 21.678501 4.105691
15.467690 21.678501 4.423660
15.783039 21.678501 0.000000
16.098389 21.678501 0.000000
16.413738 21.678501 0.000000
16.729090 21.678501 0.000000
17.044439 21.678501 0.000000
17.359789 21.678501 0.000000
17.675138 21.678501 0.000000
17.990490 21.678501 0.000000
18.305840 21.678501 34.122906
18.621189 21.678501 34.653664
18.936539 21.678501 0.000000
19.251888 21.678501 0.000000
-7.237510 21.363152 0.000000
-6.922160 21.363152 0.066154
-6.606810 21.363152 0.063742
-6.291460 21.363152 0.064283
-5.976110 21.363152 0.064957
-5.660760 21.363152 0.066038
-5.345410 21.363152 0.067399
-5.030060 21.363152 0.067943
-4.714710 21.363152 0.067858
-4.399360 21.363152 0.067425
-4.084010 21.363152 0.066677
-3.768660 21.363152 0.065723
-3.453310 21.363152 0.064555
-3.137960 21.363152 0.063446
-2.822610 21.363152 0.062193
-2.507260 21.363152 0.061073
-2.191910 21.363152 0.060515
-1.876560 21.363152 0.060243
-1.561210 21.363152 0.060317
-1.245860 21.363152 0.060703
-0.930510 21.363152 0.061427
-0.615160 21.363152 0.062710
-0.299810 21.363152 0.064218
0.015540 21.363152 0.065349
0.330890 21.363152 0.066194
0.646240 21.363152 0.066433
0.961589 21.363152 0.065857
1.276940 21.363152 0.065054
1.592289 21.363152 0.063782
1.907640 21.363152 0.062554
2.222990 21.363152 0.061253
2.538340 21.363152 0.060782
2.853690 21.363152 0.061176
3.169039 21.363152 0.061820
3.484390 21.363152 0.063371
3.799739 21.363152 0.065695
4.115090 21.363152 0.068147
4.430439 21.363152 0.070426
4.745790 21.363152 0.072874
5.061140 21.363152 0.075038
5.376490 21.363152 0.077498
5.691840 21.363152 0.079908
6.007189 21.363152 0.082091
6.322540 21.363152 0.085308
6.637889 21.363152 0.090231
6.953240 21.363152 0.097160
7.268589 21.363152 0.107414
7.583940 21.363152 0.125844
7.899290 21.363152 0.154413
8.214640 21.363152 0.209312
8.529989 21.363152 0.303770
8.845339 21.363152 0.468889
9.160688 21.363152 0.698943
9.476040 21.363152 0.975696
9.791389 21.363152 1.252894
10.106739 21.363152 1.521442
10.422089 21.363152 1.785026
10.737438 21.363152 2.054662
11.052790 21.363152 2.348270
11.368139 21.363152 2.655735
11.683489 21.363152 2.938327
11.998838 21.363152 3.207751
12.314190 21.363152 3.460395
12.629539 21.363152 3.723275
12.944889 21.363152 4.029203
13.260239 21.363152 4.073020
13.575588 21.363152 4.108972
13.890940 21.363152 4.105362
14.206289 21.363152 4.026119
14.521639 21.363152 3.859359
14.836988 21.363152 3.755281
15.152340 21.363152 4.059246
15.467690 21.363152 4.577459
15.783039 21.363152 0.000000
16.098389 21.363152 0.000000
16.413738 21.363152 0.000000
16.729090 21.363152 0.000000
17.044439 21.363152 0.000000
17.359789 21.363152 0.000000
17.675138 21.363152 0.000000
17.990490 21.363152 0.000000
18.305840 21.363152 34.467873
18.621189 21.363152 35.554508
18.936539 21.363152 0.000000
19.251888 21.363152 0.000000
-7.237510 21.047800 0.000000
-6.922160 21.047800 0.066755
-6.606810 21.047800 0.064749
-6.291460 21.047800 0.065391
-5.976110 21.047800 0.066025
-5.660760 21.047800 0.066875
-5.345410 21.047800 0.067931
-5.030060 21.047800 0.068052
-4.714710 21.047800 0.067384
-4.399360 21.047800 0.066228
-4.084010 21.047800 0.064916
-3.768660 21.047800 0.063484
-3.453310 21.047800 0.062190
-3.137960 21.047800 0.061284
-2.822610 21.047800 0.060650
-2.507260 21.047800 0.060279
-2.191910 21.047800 0.060405
-1.876560 21.047800 0.060809
-1.561210 21.047800 0.061585
-1.245860 21.047800 0.062420
-0.930510 21.047800 0.063327
-0.615160 21.047800 0.064392
-0.299810 21.047800 0.065300
0.015540 21.047800 0.065646
0.330890 21.047800 0.065533
0.646240 21.047800 0.064897
0.961589 21.047800 0.063530
1.276940 21.047800 0.062396
1.592289 21.047800 0.061401
1.907640 21.047800 0.060581
2.222990 21.047800 0.060207
2.538340 21.047800 0.060647
2.853690 21.047800 0.061965
3.169039 21.047800 0.063352
3.484390 21.047800 0.065265
3.799739 21.047800 0.067637
4.115090 21.047800 0.069802
4.430439 21.047800 0.071697
4.745790 21.047800 0.072981
5.061140 21.047800 0.074287
5.376490 21.047800 0.075951
5.691840 21.047800 0.077772
6.007189 21.047800 0.080094
6.322540 21.047800 0.083716
6.637889 21.047800 0.089272
6.953240 21.047800 0.097039
7.268589 21.047800 0.108679
7.583940 21.047800 0.128512
7.899290 21.047800 0.157465
8.214640 21.047800 0.213339
8.529989 21.047800 0.311433
8.845339 21.047800 0.473968
9.160688 21.047800 0.711372
9.476040 21.047800 0.969548
9.791389 21.047800 1.255306
10.106739 21.047800 1.531675
10.422089 21.047800 1.788666
10.737438 21.047800 2.073798
11.052790 21.047800 2.337945
11.368139 21.047800 2.634654
11.683489 21.047800 2.915142
11.998838 21.047800 3.197878
12.314190 21.047800 3.493410
12.629539 21.047800 3.724787
12.944889 21.047800 4.017965
13.260239 21.047800 4.094741
13.575588 21.047800 4.101593
13.890940 21.047800 4.147465
14.206289 21.047800 4.076645
14.521639 21.047800 3.882698
14.836988 21.047800 3.817607
15.152340 21.047800 4.091711
15.467690 21.047800 4.493392
15.783039 21.047800 0.000000
16.098389 21.047800 0.000000
16.413738 21.047800 0.000000
16.729090 21.047800 0.000000
17.044439 21.047800 0.000000
17.359789 21.047800 0.000000
17.675138 21.047800 0.000000
17.990490 21.047800 0.000000
18.305840 21.047800 35.746597
18.621189 21.047800 36.558857
18.936539 21.047800 0.000000
19.251888 21.047800 0.000000
-7.237510 20.732450 0.000000
-6.922160 20.732450 0.068188
-6.606810 20.732450 0.066079
-6.291460 20.732450 0.066342
-5.976110 20.732450 0.066678
-5.660760 20.732450 0.066984
-5.345410 20.732450 0.067296
-5.030060 20.732450 0.066790
-4.714710 20.732450 0.065698
-4.399360 20.732450 0.064198
-4.084010 20.732450 0.062646
-3.768660 20.732450 0.061273
-3.453310 20.732450 0.060367
-3.137960 20.732450 0.059879
-2.822610 20.732450 0.060142
-2.507260 20.732450 0.060727
-2.191910 20.732450 0.061530
-1.876560 20.732450 0.062260
-1.561210 20.732450 0.063265
-1.245860 20.732450 0.064061
-0.930510 20.732450 0.064759
-0.615160 20.732450 0.065106
-0.299810 20.732450 0.065086
0.015540 20.732450 0.064501
0.330890 20.732450 0.063639
0.646240 20.732450 0.062466
0.961589 20.732450 0.060903
1.276940 20.732450 0.060014
1.592289 20.732450 0.059788
1.907640 20.732450 0.059930
2.222990 20.732450 0.060492
2.538340 20.732450 0.061854
2.853690 20.732450 0.063816
3.169039 20.732450 0.065579
3.484390 20.732450 0.067325
3.799739 20.732450 0.068995
4.115090 20.732450 0.070499
4.430439 20.732450 0.071483
4.745790 20.732450 0.071773
5.061140 20.732450 0.072311
5.376490 20.732450 0.073693
5.691840 20.732450 0.075696
6.007189 20.732450 0.078630
6.322540 20.732450 0.083216
6.637889 20.732450 0.089516
6.953240 20.732450 0.098490
7.268589 20.732450 0.110670
7.583940 20.732450 0.129719
7.899290 20.732450 0.159159
8.214640 20.732450 0.215908
8.529989 20.732450 0.320766
8.845339 20.732450 0.483731
9.160688 20.732450 0.723139
9.476040 20.732450 0.985054
9.791389 20.732450 1.277991
10.106739 20.732450 1.542270
10.422089 20.732450 1.794363
10.737438 20.732450 2.069738
11.052790 20.732450 2.344461
11.368139 20.732450 2.635406
11.683489 20.732450 2.885277
11.998838 20.732450 3.192606
12.314190 20.732450 3.407317
12.629539 20.732450 3.726826
12.944889 20.732450 4.023281
13.260239 20.732450 4.165844
13.575588 20.732450 4.246689
13.890940 20.732450 4.256660
14.206289 20.732450 4.026914
14.521639 20.732450 3.909634
14.836988 20.732450 3.809270
15.152340 20.732450 4.009638
15.467690 20.732450 4.438384
15.783039 20.732450 0.000000
16.098389 20.732450 0.000000
16.413738 20.732450 0.000000
16.729090 20.732450 0.000000
17.044439 20.732450 0.000000
17.359789 20.732450 0.000000
17.675138 20.732450 0.000000
17.990490 20.732450 0.000000
18.305840 20.732450 36.851494
18.621189 20.732450 37.525650
18.936539 20.732450 0.000000
19.251888 20.732450 0.000000
-7.237510 20.417101 0.000000
-6.922160 20.417101 0.069469
-6.606810 20.417101 0.067036
-6.291460 20.417101 0.066810
-5.976110 20.417101 0.066430
-5.660760 20.417101 0.066000
-5.345410 20.417101 0.065557
-5.030060 20.417101 0.064710
-4.714710 20.417101 0.063373
-4.399360 20.417101 0.062082
-4.084010 20.417101 0.060878
-3.768660 20.417101 0.060211
-3.453310 20.417101 0.059849
-3.137960 20.417101 0.059937
-2.822610 20.417101 0.060905
-2.507260 20.417101 0.062214
-2.191910 20.417101 0.063372
-1.876560 20.417101 0.064112
-1.561210 20.417101 0.064663
-1.245860 20.417101 0.064904
-0.930510 20.417101 0.064901
-0.615160 20.417101 0.064347
-0.299810 20.417101 0.063527
0.015540 20.417101 0.062320
0.330890 20.417101 0.061248
0.646240 20.417101 0.060142
0.961589 20.417101 0.059051
1.276940 20.417101 0.058696
1.592289 20.417101 0.059398
1.907640 20.417101 0.060527
2.222990 20.417101 0.062037
2.538340 20.417101 0.063746
2.853690 20.417101 0.065852
3.169039 20.417101 0.067371
3.484390 20.417101 0.068324
3.799739 20.417101 0.069085
4.115090 20.417101 0.069704
4.430439 20.417101 0.069875
4.745790 20.417101 0.069757
5.061140 20.417101 0.070199
5.376490 20.417101 0.071780
5.691840 20.417101 0.074418
6.007189 20.417101 0.078233
6.322540 20.417101 0.083660
6.637889 20.417101 0.090990
6.953240 20.417101 0.100157
7.268589 20.417101 0.113099
7.583940 20.417101 0.130030
7.899290 20.417101 0.159567
8.214640 20.417101 0.215447
8.529989 20.417101 0.325049
8.845339 20.417101 0.489201
9.160688 20.417101 0.728476
9.476040 20.417101 1.002010
9.791389 20.417101 1.276630
10.106739 20.417101 1.544364
10.422089 20.417101 1.812859
10.737438 20.417101 2.080093
11.052790 20.417101 2.369020
11.368139 20.417101 2.642877
11.683489 20.417101 2.947393
11.998838 20.417101 3.153065
12.314190 20.417101 3.419371
12.629539 20.417101 3.713928
12.944889 20.417101 4.069567
13.260239 20.417101 4.172790
13.575588 20.417101 4.298837
13.890940 20.417101 4.208909
14.206289 20.417101 4.056660
14.521639 20.417101 3.891337
14.836988 20.417101 3.917023
15.152340 20.417101 4.157413
15.467690 20.417101 4.540679
15.783039 20.417101 0.000000
16.098389 20.417101 0.000000
16.413738 20.417101 0.000000
16.729090 20.417101 0.000000
17.044439 20.417101 0.000000
17.359789 20.417101 0.000000
17.675138 20.417101 0.000000
17.990490 20.417101 0.000000
18.305840 20.417101 37.151791
18.621189 20.417101 38.538853
18.936539 20.417101 0.000000
19.251888 20.417101 0.000000
-7.237510 20.101751 0.000000
-6.922160 20.101751 0.069627
-6.606810 20.101751 0.066847
-6.291460 20.101751 0.066092
-5.976110 20.101751 0.065148
-5.660760 20.101751 0.064110
-5.345410 20.101751 0.063199
-5.030060 20.101751 0.062362
-4.714710 20.101751 0.061338
-4.399360 20.101751 0.060606
-4.084010 20.101751 0.060336
-3.768660 20.101751 0.060504
-3.453310 20.101751 0.060819
-3.137960 20.101751 0.061369
-2.822610 20.101751 0.062556
-2.507260 20.101751 0.063912
-2.191910 20.101751 0.064890
-1.876560 20.101751 0.065191
-1.561210 20.101751 0.064976
-1.245860 20.101751 0.064527
-0.930510 20.101751 0.063703
-0.615160 20.101751 0.062513
-0.299810 20.101751 0.061107
0.015540 20.101751 0.059843
0.330890 20.101751 0.059183
0.646240 20.101751 0.058802
0.961589 20.101751 0.058587
1.276940 20.101751 0.059111
1.592289 20.101751 0.060355
1.907640 20.101751 0.062087
2.222990 20.101751 0.063966
2.538340 20.101751 0.065624
2.853690 20.101751 0.067144
3.169039 20.101751 0.067958
3.484390 20.101751 0.067982
3.799739 20.101751 0.067873
4.115090 20.101751 0.067747
4.430439 20.101751 0.067682
4.745790 20.101751 0.067912
5.061140 20.101751 0.068797
5.376490 20.101751 0.070984
5.691840 20.101751 0.074375
6.007189 20.101751 0.078982
6.322540 20.101751 0.084939
6.637889 20.101751 0.092535
6.953240 20.101751 0.101432
7.268589 20.101751 0.113454
7.583940 20.101751 0.130892
7.899290 20.101751 0.161565
8.214640 20.101751 0.221134
8.529989 20.101751 0.330697
8.845339 20.101751 0.496864
9.160688 20.101751 0.738632
9.476040 20.101751 1.020618
9.791389 20.101751 1.285569
10.106739 20.101751 1.534874
10.422089 20.101751 1.822669
10.737438 20.101751 2.100015
11.052790 20.101751 2.364059
11.368139 20.101751 2.673852
11.683489 20.101751 2.933692
11.998838 20.101751 3.190743
12.314190 20.101751 3.411148
12.629539 20.101751 3.715617
12.944889 20.101751 3.907702
13.260239 20.101751 4.197811
13.575588 20.101751 4.324297
13.890940 20.101751 4.263311
14.206289 20.101751 3.996785
14.521639 20.101751 4.012967
14.836988 20.101751 3.893381
15.152340 20.101751 4.234486
15.467690 20.101751 4.829047
15.783039 20.101751 0.000000
16.098389 20.101751 0.000000
16.413738 20.101751 0.000000
16.729090 20.101751 0.000000
17.044439 20.101751 0.000000
17.359789 20.101751 0.000000
17.675138 20.101751 0.000000
17.990490 20.101751 0.000000
18.305840 20.101751 38.604382
18.621189 20.101751 40.003441
18.936539 20.101751 0.000000
19.251888 20.101751 0.000000
-7.237510 19.786402 0.000000
-6.922160 19.786402 0.068568
-6.606810 19.786402 0.065564
-6.291460 19.786402 0.064478
-5.976110 19.786402 0.063242
-5.660760 19.786402 0.062012
-5.345410 19.786402 0.061140
-5.030060 19.786402 0.060693
-4.714710 19.786402 0.060422
-4.399360 19.786402 0.060522
-4.084010 19.786402 0.061180
-3.768660 19.786402 0.062133
-3.453310 19.786402 0.062745
-3.137960 19.786402 0.063345
-2.822610 19.786402 0.064151
-2.507260 19.786402 0.064922
-2.191910 19.786402 0.065204
-1.876560 19.786402 0.064921
-1.561210 19.786402 0.063902
-1.245860 19.786402 0.062822
-0.930510 19.786402 0.061653
-0.615160 19.786402 0.060280
-0.299810 19.786402 0.059090
0.015540 19.786402 0.058266
0.330890 19.786402 0.058352
0.646240 19.786402 0.058937
0.961589 19.786402 0.059591
1.276940 19.786402 0.060687
1.592289 19.786402 0.062272
1.907640 19.786402 0.063908
2.222990 19.786402 0.065334
2.538340 19.786402 0.066359
2.853690 19.786402 0.067091
3.169039 19.786402 0.067067
3.484390 19.786402 0.066273
3.799739 19.786402 0.065861
4.115090 19.786402 0.065832
4.430439 19.786402 0.066181
4.745790 19.786402 0.066999
5.061140 19.786402 0.068644
5.376490 19.786402 0.071360
5.691840 19.786402 0.075258
6.007189 19.786402 0.080185
6.322540 19.786402 0.086059
6.637889 19.786402 0.093161
6.953240 19.786402 0.101812
7.268589 19.786402 0.113426
7.583940 19.786402 0.131226
7.899290 19.786402 0.162714
8.214640 19.786402 0.222560
8.529989 19.786402 0.325959
8.845339 19.786402 0.502576
9.160688 19.786402 0.749392
9.476040 19.786402 1.003998
9.791389 19.786402 1.285292
10.106739 19.786402 1.555738
10.422089 19.786402 1.840035
10.737438 19.786402 2.123926
11.052790 19.786402 2.411006
11.368139 19.786402 2.681757
11.683489 19.786402 2.979140
11.998838 19.786402 3.193989
12.314190 19.786402 3.481436
12.629539 19.786402 3.741012
12.944889 19.786402 3.955754
13.260239 19.786402 4.219069
13.575588 19.786402 4.326114
13.890940 19.786402 4.280187
14.206289 19.786402 4.124660
14.521639 19.786402 4.115829
14.836988 19.786402 4.095191
15.152340 19.786402 4.371887
15.467690 19.786402 4.667195
15.783039 19.786402 0.000000
16.098389 19.786402 0.000000
16.413738 19.786402 0.000000
16.729090 19.786402 0.000000
17.044439 19.786402 0.000000
17.359789 19.786402 0.000000
17.675138 19.786402 0.000000
17.990490 19.786402 0.000000
18.305840 19.786402 38.275578
18.621189 19.786402 40.034138
18.936539 19.786402 0.000000
19.251888 19.786402 0.000000
-7.237510 19.471050 0.000000
-6.922160 19.471050 0.066649
-6.606810 19.471050 0.063724
-6.291460 19.471050 0.062611
-5.976110 19.471050 0.061651
-5.660760 19.471050 0.060704
-5.345410 19.471050 0.060239
-5.030060 19.471050 0.060417
-4.714710 19.471050 0.060888
-4.399360 19.471050 0.061774
-4.084010 19.471050 0.062951
-3.768660 19.471050 0.064152
-3.453310 19.471050 0.064643
-3.137960 19.471050 0.064701
-2.822610 19.471050 0.064629
-2.507260 19.471050 0.064506
-2.191910 19.471050 0.064050
-1.876560 19.471050 0.063138
-1.561210 19.471050 0.061845
-1.245860 19.471050 0.060630
-0.930510 19.471050 0.059609
-0.615160 19.471050 0.058751
-0.299810 19.471050 0.058123
0.015540 19.471050 0.058189
0.330890 19.471050 0.059078
0.646240 19.471050 0.060349
0.961589 19.471050 0.061519
1.276940 19.471050 0.062597
1.592289 19.471050 0.063798
1.907640 19.471050 0.064845
2.222990 19.471050 0.065444
2.538340 19.471050 0.065638
2.853690 19.471050 0.065555
3.169039 19.471050 0.065124
3.484390 19.471050 0.064314
3.799739 19.471050 0.064100
4.115090 19.471050 0.064676
4.430439 19.471050 0.065761
4.745790 19.471050 0.067359
5.061140 19.471050 0.069577
5.376490 19.471050 0.072535
5.691840 19.471050 0.076526
6.007189 19.471050 0.081396
6.322540 19.471050 0.086900
6.637889 19.471050 0.093405
6.953240 19.471050 0.101461
7.268589 19.471050 0.112676
7.583940 19.471050 0.130344
7.899290 19.471050 0.162814
8.214640 19.471050 0.226467
8.529989 19.471050 0.337207
8.845339 19.471050 0.506987
9.160688 19.471050 0.766741
9.476040 19.471050 1.007614
9.791389 19.471050 1.295508
10.106739 19.471050 1.567773
10.422089 19.471050 1.840983
10.737438 19.471050 2.113895
11.052790 19.471050 2.403226
11.368139 19.471050 2.696352
11.683489 19.471050 2.913698
11.998838 19.471050 3.229277
12.314190 19.471050 3.479210
12.629539 19.471050 3.738325
12.944889 19.471050 3.959714
13.260239 19.471050 4.142873
13.575588 19.471050 4.360887
13.890940 19.471050 4.269493
14.206289 19.471050 4.281857
14.521639 19.471050 4.135706
14.836988 19.471050 4.184299
15.152340 19.471050 4.358731
15.467690 19.471050 4.602138
15.783039 19.471050 0.000000
16.098389 19.471050 0.000000
16.413738 19.471050 0.000000
16.729090 19.471050 0.000000
17.044439 19.471050 0.000000
17.359789 19.471050 0.000000
17.675138 19.471050 0.000000
17.990490 19.471050 0.000000
18.305840 19.471050 38.606537
18.621189 19.471050 40.081211
18.936539 19.471050 0.000000
19.251888 19.471050 0.000000
-7.237510 19.155701 0.000000
-6.922160 19.155701 0.064754
-6.606810 19.155701 0.062156
-6.291460 19.155701 0.061495
-5.976110 19.155701 0.061126
-5.660760 19.155701 0.060835
-5.345410 19.155701 0.060908
-5.030060 19.155701 0.061565
-4.714710 19.155701 0.062571
-4.399360 19.155701 0.063694
-4.084010 19.155701 0.064704
-3.768660 19.155701 0.065489
-3.453310 19.155701 0.065428
-3.137960 19.155701 0.064673
-2.822610 19.155701 0.063598
-2.507260 19.155701 0.062672
-2.191910 19.155701 0.061745
-1.876560 19.155701 0.060705
-1.561210 19.155701 0.059747
-1.245860 19.155701 0.059001
-0.930510 19.155701 0.058564
-0.615160 19.155701 0.058475
-0.299810 19.155701 0.058634
0.015540 19.155701 0.059495
0.330890 19.155701 0.060956
0.646240 19.155701 0.062468
0.961589 19.155701 0.063422
1.276940 19.155701 0.063873
1.592289 19.155701 0.064175
1.907640 19.155701 0.064370
2.222990 19.155701 0.064191
2.538340 19.155701 0.063806
2.853690 19.155701 0.063391
3.169039 19.155701 0.063107
3.484390 19.155701 0.062939
3.799739 19.155701 0.063382
4.115090 19.155701 0.064713
4.430439 19.155701 0.066546
4.745790 19.155701 0.068662
5.061140 19.155701 0.071126
5.376490 19.155701 0.073824
5.691840 19.155701 0.077411
6.007189 19.155701 0.081908
6.322540 19.155701 0.086605
6.637889 19.155701 0.092876
6.953240 19.155701 0.100680
7.268589 19.155701 0.111717
7.583940 19.155701 0.130824
7.899290 19.155701 0.162398
8.214640 19.155701 0.232127
8.529989 19.155701 0.347708
8.845339 19.155701 0.518767
9.160688 19.155701 0.769346
9.476040 19.155701 1.016751
9.791389 19.155701 1.284680
10.106739 19.155701 1.563101
10.422089 19.155701 1.844032
10.737438 19.155701 2.109359
11.052790 19.155701 2.411511
11.368139 19.155701 2.675620
11.683489 19.155701 2.951993
11.998838 19.155701 3.234365
12.314190 19.155701 3.524466
12.629539 19.155701 3.803232
12.944889 19.155701 3.983120
13.260239 19.155701 4.119249
13.575588 19.155701 4.335596
13.890940 19.155701 4.320962
14.206289 19.155701 4.259810
14.521639 19.155701 4.172840
14.836988 19.155701 4.097860
15.152340 19.155701 4.407971
15.467690 19.155701 4.616499
15.783039 19.155701 0.000000
16.098389 19.155701 0.000000
16.413738 19.155701 0.000000
16.729090 19.155701 0.000000
17.044439 19.155701 0.000000
17.359789 19.155701 0.000000
17.675138 19.155701 0.000000
17.990490 19.155701 0.000000
18.305840 19.155701 38.452587
18.621189 19.155701 39.339821
18.936539 19.155701 0.000000
19.251888 19.155701 0.000000
-7.237510 18.840351 0.000000
-6.922160 18.840351 0.063518
-6.606810 18.840351 0.061542
-6.291460 18.840351 0.061584
-5.976110 18.840351 0.061918
-5.660760 18.840351 0.062238
-5.345410 18.840351 0.062747
-5.030060 18.840351 0.063482
-4.714710 18.840351 0.064441
-4.399360 18.840351 0.065094
-4.084010 18.840351 0.065358
-3.768660 18.840351 0.065322
-3.453310 18.840351 0.064627
-3.137960 18.840351 0.063181
-2.822610 18.840351 0.061540
-2.507260 18.840351 0.060352
-2.191910 18.840351 0.059466
-1.876560 18.840351 0.058885
-1.561210 18.840351 0.058737
-1.245860 18.840351 0.058804
-0.930510 18.840351 0.059048
-0.615160 18.840351 0.059621
-0.299810 18.840351 0.060357
0.015540 18.840351 0.061419
0.330890 18.840351 0.062821
0.646240 18.840351 0.063956
0.961589 18.840351 0.064283
1.276940 18.840351 0.063892
1.592289 18.840351 0.063241
1.907640 18.840351 0.062762
2.222990 18.840351 0.062308
2.538340 18.840351 0.061917
2.853690 18.840351 0.061739
3.169039 18.840351 0.062081
3.484390 18.840351 0.062780
3.799739 18.840351 0.063942
4.115090 18.840351 0.065770
4.430439 18.840351 0.067958
4.745790 18.840351 0.070098
5.061140 18.840351 0.072340
5.376490 18.840351 0.074602
5.691840 18.840351 0.077620
6.007189 18.840351 0.081483
6.322540 18.840351 0.086032
6.637889 18.840351 0.091964
6.953240 18.840351 0.099833
7.268589 18.840351 0.111578
7.583940 18.840351 0.130595
7.899290 18.840351 0.164625
8.214640 18.840351 0.233465
8.529989 18.840351 0.349496
8.845339 18.840351 0.527434
9.160688 18.840351 0.765189
9.476040 18.840351 1.024035
9.791389 18.840351 1.302554
10.106739 18.840351 1.566726
10.422089 18.840351 1.856995
10.737438 18.840351 2.095941
11.052790 18.840351 2.392954
11.368139 18.840351 2.686869
11.683489 18.840351 2.974184
11.998838 18.840351 3.262459
12.314190 18.840351 3.544355
12.629539 18.840351 3.807211
12.944889 18.840351 4.083460
13.260239 18.840351 4.120408
13.575588 18.840351 4.283412
13.890940 18.840351 4.291580
14.206289 18.840351 4.320005
14.521639 18.840351 4.183226
14.836988 18.840351 4.176868
15.152340 18.840351 4.439756
15.467690 18.840351 4.676813
15.783039 18.840351 0.000000
16.098389 18.840351 0.000000
16.413738 18.840351 0.000000
16.729090 18.840351 0.000000
17.044439 18.840351 0.000000
17.359789 18.840351 0.000000
17.675138 18.840351 0.000000
17.990490 18.840351 0.000000
18.305840 18.840351 37.829128
18.621189 18.840351 39.016693
18.936539 18.840351 0.000000
19.251888 18.840351 0.000000
-7.237510 18.525002 0.000000
-6.922160 18.525002 0.063907
-6.606810 18.525002 0.062397
-6.291460 18.525002 0.062950
-5.976110 18.525002 0.063666
-5.660760 18.525002 0.064283
-5.345410 18.525002 0.064694
-5.030060 18.525002 0.065116
-4.714710 18.525002 0.065386
-4.399360 18.525002 0.065185
-4.084010 18.525002 0.064477
-3.768660 18.525002 0.063659
-3.453310 18.525002 0.062639
-3.137960 18.525002 0.061117
-2.822610 18.525002 0.059463
-2.507260 18.525002 0.058660
-2.191910 18.525002 0.058392
-1.876560 18.525002 0.058562
-1.561210 18.525002 0.059265
-1.245860 18.525002 0.060015
-0.930510 18.525002 0.060750
-0.615160 18.525002 0.061510
-0.299810 18.525002 0.062143
0.015540 18.525002 0.062712
0.330890 18.525002 0.063485
0.646240 18.525002 0.063982
0.961589 18.525002 0.063648
1.276940 18.525002 0.062668
1.592289 18.525002 0.061555
1.907640 18.525002 0.060890
2.222990 18.525002 0.060682
2.538340 18.525002 0.060796
2.853690 18.525002 0.061159
3.169039 18.525002 0.062210
3.484390 18.525002 0.063710
3.799739 18.525002 0.065360
4.115090 18.525002 0.067089
4.430439 18.525002 0.069168
4.745790 18.525002 0.071029
5.061140 18.525002 0.072709
5.376490 18.525002 0.074632
5.691840 18.525002 0.077266
6.007189 18.525002 0.080863
6.322540 18.525002 0.085405
6.637889 18.525002 0.091307
6.953240 18.525002 0.099605
7.268589 18.525002 0.111658
7.583940 18.525002 0.130175
7.899290 18.525002 0.164375
8.214640 18.525002 0.230403
8.529989 18.525002 0.346400
8.845339 18.525002 0.518693
9.160688 18.525002 0.761668
9.476040 18.525002 1.038164
9.791389 18.525002 1.320264
10.106739 18.525002 1.570677
10.422089 18.525002 1.850515
10.737438 18.525002 2.103117
11.052790 18.525002 2.409375
11.368139 18.525002 2.657823
11.683489 18.525002 2.968798
11.998838 18.525002 3.254223
12.314190 18.525002 3.528371
12.629539 18.525002 3.782758
12.944889 18.525002 3.993646
13.260239 18.525002 4.134096
13.575588 18.525002 4.218984
13.890940 18.525002 4.247123
14.206289 18.525002 4.203018
14.521639 18.525002 4.140511
14.836988 18.525002 4.162470
15.152340 18.525002 4.435881
15.467690 18.525002 4.709023
15.783039 18.525002 0.000000
16.098389 18.525002 0.000000
16.413738 18.525002 0.000000
16.729090 18.525002 0.000000
17.044439 18.525002 0.000000
17.359789 18.525002 0.000000
17.675138 18.525002 0.000000
17.990490 18.525002 0.000000
18.305840 18.525002 36.830681
18.621189 18.525002 38.585506
18.936539 18.525002 0.000000
19.251888 18.525002 0.000000
-7.237510 18.209652 0.000000
-6.922160 18.209652 0.065503
-6.606810 18.209652 0.064209
-6.291460 18.209652 0.064786
-5.976110 18.209652 0.065313
-5.660760 18.209652 0.065666
-5.345410 18.209652 0.065685
-5.030060 18.209652 0.065450
-4.714710 18.209652 0.064834
-4.399360 18.209652 0.063764
-4.084010 18.209652 0.062433
-3.768660 18.209652 0.061282
-3.453310 18.209652 0.060550
-3.137960 18.209652 0.059562
-2.822610 18.209652 0.058547
-2.507260 18.209652 0.058528
-2.191910 18.209652 0.058981
-1.876560 18.209652 0.059813
-1.561210 18.209652 0.060980
-1.245860 18.209652 0.061887
-0.930510 18.209652 0.062588
-0.615160 18.209652 0.062993
-0.299810 18.209652 0.063024
0.015540 18.209652 0.062753
0.330890 18.209652 0.062708
0.646240 18.209652 0.062611
0.961589 18.209652 0.062024
1.276940 18.209652 0.060972
1.592289 18.209652 0.060036
1.907640 18.209652 0.059758
2.222990 18.209652 0.060098
2.538340 18.209652 0.060828
2.853690 18.209652 0.061829
3.169039 18.209652 0.063351
3.484390 18.209652 0.065032
3.799739 18.209652 0.066666
4.115090 18.209652 0.068145
4.430439 18.209652 0.069546
4.745790 18.209652 0.070964
5.061140 18.209652 0.072243
5.376490 18.209652 0.074080
5.691840 18.209652 0.076705
6.007189 18.209652 0.080436
6.322540 18.209652 0.085291
6.637889 18.209652 0.091629
6.953240 18.209652 0.100260
7.268589 18.209652 0.112609
7.583940 18.209652 0.131122
7.899290 18.209652 0.166411
8.214640 18.209652 0.230604
8.529989 18.209652 0.347607
8.845339 18.209652 0.524562
9.160688 18.209652 0.774952
9.476040 18.209652 1.043350
9.791389 18.209652 1.339626
10.106739 18.209652 1.598096
10.422089 18.209652 1.841873
10.737438 18.209652 2.100079
11.052790 18.209652 2.378134
11.368139 18.209652 2.672652
11.683489 18.209652 2.946346
11.998838 18.209652 3.239573
12.314190 18.209652 3.561693
12.629539 18.209652 3.735996
12.944889 18.209652 3.988560
13.260239 18.209652 4.129756
13.575588 18.209652 4.171852
13.890940 18.209652 4.174576
14.206289 18.209652 4.204911
14.521639 18.209652 4.148206
14.836988 18.209652 4.125023
15.152340 18.209652 4.543606
15.467690 18.209652 4.874013
15.783039 18.209652 0.000000
16.098389 18.209652 0.000000
16.413738 18.209652 0.000000
16.729090 18.209652 0.000000
17.044439 18.209652 0.000000
17.359789 18.209652 0.000000
17.675138 18.209652 0.000000
17.990490 18.209652 0.000000
18.305840 18.209652 36.977020
18.621189 18.209652 38.424770
18.936539 18.209652 0.000000
19.251888 18.209652 0.000000
-7.237510 17.894302 0.000000
-6.922160 17.894302 0.067410
-6.606810 17.894302 0.065818
-6.291460 17.894302 0.065855
-5.976110 17.894302 0.065755
-5.660760 17.894302 0.065463
-5.345410 17.894302 0.064974
-5.030060 17.894302 0.064205
-4.714710 17.894302 0.063111
-4.399360 17.894302 0.061710
-4.084010 17.894302 0.060310
-3.768660 17.894302 0.059591
-3.453310 17.894302 0.059593
-3.137960 17.894302 0.059450
-2.822610 17.894302 0.059263
-2.507260 17.894302 0.059856
-2.191910 17.894302 0.060841
-1.876560 17.894302 0.061801
-1.561210 17.894302 0.062765
-1.245860 17.894302 0.063338
-0.930510 17.894302 0.063444
-0.615160 17.894302 0.063216
-0.299810 17.894302 0.062550
0.015540 17.894302 0.061570
0.330890 17.894302 0.060921
0.646240 17.894302 0.060668
0.961589 17.894302 0.060275
1.276940 17.894302 0.059733
1.592289 17.894302 0.059516
1.907640 17.894302 0.059942
2.222990 17.894302 0.060795
2.538340 17.894302 0.061924
2.853690 17.894302 0.063147
3.169039 17.894302 0.064532
3.484390 17.894302 0.065983
3.799739 17.894302 0.067221
4.115090 17.894302 0.068126
4.430439 17.894302 0.069035
4.745790 17.894302 0.070190
5.061140 17.894302 0.071239
5.376490 17.894302 0.073177
5.691840 17.894302 0.076229
6.007189 17.894302 0.080260
6.322540 17.894302 0.085507
6.637889 17.894302 0.092223
6.953240 17.894302 0.100497
7.268589 17.894302 0.112084
7.583940 17.894302 0.132178
7.899290 17.894302 0.167379
8.214640 17.894302 0.230304
8.529989 17.894302 0.355615
8.845339 17.894302 0.530040
9.160688 17.894302 0.783464
9.476040 17.894302 1.057756
9.791389 17.894302 1.346586
10.106739 17.894302 1.601942
10.422089 17.894302 1.846903
10.737438 17.894302 2.098817
11.052790 17.894302 2.361477
11.368139 17.894302 2.670072
11.683489 17.894302 2.961885
11.998838 17.894302 3.273536
12.314190 17.894302 3.533265
12.629539 17.894302 3.783495
12.944889 17.894302 3.974173
13.260239 17.894302 4.121601
13.575588 17.894302 4.251848
13.890940 17.894302 4.154459
14.206289 17.894302 4.180323
14.521639 17.894302 4.266659
14.836988 17.894302 4.295513
15.152340 17.894302 4.663698
15.467690 17.894302 5.107786
15.783039 17.894302 0.000000
16.098389 17.894302 0.000000
16.413738 17.894302 0.000000
16.729090 17.894302 0.000000
17.044439 17.894302 0.000000
17.359789 17.894302 0.000000
17.675138 17.894302 0.000000
17.990490 17.894302 0.000000
18.305840 17.894302 38.180012
18.621189 17.894302 40.156857
18.936539 17.894302 0.000000
19.251888 17.894302 0.000000
-7.237510 17.578953 0.000000
-6.922160 17.578953 0.068294
-6.606810 17.578953 0.066182
-6.291460 17.578953 0.065412
-5.976110 17.578953 0.064534
-5.660760 17.578953 0.063765
-5.345410 17.578953 0.062979
-5.030060 17.578953 0.062215
-4.714710 17.578953 0.061307
-4.399360 17.578953 0.060227
-4.084010 17.578953 0.059443
-3.768660 17.578953 0.059587
-3.453310 17.578953 0.060340
-3.137960 17.578953 0.060798
-2.822610 17.578953 0.061128
-2.507260 17.578953 0.061863
-2.191910 17.578953 0.062748
-1.876560 17.578953 0.063275
-1.561210 17.578953 0.063458
-1.245860 17.578953 0.063248
-0.930510 17.578953 0.062679
-0.615160 17.578953 0.062014
-0.299810 17.578953 0.061148
0.015540 17.578953 0.059975
0.330890 17.578953 0.059319
0.646240 17.578953 0.059311
0.961589 17.578953 0.059508
1.276940 17.578953 0.059690
1.592289 17.578953 0.060156
1.907640 17.578953 0.061093
2.222990 17.578953 0.062186
2.538340 17.578953 0.063310
2.853690 17.578953 0.064276
3.169039 17.578953 0.065046
3.484390 17.578953 0.066042
3.799739 17.578953 0.066762
4.115090 17.578953 0.067385
4.430439 17.578953 0.068070
4.745790 17.578953 0.069241
5.061140 17.578953 0.070605
5.376490 17.578953 0.072729
5.691840 17.578953 0.075998
6.007189 17.578953 0.080205
6.322540 17.578953 0.085799
6.637889 17.578953 0.092437
6.953240 17.578953 0.100821
7.268589 17.578953 0.112982
7.583940 17.578953 0.133324
7.899290 17.578953 0.167461
8.214640 17.578953 0.235212
8.529989 17.578953 0.366698
8.845339 17.578953 0.554280
9.160688 17.578953 0.806142
9.476040 17.578953 1.065766
9.791389 17.578953 1.352202
10.106739 17.578953 1.594530
10.422089 17.578953 1.861048
10.737438 17.578953 2.108771
11.052790 17.578953 2.391873
11.368139 17.578953 2.651453
11.683489 17.578953 2.934306
11.998838 17.578953 3.260676
12.314190 17.578953 3.534868
12.629539 17.578953 3.746433
12.944889 17.578953 3.916456
13.260239 17.578953 4.045795
13.575588 17.578953 4.277561
13.890940 17.578953 4.229516
14.206289 17.578953 4.171226
14.521639 17.578953 4.279005
14.836988 17.578953 4.309489
15.152340 17.578953 4.847587
15.467690 17.578953 5.246871
15.783039 17.578953 0.000000
16.098389 17.578953 0.000000
16.413738 17.578953 0.000000
16.729090 17.578953 0.000000
17.044439 17.578953 0.000000
17.359789 17.578953 0.000000
17.675138 17.578953 0.000000
17.990490 17.578953 0.000000
18.305840 17.578953 40.758015
18.621189 17.578953 42.454445
18.936539 17.578953 0.000000
19.251888 17.578953 0.000000
-7.237510 17.263599 0.000000
-6.922160 17.263599 0.067542
-6.606810 17.263599 0.065021
-6.291460 17.263599 0.063714
-5.976110 17.263599 0.062512
-5.660760 17.263599 0.061671
-5.345410 17.263599 0.061162
-5.030060 17.263599 0.060868
-4.714710 17.263599 0.060519
-4.399360 17.263599 0.060165
-4.084010 17.263599 0.060193
-3.768660 17.263599 0.061130
-3.453310 17.263599 0.062257
-3.137960 17.263599 0.062801
-2.822610 17.263599 0.063009
-2.507260 17.263599 0.063346
-2.191910 17.263599 0.063631
-1.876560 17.263599 0.063425
-1.561210 17.263599 0.062779
-1.245860 17.263599 0.061864
-0.930510 17.263599 0.060991
-0.615160 17.263599 0.060364
-0.299810 17.263599 0.059658
0.015540 17.263599 0.058955
0.330890 17.263599 0.058734
0.646240 17.263599 0.059242
0.961589 17.263599 0.059998
1.276940 17.263599 0.060604
1.592289 17.263599 0.061436
1.907640 17.263599 0.062561
2.222990 17.263599 0.063498
2.538340 17.263599 0.064206
2.853690 17.263599 0.064551
3.169039 17.263599 0.064836
3.484390 17.263599 0.065275
3.799739 17.263599 0.065736
4.115090 17.263599 0.066316
4.430439 17.263599 0.067138
4.745790 17.263599 0.068368
5.061140 17.263599 0.070245
5.376490 17.263599 0.072691
5.691840 17.263599 0.075815
6.007189 17.263599 0.080370
6.322540 17.263599 0.086125
6.637889 17.263599 0.092841
6.953240 17.263599 0.101140
7.268589 17.263599 0.114221
7.583940 17.263599 0.133156
7.899290 17.263599 0.169589
8.214640 17.263599 0.242573
8.529989 17.263599 0.370992
8.845339 17.263599 0.568509
9.160688 17.263599 0.814316
9.476040 17.263599 1.083134
9.791389 17.263599 1.361716
10.106739 17.263599 1.587857
10.422089 17.263599 1.865788
10.737438 17.263599 2.136069
11.052790 17.263599 2.422821
11.368139 17.263599 2.680614
11.683489 17.263599 2.925946
11.998838 17.263599 3.267280
12.314190 17.263599 3.554858
12.629539 17.263599 3.712265
12.944889 17.263599 3.916987
13.260239 17.263599 4.101170
13.575588 17.263599 4.211480
13.890940 17.263599 4.162325
14.206289 17.263599 4.163438
14.521639 17.263599 4.290051
14.836988 17.263599 4.329687
15.152340 17.263599 5.045908
15.467690 17.263599 5.278146
15.783039 17.263599 0.000000
16.098389 17.263599 0.000000
16.413738 17.263599 0.000000
16.729090 17.263599 0.000000
17.044439 17.263599 0.000000
17.359789 17.263599 0.000000
17.675138 17.263599 0.000000
17.990490 17.263599 36.202713
18.305840 17.263599 44.042614
18.621189 17.263599 45.451061
18.936539 17.263599 0.000000
19.251888 17.263599 0.000000
-7.237510 16.948250 0.000000
-6.922160 16.948250 0.065650
-6.606810 16.948250 0.063081
-6.291460 16.948250 0.061903
-5.976110 16.948250 0.060985
-5.660760 16.948250 0.060674
-5.345410 16.948250 0.060758
-5.030060 16.948250 0.061068
-4.714710 16.948250 0.061301
-4.399360 16.948250 0.061517
-4.084010 16.948250 0.062141
-3.768660 16.948250 0.063235
-3.453310 16.948250 0.064039
-3.137960 16.948250 0.064201
-2.822610 16.948250 0.063824
-2.507260 16.948250 0.063391
-2.191910 16.948250 0.062983
-1.876560 16.948250 0.062284
-1.561210 16.948250 0.061280
-1.245860 16.948250 0.060179
-0.930510 16.948250 0.059546
-0.615160 16.948250 0.059361
-0.299810 16.948250 0.059211
0.015540 16.948250 0.059155
0.330890 16.948250 0.059404
0.646240 16.948250 0.060232
0.961589 16.948250 0.061173
1.276940 16.948250 0.061835
1.592289 16.948250 0.062606
1.907640 16.948250 0.063515
2.222990 16.948250 0.064163
2.538340 16.948250 0.064318
2.853690 16.948250 0.064183
3.169039 16.948250 0.064117
3.484390 16.948250 0.064389
3.799739 16.948250 0.064739
4.115090 16.948250 0.065492
4.430439 16.948250 0.066518
4.745790 16.948250 0.068140
5.061140 16.948250 0.070262
5.376490 16.948250 0.072774
5.691840 16.948250 0.076038
6.007189 16.948250 0.080595
6.322540 16.948250 0.086369
6.637889 16.948250 0.093421
6.953240 16.948250 0.102401
7.268589 16.948250 0.114995
7.583940 16.948250 0.134398
7.899290 16.948250 0.172382
8.214640 16.948250 0.244067
8.529989 16.948250 0.378862
8.845339 16.948250 0.580759
9.160688 16.948250 0.839442
9.476040 16.948250 1.095913
9.791389 16.948250 1.360109
10.106739 16.948250 1.612570
10.422089 16.948250 1.896909
10.737438 16.948250 2.173923
11.052790 16.948250 2.447050
11.368139 16.948250 2.699377
11.683489 16.948250 2.957572
11.998838 16.948250 3.249539
12.314190 16.948250 3.547132
12.629539 16.948250 3.714752
12.944889 16.948250 3.932534
13.260239 16.948250 4.068789
13.575588 16.948250 4.226223
13.890940 16.948250 4.140531
14.206289 16.948250 4.197879
14.521639 16.948250 4.325345
14.836988 16.948250 4.676109
15.152340 16.948250 5.113331
15.467690 16.948250 5.577399
15.783039 16.948250 0.000000
16.098389 16.948250 0.000000
16.413738 16.948250 0.000000
16.729090 16.948250 0.000000
17.044439 16.948250 0.000000
17.359789 16.948250 0.000000
17.675138 16.948250 0.000000
17.990490 16.948250 40.224842
18.305840 16.948250 45.399990
18.621189 16.948250 46.435650
18.936539 16.948250 0.000000
19.251888 16.948250 0.000000
-7.237510 16.632900 0.000000
-6.922160 16.632900 0.063816
-6.606810 16.632900 0.061701
-6.291460 16.632900 0.061270
-5.976110 16.632900 0.061090
-5.660760 16.632900 0.061487
-5.345410 16.632900 0.062068
-5.030060 16.632900 0.062699
-4.714710 16.632900 0.063076
-4.399360 16.632900 0.063452
-4.084010 16.632900 0.063959
-3.768660 16.632900 0.064514
-3.453310 16.632900 0.064605
-3.137960 16.632900 0.063970
-2.822610 16.632900 0.063156
-2.507260 16.632900 0.062298
-2.191910 16.632900 0.061504
-1.876560 16.632900 0.060816
-1.561210 16.632900 0.059983
-1.245860 16.632900 0.059338
-0.930510 16.632900 0.059237
-0.615160 16.632900 0.059660
-0.299810 16.632900 0.060088
0.015540 16.632900 0.060424
0.330890 16.632900 0.060856
0.646240 16.632900 0.061513
0.961589 16.632900 0.062128
1.276940 16.632900 0.062496
1.592289 16.632900 0.063010
1.907640 16.632900 0.063615
2.222990 16.632900 0.064026
2.538340 16.632900 0.063932
2.853690 16.632900 0.063600
3.169039 16.632900 0.063431
3.484390 16.632900 0.063748
3.799739 16.632900 0.064298
4.115090 16.632900 0.065252
4.430439 16.632900 0.066505
4.745790 16.632900 0.068205
5.061140 16.632900 0.070361
5.376490 16.632900 0.072920
5.691840 16.632900 0.076409
6.007189 16.632900 0.081103
6.322540 16.632900 0.086838
6.637889 16.632900 0.094379
6.953240 16.632900 0.103600
7.268589 16.632900 0.116066
7.583940 16.632900 0.135226
7.899290 16.632900 0.173466
8.214640 16.632900 0.246687
8.529989 16.632900 0.385886
8.845339 16.632900 0.582781
9.160688 16.632900 0.840365
9.476040 16.632900 1.104485
9.791389 16.632900 1.370442
10.106739 16.632900 1.648501
10.422089 16.632900 1.927874
10.737438 16.632900 2.188118
11.052790 16.632900 2.460924
11.368139 16.632900 2.694491
11.683489 16.632900 2.942134
11.998838 16.632900 3.206760
12.314190 16.632900 3.549924
12.629539 16.632900 3.708307
12.944889 16.632900 3.951093
13.260239 16.632900 4.082903
13.575588 16.632900 4.202976
13.890940 16.632900 4.237981
14.206289 16.632900 4.197042
14.521639 16.632900 4.381295
14.836988 16.632900 4.803143
15.152340 16.632900 5.325899
15.467690 16.632900 5.725783
15.783039 16.632900 0.000000
16.098389 16.632900 0.000000
16.413738 16.632900 0.000000
16.729090 16.632900 0.000000
17.044439 16.632900 0.000000
17.359789 16.632900 0.000000
17.675138 16.632900 0.000000
17.990490 16.632900 41.750942
18.305840 16.632900 45.884220
18.621189 16.632900 46.015854
18.936539 16.632900 0.000000
19.251888 16.632900 0.000000
-7.237510 16.317551 0.000000
-6.922160 16.317551 0.063367
-6.606810 16.317551 0.061960
-6.291460 16.317551 0.062314
-5.976110 16.317551 0.062856
-5.660760 16.317551 0.063544
-5.345410 16.317551 0.064110
-5.030060 16.317551 0.064455
-4.714710 16.317551 0.064535
-4.399360 16.317551 0.064562
-4.084010 16.317551 0.064539
-3.768660 16.317551 0.064281
-3.453310 16.317551 0.063671
-3.137960 16.317551 0.062619
-2.822610 16.317551 0.061734
-2.507260 16.317551 0.060956
-2.191910 16.317551 0.060444
-1.876560 16.317551 0.060031
-1.561210 16.317551 0.059774
-1.245860 16.317551 0.059734
-0.930510 16.317551 0.060232
-0.615160 16.317551 0.060964
-0.299810 16.317551 0.061558
0.015540 16.317551 0.061835
0.330890 16.317551 0.061986
0.646240 16.317551 0.062156
0.961589 16.317551 0.062259
1.276940 16.317551 0.062297
1.592289 16.317551 0.062614
1.907640 16.317551 0.063075
2.222990 16.317551 0.063448
2.538340 16.317551 0.063409
2.853690 16.317551 0.063110
3.169039 16.317551 0.063196
3.484390 16.317551 0.063677
3.799739 16.317551 0.064400
4.115090 16.317551 0.065530
4.430439 16.317551 0.066927
4.745790 16.317551 0.068408
5.061140 16.317551 0.070608
5.376490 16.317551 0.073393
5.691840 16.317551 0.076969
6.007189 16.317551 0.081900
6.322540 16.317551 0.087691
6.637889 16.317551 0.095094
6.953240 16.317551 0.104529
7.268589 16.317551 0.116876
7.583940 16.317551 0.136824
7.899290 16.317551 0.176395
8.214640 16.317551 0.249891
8.529989 16.317551 0.389524
8.845339 16.317551 0.593516
9.160688 16.317551 0.846822
9.476040 16.317551 1.108057
9.791389 16.317551 1.390385
10.106739 16.317551 1.668165
10.422089 16.317551 1.934263
10.737438 16.317551 2.206451
11.052790 16.317551 2.459545
11.368139 16.317551 2.707248
11.683489 16.317551 2.974187
11.998838 16.317551 3.234249
12.314190 16.317551 3.540051
12.629539 16.317551 3.755448
12.944889 16.317551 3.949075
13.260239 16.317551 4.082572
13.575588 16.317551 4.183084
13.890940 16.317551 4.310336
14.206289 16.317551 4.349086
14.521639 16.317551 4.473011
14.836988 16.317551 4.711450
15.152340 16.317551 5.510768
15.467690 16.317551 5.565611
15.783039 16.317551 0.000000
16.098389 16.317551 0.000000
16.413738 16.317551 0.000000
16.729090 16.317551 0.000000
17.044439 16.317551 0.000000
17.359789 16.317551 0.000000
17.675138 16.317551 0.000000
17.990490 16.317551 40.263504
18.305840 16.317551 43.236904
18.621189 16.317551 44.158695
18.936539 16.317551 0.000000
19.251888 16.317551 0.000000
-7.237510 16.002201 0.000000
-6.922160 16.002201 0.064617
-6.606810 16.002201 0.063702
-6.291460 16.002201 0.064460
-5.976110 16.002201 0.065037
-5.660760 16.002201 0.065463
-5.345410 16.002201 0.065527
-5.030060 16.002201 0.065143
-4.714710 16.002201 0.064689
-4.399360 16.002201 0.064233
-4.084010 16.002201 0.063681
-3.768660 16.002201 0.062822
-3.453310 16.002201 0.061940
-3.137960 16.002201 0.061226
-2.822610 16.002201 0.060720
-2.507260 16.002201 0.060383
-2.191910 16.002201 0.060452
-1.876560 16.002201 0.060605
-1.561210 16.002201 0.060719
-1.245860 16.002201 0.061205
-0.930510 16.002201 0.061821
-0.615160 16.002201 0.062376
-0.299810 16.002201 0.062672
0.015540 16.002201 0.062558
0.330890 16.002201 0.062276
0.646240 16.002201 0.061997
0.961589 16.002201 0.061709
1.276940 16.002201 0.061699
1.592289 16.002201 0.061882
1.907640 16.002201 0.062361
2.222990 16.002201 0.062863
2.538340 16.002201 0.063102
2.853690 16.002201 0.063208
3.169039 16.002201 0.063540
3.484390 16.002201 0.064015
3.799739 16.002201 0.064857
4.115090 16.002201 0.066082
4.430439 16.002201 0.067437
4.745790 16.002201 0.068932
5.061140 16.002201 0.071045
5.376490 16.002201 0.073842
5.691840 16.002201 0.077652
6.007189 16.002201 0.082335
6.322540 16.002201 0.087982
6.637889 16.002201 0.094958
6.953240 16.002201 0.103825
7.268589 16.002201 0.116315
7.583940 16.002201 0.137237
7.899290 16.002201 0.176309
8.214640 16.002201 0.254421
8.529989 16.002201 0.397372
8.845339 16.002201 0.611012
9.160688 16.002201 0.857833
9.476040 16.002201 1.117337
9.791389 16.002201 1.408773
10.106739 16.002201 1.689314
10.422089 16.002201 1.953543
10.737438 16.002201 2.220455
11.052790 16.002201 2.450262
11.368139 16.002201 2.685159
11.683489 16.002201 2.955893
11.998838 16.002201 3.262213
12.314190 16.002201 3.544183
12.629539 16.002201 3.767984
12.944889 16.002201 3.913121
13.260239 16.002201 4.069673
13.575588 16.002201 4.129717
13.890940 16.002201 4.294586
14.206289 16.002201 4.420850
14.521639 16.002201 4.449574
14.836988 16.002201 4.700554
15.152340 16.002201 5.679023
15.467690 16.002201 6.101551
15.783039 16.002201 0.000000
16.098389 16.002201 0.000000
16.413738 16.002201 0.000000
16.729090 16.002201 0.000000
17.044439 16.002201 0.000000
17.359789 16.002201 0.000000
17.675138 16.002201 0.000000
17.990490 16.002201 36.136223
18.305840 16.002201 40.571529
18.621189 16.002201 41.920891
18.936539 16.002201 0.000000
19.251888 16.002201 0.000000
-7.237510 15.686852 0.000000
-6.922160 15.686852 0.066530
-6.606810 15.686852 0.065415
-6.291460 15.686852 0.066056
-5.976110 15.686852 0.066186
-5.660760 15.686852 0.065894
-5.345410 15.686852 0.065242
-5.030060 15.686852 0.064327
-4.714710 15.686852 0.063584
-4.399360 15.686852 0.062995
-4.084010 15.686852 0.062373
-3.768660 15.686852 0.061505
-3.453310 15.686852 0.060856
-3.137960 15.686852 0.060685
-2.822610 15.686852 0.060751
-2.507260 15.686852 0.061051
-2.191910 15.686852 0.061565
-1.876560 15.686852 0.061954
-1.561210 15.686852 0.062122
-1.245860 15.686852 0.062606
-0.930510 15.686852 0.062975
-0.615160 15.686852 0.063058
-0.299810 15.686852 0.062956
0.015540 15.686852 0.062370
0.330890 15.686852 0.061815
0.646240 15.686852 0.061303
0.961589 15.686852 0.061149
1.276940 15.686852 0.061257
1.592289 15.686852 0.061482
1.907640 15.686852 0.061948
2.222990 15.686852 0.062538
2.538340 15.686852 0.063137
2.853690 15.686852 0.063624
3.169039 15.686852 0.064059
3.484390 15.686852 0.064500
3.799739 15.686852 0.065361
4.115090 15.686852 0.066572
4.430439 15.686852 0.067993
4.745790 15.686852 0.069547
5.061140 15.686852 0.071444
5.376490 15.686852 0.074173
5.691840 15.686852 0.077760
6.007189 15.686852 0.082200
6.322540 15.686852 0.087416
6.637889 15.686852 0.093853
6.953240 15.686852 0.103243
7.268589 15.686852 0.116262
7.583940 15.686852 0.137245
7.899290 15.686852 0.178814
8.214640 15.686852 0.261625
8.529989 15.686852 0.406027
8.845339 15.686852 0.613888
9.160688 15.686852 0.868342
9.476040 15.686852 1.127461
9.791389 15.686852 1.411528
10.106739 15.686852 1.669122
10.422089 15.686852 1.932415
10.737438 15.686852 2.175673
11.052790 15.686852 2.455229
11.368139 15.686852 2.699668
11.683489 15.686852 2.958856
11.998838 15.686852 3.276745
12.314190 15.686852 3.540004
12.629539 15.686852 3.696765
12.944889 15.686852 3.900253
13.260239 15.686852 4.009248
13.575588 15.686852 4.162821
13.890940 15.686852 4.289926
14.206289 15.686852 4.305909
14.521639 15.686852 4.292875
14.836988 15.686852 4.714705
15.152340 15.686852 5.583107
15.467690 15.686852 5.805378
15.783039 15.686852 0.000000
16.098389 15.686852 0.000000
16.413738 15.686852 0.000000
16.729090 15.686852 0.000000
17.044439 15.686852 0.000000
17.359789 15.686852 0.000000
17.675138 15.686852 0.000000
17.990490 15.686852 33.969894
18.305840 15.686852 37.106895
18.621189 15.686852 39.002487
18.936539 15.686852 0.000000
19.251888 15.686852 0.000000
-7.237510 15.371502 0.000000
-6.922160 15.371502 0.067799
-6.606810 15.371502 0.065867
-6.291460 15.371502 0.065984
-5.976110 15.371502 0.065514
-5.660760 15.371502 0.064708
-5.345410 15.371502 0.063746
-5.030060 15.371502 0.062817
-4.714710 15.371502 0.062324
-4.399360 15.371502 0.062055
-4.084010 15.371502 0.061747
-3.768660 15.371502 0.061387
-3.453310 15.371502 0.061151
-3.137960 15.371502 0.061360
-2.822610 15.371502 0.061781
-2.507260 15.371502 0.062282
-2.191910 15.371502 0.062898
-1.876560 15.371502 0.063051
-1.561210 15.371502 0.062874
-1.245860 15.371502 0.062970
-0.930510 15.371502 0.063085
-0.615160 15.371502 0.062836
-0.299810 15.371502 0.062424
0.015540 15.371502 0.061860
0.330890 15.371502 0.061349
0.646240 15.371502 0.060915
0.961589 15.371502 0.061020
1.276940 15.371502 0.061320
1.592289 15.371502 0.061625
1.907640 15.371502 0.062031
2.222990 15.371502 0.062657
2.538340 15.371502 0.063362
2.853690 15.371502 0.064127
3.169039 15.371502 0.064600
3.484390 15.371502 0.065011
3.799739 15.371502 0.065912
4.115090 15.371502 0.067067
4.430439 15.371502 0.068510
4.745790 15.371502 0.070091
5.061140 15.371502 0.071740
5.376490 15.371502 0.074095
5.691840 15.371502 0.077274
6.007189 15.371502 0.081328
6.322540 15.371502 0.086454
6.637889 15.371502 0.092796
6.953240 15.371502 0.101957
7.268589 15.371502 0.116525
7.583940 15.371502 0.135232
7.899290 15.371502 0.180883
8.214640 15.371502 0.267071
8.529989 15.371502 0.408736
8.845339 15.371502 0.620036
9.160688 15.371502 0.882222
9.476040 15.371502 1.136542
9.791389 15.371502 1.411518
10.106739 15.371502 1.665070
10.422089 15.371502 1.940074
10.737438 15.371502 2.183514
11.052790 15.371502 2.432887
11.368139 15.371502 2.707256
11.683489 15.371502 2.961541
11.998838 15.371502 3.270477
12.314190 15.371502 3.508616
12.629539 15.371502 3.761849
12.944889 15.371502 3.933437
13.260239 15.371502 4.083759
13.575588 15.371502 4.182256
13.890940 15.371502 4.190289
14.206289 15.371502 4.246701
14.521639 15.371502 4.391394
14.836988 15.371502 4.568142
15.152340 15.371502 5.568601
15.467690 15.371502 5.944780
15.783039 15.371502 0.000000
16.098389 15.371502 0.000000
16.413738 15.371502 0.000000
16.729090 15.371502 0.000000
17.044439 15.371502 0.000000
17.359789 15.371502 0.000000
17.675138 15.371502 0.000000
17.990490 15.371502 33.218235
18.305840 15.371502 35.627583
18.621189 15.371502 37.195633
18.936539 15.371502 0.000000
19.251888 15.371502 0.000000
-7.237510 15.056152 0.000000
-6.922160 15.056152 0.067567
-6.606810 15.056152 0.064890
-6.291460 15.056152 0.064533
-5.976110 15.056152 0.063933
-5.660760 15.056152 0.063111
-5.345410 15.056152 0.062283
-5.030060 15.056152 0.061816
-4.714710 15.056152 0.061960
-4.399360 15.056152 0.062261
-4.084010 15.056152 0.062438
-3.768660 15.056152 0.062507
-3.453310 15.056152 0.062518
-3.137960 15.056152 0.062772
-2.822610 15.056152 0.063012
-2.507260 15.056152 0.063294
-2.191910 15.056152 0.063524
-1.876560 15.056152 0.063231
-1.561210 15.056152 0.062647
-1.245860 15.056152 0.062426
-0.930510 15.056152 0.062237
-0.615160 15.056152 0.062040
-0.299810 15.056152 0.061823
0.015540 15.056152 0.061590
0.330890 15.056152 0.061302
0.646240 15.056152 0.061140
0.961589 15.056152 0.061482
1.276940 15.056152 0.061932
1.592289 15.056152 0.062268
1.907640 15.056152 0.062503
2.222990 15.056152 0.062903
2.538340 15.056152 0.063580
2.853690 15.056152 0.064420
3.169039 15.056152 0.064912
3.484390 15.056152 0.065421
3.799739 15.056152 0.066287
4.115090 15.056152 0.067403
4.430439 15.056152 0.068679
4.745790 15.056152 0.070112
5.061140 15.056152 0.071542
5.376490 15.056152 0.073594
5.691840 15.056152 0.076503
6.007189 15.056152 0.080494
6.322540 15.056152 0.085739
6.637889 15.056152 0.092666
6.953240 15.056152 0.101876
7.268589 15.056152 0.117032
7.583940 15.056152 0.136899
7.899290 15.056152 0.181605
8.214640 15.056152 0.264774
8.529989 15.056152 0.404179
8.845339 15.056152 0.622535
9.160688 15.056152 0.882291
9.476040 15.056152 1.139415
9.791389 15.056152 1.423489
10.106739 15.056152 1.657341
10.422089 15.056152 1.951605
10.737438 15.056152 2.230571
11.052790 15.056152 2.464650
11.368139 15.056152 2.702303
11.683489 15.056152 2.972848
11.998838 15.056152 3.263931
12.314190 15.056152 3.489399
12.629539 15.056152 3.758348
12.944889 15.056152 3.937485
13.260239 15.056152 4.048192
13.575588 15.056152 4.186822
13.890940 15.056152 4.152632
14.206289 15.056152 4.247262
14.521639 15.056152 4.445764
14.836988 15.056152 4.760834
15.152340 15.056152 5.764596
15.467690 15.056152 6.357213
15.783039 15.056152 0.000000
16.098389 15.056152 0.000000
16.413738 15.056152 0.000000
16.729090 15.056152 0.000000
17.044439 15.056152 0.000000
17.359789 15.056152 0.000000
17.675138 15.056152 0.000000
17.990490 15.056152 35.157146
18.305840 15.056152 35.650272
18.621189 15.056152 38.012463
18.936539 15.056152 0.000000
19.251888 15.056152 0.000000
-7.237510 14.740803 0.000000
-6.922160 14.740803 0.066254
-6.606810 14.740803 0.063351
-6.291460 14.740803 0.062982
-5.976110 14.740803 0.062739
-5.660760 14.740803 0.062397
-5.345410 14.740803 0.062057
-5.030060 14.740803 0.062193
-4.714710 14.740803 0.062714
-4.399360 14.740803 0.063317
-4.084010 14.740803 0.063803
-3.768660 14.740803 0.063961
-3.453310 14.740803 0.063881
-3.137960 14.740803 0.063772
-2.822610 14.740803 0.063597
-2.507260 14.740803 0.063419
-2.191910 14.740803 0.063198
-1.876560 14.740803 0.062649
-1.561210 14.740803 0.062017
-1.245860 14.740803 0.061569
-0.930510 14.740803 0.061379
-0.615160 14.740803 0.061413
-0.299810 14.740803 0.061686
0.015540 14.740803 0.061913
0.330890 14.740803 0.061936
0.646240 14.740803 0.062008
0.961589 14.740803 0.062248
1.276940 14.740803 0.062633
1.592289 14.740803 0.062933
1.907640 14.740803 0.062965
2.222990 14.740803 0.063272
2.538340 14.740803 0.063812
2.853690 14.740803 0.064526
3.169039 14.740803 0.065144
3.484390 14.740803 0.065587
3.799739 14.740803 0.066340
4.115090 14.740803 0.067328
4.430439 14.740803 0.068470
4.745790 14.740803 0.069709
5.061140 14.740803 0.071149
5.376490 14.740803 0.073030
5.691840 14.740803 0.076081
6.007189 14.740803 0.080385
6.322540 14.740803 0.085808
6.637889 14.740803 0.092919
6.953240 14.740803 0.103636
7.268589 14.740803 0.117840
7.583940 14.740803 0.140729
7.899290 14.740803 0.188290
8.214640 14.740803 0.270059
8.529989 14.740803 0.406091
8.845339 14.740803 0.626731
9.160688 14.740803 0.887622
9.476040 14.740803 1.138607
9.791389 14.740803 1.409895
10.106739 14.740803 1.658179
10.422089 14.740803 1.944785
10.737438 14.740803 2.211492
11.052790 14.740803 2.469474
11.368139 14.740803 2.685852
11.683489 14.740803 2.950061
11.998838 14.740803 3.229306
12.314190 14.740803 3.416038
12.629539 14.740803 3.748936
12.944889 14.740803 4.017667
13.260239 14.740803 4.112011
13.575588 14.740803 4.131976
13.890940 14.740803 4.145358
14.206289 14.740803 4.312904
14.521639 14.740803 4.563200
14.836988 14.740803 5.020818
15.152340 14.740803 6.015852
15.467690 14.740803 6.797990
15.783039 14.740803 0.000000
16.098389 14.740803 0.000000
16.413738 14.740803 0.000000
16.729090 14.740803 0.000000
17.044439 14.740803 0.000000
17.359789 14.740803 0.000000
17.675138 14.740803 0.000000
17.990490 14.740803 37.092461
18.305840 14.740803 38.753548
18.621189 14.740803 39.525150
18.936539 14.740803 0.000000
19.251888 14.740803 0.000000
-7.237510 14.425449 0.000000
-6.922160 14.425449 0.064851
-6.606810 14.425449 0.062388
-6.291460 14.425449 0.062495
-5.976110 14.425449 0.062778
-5.660760 14.425449 0.063071
-5.345410 14.425449 0.063118
-5.030060 14.425449 0.063558
-4.714710 14.425449 0.064037
-4.399360 14.425449 0.064613
-4.084010 14.425449 0.064808
-3.768660 14.425449 0.064589
-3.453310 14.425449 0.064208
-3.137960 14.425449 0.063739
-2.822610 14.425449 0.063348
-2.507260 14.425449 0.062880
-2.191910 14.425449 0.062512
-1.876560 14.425449 0.062058
-1.561210 14.425449 0.061668
-1.245860 14.425449 0.061248
-0.930510 14.425449 0.061160
-0.615160 14.425449 0.061543
-0.299810 14.425449 0.062220
0.015540 14.425449 0.062627
0.330890 14.425449 0.062915
0.646240 14.425449 0.062875
0.961589 14.425449 0.062781
1.276940 14.425449 0.063096
1.592289 14.425449 0.063376
1.907640 14.425449 0.063357
2.222990 14.425449 0.063424
2.538340 14.425449 0.063847
2.853690 14.425449 0.064407
3.169039 14.425449 0.065112
3.484390 14.425449 0.065588
3.799739 14.425449 0.066121
4.115090 14.425449 0.066947
4.430439 14.425449 0.068016
4.745790 14.425449 0.069190
5.061140 14.425449 0.070702
5.376490 14.425449 0.072873
5.691840 14.425449 0.076194
6.007189 14.425449 0.080942
6.322540 14.425449 0.086524
6.637889 14.425449 0.093960
6.953240 14.425449 0.104635
7.268589 14.425449 0.120280
7.583940 14.425449 0.145275
7.899290 14.425449 0.189215
8.214640 14.425449 0.269651
8.529989 14.425449 0.413373
8.845339 14.425449 0.634993
9.160688 14.425449 0.884610
9.476040 14.425449 1.145216
9.791389 14.425449 1.428879
10.106739 14.425449 1.684802
10.422089 14.425449 1.960053
10.737438 14.425449 2.191381
11.052790 14.425449 2.484862
11.368139 14.425449 2.743626
11.683489 14.425449 2.964027
11.998838 14.425449 3.228193
12.314190 14.425449 3.477012
12.629539 14.425449 3.715468
12.944889 14.425449 4.020109
13.260239 14.425449 4.106835
13.575588 14.425449 4.175704
13.890940 14.425449 4.280661
14.206289 14.425449 4.419643
14.521639 14.425449 4.686429
14.836988 14.425449 5.189393
15.152340 14.425449 6.194395
15.467690 14.425449 6.923778
15.783039 14.425449 0.000000
16.098389 14.425449 0.000000
16.413738 14.425449 0.000000
16.729090 14.425449 0.000000
17.044439 14.425449 0.000000
17.359789 14.425449 0.000000
17.675138 14.425449 0.000000
17.990490 14.425449 41.801552
18.305840 14.425449 42.875427
18.621189 14.425449 43.457211
18.936539 14.425449 0.000000
19.251888 14.425449 0.000000
-7.237510 14.110100 0.000000
-6.922160 14.110100 0.064953
-6.606810 14.110100 0.062709
-6.291460 14.110100 0.063297
-5.976110 14.110100 0.063890
-5.660760 14.110100 0.064359
-5.345410 14.110100 0.064526
-5.030060 14.110100 0.064730
-4.714710 14.110100 0.064909
-4.399360 14.110100 0.065011
-4.084010 14.110100 0.064715
-3.768660 14.110100 0.064067
-3.453310 14.110100 0.063560
-3.137960 14.110100 0.062959
-2.822610 14.110100 0.062656
-2.507260 14.110100 0.062568
-2.191910 14.110100 0.062173
-1.876560 14.110100 0.061978
-1.561210 14.110100 0.061862
-1.245860 14.110100 0.061671
-0.930510 14.110100 0.061658
-0.615160 14.110100 0.062226
-0.299810 14.110100 0.063029
0.015540 14.110100 0.063342
0.330890 14.110100 0.063539
0.646240 14.110100 0.063334
0.961589 14.110100 0.063043
1.276940 14.110100 0.063172
1.592289 14.110100 0.063377
1.907640 14.110100 0.063488
2.222990 14.110100 0.063423
2.538340 14.110100 0.063709
2.853690 14.110100 0.064143
3.169039 14.110100 0.064927
3.484390 14.110100 0.065450
3.799739 14.110100 0.065759
4.115090 14.110100 0.066510
4.430439 14.110100 0.067637
4.745790 14.110100 0.069129
5.061140 14.110100 0.070845
5.376490 14.110100 0.073319
5.691840 14.110100 0.077004
6.007189 14.110100 0.081855
6.322540 14.110100 0.087548
6.637889 14.110100 0.094421
6.953240 14.110100 0.104874
7.268589 14.110100 0.121298
7.583940 14.110100 0.145792
7.899290 14.110100 0.189851
8.214640 14.110100 0.271352
8.529989 14.110100 0.427565
8.845339 14.110100 0.640933
9.160688 14.110100 0.888630
9.476040 14.110100 1.167437
9.791389 14.110100 1.454328
10.106739 14.110100 1.699022
10.422089 14.110100 1.947299
10.737438 14.110100 2.202252
11.052790 14.110100 2.513098
11.368139 14.110100 2.782871
11.683489 14.110100 3.019029
11.998838 14.110100 3.231955
12.314190 14.110100 3.465529
12.629539 14.110100 3.772189
12.944889 14.110100 3.986449
13.260239 14.110100 4.040016
13.575588 14.110100 4.195698
13.890940 14.110100 4.306777
14.206289 14.110100 4.373977
14.521639 14.110100 4.735315
14.836988 14.110100 5.414865
15.152340 14.110100 6.616594
15.467690 14.110100 7.306821
15.783039 14.110100 0.000000
16.098389 14.110100 0.000000
16.413738 14.110100 0.000000
16.729090 14.110100 0.000000
17.044439 14.110100 0.000000
17.359789 14.110100 0.000000
17.675138 14.110100 0.000000
17.990490 14.110100 46.852730
18.305840 14.110100 48.121410
18.621189 14.110100 48.648720
18.936539 14.110100 0.000000
19.251888 14.110100 0.000000
-7.237510 13.794750 0.000000
-6.922160 13.794750 0.066075
-6.606810 13.794750 0.064009
-6.291460 13.794750 0.064750
-5.976110 13.794750 0.065113
-5.660760 13.794750 0.065255
-5.345410 13.794750 0.065165
-5.030060 13.794750 0.065029
-4.714710 13.794750 0.064708
-4.399360 13.794750 0.064377
-4.084010 13.794750 0.063718
-3.768660 13.794750 0.062938
-3.453310 13.794750 0.062647
-3.137960 13.794750 0.062271
-2.822610 13.794750 0.062386
-2.507260 13.794750 0.062620
-2.191910 13.794750 0.062498
-1.876560 13.794750 0.062601
-1.561210 13.794750 0.062594
-1.245860 13.794750 0.062439
-0.930510 13.794750 0.062360
-0.615160 13.794750 0.062866
-0.299810 13.794750 0.063481
0.015540 13.794750 0.063627
0.330890 13.794750 0.063816
0.646240 13.794750 0.063443
0.961589 13.794750 0.062926
1.276940 13.794750 0.062869
1.592289 13.794750 0.063126
1.907640 13.794750 0.063328
2.222990 13.794750 0.063251
2.538340 13.794750 0.063483
2.853690 13.794750 0.063983
3.169039 13.794750 0.064715
3.484390 13.794750 0.065375
3.799739 13.794750 0.065846
4.115090 13.794750 0.066679
4.430439 13.794750 0.067935
4.745790 13.794750 0.069665
5.061140 13.794750 0.071707
5.376490 13.794750 0.074185
5.691840 13.794750 0.077700
6.007189 13.794750 0.082348
6.322540 13.794750 0.087874
6.637889 13.794750 0.094151
6.953240 13.794750 0.103856
7.268589 13.794750 0.119643
7.583940 13.794750 0.143559
7.899290 13.794750 0.190158
8.214640 13.794750 0.279524
8.529989 13.794750 0.435408
8.845339 13.794750 0.650361
9.160688 13.794750 0.907645
9.476040 13.794750 1.173418
9.791389 13.794750 1.465711
10.106739 13.794750 1.703283
10.422089 13.794750 1.970192
10.737438 13.794750 2.222069
11.052790 13.794750 2.496618
11.368139 13.794750 2.781323
11.683489 13.794750 2.997224
11.998838 13.794750 3.244512
12.314190 13.794750 3.468966
12.629539 13.794750 3.678151
12.944889 13.794750 3.974127
13.260239 13.794750 4.062284
13.575588 13.794750 4.195290
13.890940 13.794750 4.343002
14.206289 13.794750 4.467485
14.521639 13.794750 4.846645
14.836988 13.794750 5.523918
15.152340 13.794750 7.082947
15.467690 13.794750 7.394300
15.783039 13.794750 0.000000
16.098389 13.794750 0.000000
16.413738 13.794750 0.000000
16.729090 13.794750 0.000000
17.044439 13.794750 0.000000
17.359789 13.794750 0.000000
17.675138 13.794750 0.000000
17.990490 13.794750 52.945000
18.305840 13.794750 54.299866
18.621189 13.794750 54.882938
18.936539 13.794750 0.000000
19.251888 13.794750 0.000000
-7.237510 13.479401 0.000000
-6.922160 13.479401 0.067319
-6.606810 13.479401 0.065048
-6.291460 13.479401 0.065441
-5.976110 13.479401 0.065477
-5.660760 13.479401 0.065190
-5.345410 13.479401 0.064869
-5.030060 13.479401 0.064499
-4.714710 13.479401 0.063904
-4.399360 13.479401 0.063335
-4.084010 13.479401 0.062822
-3.768660 13.479401 0.062326
-3.453310 13.479401 0.062362
-3.137960 13.479401 0.062336
-2.822610 13.479401 0.062730
-2.507260 13.479401 0.063188
-2.191910 13.479401 0.063236
-1.876560 13.479401 0.063367
-1.561210 13.479401 0.063296
-1.245860 13.479401 0.062996
-0.930510 13.479401 0.062791
-0.615160 13.479401 0.063067
-0.299810 13.479401 0.063305
0.015540 13.479401 0.063381
0.330890 13.479401 0.063563
0.646240 13.479401 0.063200
0.961589 13.479401 0.062710
1.276940 13.479401 0.062611
1.592289 13.479401 0.062882
1.907640 13.479401 0.063170
2.222990 13.479401 0.063227
2.538340 13.479401 0.063473
2.853690 13.479401 0.064081
3.169039 13.479401 0.064858
3.484390 13.479401 0.065713
3.799739 13.479401 0.066336
4.115090 13.479401 0.067255
4.430439 13.479401 0.068618
4.745790 13.479401 0.070296
5.061140 13.479401 0.072344
5.376490 13.479401 0.074698
5.691840 13.479401 0.077855
6.007189 13.479401 0.082110
6.322540 13.479401 0.087548
6.637889 13.479401 0.094138
6.953240 13.479401 0.103841
7.268589 13.479401 0.119288
7.583940 13.479401 0.142906
7.899290 13.479401 0.191235
8.214640 13.479401 0.286836
8.529989 13.479401 0.444244
8.845339 13.479401 0.664719
9.160688 13.479401 0.919337
9.476040 13.479401 1.197288
9.791389 13.479401 1.485206
10.106739 13.479401 1.739096
10.422089 13.479401 1.983332
10.737438 13.479401 2.218926
11.052790 13.479401 2.481685
11.368139 13.479401 2.764649
11.683489 13.479401 3.023394
11.998838 13.479401 3.229686
12.314190 13.479401 3.478947
12.629539 13.479401 3.745174
12.944889 13.479401 3.977114
13.260239 13.479401 4.075459
13.575588 13.479401 4.280890
13.890940 13.479401 4.466424
14.206289 13.479401 4.774877
14.521639 13.479401 4.948712
14.836988 13.479401 5.605176
15.152340 13.479401 7.219410
15.467690 13.479401 7.778973
15.783039 13.479401 0.000000
16.098389 13.479401 0.000000
16.413738 13.479401 0.000000
16.729090 13.479401 0.000000
17.044439 13.479401 0.000000
17.359789 13.479401 0.000000
17.675138 13.479401 0.000000
17.990490 13.479401 55.648609
18.305840 13.479401 56.949028
18.621189 13.479401 58.372166
18.936539 13.479401 0.000000
19.251888 13.479401 0.000000
-7.237510 13.164051 0.000000
-6.922160 13.164051 0.067590
-6.606810 13.164051 0.065088
-6.291460 13.164051 0.064961
-5.976110 13.164051 0.064706
-5.660760 13.164051 0.064354
-5.345410 13.164051 0.064245
-5.030060 13.164051 0.063874
-4.714710 13.164051 0.063312
-4.399360 13.164051 0.062881
-4.084010 13.164051 0.062612
-3.768660 13.164051 0.062562
-3.453310 13.164051 0.062869
-3.137960 13.164051 0.062923
-2.822610 13.164051 0.063434
-2.507260 13.164051 0.063799
-2.191910 13.164051 0.063828
-1.876560 13.164051 0.063843
-1.561210 13.164051 0.063575
-1.245860 13.164051 0.063144
-0.930510 13.164051 0.062830
-0.615160 13.164051 0.062864
-0.299810 13.164051 0.062796
0.015540 13.164051 0.062814
0.330890 13.164051 0.062970
0.646240 13.164051 0.062869
0.961589 13.164051 0.062545
1.276940 13.164051 0.062437
1.592289 13.164051 0.062918
1.907640 13.164051 0.063249
2.222990 13.164051 0.063336
2.538340 13.164051 0.063873
2.853690 13.164051 0.064458
3.169039 13.164051 0.065195
3.484390 13.164051 0.066089
3.799739 13.164051 0.066915
4.115090 13.164051 0.067783
4.430439 13.164051 0.068936
4.745790 13.164051 0.070486
5.061140 13.164051 0.072394
5.376490 13.164051 0.074499
5.691840 13.164051 0.077195
6.007189 13.164051 0.081392
6.322540 13.164051 0.086986
6.637889 13.164051 0.094351
6.953240 13.164051 0.104640
7.268589 13.164051 0.120106
7.583940 13.164051 0.144891
7.899290 13.164051 0.196633
8.214640 13.164051 0.295054
8.529989 13.164051 0.447824
8.845339 13.164051 0.671447
9.160688 13.164051 0.926988
9.476040 13.164051 1.207141
9.791389 13.164051 1.494731
10.106739 13.164051 1.749223
10.422089 13.164051 1.997166
10.737438 13.164051 2.270730
11.052790 13.164051 2.497858
11.368139 13.164051 2.761463
11.683489 13.164051 3.053733
11.998838 13.164051 3.278672
12.314190 13.164051 3.537156
12.629539 13.164051 3.698256
12.944889 13.164051 3.901472
13.260239 13.164051 4.053703
13.575588 13.164051 4.336363
13.890940 13.164051 4.419100
14.206289 13.164051 4.710455
14.521639 13.164051 4.887315
14.836988 13.164051 5.571634
15.152340 13.164051 7.065674
15.467690 13.164051 7.906704
15.783039 13.164051 0.000000
16.098389 13.164051 0.000000
16.413738 13.164051 0.000000
16.729090 13.164051 0.000000
17.044439 13.164051 0.000000
17.359789 13.164051 0.000000
17.675138 13.164051 0.000000
17.990490 13.164051 53.577255
18.305840 13.164051 55.547665
18.621189 13.164051 56.877895
18.936539 13.164051 0.000000
19.251888 13.164051 0.000000
-7.237510 12.848701 0.000000
-6.922160 12.848701 0.067754
-6.606810 12.848701 0.064576
-6.291460 12.848701 0.064168
-5.976110 12.848701 0.063852
-5.660760 12.848701 0.063738
-5.345410 12.848701 0.064017
-5.030060 12.848701 0.063833
-4.714710 12.848701 0.063336
-4.399360 12.848701 0.063080
-4.084010 12.848701 0.063188
-3.768660 12.848701 0.063486
-3.453310 12.848701 0.063836
-3.137960 12.848701 0.063781
-2.822610 12.848701 0.063998
-2.507260 12.848701 0.064111
-2.191910 12.848701 0.063900
-1.876560 12.848701 0.063719
-1.561210 12.848701 0.063367
-1.245860 12.848701 0.062968
-0.930510 12.848701 0.062635
-0.615160 12.848701 0.062501
-0.299810 12.848701 0.062308
0.015540 12.848701 0.062179
0.330890 12.848701 0.062303
0.646240 12.848701 0.062447
0.961589 12.848701 0.062540
1.276940 12.848701 0.062667
1.592289 12.848701 0.063145
1.907640 12.848701 0.063532
2.222990 12.848701 0.063724
2.538340 12.848701 0.064319
2.853690 12.848701 0.064827
3.169039 12.848701 0.065296
3.484390 12.848701 0.066181
3.799739 12.848701 0.066917
4.115090 12.848701 0.067747
4.430439 12.848701 0.068819
4.745790 12.848701 0.070095
5.061140 12.848701 0.071827
5.376490 12.848701 0.073638
5.691840 12.848701 0.076563
6.007189 12.848701 0.081118
6.322540 12.848701 0.087149
6.637889 12.848701 0.095265
6.953240 12.848701 0.106240
7.268589 12.848701 0.121286
7.583940 12.848701 0.148928
7.899290 12.848701 0.200220
8.214640 12.848701 0.301371
8.529989 12.848701 0.466644
8.845339 12.848701 0.682413
9.160688 12.848701 0.953010
9.476040 12.848701 1.217145
9.791389 12.848701 1.503706
10.106739 12.848701 1.755786
10.422089 12.848701 2.016599
10.737438 12.848701 2.281170
11.052790 12.848701 2.531901
11.368139 12.848701 2.769189
11.683489 12.848701 3.048459
11.998838 12.848701 3.318630
12.314190 12.848701 3.505230
12.629539 12.848701 3.660169
12.944889 12.848701 3.859730
13.260239 12.848701 4.076096
13.575588 12.848701 4.341576
13.890940 12.848701 4.421031
14.206289 12.848701 4.595271
14.521639 12.848701 4.926250
14.836988 12.848701 5.510847
15.152340 12.848701 6.517105
15.467690 12.848701 6.602219
15.783039 12.848701 0.000000
16.098389 12.848701 0.000000
16.413738 12.848701 0.000000
16.729090 12.848701 0.000000
17.044439 12.848701 0.000000
17.359789 12.848701 0.000000
17.675138 12.848701 0.000000
17.990490 12.848701 48.599483
18.305840 12.848701 51.896729
18.621189 12.848701 51.758404
18.936539 12.848701 0.000000
19.251888 12.848701 0.000000
-7.237510 12.533352 0.000000
-6.922160 12.533352 0.067498
-6.606810 12.533352 0.064332
-6.291460 12.533352 0.064078
-5.976110 12.533352 0.063794
-5.660760 12.533352 0.063894
-5.345410 12.533352 0.064563
-5.030060 12.533352 0.064412
-4.714710 12.533352 0.063857
-4.399360 12.533352 0.063741
-4.084010 12.533352 0.063937
-3.768660 12.533352 0.064254
-3.453310 12.533352 0.064311
-3.137960 12.533352 0.064138
-2.822610 12.533352 0.064037
-2.507260 12.533352 0.063914
-2.191910 12.533352 0.063714
-1.876560 12.533352 0.063393
-1.561210 12.533352 0.063024
-1.245860 12.533352 0.062789
-0.930510 12.533352 0.062651
-0.615160 12.533352 0.062376
-0.299810 12.533352 0.062109
0.015540 12.533352 0.061893
0.330890 12.533352 0.061973
0.646240 12.533352 0.062367
0.961589 12.533352 0.062915
1.276940 12.533352 0.063381
1.592289 12.533352 0.063744
1.907640 12.533352 0.063944
2.222990 12.533352 0.064182
2.538340 12.533352 0.064611
2.853690 12.533352 0.064892
3.169039 12.533352 0.065043
3.484390 12.533352 0.065621
3.799739 12.533352 0.066365
4.115090 12.533352 0.067149
4.430439 12.533352 0.068052
4.745790 12.533352 0.069344
5.061140 12.533352 0.071033
5.376490 12.533352 0.073239
5.691840 12.533352 0.076601
6.007189 12.533352 0.081549
6.322540 12.533352 0.088276
6.637889 12.533352 0.096690
6.953240 12.533352 0.107731
7.268589 12.533352 0.122690
7.583940 12.533352 0.151491
7.899290 12.533352 0.204306
8.214640 12.533352 0.304476
8.529989 12.533352 0.480013
8.845339 12.533352 0.703967
9.160688 12.533352 0.969497
9.476040 12.533352 1.237098
9.791389 12.533352 1.514625
10.106739 12.533352 1.753290
10.422089 12.533352 2.057022
10.737438 12.533352 2.308961
11.052790 12.533352 2.580376
11.368139 12.533352 2.789513
11.683489 12.533352 3.037340
11.998838 12.533352 3.300805
12.314190 12.533352 3.466544
12.629539 12.533352 3.672206
12.944889 12.533352 3.878201
13.260239 12.533352 4.026044
13.575588 12.533352 4.183959
13.890940 12.533352 4.353465
14.206289 12.533352 4.606064
14.521639 12.533352 4.826053
14.836988 12.533352 5.290225
15.152340 12.533352 6.195271
15.467690 12.533352 5.870003
15.783039 12.533352 0.000000
16.098389 12.533352 0.000000
16.413738 12.533352 0.000000
16.729090 12.533352 0.000000
17.044439 12.533352 0.000000
17.359789 12.533352 0.000000
17.675138 12.533352 0.000000
17.990490 12.533352 42.808907
18.305840 12.533352 45.809792
18.621189 12.533352 46.665810
18.936539 12.533352 0.000000
19.251888 12.533352 0.000000
-7.237510 12.218002 0.000000
-6.922160 12.218002 0.067723
-6.606810 12.218002 0.064829
-6.291460 12.218002 0.064594
-5.976110 12.218002 0.064426
-5.660760 12.218002 0.064563
-5.345410 12.218002 0.065245
-5.030060 12.218002 0.064971
-4.714710 12.218002 0.064281
-4.399360 12.218002 0.064110
-4.084010 12.218002 0.064288
-3.768660 12.218002 0.064538
-3.453310 12.218002 0.064369
-3.137960 12.218002 0.063991
-2.822610 12.218002 0.063773
-2.507260 12.218002 0.063624
-2.191910 12.218002 0.063508
-1.876560 12.218002 0.063194
-1.561210 12.218002 0.062926
-1.245860 12.218002 0.062874
-0.930510 12.218002 0.062864
-0.615160 12.218002 0.062668
-0.299810 12.218002 0.062346
0.015540 12.218002 0.062056
0.330890 12.218002 0.062129
0.646240 12.218002 0.062633
0.961589 12.218002 0.063406
1.276940 12.218002 0.064075
1.592289 12.218002 0.064282
1.907640 12.218002 0.064258
2.222990 12.218002 0.064260
2.538340 12.218002 0.064487
2.853690 12.218002 0.064453
3.169039 12.218002 0.064357
3.484390 12.218002 0.064824
3.799739 12.218002 0.065481
4.115090 12.218002 0.066473
4.430439 12.218002 0.067444
4.745790 12.218002 0.069005
5.061140 12.218002 0.070968
5.376490 12.218002 0.073572
5.691840 12.218002 0.077239
6.007189 12.218002 0.082419
6.322540 12.218002 0.089275
6.637889 12.218002 0.097380
6.953240 12.218002 0.108335
7.268589 12.218002 0.124042
7.583940 12.218002 0.151184
7.899290 12.218002 0.206168
8.214640 12.218002 0.310204
8.529989 12.218002 0.488210
8.845339 12.218002 0.716264
9.160688 12.218002 0.982931
9.476040 12.218002 1.247139
9.791389 12.218002 1.510724
10.106739 12.218002 1.777601
10.422089 12.218002 2.058113
10.737438 12.218002 2.326726
11.052790 12.218002 2.570223
11.368139 12.218002 2.786583
11.683489 12.218002 3.053684
11.998838 12.218002 3.279424
12.314190 12.218002 3.488915
12.629539 12.218002 3.692769
12.944889 12.218002 3.879553
13.260239 12.218002 3.999855
13.575588 12.218002 4.172358
13.890940 12.218002 4.330257
14.206289 12.218002 4.493078
14.521639 12.218002 4.749480
14.836988 12.218002 5.132164
15.152340 12.218002 6.141221
15.467690 12.218002 5.138747
15.783039 12.218002 0.000000
16.098389 12.218002 0.000000
16.413738 12.218002 0.000000
16.729090 12.218002 0.000000
17.044439 12.218002 0.000000
17.359789 12.218002 0.000000
17.675138 12.218002 0.000000
17.990490 12.218002 38.077091
18.305840 12.218002 40.885361
18.621189 12.218002 42.088078
18.936539 12.218002 0.000000
19.251888 12.218002 0.000000
-7.237510 11.902653 0.000000
-6.922160 11.902653 0.068312
-6.606810 11.902653 0.065573
-6.291460 11.902653 0.065365
-5.976110 11.902653 0.065179
-5.660760 11.902653 0.065150
-5.345410 11.902653 0.065482
-5.030060 11.902653 0.065095
-4.714710 11.902653 0.064456
-4.399360 11.902653 0.064181
-4.084010 11.902653 0.064226
-3.768660 11.902653 0.064369
-3.453310 11.902653 0.064184
-3.137960 11.902653 0.063766
-2.822610 11.902653 0.063399
-2.507260 11.902653 0.063404
-2.191910 11.902653 0.063336
-1.876560 11.902653 0.063173
-1.561210 11.902653 0.063160
-1.245860 11.902653 0.063336
-0.930510 11.902653 0.063313
-0.615160 11.902653 0.063085
-0.299810 11.902653 0.062725
0.015540 11.902653 0.062519
0.330890 11.902653 0.062549
0.646240 11.902653 0.062916
0.961589 11.902653 0.063656
1.276940 11.902653 0.064109
1.592289 11.902653 0.064167
1.907640 11.902653 0.064005
2.222990 11.902653 0.063920
2.538340 11.902653 0.064016
2.853690 11.902653 0.063803
3.169039 11.902653 0.063811
3.484390 11.902653 0.064211
3.799739 11.902653 0.065282
4.115090 11.902653 0.066361
4.430439 11.902653 0.067656
4.745790 11.902653 0.069359
5.061140 11.902653 0.071496
5.376490 11.902653 0.074152
5.691840 11.902653 0.077847
6.007189 11.902653 0.082654
6.322540 11.902653 0.088932
6.637889 11.902653 0.096786
6.953240 11.902653 0.107669
7.268589 11.902653 0.123837
7.583940 11.902653 0.152139
7.899290 11.902653 0.214628
8.214640 11.902653 0.319345
8.529989 11.902653 0.504315
8.845339 11.902653 0.734251
9.160688 11.902653 1.003204
9.476040 11.902653 1.259020
9.791389 11.902653 1.531182
10.106739 11.902653 1.785423
10.422089 11.902653 2.050333
10.737438 11.902653 2.326950
11.052790 11.902653 2.588017
11.368139 11.902653 2.818283
11.683489 11.902653 3.026479
11.998838 11.902653 3.302273
12.314190 11.902653 3.507304
12.629539 11.902653 3.738162
12.944889 11.902653 3.896166
13.260239 11.902653 4.116491
13.575588 11.902653 4.210717
13.890940 11.902653 4.389409
14.206289 11.902653 4.448987
14.521639 11.902653 4.731041
14.836988 11.902653 5.092388
15.152340 11.902653 5.845176
15.467690 11.902653 4.088965
15.783039 11.902653 0.000000
16.098389 11.902653 0.000000
16.413738 11.902653 0.000000
16.729090 11.902653 0.000000
17.044439 11.902653 0.000000
17.359789 11.902653 0.000000
17.675138 11.902653 0.000000
17.990490 11.902653 35.218815
18.305840 11.902653 37.035324
18.621189 11.902653 39.276810
18.936539 11.902653 0.000000
19.251888 11.902653 0.000000
-7.237510 11.587299 0.000000
-6.922160 11.587299 0.068770
-6.606810 11.587299 0.066142
-6.291460 11.587299 0.065765
-5.976110 11.587299 0.065386
-5.660760 11.587299 0.065171
-5.345410 11.587299 0.065175
-5.030060 11.587299 0.064936
-4.714710 11.587299 0.064435
-4.399360 11.587299 0.064169
-4.084010 11.587299 0.064155
-3.768660 11.587299 0.064080
-3.453310 11.587299 0.064104
-3.137960 11.587299 0.063609
-2.822610 11.587299 0.063169
-2.507260 11.587299 0.063218
-2.191910 11.587299 0.063332
-1.876560 11.587299 0.063426
-1.561210 11.587299 0.063602
-1.245860 11.587299 0.063761
-0.930510 11.587299 0.063629
-0.615160 11.587299 0.063417
-0.299810 11.587299 0.063181
0.015540 11.587299 0.062872
0.330890 11.587299 0.062753
0.646240 11.587299 0.062930
0.961589 11.587299 0.063381
1.276940 11.587299 0.063594
1.592289 11.587299 0.063584
1.907640 11.587299 0.063399
2.222990 11.587299 0.063273
2.538340 11.587299 0.063418
2.853690 11.587299 0.063459
3.169039 11.587299 0.063675
3.484390 11.587299 0.064396
3.799739 11.587299 0.065606
4.115090 11.587299 0.066845
4.430439 11.587299 0.068180
4.745790 11.587299 0.069665
5.061140 11.587299 0.071782
5.376490 11.587299 0.074419
5.691840 11.587299 0.077716
6.007189 11.587299 0.082294
6.322540 11.587299 0.088158
6.637889 11.587299 0.095995
6.953240 11.587299 0.107040
7.268589 11.587299 0.124007
7.583940 11.587299 0.151799
7.899290 11.587299 0.213968
8.214640 11.587299 0.329953
8.529989 11.587299 0.516138
8.845339 11.587299 0.745384
9.160688 11.587299 0.999268
9.476040 11.587299 1.272862
9.791389 11.587299 1.551697
10.106739 11.587299 1.808021
10.422089 11.587299 2.090669
10.737438 11.587299 2.332741
11.052790 11.587299 2.580681
11.368139 11.587299 2.788935
11.683489 11.587299 3.034770
11.998838 11.587299 3.248221
12.314190 11.587299 3.436922
12.629539 11.587299 3.715921
12.944889 11.587299 3.887810
13.260239 11.587299 4.084165
13.575588 11.587299 4.179803
13.890940 11.587299 4.235319
14.206289 11.587299 4.415733
14.521639 11.587299 4.775546
14.836988 11.587299 5.056722
15.152340 11.587299 5.863321
15.467690 11.587299 10.956249
15.783039 11.587299 0.000000
16.098389 11.587299 0.000000
16.413738 11.587299 0.000000
16.729090 11.587299 0.000000
17.044439 11.587299 0.000000
17.359789 11.587299 0.000000
17.675138 11.587299 0.000000
17.990490 11.587299 34.685585
18.305840 11.587299 36.404259
18.621189 11.587299 39.155853
18.936539 11.587299 0.000000
19.251888 11.587299 0.000000
-7.237510 11.271950 0.000000
-6.922160 11.271950 0.068635
-6.606810 11.271950 0.066020
-6.291460 11.271950 0.065559
-5.976110 11.271950 0.065105
-5.660760 11.271950 0.064818
-5.345410 11.271950 0.064836
-5.030060 11.271950 0.064785
-4.714710 11.271950 0.064597
-4.399360 11.271950 0.064403
-4.084010 11.271950 0.064184
-3.768660 11.271950 0.064084
-3.453310 11.271950 0.064065
-3.137960 11.271950 0.063583
-2.822610 11.271950 0.063121
-2.507260 11.271950 0.063136
-2.191910 11.271950 0.063378
-1.876560 11.271950 0.063667
-1.561210 11.271950 0.063911
-1.245860 11.271950 0.063878
-0.930510 11.271950 0.063633
-0.615160 11.271950 0.063454
-0.299810 11.271950 0.063290
0.015540 11.271950 0.062945
0.330890 11.271950 0.062740
0.646240 11.271950 0.062750
0.961589 11.271950 0.062910
1.276940 11.271950 0.062959
1.592289 11.271950 0.062912
1.907640 11.271950 0.062841
2.222990 11.271950 0.062906
2.538340 11.271950 0.063259
2.853690 11.271950 0.063585
3.169039 11.271950 0.064162
3.484390 11.271950 0.065001
3.799739 11.271950 0.066204
4.115090 11.271950 0.067304
4.430439 11.271950 0.068333
4.745790 11.271950 0.069658
5.061140 11.271950 0.071513
5.376490 11.271950 0.074076
5.691840 11.271950 0.077296
6.007189 11.271950 0.081663
6.322540 11.271950 0.087643
6.637889 11.271950 0.096209
6.953240 11.271950 0.107675
7.268589 11.271950 0.125061
7.583940 11.271950 0.158303
7.899290 11.271950 0.219536
8.214640 11.271950 0.344842
8.529989 11.271950 0.525217
8.845339 11.271950 0.757271
9.160688 11.271950 1.001026
9.476040 11.271950 1.280048
9.791389 11.271950 1.563913
10.106739 11.271950 1.816594
10.422089 11.271950 2.077978
10.737438 11.271950 2.350433
11.052790 11.271950 2.569266
11.368139 11.271950 2.782803
11.683489 11.271950 3.044944
11.998838 11.271950 3.271723
12.314190 11.271950 3.489391
12.629539 11.271950 3.727396
12.944889 11.271950 3.864137
13.260239 11.271950 4.081225
13.575588 11.271950 4.201640
13.890940 11.271950 4.303695
14.206289 11.271950 4.523953
14.521639 11.271950 4.733903
14.836988 11.271950 5.218844
15.152340 11.271950 6.048784
15.467690 11.271950 0.000000
15.783039 11.271950 0.000000
16.098389 11.271950 0.000000
16.413738 11.271950 0.000000
16.729090 11.271950 0.000000
17.044439 11.271950 0.000000
17.359789 11.271950 0.000000
17.675138 11.271950 0.000000
17.990490 11.271950 35.691475
18.305840 11.271950 38.140411
18.621189 11.271950 39.994038
18.936539 11.271950 0.000000
19.251888 11.271950 0.000000
-7.237510 10.956600 0.000000
-6.922160 10.956600 0.068144
-6.606810 10.956600 0.065457
-6.291460 10.956600 0.065084
-5.976110 10.956600 0.064766
-5.660760 10.956600 0.064608
-5.345410 10.956600 0.064646
-5.030060 10.956600 0.064906
-4.714710 10.956600 0.065018
-4.399360 10.956600 0.064884
-4.084010 10.956600 0.064446
-3.768660 10.956600 0.064283
-3.453310 10.956600 0.064039
-3.137960 10.956600 0.063635
-2.822610 10.956600 0.063184
-2.507260 10.956600 0.063060
-2.191910 10.956600 0.063516
-1.876560 10.956600 0.063709
-1.561210 10.956600 0.063793
-1.245860 10.956600 0.063539
-0.930510 10.956600 0.063209
-0.615160 10.956600 0.063185
-0.299810 10.956600 0.063156
0.015540 10.956600 0.062866
0.330890 10.956600 0.062480
0.646240 10.956600 0.062381
0.961589 10.956600 0.062360
1.276940 10.956600 0.062364
1.592289 10.956600 0.062509
1.907640 10.956600 0.062742
2.222990 10.956600 0.062991
2.538340 10.956600 0.063489
2.853690 10.956600 0.063981
3.169039 10.956600 0.064639
3.484390 10.956600 0.065492
3.799739 10.956600 0.066347
4.115090 10.956600 0.067131
4.430439 10.956600 0.067970
4.745790 10.956600 0.069091
5.061140 10.956600 0.070944
5.376490 10.956600 0.073591
5.691840 10.956600 0.077392
6.007189 10.956600 0.081832
6.322540 10.956600 0.087949
6.637889 10.956600 0.096486
6.953240 10.956600 0.108691
7.268589 10.956600 0.127581
7.583940 10.956600 0.161453
7.899290 10.956600 0.222108
8.214640 10.956600 0.343015
8.529989 10.956600 0.533998
8.845339 10.956600 0.761483
9.160688 10.956600 1.019269
9.476040 10.956600 1.304838
9.791389 10.956600 1.565942
10.106739 10.956600 1.850761
10.422089 10.956600 2.097787
10.737438 10.956600 2.393363
11.052790 10.956600 2.625345
11.368139 10.956600 2.832223
11.683489 10.956600 3.045308
11.998838 10.956600 3.297728
12.314190 10.956600 3.488408
12.629539 10.956600 3.728527
12.944889 10.956600 3.911395
13.260239 10.956600 4.138683
13.575588 10.956600 4.259455
13.890940 10.956600 4.405323
14.206289 10.956600 4.598689
14.521639 10.956600 4.848956
14.836988 10.956600 5.335603
15.152340 10.956600 6.242558
15.467690 10.956600 0.000000
15.783039 10.956600 0.000000
16.098389 10.956600 0.000000
16.413738 10.956600 0.000000
16.729090 10.956600 0.000000
17.044439 10.956600 0.000000
17.359789 10.956600 0.000000
17.675138 10.956600 0.000000
17.990490 10.956600 37.632332
18.305840 10.956600 39.858112
18.621189 10.956600 41.159290
18.936539 10.956600 0.000000
19.251888 10.956600 0.000000
-7.237510 10.641251 0.000000
-6.922160 10.641251 0.067439
-6.606810 10.641251 0.064928
-6.291460 10.641251 0.064812
-5.976110 10.641251 0.064686
-5.660760 10.641251 0.064661
-5.345410 10.641251 0.064667
-5.030060 10.641251 0.064956
-4.714710 10.641251 0.065256
-4.399360 10.641251 0.065096
-4.084010 10.641251 0.064767
-3.768660 10.641251 0.064360
-3.453310 10.641251 0.063914
-3.137960 10.641251 0.063631
-2.822610 10.641251 0.063238
-2.507260 10.641251 0.063130
-2.191910 10.641251 0.063412
-1.876560 10.641251 0.063546
-1.561210 10.641251 0.063390
-1.245860 10.641251 0.063053
-0.930510 10.641251 0.062748
-0.615160 10.641251 0.062728
-0.299810 10.641251 0.062932
0.015540 10.641251 0.062632
0.330890 10.641251 0.062344
0.646240 10.641251 0.062129
0.961589 10.641251 0.061973
1.276940 10.641251 0.062048
1.592289 10.641251 0.062365
1.907640 10.641251 0.062847
2.222990 10.641251 0.063289
2.538340 10.641251 0.063642
2.853690 10.641251 0.064033
3.169039 10.641251 0.064638
3.484390 10.641251 0.065258
3.799739 10.641251 0.066035
4.115090 10.641251 0.066622
4.430439 10.641251 0.067434
4.745790 10.641251 0.068597
5.061140 10.641251 0.070564
5.376490 10.641251 0.073664
5.691840 10.641251 0.077929
6.007189 10.641251 0.082976
6.322540 10.641251 0.089046
6.637889 10.641251 0.097414
6.953240 10.641251 0.110394
7.268589 10.641251 0.129784
7.583940 10.641251 0.163129
7.899290 10.641251 0.231259
8.214640 10.641251 0.350798
8.529989 10.641251 0.542749
8.845339 10.641251 0.768895
9.160688 10.641251 1.034885
9.476040 10.641251 1.314409
9.791389 10.641251 1.600842
10.106739 10.641251 1.866626
10.422089 10.641251 2.139138
10.737438 10.641251 2.407131
11.052790 10.641251 2.667285
11.368139 10.641251 2.826911
11.683489 10.641251 3.067707
11.998838 10.641251 3.307630
12.314190 10.641251 3.520992
12.629539 10.641251 3.683022
12.944889 10.641251 3.881963
13.260239 10.641251 4.139540
13.575588 10.641251 4.241925
13.890940 10.641251 4.357696
14.206289 10.641251 4.670895
14.521639 10.641251 4.923091
14.836988 10.641251 5.303451
15.152340 10.641251 6.302238
15.467690 10.641251 0.000000
15.783039 10.641251 0.000000
16.098389 10.641251 0.000000
16.413738 10.641251 0.000000
16.729090 10.641251 0.000000
17.044439 10.641251 0.000000
17.359789 10.641251 0.000000
17.675138 10.641251 0.000000
17.990490 10.641251 38.851128
18.305840 10.641251 40.548275
18.621189 10.641251 41.566738
18.936539 10.641251 0.000000
19.251888 10.641251 0.000000
-7.237510 10.325901 0.000000
-6.922160 10.325901 0.067047
-6.606810 10.325901 0.064718
-6.291460 10.325901 0.064857
-5.976110 10.325901 0.064840
-5.660760 10.325901 0.064724
-5.345410 10.325901 0.064617
-5.030060 10.325901 0.064842
-4.714710 10.325901 0.065053
-4.399360 10.325901 0.064862
-4.084010 10.325901 0.064565
-3.768660 10.325901 0.064090
-3.453310 10.325901 0.063606
-3.137960 10.325901 0.063434
-2.822610 10.325901 0.063167
-2.507260 10.325901 0.062982
-2.191910 10.325901 0.063199
-1.876560 10.325901 0.063176
-1.561210 10.325901 0.062891
-1.245860 10.325901 0.062639
-0.930510 10.325901 0.062505
-0.615160 10.325901 0.062547
-0.299810 10.325901 0.062760
0.015540 10.325901 0.062590
0.330890 10.325901 0.062283
0.646240 10.325901 0.061979
0.961589 10.325901 0.061731
1.276940 10.325901 0.061787
1.592289 10.325901 0.062136
1.907640 10.325901 0.062786
2.222990 10.325901 0.063265
2.538340 10.325901 0.063455
2.853690 10.325901 0.063714
3.169039 10.325901 0.064159
3.484390 10.325901 0.064689
3.799739 10.325901 0.065463
4.115090 10.325901 0.066316
4.430439 10.325901 0.067332
4.745790 10.325901 0.068774
5.061140 10.325901 0.070998
5.376490 10.325901 0.074252
5.691840 10.325901 0.078577
6.007189 10.325901 0.083704
6.322540 10.325901 0.089677
6.637889 10.325901 0.097805
6.953240 10.325901 0.110482
7.268589 10.325901 0.130898
7.583940 10.325901 0.165585
7.899290 10.325901 0.233035
8.214640 10.325901 0.356674
8.529989 10.325901 0.552722
8.845339 10.325901 0.783677
9.160688 10.325901 1.060992
9.476040 10.325901 1.341879
9.791389 10.325901 1.619022
10.106739 10.325901 1.895689
10.422089 10.325901 2.154290
10.737438 10.325901 2.406065
11.052790 10.325901 2.633184
11.368139 10.325901 2.867681
11.683489 10.325901 3.080748
11.998838 10.325901 3.311821
12.314190 10.325901 3.543152
12.629539 10.325901 3.713110
12.944889 10.325901 3.868935
13.260239 10.325901 4.135737
13.575588 10.325901 4.249464
13.890940 10.325901 4.454529
14.206289 10.325901 4.649454
14.521639 10.325901 4.990697
14.836988 10.325901 5.551955
15.152340 10.325901 6.829587
15.467690 10.325901 0.000000
15.783039 10.325901 0.000000
16.098389 10.325901 0.000000
16.413738 10.325901 0.000000
16.729090 10.325901 0.000000
17.044439 10.325901 0.000000
17.359789 10.325901 0.000000
17.675138 10.325901 0.000000
17.990490 10.325901 39.036335
18.305840 10.325901 39.811272
18.621189 10.325901 40.958538
18.936539 10.325901 0.000000
19.251888 10.325901 0.000000
-7.237510 10.010551 0.000000
-6.922160 10.010551 0.066819
-6.606810 10.010551 0.064584
-6.291460 10.010551 0.064859
-5.976110 10.010551 0.064905
-5.660760 10.010551 0.064701
-5.345410 10.010551 0.064326
-5.030060 10.010551 0.064494
-4.714710 10.010551 0.064578
-4.399360 10.010551 0.064312
-4.084010 10.010551 0.064273
-3.768660 10.010551 0.063835
-3.453310 10.010551 0.063391
-3.137960 10.010551 0.063331
-2.822610 10.010551 0.063008
-2.507260 10.010551 0.062962
-2.191910 10.010551 0.062978
-1.876560 10.010551 0.062673
-1.561210 10.010551 0.062446
-1.245860 10.010551 0.062426
-0.930510 10.010551 0.062449
-0.615160 10.010551 0.062480
-0.299810 10.010551 0.062558
0.015540 10.010551 0.062524
0.330890 10.010551 0.062214
0.646240 10.010551 0.061814
0.961589 10.010551 0.061435
1.276940 10.010551 0.061351
1.592289 10.010551 0.061673
1.907640 10.010551 0.062403
2.222990 10.010551 0.062903
2.538340 10.010551 0.063138
2.853690 10.010551 0.063266
3.169039 10.010551 0.063619
3.484390 10.010551 0.064214
3.799739 10.010551 0.065159
4.115090 10.010551 0.066361
4.430439 10.010551 0.067744
4.745790 10.010551 0.069413
5.061140 10.010551 0.071593
5.376490 10.010551 0.074751
5.691840 10.010551 0.078750
6.007189 10.010551 0.083951
6.322540 10.010551 0.089737
6.637889 10.010551 0.097889
6.953240 10.010551 0.110725
7.268589 10.010551 0.131039
7.583940 10.010551 0.169752
7.899290 10.010551 0.239054
8.214640 10.010551 0.369811
8.529989 10.010551 0.564984
8.845339 10.010551 0.807470
9.160688 10.010551 1.063856
9.476040 10.010551 1.360664
9.791389 10.010551 1.634095
10.106739 10.010551 1.877245
10.422089 10.010551 2.144999
10.737438 10.010551 2.396594
11.052790 10.010551 2.618831
11.368139 10.010551 2.839990
11.683489 10.010551 3.101923
11.998838 10.010551 3.287092
12.314190 10.010551 3.476499
12.629539 10.010551 3.767858
12.944889 10.010551 3.890959
13.260239 10.010551 4.031971
13.575588 10.010551 4.330288
13.890940 10.010551 4.431103
14.206289 10.010551 4.710918
14.521639 10.010551 5.088082
14.836988 10.010551 5.655592
15.152340 10.010551 6.845622
15.467690 10.010551 0.000000
15.783039 10.010551 0.000000
16.098389 10.010551 0.000000
16.413738 10.010551 0.000000
16.729090 10.010551 0.000000
17.044439 10.010551 0.000000
17.359789 10.010551 0.000000
17.675138 10.010551 0.000000
17.990490 10.010551 38.566242
18.305840 10.010551 39.561707
18.621189 10.010551 39.707848
18.936539 10.010551 0.000000
19.251888 10.010551 0.000000
-7.237510 9.695202 0.000000
-6.922160 9.695202 0.066512
-6.606810 9.695202 0.064459
-6.291460 9.695202 0.064581
-5.976110 9.695202 0.064587
-5.660760 9.695202 0.064454
-5.345410 9.695202 0.064133
-5.030060 9.695202 0.064026
-4.714710 9.695202 0.064109
-4.399360 9.695202 0.063987
-4.084010 9.695202 0.064131
-3.768660 9.695202 0.063928
-3.453310 9.695202 0.063423
-3.137960 9.695202 0.063382
-2.822610 9.695202 0.063102
-2.507260 9.695202 0.062993
-2.191910 9.695202 0.062841
-1.876560 9.695202 0.062507
-1.561210 9.695202 0.062242
-1.245860 9.695202 0.062356
-0.930510 9.695202 0.062405
-0.615160 9.695202 0.062169
-0.299810 9.695202 0.062220
0.015540 9.695202 0.062267
0.330890 9.695202 0.061945
0.646240 9.695202 0.061473
0.961589 9.695202 0.061041
1.276940 9.695202 0.060931
1.592289 9.695202 0.061285
1.907640 9.695202 0.062038
2.222990 9.695202 0.062703
2.538340 9.695202 0.063010
2.853690 9.695202 0.063111
3.169039 9.695202 0.063455
3.484390 9.695202 0.064171
3.799739 9.695202 0.065316
4.115090 9.695202 0.066708
4.430439 9.695202 0.068118
4.745790 9.695202 0.069763
5.061140 9.695202 0.071861
5.376490 9.695202 0.074780
5.691840 9.695202 0.078632
6.007189 9.695202 0.083522
6.322540 9.695202 0.089684
6.637889 9.695202 0.098227
6.953240 9.695202 0.111301
7.268589 9.695202 0.132402
7.583940 9.695202 0.172125
7.899290 9.695202 0.247668
8.214640 9.695202 0.381855
8.529989 9.695202 0.576365
8.845339 9.695202 0.821038
9.160688 9.695202 1.091887
9.476040 9.695202 1.367285
9.791389 9.695202 1.645655
10.106739 9.695202 1.890778
10.422089 9.695202 2.146661
10.737438 9.695202 2.377267
11.052790 9.695202 2.650857
11.368139 9.695202 2.834959
11.683489 9.695202 3.073705
11.998838 9.695202 3.298670
12.314190 9.695202 3.547420
12.629539 9.695202 3.681217
12.944889 9.695202 3.895204
13.260239 9.695202 4.077600
13.575588 9.695202 4.218538
13.890940 9.695202 4.452158
14.206289 9.695202 4.627198
14.521639 9.695202 5.081764
14.836988 9.695202 5.667052
15.152340 9.695202 6.989680
15.467690 9.695202 0.000000
15.783039 9.695202 0.000000
16.098389 9.695202 0.000000
16.413738 9.695202 0.000000
16.729090 9.695202 0.000000
17.044439 9.695202 0.000000
17.359789 9.695202 0.000000
17.675138 9.695202 0.000000
17.990490 9.695202 38.190125
18.305840 9.695202 38.846230
18.621189 9.695202 39.487804
18.936539 9.695202 0.000000
19.251888 9.695202 0.000000
-7.237510 9.379852 0.000000
-6.922160 9.379852 0.066353
-6.606810 9.379852 0.064343
-6.291460 9.379852 0.064269
-5.976110 9.379852 0.064317
-5.660760 9.379852 0.064214
-5.345410 9.379852 0.063966
-5.030060 9.379852 0.063834
-4.714710 9.379852 0.063758
-4.399360 9.379852 0.063839
-4.084010 9.379852 0.064125
-3.768660 9.379852 0.064077
-3.453310 9.379852 0.063650
-3.137960 9.379852 0.063479
-2.822610 9.379852 0.063335
-2.507260 9.379852 0.063183
-2.191910 9.379852 0.062868
-1.876560 9.379852 0.062519
-1.561210 9.379852 0.062255
-1.245860 9.379852 0.062260
-0.930510 9.379852 0.062088
-0.615160 9.379852 0.061611
-0.299810 9.379852 0.061471
0.015540 9.379852 0.061621
0.330890 9.379852 0.061493
0.646240 9.379852 0.061096
0.961589 9.379852 0.060703
1.276940 9.379852 0.060725
1.592289 9.379852 0.061142
1.907640 9.379852 0.061929
2.222990 9.379852 0.062725
2.538340 9.379852 0.062987
2.853690 9.379852 0.063058
3.169039 9.379852 0.063479
3.484390 9.379852 0.064357
3.799739 9.379852 0.065433
4.115090 9.379852 0.066686
4.430439 9.379852 0.068138
4.745790 9.379852 0.069820
5.061140 9.379852 0.071733
5.376490 9.379852 0.074423
5.691840 9.379852 0.078130
6.007189 9.379852 0.082975
6.322540 9.379852 0.089692
6.637889 9.379852 0.098758
6.953240 9.379852 0.112217
7.268589 9.379852 0.132885
7.583940 9.379852 0.175532
7.899290 9.379852 0.253386
8.214640 9.379852 0.400235
8.529989 9.379852 0.588456
8.845339 9.379852 0.842525
9.160688 9.379852 1.117797
9.476040 9.379852 1.396365
9.791389 9.379852 1.648336
10.106739 9.379852 1.882514
10.422089 9.379852 2.137312
10.737438 9.379852 2.384775
11.052790 9.379852 2.624435
11.368139 9.379852 2.853142
11.683489 9.379852 3.079065
11.998838 9.379852 3.323052
12.314190 9.379852 3.501689
12.629539 9.379852 3.702249
12.944889 9.379852 3.853758
13.260239 9.379852 4.063705
13.575588 9.379852 4.173684
13.890940 9.379852 4.267316
14.206289 9.379852 4.544144
14.521639 9.379852 5.036123
14.836988 9.379852 5.725104
15.152340 9.379852 6.824783
15.467690 9.379852 0.000000
15.783039 9.379852 0.000000
16.098389 9.379852 0.000000
16.413738 9.379852 0.000000
16.729090 9.379852 0.000000
17.044439 9.379852 0.000000
17.359789 9.379852 0.000000
17.675138 9.379852 0.000000
17.990490 9.379852 38.438351
18.305840 9.379852 38.888428
18.621189 9.379852 39.977486
18.936539 9.379852 0.000000
19.251888 9.379852 0.000000
-7.237510 9.064503 0.000000
-6.922160 9.064503 0.066312
-6.606810 9.064503 0.064247
-6.291460 9.064503 0.064100
-5.976110 9.064503 0.064158
-5.660760 9.064503 0.064245
-5.345410 9.064503 0.064190
-5.030060 9.064503 0.063954
-4.714710 9.064503 0.063790
-4.399360 9.064503 0.063865
-4.084010 9.064503 0.064211
-3.768660 9.064503 0.064100
-3.453310 9.064503 0.063680
-3.137960 9.064503 0.063547
-2.822610 9.064503 0.063450
-2.507260 9.064503 0.063279
-2.191910 9.064503 0.062785
-1.876560 9.064503 0.062397
-1.561210 9.064503 0.062214
-1.245860 9.064503 0.062044
-0.930510 9.064503 0.061707
-0.615160 9.064503 0.060987
-0.299810 9.064503 0.060783
0.015540 9.064503 0.060982
0.330890 9.064503 0.061001
0.646240 9.064503 0.060817
0.961589 9.064503 0.060669
1.276940 9.064503 0.060896
1.592289 9.064503 0.061337
1.907640 9.064503 0.062003
2.222990 9.064503 0.062675
2.538340 9.064503 0.062882
2.853690 9.064503 0.062844
3.169039 9.064503 0.063347
3.484390 9.064503 0.064216
3.799739 9.064503 0.065158
4.115090 9.064503 0.066383
4.430439 9.064503 0.067960
4.745790 9.064503 0.069679
5.061140 9.064503 0.071603
5.376490 9.064503 0.074105
5.691840 9.064503 0.077971
6.007189 9.064503 0.083091
6.322540 9.064503 0.090468
6.637889 9.064503 0.099628
6.953240 9.064503 0.113266
7.268589 9.064503 0.134790
7.583940 9.064503 0.175827
7.899290 9.064503 0.257904
8.214640 9.064503 0.408846
8.529989 9.064503 0.605207
8.845339 9.064503 0.853194
9.160688 9.064503 1.131840
9.476040 9.064503 1.387596
9.791389 9.064503 1.662313
10.106739 9.064503 1.895764
10.422089 9.064503 2.156946
10.737438 9.064503 2.394658
11.052790 9.064503 2.662941
11.368139 9.064503 2.868584
11.683489 9.064503 3.104634
11.998838 9.064503 3.335404
12.314190 9.064503 3.524710
12.629539 9.064503 3.765492
12.944889 9.064503 3.917068
13.260239 9.064503 4.050639
13.575588 9.064503 4.172465
13.890940 9.064503 4.257174
14.206289 9.064503 4.569180
14.521639 9.064503 5.017097
14.836988 9.064503 5.709931
15.152340 9.064503 7.039003
15.467690 9.064503 0.000000
15.783039 9.064503 0.000000
16.098389 9.064503 0.000000
16.413738 9.064503 0.000000
16.729090 9.064503 0.000000
17.044439 9.064503 0.000000
17.359789 9.064503 0.000000
17.675138 9.064503 0.000000
17.990490 9.064503 39.484940
18.305840 9.064503 39.174213
18.621189 9.064503 40.105232
18.936539 9.064503 0.000000
19.251888 9.064503 0.000000
-7.237510 8.749149 0.000000
-6.922160 8.749149 0.066389
-6.606810 8.749149 0.064330
-6.291460 8.749149 0.064151
-5.976110 8.749149 0.064197
-5.660760 8.749149 0.064352
-5.345410 8.749149 0.064455
-5.030060 8.749149 0.064190
-4.714710 8.749149 0.063916
-4.399360 8.749149 0.063965
-4.084010 8.749149 0.064080
-3.768660 8.749149 0.063726
-3.453310 8.749149 0.063397
-3.137960 8.749149 0.063381
-2.822610 8.749149 0.063328
-2.507260 8.749149 0.063032
-2.191910 8.749149 0.062471
-1.876560 8.749149 0.062299
-1.561210 8.749149 0.062161
-1.245860 8.749149 0.061821
-0.930510 8.749149 0.061379
-0.615160 8.749149 0.060603
-0.299810 8.749149 0.060336
0.015540 8.749149 0.060592
0.330890 8.749149 0.060766
0.646240 8.749149 0.060774
0.961589 8.749149 0.060786
1.276940 8.749149 0.061097
1.592289 8.749149 0.061462
1.907640 8.749149 0.061924
2.222990 8.749149 0.062394
2.538340 8.749149 0.062448
2.853690 8.749149 0.062416
3.169039 8.749149 0.063005
3.484390 8.749149 0.063831
3.799739 8.749149 0.064759
4.115090 8.749149 0.066148
4.430439 8.749149 0.067872
4.745790 8.749149 0.069735
5.061140 8.749149 0.071596
5.376490 8.749149 0.074191
5.691840 8.749149 0.078245
6.007189 8.749149 0.083685
6.322540 8.749149 0.090954
6.637889 8.749149 0.100503
6.953240 8.749149 0.113830
7.268589 8.749149 0.135921
7.583940 8.749149 0.177378
7.899290 8.749149 0.262877
8.214640 8.749149 0.415632
8.529989 8.749149 0.626325
8.845339 8.749149 0.881991
9.160688 8.749149 1.150423
9.476040 8.749149 1.409215
9.791389 8.749149 1.645257
10.106739 8.749149 1.903490
10.422089 8.749149 2.149713
10.737438 8.749149 2.389388
11.052790 8.749149 2.637252
11.368139 8.749149 2.846439
11.683489 8.749149 3.115913
11.998838 8.749149 3.364803
12.314190 8.749149 3.576832
12.629539 8.749149 3.687011
12.944889 8.749149 3.879714
13.260239 8.749149 4.068832
13.575588 8.749149 4.232183
13.890940 8.749149 4.274209
14.206289 8.749149 4.638474
14.521639 8.749149 4.999162
14.836988 8.749149 5.780392
15.152340 8.749149 7.126403
15.467690 8.749149 0.000000
15.783039 8.749149 0.000000
16.098389 8.749149 0.000000
16.413738 8.749149 0.000000
16.729090 8.749149 0.000000
17.044439 8.749149 0.000000
17.359789 8.749149 0.000000
17.675138 8.749149 0.000000
17.990490 8.749149 39.834805
18.305840 8.749149 39.468761
18.621189 8.749149 40.867256
18.936539 8.749149 0.000000
19.251888 8.749149 0.000000
-7.237510 8.433800 0.000000
-6.922160 8.433800 0.066677
-6.606810 8.433800 0.064503
-6.291460 8.433800 0.064289
-5.976110 8.433800 0.064289
-5.660760 8.433800 0.064359
-5.345410 8.433800 0.064417
-5.030060 8.433800 0.064267
-4.714710 8.433800 0.064036
-4.399360 8.433800 0.063852
-4.084010 8.433800 0.063659
-3.768660 8.433800 0.063205
-3.453310 8.433800 0.063008
-3.137960 8.433800 0.063068
-2.822610 8.433800 0.063006
-2.507260 8.433800 0.062685
-2.191910 8.433800 0.062256
-1.876560 8.433800 0.062168
-1.561210 8.433800 0.062101
-1.245860 8.433800 0.061698
-0.930510 8.433800 0.061182
-0.615160 8.433800 0.060540
-0.299810 8.433800 0.060320
0.015540 8.433800 0.060458
0.330890 8.433800 0.060638
0.646240 8.433800 0.060707
0.961589 8.433800 0.060814
1.276940 8.433800 0.061018
1.592289 8.433800 0.061217
1.907640 8.433800 0.061568
2.222990 8.433800 0.061945
2.538340 8.433800 0.061932
2.853690 8.433800 0.062064
3.169039 8.433800 0.062733
3.484390 8.433800 0.063570
3.799739 8.433800 0.064614
4.115090 8.433800 0.066275
4.430439 8.433800 0.068193
4.745790 8.433800 0.069940
5.061140 8.433800 0.071851
5.376490 8.433800 0.074542
5.691840 8.433800 0.078602
6.007189 8.433800 0.084088
6.322540 8.433800 0.091209
6.637889 8.433800 0.100984
6.953240 8.433800 0.115386
7.268589 8.433800 0.137688
7.583940 8.433800 0.179044
7.899290 8.433800 0.265058
8.214640 8.433800 0.422612
8.529989 8.433800 0.641402
8.845339 8.433800 0.912974
9.160688 8.433800 1.169303
9.476040 8.433800 1.437512
9.791389 8.433800 1.679911
10.106739 8.433800 1.902640
10.422089 8.433800 2.172421
10.737438 8.433800 2.407232
11.052790 8.433800 2.641323
11.368139 8.433800 2.897872
11.683489 8.433800 3.175538
11.998838 8.433800 3.384302
12.314190 8.433800 3.655944
12.629539 8.433800 3.729162
12.944889 8.433800 3.864547
13.260239 8.433800 3.989314
13.575588 8.433800 4.064315
13.890940 8.433800 4.245418
14.206289 8.433800 4.704555
14.521639 8.433800 5.130590
14.836988 8.433800 5.952959
15.152340 8.433800 7.450814
15.467690 8.433800 0.000000
15.783039 8.433800 0.000000
16.098389 8.433800 0.000000
16.413738 8.433800 0.000000
16.729090 8.433800 0.000000
17.044439 8.433800 0.000000
17.359789 8.433800 0.000000
17.675138 8.433800 0.000000
17.990490 8.433800 39.583740
18.305840 8.433800 39.508492
18.621189 8.433800 40.977161
18.936539 8.433800 0.000000
19.251888 8.433800 0.000000
-7.237510 8.118450 0.000000
-6.922160 8.118450 0.066792
-6.606810 8.118450 0.064546
-6.291460 8.118450 0.064120
-5.976110 8.118450 0.064157
-5.660760 8.118450 0.064069
-5.345410 8.118450 0.064051
-5.030060 8.118450 0.064094
-4.714710 8.118450 0.063997
-4.399360 8.118450 0.063698
-4.084010 8.118450 0.063202
-3.768660 8.118450 0.062748
-3.453310 8.118450 0.062612
-3.137960 8.118450 0.062668
-2.822610 8.118450 0.062633
-2.507260 8.118450 0.062361
-2.191910 8.118450 0.062130
-1.876560 8.118450 0.062161
-1.561210 8.118450 0.062067
-1.245860 8.118450 0.061664
-0.930510 8.118450 0.061083
-0.615160 8.118450 0.060650
-0.299810 8.118450 0.060508
0.015540 8.118450 0.060456
0.330890 8.118450 0.060492
0.646240 8.118450 0.060558
0.961589 8.118450 0.060589
1.276940 8.118450 0.060680
1.592289 8.118450 0.060772
1.907640 8.118450 0.061032
2.222990 8.118450 0.061421
2.538340 8.118450 0.061624
2.853690 8.118450 0.061969
3.169039 8.118450 0.062657
3.484390 8.118450 0.063463
3.799739 8.118450 0.064587
4.115090 8.118450 0.066404
4.430439 8.118450 0.068377
4.745790 8.118450 0.069990
5.061140 8.118450 0.071857
5.376490 8.118450 0.074693
5.691840 8.118450 0.078749
6.007189 8.118450 0.084183
6.322540 8.118450 0.091276
6.637889 8.118450 0.101443
6.953240 8.118450 0.116808
7.268589 8.118450 0.140673
7.583940 8.118450 0.184488
7.899290 8.118450 0.274141
8.214640 8.118450 0.434678
8.529989 8.118450 0.647400
8.845339 8.118450 0.917785
9.160688 8.118450 1.187906
9.476040 8.118450 1.454056
9.791389 8.118450 1.689992
10.106739 8.118450 1.928372
10.422089 8.118450 2.188879
10.737438 8.118450 2.413263
11.052790 8.118450 2.647018
11.368139 8.118450 2.930993
11.683489 8.118450 3.186059
11.998838 8.118450 3.397190
12.314190 8.118450 3.592144
12.629539 8.118450 3.815876
12.944889 8.118450 3.878448
13.260239 8.118450 4.016533
13.575588 8.118450 4.158129
13.890940 8.118450 4.269621
14.206289 8.118450 4.648901
14.521639 8.118450 5.173569
14.836988 8.118450 6.156540
15.152340 8.118450 7.552254
15.467690 8.118450 0.000000
15.783039 8.118450 0.000000
16.098389 8.118450 0.000000
16.413738 8.118450 0.000000
16.729090 8.118450 0.000000
17.044439 8.118450 0.000000
17.359789 8.118450 0.000000
17.675138 8.118450 0.000000
17.990490 8.118450 37.653675
18.305840 8.118450 38.830814
18.621189 8.118450 40.697353
18.936539 8.118450 0.000000
19.251888 8.118450 0.000000
-7.237510 7.803101 0.000000
-6.922160 7.803101 0.066578
-6.606810 7.803101 0.064292
-6.291460 7.803101 0.063892
-5.976110 7.803101 0.063833
-5.660760 7.803101 0.063615
-5.345410 7.803101 0.063634
-5.030060 7.803101 0.063908
-4.714710 7.803101 0.063872
-4.399360 7.803101 0.063515
-4.084010 7.803101 0.062947
-3.768660 7.803101 0.062528
-3.453310 7.803101 0.062329
-3.137960 7.803101 0.062213
-2.822610 7.803101 0.062119
-2.507260 7.803101 0.061999
-2.191910 7.803101 0.061966
-1.876560 7.803101 0.062027
-1.561210 7.803101 0.061926
-1.245860 7.803101 0.061621
-0.930510 7.803101 0.061094
-0.615160 7.803101 0.060789
-0.299810 7.803101 0.060764
0.015540 7.803101 0.060523
0.330890 7.803101 0.060419
0.646240 7.803101 0.060400
0.961589 7.803101 0.060330
1.276940 7.803101 0.060263
1.592289 7.803101 0.060359
1.907640 7.803101 0.060651
2.222990 7.803101 0.061090
2.538340 7.803101 0.061570
2.853690 7.803101 0.062163
3.169039 7.803101 0.062798
3.484390 7.803101 0.063442
3.799739 7.803101 0.064577
4.115090 7.803101 0.066362
4.430439 7.803101 0.068319
4.745790 7.803101 0.069840
5.061140 7.803101 0.071765
5.376490 7.803101 0.074798
5.691840 7.803101 0.078843
6.007189 7.803101 0.084284
6.322540 7.803101 0.091618
6.637889 7.803101 0.101567
6.953240 7.803101 0.118058
7.268589 7.803101 0.143156
7.583940 7.803101 0.192127
7.899290 7.803101 0.283561
8.214640 7.803101 0.452164
8.529989 7.803101 0.664929
8.845339 7.803101 0.931858
9.160688 7.803101 1.214502
9.476040 7.803101 1.466337
9.791389 7.803101 1.710360
10.106739 7.803101 1.955983
10.422089 7.803101 2.204350
10.737438 7.803101 2.462324
11.052790 7.803101 2.694902
11.368139 7.803101 2.958256
11.683489 7.803101 3.239550
11.998838 7.803101 3.378502
12.314190 7.803101 3.596592
12.629539 7.803101 3.762592
12.944889 7.803101 3.843681
13.260239 7.803101 4.026659
13.575588 7.803101 4.176748
13.890940 7.803101 4.243075
14.206289 7.803101 4.555712
14.521639 7.803101 5.216381
14.836988 7.803101 6.308225
15.152340 7.803101 7.509859
15.467690 7.803101 0.000000
15.783039 7.803101 0.000000
16.098389 7.803101 0.000000
16.413738 7.803101 0.000000
16.729090 7.803101 0.000000
17.044439 7.803101 0.000000
17.359789 7.803101 0.000000
17.675138 7.803101 0.000000
17.990490 7.803101 35.638844
18.305840 7.803101 37.604874
18.621189 7.803101 40.260876
18.936539 7.803101 0.000000
19.251888 7.803101 0.000000
-7.237510 7.487751 0.000000
-6.922160 7.487751 0.066330
-6.606810 7.487751 0.063978
-6.291460 7.487751 0.063556
-5.976110 7.487751 0.063432
-5.660760 7.487751 0.063270
-5.345410 7.487751 0.063389
-5.030060 7.487751 0.063725
-4.714710 7.487751 0.063753
-4.399360 7.487751 0.063379
-4.084010 7.487751 0.062901
-3.768660 7.487751 0.062482
-3.453310 7.487751 0.062195
-3.137960 7.487751 0.061846
-2.822610 7.487751 0.061622
-2.507260 7.487751 0.061567
-2.191910 7.487751 0.061653
-1.876560 7.487751 0.061724
-1.561210 7.487751 0.061626
-1.245860 7.487751 0.061392
-0.930510 7.487751 0.061010
-0.615160 7.487751 0.060944
-0.299810 7.487751 0.060889
0.015540 7.487751 0.060514
0.330890 7.487751 0.060356
0.646240 7.487751 0.060381
0.961589 7.487751 0.060205
1.276940 7.487751 0.060094
1.592289 7.487751 0.060134
1.907640 7.487751 0.060583
2.222990 7.487751 0.061024
2.538340 7.487751 0.061746
2.853690 7.487751 0.062356
3.169039 7.487751 0.062820
3.484390 7.487751 0.063377
3.799739 7.487751 0.064420
4.115090 7.487751 0.066026
4.430439 7.487751 0.067895
4.745790 7.487751 0.069650
5.061140 7.487751 0.071621
5.376490 7.487751 0.074803
5.691840 7.487751 0.079169
6.007189 7.487751 0.084806
6.322540 7.487751 0.092078
6.637889 7.487751 0.102343
6.953240 7.487751 0.118852
7.268589 7.487751 0.146372
7.583940 7.487751 0.197853
7.899290 7.487751 0.289925
8.214640 7.487751 0.458856
8.529989 7.487751 0.676631
8.845339 7.487751 0.941798
9.160688 7.487751 1.226023
9.476040 7.487751 1.469421
9.791389 7.487751 1.717102
10.106739 7.487751 1.978784
10.422089 7.487751 2.272283
10.737438 7.487751 2.498364
11.052790 7.487751 2.716581
11.368139 7.487751 2.958324
11.683489 7.487751 3.218920
11.998838 7.487751 3.431701
12.314190 7.487751 3.536434
12.629539 7.487751 3.717143
12.944889 7.487751 3.893789
13.260239 7.487751 3.974807
13.575588 7.487751 4.129608
13.890940 7.487751 4.215365
14.206289 7.487751 4.565149
14.521639 7.487751 5.284025
14.836988 7.487751 6.386611
15.152340 7.487751 7.626722
15.467690 7.487751 0.000000
15.783039 7.487751 0.000000
16.098389 7.487751 0.000000
16.413738 7.487751 0.000000
16.729090 7.487751 0.000000
17.044439 7.487751 0.000000
17.359789 7.487751 0.000000
17.675138 7.487751 0.000000
17.990490 7.487751 33.887211
18.305840 7.487751 36.229362
18.621189 7.487751 39.496307
18.936539 7.487751 0.000000
19.251888 7.487751 0.000000
-7.237510 7.172401 0.000000
-6.922160 7.172401 0.065881
-6.606810 7.172401 0.063747
-6.291460 7.172401 0.063341
-5.976110 7.172401 0.063152
-5.660760 7.172401 0.062973
-5.345410 7.172401 0.063208
-5.030060 7.172401 0.063495
-4.714710 7.172401 0.063565
-4.399360 7.172401 0.063152
-4.084010 7.172401 0.062764
-3.768660 7.172401 0.062446
-3.453310 7.172401 0.062101
-3.137960 7.172401 0.061596
-2.822610 7.172401 0.061273
-2.507260 7.172401 0.061214
-2.191910 7.172401 0.061303
-1.876560 7.172401 0.061393
-1.561210 7.172401 0.061390
-1.245860 7.172401 0.061165
-0.930510 7.172401 0.060944
-0.615160 7.172401 0.060878
-0.299810 7.172401 0.060803
0.015540 7.172401 0.060589
0.330890 7.172401 0.060405
0.646240 7.172401 0.060353
0.961589 7.172401 0.060250
1.276940 7.172401 0.060047
1.592289 7.172401 0.060231
1.907640 7.172401 0.060643
2.222990 7.172401 0.061095
2.538340 7.172401 0.061799
2.853690 7.172401 0.062311
3.169039 7.172401 0.062720
3.484390 7.172401 0.063257
3.799739 7.172401 0.064182
4.115090 7.172401 0.065666
4.430439 7.172401 0.067593
4.745790 7.172401 0.069523
5.061140 7.172401 0.071704
5.376490 7.172401 0.075020
5.691840 7.172401 0.079699
6.007189 7.172401 0.085437
6.322540 7.172401 0.092886
6.637889 7.172401 0.103273
6.953240 7.172401 0.118932
7.268589 7.172401 0.147951
7.583940 7.172401 0.200185
7.899290 7.172401 0.293978
8.214640 7.172401 0.464864
8.529989 7.172401 0.690908
8.845339 7.172401 0.962038
9.160688 7.172401 1.235757
9.476040 7.172401 1.490975
9.791389 7.172401 1.755774
10.106739 7.172401 1.998071
10.422089 7.172401 2.308461
10.737438 7.172401 2.521471
11.052790 7.172401 2.762820
11.368139 7.172401 2.968081
11.683489 7.172401 3.208299
11.998838 7.172401 3.378477
12.314190 7.172401 3.562575
12.629539 7.172401 3.764324
12.944889 7.172401 3.833788
13.260239 7.172401 3.960627
13.575588 7.172401 4.127326
13.890940 7.172401 4.302903
14.206289 7.172401 4.646343
14.521639 7.172401 5.220531
14.836988 7.172401 6.293889
15.152340 7.172401 7.739705
15.467690 7.172401 0.000000
15.783039 7.172401 0.000000
16.098389 7.172401 0.000000
16.413738 7.172401 0.000000
16.729090 7.172401 0.000000
17.044439 7.172401 0.000000
17.359789 7.172401 0.000000
17.675138 7.172401 0.000000
17.990490 7.172401 32.281853
18.305840 7.172401 34.662853
18.621189 7.172401 37.390083
18.936539 7.172401 0.000000
19.251888 7.172401 0.000000
-7.237510 6.857052 0.000000
-6.922160 6.857052 0.065323
-6.606810 6.857052 0.063520
-6.291460 6.857052 0.063178
-5.976110 6.857052 0.063031
-5.660760 6.857052 0.062787
-5.345410 6.857052 0.062966
-5.030060 6.857052 0.063289
-4.714710 6.857052 0.063256
-4.399360 6.857052 0.062898
-4.084010 6.857052 0.062611
-3.768660 6.857052 0.062386
-3.453310 6.857052 0.062024
-3.137960 6.857052 0.061535
-2.822610 6.857052 0.061192
-2.507260 6.857052 0.061097
-2.191910 6.857052 0.061112
-1.876560 6.857052 0.061217
-1.561210 6.857052 0.061229
-1.245860 6.857052 0.061085
-0.930510 6.857052 0.060857
-0.615160 6.857052 0.060766
-0.299810 6.857052 0.060742
0.015540 6.857052 0.060642
0.330890 6.857052 0.060529
0.646240 6.857052 0.060481
0.961589 6.857052 0.060310
1.276940 6.857052 0.060191
1.592289 6.857052 0.060376
1.907640 6.857052 0.060705
2.222990 6.857052 0.061194
2.538340 6.857052 0.061756
2.853690 6.857052 0.062151
3.169039 6.857052 0.062625
3.484390 6.857052 0.063208
3.799739 6.857052 0.064142
4.115090 6.857052 0.065551
4.430439 6.857052 0.067367
4.745790 6.857052 0.069548
5.061140 6.857052 0.072067
5.376490 6.857052 0.075561
5.691840 6.857052 0.080267
6.007189 6.857052 0.085993
6.322540 6.857052 0.093603
6.637889 6.857052 0.103272
6.953240 6.857052 0.118803
7.268589 6.857052 0.150045
7.583940 6.857052 0.201194
7.899290 6.857052 0.304795
8.214640 6.857052 0.477771
8.529989 6.857052 0.707946
8.845339 6.857052 0.978476
9.160688 6.857052 1.258461
9.476040 6.857052 1.506431
9.791389 6.857052 1.782685
10.106739 6.857052 2.026847
10.422089 6.857052 2.298885
10.737438 6.857052 2.610142
11.052790 6.857052 2.785215
11.368139 6.857052 2.968139
11.683489 6.857052 3.200101
11.998838 6.857052 3.372801
12.314190 6.857052 3.554188
12.629539 6.857052 3.708086
12.944889 6.857052 3.905071
13.260239 6.857052 3.970067
13.575588 6.857052 4.115470
13.890940 6.857052 4.402308
14.206289 6.857052 4.832221
14.521639 6.857052 5.357557
14.836988 6.857052 6.338559
15.152340 6.857052 7.733853
15.467690 6.857052 0.000000
15.783039 6.857052 0.000000
16.098389 6.857052 0.000000
16.413738 6.857052 0.000000
16.729090 6.857052 0.000000
17.044439 6.857052 0.000000
17.359789 6.857052 0.000000
17.675138 6.857052 0.000000
17.990490 6.857052 30.569384
18.305840 6.857052 32.077560
18.621189 6.857052 34.196064
18.936539 6.857052 0.000000
19.251888 6.857052 0.000000
-7.237510 6.541702 0.000000
-6.922160 6.541702 0.064736
-6.606810 6.541702 0.063167
-6.291460 6.541702 0.063070
-5.976110 6.541702 0.062870
-5.660760 6.541702 0.062622
-5.345410 6.541702 0.062684
-5.030060 6.541702 0.062960
-4.714710 6.541702 0.062877
-4.399360 6.541702 0.062646
-4.084010 6.541702 0.062508
-3.768660 6.541702 0.062287
-3.453310 6.541702 0.062009
-3.137960 6.541702 0.061679
-2.822610 6.541702 0.061315
-2.507260 6.541702 0.061160
-2.191910 6.541702 0.061069
-1.876560 6.541702 0.061156
-1.561210 6.541702 0.061150
-1.245860 6.541702 0.060999
-0.930510 6.541702 0.060843
-0.615160 6.541702 0.060758
-0.299810 6.541702 0.060721
0.015540 6.541702 0.060728
0.330890 6.541702 0.060633
0.646240 6.541702 0.060508
0.961589 6.541702 0.060253
1.276940 6.541702 0.060239
1.592289 6.541702 0.060486
1.907640 6.541702 0.060800
2.222990 6.541702 0.061231
2.538340 6.541702 0.061701
2.853690 6.541702 0.062107
3.169039 6.541702 0.062575
3.484390 6.541702 0.063375
3.799739 6.541702 0.064258
4.115090 6.541702 0.065542
4.430439 6.541702 0.067437
4.745790 6.541702 0.069698
5.061140 6.541702 0.072419
5.376490 6.541702 0.075699
5.691840 6.541702 0.080396
6.007189 6.541702 0.086363
6.322540 6.541702 0.093810
6.637889 6.541702 0.104412
6.953240 6.541702 0.121478
7.268589 6.541702 0.152640
7.583940 6.541702 0.208974
7.899290 6.541702 0.314753
8.214640 6.541702 0.491823
8.529989 6.541702 0.732917
8.845339 6.541702 1.005296
9.160688 6.541702 1.284677
9.476040 6.541702 1.527425
9.791389 6.541702 1.785578
10.106739 6.541702 2.051489
10.422089 6.541702 2.326803
10.737438 6.541702 2.566171
11.052790 6.541702 2.811719
11.368139 6.541702 3.006898
11.683489 6.541702 3.234755
11.998838 6.541702 3.463264
12.314190 6.541702 3.563534
12.629539 6.541702 3.833793
12.944889 6.541702 3.982337
13.260239 6.541702 4.014234
13.575588 6.541702 4.138280
13.890940 6.541702 4.538392
14.206289 6.541702 4.923498
14.521639 6.541702 5.352190
14.836988 6.541702 6.421538
15.152340 6.541702 7.963097
15.467690 6.541702 0.000000
15.783039 6.541702 0.000000
16.098389 6.541702 0.000000
16.413738 6.541702 0.000000
16.729090 6.541702 0.000000
17.044439 6.541702 0.000000
17.359789 6.541702 0.000000
17.675138 6.541702 0.000000
17.990490 6.541702 27.483227
18.305840 6.541702 28.545486
18.621189 6.541702 30.839619
18.936539 6.541702 0.000000
19.251888 6.541702 0.000000
-7.237510 6.226353 0.000000
-6.922160 6.226353 0.064258
-6.606810 6.226353 0.062875
-6.291460 6.226353 0.062847
-5.976110 6.226353 0.062710
-5.660760 6.226353 0.062488
-5.345410 6.226353 0.062487
-5.030060 6.226353 0.062611
-4.714710 6.226353 0.062570
-4.399360 6.226353 0.062483
-4.084010 6.226353 0.062387
-3.768660 6.226353 0.062212
-3.453310 6.226353 0.062127
-3.137960 6.226353 0.061990
-2.822610 6.226353 0.061667
-2.507260 6.226353 0.061431
-2.191910 6.226353 0.061262
-1.876560 6.226353 0.061201
-1.561210 6.226353 0.061128
-1.245860 6.226353 0.060936
-0.930510 6.226353 0.060790
-0.615160 6.226353 0.060718
-0.299810 6.226353 0.060641
0.015540 6.226353 0.060679
0.330890 6.226353 0.060540
0.646240 6.226353 0.060335
0.961589 6.226353 0.060196
1.276940 6.226353 0.060268
1.592289 6.226353 0.060585
1.907640 6.226353 0.060929
2.222990 6.226353 0.061310
2.538340 6.226353 0.061716
2.853690 6.226353 0.062117
3.169039 6.226353 0.062711
3.484390 6.226353 0.063612
3.799739 6.226353 0.064505
4.115090 6.226353 0.065621
4.430439 6.226353 0.067304
4.745790 6.226353 0.069737
5.061140 6.226353 0.072575
5.376490 6.226353 0.076084
5.691840 6.226353 0.080840
6.007189 6.226353 0.087013
6.322540 6.226353 0.094372
6.637889 6.226353 0.105687
6.953240 6.226353 0.124018
7.268589 6.226353 0.156206
7.583940 6.226353 0.215264
7.899290 6.226353 0.334335
8.214640 6.226353 0.509885
8.529989 6.226353 0.757392
8.845339 6.226353 1.030118
9.160688 6.226353 1.301131
9.476040 6.226353 1.549004
9.791389 6.226353 1.811647
10.106739 6.226353 2.056544
10.422089 6.226353 2.322133
10.737438 6.226353 2.561272
11.052790 6.226353 2.756967
11.368139 6.226353 2.982878
11.683489 6.226353 3.258462
11.998838 6.226353 3.483061
12.314190 6.226353 3.629159
12.629539 6.226353 3.850757
12.944889 6.226353 3.969168
13.260239 6.226353 4.019784
13.575588 6.226353 4.210429
13.890940 6.226353 4.470806
14.206289 6.226353 4.863247
14.521639 6.226353 5.628402
14.836988 6.226353 6.583178
15.152340 6.226353 8.130824
15.467690 6.226353 0.000000
15.783039 6.226353 0.000000
16.098389 6.226353 0.000000
16.413738 6.226353 0.000000
16.729090 6.226353 0.000000
17.044439 6.226353 0.000000
17.359789 6.226353 0.000000
17.675138 6.226353 0.000000
17.990490 6.226353 24.089588
18.305840 6.226353 24.772013
18.621189 6.226353 26.767426
18.936539 6.226353 0.000000
19.251888 6.226353 0.000000
-7.237510 5.910999 0.000000
-6.922160 5.910999 0.064013
-6.606810 5.910999 0.062816
-6.291460 5.910999 0.062790
-5.976110 5.910999 0.062632
-5.660760 5.910999 0.062420
-5.345410 5.910999 0.062356
-5.030060 5.910999 0.062272
-4.714710 5.910999 0.062232
-4.399360 5.910999 0.062272
-4.084010 5.910999 0.062239
-3.768660 5.910999 0.062100
-3.453310 5.910999 0.062293
-3.137960 5.910999 0.062396
-2.822610 5.910999 0.062098
-2.507260 5.910999 0.061785
-2.191910 5.910999 0.061541
-1.876560 5.910999 0.061375
-1.561210 5.910999 0.061109
-1.245860 5.910999 0.060871
-0.930510 5.910999 0.060628
-0.615160 5.910999 0.060534
-0.299810 5.910999 0.060547
0.015540 5.910999 0.060591
0.330890 5.910999 0.060463
0.646240 5.910999 0.060185
0.961589 5.910999 0.060129
1.276940 5.910999 0.060360
1.592289 5.910999 0.060726
1.907640 5.910999 0.061098
2.222990 5.910999 0.061421
2.538340 5.910999 0.061742
2.853690 5.910999 0.062105
3.169039 5.910999 0.062693
3.484390 5.910999 0.063709
3.799739 5.910999 0.064624
4.115090 5.910999 0.065631
4.430439 5.910999 0.067325
4.745790 5.910999 0.069814
5.061140 5.910999 0.072662
5.376490 5.910999 0.076494
5.691840 5.910999 0.081704
6.007189 5.910999 0.087757
6.322540 5.910999 0.095187
6.637889 5.910999 0.106271
6.953240 5.910999 0.124211
7.268589 5.910999 0.159527
7.583940 5.910999 0.223757
7.899290 5.910999 0.346041
8.214640 5.910999 0.535266
8.529989 5.910999 0.764723
8.845339 5.910999 1.045384
9.160688 5.910999 1.335828
9.476040 5.910999 1.566926
9.791389 5.910999 1.830417
10.106739 5.910999 2.081708
10.422089 5.910999 2.328808
10.737438 5.910999 2.562848
11.052790 5.910999 2.806652
11.368139 5.910999 3.047061
11.683489 5.910999 3.268291
11.998838 5.910999 3.526413
12.314190 5.910999 3.703202
12.629539 5.910999 3.861921
12.944889 5.910999 3.897742
13.260239 5.910999 4.105437
13.575588 5.910999 4.308018
13.890940 5.910999 4.564548
14.206289 5.910999 5.055510
14.521639 5.910999 5.717963
14.836988 5.910999 6.606257
15.152340 5.910999 8.151485
15.467690 5.910999 0.000000
15.783039 5.910999 0.000000
16.098389 5.910999 0.000000
16.413738 5.910999 0.000000
16.729090 5.910999 0.000000
17.044439 5.910999 0.000000
17.359789 5.910999 0.000000
17.675138 5.910999 0.000000
17.990490 5.910999 20.439379
18.305840 5.910999 21.817051
18.621189 5.910999 25.124657
18.936539 5.910999 0.000000
19.251888 5.910999 0.000000
-7.237510 5.595650 0.000000
-6.922160 5.595650 0.063825
-6.606810 5.595650 0.062681
-6.291460 5.595650 0.062658
-5.976110 5.595650 0.062496
-5.660760 5.595650 0.062384
-5.345410 5.595650 0.062239
-5.030060 5.595650 0.062091
-4.714710 5.595650 0.061937
-4.399360 5.595650 0.062092
-4.084010 5.595650 0.062046
-3.768660 5.595650 0.062007
-3.453310 5.595650 0.062421
-3.137960 5.595650 0.062608
-2.822610 5.595650 0.062317
-2.507260 5.595650 0.061910
-2.191910 5.595650 0.061641
-1.876560 5.595650 0.061351
-1.561210 5.595650 0.060989
-1.245860 5.595650 0.060759
-0.930510 5.595650 0.060500
-0.615160 5.595650 0.060420
-0.299810 5.595650 0.060511
0.015540 5.595650 0.060559
0.330890 5.595650 0.060442
0.646240 5.595650 0.060135
0.961589 5.595650 0.060217
1.276940 5.595650 0.060591
1.592289 5.595650 0.060960
1.907640 5.595650 0.061286
2.222990 5.595650 0.061445
2.538340 5.595650 0.061648
2.853690 5.595650 0.062006
3.169039 5.595650 0.062662
3.484390 5.595650 0.063672
3.799739 5.595650 0.064639
4.115090 5.595650 0.065668
4.430439 5.595650 0.067395
4.745790 5.595650 0.069908
5.061140 5.595650 0.072955
5.376490 5.595650 0.076921
5.691840 5.595650 0.082354
6.007189 5.595650 0.088621
6.322540 5.595650 0.095802
6.637889 5.595650 0.107073
6.953240 5.595650 0.127602
7.268589 5.595650 0.164172
7.583940 5.595650 0.230395
7.899290 5.595650 0.355215
8.214640 5.595650 0.548402
8.529989 5.595650 0.769954
8.845339 5.595650 1.061614
9.160688 5.595650 1.344237
9.476040 5.595650 1.594035
9.791389 5.595650 1.842395
10.106739 5.595650 2.095433
10.422089 5.595650 2.346752
10.737438 5.595650 2.577807
11.052790 5.595650 2.824162
11.368139 5.595650 3.042333
11.683489 5.595650 3.280411
11.998838 5.595650 3.570360
12.314190 5.595650 3.682207
12.629539 5.595650 3.815564
12.944889 5.595650 3.938818
13.260239 5.595650 4.106630
13.575588 5.595650 4.273488
13.890940 5.595650 4.656173
14.206289 5.595650 5.027338
14.521639 5.595650 5.696573
14.836988 5.595650 6.625306
15.152340 5.595650 7.837159
15.467690 5.595650 0.000000
15.783039 5.595650 0.000000
16.098389 5.595650 0.000000
16.413738 5.595650 0.000000
16.729090 5.595650 0.000000
17.044439 5.595650 0.000000
17.359789 5.595650 0.000000
17.675138 5.595650 0.000000
17.990490 5.595650 17.394880
18.305840 5.595650 20.208538
18.621189 5.595650 24.511799
18.936539 5.595650 0.000000
19.251888 5.595650 0.000000
-7.237510 5.280300 0.000000
-6.922160 5.280300 0.063836
-6.606810 5.280300 0.062664
-6.291460 5.280300 0.062560
-5.976110 5.280300 0.062392
-5.660760 5.280300 0.062399
-5.345410 5.280300 0.062237
-5.030060 5.280300 0.061986
-4.714710 5.280300 0.061837
-4.399360 5.280300 0.061873
-4.084010 5.280300 0.061877
-3.768660 5.280300 0.061885
-3.453310 5.280300 0.062353
-3.137960 5.280300 0.062570
-2.822610 5.280300 0.062261
-2.507260 5.280300 0.061793
-2.191910 5.280300 0.061502
-1.876560 5.280300 0.061134
-1.561210 5.280300 0.060812
-1.245860 5.280300 0.060680
-0.930510 5.280300 0.060511
-0.615160 5.280300 0.060497
-0.299810 5.280300 0.060602
0.015540 5.280300 0.060701
0.330890 5.280300 0.060596
0.646240 5.280300 0.060265
0.961589 5.280300 0.060380
1.276940 5.280300 0.060823
1.592289 5.280300 0.061069
1.907640 5.280300 0.061299
2.222990 5.280300 0.061356
2.538340 5.280300 0.061517
2.853690 5.280300 0.061939
3.169039 5.280300 0.062605
3.484390 5.280300 0.063578
3.799739 5.280300 0.064595
4.115090 5.280300 0.065758
4.430439 5.280300 0.067572
4.745790 5.280300 0.070094
5.061140 5.280300 0.073212
5.376490 5.280300 0.077229
5.691840 5.280300 0.082632
6.007189 5.280300 0.089142
6.322540 5.280300 0.096478
6.637889 5.280300 0.107838
6.953240 5.280300 0.128202
7.268589 5.280300 0.167515
7.583940 5.280300 0.232510
7.899290 5.280300 0.362418
8.214640 5.280300 0.564694
8.529989 5.280300 0.799756
8.845339 5.280300 1.093403
9.160688 5.280300 1.363440
9.476040 5.280300 1.604437
9.791389 5.280300 1.854869
10.106739 5.280300 2.140523
10.422089 5.280300 2.388585
10.737438 5.280300 2.588777
11.052790 5.280300 2.866139
11.368139 5.280300 3.100719
11.683489 5.280300 3.353840
11.998838 5.280300 3.583825
12.314190 5.280300 3.675910
12.629539 5.280300 3.817117
12.944889 5.280300 3.972244
13.260239 5.280300 4.116829
13.575588 5.280300 4.174474
13.890940 5.280300 4.728296
14.206289 5.280300 5.208798
14.521639 5.280300 6.005709
14.836988 5.280300 6.719299
15.152340 5.280300 8.051568
15.467690 5.280300 0.000000
15.783039 5.280300 0.000000
16.098389 5.280300 0.000000
16.413738 5.280300 0.000000
16.729090 5.280300 0.000000
17.044439 5.280300 0.000000
17.359789 5.280300 0.000000
17.675138 5.280300 0.000000
17.990490 5.280300 15.004686
18.305840 5.280300 18.703039
18.621189 5.280300 22.770197
18.936539 5.280300 0.000000
19.251888 5.280300 0.000000
-7.237510 4.964951 0.000000
-6.922160 4.964951 0.063792
-6.606810 4.964951 0.062615
-6.291460 4.964951 0.062420
-5.976110 4.964951 0.062329
-5.660760 4.964951 0.062413
-5.345410 4.964951 0.062291
-5.030060 4.964951 0.061991
-4.714710 4.964951 0.061787
-4.399360 4.964951 0.061785
-4.084010 4.964951 0.061664
-3.768660 4.964951 0.061697
-3.453310 4.964951 0.062123
-3.137960 4.964951 0.062291
-2.822610 4.964951 0.062040
-2.507260 4.964951 0.061653
-2.191910 4.964951 0.061398
-1.876560 4.964951 0.061036
-1.561210 4.964951 0.060759
-1.245860 4.964951 0.060773
-0.930510 4.964951 0.060771
-0.615160 4.964951 0.060733
-0.299810 4.964951 0.060773
0.015540 4.964951 0.060785
0.330890 4.964951 0.060693
0.646240 4.964951 0.060417
0.961589 4.964951 0.060552
1.276940 4.964951 0.060898
1.592289 4.964951 0.061024
1.907640 4.964951 0.061133
2.222990 4.964951 0.061244
2.538340 4.964951 0.061586
2.853690 4.964951 0.062063
3.169039 4.964951 0.062736
3.484390 4.964951 0.063705
3.799739 4.964951 0.064843
4.115090 4.964951 0.066095
4.430439 4.964951 0.067807
4.745790 4.964951 0.070193
5.061140 4.964951 0.073354
5.376490 4.964951 0.077476
5.691840 4.964951 0.082815
6.007189 4.964951 0.089172
6.322540 4.964951 0.096561
6.637889 4.964951 0.108378
6.953240 4.964951 0.129359
7.268589 4.964951 0.168902
7.583940 4.964951 0.238733
7.899290 4.964951 0.379375
8.214640 4.964951 0.584725
8.529989 4.964951 0.828196
8.845339 4.964951 1.116221
9.160688 4.964951 1.394042
9.476040 4.964951 1.634166
9.791389 4.964951 1.864025
10.106739 4.964951 2.136946
10.422089 4.964951 2.372257
10.737438 4.964951 2.628995
11.052790 4.964951 2.875158
11.368139 4.964951 3.117267
11.683489 4.964951 3.348650
11.998838 4.964951 3.531290
12.314190 4.964951 3.723407
12.629539 4.964951 3.855211
12.944889 4.964951 3.920351
13.260239 4.964951 4.050853
13.575588 4.964951 4.355594
13.890940 4.964951 4.815559
14.206289 4.964951 5.431450
14.521639 4.964951 6.181959
14.836988 4.964951 6.975568
15.152340 4.964951 7.944431
15.467690 4.964951 0.000000
15.783039 4.964951 0.000000
16.098389 4.964951 0.000000
16.413738 4.964951 0.000000
16.729090 4.964951 0.000000
17.044439 4.964951 0.000000
17.359789 4.964951 0.000000
17.675138 4.964951 0.000000
17.990490 4.964951 13.268002
18.305840 4.964951 16.932468
18.621189 4.964951 21.368416
18.936539 4.964951 0.000000
19.251888 4.964951 0.000000
-7.237510 4.649601 0.000000
-6.922160 4.649601 0.063691
-6.606810 4.649601 0.062566
-6.291460 4.649601 0.062307
-5.976110 4.649601 0.062269
-5.660760 4.649601 0.062393
-5.345410 4.649601 0.062277
-5.030060 4.649601 0.061969
-4.714710 4.649601 0.061768
-4.399360 4.649601 0.061697
-4.084010 4.649601 0.061462
-3.768660 4.649601 0.061440
-3.453310 4.649601 0.061753
-3.137960 4.649601 0.061894
-2.822610 4.649601 0.061791
-2.507260 4.649601 0.061686
-2.191910 4.649601 0.061527
-1.876560 4.649601 0.061137
-1.561210 4.649601 0.060902
-1.245860 4.649601 0.061012
-0.930510 4.649601 0.061101
-0.615160 4.649601 0.061009
-0.299810 4.649601 0.060870
0.015540 4.649601 0.060786
0.330890 4.649601 0.060737
0.646240 4.649601 0.060558
0.961589 4.649601 0.060706
1.276940 4.649601 0.061008
1.592289 4.649601 0.061056
1.907640 4.649601 0.061046
2.222990 4.649601 0.061309
2.538340 4.649601 0.061850
2.853690 4.649601 0.062390
3.169039 4.649601 0.063020
3.484390 4.649601 0.063942
3.799739 4.649601 0.065148
4.115090 4.649601 0.066442
4.430439 4.649601 0.067954
4.745790 4.649601 0.070252
5.061140 4.649601 0.073372
5.376490 4.649601 0.077552
5.691840 4.649601 0.082786
6.007189 4.649601 0.089040
6.322540 4.649601 0.096644
6.637889 4.649601 0.108883
6.953240 4.649601 0.132340
7.268589 4.649601 0.172908
7.583940 4.649601 0.249260
7.899290 4.649601 0.399175
8.214640 4.649601 0.608135
8.529989 4.649601 0.859245
8.845339 4.649601 1.138280
9.160688 4.649601 1.422644
9.476040 4.649601 1.653764
9.791389 4.649601 1.886487
10.106739 4.649601 2.134727
10.422089 4.649601 2.391061
10.737438 4.649601 2.629417
11.052790 4.649601 2.881620
11.368139 4.649601 3.154705
11.683489 4.649601 3.356312
11.998838 4.649601 3.514210
12.314190 4.649601 3.634029
12.629539 4.649601 3.783644
12.944889 4.649601 3.974041
13.260239 4.649601 4.058076
13.575588 4.649601 4.374500
13.890940 4.649601 4.801772
14.206289 4.649601 5.559099
14.521639 4.649601 6.414464
14.836988 4.649601 7.442337
15.152340 4.649601 8.585043
15.467690 4.649601 0.000000
15.783039 4.649601 0.000000
16.098389 4.649601 0.000000
16.413738 4.649601 0.000000
16.729090 4.649601 0.000000
17.044439 4.649601 0.000000
17.359789 4.649601 0.000000
17.675138 4.649601 0.000000
17.990490 4.649601 11.991019
18.305840 4.649601 15.099992
18.621189 4.649601 18.934198
18.936539 4.649601 0.000000
19.251888 4.649601 0.000000
-7.237510 4.334251 0.000000
-6.922160 4.334251 0.063439
-6.606810 4.334251 0.062388
-6.291460 4.334251 0.062234
-5.976110 4.334251 0.062220
-5.660760 4.334251 0.062362
-5.345410 4.334251 0.062333
-5.030060 4.334251 0.062135
-4.714710 4.334251 0.061968
-4.399360 4.334251 0.061753
-4.084010 4.334251 0.061432
-3.768660 4.334251 0.061285
-3.453310 4.334251 0.061429
-3.137960 4.334251 0.061646
-2.822610 4.334251 0.061649
-2.507260 4.334251 0.061690
-2.191910 4.334251 0.061701
-1.876560 4.334251 0.061355
-1.561210 4.334251 0.061062
-1.245860 4.334251 0.061180
-0.930510 4.334251 0.061337
-0.615160 4.334251 0.061236
-0.299810 4.334251 0.060889
0.015540 4.334251 0.060808
0.330890 4.334251 0.060841
0.646240 4.334251 0.060807
0.961589 4.334251 0.061003
1.276940 4.334251 0.061273
1.592289 4.334251 0.061246
1.907640 4.334251 0.061095
2.222990 4.334251 0.061432
2.538340 4.334251 0.062113
2.853690 4.334251 0.062761
3.169039 4.334251 0.063300
3.484390 4.334251 0.064099
3.799739 4.334251 0.065412
4.115090 4.334251 0.066658
4.430439 4.334251 0.068196
4.745790 4.334251 0.070534
5.061140 4.334251 0.073653
5.376490 4.334251 0.077837
5.691840 4.334251 0.082987
6.007189 4.334251 0.088805
6.322540 4.334251 0.097324
6.637889 4.334251 0.110520
6.953240 4.334251 0.134336
7.268589 4.334251 0.175462
7.583940 4.334251 0.255193
7.899290 4.334251 0.412686
8.214640 4.334251 0.625456
8.529989 4.334251 0.885776
8.845339 4.334251 1.174517
9.160688 4.334251 1.453394
9.476040 4.334251 1.683998
9.791389 4.334251 1.909096
10.106739 4.334251 2.142663
10.422089 4.334251 2.422335
10.737438 4.334251 2.657955
11.052790 4.334251 2.878164
11.368139 4.334251 3.071684
11.683489 4.334251 3.319051
11.998838 4.334251 3.475955
12.314190 4.334251 3.592180
12.629539 4.334251 3.729750
12.944889 4.334251 3.867652
13.260239 4.334251 3.989341
13.575588 4.334251 4.418087
13.890940 4.334251 4.952641
14.206289 4.334251 5.631483
14.521639 4.334251 6.620283
14.836988 4.334251 8.314405
15.152340 4.334251 9.885866
15.467690 4.334251 0.000000
15.783039 4.334251 0.000000
16.098389 4.334251 0.000000
16.413738 4.334251 0.000000
16.729090 4.334251 0.000000
17.044439 4.334251 0.000000
17.359789 4.334251 0.000000
17.675138 4.334251 0.000000
17.990490 4.334251 12.089323
18.305840 4.334251 15.192513
18.621189 4.334251 19.323845
18.936539 4.334251 0.000000
19.251888 4.334251 0.000000
-7.237510 4.018902 0.000000
-6.922160 4.018902 0.063100
-6.606810 4.018902 0.062203
-6.291460 4.018902 0.062239
-5.976110 4.018902 0.062297
-5.660760 4.018902 0.062391
-5.345410 4.018902 0.062434
-5.030060 4.018902 0.062421
-4.714710 4.018902 0.062276
-4.399360 4.018902 0.061962
-4.084010 4.018902 0.061495
-3.768660 4.018902 0.061164
-3.453310 4.018902 0.061215
-3.137960 4.018902 0.061387
-2.822610 4.018902 0.061522
-2.507260 4.018902 0.061613
-2.191910 4.018902 0.061716
-1.876560 4.018902 0.061484
-1.561210 4.018902 0.061194
-1.245860 4.018902 0.061249
-0.930510 4.018902 0.061533
-0.615160 4.018902 0.061472
-0.299810 4.018902 0.061158
0.015540 4.018902 0.061065
0.330890 4.018902 0.061140
0.646240 4.018902 0.061185
0.961589 4.018902 0.061288
1.276940 4.018902 0.061401
1.592289 4.018902 0.061377
1.907640 4.018902 0.061206
2.222990 4.018902 0.061482
2.538340 4.018902 0.062196
2.853690 4.018902 0.062915
3.169039 4.018902 0.063528
3.484390 4.018902 0.064375
3.799739 4.018902 0.065684
4.115090 4.018902 0.067018
4.430439 4.018902 0.068598
4.745790 4.018902 0.070946
5.061140 4.018902 0.074176
5.376490 4.018902 0.078223
5.691840 4.018902 0.083369
6.007189 4.018902 0.089276
6.322540 4.018902 0.098478
6.637889 4.018902 0.111003
6.953240 4.018902 0.136004
7.268589 4.018902 0.179847
7.583940 4.018902 0.262129
7.899290 4.018902 0.419185
8.214640 4.018902 0.640601
8.529989 4.018902 0.910619
8.845339 4.018902 1.184337
9.160688 4.018902 1.475546
9.476040 4.018902 1.712344
9.791389 4.018902 1.939428
10.106739 4.018902 2.178967
10.422089 4.018902 2.469187
10.737438 4.018902 2.666990
11.052790 4.018902 2.883348
11.368139 4.018902 3.056831
11.683489 4.018902 3.330446
11.998838 4.018902 3.572709
12.314190 4.018902 3.549038
12.629539 4.018902 3.668323
12.944889 4.018902 3.815241
13.260239 4.018902 3.997424
13.575588 4.018902 4.394827
13.890940 4.018902 4.951725
14.206289 4.018902 5.674618
14.521639 4.018902 7.067244
14.836988 4.018902 9.207122
15.152340 4.018902 11.007434
15.467690 4.018902 0.000000
15.783039 4.018902 0.000000
16.098389 4.018902 0.000000
16.413738 4.018902 0.000000
16.729090 4.018902 0.000000
17.044439 4.018902 0.000000
17.359789 4.018902 0.000000
17.675138 4.018902 0.000000
17.990490 4.018902 13.350699
18.305840 4.018902 17.350164
18.621189 4.018902 21.323479
18.936539 4.018902 0.000000
19.251888 4.018902 0.000000
-7.237510 3.703552 0.000000
-6.922160 3.703552 0.062881
-6.606810 3.703552 0.062102
-6.291460 3.703552 0.062326
-5.976110 3.703552 0.062318
-5.660760 3.703552 0.062324
-5.345410 3.703552 0.062426
-5.030060 3.703552 0.062539
-4.714710 3.703552 0.062497
-4.399360 3.703552 0.062053
-4.084010 3.703552 0.061546
-3.768660 3.703552 0.061067
-3.453310 3.703552 0.061063
-3.137960 3.703552 0.061240
-2.822610 3.703552 0.061341
-2.507260 3.703552 0.061527
-2.191910 3.703552 0.061690
-1.876560 3.703552 0.061645
-1.561210 3.703552 0.061411
-1.245860 3.703552 0.061452
-0.930510 3.703552 0.061724
-0.615160 3.703552 0.061684
-0.299810 3.703552 0.061418
0.015540 3.703552 0.061316
0.330890 3.703552 0.061404
0.646240 3.703552 0.061395
0.961589 3.703552 0.061363
1.276940 3.703552 0.061415
1.592289 3.703552 0.061436
1.907640 3.703552 0.061365
2.222990 3.703552 0.061562
2.538340 3.703552 0.062198
2.853690 3.703552 0.062976
3.169039 3.703552 0.063772
3.484390 3.703552 0.064730
3.799739 3.703552 0.066041
4.115090 3.703552 0.067454
4.430439 3.703552 0.069157
4.745790 3.703552 0.071573
5.061140 3.703552 0.074754
5.376490 3.703552 0.078730
5.691840 3.703552 0.083765
6.007189 3.703552 0.090053
6.322540 3.703552 0.099183
6.637889 3.703552 0.112631
6.953240 3.703552 0.140091
7.268589 3.703552 0.186583
7.583940 3.703552 0.268482
7.899290 3.703552 0.423136
8.214640 3.703552 0.646887
8.529989 3.703552 0.926219
8.845339 3.703552 1.206774
9.160688 3.703552 1.489843
9.476040 3.703552 1.725273
9.791389 3.703552 1.956908
10.106739 3.703552 2.213382
10.422089 3.703552 2.468962
10.737438 3.703552 2.705694
11.052790 3.703552 2.942317
11.368139 3.703552 3.120661
11.683489 3.703552 3.337209
11.998838 3.703552 3.529677
12.314190 3.703552 3.624628
12.629539 3.703552 3.742433
12.944889 3.703552 3.863082
13.260239 3.703552 3.960201
13.575588 3.703552 4.294271
13.890940 3.703552 4.982527
14.206289 3.703552 5.894348
14.521639 3.703552 7.343669
14.836988 3.703552 9.720588
15.152340 3.703552 11.098360
15.467690 3.703552 0.000000
15.783039 3.703552 0.000000
16.098389 3.703552 0.000000
16.413738 3.703552 0.000000
16.729090 3.703552 0.000000
17.044439 3.703552 0.000000
17.359789 3.703552 0.000000
17.675138 3.703552 0.000000
17.990490 3.703552 15.053012
18.305840 3.703552 19.015223
18.621189 3.703552 22.633335
18.936539 3.703552 0.000000
19.251888 3.703552 0.000000
-7.237510 3.388203 0.000000
-6.922160 3.388203 0.062702
-6.606810 3.388203 0.062083
-6.291460 3.388203 0.062424
-5.976110 3.388203 0.062307
-5.660760 3.388203 0.062205
-5.345410 3.388203 0.062344
-5.030060 3.388203 0.062466
-4.714710 3.388203 0.062483
-4.399360 3.388203 0.062108
-4.084010 3.388203 0.061526
-3.768660 3.388203 0.061049
-3.453310 3.388203 0.061016
-3.137960 3.388203 0.061233
-2.822610 3.388203 0.061370
-2.507260 3.388203 0.061488
-2.191910 3.388203 0.061766
-1.876560 3.388203 0.061835
-1.561210 3.388203 0.061659
-1.245860 3.388203 0.061599
-0.930510 3.388203 0.061732
-0.615160 3.388203 0.061763
-0.299810 3.388203 0.061569
0.015540 3.388203 0.061431
0.330890 3.388203 0.061509
0.646240 3.388203 0.061444
0.961589 3.388203 0.061214
1.276940 3.388203 0.061243
1.592289 3.388203 0.061453
1.907640 3.388203 0.061616
2.222990 3.388203 0.061896
2.538340 3.388203 0.062382
2.853690 3.388203 0.063121
3.169039 3.388203 0.063886
3.484390 3.388203 0.064996
3.799739 3.388203 0.066250
4.115090 3.388203 0.067726
4.430439 3.388203 0.069582
4.745790 3.388203 0.072014
5.061140 3.388203 0.075102
5.376490 3.388203 0.079181
5.691840 3.388203 0.084233
6.007189 3.388203 0.091219
6.322540 3.388203 0.100076
6.637889 3.388203 0.114900
6.953240 3.388203 0.142533
7.268589 3.388203 0.191000
7.583940 3.388203 0.278647
7.899290 3.388203 0.442222
8.214640 3.388203 0.664149
8.529989 3.388203 0.940868
8.845339 3.388203 1.225277
9.160688 3.388203 1.498563
9.476040 3.388203 1.728302
9.791389 3.388203 1.987987
10.106739 3.388203 2.247402
10.422089 3.388203 2.471555
10.737438 3.388203 2.713356
11.052790 3.388203 2.980844
11.368139 3.388203 3.141752
11.683489 3.388203 3.359762
11.998838 3.388203 3.516140
12.314190 3.388203 3.622874
12.629539 3.388203 3.731928
12.944889 3.388203 3.916560
13.260239 3.388203 3.990639
13.575588 3.388203 4.391536
13.890940 3.388203 5.141709
14.206289 3.388203 6.130809
14.521639 3.388203 7.296368
14.836988 3.388203 9.306829
15.152340 3.388203 8.682398
15.467690 3.388203 0.000000
15.783039 3.388203 0.000000
16.098389 3.388203 0.000000
16.413738 3.388203 0.000000
16.729090 3.388203 0.000000
17.044439 3.388203 0.000000
17.359789 3.388203 0.000000
17.675138 3.388203 0.000000
17.990490 3.388203 16.126406
18.305840 3.388203 19.576050
18.621189 3.388203 22.350857
18.936539 3.388203 0.000000
19.251888 3.388203 0.000000
-7.237510 3.072849 0.000000
-6.922160 3.072849 0.062662
-6.606810 3.072849 0.062128
-6.291460 3.072849 0.062420
-5.976110 3.072849 0.062270
-5.660760 3.072849 0.062152
-5.345410 3.072849 0.062231
-5.030060 3.072849 0.062361
-4.714710 3.072849 0.062394
-4.399360 3.072849 0.062122
-4.084010 3.072849 0.061694
-3.768660 3.072849 0.061378
-3.453310 3.072849 0.061255
-3.137960 3.072849 0.061347
-2.822610 3.072849 0.061403
-2.507260 3.072849 0.061495
-2.191910 3.072849 0.061771
-1.876560 3.072849 0.061783
-1.561210 3.072849 0.061683
-1.245860 3.072849 0.061544
-0.930510 3.072849 0.061546
-0.615160 3.072849 0.061740
-0.299810 3.072849 0.061624
0.015540 3.072849 0.061574
0.330890 3.072849 0.061643
0.646240 3.072849 0.061522
0.961589 3.072849 0.061170
1.276940 3.072849 0.061202
1.592289 3.072849 0.061512
1.907640 3.072849 0.061938
2.222990 3.072849 0.062330
2.538340 3.072849 0.062732
2.853690 3.072849 0.063100
3.169039 3.072849 0.063912
3.484390 3.072849 0.065038
3.799739 3.072849 0.066262
4.115090 3.072849 0.067784
4.430439 3.072849 0.069734
4.745790 3.072849 0.072222
5.061140 3.072849 0.075391
5.376490 3.072849 0.079688
5.691840 3.072849 0.084712
6.007189 3.072849 0.091816
6.322540 3.072849 0.100937
6.637889 3.072849 0.117022
6.953240 3.072849 0.146005
7.268589 3.072849 0.197412
7.583940 3.072849 0.290108
7.899290 3.072849 0.456138
8.214640 3.072849 0.682559
8.529989 3.072849 0.963785
8.845339 3.072849 1.256127
9.160688 3.072849 1.516213
9.476040 3.072849 1.749522
9.791389 3.072849 1.992195
10.106739 3.072849 2.242409
10.422089 3.072849 2.489652
10.737438 3.072849 2.721469
11.052790 3.072849 2.944916
11.368139 3.072849 3.167127
11.683489 3.072849 3.364404
11.998838 3.072849 3.505905
12.314190 3.072849 3.635272
12.629539 3.072849 3.680986
12.944889 3.072849 3.876164
13.260239 3.072849 4.043115
13.575588 3.072849 4.434118
13.890940 3.072849 5.203966
14.206289 3.072849 6.150704
14.521639 3.072849 7.267016
14.836988 3.072849 8.296352
15.152340 3.072849 0.000000
15.467690 3.072849 0.000000
15.783039 3.072849 0.000000
16.098389 3.072849 0.000000
16.413738 3.072849 0.000000
16.729090 3.072849 0.000000
17.044439 3.072849 0.000000
17.359789 3.072849 0.000000
17.675138 3.072849 0.000000
17.990490 3.072849 15.920775
18.305840 3.072849 19.141298
18.621189 3.072849 21.486164
18.936539 3.072849 0.000000
19.251888 3.072849 0.000000
-7.237510 2.757500 0.000000
-6.922160 2.757500 0.062558
-6.606810 2.757500 0.062095
-6.291460 2.757500 0.062360
-5.976110 2.757500 0.062138
-5.660760 2.757500 0.062053
-5.345410 2.757500 0.062095
-5.030060 2.757500 0.062212
-4.714710 2.757500 0.062287
-4.399360 2.757500 0.062263
-4.084010 2.757500 0.062008
-3.768660 2.757500 0.061786
-3.453310 2.757500 0.061718
-3.137960 2.757500 0.061641
-2.822610 2.757500 0.061516
-2.507260 2.757500 0.061537
-2.191910 2.757500 0.061752
-1.876560 2.757500 0.061767
-1.561210 2.757500 0.061549
-1.245860 2.757500 0.061357
-0.930510 2.757500 0.061418
-0.615160 2.757500 0.061718
-0.299810 2.757500 0.061734
0.015540 2.757500 0.061761
0.330890 2.757500 0.061867
0.646240 2.757500 0.061698
0.961589 2.757500 0.061357
1.276940 2.757500 0.061343
1.592289 2.757500 0.061695
1.907640 2.757500 0.062179
2.222990 2.757500 0.062674
2.538340 2.757500 0.063089
2.853690 2.757500 0.063279
3.169039 2.757500 0.063913
3.484390 2.757500 0.065041
3.799739 2.757500 0.066278
4.115090 2.757500 0.067835
4.430439 2.757500 0.069890
4.745790 2.757500 0.072351
5.061140 2.757500 0.075658
5.376490 2.757500 0.080124
5.691840 2.757500 0.085486
6.007189 2.757500 0.092513
6.322540 2.757500 0.101625
6.637889 2.757500 0.118963
6.953240 2.757500 0.150440
7.268589 2.757500 0.204755
7.583940 2.757500 0.304620
7.899290 2.757500 0.476519
8.214640 2.757500 0.696828
8.529989 2.757500 0.989247
8.845339 2.757500 1.279683
9.160688 2.757500 1.552152
9.476040 2.757500 1.795915
9.791389 2.757500 2.022853
10.106739 2.757500 2.280508
10.422089 2.757500 2.493517
10.737438 2.757500 2.713764
11.052790 2.757500 2.931195
11.368139 2.757500 3.184813
11.683489 2.757500 3.385561
11.998838 2.757500 3.534381
12.314190 2.757500 3.620059
12.629539 2.757500 3.714927
12.944889 2.757500 3.907462
13.260239 2.757500 4.065075
13.575588 2.757500 4.320662
13.890940 2.757500 5.097350
14.206289 2.757500 6.053279
14.521639 2.757500 6.781882
14.836988 2.757500 7.513538
15.152340 2.757500 0.000000
15.467690 2.757500 0.000000
15.783039 2.757500 0.000000
16.098389 2.757500 0.000000
16.413738 2.757500 0.000000
16.729090 2.757500 0.000000
17.044439 2.757500 0.000000
17.359789 2.757500 0.000000
17.675138 2.757500 0.000000
17.990490 2.757500 15.534087
18.305840 2.757500 18.414518
18.621189 2.757500 20.761524
18.936539 2.757500 0.000000
19.251888 2.757500 0.000000
-7.237510 2.442150 0.000000
-6.922160 2.442150 0.062640
-6.606810 2.442150 0.062092
-6.291460 2.442150 0.062205
-5.976110 2.442150 0.061929
-5.660760 2.442150 0.061876
-5.345410 2.442150 0.061876
-5.030060 2.442150 0.061948
-4.714710 2.442150 0.062143
-4.399360 2.442150 0.062347
-4.084010 2.442150 0.062285
-3.768660 2.442150 0.062038
-3.453310 2.442150 0.062078
-3.137960 2.442150 0.061889
-2.822610 2.442150 0.061628
-2.507260 2.442150 0.061594
-2.191910 2.442150 0.061796
-1.876560 2.442150 0.061845
-1.561210 2.442150 0.061542
-1.245860 2.442150 0.061254
-0.930510 2.442150 0.061408
-0.615160 2.442150 0.061747
-0.299810 2.442150 0.061774
0.015540 2.442150 0.061809
0.330890 2.442150 0.061851
0.646240 2.442150 0.061776
0.961589 2.442150 0.061563
1.276940 2.442150 0.061538
1.592289 2.442150 0.061887
1.907640 2.442150 0.062408
2.222990 2.442150 0.062914
2.538340 2.442150 0.063314
2.853690 2.442150 0.063448
3.169039 2.442150 0.064031
3.484390 2.442150 0.064980
3.799739 2.442150 0.066263
4.115090 2.442150 0.067961
4.430439 2.442150 0.070043
4.745790 2.442150 0.072474
5.061140 2.442150 0.075913
5.376490 2.442150 0.080503
5.691840 2.442150 0.085845
6.007189 2.442150 0.093191
6.322540 2.442150 0.102737
6.637889 2.442150 0.119902
6.953240 2.442150 0.153403
7.268589 2.442150 0.212088
7.583940 2.442150 0.323620
7.899290 2.442150 0.505748
8.214640 2.442150 0.732580
8.529989 2.442150 1.005341
8.845339 2.442150 1.286812
9.160688 2.442150 1.567341
9.476040 2.442150 1.822875
9.791389 2.442150 2.040339
10.106739 2.442150 2.282287
10.422089 2.442150 2.521292
10.737438 2.442150 2.736813
11.052790 2.442150 2.905843
11.368139 2.442150 3.140567
11.683489 2.442150 3.356993
11.998838 2.442150 3.516601
12.314190 2.442150 3.636194
12.629539 2.442150 3.672789
12.944889 2.442150 3.912385
13.260239 2.442150 4.089239
13.575588 2.442150 4.375102
13.890940 2.442150 4.994770
14.206289 2.442150 5.972712
14.521639 2.442150 6.607177
14.836988 2.442150 7.214478
15.152340 2.442150 0.000000
15.467690 2.442150 0.000000
15.783039 2.442150 0.000000
16.098389 2.442150 0.000000
16.413738 2.442150 0.000000
16.729090 2.442150 0.000000
17.044439 2.442150 0.000000
17.359789 2.442150 0.000000
17.675138 2.442150 0.000000
17.990490 2.442150 16.682940
18.305840 2.442150 19.446793
18.621189 2.442150 21.459499
18.936539 2.442150 0.000000
19.251888 2.442150 0.000000
-7.237510 2.126801 0.000000
-6.922160 2.126801 0.062843
-6.606810 2.126801 0.062077
-6.291460 2.126801 0.061983
-5.976110 2.126801 0.061727
-5.660760 2.126801 0.061712
-5.345410 2.126801 0.061729
-5.030060 2.126801 0.061707
-4.714710 2.126801 0.061971
-4.399360 2.126801 0.062359
-4.084010 2.126801 0.062409
-3.768660 2.126801 0.062306
-3.453310 2.126801 0.062427
-3.137960 2.126801 0.062119
-2.822610 2.126801 0.061794
-2.507260 2.126801 0.061703
-2.191910 2.126801 0.061819
-1.876560 2.126801 0.061881
-1.561210 2.126801 0.061693
-1.245860 2.126801 0.061314
-0.930510 2.126801 0.061477
-0.615160 2.126801 0.061824
-0.299810 2.126801 0.061786
0.015540 2.126801 0.061755
0.330890 2.126801 0.061819
0.646240 2.126801 0.061827
0.961589 2.126801 0.061780
1.276940 2.126801 0.061777
1.592289 2.126801 0.062078
1.907640 2.126801 0.062596
2.222990 2.126801 0.063117
2.538340 2.126801 0.063409
2.853690 2.126801 0.063656
3.169039 2.126801 0.064065
3.484390 2.126801 0.064800
3.799739 2.126801 0.066104
4.115090 2.126801 0.067931
4.430439 2.126801 0.070092
4.745790 2.126801 0.072616
5.061140 2.126801 0.076167
5.376490 2.126801 0.080634
5.691840 2.126801 0.086135
6.007189 2.126801 0.093887
6.322540 2.126801 0.104214
6.637889 2.126801 0.121554
6.953240 2.126801 0.154753
7.268589 2.126801 0.214677
7.583940 2.126801 0.333813
7.899290 2.126801 0.528397
8.214640 2.126801 0.753474
8.529989 2.126801 1.037877
8.845339 2.126801 1.311267
9.160688 2.126801 1.586781
9.476040 2.126801 1.841190
9.791389 2.126801 2.059920
10.106739 2.126801 2.284421
10.422089 2.126801 2.540043
10.737438 2.126801 2.716286
11.052790 2.126801 2.906176
11.368139 2.126801 3.163419
11.683489 2.126801 3.324508
11.998838 2.126801 3.534154
12.314190 2.126801 3.636195
12.629539 2.126801 3.781283
12.944889 2.126801 3.935271
13.260239 2.126801 4.126439
13.575588 2.126801 4.598278
13.890940 2.126801 5.139622
14.206289 2.126801 6.015257
14.521639 2.126801 6.613656
14.836988 2.126801 7.219361
15.152340 2.126801 0.000000
15.467690 2.126801 0.000000
15.783039 2.126801 0.000000
16.098389 2.126801 0.000000
16.413738 2.126801 0.000000
16.729090 2.126801 0.000000
17.044439 2.126801 0.000000
17.359789 2.126801 0.000000
17.675138 2.126801 0.000000
17.990490 2.126801 19.180769
18.305840 2.126801 21.439863
18.621189 2.126801 23.448854
18.936539 2.126801 0.000000
19.251888 2.126801 0.000000
-7.237510 1.811451 0.000000
-6.922160 1.811451 0.063071
-6.606810 1.811451 0.062002
-6.291460 1.811451 0.061822
-5.976110 1.811451 0.061580
-5.660760 1.811451 0.061599
-5.345410 1.811451 0.061532
-5.030060 1.811451 0.061496
-4.714710 1.811451 0.061841
-4.399360 1.811451 0.062349
-4.084010 1.811451 0.062525
-3.768660 1.811451 0.062543
-3.453310 1.811451 0.062617
-3.137960 1.811451 0.062324
-2.822610 1.811451 0.061970
-2.507260 1.811451 0.061746
-2.191910 1.811451 0.061825
-1.876560 1.811451 0.061951
-1.561210 1.811451 0.061811
-1.245860 1.811451 0.061487
-0.930510 1.811451 0.061511
-0.615160 1.811451 0.061851
-0.299810 1.811451 0.061931
0.015540 1.811451 0.061880
0.330890 1.811451 0.061856
0.646240 1.811451 0.062046
0.961589 1.811451 0.062180
1.276940 1.811451 0.062190
1.592289 1.811451 0.062398
1.907640 1.811451 0.062740
2.222990 1.811451 0.063118
2.538340 1.811451 0.063404
2.853690 1.811451 0.063653
3.169039 1.811451 0.063937
3.484390 1.811451 0.064554
3.799739 1.811451 0.065832
4.115090 1.811451 0.067671
4.430439 1.811451 0.069978
4.745790 1.811451 0.072672
5.061140 1.811451 0.076353
5.376490 1.811451 0.080708
5.691840 1.811451 0.086425
6.007189 1.811451 0.094858
6.322540 1.811451 0.105800
6.637889 1.811451 0.124613
6.953240 1.811451 0.158419
7.268589 1.811451 0.218507
7.583940 1.811451 0.336583
7.899290 1.811451 0.538160
8.214640 1.811451 0.777080
8.529989 1.811451 1.058810
8.845339 1.811451 1.323302
9.160688 1.811451 1.609067
9.476040 1.811451 1.844194
9.791389 1.811451 2.052731
10.106739 1.811451 2.317962
10.422089 1.811451 2.575077
10.737438 1.811451 2.729039
11.052790 1.811451 2.911748
11.368139 1.811451 3.128020
11.683489 1.811451 3.300022
11.998838 1.811451 3.449905
12.314190 1.811451 3.591882
12.629539 1.811451 3.763788
12.944889 1.811451 3.954909
13.260239 1.811451 4.261765
13.575588 1.811451 4.636769
13.890940 1.811451 5.342029
14.206289 1.811451 6.195362
14.521639 1.811451 6.948411
14.836988 1.811451 0.000000
15.152340 1.811451 0.000000
15.467690 1.811451 0.000000
15.783039 1.811451 0.000000
16.098389 1.811451 0.000000
16.413738 1.811451 0.000000
16.729090 1.811451 0.000000
17.044439 1.811451 0.000000
17.359789 1.811451 0.000000
17.675138 1.811451 0.000000
17.990490 1.811451 21.434870
18.305840 1.811451 23.996565
18.621189 1.811451 25.352352
18.936539 1.811451 0.000000
19.251888 1.811451 0.000000
-7.237510 1.496101 0.000000
-6.922160 1.496101 0.063117
-6.606810 1.496101 0.061764
-6.291460 1.496101 0.061495
-5.976110 1.496101 0.061468
-5.660760 1.496101 0.061575
-5.345410 1.496101 0.061430
-5.030060 1.496101 0.061389
-4.714710 1.496101 0.061771
-4.399360 1.496101 0.062328
-4.084010 1.496101 0.062568
-3.768660 1.496101 0.062653
-3.453310 1.496101 0.062731
-3.137960 1.496101 0.062547
-2.822610 1.496101 0.062141
-2.507260 1.496101 0.061768
-2.191910 1.496101 0.061794
-1.876560 1.496101 0.061934
-1.561210 1.496101 0.061903
-1.245860 1.496101 0.061600
-0.930510 1.496101 0.061522
-0.615160 1.496101 0.061881
-0.299810 1.496101 0.062063
0.015540 1.496101 0.061984
0.330890 1.496101 0.062025
0.646240 1.496101 0.062409
0.961589 1.496101 0.062652
1.276940 1.496101 0.062716
1.592289 1.496101 0.062726
1.907640 1.496101 0.062911
2.222990 1.496101 0.063107
2.538340 1.496101 0.063294
2.853690 1.496101 0.063556
3.169039 1.496101 0.063857
3.484390 1.496101 0.064393
3.799739 1.496101 0.065605
4.115090 1.496101 0.067416
4.430439 1.496101 0.069855
4.745790 1.496101 0.072791
5.061140 1.496101 0.076560
5.376490 1.496101 0.080869
5.691840 1.496101 0.086955
6.007189 1.496101 0.095308
6.322540 1.496101 0.105953
6.637889 1.496101 0.126153
6.953240 1.496101 0.161459
7.268589 1.496101 0.224667
7.583940 1.496101 0.351335
7.899290 1.496101 0.550953
8.214640 1.496101 0.790534
8.529989 1.496101 1.069384
8.845339 1.496101 1.360094
9.160688 1.496101 1.618877
9.476040 1.496101 1.832612
9.791389 1.496101 2.063572
10.106739 1.496101 2.339871
10.422089 1.496101 2.557006
10.737438 1.496101 2.721085
11.052790 1.496101 2.890750
11.368139 1.496101 3.098735
11.683489 1.496101 3.296226
11.998838 1.496101 3.427780
12.314190 1.496101 3.587202
12.629539 1.496101 3.792664
12.944889 1.496101 3.995697
13.260239 1.496101 4.284276
13.575588 1.496101 4.849870
13.890940 1.496101 5.710484
14.206289 1.496101 6.596869
14.521639 1.496101 7.677594
14.836988 1.496101 0.000000
15.152340 1.496101 0.000000
15.467690 1.496101 0.000000
15.783039 1.496101 0.000000
16.098389 1.496101 0.000000
16.413738 1.496101 0.000000
16.729090 1.496101 0.000000
17.044439 1.496101 0.000000
17.359789 1.496101 0.000000
17.675138 1.496101 0.000000
17.990490 1.496101 22.970619
18.305840 1.496101 26.219490
18.621189 1.496101 27.280737
18.936539 1.496101 0.000000
19.251888 1.496101 0.000000
-7.237510 1.180752 0.000000
-6.922160 1.180752 0.063152
-6.606810 1.180752 0.061806
-6.291460 1.180752 0.061556
-5.976110 1.180752 0.061691
-5.660760 1.180752 0.061821
-5.345410 1.180752 0.061602
-5.030060 1.180752 0.061625
-4.714710 1.180752 0.062103
-4.399360 1.180752 0.062499
-4.084010 1.180752 0.062739
-3.768660 1.180752 0.062791
-3.453310 1.180752 0.062909
-3.137960 1.180752 0.062691
-2.822610 1.180752 0.062319
-2.507260 1.180752 0.061958
-2.191910 1.180752 0.061964
-1.876560 1.180752 0.062217
-1.561210 1.180752 0.062306
-1.245860 1.180752 0.061974
-0.930510 1.180752 0.061836
-0.615160 1.180752 0.062272
-0.299810 1.180752 0.062507
0.015540 1.180752 0.062438
0.330890 1.180752 0.062545
0.646240 1.180752 0.063023
0.961589 1.180752 0.063351
1.276940 1.180752 0.063270
1.592289 1.180752 0.063106
1.907640 1.180752 0.063059
2.222990 1.180752 0.063085
2.538340 1.180752 0.063230
2.853690 1.180752 0.063737
3.169039 1.180752 0.064111
3.484390 1.180752 0.064729
3.799739 1.180752 0.065920
4.115090 1.180752 0.067686
4.430439 1.180752 0.070051
4.745790 1.180752 0.073149
5.061140 1.180752 0.077064
5.376490 1.180752 0.081522
5.691840 1.180752 0.087241
6.007189 1.180752 0.095136
6.322540 1.180752 0.107599
6.637889 1.180752 0.127959
6.953240 1.180752 0.168085
7.268589 1.180752 0.236509
7.583940 1.180752 0.369940
7.899290 1.180752 0.566184
8.214640 1.180752 0.817334
8.529989 1.180752 1.097713
8.845339 1.180752 1.388877
9.160688 1.180752 1.667012
9.476040 1.180752 1.868036
9.791389 1.180752 2.092164
10.106739 1.180752 2.331208
10.422089 1.180752 2.571327
10.737438 1.180752 2.751119
11.052790 1.180752 2.915045
11.368139 1.180752 3.144434
11.683489 1.180752 3.290846
11.998838 1.180752 3.490225
12.314190 1.180752 3.673044
12.629539 1.180752 3.907736
12.944889 1.180752 4.115732
13.260239 1.180752 4.556533
13.575588 1.180752 5.185476
13.890940 1.180752 6.220955
14.206289 1.180752 7.498144
14.521639 1.180752 8.516327
14.836988 1.180752 0.000000
15.152340 1.180752 0.000000
15.467690 1.180752 0.000000
15.783039 1.180752 0.000000
16.098389 1.180752 0.000000
16.413738 1.180752 0.000000
16.729090 1.180752 0.000000
17.044439 1.180752 0.000000
17.359789 1.180752 0.000000
17.675138 1.180752 0.000000
17.990490 1.180752 23.451519
18.305840 1.180752 26.903522
18.621189 1.180752 28.668533
18.936539 1.180752 0.000000
19.251888 1.180752 0.000000
-7.237510 0.865402 0.000000
-6.922160 0.865402 0.061919
-6.606810 0.865402 0.062558
-6.291460 0.865402 0.062561
-5.976110 0.865402 0.062704
-5.660760 0.865402 0.062792
-5.345410 0.865402 0.062476
-5.030060 0.865402 0.062517
-4.714710 0.865402 0.062874
-4.399360 0.865402 0.063181
-4.084010 0.865402 0.063358
-3.768660 0.865402 0.063386
-3.453310 0.865402 0.063387
-3.137960 0.865402 0.063218
-2.822610 0.865402 0.063023
-2.507260 0.865402 0.062950
-2.191910 0.865402 0.063081
-1.876560 0.865402 0.063487
-1.561210 0.865402 0.063611
-1.245860 0.865402 0.063260
-0.930510 0.865402 0.063190
-0.615160 0.865402 0.063568
-0.299810 0.865402 0.063651
0.015540 0.865402 0.063480
0.330890 0.865402 0.063658
0.646240 0.865402 0.063884
0.961589 0.865402 0.064214
1.276940 0.865402 0.064007
1.592289 0.865402 0.063642
1.907640 0.865402 0.063415
2.222990 0.865402 0.063413
2.538340 0.865402 0.063905
2.853690 0.865402 0.064612
3.169039 0.865402 0.065334
3.484390 0.865402 0.066108
3.799739 0.865402 0.067198
4.115090 0.865402 0.068674
4.430439 0.865402 0.070974
4.745790 0.865402 0.074060
5.061140 0.865402 0.078067
5.376490 0.865402 0.082511
5.691840 0.865402 0.088061
6.007189 0.865402 0.096277
6.322540 0.865402 0.108969
6.637889 0.865402 0.130101
6.953240 0.865402 0.176539
7.268589 0.865402 0.254583
7.583940 0.865402 0.401565
7.899290 0.865402 0.606809
8.214640 0.865402 0.848804
8.529989 0.865402 1.137695
8.845339 0.865402 1.446516
9.160688 0.865402 1.718561
9.476040 0.865402 1.946438
9.791389 0.865402 2.156412
10.106739 0.865402 2.411780
10.422089 0.865402 2.611082
10.737438 0.865402 2.851509
11.052790 0.865402 2.984773
11.368139 0.865402 3.273955
11.683489 0.865402 3.443716
11.998838 0.865402 3.679056
12.314190 0.865402 3.797319
12.629539 0.865402 4.011261
12.944889 0.865402 4.224128
13.260239 0.865402 4.708414
13.575588 0.865402 5.488357
13.890940 0.865402 6.531962
14.206289 0.865402 7.897696
14.521639 0.865402 8.831347
14.836988 0.865402 0.000000
15.152340 0.865402 0.000000
15.467690 0.865402 0.000000
15.783039 0.865402 0.000000
16.098389 0.865402 0.000000
16.413738 0.865402 0.000000
16.729090 0.865402 0.000000
17.044439 0.865402 0.000000
17.359789 0.865402 0.000000
17.675138 0.865402 0.000000
17.990490 0.865402 23.129324
18.305840 0.865402 27.332077
18.621189 0.865402 28.703442
18.936539 0.865402 0.000000
19.251888 0.865402 0.000000
-7.237510 0.550053 0.000000
-6.922160 0.550053 0.062208
-6.606810 0.550053 0.062451
-6.291460 0.550053 0.064053
-5.976110 0.550053 0.064292
-5.660760 0.550053 0.064605
-5.345410 0.550053 0.064322
-5.030060 0.550053 0.064203
-4.714710 0.550053 0.064448
-4.399360 0.550053 0.064709
-4.084010 0.550053 0.064736
-3.768660 0.550053 0.064689
-3.453310 0.550053 0.064706
-3.137960 0.550053 0.064655
-2.822610 0.550053 0.064816
-2.507260 0.550053 0.065170
-2.191910 0.550053 0.065481
-1.876560 0.550053 0.065939
-1.561210 0.550053 0.066045
-1.245860 0.550053 0.065645
-0.930510 0.550053 0.065620
-0.615160 0.550053 0.065667
-0.299810 0.550053 0.065526
0.015540 0.550053 0.065050
0.330890 0.550053 0.065063
0.646240 0.550053 0.065344
0.961589 0.550053 0.065604
1.276940 0.550053 0.065440
1.592289 0.550053 0.064874
1.907640 0.550053 0.064556
2.222990 0.550053 0.064739
2.538340 0.550053 0.065580
2.853690 0.550053 0.066655
3.169039 0.550053 0.067616
3.484390 0.550053 0.068661
3.799739 0.550053 0.069502
4.115090 0.550053 0.070791
4.430439 0.550053 0.072784
4.745790 0.550053 0.075573
5.061140 0.550053 0.079593
5.376490 0.550053 0.083887
5.691840 0.550053 0.089752
6.007189 0.550053 0.098133
6.322540 0.550053 0.112441
6.637889 0.550053 0.136774
6.953240 0.550053 0.184539
7.268589 0.550053 0.273961
7.583940 0.550053 0.436691
7.899290 0.550053 0.642931
8.214640 0.550053 0.897611
8.529989 0.550053 1.202536
8.845339 0.550053 1.519096
9.160688 0.550053 1.802198
9.476040 0.550053 2.042772
9.791389 0.550053 2.232630
10.106739 0.550053 2.517467
10.422089 0.550053 2.752817
10.737438 0.550053 3.004579
11.052790 0.550053 3.224723
11.368139 0.550053 3.419942
11.683489 0.550053 3.673763
11.998838 0.550053 3.911356
12.314190 0.550053 4.071927
12.629539 0.550053 4.152104
12.944889 0.550053 4.377674
13.260239 0.550053 4.875985
13.575588 0.550053 5.672273
13.890940 0.550053 6.769902
14.206289 0.550053 8.378830
14.521639 0.550053 8.989497
14.836988 0.550053 0.000000
15.152340 0.550053 0.000000
15.467690 0.550053 0.000000
15.783039 0.550053 0.000000
16.098389 0.550053 0.000000
16.413738 0.550053 0.000000
16.729090 0.550053 0.000000
17.044439 0.550053 0.000000
17.359789 0.550053 0.000000
17.675138 0.550053 0.000000
17.990490 0.550053 22.469225
18.305840 0.550053 26.095203
18.621189 0.550053 27.363125
18.936539 0.550053 0.000000
19.251888 0.550053 0.000000
-7.237510 0.234699 0.000000
-6.922160 0.234699 0.000000
-6.606810 0.234699 0.000000
-6.291460 0.234699 0.000000
-5.976110 0.234699 0.000000
-5.660760 0.234699 0.000000
-5.345410 0.234699 0.000000
-5.030060 0.234699 0.000000
-4.714710 0.234699 0.000000
-4.399360 0.234699 0.000000
-4.084010 0.234699 0.000000
-3.768660 0.234699 0.000000
-3.453310 0.234699 0.000000
-3.137960 0.234699 0.000000
-2.822610 0.234699 0.000000
-2.507260 0.234699 0.000000
-2.191910 0.234699 0.000000
-1.876560 0.234699 0.000000
-1.561210 0.234699 0.000000
-1.245860 0.234699 0.000000
-0.930510 0.234699 0.000000
-0.615160 0.234699 0.000000
-0.299810 0.234699 0.000000
0.015540 0.234699 0.000000
0.330890 0.234699 0.000000
0.646240 0.234699 0.000000
0.961589 0.234699 0.000000
1.276940 0.234699 0.000000
1.592289 0.234699 0.000000
1.907640 0.234699 0.000000
2.222990 0.234699 0.000000
2.538340 0.234699 0.000000
2.853690 0.234699 0.000000
3.169039 0.234699 0.000000
3.484390 0.234699 0.000000
3.799739 0.234699 0.000000
4.115090 0.234699 0.000000
4.430439 0.234699 0.000000
4.745790 0.234699 0.000000
5.061140 0.234699 0.000000
5.376490 0.234699 0.000000
5.691840 0.234699 0.000000
6.007189 0.234699 0.000000
6.322540 0.234699 0.225659
6.637889 0.234699 0.435280
6.953240 0.234699 0.512438
7.268589 0.234699 0.673934
7.583940 0.234699 0.667322
7.899290 0.234699 0.750388
8.214640 0.234699 0.827059
8.529989 0.234699 0.942786
8.845339 0.234699 1.106467
9.160688 0.234699 1.339857
9.476040 0.234699 1.686516
9.791389 0.234699 2.017625
10.106739 0.234699 2.371901
10.422089 0.234699 2.680255
10.737438 0.234699 3.013175
11.052790 0.234699 3.233717
11.368139 0.234699 3.540967
11.683489 0.234699 3.803645
11.998838 0.234699 3.997751
12.314190 0.234699 4.117272
12.629539 0.234699 4.250164
12.944889 0.234699 4.538184
13.260239 0.234699 4.926904
13.575588 0.234699 5.602170
13.890940 0.234699 6.526519
14.206289 0.234699 7.377831
14.521639 0.234699 0.000000
14.836988 0.234699 0.000000
15.152340 0.234699 0.000000
15.467690 0.234699 0.000000
15.783039 0.234699 0.000000
16.098389 0.234699 0.000000
16.413738 0.234699 0.000000
16.729090 0.234699 0.000000
17.044439 0.234699 0.000000
17.359789 0.234699 0.000000
17.675138 0.234699 0.000000
17.990490 0.234699 20.766960
18.305840 0.234699 23.196115
18.621189 0.234699 24.344912
18.936539 0.234699 0.000000
19.251888 0.234699 0.000000
-7.237510 -0.080650 0.000000
-6.922160 -0.080650 0.000000
-6.606810 -0.080650 0.000000
-6.291460 -0.080650 0.000000
-5.976110 -0.080650 0.000000
-5.660760 -0.080650 0.000000
-5.345410 -0.080650 0.000000
-5.030060 -0.080650 0.000000
-4.714710 -0.080650 0.000000
-4.399360 -0.080650 0.000000
-4.084010 -0.080650 0.000000
-3.768660 -0.080650 0.000000
-3.453310 -0.080650 0.000000
-3.137960 -0.080650 0.000000
-2.822610 -0.080650 0.000000
-2.507260 -0.080650 0.000000
-2.191910 -0.080650 0.000000
-1.876560 -0.080650 0.000000
-1.561210 -0.080650 0.000000
-1.245860 -0.080650 0.000000
-0.930510 -0.080650 0.000000
-0.615160 -0.080650 0.000000
-0.299810 -0.080650 0.000000
0.015540 -0.080650 0.000000
0.330890 -0.080650 0.000000
0.646240 -0.080650 0.000000
0.961589 -0.080650 0.000000
1.276940 -0.080650 0.000000
1.592289 -0.080650 0.000000
1.907640 -0.080650 0.000000
2.222990 -0.080650 0.000000
2.538340 -0.080650 0.000000
2.853690 -0.080650 0.000000
3.169039 -0.080650 0.000000
3.484390 -0.080650 0.000000
3.799739 -0.080650 0.000000
4.115090 -0.080650 0.000000
4.430439 -0.080650 0.000000
4.745790 -0.080650 0.000000
5.061140 -0.080650 0.000000
5.376490 -0.080650 0.000000
5.691840 -0.080650 0.000000
6.007189 -0.080650 0.000000
6.322540 -0.080650 0.000000
6.637889 -0.080650 0.000000
6.953240 -0.080650 0.000000
7.268589 -0.080650 0.000000
7.583940 -0.080650 0.000000
7.899290 -0.080650 0.000000
8.214640 -0.080650 0.000000
8.529989 -0.080650 13.003232
8.845339 -0.080650 0.251495
9.160688 -0.080650 1.481482
9.476040 -0.080650 1.430348
9.791389 -0.080650 2.462176
10.106739 -0.080650 2.252937
10.422089 -0.080650 2.267076
10.737438 -0.080650 1.849703
11.052790 -0.080650 1.821313
11.368139 -0.080650 1.930362
11.683489 -0.080650 2.015244
11.998838 -0.080650 2.188301
12.314190 -0.080650 2.345986
12.629539 -0.080650 2.675395
12.944889 -0.080650 3.042053
13.260239 -0.080650 3.438200
13.575588 -0.080650 3.954389
13.890940 -0.080650 4.453350
14.206289 -0.080650 4.780497
14.521639 -0.080650 0.000000
14.836988 -0.080650 0.000000
15.152340 -0.080650 0.000000
15.467690 -0.080650 0.000000
15.783039 -0.080650 0.000000
16.098389 -0.080650 0.000000
16.413738 -0.080650 0.000000
16.729090 -0.080650 0.000000
17.044439 -0.080650 0.000000
17.359789 -0.080650 0.000000
17.675138 -0.080650 0.000000
17.990490 -0.080650 16.022179
18.305840 -0.080650 16.818411
18.621189 -0.080650 16.863564
18.936539 -0.080650 0.000000
19.251888 -0.080650 0.000000
-7.237510 -0.396000 0.000000
-6.922160 -0.396000 0.000000
-6.606810 -0.396000 0.000000
-6.291460 -0.396000 0.000000
-5.976110 -0.396000 0.000000
-5.660760 -0.396000 0.000000
-5.345410 -0.396000 0.000000
-5.030060 -0.396000 0.000000
-4.714710 -0.396000 0.000000
-4.399360 -0.396000 0.000000
-4.084010 -0.396000 0.000000
-3.768660 -0.396000 0.000000
-3.453310 -0.396000 0.000000
-3.137960 -0.396000 0.000000
-2.822610 -0.396000 0.000000
-2.507260 -0.396000 0.000000
-2.191910 -0.396000 0.000000
-1.876560 -0.396000 0.000000
-1.561210 -0.396000 0.000000
-1.245860 -0.396000 0.000000
-0.930510 -0.396000 0.000000
-0.615160 -0.396000 0.000000
-0.299810 -0.396000 0.000000
0.015540 -0.396000 0.000000
0.330890 -0.396000 0.000000
0.646240 -0.396000 0.000000
0.961589 -0.396000 0.000000
1.276940 -0.396000 0.000000
1.592289 -0.396000 0.000000
1.907640 -0.396000 0.000000
2.222990 -0.396000 0.000000
2.538340 -0.396000 0.000000
2.853690 -0.396000 0.000000
3.169039 -0.396000 0.000000
3.484390 -0.396000 0.000000
3.799739 -0.396000 0.000000
4.115090 -0.396000 0.000000
4.430439 -0.396000 0.000000
4.745790 -0.396000 0.000000
5.061140 -0.396000 0.000000
5.376490 -0.396000 0.000000
5.691840 -0.396000 0.000000
6.007189 -0.396000 0.000000
6.322540 -0.396000 0.000000
6.637889 -0.396000 0.000000
6.953240 -0.396000 0.000000
7.268589 -0.396000 0.000000
7.583940 -0.396000 0.000000
7.899290 -0.396000 0.000000
8.214640 -0.396000 0.000000
8.529989 -0.396000 0.000000
8.845339 -0.396000 0.000000
9.160688 -0.396000 0.000000
9.476040 -0.396000 0.000000
9.791389 -0.396000 0.000000
10.106739 -0.396000 0.000000
10.422089 -0.396000 0.000000
10.737438 -0.396000 0.000000
11.052790 -0.396000 0.694365
11.368139 -0.396000 4.759393
11.683489 -0.396000 4.320427
11.998838 -0.396000 4.876060
12.314190 -0.396000 4.237444
12.629539 -0.396000 5.431766
12.944889 -0.396000 4.497656
13.260239 -0.396000 5.554261
13.575588 -0.396000 5.355257
13.890940 -0.396000 3.157212
14.206289 -0.396000 2.547842
14.521639 -0.396000 0.000000
14.836988 -0.396000 0.000000
15.152340 -0.396000 0.000000
15.467690 -0.396000 0.000000
15.783039 -0.396000 0.000000
16.098389 -0.396000 0.000000
16.413738 -0.396000 0.000000
16.729090 -0.396000 0.000000
17.044439 -0.396000 0.000000
17.359789 -0.396000 0.000000
17.675138 -0.396000 0.000000
17.990490 -0.396000 8.327223
18.305840 -0.396000 7.818645
18.621189 -0.396000 7.716364
18.936539 -0.396000 0.000000
19.251888 -0.396000 0.000000
-7.237510 -0.711349 0.000000
-6.922160 -0.711349 0.000000
-6.606810 -0.711349 0.000000
-6.291460 -0.711349 0.000000
-5.976110 -0.711349 0.000000
-5.660760 -0.711349 0.000000
-5.345410 -0.711349 0.000000
-5.030060 -0.711349 0.000000
-4.714710 -0.711349 0.000000
-4.399360 -0.711349 0.000000
-4.084010 -0.711349 0.000000
-3.768660 -0.711349 0.000000
-3.453310 -0.711349 0.000000
-3.137960 -0.711349 0.000000
-2.822610 -0.711349 0.000000
-2.507260 -0.711349 0.000000
-2.191910 -0.711349 0.000000
-1.876560 -0.711349 0.000000
-1.561210 -0.711349 0.000000
-1.245860 -0.711349 0.000000
-0.930510 -0.711349 0.000000
-0.615160 -0.711349 0.000000
-0.299810 -0.711349 0.000000
0.015540 -0.711349 0.000000
0.330890 -0.711349 0.000000
0.646240 -0.711349 0.000000
0.961589 -0.711349 0.000000
1.276940 -0.711349 0.000000
1.592289 -0.711349 0.000000
1.907640 -0.711349 0.000000
2.222990 -0.711349 0.000000
2.538340 -0.711349 0.000000
2.853690 -0.711349 0.000000
3.169039 -0.711349 0.000000
3.484390 -0.711349 0.000000
3.799739 -0.711349 0.000000
4.115090 -0.711349 0.000000
4.430439 -0.711349 0.000000
4.745790 -0.711349 0.000000
5.061140 -0.711349 0.000000
5.376490 -0.711349 0.000000
5.691840 -0.711349 0.000000
6.007189 -0.711349 0.000000
6.322540 -0.711349 0.000000
6.637889 -0.711349 0.000000
6.953240 -0.711349 0.000000
7.268589 -0.711349 0.000000
7.583940 -0.711349 0.000000
7.899290 -0.711349 0.000000
8.214640 -0.711349 0.000000
8.529989 -0.711349 0.000000
8.845339 -0.711349 0.000000
9.160688 -0.711349 0.000000
9.476040 -0.711349 0.000000
9.791389 -0.711349 0.000000
10.106739 -0.711349 0.000000
10.422089 -0.711349 0.000000
10.737438 -0.711349 0.000000
11.052790 -0.711349 0.000000
11.368139 -0.711349 0.000000
11.683489 -0.711349 0.000000
11.998838 -0.711349 0.000000
12.314190 -0.711349 0.000000
12.629539 -0.711349 0.000000
12.944889 -0.711349 0.000000
13.260239 -0.711349 0.000000
13.575588 -0.711349 0.000000
13.890940 -0.711349 0.000000
14.206289 -0.711349 0.000000
14.521639 -0.711349 0.000000
14.836988 -0.711349 0.000000
15.152340 -0.711349 0.000000
15.467690 -0.711349 0.000000
15.783039 -0.711349 0.000000
16.098389 -0.711349 0.000000
16.413738 -0.711349 0.000000
16.729090 -0.711349 0.000000
17.044439 -0.711349 0.000000
17.359789 -0.711349 0.000000
17.675138 -0.711349 0.000000
17.990490 -0.711349 0.000000
18.305840 -0.711349 0.000000
18.621189 -0.711349 0.000000
18.936539 -0.711349 0.000000
19.251888 -0.711349 0.000000
