TITLE = "B00012"
VARIABLES = "x", "y", "Reynold stress XX"
ZONE T="Frame 1" I=85, J=164, F=POINT
-7.237510 50.690701 0.000000
-6.922160 50.690701 0.000000
-6.606810 50.690701 0.000000
-6.291460 50.690701 0.000000
-5.976110 50.690701 0.000000
-5.660760 50.690701 0.000000
-5.345410 50.690701 0.000000
-5.030060 50.690701 0.000000
-4.714710 50.690701 0.000000
-4.399360 50.690701 0.000000
-4.084010 50.690701 0.000000
-3.768660 50.690701 0.000000
-3.453310 50.690701 0.000000
-3.137960 50.690701 0.000000
-2.822610 50.690701 0.000000
-2.507260 50.690701 0.000000
-2.191910 50.690701 0.000000
-1.876560 50.690701 0.000000
-1.561210 50.690701 0.000000
-1.245860 50.690701 0.000000
-0.930510 50.690701 0.000000
-0.615160 50.690701 0.000000
-0.299810 50.690701 0.000000
0.015540 50.690701 0.000000
0.330890 50.690701 0.000000
0.646240 50.690701 0.000000
0.961589 50.690701 0.000000
1.276940 50.690701 0.000000
1.592289 50.690701 0.000000
1.907640 50.690701 0.000000
2.222990 50.690701 0.000000
2.538340 50.690701 0.000000
2.853690 50.690701 0.000000
3.169039 50.690701 0.000000
3.484390 50.690701 0.000000
3.799739 50.690701 0.000000
4.115090 50.690701 0.000000
4.430439 50.690701 0.000000
4.745790 50.690701 0.000000
5.061140 50.690701 0.000000
5.376490 50.690701 0.000000
5.691840 50.690701 0.000000
6.007189 50.690701 0.000000
6.322540 50.690701 0.000000
6.637889 50.690701 0.000000
6.953240 50.690701 0.000000
7.268589 50.690701 0.000000
7.583940 50.690701 0.000000
7.899290 50.690701 0.000000
8.214640 50.690701 0.000000
8.529989 50.690701 0.000000
8.845339 50.690701 0.000000
9.160688 50.690701 0.000000
9.476040 50.690701 0.000000
9.791389 50.690701 0.000000
10.106739 50.690701 0.000000
10.422089 50.690701 0.000000
10.737438 50.690701 0.000000
11.052790 50.690701 0.000000
11.368139 50.690701 0.000000
11.683489 50.690701 0.000000
11.998838 50.690701 0.000000
12.314190 50.690701 0.000000
12.629539 50.690701 0.000000
12.944889 50.690701 0.000000
13.260239 50.690701 0.000000
13.575588 50.690701 0.000000
13.890940 50.690701 0.000000
14.206289 50.690701 0.000000
14.521639 50.690701 0.000000
14.836988 50.690701 0.000000
15.152340 50.690701 0.000000
15.467690 50.690701 0.000000
15.783039 50.690701 0.000000
16.098389 50.690701 0.000000
16.413738 50.690701 0.000000
16.729090 50.690701 0.000000
17.044439 50.690701 0.000000
17.359789 50.690701 0.000000
17.675138 50.690701 0.000000
17.990490 50.690701 0.000000
18.305840 50.690701 0.000000
18.621189 50.690701 0.000000
18.936539 50.690701 0.000000
19.251888 50.690701 0.000000
-7.237510 50.375351 0.000000
-6.922160 50.375351 0.000000
-6.606810 50.375351 0.000000
-6.291460 50.375351 0.000000
-5.976110 50.375351 0.000000
-5.660760 50.375351 0.000000
-5.345410 50.375351 0.000000
-5.030060 50.375351 0.000000
-4.714710 50.375351 0.000000
-4.399360 50.375351 0.000000
-4.084010 50.375351 0.000000
-3.768660 50.375351 0.000000
-3.453310 50.375351 0.000000
-3.137960 50.375351 0.000000
-2.822610 50.375351 0.000000
-2.507260 50.375351 0.000000
-2.191910 50.375351 0.000000
-1.876560 50.375351 0.000000
-1.561210 50.375351 0.000000
-1.245860 50.375351 0.000000
-0.930510 50.375351 0.000000
-0.615160 50.375351 0.000000
-0.299810 50.375351 0.000000
0.015540 50.375351 0.000000
0.330890 50.375351 0.000000
0.646240 50.375351 0.000000
0.961589 50.375351 0.000000
1.276940 50.375351 0.000000
1.592289 50.375351 0.000000
1.907640 50.375351 0.000000
2.222990 50.375351 0.000000
2.538340 50.375351 0.000000
2.853690 50.375351 0.000000
3.169039 50.375351 0.000000
3.484390 50.375351 0.000000
3.799739 50.375351 0.000000
4.115090 50.375351 0.000000
4.430439 50.375351 0.000000
4.745790 50.375351 0.000000
5.061140 50.375351 0.000000
5.376490 50.375351 0.000000
5.691840 50.375351 0.000000
6.007189 50.375351 0.000000
6.322540 50.375351 0.000000
6.637889 50.375351 0.000000
6.953240 50.375351 0.000000
7.268589 50.375351 0.000000
7.583940 50.375351 0.000000
7.899290 50.375351 0.000000
8.214640 50.375351 0.000000
8.529989 50.375351 0.000000
8.845339 50.375351 0.000000
9.160688 50.375351 0.000000
9.476040 50.375351 0.000000
9.791389 50.375351 0.000000
10.106739 50.375351 0.000000
10.422089 50.375351 0.000000
10.737438 50.375351 0.000000
11.052790 50.375351 0.000000
11.368139 50.375351 0.000000
11.683489 50.375351 0.000000
11.998838 50.375351 0.000000
12.314190 50.375351 0.000000
12.629539 50.375351 0.000000
12.944889 50.375351 0.000000
13.260239 50.375351 0.000000
13.575588 50.375351 1.033170
13.890940 50.375351 0.000000
14.206289 50.375351 0.000000
14.521639 50.375351 0.000000
14.836988 50.375351 0.000000
15.152340 50.375351 0.041712
15.467690 50.375351 1.116933
15.783039 50.375351 4.926261
16.098389 50.375351 4.626460
16.413738 50.375351 7.096281
16.729090 50.375351 4.010895
17.044439 50.375351 5.592330
17.359789 50.375351 4.056636
17.675138 50.375351 4.269852
17.990490 50.375351 5.913229
18.305840 50.375351 6.451997
18.621189 50.375351 5.757819
18.936539 50.375351 5.801193
19.251888 50.375351 0.000000
-7.237510 50.060001 0.000000
-6.922160 50.060001 0.000000
-6.606810 50.060001 0.000000
-6.291460 50.060001 0.000000
-5.976110 50.060001 0.000000
-5.660760 50.060001 0.000000
-5.345410 50.060001 0.000000
-5.030060 50.060001 0.000000
-4.714710 50.060001 0.000000
-4.399360 50.060001 0.000000
-4.084010 50.060001 0.000000
-3.768660 50.060001 0.000000
-3.453310 50.060001 0.000000
-3.137960 50.060001 0.000000
-2.822610 50.060001 0.000000
-2.507260 50.060001 0.000000
-2.191910 50.060001 0.000000
-1.876560 50.060001 0.000000
-1.561210 50.060001 0.000000
-1.245860 50.060001 0.000000
-0.930510 50.060001 0.000000
-0.615160 50.060001 0.000000
-0.299810 50.060001 0.000000
0.015540 50.060001 0.000000
0.330890 50.060001 0.000000
0.646240 50.060001 0.000000
0.961589 50.060001 0.000000
1.276940 50.060001 0.000000
1.592289 50.060001 0.000000
1.907640 50.060001 0.000000
2.222990 50.060001 0.000000
2.538340 50.060001 0.000000
2.853690 50.060001 0.000000
3.169039 50.060001 0.000000
3.484390 50.060001 0.000000
3.799739 50.060001 0.000000
4.115090 50.060001 0.000000
4.430439 50.060001 0.000000
4.745790 50.060001 0.000000
5.061140 50.060001 0.000000
5.376490 50.060001 0.000000
5.691840 50.060001 0.000000
6.007189 50.060001 0.000000
6.322540 50.060001 0.000000
6.637889 50.060001 0.000000
6.953240 50.060001 0.000000
7.268589 50.060001 0.000000
7.583940 50.060001 0.000000
7.899290 50.060001 0.000000
8.214640 50.060001 0.000000
8.529989 50.060001 0.017539
8.845339 50.060001 0.289592
9.160688 50.060001 2.486035
9.476040 50.060001 0.638862
9.791389 50.060001 1.329512
10.106739 50.060001 2.021027
10.422089 50.060001 1.371454
10.737438 50.060001 2.453768
11.052790 50.060001 4.422219
11.368139 50.060001 3.957786
11.683489 50.060001 3.969567
11.998838 50.060001 4.148547
12.314190 50.060001 3.090064
12.629539 50.060001 3.299684
12.944889 50.060001 3.911546
13.260239 50.060001 4.283971
13.575588 50.060001 3.316319
13.890940 50.060001 2.811879
14.206289 50.060001 2.720921
14.521639 50.060001 2.579432
14.836988 50.060001 2.616380
15.152340 50.060001 2.639055
15.467690 50.060001 2.153451
15.783039 50.060001 1.917785
16.098389 50.060001 1.584318
16.413738 50.060001 1.346803
16.729090 50.060001 1.338471
17.044439 50.060001 1.597779
17.359789 50.060001 1.890813
17.675138 50.060001 2.084311
17.990490 50.060001 2.549869
18.305840 50.060001 3.034965
18.621189 50.060001 3.021551
18.936539 50.060001 2.702542
19.251888 50.060001 0.000000
-7.237510 49.744652 0.000000
-6.922160 49.744652 0.000000
-6.606810 49.744652 0.014783
-6.291460 49.744652 0.014198
-5.976110 49.744652 0.017946
-5.660760 49.744652 0.017374
-5.345410 49.744652 0.016847
-5.030060 49.744652 0.016745
-4.714710 49.744652 0.016387
-4.399360 49.744652 0.016244
-4.084010 49.744652 0.015925
-3.768660 49.744652 0.015935
-3.453310 49.744652 0.015724
-3.137960 49.744652 0.015415
-2.822610 49.744652 0.015303
-2.507260 49.744652 0.015508
-2.191910 49.744652 0.015534
-1.876560 49.744652 0.015752
-1.561210 49.744652 0.015722
-1.245860 49.744652 0.016203
-0.930510 49.744652 0.016456
-0.615160 49.744652 0.016373
-0.299810 49.744652 0.016204
0.015540 49.744652 0.016315
0.330890 49.744652 0.016871
0.646240 49.744652 0.016093
0.961589 49.744652 0.015865
1.276940 49.744652 0.018028
1.592289 49.744652 0.017015
1.907640 49.744652 0.016906
2.222990 49.744652 0.020920
2.538340 49.744652 0.036884
2.853690 49.744652 0.121843
3.169039 49.744652 0.070648
3.484390 49.744652 0.059340
3.799739 49.744652 0.487762
4.115090 49.744652 0.433123
4.430439 49.744652 0.109360
4.745790 49.744652 0.084631
5.061140 49.744652 0.000000
5.376490 49.744652 0.000000
5.691840 49.744652 0.000000
6.007189 49.744652 0.251000
6.322540 49.744652 1.330332
6.637889 49.744652 1.525235
6.953240 49.744652 1.240899
7.268589 49.744652 1.468419
7.583940 49.744652 1.327635
7.899290 49.744652 1.268023
8.214640 49.744652 1.025966
8.529989 49.744652 1.291459
8.845339 49.744652 1.342348
9.160688 49.744652 1.334862
9.476040 49.744652 1.295672
9.791389 49.744652 1.288769
10.106739 49.744652 1.311332
10.422089 49.744652 1.273859
10.737438 49.744652 1.280473
11.052790 49.744652 1.299704
11.368139 49.744652 1.321146
11.683489 49.744652 1.375341
11.998838 49.744652 1.452608
12.314190 49.744652 1.493272
12.629539 49.744652 1.542373
12.944889 49.744652 1.573460
13.260239 49.744652 1.594026
13.575588 49.744652 1.583372
13.890940 49.744652 1.571634
14.206289 49.744652 1.590264
14.521639 49.744652 1.536414
14.836988 49.744652 1.500619
15.152340 49.744652 1.451922
15.467690 49.744652 1.395292
15.783039 49.744652 1.395676
16.098389 49.744652 1.430122
16.413738 49.744652 1.504676
16.729090 49.744652 1.552065
17.044439 49.744652 1.800656
17.359789 49.744652 1.957940
17.675138 49.744652 1.931963
17.990490 49.744652 1.970040
18.305840 49.744652 1.954177
18.621189 49.744652 1.862205
18.936539 49.744652 1.618245
19.251888 49.744652 0.000000
-7.237510 49.429302 0.000000
-6.922160 49.429302 0.000000
-6.606810 49.429302 0.013065
-6.291460 49.429302 0.014779
-5.976110 49.429302 0.014101
-5.660760 49.429302 0.013793
-5.345410 49.429302 0.013843
-5.030060 49.429302 0.013785
-4.714710 49.429302 0.013520
-4.399360 49.429302 0.013396
-4.084010 49.429302 0.013263
-3.768660 49.429302 0.013060
-3.453310 49.429302 0.012952
-3.137960 49.429302 0.012856
-2.822610 49.429302 0.012724
-2.507260 49.429302 0.012765
-2.191910 49.429302 0.012615
-1.876560 49.429302 0.012818
-1.561210 49.429302 0.012706
-1.245860 49.429302 0.012997
-0.930510 49.429302 0.013277
-0.615160 49.429302 0.013101
-0.299810 49.429302 0.013219
0.015540 49.429302 0.013309
0.330890 49.429302 0.013554
0.646240 49.429302 0.014008
0.961589 49.429302 0.014308
1.276940 49.429302 0.014850
1.592289 49.429302 0.014906
1.907640 49.429302 0.015173
2.222990 49.429302 0.015783
2.538340 49.429302 0.016210
2.853690 49.429302 0.016835
3.169039 49.429302 0.017387
3.484390 49.429302 0.018000
3.799739 49.429302 0.019227
4.115090 49.429302 0.020233
4.430439 49.429302 0.021426
4.745790 49.429302 0.023094
5.061140 49.429302 0.025278
5.376490 49.429302 0.027866
5.691840 49.429302 0.031201
6.007189 49.429302 0.036121
6.322540 49.429302 0.042709
6.637889 49.429302 0.051604
6.953240 49.429302 0.063875
7.268589 49.429302 0.080024
7.583940 49.429302 0.103469
7.899290 49.429302 0.131965
8.214640 49.429302 0.170782
8.529989 49.429302 0.220466
8.845339 49.429302 0.279520
9.160688 49.429302 0.354284
9.476040 49.429302 0.436082
9.791389 49.429302 0.535037
10.106739 49.429302 0.638178
10.422089 49.429302 0.740629
10.737438 49.429302 0.853290
11.052790 49.429302 0.963966
11.368139 49.429302 1.072591
11.683489 49.429302 1.166256
11.998838 49.429302 1.287018
12.314190 49.429302 1.376768
12.629539 49.429302 1.466811
12.944889 49.429302 1.515235
13.260239 49.429302 1.557105
13.575588 49.429302 1.554294
13.890940 49.429302 1.558414
14.206289 49.429302 1.521705
14.521639 49.429302 1.476967
14.836988 49.429302 1.406170
15.152340 49.429302 1.362752
15.467690 49.429302 1.275689
15.783039 49.429302 1.244872
16.098389 49.429302 1.262182
16.413738 49.429302 1.315837
16.729090 49.429302 1.391410
17.044439 49.429302 1.605183
17.359789 49.429302 1.739766
17.675138 49.429302 1.741111
17.990490 49.429302 1.740760
18.305840 49.429302 1.777328
18.621189 49.429302 1.843375
18.936539 49.429302 1.760963
19.251888 49.429302 0.000000
-7.237510 49.113949 0.000000
-6.922160 49.113949 0.000000
-6.606810 49.113949 0.016005
-6.291460 49.113949 0.012439
-5.976110 49.113949 0.011558
-5.660760 49.113949 0.011495
-5.345410 49.113949 0.011427
-5.030060 49.113949 0.011341
-4.714710 49.113949 0.011070
-4.399360 49.113949 0.010896
-4.084010 49.113949 0.010848
-3.768660 49.113949 0.010630
-3.453310 49.113949 0.010605
-3.137960 49.113949 0.010567
-2.822610 49.113949 0.010574
-2.507260 49.113949 0.010651
-2.191910 49.113949 0.010462
-1.876560 49.113949 0.010306
-1.561210 49.113949 0.010277
-1.245860 49.113949 0.010511
-0.930510 49.113949 0.010781
-0.615160 49.113949 0.010774
-0.299810 49.113949 0.010884
0.015540 49.113949 0.010920
0.330890 49.113949 0.011197
0.646240 49.113949 0.011664
0.961589 49.113949 0.011920
1.276940 49.113949 0.012247
1.592289 49.113949 0.012485
1.907640 49.113949 0.012809
2.222990 49.113949 0.013436
2.538340 49.113949 0.013898
2.853690 49.113949 0.014549
3.169039 49.113949 0.015090
3.484390 49.113949 0.015834
3.799739 49.113949 0.016902
4.115090 49.113949 0.018053
4.430439 49.113949 0.019336
4.745790 49.113949 0.020795
5.061140 49.113949 0.023039
5.376490 49.113949 0.025666
5.691840 49.113949 0.028897
6.007189 49.113949 0.033276
6.322540 49.113949 0.040084
6.637889 49.113949 0.048152
6.953240 49.113949 0.059388
7.268589 49.113949 0.074881
7.583940 49.113949 0.096309
7.899290 49.113949 0.122764
8.214640 49.113949 0.156819
8.529989 49.113949 0.201507
8.845339 49.113949 0.252912
9.160688 49.113949 0.322791
9.476040 49.113949 0.399898
9.791389 49.113949 0.490322
10.106739 49.113949 0.582248
10.422089 49.113949 0.671454
10.737438 49.113949 0.781079
11.052790 49.113949 0.880195
11.368139 49.113949 0.964202
11.683489 49.113949 1.067078
11.998838 49.113949 1.172716
12.314190 49.113949 1.252958
12.629539 49.113949 1.321157
12.944889 49.113949 1.370807
13.260239 49.113949 1.411973
13.575588 49.113949 1.413798
13.890940 49.113949 1.416158
14.206289 49.113949 1.398327
14.521639 49.113949 1.336972
14.836988 49.113949 1.292062
15.152340 49.113949 1.221386
15.467690 49.113949 1.168276
15.783039 49.113949 1.097620
16.098389 49.113949 1.090012
16.413738 49.113949 1.121974
16.729090 49.113949 1.212124
17.044439 49.113949 1.390221
17.359789 49.113949 1.527324
17.675138 49.113949 1.501427
17.990490 49.113949 1.512045
18.305840 49.113949 1.606025
18.621189 49.113949 1.757028
18.936539 49.113949 1.774652
19.251888 49.113949 0.000000
-7.237510 48.798599 0.000000
-6.922160 48.798599 0.000000
-6.606810 48.798599 0.014750
-6.291460 48.798599 0.011154
-5.976110 48.798599 0.010591
-5.660760 48.798599 0.010530
-5.345410 48.798599 0.010345
-5.030060 48.798599 0.010208
-4.714710 48.798599 0.010069
-4.399360 48.798599 0.009841
-4.084010 48.798599 0.009819
-3.768660 48.798599 0.009767
-3.453310 48.798599 0.009742
-3.137960 48.798599 0.009734
-2.822610 48.798599 0.009858
-2.507260 48.798599 0.009825
-2.191910 48.798599 0.009527
-1.876560 48.798599 0.009322
-1.561210 48.798599 0.009242
-1.245860 48.798599 0.009519
-0.930510 48.798599 0.009695
-0.615160 48.798599 0.009716
-0.299810 48.798599 0.009843
0.015540 48.798599 0.009816
0.330890 48.798599 0.010166
0.646240 48.798599 0.010580
0.961589 48.798599 0.010757
1.276940 48.798599 0.011060
1.592289 48.798599 0.011252
1.907640 48.798599 0.011678
2.222990 48.798599 0.012308
2.538340 48.798599 0.012802
2.853690 48.798599 0.013525
3.169039 48.798599 0.014169
3.484390 48.798599 0.014936
3.799739 48.798599 0.015909
4.115090 48.798599 0.017040
4.430439 48.798599 0.018325
4.745790 48.798599 0.019848
5.061140 48.798599 0.021975
5.376490 48.798599 0.024572
5.691840 48.798599 0.027913
6.007189 48.798599 0.032285
6.322540 48.798599 0.038471
6.637889 48.798599 0.047023
6.953240 48.798599 0.057651
7.268589 48.798599 0.072569
7.583940 48.798599 0.092885
7.899290 48.798599 0.119679
8.214640 48.798599 0.152060
8.529989 48.798599 0.191809
8.845339 48.798599 0.245852
9.160688 48.798599 0.307979
9.476040 48.798599 0.382264
9.791389 48.798599 0.466945
10.106739 48.798599 0.554530
10.422089 48.798599 0.651955
10.737438 48.798599 0.738432
11.052790 48.798599 0.828495
11.368139 48.798599 0.914517
11.683489 48.798599 1.016392
11.998838 48.798599 1.107048
12.314190 48.798599 1.190587
12.629539 48.798599 1.244823
12.944889 48.798599 1.308082
13.260239 48.798599 1.340304
13.575588 48.798599 1.346210
13.890940 48.798599 1.348465
14.206289 48.798599 1.312843
14.521639 48.798599 1.256501
14.836988 48.798599 1.215174
15.152340 48.798599 1.145655
15.467690 48.798599 1.080909
15.783039 48.798599 1.035826
16.098389 48.798599 1.005633
16.413738 48.798599 1.038750
16.729090 48.798599 1.122764
17.044439 48.798599 1.288780
17.359789 48.798599 1.433592
17.675138 48.798599 1.392227
17.990490 48.798599 1.387512
18.305840 48.798599 1.519289
18.621189 48.798599 1.693173
18.936539 48.798599 1.813573
19.251888 48.798599 0.000000
-7.237510 48.483250 0.000000
-6.922160 48.483250 0.000000
-6.606810 48.483250 0.014013
-6.291460 48.483250 0.010600
-5.976110 48.483250 0.010201
-5.660760 48.483250 0.010202
-5.345410 48.483250 0.009846
-5.030060 48.483250 0.009701
-4.714710 48.483250 0.009626
-4.399360 48.483250 0.009466
-4.084010 48.483250 0.009478
-3.768660 48.483250 0.009474
-3.453310 48.483250 0.009382
-3.137960 48.483250 0.009415
-2.822610 48.483250 0.009529
-2.507260 48.483250 0.009405
-2.191910 48.483250 0.009188
-1.876560 48.483250 0.009063
-1.561210 48.483250 0.009024
-1.245860 48.483250 0.009260
-0.930510 48.483250 0.009288
-0.615160 48.483250 0.009367
-0.299810 48.483250 0.009448
0.015540 48.483250 0.009407
0.330890 48.483250 0.009787
0.646240 48.483250 0.010136
0.961589 48.483250 0.010307
1.276940 48.483250 0.010502
1.592289 48.483250 0.010782
1.907640 48.483250 0.011258
2.222990 48.483250 0.011843
2.538340 48.483250 0.012424
2.853690 48.483250 0.013157
3.169039 48.483250 0.013825
3.484390 48.483250 0.014659
3.799739 48.483250 0.015618
4.115090 48.483250 0.016740
4.430439 48.483250 0.018064
4.745790 48.483250 0.019755
5.061140 48.483250 0.021733
5.376490 48.483250 0.024515
5.691840 48.483250 0.027904
6.007189 48.483250 0.032237
6.322540 48.483250 0.038151
6.637889 48.483250 0.046679
6.953240 48.483250 0.057542
7.268589 48.483250 0.072911
7.583940 48.483250 0.093088
7.899290 48.483250 0.117782
8.214640 48.483250 0.151267
8.529989 48.483250 0.193759
8.845339 48.483250 0.243778
9.160688 48.483250 0.303297
9.476040 48.483250 0.384202
9.791389 48.483250 0.462948
10.106739 48.483250 0.548190
10.422089 48.483250 0.637606
10.737438 48.483250 0.725922
11.052790 48.483250 0.810096
11.368139 48.483250 0.911258
11.683489 48.483250 1.000636
11.998838 48.483250 1.078835
12.314190 48.483250 1.167157
12.629539 48.483250 1.235798
12.944889 48.483250 1.285825
13.260239 48.483250 1.313292
13.575588 48.483250 1.335558
13.890940 48.483250 1.322682
14.206289 48.483250 1.290100
14.521639 48.483250 1.240712
14.836988 48.483250 1.187538
15.152340 48.483250 1.132420
15.467690 48.483250 1.046573
15.783039 48.483250 0.999609
16.098389 48.483250 0.958763
16.413738 48.483250 0.987443
16.729090 48.483250 1.091593
17.044439 48.483250 1.267737
17.359789 48.483250 1.375609
17.675138 48.483250 1.389255
17.990490 48.483250 1.372168
18.305840 48.483250 1.485884
18.621189 48.483250 1.719648
18.936539 48.483250 1.890374
19.251888 48.483250 0.000000
-7.237510 48.167900 0.000000
-6.922160 48.167900 0.000000
-6.606810 48.167900 0.013556
-6.291460 48.167900 0.010208
-5.976110 48.167900 0.009916
-5.660760 48.167900 0.009763
-5.345410 48.167900 0.009523
-5.030060 48.167900 0.009396
-4.714710 48.167900 0.009323
-4.399360 48.167900 0.009254
-4.084010 48.167900 0.009262
-3.768660 48.167900 0.009247
-3.453310 48.167900 0.009100
-3.137960 48.167900 0.009078
-2.822610 48.167900 0.009163
-2.507260 48.167900 0.009005
-2.191910 48.167900 0.008938
-1.876560 48.167900 0.008961
-1.561210 48.167900 0.008905
-1.245860 48.167900 0.009129
-0.930510 48.167900 0.009126
-0.615160 48.167900 0.009191
-0.299810 48.167900 0.009201
0.015540 48.167900 0.009128
0.330890 48.167900 0.009549
0.646240 48.167900 0.009826
0.961589 48.167900 0.009968
1.276940 48.167900 0.010174
1.592289 48.167900 0.010558
1.907640 48.167900 0.011024
2.222990 48.167900 0.011534
2.538340 48.167900 0.012221
2.853690 48.167900 0.012940
3.169039 48.167900 0.013579
3.484390 48.167900 0.014452
3.799739 48.167900 0.015462
4.115090 48.167900 0.016635
4.430439 48.167900 0.017986
4.745790 48.167900 0.019620
5.061140 48.167900 0.021690
5.376490 48.167900 0.024267
5.691840 48.167900 0.027765
6.007189 48.167900 0.032322
6.322540 48.167900 0.038338
6.637889 48.167900 0.046537
6.953240 48.167900 0.057612
7.268589 48.167900 0.072969
7.583940 48.167900 0.093469
7.899290 48.167900 0.119293
8.214640 48.167900 0.152899
8.529989 48.167900 0.195690
8.845339 48.167900 0.248848
9.160688 48.167900 0.310414
9.476040 48.167900 0.386863
9.791389 48.167900 0.466699
10.106739 48.167900 0.560490
10.422089 48.167900 0.647755
10.737438 48.167900 0.729273
11.052790 48.167900 0.822677
11.368139 48.167900 0.911191
11.683489 48.167900 1.009702
11.998838 48.167900 1.082717
12.314190 48.167900 1.172329
12.629539 48.167900 1.252537
12.944889 48.167900 1.298844
13.260239 48.167900 1.343023
13.575588 48.167900 1.351444
13.890940 48.167900 1.341132
14.206289 48.167900 1.293339
14.521639 48.167900 1.244176
14.836988 48.167900 1.189268
15.152340 48.167900 1.109563
15.467690 48.167900 1.039598
15.783039 48.167900 0.957694
16.098389 48.167900 0.943692
16.413738 48.167900 0.956542
16.729090 48.167900 1.059923
17.044439 48.167900 1.229537
17.359789 48.167900 1.349341
17.675138 48.167900 1.361987
17.990490 48.167900 1.377891
18.305840 48.167900 1.556697
18.621189 48.167900 1.816540
18.936539 48.167900 2.002786
19.251888 48.167900 0.000000
-7.237510 47.852551 0.000000
-6.922160 47.852551 0.000000
-6.606810 47.852551 0.012684
-6.291460 47.852551 0.009731
-5.976110 47.852551 0.009494
-5.660760 47.852551 0.009374
-5.345410 47.852551 0.009110
-5.030060 47.852551 0.009026
-4.714710 47.852551 0.009004
-4.399360 47.852551 0.008983
-4.084010 47.852551 0.008976
-3.768660 47.852551 0.008831
-3.453310 47.852551 0.008676
-3.137960 47.852551 0.008624
-2.822610 47.852551 0.008615
-2.507260 47.852551 0.008476
-2.191910 47.852551 0.008626
-1.876560 47.852551 0.008685
-1.561210 47.852551 0.008755
-1.245860 47.852551 0.008870
-0.930510 47.852551 0.008917
-0.615160 47.852551 0.008967
-0.299810 47.852551 0.008934
0.015540 47.852551 0.008859
0.330890 47.852551 0.009218
0.646240 47.852551 0.009460
0.961589 47.852551 0.009693
1.276940 47.852551 0.009833
1.592289 47.852551 0.010247
1.907640 47.852551 0.010806
2.222990 47.852551 0.011279
2.538340 47.852551 0.011942
2.853690 47.852551 0.012530
3.169039 47.852551 0.013217
3.484390 47.852551 0.014066
3.799739 47.852551 0.015204
4.115090 47.852551 0.016438
4.430439 47.852551 0.017761
4.745790 47.852551 0.019498
5.061140 47.852551 0.021602
5.376490 47.852551 0.024071
5.691840 47.852551 0.027734
6.007189 47.852551 0.032216
6.322540 47.852551 0.038427
6.637889 47.852551 0.046499
6.953240 47.852551 0.058080
7.268589 47.852551 0.073215
7.583940 47.852551 0.094482
7.899290 47.852551 0.119535
8.214640 47.852551 0.154995
8.529989 47.852551 0.196144
8.845339 47.852551 0.249145
9.160688 47.852551 0.310388
9.476040 47.852551 0.386478
9.791389 47.852551 0.479835
10.106739 47.852551 0.572413
10.422089 47.852551 0.657870
10.737438 47.852551 0.732598
11.052790 47.852551 0.824657
11.368139 47.852551 0.917146
11.683489 47.852551 1.012941
11.998838 47.852551 1.110152
12.314190 47.852551 1.191571
12.629539 47.852551 1.264107
12.944889 47.852551 1.321617
13.260239 47.852551 1.343078
13.575588 47.852551 1.355828
13.890940 47.852551 1.337719
14.206289 47.852551 1.289408
14.521639 47.852551 1.248442
14.836988 47.852551 1.171402
15.152340 47.852551 1.086516
15.467690 47.852551 1.012929
15.783039 47.852551 0.948227
16.098389 47.852551 0.920521
16.413738 47.852551 0.951987
16.729090 47.852551 1.052825
17.044439 47.852551 1.251667
17.359789 47.852551 1.369267
17.675138 47.852551 1.412651
17.990490 47.852551 1.393467
18.305840 47.852551 1.604366
18.621189 47.852551 1.926063
18.936539 47.852551 2.055022
19.251888 47.852551 0.000000
-7.237510 47.537201 0.000000
-6.922160 47.537201 0.000000
-6.606810 47.537201 0.012122
-6.291460 47.537201 0.009352
-5.976110 47.537201 0.009175
-5.660760 47.537201 0.008988
-5.345410 47.537201 0.008741
-5.030060 47.537201 0.008624
-4.714710 47.537201 0.008599
-4.399360 47.537201 0.008662
-4.084010 47.537201 0.008586
-3.768660 47.537201 0.008424
-3.453310 47.537201 0.008250
-3.137960 47.537201 0.008135
-2.822610 47.537201 0.008080
-2.507260 47.537201 0.008088
-2.191910 47.537201 0.008308
-1.876560 47.537201 0.008387
-1.561210 47.537201 0.008499
-1.245860 47.537201 0.008482
-0.930510 47.537201 0.008562
-0.615160 47.537201 0.008622
-0.299810 47.537201 0.008574
0.015540 47.537201 0.008655
0.330890 47.537201 0.008908
0.646240 47.537201 0.009102
0.961589 47.537201 0.009359
1.276940 47.537201 0.009515
1.592289 47.537201 0.009975
1.907640 47.537201 0.010532
2.222990 47.537201 0.011043
2.538340 47.537201 0.011579
2.853690 47.537201 0.012116
3.169039 47.537201 0.012803
3.484390 47.537201 0.013646
3.799739 47.537201 0.014831
4.115090 47.537201 0.016078
4.430439 47.537201 0.017467
4.745790 47.537201 0.019307
5.061140 47.537201 0.021364
5.376490 47.537201 0.023829
5.691840 47.537201 0.027228
6.007189 47.537201 0.032072
6.322540 47.537201 0.038133
6.637889 47.537201 0.046258
6.953240 47.537201 0.057739
7.268589 47.537201 0.072223
7.583940 47.537201 0.092612
7.899290 47.537201 0.119732
8.214640 47.537201 0.154546
8.529989 47.537201 0.194845
8.845339 47.537201 0.247326
9.160688 47.537201 0.314928
9.476040 47.537201 0.390642
9.791389 47.537201 0.474364
10.106739 47.537201 0.566024
10.422089 47.537201 0.664554
10.737438 47.537201 0.744820
11.052790 47.537201 0.826787
11.368139 47.537201 0.925898
11.683489 47.537201 1.021173
11.998838 47.537201 1.120774
12.314190 47.537201 1.207778
12.629539 47.537201 1.276965
12.944889 47.537201 1.319558
13.260239 47.537201 1.361493
13.575588 47.537201 1.359440
13.890940 47.537201 1.325705
14.206289 47.537201 1.290054
14.521639 47.537201 1.235936
14.836988 47.537201 1.174707
15.152340 47.537201 1.090190
15.467690 47.537201 1.018544
15.783039 47.537201 0.929421
16.098389 47.537201 0.902112
16.413738 47.537201 0.934920
16.729090 47.537201 1.071804
17.044439 47.537201 1.312355
17.359789 47.537201 1.428633
17.675138 47.537201 1.415154
17.990490 47.537201 1.499010
18.305840 47.537201 1.715831
18.621189 47.537201 2.041981
18.936539 47.537201 2.174290
19.251888 47.537201 0.000000
-7.237510 47.221851 0.000000
-6.922160 47.221851 0.000000
-6.606810 47.221851 0.011695
-6.291460 47.221851 0.009083
-5.976110 47.221851 0.008852
-5.660760 47.221851 0.008624
-5.345410 47.221851 0.008370
-5.030060 47.221851 0.008218
-4.714710 47.221851 0.008227
-4.399360 47.221851 0.008266
-4.084010 47.221851 0.008107
-3.768660 47.221851 0.007975
-3.453310 47.221851 0.007872
-3.137960 47.221851 0.007709
-2.822610 47.221851 0.007681
-2.507260 47.221851 0.007773
-2.191910 47.221851 0.007919
-1.876560 47.221851 0.007913
-1.561210 47.221851 0.008136
-1.245860 47.221851 0.008139
-0.930510 47.221851 0.008179
-0.615160 47.221851 0.008228
-0.299810 47.221851 0.008219
0.015540 47.221851 0.008376
0.330890 47.221851 0.008597
0.646240 47.221851 0.008870
0.961589 47.221851 0.009083
1.276940 47.221851 0.009312
1.592289 47.221851 0.009783
1.907640 47.221851 0.010278
2.222990 47.221851 0.010754
2.538340 47.221851 0.011253
2.853690 47.221851 0.011836
3.169039 47.221851 0.012437
3.484390 47.221851 0.013310
3.799739 47.221851 0.014509
4.115090 47.221851 0.015661
4.430439 47.221851 0.017195
4.745790 47.221851 0.019029
5.061140 47.221851 0.020985
5.376490 47.221851 0.023557
5.691840 47.221851 0.026955
6.007189 47.221851 0.031607
6.322540 47.221851 0.037607
6.637889 47.221851 0.046122
6.953240 47.221851 0.057155
7.268589 47.221851 0.072711
7.583940 47.221851 0.092621
7.899290 47.221851 0.119653
8.214640 47.221851 0.155778
8.529989 47.221851 0.197302
8.845339 47.221851 0.243772
9.160688 47.221851 0.315047
9.476040 47.221851 0.390434
9.791389 47.221851 0.467013
10.106739 47.221851 0.559528
10.422089 47.221851 0.646130
10.737438 47.221851 0.742542
11.052790 47.221851 0.832824
11.368139 47.221851 0.926227
11.683489 47.221851 1.027293
11.998838 47.221851 1.126232
12.314190 47.221851 1.209933
12.629539 47.221851 1.279291
12.944889 47.221851 1.337490
13.260239 47.221851 1.354390
13.575588 47.221851 1.362884
13.890940 47.221851 1.327279
14.206289 47.221851 1.287350
14.521639 47.221851 1.236413
14.836988 47.221851 1.178277
15.152340 47.221851 1.087512
15.467690 47.221851 0.992009
15.783039 47.221851 0.922989
16.098389 47.221851 0.904951
16.413738 47.221851 0.944887
16.729090 47.221851 1.100692
17.044439 47.221851 1.369886
17.359789 47.221851 1.540283
17.675138 47.221851 1.571913
17.990490 47.221851 1.682323
18.305840 47.221851 1.852440
18.621189 47.221851 2.166999
18.936539 47.221851 2.278251
19.251888 47.221851 0.000000
-7.237510 46.906502 0.000000
-6.922160 46.906502 0.000000
-6.606810 46.906502 0.011360
-6.291460 46.906502 0.008680
-5.976110 46.906502 0.008445
-5.660760 46.906502 0.008231
-5.345410 46.906502 0.007994
-5.030060 46.906502 0.007780
-4.714710 46.906502 0.007782
-4.399360 46.906502 0.007793
-4.084010 46.906502 0.007641
-3.768660 46.906502 0.007536
-3.453310 46.906502 0.007407
-3.137960 46.906502 0.007308
-2.822610 46.906502 0.007343
-2.507260 46.906502 0.007471
-2.191910 46.906502 0.007516
-1.876560 46.906502 0.007471
-1.561210 46.906502 0.007671
-1.245860 46.906502 0.007703
-0.930510 46.906502 0.007777
-0.615160 46.906502 0.007864
-0.299810 46.906502 0.007970
0.015540 46.906502 0.008102
0.330890 46.906502 0.008380
0.646240 46.906502 0.008616
0.961589 46.906502 0.008854
1.276940 46.906502 0.009179
1.592289 46.906502 0.009639
1.907640 46.906502 0.010060
2.222990 46.906502 0.010463
2.538340 46.906502 0.010962
2.853690 46.906502 0.011641
3.169039 46.906502 0.012297
3.484390 46.906502 0.013143
3.799739 46.906502 0.014227
4.115090 46.906502 0.015397
4.430439 46.906502 0.017008
4.745790 46.906502 0.018753
5.061140 46.906502 0.020793
5.376490 46.906502 0.023323
5.691840 46.906502 0.026569
6.007189 46.906502 0.031233
6.322540 46.906502 0.037359
6.637889 46.906502 0.046270
6.953240 46.906502 0.057673
7.268589 46.906502 0.073134
7.583940 46.906502 0.092375
7.899290 46.906502 0.121107
8.214640 46.906502 0.154087
8.529989 46.906502 0.195460
8.845339 46.906502 0.245998
9.160688 46.906502 0.318606
9.476040 46.906502 0.395306
9.791389 46.906502 0.472135
10.106739 46.906502 0.562663
10.422089 46.906502 0.654846
10.737438 46.906502 0.749517
11.052790 46.906502 0.836458
11.368139 46.906502 0.939460
11.683489 46.906502 1.027758
11.998838 46.906502 1.124228
12.314190 46.906502 1.207857
12.629539 46.906502 1.274732
12.944889 46.906502 1.337547
13.260239 46.906502 1.361976
13.575588 46.906502 1.364848
13.890940 46.906502 1.335066
14.206289 46.906502 1.304343
14.521639 46.906502 1.245428
14.836988 46.906502 1.179836
15.152340 46.906502 1.091628
15.467690 46.906502 0.989417
15.783039 46.906502 0.931804
16.098389 46.906502 0.918898
16.413738 46.906502 0.990142
16.729090 46.906502 1.186496
17.044439 46.906502 1.575643
17.359789 46.906502 1.835498
17.675138 46.906502 1.887404
17.990490 46.906502 1.931174
18.305840 46.906502 2.166188
18.621189 46.906502 2.444589
18.936539 46.906502 2.336686
19.251888 46.906502 0.000000
-7.237510 46.591152 0.000000
-6.922160 46.591152 0.000000
-6.606810 46.591152 0.010944
-6.291460 46.591152 0.008291
-5.976110 46.591152 0.007932
-5.660760 46.591152 0.007829
-5.345410 46.591152 0.007616
-5.030060 46.591152 0.007491
-4.714710 46.591152 0.007436
-4.399360 46.591152 0.007349
-4.084010 46.591152 0.007133
-3.768660 46.591152 0.007166
-3.453310 46.591152 0.007138
-3.137960 46.591152 0.007029
-2.822610 46.591152 0.007007
-2.507260 46.591152 0.007094
-2.191910 46.591152 0.007104
-1.876560 46.591152 0.007164
-1.561210 46.591152 0.007242
-1.245860 46.591152 0.007234
-0.930510 46.591152 0.007314
-0.615160 46.591152 0.007527
-0.299810 46.591152 0.007699
0.015540 46.591152 0.007885
0.330890 46.591152 0.008183
0.646240 46.591152 0.008373
0.961589 46.591152 0.008624
1.276940 46.591152 0.009070
1.592289 46.591152 0.009515
1.907640 46.591152 0.009875
2.222990 46.591152 0.010177
2.538340 46.591152 0.010695
2.853690 46.591152 0.011392
3.169039 46.591152 0.012126
3.484390 46.591152 0.013061
3.799739 46.591152 0.014046
4.115090 46.591152 0.015206
4.430439 46.591152 0.016687
4.745790 46.591152 0.018525
5.061140 46.591152 0.020509
5.376490 46.591152 0.023055
5.691840 46.591152 0.026418
6.007189 46.591152 0.030893
6.322540 46.591152 0.037700
6.637889 46.591152 0.046337
6.953240 46.591152 0.057858
7.268589 46.591152 0.073081
7.583940 46.591152 0.093012
7.899290 46.591152 0.119531
8.214640 46.591152 0.153559
8.529989 46.591152 0.196937
8.845339 46.591152 0.246780
9.160688 46.591152 0.314331
9.476040 46.591152 0.394439
9.791389 46.591152 0.476994
10.106739 46.591152 0.564990
10.422089 46.591152 0.658222
10.737438 46.591152 0.745790
11.052790 46.591152 0.845900
11.368139 46.591152 0.942332
11.683489 46.591152 1.031610
11.998838 46.591152 1.129166
12.314190 46.591152 1.214092
12.629539 46.591152 1.291512
12.944889 46.591152 1.327080
13.260239 46.591152 1.363611
13.575588 46.591152 1.362956
13.890940 46.591152 1.334922
14.206289 46.591152 1.313788
14.521639 46.591152 1.245619
14.836988 46.591152 1.185485
15.152340 46.591152 1.108558
15.467690 46.591152 0.998437
15.783039 46.591152 0.961072
16.098389 46.591152 0.974781
16.413738 46.591152 1.064226
16.729090 46.591152 1.344013
17.044439 46.591152 1.848010
17.359789 46.591152 2.365348
17.675138 46.591152 2.335218
17.990490 46.591152 2.330709
18.305840 46.591152 2.433193
18.621189 46.591152 2.625073
18.936539 46.591152 2.340113
19.251888 46.591152 0.000000
-7.237510 46.275803 0.000000
-6.922160 46.275803 0.000000
-6.606810 46.275803 0.010588
-6.291460 46.275803 0.008019
-5.976110 46.275803 0.007551
-5.660760 46.275803 0.007528
-5.345410 46.275803 0.007342
-5.030060 46.275803 0.007193
-4.714710 46.275803 0.007091
-4.399360 46.275803 0.006930
-4.084010 46.275803 0.006733
-3.768660 46.275803 0.006731
-3.453310 46.275803 0.006962
-3.137960 46.275803 0.006931
-2.822610 46.275803 0.006769
-2.507260 46.275803 0.006754
-2.191910 46.275803 0.006740
-1.876560 46.275803 0.006774
-1.561210 46.275803 0.006891
-1.245860 46.275803 0.006792
-0.930510 46.275803 0.006842
-0.615160 46.275803 0.007106
-0.299810 46.275803 0.007306
0.015540 46.275803 0.007617
0.330890 46.275803 0.007901
0.646240 46.275803 0.008141
0.961589 46.275803 0.008413
1.276940 46.275803 0.008849
1.592289 46.275803 0.009286
1.907640 46.275803 0.009615
2.222990 46.275803 0.009857
2.538340 46.275803 0.010415
2.853690 46.275803 0.011199
3.169039 46.275803 0.012008
3.484390 46.275803 0.012982
3.799739 46.275803 0.013902
4.115090 46.275803 0.014995
4.430439 46.275803 0.016429
4.745790 46.275803 0.018248
5.061140 46.275803 0.020311
5.376490 46.275803 0.022897
5.691840 46.275803 0.026031
6.007189 46.275803 0.030937
6.322540 46.275803 0.037773
6.637889 46.275803 0.046283
6.953240 46.275803 0.058150
7.268589 46.275803 0.073179
7.583940 46.275803 0.093961
7.899290 46.275803 0.120217
8.214640 46.275803 0.154065
8.529989 46.275803 0.196455
8.845339 46.275803 0.251701
9.160688 46.275803 0.316205
9.476040 46.275803 0.395864
9.791389 46.275803 0.482816
10.106739 46.275803 0.569238
10.422089 46.275803 0.656542
10.737438 46.275803 0.750315
11.052790 46.275803 0.845617
11.368139 46.275803 0.943939
11.683489 46.275803 1.037118
11.998838 46.275803 1.125469
12.314190 46.275803 1.221764
12.629539 46.275803 1.302103
12.944889 46.275803 1.326980
13.260239 46.275803 1.349749
13.575588 46.275803 1.371960
13.890940 46.275803 1.348278
14.206289 46.275803 1.305128
14.521639 46.275803 1.262396
14.836988 46.275803 1.198021
15.152340 46.275803 1.119469
15.467690 46.275803 1.030358
15.783039 46.275803 1.000614
16.098389 46.275803 1.048622
16.413738 46.275803 1.141636
16.729090 46.275803 1.516149
17.044439 46.275803 2.161156
17.359789 46.275803 2.661795
17.675138 46.275803 2.808538
17.990490 46.275803 3.645146
18.305840 46.275803 8.195204
18.621189 46.275803 2.500294
18.936539 46.275803 2.334797
19.251888 46.275803 0.000000
-7.237510 45.960449 0.000000
-6.922160 45.960449 0.000000
-6.606810 45.960449 0.010305
-6.291460 45.960449 0.007688
-5.976110 45.960449 0.007299
-5.660760 45.960449 0.007155
-5.345410 45.960449 0.007028
-5.030060 45.960449 0.006870
-4.714710 45.960449 0.006779
-4.399360 45.960449 0.006633
-4.084010 45.960449 0.006458
-3.768660 45.960449 0.006436
-3.453310 45.960449 0.006674
-3.137960 45.960449 0.006603
-2.822610 45.960449 0.006485
-2.507260 45.960449 0.006384
-2.191910 45.960449 0.006434
-1.876560 45.960449 0.006559
-1.561210 45.960449 0.006561
-1.245860 45.960449 0.006387
-0.930510 45.960449 0.006482
-0.615160 45.960449 0.006734
-0.299810 45.960449 0.006970
0.015540 45.960449 0.007312
0.330890 45.960449 0.007607
0.646240 45.960449 0.007829
0.961589 45.960449 0.008113
1.276940 45.960449 0.008495
1.592289 45.960449 0.008969
1.907640 45.960449 0.009292
2.222990 45.960449 0.009530
2.538340 45.960449 0.010106
2.853690 45.960449 0.010997
3.169039 45.960449 0.011943
3.484390 45.960449 0.012829
3.799739 45.960449 0.013655
4.115090 45.960449 0.014737
4.430439 45.960449 0.016139
4.745790 45.960449 0.018080
5.061140 45.960449 0.020214
5.376490 45.960449 0.022553
5.691840 45.960449 0.025944
6.007189 45.960449 0.030900
6.322540 45.960449 0.037711
6.637889 45.960449 0.046414
6.953240 45.960449 0.057434
7.268589 45.960449 0.072997
7.583940 45.960449 0.093547
7.899290 45.960449 0.119200
8.214640 45.960449 0.154244
8.529989 45.960449 0.196201
8.845339 45.960449 0.250310
9.160688 45.960449 0.312331
9.476040 45.960449 0.391683
9.791389 45.960449 0.478298
10.106739 45.960449 0.571027
10.422089 45.960449 0.649900
10.737438 45.960449 0.747173
11.052790 45.960449 0.842689
11.368139 45.960449 0.946510
11.683489 45.960449 1.040665
11.998838 45.960449 1.137562
12.314190 45.960449 1.218018
12.629539 45.960449 1.288267
12.944889 45.960449 1.335221
13.260239 45.960449 1.364917
13.575588 45.960449 1.371842
13.890940 45.960449 1.351138
14.206289 45.960449 1.322210
14.521639 45.960449 1.274475
14.836988 45.960449 1.204725
15.152340 45.960449 1.140614
15.467690 45.960449 1.069118
15.783039 45.960449 1.030284
16.098389 45.960449 1.335170
16.413738 45.960449 1.358247
16.729090 45.960449 1.799821
17.044439 45.960449 3.237732
17.359789 45.960449 5.247265
17.675138 45.960449 6.307007
17.990490 45.960449 8.892998
18.305840 45.960449 10.197185
18.621189 45.960449 2.453754
18.936539 45.960449 2.144332
19.251888 45.960449 0.000000
-7.237510 45.645100 0.000000
-6.922160 45.645100 0.000000
-6.606810 45.645100 0.009670
-6.291460 45.645100 0.007335
-5.976110 45.645100 0.007050
-5.660760 45.645100 0.006836
-5.345410 45.645100 0.006759
-5.030060 45.645100 0.006703
-4.714710 45.645100 0.006553
-4.399360 45.645100 0.006384
-4.084010 45.645100 0.006230
-3.768660 45.645100 0.006181
-3.453310 45.645100 0.006346
-3.137960 45.645100 0.006282
-2.822610 45.645100 0.006105
-2.507260 45.645100 0.006118
-2.191910 45.645100 0.006176
-1.876560 45.645100 0.006261
-1.561210 45.645100 0.006235
-1.245860 45.645100 0.006027
-0.930510 45.645100 0.006167
-0.615160 45.645100 0.006461
-0.299810 45.645100 0.006587
0.015540 45.645100 0.006901
0.330890 45.645100 0.007214
0.646240 45.645100 0.007487
0.961589 45.645100 0.007770
1.276940 45.645100 0.008076
1.592289 45.645100 0.008564
1.907640 45.645100 0.008920
2.222990 45.645100 0.009185
2.538340 45.645100 0.009854
2.853690 45.645100 0.010790
3.169039 45.645100 0.011604
3.484390 45.645100 0.012483
3.799739 45.645100 0.013364
4.115090 45.645100 0.014436
4.430439 45.645100 0.015886
4.745790 45.645100 0.017837
5.061140 45.645100 0.020021
5.376490 45.645100 0.022502
5.691840 45.645100 0.025973
6.007189 45.645100 0.030579
6.322540 45.645100 0.037278
6.637889 45.645100 0.045896
6.953240 45.645100 0.057178
7.268589 45.645100 0.071601
7.583940 45.645100 0.091576
7.899290 45.645100 0.118630
8.214640 45.645100 0.153766
8.529989 45.645100 0.198878
8.845339 45.645100 0.251592
9.160688 45.645100 0.313880
9.476040 45.645100 0.397673
9.791389 45.645100 0.474655
10.106739 45.645100 0.555851
10.422089 45.645100 0.644020
10.737438 45.645100 0.753382
11.052790 45.645100 0.844546
11.368139 45.645100 0.946015
11.683489 45.645100 1.042760
11.998838 45.645100 1.137659
12.314190 45.645100 1.220880
12.629539 45.645100 1.280373
12.944889 45.645100 1.336635
13.260239 45.645100 1.375223
13.575588 45.645100 1.375061
13.890940 45.645100 1.351147
14.206289 45.645100 1.318270
14.521639 45.645100 1.262259
14.836988 45.645100 1.211161
15.152340 45.645100 1.145480
15.467690 45.645100 1.095748
15.783039 45.645100 1.056957
16.098389 45.645100 0.995755
16.413738 45.645100 11.770383
16.729090 45.645100 30.419481
17.044439 45.645100 0.000000
17.359789 45.645100 0.000000
17.675138 45.645100 0.000000
17.990490 45.645100 2.387341
18.305840 45.645100 6.109592
18.621189 45.645100 2.201255
18.936539 45.645100 2.030668
19.251888 45.645100 0.000000
-7.237510 45.329750 0.000000
-6.922160 45.329750 0.000000
-6.606810 45.329750 0.009080
-6.291460 45.329750 0.007021
-5.976110 45.329750 0.006754
-5.660760 45.329750 0.006614
-5.345410 45.329750 0.006552
-5.030060 45.329750 0.006501
-4.714710 45.329750 0.006321
-4.399360 45.329750 0.006148
-4.084010 45.329750 0.005996
-3.768660 45.329750 0.005943
-3.453310 45.329750 0.006047
-3.137960 45.329750 0.006009
-2.822610 45.329750 0.005860
-2.507260 45.329750 0.005860
-2.191910 45.329750 0.005867
-1.876560 45.329750 0.005877
-1.561210 45.329750 0.005948
-1.245860 45.329750 0.005859
-0.930510 45.329750 0.005929
-0.615160 45.329750 0.006160
-0.299810 45.329750 0.006308
0.015540 45.329750 0.006547
0.330890 45.329750 0.006777
0.646240 45.329750 0.007119
0.961589 45.329750 0.007451
1.276940 45.329750 0.007658
1.592289 45.329750 0.008057
1.907640 45.329750 0.008585
2.222990 45.329750 0.008945
2.538340 45.329750 0.009621
2.853690 45.329750 0.010505
3.169039 45.329750 0.011289
3.484390 45.329750 0.012050
3.799739 45.329750 0.012951
4.115090 45.329750 0.014071
4.430439 45.329750 0.015657
4.745790 45.329750 0.017508
5.061140 45.329750 0.019779
5.376490 45.329750 0.022385
5.691840 45.329750 0.025726
6.007189 45.329750 0.030389
6.322540 45.329750 0.036923
6.637889 45.329750 0.045241
6.953240 45.329750 0.056938
7.268589 45.329750 0.071655
7.583940 45.329750 0.091210
7.899290 45.329750 0.117878
8.214640 45.329750 0.150936
8.529989 45.329750 0.196642
8.845339 45.329750 0.247434
9.160688 45.329750 0.313611
9.476040 45.329750 0.397561
9.791389 45.329750 0.470789
10.106739 45.329750 0.560740
10.422089 45.329750 0.641433
10.737438 45.329750 0.750273
11.052790 45.329750 0.857356
11.368139 45.329750 0.946295
11.683489 45.329750 1.046444
11.998838 45.329750 1.137638
12.314190 45.329750 1.216514
12.629539 45.329750 1.289254
12.944889 45.329750 1.338313
13.260239 45.329750 1.377830
13.575588 45.329750 1.364773
13.890940 45.329750 1.344484
14.206289 45.329750 1.323425
14.521639 45.329750 1.255941
14.836988 45.329750 1.227080
15.152340 45.329750 1.140091
15.467690 45.329750 1.079552
15.783039 45.329750 1.030985
16.098389 45.329750 0.831395
16.413738 45.329750 0.000000
16.729090 45.329750 0.000000
17.044439 45.329750 0.000000
17.359789 45.329750 0.000000
17.675138 45.329750 0.000000
17.990490 45.329750 0.000000
18.305840 45.329750 4.703600
18.621189 45.329750 2.018304
18.936539 45.329750 2.159192
19.251888 45.329750 0.000000
-7.237510 45.014400 0.000000
-6.922160 45.014400 0.000000
-6.606810 45.014400 0.008539
-6.291460 45.014400 0.006615
-5.976110 45.014400 0.006406
-5.660760 45.014400 0.006297
-5.345410 45.014400 0.006166
-5.030060 45.014400 0.006130
-4.714710 45.014400 0.005978
-4.399360 45.014400 0.005882
-4.084010 45.014400 0.005784
-3.768660 45.014400 0.005783
-3.453310 45.014400 0.005799
-3.137960 45.014400 0.005709
-2.822610 45.014400 0.005614
-2.507260 45.014400 0.005636
-2.191910 45.014400 0.005586
-1.876560 45.014400 0.005642
-1.561210 45.014400 0.005714
-1.245860 45.014400 0.005705
-0.930510 45.014400 0.005854
-0.615160 45.014400 0.005960
-0.299810 45.014400 0.006071
0.015540 45.014400 0.006237
0.330890 45.014400 0.006384
0.646240 45.014400 0.006753
0.961589 45.014400 0.007045
1.276940 45.014400 0.007197
1.592289 45.014400 0.007615
1.907640 45.014400 0.008203
2.222990 45.014400 0.008751
2.538340 45.014400 0.009375
2.853690 45.014400 0.010169
3.169039 45.014400 0.010906
3.484390 45.014400 0.011642
3.799739 45.014400 0.012591
4.115090 45.014400 0.013795
4.430439 45.014400 0.015386
4.745790 45.014400 0.017221
5.061140 45.014400 0.019586
5.376490 45.014400 0.022251
5.691840 45.014400 0.025639
6.007189 45.014400 0.030250
6.322540 45.014400 0.036612
6.637889 45.014400 0.045734
6.953240 45.014400 0.057141
7.268589 45.014400 0.071358
7.583940 45.014400 0.091255
7.899290 45.014400 0.117332
8.214640 45.014400 0.151944
8.529989 45.014400 0.198022
8.845339 45.014400 0.251770
9.160688 45.014400 0.312996
9.476040 45.014400 0.393038
9.791389 45.014400 0.472087
10.106739 45.014400 0.564463
10.422089 45.014400 0.651686
10.737438 45.014400 0.751066
11.052790 45.014400 0.850501
11.368139 45.014400 0.944226
11.683489 45.014400 1.042270
11.998838 45.014400 1.131575
12.314190 45.014400 1.219435
12.629539 45.014400 1.290006
12.944889 45.014400 1.346919
13.260239 45.014400 1.374949
13.575588 45.014400 1.386118
13.890940 45.014400 1.342111
14.206289 45.014400 1.310091
14.521639 45.014400 1.251411
14.836988 45.014400 1.218884
15.152340 45.014400 1.124356
15.467690 45.014400 1.048147
15.783039 45.014400 0.952872
16.098389 45.014400 0.809194
16.413738 45.014400 0.000000
16.729090 45.014400 0.000000
17.044439 45.014400 0.000000
17.359789 45.014400 0.000000
17.675138 45.014400 0.000000
17.990490 45.014400 0.000000
18.305840 45.014400 7.060761
18.621189 45.014400 2.862883
18.936539 45.014400 3.394861
19.251888 45.014400 0.000000
-7.237510 44.699051 0.000000
-6.922160 44.699051 0.000000
-6.606810 44.699051 0.007995
-6.291460 44.699051 0.006156
-5.976110 44.699051 0.005970
-5.660760 44.699051 0.005914
-5.345410 44.699051 0.005670
-5.030060 44.699051 0.005653
-4.714710 44.699051 0.005572
-4.399360 44.699051 0.005524
-4.084010 44.699051 0.005489
-3.768660 44.699051 0.005477
-3.453310 44.699051 0.005482
-3.137960 44.699051 0.005351
-2.822610 44.699051 0.005337
-2.507260 44.699051 0.005330
-2.191910 44.699051 0.005329
-1.876560 44.699051 0.005382
-1.561210 44.699051 0.005439
-1.245860 44.699051 0.005552
-0.930510 44.699051 0.005753
-0.615160 44.699051 0.005777
-0.299810 44.699051 0.005866
0.015540 44.699051 0.005966
0.330890 44.699051 0.006084
0.646240 44.699051 0.006351
0.961589 44.699051 0.006646
1.276940 44.699051 0.006876
1.592289 44.699051 0.007278
1.907640 44.699051 0.007823
2.222990 44.699051 0.008497
2.538340 44.699051 0.009070
2.853690 44.699051 0.009862
3.169039 44.699051 0.010453
3.484390 44.699051 0.011320
3.799739 44.699051 0.012338
4.115090 44.699051 0.013618
4.430439 44.699051 0.015131
4.745790 44.699051 0.017021
5.061140 44.699051 0.019444
5.376490 44.699051 0.022068
5.691840 44.699051 0.025597
6.007189 44.699051 0.029978
6.322540 44.699051 0.036528
6.637889 44.699051 0.045438
6.953240 44.699051 0.057196
7.268589 44.699051 0.071242
7.583940 44.699051 0.091415
7.899290 44.699051 0.118777
8.214640 44.699051 0.154590
8.529989 44.699051 0.198063
8.845339 44.699051 0.256087
9.160688 44.699051 0.316121
9.476040 44.699051 0.392234
9.791389 44.699051 0.477716
10.106739 44.699051 0.570942
10.422089 44.699051 0.660328
10.737438 44.699051 0.753273
11.052790 44.699051 0.852823
11.368139 44.699051 0.946224
11.683489 44.699051 1.048121
11.998838 44.699051 1.132981
12.314190 44.699051 1.218823
12.629539 44.699051 1.296592
12.944889 44.699051 1.336542
13.260239 44.699051 1.365311
13.575588 44.699051 1.370615
13.890940 44.699051 1.351662
14.206289 44.699051 1.312684
14.521639 44.699051 1.255529
14.836988 44.699051 1.161166
15.152340 44.699051 1.059170
15.467690 44.699051 0.981999
15.783039 44.699051 0.854545
16.098389 44.699051 0.620000
16.413738 44.699051 0.000000
16.729090 44.699051 0.000000
17.044439 44.699051 0.000000
17.359789 44.699051 0.000000
17.675138 44.699051 0.000000
17.990490 44.699051 0.000000
18.305840 44.699051 0.000000
18.621189 44.699051 10.624819
18.936539 44.699051 0.000000
19.251888 44.699051 0.000000
-7.237510 44.383701 0.000000
-6.922160 44.383701 0.000000
-6.606810 44.383701 0.007455
-6.291460 44.383701 0.005652
-5.976110 44.383701 0.005569
-5.660760 44.383701 0.005514
-5.345410 44.383701 0.005226
-5.030060 44.383701 0.005175
-4.714710 44.383701 0.005116
-4.399360 44.383701 0.005118
-4.084010 44.383701 0.005155
-3.768660 44.383701 0.005189
-3.453310 44.383701 0.005149
-3.137960 44.383701 0.005038
-2.822610 44.383701 0.005102
-2.507260 44.383701 0.005038
-2.191910 44.383701 0.005104
-1.876560 44.383701 0.005151
-1.561210 44.383701 0.005193
-1.245860 44.383701 0.005406
-0.930510 44.383701 0.005533
-0.615160 44.383701 0.005570
-0.299810 44.383701 0.005650
0.015540 44.383701 0.005675
0.330890 44.383701 0.005861
0.646240 44.383701 0.006110
0.961589 44.383701 0.006351
1.276940 44.383701 0.006583
1.592289 44.383701 0.006908
1.907640 44.383701 0.007489
2.222990 44.383701 0.008118
2.538340 44.383701 0.008709
2.853690 44.383701 0.009410
3.169039 44.383701 0.010162
3.484390 44.383701 0.011033
3.799739 44.383701 0.012089
4.115090 44.383701 0.013417
4.430439 44.383701 0.014890
4.745790 44.383701 0.016719
5.061140 44.383701 0.019131
5.376490 44.383701 0.021826
5.691840 44.383701 0.025197
6.007189 44.383701 0.029906
6.322540 44.383701 0.036522
6.637889 44.383701 0.045326
6.953240 44.383701 0.056905
7.268589 44.383701 0.072673
7.583940 44.383701 0.092399
7.899290 44.383701 0.121701
8.214640 44.383701 0.156496
8.529989 44.383701 0.198668
8.845339 44.383701 0.251468
9.160688 44.383701 0.319630
9.476040 44.383701 0.391099
9.791389 44.383701 0.480058
10.106739 44.383701 0.576539
10.422089 44.383701 0.663458
10.737438 44.383701 0.751781
11.052790 44.383701 0.845959
11.368139 44.383701 0.958735
11.683489 44.383701 1.049272
11.998838 44.383701 1.149102
12.314190 44.383701 1.232846
12.629539 44.383701 1.298594
12.944889 44.383701 1.345843
13.260239 44.383701 1.370608
13.575588 44.383701 1.384541
13.890940 44.383701 1.364356
14.206289 44.383701 1.315757
14.521639 44.383701 1.236646
14.836988 44.383701 1.129849
15.152340 44.383701 0.980199
15.467690 44.383701 0.850552
15.783039 44.383701 0.708423
16.098389 44.383701 2.373865
16.413738 44.383701 0.000000
16.729090 44.383701 0.000000
17.044439 44.383701 0.000000
17.359789 44.383701 0.000000
17.675138 44.383701 0.000000
17.990490 44.383701 0.000000
18.305840 44.383701 0.000000
18.621189 44.383701 0.000000
18.936539 44.383701 0.000000
19.251888 44.383701 0.000000
-7.237510 44.068352 0.000000
-6.922160 44.068352 0.000000
-6.606810 44.068352 0.007110
-6.291460 44.068352 0.005333
-5.976110 44.068352 0.005206
-5.660760 44.068352 0.005171
-5.345410 44.068352 0.004987
-5.030060 44.068352 0.004798
-4.714710 44.068352 0.004762
-4.399360 44.068352 0.004735
-4.084010 44.068352 0.004836
-3.768660 44.068352 0.004825
-3.453310 44.068352 0.004797
-3.137960 44.068352 0.004770
-2.822610 44.068352 0.004810
-2.507260 44.068352 0.004803
-2.191910 44.068352 0.004845
-1.876560 44.068352 0.004935
-1.561210 44.068352 0.004977
-1.245860 44.068352 0.005192
-0.930510 44.068352 0.005220
-0.615160 44.068352 0.005321
-0.299810 44.068352 0.005469
0.015540 44.068352 0.005502
0.330890 44.068352 0.005585
0.646240 44.068352 0.005766
0.961589 44.068352 0.005987
1.276940 44.068352 0.006275
1.592289 44.068352 0.006657
1.907640 44.068352 0.007211
2.222990 44.068352 0.007756
2.538340 44.068352 0.008360
2.853690 44.068352 0.009053
3.169039 44.068352 0.009870
3.484390 44.068352 0.010680
3.799739 44.068352 0.011829
4.115090 44.068352 0.013167
4.430439 44.068352 0.014593
4.745790 44.068352 0.016434
5.061140 44.068352 0.018789
5.376490 44.068352 0.021522
5.691840 44.068352 0.024868
6.007189 44.068352 0.029698
6.322540 44.068352 0.036407
6.637889 44.068352 0.045375
6.953240 44.068352 0.056792
7.268589 44.068352 0.072078
7.583940 44.068352 0.092955
7.899290 44.068352 0.119767
8.214640 44.068352 0.155014
8.529989 44.068352 0.197670
8.845339 44.068352 0.250186
9.160688 44.068352 0.315930
9.476040 44.068352 0.394075
9.791389 44.068352 0.482451
10.106739 44.068352 0.580004
10.422089 44.068352 0.662285
10.737438 44.068352 0.762039
11.052790 44.068352 0.858259
11.368139 44.068352 0.969965
11.683489 44.068352 1.069667
11.998838 44.068352 1.162359
12.314190 44.068352 1.248652
12.629539 44.068352 1.300671
12.944889 44.068352 1.350529
13.260239 44.068352 1.381732
13.575588 44.068352 1.398220
13.890940 44.068352 1.368063
14.206289 44.068352 1.303552
14.521639 44.068352 1.221637
14.836988 44.068352 1.083413
15.152340 44.068352 0.907779
15.467690 44.068352 0.751120
15.783039 44.068352 0.589584
16.098389 44.068352 0.000000
16.413738 44.068352 0.000000
16.729090 44.068352 0.000000
17.044439 44.068352 0.000000
17.359789 44.068352 0.000000
17.675138 44.068352 0.000000
17.990490 44.068352 0.000000
18.305840 44.068352 0.000000
18.621189 44.068352 0.000000
18.936539 44.068352 0.000000
19.251888 44.068352 0.000000
-7.237510 43.753002 0.000000
-6.922160 43.753002 0.000000
-6.606810 43.753002 0.006880
-6.291460 43.753002 0.004991
-5.976110 43.753002 0.004893
-5.660760 43.753002 0.004915
-5.345410 43.753002 0.004770
-5.030060 43.753002 0.004557
-4.714710 43.753002 0.004530
-4.399360 43.753002 0.004525
-4.084010 43.753002 0.004549
-3.768660 43.753002 0.004542
-3.453310 43.753002 0.004455
-3.137960 43.753002 0.004507
-2.822610 43.753002 0.004519
-2.507260 43.753002 0.004493
-2.191910 43.753002 0.004637
-1.876560 43.753002 0.004701
-1.561210 43.753002 0.004773
-1.245860 43.753002 0.004920
-0.930510 43.753002 0.004967
-0.615160 43.753002 0.005065
-0.299810 43.753002 0.005194
0.015540 43.753002 0.005301
0.330890 43.753002 0.005348
0.646240 43.753002 0.005481
0.961589 43.753002 0.005749
1.276940 43.753002 0.005949
1.592289 43.753002 0.006489
1.907640 43.753002 0.006966
2.222990 43.753002 0.007424
2.538340 43.753002 0.007969
2.853690 43.753002 0.008728
3.169039 43.753002 0.009642
3.484390 43.753002 0.010369
3.799739 43.753002 0.011452
4.115090 43.753002 0.012791
4.430439 43.753002 0.014360
4.745790 43.753002 0.016196
5.061140 43.753002 0.018387
5.376490 43.753002 0.021141
5.691840 43.753002 0.024686
6.007189 43.753002 0.029515
6.322540 43.753002 0.035832
6.637889 43.753002 0.045013
6.953240 43.753002 0.056446
7.268589 43.753002 0.072195
7.583940 43.753002 0.092166
7.899290 43.753002 0.118942
8.214640 43.753002 0.152973
8.529989 43.753002 0.194388
8.845339 43.753002 0.248628
9.160688 43.753002 0.313721
9.476040 43.753002 0.394064
9.791389 43.753002 0.484308
10.106739 43.753002 0.575113
10.422089 43.753002 0.673014
10.737438 43.753002 0.765829
11.052790 43.753002 0.865249
11.368139 43.753002 0.971924
11.683489 43.753002 1.075280
11.998838 43.753002 1.179835
12.314190 43.753002 1.251092
12.629539 43.753002 1.304045
12.944889 43.753002 1.339814
13.260239 43.753002 1.380388
13.575588 43.753002 1.394081
13.890940 43.753002 1.366485
14.206289 43.753002 1.308045
14.521639 43.753002 1.218103
14.836988 43.753002 1.038945
15.152340 43.753002 0.841701
15.467690 43.753002 0.690415
15.783039 43.753002 0.512860
16.098389 43.753002 0.000000
16.413738 43.753002 0.000000
16.729090 43.753002 0.000000
17.044439 43.753002 0.000000
17.359789 43.753002 0.000000
17.675138 43.753002 0.000000
17.990490 43.753002 0.000000
18.305840 43.753002 0.000000
18.621189 43.753002 0.000000
18.936539 43.753002 0.000000
19.251888 43.753002 0.000000
-7.237510 43.437653 0.000000
-6.922160 43.437653 0.000000
-6.606810 43.437653 0.006570
-6.291460 43.437653 0.004808
-5.976110 43.437653 0.004652
-5.660760 43.437653 0.004702
-5.345410 43.437653 0.004538
-5.030060 43.437653 0.004301
-4.714710 43.437653 0.004292
-4.399360 43.437653 0.004298
-4.084010 43.437653 0.004242
-3.768660 43.437653 0.004256
-3.453310 43.437653 0.004179
-3.137960 43.437653 0.004218
-2.822610 43.437653 0.004217
-2.507260 43.437653 0.004217
-2.191910 43.437653 0.004354
-1.876560 43.437653 0.004436
-1.561210 43.437653 0.004459
-1.245860 43.437653 0.004543
-0.930510 43.437653 0.004694
-0.615160 43.437653 0.004778
-0.299810 43.437653 0.004908
0.015540 43.437653 0.005064
0.330890 43.437653 0.005148
0.646240 43.437653 0.005262
0.961589 43.437653 0.005486
1.276940 43.437653 0.005782
1.592289 43.437653 0.006257
1.907640 43.437653 0.006684
2.222990 43.437653 0.007013
2.538340 43.437653 0.007670
2.853690 43.437653 0.008438
3.169039 43.437653 0.009268
3.484390 43.437653 0.010034
3.799739 43.437653 0.011115
4.115090 43.437653 0.012478
4.430439 43.437653 0.014112
4.745790 43.437653 0.015928
5.061140 43.437653 0.018062
5.376490 43.437653 0.020801
5.691840 43.437653 0.024549
6.007189 43.437653 0.029261
6.322540 43.437653 0.035517
6.637889 43.437653 0.044697
6.953240 43.437653 0.057011
7.268589 43.437653 0.072326
7.583940 43.437653 0.092141
7.899290 43.437653 0.117250
8.214640 43.437653 0.150557
8.529989 43.437653 0.190138
8.845339 43.437653 0.244529
9.160688 43.437653 0.314319
9.476040 43.437653 0.402042
9.791389 43.437653 0.483266
10.106739 43.437653 0.578838
10.422089 43.437653 0.684292
10.737438 43.437653 0.781063
11.052790 43.437653 0.874358
11.368139 43.437653 0.972033
11.683489 43.437653 1.074794
11.998838 43.437653 1.174716
12.314190 43.437653 1.258851
12.629539 43.437653 1.300999
12.944889 43.437653 1.336790
13.260239 43.437653 1.377019
13.575588 43.437653 1.400660
13.890940 43.437653 1.369623
14.206289 43.437653 1.300691
14.521639 43.437653 1.204351
14.836988 43.437653 1.022028
15.152340 43.437653 0.806728
15.467690 43.437653 0.640120
15.783039 43.437653 0.468888
16.098389 43.437653 0.000000
16.413738 43.437653 0.000000
16.729090 43.437653 0.000000
17.044439 43.437653 0.000000
17.359789 43.437653 0.000000
17.675138 43.437653 0.000000
17.990490 43.437653 0.000000
18.305840 43.437653 0.000000
18.621189 43.437653 0.000000
18.936539 43.437653 0.000000
19.251888 43.437653 0.000000
-7.237510 43.122299 0.000000
-6.922160 43.122299 0.000000
-6.606810 43.122299 0.006162
-6.291460 43.122299 0.004683
-5.976110 43.122299 0.004469
-5.660760 43.122299 0.004397
-5.345410 43.122299 0.004275
-5.030060 43.122299 0.004121
-4.714710 43.122299 0.004133
-4.399360 43.122299 0.004087
-4.084010 43.122299 0.004008
-3.768660 43.122299 0.004010
-3.453310 43.122299 0.003929
-3.137960 43.122299 0.003969
-2.822610 43.122299 0.003972
-2.507260 43.122299 0.004018
-2.191910 43.122299 0.004154
-1.876560 43.122299 0.004202
-1.561210 43.122299 0.004198
-1.245860 43.122299 0.004167
-0.930510 43.122299 0.004414
-0.615160 43.122299 0.004513
-0.299810 43.122299 0.004621
0.015540 43.122299 0.004791
0.330890 43.122299 0.004896
0.646240 43.122299 0.005019
0.961589 43.122299 0.005246
1.276940 43.122299 0.005571
1.592289 43.122299 0.006046
1.907640 43.122299 0.006457
2.222990 43.122299 0.006758
2.538340 43.122299 0.007390
2.853690 43.122299 0.008202
3.169039 43.122299 0.008910
3.484390 43.122299 0.009760
3.799739 43.122299 0.010856
4.115090 43.122299 0.012208
4.430439 43.122299 0.013842
4.745790 43.122299 0.015648
5.061140 43.122299 0.017816
5.376490 43.122299 0.020575
5.691840 43.122299 0.024288
6.007189 43.122299 0.029148
6.322540 43.122299 0.035756
6.637889 43.122299 0.044542
6.953240 43.122299 0.056598
7.268589 43.122299 0.072255
7.583940 43.122299 0.092795
7.899290 43.122299 0.118261
8.214640 43.122299 0.150938
8.529989 43.122299 0.193041
8.845339 43.122299 0.246655
9.160688 43.122299 0.313932
9.476040 43.122299 0.400727
9.791389 43.122299 0.487663
10.106739 43.122299 0.582750
10.422089 43.122299 0.688344
10.737438 43.122299 0.779277
11.052790 43.122299 0.868527
11.368139 43.122299 0.962069
11.683489 43.122299 1.064465
11.998838 43.122299 1.157520
12.314190 43.122299 1.236891
12.629539 43.122299 1.293420
12.944889 43.122299 1.326717
13.260239 43.122299 1.381850
13.575588 43.122299 1.391410
13.890940 43.122299 1.376269
14.206289 43.122299 1.313686
14.521639 43.122299 1.188678
14.836988 43.122299 1.013007
15.152340 43.122299 0.802277
15.467690 43.122299 0.623266
15.783039 43.122299 0.457300
16.098389 43.122299 0.000000
16.413738 43.122299 0.000000
16.729090 43.122299 0.000000
17.044439 43.122299 0.000000
17.359789 43.122299 0.000000
17.675138 43.122299 0.000000
17.990490 43.122299 0.000000
18.305840 43.122299 0.000000
18.621189 43.122299 0.000000
18.936539 43.122299 0.000000
19.251888 43.122299 0.000000
-7.237510 42.806950 0.000000
-6.922160 42.806950 0.000000
-6.606810 42.806950 0.005850
-6.291460 42.806950 0.004486
-5.976110 42.806950 0.004258
-5.660760 42.806950 0.004117
-5.345410 42.806950 0.003995
-5.030060 42.806950 0.003924
-4.714710 42.806950 0.003909
-4.399360 42.806950 0.003874
-4.084010 42.806950 0.003801
-3.768660 42.806950 0.003835
-3.453310 42.806950 0.003782
-3.137960 42.806950 0.003780
-2.822610 42.806950 0.003786
-2.507260 42.806950 0.003873
-2.191910 42.806950 0.003939
-1.876560 42.806950 0.003973
-1.561210 42.806950 0.003995
-1.245860 42.806950 0.003964
-0.930510 42.806950 0.004087
-0.615160 42.806950 0.004255
-0.299810 42.806950 0.004453
0.015540 42.806950 0.004521
0.330890 42.806950 0.004716
0.646240 42.806950 0.004833
0.961589 42.806950 0.004994
1.276940 42.806950 0.005402
1.592289 42.806950 0.005796
1.907640 42.806950 0.006174
2.222990 42.806950 0.006551
2.538340 42.806950 0.007135
2.853690 42.806950 0.007886
3.169039 42.806950 0.008573
3.484390 42.806950 0.009465
3.799739 42.806950 0.010566
4.115090 42.806950 0.012012
4.430439 42.806950 0.013561
4.745790 42.806950 0.015342
5.061140 42.806950 0.017521
5.376490 42.806950 0.020293
5.691840 42.806950 0.024220
6.007189 42.806950 0.029142
6.322540 42.806950 0.035767
6.637889 42.806950 0.044629
6.953240 42.806950 0.056186
7.268589 42.806950 0.072071
7.583940 42.806950 0.092071
7.899290 42.806950 0.119482
8.214640 42.806950 0.152908
8.529989 42.806950 0.195021
8.845339 42.806950 0.249890
9.160688 42.806950 0.319199
9.476040 42.806950 0.406190
9.791389 42.806950 0.488563
10.106739 42.806950 0.589026
10.422089 42.806950 0.678383
10.737438 42.806950 0.769944
11.052790 42.806950 0.864447
11.368139 42.806950 0.965831
11.683489 42.806950 1.057513
11.998838 42.806950 1.164341
12.314190 42.806950 1.237988
12.629539 42.806950 1.299374
12.944889 42.806950 1.330780
13.260239 42.806950 1.372997
13.575588 42.806950 1.400821
13.890940 42.806950 1.398279
14.206289 42.806950 1.318441
14.521639 42.806950 1.203158
14.836988 42.806950 1.019914
15.152340 42.806950 0.815297
15.467690 42.806950 0.640949
15.783039 42.806950 0.468512
16.098389 42.806950 0.000000
16.413738 42.806950 0.000000
16.729090 42.806950 0.000000
17.044439 42.806950 0.000000
17.359789 42.806950 0.000000
17.675138 42.806950 0.000000
17.990490 42.806950 0.000000
18.305840 42.806950 0.000000
18.621189 42.806950 0.000000
18.936539 42.806950 0.000000
19.251888 42.806950 0.000000
-7.237510 42.491600 0.000000
-6.922160 42.491600 0.000000
-6.606810 42.491600 0.005601
-6.291460 42.491600 0.004236
-5.976110 42.491600 0.003995
-5.660760 42.491600 0.003878
-5.345410 42.491600 0.003815
-5.030060 42.491600 0.003764
-4.714710 42.491600 0.003716
-4.399360 42.491600 0.003665
-4.084010 42.491600 0.003641
-3.768660 42.491600 0.003629
-3.453310 42.491600 0.003647
-3.137960 42.491600 0.003617
-2.822610 42.491600 0.003632
-2.507260 42.491600 0.003676
-2.191910 42.491600 0.003736
-1.876560 42.491600 0.003832
-1.561210 42.491600 0.003820
-1.245860 42.491600 0.003755
-0.930510 42.491600 0.003848
-0.615160 42.491600 0.004084
-0.299810 42.491600 0.004219
0.015540 42.491600 0.004285
0.330890 42.491600 0.004473
0.646240 42.491600 0.004612
0.961589 42.491600 0.004769
1.276940 42.491600 0.005183
1.592289 42.491600 0.005568
1.907640 42.491600 0.005927
2.222990 42.491600 0.006341
2.538340 42.491600 0.006904
2.853690 42.491600 0.007530
3.169039 42.491600 0.008203
3.484390 42.491600 0.009221
3.799739 42.491600 0.010371
4.115090 42.491600 0.011744
4.430439 42.491600 0.013406
4.745790 42.491600 0.015086
5.061140 42.491600 0.017248
5.376490 42.491600 0.019983
5.691840 42.491600 0.023777
6.007189 42.491600 0.028902
6.322540 42.491600 0.035815
6.637889 42.491600 0.044438
6.953240 42.491600 0.056197
7.268589 42.491600 0.072161
7.583940 42.491600 0.092860
7.899290 42.491600 0.121379
8.214640 42.491600 0.156891
8.529989 42.491600 0.196812
8.845339 42.491600 0.251579
9.160688 42.491600 0.321736
9.476040 42.491600 0.402018
9.791389 42.491600 0.492731
10.106739 42.491600 0.580390
10.422089 42.491600 0.671196
10.737438 42.491600 0.766072
11.052790 42.491600 0.867999
11.368139 42.491600 0.966850
11.683489 42.491600 1.071633
11.998838 42.491600 1.166805
12.314190 42.491600 1.245548
12.629539 42.491600 1.293923
12.944889 42.491600 1.349505
13.260239 42.491600 1.380808
13.575588 42.491600 1.409576
13.890940 42.491600 1.401241
14.206289 42.491600 1.316810
14.521639 42.491600 1.203847
14.836988 42.491600 1.049264
15.152340 42.491600 0.862639
15.467690 42.491600 0.679383
15.783039 42.491600 0.485765
16.098389 42.491600 0.000000
16.413738 42.491600 0.000000
16.729090 42.491600 0.000000
17.044439 42.491600 0.000000
17.359789 42.491600 0.000000
17.675138 42.491600 0.000000
17.990490 42.491600 0.000000
18.305840 42.491600 0.000000
18.621189 42.491600 0.000000
18.936539 42.491600 0.000000
19.251888 42.491600 0.000000
-7.237510 42.176250 0.000000
-6.922160 42.176250 0.000000
-6.606810 42.176250 0.005347
-6.291460 42.176250 0.004004
-5.976110 42.176250 0.003779
-5.660760 42.176250 0.003649
-5.345410 42.176250 0.003638
-5.030060 42.176250 0.003631
-4.714710 42.176250 0.003537
-4.399360 42.176250 0.003519
-4.084010 42.176250 0.003453
-3.768660 42.176250 0.003413
-3.453310 42.176250 0.003485
-3.137960 42.176250 0.003482
-2.822610 42.176250 0.003506
-2.507260 42.176250 0.003504
-2.191910 42.176250 0.003611
-1.876560 42.176250 0.003644
-1.561210 42.176250 0.003678
-1.245860 42.176250 0.003582
-0.930510 42.176250 0.003691
-0.615160 42.176250 0.003849
-0.299810 42.176250 0.003890
0.015540 42.176250 0.004021
0.330890 42.176250 0.004256
0.646240 42.176250 0.004429
0.961589 42.176250 0.004633
1.276940 42.176250 0.004937
1.592289 42.176250 0.005279
1.907640 42.176250 0.005647
2.222990 42.176250 0.006047
2.538340 42.176250 0.006614
2.853690 42.176250 0.007222
3.169039 42.176250 0.007920
3.484390 42.176250 0.008930
3.799739 42.176250 0.010058
4.115090 42.176250 0.011492
4.430439 42.176250 0.013172
4.745790 42.176250 0.015022
5.061140 42.176250 0.017047
5.376490 42.176250 0.019804
5.691840 42.176250 0.023563
6.007189 42.176250 0.028742
6.322540 42.176250 0.035250
6.637889 42.176250 0.044354
6.953240 42.176250 0.056442
7.268589 42.176250 0.072620
7.583940 42.176250 0.093788
7.899290 42.176250 0.119885
8.214640 42.176250 0.155315
8.529989 42.176250 0.197718
8.845339 42.176250 0.250641
9.160688 42.176250 0.321361
9.476040 42.176250 0.399767
9.791389 42.176250 0.491215
10.106739 42.176250 0.585359
10.422089 42.176250 0.672315
10.737438 42.176250 0.775676
11.052790 42.176250 0.866366
11.368139 42.176250 0.972873
11.683489 42.176250 1.079924
11.998838 42.176250 1.163157
12.314190 42.176250 1.243834
12.629539 42.176250 1.309442
12.944889 42.176250 1.344118
13.260239 42.176250 1.383525
13.575588 42.176250 1.390747
13.890940 42.176250 1.386745
14.206289 42.176250 1.328785
14.521639 42.176250 1.228800
14.836988 42.176250 1.085144
15.152340 42.176250 0.908623
15.467690 42.176250 0.718852
15.783039 42.176250 0.508967
16.098389 42.176250 0.000000
16.413738 42.176250 0.000000
16.729090 42.176250 0.000000
17.044439 42.176250 0.000000
17.359789 42.176250 0.000000
17.675138 42.176250 0.000000
17.990490 42.176250 0.000000
18.305840 42.176250 0.000000
18.621189 42.176250 0.000000
18.936539 42.176250 0.000000
19.251888 42.176250 0.000000
-7.237510 41.860901 0.000000
-6.922160 41.860901 0.000000
-6.606810 41.860901 0.005122
-6.291460 41.860901 0.003783
-5.976110 41.860901 0.003566
-5.660760 41.860901 0.003476
-5.345410 41.860901 0.003496
-5.030060 41.860901 0.003460
-4.714710 41.860901 0.003395
-4.399360 41.860901 0.003340
-4.084010 41.860901 0.003300
-3.768660 41.860901 0.003275
-3.453310 41.860901 0.003337
-3.137960 41.860901 0.003346
-2.822610 41.860901 0.003394
-2.507260 41.860901 0.003416
-2.191910 41.860901 0.003458
-1.876560 41.860901 0.003470
-1.561210 41.860901 0.003453
-1.245860 41.860901 0.003460
-0.930510 41.860901 0.003609
-0.615160 41.860901 0.003717
-0.299810 41.860901 0.003683
0.015540 41.860901 0.003780
0.330890 41.860901 0.004039
0.646240 41.860901 0.004265
0.961589 41.860901 0.004448
1.276940 41.860901 0.004693
1.592289 41.860901 0.005000
1.907640 41.860901 0.005347
2.222990 41.860901 0.005825
2.538340 41.860901 0.006299
2.853690 41.860901 0.006811
3.169039 41.860901 0.007558
3.484390 41.860901 0.008584
3.799739 41.860901 0.009808
4.115090 41.860901 0.011191
4.430439 41.860901 0.012846
4.745790 41.860901 0.014788
5.061140 41.860901 0.016965
5.376490 41.860901 0.019717
5.691840 41.860901 0.023343
6.007189 41.860901 0.028219
6.322540 41.860901 0.035283
6.637889 41.860901 0.044452
6.953240 41.860901 0.056263
7.268589 41.860901 0.072656
7.583940 41.860901 0.093429
7.899290 41.860901 0.120472
8.214640 41.860901 0.153121
8.529989 41.860901 0.196458
8.845339 41.860901 0.249661
9.160688 41.860901 0.315968
9.476040 41.860901 0.397431
9.791389 41.860901 0.488834
10.106739 41.860901 0.579823
10.422089 41.860901 0.682195
10.737438 41.860901 0.788771
11.052790 41.860901 0.882083
11.368139 41.860901 0.978108
11.683489 41.860901 1.087918
11.998838 41.860901 1.167417
12.314190 41.860901 1.246840
12.629539 41.860901 1.302819
12.944889 41.860901 1.352646
13.260239 41.860901 1.379629
13.575588 41.860901 1.393582
13.890940 41.860901 1.380755
14.206289 41.860901 1.332891
14.521639 41.860901 1.247918
14.836988 41.860901 1.098421
15.152340 41.860901 0.916080
15.467690 41.860901 0.738688
15.783039 41.860901 0.536198
16.098389 41.860901 0.000000
16.413738 41.860901 0.000000
16.729090 41.860901 0.000000
17.044439 41.860901 0.000000
17.359789 41.860901 0.000000
17.675138 41.860901 0.000000
17.990490 41.860901 0.000000
18.305840 41.860901 0.000000
18.621189 41.860901 0.000000
18.936539 41.860901 0.000000
19.251888 41.860901 0.000000
-7.237510 41.545551 0.000000
-6.922160 41.545551 0.000000
-6.606810 41.545551 0.004959
-6.291460 41.545551 0.003552
-5.976110 41.545551 0.003408
-5.660760 41.545551 0.003379
-5.345410 41.545551 0.003361
-5.030060 41.545551 0.003322
-4.714710 41.545551 0.003250
-4.399360 41.545551 0.003202
-4.084010 41.545551 0.003170
-3.768660 41.545551 0.003184
-3.453310 41.545551 0.003197
-3.137960 41.545551 0.003218
-2.822610 41.545551 0.003284
-2.507260 41.545551 0.003305
-2.191910 41.545551 0.003313
-1.876560 41.545551 0.003307
-1.561210 41.545551 0.003284
-1.245860 41.545551 0.003359
-0.930510 41.545551 0.003497
-0.615160 41.545551 0.003587
-0.299810 41.545551 0.003544
0.015540 41.545551 0.003623
0.330890 41.545551 0.003869
0.646240 41.545551 0.004120
0.961589 41.545551 0.004316
1.276940 41.545551 0.004512
1.592289 41.545551 0.004737
1.907640 41.545551 0.005048
2.222990 41.545551 0.005568
2.538340 41.545551 0.006062
2.853690 41.545551 0.006564
3.169039 41.545551 0.007351
3.484390 41.545551 0.008286
3.799739 41.545551 0.009579
4.115090 41.545551 0.010847
4.430439 41.545551 0.012455
4.745790 41.545551 0.014438
5.061140 41.545551 0.016911
5.376490 41.545551 0.019675
5.691840 41.545551 0.023177
6.007189 41.545551 0.028147
6.322540 41.545551 0.035148
6.637889 41.545551 0.044648
6.953240 41.545551 0.057043
7.268589 41.545551 0.073199
7.583940 41.545551 0.094639
7.899290 41.545551 0.120359
8.214640 41.545551 0.152497
8.529989 41.545551 0.194329
8.845339 41.545551 0.248078
9.160688 41.545551 0.316312
9.476040 41.545551 0.400193
9.791389 41.545551 0.478761
10.106739 41.545551 0.585730
10.422089 41.545551 0.685297
10.737438 41.545551 0.792491
11.052790 41.545551 0.891558
11.368139 41.545551 0.984227
11.683489 41.545551 1.081361
11.998838 41.545551 1.168087
12.314190 41.545551 1.244331
12.629539 41.545551 1.320369
12.944889 41.545551 1.355744
13.260239 41.545551 1.391167
13.575588 41.545551 1.390843
13.890940 41.545551 1.384641
14.206289 41.545551 1.332114
14.521639 41.545551 1.263808
14.836988 41.545551 1.124801
15.152340 41.545551 0.943610
15.467690 41.545551 0.753004
15.783039 41.545551 0.547934
16.098389 41.545551 0.000000
16.413738 41.545551 0.000000
16.729090 41.545551 0.000000
17.044439 41.545551 0.000000
17.359789 41.545551 0.000000
17.675138 41.545551 0.000000
17.990490 41.545551 0.000000
18.305840 41.545551 0.000000
18.621189 41.545551 0.000000
18.936539 41.545551 0.000000
19.251888 41.545551 0.000000
-7.237510 41.230202 0.000000
-6.922160 41.230202 0.000000
-6.606810 41.230202 0.004752
-6.291460 41.230202 0.003357
-5.976110 41.230202 0.003272
-5.660760 41.230202 0.003263
-5.345410 41.230202 0.003225
-5.030060 41.230202 0.003222
-4.714710 41.230202 0.003121
-4.399360 41.230202 0.003094
-4.084010 41.230202 0.003074
-3.768660 41.230202 0.003098
-3.453310 41.230202 0.003048
-3.137960 41.230202 0.003094
-2.822610 41.230202 0.003179
-2.507260 41.230202 0.003149
-2.191910 41.230202 0.003145
-1.876560 41.230202 0.003150
-1.561210 41.230202 0.003155
-1.245860 41.230202 0.003274
-0.930510 41.230202 0.003389
-0.615160 41.230202 0.003445
-0.299810 41.230202 0.003430
0.015540 41.230202 0.003546
0.330890 41.230202 0.003745
0.646240 41.230202 0.003948
0.961589 41.230202 0.004195
1.276940 41.230202 0.004376
1.592289 41.230202 0.004594
1.907640 41.230202 0.004900
2.222990 41.230202 0.005423
2.538340 41.230202 0.005812
2.853690 41.230202 0.006367
3.169039 41.230202 0.007088
3.484390 41.230202 0.008027
3.799739 41.230202 0.009308
4.115090 41.230202 0.010450
4.430439 41.230202 0.012060
4.745790 41.230202 0.014152
5.061140 41.230202 0.016785
5.376490 41.230202 0.019807
5.691840 41.230202 0.023184
6.007189 41.230202 0.027996
6.322540 41.230202 0.034865
6.637889 41.230202 0.044432
6.953240 41.230202 0.056948
7.268589 41.230202 0.073074
7.583940 41.230202 0.093407
7.899290 41.230202 0.119984
8.214640 41.230202 0.151945
8.529989 41.230202 0.196327
8.845339 41.230202 0.250940
9.160688 41.230202 0.320605
9.476040 41.230202 0.400834
9.791389 41.230202 0.488327
10.106739 41.230202 0.580504
10.422089 41.230202 0.681980
10.737438 41.230202 0.787261
11.052790 41.230202 0.878276
11.368139 41.230202 0.979131
11.683489 41.230202 1.083412
11.998838 41.230202 1.176462
12.314190 41.230202 1.247573
12.629539 41.230202 1.309037
12.944889 41.230202 1.358262
13.260239 41.230202 1.392866
13.575588 41.230202 1.413180
13.890940 41.230202 1.380565
14.206289 41.230202 1.334247
14.521639 41.230202 1.260702
14.836988 41.230202 1.143245
15.152340 41.230202 0.948385
15.467690 41.230202 0.758035
15.783039 41.230202 0.562006
16.098389 41.230202 0.000000
16.413738 41.230202 0.000000
16.729090 41.230202 0.000000
17.044439 41.230202 0.000000
17.359789 41.230202 0.000000
17.675138 41.230202 0.000000
17.990490 41.230202 0.000000
18.305840 41.230202 0.000000
18.621189 41.230202 0.000000
18.936539 41.230202 0.000000
19.251888 41.230202 0.000000
-7.237510 40.914848 0.000000
-6.922160 40.914848 0.000000
-6.606810 40.914848 0.004501
-6.291460 40.914848 0.003211
-5.976110 40.914848 0.003161
-5.660760 40.914848 0.003107
-5.345410 40.914848 0.003073
-5.030060 40.914848 0.003083
-4.714710 40.914848 0.003012
-4.399360 40.914848 0.002964
-4.084010 40.914848 0.002954
-3.768660 40.914848 0.002977
-3.453310 40.914848 0.002948
-3.137960 40.914848 0.003002
-2.822610 40.914848 0.003080
-2.507260 40.914848 0.003030
-2.191910 40.914848 0.002992
-1.876560 40.914848 0.003033
-1.561210 40.914848 0.003040
-1.245860 40.914848 0.003193
-0.930510 40.914848 0.003298
-0.615160 40.914848 0.003370
-0.299810 40.914848 0.003367
0.015540 40.914848 0.003425
0.330890 40.914848 0.003566
0.646240 40.914848 0.003808
0.961589 40.914848 0.004107
1.276940 40.914848 0.004202
1.592289 40.914848 0.004508
1.907640 40.914848 0.004780
2.222990 40.914848 0.005299
2.538340 40.914848 0.005674
2.853690 40.914848 0.006210
3.169039 40.914848 0.006944
3.484390 40.914848 0.007869
3.799739 40.914848 0.008943
4.115090 40.914848 0.010130
4.430439 40.914848 0.011786
4.745790 40.914848 0.013931
5.061140 40.914848 0.016543
5.376490 40.914848 0.019775
5.691840 40.914848 0.023204
6.007189 40.914848 0.028069
6.322540 40.914848 0.034968
6.637889 40.914848 0.044181
6.953240 40.914848 0.056587
7.268589 40.914848 0.072052
7.583940 40.914848 0.092496
7.899290 40.914848 0.118386
8.214640 40.914848 0.154059
8.529989 40.914848 0.195907
8.845339 40.914848 0.251392
9.160688 40.914848 0.325207
9.476040 40.914848 0.402865
9.791389 40.914848 0.490199
10.106739 40.914848 0.581777
10.422089 40.914848 0.679794
10.737438 40.914848 0.776446
11.052790 40.914848 0.871169
11.368139 40.914848 0.984406
11.683489 40.914848 1.088637
11.998838 40.914848 1.173534
12.314190 40.914848 1.257482
12.629539 40.914848 1.304841
12.944889 40.914848 1.358617
13.260239 40.914848 1.417540
13.575588 40.914848 1.425935
13.890940 40.914848 1.392070
14.206289 40.914848 1.349324
14.521639 40.914848 1.261836
14.836988 40.914848 1.134805
15.152340 40.914848 0.957049
15.467690 40.914848 0.773539
15.783039 40.914848 0.570449
16.098389 40.914848 0.000000
16.413738 40.914848 0.000000
16.729090 40.914848 0.000000
17.044439 40.914848 0.000000
17.359789 40.914848 0.000000
17.675138 40.914848 0.000000
17.990490 40.914848 0.000000
18.305840 40.914848 0.000000
18.621189 40.914848 0.000000
18.936539 40.914848 0.000000
19.251888 40.914848 0.000000
-7.237510 40.599503 0.000000
-6.922160 40.599503 0.000000
-6.606810 40.599503 0.004256
-6.291460 40.599503 0.003105
-5.976110 40.599503 0.003036
-5.660760 40.599503 0.002965
-5.345410 40.599503 0.002937
-5.030060 40.599503 0.002986
-4.714710 40.599503 0.002947
-4.399360 40.599503 0.002834
-4.084010 40.599503 0.002811
-3.768660 40.599503 0.002871
-3.453310 40.599503 0.002882
-3.137960 40.599503 0.002934
-2.822610 40.599503 0.002978
-2.507260 40.599503 0.002910
-2.191910 40.599503 0.002898
-1.876560 40.599503 0.002962
-1.561210 40.599503 0.002976
-1.245860 40.599503 0.003090
-0.930510 40.599503 0.003184
-0.615160 40.599503 0.003285
-0.299810 40.599503 0.003302
0.015540 40.599503 0.003346
0.330890 40.599503 0.003460
0.646240 40.599503 0.003696
0.961589 40.599503 0.003920
1.276940 40.599503 0.004057
1.592289 40.599503 0.004422
1.907640 40.599503 0.004711
2.222990 40.599503 0.005077
2.538340 40.599503 0.005498
2.853690 40.599503 0.006013
3.169039 40.599503 0.006740
3.484390 40.599503 0.007622
3.799739 40.599503 0.008674
4.115090 40.599503 0.009809
4.430439 40.599503 0.011513
4.745790 40.599503 0.013694
5.061140 40.599503 0.016202
5.376490 40.599503 0.019391
5.691840 40.599503 0.023093
6.007189 40.599503 0.028042
6.322540 40.599503 0.034861
6.637889 40.599503 0.044030
6.953240 40.599503 0.056535
7.268589 40.599503 0.072627
7.583940 40.599503 0.092822
7.899290 40.599503 0.119986
8.214640 40.599503 0.153087
8.529989 40.599503 0.196199
8.845339 40.599503 0.251047
9.160688 40.599503 0.321123
9.476040 40.599503 0.398182
9.791389 40.599503 0.492028
10.106739 40.599503 0.582219
10.422089 40.599503 0.688154
10.737438 40.599503 0.780545
11.052790 40.599503 0.882102
11.368139 40.599503 0.981688
11.683489 40.599503 1.085958
11.998838 40.599503 1.171173
12.314190 40.599503 1.247315
12.629539 40.599503 1.308206
12.944889 40.599503 1.357049
13.260239 40.599503 1.412416
13.575588 40.599503 1.439530
13.890940 40.599503 1.413051
14.206289 40.599503 1.362490
14.521639 40.599503 1.271640
14.836988 40.599503 1.136364
15.152340 40.599503 0.967132
15.467690 40.599503 0.786765
15.783039 40.599503 0.585506
16.098389 40.599503 0.000000
16.413738 40.599503 0.000000
16.729090 40.599503 0.000000
17.044439 40.599503 0.000000
17.359789 40.599503 0.000000
17.675138 40.599503 0.000000
17.990490 40.599503 0.000000
18.305840 40.599503 0.000000
18.621189 40.599503 0.000000
18.936539 40.599503 0.000000
19.251888 40.599503 0.000000
-7.237510 40.284149 0.000000
-6.922160 40.284149 0.000000
-6.606810 40.284149 0.004077
-6.291460 40.284149 0.003046
-5.976110 40.284149 0.002932
-5.660760 40.284149 0.002855
-5.345410 40.284149 0.002847
-5.030060 40.284149 0.002918
-4.714710 40.284149 0.002879
-4.399360 40.284149 0.002743
-4.084010 40.284149 0.002707
-3.768660 40.284149 0.002770
-3.453310 40.284149 0.002818
-3.137960 40.284149 0.002844
-2.822610 40.284149 0.002834
-2.507260 40.284149 0.002803
-2.191910 40.284149 0.002843
-1.876560 40.284149 0.002898
-1.561210 40.284149 0.002962
-1.245860 40.284149 0.002992
-0.930510 40.284149 0.003072
-0.615160 40.284149 0.003147
-0.299810 40.284149 0.003217
0.015540 40.284149 0.003254
0.330890 40.284149 0.003363
0.646240 40.284149 0.003579
0.961589 40.284149 0.003763
1.276940 40.284149 0.003967
1.592289 40.284149 0.004323
1.907640 40.284149 0.004601
2.222990 40.284149 0.004918
2.538340 40.284149 0.005376
2.853690 40.284149 0.005935
3.169039 40.284149 0.006432
3.484390 40.284149 0.007318
3.799739 40.284149 0.008316
4.115090 40.284149 0.009559
4.430439 40.284149 0.011231
4.745790 40.284149 0.013470
5.061140 40.284149 0.015933
5.376490 40.284149 0.019053
5.691840 40.284149 0.022946
6.007189 40.284149 0.027896
6.322540 40.284149 0.034697
6.637889 40.284149 0.043547
6.953240 40.284149 0.056305
7.268589 40.284149 0.072348
7.583940 40.284149 0.093546
7.899290 40.284149 0.119209
8.214640 40.284149 0.153404
8.529989 40.284149 0.196754
8.845339 40.284149 0.253870
9.160688 40.284149 0.322107
9.476040 40.284149 0.404485
9.791389 40.284149 0.492261
10.106739 40.284149 0.593361
10.422089 40.284149 0.695466
10.737438 40.284149 0.791459
11.052790 40.284149 0.891309
11.368139 40.284149 0.998204
11.683489 40.284149 1.085150
11.998838 40.284149 1.167902
12.314190 40.284149 1.239994
12.629539 40.284149 1.319763
12.944889 40.284149 1.373593
13.260239 40.284149 1.431285
13.575588 40.284149 1.433693
13.890940 40.284149 1.422442
14.206289 40.284149 1.358468
14.521639 40.284149 1.287087
14.836988 40.284149 1.135081
15.152340 40.284149 0.972142
15.467690 40.284149 0.785773
15.783039 40.284149 0.586325
16.098389 40.284149 0.000000
16.413738 40.284149 0.000000
16.729090 40.284149 0.000000
17.044439 40.284149 0.000000
17.359789 40.284149 0.000000
17.675138 40.284149 0.000000
17.990490 40.284149 0.000000
18.305840 40.284149 0.000000
18.621189 40.284149 0.000000
18.936539 40.284149 0.000000
19.251888 40.284149 0.000000
-7.237510 39.968800 0.000000
-6.922160 39.968800 0.000000
-6.606810 39.968800 0.004017
-6.291460 39.968800 0.002956
-5.976110 39.968800 0.002850
-5.660760 39.968800 0.002780
-5.345410 39.968800 0.002791
-5.030060 39.968800 0.002838
-4.714710 39.968800 0.002791
-4.399360 39.968800 0.002663
-4.084010 39.968800 0.002613
-3.768660 39.968800 0.002677
-3.453310 39.968800 0.002719
-3.137960 39.968800 0.002771
-2.822610 39.968800 0.002755
-2.507260 39.968800 0.002736
-2.191910 39.968800 0.002754
-1.876560 39.968800 0.002831
-1.561210 39.968800 0.002885
-1.245860 39.968800 0.002943
-0.930510 39.968800 0.002974
-0.615160 39.968800 0.003003
-0.299810 39.968800 0.003116
0.015540 39.968800 0.003182
0.330890 39.968800 0.003341
0.646240 39.968800 0.003494
0.961589 39.968800 0.003664
1.276940 39.968800 0.003864
1.592289 39.968800 0.004206
1.907640 39.968800 0.004516
2.222990 39.968800 0.004721
2.538340 39.968800 0.005244
2.853690 39.968800 0.005776
3.169039 39.968800 0.006274
3.484390 39.968800 0.007169
3.799739 39.968800 0.008211
4.115090 39.968800 0.009284
4.430439 39.968800 0.011091
4.745790 39.968800 0.013184
5.061140 39.968800 0.015737
5.376490 39.968800 0.018843
5.691840 39.968800 0.022655
6.007189 39.968800 0.027680
6.322540 39.968800 0.034462
6.637889 39.968800 0.043778
6.953240 39.968800 0.056373
7.268589 39.968800 0.071795
7.583940 39.968800 0.094015
7.899290 39.968800 0.118886
8.214640 39.968800 0.149910
8.529989 39.968800 0.194669
8.845339 39.968800 0.250860
9.160688 39.968800 0.320822
9.476040 39.968800 0.406613
9.791389 39.968800 0.491708
10.106739 39.968800 0.597484
10.422089 39.968800 0.698434
10.737438 39.968800 0.803649
11.052790 39.968800 0.900140
11.368139 39.968800 1.001577
11.683489 39.968800 1.098661
11.998838 39.968800 1.168068
12.314190 39.968800 1.250620
12.629539 39.968800 1.326040
12.944889 39.968800 1.369397
13.260239 39.968800 1.419012
13.575588 39.968800 1.447078
13.890940 39.968800 1.420154
14.206289 39.968800 1.379658
14.521639 39.968800 1.290127
14.836988 39.968800 1.143025
15.152340 39.968800 0.983314
15.467690 39.968800 0.793595
15.783039 39.968800 0.605773
16.098389 39.968800 0.000000
16.413738 39.968800 0.000000
16.729090 39.968800 0.000000
17.044439 39.968800 0.000000
17.359789 39.968800 0.000000
17.675138 39.968800 0.000000
17.990490 39.968800 0.000000
18.305840 39.968800 0.000000
18.621189 39.968800 0.000000
18.936539 39.968800 0.000000
19.251888 39.968800 0.000000
-7.237510 39.653450 0.000000
-6.922160 39.653450 0.000000
-6.606810 39.653450 0.003905
-6.291460 39.653450 0.002925
-5.976110 39.653450 0.002827
-5.660760 39.653450 0.002748
-5.345410 39.653450 0.002714
-5.030060 39.653450 0.002741
-4.714710 39.653450 0.002685
-4.399360 39.653450 0.002604
-4.084010 39.653450 0.002570
-3.768660 39.653450 0.002612
-3.453310 39.653450 0.002636
-3.137960 39.653450 0.002685
-2.822610 39.653450 0.002667
-2.507260 39.653450 0.002656
-2.191910 39.653450 0.002709
-1.876560 39.653450 0.002758
-1.561210 39.653450 0.002789
-1.245860 39.653450 0.002857
-0.930510 39.653450 0.002894
-0.615160 39.653450 0.002940
-0.299810 39.653450 0.003028
0.015540 39.653450 0.003141
0.330890 39.653450 0.003264
0.646240 39.653450 0.003427
0.961589 39.653450 0.003563
1.276940 39.653450 0.003749
1.592289 39.653450 0.004084
1.907640 39.653450 0.004343
2.222990 39.653450 0.004627
2.538340 39.653450 0.005159
2.853690 39.653450 0.005635
3.169039 39.653450 0.006133
3.484390 39.653450 0.007062
3.799739 39.653450 0.008067
4.115090 39.653450 0.009177
4.430439 39.653450 0.010925
4.745790 39.653450 0.013066
5.061140 39.653450 0.015538
5.376490 39.653450 0.018741
5.691840 39.653450 0.022527
6.007189 39.653450 0.027556
6.322540 39.653450 0.034708
6.637889 39.653450 0.043959
6.953240 39.653450 0.056236
7.268589 39.653450 0.072387
7.583940 39.653450 0.093026
7.899290 39.653450 0.119290
8.214640 39.653450 0.152908
8.529989 39.653450 0.197442
8.845339 39.653450 0.254896
9.160688 39.653450 0.321130
9.476040 39.653450 0.402295
9.791389 39.653450 0.489697
10.106739 39.653450 0.589915
10.422089 39.653450 0.698991
10.737438 39.653450 0.796606
11.052790 39.653450 0.909026
11.368139 39.653450 1.013499
11.683489 39.653450 1.107616
11.998838 39.653450 1.180318
12.314190 39.653450 1.260567
12.629539 39.653450 1.332343
12.944889 39.653450 1.386907
13.260239 39.653450 1.433342
13.575588 39.653450 1.446673
13.890940 39.653450 1.438474
14.206289 39.653450 1.393726
14.521639 39.653450 1.297560
14.836988 39.653450 1.152315
15.152340 39.653450 0.993040
15.467690 39.653450 0.793647
15.783039 39.653450 0.611301
16.098389 39.653450 0.000000
16.413738 39.653450 0.000000
16.729090 39.653450 0.000000
17.044439 39.653450 0.000000
17.359789 39.653450 0.000000
17.675138 39.653450 0.000000
17.990490 39.653450 0.000000
18.305840 39.653450 0.000000
18.621189 39.653450 0.000000
18.936539 39.653450 0.000000
19.251888 39.653450 0.000000
-7.237510 39.338100 0.000000
-6.922160 39.338100 0.000000
-6.606810 39.338100 0.003805
-6.291460 39.338100 0.002892
-5.976110 39.338100 0.002823
-5.660760 39.338100 0.002775
-5.345410 39.338100 0.002712
-5.030060 39.338100 0.002650
-4.714710 39.338100 0.002597
-4.399360 39.338100 0.002546
-4.084010 39.338100 0.002549
-3.768660 39.338100 0.002535
-3.453310 39.338100 0.002557
-3.137960 39.338100 0.002604
-2.822610 39.338100 0.002587
-2.507260 39.338100 0.002579
-2.191910 39.338100 0.002617
-1.876560 39.338100 0.002684
-1.561210 39.338100 0.002712
-1.245860 39.338100 0.002786
-0.930510 39.338100 0.002796
-0.615160 39.338100 0.002836
-0.299810 39.338100 0.002993
0.015540 39.338100 0.003085
0.330890 39.338100 0.003229
0.646240 39.338100 0.003390
0.961589 39.338100 0.003521
1.276940 39.338100 0.003692
1.592289 39.338100 0.003979
1.907640 39.338100 0.004242
2.222990 39.338100 0.004527
2.538340 39.338100 0.005051
2.853690 39.338100 0.005513
3.169039 39.338100 0.005999
3.484390 39.338100 0.006874
3.799739 39.338100 0.007942
4.115090 39.338100 0.009145
4.430439 39.338100 0.010711
4.745790 39.338100 0.012915
5.061140 39.338100 0.015488
5.376490 39.338100 0.018591
5.691840 39.338100 0.022464
6.007189 39.338100 0.027710
6.322540 39.338100 0.034869
6.637889 39.338100 0.044339
6.953240 39.338100 0.056118
7.268589 39.338100 0.071977
7.583940 39.338100 0.092015
7.899290 39.338100 0.119557
8.214640 39.338100 0.154003
8.529989 39.338100 0.197975
8.845339 39.338100 0.254488
9.160688 39.338100 0.323373
9.476040 39.338100 0.398632
9.791389 39.338100 0.501467
10.106739 39.338100 0.589156
10.422089 39.338100 0.694746
10.737438 39.338100 0.797391
11.052790 39.338100 0.900244
11.368139 39.338100 1.007333
11.683489 39.338100 1.101557
11.998838 39.338100 1.179126
12.314190 39.338100 1.265081
12.629539 39.338100 1.346851
12.944889 39.338100 1.393195
13.260239 39.338100 1.433626
13.575588 39.338100 1.458713
13.890940 39.338100 1.447868
14.206289 39.338100 1.400283
14.521639 39.338100 1.304504
14.836988 39.338100 1.153175
15.152340 39.338100 0.983792
15.467690 39.338100 0.792436
15.783039 39.338100 0.599730
16.098389 39.338100 0.000000
16.413738 39.338100 0.000000
16.729090 39.338100 0.000000
17.044439 39.338100 0.000000
17.359789 39.338100 0.000000
17.675138 39.338100 0.000000
17.990490 39.338100 0.000000
18.305840 39.338100 0.000000
18.621189 39.338100 0.000000
18.936539 39.338100 0.000000
19.251888 39.338100 0.000000
-7.237510 39.022751 0.000000
-6.922160 39.022751 0.000000
-6.606810 39.022751 0.003744
-6.291460 39.022751 0.002840
-5.976110 39.022751 0.002807
-5.660760 39.022751 0.002729
-5.345410 39.022751 0.002679
-5.030060 39.022751 0.002601
-4.714710 39.022751 0.002578
-4.399360 39.022751 0.002590
-4.084010 39.022751 0.002540
-3.768660 39.022751 0.002511
-3.453310 39.022751 0.002490
-3.137960 39.022751 0.002553
-2.822610 39.022751 0.002564
-2.507260 39.022751 0.002536
-2.191910 39.022751 0.002547
-1.876560 39.022751 0.002609
-1.561210 39.022751 0.002642
-1.245860 39.022751 0.002745
-0.930510 39.022751 0.002706
-0.615160 39.022751 0.002762
-0.299810 39.022751 0.002897
0.015540 39.022751 0.003037
0.330890 39.022751 0.003178
0.646240 39.022751 0.003343
0.961589 39.022751 0.003480
1.276940 39.022751 0.003670
1.592289 39.022751 0.003948
1.907640 39.022751 0.004179
2.222990 39.022751 0.004453
2.538340 39.022751 0.004962
2.853690 39.022751 0.005532
3.169039 39.022751 0.006003
3.484390 39.022751 0.006768
3.799739 39.022751 0.007736
4.115090 39.022751 0.008983
4.430439 39.022751 0.010573
4.745790 39.022751 0.012678
5.061140 39.022751 0.015274
5.376490 39.022751 0.018379
5.691840 39.022751 0.022399
6.007189 39.022751 0.027672
6.322540 39.022751 0.035052
6.637889 39.022751 0.044227
6.953240 39.022751 0.055919
7.268589 39.022751 0.071339
7.583940 39.022751 0.093670
7.899290 39.022751 0.120555
8.214640 39.022751 0.157350
8.529989 39.022751 0.202212
8.845339 39.022751 0.255375
9.160688 39.022751 0.318205
9.476040 39.022751 0.404183
9.791389 39.022751 0.499979
10.106739 39.022751 0.595851
10.422089 39.022751 0.689074
10.737438 39.022751 0.795907
11.052790 39.022751 0.902152
11.368139 39.022751 1.008560
11.683489 39.022751 1.105602
11.998838 39.022751 1.187449
12.314190 39.022751 1.288627
12.629539 39.022751 1.362426
12.944889 39.022751 1.397283
13.260239 39.022751 1.441058
13.575588 39.022751 1.478160
13.890940 39.022751 1.456623
14.206289 39.022751 1.398103
14.521639 39.022751 1.301857
14.836988 39.022751 1.161881
15.152340 39.022751 0.988937
15.467690 39.022751 0.782174
15.783039 39.022751 0.581377
16.098389 39.022751 0.000000
16.413738 39.022751 0.000000
16.729090 39.022751 0.000000
17.044439 39.022751 0.000000
17.359789 39.022751 0.000000
17.675138 39.022751 0.000000
17.990490 39.022751 0.000000
18.305840 39.022751 0.000000
18.621189 39.022751 0.000000
18.936539 39.022751 0.000000
19.251888 39.022751 0.000000
-7.237510 38.707401 0.000000
-6.922160 38.707401 0.000000
-6.606810 38.707401 0.003640
-6.291460 38.707401 0.002769
-5.976110 38.707401 0.002781
-5.660760 38.707401 0.002687
-5.345410 38.707401 0.002641
-5.030060 38.707401 0.002569
-4.714710 38.707401 0.002550
-4.399360 38.707401 0.002613
-4.084010 38.707401 0.002527
-3.768660 38.707401 0.002490
-3.453310 38.707401 0.002468
-3.137960 38.707401 0.002540
-2.822610 38.707401 0.002565
-2.507260 38.707401 0.002510
-2.191910 38.707401 0.002515
-1.876560 38.707401 0.002553
-1.561210 38.707401 0.002605
-1.245860 38.707401 0.002670
-0.930510 38.707401 0.002705
-0.615160 38.707401 0.002781
-0.299810 38.707401 0.002893
0.015540 38.707401 0.003048
0.330890 38.707401 0.003127
0.646240 38.707401 0.003319
0.961589 38.707401 0.003486
1.276940 38.707401 0.003702
1.592289 38.707401 0.003921
1.907640 38.707401 0.004107
2.222990 38.707401 0.004384
2.538340 38.707401 0.004804
2.853690 38.707401 0.005421
3.169039 38.707401 0.006055
3.484390 38.707401 0.006679
3.799739 38.707401 0.007605
4.115090 38.707401 0.008908
4.430439 38.707401 0.010311
4.745790 38.707401 0.012457
5.061140 38.707401 0.015030
5.376490 38.707401 0.018161
5.691840 38.707401 0.022434
6.007189 38.707401 0.027844
6.322540 38.707401 0.035089
6.637889 38.707401 0.044095
6.953240 38.707401 0.055946
7.268589 38.707401 0.071990
7.583940 38.707401 0.093396
7.899290 38.707401 0.120908
8.214640 38.707401 0.157188
8.529989 38.707401 0.198356
8.845339 38.707401 0.254034
9.160688 38.707401 0.323589
9.476040 38.707401 0.403605
9.791389 38.707401 0.506081
10.106739 38.707401 0.600870
10.422089 38.707401 0.704882
10.737438 38.707401 0.804616
11.052790 38.707401 0.912124
11.368139 38.707401 1.019281
11.683489 38.707401 1.120374
11.998838 38.707401 1.192737
12.314190 38.707401 1.289233
12.629539 38.707401 1.360844
12.944889 38.707401 1.415499
13.260239 38.707401 1.454299
13.575588 38.707401 1.475027
13.890940 38.707401 1.463358
14.206289 38.707401 1.391050
14.521639 38.707401 1.302503
14.836988 38.707401 1.157284
15.152340 38.707401 0.986741
15.467690 38.707401 0.783130
15.783039 38.707401 0.583268
16.098389 38.707401 0.000000
16.413738 38.707401 0.000000
16.729090 38.707401 0.000000
17.044439 38.707401 0.000000
17.359789 38.707401 0.000000
17.675138 38.707401 0.000000
17.990490 38.707401 0.000000
18.305840 38.707401 0.000000
18.621189 38.707401 0.000000
18.936539 38.707401 0.000000
19.251888 38.707401 0.000000
-7.237510 38.392052 0.000000
-6.922160 38.392052 0.000000
-6.606810 38.392052 0.003520
-6.291460 38.392052 0.002732
-5.976110 38.392052 0.002701
-5.660760 38.392052 0.002603
-5.345410 38.392052 0.002580
-5.030060 38.392052 0.002525
-4.714710 38.392052 0.002532
-4.399360 38.392052 0.002601
-4.084010 38.392052 0.002544
-3.768660 38.392052 0.002492
-3.453310 38.392052 0.002440
-3.137960 38.392052 0.002520
-2.822610 38.392052 0.002546
-2.507260 38.392052 0.002496
-2.191910 38.392052 0.002535
-1.876560 38.392052 0.002545
-1.561210 38.392052 0.002570
-1.245860 38.392052 0.002617
-0.930510 38.392052 0.002716
-0.615160 38.392052 0.002835
-0.299810 38.392052 0.002905
0.015540 38.392052 0.003028
0.330890 38.392052 0.003121
0.646240 38.392052 0.003343
0.961589 38.392052 0.003492
1.276940 38.392052 0.003721
1.592289 38.392052 0.003880
1.907640 38.392052 0.004064
2.222990 38.392052 0.004344
2.538340 38.392052 0.004745
2.853690 38.392052 0.005360
3.169039 38.392052 0.005989
3.484390 38.392052 0.006594
3.799739 38.392052 0.007439
4.115090 38.392052 0.008584
4.430439 38.392052 0.010154
4.745790 38.392052 0.012251
5.061140 38.392052 0.014736
5.376490 38.392052 0.017921
5.691840 38.392052 0.022346
6.007189 38.392052 0.027926
6.322540 38.392052 0.034791
6.637889 38.392052 0.043866
6.953240 38.392052 0.056500
7.268589 38.392052 0.072439
7.583940 38.392052 0.093826
7.899290 38.392052 0.120393
8.214640 38.392052 0.155195
8.529989 38.392052 0.198421
8.845339 38.392052 0.256074
9.160688 38.392052 0.323588
9.476040 38.392052 0.409997
9.791389 38.392052 0.507212
10.106739 38.392052 0.604797
10.422089 38.392052 0.710833
10.737438 38.392052 0.818148
11.052790 38.392052 0.925660
11.368139 38.392052 1.027613
11.683489 38.392052 1.128366
11.998838 38.392052 1.194494
12.314190 38.392052 1.279050
12.629539 38.392052 1.363325
12.944889 38.392052 1.418256
13.260239 38.392052 1.458581
13.575588 38.392052 1.470428
13.890940 38.392052 1.455920
14.206289 38.392052 1.395141
14.521639 38.392052 1.308349
14.836988 38.392052 1.182789
15.152340 38.392052 0.993694
15.467690 38.392052 0.790677
15.783039 38.392052 0.569048
16.098389 38.392052 0.000000
16.413738 38.392052 0.000000
16.729090 38.392052 0.000000
17.044439 38.392052 0.000000
17.359789 38.392052 0.000000
17.675138 38.392052 0.000000
17.990490 38.392052 0.000000
18.305840 38.392052 0.000000
18.621189 38.392052 0.000000
18.936539 38.392052 0.000000
19.251888 38.392052 0.000000
-7.237510 38.076698 0.000000
-6.922160 38.076698 0.000000
-6.606810 38.076698 0.003503
-6.291460 38.076698 0.002719
-5.976110 38.076698 0.002660
-5.660760 38.076698 0.002591
-5.345410 38.076698 0.002533
-5.030060 38.076698 0.002476
-4.714710 38.076698 0.002479
-4.399360 38.076698 0.002544
-4.084010 38.076698 0.002538
-3.768660 38.076698 0.002510
-3.453310 38.076698 0.002471
-3.137960 38.076698 0.002498
-2.822610 38.076698 0.002534
-2.507260 38.076698 0.002535
-2.191910 38.076698 0.002571
-1.876560 38.076698 0.002598
-1.561210 38.076698 0.002564
-1.245860 38.076698 0.002612
-0.930510 38.076698 0.002764
-0.615160 38.076698 0.002882
-0.299810 38.076698 0.002896
0.015540 38.076698 0.002998
0.330890 38.076698 0.003135
0.646240 38.076698 0.003313
0.961589 38.076698 0.003455
1.276940 38.076698 0.003705
1.592289 38.076698 0.003929
1.907640 38.076698 0.004036
2.222990 38.076698 0.004288
2.538340 38.076698 0.004688
2.853690 38.076698 0.005357
3.169039 38.076698 0.006006
3.484390 38.076698 0.006594
3.799739 38.076698 0.007363
4.115090 38.076698 0.008440
4.430439 38.076698 0.010094
4.745790 38.076698 0.011992
5.061140 38.076698 0.014656
5.376490 38.076698 0.017916
5.691840 38.076698 0.022226
6.007189 38.076698 0.027888
6.322540 38.076698 0.034721
6.637889 38.076698 0.043825
6.953240 38.076698 0.056777
7.268589 38.076698 0.073066
7.583940 38.076698 0.094259
7.899290 38.076698 0.122335
8.214640 38.076698 0.154916
8.529989 38.076698 0.198420
8.845339 38.076698 0.251922
9.160688 38.076698 0.321239
9.476040 38.076698 0.408715
9.791389 38.076698 0.501938
10.106739 38.076698 0.603365
10.422089 38.076698 0.713771
10.737438 38.076698 0.828447
11.052790 38.076698 0.929072
11.368139 38.076698 1.044347
11.683489 38.076698 1.128211
11.998838 38.076698 1.211897
12.314190 38.076698 1.289066
12.629539 38.076698 1.358086
12.944889 38.076698 1.415303
13.260239 38.076698 1.450255
13.575588 38.076698 1.460283
13.890940 38.076698 1.438716
14.206289 38.076698 1.408962
14.521639 38.076698 1.312929
14.836988 38.076698 1.180521
15.152340 38.076698 0.990719
15.467690 38.076698 0.799669
15.783039 38.076698 0.448705
16.098389 38.076698 0.000000
16.413738 38.076698 0.000000
16.729090 38.076698 0.000000
17.044439 38.076698 0.000000
17.359789 38.076698 0.000000
17.675138 38.076698 0.000000
17.990490 38.076698 0.000000
18.305840 38.076698 0.000000
18.621189 38.076698 0.000000
18.936539 38.076698 0.000000
19.251888 38.076698 0.000000
-7.237510 37.761353 0.000000
-6.922160 37.761353 0.000000
-6.606810 37.761353 0.003515
-6.291460 37.761353 0.002755
-5.976110 37.761353 0.002723
-5.660760 37.761353 0.002597
-5.345410 37.761353 0.002529
-5.030060 37.761353 0.002510
-4.714710 37.761353 0.002491
-4.399360 37.761353 0.002511
-4.084010 37.761353 0.002502
-3.768660 37.761353 0.002525
-3.453310 37.761353 0.002541
-3.137960 37.761353 0.002529
-2.822610 37.761353 0.002551
-2.507260 37.761353 0.002598
-2.191910 37.761353 0.002650
-1.876560 37.761353 0.002637
-1.561210 37.761353 0.002624
-1.245860 37.761353 0.002668
-0.930510 37.761353 0.002860
-0.615160 37.761353 0.002916
-0.299810 37.761353 0.002904
0.015540 37.761353 0.002978
0.330890 37.761353 0.003087
0.646240 37.761353 0.003260
0.961589 37.761353 0.003403
1.276940 37.761353 0.003672
1.592289 37.761353 0.003847
1.907640 37.761353 0.004035
2.222990 37.761353 0.004304
2.538340 37.761353 0.004677
2.853690 37.761353 0.005275
3.169039 37.761353 0.005958
3.484390 37.761353 0.006650
3.799739 37.761353 0.007477
4.115090 37.761353 0.008402
4.430439 37.761353 0.009894
4.745790 37.761353 0.011893
5.061140 37.761353 0.014657
5.376490 37.761353 0.018034
5.691840 37.761353 0.022214
6.007189 37.761353 0.027994
6.322540 37.761353 0.035079
6.637889 37.761353 0.043761
6.953240 37.761353 0.056866
7.268589 37.761353 0.073518
7.583940 37.761353 0.094549
7.899290 37.761353 0.121134
8.214640 37.761353 0.154770
8.529989 37.761353 0.198632
8.845339 37.761353 0.257591
9.160688 37.761353 0.325528
9.476040 37.761353 0.409519
9.791389 37.761353 0.512616
10.106739 37.761353 0.606944
10.422089 37.761353 0.707927
10.737438 37.761353 0.817032
11.052790 37.761353 0.931029
11.368139 37.761353 1.046539
11.683489 37.761353 1.151447
11.998838 37.761353 1.226918
12.314190 37.761353 1.299145
12.629539 37.761353 1.349505
12.944889 37.761353 1.404899
13.260239 37.761353 1.443116
13.575588 37.761353 1.454258
13.890940 37.761353 1.443902
14.206289 37.761353 1.401858
14.521639 37.761353 1.310108
14.836988 37.761353 1.162766
15.152340 37.761353 0.986146
15.467690 37.761353 0.797587
15.783039 37.761353 0.393599
16.098389 37.761353 0.000000
16.413738 37.761353 0.000000
16.729090 37.761353 0.000000
17.044439 37.761353 0.000000
17.359789 37.761353 0.000000
17.675138 37.761353 0.000000
17.990490 37.761353 0.000000
18.305840 37.761353 0.000000
18.621189 37.761353 0.000000
18.936539 37.761353 0.000000
19.251888 37.761353 0.000000
-7.237510 37.445999 0.000000
-6.922160 37.445999 0.000000
-6.606810 37.445999 0.003572
-6.291460 37.445999 0.002788
-5.976110 37.445999 0.002764
-5.660760 37.445999 0.002651
-5.345410 37.445999 0.002560
-5.030060 37.445999 0.002600
-4.714710 37.445999 0.002551
-4.399360 37.445999 0.002537
-4.084010 37.445999 0.002526
-3.768660 37.445999 0.002549
-3.453310 37.445999 0.002569
-3.137960 37.445999 0.002565
-2.822610 37.445999 0.002636
-2.507260 37.445999 0.002643
-2.191910 37.445999 0.002677
-1.876560 37.445999 0.002702
-1.561210 37.445999 0.002705
-1.245860 37.445999 0.002759
-0.930510 37.445999 0.002900
-0.615160 37.445999 0.002924
-0.299810 37.445999 0.002946
0.015540 37.445999 0.002997
0.330890 37.445999 0.003107
0.646240 37.445999 0.003243
0.961589 37.445999 0.003409
1.276940 37.445999 0.003603
1.592289 37.445999 0.003821
1.907640 37.445999 0.004032
2.222990 37.445999 0.004348
2.538340 37.445999 0.004694
2.853690 37.445999 0.005226
3.169039 37.445999 0.005848
3.484390 37.445999 0.006829
3.799739 37.445999 0.007740
4.115090 37.445999 0.008573
4.430439 37.445999 0.009906
4.745790 37.445999 0.011908
5.061140 37.445999 0.014600
5.376490 37.445999 0.017915
5.691840 37.445999 0.022180
6.007189 37.445999 0.027807
6.322540 37.445999 0.034603
6.637889 37.445999 0.043786
6.953240 37.445999 0.057009
7.268589 37.445999 0.073080
7.583940 37.445999 0.093853
7.899290 37.445999 0.120221
8.214640 37.445999 0.154479
8.529989 37.445999 0.197890
8.845339 37.445999 0.263652
9.160688 37.445999 0.326939
9.476040 37.445999 0.412324
9.791389 37.445999 0.508106
10.106739 37.445999 0.603035
10.422089 37.445999 0.702673
10.737438 37.445999 0.800002
11.052790 37.445999 0.924454
11.368139 37.445999 1.037509
11.683489 37.445999 1.143408
11.998838 37.445999 1.229447
12.314190 37.445999 1.300434
12.629539 37.445999 1.381672
12.944889 37.445999 1.418182
13.260239 37.445999 1.446720
13.575588 37.445999 1.455966
13.890940 37.445999 1.439113
14.206289 37.445999 1.408783
14.521639 37.445999 1.296748
14.836988 37.445999 1.156696
15.152340 37.445999 0.989135
15.467690 37.445999 0.795430
15.783039 37.445999 0.364315
16.098389 37.445999 0.000000
16.413738 37.445999 0.000000
16.729090 37.445999 0.000000
17.044439 37.445999 0.000000
17.359789 37.445999 0.000000
17.675138 37.445999 0.000000
17.990490 37.445999 0.000000
18.305840 37.445999 0.000000
18.621189 37.445999 0.000000
18.936539 37.445999 0.000000
19.251888 37.445999 0.000000
-7.237510 37.130650 0.000000
-6.922160 37.130650 0.000000
-6.606810 37.130650 0.003567
-6.291460 37.130650 0.002804
-5.976110 37.130650 0.002807
-5.660760 37.130650 0.002706
-5.345410 37.130650 0.002624
-5.030060 37.130650 0.002659
-4.714710 37.130650 0.002639
-4.399360 37.130650 0.002630
-4.084010 37.130650 0.002563
-3.768660 37.130650 0.002584
-3.453310 37.130650 0.002610
-3.137960 37.130650 0.002653
-2.822610 37.130650 0.002681
-2.507260 37.130650 0.002704
-2.191910 37.130650 0.002740
-1.876560 37.130650 0.002752
-1.561210 37.130650 0.002791
-1.245860 37.130650 0.002857
-0.930510 37.130650 0.002899
-0.615160 37.130650 0.002943
-0.299810 37.130650 0.002943
0.015540 37.130650 0.003021
0.330890 37.130650 0.003157
0.646240 37.130650 0.003266
0.961589 37.130650 0.003395
1.276940 37.130650 0.003581
1.592289 37.130650 0.003812
1.907640 37.130650 0.004072
2.222990 37.130650 0.004416
2.538340 37.130650 0.004768
2.853690 37.130650 0.005251
3.169039 37.130650 0.005778
3.484390 37.130650 0.006765
3.799739 37.130650 0.007651
4.115090 37.130650 0.008697
4.430439 37.130650 0.009972
4.745790 37.130650 0.011946
5.061140 37.130650 0.014598
5.376490 37.130650 0.018107
5.691840 37.130650 0.022085
6.007189 37.130650 0.027541
6.322540 37.130650 0.034718
6.637889 37.130650 0.043679
6.953240 37.130650 0.056591
7.268589 37.130650 0.072002
7.583940 37.130650 0.093292
7.899290 37.130650 0.121316
8.214640 37.130650 0.156257
8.529989 37.130650 0.198143
8.845339 37.130650 0.257130
9.160688 37.130650 0.326092
9.476040 37.130650 0.410376
9.791389 37.130650 0.507197
10.106739 37.130650 0.604429
10.422089 37.130650 0.704671
10.737438 37.130650 0.808396
11.052790 37.130650 0.927437
11.368139 37.130650 1.042480
11.683489 37.130650 1.143090
11.998838 37.130650 1.217465
12.314190 37.130650 1.306143
12.629539 37.130650 1.373735
12.944889 37.130650 1.437092
13.260239 37.130650 1.469107
13.575588 37.130650 1.474293
13.890940 37.130650 1.468942
14.206289 37.130650 1.403695
14.521639 37.130650 1.315054
14.836988 37.130650 1.158116
15.152340 37.130650 0.989103
15.467690 37.130650 0.784360
15.783039 37.130650 0.340531
16.098389 37.130650 0.000000
16.413738 37.130650 0.000000
16.729090 37.130650 0.000000
17.044439 37.130650 0.000000
17.359789 37.130650 0.000000
17.675138 37.130650 0.000000
17.990490 37.130650 0.000000
18.305840 37.130650 0.000000
18.621189 37.130650 0.000000
18.936539 37.130650 0.000000
19.251888 37.130650 0.000000
-7.237510 36.815300 0.000000
-6.922160 36.815300 0.000000
-6.606810 36.815300 0.003585
-6.291460 36.815300 0.002861
-5.976110 36.815300 0.002800
-5.660760 36.815300 0.002694
-5.345410 36.815300 0.002674
-5.030060 36.815300 0.002715
-4.714710 36.815300 0.002700
-4.399360 36.815300 0.002682
-4.084010 36.815300 0.002648
-3.768660 36.815300 0.002636
-3.453310 36.815300 0.002656
-3.137960 36.815300 0.002745
-2.822610 36.815300 0.002743
-2.507260 36.815300 0.002779
-2.191910 36.815300 0.002778
-1.876560 36.815300 0.002786
-1.561210 36.815300 0.002877
-1.245860 36.815300 0.002943
-0.930510 36.815300 0.002960
-0.615160 36.815300 0.002980
-0.299810 36.815300 0.003002
0.015540 36.815300 0.003112
0.330890 36.815300 0.003248
0.646240 36.815300 0.003333
0.961589 36.815300 0.003399
1.276940 36.815300 0.003583
1.592289 36.815300 0.003767
1.907640 36.815300 0.004097
2.222990 36.815300 0.004481
2.538340 36.815300 0.004823
2.853690 36.815300 0.005268
3.169039 36.815300 0.005820
3.484390 36.815300 0.006553
3.799739 36.815300 0.007414
4.115090 36.815300 0.008707
4.430439 36.815300 0.010040
4.745790 36.815300 0.011950
5.061140 36.815300 0.014694
5.376490 36.815300 0.018195
5.691840 36.815300 0.022320
6.007189 36.815300 0.027569
6.322540 36.815300 0.034611
6.637889 36.815300 0.044131
6.953240 36.815300 0.056731
7.268589 36.815300 0.073235
7.583940 36.815300 0.093064
7.899290 36.815300 0.122148
8.214640 36.815300 0.156676
8.529989 36.815300 0.199373
8.845339 36.815300 0.261191
9.160688 36.815300 0.330002
9.476040 36.815300 0.414707
9.791389 36.815300 0.507389
10.106739 36.815300 0.610725
10.422089 36.815300 0.714769
10.737438 36.815300 0.819462
11.052790 36.815300 0.922779
11.368139 36.815300 1.037209
11.683489 36.815300 1.135582
11.998838 36.815300 1.226048
12.314190 36.815300 1.313401
12.629539 36.815300 1.371493
12.944889 36.815300 1.444149
13.260239 36.815300 1.471429
13.575588 36.815300 1.503630
13.890940 36.815300 1.467844
14.206289 36.815300 1.405707
14.521639 36.815300 1.315198
14.836988 36.815300 1.174308
15.152340 36.815300 0.986561
15.467690 36.815300 0.777175
15.783039 36.815300 0.315893
16.098389 36.815300 0.000000
16.413738 36.815300 0.000000
16.729090 36.815300 0.000000
17.044439 36.815300 0.000000
17.359789 36.815300 0.000000
17.675138 36.815300 0.000000
17.990490 36.815300 0.000000
18.305840 36.815300 0.000000
18.621189 36.815300 0.000000
18.936539 36.815300 0.000000
19.251888 36.815300 0.000000
-7.237510 36.499950 0.000000
-6.922160 36.499950 0.000000
-6.606810 36.499950 0.003644
-6.291460 36.499950 0.002923
-5.976110 36.499950 0.002848
-5.660760 36.499950 0.002752
-5.345410 36.499950 0.002748
-5.030060 36.499950 0.002808
-4.714710 36.499950 0.002802
-4.399360 36.499950 0.002775
-4.084010 36.499950 0.002706
-3.768660 36.499950 0.002705
-3.453310 36.499950 0.002763
-3.137960 36.499950 0.002822
-2.822610 36.499950 0.002859
-2.507260 36.499950 0.002825
-2.191910 36.499950 0.002845
-1.876560 36.499950 0.002862
-1.561210 36.499950 0.002924
-1.245860 36.499950 0.002986
-0.930510 36.499950 0.003024
-0.615160 36.499950 0.003065
-0.299810 36.499950 0.003119
0.015540 36.499950 0.003181
0.330890 36.499950 0.003357
0.646240 36.499950 0.003422
0.961589 36.499950 0.003480
1.276940 36.499950 0.003616
1.592289 36.499950 0.003789
1.907640 36.499950 0.004115
2.222990 36.499950 0.004495
2.538340 36.499950 0.004844
2.853690 36.499950 0.005235
3.169039 36.499950 0.005817
3.484390 36.499950 0.006505
3.799739 36.499950 0.007446
4.115090 36.499950 0.008685
4.430439 36.499950 0.009950
4.745790 36.499950 0.011901
5.061140 36.499950 0.014819
5.376490 36.499950 0.018403
5.691840 36.499950 0.022678
6.007189 36.499950 0.027652
6.322540 36.499950 0.034726
6.637889 36.499950 0.044368
6.953240 36.499950 0.057468
7.268589 36.499950 0.074024
7.583940 36.499950 0.095667
7.899290 36.499950 0.121945
8.214640 36.499950 0.155174
8.529989 36.499950 0.200611
8.845339 36.499950 0.262787
9.160688 36.499950 0.333194
9.476040 36.499950 0.414635
9.791389 36.499950 0.518392
10.106739 36.499950 0.609040
10.422089 36.499950 0.706824
10.737438 36.499950 0.808760
11.052790 36.499950 0.917125
11.368139 36.499950 1.039579
11.683489 36.499950 1.137530
11.998838 36.499950 1.224771
12.314190 36.499950 1.314773
12.629539 36.499950 1.376859
12.944889 36.499950 1.439679
13.260239 36.499950 1.477874
13.575588 36.499950 1.505426
13.890940 36.499950 1.474883
14.206289 36.499950 1.424082
14.521639 36.499950 1.342058
14.836988 36.499950 1.174497
15.152340 36.499950 0.974514
15.467690 36.499950 0.774852
15.783039 36.499950 0.286413
16.098389 36.499950 0.000000
16.413738 36.499950 0.000000
16.729090 36.499950 0.000000
17.044439 36.499950 0.000000
17.359789 36.499950 0.000000
17.675138 36.499950 0.000000
17.990490 36.499950 0.000000
18.305840 36.499950 0.000000
18.621189 36.499950 0.000000
18.936539 36.499950 0.000000
19.251888 36.499950 0.000000
-7.237510 36.184601 0.000000
-6.922160 36.184601 0.000000
-6.606810 36.184601 0.003737
-6.291460 36.184601 0.003003
-5.976110 36.184601 0.002930
-5.660760 36.184601 0.002828
-5.345410 36.184601 0.002832
-5.030060 36.184601 0.002904
-4.714710 36.184601 0.002885
-4.399360 36.184601 0.002861
-4.084010 36.184601 0.002786
-3.768660 36.184601 0.002774
-3.453310 36.184601 0.002819
-3.137960 36.184601 0.002898
-2.822610 36.184601 0.002937
-2.507260 36.184601 0.002894
-2.191910 36.184601 0.002923
-1.876560 36.184601 0.002945
-1.561210 36.184601 0.002997
-1.245860 36.184601 0.003014
-0.930510 36.184601 0.003082
-0.615160 36.184601 0.003138
-0.299810 36.184601 0.003217
0.015540 36.184601 0.003350
0.330890 36.184601 0.003449
0.646240 36.184601 0.003507
0.961589 36.184601 0.003558
1.276940 36.184601 0.003710
1.592289 36.184601 0.003902
1.907640 36.184601 0.004143
2.222990 36.184601 0.004514
2.538340 36.184601 0.004797
2.853690 36.184601 0.005214
3.169039 36.184601 0.005795
3.484390 36.184601 0.006441
3.799739 36.184601 0.007472
4.115090 36.184601 0.008594
4.430439 36.184601 0.009990
4.745790 36.184601 0.011845
5.061140 36.184601 0.014943
5.376490 36.184601 0.018546
5.691840 36.184601 0.022690
6.007189 36.184601 0.027885
6.322540 36.184601 0.034857
6.637889 36.184601 0.044767
6.953240 36.184601 0.058179
7.268589 36.184601 0.074581
7.583940 36.184601 0.094895
7.899290 36.184601 0.122341
8.214640 36.184601 0.155400
8.529989 36.184601 0.200506
8.845339 36.184601 0.260609
9.160688 36.184601 0.333041
9.476040 36.184601 0.423444
9.791389 36.184601 0.513364
10.106739 36.184601 0.608744
10.422089 36.184601 0.695566
10.737438 36.184601 0.804421
11.052790 36.184601 0.915635
11.368139 36.184601 1.038725
11.683489 36.184601 1.135398
11.998838 36.184601 1.240245
12.314190 36.184601 1.310606
12.629539 36.184601 1.380237
12.944889 36.184601 1.449188
13.260239 36.184601 1.482252
13.575588 36.184601 1.508988
13.890940 36.184601 1.495822
14.206289 36.184601 1.434082
14.521639 36.184601 1.336104
14.836988 36.184601 1.172830
15.152340 36.184601 0.967294
15.467690 36.184601 0.772181
15.783039 36.184601 0.259714
16.098389 36.184601 0.000000
16.413738 36.184601 0.000000
16.729090 36.184601 0.000000
17.044439 36.184601 0.000000
17.359789 36.184601 0.000000
17.675138 36.184601 0.000000
17.990490 36.184601 0.000000
18.305840 36.184601 0.000000
18.621189 36.184601 0.000000
18.936539 36.184601 0.000000
19.251888 36.184601 0.000000
-7.237510 35.869251 0.000000
-6.922160 35.869251 0.000000
-6.606810 35.869251 0.003919
-6.291460 35.869251 0.003122
-5.976110 35.869251 0.003042
-5.660760 35.869251 0.002964
-5.345410 35.869251 0.002958
-5.030060 35.869251 0.002989
-4.714710 35.869251 0.002914
-4.399360 35.869251 0.002911
-4.084010 35.869251 0.002852
-3.768660 35.869251 0.002875
-3.453310 35.869251 0.002906
-3.137960 35.869251 0.002951
-2.822610 35.869251 0.002978
-2.507260 35.869251 0.002921
-2.191910 35.869251 0.003035
-1.876560 35.869251 0.003045
-1.561210 35.869251 0.003042
-1.245860 35.869251 0.003041
-0.930510 35.869251 0.003129
-0.615160 35.869251 0.003221
-0.299810 35.869251 0.003324
0.015540 35.869251 0.003491
0.330890 35.869251 0.003601
0.646240 35.869251 0.003629
0.961589 35.869251 0.003683
1.276940 35.869251 0.003835
1.592289 35.869251 0.004016
1.907640 35.869251 0.004190
2.222990 35.869251 0.004519
2.538340 35.869251 0.004909
2.853690 35.869251 0.005258
3.169039 35.869251 0.005826
3.484390 35.869251 0.006532
3.799739 35.869251 0.007465
4.115090 35.869251 0.008629
4.430439 35.869251 0.010017
4.745790 35.869251 0.011924
5.061140 35.869251 0.014947
5.376490 35.869251 0.018507
5.691840 35.869251 0.022657
6.007189 35.869251 0.027957
6.322540 35.869251 0.034984
6.637889 35.869251 0.045028
6.953240 35.869251 0.058035
7.268589 35.869251 0.074959
7.583940 35.869251 0.095256
7.899290 35.869251 0.123776
8.214640 35.869251 0.157381
8.529989 35.869251 0.204652
8.845339 35.869251 0.264284
9.160688 35.869251 0.336140
9.476040 35.869251 0.413223
9.791389 35.869251 0.510455
10.106739 35.869251 0.598559
10.422089 35.869251 0.693031
10.737438 35.869251 0.803454
11.052790 35.869251 0.921216
11.368139 35.869251 1.040631
11.683489 35.869251 1.142845
11.998838 35.869251 1.243776
12.314190 35.869251 1.316205
12.629539 35.869251 1.410451
12.944889 35.869251 1.455422
13.260239 35.869251 1.481727
13.575588 35.869251 1.517946
13.890940 35.869251 1.502290
14.206289 35.869251 1.453512
14.521639 35.869251 1.342447
14.836988 35.869251 1.170398
15.152340 35.869251 0.964784
15.467690 35.869251 0.763619
15.783039 35.869251 0.233906
16.098389 35.869251 0.000000
16.413738 35.869251 0.000000
16.729090 35.869251 0.000000
17.044439 35.869251 0.000000
17.359789 35.869251 0.000000
17.675138 35.869251 0.000000
17.990490 35.869251 0.000000
18.305840 35.869251 0.000000
18.621189 35.869251 0.000000
18.936539 35.869251 0.000000
19.251888 35.869251 0.000000
-7.237510 35.553902 0.000000
-6.922160 35.553902 0.000883
-6.606810 35.553902 0.004176
-6.291460 35.553902 0.003280
-5.976110 35.553902 0.003181
-5.660760 35.553902 0.003138
-5.345410 35.553902 0.003099
-5.030060 35.553902 0.003110
-4.714710 35.553902 0.003014
-4.399360 35.553902 0.003041
-4.084010 35.553902 0.002988
-3.768660 35.553902 0.003037
-3.453310 35.553902 0.002989
-3.137960 35.553902 0.003038
-2.822610 35.553902 0.003051
-2.507260 35.553902 0.002988
-2.191910 35.553902 0.003112
-1.876560 35.553902 0.003154
-1.561210 35.553902 0.003154
-1.245860 35.553902 0.003098
-0.930510 35.553902 0.003183
-0.615160 35.553902 0.003283
-0.299810 35.553902 0.003416
0.015540 35.553902 0.003605
0.330890 35.553902 0.003726
0.646240 35.553902 0.003777
0.961589 35.553902 0.003821
1.276940 35.553902 0.004002
1.592289 35.553902 0.004131
1.907640 35.553902 0.004280
2.222990 35.553902 0.004580
2.538340 35.553902 0.004979
2.853690 35.553902 0.005383
3.169039 35.553902 0.005966
3.484390 35.553902 0.006636
3.799739 35.553902 0.007584
4.115090 35.553902 0.008796
4.430439 35.553902 0.010178
4.745790 35.553902 0.012054
5.061140 35.553902 0.014904
5.376490 35.553902 0.018516
5.691840 35.553902 0.022850
6.007189 35.553902 0.028220
6.322540 35.553902 0.035047
6.637889 35.553902 0.044716
6.953240 35.553902 0.057704
7.268589 35.553902 0.075114
7.583940 35.553902 0.095475
7.899290 35.553902 0.122496
8.214640 35.553902 0.160145
8.529989 35.553902 0.205358
8.845339 35.553902 0.261004
9.160688 35.553902 0.334224
9.476040 35.553902 0.416999
9.791389 35.553902 0.503398
10.106739 35.553902 0.590682
10.422089 35.553902 0.695153
10.737438 35.553902 0.811498
11.052790 35.553902 0.946093
11.368139 35.553902 1.051854
11.683489 35.553902 1.159548
11.998838 35.553902 1.235350
12.314190 35.553902 1.319079
12.629539 35.553902 1.414473
12.944889 35.553902 1.451022
13.260239 35.553902 1.490167
13.575588 35.553902 1.506262
13.890940 35.553902 1.488412
14.206289 35.553902 1.459532
14.521639 35.553902 1.345130
14.836988 35.553902 1.174535
15.152340 35.553902 0.970150
15.467690 35.553902 0.764026
15.783039 35.553902 0.210343
16.098389 35.553902 0.000000
16.413738 35.553902 0.000000
16.729090 35.553902 0.000000
17.044439 35.553902 0.000000
17.359789 35.553902 0.000000
17.675138 35.553902 0.000000
17.990490 35.553902 0.000000
18.305840 35.553902 0.000000
18.621189 35.553902 0.000000
18.936539 35.553902 0.000000
19.251888 35.553902 0.000000
-7.237510 35.238552 0.000000
-6.922160 35.238552 0.012172
-6.606810 35.238552 0.004391
-6.291460 35.238552 0.003372
-5.976110 35.238552 0.003336
-5.660760 35.238552 0.003310
-5.345410 35.238552 0.003263
-5.030060 35.238552 0.003197
-4.714710 35.238552 0.003168
-4.399360 35.238552 0.003182
-4.084010 35.238552 0.003168
-3.768660 35.238552 0.003170
-3.453310 35.238552 0.003141
-3.137960 35.238552 0.003160
-2.822610 35.238552 0.003151
-2.507260 35.238552 0.003111
-2.191910 35.238552 0.003203
-1.876560 35.238552 0.003288
-1.561210 35.238552 0.003299
-1.245860 35.238552 0.003248
-0.930510 35.238552 0.003291
-0.615160 35.238552 0.003349
-0.299810 35.238552 0.003501
0.015540 35.238552 0.003674
0.330890 35.238552 0.003875
0.646240 35.238552 0.003931
0.961589 35.238552 0.003946
1.276940 35.238552 0.004142
1.592289 35.238552 0.004216
1.907640 35.238552 0.004403
2.222990 35.238552 0.004729
2.538340 35.238552 0.005104
2.853690 35.238552 0.005483
3.169039 35.238552 0.006048
3.484390 35.238552 0.006843
3.799739 35.238552 0.007780
4.115090 35.238552 0.008984
4.430439 35.238552 0.010306
4.745790 35.238552 0.012151
5.061140 35.238552 0.014905
5.376490 35.238552 0.018559
5.691840 35.238552 0.023083
6.007189 35.238552 0.028425
6.322540 35.238552 0.035195
6.637889 35.238552 0.044544
6.953240 35.238552 0.057327
7.268589 35.238552 0.073933
7.583940 35.238552 0.095121
7.899290 35.238552 0.122764
8.214640 35.238552 0.159576
8.529989 35.238552 0.202817
8.845339 35.238552 0.261144
9.160688 35.238552 0.330379
9.476040 35.238552 0.412144
9.791389 35.238552 0.509042
10.106739 35.238552 0.604084
10.422089 35.238552 0.709686
10.737438 35.238552 0.822857
11.052790 35.238552 0.953276
11.368139 35.238552 1.065322
11.683489 35.238552 1.170277
11.998838 35.238552 1.252904
12.314190 35.238552 1.329247
12.629539 35.238552 1.417786
12.944889 35.238552 1.466474
13.260239 35.238552 1.509140
13.575588 35.238552 1.516262
13.890940 35.238552 1.507234
14.206289 35.238552 1.459992
14.521639 35.238552 1.339056
14.836988 35.238552 1.166443
15.152340 35.238552 0.960656
15.467690 35.238552 0.739155
15.783039 35.238552 0.189530
16.098389 35.238552 0.000000
16.413738 35.238552 0.000000
16.729090 35.238552 0.000000
17.044439 35.238552 0.000000
17.359789 35.238552 0.000000
17.675138 35.238552 0.000000
17.990490 35.238552 0.000000
18.305840 35.238552 0.000000
18.621189 35.238552 0.000000
18.936539 35.238552 0.000000
19.251888 35.238552 0.000000
-7.237510 34.923203 0.000000
-6.922160 34.923203 0.012137
-6.606810 34.923203 0.004495
-6.291460 34.923203 0.003495
-5.976110 34.923203 0.003483
-5.660760 34.923203 0.003452
-5.345410 34.923203 0.003359
-5.030060 34.923203 0.003288
-4.714710 34.923203 0.003360
-4.399360 34.923203 0.003362
-4.084010 34.923203 0.003377
-3.768660 34.923203 0.003322
-3.453310 34.923203 0.003217
-3.137960 34.923203 0.003288
-2.822610 34.923203 0.003349
-2.507260 34.923203 0.003297
-2.191910 34.923203 0.003331
-1.876560 34.923203 0.003429
-1.561210 34.923203 0.003404
-1.245860 34.923203 0.003397
-0.930510 34.923203 0.003417
-0.615160 34.923203 0.003495
-0.299810 34.923203 0.003617
0.015540 34.923203 0.003756
0.330890 34.923203 0.003959
0.646240 34.923203 0.004068
0.961589 34.923203 0.004124
1.276940 34.923203 0.004185
1.592289 34.923203 0.004298
1.907640 34.923203 0.004543
2.222990 34.923203 0.004913
2.538340 34.923203 0.005330
2.853690 34.923203 0.005715
3.169039 34.923203 0.006227
3.484390 34.923203 0.007018
3.799739 34.923203 0.007939
4.115090 34.923203 0.009137
4.430439 34.923203 0.010568
4.745790 34.923203 0.012179
5.061140 34.923203 0.014745
5.376490 34.923203 0.018509
5.691840 34.923203 0.023167
6.007189 34.923203 0.028512
6.322540 34.923203 0.035279
6.637889 34.923203 0.044594
6.953240 34.923203 0.057817
7.268589 34.923203 0.074225
7.583940 34.923203 0.095666
7.899290 34.923203 0.123335
8.214640 34.923203 0.161576
8.529989 34.923203 0.205621
8.845339 34.923203 0.264740
9.160688 34.923203 0.333510
9.476040 34.923203 0.412536
9.791389 34.923203 0.512396
10.106739 34.923203 0.615861
10.422089 34.923203 0.723890
10.737438 34.923203 0.814978
11.052790 34.923203 0.944915
11.368139 34.923203 1.060319
11.683489 34.923203 1.175399
11.998838 34.923203 1.264085
12.314190 34.923203 1.345906
12.629539 34.923203 1.412830
12.944889 34.923203 1.473083
13.260239 34.923203 1.507514
13.575588 34.923203 1.518891
13.890940 34.923203 1.502958
14.206289 34.923203 1.468478
14.521639 34.923203 1.347739
14.836988 34.923203 1.151398
15.152340 34.923203 0.953714
15.467690 34.923203 0.729255
15.783039 34.923203 0.162936
16.098389 34.923203 0.000000
16.413738 34.923203 0.000000
16.729090 34.923203 0.000000
17.044439 34.923203 0.000000
17.359789 34.923203 0.000000
17.675138 34.923203 0.000000
17.990490 34.923203 0.000000
18.305840 34.923203 0.000000
18.621189 34.923203 0.000000
18.936539 34.923203 0.000000
19.251888 34.923203 0.000000
-7.237510 34.607849 0.000000
-6.922160 34.607849 0.005874
-6.606810 34.607849 0.004759
-6.291460 34.607849 0.003675
-5.976110 34.607849 0.003632
-5.660760 34.607849 0.003639
-5.345410 34.607849 0.003532
-5.030060 34.607849 0.003497
-4.714710 34.607849 0.003544
-4.399360 34.607849 0.003559
-4.084010 34.607849 0.003482
-3.768660 34.607849 0.003473
-3.453310 34.607849 0.003442
-3.137960 34.607849 0.003465
-2.822610 34.607849 0.003538
-2.507260 34.607849 0.003456
-2.191910 34.607849 0.003509
-1.876560 34.607849 0.003589
-1.561210 34.607849 0.003562
-1.245860 34.607849 0.003552
-0.930510 34.607849 0.003557
-0.615160 34.607849 0.003679
-0.299810 34.607849 0.003804
0.015540 34.607849 0.003878
0.330890 34.607849 0.004072
0.646240 34.607849 0.004144
0.961589 34.607849 0.004236
1.276940 34.607849 0.004303
1.592289 34.607849 0.004436
1.907640 34.607849 0.004777
2.222990 34.607849 0.005137
2.538340 34.607849 0.005556
2.853690 34.607849 0.006006
3.169039 34.607849 0.006461
3.484390 34.607849 0.007116
3.799739 34.607849 0.008046
4.115090 34.607849 0.009272
4.430439 34.607849 0.010714
4.745790 34.607849 0.012280
5.061140 34.607849 0.014820
5.376490 34.607849 0.018459
5.691840 34.607849 0.023228
6.007189 34.607849 0.028876
6.322540 34.607849 0.035317
6.637889 34.607849 0.044773
6.953240 34.607849 0.057616
7.268589 34.607849 0.074309
7.583940 34.607849 0.096124
7.899290 34.607849 0.125433
8.214640 34.607849 0.160621
8.529989 34.607849 0.208058
8.845339 34.607849 0.260797
9.160688 34.607849 0.332190
9.476040 34.607849 0.413194
9.791389 34.607849 0.513958
10.106739 34.607849 0.617714
10.422089 34.607849 0.718307
10.737438 34.607849 0.819621
11.052790 34.607849 0.925124
11.368139 34.607849 1.048478
11.683489 34.607849 1.172279
11.998838 34.607849 1.266454
12.314190 34.607849 1.339396
12.629539 34.607849 1.408500
12.944889 34.607849 1.462964
13.260239 34.607849 1.485807
13.575588 34.607849 1.528448
13.890940 34.607849 1.529143
14.206289 34.607849 1.476040
14.521639 34.607849 1.332812
14.836988 34.607849 1.149563
15.152340 34.607849 0.944619
15.467690 34.607849 0.721155
15.783039 34.607849 0.143972
16.098389 34.607849 0.000000
16.413738 34.607849 0.000000
16.729090 34.607849 0.000000
17.044439 34.607849 0.000000
17.359789 34.607849 0.000000
17.675138 34.607849 0.000000
17.990490 34.607849 0.000000
18.305840 34.607849 0.000000
18.621189 34.607849 0.000000
18.936539 34.607849 0.000000
19.251888 34.607849 0.000000
-7.237510 34.292503 0.000000
-6.922160 34.292503 0.002913
-6.606810 34.292503 0.005124
-6.291460 34.292503 0.003891
-5.976110 34.292503 0.003891
-5.660760 34.292503 0.003850
-5.345410 34.292503 0.003781
-5.030060 34.292503 0.003784
-4.714710 34.292503 0.003771
-4.399360 34.292503 0.003735
-4.084010 34.292503 0.003605
-3.768660 34.292503 0.003620
-3.453310 34.292503 0.003687
-3.137960 34.292503 0.003676
-2.822610 34.292503 0.003734
-2.507260 34.292503 0.003691
-2.191910 34.292503 0.003664
-1.876560 34.292503 0.003740
-1.561210 34.292503 0.003774
-1.245860 34.292503 0.003769
-0.930510 34.292503 0.003802
-0.615160 34.292503 0.003827
-0.299810 34.292503 0.003995
0.015540 34.292503 0.004083
0.330890 34.292503 0.004235
0.646240 34.292503 0.004269
0.961589 34.292503 0.004429
1.276940 34.292503 0.004505
1.592289 34.292503 0.004594
1.907640 34.292503 0.004955
2.222990 34.292503 0.005289
2.538340 34.292503 0.005735
2.853690 34.292503 0.006204
3.169039 34.292503 0.006693
3.484390 34.292503 0.007320
3.799739 34.292503 0.008144
4.115090 34.292503 0.009394
4.430439 34.292503 0.010867
4.745790 34.292503 0.012574
5.061140 34.292503 0.014953
5.376490 34.292503 0.018436
5.691840 34.292503 0.023059
6.007189 34.292503 0.028629
6.322540 34.292503 0.035741
6.637889 34.292503 0.044926
6.953240 34.292503 0.057798
7.268589 34.292503 0.073787
7.583940 34.292503 0.096227
7.899290 34.292503 0.125480
8.214640 34.292503 0.161890
8.529989 34.292503 0.208401
8.845339 34.292503 0.261628
9.160688 34.292503 0.333624
9.476040 34.292503 0.422464
9.791389 34.292503 0.520498
10.106739 34.292503 0.622438
10.422089 34.292503 0.726296
10.737438 34.292503 0.811895
11.052790 34.292503 0.935037
11.368139 34.292503 1.037596
11.683489 34.292503 1.156413
11.998838 34.292503 1.270148
12.314190 34.292503 1.340859
12.629539 34.292503 1.409903
12.944889 34.292503 1.447150
13.260239 34.292503 1.488071
13.575588 34.292503 1.522174
13.890940 34.292503 1.534926
14.206289 34.292503 1.481070
14.521639 34.292503 1.334996
14.836988 34.292503 1.150619
15.152340 34.292503 0.945835
15.467690 34.292503 0.721031
15.783039 34.292503 0.121909
16.098389 34.292503 0.000000
16.413738 34.292503 0.000000
16.729090 34.292503 0.000000
17.044439 34.292503 0.000000
17.359789 34.292503 0.000000
17.675138 34.292503 0.000000
17.990490 34.292503 0.000000
18.305840 34.292503 0.000000
18.621189 34.292503 0.000000
18.936539 34.292503 0.000000
19.251888 34.292503 0.000000
-7.237510 33.977150 0.000000
-6.922160 33.977150 0.003082
-6.606810 33.977150 0.005505
-6.291460 33.977150 0.004191
-5.976110 33.977150 0.004150
-5.660760 33.977150 0.004115
-5.345410 33.977150 0.004109
-5.030060 33.977150 0.004107
-4.714710 33.977150 0.003993
-4.399360 33.977150 0.003940
-4.084010 33.977150 0.003743
-3.768660 33.977150 0.003838
-3.453310 33.977150 0.003928
-3.137960 33.977150 0.003929
-2.822610 33.977150 0.003968
-2.507260 33.977150 0.003922
-2.191910 33.977150 0.003918
-1.876560 33.977150 0.003930
-1.561210 33.977150 0.004017
-1.245860 33.977150 0.004034
-0.930510 33.977150 0.004086
-0.615160 33.977150 0.004062
-0.299810 33.977150 0.004180
0.015540 33.977150 0.004299
0.330890 33.977150 0.004374
0.646240 33.977150 0.004411
0.961589 33.977150 0.004574
1.276940 33.977150 0.004710
1.592289 33.977150 0.004869
1.907640 33.977150 0.005074
2.222990 33.977150 0.005451
2.538340 33.977150 0.005933
2.853690 33.977150 0.006339
3.169039 33.977150 0.006914
3.484390 33.977150 0.007624
3.799739 33.977150 0.008363
4.115090 33.977150 0.009507
4.430439 33.977150 0.011001
4.745790 33.977150 0.012869
5.061140 33.977150 0.015254
5.376490 33.977150 0.018636
5.691840 33.977150 0.023068
6.007189 33.977150 0.028647
6.322540 33.977150 0.035808
6.637889 33.977150 0.045420
6.953240 33.977150 0.057338
7.268589 33.977150 0.074255
7.583940 33.977150 0.097000
7.899290 33.977150 0.125297
8.214640 33.977150 0.162918
8.529989 33.977150 0.209824
8.845339 33.977150 0.263693
9.160688 33.977150 0.334829
9.476040 33.977150 0.420364
9.791389 33.977150 0.521119
10.106739 33.977150 0.617673
10.422089 33.977150 0.716607
10.737438 33.977150 0.814124
11.052790 33.977150 0.922009
11.368139 33.977150 1.044339
11.683489 33.977150 1.165436
11.998838 33.977150 1.254104
12.314190 33.977150 1.331366
12.629539 33.977150 1.398561
12.944889 33.977150 1.459285
13.260239 33.977150 1.506483
13.575588 33.977150 1.515626
13.890940 33.977150 1.537580
14.206289 33.977150 1.475361
14.521639 33.977150 1.344005
14.836988 33.977150 1.158020
15.152340 33.977150 0.944016
15.467690 33.977150 0.721043
15.783039 33.977150 0.119856
16.098389 33.977150 0.000000
16.413738 33.977150 0.000000
16.729090 33.977150 0.000000
17.044439 33.977150 0.000000
17.359789 33.977150 0.000000
17.675138 33.977150 0.000000
17.990490 33.977150 0.000000
18.305840 33.977150 0.000000
18.621189 33.977150 0.000000
18.936539 33.977150 0.000000
19.251888 33.977150 0.000000
-7.237510 33.661800 0.000000
-6.922160 33.661800 0.002942
-6.606810 33.661800 0.005846
-6.291460 33.661800 0.004538
-5.976110 33.661800 0.004441
-5.660760 33.661800 0.004420
-5.345410 33.661800 0.004474
-5.030060 33.661800 0.004397
-4.714710 33.661800 0.004250
-4.399360 33.661800 0.004171
-4.084010 33.661800 0.004004
-3.768660 33.661800 0.004102
-3.453310 33.661800 0.004178
-3.137960 33.661800 0.004224
-2.822610 33.661800 0.004310
-2.507260 33.661800 0.004289
-2.191910 33.661800 0.004216
-1.876560 33.661800 0.004238
-1.561210 33.661800 0.004322
-1.245860 33.661800 0.004385
-0.930510 33.661800 0.004401
-0.615160 33.661800 0.004314
-0.299810 33.661800 0.004433
0.015540 33.661800 0.004476
0.330890 33.661800 0.004605
0.646240 33.661800 0.004662
0.961589 33.661800 0.004730
1.276940 33.661800 0.004893
1.592289 33.661800 0.005124
1.907640 33.661800 0.005307
2.222990 33.661800 0.005700
2.538340 33.661800 0.006144
2.853690 33.661800 0.006556
3.169039 33.661800 0.007189
3.484390 33.661800 0.007885
3.799739 33.661800 0.008621
4.115090 33.661800 0.009743
4.430439 33.661800 0.011213
4.745790 33.661800 0.013061
5.061140 33.661800 0.015493
5.376490 33.661800 0.018899
5.691840 33.661800 0.023195
6.007189 33.661800 0.028744
6.322540 33.661800 0.035834
6.637889 33.661800 0.045164
6.953240 33.661800 0.057634
7.268589 33.661800 0.073997
7.583940 33.661800 0.095970
7.899290 33.661800 0.125498
8.214640 33.661800 0.161559
8.529989 33.661800 0.208994
8.845339 33.661800 0.266999
9.160688 33.661800 0.336496
9.476040 33.661800 0.421734
9.791389 33.661800 0.526862
10.106739 33.661800 0.621488
10.422089 33.661800 0.716070
10.737438 33.661800 0.823628
11.052790 33.661800 0.930912
11.368139 33.661800 1.047314
11.683489 33.661800 1.157737
11.998838 33.661800 1.265279
12.314190 33.661800 1.341218
12.629539 33.661800 1.397536
12.944889 33.661800 1.477252
13.260239 33.661800 1.508849
13.575588 33.661800 1.520774
13.890940 33.661800 1.523819
14.206289 33.661800 1.488933
14.521639 33.661800 1.359630
14.836988 33.661800 1.156313
15.152340 33.661800 0.945096
15.467690 33.661800 0.723630
15.783039 33.661800 0.109395
16.098389 33.661800 0.000000
16.413738 33.661800 0.000000
16.729090 33.661800 0.000000
17.044439 33.661800 0.000000
17.359789 33.661800 0.000000
17.675138 33.661800 0.000000
17.990490 33.661800 0.000000
18.305840 33.661800 0.000000
18.621189 33.661800 0.000000
18.936539 33.661800 0.000000
19.251888 33.661800 0.000000
-7.237510 33.346451 0.000000
-6.922160 33.346451 0.003364
-6.606810 33.346451 0.006140
-6.291460 33.346451 0.004870
-5.976110 33.346451 0.004780
-5.660760 33.346451 0.004740
-5.345410 33.346451 0.004793
-5.030060 33.346451 0.004739
-4.714710 33.346451 0.004569
-4.399360 33.346451 0.004433
-4.084010 33.346451 0.004319
-3.768660 33.346451 0.004470
-3.453310 33.346451 0.004504
-3.137960 33.346451 0.004505
-2.822610 33.346451 0.004595
-2.507260 33.346451 0.004580
-2.191910 33.346451 0.004480
-1.876560 33.346451 0.004612
-1.561210 33.346451 0.004620
-1.245860 33.346451 0.004668
-0.930510 33.346451 0.004661
-0.615160 33.346451 0.004662
-0.299810 33.346451 0.004755
0.015540 33.346451 0.004783
0.330890 33.346451 0.004892
0.646240 33.346451 0.004924
0.961589 33.346451 0.005005
1.276940 33.346451 0.005169
1.592289 33.346451 0.005409
1.907640 33.346451 0.005586
2.222990 33.346451 0.005910
2.538340 33.346451 0.006331
2.853690 33.346451 0.006866
3.169039 33.346451 0.007434
3.484390 33.346451 0.008158
3.799739 33.346451 0.008973
4.115090 33.346451 0.010109
4.430439 33.346451 0.011520
4.745790 33.346451 0.013258
5.061140 33.346451 0.015843
5.376490 33.346451 0.019166
5.691840 33.346451 0.023242
6.007189 33.346451 0.028563
6.322540 33.346451 0.035826
6.637889 33.346451 0.045351
6.953240 33.346451 0.057796
7.268589 33.346451 0.074159
7.583940 33.346451 0.096447
7.899290 33.346451 0.124719
8.214640 33.346451 0.163655
8.529989 33.346451 0.207368
8.845339 33.346451 0.265306
9.160688 33.346451 0.334057
9.476040 33.346451 0.420674
9.791389 33.346451 0.527779
10.106739 33.346451 0.626118
10.422089 33.346451 0.724147
10.737438 33.346451 0.837909
11.052790 33.346451 0.940628
11.368139 33.346451 1.046672
11.683489 33.346451 1.152032
11.998838 33.346451 1.258885
12.314190 33.346451 1.328008
12.629539 33.346451 1.400990
12.944889 33.346451 1.452294
13.260239 33.346451 1.490554
13.575588 33.346451 1.513628
13.890940 33.346451 1.522810
14.206289 33.346451 1.483211
14.521639 33.346451 1.339413
14.836988 33.346451 1.160029
15.152340 33.346451 0.944395
15.467690 33.346451 0.718875
15.783039 33.346451 0.099500
16.098389 33.346451 0.000000
16.413738 33.346451 0.000000
16.729090 33.346451 0.000000
17.044439 33.346451 0.000000
17.359789 33.346451 0.000000
17.675138 33.346451 0.000000
17.990490 33.346451 0.000000
18.305840 33.346451 0.000000
18.621189 33.346451 0.000000
18.936539 33.346451 0.000000
19.251888 33.346451 0.000000
-7.237510 33.031101 0.000000
-6.922160 33.031101 0.004387
-6.606810 33.031101 0.006419
-6.291460 33.031101 0.005133
-5.976110 33.031101 0.005113
-5.660760 33.031101 0.005098
-5.345410 33.031101 0.005111
-5.030060 33.031101 0.005073
-4.714710 33.031101 0.004836
-4.399360 33.031101 0.004738
-4.084010 33.031101 0.004717
-3.768660 33.031101 0.004904
-3.453310 33.031101 0.004842
-3.137960 33.031101 0.004839
-2.822610 33.031101 0.004930
-2.507260 33.031101 0.004856
-2.191910 33.031101 0.004770
-1.876560 33.031101 0.004929
-1.561210 33.031101 0.004948
-1.245860 33.031101 0.004899
-0.930510 33.031101 0.004955
-0.615160 33.031101 0.005024
-0.299810 33.031101 0.005044
0.015540 33.031101 0.005090
0.330890 33.031101 0.005227
0.646240 33.031101 0.005242
0.961589 33.031101 0.005308
1.276940 33.031101 0.005467
1.592289 33.031101 0.005730
1.907640 33.031101 0.005949
2.222990 33.031101 0.006170
2.538340 33.031101 0.006629
2.853690 33.031101 0.007120
3.169039 33.031101 0.007691
3.484390 33.031101 0.008353
3.799739 33.031101 0.009295
4.115090 33.031101 0.010524
4.430439 33.031101 0.011814
4.745790 33.031101 0.013710
5.061140 33.031101 0.016191
5.376490 33.031101 0.019428
5.691840 33.031101 0.023460
6.007189 33.031101 0.028653
6.322540 33.031101 0.035684
6.637889 33.031101 0.045332
6.953240 33.031101 0.058240
7.268589 33.031101 0.074781
7.583940 33.031101 0.096945
7.899290 33.031101 0.126182
8.214640 33.031101 0.162127
8.529989 33.031101 0.208678
8.845339 33.031101 0.270233
9.160688 33.031101 0.334778
9.476040 33.031101 0.414282
9.791389 33.031101 0.532581
10.106739 33.031101 0.630579
10.422089 33.031101 0.734032
10.737438 33.031101 0.839219
11.052790 33.031101 0.954193
11.368139 33.031101 1.059987
11.683489 33.031101 1.163932
11.998838 33.031101 1.269228
12.314190 33.031101 1.338622
12.629539 33.031101 1.405464
12.944889 33.031101 1.452976
13.260239 33.031101 1.489827
13.575588 33.031101 1.507467
13.890940 33.031101 1.534560
14.206289 33.031101 1.482974
14.521639 33.031101 1.361161
14.836988 33.031101 1.159520
15.152340 33.031101 0.945761
15.467690 33.031101 0.734155
15.783039 33.031101 0.095382
16.098389 33.031101 0.000000
16.413738 33.031101 0.000000
16.729090 33.031101 0.000000
17.044439 33.031101 0.000000
17.359789 33.031101 0.000000
17.675138 33.031101 0.000000
17.990490 33.031101 0.000000
18.305840 33.031101 0.000000
18.621189 33.031101 0.000000
18.936539 33.031101 0.000000
19.251888 33.031101 0.000000
-7.237510 32.715752 0.000000
-6.922160 32.715752 0.005580
-6.606810 32.715752 0.006626
-6.291460 32.715752 0.005427
-5.976110 32.715752 0.005373
-5.660760 32.715752 0.005414
-5.345410 32.715752 0.005417
-5.030060 32.715752 0.005322
-4.714710 32.715752 0.005129
-4.399360 32.715752 0.005074
-4.084010 32.715752 0.005053
-3.768660 32.715752 0.005271
-3.453310 32.715752 0.005164
-3.137960 32.715752 0.005178
-2.822610 32.715752 0.005181
-2.507260 32.715752 0.005113
-2.191910 32.715752 0.005082
-1.876560 32.715752 0.005197
-1.561210 32.715752 0.005230
-1.245860 32.715752 0.005137
-0.930510 32.715752 0.005288
-0.615160 32.715752 0.005361
-0.299810 32.715752 0.005371
0.015540 32.715752 0.005363
0.330890 32.715752 0.005521
0.646240 32.715752 0.005544
0.961589 32.715752 0.005633
1.276940 32.715752 0.005882
1.592289 32.715752 0.006143
1.907640 32.715752 0.006286
2.222990 32.715752 0.006512
2.538340 32.715752 0.006897
2.853690 32.715752 0.007374
3.169039 32.715752 0.007889
3.484390 32.715752 0.008754
3.799739 32.715752 0.009727
4.115090 32.715752 0.010881
4.430439 32.715752 0.012249
4.745790 32.715752 0.014049
5.061140 32.715752 0.016619
5.376490 32.715752 0.019862
5.691840 32.715752 0.024048
6.007189 32.715752 0.028989
6.322540 32.715752 0.035642
6.637889 32.715752 0.045660
6.953240 32.715752 0.058824
7.268589 32.715752 0.076010
7.583940 32.715752 0.096823
7.899290 32.715752 0.126338
8.214640 32.715752 0.161712
8.529989 32.715752 0.208631
8.845339 32.715752 0.268955
9.160688 32.715752 0.336220
9.476040 32.715752 0.419187
9.791389 32.715752 0.527779
10.106739 32.715752 0.625764
10.422089 32.715752 0.726987
10.737438 32.715752 0.853076
11.052790 32.715752 0.947563
11.368139 32.715752 1.064365
11.683489 32.715752 1.180755
11.998838 32.715752 1.259048
12.314190 32.715752 1.342958
12.629539 32.715752 1.411336
12.944889 32.715752 1.449667
13.260239 32.715752 1.492983
13.575588 32.715752 1.531977
13.890940 32.715752 1.525618
14.206289 32.715752 1.484405
14.521639 32.715752 1.364181
14.836988 32.715752 1.179099
15.152340 32.715752 0.961699
15.467690 32.715752 0.750729
15.783039 32.715752 0.098148
16.098389 32.715752 0.000000
16.413738 32.715752 0.000000
16.729090 32.715752 0.000000
17.044439 32.715752 0.000000
17.359789 32.715752 0.000000
17.675138 32.715752 0.000000
17.990490 32.715752 0.000000
18.305840 32.715752 0.000000
18.621189 32.715752 0.000000
18.936539 32.715752 0.000000
19.251888 32.715752 0.000000
-7.237510 32.400398 0.000000
-6.922160 32.400398 0.006953
-6.606810 32.400398 0.006823
-6.291460 32.400398 0.005574
-5.976110 32.400398 0.005604
-5.660760 32.400398 0.005709
-5.345410 32.400398 0.005704
-5.030060 32.400398 0.005588
-4.714710 32.400398 0.005503
-4.399360 32.400398 0.005444
-4.084010 32.400398 0.005395
-3.768660 32.400398 0.005627
-3.453310 32.400398 0.005563
-3.137960 32.400398 0.005460
-2.822610 32.400398 0.005456
-2.507260 32.400398 0.005433
-2.191910 32.400398 0.005454
-1.876560 32.400398 0.005526
-1.561210 32.400398 0.005490
-1.245860 32.400398 0.005482
-0.930510 32.400398 0.005648
-0.615160 32.400398 0.005696
-0.299810 32.400398 0.005683
0.015540 32.400398 0.005726
0.330890 32.400398 0.005754
0.646240 32.400398 0.005811
0.961589 32.400398 0.006023
1.276940 32.400398 0.006265
1.592289 32.400398 0.006494
1.907640 32.400398 0.006629
2.222990 32.400398 0.006923
2.538340 32.400398 0.007219
2.853690 32.400398 0.007603
3.169039 32.400398 0.008288
3.484390 32.400398 0.009168
3.799739 32.400398 0.010037
4.115090 32.400398 0.011115
4.430439 32.400398 0.012441
4.745790 32.400398 0.014295
5.061140 32.400398 0.016938
5.376490 32.400398 0.020242
5.691840 32.400398 0.024308
6.007189 32.400398 0.029283
6.322540 32.400398 0.035921
6.637889 32.400398 0.045629
6.953240 32.400398 0.059262
7.268589 32.400398 0.076191
7.583940 32.400398 0.097194
7.899290 32.400398 0.125532
8.214640 32.400398 0.161233
8.529989 32.400398 0.212126
8.845339 32.400398 0.270671
9.160688 32.400398 0.341669
9.476040 32.400398 0.421896
9.791389 32.400398 0.529679
10.106739 32.400398 0.633460
10.422089 32.400398 0.725493
10.737438 32.400398 0.834583
11.052790 32.400398 0.953724
11.368139 32.400398 1.071819
11.683489 32.400398 1.188567
11.998838 32.400398 1.274209
12.314190 32.400398 1.356417
12.629539 32.400398 1.425171
12.944889 32.400398 1.453380
13.260239 32.400398 1.499104
13.575588 32.400398 1.555012
13.890940 32.400398 1.532602
14.206289 32.400398 1.483844
14.521639 32.400398 1.373355
14.836988 32.400398 1.187470
15.152340 32.400398 0.988237
15.467690 32.400398 0.779071
15.783039 32.400398 0.115600
16.098389 32.400398 0.000000
16.413738 32.400398 0.000000
16.729090 32.400398 0.000000
17.044439 32.400398 0.000000
17.359789 32.400398 0.000000
17.675138 32.400398 0.000000
17.990490 32.400398 0.000000
18.305840 32.400398 0.000000
18.621189 32.400398 0.000000
18.936539 32.400398 0.000000
19.251888 32.400398 0.000000
-7.237510 32.085052 0.000000
-6.922160 32.085052 0.008182
-6.606810 32.085052 0.007046
-6.291460 32.085052 0.005799
-5.976110 32.085052 0.005878
-5.660760 32.085052 0.005986
-5.345410 32.085052 0.006013
-5.030060 32.085052 0.005967
-4.714710 32.085052 0.005915
-4.399360 32.085052 0.005813
-4.084010 32.085052 0.005779
-3.768660 32.085052 0.005953
-3.453310 32.085052 0.005925
-3.137960 32.085052 0.005804
-2.822610 32.085052 0.005773
-2.507260 32.085052 0.005804
-2.191910 32.085052 0.005862
-1.876560 32.085052 0.005865
-1.561210 32.085052 0.005868
-1.245860 32.085052 0.005856
-0.930510 32.085052 0.005995
-0.615160 32.085052 0.006007
-0.299810 32.085052 0.005972
0.015540 32.085052 0.006054
0.330890 32.085052 0.006099
0.646240 32.085052 0.006176
0.961589 32.085052 0.006268
1.276940 32.085052 0.006615
1.592289 32.085052 0.006864
1.907640 32.085052 0.006971
2.222990 32.085052 0.007269
2.538340 32.085052 0.007576
2.853690 32.085052 0.007973
3.169039 32.085052 0.008653
3.484390 32.085052 0.009543
3.799739 32.085052 0.010378
4.115090 32.085052 0.011314
4.430439 32.085052 0.012669
4.745790 32.085052 0.014632
5.061140 32.085052 0.017253
5.376490 32.085052 0.020690
5.691840 32.085052 0.024666
6.007189 32.085052 0.029647
6.322540 32.085052 0.036120
6.637889 32.085052 0.045750
6.953240 32.085052 0.059311
7.268589 32.085052 0.076055
7.583940 32.085052 0.097476
7.899290 32.085052 0.124772
8.214640 32.085052 0.162843
8.529989 32.085052 0.211179
8.845339 32.085052 0.272080
9.160688 32.085052 0.344595
9.476040 32.085052 0.422033
9.791389 32.085052 0.523141
10.106739 32.085052 0.630725
10.422089 32.085052 0.724889
10.737438 32.085052 0.820806
11.052790 32.085052 0.946362
11.368139 32.085052 1.062555
11.683489 32.085052 1.181889
11.998838 32.085052 1.271563
12.314190 32.085052 1.338124
12.629539 32.085052 1.400033
12.944889 32.085052 1.456569
13.260239 32.085052 1.505659
13.575588 32.085052 1.549420
13.890940 32.085052 1.537531
14.206289 32.085052 1.486014
14.521639 32.085052 1.377518
14.836988 32.085052 1.206945
15.152340 32.085052 1.004925
15.467690 32.085052 0.795576
15.783039 32.085052 0.000000
16.098389 32.085052 0.000000
16.413738 32.085052 0.000000
16.729090 32.085052 0.000000
17.044439 32.085052 0.000000
17.359789 32.085052 0.000000
17.675138 32.085052 0.000000
17.990490 32.085052 0.000000
18.305840 32.085052 0.000000
18.621189 32.085052 0.000000
18.936539 32.085052 0.000000
19.251888 32.085052 0.000000
-7.237510 31.769701 0.000000
-6.922160 31.769701 0.009541
-6.606810 31.769701 0.007465
-6.291460 31.769701 0.006237
-5.976110 31.769701 0.006254
-5.660760 31.769701 0.006316
-5.345410 31.769701 0.006330
-5.030060 31.769701 0.006304
-4.714710 31.769701 0.006357
-4.399360 31.769701 0.006241
-4.084010 31.769701 0.006189
-3.768660 31.769701 0.006338
-3.453310 31.769701 0.006258
-3.137960 31.769701 0.006170
-2.822610 31.769701 0.006181
-2.507260 31.769701 0.006256
-2.191910 31.769701 0.006332
-1.876560 31.769701 0.006256
-1.561210 31.769701 0.006242
-1.245860 31.769701 0.006259
-0.930510 31.769701 0.006290
-0.615160 31.769701 0.006326
-0.299810 31.769701 0.006238
0.015540 31.769701 0.006429
0.330890 31.769701 0.006515
0.646240 31.769701 0.006536
0.961589 31.769701 0.006646
1.276940 31.769701 0.006889
1.592289 31.769701 0.007128
1.907640 31.769701 0.007290
2.222990 31.769701 0.007648
2.538340 31.769701 0.008019
2.853690 31.769701 0.008391
3.169039 31.769701 0.009056
3.484390 31.769701 0.009888
3.799739 31.769701 0.010682
4.115090 31.769701 0.011580
4.430439 31.769701 0.012969
4.745790 31.769701 0.014937
5.061140 31.769701 0.017518
5.376490 31.769701 0.020915
5.691840 31.769701 0.025124
6.007189 31.769701 0.030274
6.322540 31.769701 0.036744
6.637889 31.769701 0.046223
6.953240 31.769701 0.059477
7.268589 31.769701 0.076255
7.583940 31.769701 0.098831
7.899290 31.769701 0.125587
8.214640 31.769701 0.163052
8.529989 31.769701 0.214916
8.845339 31.769701 0.271236
9.160688 31.769701 0.339857
9.476040 31.769701 0.422277
9.791389 31.769701 0.527523
10.106739 31.769701 0.628107
10.422089 31.769701 0.727667
10.737438 31.769701 0.829870
11.052790 31.769701 0.936155
11.368139 31.769701 1.067361
11.683489 31.769701 1.166620
11.998838 31.769701 1.266281
12.314190 31.769701 1.349495
12.629539 31.769701 1.408903
12.944889 31.769701 1.459930
13.260239 31.769701 1.513902
13.575588 31.769701 1.548087
13.890940 31.769701 1.545207
14.206289 31.769701 1.493129
14.521639 31.769701 1.370183
14.836988 31.769701 1.221153
15.152340 31.769701 1.018878
15.467690 31.769701 0.806450
15.783039 31.769701 0.000000
16.098389 31.769701 0.000000
16.413738 31.769701 0.000000
16.729090 31.769701 0.000000
17.044439 31.769701 0.000000
17.359789 31.769701 0.000000
17.675138 31.769701 0.000000
17.990490 31.769701 0.000000
18.305840 31.769701 0.000000
18.621189 31.769701 0.000000
18.936539 31.769701 0.000000
19.251888 31.769701 0.000000
-7.237510 31.454351 0.000000
-6.922160 31.454351 0.010816
-6.606810 31.454351 0.008108
-6.291460 31.454351 0.006738
-5.976110 31.454351 0.006743
-5.660760 31.454351 0.006720
-5.345410 31.454351 0.006694
-5.030060 31.454351 0.006758
-4.714710 31.454351 0.006787
-4.399360 31.454351 0.006655
-4.084010 31.454351 0.006647
-3.768660 31.454351 0.006733
-3.453310 31.454351 0.006602
-3.137960 31.454351 0.006596
-2.822610 31.454351 0.006624
-2.507260 31.454351 0.006722
-2.191910 31.454351 0.006794
-1.876560 31.454351 0.006688
-1.561210 31.454351 0.006650
-1.245860 31.454351 0.006682
-0.930510 31.454351 0.006692
-0.615160 31.454351 0.006641
-0.299810 31.454351 0.006683
0.015540 31.454351 0.006847
0.330890 31.454351 0.006945
0.646240 31.454351 0.006950
0.961589 31.454351 0.007054
1.276940 31.454351 0.007217
1.592289 31.454351 0.007402
1.907640 31.454351 0.007679
2.222990 31.454351 0.008006
2.538340 31.454351 0.008475
2.853690 31.454351 0.008946
3.169039 31.454351 0.009527
3.484390 31.454351 0.010237
3.799739 31.454351 0.011106
4.115090 31.454351 0.011970
4.430439 31.454351 0.013406
4.745790 31.454351 0.015256
5.061140 31.454351 0.017845
5.376490 31.454351 0.021278
5.691840 31.454351 0.025505
6.007189 31.454351 0.030731
6.322540 31.454351 0.037333
6.637889 31.454351 0.046761
6.953240 31.454351 0.059525
7.268589 31.454351 0.076516
7.583940 31.454351 0.098833
7.899290 31.454351 0.127179
8.214640 31.454351 0.164637
8.529989 31.454351 0.217135
8.845339 31.454351 0.274646
9.160688 31.454351 0.343114
9.476040 31.454351 0.422141
9.791389 31.454351 0.527166
10.106739 31.454351 0.630248
10.422089 31.454351 0.725014
10.737438 31.454351 0.828458
11.052790 31.454351 0.956719
11.368139 31.454351 1.059773
11.683489 31.454351 1.175835
11.998838 31.454351 1.264188
12.314190 31.454351 1.357319
12.629539 31.454351 1.425345
12.944889 31.454351 1.475307
13.260239 31.454351 1.526330
13.575588 31.454351 1.547586
13.890940 31.454351 1.562213
14.206289 31.454351 1.493394
14.521639 31.454351 1.368667
14.836988 31.454351 1.216197
15.152340 31.454351 1.041366
15.467690 31.454351 0.836133
15.783039 31.454351 0.000000
16.098389 31.454351 0.000000
16.413738 31.454351 0.000000
16.729090 31.454351 0.000000
17.044439 31.454351 0.000000
17.359789 31.454351 0.000000
17.675138 31.454351 0.000000
17.990490 31.454351 0.000000
18.305840 31.454351 0.000000
18.621189 31.454351 0.000000
18.936539 31.454351 0.000000
19.251888 31.454351 0.000000
-7.237510 31.139000 0.000000
-6.922160 31.139000 0.012072
-6.606810 31.139000 0.008640
-6.291460 31.139000 0.007179
-5.976110 31.139000 0.007175
-5.660760 31.139000 0.007145
-5.345410 31.139000 0.007086
-5.030060 31.139000 0.007213
-4.714710 31.139000 0.007156
-4.399360 31.139000 0.007113
-4.084010 31.139000 0.007184
-3.768660 31.139000 0.007152
-3.453310 31.139000 0.007068
-3.137960 31.139000 0.007111
-2.822610 31.139000 0.007092
-2.507260 31.139000 0.007189
-2.191910 31.139000 0.007152
-1.876560 31.139000 0.007138
-1.561210 31.139000 0.007127
-1.245860 31.139000 0.007097
-0.930510 31.139000 0.007042
-0.615160 31.139000 0.006986
-0.299810 31.139000 0.007089
0.015540 31.139000 0.007361
0.330890 31.139000 0.007503
0.646240 31.139000 0.007431
0.961589 31.139000 0.007566
1.276940 31.139000 0.007641
1.592289 31.139000 0.007784
1.907640 31.139000 0.008034
2.222990 31.139000 0.008416
2.538340 31.139000 0.008985
2.853690 31.139000 0.009415
3.169039 31.139000 0.010015
3.484390 31.139000 0.010558
3.799739 31.139000 0.011399
4.115090 31.139000 0.012438
4.430439 31.139000 0.013838
4.745790 31.139000 0.015592
5.061140 31.139000 0.018146
5.376490 31.139000 0.021512
5.691840 31.139000 0.025862
6.007189 31.139000 0.031306
6.322540 31.139000 0.037617
6.637889 31.139000 0.046668
6.953240 31.139000 0.059978
7.268589 31.139000 0.076802
7.583940 31.139000 0.098751
7.899290 31.139000 0.128362
8.214640 31.139000 0.168849
8.529989 31.139000 0.217941
8.845339 31.139000 0.275753
9.160688 31.139000 0.344651
9.476040 31.139000 0.423994
9.791389 31.139000 0.525931
10.106739 31.139000 0.628272
10.422089 31.139000 0.728190
10.737438 31.139000 0.839967
11.052790 31.139000 0.954516
11.368139 31.139000 1.063275
11.683489 31.139000 1.182033
11.998838 31.139000 1.280377
12.314190 31.139000 1.364720
12.629539 31.139000 1.432429
12.944889 31.139000 1.483330
13.260239 31.139000 1.526873
13.575588 31.139000 1.546880
13.890940 31.139000 1.550539
14.206289 31.139000 1.486767
14.521639 31.139000 1.370222
14.836988 31.139000 1.219647
15.152340 31.139000 1.052133
15.467690 31.139000 0.840984
15.783039 31.139000 0.000000
16.098389 31.139000 0.000000
16.413738 31.139000 0.000000
16.729090 31.139000 0.000000
17.044439 31.139000 0.000000
17.359789 31.139000 0.000000
17.675138 31.139000 0.000000
17.990490 31.139000 0.000000
18.305840 31.139000 0.000000
18.621189 31.139000 0.000000
18.936539 31.139000 0.000000
19.251888 31.139000 0.000000
-7.237510 30.823650 0.000000
-6.922160 30.823650 0.013135
-6.606810 30.823650 0.009193
-6.291460 30.823650 0.007549
-5.976110 30.823650 0.007619
-5.660760 30.823650 0.007589
-5.345410 30.823650 0.007500
-5.030060 30.823650 0.007609
-4.714710 30.823650 0.007661
-4.399360 30.823650 0.007638
-4.084010 30.823650 0.007600
-3.768660 30.823650 0.007537
-3.453310 30.823650 0.007558
-3.137960 30.823650 0.007564
-2.822610 30.823650 0.007575
-2.507260 30.823650 0.007660
-2.191910 30.823650 0.007553
-1.876560 30.823650 0.007532
-1.561210 30.823650 0.007495
-1.245860 30.823650 0.007568
-0.930510 30.823650 0.007513
-0.615160 30.823650 0.007456
-0.299810 30.823650 0.007605
0.015540 30.823650 0.007871
0.330890 30.823650 0.007962
0.646240 30.823650 0.007938
0.961589 30.823650 0.008118
1.276940 30.823650 0.008119
1.592289 30.823650 0.008243
1.907640 30.823650 0.008433
2.222990 30.823650 0.008781
2.538340 30.823650 0.009397
2.853690 30.823650 0.009903
3.169039 30.823650 0.010353
3.484390 30.823650 0.010903
3.799739 30.823650 0.011712
4.115090 30.823650 0.012900
4.430439 30.823650 0.014310
4.745790 30.823650 0.016124
5.061140 30.823650 0.018466
5.376490 30.823650 0.021847
5.691840 30.823650 0.026087
6.007189 30.823650 0.031614
6.322540 30.823650 0.038277
6.637889 30.823650 0.047526
6.953240 30.823650 0.059652
7.268589 30.823650 0.076446
7.583940 30.823650 0.099440
7.899290 30.823650 0.128347
8.214640 30.823650 0.167085
8.529989 30.823650 0.214628
8.845339 30.823650 0.273383
9.160688 30.823650 0.341823
9.476040 30.823650 0.425112
9.791389 30.823650 0.527823
10.106739 30.823650 0.627900
10.422089 30.823650 0.724430
10.737438 30.823650 0.841182
11.052790 30.823650 0.944025
11.368139 30.823650 1.060359
11.683489 30.823650 1.161462
11.998838 30.823650 1.267806
12.314190 30.823650 1.360920
12.629539 30.823650 1.435885
12.944889 30.823650 1.481634
13.260239 30.823650 1.512059
13.575588 30.823650 1.550026
13.890940 30.823650 1.540835
14.206289 30.823650 1.495403
14.521639 30.823650 1.378471
14.836988 30.823650 1.230388
15.152340 30.823650 1.052291
15.467690 30.823650 0.848972
15.783039 30.823650 0.000000
16.098389 30.823650 0.000000
16.413738 30.823650 0.000000
16.729090 30.823650 0.000000
17.044439 30.823650 0.000000
17.359789 30.823650 0.000000
17.675138 30.823650 0.000000
17.990490 30.823650 0.000000
18.305840 30.823650 0.000000
18.621189 30.823650 0.000000
18.936539 30.823650 0.000000
19.251888 30.823650 0.000000
-7.237510 30.508301 0.000000
-6.922160 30.508301 0.013955
-6.606810 30.508301 0.009636
-6.291460 30.508301 0.007909
-5.976110 30.508301 0.008071
-5.660760 30.508301 0.008075
-5.345410 30.508301 0.008001
-5.030060 30.508301 0.008142
-4.714710 30.508301 0.008130
-4.399360 30.508301 0.008078
-4.084010 30.508301 0.008111
-3.768660 30.508301 0.008005
-3.453310 30.508301 0.008012
-3.137960 30.508301 0.008002
-2.822610 30.508301 0.008053
-2.507260 30.508301 0.008081
-2.191910 30.508301 0.007956
-1.876560 30.508301 0.007938
-1.561210 30.508301 0.007861
-1.245860 30.508301 0.007996
-0.930510 30.508301 0.008044
-0.615160 30.508301 0.007987
-0.299810 30.508301 0.008119
0.015540 30.508301 0.008329
0.330890 30.508301 0.008480
0.646240 30.508301 0.008478
0.961589 30.508301 0.008644
1.276940 30.508301 0.008623
1.592289 30.508301 0.008676
1.907640 30.508301 0.008767
2.222990 30.508301 0.009153
2.538340 30.508301 0.009807
2.853690 30.508301 0.010306
3.169039 30.508301 0.010757
3.484390 30.508301 0.011263
3.799739 30.508301 0.012086
4.115090 30.508301 0.013454
4.430439 30.508301 0.014950
4.745790 30.508301 0.016651
5.061140 30.508301 0.018932
5.376490 30.508301 0.022095
5.691840 30.508301 0.026409
6.007189 30.508301 0.031870
6.322540 30.508301 0.038377
6.637889 30.508301 0.047394
6.953240 30.508301 0.059509
7.268589 30.508301 0.076518
7.583940 30.508301 0.097693
7.899290 30.508301 0.127515
8.214640 30.508301 0.166230
8.529989 30.508301 0.212241
8.845339 30.508301 0.270480
9.160688 30.508301 0.340851
9.476040 30.508301 0.427132
9.791389 30.508301 0.530269
10.106739 30.508301 0.625718
10.422089 30.508301 0.727223
10.737438 30.508301 0.834439
11.052790 30.508301 0.960356
11.368139 30.508301 1.055512
11.683489 30.508301 1.170228
11.998838 30.508301 1.266301
12.314190 30.508301 1.368264
12.629539 30.508301 1.423809
12.944889 30.508301 1.473608
13.260239 30.508301 1.517478
13.575588 30.508301 1.549430
13.890940 30.508301 1.557366
14.206289 30.508301 1.495152
14.521639 30.508301 1.388437
14.836988 30.508301 1.221736
15.152340 30.508301 1.055247
15.467690 30.508301 0.851523
15.783039 30.508301 0.000000
16.098389 30.508301 0.000000
16.413738 30.508301 0.000000
16.729090 30.508301 0.000000
17.044439 30.508301 0.000000
17.359789 30.508301 0.000000
17.675138 30.508301 0.000000
17.990490 30.508301 0.000000
18.305840 30.508301 0.000000
18.621189 30.508301 0.000000
18.936539 30.508301 0.000000
19.251888 30.508301 0.000000
-7.237510 30.192951 0.000000
-6.922160 30.192951 0.014450
-6.606810 30.192951 0.010071
-6.291460 30.192951 0.008486
-5.976110 30.192951 0.008553
-5.660760 30.192951 0.008456
-5.345410 30.192951 0.008451
-5.030060 30.192951 0.008602
-4.714710 30.192951 0.008558
-4.399360 30.192951 0.008489
-4.084010 30.192951 0.008519
-3.768660 30.192951 0.008501
-3.453310 30.192951 0.008487
-3.137960 30.192951 0.008448
-2.822610 30.192951 0.008523
-2.507260 30.192951 0.008502
-2.191910 30.192951 0.008347
-1.876560 30.192951 0.008310
-1.561210 30.192951 0.008342
-1.245860 30.192951 0.008524
-0.930510 30.192951 0.008549
-0.615160 30.192951 0.008487
-0.299810 30.192951 0.008578
0.015540 30.192951 0.008806
0.330890 30.192951 0.008992
0.646240 30.192951 0.009036
0.961589 30.192951 0.009070
1.276940 30.192951 0.009115
1.592289 30.192951 0.009083
1.907640 30.192951 0.009075
2.222990 30.192951 0.009590
2.538340 30.192951 0.010201
2.853690 30.192951 0.010731
3.169039 30.192951 0.011219
3.484390 30.192951 0.011710
3.799739 30.192951 0.012635
4.115090 30.192951 0.014059
4.430439 30.192951 0.015604
4.745790 30.192951 0.017182
5.061140 30.192951 0.019335
5.376490 30.192951 0.022426
5.691840 30.192951 0.026689
6.007189 30.192951 0.032144
6.322540 30.192951 0.038829
6.637889 30.192951 0.047626
6.953240 30.192951 0.059317
7.268589 30.192951 0.075778
7.583940 30.192951 0.098408
7.899290 30.192951 0.127497
8.214640 30.192951 0.165495
8.529989 30.192951 0.215015
8.845339 30.192951 0.272708
9.160688 30.192951 0.343496
9.476040 30.192951 0.427669
9.791389 30.192951 0.531559
10.106739 30.192951 0.630990
10.422089 30.192951 0.725525
10.737438 30.192951 0.844409
11.052790 30.192951 0.965155
11.368139 30.192951 1.074947
11.683489 30.192951 1.164814
11.998838 30.192951 1.267651
12.314190 30.192951 1.373719
12.629539 30.192951 1.411810
12.944889 30.192951 1.475647
13.260239 30.192951 1.518622
13.575588 30.192951 1.556191
13.890940 30.192951 1.556639
14.206289 30.192951 1.496521
14.521639 30.192951 1.393077
14.836988 30.192951 1.231645
15.152340 30.192951 1.054197
15.467690 30.192951 0.860057
15.783039 30.192951 0.000000
16.098389 30.192951 0.000000
16.413738 30.192951 0.000000
16.729090 30.192951 0.000000
17.044439 30.192951 0.000000
17.359789 30.192951 0.000000
17.675138 30.192951 0.000000
17.990490 30.192951 0.000000
18.305840 30.192951 0.000000
18.621189 30.192951 0.000000
18.936539 30.192951 0.000000
19.251888 30.192951 0.000000
-7.237510 29.877602 0.000000
-6.922160 29.877602 0.014825
-6.606810 29.877602 0.010545
-6.291460 29.877602 0.009092
-5.976110 29.877602 0.009185
-5.660760 29.877602 0.008868
-5.345410 29.877602 0.008874
-5.030060 29.877602 0.008979
-4.714710 29.877602 0.008955
-4.399360 29.877602 0.008871
-4.084010 29.877602 0.008990
-3.768660 29.877602 0.009006
-3.453310 29.877602 0.008929
-3.137960 29.877602 0.008974
-2.822610 29.877602 0.009067
-2.507260 29.877602 0.008980
-2.191910 29.877602 0.008779
-1.876560 29.877602 0.008790
-1.561210 29.877602 0.008867
-1.245860 29.877602 0.009024
-0.930510 29.877602 0.009016
-0.615160 29.877602 0.008990
-0.299810 29.877602 0.009063
0.015540 29.877602 0.009211
0.330890 29.877602 0.009412
0.646240 29.877602 0.009516
0.961589 29.877602 0.009542
1.276940 29.877602 0.009596
1.592289 29.877602 0.009547
1.907640 29.877602 0.009588
2.222990 29.877602 0.010047
2.538340 29.877602 0.010586
2.853690 29.877602 0.011154
3.169039 29.877602 0.011706
3.484390 29.877602 0.012226
3.799739 29.877602 0.013083
4.115090 29.877602 0.014562
4.430439 29.877602 0.016261
4.745790 29.877602 0.017722
5.061140 29.877602 0.019809
5.376490 29.877602 0.022819
5.691840 29.877602 0.027148
6.007189 29.877602 0.032445
6.322540 29.877602 0.039349
6.637889 29.877602 0.048223
6.953240 29.877602 0.059417
7.268589 29.877602 0.075840
7.583940 29.877602 0.098640
7.899290 29.877602 0.127356
8.214640 29.877602 0.164413
8.529989 29.877602 0.215959
8.845339 29.877602 0.273070
9.160688 29.877602 0.343825
9.476040 29.877602 0.432984
9.791389 29.877602 0.530923
10.106739 29.877602 0.626311
10.422089 29.877602 0.733717
10.737438 29.877602 0.845366
11.052790 29.877602 0.967078
11.368139 29.877602 1.066804
11.683489 29.877602 1.164411
11.998838 29.877602 1.273741
12.314190 29.877602 1.353713
12.629539 29.877602 1.420493
12.944889 29.877602 1.491459
13.260239 29.877602 1.524180
13.575588 29.877602 1.551623
13.890940 29.877602 1.553734
14.206289 29.877602 1.506937
14.521639 29.877602 1.372844
14.836988 29.877602 1.242861
15.152340 29.877602 1.054325
15.467690 29.877602 0.863727
15.783039 29.877602 0.000000
16.098389 29.877602 0.000000
16.413738 29.877602 0.000000
16.729090 29.877602 0.000000
17.044439 29.877602 0.000000
17.359789 29.877602 0.000000
17.675138 29.877602 0.000000
17.990490 29.877602 0.000000
18.305840 29.877602 0.000000
18.621189 29.877602 0.000000
18.936539 29.877602 0.000000
19.251888 29.877602 0.000000
-7.237510 29.562250 0.000000
-6.922160 29.562250 0.015062
-6.606810 29.562250 0.010768
-6.291460 29.562250 0.009516
-5.976110 29.562250 0.009584
-5.660760 29.562250 0.009288
-5.345410 29.562250 0.009241
-5.030060 29.562250 0.009315
-4.714710 29.562250 0.009341
-4.399360 29.562250 0.009402
-4.084010 29.562250 0.009419
-3.768660 29.562250 0.009544
-3.453310 29.562250 0.009539
-3.137960 29.562250 0.009512
-2.822610 29.562250 0.009491
-2.507260 29.562250 0.009429
-2.191910 29.562250 0.009293
-1.876560 29.562250 0.009358
-1.561210 29.562250 0.009381
-1.245860 29.562250 0.009506
-0.930510 29.562250 0.009558
-0.615160 29.562250 0.009474
-0.299810 29.562250 0.009500
0.015540 29.562250 0.009585
0.330890 29.562250 0.009869
0.646240 29.562250 0.010088
0.961589 29.562250 0.010087
1.276940 29.562250 0.010165
1.592289 29.562250 0.010209
1.907640 29.562250 0.010226
2.222990 29.562250 0.010439
2.538340 29.562250 0.010963
2.853690 29.562250 0.011617
3.169039 29.562250 0.012211
3.484390 29.562250 0.012842
3.799739 29.562250 0.013694
4.115090 29.562250 0.015189
4.430439 29.562250 0.016787
4.745790 29.562250 0.018166
5.061140 29.562250 0.020324
5.376490 29.562250 0.023354
5.691840 29.562250 0.027532
6.007189 29.562250 0.032832
6.322540 29.562250 0.039841
6.637889 29.562250 0.048783
6.953240 29.562250 0.060050
7.268589 29.562250 0.076470
7.583940 29.562250 0.099383
7.899290 29.562250 0.130651
8.214640 29.562250 0.170689
8.529989 29.562250 0.218899
8.845339 29.562250 0.275110
9.160688 29.562250 0.346195
9.476040 29.562250 0.439048
9.791389 29.562250 0.535135
10.106739 29.562250 0.632718
10.422089 29.562250 0.737565
10.737438 29.562250 0.838884
11.052790 29.562250 0.966582
11.368139 29.562250 1.088913
11.683489 29.562250 1.171717
11.998838 29.562250 1.281259
12.314190 29.562250 1.369055
12.629539 29.562250 1.443498
12.944889 29.562250 1.500797
13.260239 29.562250 1.539555
13.575588 29.562250 1.555749
13.890940 29.562250 1.535303
14.206289 29.562250 1.470577
14.521639 29.562250 1.380866
14.836988 29.562250 1.217442
15.152340 29.562250 1.040787
15.467690 29.562250 0.863222
15.783039 29.562250 0.000000
16.098389 29.562250 0.000000
16.413738 29.562250 0.000000
16.729090 29.562250 0.000000
17.044439 29.562250 0.000000
17.359789 29.562250 0.000000
17.675138 29.562250 0.000000
17.990490 29.562250 0.000000
18.305840 29.562250 1.247461
18.621189 29.562250 1.547931
18.936539 29.562250 0.748831
19.251888 29.562250 0.000000
-7.237510 29.246901 0.000000
-6.922160 29.246901 0.015320
-6.606810 29.246901 0.010974
-6.291460 29.246901 0.009828
-5.976110 29.246901 0.009784
-5.660760 29.246901 0.009637
-5.345410 29.246901 0.009562
-5.030060 29.246901 0.009663
-4.714710 29.246901 0.009696
-4.399360 29.246901 0.009766
-4.084010 29.246901 0.009720
-3.768660 29.246901 0.009746
-3.453310 29.246901 0.009813
-3.137960 29.246901 0.009908
-2.822610 29.246901 0.009905
-2.507260 29.246901 0.009845
-2.191910 29.246901 0.009755
-1.876560 29.246901 0.009866
-1.561210 29.246901 0.009870
-1.245860 29.246901 0.009923
-0.930510 29.246901 0.010076
-0.615160 29.246901 0.010006
-0.299810 29.246901 0.010004
0.015540 29.246901 0.010030
0.330890 29.246901 0.010298
0.646240 29.246901 0.010597
0.961589 29.246901 0.010672
1.276940 29.246901 0.010849
1.592289 29.246901 0.010886
1.907640 29.246901 0.010834
2.222990 29.246901 0.010950
2.538340 29.246901 0.011389
2.853690 29.246901 0.012170
3.169039 29.246901 0.012788
3.484390 29.246901 0.013476
3.799739 29.246901 0.014376
4.115090 29.246901 0.015684
4.430439 29.246901 0.017178
4.745790 29.246901 0.018766
5.061140 29.246901 0.020787
5.376490 29.246901 0.023832
5.691840 29.246901 0.027788
6.007189 29.246901 0.033233
6.322540 29.246901 0.039909
6.637889 29.246901 0.049046
6.953240 29.246901 0.061452
7.268589 29.246901 0.076370
7.583940 29.246901 0.099173
7.899290 29.246901 0.130513
8.214640 29.246901 0.170534
8.529989 29.246901 0.220281
8.845339 29.246901 0.277721
9.160688 29.246901 0.352420
9.476040 29.246901 0.436122
9.791389 29.246901 0.537694
10.106739 29.246901 0.630970
10.422089 29.246901 0.729709
10.737438 29.246901 0.842367
11.052790 29.246901 0.965449
11.368139 29.246901 1.084021
11.683489 29.246901 1.183197
11.998838 29.246901 1.299355
12.314190 29.246901 1.390137
12.629539 29.246901 1.456888
12.944889 29.246901 1.533723
13.260239 29.246901 1.555002
13.575588 29.246901 1.549356
13.890940 29.246901 1.549104
14.206289 29.246901 1.467439
14.521639 29.246901 1.382041
14.836988 29.246901 1.246447
15.152340 29.246901 1.052846
15.467690 29.246901 0.850495
15.783039 29.246901 0.000000
16.098389 29.246901 0.000000
16.413738 29.246901 0.000000
16.729090 29.246901 0.000000
17.044439 29.246901 0.000000
17.359789 29.246901 0.000000
17.675138 29.246901 0.000000
17.990490 29.246901 0.000000
18.305840 29.246901 0.869409
18.621189 29.246901 0.984970
18.936539 29.246901 0.847206
19.251888 29.246901 0.000000
-7.237510 28.931551 0.000000
-6.922160 28.931551 0.015509
-6.606810 28.931551 0.011234
-6.291460 28.931551 0.009965
-5.976110 28.931551 0.010101
-5.660760 28.931551 0.010072
-5.345410 28.931551 0.010037
-5.030060 28.931551 0.010060
-4.714710 28.931551 0.010108
-4.399360 28.931551 0.010103
-4.084010 28.931551 0.009915
-3.768660 28.931551 0.009868
-3.453310 28.931551 0.010016
-3.137960 28.931551 0.010220
-2.822610 28.931551 0.010239
-2.507260 28.931551 0.010212
-2.191910 28.931551 0.010271
-1.876560 28.931551 0.010252
-1.561210 28.931551 0.010297
-1.245860 28.931551 0.010333
-0.930510 28.931551 0.010557
-0.615160 28.931551 0.010568
-0.299810 28.931551 0.010526
0.015540 28.931551 0.010451
0.330890 28.931551 0.010624
0.646240 28.931551 0.011004
0.961589 28.931551 0.011233
1.276940 28.931551 0.011426
1.592289 28.931551 0.011549
1.907640 28.931551 0.011515
2.222990 28.931551 0.011519
2.538340 28.931551 0.011966
2.853690 28.931551 0.012751
3.169039 28.931551 0.013444
3.484390 28.931551 0.014116
3.799739 28.931551 0.015015
4.115090 28.931551 0.016151
4.430439 28.931551 0.017519
4.745790 28.931551 0.019155
5.061140 28.931551 0.021396
5.376490 28.931551 0.024405
5.691840 28.931551 0.028298
6.007189 28.931551 0.033382
6.322540 28.931551 0.040006
6.637889 28.931551 0.049008
6.953240 28.931551 0.061617
7.268589 28.931551 0.077156
7.583940 28.931551 0.099881
7.899290 28.931551 0.129356
8.214640 28.931551 0.170346
8.529989 28.931551 0.218284
8.845339 28.931551 0.279185
9.160688 28.931551 0.352142
9.476040 28.931551 0.437884
9.791389 28.931551 0.537598
10.106739 28.931551 0.638957
10.422089 28.931551 0.742415
10.737438 28.931551 0.847256
11.052790 28.931551 0.959970
11.368139 28.931551 1.083818
11.683489 28.931551 1.194278
11.998838 28.931551 1.306877
12.314190 28.931551 1.393196
12.629539 28.931551 1.476757
12.944889 28.931551 1.536788
13.260239 28.931551 1.580115
13.575588 28.931551 1.565176
13.890940 28.931551 1.547850
14.206289 28.931551 1.492004
14.521639 28.931551 1.387793
14.836988 28.931551 1.252516
15.152340 28.931551 1.061555
15.467690 28.931551 0.850940
15.783039 28.931551 0.000000
16.098389 28.931551 0.000000
16.413738 28.931551 0.000000
16.729090 28.931551 0.000000
17.044439 28.931551 0.000000
17.359789 28.931551 0.000000
17.675138 28.931551 0.000000
17.990490 28.931551 0.000000
18.305840 28.931551 1.233486
18.621189 28.931551 1.526601
18.936539 28.931551 1.325761
19.251888 28.931551 0.000000
-7.237510 28.616201 0.000000
-6.922160 28.616201 0.015822
-6.606810 28.616201 0.011470
-6.291460 28.616201 0.010252
-5.976110 28.616201 0.010437
-5.660760 28.616201 0.010473
-5.345410 28.616201 0.010515
-5.030060 28.616201 0.010449
-4.714710 28.616201 0.010432
-4.399360 28.616201 0.010376
-4.084010 28.616201 0.010215
-3.768660 28.616201 0.010002
-3.453310 28.616201 0.010148
-3.137960 28.616201 0.010415
-2.822610 28.616201 0.010575
-2.507260 28.616201 0.010606
-2.191910 28.616201 0.010686
-1.876560 28.616201 0.010677
-1.561210 28.616201 0.010636
-1.245860 28.616201 0.010736
-0.930510 28.616201 0.010938
-0.615160 28.616201 0.011072
-0.299810 28.616201 0.011056
0.015540 28.616201 0.010910
0.330890 28.616201 0.011001
0.646240 28.616201 0.011443
0.961589 28.616201 0.011698
1.276940 28.616201 0.011972
1.592289 28.616201 0.012074
1.907640 28.616201 0.012168
2.222990 28.616201 0.012180
2.538340 28.616201 0.012498
2.853690 28.616201 0.013257
3.169039 28.616201 0.014013
3.484390 28.616201 0.014743
3.799739 28.616201 0.015541
4.115090 28.616201 0.016609
4.430439 28.616201 0.017894
4.745790 28.616201 0.019607
5.061140 28.616201 0.022051
5.376490 28.616201 0.025113
5.691840 28.616201 0.028943
6.007189 28.616201 0.033858
6.322540 28.616201 0.040346
6.637889 28.616201 0.049410
6.953240 28.616201 0.062316
7.268589 28.616201 0.077477
7.583940 28.616201 0.100799
7.899290 28.616201 0.130622
8.214640 28.616201 0.168701
8.529989 28.616201 0.219990
8.845339 28.616201 0.278843
9.160688 28.616201 0.354078
9.476040 28.616201 0.445498
9.791389 28.616201 0.543740
10.106739 28.616201 0.651601
10.422089 28.616201 0.751853
10.737438 28.616201 0.857995
11.052790 28.616201 0.968685
11.368139 28.616201 1.078095
11.683489 28.616201 1.194470
11.998838 28.616201 1.305299
12.314190 28.616201 1.402643
12.629539 28.616201 1.475516
12.944889 28.616201 1.544510
13.260239 28.616201 1.566818
13.575588 28.616201 1.591776
13.890940 28.616201 1.559487
14.206289 28.616201 1.502814
14.521639 28.616201 1.412254
14.836988 28.616201 1.281814
15.152340 28.616201 1.069014
15.467690 28.616201 0.874199
15.783039 28.616201 0.000000
16.098389 28.616201 0.000000
16.413738 28.616201 0.000000
16.729090 28.616201 0.000000
17.044439 28.616201 0.000000
17.359789 28.616201 0.000000
17.675138 28.616201 0.000000
17.990490 28.616201 0.000000
18.305840 28.616201 1.238786
18.621189 28.616201 1.600821
18.936539 28.616201 1.178769
19.251888 28.616201 0.000000
-7.237510 28.300850 0.000000
-6.922160 28.300850 0.016364
-6.606810 28.300850 0.011865
-6.291460 28.300850 0.010580
-5.976110 28.300850 0.010783
-5.660760 28.300850 0.010781
-5.345410 28.300850 0.010827
-5.030060 28.300850 0.010775
-4.714710 28.300850 0.010742
-4.399360 28.300850 0.010679
-4.084010 28.300850 0.010555
-3.768660 28.300850 0.010255
-3.453310 28.300850 0.010310
-3.137960 28.300850 0.010527
-2.822610 28.300850 0.010765
-2.507260 28.300850 0.011015
-2.191910 28.300850 0.011180
-1.876560 28.300850 0.011067
-1.561210 28.300850 0.010979
-1.245860 28.300850 0.011089
-0.930510 28.300850 0.011301
-0.615160 28.300850 0.011471
-0.299810 28.300850 0.011546
0.015540 28.300850 0.011450
0.330890 28.300850 0.011555
0.646240 28.300850 0.011844
0.961589 28.300850 0.012039
1.276940 28.300850 0.012377
1.592289 28.300850 0.012545
1.907640 28.300850 0.012674
2.222990 28.300850 0.012762
2.538340 28.300850 0.013017
2.853690 28.300850 0.013673
3.169039 28.300850 0.014493
3.484390 28.300850 0.015304
3.799739 28.300850 0.016135
4.115090 28.300850 0.017103
4.430439 28.300850 0.018339
4.745790 28.300850 0.020117
5.061140 28.300850 0.022698
5.376490 28.300850 0.025849
5.691840 28.300850 0.029421
6.007189 28.300850 0.034084
6.322540 28.300850 0.040463
6.637889 28.300850 0.049865
6.953240 28.300850 0.061940
7.268589 28.300850 0.078261
7.583940 28.300850 0.100762
7.899290 28.300850 0.132343
8.214640 28.300850 0.171741
8.529989 28.300850 0.222787
8.845339 28.300850 0.282598
9.160688 28.300850 0.361935
9.476040 28.300850 0.445546
9.791389 28.300850 0.545688
10.106739 28.300850 0.661853
10.422089 28.300850 0.748738
10.737438 28.300850 0.860877
11.052790 28.300850 0.975106
11.368139 28.300850 1.073539
11.683489 28.300850 1.195796
11.998838 28.300850 1.291760
12.314190 28.300850 1.386977
12.629539 28.300850 1.480086
12.944889 28.300850 1.528283
13.260239 28.300850 1.561753
13.575588 28.300850 1.588631
13.890940 28.300850 1.564246
14.206289 28.300850 1.510566
14.521639 28.300850 1.426124
14.836988 28.300850 1.292618
15.152340 28.300850 1.091343
15.467690 28.300850 0.890195
15.783039 28.300850 0.000000
16.098389 28.300850 0.000000
16.413738 28.300850 0.000000
16.729090 28.300850 0.000000
17.044439 28.300850 0.000000
17.359789 28.300850 0.000000
17.675138 28.300850 0.000000
17.990490 28.300850 0.000000
18.305840 28.300850 1.347866
18.621189 28.300850 1.588046
18.936539 28.300850 0.762616
19.251888 28.300850 0.000000
-7.237510 27.985500 0.000000
-6.922160 27.985500 0.017180
-6.606810 27.985500 0.012472
-6.291460 27.985500 0.010872
-5.976110 27.985500 0.010986
-5.660760 27.985500 0.010913
-5.345410 27.985500 0.011012
-5.030060 27.985500 0.010997
-4.714710 27.985500 0.010975
-4.399360 27.985500 0.010890
-4.084010 27.985500 0.010821
-3.768660 27.985500 0.010687
-3.453310 27.985500 0.010670
-3.137960 27.985500 0.010637
-2.822610 27.985500 0.010991
-2.507260 27.985500 0.011205
-2.191910 27.985500 0.011456
-1.876560 27.985500 0.011499
-1.561210 27.985500 0.011396
-1.245860 27.985500 0.011467
-0.930510 27.985500 0.011575
-0.615160 27.985500 0.011792
-0.299810 27.985500 0.011901
0.015540 27.985500 0.011986
0.330890 27.985500 0.012199
0.646240 27.985500 0.012325
0.961589 27.985500 0.012490
1.276940 27.985500 0.012685
1.592289 27.985500 0.012959
1.907640 27.985500 0.013129
2.222990 27.985500 0.013281
2.538340 27.985500 0.013482
2.853690 27.985500 0.014143
3.169039 27.985500 0.014925
3.484390 27.985500 0.015764
3.799739 27.985500 0.016623
4.115090 27.985500 0.017598
4.430439 27.985500 0.018809
4.745790 27.985500 0.020662
5.061140 27.985500 0.023332
5.376490 27.985500 0.026364
5.691840 27.985500 0.029991
6.007189 27.985500 0.034271
6.322540 27.985500 0.040658
6.637889 27.985500 0.049609
6.953240 27.985500 0.061759
7.268589 27.985500 0.078744
7.583940 27.985500 0.100886
7.899290 27.985500 0.131337
8.214640 27.985500 0.171750
8.529989 27.985500 0.221938
8.845339 27.985500 0.284781
9.160688 27.985500 0.355375
9.476040 27.985500 0.442942
9.791389 27.985500 0.547413
10.106739 27.985500 0.650737
10.422089 27.985500 0.749070
10.737438 27.985500 0.862059
11.052790 27.985500 0.981344
11.368139 27.985500 1.088828
11.683489 27.985500 1.190196
11.998838 27.985500 1.299867
12.314190 27.985500 1.381462
12.629539 27.985500 1.460648
12.944889 27.985500 1.523655
13.260239 27.985500 1.573375
13.575588 27.985500 1.589352
13.890940 27.985500 1.578729
14.206289 27.985500 1.536749
14.521639 27.985500 1.443488
14.836988 27.985500 1.327302
15.152340 27.985500 1.117228
15.467690 27.985500 0.897664
15.783039 27.985500 0.000000
16.098389 27.985500 0.000000
16.413738 27.985500 0.000000
16.729090 27.985500 0.000000
17.044439 27.985500 0.000000
17.359789 27.985500 0.000000
17.675138 27.985500 0.000000
17.990490 27.985500 0.000000
18.305840 27.985500 1.363833
18.621189 27.985500 1.560279
18.936539 27.985500 0.868091
19.251888 27.985500 0.000000
-7.237510 27.670151 0.000000
-6.922160 27.670151 0.017757
-6.606810 27.670151 0.012897
-6.291460 27.670151 0.011179
-5.976110 27.670151 0.011274
-5.660760 27.670151 0.011067
-5.345410 27.670151 0.011198
-5.030060 27.670151 0.011343
-4.714710 27.670151 0.011316
-4.399360 27.670151 0.011124
-4.084010 27.670151 0.011078
-3.768660 27.670151 0.011016
-3.453310 27.670151 0.010884
-3.137960 27.670151 0.010861
-2.822610 27.670151 0.011110
-2.507260 27.670151 0.011398
-2.191910 27.670151 0.011506
-1.876560 27.670151 0.011740
-1.561210 27.670151 0.011820
-1.245860 27.670151 0.011827
-0.930510 27.670151 0.011830
-0.615160 27.670151 0.012041
-0.299810 27.670151 0.012157
0.015540 27.670151 0.012360
0.330890 27.670151 0.012664
0.646240 27.670151 0.012755
0.961589 27.670151 0.012792
1.276940 27.670151 0.013095
1.592289 27.670151 0.013361
1.907640 27.670151 0.013472
2.222990 27.670151 0.013733
2.538340 27.670151 0.013999
2.853690 27.670151 0.014540
3.169039 27.670151 0.015294
3.484390 27.670151 0.016128
3.799739 27.670151 0.017001
4.115090 27.670151 0.018038
4.430439 27.670151 0.019294
4.745790 27.670151 0.021213
5.061140 27.670151 0.023795
5.376490 27.670151 0.026789
5.691840 27.670151 0.030328
6.007189 27.670151 0.034513
6.322540 27.670151 0.040950
6.637889 27.670151 0.049734
6.953240 27.670151 0.061857
7.268589 27.670151 0.078638
7.583940 27.670151 0.101413
7.899290 27.670151 0.132490
8.214640 27.670151 0.171638
8.529989 27.670151 0.222718
8.845339 27.670151 0.280117
9.160688 27.670151 0.354945
9.476040 27.670151 0.443293
9.791389 27.670151 0.546046
10.106739 27.670151 0.647959
10.422089 27.670151 0.750277
10.737438 27.670151 0.871344
11.052790 27.670151 0.990251
11.368139 27.670151 1.102033
11.683489 27.670151 1.208938
11.998838 27.670151 1.290109
12.314190 27.670151 1.384392
12.629539 27.670151 1.466028
12.944889 27.670151 1.523149
13.260239 27.670151 1.582196
13.575588 27.670151 1.600057
13.890940 27.670151 1.576368
14.206289 27.670151 1.560804
14.521639 27.670151 1.473108
14.836988 27.670151 1.326702
15.152340 27.670151 1.126031
15.467690 27.670151 0.916496
15.783039 27.670151 0.000000
16.098389 27.670151 0.000000
16.413738 27.670151 0.000000
16.729090 27.670151 0.000000
17.044439 27.670151 0.000000
17.359789 27.670151 0.000000
17.675138 27.670151 0.000000
17.990490 27.670151 0.000000
18.305840 27.670151 1.438822
18.621189 27.670151 1.524350
18.936539 27.670151 0.683075
19.251888 27.670151 0.000000
-7.237510 27.354801 0.000000
-6.922160 27.354801 0.017956
-6.606810 27.354801 0.013047
-6.291460 27.354801 0.011451
-5.976110 27.354801 0.011507
-5.660760 27.354801 0.011343
-5.345410 27.354801 0.011474
-5.030060 27.354801 0.011619
-4.714710 27.354801 0.011577
-4.399360 27.354801 0.011245
-4.084010 27.354801 0.011220
-3.768660 27.354801 0.011139
-3.453310 27.354801 0.011090
-3.137960 27.354801 0.011111
-2.822610 27.354801 0.011278
-2.507260 27.354801 0.011409
-2.191910 27.354801 0.011487
-1.876560 27.354801 0.011861
-1.561210 27.354801 0.012075
-1.245860 27.354801 0.011993
-0.930510 27.354801 0.011949
-0.615160 27.354801 0.012105
-0.299810 27.354801 0.012282
0.015540 27.354801 0.012584
0.330890 27.354801 0.012946
0.646240 27.354801 0.013068
0.961589 27.354801 0.013078
1.276940 27.354801 0.013420
1.592289 27.354801 0.013659
1.907640 27.354801 0.013827
2.222990 27.354801 0.014133
2.538340 27.354801 0.014443
2.853690 27.354801 0.014961
3.169039 27.354801 0.015601
3.484390 27.354801 0.016402
3.799739 27.354801 0.017409
4.115090 27.354801 0.018511
4.430439 27.354801 0.019824
4.745790 27.354801 0.021651
5.061140 27.354801 0.024037
5.376490 27.354801 0.026876
5.691840 27.354801 0.030654
6.007189 27.354801 0.035031
6.322540 27.354801 0.041471
6.637889 27.354801 0.049807
6.953240 27.354801 0.061877
7.268589 27.354801 0.079061
7.583940 27.354801 0.102013
7.899290 27.354801 0.132922
8.214640 27.354801 0.167916
8.529989 27.354801 0.219234
8.845339 27.354801 0.279502
9.160688 27.354801 0.354921
9.476040 27.354801 0.448852
9.791389 27.354801 0.546123
10.106739 27.354801 0.654239
10.422089 27.354801 0.758650
10.737438 27.354801 0.862138
11.052790 27.354801 0.987291
11.368139 27.354801 1.100327
11.683489 27.354801 1.210580
11.998838 27.354801 1.308925
12.314190 27.354801 1.386220
12.629539 27.354801 1.450496
12.944889 27.354801 1.514179
13.260239 27.354801 1.582070
13.575588 27.354801 1.592292
13.890940 27.354801 1.596320
14.206289 27.354801 1.576658
14.521639 27.354801 1.489891
14.836988 27.354801 1.333316
15.152340 27.354801 1.134925
15.467690 27.354801 0.928848
15.783039 27.354801 0.000000
16.098389 27.354801 0.000000
16.413738 27.354801 0.000000
16.729090 27.354801 0.000000
17.044439 27.354801 0.000000
17.359789 27.354801 0.000000
17.675138 27.354801 0.000000
17.990490 27.354801 0.000000
18.305840 27.354801 1.347003
18.621189 27.354801 1.531143
18.936539 27.354801 0.626170
19.251888 27.354801 0.000000
-7.237510 27.039452 0.000000
-6.922160 27.039452 0.017747
-6.606810 27.039452 0.013077
-6.291460 27.039452 0.011540
-5.976110 27.039452 0.011614
-5.660760 27.039452 0.011596
-5.345410 27.039452 0.011659
-5.030060 27.039452 0.011755
-4.714710 27.039452 0.011722
-4.399360 27.039452 0.011294
-4.084010 27.039452 0.011124
-3.768660 27.039452 0.011114
-3.453310 27.039452 0.011142
-3.137960 27.039452 0.011335
-2.822610 27.039452 0.011440
-2.507260 27.039452 0.011565
-2.191910 27.039452 0.011522
-1.876560 27.039452 0.011920
-1.561210 27.039452 0.012219
-1.245860 27.039452 0.012148
-0.930510 27.039452 0.012118
-0.615160 27.039452 0.012189
-0.299810 27.039452 0.012376
0.015540 27.039452 0.012718
0.330890 27.039452 0.013041
0.646240 27.039452 0.013244
0.961589 27.039452 0.013288
1.276940 27.039452 0.013686
1.592289 27.039452 0.013942
1.907640 27.039452 0.014154
2.222990 27.039452 0.014559
2.538340 27.039452 0.014892
2.853690 27.039452 0.015420
3.169039 27.039452 0.015939
3.484390 27.039452 0.016775
3.799739 27.039452 0.017903
4.115090 27.039452 0.019032
4.430439 27.039452 0.020289
4.745790 27.039452 0.022034
5.061140 27.039452 0.024276
5.376490 27.039452 0.027148
5.691840 27.039452 0.030859
6.007189 27.039452 0.035550
6.322540 27.039452 0.041673
6.637889 27.039452 0.050839
6.953240 27.039452 0.063021
7.268589 27.039452 0.077834
7.583940 27.039452 0.100837
7.899290 27.039452 0.129067
8.214640 27.039452 0.169393
8.529989 27.039452 0.217950
8.845339 27.039452 0.280257
9.160688 27.039452 0.357064
9.476040 27.039452 0.447169
9.791389 27.039452 0.545351
10.106739 27.039452 0.655787
10.422089 27.039452 0.760950
10.737438 27.039452 0.869181
11.052790 27.039452 0.973675
11.368139 27.039452 1.097078
11.683489 27.039452 1.202155
11.998838 27.039452 1.301289
12.314190 27.039452 1.387068
12.629539 27.039452 1.442672
12.944889 27.039452 1.522390
13.260239 27.039452 1.581770
13.575588 27.039452 1.601531
13.890940 27.039452 1.613710
14.206289 27.039452 1.584896
14.521639 27.039452 1.473345
14.836988 27.039452 1.349924
15.152340 27.039452 1.154384
15.467690 27.039452 0.946362
15.783039 27.039452 0.000000
16.098389 27.039452 0.000000
16.413738 27.039452 0.000000
16.729090 27.039452 0.000000
17.044439 27.039452 0.000000
17.359789 27.039452 0.000000
17.675138 27.039452 0.000000
17.990490 27.039452 0.000000
18.305840 27.039452 1.469783
18.621189 27.039452 1.691333
18.936539 27.039452 0.731228
19.251888 27.039452 0.000000
-7.237510 26.724100 0.000000
-6.922160 26.724100 0.017386
-6.606810 26.724100 0.012896
-6.291460 26.724100 0.011504
-5.976110 26.724100 0.011522
-5.660760 26.724100 0.011636
-5.345410 26.724100 0.011645
-5.030060 26.724100 0.011592
-4.714710 26.724100 0.011619
-4.399360 26.724100 0.011281
-4.084010 26.724100 0.011165
-3.768660 26.724100 0.011158
-3.453310 26.724100 0.011205
-3.137960 26.724100 0.011436
-2.822610 26.724100 0.011488
-2.507260 26.724100 0.011697
-2.191910 26.724100 0.011704
-1.876560 26.724100 0.011982
-1.561210 26.724100 0.012231
-1.245860 26.724100 0.012247
-0.930510 26.724100 0.012306
-0.615160 26.724100 0.012352
-0.299810 26.724100 0.012548
0.015540 26.724100 0.012780
0.330890 26.724100 0.013055
0.646240 26.724100 0.013315
0.961589 26.724100 0.013516
1.276940 26.724100 0.013880
1.592289 26.724100 0.014127
1.907640 26.724100 0.014420
2.222990 26.724100 0.014917
2.538340 26.724100 0.015349
2.853690 26.724100 0.015803
3.169039 26.724100 0.016316
3.484390 26.724100 0.017124
3.799739 26.724100 0.018250
4.115090 26.724100 0.019454
4.430439 26.724100 0.020715
4.745790 26.724100 0.022370
5.061140 26.724100 0.024540
5.376490 26.724100 0.027372
5.691840 26.724100 0.031097
6.007189 26.724100 0.035775
6.322540 26.724100 0.041878
6.637889 26.724100 0.050998
6.953240 26.724100 0.062638
7.268589 26.724100 0.078453
7.583940 26.724100 0.102117
7.899290 26.724100 0.131928
8.214640 26.724100 0.169843
8.529989 26.724100 0.221951
8.845339 26.724100 0.285303
9.160688 26.724100 0.364538
9.476040 26.724100 0.453078
9.791389 26.724100 0.553192
10.106739 26.724100 0.664212
10.422089 26.724100 0.761613
10.737438 26.724100 0.865110
11.052790 26.724100 0.968342
11.368139 26.724100 1.090560
11.683489 26.724100 1.197575
11.998838 26.724100 1.296197
12.314190 26.724100 1.393422
12.629539 26.724100 1.487251
12.944889 26.724100 1.540128
13.260239 26.724100 1.608029
13.575588 26.724100 1.623480
13.890940 26.724100 1.611608
14.206289 26.724100 1.576336
14.521639 26.724100 1.479005
14.836988 26.724100 1.326258
15.152340 26.724100 1.153405
15.467690 26.724100 0.964890
15.783039 26.724100 0.000000
16.098389 26.724100 0.000000
16.413738 26.724100 0.000000
16.729090 26.724100 0.000000
17.044439 26.724100 0.000000
17.359789 26.724100 0.000000
17.675138 26.724100 0.000000
17.990490 26.724100 0.000000
18.305840 26.724100 1.326971
18.621189 26.724100 1.597120
18.936539 26.724100 0.611378
19.251888 26.724100 0.000000
-7.237510 26.408751 0.000000
-6.922160 26.408751 0.016980
-6.606810 26.408751 0.012547
-6.291460 26.408751 0.011268
-5.976110 26.408751 0.011456
-5.660760 26.408751 0.011427
-5.345410 26.408751 0.011431
-5.030060 26.408751 0.011251
-4.714710 26.408751 0.011298
-4.399360 26.408751 0.011252
-4.084010 26.408751 0.011223
-3.768660 26.408751 0.011172
-3.453310 26.408751 0.011272
-3.137960 26.408751 0.011401
-2.822610 26.408751 0.011560
-2.507260 26.408751 0.011782
-2.191910 26.408751 0.011891
-1.876560 26.408751 0.011996
-1.561210 26.408751 0.012077
-1.245860 26.408751 0.012246
-0.930510 26.408751 0.012366
-0.615160 26.408751 0.012494
-0.299810 26.408751 0.012620
0.015540 26.408751 0.012816
0.330890 26.408751 0.013086
0.646240 26.408751 0.013338
0.961589 26.408751 0.013639
1.276940 26.408751 0.014027
1.592289 26.408751 0.014285
1.907640 26.408751 0.014596
2.222990 26.408751 0.015098
2.538340 26.408751 0.015641
2.853690 26.408751 0.016078
3.169039 26.408751 0.016620
3.484390 26.408751 0.017438
3.799739 26.408751 0.018450
4.115090 26.408751 0.019795
4.430439 26.408751 0.021121
4.745790 26.408751 0.022672
5.061140 26.408751 0.024872
5.376490 26.408751 0.027720
5.691840 26.408751 0.031417
6.007189 26.408751 0.036012
6.322540 26.408751 0.042137
6.637889 26.408751 0.050630
6.953240 26.408751 0.062648
7.268589 26.408751 0.079156
7.583940 26.408751 0.101870
7.899290 26.408751 0.131617
8.214640 26.408751 0.172458
8.529989 26.408751 0.228047
8.845339 26.408751 0.289617
9.160688 26.408751 0.367162
9.476040 26.408751 0.456875
9.791389 26.408751 0.558854
10.106739 26.408751 0.667671
10.422089 26.408751 0.774275
10.737438 26.408751 0.867419
11.052790 26.408751 0.978459
11.368139 26.408751 1.079514
11.683489 26.408751 1.198919
11.998838 26.408751 1.307031
12.314190 26.408751 1.408064
12.629539 26.408751 1.487782
12.944889 26.408751 1.546169
13.260239 26.408751 1.597345
13.575588 26.408751 1.628179
13.890940 26.408751 1.599677
14.206289 26.408751 1.575591
14.521639 26.408751 1.484963
14.836988 26.408751 1.353125
15.152340 26.408751 1.151000
15.467690 26.408751 0.975783
15.783039 26.408751 0.000000
16.098389 26.408751 0.000000
16.413738 26.408751 0.000000
16.729090 26.408751 0.000000
17.044439 26.408751 0.000000
17.359789 26.408751 0.000000
17.675138 26.408751 0.000000
17.990490 26.408751 0.000000
18.305840 26.408751 1.392455
18.621189 26.408751 1.524748
18.936539 26.408751 0.597918
19.251888 26.408751 0.000000
-7.237510 26.093401 0.000000
-6.922160 26.093401 0.016532
-6.606810 26.093401 0.012146
-6.291460 26.093401 0.010990
-5.976110 26.093401 0.011230
-5.660760 26.093401 0.011085
-5.345410 26.093401 0.011053
-5.030060 26.093401 0.011020
-4.714710 26.093401 0.011045
-4.399360 26.093401 0.011160
-4.084010 26.093401 0.011187
-3.768660 26.093401 0.011176
-3.453310 26.093401 0.011346
-3.137960 26.093401 0.011361
-2.822610 26.093401 0.011558
-2.507260 26.093401 0.011789
-2.191910 26.093401 0.011841
-1.876560 26.093401 0.011892
-1.561210 26.093401 0.011948
-1.245860 26.093401 0.012127
-0.930510 26.093401 0.012214
-0.615160 26.093401 0.012450
-0.299810 26.093401 0.012581
0.015540 26.093401 0.012767
0.330890 26.093401 0.013130
0.646240 26.093401 0.013235
0.961589 26.093401 0.013665
1.276940 26.093401 0.014166
1.592289 26.093401 0.014430
1.907640 26.093401 0.014763
2.222990 26.093401 0.015216
2.538340 26.093401 0.015750
2.853690 26.093401 0.016289
3.169039 26.093401 0.016864
3.484390 26.093401 0.017633
3.799739 26.093401 0.018610
4.115090 26.093401 0.019986
4.430439 26.093401 0.021468
4.745790 26.093401 0.022979
5.061140 26.093401 0.025087
5.376490 26.093401 0.027956
5.691840 26.093401 0.031686
6.007189 26.093401 0.036009
6.322540 26.093401 0.042159
6.637889 26.093401 0.050717
6.953240 26.093401 0.062389
7.268589 26.093401 0.078521
7.583940 26.093401 0.101763
7.899290 26.093401 0.133645
8.214640 26.093401 0.174407
8.529989 26.093401 0.226979
8.845339 26.093401 0.292492
9.160688 26.093401 0.369979
9.476040 26.093401 0.458976
9.791389 26.093401 0.558962
10.106739 26.093401 0.663930
10.422089 26.093401 0.769564
10.737438 26.093401 0.872188
11.052790 26.093401 0.982737
11.368139 26.093401 1.081288
11.683489 26.093401 1.193910
11.998838 26.093401 1.307713
12.314190 26.093401 1.419032
12.629539 26.093401 1.503576
12.944889 26.093401 1.569099
13.260239 26.093401 1.605531
13.575588 26.093401 1.638440
13.890940 26.093401 1.629309
14.206289 26.093401 1.569582
14.521639 26.093401 1.488643
14.836988 26.093401 1.352386
15.152340 26.093401 1.173562
15.467690 26.093401 0.985255
15.783039 26.093401 0.000000
16.098389 26.093401 0.000000
16.413738 26.093401 0.000000
16.729090 26.093401 0.000000
17.044439 26.093401 0.000000
17.359789 26.093401 0.000000
17.675138 26.093401 0.000000
17.990490 26.093401 0.000000
18.305840 26.093401 1.338996
18.621189 26.093401 1.450892
18.936539 26.093401 0.589210
19.251888 26.093401 0.000000
-7.237510 25.778051 0.000000
-6.922160 25.778051 0.016003
-6.606810 25.778051 0.011670
-6.291460 25.778051 0.010593
-5.976110 25.778051 0.010922
-5.660760 25.778051 0.010806
-5.345410 25.778051 0.010787
-5.030060 25.778051 0.010805
-4.714710 25.778051 0.010804
-4.399360 25.778051 0.011048
-4.084010 25.778051 0.011106
-3.768660 25.778051 0.011050
-3.453310 25.778051 0.011201
-3.137960 25.778051 0.011179
-2.822610 25.778051 0.011466
-2.507260 25.778051 0.011602
-2.191910 25.778051 0.011581
-1.876560 25.778051 0.011738
-1.561210 25.778051 0.011798
-1.245860 25.778051 0.011866
-0.930510 25.778051 0.011989
-0.615160 25.778051 0.012228
-0.299810 25.778051 0.012342
0.015540 25.778051 0.012669
0.330890 25.778051 0.013045
0.646240 25.778051 0.013071
0.961589 25.778051 0.013599
1.276940 25.778051 0.014248
1.592289 25.778051 0.014565
1.907640 25.778051 0.014911
2.222990 25.778051 0.015347
2.538340 25.778051 0.015829
2.853690 25.778051 0.016376
3.169039 25.778051 0.017017
3.484390 25.778051 0.017796
3.799739 25.778051 0.018769
4.115090 25.778051 0.020186
4.430439 25.778051 0.021662
4.745790 25.778051 0.023177
5.061140 25.778051 0.025266
5.376490 25.778051 0.028228
5.691840 25.778051 0.031563
6.007189 25.778051 0.035884
6.322540 25.778051 0.042161
6.637889 25.778051 0.050134
6.953240 25.778051 0.062587
7.268589 25.778051 0.078729
7.583940 25.778051 0.101924
7.899290 25.778051 0.133820
8.214640 25.778051 0.174277
8.529989 25.778051 0.228596
8.845339 25.778051 0.291549
9.160688 25.778051 0.368418
9.476040 25.778051 0.454125
9.791389 25.778051 0.556906
10.106739 25.778051 0.660491
10.422089 25.778051 0.769741
10.737438 25.778051 0.880809
11.052790 25.778051 0.988534
11.368139 25.778051 1.091365
11.683489 25.778051 1.204516
11.998838 25.778051 1.313842
12.314190 25.778051 1.423264
12.629539 25.778051 1.496361
12.944889 25.778051 1.554763
13.260239 25.778051 1.602885
13.575588 25.778051 1.625481
13.890940 25.778051 1.630639
14.206289 25.778051 1.564667
14.521639 25.778051 1.514249
14.836988 25.778051 1.374671
15.152340 25.778051 1.179231
15.467690 25.778051 0.992627
15.783039 25.778051 0.000000
16.098389 25.778051 0.000000
16.413738 25.778051 0.000000
16.729090 25.778051 0.000000
17.044439 25.778051 0.000000
17.359789 25.778051 0.000000
17.675138 25.778051 0.000000
17.990490 25.778051 0.000000
18.305840 25.778051 1.286498
18.621189 25.778051 1.456024
18.936539 25.778051 0.493030
19.251888 25.778051 0.000000
-7.237510 25.462700 0.000000
-6.922160 25.462700 0.015419
-6.606810 25.462700 0.011173
-6.291460 25.462700 0.010223
-5.976110 25.462700 0.010613
-5.660760 25.462700 0.010561
-5.345410 25.462700 0.010524
-5.030060 25.462700 0.010519
-4.714710 25.462700 0.010503
-4.399360 25.462700 0.010741
-4.084010 25.462700 0.010853
-3.768660 25.462700 0.010833
-3.453310 25.462700 0.010905
-3.137960 25.462700 0.010934
-2.822610 25.462700 0.011226
-2.507260 25.462700 0.011239
-2.191910 25.462700 0.011258
-1.876560 25.462700 0.011463
-1.561210 25.462700 0.011572
-1.245860 25.462700 0.011581
-0.930510 25.462700 0.011700
-0.615160 25.462700 0.011939
-0.299810 25.462700 0.012058
0.015540 25.462700 0.012459
0.330890 25.462700 0.012802
0.646240 25.462700 0.012928
0.961589 25.462700 0.013433
1.276940 25.462700 0.014163
1.592289 25.462700 0.014474
1.907640 25.462700 0.014864
2.222990 25.462700 0.015370
2.538340 25.462700 0.015730
2.853690 25.462700 0.016364
3.169039 25.462700 0.017108
3.484390 25.462700 0.017959
3.799739 25.462700 0.019003
4.115090 25.462700 0.020352
4.430439 25.462700 0.021754
4.745790 25.462700 0.023261
5.061140 25.462700 0.025358
5.376490 25.462700 0.028215
5.691840 25.462700 0.031685
6.007189 25.462700 0.036015
6.322540 25.462700 0.042254
6.637889 25.462700 0.050340
6.953240 25.462700 0.062480
7.268589 25.462700 0.079911
7.583940 25.462700 0.102560
7.899290 25.462700 0.132650
8.214640 25.462700 0.171527
8.529989 25.462700 0.226774
8.845339 25.462700 0.292383
9.160688 25.462700 0.368919
9.476040 25.462700 0.465024
9.791389 25.462700 0.557979
10.106739 25.462700 0.661660
10.422089 25.462700 0.776714
10.737438 25.462700 0.891667
11.052790 25.462700 0.985723
11.368139 25.462700 1.104518
11.683489 25.462700 1.214966
11.998838 25.462700 1.327701
12.314190 25.462700 1.438359
12.629539 25.462700 1.494345
12.944889 25.462700 1.543555
13.260239 25.462700 1.602536
13.575588 25.462700 1.619672
13.890940 25.462700 1.618946
14.206289 25.462700 1.576903
14.521639 25.462700 1.496702
14.836988 25.462700 1.355919
15.152340 25.462700 1.191968
15.467690 25.462700 1.025649
15.783039 25.462700 0.000000
16.098389 25.462700 0.000000
16.413738 25.462700 0.000000
16.729090 25.462700 0.000000
17.044439 25.462700 0.000000
17.359789 25.462700 0.000000
17.675138 25.462700 0.000000
17.990490 25.462700 0.000000
18.305840 25.462700 1.351715
18.621189 25.462700 1.509130
18.936539 25.462700 0.572709
19.251888 25.462700 0.000000
-7.237510 25.147350 0.000000
-6.922160 25.147350 0.014835
-6.606810 25.147350 0.010835
-6.291460 25.147350 0.009845
-5.976110 25.147350 0.010171
-5.660760 25.147350 0.010260
-5.345410 25.147350 0.010215
-5.030060 25.147350 0.010145
-4.714710 25.147350 0.010219
-4.399360 25.147350 0.010421
-4.084010 25.147350 0.010452
-3.768660 25.147350 0.010498
-3.453310 25.147350 0.010590
-3.137960 25.147350 0.010554
-2.822610 25.147350 0.010858
-2.507260 25.147350 0.010848
-2.191910 25.147350 0.010872
-1.876560 25.147350 0.011050
-1.561210 25.147350 0.011254
-1.245860 25.147350 0.011359
-0.930510 25.147350 0.011561
-0.615160 25.147350 0.011644
-0.299810 25.147350 0.011823
0.015540 25.147350 0.012214
0.330890 25.147350 0.012444
0.646240 25.147350 0.012634
0.961589 25.147350 0.013173
1.276940 25.147350 0.013852
1.592289 25.147350 0.014259
1.907640 25.147350 0.014618
2.222990 25.147350 0.015145
2.538340 25.147350 0.015563
2.853690 25.147350 0.016248
3.169039 25.147350 0.017062
3.484390 25.147350 0.018057
3.799739 25.147350 0.019186
4.115090 25.147350 0.020376
4.430439 25.147350 0.021727
4.745790 25.147350 0.023230
5.061140 25.147350 0.025377
5.376490 25.147350 0.028238
5.691840 25.147350 0.031785
6.007189 25.147350 0.036393
6.322540 25.147350 0.042598
6.637889 25.147350 0.051341
6.953240 25.147350 0.063527
7.268589 25.147350 0.080775
7.583940 25.147350 0.103445
7.899290 25.147350 0.133482
8.214640 25.147350 0.173626
8.529989 25.147350 0.223001
8.845339 25.147350 0.291371
9.160688 25.147350 0.376455
9.476040 25.147350 0.468988
9.791389 25.147350 0.561867
10.106739 25.147350 0.668694
10.422089 25.147350 0.781211
10.737438 25.147350 0.894064
11.052790 25.147350 0.997132
11.368139 25.147350 1.116181
11.683489 25.147350 1.215643
11.998838 25.147350 1.326728
12.314190 25.147350 1.420773
12.629539 25.147350 1.486603
12.944889 25.147350 1.538435
13.260239 25.147350 1.586753
13.575588 25.147350 1.635085
13.890940 25.147350 1.656608
14.206289 25.147350 1.594581
14.521639 25.147350 1.510827
14.836988 25.147350 1.353093
15.152340 25.147350 1.199526
15.467690 25.147350 1.037241
15.783039 25.147350 0.000000
16.098389 25.147350 0.000000
16.413738 25.147350 0.000000
16.729090 25.147350 0.000000
17.044439 25.147350 0.000000
17.359789 25.147350 0.000000
17.675138 25.147350 0.000000
17.990490 25.147350 0.000000
18.305840 25.147350 1.451014
18.621189 25.147350 1.588371
18.936539 25.147350 0.583989
19.251888 25.147350 0.000000
-7.237510 24.832001 0.000000
-6.922160 24.832001 0.014568
-6.606810 24.832001 0.010487
-6.291460 24.832001 0.009414
-5.976110 24.832001 0.009645
-5.660760 24.832001 0.009755
-5.345410 24.832001 0.009739
-5.030060 24.832001 0.009701
-4.714710 24.832001 0.009873
-4.399360 24.832001 0.010033
-4.084010 24.832001 0.009982
-3.768660 24.832001 0.010075
-3.453310 24.832001 0.010141
-3.137960 24.832001 0.010220
-2.822610 24.832001 0.010435
-2.507260 24.832001 0.010479
-2.191910 24.832001 0.010480
-1.876560 24.832001 0.010641
-1.561210 24.832001 0.010941
-1.245860 24.832001 0.011240
-0.930510 24.832001 0.011357
-0.615160 24.832001 0.011342
-0.299810 24.832001 0.011575
0.015540 24.832001 0.011886
0.330890 24.832001 0.012047
0.646240 24.832001 0.012335
0.961589 24.832001 0.012795
1.276940 24.832001 0.013390
1.592289 24.832001 0.013839
1.907640 24.832001 0.014202
2.222990 24.832001 0.014797
2.538340 24.832001 0.015300
2.853690 24.832001 0.016073
3.169039 24.832001 0.016993
3.484390 24.832001 0.018022
3.799739 24.832001 0.019220
4.115090 24.832001 0.020345
4.430439 24.832001 0.021622
4.745790 24.832001 0.023160
5.061140 24.832001 0.025395
5.376490 24.832001 0.028234
5.691840 24.832001 0.031888
6.007189 24.832001 0.036567
6.322540 24.832001 0.042673
6.637889 24.832001 0.051554
6.953240 24.832001 0.063649
7.268589 24.832001 0.081597
7.583940 24.832001 0.104265
7.899290 24.832001 0.134809
8.214640 24.832001 0.174781
8.529989 24.832001 0.227488
8.845339 24.832001 0.297190
9.160688 24.832001 0.375597
9.476040 24.832001 0.472790
9.791389 24.832001 0.571953
10.106739 24.832001 0.680032
10.422089 24.832001 0.790627
10.737438 24.832001 0.898553
11.052790 24.832001 1.013682
11.368139 24.832001 1.120432
11.683489 24.832001 1.222847
11.998838 24.832001 1.331046
12.314190 24.832001 1.421660
12.629539 24.832001 1.502533
12.944889 24.832001 1.561277
13.260239 24.832001 1.593727
13.575588 24.832001 1.631302
13.890940 24.832001 1.662044
14.206289 24.832001 1.603543
14.521639 24.832001 1.519804
14.836988 24.832001 1.368400
15.152340 24.832001 1.199350
15.467690 24.832001 1.040948
15.783039 24.832001 0.000000
16.098389 24.832001 0.000000
16.413738 24.832001 0.000000
16.729090 24.832001 0.000000
17.044439 24.832001 0.000000
17.359789 24.832001 0.000000
17.675138 24.832001 0.000000
17.990490 24.832001 0.000000
18.305840 24.832001 1.485479
18.621189 24.832001 1.690852
18.936539 24.832001 0.000000
19.251888 24.832001 0.000000
-7.237510 24.516651 0.000000
-6.922160 24.516651 0.014235
-6.606810 24.516651 0.010093
-6.291460 24.516651 0.009042
-5.976110 24.516651 0.009087
-5.660760 24.516651 0.009167
-5.345410 24.516651 0.009140
-5.030060 24.516651 0.009171
-4.714710 24.516651 0.009410
-4.399360 24.516651 0.009538
-4.084010 24.516651 0.009558
-3.768660 24.516651 0.009634
-3.453310 24.516651 0.009707
-3.137960 24.516651 0.009769
-2.822610 24.516651 0.009977
-2.507260 24.516651 0.010033
-2.191910 24.516651 0.010089
-1.876560 24.516651 0.010160
-1.561210 24.516651 0.010587
-1.245860 24.516651 0.010864
-0.930510 24.516651 0.010916
-0.615160 24.516651 0.011004
-0.299810 24.516651 0.011298
0.015540 24.516651 0.011534
0.330890 24.516651 0.011693
0.646240 24.516651 0.012068
0.961589 24.516651 0.012520
1.276940 24.516651 0.012922
1.592289 24.516651 0.013401
1.907640 24.516651 0.013833
2.222990 24.516651 0.014415
2.538340 24.516651 0.015013
2.853690 24.516651 0.015870
3.169039 24.516651 0.016828
3.484390 24.516651 0.017885
3.799739 24.516651 0.019054
4.115090 24.516651 0.020168
4.430439 24.516651 0.021495
4.745790 24.516651 0.023189
5.061140 24.516651 0.025477
5.376490 24.516651 0.028309
5.691840 24.516651 0.031824
6.007189 24.516651 0.036425
6.322540 24.516651 0.042421
6.637889 24.516651 0.051768
6.953240 24.516651 0.063726
7.268589 24.516651 0.080970
7.583940 24.516651 0.104744
7.899290 24.516651 0.135006
8.214640 24.516651 0.174545
8.529989 24.516651 0.229567
8.845339 24.516651 0.295346
9.160688 24.516651 0.376152
9.476040 24.516651 0.471196
9.791389 24.516651 0.572181
10.106739 24.516651 0.677971
10.422089 24.516651 0.801029
10.737438 24.516651 0.919831
11.052790 24.516651 1.016871
11.368139 24.516651 1.121631
11.683489 24.516651 1.232466
11.998838 24.516651 1.320098
12.314190 24.516651 1.412506
12.629539 24.516651 1.494799
12.944889 24.516651 1.564030
13.260239 24.516651 1.612249
13.575588 24.516651 1.643789
13.890940 24.516651 1.641811
14.206289 24.516651 1.593979
14.521639 24.516651 1.517289
14.836988 24.516651 1.383518
15.152340 24.516651 1.200044
15.467690 24.516651 1.009540
15.783039 24.516651 0.000000
16.098389 24.516651 0.000000
16.413738 24.516651 0.000000
16.729090 24.516651 0.000000
17.044439 24.516651 0.000000
17.359789 24.516651 0.000000
17.675138 24.516651 0.000000
17.990490 24.516651 0.000000
18.305840 24.516651 1.572999
18.621189 24.516651 1.776098
18.936539 24.516651 0.000000
19.251888 24.516651 0.000000
-7.237510 24.201302 0.000000
-6.922160 24.201302 0.013603
-6.606810 24.201302 0.009568
-6.291460 24.201302 0.008608
-5.976110 24.201302 0.008590
-5.660760 24.201302 0.008600
-5.345410 24.201302 0.008616
-5.030060 24.201302 0.008688
-4.714710 24.201302 0.008922
-4.399360 24.201302 0.009087
-4.084010 24.201302 0.009118
-3.768660 24.201302 0.009170
-3.453310 24.201302 0.009171
-3.137960 24.201302 0.009369
-2.822610 24.201302 0.009562
-2.507260 24.201302 0.009543
-2.191910 24.201302 0.009568
-1.876560 24.201302 0.009617
-1.561210 24.201302 0.010082
-1.245860 24.201302 0.010343
-0.930510 24.201302 0.010347
-0.615160 24.201302 0.010530
-0.299810 24.201302 0.010813
0.015540 24.201302 0.011148
0.330890 24.201302 0.011360
0.646240 24.201302 0.011821
0.961589 24.201302 0.012115
1.276940 24.201302 0.012455
1.592289 24.201302 0.012943
1.907640 24.201302 0.013471
2.222990 24.201302 0.014046
2.538340 24.201302 0.014674
2.853690 24.201302 0.015543
3.169039 24.201302 0.016542
3.484390 24.201302 0.017596
3.799739 24.201302 0.018832
4.115090 24.201302 0.019946
4.430439 24.201302 0.021385
4.745790 24.201302 0.023183
5.061140 24.201302 0.025463
5.376490 24.201302 0.028191
5.691840 24.201302 0.031646
6.007189 24.201302 0.036160
6.322540 24.201302 0.042590
6.637889 24.201302 0.051259
6.953240 24.201302 0.063954
7.268589 24.201302 0.079968
7.583940 24.201302 0.104143
7.899290 24.201302 0.134923
8.214640 24.201302 0.176013
8.529989 24.201302 0.230461
8.845339 24.201302 0.296214
9.160688 24.201302 0.373269
9.476040 24.201302 0.472927
9.791389 24.201302 0.566655
10.106739 24.201302 0.687922
10.422089 24.201302 0.805706
10.737438 24.201302 0.917582
11.052790 24.201302 1.020839
11.368139 24.201302 1.118876
11.683489 24.201302 1.221870
11.998838 24.201302 1.317990
12.314190 24.201302 1.413644
12.629539 24.201302 1.491108
12.944889 24.201302 1.556891
13.260239 24.201302 1.631603
13.575588 24.201302 1.650724
13.890940 24.201302 1.635958
14.206289 24.201302 1.607813
14.521639 24.201302 1.526359
14.836988 24.201302 1.383928
15.152340 24.201302 1.213948
15.467690 24.201302 1.013178
15.783039 24.201302 0.000000
16.098389 24.201302 0.000000
16.413738 24.201302 0.000000
16.729090 24.201302 0.000000
17.044439 24.201302 0.000000
17.359789 24.201302 0.000000
17.675138 24.201302 0.000000
17.990490 24.201302 0.000000
18.305840 24.201302 1.612477
18.621189 24.201302 1.823188
18.936539 24.201302 0.000000
19.251888 24.201302 0.000000
-7.237510 23.885950 0.000000
-6.922160 23.885950 0.012996
-6.606810 23.885950 0.008890
-6.291460 23.885950 0.008191
-5.976110 23.885950 0.008211
-5.660760 23.885950 0.008177
-5.345410 23.885950 0.008257
-5.030060 23.885950 0.008238
-4.714710 23.885950 0.008447
-4.399360 23.885950 0.008563
-4.084010 23.885950 0.008597
-3.768660 23.885950 0.008576
-3.453310 23.885950 0.008564
-3.137960 23.885950 0.008870
-2.822610 23.885950 0.009089
-2.507260 23.885950 0.008989
-2.191910 23.885950 0.008970
-1.876560 23.885950 0.009122
-1.561210 23.885950 0.009502
-1.245860 23.885950 0.009680
-0.930510 23.885950 0.009755
-0.615160 23.885950 0.010002
-0.299810 23.885950 0.010256
0.015540 23.885950 0.010690
0.330890 23.885950 0.010998
0.646240 23.885950 0.011309
0.961589 23.885950 0.011627
1.276940 23.885950 0.011974
1.592289 23.885950 0.012426
1.907640 23.885950 0.013035
2.222990 23.885950 0.013567
2.538340 23.885950 0.014342
2.853690 23.885950 0.015252
3.169039 23.885950 0.016146
3.484390 23.885950 0.017226
3.799739 23.885950 0.018464
4.115090 23.885950 0.019725
4.430439 23.885950 0.021247
4.745790 23.885950 0.023155
5.061140 23.885950 0.025422
5.376490 23.885950 0.028050
5.691840 23.885950 0.031489
6.007189 23.885950 0.036048
6.322540 23.885950 0.042669
6.637889 23.885950 0.051274
6.953240 23.885950 0.063282
7.268589 23.885950 0.080904
7.583940 23.885950 0.103555
7.899290 23.885950 0.136330
8.214640 23.885950 0.177653
8.529989 23.885950 0.230146
8.845339 23.885950 0.296358
9.160688 23.885950 0.377626
9.476040 23.885950 0.469885
9.791389 23.885950 0.570873
10.106739 23.885950 0.695993
10.422089 23.885950 0.809577
10.737438 23.885950 0.911866
11.052790 23.885950 1.020251
11.368139 23.885950 1.121445
11.683489 23.885950 1.222315
11.998838 23.885950 1.316830
12.314190 23.885950 1.406677
12.629539 23.885950 1.479091
12.944889 23.885950 1.561648
13.260239 23.885950 1.611213
13.575588 23.885950 1.650926
13.890940 23.885950 1.645545
14.206289 23.885950 1.601955
14.521639 23.885950 1.510219
14.836988 23.885950 1.386685
15.152340 23.885950 1.219307
15.467690 23.885950 1.013046
15.783039 23.885950 0.000000
16.098389 23.885950 0.000000
16.413738 23.885950 0.000000
16.729090 23.885950 0.000000
17.044439 23.885950 0.000000
17.359789 23.885950 0.000000
17.675138 23.885950 0.000000
17.990490 23.885950 0.000000
18.305840 23.885950 1.648162
18.621189 23.885950 1.844295
18.936539 23.885950 0.000000
19.251888 23.885950 0.000000
-7.237510 23.570601 0.000000
-6.922160 23.570601 0.012286
-6.606810 23.570601 0.008393
-6.291460 23.570601 0.007802
-5.976110 23.570601 0.007776
-5.660760 23.570601 0.007760
-5.345410 23.570601 0.007800
-5.030060 23.570601 0.007850
-4.714710 23.570601 0.007934
-4.399360 23.570601 0.007926
-4.084010 23.570601 0.007969
-3.768660 23.570601 0.008018
-3.453310 23.570601 0.008108
-3.137960 23.570601 0.008349
-2.822610 23.570601 0.008502
-2.507260 23.570601 0.008407
-2.191910 23.570601 0.008430
-1.876560 23.570601 0.008657
-1.561210 23.570601 0.008849
-1.245860 23.570601 0.009010
-0.930510 23.570601 0.009283
-0.615160 23.570601 0.009435
-0.299810 23.570601 0.009605
0.015540 23.570601 0.010085
0.330890 23.570601 0.010499
0.646240 23.570601 0.010774
0.961589 23.570601 0.011108
1.276940 23.570601 0.011458
1.592289 23.570601 0.011867
1.907640 23.570601 0.012503
2.222990 23.570601 0.013143
2.538340 23.570601 0.013950
2.853690 23.570601 0.014866
3.169039 23.570601 0.015676
3.484390 23.570601 0.016692
3.799739 23.570601 0.017958
4.115090 23.570601 0.019452
4.430439 23.570601 0.021109
4.745790 23.570601 0.022999
5.061140 23.570601 0.025280
5.376490 23.570601 0.027886
5.691840 23.570601 0.031235
6.007189 23.570601 0.036077
6.322540 23.570601 0.042614
6.637889 23.570601 0.051661
6.953240 23.570601 0.063618
7.268589 23.570601 0.081580
7.583940 23.570601 0.104325
7.899290 23.570601 0.137512
8.214640 23.570601 0.178973
8.529989 23.570601 0.230373
8.845339 23.570601 0.298051
9.160688 23.570601 0.382885
9.476040 23.570601 0.480688
9.791389 23.570601 0.582000
10.106739 23.570601 0.693450
10.422089 23.570601 0.806710
10.737438 23.570601 0.916163
11.052790 23.570601 1.026606
11.368139 23.570601 1.114874
11.683489 23.570601 1.217558
11.998838 23.570601 1.309868
12.314190 23.570601 1.393012
12.629539 23.570601 1.460551
12.944889 23.570601 1.540149
13.260239 23.570601 1.606495
13.575588 23.570601 1.634564
13.890940 23.570601 1.654523
14.206289 23.570601 1.608747
14.521639 23.570601 1.512619
14.836988 23.570601 1.382124
15.152340 23.570601 1.230546
15.467690 23.570601 1.019930
15.783039 23.570601 0.000000
16.098389 23.570601 0.000000
16.413738 23.570601 0.000000
16.729090 23.570601 0.000000
17.044439 23.570601 0.000000
17.359789 23.570601 0.000000
17.675138 23.570601 0.000000
17.990490 23.570601 0.000000
18.305840 23.570601 1.594851
18.621189 23.570601 1.819946
18.936539 23.570601 0.000000
19.251888 23.570601 0.000000
-7.237510 23.255251 0.000000
-6.922160 23.255251 0.011700
-6.606810 23.255251 0.007999
-6.291460 23.255251 0.007418
-5.976110 23.255251 0.007425
-5.660760 23.255251 0.007296
-5.345410 23.255251 0.007334
-5.030060 23.255251 0.007408
-4.714710 23.255251 0.007412
-4.399360 23.255251 0.007316
-4.084010 23.255251 0.007436
-3.768660 23.255251 0.007510
-3.453310 23.255251 0.007667
-3.137960 23.255251 0.007816
-2.822610 23.255251 0.007943
-2.507260 23.255251 0.007886
-2.191910 23.255251 0.007923
-1.876560 23.255251 0.008103
-1.561210 23.255251 0.008224
-1.245860 23.255251 0.008395
-0.930510 23.255251 0.008782
-0.615160 23.255251 0.008895
-0.299810 23.255251 0.009036
0.015540 23.255251 0.009440
0.330890 23.255251 0.009855
0.646240 23.255251 0.010120
0.961589 23.255251 0.010533
1.276940 23.255251 0.010925
1.592289 23.255251 0.011304
1.907640 23.255251 0.011893
2.222990 23.255251 0.012625
2.538340 23.255251 0.013557
2.853690 23.255251 0.014361
3.169039 23.255251 0.015105
3.484390 23.255251 0.016142
3.799739 23.255251 0.017428
4.115090 23.255251 0.019025
4.430439 23.255251 0.020761
4.745790 23.255251 0.022586
5.061140 23.255251 0.024878
5.376490 23.255251 0.027640
5.691840 23.255251 0.031082
6.007189 23.255251 0.036028
6.322540 23.255251 0.042612
6.637889 23.255251 0.051421
6.953240 23.255251 0.063917
7.268589 23.255251 0.081573
7.583940 23.255251 0.105920
7.899290 23.255251 0.136511
8.214640 23.255251 0.180205
8.529989 23.255251 0.231876
8.845339 23.255251 0.298293
9.160688 23.255251 0.382092
9.476040 23.255251 0.486120
9.791389 23.255251 0.582332
10.106739 23.255251 0.685393
10.422089 23.255251 0.798107
10.737438 23.255251 0.911887
11.052790 23.255251 1.020921
11.368139 23.255251 1.118501
11.683489 23.255251 1.211110
11.998838 23.255251 1.318117
12.314190 23.255251 1.403165
12.629539 23.255251 1.469969
12.944889 23.255251 1.536016
13.260239 23.255251 1.588738
13.575588 23.255251 1.625333
13.890940 23.255251 1.640845
14.206289 23.255251 1.612580
14.521639 23.255251 1.538867
14.836988 23.255251 1.390779
15.152340 23.255251 1.240092
15.467690 23.255251 1.013754
15.783039 23.255251 0.000000
16.098389 23.255251 0.000000
16.413738 23.255251 0.000000
16.729090 23.255251 0.000000
17.044439 23.255251 0.000000
17.359789 23.255251 0.000000
17.675138 23.255251 0.000000
17.990490 23.255251 0.000000
18.305840 23.255251 1.536142
18.621189 23.255251 1.802484
18.936539 23.255251 0.000000
19.251888 23.255251 0.000000
-7.237510 22.939901 0.000000
-6.922160 22.939901 0.011215
-6.606810 22.939901 0.007608
-6.291460 22.939901 0.006994
-5.976110 22.939901 0.006999
-5.660760 22.939901 0.006817
-5.345410 22.939901 0.006824
-5.030060 22.939901 0.006969
-4.714710 22.939901 0.006914
-4.399360 22.939901 0.006850
-4.084010 22.939901 0.007007
-3.768660 22.939901 0.007073
-3.453310 22.939901 0.007258
-3.137960 22.939901 0.007299
-2.822610 22.939901 0.007309
-2.507260 22.939901 0.007391
-2.191910 22.939901 0.007501
-1.876560 22.939901 0.007568
-1.561210 22.939901 0.007605
-1.245860 22.939901 0.007870
-0.930510 22.939901 0.008238
-0.615160 22.939901 0.008363
-0.299810 22.939901 0.008443
0.015540 22.939901 0.008714
0.330890 22.939901 0.009152
0.646240 22.939901 0.009418
0.961589 22.939901 0.009883
1.276940 22.939901 0.010308
1.592289 22.939901 0.010617
1.907640 22.939901 0.011192
2.222990 22.939901 0.012047
2.538340 22.939901 0.013045
2.853690 22.939901 0.013725
3.169039 22.939901 0.014495
3.484390 22.939901 0.015548
3.799739 22.939901 0.016852
4.115090 22.939901 0.018527
4.430439 22.939901 0.020217
4.745790 22.939901 0.022026
5.061140 22.939901 0.024365
5.376490 22.939901 0.027271
5.691840 22.939901 0.030877
6.007189 22.939901 0.035734
6.322540 22.939901 0.041920
6.637889 22.939901 0.050628
6.953240 22.939901 0.062982
7.268589 22.939901 0.081206
7.583940 22.939901 0.104678
7.899290 22.939901 0.137318
8.214640 22.939901 0.180447
8.529989 22.939901 0.236070
8.845339 22.939901 0.302748
9.160688 22.939901 0.384777
9.476040 22.939901 0.480686
9.791389 22.939901 0.574821
10.106739 22.939901 0.678167
10.422089 22.939901 0.785244
10.737438 22.939901 0.905990
11.052790 22.939901 1.021173
11.368139 22.939901 1.114580
11.683489 22.939901 1.214119
11.998838 22.939901 1.320921
12.314190 22.939901 1.399797
12.629539 22.939901 1.481063
12.944889 22.939901 1.555335
13.260239 22.939901 1.593644
13.575588 22.939901 1.614525
13.890940 22.939901 1.644248
14.206289 22.939901 1.607627
14.521639 22.939901 1.524654
14.836988 22.939901 1.414012
15.152340 22.939901 1.257085
15.467690 22.939901 1.016362
15.783039 22.939901 0.000000
16.098389 22.939901 0.000000
16.413738 22.939901 0.000000
16.729090 22.939901 0.000000
17.044439 22.939901 0.000000
17.359789 22.939901 0.000000
17.675138 22.939901 0.000000
17.990490 22.939901 0.000000
18.305840 22.939901 1.546886
18.621189 22.939901 1.827897
18.936539 22.939901 0.000000
19.251888 22.939901 0.000000
-7.237510 22.624552 0.000000
-6.922160 22.624552 0.010665
-6.606810 22.624552 0.007111
-6.291460 22.624552 0.006534
-5.976110 22.624552 0.006581
-5.660760 22.624552 0.006449
-5.345410 22.624552 0.006324
-5.030060 22.624552 0.006478
-4.714710 22.624552 0.006495
-4.399360 22.624552 0.006448
-4.084010 22.624552 0.006573
-3.768660 22.624552 0.006691
-3.453310 22.624552 0.006773
-3.137960 22.624552 0.006797
-2.822610 22.624552 0.006747
-2.507260 22.624552 0.006870
-2.191910 22.624552 0.007021
-1.876560 22.624552 0.006928
-1.561210 22.624552 0.007040
-1.245860 22.624552 0.007268
-0.930510 22.624552 0.007593
-0.615160 22.624552 0.007735
-0.299810 22.624552 0.007799
0.015540 22.624552 0.008029
0.330890 22.624552 0.008343
0.646240 22.624552 0.008650
0.961589 22.624552 0.009155
1.276940 22.624552 0.009607
1.592289 22.624552 0.009897
1.907640 22.624552 0.010529
2.222990 22.624552 0.011426
2.538340 22.624552 0.012357
2.853690 22.624552 0.013041
3.169039 22.624552 0.013830
3.484390 22.624552 0.014905
3.799739 22.624552 0.016219
4.115090 22.624552 0.017903
4.430439 22.624552 0.019581
4.745790 22.624552 0.021447
5.061140 22.624552 0.023976
5.376490 22.624552 0.026955
5.691840 22.624552 0.030605
6.007189 22.624552 0.035320
6.322540 22.624552 0.041301
6.637889 22.624552 0.050391
6.953240 22.624552 0.062831
7.268589 22.624552 0.080483
7.583940 22.624552 0.104210
7.899290 22.624552 0.136842
8.214640 22.624552 0.178531
8.529989 22.624552 0.234926
8.845339 22.624552 0.301851
9.160688 22.624552 0.383613
9.476040 22.624552 0.477375
9.791389 22.624552 0.581702
10.106739 22.624552 0.669014
10.422089 22.624552 0.791756
10.737438 22.624552 0.903699
11.052790 22.624552 1.011054
11.368139 22.624552 1.117893
11.683489 22.624552 1.221674
11.998838 22.624552 1.320171
12.314190 22.624552 1.416409
12.629539 22.624552 1.476652
12.944889 22.624552 1.561392
13.260239 22.624552 1.602358
13.575588 22.624552 1.622768
13.890940 22.624552 1.630187
14.206289 22.624552 1.610662
14.521639 22.624552 1.532915
14.836988 22.624552 1.407770
15.152340 22.624552 1.266227
15.467690 22.624552 1.026260
15.783039 22.624552 0.000000
16.098389 22.624552 0.000000
16.413738 22.624552 0.000000
16.729090 22.624552 0.000000
17.044439 22.624552 0.000000
17.359789 22.624552 0.000000
17.675138 22.624552 0.000000
17.990490 22.624552 0.000000
18.305840 22.624552 1.512905
18.621189 22.624552 1.816996
18.936539 22.624552 0.000000
19.251888 22.624552 0.000000
-7.237510 22.309200 0.000000
-6.922160 22.309200 0.009977
-6.606810 22.309200 0.006573
-6.291460 22.309200 0.006107
-5.976110 22.309200 0.006146
-5.660760 22.309200 0.006048
-5.345410 22.309200 0.005916
-5.030060 22.309200 0.006005
-4.714710 22.309200 0.006108
-4.399360 22.309200 0.006085
-4.084010 22.309200 0.006154
-3.768660 22.309200 0.006206
-3.453310 22.309200 0.006232
-3.137960 22.309200 0.006250
-2.822610 22.309200 0.006282
-2.507260 22.309200 0.006363
-2.191910 22.309200 0.006403
-1.876560 22.309200 0.006391
-1.561210 22.309200 0.006433
-1.245860 22.309200 0.006640
-0.930510 22.309200 0.006944
-0.615160 22.309200 0.007128
-0.299810 22.309200 0.007144
0.015540 22.309200 0.007329
0.330890 22.309200 0.007563
0.646240 22.309200 0.007881
0.961589 22.309200 0.008442
1.276940 22.309200 0.008900
1.592289 22.309200 0.009169
1.907640 22.309200 0.009861
2.222990 22.309200 0.010774
2.538340 22.309200 0.011558
2.853690 22.309200 0.012381
3.169039 22.309200 0.013230
3.484390 22.309200 0.014270
3.799739 22.309200 0.015547
4.115090 22.309200 0.017214
4.430439 22.309200 0.018903
4.745790 22.309200 0.020927
5.061140 22.309200 0.023438
5.376490 22.309200 0.026643
5.691840 22.309200 0.030299
6.007189 22.309200 0.034810
6.322540 22.309200 0.040891
6.637889 22.309200 0.049627
6.953240 22.309200 0.062253
7.268589 22.309200 0.080687
7.583940 22.309200 0.104771
7.899290 22.309200 0.136053
8.214640 22.309200 0.179681
8.529989 22.309200 0.236682
8.845339 22.309200 0.299647
9.160688 22.309200 0.379718
9.476040 22.309200 0.479491
9.791389 22.309200 0.584428
10.106739 22.309200 0.690481
10.422089 22.309200 0.791050
10.737438 22.309200 0.909858
11.052790 22.309200 1.018401
11.368139 22.309200 1.118863
11.683489 22.309200 1.217774
11.998838 22.309200 1.329404
12.314190 22.309200 1.427183
12.629539 22.309200 1.503850
12.944889 22.309200 1.589661
13.260239 22.309200 1.625186
13.575588 22.309200 1.649933
13.890940 22.309200 1.676257
14.206289 22.309200 1.618380
14.521639 22.309200 1.530752
14.836988 22.309200 1.421965
15.152340 22.309200 1.268440
15.467690 22.309200 1.035147
15.783039 22.309200 0.000000
16.098389 22.309200 0.000000
16.413738 22.309200 0.000000
16.729090 22.309200 0.000000
17.044439 22.309200 0.000000
17.359789 22.309200 0.000000
17.675138 22.309200 0.000000
17.990490 22.309200 0.000000
18.305840 22.309200 1.502403
18.621189 22.309200 1.818266
18.936539 22.309200 0.000000
19.251888 22.309200 0.000000
-7.237510 21.993851 0.000000
-6.922160 21.993851 0.009165
-6.606810 21.993851 0.006021
-6.291460 21.993851 0.005717
-5.976110 21.993851 0.005768
-5.660760 21.993851 0.005646
-5.345410 21.993851 0.005565
-5.030060 21.993851 0.005571
-4.714710 21.993851 0.005652
-4.399360 21.993851 0.005723
-4.084010 21.993851 0.005781
-3.768660 21.993851 0.005763
-3.453310 21.993851 0.005804
-3.137960 21.993851 0.005835
-2.822610 21.993851 0.005792
-2.507260 21.993851 0.005823
-2.191910 21.993851 0.005852
-1.876560 21.993851 0.005901
-1.561210 21.993851 0.006011
-1.245860 21.993851 0.006112
-0.930510 21.993851 0.006296
-0.615160 21.993851 0.006478
-0.299810 21.993851 0.006533
0.015540 21.993851 0.006713
0.330890 21.993851 0.006800
0.646240 21.993851 0.007250
0.961589 21.993851 0.007830
1.276940 21.993851 0.008184
1.592289 21.993851 0.008537
1.907640 21.993851 0.009103
2.222990 21.993851 0.009991
2.538340 21.993851 0.010895
2.853690 21.993851 0.011680
3.169039 21.993851 0.012628
3.484390 21.993851 0.013624
3.799739 21.993851 0.014885
4.115090 21.993851 0.016517
4.430439 21.993851 0.018194
4.745790 21.993851 0.020306
5.061140 21.993851 0.022913
5.376490 21.993851 0.026176
5.691840 21.993851 0.030033
6.007189 21.993851 0.034861
6.322540 21.993851 0.041172
6.637889 21.993851 0.049794
6.953240 21.993851 0.063163
7.268589 21.993851 0.080834
7.583940 21.993851 0.105681
7.899290 21.993851 0.138130
8.214640 21.993851 0.181955
8.529989 21.993851 0.236767
8.845339 21.993851 0.298302
9.160688 21.993851 0.381888
9.476040 21.993851 0.484345
9.791389 21.993851 0.598239
10.106739 21.993851 0.701136
10.422089 21.993851 0.801096
10.737438 21.993851 0.911719
11.052790 21.993851 1.040091
11.368139 21.993851 1.129400
11.683489 21.993851 1.222213
11.998838 21.993851 1.326691
12.314190 21.993851 1.412479
12.629539 21.993851 1.507572
12.944889 21.993851 1.587346
13.260239 21.993851 1.630630
13.575588 21.993851 1.671387
13.890940 21.993851 1.674361
14.206289 21.993851 1.616517
14.521639 21.993851 1.525675
14.836988 21.993851 1.430850
15.152340 21.993851 1.287093
15.467690 21.993851 1.024101
15.783039 21.993851 0.000000
16.098389 21.993851 0.000000
16.413738 21.993851 0.000000
16.729090 21.993851 0.000000
17.044439 21.993851 0.000000
17.359789 21.993851 0.000000
17.675138 21.993851 0.000000
17.990490 21.993851 0.000000
18.305840 21.993851 1.500487
18.621189 21.993851 1.852858
18.936539 21.993851 0.000000
19.251888 21.993851 0.000000
-7.237510 21.678501 0.000000
-6.922160 21.678501 0.008374
-6.606810 21.678501 0.005563
-6.291460 21.678501 0.005349
-5.976110 21.678501 0.005369
-5.660760 21.678501 0.005280
-5.345410 21.678501 0.005284
-5.030060 21.678501 0.005217
-4.714710 21.678501 0.005277
-4.399360 21.678501 0.005363
-4.084010 21.678501 0.005412
-3.768660 21.678501 0.005327
-3.453310 21.678501 0.005348
-3.137960 21.678501 0.005365
-2.822610 21.678501 0.005394
-2.507260 21.678501 0.005342
-2.191910 21.678501 0.005382
-1.876560 21.678501 0.005514
-1.561210 21.678501 0.005613
-1.245860 21.678501 0.005611
-0.930510 21.678501 0.005711
-0.615160 21.678501 0.005857
-0.299810 21.678501 0.006006
0.015540 21.678501 0.006120
0.330890 21.678501 0.006279
0.646240 21.678501 0.006689
0.961589 21.678501 0.007203
1.276940 21.678501 0.007543
1.592289 21.678501 0.007877
1.907640 21.678501 0.008376
2.222990 21.678501 0.009261
2.538340 21.678501 0.010099
2.853690 21.678501 0.011000
3.169039 21.678501 0.011900
3.484390 21.678501 0.012864
3.799739 21.678501 0.014179
4.115090 21.678501 0.015719
4.430439 21.678501 0.017379
4.745790 21.678501 0.019586
5.061140 21.678501 0.022329
5.376490 21.678501 0.025619
5.691840 21.678501 0.029704
6.007189 21.678501 0.034719
6.322540 21.678501 0.041190
6.637889 21.678501 0.050112
6.953240 21.678501 0.063446
7.268589 21.678501 0.080746
7.583940 21.678501 0.106338
7.899290 21.678501 0.141285
8.214640 21.678501 0.185027
8.529989 21.678501 0.240394
8.845339 21.678501 0.305324
9.160688 21.678501 0.388686
9.476040 21.678501 0.489281
9.791389 21.678501 0.599148
10.106739 21.678501 0.704773
10.422089 21.678501 0.810640
10.737438 21.678501 0.923180
11.052790 21.678501 1.034930
11.368139 21.678501 1.129052
11.683489 21.678501 1.221841
11.998838 21.678501 1.334646
12.314190 21.678501 1.430037
12.629539 21.678501 1.505710
12.944889 21.678501 1.559129
13.260239 21.678501 1.602076
13.575588 21.678501 1.645605
13.890940 21.678501 1.658228
14.206289 21.678501 1.625946
14.521639 21.678501 1.541724
14.836988 21.678501 1.407907
15.152340 21.678501 1.292782
15.467690 21.678501 1.041609
15.783039 21.678501 0.000000
16.098389 21.678501 0.000000
16.413738 21.678501 0.000000
16.729090 21.678501 0.000000
17.044439 21.678501 0.000000
17.359789 21.678501 0.000000
17.675138 21.678501 0.000000
17.990490 21.678501 0.000000
18.305840 21.678501 1.548976
18.621189 21.678501 1.872345
18.936539 21.678501 0.000000
19.251888 21.678501 0.000000
-7.237510 21.363152 0.000000
-6.922160 21.363152 0.007774
-6.606810 21.363152 0.005193
-6.291460 21.363152 0.004964
-5.976110 21.363152 0.005013
-5.660760 21.363152 0.005054
-5.345410 21.363152 0.005017
-5.030060 21.363152 0.004931
-4.714710 21.363152 0.004922
-4.399360 21.363152 0.005018
-4.084010 21.363152 0.005022
-3.768660 21.363152 0.004961
-3.453310 21.363152 0.004945
-3.137960 21.363152 0.004942
-2.822610 21.363152 0.004936
-2.507260 21.363152 0.004918
-2.191910 21.363152 0.004977
-1.876560 21.363152 0.005099
-1.561210 21.363152 0.005120
-1.245860 21.363152 0.005168
-0.930510 21.363152 0.005224
-0.615160 21.363152 0.005330
-0.299810 21.363152 0.005519
0.015540 21.363152 0.005664
0.330890 21.363152 0.005844
0.646240 21.363152 0.006110
0.961589 21.363152 0.006525
1.276940 21.363152 0.006876
1.592289 21.363152 0.007242
1.907640 21.363152 0.007586
2.222990 21.363152 0.008461
2.538340 21.363152 0.009233
2.853690 21.363152 0.010128
3.169039 21.363152 0.011044
3.484390 21.363152 0.012092
3.799739 21.363152 0.013349
4.115090 21.363152 0.014834
4.430439 21.363152 0.016573
4.745790 21.363152 0.018892
5.061140 21.363152 0.021625
5.376490 21.363152 0.024971
5.691840 21.363152 0.029250
6.007189 21.363152 0.034331
6.322540 21.363152 0.040949
6.637889 21.363152 0.050177
6.953240 21.363152 0.063493
7.268589 21.363152 0.081844
7.583940 21.363152 0.108101
7.899290 21.363152 0.139584
8.214640 21.363152 0.184170
8.529989 21.363152 0.239762
8.845339 21.363152 0.309516
9.160688 21.363152 0.391281
9.476040 21.363152 0.488331
9.791389 21.363152 0.592163
10.106739 21.363152 0.703964
10.422089 21.363152 0.811260
10.737438 21.363152 0.915808
11.052790 21.363152 1.020998
11.368139 21.363152 1.123865
11.683489 21.363152 1.221176
11.998838 21.363152 1.331783
12.314190 21.363152 1.418715
12.629539 21.363152 1.495021
12.944889 21.363152 1.566996
13.260239 21.363152 1.619972
13.575588 21.363152 1.638943
13.890940 21.363152 1.670967
14.206289 21.363152 1.639619
14.521639 21.363152 1.562451
14.836988 21.363152 1.415956
15.152340 21.363152 1.313453
15.467690 21.363152 1.023636
15.783039 21.363152 0.000000
16.098389 21.363152 0.000000
16.413738 21.363152 0.000000
16.729090 21.363152 0.000000
17.044439 21.363152 0.000000
17.359789 21.363152 0.000000
17.675138 21.363152 0.000000
17.990490 21.363152 0.000000
18.305840 21.363152 1.610071
18.621189 21.363152 1.868103
18.936539 21.363152 0.000000
19.251888 21.363152 0.000000
-7.237510 21.047800 0.000000
-6.922160 21.047800 0.007261
-6.606810 21.047800 0.004895
-6.291460 21.047800 0.004596
-5.976110 21.047800 0.004673
-5.660760 21.047800 0.004740
-5.345410 21.047800 0.004719
-5.030060 21.047800 0.004610
-4.714710 21.047800 0.004598
-4.399360 21.047800 0.004616
-4.084010 21.047800 0.004605
-3.768660 21.047800 0.004537
-3.453310 21.047800 0.004566
-3.137960 21.047800 0.004569
-2.822610 21.047800 0.004516
-2.507260 21.047800 0.004472
-2.191910 21.047800 0.004547
-1.876560 21.047800 0.004595
-1.561210 21.047800 0.004664
-1.245860 21.047800 0.004726
-0.930510 21.047800 0.004793
-0.615160 21.047800 0.004880
-0.299810 21.047800 0.004990
0.015540 21.047800 0.005157
0.330890 21.047800 0.005349
0.646240 21.047800 0.005607
0.961589 21.047800 0.005867
1.276940 21.047800 0.006227
1.592289 21.047800 0.006602
1.907640 21.047800 0.006892
2.222990 21.047800 0.007631
2.538340 21.047800 0.008310
2.853690 21.047800 0.009007
3.169039 21.047800 0.009992
3.484390 21.047800 0.011233
3.799739 21.047800 0.012534
4.115090 21.047800 0.014027
4.430439 21.047800 0.015820
4.745790 21.047800 0.018139
5.061140 21.047800 0.020888
5.376490 21.047800 0.024337
5.691840 21.047800 0.028645
6.007189 21.047800 0.033706
6.322540 21.047800 0.040352
6.637889 21.047800 0.049564
6.953240 21.047800 0.063385
7.268589 21.047800 0.082182
7.583940 21.047800 0.107295
7.899290 21.047800 0.139227
8.214640 21.047800 0.186381
8.529989 21.047800 0.241098
8.845339 21.047800 0.315437
9.160688 21.047800 0.396762
9.476040 21.047800 0.482236
9.791389 21.047800 0.584731
10.106739 21.047800 0.696504
10.422089 21.047800 0.806369
10.737438 21.047800 0.924429
11.052790 21.047800 1.026214
11.368139 21.047800 1.130538
11.683489 21.047800 1.230660
11.998838 21.047800 1.330991
12.314190 21.047800 1.431457
12.629539 21.047800 1.506128
12.944889 21.047800 1.588205
13.260239 21.047800 1.629480
13.575588 21.047800 1.657711
13.890940 21.047800 1.682103
14.206289 21.047800 1.649883
14.521639 21.047800 1.561955
14.836988 21.047800 1.428144
15.152340 21.047800 1.317263
15.467690 21.047800 1.007517
15.783039 21.047800 0.000000
16.098389 21.047800 0.000000
16.413738 21.047800 0.000000
16.729090 21.047800 0.000000
17.044439 21.047800 0.000000
17.359789 21.047800 0.000000
17.675138 21.047800 0.000000
17.990490 21.047800 0.000000
18.305840 21.047800 1.685142
18.621189 21.047800 1.920972
18.936539 21.047800 0.000000
19.251888 21.047800 0.000000
-7.237510 20.732450 0.000000
-6.922160 20.732450 0.006868
-6.606810 20.732450 0.004642
-6.291460 20.732450 0.004315
-5.976110 20.732450 0.004410
-5.660760 20.732450 0.004424
-5.345410 20.732450 0.004365
-5.030060 20.732450 0.004287
-4.714710 20.732450 0.004245
-4.399360 20.732450 0.004262
-4.084010 20.732450 0.004239
-3.768660 20.732450 0.004188
-3.453310 20.732450 0.004210
-3.137960 20.732450 0.004259
-2.822610 20.732450 0.004206
-2.507260 20.732450 0.004122
-2.191910 20.732450 0.004092
-1.876560 20.732450 0.004139
-1.561210 20.732450 0.004212
-1.245860 20.732450 0.004339
-0.930510 20.732450 0.004411
-0.615160 20.732450 0.004422
-0.299810 20.732450 0.004507
0.015540 20.732450 0.004704
0.330890 20.732450 0.004863
0.646240 20.732450 0.005091
0.961589 20.732450 0.005210
1.276940 20.732450 0.005581
1.592289 20.732450 0.005959
1.907640 20.732450 0.006290
2.222990 20.732450 0.006859
2.538340 20.732450 0.007388
2.853690 20.732450 0.008058
3.169039 20.732450 0.009013
3.484390 20.732450 0.010303
3.799739 20.732450 0.011681
4.115090 20.732450 0.013267
4.430439 20.732450 0.015089
4.745790 20.732450 0.017336
5.061140 20.732450 0.020085
5.376490 20.732450 0.023435
5.691840 20.732450 0.027714
6.007189 20.732450 0.033098
6.322540 20.732450 0.040168
6.637889 20.732450 0.049617
6.953240 20.732450 0.063389
7.268589 20.732450 0.082246
7.583940 20.732450 0.109474
7.899290 20.732450 0.142238
8.214640 20.732450 0.186137
8.529989 20.732450 0.248213
8.845339 20.732450 0.319128
9.160688 20.732450 0.397427
9.476040 20.732450 0.495681
9.791389 20.732450 0.592971
10.106739 20.732450 0.693118
10.422089 20.732450 0.807524
10.737438 20.732450 0.929831
11.052790 20.732450 1.036713
11.368139 20.732450 1.143950
11.683489 20.732450 1.239775
11.998838 20.732450 1.321967
12.314190 20.732450 1.411230
12.629539 20.732450 1.509818
12.944889 20.732450 1.607384
13.260239 20.732450 1.669152
13.575588 20.732450 1.678465
13.890940 20.732450 1.693909
14.206289 20.732450 1.652853
14.521639 20.732450 1.563497
14.836988 20.732450 1.448265
15.152340 20.732450 1.315498
15.467690 20.732450 0.995559
15.783039 20.732450 0.000000
16.098389 20.732450 0.000000
16.413738 20.732450 0.000000
16.729090 20.732450 0.000000
17.044439 20.732450 0.000000
17.359789 20.732450 0.000000
17.675138 20.732450 0.000000
17.990490 20.732450 0.000000
18.305840 20.732450 1.815443
18.621189 20.732450 1.967153
18.936539 20.732450 0.000000
19.251888 20.732450 0.000000
-7.237510 20.417101 0.000000
-6.922160 20.417101 0.006581
-6.606810 20.417101 0.004426
-6.291460 20.417101 0.004112
-5.976110 20.417101 0.004164
-5.660760 20.417101 0.004115
-5.345410 20.417101 0.004024
-5.030060 20.417101 0.003991
-4.714710 20.417101 0.003964
-4.399360 20.417101 0.004016
-4.084010 20.417101 0.004016
-3.768660 20.417101 0.003914
-3.453310 20.417101 0.003917
-3.137960 20.417101 0.003970
-2.822610 20.417101 0.003894
-2.507260 20.417101 0.003798
-2.191910 20.417101 0.003709
-1.876560 20.417101 0.003762
-1.561210 20.417101 0.003847
-1.245860 20.417101 0.003956
-0.930510 20.417101 0.004046
-0.615160 20.417101 0.004041
-0.299810 20.417101 0.004106
0.015540 20.417101 0.004249
0.330890 20.417101 0.004439
0.646240 20.417101 0.004607
0.961589 20.417101 0.004687
1.276940 20.417101 0.005015
1.592289 20.417101 0.005391
1.907640 20.417101 0.005806
2.222990 20.417101 0.006080
2.538340 20.417101 0.006528
2.853690 20.417101 0.007221
3.169039 20.417101 0.008158
3.484390 20.417101 0.009387
3.799739 20.417101 0.010859
4.115090 20.417101 0.012473
4.430439 20.417101 0.014348
4.745790 20.417101 0.016553
5.061140 20.417101 0.019256
5.376490 20.417101 0.022704
5.691840 20.417101 0.026963
6.007189 20.417101 0.032601
6.322540 20.417101 0.039471
6.637889 20.417101 0.049478
6.953240 20.417101 0.063764
7.268589 20.417101 0.083924
7.583940 20.417101 0.110417
7.899290 20.417101 0.144244
8.214640 20.417101 0.188201
8.529989 20.417101 0.247946
8.845339 20.417101 0.320592
9.160688 20.417101 0.404412
9.476040 20.417101 0.503947
9.791389 20.417101 0.606925
10.106739 20.417101 0.714423
10.422089 20.417101 0.817788
10.737438 20.417101 0.936296
11.052790 20.417101 1.047254
11.368139 20.417101 1.151225
11.683489 20.417101 1.252859
11.998838 20.417101 1.320050
12.314190 20.417101 1.428293
12.629539 20.417101 1.522564
12.944889 20.417101 1.597089
13.260239 20.417101 1.659479
13.575588 20.417101 1.703394
13.890940 20.417101 1.694387
14.206289 20.417101 1.661835
14.521639 20.417101 1.576246
14.836988 20.417101 1.445100
15.152340 20.417101 1.332610
15.467690 20.417101 0.987395
15.783039 20.417101 0.000000
16.098389 20.417101 0.000000
16.413738 20.417101 0.000000
16.729090 20.417101 0.000000
17.044439 20.417101 0.000000
17.359789 20.417101 0.000000
17.675138 20.417101 0.000000
17.990490 20.417101 0.000000
18.305840 20.417101 1.887630
18.621189 20.417101 2.020307
18.936539 20.417101 0.000000
19.251888 20.417101 0.000000
-7.237510 20.101751 0.000000
-6.922160 20.101751 0.006256
-6.606810 20.101751 0.004226
-6.291460 20.101751 0.003889
-5.976110 20.101751 0.003913
-5.660760 20.101751 0.003908
-5.345410 20.101751 0.003793
-5.030060 20.101751 0.003777
-4.714710 20.101751 0.003779
-4.399360 20.101751 0.003855
-4.084010 20.101751 0.003834
-3.768660 20.101751 0.003701
-3.453310 20.101751 0.003674
-3.137960 20.101751 0.003691
-2.822610 20.101751 0.003590
-2.507260 20.101751 0.003481
-2.191910 20.101751 0.003453
-1.876560 20.101751 0.003486
-1.561210 20.101751 0.003555
-1.245860 20.101751 0.003615
-0.930510 20.101751 0.003702
-0.615160 20.101751 0.003733
-0.299810 20.101751 0.003793
0.015540 20.101751 0.003921
0.330890 20.101751 0.004040
0.646240 20.101751 0.004118
0.961589 20.101751 0.004258
1.276940 20.101751 0.004595
1.592289 20.101751 0.004949
1.907640 20.101751 0.005262
2.222990 20.101751 0.005456
2.538340 20.101751 0.005848
2.853690 20.101751 0.006529
3.169039 20.101751 0.007384
3.484390 20.101751 0.008602
3.799739 20.101751 0.010035
4.115090 20.101751 0.011623
4.430439 20.101751 0.013548
4.745790 20.101751 0.015708
5.061140 20.101751 0.018448
5.376490 20.101751 0.021961
5.691840 20.101751 0.026277
6.007189 20.101751 0.031949
6.322540 20.101751 0.039133
6.637889 20.101751 0.049316
6.953240 20.101751 0.063337
7.268589 20.101751 0.083879
7.583940 20.101751 0.108921
7.899290 20.101751 0.143654
8.214640 20.101751 0.190050
8.529989 20.101751 0.247469
8.845339 20.101751 0.315708
9.160688 20.101751 0.401280
9.476040 20.101751 0.510128
9.791389 20.101751 0.617463
10.106739 20.101751 0.720187
10.422089 20.101751 0.833295
10.737438 20.101751 0.938539
11.052790 20.101751 1.040928
11.368139 20.101751 1.144647
11.683489 20.101751 1.252791
11.998838 20.101751 1.332711
12.314190 20.101751 1.427333
12.629539 20.101751 1.534698
12.944889 20.101751 1.603851
13.260239 20.101751 1.658829
13.575588 20.101751 1.692383
13.890940 20.101751 1.705622
14.206289 20.101751 1.684901
14.521639 20.101751 1.584248
14.836988 20.101751 1.450965
15.152340 20.101751 1.334934
15.467690 20.101751 0.983460
15.783039 20.101751 0.000000
16.098389 20.101751 0.000000
16.413738 20.101751 0.000000
16.729090 20.101751 0.000000
17.044439 20.101751 0.000000
17.359789 20.101751 0.000000
17.675138 20.101751 0.000000
17.990490 20.101751 0.000000
18.305840 20.101751 1.942283
18.621189 20.101751 2.118024
18.936539 20.101751 0.000000
19.251888 20.101751 0.000000
-7.237510 19.786402 0.000000
-6.922160 19.786402 0.006010
-6.606810 19.786402 0.004062
-6.291460 19.786402 0.003704
-5.976110 19.786402 0.003720
-5.660760 19.786402 0.003739
-5.345410 19.786402 0.003679
-5.030060 19.786402 0.003660
-4.714710 19.786402 0.003605
-4.399360 19.786402 0.003639
-4.084010 19.786402 0.003616
-3.768660 19.786402 0.003499
-3.453310 19.786402 0.003445
-3.137960 19.786402 0.003452
-2.822610 19.786402 0.003354
-2.507260 19.786402 0.003242
-2.191910 19.786402 0.003222
-1.876560 19.786402 0.003268
-1.561210 19.786402 0.003313
-1.245860 19.786402 0.003338
-0.930510 19.786402 0.003351
-0.615160 19.786402 0.003422
-0.299810 19.786402 0.003504
0.015540 19.786402 0.003620
0.330890 19.786402 0.003663
0.646240 19.786402 0.003742
0.961589 19.786402 0.003948
1.276940 19.786402 0.004188
1.592289 19.786402 0.004535
1.907640 19.786402 0.004813
2.222990 19.786402 0.004979
2.538340 19.786402 0.005358
2.853690 19.786402 0.005923
3.169039 19.786402 0.006767
3.484390 19.786402 0.007912
3.799739 19.786402 0.009232
4.115090 19.786402 0.010878
4.430439 19.786402 0.012745
4.745790 19.786402 0.014868
5.061140 19.786402 0.017732
5.376490 19.786402 0.021099
5.691840 19.786402 0.025340
6.007189 19.786402 0.031154
6.322540 19.786402 0.038737
6.637889 19.786402 0.049141
6.953240 19.786402 0.063995
7.268589 19.786402 0.084954
7.583940 19.786402 0.109790
7.899290 19.786402 0.142963
8.214640 19.786402 0.190798
8.529989 19.786402 0.245782
8.845339 19.786402 0.316099
9.160688 19.786402 0.400601
9.476040 19.786402 0.501076
9.791389 19.786402 0.606688
10.106739 19.786402 0.723753
10.422089 19.786402 0.838012
10.737438 19.786402 0.946903
11.052790 19.786402 1.046136
11.368139 19.786402 1.150691
11.683489 19.786402 1.244120
11.998838 19.786402 1.313587
12.314190 19.786402 1.428856
12.629539 19.786402 1.520346
12.944889 19.786402 1.582125
13.260239 19.786402 1.656821
13.575588 19.786402 1.683890
13.890940 19.786402 1.689876
14.206289 19.786402 1.692340
14.521639 19.786402 1.603523
14.836988 19.786402 1.462488
15.152340 19.786402 1.351529
15.467690 19.786402 0.980599
15.783039 19.786402 0.000000
16.098389 19.786402 0.000000
16.413738 19.786402 0.000000
16.729090 19.786402 0.000000
17.044439 19.786402 0.000000
17.359789 19.786402 0.000000
17.675138 19.786402 0.000000
17.990490 19.786402 0.000000
18.305840 19.786402 1.981358
18.621189 19.786402 2.175299
18.936539 19.786402 0.000000
19.251888 19.786402 0.000000
-7.237510 19.471050 0.000000
-6.922160 19.471050 0.005719
-6.606810 19.471050 0.003909
-6.291460 19.471050 0.003535
-5.976110 19.471050 0.003526
-5.660760 19.471050 0.003567
-5.345410 19.471050 0.003570
-5.030060 19.471050 0.003507
-4.714710 19.471050 0.003413
-4.399360 19.471050 0.003376
-4.084010 19.471050 0.003327
-3.768660 19.471050 0.003293
-3.453310 19.471050 0.003230
-3.137960 19.471050 0.003227
-2.822610 19.471050 0.003146
-2.507260 19.471050 0.003084
-2.191910 19.471050 0.003094
-1.876560 19.471050 0.003099
-1.561210 19.471050 0.003117
-1.245860 19.471050 0.003100
-0.930510 19.471050 0.003139
-0.615160 19.471050 0.003204
-0.299810 19.471050 0.003297
0.015540 19.471050 0.003343
0.330890 19.471050 0.003371
0.646240 19.471050 0.003440
0.961589 19.471050 0.003593
1.276940 19.471050 0.003809
1.592289 19.471050 0.004089
1.907640 19.471050 0.004399
2.222990 19.471050 0.004556
2.538340 19.471050 0.004941
2.853690 19.471050 0.005465
3.169039 19.471050 0.006260
3.484390 19.471050 0.007264
3.799739 19.471050 0.008461
4.115090 19.471050 0.010077
4.430439 19.471050 0.011883
4.745790 19.471050 0.014066
5.061140 19.471050 0.016951
5.376490 19.471050 0.020219
5.691840 19.471050 0.024428
6.007189 19.471050 0.030094
6.322540 19.471050 0.037972
6.637889 19.471050 0.048984
6.953240 19.471050 0.063683
7.268589 19.471050 0.083575
7.583940 19.471050 0.109824
7.899290 19.471050 0.143400
8.214640 19.471050 0.189983
8.529989 19.471050 0.249996
8.845339 19.471050 0.322877
9.160688 19.471050 0.411762
9.476040 19.471050 0.503649
9.791389 19.471050 0.605040
10.106739 19.471050 0.716999
10.422089 19.471050 0.832338
10.737438 19.471050 0.936292
11.052790 19.471050 1.025922
11.368139 19.471050 1.139086
11.683489 19.471050 1.231594
11.998838 19.471050 1.324623
12.314190 19.471050 1.428370
12.629539 19.471050 1.522635
12.944889 19.471050 1.597195
13.260239 19.471050 1.616363
13.575588 19.471050 1.658321
13.890940 19.471050 1.674846
14.206289 19.471050 1.683501
14.521639 19.471050 1.604777
14.836988 19.471050 1.482215
15.152340 19.471050 1.358005
15.467690 19.471050 0.959749
15.783039 19.471050 0.000000
16.098389 19.471050 0.000000
16.413738 19.471050 0.000000
16.729090 19.471050 0.000000
17.044439 19.471050 0.000000
17.359789 19.471050 0.000000
17.675138 19.471050 0.000000
17.990490 19.471050 0.000000
18.305840 19.471050 2.121300
18.621189 19.471050 2.247427
18.936539 19.471050 0.000000
19.251888 19.471050 0.000000
-7.237510 19.155701 0.000000
-6.922160 19.155701 0.005522
-6.606810 19.155701 0.003755
-6.291460 19.155701 0.003378
-5.976110 19.155701 0.003376
-5.660760 19.155701 0.003375
-5.345410 19.155701 0.003430
-5.030060 19.155701 0.003399
-4.714710 19.155701 0.003261
-4.399360 19.155701 0.003145
-4.084010 19.155701 0.003068
-3.768660 19.155701 0.003075
-3.453310 19.155701 0.003032
-3.137960 19.155701 0.003002
-2.822610 19.155701 0.003000
-2.507260 19.155701 0.002955
-2.191910 19.155701 0.002996
-1.876560 19.155701 0.002967
-1.561210 19.155701 0.002921
-1.245860 19.155701 0.002951
-0.930510 19.155701 0.002975
-0.615160 19.155701 0.003030
-0.299810 19.155701 0.003091
0.015540 19.155701 0.003101
0.330890 19.155701 0.003116
0.646240 19.155701 0.003123
0.961589 19.155701 0.003265
1.276940 19.155701 0.003472
1.592289 19.155701 0.003746
1.907640 19.155701 0.004027
2.222990 19.155701 0.004272
2.538340 19.155701 0.004605
2.853690 19.155701 0.005058
3.169039 19.155701 0.005759
3.484390 19.155701 0.006593
3.799739 19.155701 0.007801
4.115090 19.155701 0.009214
4.430439 19.155701 0.010981
4.745790 19.155701 0.013276
5.061140 19.155701 0.016099
5.376490 19.155701 0.019422
5.691840 19.155701 0.023586
6.007189 19.155701 0.029445
6.322540 19.155701 0.037304
6.637889 19.155701 0.048791
6.953240 19.155701 0.064095
7.268589 19.155701 0.083888
7.583940 19.155701 0.110466
7.899290 19.155701 0.144237
8.214640 19.155701 0.193763
8.529989 19.155701 0.257155
8.845339 19.155701 0.328402
9.160688 19.155701 0.419508
9.476040 19.155701 0.512458
9.791389 19.155701 0.612594
10.106739 19.155701 0.716104
10.422089 19.155701 0.837321
10.737438 19.155701 0.932835
11.052790 19.155701 1.037870
11.368139 19.155701 1.138704
11.683489 19.155701 1.233051
11.998838 19.155701 1.337414
12.314190 19.155701 1.447536
12.629539 19.155701 1.526904
12.944889 19.155701 1.590201
13.260239 19.155701 1.630881
13.575588 19.155701 1.661386
13.890940 19.155701 1.675144
14.206289 19.155701 1.669965
14.521639 19.155701 1.610810
14.836988 19.155701 1.486298
15.152340 19.155701 1.388511
15.467690 19.155701 0.955698
15.783039 19.155701 0.000000
16.098389 19.155701 0.000000
16.413738 19.155701 0.000000
16.729090 19.155701 0.000000
17.044439 19.155701 0.000000
17.359789 19.155701 0.000000
17.675138 19.155701 0.000000
17.990490 19.155701 0.000000
18.305840 19.155701 2.172294
18.621189 19.155701 2.417194
18.936539 19.155701 0.000000
19.251888 19.155701 0.000000
-7.237510 18.840351 0.000000
-6.922160 18.840351 0.005370
-6.606810 18.840351 0.003621
-6.291460 18.840351 0.003244
-5.976110 18.840351 0.003240
-5.660760 18.840351 0.003248
-5.345410 18.840351 0.003307
-5.030060 18.840351 0.003290
-4.714710 18.840351 0.003154
-4.399360 18.840351 0.002996
-4.084010 18.840351 0.002908
-3.768660 18.840351 0.002924
-3.453310 18.840351 0.002867
-3.137960 18.840351 0.002872
-2.822610 18.840351 0.002870
-2.507260 18.840351 0.002865
-2.191910 18.840351 0.002904
-1.876560 18.840351 0.002855
-1.561210 18.840351 0.002806
-1.245860 18.840351 0.002809
-0.930510 18.840351 0.002829
-0.615160 18.840351 0.002869
-0.299810 18.840351 0.002868
0.015540 18.840351 0.002866
0.330890 18.840351 0.002851
0.646240 18.840351 0.002921
0.961589 18.840351 0.003048
1.276940 18.840351 0.003224
1.592289 18.840351 0.003466
1.907640 18.840351 0.003674
2.222990 18.840351 0.003968
2.538340 18.840351 0.004299
2.853690 18.840351 0.004701
3.169039 18.840351 0.005262
3.484390 18.840351 0.005959
3.799739 18.840351 0.007030
4.115090 18.840351 0.008417
4.430439 18.840351 0.010242
4.745790 18.840351 0.012455
5.061140 18.840351 0.015361
5.376490 18.840351 0.018644
5.691840 18.840351 0.023005
6.007189 18.840351 0.028925
6.322540 18.840351 0.037376
6.637889 18.840351 0.049192
6.953240 18.840351 0.063468
7.268589 18.840351 0.084214
7.583940 18.840351 0.111170
7.899290 18.840351 0.146251
8.214640 18.840351 0.196529
8.529989 18.840351 0.260067
8.845339 18.840351 0.332679
9.160688 18.840351 0.421935
9.476040 18.840351 0.520559
9.791389 18.840351 0.622481
10.106739 18.840351 0.727753
10.422089 18.840351 0.841504
10.737438 18.840351 0.928112
11.052790 18.840351 1.044266
11.368139 18.840351 1.150589
11.683489 18.840351 1.242208
11.998838 18.840351 1.337550
12.314190 18.840351 1.427717
12.629539 18.840351 1.524585
12.944889 18.840351 1.582103
13.260239 18.840351 1.652387
13.575588 18.840351 1.660143
13.890940 18.840351 1.686453
14.206289 18.840351 1.655948
14.521639 18.840351 1.603643
14.836988 18.840351 1.507726
15.152340 18.840351 1.431241
15.467690 18.840351 0.950056
15.783039 18.840351 0.000000
16.098389 18.840351 0.000000
16.413738 18.840351 0.000000
16.729090 18.840351 0.000000
17.044439 18.840351 0.000000
17.359789 18.840351 0.000000
17.675138 18.840351 0.000000
17.990490 18.840351 0.000000
18.305840 18.840351 2.224947
18.621189 18.840351 2.419604
18.936539 18.840351 0.000000
19.251888 18.840351 0.000000
-7.237510 18.525002 0.000000
-6.922160 18.525002 0.005260
-6.606810 18.525002 0.003534
-6.291460 18.525002 0.003192
-5.976110 18.525002 0.003154
-5.660760 18.525002 0.003158
-5.345410 18.525002 0.003169
-5.030060 18.525002 0.003146
-4.714710 18.525002 0.003075
-4.399360 18.525002 0.002950
-4.084010 18.525002 0.002880
-3.768660 18.525002 0.002827
-3.453310 18.525002 0.002776
-3.137960 18.525002 0.002800
-2.822610 18.525002 0.002797
-2.507260 18.525002 0.002770
-2.191910 18.525002 0.002807
-1.876560 18.525002 0.002771
-1.561210 18.525002 0.002743
-1.245860 18.525002 0.002713
-0.930510 18.525002 0.002706
-0.615160 18.525002 0.002726
-0.299810 18.525002 0.002714
0.015540 18.525002 0.002691
0.330890 18.525002 0.002706
0.646240 18.525002 0.002812
0.961589 18.525002 0.002944
1.276940 18.525002 0.003060
1.592289 18.525002 0.003252
1.907640 18.525002 0.003444
2.222990 18.525002 0.003683
2.538340 18.525002 0.004028
2.853690 18.525002 0.004393
3.169039 18.525002 0.004882
3.484390 18.525002 0.005515
3.799739 18.525002 0.006468
4.115090 18.525002 0.007850
4.430439 18.525002 0.009604
4.745790 18.525002 0.011752
5.061140 18.525002 0.014634
5.376490 18.525002 0.018063
5.691840 18.525002 0.022529
6.007189 18.525002 0.028818
6.322540 18.525002 0.037458
6.637889 18.525002 0.049102
6.953240 18.525002 0.064579
7.268589 18.525002 0.084604
7.583940 18.525002 0.111540
7.899290 18.525002 0.147723
8.214640 18.525002 0.199802
8.529989 18.525002 0.261482
8.845339 18.525002 0.337273
9.160688 18.525002 0.419339
9.476040 18.525002 0.525284
9.791389 18.525002 0.626199
10.106739 18.525002 0.728582
10.422089 18.525002 0.839450
10.737438 18.525002 0.928262
11.052790 18.525002 1.046436
11.368139 18.525002 1.146993
11.683489 18.525002 1.247813
11.998838 18.525002 1.340554
12.314190 18.525002 1.421229
12.629539 18.525002 1.522099
12.944889 18.525002 1.605429
13.260239 18.525002 1.640625
13.575588 18.525002 1.673992
13.890940 18.525002 1.679589
14.206289 18.525002 1.647552
14.521639 18.525002 1.590427
14.836988 18.525002 1.532700
15.152340 18.525002 1.434913
15.467690 18.525002 0.939789
15.783039 18.525002 0.000000
16.098389 18.525002 0.000000
16.413738 18.525002 0.000000
16.729090 18.525002 0.000000
17.044439 18.525002 0.000000
17.359789 18.525002 0.000000
17.675138 18.525002 0.000000
17.990490 18.525002 0.000000
18.305840 18.525002 2.268073
18.621189 18.525002 2.480390
18.936539 18.525002 0.000000
19.251888 18.525002 0.000000
-7.237510 18.209652 0.000000
-6.922160 18.209652 0.005144
-6.606810 18.209652 0.003488
-6.291460 18.209652 0.003187
-5.976110 18.209652 0.003133
-5.660760 18.209652 0.003127
-5.345410 18.209652 0.003077
-5.030060 18.209652 0.003033
-4.714710 18.209652 0.002998
-4.399360 18.209652 0.002926
-4.084010 18.209652 0.002896
-3.768660 18.209652 0.002831
-3.453310 18.209652 0.002798
-3.137960 18.209652 0.002800
-2.822610 18.209652 0.002771
-2.507260 18.209652 0.002723
-2.191910 18.209652 0.002739
-1.876560 18.209652 0.002728
-1.561210 18.209652 0.002716
-1.245860 18.209652 0.002632
-0.930510 18.209652 0.002600
-0.615160 18.209652 0.002618
-0.299810 18.209652 0.002626
0.015540 18.209652 0.002595
0.330890 18.209652 0.002628
0.646240 18.209652 0.002759
0.961589 18.209652 0.002874
1.276940 18.209652 0.002973
1.592289 18.209652 0.003100
1.907640 18.209652 0.003255
2.222990 18.209652 0.003516
2.538340 18.209652 0.003764
2.853690 18.209652 0.004164
3.169039 18.209652 0.004539
3.484390 18.209652 0.005208
3.799739 18.209652 0.006157
4.115090 18.209652 0.007365
4.430439 18.209652 0.008974
4.745790 18.209652 0.011146
5.061140 18.209652 0.013984
5.376490 18.209652 0.017727
5.691840 18.209652 0.022388
6.007189 18.209652 0.028800
6.322540 18.209652 0.037528
6.637889 18.209652 0.049020
6.953240 18.209652 0.064656
7.268589 18.209652 0.085165
7.583940 18.209652 0.112332
7.899290 18.209652 0.150063
8.214640 18.209652 0.200716
8.529989 18.209652 0.260900
8.845339 18.209652 0.333996
9.160688 18.209652 0.419545
9.476040 18.209652 0.519069
9.791389 18.209652 0.627337
10.106739 18.209652 0.735480
10.422089 18.209652 0.828444
10.737438 18.209652 0.926894
11.052790 18.209652 1.035098
11.368139 18.209652 1.161611
11.683489 18.209652 1.257290
11.998838 18.209652 1.352262
12.314190 18.209652 1.431591
12.629539 18.209652 1.526147
12.944889 18.209652 1.609065
13.260239 18.209652 1.646260
13.575588 18.209652 1.667090
13.890940 18.209652 1.679415
14.206289 18.209652 1.668013
14.521639 18.209652 1.586833
14.836988 18.209652 1.530554
15.152340 18.209652 1.446784
15.467690 18.209652 0.928214
15.783039 18.209652 0.000000
16.098389 18.209652 0.000000
16.413738 18.209652 0.000000
16.729090 18.209652 0.000000
17.044439 18.209652 0.000000
17.359789 18.209652 0.000000
17.675138 18.209652 0.000000
17.990490 18.209652 0.000000
18.305840 18.209652 2.265720
18.621189 18.209652 2.407646
18.936539 18.209652 0.000000
19.251888 18.209652 0.000000
-7.237510 17.894302 0.000000
-6.922160 17.894302 0.005077
-6.606810 17.894302 0.003463
-6.291460 17.894302 0.003214
-5.976110 17.894302 0.003180
-5.660760 17.894302 0.003166
-5.345410 17.894302 0.003065
-5.030060 17.894302 0.002985
-4.714710 17.894302 0.002944
-4.399360 17.894302 0.002907
-4.084010 17.894302 0.002926
-3.768660 17.894302 0.002864
-3.453310 17.894302 0.002854
-3.137960 17.894302 0.002831
-2.822610 17.894302 0.002764
-2.507260 17.894302 0.002741
-2.191910 17.894302 0.002698
-1.876560 17.894302 0.002710
-1.561210 17.894302 0.002706
-1.245860 17.894302 0.002607
-0.930510 17.894302 0.002560
-0.615160 17.894302 0.002570
-0.299810 17.894302 0.002618
0.015540 17.894302 0.002571
0.330890 17.894302 0.002576
0.646240 17.894302 0.002728
0.961589 17.894302 0.002820
1.276940 17.894302 0.002884
1.592289 17.894302 0.002986
1.907640 17.894302 0.003114
2.222990 17.894302 0.003332
2.538340 17.894302 0.003616
2.853690 17.894302 0.003991
3.169039 17.894302 0.004431
3.484390 17.894302 0.005109
3.799739 17.894302 0.005876
4.115090 17.894302 0.007008
4.430439 17.894302 0.008493
4.745790 17.894302 0.010551
5.061140 17.894302 0.013470
5.376490 17.894302 0.017484
5.691840 17.894302 0.022337
6.007189 17.894302 0.028748
6.322540 17.894302 0.037266
6.637889 17.894302 0.048747
6.953240 17.894302 0.064406
7.268589 17.894302 0.085260
7.583940 17.894302 0.113684
7.899290 17.894302 0.152024
8.214640 17.894302 0.199574
8.529989 17.894302 0.261842
8.845339 17.894302 0.336318
9.160688 17.894302 0.422825
9.476040 17.894302 0.517516
9.791389 17.894302 0.624764
10.106739 17.894302 0.731605
10.422089 17.894302 0.837146
10.737438 17.894302 0.932720
11.052790 17.894302 1.045599
11.368139 17.894302 1.164755
11.683489 17.894302 1.275883
11.998838 17.894302 1.365230
12.314190 17.894302 1.434269
12.629539 17.894302 1.515868
12.944889 17.894302 1.618548
13.260239 17.894302 1.670702
13.575588 17.894302 1.665388
13.890940 17.894302 1.668228
14.206289 17.894302 1.664152
14.521639 17.894302 1.616387
14.836988 17.894302 1.551580
15.152340 17.894302 1.462848
15.467690 17.894302 0.919375
15.783039 17.894302 0.000000
16.098389 17.894302 0.000000
16.413738 17.894302 0.000000
16.729090 17.894302 0.000000
17.044439 17.894302 0.000000
17.359789 17.894302 0.000000
17.675138 17.894302 0.000000
17.990490 17.894302 0.000000
18.305840 17.894302 2.198674
18.621189 17.894302 2.376887
18.936539 17.894302 0.000000
19.251888 17.894302 0.000000
-7.237510 17.578953 0.000000
-6.922160 17.578953 0.005055
-6.606810 17.578953 0.003467
-6.291460 17.578953 0.003239
-5.976110 17.578953 0.003235
-5.660760 17.578953 0.003176
-5.345410 17.578953 0.003080
-5.030060 17.578953 0.002985
-4.714710 17.578953 0.002939
-4.399360 17.578953 0.002938
-4.084010 17.578953 0.002947
-3.768660 17.578953 0.002925
-3.453310 17.578953 0.002891
-3.137960 17.578953 0.002853
-2.822610 17.578953 0.002814
-2.507260 17.578953 0.002782
-2.191910 17.578953 0.002710
-1.876560 17.578953 0.002698
-1.561210 17.578953 0.002666
-1.245860 17.578953 0.002613
-0.930510 17.578953 0.002584
-0.615160 17.578953 0.002568
-0.299810 17.578953 0.002630
0.015540 17.578953 0.002622
0.330890 17.578953 0.002607
0.646240 17.578953 0.002722
0.961589 17.578953 0.002782
1.276940 17.578953 0.002829
1.592289 17.578953 0.002961
1.907640 17.578953 0.003102
2.222990 17.578953 0.003273
2.538340 17.578953 0.003518
2.853690 17.578953 0.003887
3.169039 17.578953 0.004356
3.484390 17.578953 0.005023
3.799739 17.578953 0.005689
4.115090 17.578953 0.006707
4.430439 17.578953 0.008149
4.745790 17.578953 0.010182
5.061140 17.578953 0.013104
5.376490 17.578953 0.017175
5.691840 17.578953 0.022171
6.007189 17.578953 0.028538
6.322540 17.578953 0.037277
6.637889 17.578953 0.049028
6.953240 17.578953 0.065380
7.268589 17.578953 0.086002
7.583940 17.578953 0.114366
7.899290 17.578953 0.151503
8.214640 17.578953 0.200848
8.529989 17.578953 0.265528
8.845339 17.578953 0.341719
9.160688 17.578953 0.428127
9.476040 17.578953 0.523912
9.791389 17.578953 0.636071
10.106739 17.578953 0.742612
10.422089 17.578953 0.843454
10.737438 17.578953 0.948289
11.052790 17.578953 1.052998
11.368139 17.578953 1.162421
11.683489 17.578953 1.276329
11.998838 17.578953 1.362157
12.314190 17.578953 1.441116
12.629539 17.578953 1.503457
12.944889 17.578953 1.608588
13.260239 17.578953 1.647906
13.575588 17.578953 1.665173
13.890940 17.578953 1.678438
14.206289 17.578953 1.664032
14.521639 17.578953 1.618179
14.836988 17.578953 1.557965
15.152340 17.578953 1.449230
15.467690 17.578953 0.888408
15.783039 17.578953 0.000000
16.098389 17.578953 0.000000
16.413738 17.578953 0.000000
16.729090 17.578953 0.000000
17.044439 17.578953 0.000000
17.359789 17.578953 0.000000
17.675138 17.578953 0.000000
17.990490 17.578953 0.000000
18.305840 17.578953 2.171821
18.621189 17.578953 2.305168
18.936539 17.578953 0.000000
19.251888 17.578953 0.000000
-7.237510 17.263599 0.000000
-6.922160 17.263599 0.005091
-6.606810 17.263599 0.003484
-6.291460 17.263599 0.003282
-5.976110 17.263599 0.003275
-5.660760 17.263599 0.003168
-5.345410 17.263599 0.003101
-5.030060 17.263599 0.003020
-4.714710 17.263599 0.003000
-4.399360 17.263599 0.003011
-4.084010 17.263599 0.002973
-3.768660 17.263599 0.002941
-3.453310 17.263599 0.002909
-3.137960 17.263599 0.002893
-2.822610 17.263599 0.002902
-2.507260 17.263599 0.002841
-2.191910 17.263599 0.002767
-1.876560 17.263599 0.002730
-1.561210 17.263599 0.002676
-1.245860 17.263599 0.002649
-0.930510 17.263599 0.002657
-0.615160 17.263599 0.002649
-0.299810 17.263599 0.002694
0.015540 17.263599 0.002684
0.330890 17.263599 0.002687
0.646240 17.263599 0.002747
0.961589 17.263599 0.002815
1.276940 17.263599 0.002856
1.592289 17.263599 0.002967
1.907640 17.263599 0.003147
2.222990 17.263599 0.003287
2.538340 17.263599 0.003506
2.853690 17.263599 0.003851
3.169039 17.263599 0.004358
3.484390 17.263599 0.004982
3.799739 17.263599 0.005681
4.115090 17.263599 0.006513
4.430439 17.263599 0.007961
4.745790 17.263599 0.009964
5.061140 17.263599 0.012958
5.376490 17.263599 0.016982
5.691840 17.263599 0.021944
6.007189 17.263599 0.028544
6.322540 17.263599 0.037244
6.637889 17.263599 0.049533
6.953240 17.263599 0.065717
7.268589 17.263599 0.087291
7.583940 17.263599 0.114905
7.899290 17.263599 0.152938
8.214640 17.263599 0.203419
8.529989 17.263599 0.269014
8.845339 17.263599 0.347214
9.160688 17.263599 0.431847
9.476040 17.263599 0.533951
9.791389 17.263599 0.643279
10.106739 17.263599 0.751907
10.422089 17.263599 0.851887
10.737438 17.263599 0.953860
11.052790 17.263599 1.068893
11.368139 17.263599 1.172078
11.683489 17.263599 1.280371
11.998838 17.263599 1.379231
12.314190 17.263599 1.423470
12.629539 17.263599 1.506011
12.944889 17.263599 1.596213
13.260239 17.263599 1.648004
13.575588 17.263599 1.678605
13.890940 17.263599 1.669601
14.206289 17.263599 1.669113
14.521639 17.263599 1.639466
14.836988 17.263599 1.554432
15.152340 17.263599 1.493427
15.467690 17.263599 0.859817
15.783039 17.263599 0.000000
16.098389 17.263599 0.000000
16.413738 17.263599 0.000000
16.729090 17.263599 0.000000
17.044439 17.263599 0.000000
17.359789 17.263599 0.000000
17.675138 17.263599 0.000000
17.990490 17.263599 0.247887
18.305840 17.263599 2.153460
18.621189 17.263599 2.278399
18.936539 17.263599 0.000000
19.251888 17.263599 0.000000
-7.237510 16.948250 0.000000
-6.922160 16.948250 0.005145
-6.606810 16.948250 0.003538
-6.291460 16.948250 0.003325
-5.976110 16.948250 0.003306
-5.660760 16.948250 0.003187
-5.345410 16.948250 0.003168
-5.030060 16.948250 0.003099
-4.714710 16.948250 0.003089
-4.399360 16.948250 0.003093
-4.084010 16.948250 0.002998
-3.768660 16.948250 0.002952
-3.453310 16.948250 0.002918
-3.137960 16.948250 0.002957
-2.822610 16.948250 0.003021
-2.507260 16.948250 0.002901
-2.191910 16.948250 0.002836
-1.876560 16.948250 0.002807
-1.561210 16.948250 0.002742
-1.245860 16.948250 0.002782
-0.930510 16.948250 0.002790
-0.615160 16.948250 0.002764
-0.299810 16.948250 0.002774
0.015540 16.948250 0.002794
0.330890 16.948250 0.002797
0.646240 16.948250 0.002858
0.961589 16.948250 0.002921
1.276940 16.948250 0.002971
1.592289 16.948250 0.003091
1.907640 16.948250 0.003224
2.222990 16.948250 0.003380
2.538340 16.948250 0.003628
2.853690 16.948250 0.003939
3.169039 16.948250 0.004394
3.484390 16.948250 0.005074
3.799739 16.948250 0.005701
4.115090 16.948250 0.006602
4.430439 16.948250 0.007849
4.745790 16.948250 0.009882
5.061140 16.948250 0.012939
5.376490 16.948250 0.016850
5.691840 16.948250 0.021763
6.007189 16.948250 0.028517
6.322540 16.948250 0.037477
6.637889 16.948250 0.049833
6.953240 16.948250 0.066476
7.268589 16.948250 0.088534
7.583940 16.948250 0.115647
7.899290 16.948250 0.155582
8.214640 16.948250 0.204385
8.529989 16.948250 0.272763
8.845339 16.948250 0.355585
9.160688 16.948250 0.444438
9.476040 16.948250 0.543189
9.791389 16.948250 0.649681
10.106739 16.948250 0.752219
10.422089 16.948250 0.868468
10.737438 16.948250 0.967977
11.052790 16.948250 1.081804
11.368139 16.948250 1.187920
11.683489 16.948250 1.291693
11.998838 16.948250 1.384701
12.314190 16.948250 1.438932
12.629539 16.948250 1.498741
12.944889 16.948250 1.573042
13.260239 16.948250 1.630553
13.575588 16.948250 1.668056
13.890940 16.948250 1.677013
14.206289 16.948250 1.686476
14.521639 16.948250 1.632791
14.836988 16.948250 1.585331
15.152340 16.948250 1.490916
15.467690 16.948250 0.823398
15.783039 16.948250 0.000000
16.098389 16.948250 0.000000
16.413738 16.948250 0.000000
16.729090 16.948250 0.000000
17.044439 16.948250 0.000000
17.359789 16.948250 0.000000
17.675138 16.948250 0.000000
17.990490 16.948250 1.016290
18.305840 16.948250 2.084300
18.621189 16.948250 2.257213
18.936539 16.948250 0.000000
19.251888 16.948250 0.000000
-7.237510 16.632900 0.000000
-6.922160 16.632900 0.005289
-6.606810 16.632900 0.003633
-6.291460 16.632900 0.003369
-5.976110 16.632900 0.003367
-5.660760 16.632900 0.003313
-5.345410 16.632900 0.003299
-5.030060 16.632900 0.003224
-4.714710 16.632900 0.003209
-4.399360 16.632900 0.003209
-4.084010 16.632900 0.003089
-3.768660 16.632900 0.002992
-3.453310 16.632900 0.003004
-3.137960 16.632900 0.003105
-2.822610 16.632900 0.003137
-2.507260 16.632900 0.003018
-2.191910 16.632900 0.002971
-1.876560 16.632900 0.002950
-1.561210 16.632900 0.002906
-1.245860 16.632900 0.002942
-0.930510 16.632900 0.002979
-0.615160 16.632900 0.002953
-0.299810 16.632900 0.002926
0.015540 16.632900 0.002926
0.330890 16.632900 0.002977
0.646240 16.632900 0.002986
0.961589 16.632900 0.003094
1.276940 16.632900 0.003153
1.592289 16.632900 0.003255
1.907640 16.632900 0.003394
2.222990 16.632900 0.003606
2.538340 16.632900 0.003844
2.853690 16.632900 0.004109
3.169039 16.632900 0.004592
3.484390 16.632900 0.005261
3.799739 16.632900 0.005811
4.115090 16.632900 0.006800
4.430439 16.632900 0.008174
4.745790 16.632900 0.009983
5.061140 16.632900 0.013024
5.376490 16.632900 0.016866
5.691840 16.632900 0.021819
6.007189 16.632900 0.028534
6.322540 16.632900 0.037803
6.637889 16.632900 0.050140
6.953240 16.632900 0.066427
7.268589 16.632900 0.088742
7.583940 16.632900 0.117107
7.899290 16.632900 0.157113
8.214640 16.632900 0.205697
8.529989 16.632900 0.271677
8.845339 16.632900 0.350803
9.160688 16.632900 0.443130
9.476040 16.632900 0.541081
9.791389 16.632900 0.653772
10.106739 16.632900 0.769755
10.422089 16.632900 0.874100
10.737438 16.632900 0.976016
11.052790 16.632900 1.093738
11.368139 16.632900 1.188520
11.683489 16.632900 1.289925
11.998838 16.632900 1.384649
12.314190 16.632900 1.448269
12.629539 16.632900 1.511951
12.944889 16.632900 1.562185
13.260239 16.632900 1.609326
13.575588 16.632900 1.655099
13.890940 16.632900 1.685803
14.206289 16.632900 1.685554
14.521639 16.632900 1.613302
14.836988 16.632900 1.549266
15.152340 16.632900 1.478004
15.467690 16.632900 0.776071
15.783039 16.632900 0.000000
16.098389 16.632900 0.000000
16.413738 16.632900 0.000000
16.729090 16.632900 0.000000
17.044439 16.632900 0.000000
17.359789 16.632900 0.000000
17.675138 16.632900 0.000000
17.990490 16.632900 1.239198
18.305840 16.632900 2.150842
18.621189 16.632900 2.273164
18.936539 16.632900 0.000000
19.251888 16.632900 0.000000
-7.237510 16.317551 0.000000
-6.922160 16.317551 0.005593
-6.606810 16.317551 0.003777
-6.291460 16.317551 0.003442
-5.976110 16.317551 0.003480
-5.660760 16.317551 0.003495
-5.345410 16.317551 0.003490
-5.030060 16.317551 0.003416
-4.714710 16.317551 0.003384
-4.399360 16.317551 0.003389
-4.084010 16.317551 0.003260
-3.768660 16.317551 0.003174
-3.453310 16.317551 0.003238
-3.137960 16.317551 0.003334
-2.822610 16.317551 0.003277
-2.507260 16.317551 0.003194
-2.191910 16.317551 0.003134
-1.876560 16.317551 0.003123
-1.561210 16.317551 0.003120
-1.245860 16.317551 0.003143
-0.930510 16.317551 0.003168
-0.615160 16.317551 0.003180
-0.299810 16.317551 0.003127
0.015540 16.317551 0.003133
0.330890 16.317551 0.003184
0.646240 16.317551 0.003223
0.961589 16.317551 0.003320
1.276940 16.317551 0.003373
1.592289 16.317551 0.003555
1.907640 16.317551 0.003641
2.222990 16.317551 0.003865
2.538340 16.317551 0.004160
2.853690 16.317551 0.004371
3.169039 16.317551 0.004932
3.484390 16.317551 0.005478
3.799739 16.317551 0.006095
4.115090 16.317551 0.007115
4.430439 16.317551 0.008499
4.745790 16.317551 0.010284
5.061140 16.317551 0.013293
5.376490 16.317551 0.017168
5.691840 16.317551 0.022211
6.007189 16.317551 0.029019
6.322540 16.317551 0.038287
6.637889 16.317551 0.050986
6.953240 16.317551 0.067611
7.268589 16.317551 0.089661
7.583940 16.317551 0.117704
7.899290 16.317551 0.157517
8.214640 16.317551 0.208354
8.529989 16.317551 0.272744
8.845339 16.317551 0.354665
9.160688 16.317551 0.445734
9.476040 16.317551 0.540156
9.791389 16.317551 0.659442
10.106739 16.317551 0.768424
10.422089 16.317551 0.880410
10.737438 16.317551 0.986378
11.052790 16.317551 1.095837
11.368139 16.317551 1.191018
11.683489 16.317551 1.293335
11.998838 16.317551 1.368805
12.314190 16.317551 1.434913
12.629539 16.317551 1.509571
12.944889 16.317551 1.565454
13.260239 16.317551 1.612935
13.575588 16.317551 1.652654
13.890940 16.317551 1.679786
14.206289 16.317551 1.679002
14.521639 16.317551 1.616922
14.836988 16.317551 1.534878
15.152340 16.317551 1.491616
15.467690 16.317551 0.742691
15.783039 16.317551 0.000000
16.098389 16.317551 0.000000
16.413738 16.317551 0.000000
16.729090 16.317551 0.000000
17.044439 16.317551 0.000000
17.359789 16.317551 0.000000
17.675138 16.317551 0.000000
17.990490 16.317551 1.040995
18.305840 16.317551 2.204993
18.621189 16.317551 2.367735
18.936539 16.317551 0.000000
19.251888 16.317551 0.000000
-7.237510 16.002201 0.000000
-6.922160 16.002201 0.006003
-6.606810 16.002201 0.003960
-6.291460 16.002201 0.003628
-5.976110 16.002201 0.003656
-5.660760 16.002201 0.003666
-5.345410 16.002201 0.003710
-5.030060 16.002201 0.003611
-4.714710 16.002201 0.003577
-4.399360 16.002201 0.003582
-4.084010 16.002201 0.003488
-3.768660 16.002201 0.003435
-3.453310 16.002201 0.003502
-3.137960 16.002201 0.003546
-2.822610 16.002201 0.003465
-2.507260 16.002201 0.003362
-2.191910 16.002201 0.003337
-1.876560 16.002201 0.003345
-1.561210 16.002201 0.003391
-1.245860 16.002201 0.003417
-0.930510 16.002201 0.003418
-0.615160 16.002201 0.003420
-0.299810 16.002201 0.003372
0.015540 16.002201 0.003409
0.330890 16.002201 0.003473
0.646240 16.002201 0.003513
0.961589 16.002201 0.003600
1.276940 16.002201 0.003636
1.592289 16.002201 0.003879
1.907640 16.002201 0.003961
2.222990 16.002201 0.004199
2.538340 16.002201 0.004474
2.853690 16.002201 0.004733
3.169039 16.002201 0.005242
3.484390 16.002201 0.005775
3.799739 16.002201 0.006447
4.115090 16.002201 0.007630
4.430439 16.002201 0.009014
4.745790 16.002201 0.011031
5.061140 16.002201 0.013813
5.376490 16.002201 0.017628
5.691840 16.002201 0.022711
6.007189 16.002201 0.029655
6.322540 16.002201 0.038629
6.637889 16.002201 0.051525
6.953240 16.002201 0.068358
7.268589 16.002201 0.091627
7.583940 16.002201 0.119528
7.899290 16.002201 0.156600
8.214640 16.002201 0.208396
8.529989 16.002201 0.275749
8.845339 16.002201 0.358430
9.160688 16.002201 0.445315
9.476040 16.002201 0.549633
9.791389 16.002201 0.664712
10.106739 16.002201 0.776163
10.422089 16.002201 0.876865
10.737438 16.002201 0.996648
11.052790 16.002201 1.095760
11.368139 16.002201 1.186526
11.683489 16.002201 1.287825
11.998838 16.002201 1.377165
12.314190 16.002201 1.433786
12.629539 16.002201 1.500905
12.944889 16.002201 1.544885
13.260239 16.002201 1.603685
13.575588 16.002201 1.645817
13.890940 16.002201 1.664322
14.206289 16.002201 1.663391
14.521639 16.002201 1.623466
14.836988 16.002201 1.572978
15.152340 16.002201 1.497692
15.467690 16.002201 0.732228
15.783039 16.002201 0.000000
16.098389 16.002201 0.000000
16.413738 16.002201 0.000000
16.729090 16.002201 0.000000
17.044439 16.002201 0.000000
17.359789 16.002201 0.000000
17.675138 16.002201 0.000000
17.990490 16.002201 0.994268
18.305840 16.002201 2.184148
18.621189 16.002201 2.344479
18.936539 16.002201 0.000000
19.251888 16.002201 0.000000
-7.237510 15.686852 0.000000
-6.922160 15.686852 0.006289
-6.606810 15.686852 0.004198
-6.291460 15.686852 0.003884
-5.976110 15.686852 0.003893
-5.660760 15.686852 0.003926
-5.345410 15.686852 0.003964
-5.030060 15.686852 0.003861
-4.714710 15.686852 0.003816
-4.399360 15.686852 0.003806
-4.084010 15.686852 0.003781
-3.768660 15.686852 0.003738
-3.453310 15.686852 0.003762
-3.137960 15.686852 0.003745
-2.822610 15.686852 0.003687
-2.507260 15.686852 0.003602
-2.191910 15.686852 0.003588
-1.876560 15.686852 0.003629
-1.561210 15.686852 0.003700
-1.245860 15.686852 0.003693
-0.930510 15.686852 0.003741
-0.615160 15.686852 0.003700
-0.299810 15.686852 0.003680
0.015540 15.686852 0.003726
0.330890 15.686852 0.003801
0.646240 15.686852 0.003881
0.961589 15.686852 0.003931
1.276940 15.686852 0.004033
1.592289 15.686852 0.004192
1.907640 15.686852 0.004375
2.222990 15.686852 0.004575
2.538340 15.686852 0.004811
2.853690 15.686852 0.005127
3.169039 15.686852 0.005645
3.484390 15.686852 0.006192
3.799739 15.686852 0.006936
4.115090 15.686852 0.008113
4.430439 15.686852 0.009685
4.745790 15.686852 0.011679
5.061140 15.686852 0.014440
5.376490 15.686852 0.018283
5.691840 15.686852 0.023462
6.007189 15.686852 0.030399
6.322540 15.686852 0.039096
6.637889 15.686852 0.052414
6.953240 15.686852 0.070269
7.268589 15.686852 0.092615
7.583940 15.686852 0.122523
7.899290 15.686852 0.160328
8.214640 15.686852 0.210668
8.529989 15.686852 0.280371
8.845339 15.686852 0.361770
9.160688 15.686852 0.451384
9.476040 15.686852 0.550037
9.791389 15.686852 0.665987
10.106739 15.686852 0.788586
10.422089 15.686852 0.887904
10.737438 15.686852 0.984538
11.052790 15.686852 1.080877
11.368139 15.686852 1.192080
11.683489 15.686852 1.288263
11.998838 15.686852 1.362461
12.314190 15.686852 1.417469
12.629539 15.686852 1.498011
12.944889 15.686852 1.536355
13.260239 15.686852 1.590382
13.575588 15.686852 1.651845
13.890940 15.686852 1.668044
14.206289 15.686852 1.684738
14.521639 15.686852 1.638003
14.836988 15.686852 1.547402
15.152340 15.686852 1.504032
15.467690 15.686852 0.705973
15.783039 15.686852 0.000000
16.098389 15.686852 0.000000
16.413738 15.686852 0.000000
16.729090 15.686852 0.000000
17.044439 15.686852 0.000000
17.359789 15.686852 0.000000
17.675138 15.686852 0.000000
17.990490 15.686852 1.016803
18.305840 15.686852 2.208090
18.621189 15.686852 2.377255
18.936539 15.686852 0.000000
19.251888 15.686852 0.000000
-7.237510 15.371502 0.000000
-6.922160 15.371502 0.006471
-6.606810 15.371502 0.004373
-6.291460 15.371502 0.004159
-5.976110 15.371502 0.004167
-5.660760 15.371502 0.004165
-5.345410 15.371502 0.004168
-5.030060 15.371502 0.004123
-4.714710 15.371502 0.004137
-4.399360 15.371502 0.004115
-4.084010 15.371502 0.004101
-3.768660 15.371502 0.004097
-3.453310 15.371502 0.004039
-3.137960 15.371502 0.004012
-2.822610 15.371502 0.003953
-2.507260 15.371502 0.003947
-2.191910 15.371502 0.003928
-1.876560 15.371502 0.003966
-1.561210 15.371502 0.004033
-1.245860 15.371502 0.004084
-0.930510 15.371502 0.004099
-0.615160 15.371502 0.004098
-0.299810 15.371502 0.004098
0.015540 15.371502 0.004083
0.330890 15.371502 0.004190
0.646240 15.371502 0.004254
0.961589 15.371502 0.004348
1.276940 15.371502 0.004501
1.592289 15.371502 0.004638
1.907640 15.371502 0.004878
2.222990 15.371502 0.005075
2.538340 15.371502 0.005274
2.853690 15.371502 0.005627
3.169039 15.371502 0.006094
3.484390 15.371502 0.006745
3.799739 15.371502 0.007568
4.115090 15.371502 0.008761
4.430439 15.371502 0.010338
4.745790 15.371502 0.012397
5.061140 15.371502 0.014991
5.376490 15.371502 0.019063
5.691840 15.371502 0.024163
6.007189 15.371502 0.030856
6.322540 15.371502 0.040113
6.637889 15.371502 0.053052
6.953240 15.371502 0.070725
7.268589 15.371502 0.094683
7.583940 15.371502 0.123639
7.899290 15.371502 0.162216
8.214640 15.371502 0.215893
8.529989 15.371502 0.282259
8.845339 15.371502 0.362824
9.160688 15.371502 0.455748
9.476040 15.371502 0.546659
9.791389 15.371502 0.663892
10.106739 15.371502 0.775838
10.422089 15.371502 0.889749
10.737438 15.371502 0.983333
11.052790 15.371502 1.079789
11.368139 15.371502 1.184863
11.683489 15.371502 1.295882
11.998838 15.371502 1.373927
12.314190 15.371502 1.461892
12.629539 15.371502 1.494084
12.944889 15.371502 1.544030
13.260239 15.371502 1.601744
13.575588 15.371502 1.644109
13.890940 15.371502 1.664386
14.206289 15.371502 1.667286
14.521639 15.371502 1.631620
14.836988 15.371502 1.563137
15.152340 15.371502 1.523958
15.467690 15.371502 0.683548
15.783039 15.371502 0.000000
16.098389 15.371502 0.000000
16.413738 15.371502 0.000000
16.729090 15.371502 0.000000
17.044439 15.371502 0.000000
17.359789 15.371502 0.000000
17.675138 15.371502 0.000000
17.990490 15.371502 1.025765
18.305840 15.371502 2.240237
18.621189 15.371502 2.395321
18.936539 15.371502 0.000000
19.251888 15.371502 0.000000
-7.237510 15.056152 0.000000
-6.922160 15.056152 0.006702
-6.606810 15.056152 0.004579
-6.291460 15.056152 0.004462
-5.976110 15.056152 0.004490
-5.660760 15.056152 0.004433
-5.345410 15.056152 0.004444
-5.030060 15.056152 0.004404
-4.714710 15.056152 0.004460
-4.399360 15.056152 0.004430
-4.084010 15.056152 0.004440
-3.768660 15.056152 0.004460
-3.453310 15.056152 0.004426
-3.137960 15.056152 0.004397
-2.822610 15.056152 0.004375
-2.507260 15.056152 0.004348
-2.191910 15.056152 0.004368
-1.876560 15.056152 0.004370
-1.561210 15.056152 0.004410
-1.245860 15.056152 0.004539
-0.930510 15.056152 0.004499
-0.615160 15.056152 0.004518
-0.299810 15.056152 0.004509
0.015540 15.056152 0.004486
0.330890 15.056152 0.004611
0.646240 15.056152 0.004733
0.961589 15.056152 0.004863
1.276940 15.056152 0.004989
1.592289 15.056152 0.005187
1.907640 15.056152 0.005464
2.222990 15.056152 0.005683
2.538340 15.056152 0.005857
2.853690 15.056152 0.006238
3.169039 15.056152 0.006723
3.484390 15.056152 0.007478
3.799739 15.056152 0.008408
4.115090 15.056152 0.009516
4.430439 15.056152 0.011159
4.745790 15.056152 0.013309
5.061140 15.056152 0.016013
5.376490 15.056152 0.019748
5.691840 15.056152 0.024880
6.007189 15.056152 0.031646
6.322540 15.056152 0.040983
6.637889 15.056152 0.054041
6.953240 15.056152 0.071563
7.268589 15.056152 0.095635
7.583940 15.056152 0.123979
7.899290 15.056152 0.161978
8.214640 15.056152 0.215372
8.529989 15.056152 0.278474
8.845339 15.056152 0.362432
9.160688 15.056152 0.450231
9.476040 15.056152 0.547824
9.791389 15.056152 0.658632
10.106739 15.056152 0.761089
10.422089 15.056152 0.883970
10.737438 15.056152 0.978347
11.052790 15.056152 1.082483
11.368139 15.056152 1.178477
11.683489 15.056152 1.282060
11.998838 15.056152 1.387538
12.314190 15.056152 1.452941
12.629539 15.056152 1.496990
12.944889 15.056152 1.551698
13.260239 15.056152 1.599857
13.575588 15.056152 1.648867
13.890940 15.056152 1.656716
14.206289 15.056152 1.670751
14.521639 15.056152 1.623602
14.836988 15.056152 1.591960
15.152340 15.056152 1.541896
15.467690 15.056152 0.664811
15.783039 15.056152 0.000000
16.098389 15.056152 0.000000
16.413738 15.056152 0.000000
16.729090 15.056152 0.000000
17.044439 15.056152 0.000000
17.359789 15.056152 0.000000
17.675138 15.056152 0.000000
17.990490 15.056152 1.022677
18.305840 15.056152 2.216448
18.621189 15.056152 2.374653
18.936539 15.056152 0.000000
19.251888 15.056152 0.000000
-7.237510 14.740803 0.000000
-6.922160 14.740803 0.007009
-6.606810 14.740803 0.004856
-6.291460 14.740803 0.004781
-5.976110 14.740803 0.004811
-5.660760 14.740803 0.004719
-5.345410 14.740803 0.004733
-5.030060 14.740803 0.004752
-4.714710 14.740803 0.004748
-4.399360 14.740803 0.004781
-4.084010 14.740803 0.004787
-3.768660 14.740803 0.004835
-3.453310 14.740803 0.004840
-3.137960 14.740803 0.004786
-2.822610 14.740803 0.004815
-2.507260 14.740803 0.004834
-2.191910 14.740803 0.004824
-1.876560 14.740803 0.004812
-1.561210 14.740803 0.004816
-1.245860 14.740803 0.004963
-0.930510 14.740803 0.004990
-0.615160 14.740803 0.004926
-0.299810 14.740803 0.004946
0.015540 14.740803 0.004975
0.330890 14.740803 0.005100
0.646240 14.740803 0.005310
0.961589 14.740803 0.005419
1.276940 14.740803 0.005553
1.592289 14.740803 0.005813
1.907640 14.740803 0.006128
2.222990 14.740803 0.006320
2.538340 14.740803 0.006570
2.853690 14.740803 0.007004
3.169039 14.740803 0.007495
3.484390 14.740803 0.008292
3.799739 14.740803 0.009264
4.115090 14.740803 0.010406
4.430439 14.740803 0.011963
4.745790 14.740803 0.014217
5.061140 14.740803 0.016925
5.376490 14.740803 0.020687
5.691840 14.740803 0.025738
6.007189 14.740803 0.032460
6.322540 14.740803 0.042173
6.637889 14.740803 0.054409
6.953240 14.740803 0.071483
7.268589 14.740803 0.096059
7.583940 14.740803 0.126562
7.899290 14.740803 0.166667
8.214640 14.740803 0.217913
8.529989 14.740803 0.277937
8.845339 14.740803 0.358449
9.160688 14.740803 0.454277
9.476040 14.740803 0.551015
9.791389 14.740803 0.659021
10.106739 14.740803 0.763596
10.422089 14.740803 0.864892
10.737438 14.740803 0.970598
11.052790 14.740803 1.081370
11.368139 14.740803 1.188295
11.683489 14.740803 1.285697
11.998838 14.740803 1.365816
12.314190 14.740803 1.446904
12.629539 14.740803 1.522312
12.944889 14.740803 1.567729
13.260239 14.740803 1.584186
13.575588 14.740803 1.673259
13.890940 14.740803 1.666085
14.206289 14.740803 1.660824
14.521639 14.740803 1.630444
14.836988 14.740803 1.603669
15.152340 14.740803 1.566967
15.467690 14.740803 0.652108
15.783039 14.740803 0.000000
16.098389 14.740803 0.000000
16.413738 14.740803 0.000000
16.729090 14.740803 0.000000
17.044439 14.740803 0.000000
17.359789 14.740803 0.000000
17.675138 14.740803 0.000000
17.990490 14.740803 1.107002
18.305840 14.740803 2.260501
18.621189 14.740803 2.354800
18.936539 14.740803 0.000000
19.251888 14.740803 0.000000
-7.237510 14.425449 0.000000
-6.922160 14.425449 0.007452
-6.606810 14.425449 0.005168
-6.291460 14.425449 0.005068
-5.976110 14.425449 0.005081
-5.660760 14.425449 0.005035
-5.345410 14.425449 0.005063
-5.030060 14.425449 0.005078
-4.714710 14.425449 0.005125
-4.399360 14.425449 0.005137
-4.084010 14.425449 0.005148
-3.768660 14.425449 0.005228
-3.453310 14.425449 0.005274
-3.137960 14.425449 0.005239
-2.822610 14.425449 0.005272
-2.507260 14.425449 0.005319
-2.191910 14.425449 0.005348
-1.876560 14.425449 0.005303
-1.561210 14.425449 0.005287
-1.245860 14.425449 0.005413
-0.930510 14.425449 0.005484
-0.615160 14.425449 0.005391
-0.299810 14.425449 0.005460
0.015540 14.425449 0.005501
0.330890 14.425449 0.005708
0.646240 14.425449 0.005990
0.961589 14.425449 0.006077
1.276940 14.425449 0.006254
1.592289 14.425449 0.006554
1.907640 14.425449 0.006827
2.222990 14.425449 0.007018
2.538340 14.425449 0.007349
2.853690 14.425449 0.007782
3.169039 14.425449 0.008335
3.484390 14.425449 0.009199
3.799739 14.425449 0.010186
4.115090 14.425449 0.011312
4.430439 14.425449 0.012891
4.745790 14.425449 0.015146
5.061140 14.425449 0.017960
5.376490 14.425449 0.021711
5.691840 14.425449 0.026710
6.007189 14.425449 0.033476
6.322540 14.425449 0.042990
6.637889 14.425449 0.056033
6.953240 14.425449 0.073340
7.268589 14.425449 0.097307
7.583940 14.425449 0.126593
7.899290 14.425449 0.168570
8.214640 14.425449 0.222199
8.529989 14.425449 0.282417
8.845339 14.425449 0.363591
9.160688 14.425449 0.460925
9.476040 14.425449 0.560577
9.791389 14.425449 0.668730
10.106739 14.425449 0.771664
10.422089 14.425449 0.874794
10.737438 14.425449 0.983178
11.052790 14.425449 1.081882
11.368139 14.425449 1.184395
11.683489 14.425449 1.294941
11.998838 14.425449 1.372810
12.314190 14.425449 1.436929
12.629539 14.425449 1.509219
12.944889 14.425449 1.572164
13.260239 14.425449 1.608605
13.575588 14.425449 1.657828
13.890940 14.425449 1.708520
14.206289 14.425449 1.674833
14.521639 14.425449 1.623266
14.836988 14.425449 1.611555
15.152340 14.425449 1.579427
15.467690 14.425449 0.633498
15.783039 14.425449 0.000000
16.098389 14.425449 0.000000
16.413738 14.425449 0.000000
16.729090 14.425449 0.000000
17.044439 14.425449 0.000000
17.359789 14.425449 0.000000
17.675138 14.425449 0.000000
17.990490 14.425449 1.116760
18.305840 14.425449 2.324298
18.621189 14.425449 2.379152
18.936539 14.425449 0.000000
19.251888 14.425449 0.000000
-7.237510 14.110100 0.000000
-6.922160 14.110100 0.007978
-6.606810 14.110100 0.005529
-6.291460 14.110100 0.005413
-5.976110 14.110100 0.005428
-5.660760 14.110100 0.005384
-5.345410 14.110100 0.005398
-5.030060 14.110100 0.005474
-4.714710 14.110100 0.005496
-4.399360 14.110100 0.005544
-4.084010 14.110100 0.005519
-3.768660 14.110100 0.005651
-3.453310 14.110100 0.005639
-3.137960 14.110100 0.005613
-2.822610 14.110100 0.005728
-2.507260 14.110100 0.005835
-2.191910 14.110100 0.005906
-1.876560 14.110100 0.005796
-1.561210 14.110100 0.005756
-1.245860 14.110100 0.005903
-0.930510 14.110100 0.005947
-0.615160 14.110100 0.005967
-0.299810 14.110100 0.006033
0.015540 14.110100 0.006139
0.330890 14.110100 0.006353
0.646240 14.110100 0.006627
0.961589 14.110100 0.006810
1.276940 14.110100 0.006923
1.592289 14.110100 0.007265
1.907640 14.110100 0.007553
2.222990 14.110100 0.007838
2.538340 14.110100 0.008252
2.853690 14.110100 0.008725
3.169039 14.110100 0.009361
3.484390 14.110100 0.010262
3.799739 14.110100 0.011204
4.115090 14.110100 0.012374
4.430439 14.110100 0.013937
4.745790 14.110100 0.016116
5.061140 14.110100 0.019002
5.376490 14.110100 0.022861
5.691840 14.110100 0.027752
6.007189 14.110100 0.034422
6.322540 14.110100 0.043882
6.637889 14.110100 0.057104
6.953240 14.110100 0.074603
7.268589 14.110100 0.098461
7.583940 14.110100 0.131591
7.899290 14.110100 0.172807
8.214640 14.110100 0.221131
8.529989 14.110100 0.288747
8.845339 14.110100 0.368863
9.160688 14.110100 0.462988
9.476040 14.110100 0.559469
9.791389 14.110100 0.672758
10.106739 14.110100 0.780382
10.422089 14.110100 0.880887
10.737438 14.110100 0.992551
11.052790 14.110100 1.086207
11.368139 14.110100 1.198775
11.683489 14.110100 1.279667
11.998838 14.110100 1.354126
12.314190 14.110100 1.430331
12.629539 14.110100 1.500262
12.944889 14.110100 1.562781
13.260239 14.110100 1.612194
13.575588 14.110100 1.663896
13.890940 14.110100 1.677645
14.206289 14.110100 1.680068
14.521639 14.110100 1.630390
14.836988 14.110100 1.595305
15.152340 14.110100 1.560844
15.467690 14.110100 0.636338
15.783039 14.110100 0.000000
16.098389 14.110100 0.000000
16.413738 14.110100 0.000000
16.729090 14.110100 0.000000
17.044439 14.110100 0.000000
17.359789 14.110100 0.000000
17.675138 14.110100 0.000000
17.990490 14.110100 1.137451
18.305840 14.110100 2.375322
18.621189 14.110100 2.417575
18.936539 14.110100 0.000000
19.251888 14.110100 0.000000
-7.237510 13.794750 0.000000
-6.922160 13.794750 0.008388
-6.606810 13.794750 0.005922
-6.291460 13.794750 0.005848
-5.976110 13.794750 0.005829
-5.660760 13.794750 0.005734
-5.345410 13.794750 0.005779
-5.030060 13.794750 0.005842
-4.714710 13.794750 0.005869
-4.399360 13.794750 0.005916
-4.084010 13.794750 0.005918
-3.768660 13.794750 0.006024
-3.453310 13.794750 0.006023
-3.137960 13.794750 0.005934
-2.822610 13.794750 0.006131
-2.507260 13.794750 0.006270
-2.191910 13.794750 0.006429
-1.876560 13.794750 0.006350
-1.561210 13.794750 0.006297
-1.245860 13.794750 0.006389
-0.930510 13.794750 0.006483
-0.615160 13.794750 0.006563
-0.299810 13.794750 0.006613
0.015540 13.794750 0.006749
0.330890 13.794750 0.006984
0.646240 13.794750 0.007221
0.961589 13.794750 0.007414
1.276940 13.794750 0.007566
1.592289 13.794750 0.007865
1.907640 13.794750 0.008293
2.222990 13.794750 0.008634
2.538340 13.794750 0.009070
2.853690 13.794750 0.009709
3.169039 13.794750 0.010418
3.484390 13.794750 0.011294
3.799739 13.794750 0.012185
4.115090 13.794750 0.013479
4.430439 13.794750 0.015028
4.745790 13.794750 0.017162
5.061140 13.794750 0.020147
5.376490 13.794750 0.023982
5.691840 13.794750 0.028809
6.007189 13.794750 0.035435
6.322540 13.794750 0.044971
6.637889 13.794750 0.058147
6.953240 13.794750 0.075438
7.268589 13.794750 0.099182
7.583940 13.794750 0.130302
7.899290 13.794750 0.171919
8.214640 13.794750 0.224618
8.529989 13.794750 0.293943
8.845339 13.794750 0.373306
9.160688 13.794750 0.468857
9.476040 13.794750 0.563522
9.791389 13.794750 0.672175
10.106739 13.794750 0.782458
10.422089 13.794750 0.890739
10.737438 13.794750 1.007627
11.052790 13.794750 1.101718
11.368139 13.794750 1.190902
11.683489 13.794750 1.280413
11.998838 13.794750 1.355296
12.314190 13.794750 1.423286
12.629539 13.794750 1.495827
12.944889 13.794750 1.561041
13.260239 13.794750 1.598053
13.575588 13.794750 1.636737
13.890940 13.794750 1.666360
14.206289 13.794750 1.671442
14.521639 13.794750 1.636570
14.836988 13.794750 1.572332
15.152340 13.794750 1.568360
15.467690 13.794750 0.600397
15.783039 13.794750 0.000000
16.098389 13.794750 0.000000
16.413738 13.794750 0.000000
16.729090 13.794750 0.000000
17.044439 13.794750 0.000000
17.359789 13.794750 0.000000
17.675138 13.794750 0.000000
17.990490 13.794750 1.101843
18.305840 13.794750 2.406571
18.621189 13.794750 2.486134
18.936539 13.794750 0.000000
19.251888 13.794750 0.000000
-7.237510 13.479401 0.000000
-6.922160 13.479401 0.008872
-6.606810 13.479401 0.006328
-6.291460 13.479401 0.006274
-5.976110 13.479401 0.006223
-5.660760 13.479401 0.006088
-5.345410 13.479401 0.006182
-5.030060 13.479401 0.006280
-4.714710 13.479401 0.006321
-4.399360 13.479401 0.006326
-4.084010 13.479401 0.006305
-3.768660 13.479401 0.006425
-3.453310 13.479401 0.006380
-3.137960 13.479401 0.006338
-2.822610 13.479401 0.006500
-2.507260 13.479401 0.006677
-2.191910 13.479401 0.006909
-1.876560 13.479401 0.006880
-1.561210 13.479401 0.006835
-1.245860 13.479401 0.006903
-0.930510 13.479401 0.006989
-0.615160 13.479401 0.007103
-0.299810 13.479401 0.007176
0.015540 13.479401 0.007346
0.330890 13.479401 0.007631
0.646240 13.479401 0.007777
0.961589 13.479401 0.007988
1.276940 13.479401 0.008144
1.592289 13.479401 0.008469
1.907640 13.479401 0.009029
2.222990 13.479401 0.009412
2.538340 13.479401 0.009885
2.853690 13.479401 0.010603
3.169039 13.479401 0.011463
3.484390 13.479401 0.012272
3.799739 13.479401 0.013116
4.115090 13.479401 0.014494
4.430439 13.479401 0.016123
4.745790 13.479401 0.018223
5.061140 13.479401 0.021156
5.376490 13.479401 0.024986
5.691840 13.479401 0.029695
6.007189 13.479401 0.036652
6.322540 13.479401 0.046431
6.637889 13.479401 0.059273
6.953240 13.479401 0.076228
7.268589 13.479401 0.100069
7.583940 13.479401 0.131278
7.899290 13.479401 0.175091
8.214640 13.479401 0.230154
8.529989 13.479401 0.304534
8.845339 13.479401 0.383150
9.160688 13.479401 0.471332
9.476040 13.479401 0.566828
9.791389 13.479401 0.673815
10.106739 13.479401 0.781655
10.422089 13.479401 0.891055
10.737438 13.479401 0.999273
11.052790 13.479401 1.101283
11.368139 13.479401 1.198109
11.683489 13.479401 1.289285
11.998838 13.479401 1.355631
12.314190 13.479401 1.435547
12.629539 13.479401 1.494395
12.944889 13.479401 1.561207
13.260239 13.479401 1.607327
13.575588 13.479401 1.633821
13.890940 13.479401 1.666020
14.206289 13.479401 1.679558
14.521639 13.479401 1.612499
14.836988 13.479401 1.557860
15.152340 13.479401 1.544423
15.467690 13.479401 0.560679
15.783039 13.479401 0.000000
16.098389 13.479401 0.000000
16.413738 13.479401 0.000000
16.729090 13.479401 0.000000
17.044439 13.479401 0.000000
17.359789 13.479401 0.000000
17.675138 13.479401 0.000000
17.990490 13.479401 1.015086
18.305840 13.479401 2.342830
18.621189 13.479401 2.472578
18.936539 13.479401 0.000000
19.251888 13.479401 0.000000
-7.237510 13.164051 0.000000
-6.922160 13.164051 0.009255
-6.606810 13.164051 0.006683
-6.291460 13.164051 0.006607
-5.976110 13.164051 0.006652
-5.660760 13.164051 0.006480
-5.345410 13.164051 0.006567
-5.030060 13.164051 0.006726
-4.714710 13.164051 0.006834
-4.399360 13.164051 0.006839
-4.084010 13.164051 0.006736
-3.768660 13.164051 0.006778
-3.453310 13.164051 0.006710
-3.137960 13.164051 0.006718
-2.822610 13.164051 0.006899
-2.507260 13.164051 0.007028
-2.191910 13.164051 0.007298
-1.876560 13.164051 0.007337
-1.561210 13.164051 0.007360
-1.245860 13.164051 0.007427
-0.930510 13.164051 0.007470
-0.615160 13.164051 0.007559
-0.299810 13.164051 0.007641
0.015540 13.164051 0.007929
0.330890 13.164051 0.008211
0.646240 13.164051 0.008311
0.961589 13.164051 0.008614
1.276940 13.164051 0.008748
1.592289 13.164051 0.009154
1.907640 13.164051 0.009694
2.222990 13.164051 0.010098
2.538340 13.164051 0.010626
2.853690 13.164051 0.011408
3.169039 13.164051 0.012386
3.484390 13.164051 0.013131
3.799739 13.164051 0.014045
4.115090 13.164051 0.015475
4.430439 13.164051 0.017166
4.745790 13.164051 0.019318
5.061140 13.164051 0.022185
5.376490 13.164051 0.025821
5.691840 13.164051 0.030730
6.007189 13.164051 0.037606
6.322540 13.164051 0.047430
6.637889 13.164051 0.060587
6.953240 13.164051 0.077178
7.268589 13.164051 0.101388
7.583940 13.164051 0.132442
7.899290 13.164051 0.178753
8.214640 13.164051 0.234890
8.529989 13.164051 0.304680
8.845339 13.164051 0.391795
9.160688 13.164051 0.477083
9.476040 13.164051 0.571258
9.791389 13.164051 0.684447
10.106739 13.164051 0.784186
10.422089 13.164051 0.901376
10.737438 13.164051 1.024022
11.052790 13.164051 1.116791
11.368139 13.164051 1.195236
11.683489 13.164051 1.289843
11.998838 13.164051 1.363077
12.314190 13.164051 1.444287
12.629539 13.164051 1.497644
12.944889 13.164051 1.565190
13.260239 13.164051 1.621414
13.575588 13.164051 1.647454
13.890940 13.164051 1.658084
14.206289 13.164051 1.643215
14.521639 13.164051 1.593998
14.836988 13.164051 1.530880
15.152340 13.164051 1.550442
15.467690 13.164051 0.530023
15.783039 13.164051 0.000000
16.098389 13.164051 0.000000
16.413738 13.164051 0.000000
16.729090 13.164051 0.000000
17.044439 13.164051 0.000000
17.359789 13.164051 0.000000
17.675138 13.164051 0.000000
17.990490 13.164051 0.991144
18.305840 13.164051 2.227674
18.621189 13.164051 2.428852
18.936539 13.164051 0.000000
19.251888 13.164051 0.000000
-7.237510 12.848701 0.000000
-6.922160 12.848701 0.009719
-6.606810 12.848701 0.006975
-6.291460 12.848701 0.006955
-5.976110 12.848701 0.007068
-5.660760 12.848701 0.007009
-5.345410 12.848701 0.007096
-5.030060 12.848701 0.007156
-4.714710 12.848701 0.007278
-4.399360 12.848701 0.007208
-4.084010 12.848701 0.007050
-3.768660 12.848701 0.007095
-3.453310 12.848701 0.007083
-3.137960 12.848701 0.007147
-2.822610 12.848701 0.007238
-2.507260 12.848701 0.007362
-2.191910 12.848701 0.007606
-1.876560 12.848701 0.007713
-1.561210 12.848701 0.007767
-1.245860 12.848701 0.007867
-0.930510 12.848701 0.007897
-0.615160 12.848701 0.007963
-0.299810 12.848701 0.008043
0.015540 12.848701 0.008375
0.330890 12.848701 0.008714
0.646240 12.848701 0.008888
0.961589 12.848701 0.009205
1.276940 12.848701 0.009375
1.592289 12.848701 0.009801
1.907640 12.848701 0.010174
2.222990 12.848701 0.010578
2.538340 12.848701 0.011241
2.853690 12.848701 0.012140
3.169039 12.848701 0.013033
3.484390 12.848701 0.013827
3.799739 12.848701 0.014872
4.115090 12.848701 0.016365
4.430439 12.848701 0.018168
4.745790 12.848701 0.020401
5.061140 12.848701 0.023122
5.376490 12.848701 0.026692
5.691840 12.848701 0.031847
6.007189 12.848701 0.038832
6.322540 12.848701 0.048297
6.637889 12.848701 0.061123
6.953240 12.848701 0.077821
7.268589 12.848701 0.101301
7.583940 12.848701 0.135108
7.899290 12.848701 0.180601
8.214640 12.848701 0.237162
8.529989 12.848701 0.310492
8.845339 12.848701 0.396059
9.160688 12.848701 0.486704
9.476040 12.848701 0.581764
9.791389 12.848701 0.690106
10.106739 12.848701 0.787798
10.422089 12.848701 0.909328
10.737438 12.848701 1.033310
11.052790 12.848701 1.128759
11.368139 12.848701 1.215344
11.683489 12.848701 1.302325
11.998838 12.848701 1.371876
12.314190 12.848701 1.436737
12.629539 12.848701 1.511023
12.944889 12.848701 1.579512
13.260239 12.848701 1.610860
13.575588 12.848701 1.631838
13.890940 12.848701 1.646184
14.206289 12.848701 1.615797
14.521639 12.848701 1.573557
14.836988 12.848701 1.533599
15.152340 12.848701 1.521432
15.467690 12.848701 0.489700
15.783039 12.848701 0.000000
16.098389 12.848701 0.000000
16.413738 12.848701 0.000000
16.729090 12.848701 0.000000
17.044439 12.848701 0.000000
17.359789 12.848701 0.000000
17.675138 12.848701 0.000000
17.990490 12.848701 0.958955
18.305840 12.848701 2.150130
18.621189 12.848701 2.320536
18.936539 12.848701 0.000000
19.251888 12.848701 0.000000
-7.237510 12.533352 0.000000
-6.922160 12.533352 0.010129
-6.606810 12.533352 0.007209
-6.291460 12.533352 0.007184
-5.976110 12.533352 0.007367
-5.660760 12.533352 0.007355
-5.345410 12.533352 0.007485
-5.030060 12.533352 0.007478
-4.714710 12.533352 0.007552
-4.399360 12.533352 0.007522
-4.084010 12.533352 0.007377
-3.768660 12.533352 0.007453
-3.453310 12.533352 0.007502
-3.137960 12.533352 0.007493
-2.822610 12.533352 0.007507
-2.507260 12.533352 0.007638
-2.191910 12.533352 0.007823
-1.876560 12.533352 0.007945
-1.561210 12.533352 0.008045
-1.245860 12.533352 0.008198
-0.930510 12.533352 0.008253
-0.615160 12.533352 0.008289
-0.299810 12.533352 0.008417
0.015540 12.533352 0.008749
0.330890 12.533352 0.009083
0.646240 12.533352 0.009369
0.961589 12.533352 0.009682
1.276940 12.533352 0.009948
1.592289 12.533352 0.010303
1.907640 12.533352 0.010590
2.222990 12.533352 0.010963
2.538340 12.533352 0.011663
2.853690 12.533352 0.012655
3.169039 12.533352 0.013552
3.484390 12.533352 0.014403
3.799739 12.533352 0.015639
4.115090 12.533352 0.017146
4.430439 12.533352 0.019149
4.745790 12.533352 0.021339
5.061140 12.533352 0.023966
5.376490 12.533352 0.027625
5.691840 12.533352 0.032881
6.007189 12.533352 0.039864
6.322540 12.533352 0.049225
6.637889 12.533352 0.062356
6.953240 12.533352 0.080387
7.268589 12.533352 0.103289
7.583940 12.533352 0.136418
7.899290 12.533352 0.179728
8.214640 12.533352 0.234962
8.529989 12.533352 0.312835
8.845339 12.533352 0.399411
9.160688 12.533352 0.491197
9.476040 12.533352 0.593893
9.791389 12.533352 0.705419
10.106739 12.533352 0.802288
10.422089 12.533352 0.919930
10.737438 12.533352 1.029412
11.052790 12.533352 1.130107
11.368139 12.533352 1.229931
11.683489 12.533352 1.305085
11.998838 12.533352 1.376457
12.314190 12.533352 1.435512
12.629539 12.533352 1.512083
12.944889 12.533352 1.585967
13.260239 12.533352 1.618752
13.575588 12.533352 1.625279
13.890940 12.533352 1.622758
14.206289 12.533352 1.624745
14.521639 12.533352 1.563790
14.836988 12.533352 1.511385
15.152340 12.533352 1.515756
15.467690 12.533352 0.489024
15.783039 12.533352 0.000000
16.098389 12.533352 0.000000
16.413738 12.533352 0.000000
16.729090 12.533352 0.000000
17.044439 12.533352 0.000000
17.359789 12.533352 0.000000
17.675138 12.533352 0.000000
17.990490 12.533352 1.014378
18.305840 12.533352 2.139997
18.621189 12.533352 2.251794
18.936539 12.533352 0.000000
19.251888 12.533352 0.000000
-7.237510 12.218002 0.000000
-6.922160 12.218002 0.010415
-6.606810 12.218002 0.007392
-6.291460 12.218002 0.007352
-5.976110 12.218002 0.007505
-5.660760 12.218002 0.007537
-5.345410 12.218002 0.007676
-5.030060 12.218002 0.007663
-4.714710 12.218002 0.007680
-4.399360 12.218002 0.007665
-4.084010 12.218002 0.007652
-3.768660 12.218002 0.007779
-3.453310 12.218002 0.007811
-3.137960 12.218002 0.007707
-2.822610 12.218002 0.007687
-2.507260 12.218002 0.007768
-2.191910 12.218002 0.007929
-1.876560 12.218002 0.008038
-1.561210 12.218002 0.008127
-1.245860 12.218002 0.008312
-0.930510 12.218002 0.008487
-0.615160 12.218002 0.008519
-0.299810 12.218002 0.008669
0.015540 12.218002 0.008957
0.330890 12.218002 0.009232
0.646240 12.218002 0.009625
0.961589 12.218002 0.009945
1.276940 12.218002 0.010284
1.592289 12.218002 0.010561
1.907640 12.218002 0.010819
2.222990 12.218002 0.011243
2.538340 12.218002 0.011981
2.853690 12.218002 0.013035
3.169039 12.218002 0.013993
3.484390 12.218002 0.014956
3.799739 12.218002 0.016225
4.115090 12.218002 0.017819
4.430439 12.218002 0.019921
4.745790 12.218002 0.022128
5.061140 12.218002 0.024640
5.376490 12.218002 0.028285
5.691840 12.218002 0.033637
6.007189 12.218002 0.040767
6.322540 12.218002 0.049940
6.637889 12.218002 0.063003
6.953240 12.218002 0.081532
7.268589 12.218002 0.105374
7.583940 12.218002 0.137425
7.899290 12.218002 0.179818
8.214640 12.218002 0.237051
8.529989 12.218002 0.315671
8.845339 12.218002 0.400424
9.160688 12.218002 0.498048
9.476040 12.218002 0.605708
9.791389 12.218002 0.710259
10.106739 12.218002 0.819914
10.422089 12.218002 0.923912
10.737438 12.218002 1.030752
11.052790 12.218002 1.140870
11.368139 12.218002 1.236790
11.683489 12.218002 1.330162
11.998838 12.218002 1.390623
12.314190 12.218002 1.464288
12.629539 12.218002 1.520163
12.944889 12.218002 1.584268
13.260239 12.218002 1.613409
13.575588 12.218002 1.618997
13.890940 12.218002 1.625874
14.206289 12.218002 1.598871
14.521639 12.218002 1.573153
14.836988 12.218002 1.551892
15.152340 12.218002 1.548491
15.467690 12.218002 0.450596
15.783039 12.218002 0.000000
16.098389 12.218002 0.000000
16.413738 12.218002 0.000000
16.729090 12.218002 0.000000
17.044439 12.218002 0.000000
17.359789 12.218002 0.000000
17.675138 12.218002 0.000000
17.990490 12.218002 1.109235
18.305840 12.218002 2.149009
18.621189 12.218002 2.171543
18.936539 12.218002 0.000000
19.251888 12.218002 0.000000
-7.237510 11.902653 0.000000
-6.922160 11.902653 0.010565
-6.606810 11.902653 0.007607
-6.291460 11.902653 0.007536
-5.976110 11.902653 0.007647
-5.660760 11.902653 0.007705
-5.345410 11.902653 0.007729
-5.030060 11.902653 0.007692
-4.714710 11.902653 0.007727
-4.399360 11.902653 0.007721
-4.084010 11.902653 0.007812
-3.768660 11.902653 0.007993
-3.453310 11.902653 0.007936
-3.137960 11.902653 0.007795
-2.822610 11.902653 0.007758
-2.507260 11.902653 0.007852
-2.191910 11.902653 0.007918
-1.876560 11.902653 0.008052
-1.561210 11.902653 0.008197
-1.245860 11.902653 0.008365
-0.930510 11.902653 0.008593
-0.615160 11.902653 0.008621
-0.299810 11.902653 0.008790
0.015540 11.902653 0.009034
0.330890 11.902653 0.009250
0.646240 11.902653 0.009740
0.961589 11.902653 0.010123
1.276940 11.902653 0.010423
1.592289 11.902653 0.010656
1.907640 11.902653 0.010956
2.222990 11.902653 0.011486
2.538340 11.902653 0.012250
2.853690 11.902653 0.013261
3.169039 11.902653 0.014258
3.484390 11.902653 0.015336
3.799739 11.902653 0.016548
4.115090 11.902653 0.018189
4.430439 11.902653 0.020367
4.745790 11.902653 0.022509
5.061140 11.902653 0.025040
5.376490 11.902653 0.028780
5.691840 11.902653 0.034048
6.007189 11.902653 0.041162
6.322540 11.902653 0.050676
6.637889 11.902653 0.063989
6.953240 11.902653 0.082204
7.268589 11.902653 0.107480
7.583940 11.902653 0.142121
7.899290 11.902653 0.186804
8.214640 11.902653 0.243522
8.529989 11.902653 0.319554
8.845339 11.902653 0.410998
9.160688 11.902653 0.509946
9.476040 11.902653 0.612807
9.791389 11.902653 0.710272
10.106739 11.902653 0.816162
10.422089 11.902653 0.926007
10.737438 11.902653 1.028553
11.052790 11.902653 1.150107
11.368139 11.902653 1.242231
11.683489 11.902653 1.332174
11.998838 11.902653 1.398793
12.314190 11.902653 1.459519
12.629539 11.902653 1.515770
12.944889 11.902653 1.551974
13.260239 11.902653 1.602719
13.575588 11.902653 1.606131
13.890940 11.902653 1.611978
14.206289 11.902653 1.588897
14.521639 11.902653 1.559582
14.836988 11.902653 1.560083
15.152340 11.902653 1.557731
15.467690 11.902653 0.389499
15.783039 11.902653 0.000000
16.098389 11.902653 0.000000
16.413738 11.902653 0.000000
16.729090 11.902653 0.000000
17.044439 11.902653 0.000000
17.359789 11.902653 0.000000
17.675138 11.902653 0.000000
17.990490 11.902653 1.121248
18.305840 11.902653 2.090675
18.621189 11.902653 2.088582
18.936539 11.902653 0.000000
19.251888 11.902653 0.000000
-7.237510 11.587299 0.000000
-6.922160 11.587299 0.010572
-6.606810 11.587299 0.007798
-6.291460 11.587299 0.007680
-5.976110 11.587299 0.007743
-5.660760 11.587299 0.007801
-5.345410 11.587299 0.007779
-5.030060 11.587299 0.007703
-4.714710 11.587299 0.007752
-4.399360 11.587299 0.007741
-4.084010 11.587299 0.007857
-3.768660 11.587299 0.007977
-3.453310 11.587299 0.007947
-3.137960 11.587299 0.007825
-2.822610 11.587299 0.007829
-2.507260 11.587299 0.007818
-2.191910 11.587299 0.007814
-1.876560 11.587299 0.008025
-1.561210 11.587299 0.008232
-1.245860 11.587299 0.008401
-0.930510 11.587299 0.008521
-0.615160 11.587299 0.008524
-0.299810 11.587299 0.008739
0.015540 11.587299 0.008987
0.330890 11.587299 0.009190
0.646240 11.587299 0.009683
0.961589 11.587299 0.010040
1.276940 11.587299 0.010402
1.592289 11.587299 0.010706
1.907640 11.587299 0.011013
2.222990 11.587299 0.011635
2.538340 11.587299 0.012430
2.853690 11.587299 0.013363
3.169039 11.587299 0.014352
3.484390 11.587299 0.015443
3.799739 11.587299 0.016563
4.115090 11.587299 0.018258
4.430439 11.587299 0.020450
4.745790 11.587299 0.022582
5.061140 11.587299 0.025219
5.376490 11.587299 0.028930
5.691840 11.587299 0.034265
6.007189 11.587299 0.041414
6.322540 11.587299 0.050521
6.637889 11.587299 0.064243
6.953240 11.587299 0.082809
7.268589 11.587299 0.108083
7.583940 11.587299 0.141823
7.899290 11.587299 0.188853
8.214640 11.587299 0.249414
8.529989 11.587299 0.325961
8.845339 11.587299 0.417298
9.160688 11.587299 0.515014
9.476040 11.587299 0.611780
9.791389 11.587299 0.721257
10.106739 11.587299 0.824220
10.422089 11.587299 0.933077
10.737438 11.587299 1.042236
11.052790 11.587299 1.158909
11.368139 11.587299 1.259108
11.683489 11.587299 1.338331
11.998838 11.587299 1.404704
12.314190 11.587299 1.449563
12.629539 11.587299 1.503410
12.944889 11.587299 1.542889
13.260239 11.587299 1.585685
13.575588 11.587299 1.611296
13.890940 11.587299 1.616767
14.206289 11.587299 1.590692
14.521639 11.587299 1.558787
14.836988 11.587299 1.547205
15.152340 11.587299 1.579938
15.467690 11.587299 0.643431
15.783039 11.587299 0.000000
16.098389 11.587299 0.000000
16.413738 11.587299 0.000000
16.729090 11.587299 0.000000
17.044439 11.587299 0.000000
17.359789 11.587299 0.000000
17.675138 11.587299 0.000000
17.990490 11.587299 1.157809
18.305840 11.587299 2.035379
18.621189 11.587299 2.044731
18.936539 11.587299 0.000000
19.251888 11.587299 0.000000
-7.237510 11.271950 0.000000
-6.922160 11.271950 0.010605
-6.606810 11.271950 0.007837
-6.291460 11.271950 0.007688
-5.976110 11.271950 0.007801
-5.660760 11.271950 0.007838
-5.345410 11.271950 0.007833
-5.030060 11.271950 0.007769
-4.714710 11.271950 0.007715
-4.399360 11.271950 0.007696
-4.084010 11.271950 0.007802
-3.768660 11.271950 0.007851
-3.453310 11.271950 0.007845
-3.137960 11.271950 0.007776
-2.822610 11.271950 0.007768
-2.507260 11.271950 0.007698
-2.191910 11.271950 0.007668
-1.876560 11.271950 0.007943
-1.561210 11.271950 0.008218
-1.245860 11.271950 0.008321
-0.930510 11.271950 0.008287
-0.615160 11.271950 0.008310
-0.299810 11.271950 0.008545
0.015540 11.271950 0.008794
0.330890 11.271950 0.009047
0.646240 11.271950 0.009395
0.961589 11.271950 0.009841
1.276940 11.271950 0.010281
1.592289 11.271950 0.010607
1.907640 11.271950 0.010957
2.222990 11.271950 0.011611
2.538340 11.271950 0.012383
2.853690 11.271950 0.013257
3.169039 11.271950 0.014211
3.484390 11.271950 0.015213
3.799739 11.271950 0.016377
4.115090 11.271950 0.018115
4.430439 11.271950 0.020216
4.745790 11.271950 0.022313
5.061140 11.271950 0.025164
5.376490 11.271950 0.028991
5.691840 11.271950 0.034110
6.007189 11.271950 0.041203
6.322540 11.271950 0.051141
6.637889 11.271950 0.064596
6.953240 11.271950 0.082484
7.268589 11.271950 0.108878
7.583940 11.271950 0.145713
7.899290 11.271950 0.190830
8.214640 11.271950 0.254917
8.529989 11.271950 0.329206
8.845339 11.271950 0.421262
9.160688 11.271950 0.512827
9.476040 11.271950 0.617442
9.791389 11.271950 0.723602
10.106739 11.271950 0.824920
10.422089 11.271950 0.941815
10.737438 11.271950 1.051398
11.052790 11.271950 1.158611
11.368139 11.271950 1.247002
11.683489 11.271950 1.335644
11.998838 11.271950 1.407026
12.314190 11.271950 1.462029
12.629539 11.271950 1.497538
12.944889 11.271950 1.539116
13.260239 11.271950 1.584852
13.575588 11.271950 1.627234
13.890940 11.271950 1.599684
14.206289 11.271950 1.595747
14.521639 11.271950 1.573534
14.836988 11.271950 1.582576
15.152340 11.271950 1.599026
15.467690 11.271950 0.000000
15.783039 11.271950 0.000000
16.098389 11.271950 0.000000
16.413738 11.271950 0.000000
16.729090 11.271950 0.000000
17.044439 11.271950 0.000000
17.359789 11.271950 0.000000
17.675138 11.271950 0.000000
17.990490 11.271950 1.172899
18.305840 11.271950 1.999521
18.621189 11.271950 1.966887
18.936539 11.271950 0.000000
19.251888 11.271950 0.000000
-7.237510 10.956600 0.000000
-6.922160 10.956600 0.010652
-6.606810 10.956600 0.007796
-6.291460 10.956600 0.007626
-5.976110 10.956600 0.007739
-5.660760 10.956600 0.007791
-5.345410 10.956600 0.007850
-5.030060 10.956600 0.007723
-4.714710 10.956600 0.007625
-4.399360 10.956600 0.007602
-4.084010 10.956600 0.007652
-3.768660 10.956600 0.007652
-3.453310 10.956600 0.007606
-3.137960 10.956600 0.007582
-2.822610 10.956600 0.007584
-2.507260 10.956600 0.007510
-2.191910 10.956600 0.007509
-1.876560 10.956600 0.007767
-1.561210 10.956600 0.007997
-1.245860 10.956600 0.008080
-0.930510 10.956600 0.008045
-0.615160 10.956600 0.008097
-0.299810 10.956600 0.008252
0.015540 10.956600 0.008490
0.330890 10.956600 0.008716
0.646240 10.956600 0.009004
0.961589 10.956600 0.009494
1.276940 10.956600 0.009966
1.592289 10.956600 0.010339
1.907640 10.956600 0.010715
2.222990 10.956600 0.011348
2.538340 10.956600 0.012077
2.853690 10.956600 0.012903
3.169039 10.956600 0.013817
3.484390 10.956600 0.014792
3.799739 10.956600 0.016041
4.115090 10.956600 0.017770
4.430439 10.956600 0.019784
4.745790 10.956600 0.021946
5.061140 10.956600 0.024918
5.376490 10.956600 0.028831
5.691840 10.956600 0.033856
6.007189 10.956600 0.040686
6.322540 10.956600 0.050794
6.637889 10.956600 0.064213
6.953240 10.956600 0.083873
7.268589 10.956600 0.110360
7.583940 10.956600 0.146869
7.899290 10.956600 0.190979
8.214640 10.956600 0.253464
8.529989 10.956600 0.330408
8.845339 10.956600 0.423462
9.160688 10.956600 0.516756
9.476040 10.956600 0.621256
9.791389 10.956600 0.727967
10.106739 10.956600 0.829984
10.422089 10.956600 0.948186
10.737438 10.956600 1.058911
11.052790 10.956600 1.163350
11.368139 10.956600 1.261049
11.683489 10.956600 1.325503
11.998838 10.956600 1.400587
12.314190 10.956600 1.464002
12.629539 10.956600 1.517679
12.944889 10.956600 1.550447
13.260239 10.956600 1.571648
13.575588 10.956600 1.602400
13.890940 10.956600 1.608921
14.206289 10.956600 1.570384
14.521639 10.956600 1.582104
14.836988 10.956600 1.583602
15.152340 10.956600 1.589313
15.467690 10.956600 0.000000
15.783039 10.956600 0.000000
16.098389 10.956600 0.000000
16.413738 10.956600 0.000000
16.729090 10.956600 0.000000
17.044439 10.956600 0.000000
17.359789 10.956600 0.000000
17.675138 10.956600 0.000000
17.990490 10.956600 1.155731
18.305840 10.956600 1.898622
18.621189 10.956600 1.908542
18.936539 10.956600 0.000000
19.251888 10.956600 0.000000
-7.237510 10.641251 0.000000
-6.922160 10.641251 0.010505
-6.606810 10.641251 0.007722
-6.291460 10.641251 0.007540
-5.976110 10.641251 0.007569
-5.660760 10.641251 0.007635
-5.345410 10.641251 0.007725
-5.030060 10.641251 0.007600
-4.714710 10.641251 0.007422
-4.399360 10.641251 0.007410
-4.084010 10.641251 0.007426
-3.768660 10.641251 0.007365
-3.453310 10.641251 0.007324
-3.137960 10.641251 0.007322
-2.822610 10.641251 0.007366
-2.507260 10.641251 0.007302
-2.191910 10.641251 0.007385
-1.876560 10.641251 0.007502
-1.561210 10.641251 0.007558
-1.245860 10.641251 0.007738
-0.930510 10.641251 0.007785
-0.615160 10.641251 0.007843
-0.299810 10.641251 0.007888
0.015540 10.641251 0.008075
0.330890 10.641251 0.008352
0.646240 10.641251 0.008556
0.961589 10.641251 0.009014
1.276940 10.641251 0.009474
1.592289 10.641251 0.009896
1.907640 10.641251 0.010323
2.222990 10.641251 0.010811
2.538340 10.641251 0.011535
2.853690 10.641251 0.012313
3.169039 10.641251 0.013219
3.484390 10.641251 0.014268
3.799739 10.641251 0.015600
4.115090 10.641251 0.017255
4.430439 10.641251 0.019183
4.745790 10.641251 0.021459
5.061140 10.641251 0.024475
5.376490 10.641251 0.028428
5.691840 10.641251 0.033666
6.007189 10.641251 0.040917
6.322540 10.641251 0.051334
6.637889 10.641251 0.065276
6.953240 10.641251 0.084855
7.268589 10.641251 0.111327
7.583940 10.641251 0.147116
7.899290 10.641251 0.193743
8.214640 10.641251 0.252272
8.529989 10.641251 0.327861
8.845339 10.641251 0.422080
9.160688 10.641251 0.519257
9.476040 10.641251 0.624460
9.791389 10.641251 0.725559
10.106739 10.641251 0.836579
10.422089 10.641251 0.944704
10.737438 10.641251 1.056485
11.052790 10.641251 1.156314
11.368139 10.641251 1.254158
11.683489 10.641251 1.344466
11.998838 10.641251 1.390621
12.314190 10.641251 1.483617
12.629539 10.641251 1.521017
12.944889 10.641251 1.547146
13.260239 10.641251 1.587238
13.575588 10.641251 1.607883
13.890940 10.641251 1.590943
14.206289 10.641251 1.574209
14.521639 10.641251 1.545608
14.836988 10.641251 1.532738
15.152340 10.641251 1.566758
15.467690 10.641251 0.000000
15.783039 10.641251 0.000000
16.098389 10.641251 0.000000
16.413738 10.641251 0.000000
16.729090 10.641251 0.000000
17.044439 10.641251 0.000000
17.359789 10.641251 0.000000
17.675138 10.641251 0.000000
17.990490 10.641251 1.142109
18.305840 10.641251 1.825159
18.621189 10.641251 1.820853
18.936539 10.641251 0.000000
19.251888 10.641251 0.000000
-7.237510 10.325901 0.000000
-6.922160 10.325901 0.010155
-6.606810 10.325901 0.007434
-6.291460 10.325901 0.007366
-5.976110 10.325901 0.007365
-5.660760 10.325901 0.007406
-5.345410 10.325901 0.007452
-5.030060 10.325901 0.007308
-4.714710 10.325901 0.007176
-4.399360 10.325901 0.007120
-4.084010 10.325901 0.007117
-3.768660 10.325901 0.007027
-3.453310 10.325901 0.007006
-3.137960 10.325901 0.007041
-2.822610 10.325901 0.007137
-2.507260 10.325901 0.007154
-2.191910 10.325901 0.007238
-1.876560 10.325901 0.007152
-1.561210 10.325901 0.007083
-1.245860 10.325901 0.007325
-0.930510 10.325901 0.007492
-0.615160 10.325901 0.007578
-0.299810 10.325901 0.007544
0.015540 10.325901 0.007705
0.330890 10.325901 0.007886
0.646240 10.325901 0.008033
0.961589 10.325901 0.008393
1.276940 10.325901 0.008835
1.592289 10.325901 0.009320
1.907640 10.325901 0.009761
2.222990 10.325901 0.010149
2.538340 10.325901 0.010860
2.853690 10.325901 0.011622
3.169039 10.325901 0.012500
3.484390 10.325901 0.013613
3.799739 10.325901 0.014979
4.115090 10.325901 0.016628
4.430439 10.325901 0.018459
4.745790 10.325901 0.020849
5.061140 10.325901 0.023938
5.376490 10.325901 0.027993
5.691840 10.325901 0.033359
6.007189 10.325901 0.040871
6.322540 10.325901 0.051009
6.637889 10.325901 0.065703
6.953240 10.325901 0.085840
7.268589 10.325901 0.113365
7.583940 10.325901 0.147922
7.899290 10.325901 0.193075
8.214640 10.325901 0.252016
8.529989 10.325901 0.334157
8.845339 10.325901 0.425257
9.160688 10.325901 0.527765
9.476040 10.325901 0.632544
9.791389 10.325901 0.738734
10.106739 10.325901 0.841596
10.422089 10.325901 0.943660
10.737438 10.325901 1.052326
11.052790 10.325901 1.152918
11.368139 10.325901 1.261282
11.683489 10.325901 1.327682
11.998838 10.325901 1.402792
12.314190 10.325901 1.476267
12.629539 10.325901 1.522513
12.944889 10.325901 1.558001
13.260239 10.325901 1.571303
13.575588 10.325901 1.584412
13.890940 10.325901 1.616016
14.206289 10.325901 1.568123
14.521639 10.325901 1.549089
14.836988 10.325901 1.535060
15.152340 10.325901 1.588296
15.467690 10.325901 0.000000
15.783039 10.325901 0.000000
16.098389 10.325901 0.000000
16.413738 10.325901 0.000000
16.729090 10.325901 0.000000
17.044439 10.325901 0.000000
17.359789 10.325901 0.000000
17.675138 10.325901 0.000000
17.990490 10.325901 1.149598
18.305840 10.325901 1.769742
18.621189 10.325901 1.749678
18.936539 10.325901 0.000000
19.251888 10.325901 0.000000
-7.237510 10.010551 0.000000
-6.922160 10.010551 0.009913
-6.606810 10.010551 0.007219
-6.291460 10.010551 0.007140
-5.976110 10.010551 0.007166
-5.660760 10.010551 0.007157
-5.345410 10.010551 0.007116
-5.030060 10.010551 0.006966
-4.714710 10.010551 0.006852
-4.399360 10.010551 0.006785
-4.084010 10.010551 0.006789
-3.768660 10.010551 0.006702
-3.453310 10.010551 0.006644
-3.137960 10.010551 0.006729
-2.822610 10.010551 0.006762
-2.507260 10.010551 0.006890
-2.191910 10.010551 0.006962
-1.876560 10.010551 0.006735
-1.561210 10.010551 0.006614
-1.245860 10.010551 0.006897
-0.930510 10.010551 0.007091
-0.615160 10.010551 0.007152
-0.299810 10.010551 0.007149
0.015540 10.010551 0.007236
0.330890 10.010551 0.007391
0.646240 10.010551 0.007499
0.961589 10.010551 0.007753
1.276940 10.010551 0.008128
1.592289 10.010551 0.008647
1.907640 10.010551 0.009073
2.222990 10.010551 0.009451
2.538340 10.010551 0.010121
2.853690 10.010551 0.010841
3.169039 10.010551 0.011713
3.484390 10.010551 0.012857
3.799739 10.010551 0.014231
4.115090 10.010551 0.015918
4.430439 10.010551 0.017740
4.745790 10.010551 0.020182
5.061140 10.010551 0.023366
5.376490 10.010551 0.027524
5.691840 10.010551 0.032913
6.007189 10.010551 0.040533
6.322540 10.010551 0.051553
6.637889 10.010551 0.066392
6.953240 10.010551 0.086794
7.268589 10.010551 0.115647
7.583940 10.010551 0.150983
7.899290 10.010551 0.197071
8.214640 10.010551 0.259234
8.529989 10.010551 0.342083
8.845339 10.010551 0.438256
9.160688 10.010551 0.531092
9.476040 10.010551 0.638920
9.791389 10.010551 0.741282
10.106739 10.010551 0.838524
10.422089 10.010551 0.953814
10.737438 10.010551 1.058943
11.052790 10.010551 1.163633
11.368139 10.010551 1.265338
11.683489 10.010551 1.328346
11.998838 10.010551 1.390252
12.314190 10.010551 1.456154
12.629539 10.010551 1.512954
12.944889 10.010551 1.544997
13.260239 10.010551 1.554926
13.575588 10.010551 1.576129
13.890940 10.010551 1.568513
14.206289 10.010551 1.559295
14.521639 10.010551 1.541247
14.836988 10.010551 1.535217
15.152340 10.010551 1.554387
15.467690 10.010551 0.000000
15.783039 10.010551 0.000000
16.098389 10.010551 0.000000
16.413738 10.010551 0.000000
16.729090 10.010551 0.000000
17.044439 10.010551 0.000000
17.359789 10.010551 0.000000
17.675138 10.010551 0.000000
17.990490 10.010551 1.207828
18.305840 10.010551 1.709789
18.621189 10.010551 1.631389
18.936539 10.010551 0.000000
19.251888 10.010551 0.000000
-7.237510 9.695202 0.000000
-6.922160 9.695202 0.009604
-6.606810 9.695202 0.006984
-6.291460 9.695202 0.006905
-5.976110 9.695202 0.006916
-5.660760 9.695202 0.006923
-5.345410 9.695202 0.006786
-5.030060 9.695202 0.006614
-4.714710 9.695202 0.006563
-4.399360 9.695202 0.006489
-4.084010 9.695202 0.006511
-3.768660 9.695202 0.006390
-3.453310 9.695202 0.006277
-3.137960 9.695202 0.006358
-2.822610 9.695202 0.006338
-2.507260 9.695202 0.006445
-2.191910 9.695202 0.006475
-1.876560 9.695202 0.006246
-1.561210 9.695202 0.006192
-1.245860 9.695202 0.006369
-0.930510 9.695202 0.006475
-0.615160 9.695202 0.006543
-0.299810 9.695202 0.006637
0.015540 9.695202 0.006706
0.330890 9.695202 0.006797
0.646240 9.695202 0.006934
0.961589 9.695202 0.007156
1.276940 9.695202 0.007476
1.592289 9.695202 0.007903
1.907640 9.695202 0.008326
2.222990 9.695202 0.008690
2.538340 9.695202 0.009349
2.853690 9.695202 0.010008
3.169039 9.695202 0.010817
3.484390 9.695202 0.011995
3.799739 9.695202 0.013422
4.115090 9.695202 0.015112
4.430439 9.695202 0.017015
4.745790 9.695202 0.019469
5.061140 9.695202 0.022622
5.376490 9.695202 0.026776
5.691840 9.695202 0.032386
6.007189 9.695202 0.040297
6.322540 9.695202 0.051875
6.637889 9.695202 0.066898
6.953240 9.695202 0.087786
7.268589 9.695202 0.117541
7.583940 9.695202 0.154689
7.899290 9.695202 0.200825
8.214640 9.695202 0.265862
8.529989 9.695202 0.350226
8.845339 9.695202 0.443033
9.160688 9.695202 0.542299
9.476040 9.695202 0.656184
9.791389 9.695202 0.751776
10.106739 9.695202 0.856349
10.422089 9.695202 0.961041
10.737438 9.695202 1.060855
11.052790 9.695202 1.164204
11.368139 9.695202 1.259951
11.683489 9.695202 1.334239
11.998838 9.695202 1.390654
12.314190 9.695202 1.446455
12.629539 9.695202 1.502063
12.944889 9.695202 1.532242
13.260239 9.695202 1.548380
13.575588 9.695202 1.577137
13.890940 9.695202 1.580731
14.206289 9.695202 1.564647
14.521639 9.695202 1.545312
14.836988 9.695202 1.546850
15.152340 9.695202 1.610224
15.467690 9.695202 0.000000
15.783039 9.695202 0.000000
16.098389 9.695202 0.000000
16.413738 9.695202 0.000000
16.729090 9.695202 0.000000
17.044439 9.695202 0.000000
17.359789 9.695202 0.000000
17.675138 9.695202 0.000000
17.990490 9.695202 1.180054
18.305840 9.695202 1.670815
18.621189 9.695202 1.615303
18.936539 9.695202 0.000000
19.251888 9.695202 0.000000
-7.237510 9.379852 0.000000
-6.922160 9.379852 0.009106
-6.606810 9.379852 0.006710
-6.291460 9.379852 0.006603
-5.976110 9.379852 0.006587
-5.660760 9.379852 0.006597
-5.345410 9.379852 0.006409
-5.030060 9.379852 0.006247
-4.714710 9.379852 0.006231
-4.399360 9.379852 0.006148
-4.084010 9.379852 0.006171
-3.768660 9.379852 0.005976
-3.453310 9.379852 0.005905
-3.137960 9.379852 0.005918
-2.822610 9.379852 0.005876
-2.507260 9.379852 0.005929
-2.191910 9.379852 0.005890
-1.876560 9.379852 0.005792
-1.561210 9.379852 0.005770
-1.245860 9.379852 0.005820
-0.930510 9.379852 0.005845
-0.615160 9.379852 0.005878
-0.299810 9.379852 0.006029
0.015540 9.379852 0.006137
0.330890 9.379852 0.006146
0.646240 9.379852 0.006334
0.961589 9.379852 0.006576
1.276940 9.379852 0.006873
1.592289 9.379852 0.007175
1.907640 9.379852 0.007548
2.222990 9.379852 0.007918
2.538340 9.379852 0.008534
2.853690 9.379852 0.009183
3.169039 9.379852 0.009979
3.484390 9.379852 0.011162
3.799739 9.379852 0.012533
4.115090 9.379852 0.014192
4.430439 9.379852 0.016239
4.745790 9.379852 0.018735
5.061140 9.379852 0.021823
5.376490 9.379852 0.026039
5.691840 9.379852 0.031593
6.007189 9.379852 0.039691
6.322540 9.379852 0.050839
6.637889 9.379852 0.066790
6.953240 9.379852 0.088129
7.268589 9.379852 0.116210
7.583940 9.379852 0.155464
7.899290 9.379852 0.205077
8.214640 9.379852 0.271023
8.529989 9.379852 0.352226
8.845339 9.379852 0.447929
9.160688 9.379852 0.551712
9.476040 9.379852 0.660578
9.791389 9.379852 0.756673
10.106739 9.379852 0.858142
10.422089 9.379852 0.970379
10.737438 9.379852 1.070899
11.052790 9.379852 1.171048
11.368139 9.379852 1.260693
11.683489 9.379852 1.342099
11.998838 9.379852 1.391304
12.314190 9.379852 1.430808
12.629539 9.379852 1.487523
12.944889 9.379852 1.537742
13.260239 9.379852 1.576809
13.575588 9.379852 1.590734
13.890940 9.379852 1.566548
14.206289 9.379852 1.549423
14.521639 9.379852 1.569364
14.836988 9.379852 1.542223
15.152340 9.379852 1.596714
15.467690 9.379852 0.000000
15.783039 9.379852 0.000000
16.098389 9.379852 0.000000
16.413738 9.379852 0.000000
16.729090 9.379852 0.000000
17.044439 9.379852 0.000000
17.359789 9.379852 0.000000
17.675138 9.379852 0.000000
17.990490 9.379852 1.129768
18.305840 9.379852 1.624429
18.621189 9.379852 1.576473
18.936539 9.379852 0.000000
19.251888 9.379852 0.000000
-7.237510 9.064503 0.000000
-6.922160 9.064503 0.008570
-6.606810 9.064503 0.006361
-6.291460 9.064503 0.006213
-5.976110 9.064503 0.006163
-5.660760 9.064503 0.006165
-5.345410 9.064503 0.005994
-5.030060 9.064503 0.005851
-4.714710 9.064503 0.005821
-4.399360 9.064503 0.005767
-4.084010 9.064503 0.005717
-3.768660 9.064503 0.005561
-3.453310 9.064503 0.005504
-3.137960 9.064503 0.005440
-2.822610 9.064503 0.005395
-2.507260 9.064503 0.005395
-2.191910 9.064503 0.005306
-1.876560 9.064503 0.005336
-1.561210 9.064503 0.005352
-1.245860 9.064503 0.005313
-0.930510 9.064503 0.005320
-0.615160 9.064503 0.005337
-0.299810 9.064503 0.005378
0.015540 9.064503 0.005498
0.330890 9.064503 0.005533
0.646240 9.064503 0.005749
0.961589 9.064503 0.006007
1.276940 9.064503 0.006216
1.592289 9.064503 0.006453
1.907640 9.064503 0.006765
2.222990 9.064503 0.007153
2.538340 9.064503 0.007719
2.853690 9.064503 0.008433
3.169039 9.064503 0.009179
3.484390 9.064503 0.010308
3.799739 9.064503 0.011602
4.115090 9.064503 0.013222
4.430439 9.064503 0.015371
4.745790 9.064503 0.017962
5.061140 9.064503 0.021046
5.376490 9.064503 0.025350
5.691840 9.064503 0.031184
6.007189 9.064503 0.039231
6.322540 9.064503 0.050879
6.637889 9.064503 0.067635
6.953240 9.064503 0.090074
7.268589 9.064503 0.118250
7.583940 9.064503 0.156156
7.899290 9.064503 0.205712
8.214640 9.064503 0.271136
8.529989 9.064503 0.348930
8.845339 9.064503 0.444622
9.160688 9.064503 0.552454
9.476040 9.064503 0.646040
9.791389 9.064503 0.754665
10.106739 9.064503 0.858311
10.422089 9.064503 0.973416
10.737438 9.064503 1.080712
11.052790 9.064503 1.177459
11.368139 9.064503 1.269870
11.683489 9.064503 1.343404
11.998838 9.064503 1.393260
12.314190 9.064503 1.437471
12.629539 9.064503 1.490990
12.944889 9.064503 1.531751
13.260239 9.064503 1.575729
13.575588 9.064503 1.585845
13.890940 9.064503 1.559356
14.206289 9.064503 1.557203
14.521639 9.064503 1.549079
14.836988 9.064503 1.574233
15.152340 9.064503 1.648426
15.467690 9.064503 0.000000
15.783039 9.064503 0.000000
16.098389 9.064503 0.000000
16.413738 9.064503 0.000000
16.729090 9.064503 0.000000
17.044439 9.064503 0.000000
17.359789 9.064503 0.000000
17.675138 9.064503 0.000000
17.990490 9.064503 1.092416
18.305840 9.064503 1.563074
18.621189 9.064503 1.518285
18.936539 9.064503 0.000000
19.251888 9.064503 0.000000
-7.237510 8.749149 0.000000
-6.922160 8.749149 0.008103
-6.606810 8.749149 0.005955
-6.291460 8.749149 0.005789
-5.976110 8.749149 0.005717
-5.660760 8.749149 0.005677
-5.345410 8.749149 0.005540
-5.030060 8.749149 0.005441
-4.714710 8.749149 0.005377
-4.399360 8.749149 0.005328
-4.084010 8.749149 0.005294
-3.768660 8.749149 0.005170
-3.453310 8.749149 0.005065
-3.137960 8.749149 0.004991
-2.822610 8.749149 0.004944
-2.507260 8.749149 0.004836
-2.191910 8.749149 0.004774
-1.876560 8.749149 0.004891
-1.561210 8.749149 0.004913
-1.245860 8.749149 0.004855
-0.930510 8.749149 0.004840
-0.615160 8.749149 0.004847
-0.299810 8.749149 0.004840
0.015540 8.749149 0.004934
0.330890 8.749149 0.005034
0.646240 8.749149 0.005223
0.961589 8.749149 0.005518
1.276940 8.749149 0.005622
1.592289 8.749149 0.005769
1.907640 8.749149 0.006061
2.222990 8.749149 0.006406
2.538340 8.749149 0.006986
2.853690 8.749149 0.007633
3.169039 8.749149 0.008410
3.484390 8.749149 0.009476
3.799739 8.749149 0.010685
4.115090 8.749149 0.012341
4.430439 8.749149 0.014458
4.745790 8.749149 0.017059
5.061140 8.749149 0.020200
5.376490 8.749149 0.024624
5.691840 8.749149 0.030819
6.007189 8.749149 0.039166
6.322540 8.749149 0.051225
6.637889 8.749149 0.067700
6.953240 8.749149 0.090284
7.268589 8.749149 0.120127
7.583940 8.749149 0.158173
7.899290 8.749149 0.209041
8.214640 8.749149 0.273137
8.529989 8.749149 0.354720
8.845339 8.749149 0.443981
9.160688 8.749149 0.548307
9.476040 8.749149 0.646144
9.791389 8.749149 0.749388
10.106739 8.749149 0.868377
10.422089 8.749149 0.979441
10.737438 8.749149 1.079000
11.052790 8.749149 1.172378
11.368139 8.749149 1.265737
11.683489 8.749149 1.338262
11.998838 8.749149 1.397792
12.314190 8.749149 1.447887
12.629539 8.749149 1.483438
12.944889 8.749149 1.534227
13.260239 8.749149 1.566616
13.575588 8.749149 1.600688
13.890940 8.749149 1.581392
14.206289 8.749149 1.565348
14.521639 8.749149 1.522502
14.836988 8.749149 1.545961
15.152340 8.749149 1.612659
15.467690 8.749149 0.000000
15.783039 8.749149 0.000000
16.098389 8.749149 0.000000
16.413738 8.749149 0.000000
16.729090 8.749149 0.000000
17.044439 8.749149 0.000000
17.359789 8.749149 0.000000
17.675138 8.749149 0.000000
17.990490 8.749149 1.010157
18.305840 8.749149 1.501560
18.621189 8.749149 1.458106
18.936539 8.749149 0.000000
19.251888 8.749149 0.000000
-7.237510 8.433800 0.000000
-6.922160 8.433800 0.007528
-6.606810 8.433800 0.005544
-6.291460 8.433800 0.005407
-5.976110 8.433800 0.005307
-5.660760 8.433800 0.005237
-5.345410 8.433800 0.005096
-5.030060 8.433800 0.005018
-4.714710 8.433800 0.004892
-4.399360 8.433800 0.004849
-4.084010 8.433800 0.004829
-3.768660 8.433800 0.004741
-3.453310 8.433800 0.004627
-3.137960 8.433800 0.004560
-2.822610 8.433800 0.004477
-2.507260 8.433800 0.004406
-2.191910 8.433800 0.004361
-1.876560 8.433800 0.004471
-1.561210 8.433800 0.004499
-1.245860 8.433800 0.004462
-0.930510 8.433800 0.004381
-0.615160 8.433800 0.004398
-0.299810 8.433800 0.004412
0.015540 8.433800 0.004495
0.330890 8.433800 0.004607
0.646240 8.433800 0.004837
0.961589 8.433800 0.005010
1.276940 8.433800 0.005046
1.592289 8.433800 0.005165
1.907640 8.433800 0.005413
2.222990 8.433800 0.005725
2.538340 8.433800 0.006250
2.853690 8.433800 0.006887
3.169039 8.433800 0.007641
3.484390 8.433800 0.008668
3.799739 8.433800 0.009854
4.115090 8.433800 0.011372
4.430439 8.433800 0.013498
4.745790 8.433800 0.016132
5.061140 8.433800 0.019508
5.376490 8.433800 0.024082
5.691840 8.433800 0.030595
6.007189 8.433800 0.039421
6.322540 8.433800 0.051541
6.637889 8.433800 0.068586
6.953240 8.433800 0.092399
7.268589 8.433800 0.122368
7.583940 8.433800 0.160888
7.899290 8.433800 0.212408
8.214640 8.433800 0.279871
8.529989 8.433800 0.366594
8.845339 8.433800 0.458844
9.160688 8.433800 0.554102
9.476040 8.433800 0.661530
9.791389 8.433800 0.761874
10.106739 8.433800 0.868714
10.422089 8.433800 0.987190
10.737438 8.433800 1.093675
11.052790 8.433800 1.193166
11.368139 8.433800 1.271150
11.683489 8.433800 1.344756
11.998838 8.433800 1.394717
12.314190 8.433800 1.454026
12.629539 8.433800 1.496190
12.944889 8.433800 1.534123
13.260239 8.433800 1.562997
13.575588 8.433800 1.601227
13.890940 8.433800 1.588580
14.206289 8.433800 1.554725
14.521639 8.433800 1.532383
14.836988 8.433800 1.532097
15.152340 8.433800 1.587990
15.467690 8.433800 0.000000
15.783039 8.433800 0.000000
16.098389 8.433800 0.000000
16.413738 8.433800 0.000000
16.729090 8.433800 0.000000
17.044439 8.433800 0.000000
17.359789 8.433800 0.000000
17.675138 8.433800 0.000000
17.990490 8.433800 0.936849
18.305840 8.433800 1.378267
18.621189 8.433800 1.421568
18.936539 8.433800 0.000000
19.251888 8.433800 0.000000
-7.237510 8.118450 0.000000
-6.922160 8.118450 0.006984
-6.606810 8.118450 0.005184
-6.291460 8.118450 0.005058
-5.976110 8.118450 0.004957
-5.660760 8.118450 0.004856
-5.345410 8.118450 0.004687
-5.030060 8.118450 0.004585
-4.714710 8.118450 0.004438
-4.399360 8.118450 0.004415
-4.084010 8.118450 0.004389
-3.768660 8.118450 0.004275
-3.453310 8.118450 0.004216
-3.137960 8.118450 0.004164
-2.822610 8.118450 0.004112
-2.507260 8.118450 0.004061
-2.191910 8.118450 0.003990
-1.876560 8.118450 0.004062
-1.561210 8.118450 0.004093
-1.245860 8.118450 0.004089
-0.930510 8.118450 0.004032
-0.615160 8.118450 0.004022
-0.299810 8.118450 0.004037
0.015540 8.118450 0.004123
0.330890 8.118450 0.004282
0.646240 8.118450 0.004424
0.961589 8.118450 0.004503
1.276940 8.118450 0.004531
1.592289 8.118450 0.004679
1.907640 8.118450 0.004911
2.222990 8.118450 0.005174
2.538340 8.118450 0.005644
2.853690 8.118450 0.006261
3.169039 8.118450 0.006913
3.484390 8.118450 0.007833
3.799739 8.118450 0.008989
4.115090 8.118450 0.010444
4.430439 8.118450 0.012650
4.745790 8.118450 0.015436
5.061140 8.118450 0.018954
5.376490 8.118450 0.023773
5.691840 8.118450 0.030409
6.007189 8.118450 0.039796
6.322540 8.118450 0.052182
6.637889 8.118450 0.070130
6.953240 8.118450 0.094912
7.268589 8.118450 0.124248
7.583940 8.118450 0.163881
7.899290 8.118450 0.221471
8.214640 8.118450 0.285909
8.529989 8.118450 0.371924
8.845339 8.118450 0.468712
9.160688 8.118450 0.561175
9.476040 8.118450 0.671535
9.791389 8.118450 0.781685
10.106739 8.118450 0.889936
10.422089 8.118450 1.006441
10.737438 8.118450 1.114526
11.052790 8.118450 1.198563
11.368139 8.118450 1.282348
11.683489 8.118450 1.356540
11.998838 8.118450 1.411225
12.314190 8.118450 1.464850
12.629539 8.118450 1.508393
12.944889 8.118450 1.535313
13.260239 8.118450 1.563307
13.575588 8.118450 1.573105
13.890940 8.118450 1.568270
14.206289 8.118450 1.567501
14.521639 8.118450 1.557602
14.836988 8.118450 1.550496
15.152340 8.118450 1.589185
15.467690 8.118450 0.000000
15.783039 8.118450 0.000000
16.098389 8.118450 0.000000
16.413738 8.118450 0.000000
16.729090 8.118450 0.000000
17.044439 8.118450 0.000000
17.359789 8.118450 0.000000
17.675138 8.118450 0.000000
17.990490 8.118450 0.836416
18.305840 8.118450 1.292235
18.621189 8.118450 1.397426
18.936539 8.118450 0.000000
19.251888 8.118450 0.000000
-7.237510 7.803101 0.000000
-6.922160 7.803101 0.006659
-6.606810 7.803101 0.004863
-6.291460 7.803101 0.004727
-5.976110 7.803101 0.004619
-5.660760 7.803101 0.004495
-5.345410 7.803101 0.004369
-5.030060 7.803101 0.004248
-4.714710 7.803101 0.004066
-4.399360 7.803101 0.004004
-4.084010 7.803101 0.003993
-3.768660 7.803101 0.003892
-3.453310 7.803101 0.003879
-3.137960 7.803101 0.003820
-2.822610 7.803101 0.003785
-2.507260 7.803101 0.003734
-2.191910 7.803101 0.003633
-1.876560 7.803101 0.003667
-1.561210 7.803101 0.003735
-1.245860 7.803101 0.003728
-0.930510 7.803101 0.003672
-0.615160 7.803101 0.003697
-0.299810 7.803101 0.003733
0.015540 7.803101 0.003823
0.330890 7.803101 0.003967
0.646240 7.803101 0.004068
0.961589 7.803101 0.004067
1.276940 7.803101 0.004123
1.592289 7.803101 0.004326
1.907640 7.803101 0.004515
2.222990 7.803101 0.004768
2.538340 7.803101 0.005210
2.853690 7.803101 0.005738
3.169039 7.803101 0.006350
3.484390 7.803101 0.007210
3.799739 7.803101 0.008267
4.115090 7.803101 0.009801
4.430439 7.803101 0.011965
4.745790 7.803101 0.014773
5.061140 7.803101 0.018540
5.376490 7.803101 0.023703
5.691840 7.803101 0.030515
6.007189 7.803101 0.039704
6.322540 7.803101 0.052539
6.637889 7.803101 0.070842
6.953240 7.803101 0.095364
7.268589 7.803101 0.126168
7.583940 7.803101 0.167627
7.899290 7.803101 0.225217
8.214640 7.803101 0.295754
8.529989 7.803101 0.381207
8.845339 7.803101 0.475070
9.160688 7.803101 0.572856
9.476040 7.803101 0.675372
9.791389 7.803101 0.800419
10.106739 7.803101 0.901403
10.422089 7.803101 1.013526
10.737438 7.803101 1.117347
11.052790 7.803101 1.205124
11.368139 7.803101 1.309381
11.683489 7.803101 1.376371
11.998838 7.803101 1.411564
12.314190 7.803101 1.470060
12.629539 7.803101 1.519152
12.944889 7.803101 1.546820
13.260239 7.803101 1.563948
13.575588 7.803101 1.569742
13.890940 7.803101 1.549888
14.206289 7.803101 1.560992
14.521639 7.803101 1.562309
14.836988 7.803101 1.566432
15.152340 7.803101 1.588661
15.467690 7.803101 0.000000
15.783039 7.803101 0.000000
16.098389 7.803101 0.000000
16.413738 7.803101 0.000000
16.729090 7.803101 0.000000
17.044439 7.803101 0.000000
17.359789 7.803101 0.000000
17.675138 7.803101 0.000000
17.990490 7.803101 0.796002
18.305840 7.803101 1.161142
18.621189 7.803101 1.307251
18.936539 7.803101 0.000000
19.251888 7.803101 0.000000
-7.237510 7.487751 0.000000
-6.922160 7.487751 0.006274
-6.606810 7.487751 0.004546
-6.291460 7.487751 0.004373
-5.976110 7.487751 0.004263
-5.660760 7.487751 0.004164
-5.345410 7.487751 0.004051
-5.030060 7.487751 0.003912
-4.714710 7.487751 0.003726
-4.399360 7.487751 0.003656
-4.084010 7.487751 0.003616
-3.768660 7.487751 0.003566
-3.453310 7.487751 0.003574
-3.137960 7.487751 0.003542
-2.822610 7.487751 0.003507
-2.507260 7.487751 0.003493
-2.191910 7.487751 0.003372
-1.876560 7.487751 0.003386
-1.561210 7.487751 0.003455
-1.245860 7.487751 0.003391
-0.930510 7.487751 0.003392
-0.615160 7.487751 0.003431
-0.299810 7.487751 0.003489
0.015540 7.487751 0.003555
0.330890 7.487751 0.003690
0.646240 7.487751 0.003756
0.961589 7.487751 0.003774
1.276940 7.487751 0.003921
1.592289 7.487751 0.004097
1.907640 7.487751 0.004238
2.222990 7.487751 0.004467
2.538340 7.487751 0.004935
2.853690 7.487751 0.005435
3.169039 7.487751 0.005968
3.484390 7.487751 0.006708
3.799739 7.487751 0.007828
4.115090 7.487751 0.009334
4.430439 7.487751 0.011523
4.745790 7.487751 0.014316
5.061140 7.487751 0.018308
5.376490 7.487751 0.023550
5.691840 7.487751 0.030611
6.007189 7.487751 0.039859
6.322540 7.487751 0.053271
6.637889 7.487751 0.072175
6.953240 7.487751 0.096539
7.268589 7.487751 0.128219
7.583940 7.487751 0.171686
7.899290 7.487751 0.225904
8.214640 7.487751 0.299395
8.529989 7.487751 0.386682
8.845339 7.487751 0.483507
9.160688 7.487751 0.581680
9.476040 7.487751 0.678582
9.791389 7.487751 0.793797
10.106739 7.487751 0.911110
10.422089 7.487751 1.016175
10.737438 7.487751 1.121099
11.052790 7.487751 1.208591
11.368139 7.487751 1.291913
11.683489 7.487751 1.372887
11.998838 7.487751 1.427538
12.314190 7.487751 1.466961
12.629539 7.487751 1.509789
12.944889 7.487751 1.538894
13.260239 7.487751 1.563008
13.575588 7.487751 1.561694
13.890940 7.487751 1.536648
14.206289 7.487751 1.531425
14.521639 7.487751 1.539477
14.836988 7.487751 1.558606
15.152340 7.487751 1.557383
15.467690 7.487751 0.000000
15.783039 7.487751 0.000000
16.098389 7.487751 0.000000
16.413738 7.487751 0.000000
16.729090 7.487751 0.000000
17.044439 7.487751 0.000000
17.359789 7.487751 0.000000
17.675138 7.487751 0.000000
17.990490 7.487751 0.761935
18.305840 7.487751 1.070697
18.621189 7.487751 1.264008
18.936539 7.487751 0.000000
19.251888 7.487751 0.000000
-7.237510 7.172401 0.000000
-6.922160 7.172401 0.005831
-6.606810 7.172401 0.004215
-6.291460 7.172401 0.004015
-5.976110 7.172401 0.003899
-5.660760 7.172401 0.003793
-5.345410 7.172401 0.003723
-5.030060 7.172401 0.003589
-4.714710 7.172401 0.003443
-4.399360 7.172401 0.003370
-4.084010 7.172401 0.003345
-3.768660 7.172401 0.003345
-3.453310 7.172401 0.003318
-3.137960 7.172401 0.003262
-2.822610 7.172401 0.003264
-2.507260 7.172401 0.003271
-2.191910 7.172401 0.003182
-1.876560 7.172401 0.003180
-1.561210 7.172401 0.003252
-1.245860 7.172401 0.003191
-0.930510 7.172401 0.003177
-0.615160 7.172401 0.003216
-0.299810 7.172401 0.003299
0.015540 7.172401 0.003382
0.330890 7.172401 0.003473
0.646240 7.172401 0.003547
0.961589 7.172401 0.003617
1.276940 7.172401 0.003774
1.592289 7.172401 0.003986
1.907640 7.172401 0.004131
2.222990 7.172401 0.004336
2.538340 7.172401 0.004790
2.853690 7.172401 0.005316
3.169039 7.172401 0.005831
3.484390 7.172401 0.006533
3.799739 7.172401 0.007657
4.115090 7.172401 0.009159
4.430439 7.172401 0.011289
4.745790 7.172401 0.014207
5.061140 7.172401 0.018348
5.376490 7.172401 0.023776
5.691840 7.172401 0.030783
6.007189 7.172401 0.040487
6.322540 7.172401 0.054179
6.637889 7.172401 0.072896
6.953240 7.172401 0.097635
7.268589 7.172401 0.130567
7.583940 7.172401 0.173220
7.899290 7.172401 0.223464
8.214640 7.172401 0.295768
8.529989 7.172401 0.387536
8.845339 7.172401 0.484708
9.160688 7.172401 0.584642
9.476040 7.172401 0.681483
9.791389 7.172401 0.795047
10.106739 7.172401 0.905891
10.422089 7.172401 1.020560
10.737438 7.172401 1.131201
11.052790 7.172401 1.216267
11.368139 7.172401 1.302856
11.683489 7.172401 1.379535
11.998838 7.172401 1.414704
12.314190 7.172401 1.464815
12.629539 7.172401 1.504858
12.944889 7.172401 1.547240
13.260239 7.172401 1.565437
13.575588 7.172401 1.557456
13.890940 7.172401 1.564715
14.206289 7.172401 1.533877
14.521639 7.172401 1.517060
14.836988 7.172401 1.525223
15.152340 7.172401 1.531742
15.467690 7.172401 0.000000
15.783039 7.172401 0.000000
16.098389 7.172401 0.000000
16.413738 7.172401 0.000000
16.729090 7.172401 0.000000
17.044439 7.172401 0.000000
17.359789 7.172401 0.000000
17.675138 7.172401 0.000000
17.990490 7.172401 0.769759
18.305840 7.172401 1.047166
18.621189 7.172401 1.244776
18.936539 7.172401 0.000000
19.251888 7.172401 0.000000
-7.237510 6.857052 0.000000
-6.922160 6.857052 0.005387
-6.606810 6.857052 0.003870
-6.291460 6.857052 0.003669
-5.976110 6.857052 0.003561
-5.660760 6.857052 0.003464
-5.345410 6.857052 0.003401
-5.030060 6.857052 0.003325
-4.714710 6.857052 0.003207
-4.399360 6.857052 0.003157
-4.084010 6.857052 0.003155
-3.768660 6.857052 0.003162
-3.453310 6.857052 0.003090
-3.137960 6.857052 0.003033
-2.822610 6.857052 0.003074
-2.507260 6.857052 0.003083
-2.191910 6.857052 0.003048
-1.876560 6.857052 0.003026
-1.561210 6.857052 0.003096
-1.245860 6.857052 0.003049
-0.930510 6.857052 0.003018
-0.615160 6.857052 0.003034
-0.299810 6.857052 0.003128
0.015540 6.857052 0.003244
0.330890 6.857052 0.003294
0.646240 6.857052 0.003411
0.961589 6.857052 0.003495
1.276940 6.857052 0.003694
1.592289 6.857052 0.003943
1.907640 6.857052 0.004070
2.222990 6.857052 0.004331
2.538340 6.857052 0.004765
2.853690 6.857052 0.005312
3.169039 6.857052 0.005853
3.484390 6.857052 0.006610
3.799739 6.857052 0.007773
4.115090 6.857052 0.009228
4.430439 6.857052 0.011311
4.745790 6.857052 0.014337
5.061140 6.857052 0.018699
5.376490 6.857052 0.024313
5.691840 6.857052 0.031362
6.007189 6.857052 0.041361
6.322540 6.857052 0.055668
6.637889 6.857052 0.074212
6.953240 6.857052 0.099754
7.268589 6.857052 0.134446
7.583940 6.857052 0.174207
7.899290 6.857052 0.226919
8.214640 6.857052 0.300092
8.529989 6.857052 0.392966
8.845339 6.857052 0.490908
9.160688 6.857052 0.592745
9.476040 6.857052 0.687571
9.791389 6.857052 0.806552
10.106739 6.857052 0.910576
10.422089 6.857052 1.025995
10.737438 6.857052 1.123238
11.052790 6.857052 1.223412
11.368139 6.857052 1.314241
11.683489 6.857052 1.387432
11.998838 6.857052 1.406253
12.314190 6.857052 1.454230
12.629539 6.857052 1.508471
12.944889 6.857052 1.544666
13.260239 6.857052 1.556746
13.575588 6.857052 1.554645
13.890940 6.857052 1.554869
14.206289 6.857052 1.544768
14.521639 6.857052 1.522735
14.836988 6.857052 1.526693
15.152340 6.857052 1.511487
15.467690 6.857052 0.000000
15.783039 6.857052 0.000000
16.098389 6.857052 0.000000
16.413738 6.857052 0.000000
16.729090 6.857052 0.000000
17.044439 6.857052 0.000000
17.359789 6.857052 0.000000
17.675138 6.857052 0.000000
17.990490 6.857052 0.750805
18.305840 6.857052 1.016650
18.621189 6.857052 1.214993
18.936539 6.857052 0.000000
19.251888 6.857052 0.000000
-7.237510 6.541702 0.000000
-6.922160 6.541702 0.004980
-6.606810 6.541702 0.003543
-6.291460 6.541702 0.003385
-5.976110 6.541702 0.003261
-5.660760 6.541702 0.003179
-5.345410 6.541702 0.003178
-5.030060 6.541702 0.003085
-4.714710 6.541702 0.003029
-4.399360 6.541702 0.003035
-4.084010 6.541702 0.003005
-3.768660 6.541702 0.002985
-3.453310 6.541702 0.002905
-3.137960 6.541702 0.002860
-2.822610 6.541702 0.002895
-2.507260 6.541702 0.002913
-2.191910 6.541702 0.002911
-1.876560 6.541702 0.002897
-1.561210 6.541702 0.002944
-1.245860 6.541702 0.002914
-0.930510 6.541702 0.002907
-0.615160 6.541702 0.002940
-0.299810 6.541702 0.003043
0.015540 6.541702 0.003147
0.330890 6.541702 0.003186
0.646240 6.541702 0.003318
0.961589 6.541702 0.003435
1.276940 6.541702 0.003645
1.592289 6.541702 0.003895
1.907640 6.541702 0.004092
2.222990 6.541702 0.004378
2.538340 6.541702 0.004797
2.853690 6.541702 0.005350
3.169039 6.541702 0.006022
3.484390 6.541702 0.006880
3.799739 6.541702 0.008017
4.115090 6.541702 0.009566
4.430439 6.541702 0.011654
4.745790 6.541702 0.014764
5.061140 6.541702 0.019228
5.376490 6.541702 0.024695
5.691840 6.541702 0.031815
6.007189 6.541702 0.042704
6.322540 6.541702 0.057386
6.637889 6.541702 0.076694
6.953240 6.541702 0.103060
7.268589 6.541702 0.137458
7.583940 6.541702 0.179294
7.899290 6.541702 0.233980
8.214640 6.541702 0.309025
8.529989 6.541702 0.401391
8.845339 6.541702 0.497158
9.160688 6.541702 0.602454
9.476040 6.541702 0.705347
9.791389 6.541702 0.811923
10.106739 6.541702 0.925409
10.422089 6.541702 1.036431
10.737438 6.541702 1.129914
11.052790 6.541702 1.221164
11.368139 6.541702 1.335708
11.683489 6.541702 1.379379
11.998838 6.541702 1.415067
12.314190 6.541702 1.471217
12.629539 6.541702 1.516063
12.944889 6.541702 1.550429
13.260239 6.541702 1.532129
13.575588 6.541702 1.565748
13.890940 6.541702 1.551596
14.206289 6.541702 1.563614
14.521639 6.541702 1.537445
14.836988 6.541702 1.503502
15.152340 6.541702 1.500909
15.467690 6.541702 0.000000
15.783039 6.541702 0.000000
16.098389 6.541702 0.000000
16.413738 6.541702 0.000000
16.729090 6.541702 0.000000
17.044439 6.541702 0.000000
17.359789 6.541702 0.000000
17.675138 6.541702 0.000000
17.990490 6.541702 0.689789
18.305840 6.541702 0.888921
18.621189 6.541702 1.129866
18.936539 6.541702 0.000000
19.251888 6.541702 0.000000
-7.237510 6.226353 0.000000
-6.922160 6.226353 0.004616
-6.606810 6.226353 0.003278
-6.291460 6.226353 0.003164
-5.976110 6.226353 0.003064
-5.660760 6.226353 0.003024
-5.345410 6.226353 0.003035
-5.030060 6.226353 0.002950
-4.714710 6.226353 0.002936
-4.399360 6.226353 0.002958
-4.084010 6.226353 0.002887
-3.768660 6.226353 0.002860
-3.453310 6.226353 0.002802
-3.137960 6.226353 0.002763
-2.822610 6.226353 0.002757
-2.507260 6.226353 0.002791
-2.191910 6.226353 0.002822
-1.876560 6.226353 0.002813
-1.561210 6.226353 0.002818
-1.245860 6.226353 0.002808
-0.930510 6.226353 0.002835
-0.615160 6.226353 0.002883
-0.299810 6.226353 0.002993
0.015540 6.226353 0.003108
0.330890 6.226353 0.003178
0.646240 6.226353 0.003280
0.961589 6.226353 0.003425
1.276940 6.226353 0.003641
1.592289 6.226353 0.003924
1.907640 6.226353 0.004186
2.222990 6.226353 0.004496
2.538340 6.226353 0.004882
2.853690 6.226353 0.005497
3.169039 6.226353 0.006253
3.484390 6.226353 0.007203
3.799739 6.226353 0.008377
4.115090 6.226353 0.010101
4.430439 6.226353 0.012280
4.745790 6.226353 0.015352
5.061140 6.226353 0.019753
5.376490 6.226353 0.025376
5.691840 6.226353 0.032719
6.007189 6.226353 0.043832
6.322540 6.226353 0.058983
6.637889 6.226353 0.079491
6.953240 6.226353 0.105772
7.268589 6.226353 0.139946
7.583940 6.226353 0.184958
7.899290 6.226353 0.246497
8.214640 6.226353 0.320744
8.529989 6.226353 0.413281
8.845339 6.226353 0.512128
9.160688 6.226353 0.613404
9.476040 6.226353 0.714319
9.791389 6.226353 0.819439
10.106739 6.226353 0.936333
10.422089 6.226353 1.038453
10.737438 6.226353 1.131855
11.052790 6.226353 1.227158
11.368139 6.226353 1.313865
11.683489 6.226353 1.379981
11.998838 6.226353 1.440670
12.314190 6.226353 1.475729
12.629539 6.226353 1.512765
12.944889 6.226353 1.553791
13.260239 6.226353 1.569883
13.575588 6.226353 1.565865
13.890940 6.226353 1.545831
14.206289 6.226353 1.535984
14.521639 6.226353 1.532187
14.836988 6.226353 1.494519
15.152340 6.226353 1.497206
15.467690 6.226353 0.000000
15.783039 6.226353 0.000000
16.098389 6.226353 0.000000
16.413738 6.226353 0.000000
16.729090 6.226353 0.000000
17.044439 6.226353 0.000000
17.359789 6.226353 0.000000
17.675138 6.226353 0.000000
17.990490 6.226353 0.544198
18.305840 6.226353 0.766870
18.621189 6.226353 1.115300
18.936539 6.226353 0.000000
19.251888 6.226353 0.000000
-7.237510 5.910999 0.000000
-6.922160 5.910999 0.004259
-6.606810 5.910999 0.003035
-6.291460 5.910999 0.002981
-5.976110 5.910999 0.002930
-5.660760 5.910999 0.002943
-5.345410 5.910999 0.002928
-5.030060 5.910999 0.002855
-4.714710 5.910999 0.002871
-4.399360 5.910999 0.002915
-4.084010 5.910999 0.002857
-3.768660 5.910999 0.002791
-3.453310 5.910999 0.002748
-3.137960 5.910999 0.002696
-2.822610 5.910999 0.002685
-2.507260 5.910999 0.002731
-2.191910 5.910999 0.002761
-1.876560 5.910999 0.002773
-1.561210 5.910999 0.002752
-1.245860 5.910999 0.002759
-0.930510 5.910999 0.002844
-0.615160 5.910999 0.002920
-0.299810 5.910999 0.003020
0.015540 5.910999 0.003154
0.330890 5.910999 0.003255
0.646240 5.910999 0.003330
0.961589 5.910999 0.003460
1.276940 5.910999 0.003739
1.592289 5.910999 0.004027
1.907640 5.910999 0.004352
2.222990 5.910999 0.004687
2.538340 5.910999 0.005113
2.853690 5.910999 0.005820
3.169039 5.910999 0.006629
3.484390 5.910999 0.007639
3.799739 5.910999 0.008893
4.115090 5.910999 0.010718
4.430439 5.910999 0.013027
4.745790 5.910999 0.016192
5.061140 5.910999 0.020402
5.376490 5.910999 0.025957
5.691840 5.910999 0.033947
6.007189 5.910999 0.045027
6.322540 5.910999 0.060148
6.637889 5.910999 0.080321
6.953240 5.910999 0.108583
7.268589 5.910999 0.141342
7.583940 5.910999 0.184808
7.899290 5.910999 0.250861
8.214640 5.910999 0.330361
8.529989 5.910999 0.418143
8.845339 5.910999 0.518790
9.160688 5.910999 0.623449
9.476040 5.910999 0.716570
9.791389 5.910999 0.821648
10.106739 5.910999 0.927414
10.422089 5.910999 1.024259
10.737438 5.910999 1.130482
11.052790 5.910999 1.236024
11.368139 5.910999 1.321195
11.683489 5.910999 1.392093
11.998838 5.910999 1.447352
12.314190 5.910999 1.491070
12.629539 5.910999 1.539916
12.944889 5.910999 1.552382
13.260239 5.910999 1.560553
13.575588 5.910999 1.571383
13.890940 5.910999 1.555927
14.206289 5.910999 1.541242
14.521639 5.910999 1.503899
14.836988 5.910999 1.502732
15.152340 5.910999 1.481220
15.467690 5.910999 0.000000
15.783039 5.910999 0.000000
16.098389 5.910999 0.000000
16.413738 5.910999 0.000000
16.729090 5.910999 0.000000
17.044439 5.910999 0.000000
17.359789 5.910999 0.000000
17.675138 5.910999 0.000000
17.990490 5.910999 0.387372
18.305840 5.910999 0.613680
18.621189 5.910999 0.990559
18.936539 5.910999 0.000000
19.251888 5.910999 0.000000
-7.237510 5.595650 0.000000
-6.922160 5.595650 0.004053
-6.606810 5.595650 0.002860
-6.291460 5.595650 0.002872
-5.976110 5.595650 0.002856
-5.660760 5.595650 0.002852
-5.345410 5.595650 0.002824
-5.030060 5.595650 0.002760
-4.714710 5.595650 0.002778
-4.399360 5.595650 0.002854
-4.084010 5.595650 0.002834
-3.768660 5.595650 0.002757
-3.453310 5.595650 0.002728
-3.137960 5.595650 0.002680
-2.822610 5.595650 0.002676
-2.507260 5.595650 0.002709
-2.191910 5.595650 0.002748
-1.876560 5.595650 0.002793
-1.561210 5.595650 0.002791
-1.245860 5.595650 0.002805
-0.930510 5.595650 0.002900
-0.615160 5.595650 0.003010
-0.299810 5.595650 0.003129
0.015540 5.595650 0.003267
0.330890 5.595650 0.003391
0.646240 5.595650 0.003444
0.961589 5.595650 0.003612
1.276940 5.595650 0.003908
1.592289 5.595650 0.004191
1.907640 5.595650 0.004581
2.222990 5.595650 0.005038
2.538340 5.595650 0.005531
2.853690 5.595650 0.006275
3.169039 5.595650 0.007120
3.484390 5.595650 0.008187
3.799739 5.595650 0.009576
4.115090 5.595650 0.011393
4.430439 5.595650 0.013790
4.745790 5.595650 0.017016
5.061140 5.595650 0.021155
5.376490 5.595650 0.026758
5.691840 5.595650 0.035175
6.007189 5.595650 0.046480
6.322540 5.595650 0.061326
6.637889 5.595650 0.081681
6.953240 5.595650 0.109418
7.268589 5.595650 0.145319
7.583940 5.595650 0.188109
7.899290 5.595650 0.251676
8.214640 5.595650 0.330211
8.529989 5.595650 0.414089
8.845339 5.595650 0.516930
9.160688 5.595650 0.622428
9.476040 5.595650 0.726212
9.791389 5.595650 0.834683
10.106739 5.595650 0.930886
10.422089 5.595650 1.037310
10.737438 5.595650 1.149340
11.052790 5.595650 1.250312
11.368139 5.595650 1.327839
11.683489 5.595650 1.388471
11.998838 5.595650 1.461490
12.314190 5.595650 1.520272
12.629539 5.595650 1.546400
12.944889 5.595650 1.561001
13.260239 5.595650 1.559075
13.575588 5.595650 1.523693
13.890940 5.595650 1.542586
14.206289 5.595650 1.533508
14.521639 5.595650 1.517004
14.836988 5.595650 1.504218
15.152340 5.595650 1.440563
15.467690 5.595650 0.000000
15.783039 5.595650 0.000000
16.098389 5.595650 0.000000
16.413738 5.595650 0.000000
16.729090 5.595650 0.000000
17.044439 5.595650 0.000000
17.359789 5.595650 0.000000
17.675138 5.595650 0.000000
17.990490 5.595650 0.260032
18.305840 5.595650 0.448624
18.621189 5.595650 0.832258
18.936539 5.595650 0.000000
19.251888 5.595650 0.000000
-7.237510 5.280300 0.000000
-6.922160 5.280300 0.003833
-6.606810 5.280300 0.002730
-6.291460 5.280300 0.002783
-5.976110 5.280300 0.002766
-5.660760 5.280300 0.002742
-5.345410 5.280300 0.002737
-5.030060 5.280300 0.002688
-4.714710 5.280300 0.002709
-4.399360 5.280300 0.002785
-4.084010 5.280300 0.002809
-3.768660 5.280300 0.002758
-3.453310 5.280300 0.002743
-3.137960 5.280300 0.002709
-2.822610 5.280300 0.002727
-2.507260 5.280300 0.002734
-2.191910 5.280300 0.002774
-1.876560 5.280300 0.002858
-1.561210 5.280300 0.002914
-1.245860 5.280300 0.002959
-0.930510 5.280300 0.003045
-0.615160 5.280300 0.003176
-0.299810 5.280300 0.003313
0.015540 5.280300 0.003453
0.330890 5.280300 0.003550
0.646240 5.280300 0.003652
0.961589 5.280300 0.003880
1.276940 5.280300 0.004177
1.592289 5.280300 0.004498
1.907640 5.280300 0.004923
2.222990 5.280300 0.005429
2.538340 5.280300 0.006028
2.853690 5.280300 0.006810
3.169039 5.280300 0.007702
3.484390 5.280300 0.008910
3.799739 5.280300 0.010287
4.115090 5.280300 0.012182
4.430439 5.280300 0.014786
4.745790 5.280300 0.018108
5.061140 5.280300 0.022062
5.376490 5.280300 0.027891
5.691840 5.280300 0.036338
6.007189 5.280300 0.047867
6.322540 5.280300 0.062139
6.637889 5.280300 0.083183
6.953240 5.280300 0.111674
7.268589 5.280300 0.145291
7.583940 5.280300 0.187637
7.899290 5.280300 0.249866
8.214640 5.280300 0.331930
8.529989 5.280300 0.424695
8.845339 5.280300 0.526987
9.160688 5.280300 0.630107
9.476040 5.280300 0.732581
9.791389 5.280300 0.843177
10.106739 5.280300 0.956041
10.422089 5.280300 1.054053
10.737438 5.280300 1.157475
11.052790 5.280300 1.257980
11.368139 5.280300 1.340489
11.683489 5.280300 1.385268
11.998838 5.280300 1.443197
12.314190 5.280300 1.503789
12.629539 5.280300 1.541332
12.944889 5.280300 1.551846
13.260239 5.280300 1.540343
13.575588 5.280300 1.536831
13.890940 5.280300 1.544916
14.206289 5.280300 1.541672
14.521639 5.280300 1.498955
14.836988 5.280300 1.485131
15.152340 5.280300 1.460320
15.467690 5.280300 0.000000
15.783039 5.280300 0.000000
16.098389 5.280300 0.000000
16.413738 5.280300 0.000000
16.729090 5.280300 0.000000
17.044439 5.280300 0.000000
17.359789 5.280300 0.000000
17.675138 5.280300 0.000000
17.990490 5.280300 0.185817
18.305840 5.280300 0.343218
18.621189 5.280300 0.684647
18.936539 5.280300 0.000000
19.251888 5.280300 0.000000
-7.237510 4.964951 0.000000
-6.922160 4.964951 0.003645
-6.606810 4.964951 0.002654
-6.291460 4.964951 0.002691
-5.976110 4.964951 0.002679
-5.660760 4.964951 0.002656
-5.345410 4.964951 0.002673
-5.030060 4.964951 0.002657
-4.714710 4.964951 0.002682
-4.399360 4.964951 0.002763
-4.084010 4.964951 0.002790
-3.768660 4.964951 0.002789
-3.453310 4.964951 0.002766
-3.137960 4.964951 0.002777
-2.822610 4.964951 0.002841
-2.507260 4.964951 0.002840
-2.191910 4.964951 0.002887
-1.876560 4.964951 0.002966
-1.561210 4.964951 0.003094
-1.245860 4.964951 0.003175
-0.930510 4.964951 0.003247
-0.615160 4.964951 0.003354
-0.299810 4.964951 0.003537
0.015540 4.964951 0.003665
0.330890 4.964951 0.003795
0.646240 4.964951 0.003950
0.961589 4.964951 0.004236
1.276940 4.964951 0.004548
1.592289 4.964951 0.004890
1.907640 4.964951 0.005377
2.222990 4.964951 0.005933
2.538340 4.964951 0.006587
2.853690 4.964951 0.007416
3.169039 4.964951 0.008384
3.484390 4.964951 0.009666
3.799739 4.964951 0.011140
4.115090 4.964951 0.013139
4.430439 4.964951 0.015847
4.745790 4.964951 0.019196
5.061140 4.964951 0.023317
5.376490 4.964951 0.029323
5.691840 4.964951 0.037717
6.007189 4.964951 0.048679
6.322540 4.964951 0.064107
6.637889 4.964951 0.085257
6.953240 4.964951 0.113232
7.268589 4.964951 0.147957
7.583940 4.964951 0.191488
7.899290 4.964951 0.254765
8.214640 4.964951 0.333058
8.529989 4.964951 0.427789
8.845339 4.964951 0.535016
9.160688 4.964951 0.636029
9.476040 4.964951 0.732009
9.791389 4.964951 0.848342
10.106739 4.964951 0.964558
10.422089 4.964951 1.065444
10.737438 4.964951 1.173874
11.052790 4.964951 1.257234
11.368139 4.964951 1.322605
11.683489 4.964951 1.385834
11.998838 4.964951 1.433097
12.314190 4.964951 1.485318
12.629539 4.964951 1.527145
12.944889 4.964951 1.551631
13.260239 4.964951 1.533907
13.575588 4.964951 1.543852
13.890940 4.964951 1.543355
14.206289 4.964951 1.528836
14.521639 4.964951 1.488363
14.836988 4.964951 1.459401
15.152340 4.964951 1.445973
15.467690 4.964951 0.000000
15.783039 4.964951 0.000000
16.098389 4.964951 0.000000
16.413738 4.964951 0.000000
16.729090 4.964951 0.000000
17.044439 4.964951 0.000000
17.359789 4.964951 0.000000
17.675138 4.964951 0.000000
17.990490 4.964951 0.154113
18.305840 4.964951 0.287048
18.621189 4.964951 0.598529
18.936539 4.964951 0.000000
19.251888 4.964951 0.000000
-7.237510 4.649601 0.000000
-6.922160 4.649601 0.003546
-6.606810 4.649601 0.002625
-6.291460 4.649601 0.002638
-5.976110 4.649601 0.002622
-5.660760 4.649601 0.002612
-5.345410 4.649601 0.002636
-5.030060 4.649601 0.002638
-4.714710 4.649601 0.002685
-4.399360 4.649601 0.002785
-4.084010 4.649601 0.002824
-3.768660 4.649601 0.002866
-3.453310 4.649601 0.002858
-3.137960 4.649601 0.002872
-2.822610 4.649601 0.002977
-2.507260 4.649601 0.003011
-2.191910 4.649601 0.003026
-1.876560 4.649601 0.003122
-1.561210 4.649601 0.003284
-1.245860 4.649601 0.003414
-0.930510 4.649601 0.003488
-0.615160 4.649601 0.003617
-0.299810 4.649601 0.003778
0.015540 4.649601 0.003912
0.330890 4.649601 0.004112
0.646240 4.649601 0.004337
0.961589 4.649601 0.004633
1.276940 4.649601 0.004960
1.592289 4.649601 0.005350
1.907640 4.649601 0.005946
2.222990 4.649601 0.006585
2.538340 4.649601 0.007195
2.853690 4.649601 0.008048
3.169039 4.649601 0.009112
3.484390 4.649601 0.010441
3.799739 4.649601 0.012019
4.115090 4.649601 0.014062
4.430439 4.649601 0.016816
4.745790 4.649601 0.020257
5.061140 4.649601 0.024510
5.376490 4.649601 0.030565
5.691840 4.649601 0.038620
6.007189 4.649601 0.049530
6.322540 4.649601 0.065763
6.637889 4.649601 0.088018
6.953240 4.649601 0.117009
7.268589 4.649601 0.152562
7.583940 4.649601 0.200908
7.899290 4.649601 0.264671
8.214640 4.649601 0.347768
8.529989 4.649601 0.445080
8.845339 4.649601 0.545428
9.160688 4.649601 0.648508
9.476040 4.649601 0.748471
9.791389 4.649601 0.853601
10.106739 4.649601 0.960762
10.422089 4.649601 1.058649
10.737438 4.649601 1.153727
11.052790 4.649601 1.255900
11.368139 4.649601 1.325743
11.683489 4.649601 1.371382
11.998838 4.649601 1.412802
12.314190 4.649601 1.464915
12.629539 4.649601 1.510528
12.944889 4.649601 1.543252
13.260239 4.649601 1.531981
13.575588 4.649601 1.539571
13.890940 4.649601 1.534256
14.206289 4.649601 1.482603
14.521639 4.649601 1.460754
14.836988 4.649601 1.418226
15.152340 4.649601 1.399426
15.467690 4.649601 0.000000
15.783039 4.649601 0.000000
16.098389 4.649601 0.000000
16.413738 4.649601 0.000000
16.729090 4.649601 0.000000
17.044439 4.649601 0.000000
17.359789 4.649601 0.000000
17.675138 4.649601 0.000000
17.990490 4.649601 0.161452
18.305840 4.649601 0.275880
18.621189 4.649601 0.548400
18.936539 4.649601 0.000000
19.251888 4.649601 0.000000
-7.237510 4.334251 0.000000
-6.922160 4.334251 0.003507
-6.606810 4.334251 0.002610
-6.291460 4.334251 0.002617
-5.976110 4.334251 0.002612
-5.660760 4.334251 0.002624
-5.345410 4.334251 0.002633
-5.030060 4.334251 0.002630
-4.714710 4.334251 0.002722
-4.399360 4.334251 0.002834
-4.084010 4.334251 0.002889
-3.768660 4.334251 0.002946
-3.453310 4.334251 0.002941
-3.137960 4.334251 0.002963
-2.822610 4.334251 0.003074
-2.507260 4.334251 0.003153
-2.191910 4.334251 0.003179
-1.876560 4.334251 0.003275
-1.561210 4.334251 0.003455
-1.245860 4.334251 0.003612
-0.930510 4.334251 0.003734
-0.615160 4.334251 0.003869
-0.299810 4.334251 0.004039
0.015540 4.334251 0.004194
0.330890 4.334251 0.004443
0.646240 4.334251 0.004743
0.961589 4.334251 0.005078
1.276940 4.334251 0.005416
1.592289 4.334251 0.005885
1.907640 4.334251 0.006569
2.222990 4.334251 0.007244
2.538340 4.334251 0.007889
2.853690 4.334251 0.008741
3.169039 4.334251 0.009886
3.484390 4.334251 0.011227
3.799739 4.334251 0.012891
4.115090 4.334251 0.015023
4.430439 4.334251 0.017719
4.745790 4.334251 0.021078
5.061140 4.334251 0.025483
5.376490 4.334251 0.031573
5.691840 4.334251 0.039534
6.007189 4.334251 0.050964
6.322540 4.334251 0.067332
6.637889 4.334251 0.089495
6.953240 4.334251 0.118059
7.268589 4.334251 0.154519
7.583940 4.334251 0.206860
7.899290 4.334251 0.277943
8.214640 4.334251 0.360352
8.529989 4.334251 0.454130
8.845339 4.334251 0.557682
9.160688 4.334251 0.659379
9.476040 4.334251 0.766374
9.791389 4.334251 0.869412
10.106739 4.334251 0.964599
10.422089 4.334251 1.052786
10.737438 4.334251 1.155723
11.052790 4.334251 1.259128
11.368139 4.334251 1.329669
11.683489 4.334251 1.368615
11.998838 4.334251 1.402042
12.314190 4.334251 1.463352
12.629539 4.334251 1.510671
12.944889 4.334251 1.558827
13.260239 4.334251 1.539736
13.575588 4.334251 1.537089
13.890940 4.334251 1.503491
14.206289 4.334251 1.423615
14.521639 4.334251 1.346380
14.836988 4.334251 1.332357
15.152340 4.334251 1.334950
15.467690 4.334251 0.000000
15.783039 4.334251 0.000000
16.098389 4.334251 0.000000
16.413738 4.334251 0.000000
16.729090 4.334251 0.000000
17.044439 4.334251 0.000000
17.359789 4.334251 0.000000
17.675138 4.334251 0.000000
17.990490 4.334251 0.200394
18.305840 4.334251 0.296199
18.621189 4.334251 0.506119
18.936539 4.334251 0.000000
19.251888 4.334251 0.000000
-7.237510 4.018902 0.000000
-6.922160 4.018902 0.003511
-6.606810 4.018902 0.002672
-6.291460 4.018902 0.002644
-5.976110 4.018902 0.002643
-5.660760 4.018902 0.002677
-5.345410 4.018902 0.002702
-5.030060 4.018902 0.002688
-4.714710 4.018902 0.002813
-4.399360 4.018902 0.002914
-4.084010 4.018902 0.002961
-3.768660 4.018902 0.003028
-3.453310 4.018902 0.003072
-3.137960 4.018902 0.003119
-2.822610 4.018902 0.003217
-2.507260 4.018902 0.003293
-2.191910 4.018902 0.003373
-1.876560 4.018902 0.003458
-1.561210 4.018902 0.003627
-1.245860 4.018902 0.003804
-0.930510 4.018902 0.003990
-0.615160 4.018902 0.004168
-0.299810 4.018902 0.004244
0.015540 4.018902 0.004465
0.330890 4.018902 0.004800
0.646240 4.018902 0.005160
0.961589 4.018902 0.005526
1.276940 4.018902 0.005920
1.592289 4.018902 0.006471
1.907640 4.018902 0.007224
2.222990 4.018902 0.007871
2.538340 4.018902 0.008558
2.853690 4.018902 0.009431
3.169039 4.018902 0.010588
3.484390 4.018902 0.011951
3.799739 4.018902 0.013676
4.115090 4.018902 0.015870
4.430439 4.018902 0.018434
4.745790 4.018902 0.021781
5.061140 4.018902 0.026231
5.376490 4.018902 0.032108
5.691840 4.018902 0.040305
6.007189 4.018902 0.051311
6.322540 4.018902 0.068118
6.637889 4.018902 0.090926
6.953240 4.018902 0.119083
7.268589 4.018902 0.158376
7.583940 4.018902 0.210195
7.899290 4.018902 0.280563
8.214640 4.018902 0.364125
8.529989 4.018902 0.459941
8.845339 4.018902 0.559189
9.160688 4.018902 0.665333
9.476040 4.018902 0.778241
9.791389 4.018902 0.876743
10.106739 4.018902 0.973430
10.422089 4.018902 1.069918
10.737438 4.018902 1.169082
11.052790 4.018902 1.273143
11.368139 4.018902 1.352612
11.683489 4.018902 1.376935
11.998838 4.018902 1.417086
12.314190 4.018902 1.461101
12.629539 4.018902 1.512622
12.944889 4.018902 1.546092
13.260239 4.018902 1.556702
13.575588 4.018902 1.546608
13.890940 4.018902 1.453140
14.206289 4.018902 1.353812
14.521639 4.018902 1.233899
14.836988 4.018902 1.194369
15.152340 4.018902 1.147467
15.467690 4.018902 0.000000
15.783039 4.018902 0.000000
16.098389 4.018902 0.000000
16.413738 4.018902 0.000000
16.729090 4.018902 0.000000
17.044439 4.018902 0.000000
17.359789 4.018902 0.000000
17.675138 4.018902 0.000000
17.990490 4.018902 0.244804
18.305840 4.018902 0.333574
18.621189 4.018902 0.511280
18.936539 4.018902 0.000000
19.251888 4.018902 0.000000
-7.237510 3.703552 0.000000
-6.922160 3.703552 0.003546
-6.606810 3.703552 0.002727
-6.291460 3.703552 0.002702
-5.976110 3.703552 0.002688
-5.660760 3.703552 0.002739
-5.345410 3.703552 0.002784
-5.030060 3.703552 0.002797
-4.714710 3.703552 0.002948
-4.399360 3.703552 0.003020
-4.084010 3.703552 0.003048
-3.768660 3.703552 0.003138
-3.453310 3.703552 0.003254
-3.137960 3.703552 0.003324
-2.822610 3.703552 0.003392
-2.507260 3.703552 0.003481
-2.191910 3.703552 0.003608
-1.876560 3.703552 0.003696
-1.561210 3.703552 0.003815
-1.245860 3.703552 0.004010
-0.930510 3.703552 0.004244
-0.615160 3.703552 0.004368
-0.299810 3.703552 0.004487
0.015540 3.703552 0.004767
0.330890 3.703552 0.005171
0.646240 3.703552 0.005557
0.961589 3.703552 0.005993
1.276940 3.703552 0.006449
1.592289 3.703552 0.007046
1.907640 3.703552 0.007760
2.222990 3.703552 0.008449
2.538340 3.703552 0.009202
2.853690 3.703552 0.010047
3.169039 3.703552 0.011160
3.484390 3.703552 0.012616
3.799739 3.703552 0.014434
4.115090 3.703552 0.016584
4.430439 3.703552 0.018939
4.745790 3.703552 0.022225
5.061140 3.703552 0.026751
5.376490 3.703552 0.032644
5.691840 3.703552 0.040848
6.007189 3.703552 0.052140
6.322540 3.703552 0.068909
6.637889 3.703552 0.091375
6.953240 3.703552 0.120355
7.268589 3.703552 0.161310
7.583940 3.703552 0.213309
7.899290 3.703552 0.280636
8.214640 3.703552 0.366812
8.529989 3.703552 0.461610
8.845339 3.703552 0.562105
9.160688 3.703552 0.672311
9.476040 3.703552 0.781415
9.791389 3.703552 0.887450
10.106739 3.703552 0.980169
10.422089 3.703552 1.085221
10.737438 3.703552 1.184912
11.052790 3.703552 1.286506
11.368139 3.703552 1.357186
11.683489 3.703552 1.403941
11.998838 3.703552 1.451394
12.314190 3.703552 1.477743
12.629539 3.703552 1.503739
12.944889 3.703552 1.526452
13.260239 3.703552 1.540805
13.575588 3.703552 1.525395
13.890940 3.703552 1.443125
14.206289 3.703552 1.290742
14.521639 3.703552 1.116605
14.836988 3.703552 1.082697
15.152340 3.703552 0.912914
15.467690 3.703552 0.000000
15.783039 3.703552 0.000000
16.098389 3.703552 0.000000
16.413738 3.703552 0.000000
16.729090 3.703552 0.000000
17.044439 3.703552 0.000000
17.359789 3.703552 0.000000
17.675138 3.703552 0.000000
17.990490 3.703552 0.288028
18.305840 3.703552 0.377697
18.621189 3.703552 0.523606
18.936539 3.703552 0.000000
19.251888 3.703552 0.000000
-7.237510 3.388203 0.000000
-6.922160 3.388203 0.003542
-6.606810 3.388203 0.002775
-6.291460 3.388203 0.002778
-5.976110 3.388203 0.002760
-5.660760 3.388203 0.002820
-5.345410 3.388203 0.002895
-5.030060 3.388203 0.002941
-4.714710 3.388203 0.003112
-4.399360 3.388203 0.003191
-4.084010 3.388203 0.003189
-3.768660 3.388203 0.003283
-3.453310 3.388203 0.003431
-3.137960 3.388203 0.003561
-2.822610 3.388203 0.003618
-2.507260 3.388203 0.003704
-2.191910 3.388203 0.003899
-1.876560 3.388203 0.004000
-1.561210 3.388203 0.004089
-1.245860 3.388203 0.004277
-0.930510 3.388203 0.004497
-0.615160 3.388203 0.004593
-0.299810 3.388203 0.004799
0.015540 3.388203 0.005126
0.330890 3.388203 0.005550
0.646240 3.388203 0.005996
0.961589 3.388203 0.006490
1.276940 3.388203 0.006995
1.592289 3.388203 0.007578
1.907640 3.388203 0.008229
2.222990 3.388203 0.008957
2.538340 3.388203 0.009766
2.853690 3.388203 0.010577
3.169039 3.388203 0.011719
3.484390 3.388203 0.013225
3.799739 3.388203 0.015064
4.115090 3.388203 0.017045
4.430439 3.388203 0.019363
4.745790 3.388203 0.022621
5.061140 3.388203 0.027025
5.376490 3.388203 0.032927
5.691840 3.388203 0.041162
6.007189 3.388203 0.053556
6.322540 3.388203 0.070150
6.637889 3.388203 0.093144
6.953240 3.388203 0.124086
7.268589 3.388203 0.163011
7.583940 3.388203 0.215784
7.899290 3.388203 0.283839
8.214640 3.388203 0.366411
8.529989 3.388203 0.458784
8.845339 3.388203 0.563017
9.160688 3.388203 0.681139
9.476040 3.388203 0.786577
9.791389 3.388203 0.891973
10.106739 3.388203 0.994043
10.422089 3.388203 1.097671
10.737438 3.388203 1.202954
11.052790 3.388203 1.306035
11.368139 3.388203 1.351031
11.683489 3.388203 1.402592
11.998838 3.388203 1.446344
12.314190 3.388203 1.478861
12.629539 3.388203 1.486285
12.944889 3.388203 1.506354
13.260239 3.388203 1.521446
13.575588 3.388203 1.510499
13.890940 3.388203 1.414749
14.206289 3.388203 1.242682
14.521639 3.388203 1.049390
14.836988 3.388203 0.990900
15.152340 3.388203 0.610388
15.467690 3.388203 0.000000
15.783039 3.388203 0.000000
16.098389 3.388203 0.000000
16.413738 3.388203 0.000000
16.729090 3.388203 0.000000
17.044439 3.388203 0.000000
17.359789 3.388203 0.000000
17.675138 3.388203 0.000000
17.990490 3.388203 0.324724
18.305840 3.388203 0.396022
18.621189 3.388203 0.521250
18.936539 3.388203 0.000000
19.251888 3.388203 0.000000
-7.237510 3.072849 0.000000
-6.922160 3.072849 0.003527
-6.606810 3.072849 0.002801
-6.291460 3.072849 0.002860
-5.976110 3.072849 0.002892
-5.660760 3.072849 0.002978
-5.345410 3.072849 0.003073
-5.030060 3.072849 0.003114
-4.714710 3.072849 0.003261
-4.399360 3.072849 0.003368
-4.084010 3.072849 0.003387
-3.768660 3.072849 0.003485
-3.453310 3.072849 0.003604
-3.137960 3.072849 0.003791
-2.822610 3.072849 0.003904
-2.507260 3.072849 0.003973
-2.191910 3.072849 0.004201
-1.876560 3.072849 0.004309
-1.561210 3.072849 0.004442
-1.245860 3.072849 0.004590
-0.930510 3.072849 0.004728
-0.615160 3.072849 0.004899
-0.299810 3.072849 0.005167
0.015540 3.072849 0.005562
0.330890 3.072849 0.006015
0.646240 3.072849 0.006449
0.961589 3.072849 0.006915
1.276940 3.072849 0.007474
1.592289 3.072849 0.008020
1.907640 3.072849 0.008619
2.222990 3.072849 0.009381
2.538340 3.072849 0.010198
2.853690 3.072849 0.011027
3.169039 3.072849 0.012204
3.484390 3.072849 0.013770
3.799739 3.072849 0.015522
4.115090 3.072849 0.017350
4.430439 3.072849 0.019610
4.745790 3.072849 0.023060
5.061140 3.072849 0.027399
5.376490 3.072849 0.033231
5.691840 3.072849 0.041661
6.007189 3.072849 0.054576
6.322540 3.072849 0.072092
6.637889 3.072849 0.095063
6.953240 3.072849 0.128203
7.268589 3.072849 0.168604
7.583940 3.072849 0.222826
7.899290 3.072849 0.290563
8.214640 3.072849 0.376716
8.529989 3.072849 0.471175
8.845339 3.072849 0.580041
9.160688 3.072849 0.696690
9.476040 3.072849 0.791124
9.791389 3.072849 0.891083
10.106739 3.072849 0.996461
10.422089 3.072849 1.099787
10.737438 3.072849 1.206044
11.052790 3.072849 1.283423
11.368139 3.072849 1.353617
11.683489 3.072849 1.380142
11.998838 3.072849 1.442551
12.314190 3.072849 1.474479
12.629539 3.072849 1.495871
12.944889 3.072849 1.498453
13.260239 3.072849 1.495453
13.575588 3.072849 1.475539
13.890940 3.072849 1.412095
14.206289 3.072849 1.219096
14.521639 3.072849 1.021105
14.836988 3.072849 0.946162
15.152340 3.072849 0.000000
15.467690 3.072849 0.000000
15.783039 3.072849 0.000000
16.098389 3.072849 0.000000
16.413738 3.072849 0.000000
16.729090 3.072849 0.000000
17.044439 3.072849 0.000000
17.359789 3.072849 0.000000
17.675138 3.072849 0.000000
17.990490 3.072849 0.349743
18.305840 3.072849 0.412137
18.621189 3.072849 0.499009
18.936539 3.072849 0.000000
19.251888 3.072849 0.000000
-7.237510 2.757500 0.000000
-6.922160 2.757500 0.003582
-6.606810 2.757500 0.002885
-6.291460 2.757500 0.003007
-5.976110 2.757500 0.003072
-5.660760 2.757500 0.003167
-5.345410 2.757500 0.003283
-5.030060 2.757500 0.003314
-4.714710 2.757500 0.003398
-4.399360 2.757500 0.003567
-4.084010 2.757500 0.003657
-3.768660 2.757500 0.003738
-3.453310 2.757500 0.003836
-3.137960 2.757500 0.004041
-2.822610 2.757500 0.004194
-2.507260 2.757500 0.004305
-2.191910 2.757500 0.004470
-1.876560 2.757500 0.004584
-1.561210 2.757500 0.004804
-1.245860 2.757500 0.004956
-0.930510 2.757500 0.005066
-0.615160 2.757500 0.005285
-0.299810 2.757500 0.005602
0.015540 2.757500 0.006004
0.330890 2.757500 0.006458
0.646240 2.757500 0.006871
0.961589 2.757500 0.007331
1.276940 2.757500 0.007869
1.592289 2.757500 0.008358
1.907640 2.757500 0.008942
2.222990 2.757500 0.009711
2.538340 2.757500 0.010517
2.853690 2.757500 0.011412
3.169039 2.757500 0.012585
3.484390 2.757500 0.014103
3.799739 2.757500 0.015756
4.115090 2.757500 0.017383
4.430439 2.757500 0.019789
4.745790 2.757500 0.023223
5.061140 2.757500 0.027577
5.376490 2.757500 0.033325
5.691840 2.757500 0.042519
6.007189 2.757500 0.055686
6.322540 2.757500 0.073295
6.637889 2.757500 0.098002
6.953240 2.757500 0.132962
7.268589 2.757500 0.175344
7.583940 2.757500 0.233630
7.899290 2.757500 0.301267
8.214640 2.757500 0.388847
8.529989 2.757500 0.493319
8.845339 2.757500 0.606499
9.160688 2.757500 0.713206
9.476040 2.757500 0.810012
9.791389 2.757500 0.904788
10.106739 2.757500 1.006156
10.422089 2.757500 1.096333
10.737438 2.757500 1.194799
11.052790 2.757500 1.272941
11.368139 2.757500 1.340904
11.683489 2.757500 1.400987
11.998838 2.757500 1.434672
12.314190 2.757500 1.468449
12.629539 2.757500 1.477080
12.944889 2.757500 1.492594
13.260239 2.757500 1.506064
13.575588 2.757500 1.478824
13.890940 2.757500 1.405014
14.206289 2.757500 1.206882
14.521639 2.757500 1.033451
14.836988 2.757500 0.971873
15.152340 2.757500 0.000000
15.467690 2.757500 0.000000
15.783039 2.757500 0.000000
16.098389 2.757500 0.000000
16.413738 2.757500 0.000000
16.729090 2.757500 0.000000
17.044439 2.757500 0.000000
17.359789 2.757500 0.000000
17.675138 2.757500 0.000000
17.990490 2.757500 0.362034
18.305840 2.757500 0.418656
18.621189 2.757500 0.455383
18.936539 2.757500 0.000000
19.251888 2.757500 0.000000
-7.237510 2.442150 0.000000
-6.922160 2.442150 0.003717
-6.606810 2.442150 0.003055
-6.291460 2.442150 0.003179
-5.976110 2.442150 0.003262
-5.660760 2.442150 0.003394
-5.345410 2.442150 0.003490
-5.030060 2.442150 0.003490
-4.714710 2.442150 0.003566
-4.399360 2.442150 0.003786
-4.084010 2.442150 0.003936
-3.768660 2.442150 0.004031
-3.453310 2.442150 0.004085
-3.137960 2.442150 0.004265
-2.822610 2.442150 0.004483
-2.507260 2.442150 0.004638
-2.191910 2.442150 0.004777
-1.876560 2.442150 0.004934
-1.561210 2.442150 0.005165
-1.245860 2.442150 0.005333
-0.930510 2.442150 0.005491
-0.615160 2.442150 0.005736
-0.299810 2.442150 0.006060
0.015540 2.442150 0.006467
0.330890 2.442150 0.006801
0.646240 2.442150 0.007185
0.961589 2.442150 0.007618
1.276940 2.442150 0.008155
1.592289 2.442150 0.008562
1.907640 2.442150 0.009146
2.222990 2.442150 0.009911
2.538340 2.442150 0.010734
2.853690 2.442150 0.011648
3.169039 2.442150 0.012775
3.484390 2.442150 0.014189
3.799739 2.442150 0.015677
4.115090 2.442150 0.017306
4.430439 2.442150 0.019746
4.745790 2.442150 0.023298
5.061140 2.442150 0.027703
5.376490 2.442150 0.033870
5.691840 2.442150 0.043652
6.007189 2.442150 0.057126
6.322540 2.442150 0.074948
6.637889 2.442150 0.099850
6.953240 2.442150 0.135328
7.268589 2.442150 0.181132
7.583940 2.442150 0.239727
7.899290 2.442150 0.312299
8.214640 2.442150 0.404013
8.529989 2.442150 0.500422
8.845339 2.442150 0.611532
9.160688 2.442150 0.716065
9.476040 2.442150 0.819319
9.791389 2.442150 0.908235
10.106739 2.442150 1.013741
10.422089 2.442150 1.112479
10.737438 2.442150 1.201326
11.052790 2.442150 1.268137
11.368139 2.442150 1.337269
11.683489 2.442150 1.391930
11.998838 2.442150 1.415806
12.314190 2.442150 1.468453
12.629539 2.442150 1.475427
12.944889 2.442150 1.485786
13.260239 2.442150 1.500288
13.575588 2.442150 1.449180
13.890940 2.442150 1.389861
14.206289 2.442150 1.252118
14.521639 2.442150 1.093327
14.836988 2.442150 0.963405
15.152340 2.442150 0.000000
15.467690 2.442150 0.000000
15.783039 2.442150 0.000000
16.098389 2.442150 0.000000
16.413738 2.442150 0.000000
16.729090 2.442150 0.000000
17.044439 2.442150 0.000000
17.359789 2.442150 0.000000
17.675138 2.442150 0.000000
17.990490 2.442150 0.371243
18.305840 2.442150 0.417044
18.621189 2.442150 0.447478
18.936539 2.442150 0.000000
19.251888 2.442150 0.000000
-7.237510 2.126801 0.000000
-6.922160 2.126801 0.003917
-6.606810 2.126801 0.003211
-6.291460 2.126801 0.003366
-5.976110 2.126801 0.003455
-5.660760 2.126801 0.003608
-5.345410 2.126801 0.003693
-5.030060 2.126801 0.003695
-4.714710 2.126801 0.003797
-4.399360 2.126801 0.004061
-4.084010 2.126801 0.004219
-3.768660 2.126801 0.004333
-3.453310 2.126801 0.004354
-3.137960 2.126801 0.004482
-2.822610 2.126801 0.004711
-2.507260 2.126801 0.004953
-2.191910 2.126801 0.005096
-1.876560 2.126801 0.005282
-1.561210 2.126801 0.005509
-1.245860 2.126801 0.005714
-0.930510 2.126801 0.005898
-0.615160 2.126801 0.006165
-0.299810 2.126801 0.006516
0.015540 2.126801 0.006825
0.330890 2.126801 0.007040
0.646240 2.126801 0.007388
0.961589 2.126801 0.007787
1.276940 2.126801 0.008285
1.592289 2.126801 0.008649
1.907640 2.126801 0.009222
2.222990 2.126801 0.009975
2.538340 2.126801 0.010795
2.853690 2.126801 0.011712
3.169039 2.126801 0.012764
3.484390 2.126801 0.014008
3.799739 2.126801 0.015437
4.115090 2.126801 0.017127
4.430439 2.126801 0.019627
4.745790 2.126801 0.023186
5.061140 2.126801 0.027757
5.376490 2.126801 0.034324
5.691840 2.126801 0.044300
6.007189 2.126801 0.058623
6.322540 2.126801 0.075222
6.637889 2.126801 0.100599
6.953240 2.126801 0.136296
7.268589 2.126801 0.181227
7.583940 2.126801 0.242315
7.899290 2.126801 0.318608
8.214640 2.126801 0.408056
8.529989 2.126801 0.508385
8.845339 2.126801 0.618528
9.160688 2.126801 0.718508
9.476040 2.126801 0.823924
9.791389 2.126801 0.923910
10.106739 2.126801 1.024049
10.422089 2.126801 1.127072
10.737438 2.126801 1.192533
11.052790 2.126801 1.263652
11.368139 2.126801 1.328979
11.683489 2.126801 1.380451
11.998838 2.126801 1.417197
12.314190 2.126801 1.457684
12.629539 2.126801 1.471389
12.944889 2.126801 1.489216
13.260239 2.126801 1.483531
13.575588 2.126801 1.448495
13.890940 2.126801 1.370088
14.206289 2.126801 1.287824
14.521639 2.126801 1.171158
14.836988 2.126801 0.862324
15.152340 2.126801 0.000000
15.467690 2.126801 0.000000
15.783039 2.126801 0.000000
16.098389 2.126801 0.000000
16.413738 2.126801 0.000000
16.729090 2.126801 0.000000
17.044439 2.126801 0.000000
17.359789 2.126801 0.000000
17.675138 2.126801 0.000000
17.990490 2.126801 0.389880
18.305840 2.126801 0.433736
18.621189 2.126801 0.468261
18.936539 2.126801 0.000000
19.251888 2.126801 0.000000
-7.237510 1.811451 0.000000
-6.922160 1.811451 0.004150
-6.606810 1.811451 0.003310
-6.291460 1.811451 0.003471
-5.976110 1.811451 0.003628
-5.660760 1.811451 0.003790
-5.345410 1.811451 0.003909
-5.030060 1.811451 0.003933
-4.714710 1.811451 0.004095
-4.399360 1.811451 0.004325
-4.084010 1.811451 0.004472
-3.768660 1.811451 0.004577
-3.453310 1.811451 0.004635
-3.137960 1.811451 0.004756
-2.822610 1.811451 0.004947
-2.507260 1.811451 0.005187
-2.191910 1.811451 0.005374
-1.876560 1.811451 0.005606
-1.561210 1.811451 0.005814
-1.245860 1.811451 0.006002
-0.930510 1.811451 0.006168
-0.615160 1.811451 0.006448
-0.299810 1.811451 0.006793
0.015540 1.811451 0.007042
0.330890 1.811451 0.007201
0.646240 1.811451 0.007491
0.961589 1.811451 0.007860
1.276940 1.811451 0.008271
1.592289 1.811451 0.008622
1.907640 1.811451 0.009195
2.222990 1.811451 0.009849
2.538340 1.811451 0.010613
2.853690 1.811451 0.011526
3.169039 1.811451 0.012517
3.484390 1.811451 0.013654
3.799739 1.811451 0.015091
4.115090 1.811451 0.016989
4.430439 1.811451 0.019477
4.745790 1.811451 0.022817
5.061140 1.811451 0.027573
5.376490 1.811451 0.034685
5.691840 1.811451 0.044743
6.007189 1.811451 0.057892
6.322540 1.811451 0.077321
6.637889 1.811451 0.102811
6.953240 1.811451 0.137568
7.268589 1.811451 0.183651
7.583940 1.811451 0.241230
7.899290 1.811451 0.318053
8.214640 1.811451 0.412163
8.529989 1.811451 0.510238
8.845339 1.811451 0.615734
9.160688 1.811451 0.724767
9.476040 1.811451 0.829411
9.791389 1.811451 0.928632
10.106739 1.811451 1.034122
10.422089 1.811451 1.144045
10.737438 1.811451 1.209069
11.052790 1.811451 1.267890
11.368139 1.811451 1.334931
11.683489 1.811451 1.378205
11.998838 1.811451 1.412527
12.314190 1.811451 1.432894
12.629539 1.811451 1.469943
12.944889 1.811451 1.462074
13.260239 1.811451 1.468550
13.575588 1.811451 1.425957
13.890940 1.811451 1.394569
14.206289 1.811451 1.311880
14.521639 1.811451 1.231873
14.836988 1.811451 0.000000
15.152340 1.811451 0.000000
15.467690 1.811451 0.000000
15.783039 1.811451 0.000000
16.098389 1.811451 0.000000
16.413738 1.811451 0.000000
16.729090 1.811451 0.000000
17.044439 1.811451 0.000000
17.359789 1.811451 0.000000
17.675138 1.811451 0.000000
17.990490 1.811451 0.396164
18.305840 1.811451 0.485996
18.621189 1.811451 0.506890
18.936539 1.811451 0.000000
19.251888 1.811451 0.000000
-7.237510 1.496101 0.000000
-6.922160 1.496101 0.004370
-6.606810 1.496101 0.003424
-6.291460 1.496101 0.003572
-5.976110 1.496101 0.003784
-5.660760 1.496101 0.004010
-5.345410 1.496101 0.004125
-5.030060 1.496101 0.004233
-4.714710 1.496101 0.004421
-4.399360 1.496101 0.004597
-4.084010 1.496101 0.004735
-3.768660 1.496101 0.004811
-3.453310 1.496101 0.004893
-3.137960 1.496101 0.005046
-2.822610 1.496101 0.005160
-2.507260 1.496101 0.005367
-2.191910 1.496101 0.005645
-1.876560 1.496101 0.005867
-1.561210 1.496101 0.006024
-1.245860 1.496101 0.006171
-0.930510 1.496101 0.006328
-0.615160 1.496101 0.006580
-0.299810 1.496101 0.006917
0.015540 1.496101 0.007107
0.330890 1.496101 0.007295
0.646240 1.496101 0.007506
0.961589 1.496101 0.007822
1.276940 1.496101 0.008228
1.592289 1.496101 0.008571
1.907640 1.496101 0.009081
2.222990 1.496101 0.009548
2.538340 1.496101 0.010227
2.853690 1.496101 0.011101
3.169039 1.496101 0.012100
3.484390 1.496101 0.013205
3.799739 1.496101 0.014634
4.115090 1.496101 0.016602
4.430439 1.496101 0.019073
4.745790 1.496101 0.022476
5.061140 1.496101 0.027347
5.376490 1.496101 0.034579
5.691840 1.496101 0.044712
6.007189 1.496101 0.058983
6.322540 1.496101 0.077614
6.637889 1.496101 0.104538
6.953240 1.496101 0.139333
7.268589 1.496101 0.182981
7.583940 1.496101 0.241089
7.899290 1.496101 0.320098
8.214640 1.496101 0.412862
8.529989 1.496101 0.515108
8.845339 1.496101 0.616789
9.160688 1.496101 0.720788
9.476040 1.496101 0.834015
9.791389 1.496101 0.929727
10.106739 1.496101 1.037450
10.422089 1.496101 1.146671
10.737438 1.496101 1.224658
11.052790 1.496101 1.269970
11.368139 1.496101 1.339220
11.683489 1.496101 1.396723
11.998838 1.496101 1.415632
12.314190 1.496101 1.442217
12.629539 1.496101 1.461764
12.944889 1.496101 1.448207
13.260239 1.496101 1.448076
13.575588 1.496101 1.407133
13.890940 1.496101 1.375908
14.206289 1.496101 1.300470
14.521639 1.496101 1.227010
14.836988 1.496101 0.000000
15.152340 1.496101 0.000000
15.467690 1.496101 0.000000
15.783039 1.496101 0.000000
16.098389 1.496101 0.000000
16.413738 1.496101 0.000000
16.729090 1.496101 0.000000
17.044439 1.496101 0.000000
17.359789 1.496101 0.000000
17.675138 1.496101 0.000000
17.990490 1.496101 0.429013
18.305840 1.496101 0.573993
18.621189 1.496101 0.548151
18.936539 1.496101 0.000000
19.251888 1.496101 0.000000
-7.237510 1.180752 0.000000
-6.922160 1.180752 0.004612
-6.606810 1.180752 0.003792
-6.291460 1.180752 0.003928
-5.976110 1.180752 0.004146
-5.660760 1.180752 0.004368
-5.345410 1.180752 0.004534
-5.030060 1.180752 0.004737
-4.714710 1.180752 0.004947
-4.399360 1.180752 0.005069
-4.084010 1.180752 0.005191
-3.768660 1.180752 0.005266
-3.453310 1.180752 0.005372
-3.137960 1.180752 0.005514
-2.822610 1.180752 0.005594
-2.507260 1.180752 0.005760
-2.191910 1.180752 0.006039
-1.876560 1.180752 0.006255
-1.561210 1.180752 0.006360
-1.245860 1.180752 0.006495
-0.930510 1.180752 0.006612
-0.615160 1.180752 0.006828
-0.299810 1.180752 0.007080
0.015540 1.180752 0.007266
0.330890 1.180752 0.007490
0.646240 1.180752 0.007635
0.961589 1.180752 0.007914
1.276940 1.180752 0.008329
1.592289 1.180752 0.008671
1.907640 1.180752 0.009043
2.222990 1.180752 0.009386
2.538340 1.180752 0.009955
2.853690 1.180752 0.010755
3.169039 1.180752 0.011763
3.484390 1.180752 0.012928
3.799739 1.180752 0.014350
4.115090 1.180752 0.016288
4.430439 1.180752 0.018772
4.745790 1.180752 0.022180
5.061140 1.180752 0.027255
5.376490 1.180752 0.034486
5.691840 1.180752 0.044857
6.007189 1.180752 0.059116
6.322540 1.180752 0.080382
6.637889 1.180752 0.109182
6.953240 1.180752 0.144639
7.268589 1.180752 0.191984
7.583940 1.180752 0.251685
7.899290 1.180752 0.336015
8.214640 1.180752 0.430985
8.529989 1.180752 0.528320
8.845339 1.180752 0.639157
9.160688 1.180752 0.746538
9.476040 1.180752 0.854621
9.791389 1.180752 0.958126
10.106739 1.180752 1.066379
10.422089 1.180752 1.154348
10.737438 1.180752 1.240475
11.052790 1.180752 1.289832
11.368139 1.180752 1.362474
11.683489 1.180752 1.402183
11.998838 1.180752 1.413543
12.314190 1.180752 1.453217
12.629539 1.180752 1.481087
12.944889 1.180752 1.468689
13.260239 1.180752 1.448235
13.575588 1.180752 1.407056
13.890940 1.180752 1.374670
14.206289 1.180752 1.277549
14.521639 1.180752 1.184963
14.836988 1.180752 0.000000
15.152340 1.180752 0.000000
15.467690 1.180752 0.000000
15.783039 1.180752 0.000000
16.098389 1.180752 0.000000
16.413738 1.180752 0.000000
16.729090 1.180752 0.000000
17.044439 1.180752 0.000000
17.359789 1.180752 0.000000
17.675138 1.180752 0.000000
17.990490 1.180752 0.519774
18.305840 1.180752 0.707003
18.621189 1.180752 0.580458
18.936539 1.180752 0.000000
19.251888 1.180752 0.000000
-7.237510 0.865402 0.000000
-6.922160 0.865402 0.003833
-6.606810 0.865402 0.004575
-6.291460 0.865402 0.004862
-5.976110 0.865402 0.005049
-5.660760 0.865402 0.005284
-5.345410 0.865402 0.005524
-5.030060 0.865402 0.005792
-4.714710 0.865402 0.006060
-4.399360 0.865402 0.006161
-4.084010 0.865402 0.006264
-3.768660 0.865402 0.006356
-3.453310 0.865402 0.006506
-3.137960 0.865402 0.006637
-2.822610 0.865402 0.006617
-2.507260 0.865402 0.006757
-2.191910 0.865402 0.007108
-1.876560 0.865402 0.007280
-1.561210 0.865402 0.007352
-1.245860 0.865402 0.007454
-0.930510 0.865402 0.007522
-0.615160 0.865402 0.007657
-0.299810 0.865402 0.007852
0.015540 0.865402 0.008073
0.330890 0.865402 0.008259
0.646240 0.865402 0.008308
0.961589 0.865402 0.008588
1.276940 0.865402 0.008996
1.592289 0.865402 0.009301
1.907640 0.865402 0.009554
2.222990 0.865402 0.009751
2.538340 0.865402 0.010325
2.853690 0.865402 0.010975
3.169039 0.865402 0.011985
3.484390 0.865402 0.013142
3.799739 0.865402 0.014546
4.115090 0.865402 0.016386
4.430439 0.865402 0.018995
4.745790 0.865402 0.022534
5.061140 0.865402 0.027918
5.376490 0.865402 0.035511
5.691840 0.865402 0.046207
6.007189 0.865402 0.061808
6.322540 0.865402 0.083882
6.637889 0.865402 0.114355
6.953240 0.865402 0.154603
7.268589 0.865402 0.207527
7.583940 0.865402 0.277594
7.899290 0.865402 0.364273
8.214640 0.865402 0.457321
8.529989 0.865402 0.558974
8.845339 0.865402 0.670756
9.160688 0.865402 0.796031
9.476040 0.865402 0.909477
9.791389 0.865402 1.011230
10.106739 0.865402 1.116397
10.422089 0.865402 1.215877
10.737438 0.865402 1.298678
11.052790 0.865402 1.366717
11.368139 0.865402 1.420886
11.683489 0.865402 1.457976
11.998838 0.865402 1.478818
12.314190 0.865402 1.507300
12.629539 0.865402 1.527245
12.944889 0.865402 1.493790
13.260239 0.865402 1.478608
13.575588 0.865402 1.429857
13.890940 0.865402 1.362052
14.206289 0.865402 1.259864
14.521639 0.865402 1.028962
14.836988 0.865402 0.000000
15.152340 0.865402 0.000000
15.467690 0.865402 0.000000
15.783039 0.865402 0.000000
16.098389 0.865402 0.000000
16.413738 0.865402 0.000000
16.729090 0.865402 0.000000
17.044439 0.865402 0.000000
17.359789 0.865402 0.000000
17.675138 0.865402 0.000000
17.990490 0.865402 0.642690
18.305840 0.865402 0.886659
18.621189 0.865402 0.634251
18.936539 0.865402 0.000000
19.251888 0.865402 0.000000
-7.237510 0.550053 0.000000
-6.922160 0.550053 0.004564
-6.606810 0.550053 0.004698
-6.291460 0.550053 0.006126
-5.976110 0.550053 0.006493
-5.660760 0.550053 0.007185
-5.345410 0.550053 0.007589
-5.030060 0.550053 0.007822
-4.714710 0.550053 0.008085
-4.399360 0.550053 0.008258
-4.084010 0.550053 0.008322
-3.768660 0.550053 0.008423
-3.453310 0.550053 0.008686
-3.137960 0.550053 0.008790
-2.822610 0.550053 0.008752
-2.507260 0.550053 0.008795
-2.191910 0.550053 0.009243
-1.876560 0.550053 0.009397
-1.561210 0.550053 0.009416
-1.245860 0.550053 0.009453
-0.930510 0.550053 0.009463
-0.615160 0.550053 0.009492
-0.299810 0.550053 0.009631
0.015540 0.550053 0.009882
0.330890 0.550053 0.009931
0.646240 0.550053 0.009956
0.961589 0.550053 0.010263
1.276940 0.550053 0.010655
1.592289 0.550053 0.010886
1.907640 0.550053 0.010936
2.222990 0.550053 0.011192
2.538340 0.550053 0.011735
2.853690 0.550053 0.012201
3.169039 0.550053 0.013170
3.484390 0.550053 0.014331
3.799739 0.550053 0.015717
4.115090 0.550053 0.017550
4.430439 0.550053 0.020321
4.745790 0.550053 0.024294
5.061140 0.550053 0.029980
5.376490 0.550053 0.038025
5.691840 0.550053 0.049660
6.007189 0.550053 0.066526
6.322540 0.550053 0.091128
6.637889 0.550053 0.124742
6.953240 0.550053 0.169528
7.268589 0.550053 0.228900
7.583940 0.550053 0.312799
7.899290 0.550053 0.406440
8.214640 0.550053 0.508466
8.529989 0.550053 0.616049
8.845339 0.550053 0.736498
9.160688 0.550053 0.880702
9.476040 0.550053 0.997857
9.791389 0.550053 1.103666
10.106739 0.550053 1.222410
10.422089 0.550053 1.316938
10.737438 0.550053 1.418835
11.052790 0.550053 1.497471
11.368139 0.550053 1.545018
11.683489 0.550053 1.576526
11.998838 0.550053 1.622948
12.314190 0.550053 1.629571
12.629539 0.550053 1.606728
12.944889 0.550053 1.582112
13.260239 0.550053 1.551340
13.575588 0.550053 1.480715
13.890940 0.550053 1.420370
14.206289 0.550053 1.315208
14.521639 0.550053 0.806708
14.836988 0.550053 0.000000
15.152340 0.550053 0.000000
15.467690 0.550053 0.000000
15.783039 0.550053 0.000000
16.098389 0.550053 0.000000
16.413738 0.550053 0.000000
16.729090 0.550053 0.000000
17.044439 0.550053 0.000000
17.359789 0.550053 0.000000
17.675138 0.550053 0.000000
17.990490 0.550053 0.859944
18.305840 0.550053 1.118129
18.621189 0.550053 0.686629
18.936539 0.550053 0.000000
19.251888 0.550053 0.000000
-7.237510 0.234699 0.000000
-6.922160 0.234699 0.000000
-6.606810 0.234699 0.000000
-6.291460 0.234699 0.000000
-5.976110 0.234699 0.000000
-5.660760 0.234699 0.000000
-5.345410 0.234699 0.000000
-5.030060 0.234699 0.000000
-4.714710 0.234699 0.000000
-4.399360 0.234699 0.000000
-4.084010 0.234699 0.000000
-3.768660 0.234699 0.000000
-3.453310 0.234699 0.000000
-3.137960 0.234699 0.000000
-2.822610 0.234699 0.000000
-2.507260 0.234699 0.000000
-2.191910 0.234699 0.000000
-1.876560 0.234699 0.000000
-1.561210 0.234699 0.000000
-1.245860 0.234699 0.000000
-0.930510 0.234699 0.000000
-0.615160 0.234699 0.000000
-0.299810 0.234699 0.000000
0.015540 0.234699 0.000000
0.330890 0.234699 0.000000
0.646240 0.234699 0.000000
0.961589 0.234699 0.000000
1.276940 0.234699 0.000000
1.592289 0.234699 0.000000
1.907640 0.234699 0.000000
2.222990 0.234699 0.000000
2.538340 0.234699 0.000000
2.853690 0.234699 0.000000
3.169039 0.234699 0.000000
3.484390 0.234699 0.000000
3.799739 0.234699 0.000000
4.115090 0.234699 0.000000
4.430439 0.234699 0.000000
4.745790 0.234699 0.000000
5.061140 0.234699 0.000000
5.376490 0.234699 0.000000
5.691840 0.234699 0.000000
6.007189 0.234699 0.000000
6.322540 0.234699 4.604502
6.637889 0.234699 0.995838
6.953240 0.234699 1.001587
7.268589 0.234699 1.037449
7.583940 0.234699 0.972816
7.899290 0.234699 0.919336
8.214640 0.234699 0.906832
8.529989 0.234699 0.886486
8.845339 0.234699 0.929802
9.160688 0.234699 1.009266
9.476040 0.234699 1.111682
9.791389 0.234699 1.211530
10.106739 0.234699 1.325042
10.422089 0.234699 1.464409
10.737438 0.234699 1.571611
11.052790 0.234699 1.657375
11.368139 0.234699 1.732858
11.683489 0.234699 1.801918
11.998838 0.234699 1.806037
12.314190 0.234699 1.831406
12.629539 0.234699 1.782709
12.944889 0.234699 1.771557
13.260239 0.234699 1.721678
13.575588 0.234699 1.650724
13.890940 0.234699 1.520792
14.206289 0.234699 1.388574
14.521639 0.234699 0.000000
14.836988 0.234699 0.000000
15.152340 0.234699 0.000000
15.467690 0.234699 0.000000
15.783039 0.234699 0.000000
16.098389 0.234699 0.000000
16.413738 0.234699 0.000000
16.729090 0.234699 0.000000
17.044439 0.234699 0.000000
17.359789 0.234699 0.000000
17.675138 0.234699 0.000000
17.990490 0.234699 1.076849
18.305840 0.234699 1.297929
18.621189 0.234699 0.723561
18.936539 0.234699 0.000000
19.251888 0.234699 0.000000
-7.237510 -0.080650 0.000000
-6.922160 -0.080650 0.000000
-6.606810 -0.080650 0.000000
-6.291460 -0.080650 0.000000
-5.976110 -0.080650 0.000000
-5.660760 -0.080650 0.000000
-5.345410 -0.080650 0.000000
-5.030060 -0.080650 0.000000
-4.714710 -0.080650 0.000000
-4.399360 -0.080650 0.000000
-4.084010 -0.080650 0.000000
-3.768660 -0.080650 0.000000
-3.453310 -0.080650 0.000000
-3.137960 -0.080650 0.000000
-2.822610 -0.080650 0.000000
-2.507260 -0.080650 0.000000
-2.191910 -0.080650 0.000000
-1.876560 -0.080650 0.000000
-1.561210 -0.080650 0.000000
-1.245860 -0.080650 0.000000
-0.930510 -0.080650 0.000000
-0.615160 -0.080650 0.000000
-0.299810 -0.080650 0.000000
0.015540 -0.080650 0.000000
0.330890 -0.080650 0.000000
0.646240 -0.080650 0.000000
0.961589 -0.080650 0.000000
1.276940 -0.080650 0.000000
1.592289 -0.080650 0.000000
1.907640 -0.080650 0.000000
2.222990 -0.080650 0.000000
2.538340 -0.080650 0.000000
2.853690 -0.080650 0.000000
3.169039 -0.080650 0.000000
3.484390 -0.080650 0.000000
3.799739 -0.080650 0.000000
4.115090 -0.080650 0.000000
4.430439 -0.080650 0.000000
4.745790 -0.080650 0.000000
5.061140 -0.080650 0.000000
5.376490 -0.080650 0.000000
5.691840 -0.080650 0.000000
6.007189 -0.080650 0.000000
6.322540 -0.080650 0.000000
6.637889 -0.080650 0.000000
6.953240 -0.080650 0.000000
7.268589 -0.080650 0.000000
7.583940 -0.080650 0.000000
7.899290 -0.080650 0.000000
8.214640 -0.080650 0.000000
8.529989 -0.080650 4.691966
8.845339 -0.080650 0.381856
9.160688 -0.080650 2.505966
9.476040 -0.080650 2.323602
9.791389 -0.080650 2.626819
10.106739 -0.080650 1.842403
10.422089 -0.080650 2.010940
10.737438 -0.080650 2.177953
11.052790 -0.080650 1.882746
11.368139 -0.080650 1.790908
11.683489 -0.080650 1.761211
11.998838 -0.080650 1.673751
12.314190 -0.080650 1.748690
12.629539 -0.080650 1.756145
12.944889 -0.080650 1.747947
13.260239 -0.080650 1.784811
13.575588 -0.080650 1.674085
13.890940 -0.080650 1.561756
14.206289 -0.080650 1.341484
14.521639 -0.080650 0.000000
14.836988 -0.080650 0.000000
15.152340 -0.080650 0.000000
15.467690 -0.080650 0.000000
15.783039 -0.080650 0.000000
16.098389 -0.080650 0.000000
16.413738 -0.080650 0.000000
16.729090 -0.080650 0.000000
17.044439 -0.080650 0.000000
17.359789 -0.080650 0.000000
17.675138 -0.080650 0.000000
17.990490 -0.080650 1.183797
18.305840 -0.080650 1.294251
18.621189 -0.080650 0.627285
18.936539 -0.080650 0.000000
19.251888 -0.080650 0.000000
-7.237510 -0.396000 0.000000
-6.922160 -0.396000 0.000000
-6.606810 -0.396000 0.000000
-6.291460 -0.396000 0.000000
-5.976110 -0.396000 0.000000
-5.660760 -0.396000 0.000000
-5.345410 -0.396000 0.000000
-5.030060 -0.396000 0.000000
-4.714710 -0.396000 0.000000
-4.399360 -0.396000 0.000000
-4.084010 -0.396000 0.000000
-3.768660 -0.396000 0.000000
-3.453310 -0.396000 0.000000
-3.137960 -0.396000 0.000000
-2.822610 -0.396000 0.000000
-2.507260 -0.396000 0.000000
-2.191910 -0.396000 0.000000
-1.876560 -0.396000 0.000000
-1.561210 -0.396000 0.000000
-1.245860 -0.396000 0.000000
-0.930510 -0.396000 0.000000
-0.615160 -0.396000 0.000000
-0.299810 -0.396000 0.000000
0.015540 -0.396000 0.000000
0.330890 -0.396000 0.000000
0.646240 -0.396000 0.000000
0.961589 -0.396000 0.000000
1.276940 -0.396000 0.000000
1.592289 -0.396000 0.000000
1.907640 -0.396000 0.000000
2.222990 -0.396000 0.000000
2.538340 -0.396000 0.000000
2.853690 -0.396000 0.000000
3.169039 -0.396000 0.000000
3.484390 -0.396000 0.000000
3.799739 -0.396000 0.000000
4.115090 -0.396000 0.000000
4.430439 -0.396000 0.000000
4.745790 -0.396000 0.000000
5.061140 -0.396000 0.000000
5.376490 -0.396000 0.000000
5.691840 -0.396000 0.000000
6.007189 -0.396000 0.000000
6.322540 -0.396000 0.000000
6.637889 -0.396000 0.000000
6.953240 -0.396000 0.000000
7.268589 -0.396000 0.000000
7.583940 -0.396000 0.000000
7.899290 -0.396000 0.000000
8.214640 -0.396000 0.000000
8.529989 -0.396000 0.000000
8.845339 -0.396000 0.000000
9.160688 -0.396000 0.000000
9.476040 -0.396000 0.000000
9.791389 -0.396000 0.000000
10.106739 -0.396000 0.000000
10.422089 -0.396000 0.000000
10.737438 -0.396000 0.000000
11.052790 -0.396000 3.043213
11.368139 -0.396000 3.482965
11.683489 -0.396000 6.292499
11.998838 -0.396000 7.038493
12.314190 -0.396000 5.795698
12.629539 -0.396000 4.619077
12.944889 -0.396000 3.059066
13.260239 -0.396000 2.418117
13.575588 -0.396000 2.435180
13.890940 -0.396000 1.522444
14.206289 -0.396000 1.113677
14.521639 -0.396000 0.000000
14.836988 -0.396000 0.000000
15.152340 -0.396000 0.000000
15.467690 -0.396000 0.000000
15.783039 -0.396000 0.000000
16.098389 -0.396000 0.000000
16.413738 -0.396000 0.000000
16.729090 -0.396000 0.000000
17.044439 -0.396000 0.000000
17.359789 -0.396000 0.000000
17.675138 -0.396000 0.000000
17.990490 -0.396000 1.103639
18.305840 -0.396000 1.104996
18.621189 -0.396000 0.697525
18.936539 -0.396000 0.000000
19.251888 -0.396000 0.000000
-7.237510 -0.711349 0.000000
-6.922160 -0.711349 0.000000
-6.606810 -0.711349 0.000000
-6.291460 -0.711349 0.000000
-5.976110 -0.711349 0.000000
-5.660760 -0.711349 0.000000
-5.345410 -0.711349 0.000000
-5.030060 -0.711349 0.000000
-4.714710 -0.711349 0.000000
-4.399360 -0.711349 0.000000
-4.084010 -0.711349 0.000000
-3.768660 -0.711349 0.000000
-3.453310 -0.711349 0.000000
-3.137960 -0.711349 0.000000
-2.822610 -0.711349 0.000000
-2.507260 -0.711349 0.000000
-2.191910 -0.711349 0.000000
-1.876560 -0.711349 0.000000
-1.561210 -0.711349 0.000000
-1.245860 -0.711349 0.000000
-0.930510 -0.711349 0.000000
-0.615160 -0.711349 0.000000
-0.299810 -0.711349 0.000000
0.015540 -0.711349 0.000000
0.330890 -0.711349 0.000000
0.646240 -0.711349 0.000000
0.961589 -0.711349 0.000000
1.276940 -0.711349 0.000000
1.592289 -0.711349 0.000000
1.907640 -0.711349 0.000000
2.222990 -0.711349 0.000000
2.538340 -0.711349 0.000000
2.853690 -0.711349 0.000000
3.169039 -0.711349 0.000000
3.484390 -0.711349 0.000000
3.799739 -0.711349 0.000000
4.115090 -0.711349 0.000000
4.430439 -0.711349 0.000000
4.745790 -0.711349 0.000000
5.061140 -0.711349 0.000000
5.376490 -0.711349 0.000000
5.691840 -0.711349 0.000000
6.007189 -0.711349 0.000000
6.322540 -0.711349 0.000000
6.637889 -0.711349 0.000000
6.953240 -0.711349 0.000000
7.268589 -0.711349 0.000000
7.583940 -0.711349 0.000000
7.899290 -0.711349 0.000000
8.214640 -0.711349 0.000000
8.529989 -0.711349 0.000000
8.845339 -0.711349 0.000000
9.160688 -0.711349 0.000000
9.476040 -0.711349 0.000000
9.791389 -0.711349 0.000000
10.106739 -0.711349 0.000000
10.422089 -0.711349 0.000000
10.737438 -0.711349 0.000000
11.052790 -0.711349 0.000000
11.368139 -0.711349 0.000000
11.683489 -0.711349 0.000000
11.998838 -0.711349 0.000000
12.314190 -0.711349 0.000000
12.629539 -0.711349 0.000000
12.944889 -0.711349 0.000000
13.260239 -0.711349 0.000000
13.575588 -0.711349 0.000000
13.890940 -0.711349 0.000000
14.206289 -0.711349 0.000000
14.521639 -0.711349 0.000000
14.836988 -0.711349 0.000000
15.152340 -0.711349 0.000000
15.467690 -0.711349 0.000000
15.783039 -0.711349 0.000000
16.098389 -0.711349 0.000000
16.413738 -0.711349 0.000000
16.729090 -0.711349 0.000000
17.044439 -0.711349 0.000000
17.359789 -0.711349 0.000000
17.675138 -0.711349 0.000000
17.990490 -0.711349 0.000000
18.305840 -0.711349 0.000000
18.621189 -0.711349 0.000000
18.936539 -0.711349 0.000000
19.251888 -0.711349 0.000000
