TITLE = "B00011"
VARIABLES = "x", "y", "Reynold stress YZ"
ZONE T="Frame 1" I=85, J=164, F=POINT
-7.237510 50.690701 0.000000
-6.922160 50.690701 0.000000
-6.606810 50.690701 0.000000
-6.291460 50.690701 0.000000
-5.976110 50.690701 0.000000
-5.660760 50.690701 0.000000
-5.345410 50.690701 0.000000
-5.030060 50.690701 0.000000
-4.714710 50.690701 0.000000
-4.399360 50.690701 0.000000
-4.084010 50.690701 0.000000
-3.768660 50.690701 0.000000
-3.453310 50.690701 0.000000
-3.137960 50.690701 0.000000
-2.822610 50.690701 0.000000
-2.507260 50.690701 0.000000
-2.191910 50.690701 0.000000
-1.876560 50.690701 0.000000
-1.561210 50.690701 0.000000
-1.245860 50.690701 0.000000
-0.930510 50.690701 0.000000
-0.615160 50.690701 0.000000
-0.299810 50.690701 0.000000
0.015540 50.690701 0.000000
0.330890 50.690701 0.000000
0.646240 50.690701 0.000000
0.961589 50.690701 0.000000
1.276940 50.690701 0.000000
1.592289 50.690701 0.000000
1.907640 50.690701 0.000000
2.222990 50.690701 0.000000
2.538340 50.690701 0.000000
2.853690 50.690701 0.000000
3.169039 50.690701 0.000000
3.484390 50.690701 0.000000
3.799739 50.690701 0.000000
4.115090 50.690701 0.000000
4.430439 50.690701 0.000000
4.745790 50.690701 0.000000
5.061140 50.690701 0.000000
5.376490 50.690701 0.000000
5.691840 50.690701 0.000000
6.007189 50.690701 0.000000
6.322540 50.690701 0.000000
6.637889 50.690701 0.000000
6.953240 50.690701 0.000000
7.268589 50.690701 0.000000
7.583940 50.690701 0.000000
7.899290 50.690701 0.000000
8.214640 50.690701 0.000000
8.529989 50.690701 0.000000
8.845339 50.690701 0.000000
9.160688 50.690701 0.000000
9.476040 50.690701 0.000000
9.791389 50.690701 0.000000
10.106739 50.690701 0.000000
10.422089 50.690701 0.000000
10.737438 50.690701 0.000000
11.052790 50.690701 0.000000
11.368139 50.690701 0.000000
11.683489 50.690701 0.000000
11.998838 50.690701 0.000000
12.314190 50.690701 0.000000
12.629539 50.690701 0.000000
12.944889 50.690701 0.000000
13.260239 50.690701 0.000000
13.575588 50.690701 0.000000
13.890940 50.690701 0.000000
14.206289 50.690701 0.000000
14.521639 50.690701 0.000000
14.836988 50.690701 0.000000
15.152340 50.690701 0.000000
15.467690 50.690701 0.000000
15.783039 50.690701 0.000000
16.098389 50.690701 0.000000
16.413738 50.690701 0.000000
16.729090 50.690701 0.000000
17.044439 50.690701 0.000000
17.359789 50.690701 0.000000
17.675138 50.690701 0.000000
17.990490 50.690701 0.000000
18.305840 50.690701 0.000000
18.621189 50.690701 0.000000
18.936539 50.690701 0.000000
19.251888 50.690701 0.000000
-7.237510 50.375351 0.000000
-6.922160 50.375351 0.000000
-6.606810 50.375351 0.000000
-6.291460 50.375351 0.000000
-5.976110 50.375351 0.000000
-5.660760 50.375351 0.000000
-5.345410 50.375351 0.000000
-5.030060 50.375351 0.000000
-4.714710 50.375351 0.000000
-4.399360 50.375351 0.000000
-4.084010 50.375351 0.000000
-3.768660 50.375351 0.000000
-3.453310 50.375351 0.000000
-3.137960 50.375351 0.000000
-2.822610 50.375351 0.000000
-2.507260 50.375351 0.000000
-2.191910 50.375351 0.000000
-1.876560 50.375351 0.000000
-1.561210 50.375351 0.000000
-1.245860 50.375351 0.000000
-0.930510 50.375351 0.000000
-0.615160 50.375351 0.000000
-0.299810 50.375351 0.000000
0.015540 50.375351 0.000000
0.330890 50.375351 0.000000
0.646240 50.375351 0.000000
0.961589 50.375351 0.000000
1.276940 50.375351 0.000000
1.592289 50.375351 0.000000
1.907640 50.375351 0.000000
2.222990 50.375351 0.000000
2.538340 50.375351 0.000000
2.853690 50.375351 0.000000
3.169039 50.375351 0.000000
3.484390 50.375351 0.000000
3.799739 50.375351 0.000000
4.115090 50.375351 0.000000
4.430439 50.375351 0.000000
4.745790 50.375351 0.000000
5.061140 50.375351 0.000000
5.376490 50.375351 0.000000
5.691840 50.375351 0.000000
6.007189 50.375351 0.000000
6.322540 50.375351 0.000000
6.637889 50.375351 0.000000
6.953240 50.375351 0.000000
7.268589 50.375351 0.000000
7.583940 50.375351 0.000000
7.899290 50.375351 0.000000
8.214640 50.375351 0.000000
8.529989 50.375351 0.000000
8.845339 50.375351 0.000000
9.160688 50.375351 0.000000
9.476040 50.375351 0.000000
9.791389 50.375351 0.000000
10.106739 50.375351 0.000000
10.422089 50.375351 0.000000
10.737438 50.375351 0.000000
11.052790 50.375351 0.000000
11.368139 50.375351 0.000000
11.683489 50.375351 0.000000
11.998838 50.375351 0.000000
12.314190 50.375351 0.000000
12.629539 50.375351 0.000000
12.944889 50.375351 0.000000
13.260239 50.375351 0.000000
13.575588 50.375351 0.642438
13.890940 50.375351 0.000000
14.206289 50.375351 0.000000
14.521639 50.375351 0.000000
14.836988 50.375351 0.000000
15.152340 50.375351 2.722563
15.467690 50.375351 4.587158
15.783039 50.375351 4.741227
16.098389 50.375351 5.709002
16.413738 50.375351 2.496400
16.729090 50.375351 -2.707714
17.044439 50.375351 -0.396907
17.359789 50.375351 -0.798252
17.675138 50.375351 0.220214
17.990490 50.375351 0.477535
18.305840 50.375351 -0.282631
18.621189 50.375351 -4.402884
18.936539 50.375351 1.739699
19.251888 50.375351 0.000000
-7.237510 50.060001 0.000000
-6.922160 50.060001 0.000000
-6.606810 50.060001 0.000000
-6.291460 50.060001 0.000000
-5.976110 50.060001 0.000000
-5.660760 50.060001 0.000000
-5.345410 50.060001 0.000000
-5.030060 50.060001 0.000000
-4.714710 50.060001 0.000000
-4.399360 50.060001 0.000000
-4.084010 50.060001 0.000000
-3.768660 50.060001 0.000000
-3.453310 50.060001 0.000000
-3.137960 50.060001 0.000000
-2.822610 50.060001 0.000000
-2.507260 50.060001 0.000000
-2.191910 50.060001 0.000000
-1.876560 50.060001 0.000000
-1.561210 50.060001 0.000000
-1.245860 50.060001 0.000000
-0.930510 50.060001 0.000000
-0.615160 50.060001 0.000000
-0.299810 50.060001 0.000000
0.015540 50.060001 0.000000
0.330890 50.060001 0.000000
0.646240 50.060001 0.000000
0.961589 50.060001 0.000000
1.276940 50.060001 0.000000
1.592289 50.060001 0.000000
1.907640 50.060001 0.000000
2.222990 50.060001 0.000000
2.538340 50.060001 0.000000
2.853690 50.060001 0.000000
3.169039 50.060001 0.000000
3.484390 50.060001 0.000000
3.799739 50.060001 0.000000
4.115090 50.060001 0.000000
4.430439 50.060001 0.000000
4.745790 50.060001 0.000000
5.061140 50.060001 0.000000
5.376490 50.060001 0.000000
5.691840 50.060001 0.000000
6.007189 50.060001 0.000000
6.322540 50.060001 0.000000
6.637889 50.060001 0.000000
6.953240 50.060001 0.000000
7.268589 50.060001 0.000000
7.583940 50.060001 0.000000
7.899290 50.060001 0.000000
8.214640 50.060001 0.000000
8.529989 50.060001 -0.257621
8.845339 50.060001 -0.024229
9.160688 50.060001 -11.109342
9.476040 50.060001 -3.800025
9.791389 50.060001 -2.192767
10.106739 50.060001 1.312710
10.422089 50.060001 5.347589
10.737438 50.060001 8.185982
11.052790 50.060001 7.846454
11.368139 50.060001 6.224645
11.683489 50.060001 3.298550
11.998838 50.060001 6.843271
12.314190 50.060001 5.166238
12.629539 50.060001 1.688695
12.944889 50.060001 1.679510
13.260239 50.060001 0.542292
13.575588 50.060001 1.849592
13.890940 50.060001 1.512538
14.206289 50.060001 3.707791
14.521639 50.060001 3.965797
14.836988 50.060001 5.203764
15.152340 50.060001 3.738146
15.467690 50.060001 3.301667
15.783039 50.060001 2.278071
16.098389 50.060001 2.282841
16.413738 50.060001 1.491388
16.729090 50.060001 0.968041
17.044439 50.060001 1.307041
17.359789 50.060001 2.388002
17.675138 50.060001 3.617370
17.990490 50.060001 5.226903
18.305840 50.060001 5.923204
18.621189 50.060001 7.690509
18.936539 50.060001 8.964724
19.251888 50.060001 0.000000
-7.237510 49.744652 0.000000
-6.922160 49.744652 0.000000
-6.606810 49.744652 0.000366
-6.291460 49.744652 0.000519
-5.976110 49.744652 0.001989
-5.660760 49.744652 0.000868
-5.345410 49.744652 -0.000153
-5.030060 49.744652 -0.000119
-4.714710 49.744652 0.000593
-4.399360 49.744652 0.000754
-4.084010 49.744652 0.000390
-3.768660 49.744652 0.001133
-3.453310 49.744652 0.001421
-3.137960 49.744652 0.001763
-2.822610 49.744652 0.001423
-2.507260 49.744652 0.000653
-2.191910 49.744652 0.000353
-1.876560 49.744652 0.000224
-1.561210 49.744652 -0.000562
-1.245860 49.744652 -0.000867
-0.930510 49.744652 -0.001600
-0.615160 49.744652 -0.002998
-0.299810 49.744652 -0.003718
0.015540 49.744652 -0.002902
0.330890 49.744652 -0.003106
0.646240 49.744652 -0.002708
0.961589 49.744652 -0.001328
1.276940 49.744652 -0.002318
1.592289 49.744652 -0.001718
1.907640 49.744652 -0.005511
2.222990 49.744652 -0.002398
2.538340 49.744652 -0.001943
2.853690 49.744652 0.303287
3.169039 49.744652 0.062682
3.484390 49.744652 0.073305
3.799739 49.744652 -3.542064
4.115090 49.744652 -1.749490
4.430439 49.744652 -0.812206
4.745790 49.744652 10.696220
5.061140 49.744652 0.000000
5.376490 49.744652 0.000000
5.691840 49.744652 0.000000
6.007189 49.744652 2.471539
6.322540 49.744652 -0.021487
6.637889 49.744652 0.256359
6.953240 49.744652 -1.424734
7.268589 49.744652 1.762179
7.583940 49.744652 0.442079
7.899290 49.744652 0.742312
8.214640 49.744652 1.165754
8.529989 49.744652 -0.003115
8.845339 49.744652 -0.207619
9.160688 49.744652 -0.009805
9.476040 49.744652 -0.182370
9.791389 49.744652 -0.004225
10.106739 49.744652 -0.220425
10.422089 49.744652 -0.086013
10.737438 49.744652 -0.156726
11.052790 49.744652 -0.161560
11.368139 49.744652 -0.044095
11.683489 49.744652 -0.029850
11.998838 49.744652 -0.071236
12.314190 49.744652 0.016092
12.629539 49.744652 0.094911
12.944889 49.744652 0.102212
13.260239 49.744652 0.186612
13.575588 49.744652 0.254450
13.890940 49.744652 0.410951
14.206289 49.744652 0.396353
14.521639 49.744652 0.526937
14.836988 49.744652 0.640984
15.152340 49.744652 0.761196
15.467690 49.744652 0.918123
15.783039 49.744652 1.144636
16.098389 49.744652 1.511239
16.413738 49.744652 2.073051
16.729090 49.744652 2.233325
17.044439 49.744652 2.304052
17.359789 49.744652 3.202098
17.675138 49.744652 3.814795
17.990490 49.744652 4.565613
18.305840 49.744652 6.011602
18.621189 49.744652 8.061625
18.936539 49.744652 9.695376
19.251888 49.744652 0.000000
-7.237510 49.429302 0.000000
-6.922160 49.429302 0.000000
-6.606810 49.429302 0.001404
-6.291460 49.429302 0.000383
-5.976110 49.429302 0.000603
-5.660760 49.429302 -0.000009
-5.345410 49.429302 -0.000665
-5.030060 49.429302 -0.001022
-4.714710 49.429302 -0.000650
-4.399360 49.429302 -0.000034
-4.084010 49.429302 0.000157
-3.768660 49.429302 0.000939
-3.453310 49.429302 0.001413
-3.137960 49.429302 0.002676
-2.822610 49.429302 0.003548
-2.507260 49.429302 0.003907
-2.191910 49.429302 0.004359
-1.876560 49.429302 0.005116
-1.561210 49.429302 0.005495
-1.245860 49.429302 0.006520
-0.930510 49.429302 0.007201
-0.615160 49.429302 0.006409
-0.299810 49.429302 0.005811
0.015540 49.429302 0.005523
0.330890 49.429302 0.005499
0.646240 49.429302 0.005696
0.961589 49.429302 0.005230
1.276940 49.429302 0.004410
1.592289 49.429302 0.004208
1.907640 49.429302 0.004710
2.222990 49.429302 0.004978
2.538340 49.429302 0.004301
2.853690 49.429302 0.003181
3.169039 49.429302 0.002539
3.484390 49.429302 0.003318
3.799739 49.429302 0.003882
4.115090 49.429302 0.003664
4.430439 49.429302 0.003766
4.745790 49.429302 0.003910
5.061140 49.429302 0.004573
5.376490 49.429302 0.005090
5.691840 49.429302 0.005775
6.007189 49.429302 0.005873
6.322540 49.429302 0.006071
6.637889 49.429302 0.005556
6.953240 49.429302 0.005305
7.268589 49.429302 0.005697
7.583940 49.429302 0.005758
7.899290 49.429302 0.004389
8.214640 49.429302 0.006457
8.529989 49.429302 0.008994
8.845339 49.429302 0.011461
9.160688 49.429302 0.028007
9.476040 49.429302 0.057060
9.791389 49.429302 0.085446
10.106739 49.429302 0.108799
10.422089 49.429302 0.154610
10.737438 49.429302 0.201837
11.052790 49.429302 0.228912
11.368139 49.429302 0.312677
11.683489 49.429302 0.353288
11.998838 49.429302 0.355850
12.314190 49.429302 0.485264
12.629539 49.429302 0.522889
12.944889 49.429302 0.607399
13.260239 49.429302 0.656614
13.575588 49.429302 0.672253
13.890940 49.429302 0.768053
14.206289 49.429302 0.871099
14.521639 49.429302 0.908422
14.836988 49.429302 1.112139
15.152340 49.429302 1.193767
15.467690 49.429302 1.415043
15.783039 49.429302 1.745325
16.098389 49.429302 2.371195
16.413738 49.429302 3.047903
16.729090 49.429302 3.479330
17.044439 49.429302 3.975540
17.359789 49.429302 4.636933
17.675138 49.429302 5.318507
17.990490 49.429302 6.595930
18.305840 49.429302 8.516694
18.621189 49.429302 11.398971
18.936539 49.429302 13.331092
19.251888 49.429302 0.000000
-7.237510 49.113949 0.000000
-6.922160 49.113949 0.000000
-6.606810 49.113949 0.006562
-6.291460 49.113949 -0.000034
-5.976110 49.113949 -0.000554
-5.660760 49.113949 -0.000800
-5.345410 49.113949 -0.001547
-5.030060 49.113949 -0.002305
-4.714710 49.113949 -0.002380
-4.399360 49.113949 -0.001845
-4.084010 49.113949 -0.001526
-3.768660 49.113949 -0.001082
-3.453310 49.113949 -0.000852
-3.137960 49.113949 -0.000116
-2.822610 49.113949 0.000832
-2.507260 49.113949 0.001241
-2.191910 49.113949 0.001821
-1.876560 49.113949 0.002511
-1.561210 49.113949 0.003010
-1.245860 49.113949 0.003836
-0.930510 49.113949 0.004248
-0.615160 49.113949 0.003870
-0.299810 49.113949 0.003722
0.015540 49.113949 0.003735
0.330890 49.113949 0.003839
0.646240 49.113949 0.004460
0.961589 49.113949 0.004247
1.276940 49.113949 0.003621
1.592289 49.113949 0.003327
1.907640 49.113949 0.003675
2.222990 49.113949 0.003847
2.538340 49.113949 0.002781
2.853690 49.113949 0.002093
3.169039 49.113949 0.001357
3.484390 49.113949 0.001384
3.799739 49.113949 0.001603
4.115090 49.113949 0.001234
4.430439 49.113949 0.000747
4.745790 49.113949 0.000580
5.061140 49.113949 0.000771
5.376490 49.113949 0.001098
5.691840 49.113949 0.000856
6.007189 49.113949 0.000800
6.322540 49.113949 0.001141
6.637889 49.113949 0.000966
6.953240 49.113949 0.000684
7.268589 49.113949 0.000532
7.583940 49.113949 0.001274
7.899290 49.113949 -0.000180
8.214640 49.113949 0.002939
8.529989 49.113949 0.005960
8.845339 49.113949 0.001896
9.160688 49.113949 0.017655
9.476040 49.113949 0.038970
9.791389 49.113949 0.047653
10.106739 49.113949 0.053621
10.422089 49.113949 0.084727
10.737438 49.113949 0.110487
11.052790 49.113949 0.146640
11.368139 49.113949 0.196546
11.683489 49.113949 0.236613
11.998838 49.113949 0.247784
12.314190 49.113949 0.323317
12.629539 49.113949 0.362443
12.944889 49.113949 0.430422
13.260239 49.113949 0.433227
13.575588 49.113949 0.499996
13.890940 49.113949 0.636746
14.206289 49.113949 0.709706
14.521639 49.113949 0.803778
14.836988 49.113949 0.892776
15.152340 49.113949 0.891657
15.467690 49.113949 1.183972
15.783039 49.113949 1.557094
16.098389 49.113949 2.088145
16.413738 49.113949 2.948988
16.729090 49.113949 3.617107
17.044439 49.113949 3.998029
17.359789 49.113949 4.616802
17.675138 49.113949 5.687877
17.990490 49.113949 7.370442
18.305840 49.113949 10.018332
18.621189 49.113949 14.128633
18.936539 49.113949 17.842749
19.251888 49.113949 0.000000
-7.237510 48.798599 0.000000
-6.922160 48.798599 0.000000
-6.606810 48.798599 0.005539
-6.291460 48.798599 -0.000287
-5.976110 48.798599 -0.000338
-5.660760 48.798599 -0.000543
-5.345410 48.798599 -0.001192
-5.030060 48.798599 -0.002035
-4.714710 48.798599 -0.002209
-4.399360 48.798599 -0.001756
-4.084010 48.798599 -0.001256
-3.768660 48.798599 -0.001461
-3.453310 48.798599 -0.001595
-3.137960 48.798599 -0.001410
-2.822610 48.798599 -0.000709
-2.507260 48.798599 -0.000388
-2.191910 48.798599 -0.000051
-1.876560 48.798599 0.000774
-1.561210 48.798599 0.001556
-1.245860 48.798599 0.001793
-0.930510 48.798599 0.001885
-0.615160 48.798599 0.002014
-0.299810 48.798599 0.002488
0.015540 48.798599 0.002638
0.330890 48.798599 0.003004
0.646240 48.798599 0.003758
0.961589 48.798599 0.004065
1.276940 48.798599 0.003624
1.592289 48.798599 0.003346
1.907640 48.798599 0.003984
2.222990 48.798599 0.004150
2.538340 48.798599 0.003342
2.853690 48.798599 0.003005
3.169039 48.798599 0.002435
3.484390 48.798599 0.001957
3.799739 48.798599 0.001578
4.115090 48.798599 0.000708
4.430439 48.798599 -0.000207
4.745790 48.798599 -0.000723
5.061140 48.798599 -0.000860
5.376490 48.798599 -0.001300
5.691840 48.798599 -0.002085
6.007189 48.798599 -0.002479
6.322540 48.798599 -0.002444
6.637889 48.798599 -0.002347
6.953240 48.798599 -0.002856
7.268589 48.798599 -0.003236
7.583940 48.798599 -0.003370
7.899290 48.798599 -0.004066
8.214640 48.798599 -0.002392
8.529989 48.798599 -0.000062
8.845339 48.798599 0.001158
9.160688 48.798599 0.009922
9.476040 48.798599 0.019596
9.791389 48.798599 0.008154
10.106739 48.798599 0.003326
10.422089 48.798599 0.027737
10.737438 48.798599 0.034404
11.052790 48.798599 0.063789
11.368139 48.798599 0.116942
11.683489 48.798599 0.125935
11.998838 48.798599 0.116783
12.314190 48.798599 0.222630
12.629539 48.798599 0.259633
12.944889 48.798599 0.294554
13.260239 48.798599 0.318334
13.575588 48.798599 0.406427
13.890940 48.798599 0.458630
14.206289 48.798599 0.542159
14.521639 48.798599 0.646173
14.836988 48.798599 0.746148
15.152340 48.798599 0.750923
15.467690 48.798599 0.891559
15.783039 48.798599 1.295952
16.098389 48.798599 2.010262
16.413738 48.798599 2.982767
16.729090 48.798599 3.807566
17.044439 48.798599 4.403898
17.359789 48.798599 4.891397
17.675138 48.798599 5.942535
17.990490 48.798599 7.991199
18.305840 48.798599 11.309436
18.621189 48.798599 16.410679
18.936539 48.798599 21.141661
19.251888 48.798599 0.000000
-7.237510 48.483250 0.000000
-6.922160 48.483250 0.000000
-6.606810 48.483250 0.004865
-6.291460 48.483250 -0.000210
-5.976110 48.483250 0.000392
-5.660760 48.483250 0.000139
-5.345410 48.483250 -0.000314
-5.030060 48.483250 -0.000542
-4.714710 48.483250 -0.000660
-4.399360 48.483250 -0.000133
-4.084010 48.483250 0.000336
-3.768660 48.483250 -0.000261
-3.453310 48.483250 -0.001002
-3.137960 48.483250 -0.001258
-2.822610 48.483250 -0.000983
-2.507260 48.483250 -0.000930
-2.191910 48.483250 -0.000844
-1.876560 48.483250 -0.000075
-1.561210 48.483250 0.000473
-1.245860 48.483250 0.000249
-0.930510 48.483250 0.000037
-0.615160 48.483250 0.000479
-0.299810 48.483250 0.001130
0.015540 48.483250 0.001476
0.330890 48.483250 0.002144
0.646240 48.483250 0.003121
0.961589 48.483250 0.003737
1.276940 48.483250 0.003631
1.592289 48.483250 0.003679
1.907640 48.483250 0.004475
2.222990 48.483250 0.004638
2.538340 48.483250 0.004455
2.853690 48.483250 0.004626
3.169039 48.483250 0.004425
3.484390 48.483250 0.003959
3.799739 48.483250 0.003175
4.115090 48.483250 0.001926
4.430439 48.483250 0.000883
4.745790 48.483250 0.000106
5.061140 48.483250 -0.000402
5.376490 48.483250 -0.001387
5.691840 48.483250 -0.002859
6.007189 48.483250 -0.003675
6.322540 48.483250 -0.004187
6.637889 48.483250 -0.004242
6.953240 48.483250 -0.005057
7.268589 48.483250 -0.006224
7.583940 48.483250 -0.006033
7.899290 48.483250 -0.008010
8.214640 48.483250 -0.005269
8.529989 48.483250 -0.004359
8.845339 48.483250 0.000028
9.160688 48.483250 0.006565
9.476040 48.483250 0.001738
9.791389 48.483250 -0.000855
10.106739 48.483250 -0.014202
10.422089 48.483250 -0.016450
10.737438 48.483250 -0.009643
11.052790 48.483250 0.022975
11.368139 48.483250 0.048543
11.683489 48.483250 0.052747
11.998838 48.483250 0.092408
12.314190 48.483250 0.119767
12.629539 48.483250 0.168932
12.944889 48.483250 0.244771
13.260239 48.483250 0.187823
13.575588 48.483250 0.369121
13.890940 48.483250 0.380489
14.206289 48.483250 0.401906
14.521639 48.483250 0.524028
14.836988 48.483250 0.593675
15.152340 48.483250 0.707286
15.467690 48.483250 0.883392
15.783039 48.483250 1.249333
16.098389 48.483250 1.841837
16.413738 48.483250 2.880427
16.729090 48.483250 3.951481
17.044439 48.483250 4.446035
17.359789 48.483250 5.400538
17.675138 48.483250 6.425035
17.990490 48.483250 8.739445
18.305840 48.483250 12.796300
18.621189 48.483250 18.233368
18.936539 48.483250 22.760492
19.251888 48.483250 0.000000
-7.237510 48.167900 0.000000
-6.922160 48.167900 0.000000
-6.606810 48.167900 0.004998
-6.291460 48.167900 -0.000069
-5.976110 48.167900 0.000500
-5.660760 48.167900 0.000334
-5.345410 48.167900 0.000439
-5.030060 48.167900 0.000798
-4.714710 48.167900 0.000952
-4.399360 48.167900 0.001651
-4.084010 48.167900 0.001861
-3.768660 48.167900 0.001271
-3.453310 48.167900 0.000366
-3.137960 48.167900 0.000089
-2.822610 48.167900 0.000032
-2.507260 48.167900 -0.000341
-2.191910 48.167900 -0.000569
-1.876560 48.167900 -0.000061
-1.561210 48.167900 0.000078
-1.245860 48.167900 -0.000588
-0.930510 48.167900 -0.001193
-0.615160 48.167900 -0.000723
-0.299810 48.167900 -0.000173
0.015540 48.167900 0.000112
0.330890 48.167900 0.000658
0.646240 48.167900 0.001688
0.961589 48.167900 0.002446
1.276940 48.167900 0.002691
1.592289 48.167900 0.002970
1.907640 48.167900 0.003868
2.222990 48.167900 0.004378
2.538340 48.167900 0.004867
2.853690 48.167900 0.005438
3.169039 48.167900 0.005735
3.484390 48.167900 0.005589
3.799739 48.167900 0.004830
4.115090 48.167900 0.003461
4.430439 48.167900 0.002620
4.745790 48.167900 0.002024
5.061140 48.167900 0.001389
5.376490 48.167900 0.000152
5.691840 48.167900 -0.001611
6.007189 48.167900 -0.002831
6.322540 48.167900 -0.003703
6.637889 48.167900 -0.004113
6.953240 48.167900 -0.005394
7.268589 48.167900 -0.006826
7.583940 48.167900 -0.007519
7.899290 48.167900 -0.008830
8.214640 48.167900 -0.005943
8.529989 48.167900 -0.007016
8.845339 48.167900 -0.005774
9.160688 48.167900 -0.001767
9.476040 48.167900 -0.008743
9.791389 48.167900 -0.011613
10.106739 48.167900 -0.010341
10.422089 48.167900 -0.025286
10.737438 48.167900 -0.017061
11.052790 48.167900 -0.010902
11.368139 48.167900 0.041297
11.683489 48.167900 0.069518
11.998838 48.167900 0.104028
12.314190 48.167900 0.122677
12.629539 48.167900 0.156200
12.944889 48.167900 0.224183
13.260239 48.167900 0.235842
13.575588 48.167900 0.227613
13.890940 48.167900 0.355151
14.206289 48.167900 0.393171
14.521639 48.167900 0.440426
14.836988 48.167900 0.550733
15.152340 48.167900 0.654056
15.467690 48.167900 0.777523
15.783039 48.167900 1.223478
16.098389 48.167900 1.805245
16.413738 48.167900 2.927566
16.729090 48.167900 4.017603
17.044439 48.167900 4.681418
17.359789 48.167900 5.922688
17.675138 48.167900 7.515264
17.990490 48.167900 10.032235
18.305840 48.167900 15.051228
18.621189 48.167900 20.535809
18.936539 48.167900 25.362347
19.251888 48.167900 0.000000
-7.237510 47.852551 0.000000
-6.922160 47.852551 0.000000
-6.606810 47.852551 0.004216
-6.291460 47.852551 -0.000930
-5.976110 47.852551 -0.000621
-5.660760 47.852551 -0.000537
-5.345410 47.852551 0.000171
-5.030060 47.852551 0.001183
-4.714710 47.852551 0.001737
-4.399360 47.852551 0.002398
-4.084010 47.852551 0.002611
-3.768660 47.852551 0.002360
-3.453310 47.852551 0.001974
-3.137960 47.852551 0.001907
-2.822610 47.852551 0.001615
-2.507260 47.852551 0.001092
-2.191910 47.852551 0.000790
-1.876560 47.852551 0.001155
-1.561210 47.852551 0.000839
-1.245860 47.852551 -0.000378
-0.930510 47.852551 -0.001007
-0.615160 47.852551 -0.000683
-0.299810 47.852551 -0.000705
0.015540 47.852551 -0.000891
0.330890 47.852551 -0.000727
0.646240 47.852551 0.000032
0.961589 47.852551 0.000652
1.276940 47.852551 0.000848
1.592289 47.852551 0.001385
1.907640 47.852551 0.002044
2.222990 47.852551 0.002706
2.538340 47.852551 0.003640
2.853690 47.852551 0.004618
3.169039 47.852551 0.005145
3.484390 47.852551 0.005548
3.799739 47.852551 0.005067
4.115090 47.852551 0.004145
4.430439 47.852551 0.003769
4.745790 47.852551 0.003625
5.061140 47.852551 0.003278
5.376490 47.852551 0.002297
5.691840 47.852551 0.000842
6.007189 47.852551 -0.000449
6.322540 47.852551 -0.001514
6.637889 47.852551 -0.002133
6.953240 47.852551 -0.003754
7.268589 47.852551 -0.005632
7.583940 47.852551 -0.006704
7.899290 47.852551 -0.008683
8.214640 47.852551 -0.008518
8.529989 47.852551 -0.006836
8.845339 47.852551 -0.011084
9.160688 47.852551 -0.002839
9.476040 47.852551 -0.011488
9.791389 47.852551 -0.014190
10.106739 47.852551 -0.007679
10.422089 47.852551 -0.029432
10.737438 47.852551 -0.036299
11.052790 47.852551 -0.028041
11.368139 47.852551 0.023718
11.683489 47.852551 0.064001
11.998838 47.852551 0.106409
12.314190 47.852551 0.115049
12.629539 47.852551 0.217497
12.944889 47.852551 0.242374
13.260239 47.852551 0.268620
13.575588 47.852551 0.259222
13.890940 47.852551 0.347431
14.206289 47.852551 0.372635
14.521639 47.852551 0.436050
14.836988 47.852551 0.511090
15.152340 47.852551 0.636135
15.467690 47.852551 0.961849
15.783039 47.852551 1.294574
16.098389 47.852551 1.994276
16.413738 47.852551 2.957006
16.729090 47.852551 4.214791
17.044439 47.852551 4.907472
17.359789 47.852551 6.304176
17.675138 47.852551 8.562011
17.990490 47.852551 11.769622
18.305840 47.852551 16.425419
18.621189 47.852551 21.251078
18.936539 47.852551 27.131964
19.251888 47.852551 0.000000
-7.237510 47.537201 0.000000
-6.922160 47.537201 0.000000
-6.606810 47.537201 0.003444
-6.291460 47.537201 -0.001867
-5.976110 47.537201 -0.002362
-5.660760 47.537201 -0.002161
-5.345410 47.537201 -0.001102
-5.030060 47.537201 0.000014
-4.714710 47.537201 0.000934
-4.399360 47.537201 0.001605
-4.084010 47.537201 0.001889
-3.768660 47.537201 0.002421
-3.453310 47.537201 0.002831
-3.137960 47.537201 0.003224
-2.822610 47.537201 0.003014
-2.507260 47.537201 0.002815
-2.191910 47.537201 0.002710
-1.876560 47.537201 0.002982
-1.561210 47.537201 0.002491
-1.245860 47.537201 0.001333
-0.930510 47.537201 0.000707
-0.615160 47.537201 0.000744
-0.299810 47.537201 0.000294
0.015540 47.537201 -0.000323
0.330890 47.537201 -0.000869
0.646240 47.537201 -0.000530
0.961589 47.537201 -0.000503
1.276940 47.537201 -0.000628
1.592289 47.537201 -0.000431
1.907640 47.537201 -0.000146
2.222990 47.537201 0.000447
2.538340 47.537201 0.001348
2.853690 47.537201 0.002282
3.169039 47.537201 0.003092
3.484390 47.537201 0.003915
3.799739 47.537201 0.003798
4.115090 47.537201 0.003468
4.430439 47.537201 0.003695
4.745790 47.537201 0.004081
5.061140 47.537201 0.004139
5.376490 47.537201 0.003752
5.691840 47.537201 0.003205
6.007189 47.537201 0.002142
6.322540 47.537201 0.001197
6.637889 47.537201 0.000398
6.953240 47.537201 -0.000908
7.268589 47.537201 -0.002957
7.583940 47.537201 -0.004769
7.899290 47.537201 -0.007185
8.214640 47.537201 -0.007559
8.529989 47.537201 -0.007446
8.845339 47.537201 -0.011560
9.160688 47.537201 -0.011431
9.476040 47.537201 -0.003304
9.791389 47.537201 -0.010731
10.106739 47.537201 -0.006805
10.422089 47.537201 -0.018393
10.737438 47.537201 -0.035709
11.052790 47.537201 -0.017806
11.368139 47.537201 0.034272
11.683489 47.537201 0.061526
11.998838 47.537201 0.114253
12.314190 47.537201 0.166383
12.629539 47.537201 0.230199
12.944889 47.537201 0.263556
13.260239 47.537201 0.365129
13.575588 47.537201 0.289085
13.890940 47.537201 0.325438
14.206289 47.537201 0.360021
14.521639 47.537201 0.497704
14.836988 47.537201 0.534894
15.152340 47.537201 0.625483
15.467690 47.537201 1.006639
15.783039 47.537201 1.473014
16.098389 47.537201 2.163998
16.413738 47.537201 2.945980
16.729090 47.537201 4.247336
17.044439 47.537201 5.532940
17.359789 47.537201 7.378866
17.675138 47.537201 9.082837
17.990490 47.537201 12.739405
18.305840 47.537201 17.661865
18.621189 47.537201 23.528046
18.936539 47.537201 28.297726
19.251888 47.537201 0.000000
-7.237510 47.221851 0.000000
-6.922160 47.221851 0.000000
-6.606810 47.221851 0.003272
-6.291460 47.221851 -0.002798
-5.976110 47.221851 -0.003727
-5.660760 47.221851 -0.003498
-5.345410 47.221851 -0.002609
-5.030060 47.221851 -0.001617
-4.714710 47.221851 -0.000960
-4.399360 47.221851 -0.000353
-4.084010 47.221851 0.000086
-3.768660 47.221851 0.001172
-3.453310 47.221851 0.002317
-3.137960 47.221851 0.003246
-2.822610 47.221851 0.003348
-2.507260 47.221851 0.003587
-2.191910 47.221851 0.004026
-1.876560 47.221851 0.004350
-1.561210 47.221851 0.004157
-1.245860 47.221851 0.003560
-0.930510 47.221851 0.003241
-0.615160 47.221851 0.003137
-0.299810 47.221851 0.002841
0.015540 47.221851 0.002089
0.330890 47.221851 0.001116
0.646240 47.221851 0.000801
0.961589 47.221851 0.000292
1.276940 47.221851 -0.000418
1.592289 47.221851 -0.000744
1.907640 47.221851 -0.001007
2.222990 47.221851 -0.001108
2.538340 47.221851 -0.000961
2.853690 47.221851 -0.000372
3.169039 47.221851 0.000443
3.484390 47.221851 0.001158
3.799739 47.221851 0.001254
4.115090 47.221851 0.001270
4.430439 47.221851 0.001961
4.745790 47.221851 0.002698
5.061140 47.221851 0.003163
5.376490 47.221851 0.003588
5.691840 47.221851 0.003961
6.007189 47.221851 0.003653
6.322540 47.221851 0.002988
6.637889 47.221851 0.002474
6.953240 47.221851 0.001162
7.268589 47.221851 -0.000318
7.583940 47.221851 -0.002045
7.899290 47.221851 -0.003864
8.214640 47.221851 -0.006310
8.529989 47.221851 -0.005317
8.845339 47.221851 -0.013414
9.160688 47.221851 -0.012258
9.476040 47.221851 -0.010634
9.791389 47.221851 -0.013708
10.106739 47.221851 0.005655
10.422089 47.221851 -0.007391
10.737438 47.221851 -0.039939
11.052790 47.221851 -0.009460
11.368139 47.221851 0.046203
11.683489 47.221851 0.079741
11.998838 47.221851 0.106458
12.314190 47.221851 0.202501
12.629539 47.221851 0.208117
12.944889 47.221851 0.335695
13.260239 47.221851 0.302843
13.575588 47.221851 0.279528
13.890940 47.221851 0.311041
14.206289 47.221851 0.377724
14.521639 47.221851 0.522336
14.836988 47.221851 0.569910
15.152340 47.221851 0.692356
15.467690 47.221851 1.039003
15.783039 47.221851 1.701221
16.098389 47.221851 2.363712
16.413738 47.221851 3.339242
16.729090 47.221851 4.567130
17.044439 47.221851 6.029136
17.359789 47.221851 7.656231
17.675138 47.221851 10.296021
17.990490 47.221851 14.434549
18.305840 47.221851 19.650759
18.621189 47.221851 25.369379
18.936539 47.221851 30.573336
19.251888 47.221851 0.000000
-7.237510 46.906502 0.000000
-6.922160 46.906502 0.000000
-6.606810 46.906502 0.004362
-6.291460 46.906502 -0.002321
-5.976110 46.906502 -0.003598
-5.660760 46.906502 -0.003538
-5.345410 46.906502 -0.002900
-5.030060 46.906502 -0.002597
-4.714710 46.906502 -0.002506
-4.399360 46.906502 -0.002535
-4.084010 46.906502 -0.002174
-3.768660 46.906502 -0.000988
-3.453310 46.906502 0.000486
-3.137960 46.906502 0.001704
-2.822610 46.906502 0.002398
-2.507260 46.906502 0.003280
-2.191910 46.906502 0.004064
-1.876560 46.906502 0.004394
-1.561210 46.906502 0.004745
-1.245860 46.906502 0.004970
-0.930510 46.906502 0.005220
-0.615160 46.906502 0.005499
-0.299810 46.906502 0.005758
0.015540 46.906502 0.005196
0.330890 46.906502 0.004258
0.646240 46.906502 0.003513
0.961589 46.906502 0.002788
1.276940 46.906502 0.001735
1.592289 46.906502 0.000783
1.907640 46.906502 -0.000037
2.222990 46.906502 -0.000803
2.538340 46.906502 -0.001558
2.853690 46.906502 -0.001897
3.169039 46.906502 -0.001611
3.484390 46.906502 -0.001247
3.799739 46.906502 -0.001363
4.115090 46.906502 -0.001384
4.430439 46.906502 -0.000648
4.745790 46.906502 0.000060
5.061140 46.906502 0.000682
5.376490 46.906502 0.001496
5.691840 46.906502 0.002453
6.007189 46.906502 0.003020
6.322540 46.906502 0.002937
6.637889 46.906502 0.002851
6.953240 46.906502 0.002325
7.268589 46.906502 0.001476
7.583940 46.906502 0.000295
7.899290 46.906502 -0.000319
8.214640 46.906502 -0.002116
8.529989 46.906502 -0.005177
8.845339 46.906502 -0.006407
9.160688 46.906502 -0.013157
9.476040 46.906502 -0.014642
9.791389 46.906502 -0.011964
10.106739 46.906502 0.000252
10.422089 46.906502 0.004898
10.737438 46.906502 -0.016078
11.052790 46.906502 -0.001641
11.368139 46.906502 0.010040
11.683489 46.906502 0.061239
11.998838 46.906502 0.107051
12.314190 46.906502 0.211478
12.629539 46.906502 0.258199
12.944889 46.906502 0.272690
13.260239 46.906502 0.279039
13.575588 46.906502 0.271869
13.890940 46.906502 0.319226
14.206289 46.906502 0.379993
14.521639 46.906502 0.488453
14.836988 46.906502 0.650922
15.152340 46.906502 0.860964
15.467690 46.906502 1.238684
15.783039 46.906502 2.066641
16.098389 46.906502 3.015342
16.413738 46.906502 3.838805
16.729090 46.906502 4.989831
17.044439 46.906502 6.292809
17.359789 46.906502 8.303442
17.675138 46.906502 11.670417
17.990490 46.906502 15.866027
18.305840 46.906502 20.722349
18.621189 46.906502 27.036608
18.936539 46.906502 31.051683
19.251888 46.906502 0.000000
-7.237510 46.591152 0.000000
-6.922160 46.591152 0.000000
-6.606810 46.591152 0.006489
-6.291460 46.591152 -0.000077
-5.976110 46.591152 -0.001470
-5.660760 46.591152 -0.001784
-5.345410 46.591152 -0.001557
-5.030060 46.591152 -0.001877
-4.714710 46.591152 -0.002563
-4.399360 46.591152 -0.003242
-4.084010 46.591152 -0.003518
-3.768660 46.591152 -0.002839
-3.453310 46.591152 -0.001620
-3.137960 46.591152 -0.000460
-2.822610 46.591152 0.000393
-2.507260 46.591152 0.001639
-2.191910 46.591152 0.002579
-1.876560 46.591152 0.002971
-1.561210 46.591152 0.003609
-1.245860 46.591152 0.004540
-0.930510 46.591152 0.005523
-0.615160 46.591152 0.006420
-0.299810 46.591152 0.007274
0.015540 46.591152 0.007310
0.330890 46.591152 0.006840
0.646240 46.591152 0.006205
0.961589 46.591152 0.005631
1.276940 46.591152 0.004756
1.592289 46.591152 0.003787
1.907640 46.591152 0.002638
2.222990 46.591152 0.001540
2.538340 46.591152 0.000037
2.853690 46.591152 -0.001072
3.169039 46.591152 -0.001538
3.484390 46.591152 -0.001970
3.799739 46.591152 -0.002462
4.115090 46.591152 -0.003093
4.430439 46.591152 -0.002972
4.745790 46.591152 -0.002659
5.061140 46.591152 -0.002265
5.376490 46.591152 -0.001726
5.691840 46.591152 -0.000601
6.007189 46.591152 0.000309
6.322540 46.591152 0.000751
6.637889 46.591152 0.001129
6.953240 46.591152 0.001295
7.268589 46.591152 0.000960
7.583940 46.591152 0.000702
7.899290 46.591152 0.000891
8.214640 46.591152 0.000144
8.529989 46.591152 -0.003856
8.845339 46.591152 -0.000723
9.160688 46.591152 -0.013851
9.476040 46.591152 -0.028037
9.791389 46.591152 -0.017848
10.106739 46.591152 -0.002878
10.422089 46.591152 0.008982
10.737438 46.591152 -0.008143
11.052790 46.591152 0.007961
11.368139 46.591152 0.018949
11.683489 46.591152 0.050335
11.998838 46.591152 0.089608
12.314190 46.591152 0.161728
12.629539 46.591152 0.240466
12.944889 46.591152 0.256891
13.260239 46.591152 0.280764
13.575588 46.591152 0.331663
13.890940 46.591152 0.295094
14.206289 46.591152 0.390294
14.521639 46.591152 0.486990
14.836988 46.591152 0.609421
15.152340 46.591152 1.002514
15.467690 46.591152 1.698617
15.783039 46.591152 2.622258
16.098389 46.591152 3.986478
16.413738 46.591152 5.039769
16.729090 46.591152 5.775083
17.044439 46.591152 6.622564
17.359789 46.591152 8.804360
17.675138 46.591152 12.302773
17.990490 46.591152 16.699312
18.305840 46.591152 21.131105
18.621189 46.591152 25.749475
18.936539 46.591152 30.667156
19.251888 46.591152 0.000000
-7.237510 46.275803 0.000000
-6.922160 46.275803 0.000000
-6.606810 46.275803 0.008731
-6.291460 46.275803 0.002713
-5.976110 46.275803 0.001503
-5.660760 46.275803 0.001198
-5.345410 46.275803 0.001161
-5.030060 46.275803 0.000501
-4.714710 46.275803 -0.000805
-4.399360 46.275803 -0.002056
-4.084010 46.275803 -0.002862
-3.768660 46.275803 -0.002936
-3.453310 46.275803 -0.002383
-3.137960 46.275803 -0.001907
-2.822610 46.275803 -0.001339
-2.507260 46.275803 -0.000364
-2.191910 46.275803 0.000417
-1.876560 46.275803 0.000541
-1.561210 46.275803 0.001121
-1.245860 46.275803 0.002447
-0.930510 46.275803 0.003833
-0.615160 46.275803 0.005092
-0.299810 46.275803 0.006534
0.015540 46.275803 0.007259
0.330890 46.275803 0.007287
0.646240 46.275803 0.007272
0.961589 46.275803 0.007386
1.276940 46.275803 0.007106
1.592289 46.275803 0.006612
1.907640 46.275803 0.005778
2.222990 46.275803 0.004674
2.538340 46.275803 0.003139
2.853690 46.275803 0.001709
3.169039 46.275803 0.000741
3.484390 46.275803 -0.000281
3.799739 46.275803 -0.001184
4.115090 46.275803 -0.002473
4.430439 46.275803 -0.003131
4.745790 46.275803 -0.003616
5.061140 46.275803 -0.004176
5.376490 46.275803 -0.004353
5.691840 46.275803 -0.003877
6.007189 46.275803 -0.003208
6.322540 46.275803 -0.002826
6.637889 46.275803 -0.002051
6.953240 46.275803 -0.001336
7.268589 46.275803 -0.001279
7.583940 46.275803 -0.000940
7.899290 46.275803 0.000177
8.214640 46.275803 0.000881
8.529989 46.275803 -0.001830
8.845339 46.275803 -0.003746
9.160688 46.275803 -0.009176
9.476040 46.275803 -0.019128
9.791389 46.275803 -0.004494
10.106739 46.275803 0.014682
10.422089 46.275803 0.005078
10.737438 46.275803 0.020445
11.052790 46.275803 0.032666
11.368139 46.275803 0.036825
11.683489 46.275803 0.023555
11.998838 46.275803 0.117771
12.314190 46.275803 0.116335
12.629539 46.275803 0.236487
12.944889 46.275803 0.308242
13.260239 46.275803 0.301195
13.575588 46.275803 0.332178
13.890940 46.275803 0.326484
14.206289 46.275803 0.398524
14.521639 46.275803 0.601700
14.836988 46.275803 0.692072
15.152340 46.275803 1.264984
15.467690 46.275803 2.242304
15.783039 46.275803 3.758705
16.098389 46.275803 5.497297
16.413738 46.275803 6.306091
16.729090 46.275803 6.444141
17.044439 46.275803 7.088927
17.359789 46.275803 9.229347
17.675138 46.275803 13.152526
17.990490 46.275803 17.686243
18.305840 46.275803 22.761772
18.621189 46.275803 24.561802
18.936539 46.275803 28.227442
19.251888 46.275803 0.000000
-7.237510 45.960449 0.000000
-6.922160 45.960449 0.000000
-6.606810 45.960449 0.009474
-6.291460 45.960449 0.004429
-5.976110 45.960449 0.003827
-5.660760 45.960449 0.003981
-5.345410 45.960449 0.004134
-5.030060 45.960449 0.003318
-4.714710 45.960449 0.002062
-4.399360 45.960449 0.000609
-4.084010 45.960449 -0.000212
-3.768660 45.960449 -0.000677
-3.453310 45.960449 -0.001077
-3.137960 45.960449 -0.001345
-2.822610 45.960449 -0.001423
-2.507260 45.960449 -0.001205
-2.191910 45.960449 -0.001170
-1.876560 45.960449 -0.001603
-1.561210 45.960449 -0.001399
-1.245860 45.960449 -0.000166
-0.930510 45.960449 0.001148
-0.615160 45.960449 0.002382
-0.299810 45.960449 0.003945
0.015540 45.960449 0.005085
0.330890 45.960449 0.005644
0.646240 45.960449 0.006318
0.961589 45.960449 0.007088
1.276940 45.960449 0.007558
1.592289 45.960449 0.007720
1.907640 45.960449 0.007579
2.222990 45.960449 0.007266
2.538340 45.960449 0.006390
2.853690 45.960449 0.005432
3.169039 45.960449 0.004346
3.484390 45.960449 0.003133
3.799739 45.960449 0.001928
4.115090 45.960449 0.000408
4.430439 45.960449 -0.000861
4.745790 45.960449 -0.002344
5.061140 45.960449 -0.003793
5.376490 45.960449 -0.005034
5.691840 45.960449 -0.005544
6.007189 45.960449 -0.005807
6.322540 45.960449 -0.005972
6.637889 45.960449 -0.005448
6.953240 45.960449 -0.005188
7.268589 45.960449 -0.004799
7.583940 45.960449 -0.004257
7.899290 45.960449 -0.002628
8.214640 45.960449 -0.002939
8.529989 45.960449 -0.002470
8.845339 45.960449 -0.002111
9.160688 45.960449 -0.001257
9.476040 45.960449 -0.007723
9.791389 45.960449 0.004126
10.106739 45.960449 0.017061
10.422089 45.960449 0.024931
10.737438 45.960449 0.025078
11.052790 45.960449 0.056651
11.368139 45.960449 0.051577
11.683489 45.960449 0.060032
11.998838 45.960449 0.094404
12.314190 45.960449 0.125252
12.629539 45.960449 0.206252
12.944889 45.960449 0.245808
13.260239 45.960449 0.320433
13.575588 45.960449 0.367959
13.890940 45.960449 0.401981
14.206289 45.960449 0.435425
14.521639 45.960449 0.502582
14.836988 45.960449 0.869250
15.152340 45.960449 1.325320
15.467690 45.960449 2.565989
15.783039 45.960449 4.761424
16.098389 45.960449 7.210710
16.413738 45.960449 7.370583
16.729090 45.960449 5.361922
17.044439 45.960449 4.511038
17.359789 45.960449 7.110094
17.675138 45.960449 11.156748
17.990490 45.960449 24.536259
18.305840 45.960449 17.109291
18.621189 45.960449 23.163202
18.936539 45.960449 25.336948
19.251888 45.960449 0.000000
-7.237510 45.645100 0.000000
-6.922160 45.645100 0.000000
-6.606810 45.645100 0.007543
-6.291460 45.645100 0.003651
-5.976110 45.645100 0.004259
-5.660760 45.645100 0.005017
-5.345410 45.645100 0.005566
-5.030060 45.645100 0.005333
-4.714710 45.645100 0.004371
-4.399360 45.645100 0.003380
-4.084010 45.645100 0.003058
-3.768660 45.645100 0.002598
-3.453310 45.645100 0.001957
-3.137960 45.645100 0.001235
-2.822610 45.645100 0.000394
-2.507260 45.645100 -0.000415
-2.191910 45.645100 -0.001127
-1.876560 45.645100 -0.002024
-1.561210 45.645100 -0.002297
-1.245860 45.645100 -0.001852
-0.930510 45.645100 -0.001214
-0.615160 45.645100 -0.000329
-0.299810 45.645100 0.000802
0.015540 45.645100 0.001803
0.330890 45.645100 0.002598
0.646240 45.645100 0.003655
0.961589 45.645100 0.004931
1.276940 45.645100 0.005920
1.592289 45.645100 0.006750
1.907640 45.645100 0.007379
2.222990 45.645100 0.007816
2.538340 45.645100 0.008000
2.853690 45.645100 0.007872
3.169039 45.645100 0.007422
3.484390 45.645100 0.006504
3.799739 45.645100 0.005486
4.115090 45.645100 0.004267
4.430439 45.645100 0.002862
4.745790 45.645100 0.000796
5.061140 45.645100 -0.001378
5.376490 45.645100 -0.003285
5.691840 45.645100 -0.004863
6.007189 45.645100 -0.006214
6.322540 45.645100 -0.006948
6.637889 45.645100 -0.007234
6.953240 45.645100 -0.007498
7.268589 45.645100 -0.007974
7.583940 45.645100 -0.007509
7.899290 45.645100 -0.005751
8.214640 45.645100 -0.004247
8.529989 45.645100 -0.002646
8.845339 45.645100 -0.003334
9.160688 45.645100 0.001069
9.476040 45.645100 -0.000063
9.791389 45.645100 0.000699
10.106739 45.645100 -0.009800
10.422089 45.645100 0.015865
10.737438 45.645100 0.033411
11.052790 45.645100 0.031843
11.368139 45.645100 0.078541
11.683489 45.645100 0.054441
11.998838 45.645100 0.076420
12.314190 45.645100 0.154085
12.629539 45.645100 0.219310
12.944889 45.645100 0.245637
13.260239 45.645100 0.367840
13.575588 45.645100 0.379748
13.890940 45.645100 0.431115
14.206289 45.645100 0.512814
14.521639 45.645100 0.661738
14.836988 45.645100 0.991054
15.152340 45.645100 1.491259
15.467690 45.645100 2.828462
15.783039 45.645100 5.144272
16.098389 45.645100 12.015099
16.413738 45.645100 23.099838
16.729090 45.645100 -9.955010
17.044439 45.645100 0.000000
17.359789 45.645100 0.000000
17.675138 45.645100 0.000000
17.990490 45.645100 9.773256
18.305840 45.645100 19.554628
18.621189 45.645100 22.226770
18.936539 45.645100 23.285543
19.251888 45.645100 0.000000
-7.237510 45.329750 0.000000
-6.922160 45.329750 0.000000
-6.606810 45.329750 0.004154
-6.291460 45.329750 0.001309
-5.976110 45.329750 0.002559
-5.660760 45.329750 0.003830
-5.345410 45.329750 0.004797
-5.030060 45.329750 0.005193
-4.714710 45.329750 0.005077
-4.399360 45.329750 0.004899
-4.084010 45.329750 0.005212
-3.768660 45.329750 0.005261
-3.453310 45.329750 0.005050
-3.137960 45.329750 0.004384
-2.822610 45.329750 0.003200
-2.507260 45.329750 0.001949
-2.191910 45.329750 0.000779
-1.876560 45.329750 -0.000180
-1.561210 45.329750 -0.000952
-1.245860 45.329750 -0.001423
-0.930510 45.329750 -0.001822
-0.615160 45.329750 -0.001720
-0.299810 45.329750 -0.001352
0.015540 45.329750 -0.000900
0.330890 45.329750 -0.000358
0.646240 45.329750 0.000516
0.961589 45.329750 0.001779
1.276940 45.329750 0.002768
1.592289 45.329750 0.004017
1.907640 45.329750 0.005203
2.222990 45.329750 0.006450
2.538340 45.329750 0.007554
2.853690 45.329750 0.008341
3.169039 45.329750 0.008858
3.484390 45.329750 0.008571
3.799739 45.329750 0.008077
4.115090 45.329750 0.007444
4.430439 45.329750 0.006153
4.745790 45.329750 0.004314
5.061140 45.329750 0.002208
5.376490 45.329750 -0.000054
5.691840 45.329750 -0.002225
6.007189 45.329750 -0.004320
6.322540 45.329750 -0.005865
6.637889 45.329750 -0.006837
6.953240 45.329750 -0.008168
7.268589 45.329750 -0.009359
7.583940 45.329750 -0.009695
7.899290 45.329750 -0.008968
8.214640 45.329750 -0.006274
8.529989 45.329750 -0.008304
8.845339 45.329750 -0.004540
9.160688 45.329750 0.002636
9.476040 45.329750 -0.001722
9.791389 45.329750 -0.006572
10.106739 45.329750 0.002135
10.422089 45.329750 0.003050
10.737438 45.329750 0.008585
11.052790 45.329750 0.032171
11.368139 45.329750 0.042564
11.683489 45.329750 0.108566
11.998838 45.329750 0.130446
12.314190 45.329750 0.129105
12.629539 45.329750 0.186340
12.944889 45.329750 0.277141
13.260239 45.329750 0.366956
13.575588 45.329750 0.351157
13.890940 45.329750 0.452783
14.206289 45.329750 0.632914
14.521639 45.329750 0.741120
14.836988 45.329750 1.067520
15.152340 45.329750 1.743488
15.467690 45.329750 2.890467
15.783039 45.329750 4.836982
16.098389 45.329750 10.426085
16.413738 45.329750 0.000000
16.729090 45.329750 0.000000
17.044439 45.329750 0.000000
17.359789 45.329750 0.000000
17.675138 45.329750 0.000000
17.990490 45.329750 0.000000
18.305840 45.329750 18.086420
18.621189 45.329750 22.056864
18.936539 45.329750 20.191420
19.251888 45.329750 0.000000
-7.237510 45.014400 0.000000
-6.922160 45.014400 0.000000
-6.606810 45.014400 0.000905
-6.291460 45.014400 -0.002061
-5.976110 45.014400 -0.000492
-5.660760 45.014400 0.000911
-5.345410 45.014400 0.001998
-5.030060 45.014400 0.002981
-4.714710 45.014400 0.003820
-4.399360 45.014400 0.004553
-4.084010 45.014400 0.005343
-3.768660 45.014400 0.006331
-3.453310 45.014400 0.006733
-3.137960 45.014400 0.006580
-2.822610 45.014400 0.005583
-2.507260 45.014400 0.004438
-2.191910 45.014400 0.003690
-1.876560 45.014400 0.002994
-1.561210 45.014400 0.002190
-1.245860 45.014400 0.000862
-0.930510 45.014400 -0.000154
-0.615160 45.014400 -0.000796
-0.299810 45.014400 -0.001291
0.015540 45.014400 -0.001834
0.330890 45.014400 -0.001826
0.646240 45.014400 -0.001632
0.961589 45.014400 -0.001047
1.276940 45.014400 -0.000381
1.592289 45.014400 0.000632
1.907640 45.014400 0.001930
2.222990 45.014400 0.003484
2.538340 45.014400 0.005111
2.853690 45.014400 0.006736
3.169039 45.014400 0.008138
3.484390 45.014400 0.008667
3.799739 45.014400 0.008723
4.115090 45.014400 0.008552
4.430439 45.014400 0.007896
4.745790 45.014400 0.006755
5.061140 45.014400 0.005209
5.376490 45.014400 0.003501
5.691840 45.014400 0.001417
6.007189 45.014400 -0.000690
6.322540 45.014400 -0.002817
6.637889 45.014400 -0.004286
6.953240 45.014400 -0.006222
7.268589 45.014400 -0.007902
7.583940 45.014400 -0.009739
7.899290 45.014400 -0.010741
8.214640 45.014400 -0.008462
8.529989 45.014400 -0.010033
8.845339 45.014400 -0.009529
9.160688 45.014400 -0.004503
9.476040 45.014400 -0.005125
9.791389 45.014400 -0.012670
10.106739 45.014400 0.001500
10.422089 45.014400 0.010201
10.737438 45.014400 0.025719
11.052790 45.014400 0.037907
11.368139 45.014400 0.046955
11.683489 45.014400 0.074473
11.998838 45.014400 0.108030
12.314190 45.014400 0.197648
12.629539 45.014400 0.196590
12.944889 45.014400 0.297406
13.260239 45.014400 0.309180
13.575588 45.014400 0.331954
13.890940 45.014400 0.450193
14.206289 45.014400 0.608436
14.521639 45.014400 0.742717
14.836988 45.014400 1.131063
15.152340 45.014400 1.663736
15.467690 45.014400 2.697058
15.783039 45.014400 4.282606
16.098389 45.014400 9.315454
16.413738 45.014400 0.000000
16.729090 45.014400 0.000000
17.044439 45.014400 0.000000
17.359789 45.014400 0.000000
17.675138 45.014400 0.000000
17.990490 45.014400 0.000000
18.305840 45.014400 3.793188
18.621189 45.014400 15.940748
18.936539 45.014400 21.177984
19.251888 45.014400 0.000000
-7.237510 44.699051 0.000000
-6.922160 44.699051 0.000000
-6.606810 44.699051 -0.000609
-6.291460 44.699051 -0.004104
-5.976110 44.699051 -0.003213
-5.660760 44.699051 -0.002357
-5.345410 44.699051 -0.001513
-5.030060 44.699051 -0.000381
-4.714710 44.699051 0.000919
-4.399360 44.699051 0.002376
-4.084010 44.699051 0.003747
-3.768660 44.699051 0.005096
-3.453310 44.699051 0.006368
-3.137960 44.699051 0.006773
-2.822610 44.699051 0.006351
-2.507260 44.699051 0.006065
-2.191910 44.699051 0.006083
-1.876560 44.699051 0.005937
-1.561210 44.699051 0.005378
-1.245860 44.699051 0.003969
-0.930510 44.699051 0.002853
-0.615160 44.699051 0.001783
-0.299810 44.699051 0.000781
0.015540 44.699051 -0.000349
0.330890 44.699051 -0.001051
0.646240 44.699051 -0.001810
0.961589 44.699051 -0.002088
1.276940 44.699051 -0.002272
1.592289 44.699051 -0.001804
1.907640 44.699051 -0.001017
2.222990 44.699051 0.000093
2.538340 44.699051 0.001653
2.853690 44.699051 0.003608
3.169039 44.699051 0.005441
3.484390 44.699051 0.006577
3.799739 44.699051 0.007094
4.115090 44.699051 0.007237
4.430439 44.699051 0.007410
4.745790 44.699051 0.007166
5.061140 44.699051 0.006749
5.376490 44.699051 0.005936
5.691840 44.699051 0.004472
6.007189 44.699051 0.002668
6.322540 44.699051 0.000563
6.637889 44.699051 -0.001130
6.953240 44.699051 -0.003146
7.268589 44.699051 -0.005115
7.583940 44.699051 -0.007389
7.899290 44.699051 -0.008331
8.214640 44.699051 -0.007833
8.529989 44.699051 -0.010238
8.845339 44.699051 -0.008750
9.160688 44.699051 -0.006346
9.476040 44.699051 -0.004866
9.791389 44.699051 -0.009563
10.106739 44.699051 0.007334
10.422089 44.699051 0.015481
10.737438 44.699051 0.028384
11.052790 44.699051 0.034290
11.368139 44.699051 0.022938
11.683489 44.699051 0.104295
11.998838 44.699051 0.146350
12.314190 44.699051 0.249962
12.629539 44.699051 0.316507
12.944889 44.699051 0.303011
13.260239 44.699051 0.350280
13.575588 44.699051 0.388167
13.890940 44.699051 0.407383
14.206289 44.699051 0.562081
14.521639 44.699051 0.769228
14.836988 44.699051 1.159416
15.152340 44.699051 1.722968
15.467690 44.699051 2.394385
15.783039 44.699051 3.513235
16.098389 44.699051 10.350368
16.413738 44.699051 0.000000
16.729090 44.699051 0.000000
17.044439 44.699051 0.000000
17.359789 44.699051 0.000000
17.675138 44.699051 0.000000
17.990490 44.699051 0.000000
18.305840 44.699051 0.000000
18.621189 44.699051 -21.014471
18.936539 44.699051 0.000000
19.251888 44.699051 0.000000
-7.237510 44.383701 0.000000
-6.922160 44.383701 0.000000
-6.606810 44.383701 0.000435
-6.291460 44.383701 -0.003914
-5.976110 44.383701 -0.004261
-5.660760 44.383701 -0.004342
-5.345410 44.383701 -0.004126
-5.030060 44.383701 -0.003445
-4.714710 44.383701 -0.002265
-4.399360 44.383701 -0.000624
-4.084010 44.383701 0.000859
-3.768660 44.383701 0.002354
-3.453310 44.383701 0.003816
-3.137960 44.383701 0.005081
-2.822610 44.383701 0.005520
-2.507260 44.383701 0.006107
-2.191910 44.383701 0.006900
-1.876560 44.383701 0.007386
-1.561210 44.383701 0.007248
-1.245860 44.383701 0.006521
-0.930510 44.383701 0.005808
-0.615160 44.383701 0.004843
-0.299810 44.383701 0.003797
0.015540 44.383701 0.002653
0.330890 44.383701 0.001386
0.646240 44.383701 0.000022
0.961589 44.383701 -0.001061
1.276940 44.383701 -0.002003
1.592289 44.383701 -0.002329
1.907640 44.383701 -0.002312
2.222990 44.383701 -0.001952
2.538340 44.383701 -0.001171
2.853690 44.383701 0.000316
3.169039 44.383701 0.001851
3.484390 44.383701 0.003043
3.799739 44.383701 0.003602
4.115090 44.383701 0.003971
4.430439 44.383701 0.004821
4.745790 44.383701 0.005655
5.061140 44.383701 0.006455
5.376490 44.383701 0.006471
5.691840 44.383701 0.005862
6.007189 44.383701 0.004830
6.322540 44.383701 0.003266
6.637889 44.383701 0.001883
6.953240 44.383701 0.000040
7.268589 44.383701 -0.002111
7.583940 44.383701 -0.004016
7.899290 44.383701 -0.005716
8.214640 44.383701 -0.006726
8.529989 44.383701 -0.006854
8.845339 44.383701 -0.007079
9.160688 44.383701 -0.003692
9.476040 44.383701 -0.000582
9.791389 44.383701 -0.001683
10.106739 44.383701 0.008121
10.422089 44.383701 0.021924
10.737438 44.383701 0.027338
11.052790 44.383701 0.017680
11.368139 44.383701 0.035991
11.683489 44.383701 0.098911
11.998838 44.383701 0.149555
12.314190 44.383701 0.239443
12.629539 44.383701 0.284894
12.944889 44.383701 0.319373
13.260239 44.383701 0.418890
13.575588 44.383701 0.406482
13.890940 44.383701 0.442120
14.206289 44.383701 0.512878
14.521639 44.383701 0.825004
14.836988 44.383701 1.105274
15.152340 44.383701 1.614091
15.467690 44.383701 2.140706
15.783039 44.383701 2.534782
16.098389 44.383701 26.104916
16.413738 44.383701 0.000000
16.729090 44.383701 0.000000
17.044439 44.383701 0.000000
17.359789 44.383701 0.000000
17.675138 44.383701 0.000000
17.990490 44.383701 0.000000
18.305840 44.383701 0.000000
18.621189 44.383701 0.000000
18.936539 44.383701 0.000000
19.251888 44.383701 0.000000
-7.237510 44.068352 0.000000
-6.922160 44.068352 0.000000
-6.606810 44.068352 0.002992
-6.291460 44.068352 -0.001893
-5.976110 44.068352 -0.002909
-5.660760 44.068352 -0.003816
-5.345410 44.068352 -0.004522
-5.030060 44.068352 -0.004697
-4.714710 44.068352 -0.004134
-4.399360 44.068352 -0.003110
-4.084010 44.068352 -0.001875
-3.768660 44.068352 -0.000773
-3.453310 44.068352 0.000443
-3.137960 44.068352 0.001997
-2.822610 44.068352 0.003134
-2.507260 44.068352 0.004555
-2.191910 44.068352 0.005885
-1.876560 44.068352 0.006745
-1.561210 44.068352 0.007182
-1.245860 44.068352 0.007475
-0.930510 44.068352 0.007453
-0.615160 44.068352 0.007094
-0.299810 44.068352 0.006576
0.015540 44.068352 0.005650
0.330890 44.068352 0.004348
0.646240 44.068352 0.002954
0.961589 44.068352 0.001471
1.276940 44.068352 0.000151
1.592289 44.068352 -0.000891
1.907640 44.068352 -0.001588
2.222990 44.068352 -0.002254
2.538340 44.068352 -0.002258
2.853690 44.068352 -0.001886
3.169039 44.068352 -0.001233
3.484390 44.068352 -0.000625
3.799739 44.068352 -0.000278
4.115090 44.068352 0.000050
4.430439 44.068352 0.001218
4.745790 44.068352 0.002641
5.061140 44.068352 0.004330
5.376490 44.068352 0.005171
5.691840 44.068352 0.005436
6.007189 44.068352 0.005060
6.322540 44.068352 0.004335
6.637889 44.068352 0.003279
6.953240 44.068352 0.001912
7.268589 44.068352 0.000712
7.583940 44.068352 -0.001378
7.899290 44.068352 -0.004455
8.214640 44.068352 -0.008002
8.529989 44.068352 -0.008718
8.845339 44.068352 -0.008438
9.160688 44.068352 -0.000273
9.476040 44.068352 -0.011766
9.791389 44.068352 0.010287
10.106739 44.068352 0.008706
10.422089 44.068352 0.020592
10.737438 44.068352 0.029380
11.052790 44.068352 0.055003
11.368139 44.068352 0.081379
11.683489 44.068352 0.091518
11.998838 44.068352 0.142250
12.314190 44.068352 0.213259
12.629539 44.068352 0.237483
12.944889 44.068352 0.260787
13.260239 44.068352 0.408869
13.575588 44.068352 0.437663
13.890940 44.068352 0.474331
14.206289 44.068352 0.605349
14.521639 44.068352 0.851639
14.836988 44.068352 1.172613
15.152340 44.068352 1.424970
15.467690 44.068352 1.720081
15.783039 44.068352 2.107774
16.098389 44.068352 0.000000
16.413738 44.068352 0.000000
16.729090 44.068352 0.000000
17.044439 44.068352 0.000000
17.359789 44.068352 0.000000
17.675138 44.068352 0.000000
17.990490 44.068352 0.000000
18.305840 44.068352 0.000000
18.621189 44.068352 0.000000
18.936539 44.068352 0.000000
19.251888 44.068352 0.000000
-7.237510 43.753002 0.000000
-6.922160 43.753002 0.000000
-6.606810 43.753002 0.006085
-6.291460 43.753002 0.001256
-5.976110 43.753002 0.000054
-5.660760 43.753002 -0.001119
-5.345410 43.753002 -0.002525
-5.030060 43.753002 -0.003471
-4.714710 43.753002 -0.003673
-4.399360 43.753002 -0.003698
-4.084010 43.753002 -0.003442
-3.768660 43.753002 -0.003207
-3.453310 43.753002 -0.002494
-3.137960 43.753002 -0.001138
-2.822610 43.753002 0.000181
-2.507260 43.753002 0.001861
-2.191910 43.753002 0.003285
-1.876560 43.753002 0.004276
-1.561210 43.753002 0.005393
-1.245860 43.753002 0.006586
-0.930510 43.753002 0.007360
-0.615160 43.753002 0.007781
-0.299810 43.753002 0.007861
0.015540 43.753002 0.007468
0.330890 43.753002 0.006714
0.646240 43.753002 0.005755
0.961589 43.753002 0.004492
1.276940 43.753002 0.003143
1.592289 43.753002 0.001612
1.907640 43.753002 0.000382
2.222990 43.753002 -0.000633
2.538340 43.753002 -0.001354
2.853690 43.753002 -0.002230
3.169039 43.753002 -0.002714
3.484390 43.753002 -0.002936
3.799739 43.753002 -0.003197
4.115090 43.753002 -0.003112
4.430439 43.753002 -0.002106
4.745790 43.753002 -0.000613
5.061140 43.753002 0.001317
5.376490 43.753002 0.002729
5.691840 43.753002 0.003569
6.007189 43.753002 0.003967
6.322540 43.753002 0.003679
6.637889 43.753002 0.002843
6.953240 43.753002 0.002530
7.268589 43.753002 0.001772
7.583940 43.753002 -0.000460
7.899290 43.753002 -0.005294
8.214640 43.753002 -0.007606
8.529989 43.753002 -0.007990
8.845339 43.753002 -0.008006
9.160688 43.753002 0.003513
9.476040 43.753002 -0.000035
9.791389 43.753002 0.012786
10.106739 43.753002 0.009184
10.422089 43.753002 0.019149
10.737438 43.753002 0.015452
11.052790 43.753002 0.070629
11.368139 43.753002 0.080440
11.683489 43.753002 0.081667
11.998838 43.753002 0.143416
12.314190 43.753002 0.205063
12.629539 43.753002 0.219093
12.944889 43.753002 0.262665
13.260239 43.753002 0.366089
13.575588 43.753002 0.369292
13.890940 43.753002 0.496502
14.206289 43.753002 0.633212
14.521639 43.753002 0.837509
14.836988 43.753002 1.196921
15.152340 43.753002 1.285629
15.467690 43.753002 1.570961
15.783039 43.753002 1.871119
16.098389 43.753002 0.000000
16.413738 43.753002 0.000000
16.729090 43.753002 0.000000
17.044439 43.753002 0.000000
17.359789 43.753002 0.000000
17.675138 43.753002 0.000000
17.990490 43.753002 0.000000
18.305840 43.753002 0.000000
18.621189 43.753002 0.000000
18.936539 43.753002 0.000000
19.251888 43.753002 0.000000
-7.237510 43.437653 0.000000
-6.922160 43.437653 0.000000
-6.606810 43.437653 0.008148
-6.291460 43.437653 0.004233
-5.976110 43.437653 0.003263
-5.660760 43.437653 0.002268
-5.345410 43.437653 0.000825
-5.030060 43.437653 -0.000494
-4.714710 43.437653 -0.001334
-4.399360 43.437653 -0.002077
-4.084010 43.437653 -0.002874
-3.768660 43.437653 -0.003697
-3.453310 43.437653 -0.003739
-3.137960 43.437653 -0.003046
-2.822610 43.437653 -0.002060
-2.507260 43.437653 -0.000742
-2.191910 43.437653 0.000100
-1.876560 43.437653 0.001044
-1.561210 43.437653 0.002340
-1.245860 43.437653 0.004192
-0.930510 43.437653 0.005652
-0.615160 43.437653 0.006508
-0.299810 43.437653 0.007391
0.015540 43.437653 0.007760
0.330890 43.437653 0.007624
0.646240 43.437653 0.007158
0.961589 43.437653 0.006611
1.276940 43.437653 0.005872
1.592289 43.437653 0.004399
1.907640 43.437653 0.002997
2.222990 43.437653 0.001921
2.538340 43.437653 0.000607
2.853690 43.437653 -0.000983
3.169039 43.437653 -0.002256
3.484390 43.437653 -0.003354
3.799739 43.437653 -0.004295
4.115090 43.437653 -0.004609
4.430439 43.437653 -0.004214
4.745790 43.437653 -0.003085
5.061140 43.437653 -0.001424
5.376490 43.437653 0.000056
5.691840 43.437653 0.000988
6.007189 43.437653 0.001686
6.322540 43.437653 0.001812
6.637889 43.437653 0.001237
6.953240 43.437653 0.001241
7.268589 43.437653 0.001558
7.583940 43.437653 -0.000095
7.899290 43.437653 -0.003998
8.214640 43.437653 -0.005740
8.529989 43.437653 -0.005564
8.845339 43.437653 -0.009969
9.160688 43.437653 -0.006388
9.476040 43.437653 -0.004694
9.791389 43.437653 0.004249
10.106739 43.437653 -0.004663
10.422089 43.437653 -0.014532
10.737438 43.437653 0.029955
11.052790 43.437653 0.047832
11.368139 43.437653 0.055444
11.683489 43.437653 0.062737
11.998838 43.437653 0.141009
12.314190 43.437653 0.174907
12.629539 43.437653 0.240223
12.944889 43.437653 0.257866
13.260239 43.437653 0.305887
13.575588 43.437653 0.343543
13.890940 43.437653 0.398644
14.206289 43.437653 0.577050
14.521639 43.437653 0.782960
14.836988 43.437653 1.204641
15.152340 43.437653 1.412312
15.467690 43.437653 1.444917
15.783039 43.437653 1.505835
16.098389 43.437653 0.000000
16.413738 43.437653 0.000000
16.729090 43.437653 0.000000
17.044439 43.437653 0.000000
17.359789 43.437653 0.000000
17.675138 43.437653 0.000000
17.990490 43.437653 0.000000
18.305840 43.437653 0.000000
18.621189 43.437653 0.000000
18.936539 43.437653 0.000000
19.251888 43.437653 0.000000
-7.237510 43.122299 0.000000
-6.922160 43.122299 0.000000
-6.606810 43.122299 0.008511
-6.291460 43.122299 0.005785
-5.976110 43.122299 0.005563
-5.660760 43.122299 0.005118
-5.345410 43.122299 0.004104
-5.030060 43.122299 0.003129
-4.714710 43.122299 0.002047
-4.399360 43.122299 0.000828
-4.084010 43.122299 -0.000690
-3.768660 43.122299 -0.002217
-3.453310 43.122299 -0.002896
-3.137960 43.122299 -0.003095
-2.822610 43.122299 -0.002849
-2.507260 43.122299 -0.002472
-2.191910 43.122299 -0.002248
-1.876560 43.122299 -0.001862
-1.561210 43.122299 -0.000598
-1.245860 43.122299 0.001139
-0.930510 43.122299 0.002787
-0.615160 43.122299 0.004087
-0.299810 43.122299 0.005348
0.015540 43.122299 0.006393
0.330890 43.122299 0.006924
0.646240 43.122299 0.007129
0.961589 43.122299 0.007520
1.276940 43.122299 0.007429
1.592289 43.122299 0.006371
1.907640 43.122299 0.005130
2.222990 43.122299 0.004294
2.538340 43.122299 0.002926
2.853690 43.122299 0.001194
3.169039 43.122299 -0.000523
3.484390 43.122299 -0.002113
3.799739 43.122299 -0.003370
4.115090 43.122299 -0.004281
4.430439 43.122299 -0.004578
4.745790 43.122299 -0.004091
5.061140 43.122299 -0.003182
5.376490 43.122299 -0.002227
5.691840 43.122299 -0.001550
6.007189 43.122299 -0.000916
6.322540 43.122299 -0.000576
6.637889 43.122299 -0.000872
6.953240 43.122299 -0.000904
7.268589 43.122299 0.000267
7.583940 43.122299 -0.000460
7.899290 43.122299 -0.001587
8.214640 43.122299 -0.003864
8.529989 43.122299 -0.007071
8.845339 43.122299 -0.006574
9.160688 43.122299 -0.006671
9.476040 43.122299 -0.006459
9.791389 43.122299 -0.010084
10.106739 43.122299 -0.011051
10.422089 43.122299 0.000163
10.737438 43.122299 0.023508
11.052790 43.122299 0.072196
11.368139 43.122299 0.073064
11.683489 43.122299 0.104204
11.998838 43.122299 0.112608
12.314190 43.122299 0.181723
12.629539 43.122299 0.250967
12.944889 43.122299 0.293494
13.260239 43.122299 0.330079
13.575588 43.122299 0.397623
13.890940 43.122299 0.392726
14.206289 43.122299 0.544072
14.521639 43.122299 0.695194
14.836988 43.122299 1.008521
15.152340 43.122299 1.292888
15.467690 43.122299 1.394638
15.783039 43.122299 1.401043
16.098389 43.122299 0.000000
16.413738 43.122299 0.000000
16.729090 43.122299 0.000000
17.044439 43.122299 0.000000
17.359789 43.122299 0.000000
17.675138 43.122299 0.000000
17.990490 43.122299 0.000000
18.305840 43.122299 0.000000
18.621189 43.122299 0.000000
18.936539 43.122299 0.000000
19.251888 43.122299 0.000000
-7.237510 42.806950 0.000000
-6.922160 42.806950 0.000000
-6.606810 42.806950 0.007232
-6.291460 42.806950 0.005501
-5.976110 42.806950 0.006230
-5.660760 42.806950 0.006362
-5.345410 42.806950 0.006128
-5.030060 42.806950 0.005754
-4.714710 42.806950 0.005105
-4.399360 42.806950 0.003847
-4.084010 42.806950 0.002115
-3.768660 42.806950 0.000590
-3.453310 42.806950 -0.000460
-3.137960 42.806950 -0.001463
-2.822610 42.806950 -0.002146
-2.507260 42.806950 -0.002657
-2.191910 42.806950 -0.003154
-1.876560 42.806950 -0.003282
-1.561210 42.806950 -0.002521
-1.245860 42.806950 -0.001276
-0.930510 42.806950 -0.000010
-0.615160 42.806950 0.001322
-0.299810 42.806950 0.002828
0.015540 42.806950 0.004081
0.330890 42.806950 0.005077
0.646240 42.806950 0.005873
0.961589 42.806950 0.007087
1.276940 42.806950 0.007617
1.592289 42.806950 0.007097
1.907640 42.806950 0.006310
2.222990 42.806950 0.005804
2.538340 42.806950 0.004804
2.853690 42.806950 0.003288
3.169039 42.806950 0.001596
3.484390 42.806950 0.000119
3.799739 42.806950 -0.001264
4.115090 42.806950 -0.002475
4.430439 42.806950 -0.003351
4.745790 42.806950 -0.003669
5.061140 42.806950 -0.003725
5.376490 42.806950 -0.003589
5.691840 42.806950 -0.003432
6.007189 42.806950 -0.003028
6.322540 42.806950 -0.002459
6.637889 42.806950 -0.002803
6.953240 42.806950 -0.002618
7.268589 42.806950 -0.001483
7.583940 42.806950 -0.002136
7.899290 42.806950 -0.001992
8.214640 42.806950 -0.003530
8.529989 42.806950 -0.005558
8.845339 42.806950 -0.004919
9.160688 42.806950 -0.007224
9.476040 42.806950 -0.021702
9.791389 42.806950 -0.018722
10.106739 42.806950 -0.004725
10.422089 42.806950 0.007702
10.737438 42.806950 0.042314
11.052790 42.806950 0.031587
11.368139 42.806950 0.081386
11.683489 42.806950 0.081471
11.998838 42.806950 0.162573
12.314190 42.806950 0.240747
12.629539 42.806950 0.247250
12.944889 42.806950 0.214164
13.260239 42.806950 0.289179
13.575588 42.806950 0.427956
13.890940 42.806950 0.414798
14.206289 42.806950 0.477275
14.521639 42.806950 0.723624
14.836988 42.806950 0.908876
15.152340 42.806950 1.227375
15.467690 42.806950 1.133918
15.783039 42.806950 1.284416
16.098389 42.806950 0.000000
16.413738 42.806950 0.000000
16.729090 42.806950 0.000000
17.044439 42.806950 0.000000
17.359789 42.806950 0.000000
17.675138 42.806950 0.000000
17.990490 42.806950 0.000000
18.305840 42.806950 0.000000
18.621189 42.806950 0.000000
18.936539 42.806950 0.000000
19.251888 42.806950 0.000000
-7.237510 42.491600 0.000000
-6.922160 42.491600 0.000000
-6.606810 42.491600 0.004508
-6.291460 42.491600 0.003596
-5.976110 42.491600 0.004992
-5.660760 42.491600 0.005870
-5.345410 42.491600 0.006303
-5.030060 42.491600 0.006727
-4.714710 42.491600 0.006728
-4.399360 42.491600 0.005854
-4.084010 42.491600 0.004629
-3.768660 42.491600 0.003392
-3.453310 42.491600 0.002478
-3.137960 42.491600 0.001171
-2.822610 42.491600 -0.000057
-2.507260 42.491600 -0.001383
-2.191910 42.491600 -0.002485
-1.876560 42.491600 -0.003023
-1.561210 42.491600 -0.002690
-1.245860 42.491600 -0.002187
-0.930510 42.491600 -0.001698
-0.615160 42.491600 -0.000742
-0.299810 42.491600 0.000480
0.015540 42.491600 0.001542
0.330890 42.491600 0.002531
0.646240 42.491600 0.003804
0.961589 42.491600 0.005437
1.276940 42.491600 0.006518
1.592289 42.491600 0.006618
1.907640 42.491600 0.006356
2.222990 42.491600 0.006303
2.538340 42.491600 0.005634
2.853690 42.491600 0.004584
3.169039 42.491600 0.003455
3.484390 42.491600 0.002240
3.799739 42.491600 0.001181
4.115090 42.491600 -0.000234
4.430439 42.491600 -0.001348
4.745790 42.491600 -0.002241
5.061140 42.491600 -0.003056
5.376490 42.491600 -0.003885
5.691840 42.491600 -0.004295
6.007189 42.491600 -0.004287
6.322540 42.491600 -0.003854
6.637889 42.491600 -0.004111
6.953240 42.491600 -0.004022
7.268589 42.491600 -0.003216
7.583940 42.491600 -0.003400
7.899290 42.491600 -0.002289
8.214640 42.491600 -0.002314
8.529989 42.491600 -0.004180
8.845339 42.491600 0.005579
9.160688 42.491600 -0.002844
9.476040 42.491600 -0.010890
9.791389 42.491600 -0.013283
10.106739 42.491600 -0.003860
10.422089 42.491600 0.014069
10.737438 42.491600 0.050381
11.052790 42.491600 0.041699
11.368139 42.491600 0.052010
11.683489 42.491600 0.065220
11.998838 42.491600 0.104604
12.314190 42.491600 0.197819
12.629539 42.491600 0.293790
12.944889 42.491600 0.266058
13.260239 42.491600 0.334733
13.575588 42.491600 0.369749
13.890940 42.491600 0.405655
14.206289 42.491600 0.471573
14.521639 42.491600 0.718383
14.836988 42.491600 0.901973
15.152340 42.491600 1.150759
15.467690 42.491600 1.249898
15.783039 42.491600 1.151897
16.098389 42.491600 0.000000
16.413738 42.491600 0.000000
16.729090 42.491600 0.000000
17.044439 42.491600 0.000000
17.359789 42.491600 0.000000
17.675138 42.491600 0.000000
17.990490 42.491600 0.000000
18.305840 42.491600 0.000000
18.621189 42.491600 0.000000
18.936539 42.491600 0.000000
19.251888 42.491600 0.000000
-7.237510 42.176250 0.000000
-6.922160 42.176250 0.000000
-6.606810 42.176250 0.001405
-6.291460 42.176250 0.000811
-5.976110 42.176250 0.002436
-5.660760 42.176250 0.003748
-5.345410 42.176250 0.004773
-5.030060 42.176250 0.005807
-4.714710 42.176250 0.006429
-4.399360 42.176250 0.006328
-4.084010 42.176250 0.005852
-3.768660 42.176250 0.005279
-3.453310 42.176250 0.004797
-3.137960 42.176250 0.003700
-2.822610 42.176250 0.002253
-2.507260 42.176250 0.000764
-2.191910 42.176250 -0.000494
-1.876560 42.176250 -0.001354
-1.561210 42.176250 -0.001633
-1.245860 42.176250 -0.001628
-0.930510 42.176250 -0.001981
-0.615160 42.176250 -0.001797
-0.299810 42.176250 -0.001126
0.015540 42.176250 -0.000666
0.330890 42.176250 0.000222
0.646240 42.176250 0.001655
0.961589 42.176250 0.003352
1.276940 42.176250 0.004733
1.592289 42.176250 0.005132
1.907640 42.176250 0.005352
2.222990 42.176250 0.005624
2.538340 42.176250 0.005444
2.853690 42.176250 0.004974
3.169039 42.176250 0.004472
3.484390 42.176250 0.003674
3.799739 42.176250 0.002725
4.115090 42.176250 0.001685
4.430439 42.176250 0.000678
4.745790 42.176250 -0.000409
5.061140 42.176250 -0.001630
5.376490 42.176250 -0.003127
5.691840 42.176250 -0.004233
6.007189 42.176250 -0.004679
6.322540 42.176250 -0.004217
6.637889 42.176250 -0.004369
6.953240 42.176250 -0.004968
7.268589 42.176250 -0.005219
7.583940 42.176250 -0.004471
7.899290 42.176250 -0.002727
8.214640 42.176250 -0.003352
8.529989 42.176250 -0.006073
8.845339 42.176250 -0.004922
9.160688 42.176250 0.005602
9.476040 42.176250 -0.010096
9.791389 42.176250 -0.005279
10.106739 42.176250 -0.000927
10.422089 42.176250 0.001037
10.737438 42.176250 0.039221
11.052790 42.176250 0.028855
11.368139 42.176250 0.044091
11.683489 42.176250 0.051945
11.998838 42.176250 0.102963
12.314190 42.176250 0.203458
12.629539 42.176250 0.223464
12.944889 42.176250 0.266969
13.260239 42.176250 0.340818
13.575588 42.176250 0.377806
13.890940 42.176250 0.519400
14.206289 42.176250 0.554321
14.521639 42.176250 0.656081
14.836988 42.176250 0.922361
15.152340 42.176250 1.130310
15.467690 42.176250 1.371598
15.783039 42.176250 1.147995
16.098389 42.176250 0.000000
16.413738 42.176250 0.000000
16.729090 42.176250 0.000000
17.044439 42.176250 0.000000
17.359789 42.176250 0.000000
17.675138 42.176250 0.000000
17.990490 42.176250 0.000000
18.305840 42.176250 0.000000
18.621189 42.176250 0.000000
18.936539 42.176250 0.000000
19.251888 42.176250 0.000000
-7.237510 41.860901 0.000000
-6.922160 41.860901 0.000000
-6.606810 41.860901 -0.001227
-6.291460 41.860901 -0.002106
-5.976110 41.860901 -0.000656
-5.660760 41.860901 0.000893
-5.345410 41.860901 0.002447
-5.030060 41.860901 0.003825
-4.714710 41.860901 0.004703
-4.399360 41.860901 0.005282
-4.084010 41.860901 0.005582
-3.768660 41.860901 0.005794
-3.453310 41.860901 0.005873
-3.137960 41.860901 0.005376
-2.822610 41.860901 0.004230
-2.507260 41.860901 0.002861
-2.191910 41.860901 0.001571
-1.876560 41.860901 0.000660
-1.561210 41.860901 0.000131
-1.245860 41.860901 -0.000243
-0.930510 41.860901 -0.001156
-0.615160 41.860901 -0.001738
-0.299810 41.860901 -0.001886
0.015540 41.860901 -0.001885
0.330890 41.860901 -0.001377
0.646240 41.860901 -0.000156
0.961589 41.860901 0.001368
1.276940 41.860901 0.002661
1.592289 41.860901 0.003221
1.907640 41.860901 0.003662
2.222990 41.860901 0.004154
2.538340 41.860901 0.004350
2.853690 41.860901 0.004618
3.169039 41.860901 0.004646
3.484390 41.860901 0.004104
3.799739 41.860901 0.003532
4.115090 41.860901 0.002892
4.430439 41.860901 0.002114
4.745790 41.860901 0.001178
5.061140 41.860901 -0.000135
5.376490 41.860901 -0.002017
5.691840 41.860901 -0.003534
6.007189 41.860901 -0.004181
6.322540 41.860901 -0.003818
6.637889 41.860901 -0.003991
6.953240 41.860901 -0.004890
7.268589 41.860901 -0.005693
7.583940 41.860901 -0.004981
7.899290 41.860901 -0.003456
8.214640 41.860901 -0.004384
8.529989 41.860901 -0.007431
8.845339 41.860901 -0.007335
9.160688 41.860901 0.001119
9.476040 41.860901 -0.007474
9.791389 41.860901 0.002254
10.106739 41.860901 -0.007181
10.422089 41.860901 -0.008247
10.737438 41.860901 0.018010
11.052790 41.860901 0.009238
11.368139 41.860901 0.038676
11.683489 41.860901 0.064119
11.998838 41.860901 0.118435
12.314190 41.860901 0.162908
12.629539 41.860901 0.238589
12.944889 41.860901 0.219625
13.260239 41.860901 0.353427
13.575588 41.860901 0.404266
13.890940 41.860901 0.488432
14.206289 41.860901 0.502427
14.521639 41.860901 0.716629
14.836988 41.860901 0.877367
15.152340 41.860901 1.179638
15.467690 41.860901 1.353085
15.783039 41.860901 1.141191
16.098389 41.860901 0.000000
16.413738 41.860901 0.000000
16.729090 41.860901 0.000000
17.044439 41.860901 0.000000
17.359789 41.860901 0.000000
17.675138 41.860901 0.000000
17.990490 41.860901 0.000000
18.305840 41.860901 0.000000
18.621189 41.860901 0.000000
18.936539 41.860901 0.000000
19.251888 41.860901 0.000000
-7.237510 41.545551 0.000000
-6.922160 41.545551 0.000000
-6.606810 41.545551 -0.002420
-6.291460 41.545551 -0.004095
-5.976110 41.545551 -0.003118
-5.660760 41.545551 -0.001793
-5.345410 41.545551 -0.000135
-5.030060 41.545551 0.001258
-4.714710 41.545551 0.002281
-4.399360 41.545551 0.003378
-4.084010 41.545551 0.004364
-3.768660 41.545551 0.005193
-3.453310 41.545551 0.005653
-3.137960 41.545551 0.005781
-2.822610 41.545551 0.005103
-2.507260 41.545551 0.004004
-2.191910 41.545551 0.003176
-1.876560 41.545551 0.002367
-1.561210 41.545551 0.001818
-1.245860 41.545551 0.001275
-0.930510 41.545551 0.000168
-0.615160 41.545551 -0.000812
-0.299810 41.545551 -0.001710
0.015540 41.545551 -0.002085
0.330890 41.545551 -0.002015
0.646240 41.545551 -0.001310
0.961589 41.545551 -0.000181
1.276940 41.545551 0.000852
1.592289 41.545551 0.001349
1.907640 41.545551 0.001721
2.222990 41.545551 0.002578
2.538340 41.545551 0.003102
2.853690 41.545551 0.003758
3.169039 41.545551 0.004237
3.484390 41.545551 0.003876
3.799739 41.545551 0.003557
4.115090 41.545551 0.003131
4.430439 41.545551 0.002687
4.745790 41.545551 0.001958
5.061140 41.545551 0.000833
5.376490 41.545551 -0.001015
5.691840 41.545551 -0.002671
6.007189 41.545551 -0.003213
6.322540 41.545551 -0.002944
6.637889 41.545551 -0.002902
6.953240 41.545551 -0.004298
7.268589 41.545551 -0.005258
7.583940 41.545551 -0.004912
7.899290 41.545551 -0.003966
8.214640 41.545551 -0.004115
8.529989 41.545551 -0.006238
8.845339 41.545551 -0.002724
9.160688 41.545551 -0.001042
9.476040 41.545551 -0.001856
9.791389 41.545551 0.000313
10.106739 41.545551 -0.003879
10.422089 41.545551 -0.002479
10.737438 41.545551 0.029082
11.052790 41.545551 0.012722
11.368139 41.545551 0.044451
11.683489 41.545551 0.074355
11.998838 41.545551 0.103889
12.314190 41.545551 0.136499
12.629539 41.545551 0.171556
12.944889 41.545551 0.242759
13.260239 41.545551 0.317139
13.575588 41.545551 0.383136
13.890940 41.545551 0.410447
14.206289 41.545551 0.493404
14.521639 41.545551 0.682406
14.836988 41.545551 0.872021
15.152340 41.545551 1.134924
15.467690 41.545551 1.280498
15.783039 41.545551 1.173165
16.098389 41.545551 0.000000
16.413738 41.545551 0.000000
16.729090 41.545551 0.000000
17.044439 41.545551 0.000000
17.359789 41.545551 0.000000
17.675138 41.545551 0.000000
17.990490 41.545551 0.000000
18.305840 41.545551 0.000000
18.621189 41.545551 0.000000
18.936539 41.545551 0.000000
19.251888 41.545551 0.000000
-7.237510 41.230202 0.000000
-6.922160 41.230202 0.000000
-6.606810 41.230202 -0.002228
-6.291460 41.230202 -0.004713
-5.976110 41.230202 -0.004389
-5.660760 41.230202 -0.003554
-5.345410 41.230202 -0.002247
-5.030060 41.230202 -0.001070
-4.714710 41.230202 -0.000057
-4.399360 41.230202 0.001311
-4.084010 41.230202 0.002767
-3.768660 41.230202 0.003788
-3.453310 41.230202 0.004622
-3.137960 41.230202 0.005223
-2.822610 41.230202 0.005103
-2.507260 41.230202 0.004519
-2.191910 41.230202 0.004095
-1.876560 41.230202 0.003505
-1.561210 41.230202 0.003196
-1.245860 41.230202 0.002615
-0.930510 41.230202 0.001546
-0.615160 41.230202 0.000481
-0.299810 41.230202 -0.000780
0.015540 41.230202 -0.001418
0.330890 41.230202 -0.001605
0.646240 41.230202 -0.001576
0.961589 41.230202 -0.001128
1.276940 41.230202 -0.000503
1.592289 41.230202 -0.000149
1.907640 41.230202 0.000196
2.222990 41.230202 0.001055
2.538340 41.230202 0.001785
2.853690 41.230202 0.002601
3.169039 41.230202 0.003167
3.484390 41.230202 0.003090
3.799739 41.230202 0.002773
4.115090 41.230202 0.002676
4.430439 41.230202 0.002351
4.745790 41.230202 0.002068
5.061140 41.230202 0.001135
5.376490 41.230202 -0.000260
5.691840 41.230202 -0.001666
6.007189 41.230202 -0.002104
6.322540 41.230202 -0.001796
6.637889 41.230202 -0.001903
6.953240 41.230202 -0.003277
7.268589 41.230202 -0.004870
7.583940 41.230202 -0.004174
7.899290 41.230202 -0.003553
8.214640 41.230202 -0.006059
8.529989 41.230202 -0.004083
8.845339 41.230202 0.001627
9.160688 41.230202 0.001516
9.476040 41.230202 -0.005151
9.791389 41.230202 -0.005588
10.106739 41.230202 -0.014385
10.422089 41.230202 -0.014140
10.737438 41.230202 0.011406
11.052790 41.230202 0.027234
11.368139 41.230202 0.072307
11.683489 41.230202 0.114257
11.998838 41.230202 0.140788
12.314190 41.230202 0.189933
12.629539 41.230202 0.162236
12.944889 41.230202 0.223112
13.260239 41.230202 0.350916
13.575588 41.230202 0.423475
13.890940 41.230202 0.403156
14.206289 41.230202 0.509587
14.521639 41.230202 0.677241
14.836988 41.230202 0.855972
15.152340 41.230202 1.100940
15.467690 41.230202 1.174448
15.783039 41.230202 1.219593
16.098389 41.230202 0.000000
16.413738 41.230202 0.000000
16.729090 41.230202 0.000000
17.044439 41.230202 0.000000
17.359789 41.230202 0.000000
17.675138 41.230202 0.000000
17.990490 41.230202 0.000000
18.305840 41.230202 0.000000
18.621189 41.230202 0.000000
18.936539 41.230202 0.000000
19.251888 41.230202 0.000000
-7.237510 40.914848 0.000000
-6.922160 40.914848 0.000000
-6.606810 40.914848 -0.000929
-6.291460 40.914848 -0.003960
-5.976110 40.914848 -0.004366
-5.660760 40.914848 -0.004177
-5.345410 40.914848 -0.003404
-5.030060 40.914848 -0.002700
-4.714710 40.914848 -0.001902
-4.399360 40.914848 -0.000627
-4.084010 40.914848 0.000940
-3.768660 40.914848 0.002134
-3.453310 40.914848 0.003113
-3.137960 40.914848 0.003895
-2.822610 40.914848 0.004265
-2.507260 40.914848 0.004226
-2.191910 40.914848 0.004269
-1.876560 40.914848 0.004085
-1.561210 40.914848 0.004048
-1.245860 40.914848 0.003510
-0.930510 40.914848 0.002557
-0.615160 40.914848 0.001619
-0.299810 40.914848 0.000496
0.015540 40.914848 -0.000173
0.330890 40.914848 -0.000685
0.646240 40.914848 -0.001195
0.961589 40.914848 -0.001352
1.276940 40.914848 -0.001278
1.592289 40.914848 -0.000940
1.907640 40.914848 -0.000630
2.222990 40.914848 0.000129
2.538340 40.914848 0.000944
2.853690 40.914848 0.001643
3.169039 40.914848 0.001966
3.484390 40.914848 0.001914
3.799739 40.914848 0.001598
4.115090 40.914848 0.001610
4.430439 40.914848 0.001594
4.745790 40.914848 0.001626
5.061140 40.914848 0.000957
5.376490 40.914848 0.000063
5.691840 40.914848 -0.000849
6.007189 40.914848 -0.001016
6.322540 40.914848 -0.000896
6.637889 40.914848 -0.001356
6.953240 40.914848 -0.002568
7.268589 40.914848 -0.004254
7.583940 40.914848 -0.004219
7.899290 40.914848 -0.003986
8.214640 40.914848 -0.005447
8.529989 40.914848 -0.004421
8.845339 40.914848 0.001043
9.160688 40.914848 -0.002536
9.476040 40.914848 -0.001478
9.791389 40.914848 -0.004734
10.106739 40.914848 -0.014900
10.422089 40.914848 -0.004311
10.737438 40.914848 0.003429
11.052790 40.914848 0.056156
11.368139 40.914848 0.101169
11.683489 40.914848 0.110044
11.998838 40.914848 0.140844
12.314190 40.914848 0.142355
12.629539 40.914848 0.178273
12.944889 40.914848 0.290819
13.260239 40.914848 0.349364
13.575588 40.914848 0.424340
13.890940 40.914848 0.440904
14.206289 40.914848 0.640550
14.521639 40.914848 0.598008
14.836988 40.914848 0.815564
15.152340 40.914848 1.010138
15.467690 40.914848 1.283387
15.783039 40.914848 1.124875
16.098389 40.914848 0.000000
16.413738 40.914848 0.000000
16.729090 40.914848 0.000000
17.044439 40.914848 0.000000
17.359789 40.914848 0.000000
17.675138 40.914848 0.000000
17.990490 40.914848 0.000000
18.305840 40.914848 0.000000
18.621189 40.914848 0.000000
18.936539 40.914848 0.000000
19.251888 40.914848 0.000000
-7.237510 40.599503 0.000000
-6.922160 40.599503 0.000000
-6.606810 40.599503 0.000956
-6.291460 40.599503 -0.002438
-5.976110 40.599503 -0.003435
-5.660760 40.599503 -0.003782
-5.345410 40.599503 -0.003503
-5.030060 40.599503 -0.003286
-4.714710 40.599503 -0.002855
-4.399360 40.599503 -0.001871
-4.084010 40.599503 -0.000623
-3.768660 40.599503 0.000485
-3.453310 40.599503 0.001448
-3.137960 40.599503 0.002294
-2.822610 40.599503 0.003025
-2.507260 40.599503 0.003368
-2.191910 40.599503 0.003723
-1.876560 40.599503 0.004071
-1.561210 40.599503 0.004351
-1.245860 40.599503 0.003852
-0.930510 40.599503 0.003012
-0.615160 40.599503 0.002378
-0.299810 40.599503 0.001608
0.015540 40.599503 0.001045
0.330890 40.599503 0.000302
0.646240 40.599503 -0.000520
0.961589 40.599503 -0.001104
1.276940 40.599503 -0.001271
1.592289 40.599503 -0.000907
1.907640 40.599503 -0.000663
2.222990 40.599503 -0.000169
2.538340 40.599503 0.000584
2.853690 40.599503 0.000990
3.169039 40.599503 0.001092
3.484390 40.599503 0.000940
3.799739 40.599503 0.000662
4.115090 40.599503 0.000628
4.430439 40.599503 0.000687
4.745790 40.599503 0.000865
5.061140 40.599503 0.000540
5.376490 40.599503 -0.000052
5.691840 40.599503 -0.000427
6.007189 40.599503 -0.000404
6.322540 40.599503 -0.000744
6.637889 40.599503 -0.001070
6.953240 40.599503 -0.001931
7.268589 40.599503 -0.003379
7.583940 40.599503 -0.003260
7.899290 40.599503 -0.003851
8.214640 40.599503 -0.005648
8.529989 40.599503 -0.004697
8.845339 40.599503 0.003875
9.160688 40.599503 0.005071
9.476040 40.599503 0.005399
9.791389 40.599503 -0.013869
10.106739 40.599503 -0.012419
10.422089 40.599503 -0.016697
10.737438 40.599503 0.009687
11.052790 40.599503 0.038625
11.368139 40.599503 0.060441
11.683489 40.599503 0.081939
11.998838 40.599503 0.153691
12.314190 40.599503 0.231400
12.629539 40.599503 0.157385
12.944889 40.599503 0.240883
13.260239 40.599503 0.353277
13.575588 40.599503 0.427531
13.890940 40.599503 0.559709
14.206289 40.599503 0.649188
14.521639 40.599503 0.682329
14.836988 40.599503 0.649234
15.152340 40.599503 0.919894
15.467690 40.599503 1.124254
15.783039 40.599503 1.148053
16.098389 40.599503 0.000000
16.413738 40.599503 0.000000
16.729090 40.599503 0.000000
17.044439 40.599503 0.000000
17.359789 40.599503 0.000000
17.675138 40.599503 0.000000
17.990490 40.599503 0.000000
18.305840 40.599503 0.000000
18.621189 40.599503 0.000000
18.936539 40.599503 0.000000
19.251888 40.599503 0.000000
-7.237510 40.284149 0.000000
-6.922160 40.284149 0.000000
-6.606810 40.284149 0.002832
-6.291460 40.284149 -0.000747
-5.976110 40.284149 -0.002047
-5.660760 40.284149 -0.002676
-5.345410 40.284149 -0.002737
-5.030060 40.284149 -0.002958
-4.714710 40.284149 -0.002911
-4.399360 40.284149 -0.002385
-4.084010 40.284149 -0.001714
-3.768660 40.284149 -0.000847
-3.453310 40.284149 0.000008
-3.137960 40.284149 0.000822
-2.822610 40.284149 0.001670
-2.507260 40.284149 0.002277
-2.191910 40.284149 0.002962
-1.876560 40.284149 0.003698
-1.561210 40.284149 0.004213
-1.245860 40.284149 0.003709
-0.930510 40.284149 0.002961
-0.615160 40.284149 0.002609
-0.299810 40.284149 0.002269
0.015540 40.284149 0.001699
0.330890 40.284149 0.000964
0.646240 40.284149 0.000121
0.961589 40.284149 -0.000594
1.276940 40.284149 -0.000829
1.592289 40.284149 -0.000509
1.907640 40.284149 -0.000273
2.222990 40.284149 -0.000028
2.538340 40.284149 0.000423
2.853690 40.284149 0.000585
3.169039 40.284149 0.000512
3.484390 40.284149 0.000480
3.799739 40.284149 0.000323
4.115090 40.284149 0.000191
4.430439 40.284149 0.000155
4.745790 40.284149 0.000217
5.061140 40.284149 -0.000004
5.376490 40.284149 -0.000449
5.691840 40.284149 -0.000418
6.007189 40.284149 -0.000688
6.322540 40.284149 -0.001339
6.637889 40.284149 -0.001687
6.953240 40.284149 -0.001948
7.268589 40.284149 -0.002924
7.583940 40.284149 -0.003970
7.899290 40.284149 -0.004436
8.214640 40.284149 -0.005128
8.529989 40.284149 -0.003884
8.845339 40.284149 0.005454
9.160688 40.284149 0.003595
9.476040 40.284149 0.001778
9.791389 40.284149 -0.004598
10.106739 40.284149 -0.020816
10.422089 40.284149 -0.011222
10.737438 40.284149 0.016948
11.052790 40.284149 0.056036
11.368139 40.284149 0.060772
11.683489 40.284149 0.096302
11.998838 40.284149 0.156050
12.314190 40.284149 0.210917
12.629539 40.284149 0.252665
12.944889 40.284149 0.287387
13.260239 40.284149 0.433336
13.575588 40.284149 0.453034
13.890940 40.284149 0.652305
14.206289 40.284149 0.616433
14.521639 40.284149 0.665558
14.836988 40.284149 0.725715
15.152340 40.284149 0.944943
15.467690 40.284149 1.198965
15.783039 40.284149 1.306498
16.098389 40.284149 0.000000
16.413738 40.284149 0.000000
16.729090 40.284149 0.000000
17.044439 40.284149 0.000000
17.359789 40.284149 0.000000
17.675138 40.284149 0.000000
17.990490 40.284149 0.000000
18.305840 40.284149 0.000000
18.621189 40.284149 0.000000
18.936539 40.284149 0.000000
19.251888 40.284149 0.000000
-7.237510 39.968800 0.000000
-6.922160 39.968800 0.000000
-6.606810 39.968800 0.003982
-6.291460 39.968800 0.000573
-5.976110 39.968800 -0.000582
-5.660760 39.968800 -0.001198
-5.345410 39.968800 -0.001649
-5.030060 39.968800 -0.002107
-4.714710 39.968800 -0.002528
-4.399360 39.968800 -0.002388
-4.084010 39.968800 -0.002068
-3.768660 39.968800 -0.001588
-3.453310 39.968800 -0.000927
-3.137960 39.968800 -0.000216
-2.822610 39.968800 0.000635
-2.507260 39.968800 0.001399
-2.191910 39.968800 0.002153
-1.876560 39.968800 0.002986
-1.561210 39.968800 0.003484
-1.245860 39.968800 0.003041
-0.930510 39.968800 0.002529
-0.615160 39.968800 0.002330
-0.299810 39.968800 0.002201
0.015540 39.968800 0.001774
0.330890 39.968800 0.001179
0.646240 39.968800 0.000583
0.961589 39.968800 0.000021
1.276940 39.968800 -0.000124
1.592289 39.968800 0.000051
1.907640 39.968800 0.000172
2.222990 39.968800 0.000358
2.538340 39.968800 0.000555
2.853690 39.968800 0.000488
3.169039 39.968800 0.000415
3.484390 39.968800 0.000530
3.799739 39.968800 0.000544
4.115090 39.968800 0.000326
4.430439 39.968800 0.000033
4.745790 39.968800 -0.000034
5.061140 39.968800 -0.000499
5.376490 39.968800 -0.000842
5.691840 39.968800 -0.000767
6.007189 39.968800 -0.001418
6.322540 39.968800 -0.002103
6.637889 39.968800 -0.002327
6.953240 39.968800 -0.002565
7.268589 39.968800 -0.003023
7.583940 39.968800 -0.004010
7.899290 39.968800 -0.004940
8.214640 39.968800 -0.004309
8.529989 39.968800 -0.002453
8.845339 39.968800 0.002177
9.160688 39.968800 0.002391
9.476040 39.968800 -0.004620
9.791389 39.968800 -0.002049
10.106739 39.968800 -0.019307
10.422089 39.968800 -0.004267
10.737438 39.968800 0.023943
11.052790 39.968800 0.058575
11.368139 39.968800 0.099121
11.683489 39.968800 0.118765
11.998838 39.968800 0.157113
12.314190 39.968800 0.182155
12.629539 39.968800 0.251835
12.944889 39.968800 0.328585
13.260239 39.968800 0.407560
13.575588 39.968800 0.566575
13.890940 39.968800 0.563314
14.206289 39.968800 0.612588
14.521639 39.968800 0.681827
14.836988 39.968800 0.802944
15.152340 39.968800 0.960573
15.467690 39.968800 1.076414
15.783039 39.968800 1.138996
16.098389 39.968800 0.000000
16.413738 39.968800 0.000000
16.729090 39.968800 0.000000
17.044439 39.968800 0.000000
17.359789 39.968800 0.000000
17.675138 39.968800 0.000000
17.990490 39.968800 0.000000
18.305840 39.968800 0.000000
18.621189 39.968800 0.000000
18.936539 39.968800 0.000000
19.251888 39.968800 0.000000
-7.237510 39.653450 0.000000
-6.922160 39.653450 0.000000
-6.606810 39.653450 0.004426
-6.291460 39.653450 0.001372
-5.976110 39.653450 0.000690
-5.660760 39.653450 0.000159
-5.345410 39.653450 -0.000356
-5.030060 39.653450 -0.001141
-4.714710 39.653450 -0.001799
-4.399360 39.653450 -0.001871
-4.084010 39.653450 -0.001827
-3.768660 39.653450 -0.001672
-3.453310 39.653450 -0.001278
-3.137960 39.653450 -0.000673
-2.822610 39.653450 0.000139
-2.507260 39.653450 0.000929
-2.191910 39.653450 0.001539
-1.876560 39.653450 0.002223
-1.561210 39.653450 0.002434
-1.245860 39.653450 0.002125
-0.930510 39.653450 0.001897
-0.615160 39.653450 0.001720
-0.299810 39.653450 0.001792
0.015540 39.653450 0.001439
0.330890 39.653450 0.000927
0.646240 39.653450 0.000597
0.961589 39.653450 0.000376
1.276940 39.653450 0.000392
1.592289 39.653450 0.000353
1.907640 39.653450 0.000376
2.222990 39.653450 0.000686
2.538340 39.653450 0.000825
2.853690 39.653450 0.000564
3.169039 39.653450 0.000505
3.484390 39.653450 0.000777
3.799739 39.653450 0.000961
4.115090 39.653450 0.000835
4.430439 39.653450 0.000413
4.745790 39.653450 -0.000102
5.061140 39.653450 -0.000685
5.376490 39.653450 -0.001126
5.691840 39.653450 -0.001378
6.007189 39.653450 -0.002280
6.322540 39.653450 -0.003022
6.637889 39.653450 -0.003437
6.953240 39.653450 -0.003267
7.268589 39.653450 -0.003393
7.583940 39.653450 -0.004126
7.899290 39.653450 -0.005376
8.214640 39.653450 -0.005686
8.529989 39.653450 -0.002471
8.845339 39.653450 -0.003667
9.160688 39.653450 0.003530
9.476040 39.653450 -0.001117
9.791389 39.653450 -0.006131
10.106739 39.653450 -0.001219
10.422089 39.653450 -0.012063
10.737438 39.653450 0.018787
11.052790 39.653450 0.063638
11.368139 39.653450 0.090319
11.683489 39.653450 0.090082
11.998838 39.653450 0.137207
12.314190 39.653450 0.202687
12.629539 39.653450 0.259610
12.944889 39.653450 0.402825
13.260239 39.653450 0.431457
13.575588 39.653450 0.560305
13.890940 39.653450 0.520106
14.206289 39.653450 0.574301
14.521639 39.653450 0.654005
14.836988 39.653450 0.760132
15.152340 39.653450 0.966855
15.467690 39.653450 1.081752
15.783039 39.653450 1.109726
16.098389 39.653450 0.000000
16.413738 39.653450 0.000000
16.729090 39.653450 0.000000
17.044439 39.653450 0.000000
17.359789 39.653450 0.000000
17.675138 39.653450 0.000000
17.990490 39.653450 0.000000
18.305840 39.653450 0.000000
18.621189 39.653450 0.000000
18.936539 39.653450 0.000000
19.251888 39.653450 0.000000
-7.237510 39.338100 0.000000
-6.922160 39.338100 0.000000
-6.606810 39.338100 0.004129
-6.291460 39.338100 0.001634
-5.976110 39.338100 0.001400
-5.660760 39.338100 0.001244
-5.345410 39.338100 0.000819
-5.030060 39.338100 -0.000081
-4.714710 39.338100 -0.000878
-4.399360 39.338100 -0.001127
-4.084010 39.338100 -0.001182
-3.768660 39.338100 -0.001251
-3.453310 39.338100 -0.001143
-3.137960 39.338100 -0.000656
-2.822610 39.338100 0.000068
-2.507260 39.338100 0.000599
-2.191910 39.338100 0.001059
-1.876560 39.338100 0.001546
-1.561210 39.338100 0.001608
-1.245860 39.338100 0.001386
-0.930510 39.338100 0.001254
-0.615160 39.338100 0.001147
-0.299810 39.338100 0.001238
0.015540 39.338100 0.000940
0.330890 39.338100 0.000283
0.646240 39.338100 0.000165
0.961589 39.338100 0.000352
1.276940 39.338100 0.000445
1.592289 39.338100 0.000420
1.907640 39.338100 0.000433
2.222990 39.338100 0.000748
2.538340 39.338100 0.000830
2.853690 39.338100 0.000566
3.169039 39.338100 0.000662
3.484390 39.338100 0.001214
3.799739 39.338100 0.001633
4.115090 39.338100 0.001598
4.430439 39.338100 0.001030
4.745790 39.338100 0.000152
5.061140 39.338100 -0.000478
5.376490 39.338100 -0.001166
5.691840 39.338100 -0.001828
6.007189 39.338100 -0.002844
6.322540 39.338100 -0.003698
6.637889 39.338100 -0.004234
6.953240 39.338100 -0.004304
7.268589 39.338100 -0.004115
7.583940 39.338100 -0.004899
7.899290 39.338100 -0.006715
8.214640 39.338100 -0.004401
8.529989 39.338100 -0.003888
8.845339 39.338100 -0.003774
9.160688 39.338100 0.003287
9.476040 39.338100 -0.000891
9.791389 39.338100 -0.020822
10.106739 39.338100 -0.004718
10.422089 39.338100 -0.017029
10.737438 39.338100 0.020819
11.052790 39.338100 0.042481
11.368139 39.338100 0.063940
11.683489 39.338100 0.111514
11.998838 39.338100 0.164093
12.314190 39.338100 0.215467
12.629539 39.338100 0.202682
12.944889 39.338100 0.407977
13.260239 39.338100 0.418076
13.575588 39.338100 0.552581
13.890940 39.338100 0.531210
14.206289 39.338100 0.568873
14.521639 39.338100 0.567494
14.836988 39.338100 0.688612
15.152340 39.338100 0.953121
15.467690 39.338100 1.057114
15.783039 39.338100 1.295505
16.098389 39.338100 0.000000
16.413738 39.338100 0.000000
16.729090 39.338100 0.000000
17.044439 39.338100 0.000000
17.359789 39.338100 0.000000
17.675138 39.338100 0.000000
17.990490 39.338100 0.000000
18.305840 39.338100 0.000000
18.621189 39.338100 0.000000
18.936539 39.338100 0.000000
19.251888 39.338100 0.000000
-7.237510 39.022751 0.000000
-6.922160 39.022751 0.000000
-6.606810 39.022751 0.003523
-6.291460 39.022751 0.001544
-5.976110 39.022751 0.001679
-5.660760 39.022751 0.001866
-5.345410 39.022751 0.001637
-5.030060 39.022751 0.000760
-4.714710 39.022751 -0.000121
-4.399360 39.022751 -0.000418
-4.084010 39.022751 -0.000337
-3.768660 39.022751 -0.000497
-3.453310 39.022751 -0.000633
-3.137960 39.022751 -0.000323
-2.822610 39.022751 0.000203
-2.507260 39.022751 0.000592
-2.191910 39.022751 0.000927
-1.876560 39.022751 0.001162
-1.561210 39.022751 0.001110
-1.245860 39.022751 0.000928
-0.930510 39.022751 0.000827
-0.615160 39.022751 0.000830
-0.299810 39.022751 0.000856
0.015540 39.022751 0.000468
0.330890 39.022751 -0.000237
0.646240 39.022751 -0.000296
0.961589 39.022751 0.000004
1.276940 39.022751 0.000103
1.592289 39.022751 -0.000016
1.907640 39.022751 0.000141
2.222990 39.022751 0.000504
2.538340 39.022751 0.000553
2.853690 39.022751 0.000421
3.169039 39.022751 0.000703
3.484390 39.022751 0.001552
3.799739 39.022751 0.002287
4.115090 39.022751 0.002492
4.430439 39.022751 0.002010
4.745790 39.022751 0.000890
5.061140 39.022751 0.000007
5.376490 39.022751 -0.000753
5.691840 39.022751 -0.001720
6.007189 39.022751 -0.002949
6.322540 39.022751 -0.003822
6.637889 39.022751 -0.004513
6.953240 39.022751 -0.004851
7.268589 39.022751 -0.004984
7.583940 39.022751 -0.005016
7.899290 39.022751 -0.005817
8.214640 39.022751 -0.004156
8.529989 39.022751 -0.000992
8.845339 39.022751 0.000074
9.160688 39.022751 0.003536
9.476040 39.022751 0.002056
9.791389 39.022751 -0.011658
10.106739 39.022751 -0.003040
10.422089 39.022751 -0.011262
10.737438 39.022751 -0.014611
11.052790 39.022751 0.049201
11.368139 39.022751 0.046750
11.683489 39.022751 0.119287
11.998838 39.022751 0.152553
12.314190 39.022751 0.201588
12.629539 39.022751 0.248789
12.944889 39.022751 0.320783
13.260239 39.022751 0.429552
13.575588 39.022751 0.496696
13.890940 39.022751 0.557510
14.206289 39.022751 0.638262
14.521639 39.022751 0.623621
14.836988 39.022751 0.798460
15.152340 39.022751 0.839609
15.467690 39.022751 1.125471
15.783039 39.022751 1.377743
16.098389 39.022751 0.000000
16.413738 39.022751 0.000000
16.729090 39.022751 0.000000
17.044439 39.022751 0.000000
17.359789 39.022751 0.000000
17.675138 39.022751 0.000000
17.990490 39.022751 0.000000
18.305840 39.022751 0.000000
18.621189 39.022751 0.000000
18.936539 39.022751 0.000000
19.251888 39.022751 0.000000
-7.237510 38.707401 0.000000
-6.922160 38.707401 0.000000
-6.606810 38.707401 0.002769
-6.291460 38.707401 0.001240
-5.976110 38.707401 0.001593
-5.660760 38.707401 0.002009
-5.345410 38.707401 0.001959
-5.030060 38.707401 0.001214
-4.714710 38.707401 0.000393
-4.399360 38.707401 0.000209
-4.084010 38.707401 0.000327
-3.768660 38.707401 0.000259
-3.453310 38.707401 0.000048
-3.137960 38.707401 0.000143
-2.822610 38.707401 0.000594
-2.507260 38.707401 0.000873
-2.191910 38.707401 0.001076
-1.876560 38.707401 0.001202
-1.561210 38.707401 0.001067
-1.245860 38.707401 0.000996
-0.930510 38.707401 0.000824
-0.615160 38.707401 0.000774
-0.299810 38.707401 0.000601
0.015540 38.707401 0.000123
0.330890 38.707401 -0.000519
0.646240 38.707401 -0.000710
0.961589 38.707401 -0.000536
1.276940 38.707401 -0.000547
1.592289 38.707401 -0.000689
1.907640 38.707401 -0.000370
2.222990 38.707401 -0.000012
2.538340 38.707401 0.000157
2.853690 38.707401 0.000303
3.169039 38.707401 0.000781
3.484390 38.707401 0.001888
3.799739 38.707401 0.002980
4.115090 38.707401 0.003440
4.430439 38.707401 0.002981
4.745790 38.707401 0.001780
5.061140 38.707401 0.000948
5.376490 38.707401 0.000023
5.691840 38.707401 -0.000922
6.007189 38.707401 -0.002449
6.322540 38.707401 -0.003615
6.637889 38.707401 -0.004555
6.953240 38.707401 -0.005074
7.268589 38.707401 -0.005857
7.583940 38.707401 -0.006630
7.899290 38.707401 -0.005496
8.214640 38.707401 -0.003730
8.529989 38.707401 0.001270
8.845339 38.707401 0.000974
9.160688 38.707401 0.004316
9.476040 38.707401 -0.001573
9.791389 38.707401 -0.009416
10.106739 38.707401 -0.002307
10.422089 38.707401 -0.019751
10.737438 38.707401 -0.003990
11.052790 38.707401 0.026646
11.368139 38.707401 0.063080
11.683489 38.707401 0.091382
11.998838 38.707401 0.149600
12.314190 38.707401 0.179654
12.629539 38.707401 0.266786
12.944889 38.707401 0.357796
13.260239 38.707401 0.384678
13.575588 38.707401 0.521621
13.890940 38.707401 0.571214
14.206289 38.707401 0.560857
14.521639 38.707401 0.632948
14.836988 38.707401 0.688665
15.152340 38.707401 0.863562
15.467690 38.707401 1.109035
15.783039 38.707401 1.385923
16.098389 38.707401 0.000000
16.413738 38.707401 0.000000
16.729090 38.707401 0.000000
17.044439 38.707401 0.000000
17.359789 38.707401 0.000000
17.675138 38.707401 0.000000
17.990490 38.707401 0.000000
18.305840 38.707401 0.000000
18.621189 38.707401 0.000000
18.936539 38.707401 0.000000
19.251888 38.707401 0.000000
-7.237510 38.392052 0.000000
-6.922160 38.392052 0.000000
-6.606810 38.392052 0.002015
-6.291460 38.392052 0.000814
-5.976110 38.392052 0.001327
-5.660760 38.392052 0.001759
-5.345410 38.392052 0.001753
-5.030060 38.392052 0.001209
-4.714710 38.392052 0.000605
-4.399360 38.392052 0.000519
-4.084010 38.392052 0.000686
-3.768660 38.392052 0.000642
-3.453310 38.392052 0.000416
-3.137960 38.392052 0.000624
-2.822610 38.392052 0.000942
-2.507260 38.392052 0.001247
-2.191910 38.392052 0.001507
-1.876560 38.392052 0.001590
-1.561210 38.392052 0.001596
-1.245860 38.392052 0.001534
-0.930510 38.392052 0.001380
-0.615160 38.392052 0.001127
-0.299810 38.392052 0.000621
0.015540 38.392052 -0.000039
0.330890 38.392052 -0.000617
0.646240 38.392052 -0.001015
0.961589 38.392052 -0.001146
1.276940 38.392052 -0.001357
1.592289 38.392052 -0.001574
1.907640 38.392052 -0.001213
2.222990 38.392052 -0.000598
2.538340 38.392052 -0.000227
2.853690 38.392052 0.000251
3.169039 38.392052 0.000871
3.484390 38.392052 0.002090
3.799739 38.392052 0.003513
4.115090 38.392052 0.004311
4.430439 38.392052 0.003883
4.745790 38.392052 0.002809
5.061140 38.392052 0.002075
5.376490 38.392052 0.001277
5.691840 38.392052 0.000076
6.007189 38.392052 -0.001581
6.322540 38.392052 -0.002986
6.637889 38.392052 -0.004192
6.953240 38.392052 -0.005421
7.268589 38.392052 -0.006489
7.583940 38.392052 -0.007552
7.899290 38.392052 -0.006462
8.214640 38.392052 -0.004129
8.529989 38.392052 -0.000622
8.845339 38.392052 0.002171
9.160688 38.392052 0.000776
9.476040 38.392052 0.000555
9.791389 38.392052 -0.008380
10.106739 38.392052 -0.018019
10.422089 38.392052 -0.006976
10.737438 38.392052 0.005233
11.052790 38.392052 0.043470
11.368139 38.392052 0.119361
11.683489 38.392052 0.134204
11.998838 38.392052 0.196832
12.314190 38.392052 0.215164
12.629539 38.392052 0.332763
12.944889 38.392052 0.372275
13.260239 38.392052 0.443932
13.575588 38.392052 0.496252
13.890940 38.392052 0.540102
14.206289 38.392052 0.521401
14.521639 38.392052 0.577062
14.836988 38.392052 0.630155
15.152340 38.392052 0.825533
15.467690 38.392052 1.167273
15.783039 38.392052 1.335337
16.098389 38.392052 0.000000
16.413738 38.392052 0.000000
16.729090 38.392052 0.000000
17.044439 38.392052 0.000000
17.359789 38.392052 0.000000
17.675138 38.392052 0.000000
17.990490 38.392052 0.000000
18.305840 38.392052 0.000000
18.621189 38.392052 0.000000
18.936539 38.392052 0.000000
19.251888 38.392052 0.000000
-7.237510 38.076698 0.000000
-6.922160 38.076698 0.000000
-6.606810 38.076698 0.001727
-6.291460 38.076698 0.000533
-5.976110 38.076698 0.000980
-5.660760 38.076698 0.001298
-5.345410 38.076698 0.001280
-5.030060 38.076698 0.000954
-4.714710 38.076698 0.000565
-4.399360 38.076698 0.000573
-4.084010 38.076698 0.000679
-3.768660 38.076698 0.000578
-3.453310 38.076698 0.000536
-3.137960 38.076698 0.000892
-2.822610 38.076698 0.001215
-2.507260 38.076698 0.001622
-2.191910 38.076698 0.001966
-1.876560 38.076698 0.002080
-1.561210 38.076698 0.002225
-1.245860 38.076698 0.002452
-0.930510 38.076698 0.002271
-0.615160 38.076698 0.001714
-0.299810 38.076698 0.000921
0.015540 38.076698 0.000213
0.330890 38.076698 -0.000431
0.646240 38.076698 -0.001022
0.961589 38.076698 -0.001554
1.276940 38.076698 -0.002032
1.592289 38.076698 -0.002356
1.907640 38.076698 -0.002196
2.222990 38.076698 -0.001409
2.538340 38.076698 -0.000687
2.853690 38.076698 0.000092
3.169039 38.076698 0.000855
3.484390 38.076698 0.002071
3.799739 38.076698 0.003645
4.115090 38.076698 0.004792
4.430439 38.076698 0.004518
4.745790 38.076698 0.003809
5.061140 38.076698 0.003247
5.376490 38.076698 0.002516
5.691840 38.076698 0.001036
6.007189 38.076698 -0.000699
6.322540 38.076698 -0.002385
6.637889 38.076698 -0.003906
6.953240 38.076698 -0.005705
7.268589 38.076698 -0.007149
7.583940 38.076698 -0.008391
7.899290 38.076698 -0.008854
8.214640 38.076698 -0.006974
8.529989 38.076698 -0.005081
8.845339 38.076698 -0.003255
9.160688 38.076698 0.001266
9.476040 38.076698 -0.011110
9.791389 38.076698 -0.015315
10.106739 38.076698 -0.009804
10.422089 38.076698 -0.021213
10.737438 38.076698 0.026071
11.052790 38.076698 0.058577
11.368139 38.076698 0.116990
11.683489 38.076698 0.174790
11.998838 38.076698 0.192826
12.314190 38.076698 0.240189
12.629539 38.076698 0.350905
12.944889 38.076698 0.371857
13.260239 38.076698 0.485388
13.575588 38.076698 0.587296
13.890940 38.076698 0.499340
14.206289 38.076698 0.502977
14.521639 38.076698 0.601856
14.836988 38.076698 0.692838
15.152340 38.076698 0.799058
15.467690 38.076698 1.111733
15.783039 38.076698 1.166955
16.098389 38.076698 0.000000
16.413738 38.076698 0.000000
16.729090 38.076698 0.000000
17.044439 38.076698 0.000000
17.359789 38.076698 0.000000
17.675138 38.076698 0.000000
17.990490 38.076698 0.000000
18.305840 38.076698 0.000000
18.621189 38.076698 0.000000
18.936539 38.076698 0.000000
19.251888 38.076698 0.000000
-7.237510 37.761353 0.000000
-6.922160 37.761353 0.000000
-6.606810 37.761353 0.001781
-6.291460 37.761353 0.000499
-5.976110 37.761353 0.000679
-5.660760 37.761353 0.000809
-5.345410 37.761353 0.000748
-5.030060 37.761353 0.000556
-4.714710 37.761353 0.000366
-4.399360 37.761353 0.000485
-4.084010 37.761353 0.000480
-3.768660 37.761353 0.000335
-3.453310 37.761353 0.000521
-3.137960 37.761353 0.000911
-2.822610 37.761353 0.001289
-2.507260 37.761353 0.001849
-2.191910 37.761353 0.002406
-1.876560 37.761353 0.002720
-1.561210 37.761353 0.002968
-1.245860 37.761353 0.003439
-0.930510 37.761353 0.003245
-0.615160 37.761353 0.002442
-0.299810 37.761353 0.001563
0.015540 37.761353 0.000925
0.330890 37.761353 0.000100
0.646240 37.761353 -0.000777
0.961589 37.761353 -0.001649
1.276940 37.761353 -0.002408
1.592289 37.761353 -0.003006
1.907640 37.761353 -0.003091
2.222990 37.761353 -0.002287
2.538340 37.761353 -0.001334
2.853690 37.761353 -0.000276
3.169039 37.761353 0.000689
3.484390 37.761353 0.001869
3.799739 37.761353 0.003520
4.115090 37.761353 0.004746
4.430439 37.761353 0.004950
4.745790 37.761353 0.004641
5.061140 37.761353 0.004338
5.376490 37.761353 0.003556
5.691840 37.761353 0.001974
6.007189 37.761353 0.000213
6.322540 37.761353 -0.001426
6.637889 37.761353 -0.003636
6.953240 37.761353 -0.005911
7.268589 37.761353 -0.007239
7.583940 37.761353 -0.009295
7.899290 37.761353 -0.009580
8.214640 37.761353 -0.008806
8.529989 37.761353 -0.006550
8.845339 37.761353 -0.001984
9.160688 37.761353 -0.003070
9.476040 37.761353 -0.001235
9.791389 37.761353 -0.004532
10.106739 37.761353 -0.009837
10.422089 37.761353 -0.005326
10.737438 37.761353 0.019463
11.052790 37.761353 0.085028
11.368139 37.761353 0.145264
11.683489 37.761353 0.223672
11.998838 37.761353 0.237736
12.314190 37.761353 0.262213
12.629539 37.761353 0.405332
12.944889 37.761353 0.376240
13.260239 37.761353 0.416368
13.575588 37.761353 0.507886
13.890940 37.761353 0.556738
14.206289 37.761353 0.525437
14.521639 37.761353 0.553459
14.836988 37.761353 0.628378
15.152340 37.761353 0.817520
15.467690 37.761353 1.077711
15.783039 37.761353 1.294426
16.098389 37.761353 0.000000
16.413738 37.761353 0.000000
16.729090 37.761353 0.000000
17.044439 37.761353 0.000000
17.359789 37.761353 0.000000
17.675138 37.761353 0.000000
17.990490 37.761353 0.000000
18.305840 37.761353 0.000000
18.621189 37.761353 0.000000
18.936539 37.761353 0.000000
19.251888 37.761353 0.000000
-7.237510 37.445999 0.000000
-6.922160 37.445999 0.000000
-6.606810 37.445999 0.002063
-6.291460 37.445999 0.000650
-5.976110 37.445999 0.000562
-5.660760 37.445999 0.000478
-5.345410 37.445999 0.000305
-5.030060 37.445999 0.000226
-4.714710 37.445999 0.000223
-4.399360 37.445999 0.000315
-4.084010 37.445999 0.000201
-3.768660 37.445999 0.000009
-3.453310 37.445999 0.000219
-3.137960 37.445999 0.000606
-2.822610 37.445999 0.001106
-2.507260 37.445999 0.001893
-2.191910 37.445999 0.002707
-1.876560 37.445999 0.003192
-1.561210 37.445999 0.003594
-1.245860 37.445999 0.004152
-0.930510 37.445999 0.003980
-0.615160 37.445999 0.003131
-0.299810 37.445999 0.002277
0.015540 37.445999 0.001806
0.330890 37.445999 0.000836
0.646240 37.445999 -0.000293
0.961589 37.445999 -0.001471
1.276940 37.445999 -0.002609
1.592289 37.445999 -0.003502
1.907640 37.445999 -0.003889
2.222990 37.445999 -0.003224
2.538340 37.445999 -0.002109
2.853690 37.445999 -0.000858
3.169039 37.445999 0.000372
3.484390 37.445999 0.001555
3.799739 37.445999 0.002994
4.115090 37.445999 0.004390
4.430439 37.445999 0.005053
4.745790 37.445999 0.005247
5.061140 37.445999 0.005174
5.376490 37.445999 0.004347
5.691840 37.445999 0.002804
6.007189 37.445999 0.001095
6.322540 37.445999 -0.000515
6.637889 37.445999 -0.002964
6.953240 37.445999 -0.005755
7.268589 37.445999 -0.007772
7.583940 37.445999 -0.009456
7.899290 37.445999 -0.010939
8.214640 37.445999 -0.009365
8.529989 37.445999 -0.010226
8.845339 37.445999 -0.003597
9.160688 37.445999 0.007959
9.476040 37.445999 0.008361
9.791389 37.445999 0.005737
10.106739 37.445999 -0.002951
10.422089 37.445999 0.000403
10.737438 37.445999 -0.008607
11.052790 37.445999 0.048288
11.368139 37.445999 0.104725
11.683489 37.445999 0.184092
11.998838 37.445999 0.285819
12.314190 37.445999 0.329982
12.629539 37.445999 0.315376
12.944889 37.445999 0.346410
13.260239 37.445999 0.419582
13.575588 37.445999 0.525347
13.890940 37.445999 0.478103
14.206289 37.445999 0.542649
14.521639 37.445999 0.590495
14.836988 37.445999 0.652513
15.152340 37.445999 0.789786
15.467690 37.445999 1.047764
15.783039 37.445999 1.124882
16.098389 37.445999 0.000000
16.413738 37.445999 0.000000
16.729090 37.445999 0.000000
17.044439 37.445999 0.000000
17.359789 37.445999 0.000000
17.675138 37.445999 0.000000
17.990490 37.445999 0.000000
18.305840 37.445999 0.000000
18.621189 37.445999 0.000000
18.936539 37.445999 0.000000
19.251888 37.445999 0.000000
-7.237510 37.130650 0.000000
-6.922160 37.130650 0.000000
-6.606810 37.130650 0.002482
-6.291460 37.130650 0.000871
-5.976110 37.130650 0.000605
-5.660760 37.130650 0.000218
-5.345410 37.130650 0.000048
-5.030060 37.130650 0.000086
-4.714710 37.130650 0.000158
-4.399360 37.130650 0.000178
-4.084010 37.130650 -0.000141
-3.768660 37.130650 -0.000371
-3.453310 37.130650 -0.000264
-3.137960 37.130650 0.000066
-2.822610 37.130650 0.000677
-2.507260 37.130650 0.001733
-2.191910 37.130650 0.002864
-1.876560 37.130650 0.003564
-1.561210 37.130650 0.004067
-1.245860 37.130650 0.004718
-0.930510 37.130650 0.004467
-0.615160 37.130650 0.003738
-0.299810 37.130650 0.003143
0.015540 37.130650 0.002728
0.330890 37.130650 0.001628
0.646240 37.130650 0.000206
0.961589 37.130650 -0.001199
1.276940 37.130650 -0.002522
1.592289 37.130650 -0.003704
1.907640 37.130650 -0.004463
2.222990 37.130650 -0.004248
2.538340 37.130650 -0.003105
2.853690 37.130650 -0.001620
3.169039 37.130650 -0.000231
3.484390 37.130650 0.000976
3.799739 37.130650 0.002263
4.115090 37.130650 0.003800
4.430439 37.130650 0.004914
4.745790 37.130650 0.005660
5.061140 37.130650 0.005854
5.376490 37.130650 0.005147
5.691840 37.130650 0.003632
6.007189 37.130650 0.001992
6.322540 37.130650 0.000352
6.637889 37.130650 -0.002000
6.953240 37.130650 -0.005060
7.268589 37.130650 -0.008175
7.583940 37.130650 -0.009891
7.899290 37.130650 -0.011027
8.214640 37.130650 -0.012327
8.529989 37.130650 -0.011446
8.845339 37.130650 -0.007262
9.160688 37.130650 0.000047
9.476040 37.130650 0.016301
9.791389 37.130650 0.001119
10.106739 37.130650 0.001172
10.422089 37.130650 -0.008945
10.737438 37.130650 -0.020455
11.052790 37.130650 0.035328
11.368139 37.130650 0.126982
11.683489 37.130650 0.158516
11.998838 37.130650 0.254964
12.314190 37.130650 0.258471
12.629539 37.130650 0.291406
12.944889 37.130650 0.360061
13.260239 37.130650 0.424519
13.575588 37.130650 0.421203
13.890940 37.130650 0.479518
14.206289 37.130650 0.514100
14.521639 37.130650 0.571021
14.836988 37.130650 0.676969
15.152340 37.130650 0.823193
15.467690 37.130650 0.966483
15.783039 37.130650 1.060954
16.098389 37.130650 0.000000
16.413738 37.130650 0.000000
16.729090 37.130650 0.000000
17.044439 37.130650 0.000000
17.359789 37.130650 0.000000
17.675138 37.130650 0.000000
17.990490 37.130650 0.000000
18.305840 37.130650 0.000000
18.621189 37.130650 0.000000
18.936539 37.130650 0.000000
19.251888 37.130650 0.000000
-7.237510 36.815300 0.000000
-6.922160 36.815300 0.000000
-6.606810 36.815300 0.003051
-6.291460 36.815300 0.001347
-5.976110 36.815300 0.000957
-5.660760 36.815300 0.000354
-5.345410 36.815300 0.000013
-5.030060 36.815300 0.000168
-4.714710 36.815300 0.000237
-4.399360 36.815300 0.000125
-4.084010 36.815300 -0.000449
-3.768660 36.815300 -0.000738
-3.453310 36.815300 -0.000819
-3.137960 36.815300 -0.000588
-2.822610 36.815300 0.000078
-2.507260 36.815300 0.001378
-2.191910 36.815300 0.002844
-1.876560 36.815300 0.003762
-1.561210 36.815300 0.004406
-1.245860 36.815300 0.004934
-0.930510 36.815300 0.004735
-0.615160 36.815300 0.004265
-0.299810 36.815300 0.003981
0.015540 36.815300 0.003636
0.330890 36.815300 0.002479
0.646240 36.815300 0.000799
0.961589 36.815300 -0.000722
1.276940 36.815300 -0.002149
1.592289 36.815300 -0.003625
1.907640 36.815300 -0.004723
2.222990 36.815300 -0.004944
2.538340 36.815300 -0.004016
2.853690 36.815300 -0.002624
3.169039 36.815300 -0.001272
3.484390 36.815300 0.000013
3.799739 36.815300 0.001252
4.115090 36.815300 0.003047
4.430439 36.815300 0.004534
4.745790 36.815300 0.005842
5.061140 36.815300 0.006390
5.376490 36.815300 0.005988
5.691840 36.815300 0.004490
6.007189 36.815300 0.002787
6.322540 36.815300 0.001012
6.637889 36.815300 -0.001329
6.953240 36.815300 -0.004174
7.268589 36.815300 -0.007214
7.583940 36.815300 -0.009611
7.899290 36.815300 -0.009746
8.214640 36.815300 -0.012463
8.529989 36.815300 -0.009378
8.845339 36.815300 -0.003950
9.160688 36.815300 -0.003265
9.476040 36.815300 0.005955
9.791389 36.815300 0.007257
10.106739 36.815300 -0.001323
10.422089 36.815300 -0.014461
10.737438 36.815300 0.022799
11.052790 36.815300 0.053423
11.368139 36.815300 0.109760
11.683489 36.815300 0.161547
11.998838 36.815300 0.171073
12.314190 36.815300 0.231267
12.629539 36.815300 0.345156
12.944889 36.815300 0.351166
13.260239 36.815300 0.449279
13.575588 36.815300 0.492774
13.890940 36.815300 0.502149
14.206289 36.815300 0.574251
14.521639 36.815300 0.645503
14.836988 36.815300 0.704673
15.152340 36.815300 0.821110
15.467690 36.815300 0.934693
15.783039 36.815300 0.906288
16.098389 36.815300 0.000000
16.413738 36.815300 0.000000
16.729090 36.815300 0.000000
17.044439 36.815300 0.000000
17.359789 36.815300 0.000000
17.675138 36.815300 0.000000
17.990490 36.815300 0.000000
18.305840 36.815300 0.000000
18.621189 36.815300 0.000000
18.936539 36.815300 0.000000
19.251888 36.815300 0.000000
-7.237510 36.499950 0.000000
-6.922160 36.499950 0.000000
-6.606810 36.499950 0.003891
-6.291460 36.499950 0.002035
-5.976110 36.499950 0.001663
-5.660760 36.499950 0.000940
-5.345410 36.499950 0.000436
-5.030060 36.499950 0.000522
-4.714710 36.499950 0.000419
-4.399360 36.499950 0.000112
-4.084010 36.499950 -0.000677
-3.768660 36.499950 -0.000989
-3.453310 36.499950 -0.001317
-3.137960 36.499950 -0.001256
-2.822610 36.499950 -0.000546
-2.507260 36.499950 0.000836
-2.191910 36.499950 0.002471
-1.876560 36.499950 0.003656
-1.561210 36.499950 0.004501
-1.245860 36.499950 0.005021
-0.930510 36.499950 0.004889
-0.615160 36.499950 0.004789
-0.299810 36.499950 0.004803
0.015540 36.499950 0.004455
0.330890 36.499950 0.003317
0.646240 36.499950 0.001478
0.961589 36.499950 -0.000048
1.276940 36.499950 -0.001530
1.592289 36.499950 -0.003146
1.907640 36.499950 -0.004592
2.222990 36.499950 -0.005420
2.538340 36.499950 -0.004884
2.853690 36.499950 -0.003721
3.169039 36.499950 -0.002412
3.484390 36.499950 -0.001169
3.799739 36.499950 0.000315
4.115090 36.499950 0.002250
4.430439 36.499950 0.004046
4.745790 36.499950 0.005653
5.061140 36.499950 0.006714
5.376490 36.499950 0.006577
5.691840 36.499950 0.005217
6.007189 36.499950 0.003395
6.322540 36.499950 0.001371
6.637889 36.499950 -0.000836
6.953240 36.499950 -0.003488
7.268589 36.499950 -0.006594
7.583940 36.499950 -0.009126
7.899290 36.499950 -0.009503
8.214640 36.499950 -0.012057
8.529989 36.499950 -0.012749
8.845339 36.499950 -0.007180
9.160688 36.499950 -0.002432
9.476040 36.499950 -0.005897
9.791389 36.499950 0.002817
10.106739 36.499950 -0.005853
10.422089 36.499950 -0.001043
10.737438 36.499950 0.024517
11.052790 36.499950 0.059435
11.368139 36.499950 0.106116
11.683489 36.499950 0.154636
11.998838 36.499950 0.192727
12.314190 36.499950 0.266908
12.629539 36.499950 0.347263
12.944889 36.499950 0.442954
13.260239 36.499950 0.536795
13.575588 36.499950 0.470057
13.890940 36.499950 0.543308
14.206289 36.499950 0.497879
14.521639 36.499950 0.644600
14.836988 36.499950 0.748214
15.152340 36.499950 0.858014
15.467690 36.499950 0.873057
15.783039 36.499950 0.932794
16.098389 36.499950 0.000000
16.413738 36.499950 0.000000
16.729090 36.499950 0.000000
17.044439 36.499950 0.000000
17.359789 36.499950 0.000000
17.675138 36.499950 0.000000
17.990490 36.499950 0.000000
18.305840 36.499950 0.000000
18.621189 36.499950 0.000000
18.936539 36.499950 0.000000
19.251888 36.499950 0.000000
-7.237510 36.184601 0.000000
-6.922160 36.184601 0.000000
-6.606810 36.184601 0.004925
-6.291460 36.184601 0.002987
-5.976110 36.184601 0.002619
-5.660760 36.184601 0.001866
-5.345410 36.184601 0.001290
-5.030060 36.184601 0.000994
-4.714710 36.184601 0.000572
-4.399360 36.184601 -0.000039
-4.084010 36.184601 -0.000825
-3.768660 36.184601 -0.001299
-3.453310 36.184601 -0.001837
-3.137960 36.184601 -0.001853
-2.822610 36.184601 -0.001112
-2.507260 36.184601 0.000106
-2.191910 36.184601 0.001759
-1.876560 36.184601 0.003305
-1.561210 36.184601 0.004271
-1.245860 36.184601 0.004930
-0.930510 36.184601 0.005168
-0.615160 36.184601 0.005432
-0.299810 36.184601 0.005564
0.015540 36.184601 0.005218
0.330890 36.184601 0.004043
0.646240 36.184601 0.002342
0.961589 36.184601 0.000748
1.276940 36.184601 -0.000812
1.592289 36.184601 -0.002442
1.907640 36.184601 -0.004129
2.222990 36.184601 -0.005582
2.538340 36.184601 -0.005528
2.853690 36.184601 -0.004724
3.169039 36.184601 -0.003581
3.484390 36.184601 -0.002277
3.799739 36.184601 -0.000649
4.115090 36.184601 0.001325
4.430439 36.184601 0.003396
4.745790 36.184601 0.005387
5.061140 36.184601 0.006791
5.376490 36.184601 0.007043
5.691840 36.184601 0.005948
6.007189 36.184601 0.004043
6.322540 36.184601 0.001785
6.637889 36.184601 -0.000599
6.953240 36.184601 -0.003392
7.268589 36.184601 -0.005992
7.583940 36.184601 -0.008715
7.899290 36.184601 -0.010452
8.214640 36.184601 -0.013381
8.529989 36.184601 -0.011165
8.845339 36.184601 -0.010669
9.160688 36.184601 0.003417
9.476040 36.184601 -0.001808
9.791389 36.184601 -0.010323
10.106739 36.184601 -0.004023
10.422089 36.184601 -0.002194
10.737438 36.184601 0.036022
11.052790 36.184601 0.079864
11.368139 36.184601 0.134606
11.683489 36.184601 0.176316
11.998838 36.184601 0.251283
12.314190 36.184601 0.278924
12.629539 36.184601 0.361344
12.944889 36.184601 0.495441
13.260239 36.184601 0.512059
13.575588 36.184601 0.423996
13.890940 36.184601 0.495112
14.206289 36.184601 0.586865
14.521639 36.184601 0.623613
14.836988 36.184601 0.837355
15.152340 36.184601 0.881991
15.467690 36.184601 0.779185
15.783039 36.184601 0.876393
16.098389 36.184601 0.000000
16.413738 36.184601 0.000000
16.729090 36.184601 0.000000
17.044439 36.184601 0.000000
17.359789 36.184601 0.000000
17.675138 36.184601 0.000000
17.990490 36.184601 0.000000
18.305840 36.184601 0.000000
18.621189 36.184601 0.000000
18.936539 36.184601 0.000000
19.251888 36.184601 0.000000
-7.237510 35.869251 0.000000
-6.922160 35.869251 0.000000
-6.606810 35.869251 0.006003
-6.291460 35.869251 0.004068
-5.976110 35.869251 0.003714
-5.660760 35.869251 0.003021
-5.345410 35.869251 0.002339
-5.030060 35.869251 0.001727
-4.714710 35.869251 0.000822
-4.399360 35.869251 -0.000161
-4.084010 35.869251 -0.000858
-3.768660 35.869251 -0.001496
-3.453310 35.869251 -0.002108
-3.137960 35.869251 -0.002306
-2.822610 35.869251 -0.001783
-2.507260 35.869251 -0.000765
-2.191910 35.869251 0.000838
-1.876560 35.869251 0.002581
-1.561210 35.869251 0.003807
-1.245860 35.869251 0.004763
-0.930510 35.869251 0.005413
-0.615160 35.869251 0.006097
-0.299810 35.869251 0.006266
0.015540 35.869251 0.005838
0.330890 35.869251 0.004784
0.646240 35.869251 0.003389
0.961589 35.869251 0.001701
1.276940 35.869251 0.000048
1.592289 35.869251 -0.001638
1.907640 35.869251 -0.003588
2.222990 35.869251 -0.005334
2.538340 35.869251 -0.006055
2.853690 35.869251 -0.005652
3.169039 35.869251 -0.004657
3.484390 35.869251 -0.003214
3.799739 35.869251 -0.001334
4.115090 35.869251 0.000624
4.430439 35.869251 0.002664
4.745790 35.869251 0.004847
5.061140 35.869251 0.006736
5.376490 35.869251 0.007366
5.691840 35.869251 0.006582
6.007189 35.869251 0.004682
6.322540 35.869251 0.002524
6.637889 35.869251 -0.000019
6.953240 35.869251 -0.002659
7.268589 35.869251 -0.005008
7.583940 35.869251 -0.008058
7.899290 35.869251 -0.010643
8.214640 35.869251 -0.012542
8.529989 35.869251 -0.010900
8.845339 35.869251 -0.006151
9.160688 35.869251 0.000579
9.476040 35.869251 0.007787
9.791389 35.869251 0.009319
10.106739 35.869251 0.001518
10.422089 35.869251 0.028043
10.737438 35.869251 0.046305
11.052790 35.869251 0.097132
11.368139 35.869251 0.121972
11.683489 35.869251 0.174147
11.998838 35.869251 0.254758
12.314190 35.869251 0.279678
12.629539 35.869251 0.299376
12.944889 35.869251 0.384576
13.260239 35.869251 0.442158
13.575588 35.869251 0.481145
13.890940 35.869251 0.508826
14.206289 35.869251 0.506049
14.521639 35.869251 0.566959
14.836988 35.869251 0.832964
15.152340 35.869251 0.852651
15.467690 35.869251 0.793333
15.783039 35.869251 0.723048
16.098389 35.869251 0.000000
16.413738 35.869251 0.000000
16.729090 35.869251 0.000000
17.044439 35.869251 0.000000
17.359789 35.869251 0.000000
17.675138 35.869251 0.000000
17.990490 35.869251 0.000000
18.305840 35.869251 0.000000
18.621189 35.869251 0.000000
18.936539 35.869251 0.000000
19.251888 35.869251 0.000000
-7.237510 35.553902 0.000000
-6.922160 35.553902 -0.056417
-6.606810 35.553902 0.006951
-6.291460 35.553902 0.005352
-5.976110 35.553902 0.005057
-5.660760 35.553902 0.004372
-5.345410 35.553902 0.003517
-5.030060 35.553902 0.002684
-4.714710 35.553902 0.001338
-4.399360 35.553902 0.000043
-4.084010 35.553902 -0.000952
-3.768660 35.553902 -0.001548
-3.453310 35.553902 -0.002249
-3.137960 35.553902 -0.002459
-2.822610 35.553902 -0.002177
-2.507260 35.553902 -0.001534
-2.191910 35.553902 -0.000031
-1.876560 35.553902 0.001687
-1.561210 35.553902 0.003239
-1.245860 35.553902 0.004543
-0.930510 35.553902 0.005594
-0.615160 35.553902 0.006523
-0.299810 35.553902 0.006878
0.015540 35.553902 0.006478
0.330890 35.553902 0.005550
0.646240 35.553902 0.004398
0.961589 35.553902 0.002855
1.276940 35.553902 0.000953
1.592289 35.553902 -0.000990
1.907640 35.553902 -0.003043
2.222990 35.553902 -0.004968
2.538340 35.553902 -0.006284
2.853690 35.553902 -0.006510
3.169039 35.553902 -0.005548
3.484390 35.553902 -0.003959
3.799739 35.553902 -0.001979
4.115090 35.553902 0.000109
4.430439 35.553902 0.002046
4.745790 35.553902 0.004493
5.061140 35.553902 0.006561
5.376490 35.553902 0.007561
5.691840 35.553902 0.007036
6.007189 35.553902 0.005448
6.322540 35.553902 0.003063
6.637889 35.553902 0.000532
6.953240 35.553902 -0.001833
7.268589 35.553902 -0.004604
7.583940 35.553902 -0.007874
7.899290 35.553902 -0.010254
8.214640 35.553902 -0.011113
8.529989 35.553902 -0.009692
8.845339 35.553902 -0.005012
9.160688 35.553902 0.001865
9.476040 35.553902 0.011549
9.791389 35.553902 0.000911
10.106739 35.553902 0.005288
10.422089 35.553902 0.020982
10.737438 35.553902 0.054519
11.052790 35.553902 0.095353
11.368139 35.553902 0.114882
11.683489 35.553902 0.161313
11.998838 35.553902 0.315288
12.314190 35.553902 0.322706
12.629539 35.553902 0.387969
12.944889 35.553902 0.349462
13.260239 35.553902 0.426269
13.575588 35.553902 0.445104
13.890940 35.553902 0.458578
14.206289 35.553902 0.587210
14.521639 35.553902 0.683600
14.836988 35.553902 0.823556
15.152340 35.553902 0.984714
15.467690 35.553902 0.904179
15.783039 35.553902 0.763434
16.098389 35.553902 0.000000
16.413738 35.553902 0.000000
16.729090 35.553902 0.000000
17.044439 35.553902 0.000000
17.359789 35.553902 0.000000
17.675138 35.553902 0.000000
17.990490 35.553902 0.000000
18.305840 35.553902 0.000000
18.621189 35.553902 0.000000
18.936539 35.553902 0.000000
19.251888 35.553902 0.000000
-7.237510 35.238552 0.000000
-6.922160 35.238552 0.164535
-6.606810 35.238552 0.007773
-6.291460 35.238552 0.006451
-5.976110 35.238552 0.006519
-5.660760 35.238552 0.005838
-5.345410 35.238552 0.004974
-5.030060 35.238552 0.003828
-4.714710 35.238552 0.002294
-4.399360 35.238552 0.000535
-4.084010 35.238552 -0.000636
-3.768660 35.238552 -0.001362
-3.453310 35.238552 -0.001996
-3.137960 35.238552 -0.002386
-2.822610 35.238552 -0.002351
-2.507260 35.238552 -0.001925
-2.191910 35.238552 -0.000806
-1.876560 35.238552 0.000840
-1.561210 35.238552 0.002617
-1.245860 35.238552 0.004351
-0.930510 35.238552 0.005757
-0.615160 35.238552 0.006858
-0.299810 35.238552 0.007287
0.015540 35.238552 0.006972
0.330890 35.238552 0.006219
0.646240 35.238552 0.005366
0.961589 35.238552 0.003941
1.276940 35.238552 0.001839
1.592289 35.238552 -0.000397
1.907640 35.238552 -0.002580
2.222990 35.238552 -0.004653
2.538340 35.238552 -0.006487
2.853690 35.238552 -0.007086
3.169039 35.238552 -0.006222
3.484390 35.238552 -0.004430
3.799739 35.238552 -0.002360
4.115090 35.238552 -0.000232
4.430439 35.238552 0.001642
4.745790 35.238552 0.004193
5.061140 35.238552 0.006326
5.376490 35.238552 0.007566
5.691840 35.238552 0.007370
6.007189 35.238552 0.005979
6.322540 35.238552 0.003910
6.637889 35.238552 0.001146
6.953240 35.238552 -0.001501
7.268589 35.238552 -0.004802
7.583940 35.238552 -0.007630
7.899290 35.238552 -0.011054
8.214640 35.238552 -0.012581
8.529989 35.238552 -0.009143
8.845339 35.238552 -0.002199
9.160688 35.238552 0.004273
9.476040 35.238552 0.006176
9.791389 35.238552 0.003987
10.106739 35.238552 -0.009964
10.422089 35.238552 0.022765
10.737438 35.238552 0.047544
11.052790 35.238552 0.062845
11.368139 35.238552 0.099630
11.683489 35.238552 0.158053
11.998838 35.238552 0.263052
12.314190 35.238552 0.335277
12.629539 35.238552 0.366243
12.944889 35.238552 0.395128
13.260239 35.238552 0.430206
13.575588 35.238552 0.435117
13.890940 35.238552 0.520944
14.206289 35.238552 0.652149
14.521639 35.238552 0.679896
14.836988 35.238552 0.889339
15.152340 35.238552 0.953785
15.467690 35.238552 1.013189
15.783039 35.238552 0.843436
16.098389 35.238552 0.000000
16.413738 35.238552 0.000000
16.729090 35.238552 0.000000
17.044439 35.238552 0.000000
17.359789 35.238552 0.000000
17.675138 35.238552 0.000000
17.990490 35.238552 0.000000
18.305840 35.238552 0.000000
18.621189 35.238552 0.000000
18.936539 35.238552 0.000000
19.251888 35.238552 0.000000
-7.237510 34.923203 0.000000
-6.922160 34.923203 0.050853
-6.606810 34.923203 0.008429
-6.291460 34.923203 0.007470
-5.976110 34.923203 0.007895
-5.660760 34.923203 0.007336
-5.345410 34.923203 0.006371
-5.030060 34.923203 0.005022
-4.714710 34.923203 0.003334
-4.399360 34.923203 0.001414
-4.084010 34.923203 0.000099
-3.768660 34.923203 -0.000794
-3.453310 34.923203 -0.001624
-3.137960 34.923203 -0.002196
-2.822610 34.923203 -0.002422
-2.507260 34.923203 -0.002309
-2.191910 34.923203 -0.001540
-1.876560 34.923203 0.000037
-1.561210 34.923203 0.002074
-1.245860 34.923203 0.004161
-0.930510 34.923203 0.005846
-0.615160 34.923203 0.007164
-0.299810 34.923203 0.007595
0.015540 34.923203 0.007383
0.330890 34.923203 0.006866
0.646240 34.923203 0.006264
0.961589 34.923203 0.004787
1.276940 34.923203 0.002515
1.592289 34.923203 0.000047
1.907640 34.923203 -0.002142
2.222990 34.923203 -0.004479
2.538340 34.923203 -0.006475
2.853690 34.923203 -0.007449
3.169039 34.923203 -0.006631
3.484390 34.923203 -0.004753
3.799739 34.923203 -0.002472
4.115090 34.923203 -0.000267
4.430439 34.923203 0.001742
4.745790 34.923203 0.004157
5.061140 34.923203 0.006111
5.376490 34.923203 0.007390
5.691840 34.923203 0.007677
6.007189 34.923203 0.006695
6.322540 34.923203 0.004647
6.637889 34.923203 0.001815
6.953240 34.923203 -0.001384
7.268589 34.923203 -0.004936
7.583940 34.923203 -0.007610
7.899290 34.923203 -0.010125
8.214640 34.923203 -0.009150
8.529989 34.923203 -0.007207
8.845339 34.923203 -0.000977
9.160688 34.923203 0.007214
9.476040 34.923203 0.007569
9.791389 34.923203 0.000193
10.106739 34.923203 -0.013510
10.422089 34.923203 0.019742
10.737438 34.923203 0.056724
11.052790 34.923203 0.092187
11.368139 34.923203 0.086223
11.683489 34.923203 0.156254
11.998838 34.923203 0.212137
12.314190 34.923203 0.281121
12.629539 34.923203 0.349888
12.944889 34.923203 0.409127
13.260239 34.923203 0.504318
13.575588 34.923203 0.477885
13.890940 34.923203 0.596786
14.206289 34.923203 0.660768
14.521639 34.923203 0.762162
14.836988 34.923203 0.869418
15.152340 34.923203 1.086477
15.467690 34.923203 1.076619
15.783039 34.923203 1.005921
16.098389 34.923203 0.000000
16.413738 34.923203 0.000000
16.729090 34.923203 0.000000
17.044439 34.923203 0.000000
17.359789 34.923203 0.000000
17.675138 34.923203 0.000000
17.990490 34.923203 0.000000
18.305840 34.923203 0.000000
18.621189 34.923203 0.000000
18.936539 34.923203 0.000000
19.251888 34.923203 0.000000
-7.237510 34.607849 0.000000
-6.922160 34.607849 0.030468
-6.606810 34.607849 0.008908
-6.291460 34.607849 0.008229
-5.976110 34.607849 0.009020
-5.660760 34.607849 0.008670
-5.345410 34.607849 0.007637
-5.030060 34.607849 0.006259
-4.714710 34.607849 0.004420
-4.399360 34.607849 0.002501
-4.084010 34.607849 0.000973
-3.768660 34.607849 -0.000151
-3.453310 34.607849 -0.001282
-3.137960 34.607849 -0.002213
-2.822610 34.607849 -0.002711
-2.507260 34.607849 -0.002757
-2.191910 34.607849 -0.002196
-1.876560 34.607849 -0.000558
-1.561210 34.607849 0.001775
-1.245860 34.607849 0.004051
-0.930510 34.607849 0.005943
-0.615160 34.607849 0.007286
-0.299810 34.607849 0.008025
0.015540 34.607849 0.008044
0.330890 34.607849 0.007638
0.646240 34.607849 0.007029
0.961589 34.607849 0.005493
1.276940 34.607849 0.003132
1.592289 34.607849 0.000480
1.907640 34.607849 -0.001920
2.222990 34.607849 -0.004318
2.538340 34.607849 -0.006284
2.853690 34.607849 -0.007470
3.169039 34.607849 -0.006810
3.484390 34.607849 -0.004986
3.799739 34.607849 -0.002614
4.115090 34.607849 -0.000215
4.430439 34.607849 0.002018
4.745790 34.607849 0.004179
5.061140 34.607849 0.005955
5.376490 34.607849 0.007173
5.691840 34.607849 0.007800
6.007189 34.607849 0.007087
6.322540 34.607849 0.005235
6.637889 34.607849 0.002544
6.953240 34.607849 -0.001285
7.268589 34.607849 -0.004848
7.583940 34.607849 -0.008147
7.899290 34.607849 -0.009617
8.214640 34.607849 -0.009408
8.529989 34.607849 -0.006398
8.845339 34.607849 -0.005470
9.160688 34.607849 0.001716
9.476040 34.607849 0.003711
9.791389 34.607849 -0.003284
10.106739 34.607849 -0.003040
10.422089 34.607849 0.028690
10.737438 34.607849 0.065393
11.052790 34.607849 0.085007
11.368139 34.607849 0.091302
11.683489 34.607849 0.139401
11.998838 34.607849 0.232441
12.314190 34.607849 0.310992
12.629539 34.607849 0.360094
12.944889 34.607849 0.384305
13.260239 34.607849 0.506385
13.575588 34.607849 0.614330
13.890940 34.607849 0.623160
14.206289 34.607849 0.706907
14.521639 34.607849 0.741120
14.836988 34.607849 0.898176
15.152340 34.607849 0.987512
15.467690 34.607849 1.026335
15.783039 34.607849 0.925131
16.098389 34.607849 0.000000
16.413738 34.607849 0.000000
16.729090 34.607849 0.000000
17.044439 34.607849 0.000000
17.359789 34.607849 0.000000
17.675138 34.607849 0.000000
17.990490 34.607849 0.000000
18.305840 34.607849 0.000000
18.621189 34.607849 0.000000
18.936539 34.607849 0.000000
19.251888 34.607849 0.000000
-7.237510 34.292503 0.000000
-6.922160 34.292503 0.021698
-6.606810 34.292503 0.009332
-6.291460 34.292503 0.008648
-5.976110 34.292503 0.009859
-5.660760 34.292503 0.009639
-5.345410 34.292503 0.008724
-5.030060 34.292503 0.007327
-4.714710 34.292503 0.005470
-4.399360 34.292503 0.003498
-4.084010 34.292503 0.001784
-3.768660 34.292503 0.000397
-3.453310 34.292503 -0.001026
-3.137960 34.292503 -0.002420
-2.822610 34.292503 -0.003235
-2.507260 34.292503 -0.003246
-2.191910 34.292503 -0.002619
-1.876560 34.292503 -0.000765
-1.561210 34.292503 0.001751
-1.245860 34.292503 0.004090
-0.930510 34.292503 0.006059
-0.615160 34.292503 0.007709
-0.299810 34.292503 0.008524
0.015540 34.292503 0.008770
0.330890 34.292503 0.008484
0.646240 34.292503 0.007611
0.961589 34.292503 0.006014
1.276940 34.292503 0.003602
1.592289 34.292503 0.000602
1.907640 34.292503 -0.001936
2.222990 34.292503 -0.004145
2.538340 34.292503 -0.005909
2.853690 34.292503 -0.007108
3.169039 34.292503 -0.006730
3.484390 34.292503 -0.004862
3.799739 34.292503 -0.002441
4.115090 34.292503 0.000123
4.430439 34.292503 0.002262
4.745790 34.292503 0.004359
5.061140 34.292503 0.005883
5.376490 34.292503 0.006963
5.691840 34.292503 0.007614
6.007189 34.292503 0.007179
6.322540 34.292503 0.005678
6.637889 34.292503 0.003037
6.953240 34.292503 -0.000773
7.268589 34.292503 -0.004711
7.583940 34.292503 -0.007709
7.899290 34.292503 -0.009550
8.214640 34.292503 -0.008943
8.529989 34.292503 -0.008016
8.845339 34.292503 -0.003540
9.160688 34.292503 -0.001418
9.476040 34.292503 -0.000080
9.791389 34.292503 0.002026
10.106739 34.292503 -0.006000
10.422089 34.292503 0.037518
10.737438 34.292503 0.065986
11.052790 34.292503 0.063256
11.368139 34.292503 0.094866
11.683489 34.292503 0.150406
11.998838 34.292503 0.225004
12.314190 34.292503 0.345959
12.629539 34.292503 0.379937
12.944889 34.292503 0.407676
13.260239 34.292503 0.486887
13.575588 34.292503 0.686326
13.890940 34.292503 0.691928
14.206289 34.292503 0.718458
14.521639 34.292503 0.782555
14.836988 34.292503 0.828743
15.152340 34.292503 0.986770
15.467690 34.292503 1.100738
15.783039 34.292503 1.001766
16.098389 34.292503 0.000000
16.413738 34.292503 0.000000
16.729090 34.292503 0.000000
17.044439 34.292503 0.000000
17.359789 34.292503 0.000000
17.675138 34.292503 0.000000
17.990490 34.292503 0.000000
18.305840 34.292503 0.000000
18.621189 34.292503 0.000000
18.936539 34.292503 0.000000
19.251888 34.292503 0.000000
-7.237510 33.977150 0.000000
-6.922160 33.977150 0.017053
-6.606810 33.977150 0.009947
-6.291460 33.977150 0.009034
-5.976110 33.977150 0.010314
-5.660760 33.977150 0.010194
-5.345410 33.977150 0.009407
-5.030060 33.977150 0.008247
-4.714710 33.977150 0.006494
-4.399360 33.977150 0.004412
-4.084010 33.977150 0.002493
-3.768660 33.977150 0.000682
-3.453310 33.977150 -0.001065
-3.137960 33.977150 -0.002711
-2.822610 33.977150 -0.003650
-2.507260 33.977150 -0.003469
-2.191910 33.977150 -0.002619
-1.876560 33.977150 -0.000732
-1.561210 33.977150 0.001813
-1.245860 33.977150 0.004007
-0.930510 33.977150 0.006111
-0.615160 33.977150 0.007909
-0.299810 33.977150 0.009073
0.015540 33.977150 0.009384
0.330890 33.977150 0.009183
0.646240 33.977150 0.008056
0.961589 33.977150 0.006203
1.276940 33.977150 0.003949
1.592289 33.977150 0.000701
1.907640 33.977150 -0.002030
2.222990 33.977150 -0.004027
2.538340 33.977150 -0.005603
2.853690 33.977150 -0.006642
3.169039 33.977150 -0.006555
3.484390 33.977150 -0.004890
3.799739 33.977150 -0.002279
4.115090 33.977150 0.000340
4.430439 33.977150 0.002416
4.745790 33.977150 0.004519
5.061140 33.977150 0.006041
5.376490 33.977150 0.006793
5.691840 33.977150 0.007369
6.007189 33.977150 0.007105
6.322540 33.977150 0.005759
6.637889 33.977150 0.003224
6.953240 33.977150 -0.000597
7.268589 33.977150 -0.004744
7.583940 33.977150 -0.007962
7.899290 33.977150 -0.009293
8.214640 33.977150 -0.011728
8.529989 33.977150 -0.009844
8.845339 33.977150 -0.002002
9.160688 33.977150 -0.005401
9.476040 33.977150 0.001706
9.791389 33.977150 -0.003513
10.106739 33.977150 0.002382
10.422089 33.977150 0.018637
10.737438 33.977150 0.055919
11.052790 33.977150 0.070738
11.368139 33.977150 0.121993
11.683489 33.977150 0.154804
11.998838 33.977150 0.248604
12.314190 33.977150 0.324301
12.629539 33.977150 0.411622
12.944889 33.977150 0.470375
13.260239 33.977150 0.520226
13.575588 33.977150 0.624266
13.890940 33.977150 0.670426
14.206289 33.977150 0.722192
14.521639 33.977150 0.799138
14.836988 33.977150 0.992887
15.152340 33.977150 1.108935
15.467690 33.977150 1.170297
15.783039 33.977150 1.002827
16.098389 33.977150 0.000000
16.413738 33.977150 0.000000
16.729090 33.977150 0.000000
17.044439 33.977150 0.000000
17.359789 33.977150 0.000000
17.675138 33.977150 0.000000
17.990490 33.977150 0.000000
18.305840 33.977150 0.000000
18.621189 33.977150 0.000000
18.936539 33.977150 0.000000
19.251888 33.977150 0.000000
-7.237510 33.661800 0.000000
-6.922160 33.661800 0.016897
-6.606810 33.661800 0.010638
-6.291460 33.661800 0.009513
-5.976110 33.661800 0.010615
-5.660760 33.661800 0.010544
-5.345410 33.661800 0.009933
-5.030060 33.661800 0.008842
-4.714710 33.661800 0.007325
-4.399360 33.661800 0.005281
-4.084010 33.661800 0.003105
-3.768660 33.661800 0.000948
-3.453310 33.661800 -0.001095
-3.137960 33.661800 -0.003033
-2.822610 33.661800 -0.003800
-2.507260 33.661800 -0.003320
-2.191910 33.661800 -0.002302
-1.876560 33.661800 -0.000523
-1.561210 33.661800 0.001690
-1.245860 33.661800 0.003951
-0.930510 33.661800 0.006172
-0.615160 33.661800 0.007944
-0.299810 33.661800 0.009307
0.015540 33.661800 0.009856
0.330890 33.661800 0.009553
0.646240 33.661800 0.008195
0.961589 33.661800 0.006163
1.276940 33.661800 0.003965
1.592289 33.661800 0.000698
1.907640 33.661800 -0.002065
2.222990 33.661800 -0.003898
2.538340 33.661800 -0.005271
2.853690 33.661800 -0.006275
3.169039 33.661800 -0.006327
3.484390 33.661800 -0.004801
3.799739 33.661800 -0.002405
4.115090 33.661800 0.000151
4.430439 33.661800 0.002505
4.745790 33.661800 0.004553
5.061140 33.661800 0.005955
5.376490 33.661800 0.006747
5.691840 33.661800 0.007013
6.007189 33.661800 0.006799
6.322540 33.661800 0.005724
6.637889 33.661800 0.003355
6.953240 33.661800 -0.000450
7.268589 33.661800 -0.004544
7.583940 33.661800 -0.007405
7.899290 33.661800 -0.009474
8.214640 33.661800 -0.013455
8.529989 33.661800 -0.008911
8.845339 33.661800 -0.007926
9.160688 33.661800 -0.007170
9.476040 33.661800 0.000507
9.791389 33.661800 0.003089
10.106739 33.661800 -0.003104
10.422089 33.661800 0.013308
10.737438 33.661800 0.037386
11.052790 33.661800 0.066767
11.368139 33.661800 0.120842
11.683489 33.661800 0.189177
11.998838 33.661800 0.209574
12.314190 33.661800 0.249588
12.629539 33.661800 0.397832
12.944889 33.661800 0.563767
13.260239 33.661800 0.584273
13.575588 33.661800 0.554802
13.890940 33.661800 0.688649
14.206289 33.661800 0.737949
14.521639 33.661800 0.773529
14.836988 33.661800 0.989745
15.152340 33.661800 1.206057
15.467690 33.661800 1.378455
15.783039 33.661800 1.054080
16.098389 33.661800 0.000000
16.413738 33.661800 0.000000
16.729090 33.661800 0.000000
17.044439 33.661800 0.000000
17.359789 33.661800 0.000000
17.675138 33.661800 0.000000
17.990490 33.661800 0.000000
18.305840 33.661800 0.000000
18.621189 33.661800 0.000000
18.936539 33.661800 0.000000
19.251888 33.661800 0.000000
-7.237510 33.346451 0.000000
-6.922160 33.346451 0.015404
-6.606810 33.346451 0.011308
-6.291460 33.346451 0.010143
-5.976110 33.346451 0.010898
-5.660760 33.346451 0.010832
-5.345410 33.346451 0.010458
-5.030060 33.346451 0.009510
-4.714710 33.346451 0.008101
-4.399360 33.346451 0.006197
-4.084010 33.346451 0.003753
-3.768660 33.346451 0.001182
-3.453310 33.346451 -0.001231
-3.137960 33.346451 -0.003095
-2.822610 33.346451 -0.003832
-2.507260 33.346451 -0.003086
-2.191910 33.346451 -0.001936
-1.876560 33.346451 -0.000356
-1.561210 33.346451 0.001729
-1.245860 33.346451 0.003939
-0.930510 33.346451 0.006069
-0.615160 33.346451 0.007760
-0.299810 33.346451 0.009367
0.015540 33.346451 0.010054
0.330890 33.346451 0.009646
0.646240 33.346451 0.008215
0.961589 33.346451 0.006099
1.276940 33.346451 0.003784
1.592289 33.346451 0.000657
1.907640 33.346451 -0.001963
2.222990 33.346451 -0.003756
2.538340 33.346451 -0.005041
2.853690 33.346451 -0.005947
3.169039 33.346451 -0.006202
3.484390 33.346451 -0.005008
3.799739 33.346451 -0.002701
4.115090 33.346451 -0.000202
4.430439 33.346451 0.002504
4.745790 33.346451 0.004648
5.061140 33.346451 0.005986
5.376490 33.346451 0.006709
5.691840 33.346451 0.006722
6.007189 33.346451 0.006515
6.322540 33.346451 0.005295
6.637889 33.346451 0.002902
6.953240 33.346451 -0.000335
7.268589 33.346451 -0.004378
7.583940 33.346451 -0.007595
7.899290 33.346451 -0.009336
8.214640 33.346451 -0.009491
8.529989 33.346451 -0.011989
8.845339 33.346451 -0.003812
9.160688 33.346451 0.003394
9.476040 33.346451 0.008370
9.791389 33.346451 0.014591
10.106739 33.346451 0.007505
10.422089 33.346451 0.014517
10.737438 33.346451 0.047472
11.052790 33.346451 0.048763
11.368139 33.346451 0.122479
11.683489 33.346451 0.187650
11.998838 33.346451 0.217294
12.314190 33.346451 0.285915
12.629539 33.346451 0.409082
12.944889 33.346451 0.482361
13.260239 33.346451 0.612349
13.575588 33.346451 0.587895
13.890940 33.346451 0.583178
14.206289 33.346451 0.776915
14.521639 33.346451 0.878365
14.836988 33.346451 1.010384
15.152340 33.346451 1.213203
15.467690 33.346451 1.385782
15.783039 33.346451 1.103663
16.098389 33.346451 0.000000
16.413738 33.346451 0.000000
16.729090 33.346451 0.000000
17.044439 33.346451 0.000000
17.359789 33.346451 0.000000
17.675138 33.346451 0.000000
17.990490 33.346451 0.000000
18.305840 33.346451 0.000000
18.621189 33.346451 0.000000
18.936539 33.346451 0.000000
19.251888 33.346451 0.000000
-7.237510 33.031101 0.000000
-6.922160 33.031101 0.016021
-6.606810 33.031101 0.011810
-6.291460 33.031101 0.010738
-5.976110 33.031101 0.011166
-5.660760 33.031101 0.011284
-5.345410 33.031101 0.010950
-5.030060 33.031101 0.010063
-4.714710 33.031101 0.008769
-4.399360 33.031101 0.006871
-4.084010 33.031101 0.004224
-3.768660 33.031101 0.001319
-3.453310 33.031101 -0.001263
-3.137960 33.031101 -0.002918
-2.822610 33.031101 -0.003522
-2.507260 33.031101 -0.002796
-2.191910 33.031101 -0.001733
-1.876560 33.031101 -0.000281
-1.561210 33.031101 0.001745
-1.245860 33.031101 0.003874
-0.930510 33.031101 0.005728
-0.615160 33.031101 0.007618
-0.299810 33.031101 0.009251
0.015540 33.031101 0.009983
0.330890 33.031101 0.009715
0.646240 33.031101 0.008196
0.961589 33.031101 0.006010
1.276940 33.031101 0.003511
1.592289 33.031101 0.000699
1.907640 33.031101 -0.001883
2.222990 33.031101 -0.003754
2.538340 33.031101 -0.004893
2.853690 33.031101 -0.005957
3.169039 33.031101 -0.006296
3.484390 33.031101 -0.005286
3.799739 33.031101 -0.003213
4.115090 33.031101 -0.000512
4.430439 33.031101 0.002485
4.745790 33.031101 0.004749
5.061140 33.031101 0.006086
5.376490 33.031101 0.006656
5.691840 33.031101 0.006542
6.007189 33.031101 0.006175
6.322540 33.031101 0.004757
6.637889 33.031101 0.002569
6.953240 33.031101 -0.000282
7.268589 33.031101 -0.004209
7.583940 33.031101 -0.008067
7.899290 33.031101 -0.009173
8.214640 33.031101 -0.008246
8.529989 33.031101 -0.004816
8.845339 33.031101 0.000559
9.160688 33.031101 -0.000006
9.476040 33.031101 0.005194
9.791389 33.031101 0.007080
10.106739 33.031101 0.015166
10.422089 33.031101 0.030712
10.737438 33.031101 0.032263
11.052790 33.031101 0.076150
11.368139 33.031101 0.112173
11.683489 33.031101 0.162603
11.998838 33.031101 0.225273
12.314190 33.031101 0.309577
12.629539 33.031101 0.413687
12.944889 33.031101 0.407035
13.260239 33.031101 0.543312
13.575588 33.031101 0.586233
13.890940 33.031101 0.666781
14.206289 33.031101 0.723660
14.521639 33.031101 0.854880
14.836988 33.031101 0.965044
15.152340 33.031101 1.232386
15.467690 33.031101 1.367945
15.783039 33.031101 1.480632
16.098389 33.031101 0.000000
16.413738 33.031101 0.000000
16.729090 33.031101 0.000000
17.044439 33.031101 0.000000
17.359789 33.031101 0.000000
17.675138 33.031101 0.000000
17.990490 33.031101 0.000000
18.305840 33.031101 0.000000
18.621189 33.031101 0.000000
18.936539 33.031101 0.000000
19.251888 33.031101 0.000000
-7.237510 32.715752 0.000000
-6.922160 32.715752 0.015949
-6.606810 32.715752 0.012153
-6.291460 32.715752 0.011031
-5.976110 32.715752 0.011528
-5.660760 32.715752 0.011770
-5.345410 32.715752 0.011479
-5.030060 32.715752 0.010772
-4.714710 32.715752 0.009293
-4.399360 32.715752 0.007349
-4.084010 32.715752 0.004502
-3.768660 32.715752 0.001550
-3.453310 32.715752 -0.001168
-3.137960 32.715752 -0.002601
-2.822610 32.715752 -0.003005
-2.507260 32.715752 -0.002521
-2.191910 32.715752 -0.001491
-1.876560 32.715752 -0.000081
-1.561210 32.715752 0.001855
-1.245860 32.715752 0.003911
-0.930510 32.715752 0.005751
-0.615160 32.715752 0.007697
-0.299810 32.715752 0.009259
0.015540 32.715752 0.009900
0.330890 32.715752 0.009599
0.646240 32.715752 0.008259
0.961589 32.715752 0.006002
1.276940 32.715752 0.003430
1.592289 32.715752 0.000781
1.907640 32.715752 -0.001860
2.222990 32.715752 -0.003858
2.538340 32.715752 -0.005241
2.853690 32.715752 -0.006314
3.169039 32.715752 -0.006535
3.484390 32.715752 -0.005472
3.799739 32.715752 -0.003483
4.115090 32.715752 -0.000749
4.430439 32.715752 0.002400
4.745790 32.715752 0.004696
5.061140 32.715752 0.006153
5.376490 32.715752 0.006708
5.691840 32.715752 0.006589
6.007189 32.715752 0.005795
6.322540 32.715752 0.004008
6.637889 32.715752 0.001718
6.953240 32.715752 -0.001027
7.268589 32.715752 -0.004321
7.583940 32.715752 -0.007581
7.899290 32.715752 -0.009240
8.214640 32.715752 -0.007934
8.529989 32.715752 -0.005590
8.845339 32.715752 -0.001502
9.160688 32.715752 -0.003016
9.476040 32.715752 -0.001730
9.791389 32.715752 -0.005776
10.106739 32.715752 0.008939
10.422089 32.715752 0.028458
10.737438 32.715752 0.069671
11.052790 32.715752 0.083628
11.368139 32.715752 0.094728
11.683489 32.715752 0.205081
11.998838 32.715752 0.235338
12.314190 32.715752 0.367060
12.629539 32.715752 0.379746
12.944889 32.715752 0.476320
13.260239 32.715752 0.511649
13.575588 32.715752 0.680539
13.890940 32.715752 0.654932
14.206289 32.715752 0.717304
14.521639 32.715752 0.842402
14.836988 32.715752 1.015310
15.152340 32.715752 1.195368
15.467690 32.715752 1.414841
15.783039 32.715752 0.930823
16.098389 32.715752 0.000000
16.413738 32.715752 0.000000
16.729090 32.715752 0.000000
17.044439 32.715752 0.000000
17.359789 32.715752 0.000000
17.675138 32.715752 0.000000
17.990490 32.715752 0.000000
18.305840 32.715752 0.000000
18.621189 32.715752 0.000000
18.936539 32.715752 0.000000
19.251888 32.715752 0.000000
-7.237510 32.400398 0.000000
-6.922160 32.400398 0.017186
-6.606810 32.400398 0.012330
-6.291460 32.400398 0.011110
-5.976110 32.400398 0.011937
-5.660760 32.400398 0.012240
-5.345410 32.400398 0.012050
-5.030060 32.400398 0.011265
-4.714710 32.400398 0.009650
-4.399360 32.400398 0.007483
-4.084010 32.400398 0.004664
-3.768660 32.400398 0.001622
-3.453310 32.400398 -0.000746
-3.137960 32.400398 -0.002221
-2.822610 32.400398 -0.002586
-2.507260 32.400398 -0.002339
-2.191910 32.400398 -0.001313
-1.876560 32.400398 0.000220
-1.561210 32.400398 0.002141
-1.245860 32.400398 0.004202
-0.930510 32.400398 0.006248
-0.615160 32.400398 0.008013
-0.299810 32.400398 0.009322
0.015540 32.400398 0.009754
0.330890 32.400398 0.009389
0.646240 32.400398 0.008218
0.961589 32.400398 0.006200
1.276940 32.400398 0.003568
1.592289 32.400398 0.000846
1.907640 32.400398 -0.001880
2.222990 32.400398 -0.004254
2.538340 32.400398 -0.005747
2.853690 32.400398 -0.006710
3.169039 32.400398 -0.006640
3.484390 32.400398 -0.005359
3.799739 32.400398 -0.003493
4.115090 32.400398 -0.000786
4.430439 32.400398 0.002348
4.745790 32.400398 0.004887
5.061140 32.400398 0.006215
5.376490 32.400398 0.006725
5.691840 32.400398 0.006459
6.007189 32.400398 0.005258
6.322540 32.400398 0.002970
6.637889 32.400398 0.000682
6.953240 32.400398 -0.001786
7.268589 32.400398 -0.004617
7.583940 32.400398 -0.007207
7.899290 32.400398 -0.008854
8.214640 32.400398 -0.007393
8.529989 32.400398 -0.003803
8.845339 32.400398 -0.002728
9.160688 32.400398 -0.004035
9.476040 32.400398 0.003521
9.791389 32.400398 0.009568
10.106739 32.400398 0.013392
10.422089 32.400398 0.030039
10.737438 32.400398 0.085274
11.052790 32.400398 0.108134
11.368139 32.400398 0.163352
11.683489 32.400398 0.155696
11.998838 32.400398 0.247017
12.314190 32.400398 0.345872
12.629539 32.400398 0.438763
12.944889 32.400398 0.446985
13.260239 32.400398 0.528845
13.575588 32.400398 0.715351
13.890940 32.400398 0.710471
14.206289 32.400398 0.720608
14.521639 32.400398 0.871611
14.836988 32.400398 1.043497
15.152340 32.400398 1.338312
15.467690 32.400398 1.315788
15.783039 32.400398 1.874557
16.098389 32.400398 0.000000
16.413738 32.400398 0.000000
16.729090 32.400398 0.000000
17.044439 32.400398 0.000000
17.359789 32.400398 0.000000
17.675138 32.400398 0.000000
17.990490 32.400398 0.000000
18.305840 32.400398 0.000000
18.621189 32.400398 0.000000
18.936539 32.400398 0.000000
19.251888 32.400398 0.000000
-7.237510 32.085052 0.000000
-6.922160 32.085052 0.017692
-6.606810 32.085052 0.012681
-6.291460 32.085052 0.011395
-5.976110 32.085052 0.012193
-5.660760 32.085052 0.012583
-5.345410 32.085052 0.012351
-5.030060 32.085052 0.011549
-4.714710 32.085052 0.009606
-4.399360 32.085052 0.007296
-4.084010 32.085052 0.004823
-3.768660 32.085052 0.001857
-3.453310 32.085052 -0.000503
-3.137960 32.085052 -0.001934
-2.822610 32.085052 -0.002246
-2.507260 32.085052 -0.002044
-2.191910 32.085052 -0.001102
-1.876560 32.085052 0.000534
-1.561210 32.085052 0.002390
-1.245860 32.085052 0.004596
-0.930510 32.085052 0.006889
-0.615160 32.085052 0.008667
-0.299810 32.085052 0.009465
0.015540 32.085052 0.009493
0.330890 32.085052 0.009004
0.646240 32.085052 0.008022
0.961589 32.085052 0.006067
1.276940 32.085052 0.003395
1.592289 32.085052 0.000698
1.907640 32.085052 -0.001997
2.222990 32.085052 -0.004581
2.538340 32.085052 -0.006121
2.853690 32.085052 -0.006802
3.169039 32.085052 -0.006318
3.484390 32.085052 -0.004933
3.799739 32.085052 -0.002961
4.115090 32.085052 -0.000249
4.430439 32.085052 0.002497
4.745790 32.085052 0.004957
5.061140 32.085052 0.006112
5.376490 32.085052 0.006662
5.691840 32.085052 0.006097
6.007189 32.085052 0.004445
6.322540 32.085052 0.001763
6.637889 32.085052 -0.000532
6.953240 32.085052 -0.002861
7.268589 32.085052 -0.005077
7.583940 32.085052 -0.007568
7.899290 32.085052 -0.007932
8.214640 32.085052 -0.006232
8.529989 32.085052 -0.003816
8.845339 32.085052 -0.000580
9.160688 32.085052 0.002607
9.476040 32.085052 0.008006
9.791389 32.085052 0.013227
10.106739 32.085052 0.017787
10.422089 32.085052 0.030700
10.737438 32.085052 0.077175
11.052790 32.085052 0.112895
11.368139 32.085052 0.159045
11.683489 32.085052 0.229548
11.998838 32.085052 0.256714
12.314190 32.085052 0.376156
12.629539 32.085052 0.469192
12.944889 32.085052 0.466436
13.260239 32.085052 0.507211
13.575588 32.085052 0.685589
13.890940 32.085052 0.746399
14.206289 32.085052 0.805348
14.521639 32.085052 0.959655
14.836988 32.085052 1.160874
15.152340 32.085052 1.400040
15.467690 32.085052 1.473584
15.783039 32.085052 0.000000
16.098389 32.085052 0.000000
16.413738 32.085052 0.000000
16.729090 32.085052 0.000000
17.044439 32.085052 0.000000
17.359789 32.085052 0.000000
17.675138 32.085052 0.000000
17.990490 32.085052 0.000000
18.305840 32.085052 0.000000
18.621189 32.085052 0.000000
18.936539 32.085052 0.000000
19.251888 32.085052 0.000000
-7.237510 31.769701 0.000000
-6.922160 31.769701 0.017794
-6.606810 31.769701 0.012742
-6.291460 31.769701 0.011882
-5.976110 31.769701 0.012744
-5.660760 31.769701 0.012931
-5.345410 31.769701 0.012591
-5.030060 31.769701 0.011669
-4.714710 31.769701 0.009497
-4.399360 31.769701 0.006910
-4.084010 31.769701 0.004641
-3.768660 31.769701 0.002090
-3.453310 31.769701 -0.000324
-3.137960 31.769701 -0.001752
-2.822610 31.769701 -0.002071
-2.507260 31.769701 -0.001791
-2.191910 31.769701 -0.000812
-1.876560 31.769701 0.000886
-1.561210 31.769701 0.002639
-1.245860 31.769701 0.005029
-0.930510 31.769701 0.007460
-0.615160 31.769701 0.009246
-0.299810 31.769701 0.009636
0.015540 31.769701 0.009227
0.330890 31.769701 0.008520
0.646240 31.769701 0.007483
0.961589 31.769701 0.005582
1.276940 31.769701 0.002725
1.592289 31.769701 0.000179
1.907640 31.769701 -0.002298
2.222990 31.769701 -0.004576
2.538340 31.769701 -0.006037
2.853690 31.769701 -0.006382
3.169039 31.769701 -0.005703
3.484390 31.769701 -0.004182
3.799739 31.769701 -0.002091
4.115090 31.769701 0.000389
4.430439 31.769701 0.002886
4.745790 31.769701 0.005003
5.061140 31.769701 0.006145
5.376490 31.769701 0.006364
5.691840 31.769701 0.005607
6.007189 31.769701 0.003591
6.322540 31.769701 0.000640
6.637889 31.769701 -0.001821
6.953240 31.769701 -0.003722
7.268589 31.769701 -0.005398
7.583940 31.769701 -0.006537
7.899290 31.769701 -0.005876
8.214640 31.769701 -0.005360
8.529989 31.769701 -0.003625
8.845339 31.769701 -0.000208
9.160688 31.769701 0.000341
9.476040 31.769701 0.007171
9.791389 31.769701 0.006673
10.106739 31.769701 0.019477
10.422089 31.769701 0.041228
10.737438 31.769701 0.077050
11.052790 31.769701 0.115635
11.368139 31.769701 0.168333
11.683489 31.769701 0.223822
11.998838 31.769701 0.326663
12.314190 31.769701 0.388098
12.629539 31.769701 0.418538
12.944889 31.769701 0.448031
13.260239 31.769701 0.574195
13.575588 31.769701 0.619481
13.890940 31.769701 0.686628
14.206289 31.769701 0.801668
14.521639 31.769701 1.061242
14.836988 31.769701 1.109083
15.152340 31.769701 1.409949
15.467690 31.769701 1.650206
15.783039 31.769701 0.000000
16.098389 31.769701 0.000000
16.413738 31.769701 0.000000
16.729090 31.769701 0.000000
17.044439 31.769701 0.000000
17.359789 31.769701 0.000000
17.675138 31.769701 0.000000
17.990490 31.769701 0.000000
18.305840 31.769701 0.000000
18.621189 31.769701 0.000000
18.936539 31.769701 0.000000
19.251888 31.769701 0.000000
-7.237510 31.454351 0.000000
-6.922160 31.454351 0.018493
-6.606810 31.454351 0.013365
-6.291460 31.454351 0.012745
-5.976110 31.454351 0.013323
-5.660760 31.454351 0.013386
-5.345410 31.454351 0.012706
-5.030060 31.454351 0.011406
-4.714710 31.454351 0.009053
-4.399360 31.454351 0.006487
-4.084010 31.454351 0.004308
-3.768660 31.454351 0.001938
-3.453310 31.454351 -0.000475
-3.137960 31.454351 -0.001764
-2.822610 31.454351 -0.002059
-2.507260 31.454351 -0.001553
-2.191910 31.454351 -0.000309
-1.876560 31.454351 0.001288
-1.561210 31.454351 0.003112
-1.245860 31.454351 0.005591
-0.930510 31.454351 0.007890
-0.615160 31.454351 0.009476
-0.299810 31.454351 0.009679
0.015540 31.454351 0.008709
0.330890 31.454351 0.007766
0.646240 31.454351 0.006753
0.961589 31.454351 0.004812
1.276940 31.454351 0.001866
1.592289 31.454351 -0.000505
1.907640 31.454351 -0.002745
2.222990 31.454351 -0.004714
2.538340 31.454351 -0.005688
2.853690 31.454351 -0.005497
3.169039 31.454351 -0.004469
3.484390 31.454351 -0.003044
3.799739 31.454351 -0.001011
4.115090 31.454351 0.001149
4.430439 31.454351 0.003309
4.745790 31.454351 0.005121
5.061140 31.454351 0.005921
5.376490 31.454351 0.005884
5.691840 31.454351 0.005042
6.007189 31.454351 0.002762
6.322540 31.454351 -0.000304
6.637889 31.454351 -0.002756
6.953240 31.454351 -0.004268
7.268589 31.454351 -0.005181
7.583940 31.454351 -0.005239
7.899290 31.454351 -0.005082
8.214640 31.454351 -0.005921
8.529989 31.454351 -0.001141
8.845339 31.454351 0.001162
9.160688 31.454351 0.002220
9.476040 31.454351 -0.004726
9.791389 31.454351 0.003536
10.106739 31.454351 0.009301
10.422089 31.454351 0.046977
10.737438 31.454351 0.083158
11.052790 31.454351 0.101795
11.368139 31.454351 0.171295
11.683489 31.454351 0.254712
11.998838 31.454351 0.359414
12.314190 31.454351 0.406303
12.629539 31.454351 0.436470
12.944889 31.454351 0.516589
13.260239 31.454351 0.542650
13.575588 31.454351 0.612013
13.890940 31.454351 0.733591
14.206289 31.454351 0.852616
14.521639 31.454351 1.033116
14.836988 31.454351 1.276585
15.152340 31.454351 1.381662
15.467690 31.454351 1.579938
15.783039 31.454351 0.000000
16.098389 31.454351 0.000000
16.413738 31.454351 0.000000
16.729090 31.454351 0.000000
17.044439 31.454351 0.000000
17.359789 31.454351 0.000000
17.675138 31.454351 0.000000
17.990490 31.454351 0.000000
18.305840 31.454351 0.000000
18.621189 31.454351 0.000000
18.936539 31.454351 0.000000
19.251888 31.454351 0.000000
-7.237510 31.139000 0.000000
-6.922160 31.139000 0.019711
-6.606810 31.139000 0.014310
-6.291460 31.139000 0.013729
-5.976110 31.139000 0.014031
-5.660760 31.139000 0.013648
-5.345410 31.139000 0.012678
-5.030060 31.139000 0.010812
-4.714710 31.139000 0.008277
-4.399360 31.139000 0.005860
-4.084010 31.139000 0.003839
-3.768660 31.139000 0.001486
-3.453310 31.139000 -0.000678
-3.137960 31.139000 -0.001770
-2.822610 31.139000 -0.002010
-2.507260 31.139000 -0.001231
-2.191910 31.139000 0.000115
-1.876560 31.139000 0.001909
-1.561210 31.139000 0.004001
-1.245860 31.139000 0.006290
-0.930510 31.139000 0.008279
-0.615160 31.139000 0.009499
-0.299810 31.139000 0.009492
0.015540 31.139000 0.008407
0.330890 31.139000 0.007037
0.646240 31.139000 0.005977
0.961589 31.139000 0.003948
1.276940 31.139000 0.001072
1.592289 31.139000 -0.001266
1.907640 31.139000 -0.003188
2.222990 31.139000 -0.004655
2.538340 31.139000 -0.004998
2.853690 31.139000 -0.004260
3.169039 31.139000 -0.002841
3.484390 31.139000 -0.001583
3.799739 31.139000 0.000237
4.115090 31.139000 0.002039
4.430439 31.139000 0.003823
4.745790 31.139000 0.005112
5.061140 31.139000 0.005411
5.376490 31.139000 0.005131
5.691840 31.139000 0.004304
6.007189 31.139000 0.002069
6.322540 31.139000 -0.001010
6.637889 31.139000 -0.003316
6.953240 31.139000 -0.004398
7.268589 31.139000 -0.004901
7.583940 31.139000 -0.004988
7.899290 31.139000 -0.003755
8.214640 31.139000 -0.003240
8.529989 31.139000 0.000958
8.845339 31.139000 0.001809
9.160688 31.139000 0.001552
9.476040 31.139000 0.005230
9.791389 31.139000 0.004405
10.106739 31.139000 0.024608
10.422089 31.139000 0.056483
10.737438 31.139000 0.098906
11.052790 31.139000 0.136263
11.368139 31.139000 0.170657
11.683489 31.139000 0.229407
11.998838 31.139000 0.336583
12.314190 31.139000 0.354691
12.629539 31.139000 0.482732
12.944889 31.139000 0.531991
13.260239 31.139000 0.610683
13.575588 31.139000 0.656059
13.890940 31.139000 0.785179
14.206289 31.139000 0.835515
14.521639 31.139000 1.099620
14.836988 31.139000 1.222355
15.152340 31.139000 1.434539
15.467690 31.139000 1.669799
15.783039 31.139000 0.000000
16.098389 31.139000 0.000000
16.413738 31.139000 0.000000
16.729090 31.139000 0.000000
17.044439 31.139000 0.000000
17.359789 31.139000 0.000000
17.675138 31.139000 0.000000
17.990490 31.139000 0.000000
18.305840 31.139000 0.000000
18.621189 31.139000 0.000000
18.936539 31.139000 0.000000
19.251888 31.139000 0.000000
-7.237510 30.823650 0.000000
-6.922160 30.823650 0.021096
-6.606810 30.823650 0.015419
-6.291460 30.823650 0.014432
-5.976110 30.823650 0.014488
-5.660760 30.823650 0.013692
-5.345410 30.823650 0.012296
-5.030060 30.823650 0.010173
-4.714710 30.823650 0.007548
-4.399360 30.823650 0.005359
-4.084010 30.823650 0.003134
-3.768660 30.823650 0.000891
-3.453310 30.823650 -0.000926
-3.137960 30.823650 -0.001835
-2.822610 30.823650 -0.001728
-2.507260 30.823650 -0.000846
-2.191910 30.823650 0.000671
-1.876560 30.823650 0.002731
-1.561210 30.823650 0.005026
-1.245860 30.823650 0.007217
-0.930510 30.823650 0.008585
-0.615160 30.823650 0.009276
-0.299810 30.823650 0.009169
0.015540 30.823650 0.008108
0.330890 30.823650 0.006541
0.646240 30.823650 0.005323
0.961589 30.823650 0.003257
1.276940 30.823650 0.000420
1.592289 30.823650 -0.001836
1.907640 30.823650 -0.003577
2.222990 30.823650 -0.004417
2.538340 30.823650 -0.004023
2.853690 30.823650 -0.002930
3.169039 30.823650 -0.001366
3.484390 30.823650 0.000015
3.799739 30.823650 0.001471
4.115090 30.823650 0.002908
4.430439 30.823650 0.004289
4.745790 30.823650 0.005039
5.061140 30.823650 0.004823
5.376490 30.823650 0.004273
5.691840 30.823650 0.003155
6.007189 30.823650 0.001194
6.322540 30.823650 -0.001417
6.637889 30.823650 -0.003400
6.953240 30.823650 -0.004308
7.268589 30.823650 -0.004412
7.583940 30.823650 -0.005262
7.899290 30.823650 -0.003814
8.214640 30.823650 -0.002337
8.529989 30.823650 0.001305
8.845339 30.823650 0.004373
9.160688 30.823650 0.003607
9.476040 30.823650 0.010294
9.791389 30.823650 0.007811
10.106739 30.823650 0.016673
10.422089 30.823650 0.046522
10.737438 30.823650 0.100149
11.052790 30.823650 0.112193
11.368139 30.823650 0.148846
11.683489 30.823650 0.267453
11.998838 30.823650 0.334871
12.314190 30.823650 0.370793
12.629539 30.823650 0.471768
12.944889 30.823650 0.539856
13.260239 30.823650 0.689922
13.575588 30.823650 0.671224
13.890940 30.823650 0.696970
14.206289 30.823650 0.830100
14.521639 30.823650 1.022899
14.836988 30.823650 1.205615
15.152340 30.823650 1.457222
15.467690 30.823650 1.794062
15.783039 30.823650 0.000000
16.098389 30.823650 0.000000
16.413738 30.823650 0.000000
16.729090 30.823650 0.000000
17.044439 30.823650 0.000000
17.359789 30.823650 0.000000
17.675138 30.823650 0.000000
17.990490 30.823650 0.000000
18.305840 30.823650 0.000000
18.621189 30.823650 0.000000
18.936539 30.823650 0.000000
19.251888 30.823650 0.000000
-7.237510 30.508301 0.000000
-6.922160 30.508301 0.022183
-6.606810 30.508301 0.016199
-6.291460 30.508301 0.014788
-5.976110 30.508301 0.014529
-5.660760 30.508301 0.013440
-5.345410 30.508301 0.011745
-5.030060 30.508301 0.009512
-4.714710 30.508301 0.007136
-4.399360 30.508301 0.004920
-4.084010 30.508301 0.002503
-3.768660 30.508301 0.000402
-3.453310 30.508301 -0.001267
-3.137960 30.508301 -0.001804
-2.822610 30.508301 -0.001358
-2.507260 30.508301 -0.000334
-2.191910 30.508301 0.001447
-1.876560 30.508301 0.003805
-1.561210 30.508301 0.006172
-1.245860 30.508301 0.008014
-0.930510 30.508301 0.008920
-0.615160 30.508301 0.009075
-0.299810 30.508301 0.008914
0.015540 30.508301 0.007809
0.330890 30.508301 0.006048
0.646240 30.508301 0.004672
0.961589 30.508301 0.002680
1.276940 30.508301 0.000100
1.592289 30.508301 -0.002154
1.907640 30.508301 -0.003555
2.222990 30.508301 -0.003902
2.538340 30.508301 -0.003013
2.853690 30.508301 -0.001504
3.169039 30.508301 -0.000075
3.484390 30.508301 0.001337
3.799739 30.508301 0.002578
4.115090 30.508301 0.003594
4.430439 30.508301 0.004451
4.745790 30.508301 0.004606
5.061140 30.508301 0.004127
5.376490 30.508301 0.003402
5.691840 30.508301 0.002138
6.007189 30.508301 0.000330
6.322540 30.508301 -0.001667
6.637889 30.508301 -0.003118
6.953240 30.508301 -0.003701
7.268589 30.508301 -0.004083
7.583940 30.508301 -0.003646
7.899290 30.508301 -0.002907
8.214640 30.508301 -0.002234
8.529989 30.508301 -0.002227
8.845339 30.508301 -0.000649
9.160688 30.508301 0.000118
9.476040 30.508301 0.004229
9.791389 30.508301 0.006176
10.106739 30.508301 0.005752
10.422089 30.508301 0.038978
10.737438 30.508301 0.120683
11.052790 30.508301 0.146557
11.368139 30.508301 0.167572
11.683489 30.508301 0.254634
11.998838 30.508301 0.271681
12.314190 30.508301 0.337886
12.629539 30.508301 0.504660
12.944889 30.508301 0.573098
13.260239 30.508301 0.650041
13.575588 30.508301 0.753761
13.890940 30.508301 0.736647
14.206289 30.508301 0.823094
14.521639 30.508301 1.022841
14.836988 30.508301 1.238580
15.152340 30.508301 1.248462
15.467690 30.508301 1.510082
15.783039 30.508301 0.000000
16.098389 30.508301 0.000000
16.413738 30.508301 0.000000
16.729090 30.508301 0.000000
17.044439 30.508301 0.000000
17.359789 30.508301 0.000000
17.675138 30.508301 0.000000
17.990490 30.508301 0.000000
18.305840 30.508301 0.000000
18.621189 30.508301 0.000000
18.936539 30.508301 0.000000
19.251888 30.508301 0.000000
-7.237510 30.192951 0.000000
-6.922160 30.192951 0.023165
-6.606810 30.192951 0.016896
-6.291460 30.192951 0.014720
-5.976110 30.192951 0.014208
-5.660760 30.192951 0.012814
-5.345410 30.192951 0.011051
-5.030060 30.192951 0.008809
-4.714710 30.192951 0.006683
-4.399360 30.192951 0.004428
-4.084010 30.192951 0.001992
-3.768660 30.192951 0.000037
-3.453310 30.192951 -0.001066
-3.137960 30.192951 -0.001373
-2.822610 30.192951 -0.000736
-2.507260 30.192951 0.000533
-2.191910 30.192951 0.002437
-1.876560 30.192951 0.004902
-1.561210 30.192951 0.007053
-1.245860 30.192951 0.008713
-0.930510 30.192951 0.009137
-0.615160 30.192951 0.008909
-0.299810 30.192951 0.008526
0.015540 30.192951 0.007536
0.330890 30.192951 0.005707
0.646240 30.192951 0.003973
0.961589 30.192951 0.002141
1.276940 30.192951 -0.000087
1.592289 30.192951 -0.002088
1.907640 30.192951 -0.003113
2.222990 30.192951 -0.003025
2.538340 30.192951 -0.001801
2.853690 30.192951 -0.000101
3.169039 30.192951 0.001163
3.484390 30.192951 0.002230
3.799739 30.192951 0.003335
4.115090 30.192951 0.003944
4.430439 30.192951 0.004251
4.745790 30.192951 0.003987
5.061140 30.192951 0.003539
5.376490 30.192951 0.002760
5.691840 30.192951 0.001245
6.007189 30.192951 -0.000296
6.322540 30.192951 -0.001745
6.637889 30.192951 -0.002525
6.953240 30.192951 -0.003149
7.268589 30.192951 -0.003350
7.583940 30.192951 -0.002854
7.899290 30.192951 -0.002182
8.214640 30.192951 -0.001780
8.529989 30.192951 -0.003491
8.845339 30.192951 -0.002653
9.160688 30.192951 -0.003036
9.476040 30.192951 0.003191
9.791389 30.192951 0.009267
10.106739 30.192951 0.017811
10.422089 30.192951 0.056762
10.737438 30.192951 0.126709
11.052790 30.192951 0.137332
11.368139 30.192951 0.161242
11.683489 30.192951 0.259614
11.998838 30.192951 0.302935
12.314190 30.192951 0.411896
12.629539 30.192951 0.459940
12.944889 30.192951 0.601571
13.260239 30.192951 0.661029
13.575588 30.192951 0.748789
13.890940 30.192951 0.741329
14.206289 30.192951 0.857929
14.521639 30.192951 1.049869
14.836988 30.192951 1.249897
15.152340 30.192951 1.397571
15.467690 30.192951 1.431586
15.783039 30.192951 0.000000
16.098389 30.192951 0.000000
16.413738 30.192951 0.000000
16.729090 30.192951 0.000000
17.044439 30.192951 0.000000
17.359789 30.192951 0.000000
17.675138 30.192951 0.000000
17.990490 30.192951 0.000000
18.305840 30.192951 0.000000
18.621189 30.192951 0.000000
18.936539 30.192951 0.000000
19.251888 30.192951 0.000000
-7.237510 29.877602 0.000000
-6.922160 29.877602 0.024288
-6.606810 29.877602 0.017361
-6.291460 29.877602 0.014775
-5.976110 29.877602 0.013928
-5.660760 29.877602 0.012138
-5.345410 29.877602 0.010344
-5.030060 29.877602 0.008058
-4.714710 29.877602 0.005902
-4.399360 29.877602 0.003717
-4.084010 29.877602 0.001529
-3.768660 29.877602 -0.000136
-3.453310 29.877602 -0.000695
-3.137960 29.877602 -0.000549
-2.822610 29.877602 0.000264
-2.507260 29.877602 0.001617
-2.191910 29.877602 0.003677
-1.876560 29.877602 0.006234
-1.561210 29.877602 0.008336
-1.245860 29.877602 0.009322
-0.930510 29.877602 0.009214
-0.615160 29.877602 0.008722
-0.299810 29.877602 0.008078
0.015540 29.877602 0.007066
0.330890 29.877602 0.005200
0.646240 29.877602 0.003256
0.961589 29.877602 0.001545
1.276940 29.877602 -0.000190
1.592289 29.877602 -0.001593
1.907640 29.877602 -0.002393
2.222990 29.877602 -0.002044
2.538340 29.877602 -0.000592
2.853690 29.877602 0.001134
3.169039 29.877602 0.002180
3.484390 29.877602 0.003081
3.799739 29.877602 0.003924
4.115090 29.877602 0.004184
4.430439 29.877602 0.003972
4.745790 29.877602 0.003314
5.061140 29.877602 0.002731
5.376490 29.877602 0.001906
5.691840 29.877602 0.000477
6.007189 29.877602 -0.000612
6.322540 29.877602 -0.001284
6.637889 29.877602 -0.001793
6.953240 29.877602 -0.002429
7.268589 29.877602 -0.002574
7.583940 29.877602 -0.001469
7.899290 29.877602 -0.001106
8.214640 29.877602 -0.003121
8.529989 29.877602 -0.002350
8.845339 29.877602 -0.004586
9.160688 29.877602 -0.005024
9.476040 29.877602 0.003499
9.791389 29.877602 0.019126
10.106739 29.877602 0.021710
10.422089 29.877602 0.063113
10.737438 29.877602 0.098004
11.052790 29.877602 0.148690
11.368139 29.877602 0.189077
11.683489 29.877602 0.254846
11.998838 29.877602 0.261247
12.314190 29.877602 0.382778
12.629539 29.877602 0.530414
12.944889 29.877602 0.566239
13.260239 29.877602 0.720210
13.575588 29.877602 0.692436
13.890940 29.877602 0.787685
14.206289 29.877602 0.917000
14.521639 29.877602 1.075001
14.836988 29.877602 1.251473
15.152340 29.877602 1.384777
15.467690 29.877602 1.438164
15.783039 29.877602 0.000000
16.098389 29.877602 0.000000
16.413738 29.877602 0.000000
16.729090 29.877602 0.000000
17.044439 29.877602 0.000000
17.359789 29.877602 0.000000
17.675138 29.877602 0.000000
17.990490 29.877602 0.000000
18.305840 29.877602 0.000000
18.621189 29.877602 0.000000
18.936539 29.877602 0.000000
19.251888 29.877602 0.000000
-7.237510 29.562250 0.000000
-6.922160 29.562250 0.025248
-6.606810 29.562250 0.017988
-6.291460 29.562250 0.014793
-5.976110 29.562250 0.013470
-5.660760 29.562250 0.011450
-5.345410 29.562250 0.009498
-5.030060 29.562250 0.007143
-4.714710 29.562250 0.005040
-4.399360 29.562250 0.002881
-4.084010 29.562250 0.001305
-3.768660 29.562250 0.000005
-3.453310 29.562250 0.000053
-3.137960 29.562250 0.000732
-2.822610 29.562250 0.001750
-2.507260 29.562250 0.003250
-2.191910 29.562250 0.005173
-1.876560 29.562250 0.007502
-1.561210 29.562250 0.009515
-1.245860 29.562250 0.009909
-0.930510 29.562250 0.009473
-0.615160 29.562250 0.008462
-0.299810 29.562250 0.007636
0.015540 29.562250 0.006569
0.330890 29.562250 0.004731
0.646240 29.562250 0.002763
0.961589 29.562250 0.001091
1.276940 29.562250 -0.000053
1.592289 29.562250 -0.000883
1.907640 29.562250 -0.001400
2.222990 29.562250 -0.000945
2.538340 29.562250 0.000454
2.853690 29.562250 0.001911
3.169039 29.562250 0.002822
3.484390 29.562250 0.003355
3.799739 29.562250 0.004102
4.115090 29.562250 0.003941
4.430439 29.562250 0.003498
4.745790 29.562250 0.002725
5.061140 29.562250 0.001900
5.376490 29.562250 0.001018
5.691840 29.562250 -0.000027
6.007189 29.562250 -0.000396
6.322540 29.562250 -0.000252
6.637889 29.562250 -0.000629
6.953240 29.562250 -0.001748
7.268589 29.562250 -0.001577
7.583940 29.562250 -0.000747
7.899290 29.562250 -0.001729
8.214640 29.562250 -0.004724
8.529989 29.562250 -0.003993
8.845339 29.562250 -0.005227
9.160688 29.562250 -0.002861
9.476040 29.562250 0.007486
9.791389 29.562250 0.017181
10.106739 29.562250 0.021648
10.422089 29.562250 0.048636
10.737438 29.562250 0.086203
11.052790 29.562250 0.141156
11.368139 29.562250 0.206546
11.683489 29.562250 0.269469
11.998838 29.562250 0.235831
12.314190 29.562250 0.365770
12.629539 29.562250 0.470739
12.944889 29.562250 0.559809
13.260239 29.562250 0.692452
13.575588 29.562250 0.756566
13.890940 29.562250 0.884320
14.206289 29.562250 0.966928
14.521639 29.562250 1.077841
14.836988 29.562250 1.210469
15.152340 29.562250 1.159207
15.467690 29.562250 1.270401
15.783039 29.562250 0.000000
16.098389 29.562250 0.000000
16.413738 29.562250 0.000000
16.729090 29.562250 0.000000
17.044439 29.562250 0.000000
17.359789 29.562250 0.000000
17.675138 29.562250 0.000000
17.990490 29.562250 0.000000
18.305840 29.562250 -4.519088
18.621189 29.562250 -15.584238
18.936539 29.562250 -54.922619
19.251888 29.562250 0.000000
-7.237510 29.246901 0.000000
-6.922160 29.246901 0.025671
-6.606810 29.246901 0.018096
-6.291460 29.246901 0.014585
-5.976110 29.246901 0.012785
-5.660760 29.246901 0.010816
-5.345410 29.246901 0.008430
-5.030060 29.246901 0.006089
-4.714710 29.246901 0.004123
-4.399360 29.246901 0.002501
-4.084010 29.246901 0.001316
-3.768660 29.246901 0.000716
-3.453310 29.246901 0.000893
-3.137960 29.246901 0.002275
-2.822610 29.246901 0.003618
-2.507260 29.246901 0.004950
-2.191910 29.246901 0.006672
-1.876560 29.246901 0.008804
-1.561210 29.246901 0.010503
-1.245860 29.246901 0.010400
-0.930510 29.246901 0.009410
-0.615160 29.246901 0.008014
-0.299810 29.246901 0.007026
0.015540 29.246901 0.005797
0.330890 29.246901 0.003967
0.646240 29.246901 0.002059
0.961589 29.246901 0.000829
1.276940 29.246901 0.000167
1.592289 29.246901 -0.000080
1.907640 29.246901 -0.000279
2.222990 29.246901 0.000216
2.538340 29.246901 0.001301
2.853690 29.246901 0.002515
3.169039 29.246901 0.003128
3.484390 29.246901 0.003335
3.799739 29.246901 0.003676
4.115090 29.246901 0.003465
4.430439 29.246901 0.003009
4.745790 29.246901 0.002213
5.061140 29.246901 0.001242
5.376490 29.246901 0.000521
5.691840 29.246901 -0.000009
6.007189 29.246901 0.000268
6.322540 29.246901 0.000860
6.637889 29.246901 0.000640
6.953240 29.246901 -0.000493
7.268589 29.246901 -0.001156
7.583940 29.246901 -0.001248
7.899290 29.246901 -0.002411
8.214640 29.246901 -0.006328
8.529989 29.246901 -0.003322
8.845339 29.246901 -0.002243
9.160688 29.246901 -0.003947
9.476040 29.246901 0.005176
9.791389 29.246901 0.010231
10.106739 29.246901 0.010854
10.422089 29.246901 0.061950
10.737438 29.246901 0.086816
11.052790 29.246901 0.148926
11.368139 29.246901 0.224502
11.683489 29.246901 0.262506
11.998838 29.246901 0.274441
12.314190 29.246901 0.423561
12.629539 29.246901 0.492422
12.944889 29.246901 0.629108
13.260239 29.246901 0.725636
13.575588 29.246901 0.790077
13.890940 29.246901 0.839085
14.206289 29.246901 1.061156
14.521639 29.246901 1.081544
14.836988 29.246901 1.227168
15.152340 29.246901 1.142203
15.467690 29.246901 1.316390
15.783039 29.246901 0.000000
16.098389 29.246901 0.000000
16.413738 29.246901 0.000000
16.729090 29.246901 0.000000
17.044439 29.246901 0.000000
17.359789 29.246901 0.000000
17.675138 29.246901 0.000000
17.990490 29.246901 0.000000
18.305840 29.246901 4.677651
18.621189 29.246901 -0.039067
18.936539 29.246901 -9.834186
19.251888 29.246901 0.000000
-7.237510 28.931551 0.000000
-6.922160 28.931551 0.025956
-6.606810 28.931551 0.017718
-6.291460 28.931551 0.013824
-5.976110 28.931551 0.011795
-5.660760 28.931551 0.009716
-5.345410 28.931551 0.007327
-5.030060 28.931551 0.005090
-4.714710 28.931551 0.003282
-4.399360 28.931551 0.002175
-4.084010 28.931551 0.001593
-3.768660 28.931551 0.001291
-3.453310 28.931551 0.002076
-3.137960 28.931551 0.003824
-2.822610 28.931551 0.005433
-2.507260 28.931551 0.006623
-2.191910 28.931551 0.008185
-1.876560 28.931551 0.009729
-1.561210 28.931551 0.010774
-1.245860 28.931551 0.010445
-0.930510 28.931551 0.008964
-0.615160 28.931551 0.007426
-0.299810 28.931551 0.006283
0.015540 28.931551 0.004911
0.330890 28.931551 0.003253
0.646240 28.931551 0.001671
0.961589 28.931551 0.000711
1.276940 28.931551 0.000549
1.592289 28.931551 0.001035
1.907640 28.931551 0.001222
2.222990 28.931551 0.001472
2.538340 28.931551 0.002000
2.853690 28.931551 0.002691
3.169039 28.931551 0.003265
3.484390 28.931551 0.003024
3.799739 28.931551 0.003256
4.115090 28.931551 0.002856
4.430439 28.931551 0.002525
4.745790 28.931551 0.002037
5.061140 28.931551 0.001098
5.376490 28.931551 0.000556
5.691840 28.931551 0.000521
6.007189 28.931551 0.001151
6.322540 28.931551 0.001846
6.637889 28.931551 0.001349
6.953240 28.931551 0.000438
7.268589 28.931551 -0.000839
7.583940 28.931551 -0.002287
7.899290 28.931551 -0.003536
8.214640 28.931551 -0.005141
8.529989 28.931551 -0.003840
8.845339 28.931551 -0.004178
9.160688 28.931551 0.003268
9.476040 28.931551 0.011569
9.791389 28.931551 0.011694
10.106739 28.931551 0.032458
10.422089 28.931551 0.051575
10.737438 28.931551 0.092447
11.052790 28.931551 0.140924
11.368139 28.931551 0.227090
11.683489 28.931551 0.260762
11.998838 28.931551 0.386713
12.314190 28.931551 0.446664
12.629539 28.931551 0.542239
12.944889 28.931551 0.616253
13.260239 28.931551 0.612938
13.575588 28.931551 0.720926
13.890940 28.931551 0.911911
14.206289 28.931551 0.976412
14.521639 28.931551 1.069173
14.836988 28.931551 1.161611
15.152340 28.931551 1.298377
15.467690 28.931551 1.343943
15.783039 28.931551 0.000000
16.098389 28.931551 0.000000
16.413738 28.931551 0.000000
16.729090 28.931551 0.000000
17.044439 28.931551 0.000000
17.359789 28.931551 0.000000
17.675138 28.931551 0.000000
17.990490 28.931551 0.000000
18.305840 28.931551 15.290257
18.621189 28.931551 9.471412
18.936539 28.931551 9.310498
19.251888 28.931551 0.000000
-7.237510 28.616201 0.000000
-6.922160 28.616201 0.025836
-6.606810 28.616201 0.017017
-6.291460 28.616201 0.012701
-5.976110 28.616201 0.010445
-5.660760 28.616201 0.008554
-5.345410 28.616201 0.006215
-5.030060 28.616201 0.004227
-4.714710 28.616201 0.002834
-4.399360 28.616201 0.002153
-4.084010 28.616201 0.001965
-3.768660 28.616201 0.001949
-3.453310 28.616201 0.003209
-3.137960 28.616201 0.005193
-2.822610 28.616201 0.006957
-2.507260 28.616201 0.008042
-2.191910 28.616201 0.008996
-1.876560 28.616201 0.009864
-1.561210 28.616201 0.010410
-1.245860 28.616201 0.009881
-0.930510 28.616201 0.008303
-0.615160 28.616201 0.006583
-0.299810 28.616201 0.005395
0.015540 28.616201 0.004053
0.330890 28.616201 0.002808
0.646240 28.616201 0.001695
0.961589 28.616201 0.001118
1.276940 28.616201 0.001339
1.592289 28.616201 0.002120
1.907640 28.616201 0.002448
2.222990 28.616201 0.002243
2.538340 28.616201 0.002214
2.853690 28.616201 0.002635
3.169039 28.616201 0.003044
3.484390 28.616201 0.002704
3.799739 28.616201 0.002649
4.115090 28.616201 0.002304
4.430439 28.616201 0.002241
4.745790 28.616201 0.001964
5.061140 28.616201 0.001473
5.376490 28.616201 0.001323
5.691840 28.616201 0.001530
6.007189 28.616201 0.002060
6.322540 28.616201 0.002450
6.637889 28.616201 0.001939
6.953240 28.616201 0.000597
7.268589 28.616201 -0.000675
7.583940 28.616201 -0.002363
7.899290 28.616201 -0.004484
8.214640 28.616201 -0.004899
8.529989 28.616201 -0.004644
8.845339 28.616201 -0.002489
9.160688 28.616201 0.001145
9.476040 28.616201 0.011870
9.791389 28.616201 0.022061
10.106739 28.616201 0.051257
10.422089 28.616201 0.059413
10.737438 28.616201 0.087759
11.052790 28.616201 0.155387
11.368139 28.616201 0.236476
11.683489 28.616201 0.283504
11.998838 28.616201 0.311446
12.314190 28.616201 0.452521
12.629539 28.616201 0.567944
12.944889 28.616201 0.576056
13.260239 28.616201 0.621224
13.575588 28.616201 0.713975
13.890940 28.616201 0.837220
14.206289 28.616201 0.933131
14.521639 28.616201 1.074817
14.836988 28.616201 1.131599
15.152340 28.616201 1.130103
15.467690 28.616201 1.240990
15.783039 28.616201 0.000000
16.098389 28.616201 0.000000
16.413738 28.616201 0.000000
16.729090 28.616201 0.000000
17.044439 28.616201 0.000000
17.359789 28.616201 0.000000
17.675138 28.616201 0.000000
17.990490 28.616201 0.000000
18.305840 28.616201 13.781320
18.621189 28.616201 17.647245
18.936539 28.616201 24.595119
19.251888 28.616201 0.000000
-7.237510 28.300850 0.000000
-6.922160 28.300850 0.024573
-6.606810 28.300850 0.015479
-6.291460 28.300850 0.010976
-5.976110 28.300850 0.008807
-5.660760 28.300850 0.006821
-5.345410 28.300850 0.004761
-5.030060 28.300850 0.003490
-4.714710 28.300850 0.002416
-4.399360 28.300850 0.002263
-4.084010 28.300850 0.002712
-3.768660 28.300850 0.002888
-3.453310 28.300850 0.004364
-3.137960 28.300850 0.006219
-2.822610 28.300850 0.007948
-2.507260 28.300850 0.008916
-2.191910 28.300850 0.009233
-1.876560 28.300850 0.009286
-1.561210 28.300850 0.009430
-1.245860 28.300850 0.008786
-0.930510 28.300850 0.007291
-0.615160 28.300850 0.005914
-0.299810 28.300850 0.004676
0.015540 28.300850 0.003579
0.330890 28.300850 0.002728
0.646240 28.300850 0.002233
0.961589 28.300850 0.001847
1.276940 28.300850 0.002339
1.592289 28.300850 0.003099
1.907640 28.300850 0.003178
2.222990 28.300850 0.002682
2.538340 28.300850 0.002264
2.853690 28.300850 0.002522
3.169039 28.300850 0.002688
3.484390 28.300850 0.002042
3.799739 28.300850 0.001867
4.115090 28.300850 0.001626
4.430439 28.300850 0.001830
4.745790 28.300850 0.002247
5.061140 28.300850 0.002434
5.376490 28.300850 0.002585
5.691840 28.300850 0.002535
6.007189 28.300850 0.002659
6.322540 28.300850 0.002790
6.637889 28.300850 0.002026
6.953240 28.300850 0.000472
7.268589 28.300850 -0.001272
7.583940 28.300850 -0.002861
7.899290 28.300850 -0.004419
8.214640 28.300850 -0.006379
8.529989 28.300850 -0.002734
8.845339 28.300850 0.001003
9.160688 28.300850 -0.002038
9.476040 28.300850 0.003717
9.791389 28.300850 0.015106
10.106739 28.300850 0.043246
10.422089 28.300850 0.071693
10.737438 28.300850 0.090990
11.052790 28.300850 0.153285
11.368139 28.300850 0.250659
11.683489 28.300850 0.277417
11.998838 28.300850 0.414312
12.314190 28.300850 0.481191
12.629539 28.300850 0.579837
12.944889 28.300850 0.616348
13.260239 28.300850 0.653626
13.575588 28.300850 0.757423
13.890940 28.300850 0.762087
14.206289 28.300850 0.959635
14.521639 28.300850 1.005477
14.836988 28.300850 1.094705
15.152340 28.300850 1.208266
15.467690 28.300850 1.360818
15.783039 28.300850 0.000000
16.098389 28.300850 0.000000
16.413738 28.300850 0.000000
16.729090 28.300850 0.000000
17.044439 28.300850 0.000000
17.359789 28.300850 0.000000
17.675138 28.300850 0.000000
17.990490 28.300850 0.000000
18.305840 28.300850 18.505926
18.621189 28.300850 21.141083
18.936539 28.300850 21.972536
19.251888 28.300850 0.000000
-7.237510 27.985500 0.000000
-6.922160 27.985500 0.023399
-6.606810 27.985500 0.013865
-6.291460 27.985500 0.009215
-5.976110 27.985500 0.006972
-5.660760 27.985500 0.005168
-5.345410 27.985500 0.003854
-5.030060 27.985500 0.002965
-4.714710 27.985500 0.002391
-4.399360 27.985500 0.002730
-4.084010 27.985500 0.003439
-3.768660 27.985500 0.003924
-3.453310 27.985500 0.005144
-3.137960 27.985500 0.006984
-2.822610 27.985500 0.008506
-2.507260 27.985500 0.009228
-2.191910 27.985500 0.008940
-1.876560 27.985500 0.008573
-1.561210 27.985500 0.008235
-1.245860 27.985500 0.007586
-0.930510 27.985500 0.006389
-0.615160 27.985500 0.005200
-0.299810 27.985500 0.004205
0.015540 27.985500 0.003284
0.330890 27.985500 0.002946
0.646240 27.985500 0.002888
0.961589 27.985500 0.002777
1.276940 27.985500 0.003057
1.592289 27.985500 0.003705
1.907640 27.985500 0.003667
2.222990 27.985500 0.002887
2.538340 27.985500 0.002242
2.853690 27.985500 0.002353
3.169039 27.985500 0.002147
3.484390 27.985500 0.001514
3.799739 27.985500 0.001233
4.115090 27.985500 0.001347
4.430439 27.985500 0.002028
4.745790 27.985500 0.002878
5.061140 27.985500 0.003782
5.376490 27.985500 0.004053
5.691840 27.985500 0.003508
6.007189 27.985500 0.003004
6.322540 27.985500 0.002881
6.637889 27.985500 0.001741
6.953240 27.985500 -0.000142
7.268589 27.985500 -0.001736
7.583940 27.985500 -0.003464
7.899290 27.985500 -0.004274
8.214640 27.985500 -0.005081
8.529989 27.985500 -0.003447
8.845339 27.985500 -0.002391
9.160688 27.985500 -0.002747
9.476040 27.985500 -0.000131
9.791389 27.985500 0.017717
10.106739 27.985500 0.033447
10.422089 27.985500 0.062760
10.737438 27.985500 0.088428
11.052790 27.985500 0.166792
11.368139 27.985500 0.234403
11.683489 27.985500 0.266872
11.998838 27.985500 0.369022
12.314190 27.985500 0.494458
12.629539 27.985500 0.626084
12.944889 27.985500 0.684748
13.260239 27.985500 0.792650
13.575588 27.985500 0.769625
13.890940 27.985500 0.859438
14.206289 27.985500 0.877020
14.521639 27.985500 0.987931
14.836988 27.985500 1.151385
15.152340 27.985500 1.243466
15.467690 27.985500 1.381695
15.783039 27.985500 0.000000
16.098389 27.985500 0.000000
16.413738 27.985500 0.000000
16.729090 27.985500 0.000000
17.044439 27.985500 0.000000
17.359789 27.985500 0.000000
17.675138 27.985500 0.000000
17.990490 27.985500 0.000000
18.305840 27.985500 16.239159
18.621189 27.985500 19.043760
18.936539 27.985500 26.046745
19.251888 27.985500 0.000000
-7.237510 27.670151 0.000000
-6.922160 27.670151 0.022029
-6.606810 27.670151 0.011796
-6.291460 27.670151 0.007187
-5.976110 27.670151 0.005492
-5.660760 27.670151 0.003962
-5.345410 27.670151 0.003346
-5.030060 27.670151 0.003040
-4.714710 27.670151 0.003043
-4.399360 27.670151 0.003493
-4.084010 27.670151 0.004384
-3.768660 27.670151 0.004880
-3.453310 27.670151 0.006046
-3.137960 27.670151 0.007836
-2.822610 27.670151 0.008924
-2.507260 27.670151 0.009242
-2.191910 27.670151 0.008654
-1.876560 27.670151 0.007721
-1.561210 27.670151 0.007019
-1.245860 27.670151 0.006232
-0.930510 27.670151 0.005510
-0.615160 27.670151 0.004804
-0.299810 27.670151 0.004127
0.015540 27.670151 0.003486
0.330890 27.670151 0.003256
0.646240 27.670151 0.003690
0.961589 27.670151 0.003538
1.276940 27.670151 0.003431
1.592289 27.670151 0.003730
1.907640 27.670151 0.003761
2.222990 27.670151 0.002950
2.538340 27.670151 0.002114
2.853690 27.670151 0.001941
3.169039 27.670151 0.001744
3.484390 27.670151 0.001324
3.799739 27.670151 0.000949
4.115090 27.670151 0.001432
4.430439 27.670151 0.002789
4.745790 27.670151 0.003882
5.061140 27.670151 0.004961
5.376490 27.670151 0.005170
5.691840 27.670151 0.004348
6.007189 27.670151 0.003290
6.322540 27.670151 0.002445
6.637889 27.670151 0.001068
6.953240 27.670151 -0.000781
7.268589 27.670151 -0.002238
7.583940 27.670151 -0.003129
7.899290 27.670151 -0.002967
8.214640 27.670151 -0.004563
8.529989 27.670151 -0.001516
8.845339 27.670151 -0.001856
9.160688 27.670151 0.003341
9.476040 27.670151 0.005462
9.791389 27.670151 0.006294
10.106739 27.670151 0.027967
10.422089 27.670151 0.068286
10.737438 27.670151 0.111858
11.052790 27.670151 0.139091
11.368139 27.670151 0.214543
11.683489 27.670151 0.307009
11.998838 27.670151 0.423647
12.314190 27.670151 0.506681
12.629539 27.670151 0.617420
12.944889 27.670151 0.667145
13.260239 27.670151 0.734824
13.575588 27.670151 0.792197
13.890940 27.670151 0.895614
14.206289 27.670151 1.044205
14.521639 27.670151 1.020761
14.836988 27.670151 1.148371
15.152340 27.670151 1.427853
15.467690 27.670151 1.498569
15.783039 27.670151 0.000000
16.098389 27.670151 0.000000
16.413738 27.670151 0.000000
16.729090 27.670151 0.000000
17.044439 27.670151 0.000000
17.359789 27.670151 0.000000
17.675138 27.670151 0.000000
17.990490 27.670151 0.000000
18.305840 27.670151 17.214535
18.621189 27.670151 20.202560
18.936539 27.670151 19.654047
19.251888 27.670151 0.000000
-7.237510 27.354801 0.000000
-6.922160 27.354801 0.020226
-6.606810 27.354801 0.010025
-6.291460 27.354801 0.005716
-5.976110 27.354801 0.004346
-5.660760 27.354801 0.003542
-5.345410 27.354801 0.003378
-5.030060 27.354801 0.003571
-4.714710 27.354801 0.003990
-4.399360 27.354801 0.004317
-4.084010 27.354801 0.005311
-3.768660 27.354801 0.005996
-3.453310 27.354801 0.007001
-3.137960 27.354801 0.008522
-2.822610 27.354801 0.009163
-2.507260 27.354801 0.008706
-2.191910 27.354801 0.007826
-1.876560 27.354801 0.006870
-1.561210 27.354801 0.005820
-1.245860 27.354801 0.005005
-0.930510 27.354801 0.004547
-0.615160 27.354801 0.004645
-0.299810 27.354801 0.004665
0.015540 27.354801 0.004097
0.330890 27.354801 0.004103
0.646240 27.354801 0.004424
0.961589 27.354801 0.004019
1.276940 27.354801 0.003493
1.592289 27.354801 0.003478
1.907640 27.354801 0.003548
2.222990 27.354801 0.002717
2.538340 27.354801 0.001957
2.853690 27.354801 0.001577
3.169039 27.354801 0.001521
3.484390 27.354801 0.001515
3.799739 27.354801 0.001433
4.115090 27.354801 0.002323
4.430439 27.354801 0.003865
4.745790 27.354801 0.005003
5.061140 27.354801 0.005889
5.376490 27.354801 0.005985
5.691840 27.354801 0.004798
6.007189 27.354801 0.002832
6.322540 27.354801 0.001293
6.637889 27.354801 -0.000436
6.953240 27.354801 -0.002126
7.268589 27.354801 -0.003240
7.583940 27.354801 -0.003205
7.899290 27.354801 -0.003685
8.214640 27.354801 -0.004632
8.529989 27.354801 0.000146
8.845339 27.354801 0.005979
9.160688 27.354801 0.005404
9.476040 27.354801 0.012547
9.791389 27.354801 0.014048
10.106739 27.354801 0.028410
10.422089 27.354801 0.055638
10.737438 27.354801 0.108139
11.052790 27.354801 0.150058
11.368139 27.354801 0.202204
11.683489 27.354801 0.359927
11.998838 27.354801 0.483369
12.314190 27.354801 0.490406
12.629539 27.354801 0.579429
12.944889 27.354801 0.646665
13.260239 27.354801 0.772099
13.575588 27.354801 0.862116
13.890940 27.354801 0.924337
14.206289 27.354801 1.021970
14.521639 27.354801 1.112691
14.836988 27.354801 1.177627
15.152340 27.354801 1.457710
15.467690 27.354801 1.759630
15.783039 27.354801 0.000000
16.098389 27.354801 0.000000
16.413738 27.354801 0.000000
16.729090 27.354801 0.000000
17.044439 27.354801 0.000000
17.359789 27.354801 0.000000
17.675138 27.354801 0.000000
17.990490 27.354801 0.000000
18.305840 27.354801 19.885067
18.621189 27.354801 20.904530
18.936539 27.354801 23.463568
19.251888 27.354801 0.000000
-7.237510 27.039452 0.000000
-6.922160 27.039452 0.018438
-6.606810 27.039452 0.008871
-6.291460 27.039452 0.004672
-5.976110 27.039452 0.003907
-5.660760 27.039452 0.003664
-5.345410 27.039452 0.003886
-5.030060 27.039452 0.004426
-4.714710 27.039452 0.005076
-4.399360 27.039452 0.005313
-4.084010 27.039452 0.006211
-3.768660 27.039452 0.006860
-3.453310 27.039452 0.007810
-3.137960 27.039452 0.008707
-2.822610 27.039452 0.008732
-2.507260 27.039452 0.007701
-2.191910 27.039452 0.006720
-1.876560 27.039452 0.005899
-1.561210 27.039452 0.004859
-1.245860 27.039452 0.004238
-0.930510 27.039452 0.004070
-0.615160 27.039452 0.004835
-0.299810 27.039452 0.005119
0.015540 27.039452 0.004981
0.330890 27.039452 0.004981
0.646240 27.039452 0.004998
0.961589 27.039452 0.004304
1.276940 27.039452 0.003499
1.592289 27.039452 0.003136
1.907640 27.039452 0.003011
2.222990 27.039452 0.002182
2.538340 27.039452 0.001450
2.853690 27.039452 0.001406
3.169039 27.039452 0.001830
3.484390 27.039452 0.002225
3.799739 27.039452 0.002859
4.115090 27.039452 0.003907
4.430439 27.039452 0.005207
4.745790 27.039452 0.005743
5.061140 27.039452 0.006201
5.376490 27.039452 0.006019
5.691840 27.039452 0.004421
6.007189 27.039452 0.001773
6.322540 27.039452 -0.000372
6.637889 27.039452 -0.002144
6.953240 27.039452 -0.003315
7.268589 27.039452 -0.004321
7.583940 27.039452 -0.003533
7.899290 27.039452 -0.004031
8.214640 27.039452 -0.002643
8.529989 27.039452 0.000175
8.845339 27.039452 0.004896
9.160688 27.039452 0.003501
9.476040 27.039452 0.017902
9.791389 27.039452 0.019510
10.106739 27.039452 0.026050
10.422089 27.039452 0.053394
10.737438 27.039452 0.085785
11.052790 27.039452 0.167453
11.368139 27.039452 0.226259
11.683489 27.039452 0.346212
11.998838 27.039452 0.391134
12.314190 27.039452 0.479545
12.629539 27.039452 0.672958
12.944889 27.039452 0.624904
13.260239 27.039452 0.722773
13.575588 27.039452 0.837745
13.890940 27.039452 0.884209
14.206289 27.039452 0.922573
14.521639 27.039452 1.101280
14.836988 27.039452 1.322273
15.152340 27.039452 1.475998
15.467690 27.039452 1.898878
15.783039 27.039452 0.000000
16.098389 27.039452 0.000000
16.413738 27.039452 0.000000
16.729090 27.039452 0.000000
17.044439 27.039452 0.000000
17.359789 27.039452 0.000000
17.675138 27.039452 0.000000
17.990490 27.039452 0.000000
18.305840 27.039452 23.433661
18.621189 27.039452 24.310461
18.936539 27.039452 30.396345
19.251888 27.039452 0.000000
-7.237510 26.724100 0.000000
-6.922160 26.724100 0.017183
-6.606810 26.724100 0.007919
-6.291460 26.724100 0.004271
-5.976110 26.724100 0.003927
-5.660760 26.724100 0.004275
-5.345410 26.724100 0.004804
-5.030060 26.724100 0.005402
-4.714710 26.724100 0.005897
-4.399360 26.724100 0.006130
-4.084010 26.724100 0.006775
-3.768660 26.724100 0.007595
-3.453310 26.724100 0.008066
-3.137960 26.724100 0.008347
-2.822610 26.724100 0.007677
-2.507260 26.724100 0.006544
-2.191910 26.724100 0.005716
-1.876560 26.724100 0.005013
-1.561210 26.724100 0.004421
-1.245860 26.724100 0.004286
-0.930510 26.724100 0.004288
-0.615160 26.724100 0.005032
-0.299810 26.724100 0.005501
0.015540 26.724100 0.005504
0.330890 26.724100 0.005420
0.646240 26.724100 0.005348
0.961589 26.724100 0.004462
1.276940 26.724100 0.003434
1.592289 26.724100 0.002866
1.907640 26.724100 0.002283
2.222990 26.724100 0.001633
2.538340 26.724100 0.001319
2.853690 26.724100 0.001620
3.169039 26.724100 0.002603
3.484390 26.724100 0.003603
3.799739 26.724100 0.004750
4.115090 26.724100 0.005763
4.430439 26.724100 0.006387
4.745790 26.724100 0.006116
5.061140 26.724100 0.005846
5.376490 26.724100 0.005104
5.691840 26.724100 0.003240
6.007189 26.724100 0.000297
6.322540 26.724100 -0.002179
6.637889 26.724100 -0.003603
6.953240 26.724100 -0.004302
7.268589 26.724100 -0.004246
7.583940 26.724100 -0.002331
7.899290 26.724100 -0.001765
8.214640 26.724100 -0.000212
8.529989 26.724100 0.001656
8.845339 26.724100 0.005891
9.160688 26.724100 0.008464
9.476040 26.724100 0.018344
9.791389 26.724100 0.020260
10.106739 26.724100 0.033617
10.422089 26.724100 0.048475
10.737438 26.724100 0.080009
11.052790 26.724100 0.129689
11.368139 26.724100 0.223643
11.683489 26.724100 0.278490
11.998838 26.724100 0.345067
12.314190 26.724100 0.504131
12.629539 26.724100 0.698882
12.944889 26.724100 0.684101
13.260239 26.724100 0.715337
13.575588 26.724100 0.846138
13.890940 26.724100 0.881548
14.206289 26.724100 0.998887
14.521639 26.724100 1.090350
14.836988 26.724100 1.237848
15.152340 26.724100 1.591699
15.467690 26.724100 1.879104
15.783039 26.724100 0.000000
16.098389 26.724100 0.000000
16.413738 26.724100 0.000000
16.729090 26.724100 0.000000
17.044439 26.724100 0.000000
17.359789 26.724100 0.000000
17.675138 26.724100 0.000000
17.990490 26.724100 0.000000
18.305840 26.724100 26.263601
18.621189 26.724100 29.645653
18.936539 26.724100 35.962818
19.251888 26.724100 0.000000
-7.237510 26.408751 0.000000
-6.922160 26.408751 0.015913
-6.606810 26.408751 0.007365
-6.291460 26.408751 0.004216
-5.976110 26.408751 0.004346
-5.660760 26.408751 0.004954
-5.345410 26.408751 0.005526
-5.030060 26.408751 0.006223
-4.714710 26.408751 0.006495
-4.399360 26.408751 0.006556
-4.084010 26.408751 0.007258
-3.768660 26.408751 0.007942
-3.453310 26.408751 0.007835
-3.137960 26.408751 0.007422
-2.822610 26.408751 0.006369
-2.507260 26.408751 0.005614
-2.191910 26.408751 0.005083
-1.876560 26.408751 0.004989
-1.561210 26.408751 0.004914
-1.245860 26.408751 0.005133
-0.930510 26.408751 0.005171
-0.615160 26.408751 0.005395
-0.299810 26.408751 0.005713
0.015540 26.408751 0.005730
0.330890 26.408751 0.005439
0.646240 26.408751 0.005219
0.961589 26.408751 0.004336
1.276940 26.408751 0.003171
1.592289 26.408751 0.002574
1.907640 26.408751 0.001937
2.222990 26.408751 0.001416
2.538340 26.408751 0.001581
2.853690 26.408751 0.002410
3.169039 26.408751 0.003946
3.484390 26.408751 0.005659
3.799739 26.408751 0.006838
4.115090 26.408751 0.007508
4.430439 26.408751 0.007217
4.745790 26.408751 0.005965
5.061140 26.408751 0.004547
5.376490 26.408751 0.003295
5.691840 26.408751 0.001298
6.007189 26.408751 -0.001446
6.322540 26.408751 -0.003476
6.637889 26.408751 -0.004420
6.953240 26.408751 -0.004569
7.268589 26.408751 -0.003349
7.583940 26.408751 -0.001437
7.899290 26.408751 0.000692
8.214640 26.408751 0.002619
8.529989 26.408751 0.008958
8.845339 26.408751 0.009514
9.160688 26.408751 0.009570
9.476040 26.408751 0.021024
9.791389 26.408751 0.031768
10.106739 26.408751 0.045400
10.422089 26.408751 0.045430
10.737438 26.408751 0.096048
11.052790 26.408751 0.132075
11.368139 26.408751 0.220885
11.683489 26.408751 0.276807
11.998838 26.408751 0.378089
12.314190 26.408751 0.462849
12.629539 26.408751 0.594970
12.944889 26.408751 0.741237
13.260239 26.408751 0.734165
13.575588 26.408751 0.898720
13.890940 26.408751 0.884455
14.206289 26.408751 0.934549
14.521639 26.408751 1.094358
14.836988 26.408751 1.401457
15.152340 26.408751 1.681395
15.467690 26.408751 2.101306
15.783039 26.408751 0.000000
16.098389 26.408751 0.000000
16.413738 26.408751 0.000000
16.729090 26.408751 0.000000
17.044439 26.408751 0.000000
17.359789 26.408751 0.000000
17.675138 26.408751 0.000000
17.990490 26.408751 0.000000
18.305840 26.408751 26.987810
18.621189 26.408751 30.040529
18.936539 26.408751 32.320110
19.251888 26.408751 0.000000
-7.237510 26.093401 0.000000
-6.922160 26.093401 0.014614
-6.606810 26.093401 0.006902
-6.291460 26.093401 0.004406
-5.976110 26.093401 0.004827
-5.660760 26.093401 0.005596
-5.345410 26.093401 0.006136
-5.030060 26.093401 0.006689
-4.714710 26.093401 0.006673
-4.399360 26.093401 0.006780
-4.084010 26.093401 0.007285
-3.768660 26.093401 0.007713
-3.453310 26.093401 0.007574
-3.137960 26.093401 0.006508
-2.822610 26.093401 0.005428
-2.507260 26.093401 0.004943
-2.191910 26.093401 0.005163
-1.876560 26.093401 0.005876
-1.561210 26.093401 0.006120
-1.245860 26.093401 0.006280
-0.930510 26.093401 0.006123
-0.615160 26.093401 0.005906
-0.299810 26.093401 0.005891
0.015540 26.093401 0.005731
0.330890 26.093401 0.005300
0.646240 26.093401 0.004798
0.961589 26.093401 0.003823
1.276940 26.093401 0.002777
1.592289 26.093401 0.002221
1.907640 26.093401 0.001853
2.222990 26.093401 0.001664
2.538340 26.093401 0.002331
2.853690 26.093401 0.003908
3.169039 26.093401 0.005779
3.484390 26.093401 0.007510
3.799739 26.093401 0.008594
4.115090 26.093401 0.008595
4.430439 26.093401 0.007361
4.745790 26.093401 0.005224
5.061140 26.093401 0.002788
5.376490 26.093401 0.000783
5.691840 26.093401 -0.000934
6.007189 26.093401 -0.002968
6.322540 26.093401 -0.004129
6.637889 26.093401 -0.004180
6.953240 26.093401 -0.003428
7.268589 26.093401 -0.001387
7.583940 26.093401 0.000583
7.899290 26.093401 0.003031
8.214640 26.093401 0.003887
8.529989 26.093401 0.006653
8.845339 26.093401 0.012529
9.160688 26.093401 0.017705
9.476040 26.093401 0.019422
9.791389 26.093401 0.027636
10.106739 26.093401 0.032514
10.422089 26.093401 0.044104
10.737438 26.093401 0.060677
11.052790 26.093401 0.141497
11.368139 26.093401 0.218866
11.683489 26.093401 0.288290
11.998838 26.093401 0.359963
12.314190 26.093401 0.473022
12.629539 26.093401 0.624079
12.944889 26.093401 0.802913
13.260239 26.093401 0.769715
13.575588 26.093401 0.873786
13.890940 26.093401 0.931127
14.206289 26.093401 0.959697
14.521639 26.093401 1.136086
14.836988 26.093401 1.607948
15.152340 26.093401 2.033767
15.467690 26.093401 2.177421
15.783039 26.093401 0.000000
16.098389 26.093401 0.000000
16.413738 26.093401 0.000000
16.729090 26.093401 0.000000
17.044439 26.093401 0.000000
17.359789 26.093401 0.000000
17.675138 26.093401 0.000000
17.990490 26.093401 0.000000
18.305840 26.093401 26.885464
18.621189 26.093401 29.511168
18.936539 26.093401 26.901867
19.251888 26.093401 0.000000
-7.237510 25.778051 0.000000
-6.922160 25.778051 0.013677
-6.606810 25.778051 0.006587
-6.291460 25.778051 0.004873
-5.976110 25.778051 0.005388
-5.660760 25.778051 0.006032
-5.345410 25.778051 0.006486
-5.030060 25.778051 0.006847
-4.714710 25.778051 0.006965
-4.399360 25.778051 0.006776
-4.084010 25.778051 0.006736
-3.768660 25.778051 0.006944
-3.453310 25.778051 0.007037
-3.137960 25.778051 0.006034
-2.822610 25.778051 0.005075
-2.507260 25.778051 0.004997
-2.191910 25.778051 0.005812
-1.876560 25.778051 0.007177
-1.561210 25.778051 0.007515
-1.245860 25.778051 0.007240
-0.930510 25.778051 0.006693
-0.615160 25.778051 0.006019
-0.299810 25.778051 0.005590
0.015540 25.778051 0.005196
0.330890 25.778051 0.004659
0.646240 25.778051 0.003753
0.961589 25.778051 0.002855
1.276940 25.778051 0.002279
1.592289 25.778051 0.002092
1.907640 25.778051 0.002292
2.222990 25.778051 0.002766
2.538340 25.778051 0.004005
2.853690 25.778051 0.006052
3.169039 25.778051 0.007677
3.484390 25.778051 0.009093
3.799739 25.778051 0.009493
4.115090 25.778051 0.008733
4.430439 25.778051 0.006648
4.745790 25.778051 0.003896
5.061140 25.778051 0.000719
5.376490 25.778051 -0.001631
5.691840 25.778051 -0.002974
6.007189 25.778051 -0.003526
6.322540 25.778051 -0.003551
6.637889 25.778051 -0.002833
6.953240 25.778051 -0.001115
7.268589 25.778051 0.001278
7.583940 25.778051 0.003190
7.899290 25.778051 0.004191
8.214640 25.778051 0.005714
8.529989 25.778051 0.008589
8.845339 25.778051 0.013703
9.160688 25.778051 0.022780
9.476040 25.778051 0.026065
9.791389 25.778051 0.025500
10.106739 25.778051 0.039902
10.422089 25.778051 0.049787
10.737438 25.778051 0.081270
11.052790 25.778051 0.125755
11.368139 25.778051 0.237596
11.683489 25.778051 0.308101
11.998838 25.778051 0.324794
12.314190 25.778051 0.472926
12.629539 25.778051 0.678869
12.944889 25.778051 0.759277
13.260239 25.778051 0.862593
13.575588 25.778051 0.921241
13.890940 25.778051 0.957040
14.206289 25.778051 0.969156
14.521639 25.778051 1.256911
14.836988 25.778051 1.568307
15.152340 25.778051 1.967709
15.467690 25.778051 2.356067
15.783039 25.778051 0.000000
16.098389 25.778051 0.000000
16.413738 25.778051 0.000000
16.729090 25.778051 0.000000
17.044439 25.778051 0.000000
17.359789 25.778051 0.000000
17.675138 25.778051 0.000000
17.990490 25.778051 0.000000
18.305840 25.778051 28.346169
18.621189 25.778051 31.162916
18.936539 25.778051 27.149504
19.251888 25.778051 0.000000
-7.237510 25.462700 0.000000
-6.922160 25.462700 0.013052
-6.606810 25.462700 0.006753
-6.291460 25.462700 0.005387
-5.976110 25.462700 0.005997
-5.660760 25.462700 0.006361
-5.345410 25.462700 0.006617
-5.030060 25.462700 0.006775
-4.714710 25.462700 0.006719
-4.399360 25.462700 0.006521
-4.084010 25.462700 0.006114
-3.768660 25.462700 0.006140
-3.453310 25.462700 0.006560
-3.137960 25.462700 0.005898
-2.822610 25.462700 0.005350
-2.507260 25.462700 0.005578
-2.191910 25.462700 0.006649
-1.876560 25.462700 0.008084
-1.561210 25.462700 0.008330
-1.245860 25.462700 0.007645
-0.930510 25.462700 0.006532
-0.615160 25.462700 0.005646
-0.299810 25.462700 0.004764
0.015540 25.462700 0.004145
0.330890 25.462700 0.003284
0.646240 25.462700 0.002583
0.961589 25.462700 0.002002
1.276940 25.462700 0.002052
1.592289 25.462700 0.002505
1.907640 25.462700 0.003402
2.222990 25.462700 0.004643
2.538340 25.462700 0.006389
2.853690 25.462700 0.008117
3.169039 25.462700 0.009105
3.484390 25.462700 0.009515
3.799739 25.462700 0.009194
4.115090 25.462700 0.007811
4.430439 25.462700 0.005282
4.745790 25.462700 0.002179
5.061140 25.462700 -0.001219
5.376490 25.462700 -0.003443
5.691840 25.462700 -0.003845
6.007189 25.462700 -0.002931
6.322540 25.462700 -0.001602
6.637889 25.462700 -0.000105
6.953240 25.462700 0.001976
7.268589 25.462700 0.003975
7.583940 25.462700 0.005038
7.899290 25.462700 0.004636
8.214640 25.462700 0.004386
8.529989 25.462700 0.005612
8.845339 25.462700 0.012851
9.160688 25.462700 0.025780
9.476040 25.462700 0.036279
9.791389 25.462700 0.026450
10.106739 25.462700 0.033646
10.422089 25.462700 0.043736
10.737438 25.462700 0.099690
11.052790 25.462700 0.140537
11.368139 25.462700 0.237526
11.683489 25.462700 0.391891
11.998838 25.462700 0.420348
12.314190 25.462700 0.540700
12.629539 25.462700 0.660318
12.944889 25.462700 0.758625
13.260239 25.462700 0.907593
13.575588 25.462700 0.938015
13.890940 25.462700 0.930011
14.206289 25.462700 1.024445
14.521639 25.462700 1.217196
14.836988 25.462700 1.630715
15.152340 25.462700 1.886469
15.467690 25.462700 2.571266
15.783039 25.462700 0.000000
16.098389 25.462700 0.000000
16.413738 25.462700 0.000000
16.729090 25.462700 0.000000
17.044439 25.462700 0.000000
17.359789 25.462700 0.000000
17.675138 25.462700 0.000000
17.990490 25.462700 0.000000
18.305840 25.462700 26.483397
18.621189 25.462700 31.536671
18.936539 25.462700 28.505531
19.251888 25.462700 0.000000
-7.237510 25.147350 0.000000
-6.922160 25.147350 0.012586
-6.606810 25.147350 0.007031
-6.291460 25.147350 0.005731
-5.976110 25.147350 0.006326
-5.660760 25.147350 0.006587
-5.345410 25.147350 0.006405
-5.030060 25.147350 0.006397
-4.714710 25.147350 0.006242
-4.399360 25.147350 0.005994
-4.084010 25.147350 0.005644
-3.768660 25.147350 0.005594
-3.453310 25.147350 0.006344
-3.137960 25.147350 0.006479
-2.822610 25.147350 0.006222
-2.507260 25.147350 0.006477
-2.191910 25.147350 0.007303
-1.876560 25.147350 0.008151
-1.561210 25.147350 0.008083
-1.245860 25.147350 0.007270
-0.930510 25.147350 0.006004
-0.615160 25.147350 0.004876
-0.299810 25.147350 0.003666
0.015540 25.147350 0.002676
0.330890 25.147350 0.001915
0.646240 25.147350 0.001607
0.961589 25.147350 0.001548
1.276940 25.147350 0.002398
1.592289 25.147350 0.003538
1.907640 25.147350 0.005193
2.222990 25.147350 0.007070
2.538340 25.147350 0.008808
2.853690 25.147350 0.009647
3.169039 25.147350 0.009388
3.484390 25.147350 0.008640
3.799739 25.147350 0.007707
4.115090 25.147350 0.005760
4.430439 25.147350 0.003240
4.745790 25.147350 0.000367
5.061140 25.147350 -0.002423
5.376490 25.147350 -0.003807
5.691840 25.147350 -0.003132
6.007189 25.147350 -0.000939
6.322540 25.147350 0.001359
6.637889 25.147350 0.003186
6.953240 25.147350 0.005365
7.268589 25.147350 0.006428
7.583940 25.147350 0.005860
7.899290 25.147350 0.004456
8.214640 25.147350 0.004074
8.529989 25.147350 0.002459
8.845339 25.147350 0.008852
9.160688 25.147350 0.024489
9.476040 25.147350 0.031396
9.791389 25.147350 0.016983
10.106739 25.147350 0.036895
10.422089 25.147350 0.049197
10.737438 25.147350 0.104415
11.052790 25.147350 0.159040
11.368139 25.147350 0.274731
11.683489 25.147350 0.386520
11.998838 25.147350 0.415560
12.314190 25.147350 0.521892
12.629539 25.147350 0.618002
12.944889 25.147350 0.724237
13.260239 25.147350 0.856569
13.575588 25.147350 0.888762
13.890940 25.147350 0.921763
14.206289 25.147350 1.124918
14.521639 25.147350 1.263216
14.836988 25.147350 1.577248
15.152340 25.147350 1.839709
15.467690 25.147350 2.371481
15.783039 25.147350 0.000000
16.098389 25.147350 0.000000
16.413738 25.147350 0.000000
16.729090 25.147350 0.000000
17.044439 25.147350 0.000000
17.359789 25.147350 0.000000
17.675138 25.147350 0.000000
17.990490 25.147350 0.000000
18.305840 25.147350 26.033432
18.621189 25.147350 30.957539
18.936539 25.147350 21.667788
19.251888 25.147350 0.000000
-7.237510 24.832001 0.000000
-6.922160 24.832001 0.012938
-6.606810 24.832001 0.007154
-6.291460 24.832001 0.005665
-5.976110 24.832001 0.006018
-5.660760 24.832001 0.006305
-5.345410 24.832001 0.006014
-5.030060 24.832001 0.005858
-4.714710 24.832001 0.005670
-4.399360 24.832001 0.005471
-4.084010 24.832001 0.005280
-3.768660 24.832001 0.005361
-3.453310 24.832001 0.006376
-3.137960 24.832001 0.007283
-2.822610 24.832001 0.007221
-2.507260 24.832001 0.007301
-2.191910 24.832001 0.007531
-1.876560 24.832001 0.007502
-1.561210 24.832001 0.006906
-1.245860 24.832001 0.006020
-0.930510 24.832001 0.004895
-0.615160 24.832001 0.003731
-0.299810 24.832001 0.002417
0.015540 24.832001 0.001473
0.330890 24.832001 0.000976
0.646240 24.832001 0.001282
0.961589 24.832001 0.001913
1.276940 24.832001 0.003502
1.592289 24.832001 0.005235
1.907640 24.832001 0.007285
2.222990 24.832001 0.009473
2.538340 24.832001 0.010614
2.853690 24.832001 0.010467
3.169039 24.832001 0.008683
3.484390 24.832001 0.006683
3.799739 24.832001 0.005123
4.115090 24.832001 0.003033
4.430439 24.832001 0.000838
4.745790 24.832001 -0.000974
5.061140 24.832001 -0.002256
5.376490 24.832001 -0.002360
5.691840 24.832001 -0.000897
6.007189 24.832001 0.001938
6.322540 24.832001 0.004882
6.637889 24.832001 0.006930
6.953240 24.832001 0.008011
7.268589 24.832001 0.007953
7.583940 24.832001 0.006689
7.899290 24.832001 0.003859
8.214640 24.832001 0.002737
8.529989 24.832001 0.003130
8.845339 24.832001 0.003529
9.160688 24.832001 0.022721
9.476040 24.832001 0.033496
9.791389 24.832001 0.036709
10.106739 24.832001 0.024531
10.422089 24.832001 0.071238
10.737438 24.832001 0.092459
11.052790 24.832001 0.153234
11.368139 24.832001 0.283465
11.683489 24.832001 0.356100
11.998838 24.832001 0.464401
12.314190 24.832001 0.559254
12.629539 24.832001 0.589812
12.944889 24.832001 0.646939
13.260239 24.832001 0.847507
13.575588 24.832001 1.010444
13.890940 24.832001 0.857767
14.206289 24.832001 1.007458
14.521639 24.832001 1.313962
14.836988 24.832001 1.428121
15.152340 24.832001 1.841022
15.467690 24.832001 2.208088
15.783039 24.832001 0.000000
16.098389 24.832001 0.000000
16.413738 24.832001 0.000000
16.729090 24.832001 0.000000
17.044439 24.832001 0.000000
17.359789 24.832001 0.000000
17.675138 24.832001 0.000000
17.990490 24.832001 0.000000
18.305840 24.832001 24.908375
18.621189 24.832001 29.431334
18.936539 24.832001 0.000000
19.251888 24.832001 0.000000
-7.237510 24.516651 0.000000
-6.922160 24.516651 0.013187
-6.606810 24.516651 0.007007
-6.291460 24.516651 0.005395
-5.976110 24.516651 0.005338
-5.660760 24.516651 0.005500
-5.345410 24.516651 0.005255
-5.030060 24.516651 0.005288
-4.714710 24.516651 0.005266
-4.399360 24.516651 0.005162
-4.084010 24.516651 0.005260
-3.768660 24.516651 0.005493
-3.453310 24.516651 0.006776
-3.137960 24.516651 0.007921
-2.822610 24.516651 0.007828
-2.507260 24.516651 0.007373
-2.191910 24.516651 0.007025
-1.876560 24.516651 0.006128
-1.561210 24.516651 0.005290
-1.245860 24.516651 0.004194
-0.930510 24.516651 0.003343
-0.615160 24.516651 0.002303
-0.299810 24.516651 0.001517
0.015540 24.516651 0.000832
0.330890 24.516651 0.000959
0.646240 24.516651 0.001871
0.961589 24.516651 0.003335
1.276940 24.516651 0.005599
1.592289 24.516651 0.007539
1.907640 24.516651 0.009354
2.222990 24.516651 0.010938
2.538340 24.516651 0.011179
2.853690 24.516651 0.009896
3.169039 24.516651 0.006788
3.484390 24.516651 0.003971
3.799739 24.516651 0.002095
4.115090 24.516651 0.000279
4.430439 24.516651 -0.001023
4.745790 24.516651 -0.001192
5.061140 24.516651 -0.000627
5.376490 24.516651 0.000315
5.691840 24.516651 0.002257
6.007189 24.516651 0.005167
6.322540 24.516651 0.008001
6.637889 24.516651 0.009663
6.953240 24.516651 0.009496
7.268589 24.516651 0.008086
7.583940 24.516651 0.005280
7.899290 24.516651 0.001516
8.214640 24.516651 -0.000674
8.529989 24.516651 0.001045
8.845339 24.516651 0.008063
9.160688 24.516651 0.024824
9.476040 24.516651 0.038322
9.791389 24.516651 0.040842
10.106739 24.516651 0.034386
10.422089 24.516651 0.058536
10.737438 24.516651 0.102055
11.052790 24.516651 0.144611
11.368139 24.516651 0.244908
11.683489 24.516651 0.378003
11.998838 24.516651 0.415906
12.314190 24.516651 0.486040
12.629539 24.516651 0.526352
12.944889 24.516651 0.694889
13.260239 24.516651 0.817062
13.575588 24.516651 0.949681
13.890940 24.516651 0.954141
14.206289 24.516651 0.937265
14.521639 24.516651 1.205169
14.836988 24.516651 1.548321
15.152340 24.516651 1.719586
15.467690 24.516651 1.953987
15.783039 24.516651 0.000000
16.098389 24.516651 0.000000
16.413738 24.516651 0.000000
16.729090 24.516651 0.000000
17.044439 24.516651 0.000000
17.359789 24.516651 0.000000
17.675138 24.516651 0.000000
17.990490 24.516651 0.000000
18.305840 24.516651 23.551931
18.621189 24.516651 28.446228
18.936539 24.516651 0.000000
19.251888 24.516651 0.000000
-7.237510 24.201302 0.000000
-6.922160 24.201302 0.012738
-6.606810 24.201302 0.006524
-6.291460 24.201302 0.004751
-5.976110 24.201302 0.004632
-5.660760 24.201302 0.004639
-5.345410 24.201302 0.004534
-5.030060 24.201302 0.004686
-4.714710 24.201302 0.004947
-4.399360 24.201302 0.005267
-4.084010 24.201302 0.005588
-3.768660 24.201302 0.006119
-3.453310 24.201302 0.007407
-3.137960 24.201302 0.008303
-2.822610 24.201302 0.008102
-2.507260 24.201302 0.006914
-2.191910 24.201302 0.005616
-1.876560 24.201302 0.004255
-1.561210 24.201302 0.003020
-1.245860 24.201302 0.002255
-0.930510 24.201302 0.001734
-0.615160 24.201302 0.001299
-0.299810 24.201302 0.001167
0.015540 24.201302 0.001220
0.330890 24.201302 0.002020
0.646240 24.201302 0.003564
0.961589 24.201302 0.005520
1.276940 24.201302 0.007982
1.592289 24.201302 0.009581
1.907640 24.201302 0.010678
2.222990 24.201302 0.010951
2.538340 24.201302 0.009968
2.853690 24.201302 0.007764
3.169039 24.201302 0.004151
3.484390 24.201302 0.001108
3.799739 24.201302 -0.000631
4.115090 24.201302 -0.001659
4.430439 24.201302 -0.001522
4.745790 24.201302 0.000026
5.061140 24.201302 0.001949
5.376490 24.201302 0.003777
5.691840 24.201302 0.005770
6.007189 24.201302 0.008251
6.322540 24.201302 0.010134
6.637889 24.201302 0.010564
6.953240 24.201302 0.008873
7.268589 24.201302 0.006079
7.583940 24.201302 0.001950
7.899290 24.201302 -0.001703
8.214640 24.201302 -0.003526
8.529989 24.201302 -0.000816
8.845339 24.201302 0.008802
9.160688 24.201302 0.024119
9.476040 24.201302 0.044858
9.791389 24.201302 0.036194
10.106739 24.201302 0.049333
10.422089 24.201302 0.084923
10.737438 24.201302 0.119947
11.052790 24.201302 0.153308
11.368139 24.201302 0.241084
11.683489 24.201302 0.343568
11.998838 24.201302 0.385217
12.314190 24.201302 0.501480
12.629539 24.201302 0.547791
12.944889 24.201302 0.697232
13.260239 24.201302 0.752539
13.575588 24.201302 0.972298
13.890940 24.201302 0.878368
14.206289 24.201302 0.878294
14.521639 24.201302 1.073633
14.836988 24.201302 1.458634
15.152340 24.201302 1.664968
15.467690 24.201302 1.820366
15.783039 24.201302 0.000000
16.098389 24.201302 0.000000
16.413738 24.201302 0.000000
16.729090 24.201302 0.000000
17.044439 24.201302 0.000000
17.359789 24.201302 0.000000
17.675138 24.201302 0.000000
17.990490 24.201302 0.000000
18.305840 24.201302 22.884295
18.621189 24.201302 27.375355
18.936539 24.201302 0.000000
19.251888 24.201302 0.000000
-7.237510 23.885950 0.000000
-6.922160 23.885950 0.012965
-6.606810 23.885950 0.006120
-6.291460 23.885950 0.004311
-5.976110 23.885950 0.004082
-5.660760 23.885950 0.004194
-5.345410 23.885950 0.004099
-5.030060 23.885950 0.004384
-4.714710 23.885950 0.005161
-4.399360 23.885950 0.005906
-4.084010 23.885950 0.006283
-3.768660 23.885950 0.006780
-3.453310 23.885950 0.007701
-3.137960 23.885950 0.007993
-2.822610 23.885950 0.007544
-2.507260 23.885950 0.005652
-2.191910 23.885950 0.003723
-1.876560 23.885950 0.002029
-1.561210 23.885950 0.000633
-1.245860 23.885950 0.000299
-0.930510 23.885950 0.000407
-0.615160 23.885950 0.000950
-0.299810 23.885950 0.001602
0.015540 23.885950 0.002387
0.330890 23.885950 0.003923
0.646240 23.885950 0.005868
0.961589 23.885950 0.007598
1.276940 23.885950 0.009486
1.592289 23.885950 0.010475
1.907640 23.885950 0.010417
2.222990 23.885950 0.009249
2.538340 23.885950 0.007269
2.853690 23.885950 0.004435
3.169039 23.885950 0.001074
3.484390 23.885950 -0.001475
3.799739 23.885950 -0.002390
4.115090 23.885950 -0.001980
4.430439 23.885950 -0.000294
4.745790 23.885950 0.002519
5.061140 23.885950 0.005353
5.376490 23.885950 0.007279
5.691840 23.885950 0.008937
6.007189 23.885950 0.010228
6.322540 23.885950 0.010459
6.637889 23.885950 0.009275
6.953240 23.885950 0.006559
7.268589 23.885950 0.002609
7.583940 23.885950 -0.001575
7.899290 23.885950 -0.004025
8.214640 23.885950 -0.003614
8.529989 23.885950 0.000001
8.845339 23.885950 0.004057
9.160688 23.885950 0.024486
9.476040 23.885950 0.035189
9.791389 23.885950 0.056361
10.106739 23.885950 0.055556
10.422089 23.885950 0.090562
10.737438 23.885950 0.126140
11.052790 23.885950 0.183316
11.368139 23.885950 0.223525
11.683489 23.885950 0.347630
11.998838 23.885950 0.403331
12.314190 23.885950 0.529421
12.629539 23.885950 0.618862
12.944889 23.885950 0.709225
13.260239 23.885950 0.827421
13.575588 23.885950 0.894947
13.890940 23.885950 0.882896
14.206289 23.885950 0.969975
14.521639 23.885950 1.110676
14.836988 23.885950 1.374786
15.152340 23.885950 1.704810
15.467690 23.885950 1.755695
15.783039 23.885950 0.000000
16.098389 23.885950 0.000000
16.413738 23.885950 0.000000
16.729090 23.885950 0.000000
17.044439 23.885950 0.000000
17.359789 23.885950 0.000000
17.675138 23.885950 0.000000
17.990490 23.885950 0.000000
18.305840 23.885950 22.727425
18.621189 23.885950 25.967628
18.936539 23.885950 0.000000
19.251888 23.885950 0.000000
-7.237510 23.570601 0.000000
-6.922160 23.570601 0.012604
-6.606810 23.570601 0.005489
-6.291460 23.570601 0.003858
-5.976110 23.570601 0.003849
-5.660760 23.570601 0.004091
-5.345410 23.570601 0.004294
-5.030060 23.570601 0.004874
-4.714710 23.570601 0.005970
-4.399360 23.570601 0.006814
-4.084010 23.570601 0.006872
-3.768660 23.570601 0.007115
-3.453310 23.570601 0.007303
-3.137960 23.570601 0.006731
-2.822610 23.570601 0.005611
-2.507260 23.570601 0.003593
-2.191910 23.570601 0.001466
-1.876560 23.570601 -0.000178
-1.561210 23.570601 -0.001224
-1.245860 23.570601 -0.001114
-0.930510 23.570601 0.000109
-0.615160 23.570601 0.001734
-0.299810 23.570601 0.003066
0.015540 23.570601 0.004493
0.330890 23.570601 0.006488
0.646240 23.570601 0.008265
0.961589 23.570601 0.009214
1.276940 23.570601 0.009868
1.592289 23.570601 0.009690
1.907640 23.570601 0.008579
2.222990 23.570601 0.006320
2.538340 23.570601 0.003548
2.853690 23.570601 0.001062
3.169039 23.570601 -0.001241
3.484390 23.570601 -0.002698
3.799739 23.570601 -0.002206
4.115090 23.570601 -0.000237
4.430439 23.570601 0.002433
4.745790 23.570601 0.005775
5.061140 23.570601 0.008569
5.376490 23.570601 0.010052
5.691840 23.570601 0.010524
6.007189 23.570601 0.010264
6.322540 23.570601 0.008775
6.637889 23.570601 0.006017
6.953240 23.570601 0.002463
7.268589 23.570601 -0.001908
7.583940 23.570601 -0.005792
7.899290 23.570601 -0.006159
8.214640 23.570601 -0.003373
8.529989 23.570601 -0.001990
8.845339 23.570601 0.003378
9.160688 23.570601 0.024699
9.476040 23.570601 0.029688
9.791389 23.570601 0.056175
10.106739 23.570601 0.067862
10.422089 23.570601 0.091808
10.737438 23.570601 0.167541
11.052790 23.570601 0.175733
11.368139 23.570601 0.245888
11.683489 23.570601 0.317183
11.998838 23.570601 0.404533
12.314190 23.570601 0.576390
12.629539 23.570601 0.674817
12.944889 23.570601 0.729466
13.260239 23.570601 0.876809
13.575588 23.570601 0.926256
13.890940 23.570601 1.030487
14.206289 23.570601 1.036510
14.521639 23.570601 1.052725
14.836988 23.570601 1.226637
15.152340 23.570601 1.587899
15.467690 23.570601 1.885482
15.783039 23.570601 0.000000
16.098389 23.570601 0.000000
16.413738 23.570601 0.000000
16.729090 23.570601 0.000000
17.044439 23.570601 0.000000
17.359789 23.570601 0.000000
17.675138 23.570601 0.000000
17.990490 23.570601 0.000000
18.305840 23.570601 23.766758
18.621189 23.570601 27.845146
18.936539 23.570601 0.000000
19.251888 23.570601 0.000000
-7.237510 23.255251 0.000000
-6.922160 23.255251 0.012039
-6.606810 23.255251 0.004962
-6.291460 23.255251 0.003499
-5.976110 23.255251 0.003879
-5.660760 23.255251 0.004347
-5.345410 23.255251 0.004859
-5.030060 23.255251 0.005892
-4.714710 23.255251 0.006853
-4.399360 23.255251 0.007242
-4.084010 23.255251 0.006971
-3.768660 23.255251 0.006596
-3.453310 23.255251 0.005940
-3.137960 23.255251 0.004523
-2.822610 23.255251 0.002857
-2.507260 23.255251 0.000981
-2.191910 23.255251 -0.000561
-1.876560 23.255251 -0.001560
-1.561210 23.255251 -0.001800
-1.245860 23.255251 -0.001021
-0.930510 23.255251 0.001131
-0.615160 23.255251 0.003553
-0.299810 23.255251 0.005398
0.015540 23.255251 0.007004
0.330890 23.255251 0.008673
0.646240 23.255251 0.009668
0.961589 23.255251 0.009578
1.276940 23.255251 0.008892
1.592289 23.255251 0.007501
1.907640 23.255251 0.005254
2.222990 23.255251 0.002372
2.538340 23.255251 -0.000173
2.853690 23.255251 -0.001564
3.169039 23.255251 -0.002028
3.484390 23.255251 -0.001634
3.799739 23.255251 0.000042
4.115090 23.255251 0.003053
4.430439 23.255251 0.006059
4.745790 23.255251 0.008953
5.061140 23.255251 0.010815
5.376490 23.255251 0.011263
5.691840 23.255251 0.010304
6.007189 23.255251 0.008073
6.322540 23.255251 0.004884
6.637889 23.255251 0.000948
6.953240 23.255251 -0.002567
7.268589 23.255251 -0.005731
7.583940 23.255251 -0.007807
7.899290 23.255251 -0.005614
8.214640 23.255251 0.000235
8.529989 23.255251 0.002479
8.845339 23.255251 0.009588
9.160688 23.255251 0.021120
9.476040 23.255251 0.042225
9.791389 23.255251 0.052754
10.106739 23.255251 0.058859
10.422089 23.255251 0.109545
10.737438 23.255251 0.177250
11.052790 23.255251 0.209007
11.368139 23.255251 0.259265
11.683489 23.255251 0.346208
11.998838 23.255251 0.449466
12.314190 23.255251 0.555228
12.629539 23.255251 0.669100
12.944889 23.255251 0.773652
13.260239 23.255251 0.885571
13.575588 23.255251 0.980714
13.890940 23.255251 1.039861
14.206289 23.255251 1.070983
14.521639 23.255251 1.086130
14.836988 23.255251 1.249556
15.152340 23.255251 1.539301
15.467690 23.255251 1.760763
15.783039 23.255251 0.000000
16.098389 23.255251 0.000000
16.413738 23.255251 0.000000
16.729090 23.255251 0.000000
17.044439 23.255251 0.000000
17.359789 23.255251 0.000000
17.675138 23.255251 0.000000
17.990490 23.255251 0.000000
18.305840 23.255251 24.564987
18.621189 23.255251 28.842634
18.936539 23.255251 0.000000
19.251888 23.255251 0.000000
-7.237510 22.939901 0.000000
-6.922160 22.939901 0.011548
-6.606810 22.939901 0.004956
-6.291460 22.939901 0.003726
-5.976110 22.939901 0.004347
-5.660760 22.939901 0.005070
-5.345410 22.939901 0.005717
-5.030060 22.939901 0.006785
-4.714710 22.939901 0.007149
-4.399360 22.939901 0.006848
-4.084010 22.939901 0.006065
-3.768660 22.939901 0.005080
-3.453310 22.939901 0.003625
-3.137960 22.939901 0.001620
-2.822610 22.939901 -0.000053
-2.507260 22.939901 -0.001203
-2.191910 22.939901 -0.001578
-1.876560 22.939901 -0.001588
-1.561210 22.939901 -0.000784
-1.245860 22.939901 0.000809
-0.930510 22.939901 0.003307
-0.615160 22.939901 0.005989
-0.299810 22.939901 0.007623
0.015540 22.939901 0.008783
0.330890 22.939901 0.009561
0.646240 22.939901 0.009578
0.961589 22.939901 0.008175
1.276940 22.939901 0.006320
1.592289 22.939901 0.004050
1.907640 22.939901 0.001491
2.222990 22.939901 -0.001242
2.538340 22.939901 -0.002796
2.853690 22.939901 -0.002536
3.169039 22.939901 -0.000784
3.484390 22.939901 0.001485
3.799739 22.939901 0.004075
4.115090 22.939901 0.007037
4.430439 22.939901 0.009403
4.745790 22.939901 0.010946
5.061140 22.939901 0.011320
5.376490 22.939901 0.010263
5.691840 22.939901 0.007797
6.007189 22.939901 0.004257
6.322540 22.939901 0.000224
6.637889 22.939901 -0.003529
6.953240 22.939901 -0.006253
7.268589 22.939901 -0.007424
7.583940 22.939901 -0.006782
7.899290 22.939901 -0.005151
8.214640 22.939901 0.001497
8.529989 22.939901 0.003591
8.845339 22.939901 0.010223
9.160688 22.939901 0.021442
9.476040 22.939901 0.035113
9.791389 22.939901 0.043532
10.106739 22.939901 0.067100
10.422089 22.939901 0.104549
10.737438 22.939901 0.183885
11.052790 22.939901 0.213729
11.368139 22.939901 0.276415
11.683489 22.939901 0.366319
11.998838 22.939901 0.459217
12.314190 22.939901 0.549011
12.629539 22.939901 0.715723
12.944889 22.939901 0.813550
13.260239 22.939901 0.873992
13.575588 22.939901 1.103805
13.890940 22.939901 1.077172
14.206289 22.939901 1.120436
14.521639 22.939901 1.185166
14.836988 22.939901 1.250671
15.152340 22.939901 1.506004
15.467690 22.939901 1.798649
15.783039 22.939901 0.000000
16.098389 22.939901 0.000000
16.413738 22.939901 0.000000
16.729090 22.939901 0.000000
17.044439 22.939901 0.000000
17.359789 22.939901 0.000000
17.675138 22.939901 0.000000
17.990490 22.939901 0.000000
18.305840 22.939901 26.839161
18.621189 22.939901 30.197178
18.936539 22.939901 0.000000
19.251888 22.939901 0.000000
-7.237510 22.624552 0.000000
-6.922160 22.624552 0.012088
-6.606810 22.624552 0.005494
-6.291460 22.624552 0.004655
-5.976110 22.624552 0.005269
-5.660760 22.624552 0.006064
-5.345410 22.624552 0.006425
-5.030060 22.624552 0.006750
-4.714710 22.624552 0.006387
-4.399360 22.624552 0.005453
-4.084010 22.624552 0.004048
-3.768660 22.624552 0.002648
-3.453310 22.624552 0.000777
-3.137960 22.624552 -0.001076
-2.822610 22.624552 -0.001951
-2.507260 22.624552 -0.002206
-2.191910 22.624552 -0.001152
-1.876560 22.624552 0.000154
-1.561210 22.624552 0.001671
-1.245860 22.624552 0.003752
-0.930510 22.624552 0.005922
-0.615160 22.624552 0.007935
-0.299810 22.624552 0.008858
0.015540 22.624552 0.009014
0.330890 22.624552 0.008719
0.646240 22.624552 0.007484
0.961589 22.624552 0.005141
1.276940 22.624552 0.002621
1.592289 22.624552 0.000358
1.907640 22.624552 -0.001758
2.222990 22.624552 -0.003262
2.538340 22.624552 -0.003264
2.853690 22.624552 -0.001166
3.169039 22.624552 0.002316
3.484390 22.624552 0.005734
3.799739 22.624552 0.008286
4.115090 22.624552 0.010242
4.430439 22.624552 0.011255
4.745790 22.624552 0.010998
5.061140 22.624552 0.009731
5.376490 22.624552 0.007299
5.691840 22.624552 0.004011
6.007189 22.624552 -0.000133
6.322540 22.624552 -0.003837
6.637889 22.624552 -0.006299
6.953240 22.624552 -0.007002
7.268589 22.624552 -0.005853
7.583940 22.624552 -0.004871
7.899290 22.624552 -0.002246
8.214640 22.624552 0.001827
8.529989 22.624552 0.006502
8.845339 22.624552 0.008955
9.160688 22.624552 0.018422
9.476040 22.624552 0.034228
9.791389 22.624552 0.054183
10.106739 22.624552 0.070023
10.422089 22.624552 0.096180
10.737438 22.624552 0.153779
11.052790 22.624552 0.191193
11.368139 22.624552 0.314812
11.683489 22.624552 0.408577
11.998838 22.624552 0.466880
12.314190 22.624552 0.532055
12.629539 22.624552 0.674389
12.944889 22.624552 0.860050
13.260239 22.624552 1.019407
13.575588 22.624552 1.145890
13.890940 22.624552 1.163369
14.206289 22.624552 1.125757
14.521639 22.624552 1.270526
14.836988 22.624552 1.396226
15.152340 22.624552 1.660186
15.467690 22.624552 1.857041
15.783039 22.624552 0.000000
16.098389 22.624552 0.000000
16.413738 22.624552 0.000000
16.729090 22.624552 0.000000
17.044439 22.624552 0.000000
17.359789 22.624552 0.000000
17.675138 22.624552 0.000000
17.990490 22.624552 0.000000
18.305840 22.624552 28.232853
18.621189 22.624552 32.424679
18.936539 22.624552 0.000000
19.251888 22.624552 0.000000
-7.237510 22.309200 0.000000
-6.922160 22.309200 0.012621
-6.606810 22.309200 0.006630
-6.291460 22.309200 0.005801
-5.976110 22.309200 0.006213
-5.660760 22.309200 0.006465
-5.345410 22.309200 0.006153
-5.030060 22.309200 0.005516
-4.714710 22.309200 0.004278
-4.399360 22.309200 0.003008
-4.084010 22.309200 0.001652
-3.768660 22.309200 0.000191
-3.453310 22.309200 -0.001357
-3.137960 22.309200 -0.002310
-2.822610 22.309200 -0.002240
-2.507260 22.309200 -0.001307
-2.191910 22.309200 0.000847
-1.876560 22.309200 0.003056
-1.561210 22.309200 0.004836
-1.245860 22.309200 0.006365
-0.930510 22.309200 0.007715
-0.615160 22.309200 0.008751
-0.299810 22.309200 0.008620
0.015540 22.309200 0.007574
0.330890 22.309200 0.006148
0.646240 22.309200 0.003873
0.961589 22.309200 0.001192
1.276940 22.309200 -0.001024
1.592289 22.309200 -0.002282
1.907640 22.309200 -0.002990
2.222990 22.309200 -0.002750
2.538340 22.309200 -0.000988
2.853690 22.309200 0.002330
3.169039 22.309200 0.006250
3.484390 22.309200 0.009467
3.799739 22.309200 0.011057
4.115090 22.309200 0.011630
4.430439 22.309200 0.010925
4.745790 22.309200 0.008774
5.061140 22.309200 0.006118
5.376490 22.309200 0.003199
5.691840 22.309200 -0.000017
6.007189 22.309200 -0.003234
6.322540 22.309200 -0.005543
6.637889 22.309200 -0.006136
6.953240 22.309200 -0.004655
7.268589 22.309200 -0.002575
7.583940 22.309200 -0.000609
7.899290 22.309200 0.000762
8.214640 22.309200 0.003357
8.529989 22.309200 0.005264
8.845339 22.309200 0.005076
9.160688 22.309200 0.021419
9.476040 22.309200 0.025515
9.791389 22.309200 0.043359
10.106739 22.309200 0.063430
10.422089 22.309200 0.070483
10.737438 22.309200 0.116514
11.052790 22.309200 0.192692
11.368139 22.309200 0.286890
11.683489 22.309200 0.379744
11.998838 22.309200 0.457076
12.314190 22.309200 0.579252
12.629539 22.309200 0.652316
12.944889 22.309200 0.804668
13.260239 22.309200 1.015279
13.575588 22.309200 1.252876
13.890940 22.309200 1.206836
14.206289 22.309200 1.281994
14.521639 22.309200 1.389002
14.836988 22.309200 1.499717
15.152340 22.309200 1.883229
15.467690 22.309200 2.149899
15.783039 22.309200 0.000000
16.098389 22.309200 0.000000
16.413738 22.309200 0.000000
16.729090 22.309200 0.000000
17.044439 22.309200 0.000000
17.359789 22.309200 0.000000
17.675138 22.309200 0.000000
17.990490 22.309200 0.000000
18.305840 22.309200 29.733402
18.621189 22.309200 33.546139
18.936539 22.309200 0.000000
19.251888 22.309200 0.000000
-7.237510 21.993851 0.000000
-6.922160 21.993851 0.012970
-6.606810 21.993851 0.007601
-6.291460 21.993851 0.006690
-5.976110 21.993851 0.006331
-5.660760 21.993851 0.005685
-5.345410 21.993851 0.004789
-5.030060 21.993851 0.003254
-4.714710 21.993851 0.001501
-4.399360 21.993851 0.000157
-4.084010 21.993851 -0.000719
-3.768660 21.993851 -0.001299
-3.453310 21.993851 -0.001903
-3.137960 21.993851 -0.001684
-2.822610 21.993851 -0.000636
-2.507260 21.993851 0.001341
-2.191910 21.993851 0.003850
-1.876560 21.993851 0.006227
-1.561210 21.993851 0.007607
-1.245860 21.993851 0.008044
-0.930510 21.993851 0.008105
-0.615160 21.993851 0.007880
-0.299810 21.993851 0.006684
0.015540 21.993851 0.004727
0.330890 21.993851 0.002577
0.646240 21.993851 0.000020
0.961589 21.993851 -0.002169
1.276940 21.993851 -0.003103
1.592289 21.993851 -0.002815
1.907640 21.993851 -0.001705
2.222990 21.993851 0.000085
2.538340 21.993851 0.002844
2.853690 21.993851 0.006115
3.169039 21.993851 0.009411
3.484390 21.993851 0.011351
3.799739 21.993851 0.011658
4.115090 21.993851 0.010591
4.430439 21.993851 0.008202
4.745790 21.993851 0.004932
5.061140 21.993851 0.001586
5.376490 21.993851 -0.000775
5.691840 21.993851 -0.002423
6.007189 21.993851 -0.003950
6.322540 21.993851 -0.004234
6.637889 21.993851 -0.002836
6.953240 21.993851 -0.000440
7.268589 21.993851 0.001820
7.583940 21.993851 0.002680
7.899290 21.993851 0.003674
8.214640 21.993851 0.004526
8.529989 21.993851 0.006010
8.845339 21.993851 0.008806
9.160688 21.993851 0.022112
9.476040 21.993851 0.038543
9.791389 21.993851 0.042892
10.106739 21.993851 0.044108
10.422089 21.993851 0.062160
10.737438 21.993851 0.115206
11.052790 21.993851 0.170698
11.368139 21.993851 0.246634
11.683489 21.993851 0.349596
11.998838 21.993851 0.453642
12.314190 21.993851 0.571854
12.629539 21.993851 0.702178
12.944889 21.993851 0.898899
13.260239 21.993851 1.087313
13.575588 21.993851 1.201204
13.890940 21.993851 1.326782
14.206289 21.993851 1.286818
14.521639 21.993851 1.396704
14.836988 21.993851 1.609756
15.152340 21.993851 1.974311
15.467690 21.993851 2.256879
15.783039 21.993851 0.000000
16.098389 21.993851 0.000000
16.413738 21.993851 0.000000
16.729090 21.993851 0.000000
17.044439 21.993851 0.000000
17.359789 21.993851 0.000000
17.675138 21.993851 0.000000
17.990490 21.993851 0.000000
18.305840 21.993851 30.823967
18.621189 21.993851 34.851646
18.936539 21.993851 0.000000
19.251888 21.993851 0.000000
-7.237510 21.678501 0.000000
-6.922160 21.678501 0.012859
-6.606810 21.678501 0.007667
-6.291460 21.678501 0.006295
-5.976110 21.678501 0.004998
-5.660760 21.678501 0.003583
-5.345410 21.678501 0.002473
-5.030060 21.678501 0.000628
-4.714710 21.678501 -0.001179
-4.399360 21.678501 -0.002078
-4.084010 21.678501 -0.002034
-3.768660 21.678501 -0.001252
-3.453310 21.678501 -0.000458
-3.137960 21.678501 0.000728
-2.822610 21.678501 0.002444
-2.507260 21.678501 0.004529
-2.191910 21.678501 0.006625
-1.876560 21.678501 0.008458
-1.561210 21.678501 0.008912
-1.245860 21.678501 0.008051
-0.930510 21.678501 0.006457
-0.615160 21.678501 0.005105
-0.299810 21.678501 0.003238
0.015540 21.678501 0.000970
0.330890 21.678501 -0.001154
0.646240 21.678501 -0.002789
0.961589 21.678501 -0.003509
1.276940 21.678501 -0.002748
1.592289 21.678501 -0.000845
1.907640 21.678501 0.001626
2.222990 21.678501 0.004198
2.538340 21.678501 0.006700
2.853690 21.678501 0.009063
3.169039 21.678501 0.010501
3.484390 21.678501 0.010855
3.799739 21.678501 0.009770
4.115090 21.678501 0.007547
4.430439 21.678501 0.004319
4.745790 21.678501 0.000806
5.061140 21.678501 -0.001998
5.376490 21.678501 -0.002976
5.691840 21.678501 -0.002558
6.007189 21.678501 -0.001847
6.322540 21.678501 -0.000616
6.637889 21.678501 0.001733
6.953240 21.678501 0.004217
7.268589 21.678501 0.005287
7.583940 21.678501 0.003997
7.899290 21.678501 0.003284
8.214640 21.678501 0.002903
8.529989 21.678501 0.004052
8.845339 21.678501 0.009078
9.160688 21.678501 0.021624
9.476040 21.678501 0.027402
9.791389 21.678501 0.042431
10.106739 21.678501 0.057898
10.422089 21.678501 0.094349
10.737438 21.678501 0.117889
11.052790 21.678501 0.181581
11.368139 21.678501 0.254887
11.683489 21.678501 0.348578
11.998838 21.678501 0.461734
12.314190 21.678501 0.517808
12.629539 21.678501 0.761321
12.944889 21.678501 0.879054
13.260239 21.678501 0.999064
13.575588 21.678501 1.128746
13.890940 21.678501 1.232842
14.206289 21.678501 1.377227
14.521639 21.678501 1.373309
14.836988 21.678501 1.809397
15.152340 21.678501 2.325665
15.467690 21.678501 2.546625
15.783039 21.678501 0.000000
16.098389 21.678501 0.000000
16.413738 21.678501 0.000000
16.729090 21.678501 0.000000
17.044439 21.678501 0.000000
17.359789 21.678501 0.000000
17.675138 21.678501 0.000000
17.990490 21.678501 0.000000
18.305840 21.678501 31.409136
18.621189 21.678501 34.528042
18.936539 21.678501 0.000000
19.251888 21.678501 0.000000
-7.237510 21.363152 0.000000
-6.922160 21.363152 0.011664
-6.606810 21.363152 0.006224
-6.291460 21.363152 0.004400
-5.976110 21.363152 0.002427
-5.660760 21.363152 0.000852
-5.345410 21.363152 -0.000226
-5.030060 21.363152 -0.001686
-4.714710 21.363152 -0.002609
-4.399360 21.363152 -0.002526
-4.084010 21.363152 -0.001518
-3.768660 21.363152 0.000455
-3.453310 21.363152 0.002379
-3.137960 21.363152 0.004104
-2.822610 21.363152 0.005818
-2.507260 21.363152 0.007129
-2.191910 21.363152 0.008109
-1.876560 21.363152 0.008594
-1.561210 21.363152 0.007803
-1.245860 21.363152 0.005710
-0.930510 21.363152 0.003228
-0.615160 21.363152 0.001176
-0.299810 21.363152 -0.000718
0.015540 21.363152 -0.002505
0.330890 21.363152 -0.003475
0.646240 21.363152 -0.003391
0.961589 21.363152 -0.002358
1.276940 21.363152 -0.000005
1.592289 21.363152 0.002699
1.907640 21.363152 0.005603
2.222990 21.363152 0.007838
2.538340 21.363152 0.009203
2.853690 21.363152 0.009844
3.169039 21.363152 0.009237
3.484390 21.363152 0.007973
3.799739 21.363152 0.006024
4.115090 21.363152 0.003439
4.430439 21.363152 0.000431
4.745790 21.363152 -0.002024
5.061140 21.363152 -0.003320
5.376490 21.363152 -0.002374
5.691840 21.363152 -0.000167
6.007189 21.363152 0.001953
6.322540 21.363152 0.003928
6.637889 21.363152 0.005922
6.953240 21.363152 0.006942
7.268589 21.363152 0.007058
7.583940 21.363152 0.005029
7.899290 21.363152 0.000784
8.214640 21.363152 0.000894
8.529989 21.363152 0.000028
8.845339 21.363152 0.011577
9.160688 21.363152 0.015301
9.476040 21.363152 0.029828
9.791389 21.363152 0.050405
10.106739 21.363152 0.059661
10.422089 21.363152 0.107787
10.737438 21.363152 0.115234
11.052790 21.363152 0.178831
11.368139 21.363152 0.233779
11.683489 21.363152 0.389168
11.998838 21.363152 0.444790
12.314190 21.363152 0.529144
12.629539 21.363152 0.723096
12.944889 21.363152 0.972821
13.260239 21.363152 1.023672
13.575588 21.363152 1.077037
13.890940 21.363152 1.128741
14.206289 21.363152 1.369137
14.521639 21.363152 1.420394
14.836988 21.363152 1.625769
15.152340 21.363152 2.074297
15.467690 21.363152 2.593864
15.783039 21.363152 0.000000
16.098389 21.363152 0.000000
16.413738 21.363152 0.000000
16.729090 21.363152 0.000000
17.044439 21.363152 0.000000
17.359789 21.363152 0.000000
17.675138 21.363152 0.000000
17.990490 21.363152 0.000000
18.305840 21.363152 31.183323
18.621189 21.363152 34.838413
18.936539 21.363152 0.000000
19.251888 21.363152 0.000000
-7.237510 21.047800 0.000000
-6.922160 21.047800 0.008684
-6.606810 21.047800 0.003447
-6.291460 21.047800 0.001351
-5.976110 21.047800 -0.000543
-5.660760 21.047800 -0.001717
-5.345410 21.047800 -0.001982
-5.030060 21.047800 -0.002328
-4.714710 21.047800 -0.001944
-4.399360 21.047800 -0.000720
-4.084010 21.047800 0.000991
-3.768660 21.047800 0.003234
-3.453310 21.047800 0.005449
-3.137960 21.047800 0.006986
-2.822610 21.047800 0.007944
-2.507260 21.047800 0.008069
-2.191910 21.047800 0.007547
-1.876560 21.047800 0.006401
-1.561210 21.047800 0.004499
-1.245860 21.047800 0.001733
-0.930510 21.047800 -0.000814
-0.615160 21.047800 -0.002542
-0.299810 21.047800 -0.003537
0.015540 21.047800 -0.003943
0.330890 21.047800 -0.003214
0.646240 21.047800 -0.001408
0.961589 21.047800 0.000959
1.276940 21.047800 0.003974
1.592289 21.047800 0.006564
1.907640 21.047800 0.008429
2.222990 21.047800 0.009409
2.538340 21.047800 0.009242
2.853690 21.047800 0.008115
3.169039 21.047800 0.005991
3.484390 21.047800 0.003795
3.799739 21.047800 0.001729
4.115090 21.047800 -0.000382
4.430439 21.047800 -0.001905
4.745790 21.047800 -0.002538
5.061140 21.047800 -0.001785
5.376490 21.047800 0.000534
5.691840 21.047800 0.003454
6.007189 21.047800 0.006085
6.322540 21.047800 0.007553
6.637889 21.047800 0.008096
6.953240 21.047800 0.007489
7.268589 21.047800 0.006579
7.583940 21.047800 0.002867
7.899290 21.047800 -0.000901
8.214640 21.047800 -0.001063
8.529989 21.047800 0.003511
8.845339 21.047800 0.014419
9.160688 21.047800 0.014417
9.476040 21.047800 0.034256
9.791389 21.047800 0.036370
10.106739 21.047800 0.058578
10.422089 21.047800 0.071761
10.737438 21.047800 0.132553
11.052790 21.047800 0.153573
11.368139 21.047800 0.269781
11.683489 21.047800 0.348863
11.998838 21.047800 0.420207
12.314190 21.047800 0.576742
12.629539 21.047800 0.673177
12.944889 21.047800 0.953588
13.260239 21.047800 0.994593
13.575588 21.047800 1.051330
13.890940 21.047800 1.133587
14.206289 21.047800 1.338153
14.521639 21.047800 1.632702
14.836988 21.047800 1.819040
15.152340 21.047800 2.090803
15.467690 21.047800 2.504010
15.783039 21.047800 0.000000
16.098389 21.047800 0.000000
16.413738 21.047800 0.000000
16.729090 21.047800 0.000000
17.044439 21.047800 0.000000
17.359789 21.047800 0.000000
17.675138 21.047800 0.000000
17.990490 21.047800 0.000000
18.305840 21.047800 32.559032
18.621189 21.047800 36.139542
18.936539 21.047800 0.000000
19.251888 21.047800 0.000000
-7.237510 20.732450 0.000000
-6.922160 20.732450 0.005143
-6.606810 20.732450 0.000209
-6.291460 20.732450 -0.001639
-5.976110 20.732450 -0.002428
-5.660760 20.732450 -0.002486
-5.345410 20.732450 -0.001727
-5.030060 20.732450 -0.000927
-4.714710 20.732450 0.000704
-4.399360 20.732450 0.002706
-4.084010 20.732450 0.004381
-3.768660 20.732450 0.005956
-3.453310 20.732450 0.007529
-3.137960 20.732450 0.008179
-2.822610 20.732450 0.007877
-2.507260 20.732450 0.006646
-2.191910 20.732450 0.004759
-1.876560 20.732450 0.002408
-1.561210 20.732450 0.000082
-1.245860 20.732450 -0.002496
-0.930510 20.732450 -0.004140
-0.615160 20.732450 -0.004564
-0.299810 20.732450 -0.004007
0.015540 20.732450 -0.002702
0.330890 20.732450 -0.000386
0.646240 20.732450 0.002401
0.961589 20.732450 0.004879
1.276940 20.732450 0.007401
1.592289 20.732450 0.008916
1.907640 20.732450 0.009069
2.222990 20.732450 0.008469
2.538340 20.732450 0.006819
2.853690 20.732450 0.004454
3.169039 20.732450 0.001853
3.484390 20.732450 -0.000120
3.799739 20.732450 -0.001543
4.115090 20.732450 -0.002064
4.430439 20.732450 -0.001666
4.745790 20.732450 -0.000450
5.061140 20.732450 0.001742
5.376490 20.732450 0.004435
5.691840 20.732450 0.006930
6.007189 20.732450 0.008498
6.322540 20.732450 0.008727
6.637889 20.732450 0.007748
6.953240 20.732450 0.005854
7.268589 20.732450 0.003891
7.583940 20.732450 0.001041
7.899290 20.732450 -0.000602
8.214640 20.732450 -0.001449
8.529989 20.732450 0.005559
8.845339 20.732450 0.011032
9.160688 20.732450 0.018855
9.476040 20.732450 0.034746
9.791389 20.732450 0.028609
10.106739 20.732450 0.058136
10.422089 20.732450 0.083327
10.737438 20.732450 0.114320
11.052790 20.732450 0.158856
11.368139 20.732450 0.262163
11.683489 20.732450 0.323934
11.998838 20.732450 0.424468
12.314190 20.732450 0.510732
12.629539 20.732450 0.677639
12.944889 20.732450 0.876759
13.260239 20.732450 1.008398
13.575588 20.732450 1.086135
13.890940 20.732450 1.262942
14.206289 20.732450 1.346146
14.521639 20.732450 1.728394
14.836988 20.732450 1.769185
15.152340 20.732450 2.093748
15.467690 20.732450 2.560561
15.783039 20.732450 0.000000
16.098389 20.732450 0.000000
16.413738 20.732450 0.000000
16.729090 20.732450 0.000000
17.044439 20.732450 0.000000
17.359789 20.732450 0.000000
17.675138 20.732450 0.000000
17.990490 20.732450 0.000000
18.305840 20.732450 34.132442
18.621189 20.732450 37.872360
18.936539 20.732450 0.000000
19.251888 20.732450 0.000000
-7.237510 20.417101 0.000000
-6.922160 20.417101 0.001931
-6.606810 20.417101 -0.002137
-6.291460 20.417101 -0.002847
-5.976110 20.417101 -0.002239
-5.660760 20.417101 -0.000884
-5.345410 20.417101 0.000700
-5.030060 20.417101 0.002320
-4.714710 20.417101 0.004271
-4.399360 20.417101 0.006081
-4.084010 20.417101 0.006993
-3.768660 20.417101 0.007475
-3.453310 20.417101 0.007631
-3.137960 20.417101 0.007003
-2.822610 20.417101 0.005353
-2.507260 20.417101 0.003174
-2.191910 20.417101 0.000618
-1.876560 20.417101 -0.001730
-1.561210 20.417101 -0.003522
-1.245860 20.417101 -0.004766
-0.930510 20.417101 -0.004978
-0.615160 20.417101 -0.003865
-0.299810 20.417101 -0.001780
0.015540 20.417101 0.000629
0.330890 20.417101 0.003559
0.646240 20.417101 0.006192
0.961589 20.417101 0.007781
1.276940 20.417101 0.008688
1.592289 20.417101 0.008547
1.907640 20.417101 0.007082
2.222990 20.417101 0.005250
2.538340 20.417101 0.002709
2.853690 20.417101 0.000319
3.169039 20.417101 -0.001599
3.484390 20.417101 -0.002534
3.799739 20.417101 -0.002301
4.115090 20.417101 -0.001006
4.430439 20.417101 0.000788
4.745790 20.417101 0.003152
5.061140 20.417101 0.005554
5.376490 20.417101 0.007588
5.691840 20.417101 0.008632
6.007189 20.417101 0.008403
6.322540 20.417101 0.007249
6.637889 20.417101 0.005111
6.953240 20.417101 0.002563
7.268589 20.417101 0.000815
7.583940 20.417101 -0.001098
7.899290 20.417101 -0.001228
8.214640 20.417101 -0.000782
8.529989 20.417101 0.005294
8.845339 20.417101 0.013831
9.160688 20.417101 0.020083
9.476040 20.417101 0.030865
9.791389 20.417101 0.038428
10.106739 20.417101 0.066545
10.422089 20.417101 0.102759
10.737438 20.417101 0.158322
11.052790 20.417101 0.207284
11.368139 20.417101 0.276832
11.683489 20.417101 0.338130
11.998838 20.417101 0.402640
12.314190 20.417101 0.553277
12.629539 20.417101 0.695711
12.944889 20.417101 1.013138
13.260239 20.417101 1.072641
13.575588 20.417101 1.118096
13.890940 20.417101 1.201855
14.206289 20.417101 1.368279
14.521639 20.417101 1.561063
14.836988 20.417101 1.846167
15.152340 20.417101 2.280178
15.467690 20.417101 2.514905
15.783039 20.417101 0.000000
16.098389 20.417101 0.000000
16.413738 20.417101 0.000000
16.729090 20.417101 0.000000
17.044439 20.417101 0.000000
17.359789 20.417101 0.000000
17.675138 20.417101 0.000000
17.990490 20.417101 0.000000
18.305840 20.417101 35.441128
18.621189 20.417101 40.157688
18.936539 20.417101 0.000000
19.251888 20.417101 0.000000
-7.237510 20.101751 0.000000
-6.922160 20.101751 0.000489
-6.606810 20.101751 -0.002521
-6.291460 20.101751 -0.001870
-5.976110 20.101751 0.000049
-5.660760 20.101751 0.002249
-5.345410 20.101751 0.004088
-5.030060 20.101751 0.005784
-4.714710 20.101751 0.007223
-4.399360 20.101751 0.007983
-4.084010 20.101751 0.007615
-3.768660 20.101751 0.006716
-3.453310 20.101751 0.005527
-3.137960 20.101751 0.003797
-2.822610 20.101751 0.001434
-2.507260 20.101751 -0.001053
-2.191910 20.101751 -0.003097
-1.876560 20.101751 -0.004266
-1.561210 20.101751 -0.004561
-1.245860 20.101751 -0.004023
-0.930510 20.101751 -0.002726
-0.615160 20.101751 -0.000655
-0.299810 20.101751 0.001947
0.015540 20.101751 0.004254
0.330890 20.101751 0.006527
0.646240 20.101751 0.008134
0.961589 20.101751 0.008205
1.276940 20.101751 0.007511
1.592289 20.101751 0.005591
1.907640 20.101751 0.003080
2.222990 20.101751 0.000802
2.538340 20.101751 -0.001260
2.853690 20.101751 -0.002487
3.169039 20.101751 -0.002769
3.484390 20.101751 -0.002126
3.799739 20.101751 -0.000383
4.115090 20.101751 0.001983
4.430439 20.101751 0.004128
4.745790 20.101751 0.006455
5.061140 20.101751 0.007988
5.376490 20.101751 0.008688
5.691840 20.101751 0.007976
6.007189 20.101751 0.006132
6.322540 20.101751 0.003912
6.637889 20.101751 0.001623
6.953240 20.101751 -0.000503
7.268589 20.101751 -0.001637
7.583940 20.101751 -0.001664
7.899290 20.101751 -0.000398
8.214640 20.101751 -0.000855
8.529989 20.101751 0.005965
8.845339 20.101751 0.016705
9.160688 20.101751 0.030332
9.476040 20.101751 0.026801
9.791389 20.101751 0.039248
10.106739 20.101751 0.062810
10.422089 20.101751 0.109419
10.737438 20.101751 0.167060
11.052790 20.101751 0.203278
11.368139 20.101751 0.299598
11.683489 20.101751 0.359707
11.998838 20.101751 0.488112
12.314190 20.101751 0.537794
12.629539 20.101751 0.696427
12.944889 20.101751 0.824890
13.260239 20.101751 1.011522
13.575588 20.101751 1.115391
13.890940 20.101751 1.307245
14.206289 20.101751 1.367100
14.521639 20.101751 1.602534
14.836988 20.101751 1.889270
15.152340 20.101751 2.349189
15.467690 20.101751 2.966561
15.783039 20.101751 0.000000
16.098389 20.101751 0.000000
16.413738 20.101751 0.000000
16.729090 20.101751 0.000000
17.044439 20.101751 0.000000
17.359789 20.101751 0.000000
17.675138 20.101751 0.000000
17.990490 20.101751 0.000000
18.305840 20.101751 37.030052
18.621189 20.101751 41.791161
18.936539 20.101751 0.000000
19.251888 20.101751 0.000000
-7.237510 19.786402 0.000000
-6.922160 19.786402 0.001792
-6.606810 19.786402 -0.000359
-6.291460 19.786402 0.001130
-5.976110 19.786402 0.003510
-5.660760 19.786402 0.005546
-5.345410 19.786402 0.006810
-5.030060 19.786402 0.007668
-4.714710 19.786402 0.007962
-4.399360 19.786402 0.007273
-4.084010 19.786402 0.005688
-3.768660 19.786402 0.003791
-3.453310 19.786402 0.001785
-3.137960 19.786402 -0.000268
-2.822610 19.786402 -0.002423
-2.507260 19.786402 -0.004118
-2.191910 19.786402 -0.004605
-1.876560 19.786402 -0.004077
-1.561210 19.786402 -0.002635
-1.245860 19.786402 -0.000663
-0.930510 19.786402 0.001456
-0.615160 19.786402 0.003463
-0.299810 19.786402 0.005321
0.015540 19.786402 0.006460
0.330890 19.786402 0.007196
0.646240 19.786402 0.007302
0.961589 19.786402 0.005876
1.276940 19.786402 0.003912
1.592289 19.786402 0.001362
1.907640 19.786402 -0.001161
2.222990 19.786402 -0.002796
2.538340 19.786402 -0.003410
2.853690 19.786402 -0.002859
3.169039 19.786402 -0.001302
3.484390 19.786402 0.000487
3.799739 19.786402 0.002800
4.115090 19.786402 0.005238
4.430439 19.786402 0.006829
4.745790 19.786402 0.007842
5.061140 19.786402 0.008105
5.376490 19.786402 0.007160
5.691840 19.786402 0.005058
6.007189 19.786402 0.002436
6.322540 19.786402 0.000280
6.637889 19.786402 -0.001174
6.953240 19.786402 -0.002204
7.268589 19.786402 -0.002306
7.583940 19.786402 -0.002056
7.899290 19.786402 -0.001817
8.214640 19.786402 -0.001629
8.529989 19.786402 0.003824
8.845339 19.786402 0.015611
9.160688 19.786402 0.027223
9.476040 19.786402 0.031868
9.791389 19.786402 0.053333
10.106739 19.786402 0.071763
10.422089 19.786402 0.115642
10.737438 19.786402 0.154201
11.052790 19.786402 0.265922
11.368139 19.786402 0.321054
11.683489 19.786402 0.446854
11.998838 19.786402 0.489954
12.314190 19.786402 0.608417
12.629539 19.786402 0.727215
12.944889 19.786402 0.853944
13.260239 19.786402 1.023713
13.575588 19.786402 1.174581
13.890940 19.786402 1.370351
14.206289 19.786402 1.453799
14.521639 19.786402 1.870680
14.836988 19.786402 2.172461
15.152340 19.786402 2.470089
15.467690 19.786402 2.928368
15.783039 19.786402 0.000000
16.098389 19.786402 0.000000
16.413738 19.786402 0.000000
16.729090 19.786402 0.000000
17.044439 19.786402 0.000000
17.359789 19.786402 0.000000
17.675138 19.786402 0.000000
17.990490 19.786402 0.000000
18.305840 19.786402 36.411903
18.621189 19.786402 42.058720
18.936539 19.786402 0.000000
19.251888 19.786402 0.000000
-7.237510 19.471050 0.000000
-6.922160 19.471050 0.005261
-6.606810 19.471050 0.003509
-6.291460 19.471050 0.004753
-5.976110 19.471050 0.006468
-5.660760 19.471050 0.007254
-5.345410 19.471050 0.007369
-5.030060 19.471050 0.007089
-4.714710 19.471050 0.005965
-4.399360 19.471050 0.004005
-4.084010 19.471050 0.001779
-3.768660 19.471050 -0.000307
-3.453310 19.471050 -0.002032
-3.137960 19.471050 -0.003328
-2.822610 19.471050 -0.004326
-2.507260 19.471050 -0.004427
-2.191910 19.471050 -0.003156
-1.876560 19.471050 -0.001104
-1.561210 19.471050 0.001275
-1.245860 19.471050 0.003558
-0.930510 19.471050 0.005272
-0.615160 19.471050 0.006208
-0.299810 19.471050 0.006454
0.015540 19.471050 0.006035
0.330890 19.471050 0.005289
0.646240 19.471050 0.003982
0.961589 19.471050 0.001845
1.276940 19.471050 -0.000369
1.592289 19.471050 -0.002462
1.907640 19.471050 -0.003679
2.222990 19.471050 -0.003764
2.538340 19.471050 -0.002730
2.853690 19.471050 -0.000681
3.169039 19.471050 0.001761
3.484390 19.471050 0.003636
3.799739 19.471050 0.005490
4.115090 19.471050 0.007076
4.430439 19.471050 0.007449
4.745790 19.471050 0.007030
5.061140 19.471050 0.006088
5.376490 19.471050 0.004074
5.691840 19.471050 0.001510
6.007189 19.471050 -0.000743
6.322540 19.471050 -0.001922
6.637889 19.471050 -0.002178
6.953240 19.471050 -0.001734
7.268589 19.471050 -0.001810
7.583940 19.471050 -0.001495
7.899290 19.471050 -0.001515
8.214640 19.471050 -0.000315
8.529989 19.471050 0.007072
8.845339 19.471050 0.015533
9.160688 19.471050 0.022075
9.476040 19.471050 0.030864
9.791389 19.471050 0.060869
10.106739 19.471050 0.074738
10.422089 19.471050 0.113171
10.737438 19.471050 0.168369
11.052790 19.471050 0.234255
11.368139 19.471050 0.353847
11.683489 19.471050 0.425329
11.998838 19.471050 0.534455
12.314190 19.471050 0.634469
12.629539 19.471050 0.719724
12.944889 19.471050 0.808505
13.260239 19.471050 0.981272
13.575588 19.471050 1.239827
13.890940 19.471050 1.424127
14.206289 19.471050 1.556367
14.521639 19.471050 1.765518
14.836988 19.471050 2.214818
15.152340 19.471050 2.421873
15.467690 19.471050 2.657944
15.783039 19.471050 0.000000
16.098389 19.471050 0.000000
16.413738 19.471050 0.000000
16.729090 19.471050 0.000000
17.044439 19.471050 0.000000
17.359789 19.471050 0.000000
17.675138 19.471050 0.000000
17.990490 19.471050 0.000000
18.305840 19.471050 36.756153
18.621189 19.471050 42.014023
18.936539 19.471050 0.000000
19.251888 19.471050 0.000000
-7.237510 19.155701 0.000000
-6.922160 19.155701 0.009183
-6.606810 19.155701 0.006821
-6.291460 19.155701 0.006946
-5.976110 19.155701 0.007193
-5.660760 19.155701 0.006472
-5.345410 19.155701 0.005271
-5.030060 19.155701 0.003881
-4.714710 19.155701 0.001932
-4.399360 19.155701 -0.000398
-4.084010 19.155701 -0.002330
-3.768660 19.155701 -0.003464
-3.453310 19.155701 -0.003794
-3.137960 19.155701 -0.003735
-2.822610 19.155701 -0.003282
-2.507260 19.155701 -0.001778
-2.191910 19.155701 0.000551
-1.876560 19.155701 0.003015
-1.561210 19.155701 0.005126
-1.245860 19.155701 0.006474
-0.930510 19.155701 0.006835
-0.615160 19.155701 0.006158
-0.299810 19.155701 0.004775
0.015540 19.155701 0.003042
0.330890 19.155701 0.001521
0.646240 19.155701 -0.000182
0.961589 19.155701 -0.002045
1.276940 19.155701 -0.003320
1.592289 19.155701 -0.004047
1.907640 19.155701 -0.003457
2.222990 19.155701 -0.002000
2.538340 19.155701 0.000103
2.853690 19.155701 0.002636
3.169039 19.155701 0.004589
3.484390 19.155701 0.005736
3.799739 19.155701 0.006485
4.115090 19.155701 0.006807
4.430439 19.155701 0.005912
4.745790 19.155701 0.004441
5.061140 19.155701 0.002868
5.376490 19.155701 0.000856
5.691840 19.155701 -0.001073
6.007189 19.155701 -0.002046
6.322540 19.155701 -0.002013
6.637889 19.155701 -0.001158
6.953240 19.155701 -0.000356
7.268589 19.155701 -0.000341
7.583940 19.155701 -0.000525
7.899290 19.155701 -0.000418
8.214640 19.155701 0.000817
8.529989 19.155701 0.010072
8.845339 19.155701 0.012386
9.160688 19.155701 0.018896
9.476040 19.155701 0.020015
9.791389 19.155701 0.060294
10.106739 19.155701 0.073706
10.422089 19.155701 0.097599
10.737438 19.155701 0.144042
11.052790 19.155701 0.189194
11.368139 19.155701 0.305527
11.683489 19.155701 0.439167
11.998838 19.155701 0.528278
12.314190 19.155701 0.635815
12.629539 19.155701 0.795784
12.944889 19.155701 0.892043
13.260239 19.155701 0.949718
13.575588 19.155701 1.165596
13.890940 19.155701 1.306764
14.206289 19.155701 1.575398
14.521639 19.155701 1.793550
14.836988 19.155701 2.220158
15.152340 19.155701 2.504118
15.467690 19.155701 2.791847
15.783039 19.155701 0.000000
16.098389 19.155701 0.000000
16.413738 19.155701 0.000000
16.729090 19.155701 0.000000
17.044439 19.155701 0.000000
17.359789 19.155701 0.000000
17.675138 19.155701 0.000000
17.990490 19.155701 0.000000
18.305840 19.155701 37.453407
18.621189 19.155701 41.741699
18.936539 19.155701 0.000000
19.251888 19.155701 0.000000
-7.237510 18.840351 0.000000
-6.922160 18.840351 0.010875
-6.606810 18.840351 0.007534
-6.291460 18.840351 0.006424
-5.976110 18.840351 0.005209
-5.660760 18.840351 0.003266
-5.345410 18.840351 0.001313
-5.030060 18.840351 -0.000391
-4.714710 18.840351 -0.002225
-4.399360 18.840351 -0.003785
-4.084010 18.840351 -0.004211
-3.768660 18.840351 -0.003798
-3.453310 18.840351 -0.002565
-3.137960 18.840351 -0.001268
-2.822610 18.840351 0.000114
-2.507260 18.840351 0.002253
-2.191910 18.840351 0.004506
-1.876560 18.840351 0.006048
-1.561210 18.840351 0.006927
-1.245860 18.840351 0.006666
-0.930510 18.840351 0.005441
-0.615160 18.840351 0.003525
-0.299810 18.840351 0.001249
0.015540 18.840351 -0.000903
0.330890 18.840351 -0.002241
0.646240 18.840351 -0.003243
0.961589 18.840351 -0.003845
1.276940 18.840351 -0.003543
1.592289 18.840351 -0.002607
1.907640 18.840351 -0.000791
2.222990 18.840351 0.001304
2.538340 18.840351 0.003409
2.853690 18.840351 0.005192
3.169039 18.840351 0.005948
3.484390 18.840351 0.005867
3.799739 18.840351 0.005441
4.115090 18.840351 0.004712
4.430439 18.840351 0.003213
4.745790 18.840351 0.001443
5.061140 18.840351 0.000079
5.376490 18.840351 -0.000923
5.691840 18.840351 -0.001345
6.007189 18.840351 -0.001085
6.322540 18.840351 -0.000327
6.637889 18.840351 0.000838
6.953240 18.840351 0.001417
7.268589 18.840351 0.000644
7.583940 18.840351 0.000125
7.899290 18.840351 0.000583
8.214640 18.840351 0.004179
8.529989 18.840351 0.009908
8.845339 18.840351 0.016407
9.160688 18.840351 0.019249
9.476040 18.840351 0.034409
9.791389 18.840351 0.047387
10.106739 18.840351 0.070500
10.422089 18.840351 0.091839
10.737438 18.840351 0.135484
11.052790 18.840351 0.209682
11.368139 18.840351 0.276927
11.683489 18.840351 0.469588
11.998838 18.840351 0.565730
12.314190 18.840351 0.639847
12.629539 18.840351 0.773721
12.944889 18.840351 0.958554
13.260239 18.840351 0.974895
13.575588 18.840351 1.143638
13.890940 18.840351 1.349928
14.206289 18.840351 1.669427
14.521639 18.840351 1.865471
14.836988 18.840351 2.157198
15.152340 18.840351 2.540101
15.467690 18.840351 2.778981
15.783039 18.840351 0.000000
16.098389 18.840351 0.000000
16.413738 18.840351 0.000000
16.729090 18.840351 0.000000
17.044439 18.840351 0.000000
17.359789 18.840351 0.000000
17.675138 18.840351 0.000000
17.990490 18.840351 0.000000
18.305840 18.840351 36.312111
18.621189 18.840351 40.800331
18.936539 18.840351 0.000000
19.251888 18.840351 0.000000
-7.237510 18.525002 0.000000
-6.922160 18.525002 0.009770
-6.606810 18.525002 0.005529
-6.291460 18.525002 0.003488
-5.976110 18.525002 0.001398
-5.660760 18.525002 -0.000963
-5.345410 18.525002 -0.002476
-5.030060 18.525002 -0.003501
-4.714710 18.525002 -0.004191
-4.399360 18.525002 -0.004079
-4.084010 18.525002 -0.002674
-3.768660 18.525002 -0.000961
-3.453310 18.525002 0.000985
-3.137960 18.525002 0.002614
-2.822610 18.525002 0.003909
-2.507260 18.525002 0.005509
-2.191910 18.525002 0.006517
-1.876560 18.525002 0.006531
-1.561210 18.525002 0.005678
-1.245860 18.525002 0.004022
-0.930510 18.525002 0.001855
-0.615160 18.525002 -0.000287
-0.299810 18.525002 -0.002367
0.015540 18.525002 -0.003835
0.330890 18.525002 -0.004230
0.646240 18.525002 -0.003772
0.961589 18.525002 -0.002825
1.276940 18.525002 -0.001230
1.592289 18.525002 0.000698
1.907640 18.525002 0.002657
2.222990 18.525002 0.004194
2.538340 18.525002 0.005231
2.853690 18.525002 0.005639
3.169039 18.525002 0.005115
3.484390 18.525002 0.004094
3.799739 18.525002 0.003005
4.115090 18.525002 0.001917
4.430439 18.525002 0.000770
4.745790 18.525002 -0.000414
5.061140 18.525002 -0.000904
5.376490 18.525002 -0.000733
5.691840 18.525002 0.000038
6.007189 18.525002 0.001063
6.322540 18.525002 0.002046
6.637889 18.525002 0.002733
6.953240 18.525002 0.002563
7.268589 18.525002 0.001518
7.583940 18.525002 0.001490
7.899290 18.525002 0.002130
8.214640 18.525002 0.004256
8.529989 18.525002 0.010381
8.845339 18.525002 0.016063
9.160688 18.525002 0.020871
9.476040 18.525002 0.034419
9.791389 18.525002 0.055384
10.106739 18.525002 0.074088
10.422089 18.525002 0.101351
10.737438 18.525002 0.123214
11.052790 18.525002 0.214472
11.368139 18.525002 0.277419
11.683489 18.525002 0.481632
11.998838 18.525002 0.603933
12.314190 18.525002 0.617587
12.629539 18.525002 0.771245
12.944889 18.525002 0.823131
13.260239 18.525002 1.003357
13.575588 18.525002 1.048725
13.890940 18.525002 1.299484
14.206289 18.525002 1.492891
14.521639 18.525002 1.853901
14.836988 18.525002 2.220762
15.152340 18.525002 2.644394
15.467690 18.525002 2.777300
15.783039 18.525002 0.000000
16.098389 18.525002 0.000000
16.413738 18.525002 0.000000
16.729090 18.525002 0.000000
17.044439 18.525002 0.000000
17.359789 18.525002 0.000000
17.675138 18.525002 0.000000
17.990490 18.525002 0.000000
18.305840 18.525002 35.279709
18.621189 18.525002 39.374619
18.936539 18.525002 0.000000
19.251888 18.525002 0.000000
-7.237510 18.209652 0.000000
-6.922160 18.209652 0.006386
-6.606810 18.209652 0.001840
-6.291460 18.209652 -0.000383
-5.976110 18.209652 -0.002211
-5.660760 18.209652 -0.003557
-5.345410 18.209652 -0.003805
-5.030060 18.209652 -0.003431
-4.714710 18.209652 -0.002718
-4.399360 18.209652 -0.001152
-4.084010 18.209652 0.001144
-3.768660 18.209652 0.003148
-3.453310 18.209652 0.004794
-3.137960 18.209652 0.005582
-2.822610 18.209652 0.005886
-2.507260 18.209652 0.006234
-2.191910 18.209652 0.005685
-1.876560 18.209652 0.004185
-1.561210 18.209652 0.002105
-1.245860 18.209652 0.000005
-0.930510 18.209652 -0.001762
-0.615160 18.209652 -0.003095
-0.299810 18.209652 -0.003736
0.015540 18.209652 -0.003962
0.330890 18.209652 -0.003201
0.646240 18.209652 -0.001699
0.961589 18.209652 0.000020
1.276940 18.209652 0.001899
1.592289 18.209652 0.003613
1.907640 18.209652 0.004805
2.222990 18.209652 0.005191
2.538340 18.209652 0.004762
2.853690 18.209652 0.003935
3.169039 18.209652 0.002794
3.484390 18.209652 0.001461
3.799739 18.209652 0.000540
4.115090 18.209652 0.000113
4.430439 18.209652 -0.000302
4.745790 18.209652 -0.000436
5.061140 18.209652 -0.000175
5.376490 18.209652 0.000825
5.691840 18.209652 0.002143
6.007189 18.209652 0.003125
6.322540 18.209652 0.003570
6.637889 18.209652 0.003471
6.953240 18.209652 0.003052
7.268589 18.209652 0.001659
7.583940 18.209652 0.001785
7.899290 18.209652 0.002725
8.214640 18.209652 0.009128
8.529989 18.209652 0.013310
8.845339 18.209652 0.020021
9.160688 18.209652 0.025316
9.476040 18.209652 0.031209
9.791389 18.209652 0.055787
10.106739 18.209652 0.082121
10.422089 18.209652 0.076809
10.737438 18.209652 0.131822
11.052790 18.209652 0.195546
11.368139 18.209652 0.266368
11.683489 18.209652 0.430732
11.998838 18.209652 0.565623
12.314190 18.209652 0.643894
12.629539 18.209652 0.727848
12.944889 18.209652 0.922984
13.260239 18.209652 0.981826
13.575588 18.209652 1.114932
13.890940 18.209652 1.247614
14.206289 18.209652 1.559548
14.521639 18.209652 1.748588
14.836988 18.209652 2.113318
15.152340 18.209652 2.619152
15.467690 18.209652 3.168774
15.783039 18.209652 0.000000
16.098389 18.209652 0.000000
16.413738 18.209652 0.000000
16.729090 18.209652 0.000000
17.044439 18.209652 0.000000
17.359789 18.209652 0.000000
17.675138 18.209652 0.000000
17.990490 18.209652 0.000000
18.305840 18.209652 36.146030
18.621189 18.209652 39.860847
18.936539 18.209652 0.000000
19.251888 18.209652 0.000000
-7.237510 17.894302 0.000000
-6.922160 17.894302 0.002655
-6.606810 17.894302 -0.001267
-6.291460 17.894302 -0.002801
-5.976110 17.894302 -0.003429
-5.660760 17.894302 -0.003087
-5.345410 17.894302 -0.001733
-5.030060 17.894302 -0.000212
-4.714710 17.894302 0.001278
-4.399360 17.894302 0.003083
-4.084010 17.894302 0.004896
-3.768660 17.894302 0.006154
-3.453310 17.894302 0.006519
-3.137960 17.894302 0.006030
-2.822610 17.894302 0.004974
-2.507260 17.894302 0.003992
-2.191910 17.894302 0.002488
-1.876560 17.894302 0.000277
-1.561210 17.894302 -0.001798
-1.245860 17.894302 -0.002990
-0.930510 17.894302 -0.003425
-0.615160 17.894302 -0.003173
-0.299810 17.894302 -0.002250
0.015540 17.894302 -0.001419
0.330890 17.894302 -0.000247
0.646240 17.894302 0.001345
0.961589 17.894302 0.002713
1.276940 17.894302 0.003697
1.592289 17.894302 0.004468
1.907640 17.894302 0.004650
2.222990 17.894302 0.003890
2.538340 17.894302 0.002607
2.853690 17.894302 0.001295
3.169039 17.894302 0.000228
3.484390 17.894302 -0.000463
3.799739 17.894302 -0.000525
4.115090 17.894302 -0.000128
4.430439 17.894302 0.000376
4.745790 17.894302 0.000798
5.061140 17.894302 0.001419
5.376490 17.894302 0.002521
5.691840 17.894302 0.003680
6.007189 17.894302 0.004150
6.322540 17.894302 0.003988
6.637889 17.894302 0.003603
6.953240 17.894302 0.003149
7.268589 17.894302 0.002043
7.583940 17.894302 0.001565
7.899290 17.894302 0.003173
8.214640 17.894302 0.008501
8.529989 17.894302 0.015080
8.845339 17.894302 0.019847
9.160688 17.894302 0.022530
9.476040 17.894302 0.030114
9.791389 17.894302 0.049169
10.106739 17.894302 0.061557
10.422089 17.894302 0.078664
10.737438 17.894302 0.118540
11.052790 17.894302 0.201961
11.368139 17.894302 0.307219
11.683489 17.894302 0.470107
11.998838 17.894302 0.573020
12.314190 17.894302 0.706215
12.629539 17.894302 0.819664
12.944889 17.894302 0.903594
13.260239 17.894302 1.019354
13.575588 17.894302 1.224681
13.890940 17.894302 1.198174
14.206289 17.894302 1.498359
14.521639 17.894302 1.808875
14.836988 17.894302 2.298297
15.152340 17.894302 2.812100
15.467690 17.894302 3.390087
15.783039 17.894302 0.000000
16.098389 17.894302 0.000000
16.413738 17.894302 0.000000
16.729090 17.894302 0.000000
17.044439 17.894302 0.000000
17.359789 17.894302 0.000000
17.675138 17.894302 0.000000
17.990490 17.894302 0.000000
18.305840 17.894302 38.059666
18.621189 17.894302 41.699085
18.936539 17.894302 0.000000
19.251888 17.894302 0.000000
-7.237510 17.578953 0.000000
-6.922160 17.578953 0.000995
-6.606810 17.578953 -0.001794
-6.291460 17.578953 -0.002036
-5.976110 17.578953 -0.001408
-5.660760 17.578953 0.000237
-5.345410 17.578953 0.002312
-5.030060 17.578953 0.003982
-4.714710 17.578953 0.005218
-4.399360 17.578953 0.006095
-4.084010 17.578953 0.006485
-3.768660 17.578953 0.006414
-3.453310 17.578953 0.005433
-3.137960 17.578953 0.003694
-2.822610 17.578953 0.001779
-2.507260 17.578953 0.000257
-2.191910 17.578953 -0.001106
-1.876560 17.578953 -0.002691
-1.561210 17.578953 -0.003705
-1.245860 17.578953 -0.003346
-0.930510 17.578953 -0.002185
-0.615160 17.578953 -0.000670
-0.299810 17.578953 0.001067
0.015540 17.578953 0.002005
0.330890 17.578953 0.002750
0.646240 17.578953 0.003578
0.961589 17.578953 0.003904
1.276940 17.578953 0.003628
1.592289 17.578953 0.003322
1.907640 17.578953 0.002571
2.222990 17.578953 0.001449
2.538340 17.578953 0.000105
2.853690 17.578953 -0.000838
3.169039 17.578953 -0.001150
3.484390 17.578953 -0.000729
3.799739 17.578953 -0.000028
4.115090 17.578953 0.001011
4.430439 17.578953 0.001745
4.745790 17.578953 0.002337
5.061140 17.578953 0.002879
5.376490 17.578953 0.003608
5.691840 17.578953 0.004267
6.007189 17.578953 0.004098
6.322540 17.578953 0.003600
6.637889 17.578953 0.003293
6.953240 17.578953 0.002739
7.268589 17.578953 0.002277
7.583940 17.578953 0.000856
7.899290 17.578953 0.003045
8.214640 17.578953 0.008242
8.529989 17.578953 0.011832
8.845339 17.578953 0.020417
9.160688 17.578953 0.027764
9.476040 17.578953 0.034315
9.791389 17.578953 0.042193
10.106739 17.578953 0.048884
10.422089 17.578953 0.069877
10.737438 17.578953 0.106097
11.052790 17.578953 0.205041
11.368139 17.578953 0.287390
11.683489 17.578953 0.461505
11.998838 17.578953 0.598638
12.314190 17.578953 0.728034
12.629539 17.578953 0.824984
12.944889 17.578953 0.858968
13.260239 17.578953 1.005190
13.575588 17.578953 1.316661
13.890940 17.578953 1.317695
14.206289 17.578953 1.407576
14.521639 17.578953 1.779161
14.836988 17.578953 2.283139
15.152340 17.578953 3.118239
15.467690 17.578953 3.430896
15.783039 17.578953 0.000000
16.098389 17.578953 0.000000
16.413738 17.578953 0.000000
16.729090 17.578953 0.000000
17.044439 17.578953 0.000000
17.359789 17.578953 0.000000
17.675138 17.578953 0.000000
17.990490 17.578953 0.000000
18.305840 17.578953 40.664726
18.621189 17.578953 44.691040
18.936539 17.578953 0.000000
19.251888 17.578953 0.000000
-7.237510 17.263599 0.000000
-6.922160 17.263599 0.002711
-6.606810 17.263599 0.000835
-6.291460 17.263599 0.001337
-5.976110 17.263599 0.002548
-5.660760 17.263599 0.004376
-5.345410 17.263599 0.005983
-5.030060 17.263599 0.006675
-4.714710 17.263599 0.006674
-4.399360 17.263599 0.006123
-4.084010 17.263599 0.005109
-3.768660 17.263599 0.003893
-3.453310 17.263599 0.002259
-3.137960 17.263599 0.000177
-2.822610 17.263599 -0.001589
-2.507260 17.263599 -0.002551
-2.191910 17.263599 -0.002761
-1.876560 17.263599 -0.002932
-1.561210 17.263599 -0.002594
-1.245860 17.263599 -0.001070
-0.930510 17.263599 0.000934
-0.615160 17.263599 0.002667
-0.299810 17.263599 0.004019
0.015540 17.263599 0.004319
0.330890 17.263599 0.004094
0.646240 17.263599 0.003717
0.961589 17.263599 0.003031
1.276940 17.263599 0.001878
1.592289 17.263599 0.000959
1.907640 17.263599 0.000227
2.222990 17.263599 -0.000531
2.538340 17.263599 -0.001167
2.853690 17.263599 -0.001415
3.169039 17.263599 -0.000823
3.484390 17.263599 0.000228
3.799739 17.263599 0.001278
4.115090 17.263599 0.002181
4.430439 17.263599 0.002872
4.745790 17.263599 0.003332
5.061140 17.263599 0.003637
5.376490 17.263599 0.003834
5.691840 17.263599 0.003777
6.007189 17.263599 0.003443
6.322540 17.263599 0.002780
6.637889 17.263599 0.002348
6.953240 17.263599 0.001779
7.268589 17.263599 0.001370
7.583940 17.263599 0.000261
7.899290 17.263599 0.002059
8.214640 17.263599 0.003501
8.529989 17.263599 0.010542
8.845339 17.263599 0.021598
9.160688 17.263599 0.035196
9.476040 17.263599 0.036505
9.791389 17.263599 0.046348
10.106739 17.263599 0.055398
10.422089 17.263599 0.089976
10.737438 17.263599 0.142702
11.052790 17.263599 0.244573
11.368139 17.263599 0.337544
11.683489 17.263599 0.424871
11.998838 17.263599 0.610099
12.314190 17.263599 0.737509
12.629539 17.263599 0.761000
12.944889 17.263599 0.882175
13.260239 17.263599 1.029050
13.575588 17.263599 1.240185
13.890940 17.263599 1.297654
14.206289 17.263599 1.513362
14.521639 17.263599 1.745222
14.836988 17.263599 2.165516
15.152340 17.263599 3.142073
15.467690 17.263599 3.341634
15.783039 17.263599 0.000000
16.098389 17.263599 0.000000
16.413738 17.263599 0.000000
16.729090 17.263599 0.000000
17.044439 17.263599 0.000000
17.359789 17.263599 0.000000
17.675138 17.263599 0.000000
17.990490 17.263599 44.532436
18.305840 17.263599 44.991814
18.621189 17.263599 48.820961
18.936539 17.263599 0.000000
19.251888 17.263599 0.000000
-7.237510 16.948250 0.000000
-6.922160 16.948250 0.006534
-6.606810 16.948250 0.004699
-6.291460 16.948250 0.005069
-5.976110 16.948250 0.005842
-5.660760 16.948250 0.006767
-5.345410 16.948250 0.007144
-5.030060 16.948250 0.006430
-4.714710 16.948250 0.005107
-4.399360 16.948250 0.003544
-4.084010 16.948250 0.001850
-3.768660 16.948250 0.000401
-3.453310 16.948250 -0.000814
-3.137960 16.948250 -0.002069
-2.822610 16.948250 -0.002773
-2.507260 16.948250 -0.002571
-2.191910 16.948250 -0.001528
-1.876560 16.948250 -0.000410
-1.561210 16.948250 0.000692
-1.245860 16.948250 0.002320
-0.930510 16.948250 0.003910
-0.615160 16.948250 0.004800
-0.299810 16.948250 0.005113
0.015540 16.948250 0.004520
0.330890 16.948250 0.003338
0.646240 16.948250 0.002104
0.961589 16.948250 0.000992
1.276940 16.948250 -0.000195
1.592289 16.948250 -0.000846
1.907640 16.948250 -0.000929
2.222990 16.948250 -0.000810
2.538340 16.948250 -0.000701
2.853690 16.948250 -0.000274
3.169039 16.948250 0.000553
3.484390 16.948250 0.001573
3.799739 16.948250 0.002333
4.115090 16.948250 0.002869
4.430439 16.948250 0.003331
4.745790 16.948250 0.003613
5.061140 16.948250 0.003622
5.376490 16.948250 0.003322
5.691840 16.948250 0.003072
6.007189 16.948250 0.002604
6.322540 16.948250 0.001966
6.637889 16.948250 0.001409
6.953240 16.948250 0.000802
7.268589 16.948250 -0.000177
7.583940 16.948250 -0.000689
7.899290 16.948250 -0.000181
8.214640 16.948250 0.001175
8.529989 16.948250 0.009240
8.845339 16.948250 0.022491
9.160688 16.948250 0.036677
9.476040 16.948250 0.028221
9.791389 16.948250 0.038456
10.106739 16.948250 0.054942
10.422089 16.948250 0.128074
10.737438 16.948250 0.203276
11.052790 16.948250 0.254746
11.368139 16.948250 0.344781
11.683489 16.948250 0.438417
11.998838 16.948250 0.578504
12.314190 16.948250 0.742471
12.629539 16.948250 0.819620
12.944889 16.948250 0.965026
13.260239 16.948250 1.066107
13.575588 16.948250 1.216380
13.890940 16.948250 1.291203
14.206289 16.948250 1.407642
14.521639 16.948250 1.923406
14.836988 16.948250 2.453108
15.152340 16.948250 3.054263
15.467690 16.948250 3.717968
15.783039 16.948250 0.000000
16.098389 16.948250 0.000000
16.413738 16.948250 0.000000
16.729090 16.948250 0.000000
17.044439 16.948250 0.000000
17.359789 16.948250 0.000000
17.675138 16.948250 0.000000
17.990490 16.948250 57.502331
18.305840 16.948250 47.367485
18.621189 16.948250 51.314373
18.936539 16.948250 0.000000
19.251888 16.948250 0.000000
-7.237510 16.632900 0.000000
-6.922160 16.632900 0.009670
-6.606810 16.632900 0.007195
-6.291460 16.632900 0.006704
-5.976110 16.632900 0.006505
-5.660760 16.632900 0.006251
-5.345410 16.632900 0.005334
-5.030060 16.632900 0.003720
-4.714710 16.632900 0.001862
-4.399360 16.632900 0.000397
-4.084010 16.632900 -0.000877
-3.768660 16.632900 -0.001514
-3.453310 16.632900 -0.001502
-3.137960 16.632900 -0.001459
-2.822610 16.632900 -0.000889
-2.507260 16.632900 0.000158
-2.191910 16.632900 0.001575
-1.876560 16.632900 0.002966
-1.561210 16.632900 0.003805
-1.245860 16.632900 0.004604
-0.930510 16.632900 0.004987
-0.615160 16.632900 0.004743
-0.299810 16.632900 0.004085
0.015540 16.632900 0.002774
0.330890 16.632900 0.001293
0.646240 16.632900 0.000006
0.961589 16.632900 -0.000724
1.276940 16.632900 -0.001127
1.592289 16.632900 -0.000984
1.907640 16.632900 -0.000297
2.222990 16.632900 0.000461
2.538340 16.632900 0.000943
2.853690 16.632900 0.001404
3.169039 16.632900 0.001966
3.484390 16.632900 0.002495
3.799739 16.632900 0.002792
4.115090 16.632900 0.002909
4.430439 16.632900 0.003103
4.745790 16.632900 0.003250
5.061140 16.632900 0.003127
5.376490 16.632900 0.002596
5.691840 16.632900 0.002171
6.007189 16.632900 0.001745
6.322540 16.632900 0.001235
6.637889 16.632900 0.000949
6.953240 16.632900 0.000266
7.268589 16.632900 -0.000776
7.583940 16.632900 -0.000824
7.899290 16.632900 -0.000661
8.214640 16.632900 0.001441
8.529989 16.632900 0.007134
8.845339 16.632900 0.022164
9.160688 16.632900 0.034953
9.476040 16.632900 0.025079
9.791389 16.632900 0.031459
10.106739 16.632900 0.062553
10.422089 16.632900 0.135407
10.737438 16.632900 0.213153
11.052790 16.632900 0.275351
11.368139 16.632900 0.328705
11.683489 16.632900 0.473326
11.998838 16.632900 0.587444
12.314190 16.632900 0.673044
12.629539 16.632900 0.823691
12.944889 16.632900 0.945867
13.260239 16.632900 0.975118
13.575588 16.632900 1.176290
13.890940 16.632900 1.353822
14.206289 16.632900 1.493638
14.521639 16.632900 1.977074
14.836988 16.632900 2.736070
15.152340 16.632900 3.432921
15.467690 16.632900 3.959016
15.783039 16.632900 0.000000
16.098389 16.632900 0.000000
16.413738 16.632900 0.000000
16.729090 16.632900 0.000000
17.044439 16.632900 0.000000
17.359789 16.632900 0.000000
17.675138 16.632900 0.000000
17.990490 16.632900 48.746105
18.305840 16.632900 48.169270
18.621189 16.632900 51.914509
18.936539 16.632900 0.000000
19.251888 16.632900 0.000000
-7.237510 16.317551 0.000000
-6.922160 16.317551 0.010088
-6.606810 16.317551 0.006817
-6.291460 16.317551 0.005423
-5.976110 16.317551 0.004482
-5.660760 16.317551 0.003502
-5.345410 16.317551 0.002085
-5.030060 16.317551 0.000532
-4.714710 16.317551 -0.000538
-4.399360 16.317551 -0.000962
-4.084010 16.317551 -0.001031
-3.768660 16.317551 -0.000400
-3.453310 16.317551 0.000776
-3.137960 16.317551 0.001645
-2.822610 16.317551 0.002676
-2.507260 16.317551 0.003567
-2.191910 16.317551 0.004443
-1.876560 16.317551 0.004988
-1.561210 16.317551 0.005015
-1.245860 16.317551 0.004632
-0.930510 16.317551 0.003839
-0.615160 16.317551 0.002742
-0.299810 16.317551 0.001688
0.015540 16.317551 0.000514
0.330890 16.317551 -0.000574
0.646240 16.317551 -0.001114
0.961589 16.317551 -0.001022
1.276940 16.317551 -0.000496
1.592289 16.317551 0.000338
1.907640 16.317551 0.001292
2.222990 16.317551 0.002174
2.538340 16.317551 0.002482
2.853690 16.317551 0.002560
3.169039 16.317551 0.002828
3.484390 16.317551 0.002859
3.799739 16.317551 0.002699
4.115090 16.317551 0.002545
4.430439 16.317551 0.002601
4.745790 16.317551 0.002552
5.061140 16.317551 0.002420
5.376490 16.317551 0.002128
5.691840 16.317551 0.001709
6.007189 16.317551 0.001306
6.322540 16.317551 0.000813
6.637889 16.317551 0.000856
6.953240 16.317551 0.000504
7.268589 16.317551 -0.000196
7.583940 16.317551 -0.000391
7.899290 16.317551 0.000936
8.214640 16.317551 0.002638
8.529989 16.317551 0.011090
8.845339 16.317551 0.022175
9.160688 16.317551 0.035315
9.476040 16.317551 0.031773
9.791389 16.317551 0.029354
10.106739 16.317551 0.070671
10.422089 16.317551 0.128953
10.737438 16.317551 0.221161
11.052790 16.317551 0.286638
11.368139 16.317551 0.382581
11.683489 16.317551 0.475745
11.998838 16.317551 0.556949
12.314190 16.317551 0.651599
12.629539 16.317551 0.788558
12.944889 16.317551 0.991195
13.260239 16.317551 1.069011
13.575588 16.317551 1.122506
13.890940 16.317551 1.378435
14.206289 16.317551 1.570884
14.521639 16.317551 2.080937
14.836988 16.317551 2.660884
15.152340 16.317551 3.568159
15.467690 16.317551 3.792405
15.783039 16.317551 0.000000
16.098389 16.317551 0.000000
16.413738 16.317551 0.000000
16.729090 16.317551 0.000000
17.044439 16.317551 0.000000
17.359789 16.317551 0.000000
17.675138 16.317551 0.000000
17.990490 16.317551 35.608482
18.305840 16.317551 44.992630
18.621189 16.317551 48.043533
18.936539 16.317551 0.000000
19.251888 16.317551 0.000000
-7.237510 16.002201 0.000000
-6.922160 16.002201 0.007844
-6.606810 16.002201 0.004091
-6.291460 16.002201 0.002507
-5.976110 16.002201 0.001497
-5.660760 16.002201 0.000765
-5.345410 16.002201 -0.000018
-5.030060 16.002201 -0.000608
-4.714710 16.002201 -0.000249
-4.399360 16.002201 0.000583
-4.084010 16.002201 0.001460
-3.768660 16.002201 0.002715
-3.453310 16.002201 0.004107
-3.137960 16.002201 0.005036
-2.822610 16.002201 0.005478
-2.507260 16.002201 0.005458
-2.191910 16.002201 0.005253
-1.876560 16.002201 0.004769
-1.561210 16.002201 0.003937
-1.245860 16.002201 0.002854
-0.930510 16.002201 0.001478
-0.615160 16.002201 0.000362
-0.299810 16.002201 -0.000231
0.015540 16.002201 -0.000655
0.330890 16.002201 -0.000878
0.646240 16.002201 -0.000643
0.961589 16.002201 0.000138
1.276940 16.002201 0.001170
1.592289 16.002201 0.001973
1.907640 16.002201 0.002670
2.222990 16.002201 0.003193
2.538340 16.002201 0.003275
2.853690 16.002201 0.003077
3.169039 16.002201 0.003032
3.484390 16.002201 0.002670
3.799739 16.002201 0.002266
4.115090 16.002201 0.002107
4.430439 16.002201 0.002055
4.745790 16.002201 0.001944
5.061140 16.002201 0.001861
5.376490 16.002201 0.001741
5.691840 16.002201 0.001454
6.007189 16.002201 0.001160
6.322540 16.002201 0.001101
6.637889 16.002201 0.001158
6.953240 16.002201 0.001721
7.268589 16.002201 0.001482
7.583940 16.002201 0.000318
7.899290 16.002201 0.003773
8.214640 16.002201 0.005571
8.529989 16.002201 0.014424
8.845339 16.002201 0.031040
9.160688 16.002201 0.044090
9.476040 16.002201 0.038341
9.791389 16.002201 0.056223
10.106739 16.002201 0.086675
10.422089 16.002201 0.158536
10.737438 16.002201 0.228413
11.052790 16.002201 0.287236
11.368139 16.002201 0.351973
11.683489 16.002201 0.503272
11.998838 16.002201 0.621961
12.314190 16.002201 0.723794
12.629539 16.002201 0.781319
12.944889 16.002201 0.926425
13.260239 16.002201 1.023136
13.575588 16.002201 1.052768
13.890940 16.002201 1.356712
14.206289 16.002201 1.665165
14.521639 16.002201 2.116475
14.836988 16.002201 2.811967
15.152340 16.002201 3.859627
15.467690 16.002201 4.499893
15.783039 16.002201 0.000000
16.098389 16.002201 0.000000
16.413738 16.002201 0.000000
16.729090 16.002201 0.000000
17.044439 16.002201 0.000000
17.359789 16.002201 0.000000
17.675138 16.002201 0.000000
17.990490 16.002201 36.403156
18.305840 16.002201 40.221138
18.621189 16.002201 44.337425
18.936539 16.002201 0.000000
19.251888 16.002201 0.000000
-7.237510 15.686852 0.000000
-6.922160 15.686852 0.004811
-6.606810 15.686852 0.001198
-6.291460 15.686852 0.000458
-5.976110 15.686852 0.000210
-5.660760 15.686852 0.000359
-5.345410 15.686852 0.000637
-5.030060 15.686852 0.001284
-4.714710 15.686852 0.002512
-4.399360 15.686852 0.003786
-4.084010 15.686852 0.004770
-3.768660 15.686852 0.005763
-3.453310 15.686852 0.006437
-3.137960 15.686852 0.006446
-2.822610 15.686852 0.005842
-2.507260 15.686852 0.004849
-2.191910 15.686852 0.003928
-1.876560 15.686852 0.002925
-1.561210 15.686852 0.001840
-1.245860 15.686852 0.000785
-0.930510 15.686852 -0.000203
-0.615160 15.686852 -0.000731
-0.299810 15.686852 -0.000382
0.015540 15.686852 -0.000067
0.330890 15.686852 0.000301
0.646240 15.686852 0.000821
0.961589 15.686852 0.001755
1.276940 15.686852 0.002670
1.592289 15.686852 0.003085
1.907640 15.686852 0.003191
2.222990 15.686852 0.003262
2.538340 15.686852 0.003207
2.853690 15.686852 0.003080
3.169039 15.686852 0.002741
3.484390 15.686852 0.002215
3.799739 15.686852 0.001736
4.115090 15.686852 0.001594
4.430439 15.686852 0.001641
4.745790 15.686852 0.001528
5.061140 15.686852 0.001453
5.376490 15.686852 0.001476
5.691840 15.686852 0.001443
6.007189 15.686852 0.001631
6.322540 15.686852 0.001886
6.637889 15.686852 0.002404
6.953240 15.686852 0.003430
7.268589 15.686852 0.003104
7.583940 15.686852 0.001750
7.899290 15.686852 0.005269
8.214640 15.686852 0.006922
8.529989 15.686852 0.016064
8.845339 15.686852 0.030561
9.160688 15.686852 0.036460
9.476040 15.686852 0.038241
9.791389 15.686852 0.063817
10.106739 15.686852 0.075165
10.422089 15.686852 0.114479
10.737438 15.686852 0.180235
11.052790 15.686852 0.284946
11.368139 15.686852 0.345634
11.683489 15.686852 0.513792
11.998838 15.686852 0.623586
12.314190 15.686852 0.724950
12.629539 15.686852 0.734974
12.944889 15.686852 0.920201
13.260239 15.686852 1.014015
13.575588 15.686852 1.136313
13.890940 15.686852 1.382954
14.206289 15.686852 1.600211
14.521639 15.686852 1.996902
14.836988 15.686852 2.724853
15.152340 15.686852 3.794574
15.467690 15.686852 4.279949
15.783039 15.686852 0.000000
16.098389 15.686852 0.000000
16.413738 15.686852 0.000000
16.729090 15.686852 0.000000
17.044439 15.686852 0.000000
17.359789 15.686852 0.000000
17.675138 15.686852 0.000000
17.990490 15.686852 32.914837
18.305840 15.686852 35.847321
18.621189 15.686852 40.779827
18.936539 15.686852 0.000000
19.251888 15.686852 0.000000
-7.237510 15.371502 0.000000
-6.922160 15.371502 0.003539
-6.606810 15.371502 0.000522
-6.291460 15.371502 0.000953
-5.976110 15.371502 0.001658
-5.660760 15.371502 0.002483
-5.345410 15.371502 0.003436
-5.030060 15.371502 0.004546
-4.714710 15.371502 0.005699
-4.399360 15.371502 0.006481
-4.084010 15.371502 0.006686
-3.768660 15.371502 0.006819
-3.453310 15.371502 0.006474
-3.137960 15.371502 0.005465
-2.822610 15.371502 0.004007
-2.507260 15.371502 0.002726
-2.191910 15.371502 0.001971
-1.876560 15.371502 0.001272
-1.561210 15.371502 0.000559
-1.245860 15.371502 0.000132
-0.930510 15.371502 -0.000014
-0.615160 15.371502 0.000247
-0.299810 15.371502 0.001124
0.015540 15.371502 0.001751
0.330890 15.371502 0.002054
0.646240 15.371502 0.002296
0.961589 15.371502 0.002904
1.276940 15.371502 0.003367
1.592289 15.371502 0.003283
1.907640 15.371502 0.002944
2.222990 15.371502 0.002787
2.538340 15.371502 0.002695
2.853690 15.371502 0.002685
3.169039 15.371502 0.002316
3.484390 15.371502 0.001876
3.799739 15.371502 0.001561
4.115090 15.371502 0.001370
4.430439 15.371502 0.001475
4.745790 15.371502 0.001359
5.061140 15.371502 0.001486
5.376490 15.371502 0.001689
5.691840 15.371502 0.001980
6.007189 15.371502 0.002701
6.322540 15.371502 0.003381
6.637889 15.371502 0.003778
6.953240 15.371502 0.004238
7.268589 15.371502 0.003515
7.583940 15.371502 0.001836
7.899290 15.371502 0.002298
8.214640 15.371502 0.006734
8.529989 15.371502 0.011066
8.845339 15.371502 0.025739
9.160688 15.371502 0.032784
9.476040 15.371502 0.043380
9.791389 15.371502 0.058010
10.106739 15.371502 0.078928
10.422089 15.371502 0.098806
10.737438 15.371502 0.178255
11.052790 15.371502 0.242041
11.368139 15.371502 0.328604
11.683489 15.371502 0.493547
11.998838 15.371502 0.601966
12.314190 15.371502 0.646053
12.629539 15.371502 0.840223
12.944889 15.371502 0.847058
13.260239 15.371502 0.955233
13.575588 15.371502 1.145405
13.890940 15.371502 1.243378
14.206289 15.371502 1.562946
14.521639 15.371502 2.031596
14.836988 15.371502 2.496747
15.152340 15.371502 3.828110
15.467690 15.371502 4.805954
15.783039 15.371502 0.000000
16.098389 15.371502 0.000000
16.413738 15.371502 0.000000
16.729090 15.371502 0.000000
17.044439 15.371502 0.000000
17.359789 15.371502 0.000000
17.675138 15.371502 0.000000
17.990490 15.371502 27.612062
18.305840 15.371502 33.441456
18.621189 15.371502 37.496944
18.936539 15.371502 0.000000
19.251888 15.371502 0.000000
-7.237510 15.056152 0.000000
-6.922160 15.056152 0.005484
-6.606810 15.056152 0.002639
-6.291460 15.056152 0.003768
-5.976110 15.056152 0.004747
-5.660760 15.056152 0.005420
-5.345410 15.056152 0.006067
-5.030060 15.056152 0.006611
-4.714710 15.056152 0.007079
-4.399360 15.056152 0.007044
-4.084010 15.056152 0.006335
-3.768660 15.056152 0.005535
-3.453310 15.056152 0.004571
-3.137960 15.056152 0.003228
-2.822610 15.056152 0.001828
-2.507260 15.056152 0.001199
-2.191910 15.056152 0.001158
-1.876560 15.056152 0.001110
-1.561210 15.056152 0.001009
-1.245860 15.056152 0.001240
-0.930510 15.056152 0.001557
-0.615160 15.056152 0.002192
-0.299810 15.056152 0.003087
0.015540 15.056152 0.003576
0.330890 15.056152 0.003341
0.646240 15.056152 0.002963
0.961589 15.056152 0.003156
1.276940 15.056152 0.003227
1.592289 15.056152 0.002947
1.907640 15.056152 0.002421
2.222990 15.056152 0.002140
2.538340 15.056152 0.002196
2.853690 15.056152 0.002278
3.169039 15.056152 0.001985
3.484390 15.056152 0.001719
3.799739 15.056152 0.001654
4.115090 15.056152 0.001660
4.430439 15.056152 0.001831
4.745790 15.056152 0.001875
5.061140 15.056152 0.002092
5.376490 15.056152 0.002564
5.691840 15.056152 0.003072
6.007189 15.056152 0.003869
6.322540 15.056152 0.004592
6.637889 15.056152 0.004297
6.953240 15.056152 0.003714
7.268589 15.056152 0.002010
7.583940 15.056152 -0.000015
7.899290 15.056152 -0.000434
8.214640 15.056152 0.003319
8.529989 15.056152 0.004440
8.845339 15.056152 0.022512
9.160688 15.056152 0.035335
9.476040 15.056152 0.047086
9.791389 15.056152 0.061733
10.106739 15.056152 0.075388
10.422089 15.056152 0.110104
10.737438 15.056152 0.175719
11.052790 15.056152 0.244183
11.368139 15.056152 0.371083
11.683489 15.056152 0.490931
11.998838 15.056152 0.592237
12.314190 15.056152 0.659549
12.629539 15.056152 0.819165
12.944889 15.056152 0.863653
13.260239 15.056152 1.007641
13.575588 15.056152 1.143717
13.890940 15.056152 1.202831
14.206289 15.056152 1.581627
14.521639 15.056152 2.073447
14.836988 15.056152 2.822389
15.152340 15.056152 3.934879
15.467690 15.056152 5.468173
15.783039 15.056152 0.000000
16.098389 15.056152 0.000000
16.413738 15.056152 0.000000
16.729090 15.056152 0.000000
17.044439 15.056152 0.000000
17.359789 15.056152 0.000000
17.675138 15.056152 0.000000
17.990490 15.056152 28.698885
18.305840 15.056152 32.984009
18.621189 15.056152 37.795563
18.936539 15.056152 0.000000
19.251888 15.056152 0.000000
-7.237510 14.740803 0.000000
-6.922160 14.740803 0.008944
-6.606810 14.740803 0.005750
-6.291460 14.740803 0.006502
-5.976110 14.740803 0.006951
-5.660760 14.740803 0.006943
-5.345410 14.740803 0.006710
-5.030060 14.740803 0.006393
-4.714710 14.740803 0.005972
-4.399360 14.740803 0.005424
-4.084010 14.740803 0.004415
-3.768660 14.740803 0.003428
-3.453310 14.740803 0.002669
-3.137960 14.740803 0.001705
-2.822610 14.740803 0.001118
-2.507260 14.740803 0.001398
-2.191910 14.740803 0.002043
-1.876560 14.740803 0.002485
-1.561210 14.740803 0.002731
-1.245860 14.740803 0.003037
-0.930510 14.740803 0.003288
-0.615160 14.740803 0.003793
-0.299810 14.740803 0.004354
0.015540 14.740803 0.004408
0.330890 14.740803 0.003696
0.646240 14.740803 0.002979
0.961589 14.740803 0.002738
1.276940 14.740803 0.002675
1.592289 14.740803 0.002459
1.907640 14.740803 0.001964
2.222990 14.740803 0.001785
2.538340 14.740803 0.001993
2.853690 14.740803 0.002138
3.169039 14.740803 0.002008
3.484390 14.740803 0.001913
3.799739 14.740803 0.002289
4.115090 14.740803 0.002593
4.430439 14.740803 0.002782
4.745790 14.740803 0.002944
5.061140 14.740803 0.003284
5.376490 14.740803 0.003639
5.691840 14.740803 0.003994
6.007189 14.740803 0.004311
6.322540 14.740803 0.004290
6.637889 14.740803 0.003133
6.953240 14.740803 0.001901
7.268589 14.740803 -0.000088
7.583940 14.740803 -0.002035
7.899290 14.740803 -0.000661
8.214640 14.740803 0.001038
8.529989 14.740803 0.003721
8.845339 14.740803 0.019748
9.160688 14.740803 0.038553
9.476040 14.740803 0.043520
9.791389 14.740803 0.047675
10.106739 14.740803 0.075316
10.422089 14.740803 0.117641
10.737438 14.740803 0.177758
11.052790 14.740803 0.237306
11.368139 14.740803 0.371164
11.683489 14.740803 0.460545
11.998838 14.740803 0.604384
12.314190 14.740803 0.620448
12.629539 14.740803 0.803469
12.944889 14.740803 0.903940
13.260239 14.740803 1.062062
13.575588 14.740803 1.043995
13.890940 14.740803 1.185025
14.206289 14.740803 1.571635
14.521639 14.740803 2.232122
14.836988 14.740803 2.986971
15.152340 14.740803 4.220704
15.467690 14.740803 6.148199
15.783039 14.740803 0.000000
16.098389 14.740803 0.000000
16.413738 14.740803 0.000000
16.729090 14.740803 0.000000
17.044439 14.740803 0.000000
17.359789 14.740803 0.000000
17.675138 14.740803 0.000000
17.990490 14.740803 33.002159
18.305840 14.740803 38.268600
18.621189 14.740803 39.725597
18.936539 14.740803 0.000000
19.251888 14.740803 0.000000
-7.237510 14.425449 0.000000
-6.922160 14.425449 0.010820
-6.606810 14.425449 0.007244
-6.291460 14.425449 0.007145
-5.976110 14.425449 0.006792
-5.660760 14.425449 0.006109
-5.345410 14.425449 0.005064
-5.030060 14.425449 0.004401
-4.714710 14.425449 0.003831
-4.399360 14.425449 0.003460
-4.084010 14.425449 0.002851
-3.768660 14.425449 0.002327
-3.453310 14.425449 0.002167
-3.137960 14.425449 0.002052
-2.822610 14.425449 0.002298
-2.507260 14.425449 0.003069
-2.191910 14.425449 0.003925
-1.876560 14.425449 0.004349
-1.561210 14.425449 0.004366
-1.245860 14.425449 0.004213
-0.930510 14.425449 0.004146
-0.615160 14.425449 0.004337
-0.299810 14.425449 0.004518
0.015540 14.425449 0.004163
0.330890 14.425449 0.003478
0.646240 14.425449 0.002632
0.961589 14.425449 0.002104
1.276940 14.425449 0.002160
1.592289 14.425449 0.002161
1.907640 14.425449 0.001887
2.222990 14.425449 0.001825
2.538340 14.425449 0.002094
2.853690 14.425449 0.002266
3.169039 14.425449 0.002456
3.484390 14.425449 0.002789
3.799739 14.425449 0.003429
4.115090 14.425449 0.003981
4.430439 14.425449 0.004168
4.745790 14.425449 0.004095
5.061140 14.425449 0.004037
5.376490 14.425449 0.004014
5.691840 14.425449 0.003893
6.007189 14.425449 0.003398
6.322540 14.425449 0.002484
6.637889 14.425449 0.001289
6.953240 14.425449 -0.000223
7.268589 14.425449 -0.001955
7.583940 14.425449 -0.002720
7.899290 14.425449 -0.000834
8.214640 14.425449 0.002501
8.529989 14.425449 0.005685
8.845339 14.425449 0.015924
9.160688 14.425449 0.025890
9.476040 14.425449 0.036622
9.791389 14.425449 0.049724
10.106739 14.425449 0.080748
10.422089 14.425449 0.118843
10.737438 14.425449 0.145803
11.052790 14.425449 0.258280
11.368139 14.425449 0.397743
11.683489 14.425449 0.467572
11.998838 14.425449 0.585813
12.314190 14.425449 0.660997
12.629539 14.425449 0.839754
12.944889 14.425449 0.959685
13.260239 14.425449 1.033800
13.575588 14.425449 1.123187
13.890940 14.425449 1.229899
14.206289 14.425449 1.788310
14.521639 14.425449 2.402637
14.836988 14.425449 3.320795
15.152340 14.425449 4.666165
15.467690 14.425449 6.377105
15.783039 14.425449 0.000000
16.098389 14.425449 0.000000
16.413738 14.425449 0.000000
16.729090 14.425449 0.000000
17.044439 14.425449 0.000000
17.359789 14.425449 0.000000
17.675138 14.425449 0.000000
17.990490 14.425449 40.355679
18.305840 14.425449 45.884018
18.621189 14.425449 47.355328
18.936539 14.425449 0.000000
19.251888 14.425449 0.000000
-7.237510 14.110100 0.000000
-6.922160 14.110100 0.010733
-6.606810 14.110100 0.006367
-6.291460 14.110100 0.005533
-5.976110 14.110100 0.004807
-5.660760 14.110100 0.003952
-5.345410 14.110100 0.003046
-5.030060 14.110100 0.002749
-4.714710 14.110100 0.002747
-4.399360 14.110100 0.002978
-4.084010 14.110100 0.003078
-3.768660 14.110100 0.002934
-3.453310 14.110100 0.003365
-3.137960 14.110100 0.003662
-2.822610 14.110100 0.004171
-2.507260 14.110100 0.005077
-2.191910 14.110100 0.005390
-1.876560 14.110100 0.005214
-1.561210 14.110100 0.004805
-1.245860 14.110100 0.004241
-0.930510 14.110100 0.003910
-0.615160 14.110100 0.003952
-0.299810 14.110100 0.003948
0.015540 14.110100 0.003436
0.330890 14.110100 0.003017
0.646240 14.110100 0.002382
0.961589 14.110100 0.001823
1.276940 14.110100 0.001880
1.592289 14.110100 0.002080
1.907640 14.110100 0.002258
2.222990 14.110100 0.002401
2.538340 14.110100 0.002721
2.853690 14.110100 0.002990
3.169039 14.110100 0.003464
3.484390 14.110100 0.004194
3.799739 14.110100 0.004740
4.115090 14.110100 0.005032
4.430439 14.110100 0.004918
4.745790 14.110100 0.004538
5.061140 14.110100 0.003948
5.376490 14.110100 0.003334
5.691840 14.110100 0.002836
6.007189 14.110100 0.002095
6.322540 14.110100 0.000936
6.637889 14.110100 0.000044
6.953240 14.110100 -0.000964
7.268589 14.110100 -0.001755
7.583940 14.110100 -0.000761
7.899290 14.110100 0.001405
8.214640 14.110100 0.003291
8.529989 14.110100 0.011438
8.845339 14.110100 0.019070
9.160688 14.110100 0.025902
9.476040 14.110100 0.038729
9.791389 14.110100 0.057073
10.106739 14.110100 0.093165
10.422089 14.110100 0.120690
10.737438 14.110100 0.148411
11.052790 14.110100 0.294546
11.368139 14.110100 0.400350
11.683489 14.110100 0.523971
11.998838 14.110100 0.562252
12.314190 14.110100 0.711055
12.629539 14.110100 0.864087
12.944889 14.110100 0.950624
13.260239 14.110100 1.033976
13.575588 14.110100 1.247388
13.890940 14.110100 1.479774
14.206289 14.110100 1.755724
14.521639 14.110100 2.549028
14.836988 14.110100 3.656733
15.152340 14.110100 5.117183
15.467690 14.110100 6.567300
15.783039 14.110100 0.000000
16.098389 14.110100 0.000000
16.413738 14.110100 0.000000
16.729090 14.110100 0.000000
17.044439 14.110100 0.000000
17.359789 14.110100 0.000000
17.675138 14.110100 0.000000
17.990490 14.110100 50.905792
18.305840 14.110100 55.958050
18.621189 14.110100 57.908894
18.936539 14.110100 0.000000
19.251888 14.110100 0.000000
-7.237510 13.794750 0.000000
-6.922160 13.794750 0.008916
-6.606810 13.794750 0.004326
-6.291460 13.794750 0.003597
-5.976110 13.794750 0.003082
-5.660760 13.794750 0.002637
-5.345410 13.794750 0.002439
-5.030060 13.794750 0.003023
-4.714710 13.794750 0.003619
-4.399360 13.794750 0.004228
-4.084010 13.794750 0.004653
-3.768660 13.794750 0.004561
-3.453310 13.794750 0.004920
-3.137960 13.794750 0.005005
-2.822610 13.794750 0.005334
-2.507260 13.794750 0.005793
-2.191910 13.794750 0.005512
-1.876560 13.794750 0.004911
-1.561210 13.794750 0.004211
-1.245860 13.794750 0.003603
-0.930510 13.794750 0.003273
-0.615160 13.794750 0.003372
-0.299810 13.794750 0.003425
0.015540 13.794750 0.003133
0.330890 13.794750 0.003073
0.646240 13.794750 0.002725
0.961589 13.794750 0.002241
1.276940 13.794750 0.002198
1.592289 13.794750 0.002556
1.907640 13.794750 0.003007
2.222990 13.794750 0.003299
2.538340 13.794750 0.003635
2.853690 13.794750 0.004036
3.169039 13.794750 0.004595
3.484390 13.794750 0.005300
3.799739 13.794750 0.005504
4.115090 13.794750 0.005350
4.430439 13.794750 0.004725
4.745790 13.794750 0.004086
5.061140 13.794750 0.003229
5.376490 13.794750 0.002448
5.691840 13.794750 0.001945
6.007189 13.794750 0.001566
6.322540 13.794750 0.000973
6.637889 13.794750 0.000758
6.953240 13.794750 0.000279
7.268589 13.794750 0.000237
7.583940 13.794750 0.000858
7.899290 13.794750 0.002344
8.214640 13.794750 0.005117
8.529989 13.794750 0.013330
8.845339 13.794750 0.020374
9.160688 13.794750 0.026506
9.476040 13.794750 0.042900
9.791389 13.794750 0.070251
10.106739 13.794750 0.091231
10.422089 13.794750 0.124917
10.737438 13.794750 0.197507
11.052790 13.794750 0.271090
11.368139 13.794750 0.430659
11.683489 13.794750 0.517502
11.998838 13.794750 0.574354
12.314190 13.794750 0.676715
12.629539 13.794750 0.763256
12.944889 13.794750 1.003409
13.260239 13.794750 1.084739
13.575588 13.794750 1.223851
13.890940 13.794750 1.545009
14.206289 13.794750 1.832839
14.521639 13.794750 2.601339
14.836988 13.794750 3.822578
15.152340 13.794750 5.771306
15.467690 13.794750 6.451696
15.783039 13.794750 0.000000
16.098389 13.794750 0.000000
16.413738 13.794750 0.000000
16.729090 13.794750 0.000000
17.044439 13.794750 0.000000
17.359789 13.794750 0.000000
17.675138 13.794750 0.000000
17.990490 13.794750 60.394093
18.305840 13.794750 66.960922
18.621189 13.794750 69.259361
18.936539 13.794750 0.000000
19.251888 13.794750 0.000000
-7.237510 13.479401 0.000000
-6.922160 13.479401 0.007577
-6.606810 13.479401 0.003220
-6.291460 13.479401 0.003012
-5.976110 13.479401 0.003202
-5.660760 13.479401 0.003358
-5.345410 13.479401 0.003923
-5.030060 13.479401 0.004905
-4.714710 13.479401 0.005554
-4.399360 13.479401 0.005860
-4.084010 13.479401 0.006105
-3.768660 13.479401 0.005781
-3.453310 13.479401 0.005586
-3.137960 13.479401 0.005182
-2.822610 13.479401 0.005022
-2.507260 13.479401 0.005089
-2.191910 13.479401 0.004595
-1.876560 13.479401 0.003908
-1.561210 13.479401 0.003390
-1.245860 13.479401 0.003066
-0.930510 13.479401 0.002934
-0.615160 13.479401 0.003135
-0.299810 13.479401 0.003269
0.015540 13.479401 0.003354
0.330890 13.479401 0.003714
0.646240 13.479401 0.003641
0.961589 13.479401 0.003254
1.276940 13.479401 0.003073
1.592289 13.479401 0.003491
1.907640 13.479401 0.004080
2.222990 13.479401 0.004342
2.538340 13.479401 0.004519
2.853690 13.479401 0.004828
3.169039 13.479401 0.005181
3.484390 13.479401 0.005502
3.799739 13.479401 0.005135
4.115090 13.479401 0.004568
4.430439 13.479401 0.003907
4.745790 13.479401 0.003227
5.061140 13.479401 0.002648
5.376490 13.479401 0.002427
5.691840 13.479401 0.002484
6.007189 13.479401 0.002540
6.322540 13.479401 0.002625
6.637889 13.479401 0.002582
6.953240 13.479401 0.002142
7.268589 13.479401 0.002508
7.583940 13.479401 0.001780
7.899290 13.479401 0.003226
8.214640 13.479401 0.005575
8.529989 13.479401 0.014772
8.845339 13.479401 0.013530
9.160688 13.479401 0.027109
9.476040 13.479401 0.043280
9.791389 13.479401 0.068631
10.106739 13.479401 0.105691
10.422089 13.479401 0.132851
10.737438 13.479401 0.194208
11.052790 13.479401 0.295071
11.368139 13.479401 0.437198
11.683489 13.479401 0.561766
11.998838 13.479401 0.648349
12.314190 13.479401 0.739742
12.629539 13.479401 0.876597
12.944889 13.479401 1.074059
13.260239 13.479401 1.069034
13.575588 13.479401 1.286024
13.890940 13.479401 1.573111
14.206289 13.479401 2.111814
14.521639 13.479401 2.786590
14.836988 13.479401 4.003467
15.152340 13.479401 6.031003
15.467690 13.479401 7.303219
15.783039 13.479401 0.000000
16.098389 13.479401 0.000000
16.413738 13.479401 0.000000
16.729090 13.479401 0.000000
17.044439 13.479401 0.000000
17.359789 13.479401 0.000000
17.675138 13.479401 0.000000
17.990490 13.479401 64.415756
18.305840 13.479401 71.476814
18.621189 13.479401 74.687790
18.936539 13.479401 0.000000
19.251888 13.479401 0.000000
-7.237510 13.164051 0.000000
-6.922160 13.164051 0.008030
-6.606810 13.164051 0.004138
-6.291460 13.164051 0.004294
-5.976110 13.164051 0.004845
-5.660760 13.164051 0.005196
-5.345410 13.164051 0.005935
-5.030060 13.164051 0.006635
-4.714710 13.164051 0.006793
-4.399360 13.164051 0.006577
-4.084010 13.164051 0.006229
-3.768660 13.164051 0.005599
-3.453310 13.164051 0.005058
-3.137960 13.164051 0.004157
-2.822610 13.164051 0.003893
-2.507260 13.164051 0.003921
-2.191910 13.164051 0.003645
-1.876560 13.164051 0.003269
-1.561210 13.164051 0.003166
-1.245860 13.164051 0.003340
-0.930510 13.164051 0.003401
-0.615160 13.164051 0.003467
-0.299810 13.164051 0.003533
0.015540 13.164051 0.003889
0.330890 13.164051 0.004466
0.646240 13.164051 0.004705
0.961589 13.164051 0.004400
1.276940 13.164051 0.003974
1.592289 13.164051 0.004550
1.907640 13.164051 0.004977
2.222990 13.164051 0.004856
2.538340 13.164051 0.004805
2.853690 13.164051 0.004732
3.169039 13.164051 0.004873
3.484390 13.164051 0.004757
3.799739 13.164051 0.004167
4.115090 13.164051 0.003706
4.430439 13.164051 0.003482
4.745790 13.164051 0.003297
5.061140 13.164051 0.003409
5.376490 13.164051 0.003761
5.691840 13.164051 0.003983
6.007189 13.164051 0.004145
6.322540 13.164051 0.004296
6.637889 13.164051 0.003983
6.953240 13.164051 0.002881
7.268589 13.164051 0.002065
7.583940 13.164051 0.001204
7.899290 13.164051 0.001049
8.214640 13.164051 0.007241
8.529989 13.164051 0.012065
8.845339 13.164051 0.017218
9.160688 13.164051 0.023454
9.476040 13.164051 0.033131
9.791389 13.164051 0.073349
10.106739 13.164051 0.108586
10.422089 13.164051 0.143005
10.737438 13.164051 0.233630
11.052790 13.164051 0.326926
11.368139 13.164051 0.428048
11.683489 13.164051 0.550508
11.998838 13.164051 0.632434
12.314190 13.164051 0.803104
12.629539 13.164051 0.834079
12.944889 13.164051 0.999782
13.260239 13.164051 1.111708
13.575588 13.164051 1.373338
13.890940 13.164051 1.504259
14.206289 13.164051 1.968770
14.521639 13.164051 2.733392
14.836988 13.164051 3.848794
15.152340 13.164051 5.635633
15.467690 13.164051 7.117438
15.783039 13.164051 0.000000
16.098389 13.164051 0.000000
16.413738 13.164051 0.000000
16.729090 13.164051 0.000000
17.044439 13.164051 0.000000
17.359789 13.164051 0.000000
17.675138 13.164051 0.000000
17.990490 13.164051 61.304501
18.305840 13.164051 68.748482
18.621189 13.164051 73.260895
18.936539 13.164051 0.000000
19.251888 13.164051 0.000000
-7.237510 12.848701 0.000000
-6.922160 12.848701 0.010650
-6.606810 12.848701 0.006238
-6.291460 12.848701 0.006318
-5.976110 12.848701 0.006488
-5.660760 12.848701 0.006566
-5.345410 12.848701 0.006943
-5.030060 12.848701 0.006999
-4.714710 12.848701 0.006415
-4.399360 12.848701 0.005671
-4.084010 12.848701 0.005253
-3.768660 12.848701 0.004872
-3.453310 12.848701 0.004375
-3.137960 12.848701 0.003540
-2.822610 12.848701 0.003224
-2.507260 12.848701 0.003450
-2.191910 12.848701 0.003496
-1.876560 12.848701 0.003459
-1.561210 12.848701 0.003732
-1.245860 12.848701 0.004185
-0.930510 12.848701 0.004245
-0.615160 12.848701 0.004054
-0.299810 12.848701 0.003943
0.015540 12.848701 0.004254
0.330890 12.848701 0.004823
0.646240 12.848701 0.005257
0.961589 12.848701 0.005131
1.276940 12.848701 0.004713
1.592289 12.848701 0.004938
1.907640 12.848701 0.005048
2.222990 12.848701 0.004702
2.538340 12.848701 0.004276
2.853690 12.848701 0.003995
3.169039 12.848701 0.003986
3.484390 12.848701 0.003888
3.799739 12.848701 0.003480
4.115090 12.848701 0.003742
4.430439 12.848701 0.004305
4.745790 12.848701 0.004588
5.061140 12.848701 0.004991
5.376490 12.848701 0.005216
5.691840 12.848701 0.005054
6.007189 12.848701 0.004777
6.322540 12.848701 0.004248
6.637889 12.848701 0.003556
6.953240 12.848701 0.002377
7.268589 12.848701 -0.000183
7.583940 12.848701 -0.002285
7.899290 12.848701 -0.002466
8.214640 12.848701 0.004644
8.529989 12.848701 0.012918
8.845339 12.848701 0.017706
9.160688 12.848701 0.021243
9.476040 12.848701 0.033105
9.791389 12.848701 0.064152
10.106739 12.848701 0.115456
10.422089 12.848701 0.151181
10.737438 12.848701 0.243977
11.052790 12.848701 0.330457
11.368139 12.848701 0.386770
11.683489 12.848701 0.556432
11.998838 12.848701 0.686625
12.314190 12.848701 0.777956
12.629539 12.848701 0.790774
12.944889 12.848701 1.002896
13.260239 12.848701 1.138637
13.575588 12.848701 1.226628
13.890940 12.848701 1.515869
14.206289 12.848701 1.886867
14.521639 12.848701 2.635784
14.836988 12.848701 3.577938
15.152340 12.848701 4.888536
15.467690 12.848701 6.114323
15.783039 12.848701 0.000000
16.098389 12.848701 0.000000
16.413738 12.848701 0.000000
16.729090 12.848701 0.000000
17.044439 12.848701 0.000000
17.359789 12.848701 0.000000
17.675138 12.848701 0.000000
17.990490 12.848701 52.772911
18.305840 12.848701 60.544811
18.621189 12.848701 62.901146
18.936539 12.848701 0.000000
19.251888 12.848701 0.000000
-7.237510 12.533352 0.000000
-6.922160 12.533352 0.012317
-6.606810 12.533352 0.007628
-6.291460 12.533352 0.007326
-5.976110 12.533352 0.006920
-5.660760 12.533352 0.006469
-5.345410 12.533352 0.006553
-5.030060 12.533352 0.006021
-4.714710 12.533352 0.005055
-4.399360 12.533352 0.004370
-4.084010 12.533352 0.004085
-3.768660 12.533352 0.004310
-3.453310 12.533352 0.004187
-3.137960 12.533352 0.003766
-2.822610 12.533352 0.003572
-2.507260 12.533352 0.003857
-2.191910 12.533352 0.004145
-1.876560 12.533352 0.004258
-1.561210 12.533352 0.004616
-1.245860 12.533352 0.004965
-0.930510 12.533352 0.004999
-0.615160 12.533352 0.004405
-0.299810 12.533352 0.004076
0.015540 12.533352 0.004205
0.330890 12.533352 0.004716
0.646240 12.533352 0.005269
0.961589 12.533352 0.005338
1.276940 12.533352 0.005053
1.592289 12.533352 0.004737
1.907640 12.533352 0.004489
2.222990 12.533352 0.004183
2.538340 12.533352 0.003723
2.853690 12.533352 0.003517
3.169039 12.533352 0.003618
3.484390 12.533352 0.003710
3.799739 12.533352 0.003976
4.115090 12.533352 0.004870
4.430439 12.533352 0.005679
4.745790 12.533352 0.005878
5.061140 12.533352 0.005899
5.376490 12.533352 0.005501
5.691840 12.533352 0.004491
6.007189 12.533352 0.003729
6.322540 12.533352 0.002793
6.637889 12.533352 0.001832
6.953240 12.533352 0.000629
7.268589 12.533352 -0.001375
7.583940 12.533352 -0.002817
7.899290 12.533352 -0.003570
8.214640 12.533352 0.002622
8.529989 12.533352 0.014743
8.845339 12.533352 0.018985
9.160688 12.533352 0.025935
9.476040 12.533352 0.035153
9.791389 12.533352 0.056710
10.106739 12.533352 0.085733
10.422089 12.533352 0.164028
10.737438 12.533352 0.232728
11.052790 12.533352 0.331728
11.368139 12.533352 0.412645
11.683489 12.533352 0.527954
11.998838 12.533352 0.658866
12.314190 12.533352 0.714645
12.629539 12.533352 0.831438
12.944889 12.533352 0.925180
13.260239 12.533352 1.027614
13.575588 12.533352 1.280086
13.890940 12.533352 1.545583
14.206289 12.533352 1.977767
14.521639 12.533352 2.381245
14.836988 12.533352 3.378771
15.152340 12.533352 4.404977
15.467690 12.533352 4.757685
15.783039 12.533352 0.000000
16.098389 12.533352 0.000000
16.413738 12.533352 0.000000
16.729090 12.533352 0.000000
17.044439 12.533352 0.000000
17.359789 12.533352 0.000000
17.675138 12.533352 0.000000
17.990490 12.533352 42.881519
18.305840 12.533352 49.443497
18.621189 12.533352 52.558357
18.936539 12.533352 0.000000
19.251888 12.533352 0.000000
-7.237510 12.218002 0.000000
-6.922160 12.218002 0.012142
-6.606810 12.218002 0.007523
-6.291460 12.218002 0.006752
-5.976110 12.218002 0.005990
-5.660760 12.218002 0.005460
-5.345410 12.218002 0.005491
-5.030060 12.218002 0.004865
-4.714710 12.218002 0.003888
-4.399360 12.218002 0.003622
-4.084010 12.218002 0.003943
-3.768660 12.218002 0.004769
-3.453310 12.218002 0.005014
-3.137960 12.218002 0.004766
-2.822610 12.218002 0.004617
-2.507260 12.218002 0.004741
-2.191910 12.218002 0.004989
-1.876560 12.218002 0.005007
-1.561210 12.218002 0.005181
-1.245860 12.218002 0.005288
-0.930510 12.218002 0.005144
-0.615160 12.218002 0.004594
-0.299810 12.218002 0.004147
0.015540 12.218002 0.004023
0.330890 12.218002 0.004290
0.646240 12.218002 0.004736
0.961589 12.218002 0.005018
1.276940 12.218002 0.004857
1.592289 12.218002 0.004377
1.907640 12.218002 0.004100
2.222990 12.218002 0.003999
2.538340 12.218002 0.003930
2.853690 12.218002 0.004009
3.169039 12.218002 0.004217
3.484390 12.218002 0.004593
3.799739 12.218002 0.005024
4.115090 12.218002 0.005916
4.430439 12.218002 0.006265
4.745790 12.218002 0.005898
5.061140 12.218002 0.005211
5.376490 12.218002 0.004217
5.691840 12.218002 0.002690
6.007189 12.218002 0.001835
6.322540 12.218002 0.001067
6.637889 12.218002 0.000526
6.953240 12.218002 -0.000156
7.268589 12.218002 -0.001390
7.583940 12.218002 -0.001326
7.899290 12.218002 -0.001970
8.214640 12.218002 0.006499
8.529989 12.218002 0.012931
8.845339 12.218002 0.023052
9.160688 12.218002 0.029959
9.476040 12.218002 0.040105
9.791389 12.218002 0.050166
10.106739 12.218002 0.082003
10.422089 12.218002 0.132972
10.737438 12.218002 0.213914
11.052790 12.218002 0.318612
11.368139 12.218002 0.391769
11.683489 12.218002 0.531157
11.998838 12.218002 0.619878
12.314190 12.218002 0.731554
12.629539 12.218002 0.796079
12.944889 12.218002 0.875074
13.260239 12.218002 1.047268
13.575588 12.218002 1.262234
13.890940 12.218002 1.459832
14.206289 12.218002 1.869118
14.521639 12.218002 2.270319
14.836988 12.218002 3.101501
15.152340 12.218002 4.295464
15.467690 12.218002 3.862881
15.783039 12.218002 0.000000
16.098389 12.218002 0.000000
16.413738 12.218002 0.000000
16.729090 12.218002 0.000000
17.044439 12.218002 0.000000
17.359789 12.218002 0.000000
17.675138 12.218002 0.000000
17.990490 12.218002 35.435677
18.305840 12.218002 41.698494
18.621189 12.218002 44.535351
18.936539 12.218002 0.000000
19.251888 12.218002 0.000000
-7.237510 11.902653 0.000000
-6.922160 11.902653 0.010760
-6.606810 11.902653 0.006333
-6.291460 11.902653 0.005691
-5.976110 11.902653 0.005124
-5.660760 11.902653 0.004804
-5.345410 11.902653 0.004996
-5.030060 11.902653 0.004560
-4.714710 11.902653 0.003962
-4.399360 11.902653 0.004043
-4.084010 11.902653 0.004689
-3.768660 11.902653 0.005763
-3.453310 11.902653 0.006055
-3.137960 11.902653 0.005667
-2.822610 11.902653 0.005162
-2.507260 11.902653 0.005181
-2.191910 11.902653 0.005165
-1.876560 11.902653 0.005197
-1.561210 11.902653 0.005268
-1.245860 11.902653 0.005173
-0.930510 11.902653 0.004819
-0.615160 11.902653 0.004318
-0.299810 11.902653 0.003861
0.015540 11.902653 0.003760
0.330890 11.902653 0.003619
0.646240 11.902653 0.003994
0.961589 11.902653 0.004474
1.276940 11.902653 0.004495
1.592289 11.902653 0.004294
1.907640 11.902653 0.004257
2.222990 11.902653 0.004549
2.538340 11.902653 0.005027
2.853690 11.902653 0.005048
3.169039 11.902653 0.005032
3.484390 11.902653 0.005195
3.799739 11.902653 0.005720
4.115090 11.902653 0.005867
4.430439 11.902653 0.005493
4.745790 11.902653 0.004590
5.061140 11.902653 0.003499
5.376490 11.902653 0.002326
5.691840 11.902653 0.001350
6.007189 11.902653 0.000934
6.322540 11.902653 0.000770
6.637889 11.902653 0.000949
6.953240 11.902653 0.000484
7.268589 11.902653 0.000461
7.583940 11.902653 0.000371
7.899290 11.902653 0.000670
8.214640 11.902653 0.007995
8.529989 11.902653 0.015648
8.845339 11.902653 0.026363
9.160688 11.902653 0.030285
9.476040 11.902653 0.043962
9.791389 11.902653 0.065222
10.106739 11.902653 0.073103
10.422089 11.902653 0.124843
10.737438 11.902653 0.219525
11.052790 11.902653 0.239779
11.368139 11.902653 0.402742
11.683489 11.902653 0.520594
11.998838 11.902653 0.636175
12.314190 11.902653 0.739573
12.629539 11.902653 0.797340
12.944889 11.902653 0.830620
13.260239 11.902653 1.150021
13.575588 11.902653 1.269299
13.890940 11.902653 1.461067
14.206289 11.902653 1.786527
14.521639 11.902653 2.362628
14.836988 11.902653 2.801227
15.152340 11.902653 3.521527
15.467690 11.902653 3.572330
15.783039 11.902653 0.000000
16.098389 11.902653 0.000000
16.413738 11.902653 0.000000
16.729090 11.902653 0.000000
17.044439 11.902653 0.000000
17.359789 11.902653 0.000000
17.675138 11.902653 0.000000
17.990490 11.902653 30.175781
18.305840 11.902653 34.994015
18.621189 11.902653 40.428101
18.936539 11.902653 0.000000
19.251888 11.902653 0.000000
-7.237510 11.587299 0.000000
-6.922160 11.587299 0.009828
-6.606810 11.587299 0.005783
-6.291460 11.587299 0.005277
-5.976110 11.587299 0.005025
-5.660760 11.587299 0.005138
-5.345410 11.587299 0.005468
-5.030060 11.587299 0.005330
-4.714710 11.587299 0.004907
-4.399360 11.587299 0.004965
-4.084010 11.587299 0.005633
-3.768660 11.587299 0.006320
-3.453310 11.587299 0.006456
-3.137960 11.587299 0.005753
-2.822610 11.587299 0.004937
-2.507260 11.587299 0.004835
-2.191910 11.587299 0.004910
-1.876560 11.587299 0.005033
-1.561210 11.587299 0.005029
-1.245860 11.587299 0.004698
-0.930510 11.587299 0.004209
-0.615160 11.587299 0.003963
-0.299810 11.587299 0.003813
0.015540 11.587299 0.003530
0.330890 11.587299 0.003236
0.646240 11.587299 0.003523
0.961589 11.587299 0.004145
1.276940 11.587299 0.004375
1.592289 11.587299 0.004589
1.907640 11.587299 0.004754
2.222990 11.587299 0.005225
2.538340 11.587299 0.005734
2.853690 11.587299 0.005534
3.169039 11.587299 0.005035
3.484390 11.587299 0.004974
3.799739 11.587299 0.005058
4.115090 11.587299 0.004643
4.430439 11.587299 0.003970
4.745790 11.587299 0.003091
5.061140 11.587299 0.002264
5.376490 11.587299 0.001696
5.691840 11.587299 0.001589
6.007189 11.587299 0.002021
6.322540 11.587299 0.002251
6.637889 11.587299 0.002369
6.953240 11.587299 0.001325
7.268589 11.587299 0.001075
7.583940 11.587299 0.001017
7.899290 11.587299 0.001368
8.214640 11.587299 0.008296
8.529989 11.587299 0.016063
8.845339 11.587299 0.017997
9.160688 11.587299 0.024678
9.476040 11.587299 0.041710
9.791389 11.587299 0.075400
10.106739 11.587299 0.109188
10.422089 11.587299 0.145805
10.737438 11.587299 0.193724
11.052790 11.587299 0.266950
11.368139 11.587299 0.395155
11.683489 11.587299 0.530035
11.998838 11.587299 0.561716
12.314190 11.587299 0.662196
12.629539 11.587299 0.868316
12.944889 11.587299 0.979559
13.260239 11.587299 1.144618
13.575588 11.587299 1.254982
13.890940 11.587299 1.435855
14.206289 11.587299 1.733774
14.521639 11.587299 2.292652
14.836988 11.587299 2.885959
15.152340 11.587299 3.586540
15.467690 11.587299 6.149136
15.783039 11.587299 0.000000
16.098389 11.587299 0.000000
16.413738 11.587299 0.000000
16.729090 11.587299 0.000000
17.044439 11.587299 0.000000
17.359789 11.587299 0.000000
17.675138 11.587299 0.000000
17.990490 11.587299 29.999382
18.305840 11.587299 33.704548
18.621189 11.587299 39.003788
18.936539 11.587299 0.000000
19.251888 11.587299 0.000000
-7.237510 11.271950 0.000000
-6.922160 11.271950 0.009947
-6.606810 11.271950 0.006131
-6.291460 11.271950 0.005734
-5.976110 11.271950 0.005635
-5.660760 11.271950 0.005958
-5.345410 11.271950 0.006390
-5.030060 11.271950 0.006173
-4.714710 11.271950 0.005778
-4.399360 11.271950 0.005583
-4.084010 11.271950 0.005736
-3.768660 11.271950 0.006041
-3.453310 11.271950 0.005934
-3.137960 11.271950 0.005044
-2.822610 11.271950 0.004133
-2.507260 11.271950 0.004138
-2.191910 11.271950 0.004380
-1.876560 11.271950 0.004596
-1.561210 11.271950 0.004646
-1.245860 11.271950 0.004136
-0.930510 11.271950 0.003754
-0.615160 11.271950 0.003866
-0.299810 11.271950 0.004066
0.015540 11.271950 0.003781
0.330890 11.271950 0.003428
0.646240 11.271950 0.003622
0.961589 11.271950 0.004085
1.276940 11.271950 0.004490
1.592289 11.271950 0.004768
1.907640 11.271950 0.004896
2.222990 11.271950 0.005242
2.538340 11.271950 0.005316
2.853690 11.271950 0.004768
3.169039 11.271950 0.004147
3.484390 11.271950 0.003972
3.799739 11.271950 0.003888
4.115090 11.271950 0.003469
4.430439 11.271950 0.003114
4.745790 11.271950 0.002854
5.061140 11.271950 0.002662
5.376490 11.271950 0.002732
5.691840 11.271950 0.003181
6.007189 11.271950 0.003856
6.322540 11.271950 0.003718
6.637889 11.271950 0.002832
6.953240 11.271950 0.001093
7.268589 11.271950 0.000484
7.583940 11.271950 -0.000487
7.899290 11.271950 0.001581
8.214640 11.271950 0.007073
8.529989 11.271950 0.012915
8.845339 11.271950 0.018041
9.160688 11.271950 0.028275
9.476040 11.271950 0.035256
9.791389 11.271950 0.073418
10.106739 11.271950 0.109251
10.422089 11.271950 0.142645
10.737438 11.271950 0.206094
11.052790 11.271950 0.265044
11.368139 11.271950 0.379926
11.683489 11.271950 0.491815
11.998838 11.271950 0.585460
12.314190 11.271950 0.748265
12.629539 11.271950 0.907238
12.944889 11.271950 0.964882
13.260239 11.271950 1.101319
13.575588 11.271950 1.336777
13.890940 11.271950 1.518928
14.206289 11.271950 1.859413
14.521639 11.271950 2.265711
14.836988 11.271950 3.034833
15.152340 11.271950 3.706162
15.467690 11.271950 0.000000
15.783039 11.271950 0.000000
16.098389 11.271950 0.000000
16.413738 11.271950 0.000000
16.729090 11.271950 0.000000
17.044439 11.271950 0.000000
17.359789 11.271950 0.000000
17.675138 11.271950 0.000000
17.990490 11.271950 32.405628
18.305840 11.271950 36.685974
18.621189 11.271950 41.043991
18.936539 11.271950 0.000000
19.251888 11.271950 0.000000
-7.237510 10.956600 0.000000
-6.922160 10.956600 0.010796
-6.606810 10.956600 0.006795
-6.291460 10.956600 0.006301
-5.976110 10.956600 0.006119
-5.660760 10.956600 0.006353
-5.345410 10.956600 0.006496
-5.030060 10.956600 0.006284
-4.714710 10.956600 0.006006
-4.399360 10.956600 0.005701
-4.084010 10.956600 0.005364
-3.768660 10.956600 0.005268
-3.453310 10.956600 0.004894
-3.137960 10.956600 0.004226
-2.822610 10.956600 0.003589
-2.507260 10.956600 0.003664
-2.191910 10.956600 0.004217
-1.876560 10.956600 0.004380
-1.561210 10.956600 0.004372
-1.245860 10.956600 0.003947
-0.930510 10.956600 0.003766
-0.615160 10.956600 0.004138
-0.299810 10.956600 0.004535
0.015540 10.956600 0.004174
0.330890 10.956600 0.003714
0.646240 10.956600 0.003743
0.961589 10.956600 0.003897
1.276940 10.956600 0.004104
1.592289 10.956600 0.004327
1.907640 10.956600 0.004363
2.222990 10.956600 0.004366
2.538340 10.956600 0.004190
2.853690 10.956600 0.003529
3.169039 10.956600 0.003262
3.484390 10.956600 0.003515
3.799739 10.956600 0.003672
4.115090 10.956600 0.003435
4.430439 10.956600 0.003522
4.745790 10.956600 0.003772
5.061140 10.956600 0.003999
5.376490 10.956600 0.004217
5.691840 10.956600 0.004535
6.007189 10.956600 0.004696
6.322540 10.956600 0.003833
6.637889 10.956600 0.001991
6.953240 10.956600 -0.000171
7.268589 10.956600 -0.001066
7.583940 10.956600 -0.000432
7.899290 10.956600 0.000214
8.214640 10.956600 0.003297
8.529989 10.956600 0.005920
8.845339 10.956600 0.014506
9.160688 10.956600 0.022949
9.476040 10.956600 0.037423
9.791389 10.956600 0.070228
10.106739 10.956600 0.124882
10.422089 10.956600 0.152981
10.737438 10.956600 0.231291
11.052790 10.956600 0.339625
11.368139 10.956600 0.413252
11.683489 10.956600 0.521902
11.998838 10.956600 0.657795
12.314190 10.956600 0.714908
12.629539 10.956600 0.865509
12.944889 10.956600 0.956051
13.260239 10.956600 1.188618
13.575588 10.956600 1.486071
13.890940 10.956600 1.675589
14.206289 10.956600 1.917641
14.521639 10.956600 2.377830
14.836988 10.956600 3.051226
15.152340 10.956600 3.950647
15.467690 10.956600 0.000000
15.783039 10.956600 0.000000
16.098389 10.956600 0.000000
16.413738 10.956600 0.000000
16.729090 10.956600 0.000000
17.044439 10.956600 0.000000
17.359789 10.956600 0.000000
17.675138 10.956600 0.000000
17.990490 10.956600 34.348015
18.305840 10.956600 39.220509
18.621189 10.956600 42.845928
18.936539 10.956600 0.000000
19.251888 10.956600 0.000000
-7.237510 10.641251 0.000000
-6.922160 10.641251 0.010683
-6.606810 10.641251 0.006694
-6.291460 10.641251 0.006137
-5.976110 10.641251 0.005806
-5.660760 10.641251 0.006009
-5.345410 10.641251 0.005893
-5.030060 10.641251 0.005619
-4.714710 10.641251 0.005554
-4.399360 10.641251 0.005367
-4.084010 10.641251 0.004990
-3.768660 10.641251 0.004530
-3.453310 10.641251 0.004076
-3.137960 10.641251 0.003872
-2.822610 10.641251 0.003718
-2.507260 10.641251 0.003963
-2.191910 10.641251 0.004407
-1.876560 10.641251 0.004477
-1.561210 10.641251 0.004315
-1.245860 10.641251 0.004095
-0.930510 10.641251 0.004103
-0.615160 10.641251 0.004425
-0.299810 10.641251 0.004771
0.015540 10.641251 0.004168
0.330890 10.641251 0.003672
0.646240 10.641251 0.003471
0.961589 10.641251 0.003222
1.276940 10.641251 0.003115
1.592289 10.641251 0.003305
1.907640 10.641251 0.003446
2.222990 10.641251 0.003492
2.538340 10.641251 0.003286
2.853690 10.641251 0.003083
3.169039 10.641251 0.003330
3.484390 10.641251 0.004022
3.799739 10.641251 0.004540
4.115090 10.641251 0.004353
4.430439 10.641251 0.004494
4.745790 10.641251 0.004657
5.061140 10.641251 0.004780
5.376490 10.641251 0.004561
5.691840 10.641251 0.004499
6.007189 10.641251 0.004145
6.322540 10.641251 0.003103
6.637889 10.641251 0.001191
6.953240 10.641251 -0.001116
7.268589 10.641251 -0.001806
7.583940 10.641251 0.000832
7.899290 10.641251 0.003501
8.214640 10.641251 0.000242
8.529989 10.641251 0.004749
8.845339 10.641251 0.019137
9.160688 10.641251 0.029858
9.476040 10.641251 0.049382
9.791389 10.641251 0.095781
10.106739 10.641251 0.130101
10.422089 10.641251 0.179525
10.737438 10.641251 0.250813
11.052790 10.641251 0.365039
11.368139 10.641251 0.462309
11.683489 10.641251 0.551474
11.998838 10.641251 0.656344
12.314190 10.641251 0.750305
12.629539 10.641251 0.853264
12.944889 10.641251 0.980104
13.260239 10.641251 1.169901
13.575588 10.641251 1.421023
13.890940 10.641251 1.664295
14.206289 10.641251 1.968948
14.521639 10.641251 2.419887
14.836988 10.641251 3.062234
15.152340 10.641251 4.152776
15.467690 10.641251 0.000000
15.783039 10.641251 0.000000
16.098389 10.641251 0.000000
16.413738 10.641251 0.000000
16.729090 10.641251 0.000000
17.044439 10.641251 0.000000
17.359789 10.641251 0.000000
17.675138 10.641251 0.000000
17.990490 10.641251 36.710789
18.305840 10.641251 40.230736
18.621189 10.641251 43.419525
18.936539 10.641251 0.000000
19.251888 10.641251 0.000000
-7.237510 10.325901 0.000000
-6.922160 10.325901 0.009821
-6.606810 10.325901 0.005730
-6.291460 10.325901 0.005287
-5.976110 10.325901 0.005013
-5.660760 10.325901 0.005131
-5.345410 10.325901 0.005087
-5.030060 10.325901 0.005002
-4.714710 10.325901 0.005163
-4.399360 10.325901 0.005075
-4.084010 10.325901 0.004691
-3.768660 10.325901 0.004093
-3.453310 10.325901 0.003821
-3.137960 10.325901 0.004088
-2.822610 10.325901 0.004279
-2.507260 10.325901 0.004398
-2.191910 10.325901 0.004680
-1.876560 10.325901 0.004467
-1.561210 10.325901 0.004171
-1.245860 10.325901 0.004207
-0.930510 10.325901 0.004329
-0.615160 10.325901 0.004552
-0.299810 10.325901 0.004504
0.015540 10.325901 0.003702
0.330890 10.325901 0.003023
0.646240 10.325901 0.002686
0.961589 10.325901 0.002338
1.276940 10.325901 0.002266
1.592289 10.325901 0.002476
1.907640 10.325901 0.002952
2.222990 10.325901 0.003283
2.538340 10.325901 0.003431
2.853690 10.325901 0.003653
3.169039 10.325901 0.004126
3.484390 10.325901 0.004883
3.799739 10.325901 0.005282
4.115090 10.325901 0.004994
4.430439 10.325901 0.004704
4.745790 10.325901 0.004632
5.061140 10.325901 0.004487
5.376490 10.325901 0.003874
5.691840 10.325901 0.003519
6.007189 10.325901 0.003296
6.322540 10.325901 0.002472
6.637889 10.325901 0.001202
6.953240 10.325901 -0.000147
7.268589 10.325901 -0.000233
7.583940 10.325901 0.002089
7.899290 10.325901 0.003836
8.214640 10.325901 0.002595
8.529989 10.325901 0.010995
8.845339 10.325901 0.020245
9.160688 10.325901 0.031199
9.476040 10.325901 0.055369
9.791389 10.325901 0.081386
10.106739 10.325901 0.132790
10.422089 10.325901 0.178153
10.737438 10.325901 0.251968
11.052790 10.325901 0.322778
11.368139 10.325901 0.442146
11.683489 10.325901 0.546621
11.998838 10.325901 0.706715
12.314190 10.325901 0.783869
12.629539 10.325901 0.860953
12.944889 10.325901 0.924335
13.260239 10.325901 1.175166
13.575588 10.325901 1.405382
13.890940 10.325901 1.634339
14.206289 10.325901 2.052187
14.521639 10.325901 2.515366
14.836988 10.325901 3.259264
15.152340 10.325901 4.488491
15.467690 10.325901 0.000000
15.783039 10.325901 0.000000
16.098389 10.325901 0.000000
16.413738 10.325901 0.000000
16.729090 10.325901 0.000000
17.044439 10.325901 0.000000
17.359789 10.325901 0.000000
17.675138 10.325901 0.000000
17.990490 10.325901 36.180485
18.305840 10.325901 39.701828
18.621189 10.325901 42.765530
18.936539 10.325901 0.000000
19.251888 10.325901 0.000000
-7.237510 10.010551 0.000000
-6.922160 10.010551 0.008795
-6.606810 10.010551 0.004573
-6.291460 10.010551 0.004349
-5.976110 10.010551 0.004466
-5.660760 10.010551 0.004717
-5.345410 10.010551 0.004698
-5.030060 10.010551 0.004882
-4.714710 10.010551 0.005221
-4.399360 10.010551 0.005100
-4.084010 10.010551 0.004802
-3.768660 10.010551 0.004190
-3.453310 10.010551 0.004003
-3.137960 10.010551 0.004399
-2.822610 10.010551 0.004628
-2.507260 10.010551 0.004692
-2.191910 10.010551 0.004557
-1.876560 10.010551 0.003957
-1.561210 10.010551 0.003660
-1.245860 10.010551 0.003892
-0.930510 10.010551 0.004049
-0.615160 10.010551 0.004117
-0.299810 10.010551 0.003762
0.015540 10.010551 0.003104
0.330890 10.010551 0.002537
0.646240 10.010551 0.002304
0.961589 10.010551 0.001942
1.276940 10.010551 0.002026
1.592289 10.010551 0.002394
1.907640 10.010551 0.003090
2.222990 10.010551 0.003611
2.538340 10.010551 0.004041
2.853690 10.010551 0.004371
3.169039 10.010551 0.004568
3.484390 10.010551 0.004858
3.799739 10.010551 0.004867
4.115090 10.010551 0.004430
4.430439 10.010551 0.003996
4.745790 10.010551 0.004015
5.061140 10.010551 0.003933
5.376490 10.010551 0.003322
5.691840 10.010551 0.002981
6.007189 10.010551 0.002968
6.322540 10.010551 0.002614
6.637889 10.010551 0.002053
6.953240 10.010551 0.000949
7.268589 10.010551 0.000395
7.583940 10.010551 0.001256
7.899290 10.010551 0.003865
8.214640 10.010551 0.008901
8.529989 10.010551 0.008038
8.845339 10.010551 0.012271
9.160688 10.010551 0.019315
9.476040 10.010551 0.056491
9.791389 10.010551 0.090173
10.106739 10.010551 0.122676
10.422089 10.010551 0.170763
10.737438 10.010551 0.250972
11.052790 10.010551 0.318933
11.368139 10.010551 0.402216
11.683489 10.010551 0.529657
11.998838 10.010551 0.664112
12.314190 10.010551 0.772725
12.629539 10.010551 0.988966
12.944889 10.010551 0.985900
13.260239 10.010551 1.146004
13.575588 10.010551 1.367076
13.890940 10.010551 1.656790
14.206289 10.010551 2.096294
14.521639 10.010551 2.688222
14.836988 10.010551 3.413585
15.152340 10.010551 4.516141
15.467690 10.010551 0.000000
15.783039 10.010551 0.000000
16.098389 10.010551 0.000000
16.413738 10.010551 0.000000
16.729090 10.010551 0.000000
17.044439 10.010551 0.000000
17.359789 10.010551 0.000000
17.675138 10.010551 0.000000
17.990490 10.010551 34.832474
18.305840 10.010551 38.502209
18.621189 10.010551 40.490971
18.936539 10.010551 0.000000
19.251888 10.010551 0.000000
-7.237510 9.695202 0.000000
-6.922160 9.695202 0.007980
-6.606810 9.695202 0.004098
-6.291460 9.695202 0.003979
-5.976110 9.695202 0.004328
-5.660760 9.695202 0.004737
-5.345410 9.695202 0.004881
-5.030060 9.695202 0.004988
-4.714710 9.695202 0.005391
-4.399360 9.695202 0.005271
-4.084010 9.695202 0.004884
-3.768660 9.695202 0.004414
-3.453310 9.695202 0.004110
-3.137960 9.695202 0.004411
-2.822610 9.695202 0.004544
-2.507260 9.695202 0.004421
-2.191910 9.695202 0.004047
-1.876560 9.695202 0.003317
-1.561210 9.695202 0.003051
-1.245860 9.695202 0.003294
-0.930510 9.695202 0.003525
-0.615160 9.695202 0.003341
-0.299810 9.695202 0.003080
0.015540 9.695202 0.002874
0.330890 9.695202 0.002658
0.646240 9.695202 0.002488
0.961589 9.695202 0.002266
1.276940 9.695202 0.002391
1.592289 9.695202 0.002802
1.907640 9.695202 0.003421
2.222990 9.695202 0.003854
2.538340 9.695202 0.004200
2.853690 9.695202 0.004328
3.169039 9.695202 0.004109
3.484390 9.695202 0.003942
3.799739 9.695202 0.003835
4.115090 9.695202 0.003552
4.430439 9.695202 0.003406
4.745790 9.695202 0.003690
5.061140 9.695202 0.003857
5.376490 9.695202 0.003565
5.691840 9.695202 0.003300
6.007189 9.695202 0.003295
6.322540 9.695202 0.003143
6.637889 9.695202 0.002758
6.953240 9.695202 0.001699
7.268589 9.695202 0.000114
7.583940 9.695202 0.001443
7.899290 9.695202 0.006575
8.214640 9.695202 0.007405
8.529989 9.695202 0.006304
8.845339 9.695202 0.011277
9.160688 9.695202 0.027249
9.476040 9.695202 0.036749
9.791389 9.695202 0.079666
10.106739 9.695202 0.110521
10.422089 9.695202 0.146672
10.737438 9.695202 0.194438
11.052790 9.695202 0.347786
11.368139 9.695202 0.375213
11.683489 9.695202 0.497448
11.998838 9.695202 0.675934
12.314190 9.695202 0.817188
12.629539 9.695202 0.918332
12.944889 9.695202 1.061964
13.260239 9.695202 1.212139
13.575588 9.695202 1.382136
13.890940 9.695202 1.801243
14.206289 9.695202 1.986541
14.521639 9.695202 2.711032
14.836988 9.695202 3.333870
15.152340 9.695202 4.717929
15.467690 9.695202 0.000000
15.783039 9.695202 0.000000
16.098389 9.695202 0.000000
16.413738 9.695202 0.000000
16.729090 9.695202 0.000000
17.044439 9.695202 0.000000
17.359789 9.695202 0.000000
17.675138 9.695202 0.000000
17.990490 9.695202 33.704655
18.305840 9.695202 36.951916
18.621189 9.695202 39.965527
18.936539 9.695202 0.000000
19.251888 9.695202 0.000000
-7.237510 9.379852 0.000000
-6.922160 9.379852 0.007731
-6.606810 9.379852 0.004242
-6.291460 9.379852 0.004189
-5.976110 9.379852 0.004596
-5.660760 9.379852 0.004862
-5.345410 9.379852 0.004896
-5.030060 9.379852 0.004978
-4.714710 9.379852 0.005139
-4.399360 9.379852 0.005042
-4.084010 9.379852 0.004679
-3.768660 9.379852 0.004286
-3.453310 9.379852 0.004022
-3.137960 9.379852 0.004107
-2.822610 9.379852 0.004207
-2.507260 9.379852 0.003960
-2.191910 9.379852 0.003542
-1.876560 9.379852 0.002993
-1.561210 9.379852 0.002787
-1.245860 9.379852 0.002910
-0.930510 9.379852 0.002987
-0.615160 9.379852 0.002761
-0.299810 9.379852 0.002654
0.015540 9.379852 0.002864
0.330890 9.379852 0.003018
0.646240 9.379852 0.002931
0.961589 9.379852 0.002697
1.276940 9.379852 0.002769
1.592289 9.379852 0.002931
1.907640 9.379852 0.003168
2.222990 9.379852 0.003320
2.538340 9.379852 0.003499
2.853690 9.379852 0.003520
3.169039 9.379852 0.003243
3.484390 9.379852 0.003110
3.799739 9.379852 0.003089
4.115090 9.379852 0.003213
4.430439 9.379852 0.003490
4.745790 9.379852 0.004040
5.061140 9.379852 0.004309
5.376490 9.379852 0.004101
5.691840 9.379852 0.003594
6.007189 9.379852 0.003220
6.322540 9.379852 0.002875
6.637889 9.379852 0.001937
6.953240 9.379852 0.000409
7.268589 9.379852 -0.000309
7.583940 9.379852 0.000272
7.899290 9.379852 0.003002
8.214640 9.379852 0.005684
8.529989 9.379852 0.010057
8.845339 9.379852 0.017741
9.160688 9.379852 0.027259
9.476040 9.379852 0.049416
9.791389 9.379852 0.079983
10.106739 9.379852 0.098370
10.422089 9.379852 0.128705
10.737438 9.379852 0.200099
11.052790 9.379852 0.309099
11.368139 9.379852 0.449654
11.683489 9.379852 0.564879
11.998838 9.379852 0.731206
12.314190 9.379852 0.791422
12.629539 9.379852 0.903110
12.944889 9.379852 1.036973
13.260239 9.379852 1.263258
13.575588 9.379852 1.360806
13.890940 9.379852 1.593809
14.206289 9.379852 2.055159
14.521639 9.379852 2.634243
14.836988 9.379852 3.326632
15.152340 9.379852 4.506101
15.467690 9.379852 0.000000
15.783039 9.379852 0.000000
16.098389 9.379852 0.000000
16.413738 9.379852 0.000000
16.729090 9.379852 0.000000
17.044439 9.379852 0.000000
17.359789 9.379852 0.000000
17.675138 9.379852 0.000000
17.990490 9.379852 33.524818
18.305840 9.379852 36.604916
18.621189 9.379852 39.753326
18.936539 9.379852 0.000000
19.251888 9.379852 0.000000
-7.237510 9.064503 0.000000
-6.922160 9.064503 0.007629
-6.606810 9.064503 0.004301
-6.291460 9.064503 0.004299
-5.976110 9.064503 0.004628
-5.660760 9.064503 0.004834
-5.345410 9.064503 0.004851
-5.030060 9.064503 0.004629
-4.714710 9.064503 0.004528
-4.399360 9.064503 0.004475
-4.084010 9.064503 0.004239
-3.768660 9.064503 0.003915
-3.453310 9.064503 0.003714
-3.137960 9.064503 0.003740
-2.822610 9.064503 0.003703
-2.507260 9.064503 0.003534
-2.191910 9.064503 0.003207
-1.876560 9.064503 0.002941
-1.561210 9.064503 0.002894
-1.245860 9.064503 0.002796
-0.930510 9.064503 0.002733
-0.615160 9.064503 0.002371
-0.299810 9.064503 0.002366
0.015540 9.064503 0.002737
0.330890 9.064503 0.003109
0.646240 9.064503 0.003026
0.961589 9.064503 0.002707
1.276940 9.064503 0.002570
1.592289 9.064503 0.002471
1.907640 9.064503 0.002462
2.222990 9.064503 0.002415
2.538340 9.064503 0.002582
2.853690 9.064503 0.002697
3.169039 9.064503 0.002696
3.484390 9.064503 0.002836
3.799739 9.064503 0.003117
4.115090 9.064503 0.003398
4.430439 9.064503 0.003883
4.745790 9.064503 0.004378
5.061140 9.064503 0.004451
5.376490 9.064503 0.004026
5.691840 9.064503 0.003181
6.007189 9.064503 0.002276
6.322540 9.064503 0.001992
6.637889 9.064503 0.001290
6.953240 9.064503 -0.000081
7.268589 9.064503 -0.001180
7.583940 9.064503 -0.000650
7.899290 9.064503 0.001319
8.214640 9.064503 0.003777
8.529989 9.064503 0.013338
8.845339 9.064503 0.022946
9.160688 9.064503 0.028067
9.476040 9.064503 0.056202
9.791389 9.064503 0.084467
10.106739 9.064503 0.113030
10.422089 9.064503 0.151640
10.737438 9.064503 0.209663
11.052790 9.064503 0.285426
11.368139 9.064503 0.372641
11.683489 9.064503 0.527640
11.998838 9.064503 0.697085
12.314190 9.064503 0.760876
12.629539 9.064503 0.937311
12.944889 9.064503 1.093972
13.260239 9.064503 1.146372
13.575588 9.064503 1.368300
13.890940 9.064503 1.560203
14.206289 9.064503 2.067365
14.521639 9.064503 2.595656
14.836988 9.064503 3.383716
15.152340 9.064503 4.861737
15.467690 9.064503 0.000000
15.783039 9.064503 0.000000
16.098389 9.064503 0.000000
16.413738 9.064503 0.000000
16.729090 9.064503 0.000000
17.044439 9.064503 0.000000
17.359789 9.064503 0.000000
17.675138 9.064503 0.000000
17.990490 9.064503 34.730247
18.305840 9.064503 37.819916
18.621189 9.064503 41.055786
18.936539 9.064503 0.000000
19.251888 9.064503 0.000000
-7.237510 8.749149 0.000000
-6.922160 8.749149 0.007235
-6.606810 8.749149 0.004209
-6.291460 8.749149 0.004132
-5.976110 8.749149 0.004372
-5.660760 8.749149 0.004465
-5.345410 8.749149 0.004503
-5.030060 8.749149 0.004211
-4.714710 8.749149 0.003925
-4.399360 8.749149 0.003956
-4.084010 8.749149 0.003766
-3.768660 8.749149 0.003392
-3.453310 8.749149 0.003360
-3.137960 8.749149 0.003453
-2.822610 8.749149 0.003298
-2.507260 8.749149 0.003099
-2.191910 8.749149 0.002939
-1.876560 8.749149 0.003042
-1.561210 8.749149 0.003059
-1.245860 8.749149 0.002719
-0.930510 8.749149 0.002499
-0.615160 8.749149 0.002058
-0.299810 8.749149 0.001986
0.015540 8.749149 0.002295
0.330890 8.749149 0.002609
0.646240 8.749149 0.002546
0.961589 8.749149 0.002179
1.276940 8.749149 0.001998
1.592289 8.749149 0.001928
1.907640 8.749149 0.001889
2.222990 8.749149 0.002005
2.538340 8.749149 0.002255
2.853690 8.749149 0.002470
3.169039 8.749149 0.002614
3.484390 8.749149 0.002966
3.799739 8.749149 0.003372
4.115090 8.749149 0.003663
4.430439 8.749149 0.003878
4.745790 8.749149 0.004007
5.061140 8.749149 0.003783
5.376490 8.749149 0.003087
5.691840 8.749149 0.002212
6.007189 8.749149 0.001289
6.322540 8.749149 0.001229
6.637889 8.749149 0.001259
6.953240 8.749149 0.000235
7.268589 8.749149 -0.000333
7.583940 8.749149 -0.000150
7.899290 8.749149 0.004780
8.214640 8.749149 0.006700
8.529989 8.749149 0.015538
8.845339 8.749149 0.028177
9.160688 8.749149 0.026705
9.476040 8.749149 0.057037
9.791389 8.749149 0.080162
10.106739 8.749149 0.113735
10.422089 8.749149 0.138968
10.737438 8.749149 0.201792
11.052790 8.749149 0.294502
11.368139 8.749149 0.359282
11.683489 8.749149 0.515501
11.998838 8.749149 0.700864
12.314190 8.749149 0.818374
12.629539 8.749149 0.911584
12.944889 8.749149 1.095146
13.260239 8.749149 1.169434
13.575588 8.749149 1.418295
13.890940 8.749149 1.649169
14.206289 8.749149 1.936212
14.521639 8.749149 2.535766
14.836988 8.749149 3.503633
15.152340 8.749149 4.598581
15.467690 8.749149 0.000000
15.783039 8.749149 0.000000
16.098389 8.749149 0.000000
16.413738 8.749149 0.000000
16.729090 8.749149 0.000000
17.044439 8.749149 0.000000
17.359789 8.749149 0.000000
17.675138 8.749149 0.000000
17.990490 8.749149 38.251011
18.305840 8.749149 41.368347
18.621189 8.749149 43.541306
18.936539 8.749149 0.000000
19.251888 8.749149 0.000000
-7.237510 8.433800 0.000000
-6.922160 8.433800 0.006910
-6.606810 8.433800 0.003906
-6.291460 8.433800 0.003818
-5.976110 8.433800 0.004069
-5.660760 8.433800 0.004135
-5.345410 8.433800 0.004145
-5.030060 8.433800 0.003886
-4.714710 8.433800 0.003562
-4.399360 8.433800 0.003454
-4.084010 8.433800 0.003365
-3.768660 8.433800 0.003092
-3.453310 8.433800 0.003103
-3.137960 8.433800 0.003131
-2.822610 8.433800 0.002993
-2.507260 8.433800 0.002732
-2.191910 8.433800 0.002769
-1.876560 8.433800 0.003022
-1.561210 8.433800 0.002897
-1.245860 8.433800 0.002346
-0.930510 8.433800 0.002028
-0.615160 8.433800 0.001644
-0.299810 8.433800 0.001570
0.015540 8.433800 0.001688
0.330890 8.433800 0.001862
0.646240 8.433800 0.001872
0.961589 8.433800 0.001578
1.276940 8.433800 0.001562
1.592289 8.433800 0.001718
1.907640 8.433800 0.001884
2.222990 8.433800 0.002191
2.538340 8.433800 0.002446
2.853690 8.433800 0.002547
3.169039 8.433800 0.002696
3.484390 8.433800 0.002930
3.799739 8.433800 0.003237
4.115090 8.433800 0.003456
4.430439 8.433800 0.003381
4.745790 8.433800 0.003058
5.061140 8.433800 0.002685
5.376490 8.433800 0.002182
5.691840 8.433800 0.001569
6.007189 8.433800 0.001208
6.322540 8.433800 0.001249
6.637889 8.433800 0.001319
6.953240 8.433800 0.000656
7.268589 8.433800 0.000010
7.583940 8.433800 -0.001268
7.899290 8.433800 0.002487
8.214640 8.433800 0.014396
8.529989 8.433800 0.011961
8.845339 8.433800 0.029017
9.160688 8.433800 0.039053
9.476040 8.433800 0.058206
9.791389 8.433800 0.086490
10.106739 8.433800 0.091434
10.422089 8.433800 0.155429
10.737438 8.433800 0.208757
11.052790 8.433800 0.301291
11.368139 8.433800 0.389276
11.683489 8.433800 0.600454
11.998838 8.433800 0.725802
12.314190 8.433800 0.966872
12.629539 8.433800 1.008373
12.944889 8.433800 1.033540
13.260239 8.433800 1.133061
13.575588 8.433800 1.221806
13.890940 8.433800 1.576466
14.206289 8.433800 2.022159
14.521639 8.433800 2.617008
14.836988 8.433800 3.809681
15.152340 8.433800 5.102061
15.467690 8.433800 0.000000
15.783039 8.433800 0.000000
16.098389 8.433800 0.000000
16.413738 8.433800 0.000000
16.729090 8.433800 0.000000
17.044439 8.433800 0.000000
17.359789 8.433800 0.000000
17.675138 8.433800 0.000000
17.990490 8.433800 40.109699
18.305840 8.433800 43.001904
18.621189 8.433800 46.084396
18.936539 8.433800 0.000000
19.251888 8.433800 0.000000
-7.237510 8.118450 0.000000
-6.922160 8.118450 0.006738
-6.606810 8.118450 0.003820
-6.291460 8.118450 0.003582
-5.976110 8.118450 0.003886
-5.660760 8.118450 0.003852
-5.345410 8.118450 0.003835
-5.030060 8.118450 0.003721
-4.714710 8.118450 0.003384
-4.399360 8.118450 0.003244
-4.084010 8.118450 0.003022
-3.768660 8.118450 0.002842
-3.453310 8.118450 0.002721
-3.137960 8.118450 0.002675
-2.822610 8.118450 0.002616
-2.507260 8.118450 0.002342
-2.191910 8.118450 0.002472
-1.876560 8.118450 0.002745
-1.561210 8.118450 0.002446
-1.245860 8.118450 0.001774
-0.930510 8.118450 0.001456
-0.615160 8.118450 0.001306
-0.299810 8.118450 0.001282
0.015540 8.118450 0.001311
0.330890 8.118450 0.001344
0.646240 8.118450 0.001450
0.961589 8.118450 0.001286
1.276940 8.118450 0.001506
1.592289 8.118450 0.001809
1.907640 8.118450 0.002070
2.222990 8.118450 0.002424
2.538340 8.118450 0.002548
2.853690 8.118450 0.002466
3.169039 8.118450 0.002373
3.484390 8.118450 0.002424
3.799739 8.118450 0.002685
4.115090 8.118450 0.002845
4.430439 8.118450 0.002652
4.745790 8.118450 0.002301
5.061140 8.118450 0.002045
5.376490 8.118450 0.001897
5.691840 8.118450 0.001798
6.007189 8.118450 0.001811
6.322540 8.118450 0.001658
6.637889 8.118450 0.001237
6.953240 8.118450 0.000681
7.268589 8.118450 0.000732
7.583940 8.118450 0.000004
7.899290 8.118450 0.003928
8.214640 8.118450 0.010830
8.529989 8.118450 0.012670
8.845339 8.118450 0.020645
9.160688 8.118450 0.043006
9.476040 8.118450 0.069836
9.791389 8.118450 0.084382
10.106739 8.118450 0.099114
10.422089 8.118450 0.156646
10.737438 8.118450 0.229425
11.052790 8.118450 0.292981
11.368139 8.118450 0.432007
11.683489 8.118450 0.597835
11.998838 8.118450 0.722068
12.314190 8.118450 0.835243
12.629539 8.118450 0.950116
12.944889 8.118450 0.982203
13.260239 8.118450 1.068748
13.575588 8.118450 1.377242
13.890940 8.118450 1.512307
14.206289 8.118450 1.947613
14.521639 8.118450 2.653908
14.836988 8.118450 3.878765
15.152340 8.118450 5.192751
15.467690 8.118450 0.000000
15.783039 8.118450 0.000000
16.098389 8.118450 0.000000
16.413738 8.118450 0.000000
16.729090 8.118450 0.000000
17.044439 8.118450 0.000000
17.359789 8.118450 0.000000
17.675138 8.118450 0.000000
17.990490 8.118450 38.998772
18.305840 8.118450 43.147919
18.621189 8.118450 45.362015
18.936539 8.118450 0.000000
19.251888 8.118450 0.000000
-7.237510 7.803101 0.000000
-6.922160 7.803101 0.006599
-6.606810 7.803101 0.003825
-6.291460 7.803101 0.003606
-5.976110 7.803101 0.003732
-5.660760 7.803101 0.003625
-5.345410 7.803101 0.003596
-5.030060 7.803101 0.003514
-4.714710 7.803101 0.003087
-4.399360 7.803101 0.002907
-4.084010 7.803101 0.002784
-3.768660 7.803101 0.002582
-3.453310 7.803101 0.002345
-3.137960 7.803101 0.002200
-2.822610 7.803101 0.002129
-2.507260 7.803101 0.001919
-2.191910 7.803101 0.002080
-1.876560 7.803101 0.002320
-1.561210 7.803101 0.001957
-1.245860 7.803101 0.001487
-0.930510 7.803101 0.001247
-0.615160 7.803101 0.001314
-0.299810 7.803101 0.001356
0.015540 7.803101 0.001264
0.330890 7.803101 0.001105
0.646240 7.803101 0.001277
0.961589 7.803101 0.001316
1.276940 7.803101 0.001518
1.592289 7.803101 0.001895
1.907640 7.803101 0.002118
2.222990 7.803101 0.002203
2.538340 7.803101 0.002215
2.853690 7.803101 0.001984
3.169039 7.803101 0.001857
3.484390 7.803101 0.001848
3.799739 7.803101 0.002101
4.115090 7.803101 0.002285
4.430439 7.803101 0.002335
4.745790 7.803101 0.002249
5.061140 7.803101 0.002110
5.376490 7.803101 0.002135
5.691840 7.803101 0.002256
6.007189 7.803101 0.002334
6.322540 7.803101 0.001722
6.637889 7.803101 0.001057
6.953240 7.803101 0.000787
7.268589 7.803101 -0.000230
7.583940 7.803101 -0.001077
7.899290 7.803101 0.001042
8.214640 7.803101 0.005988
8.529989 7.803101 0.015475
8.845339 7.803101 0.028489
9.160688 7.803101 0.042124
9.476040 7.803101 0.074494
9.791389 7.803101 0.080666
10.106739 7.803101 0.102608
10.422089 7.803101 0.177861
10.737438 7.803101 0.261981
11.052790 7.803101 0.362610
11.368139 7.803101 0.425489
11.683489 7.803101 0.664814
11.998838 7.803101 0.653481
12.314190 7.803101 0.841228
12.629539 7.803101 0.984446
12.944889 7.803101 1.029084
13.260239 7.803101 1.221581
13.575588 7.803101 1.440452
13.890940 7.803101 1.608531
14.206289 7.803101 1.924874
14.521639 7.803101 2.948021
14.836988 7.803101 4.129107
15.152340 7.803101 5.229722
15.467690 7.803101 0.000000
15.783039 7.803101 0.000000
16.098389 7.803101 0.000000
16.413738 7.803101 0.000000
16.729090 7.803101 0.000000
17.044439 7.803101 0.000000
17.359789 7.803101 0.000000
17.675138 7.803101 0.000000
17.990490 7.803101 36.500076
18.305840 7.803101 41.681488
18.621189 7.803101 44.738960
18.936539 7.803101 0.000000
19.251888 7.803101 0.000000
-7.237510 7.487751 0.000000
-6.922160 7.487751 0.006447
-6.606810 7.487751 0.003695
-6.291460 7.487751 0.003402
-5.976110 7.487751 0.003379
-5.660760 7.487751 0.003259
-5.345410 7.487751 0.003247
-5.030060 7.487751 0.003073
-4.714710 7.487751 0.002681
-4.399360 7.487751 0.002515
-4.084010 7.487751 0.002531
-3.768660 7.487751 0.002302
-3.453310 7.487751 0.002047
-3.137960 7.487751 0.001928
-2.822610 7.487751 0.001824
-2.507260 7.487751 0.001610
-2.191910 7.487751 0.001784
-1.876560 7.487751 0.001908
-1.561210 7.487751 0.001584
-1.245860 7.487751 0.001311
-0.930510 7.487751 0.001385
-0.615160 7.487751 0.001632
-0.299810 7.487751 0.001586
0.015540 7.487751 0.001213
0.330890 7.487751 0.001017
0.646240 7.487751 0.001161
0.961589 7.487751 0.001214
1.276940 7.487751 0.001406
1.592289 7.487751 0.001731
1.907640 7.487751 0.001862
2.222990 7.487751 0.001839
2.538340 7.487751 0.001780
2.853690 7.487751 0.001475
3.169039 7.487751 0.001512
3.484390 7.487751 0.001598
3.799739 7.487751 0.001913
4.115090 7.487751 0.002155
4.430439 7.487751 0.002496
4.745790 7.487751 0.002595
5.061140 7.487751 0.002324
5.376490 7.487751 0.002224
5.691840 7.487751 0.002339
6.007189 7.487751 0.002187
6.322540 7.487751 0.001432
6.637889 7.487751 0.000690
6.953240 7.487751 0.000506
7.268589 7.487751 -0.001113
7.583940 7.487751 -0.000708
7.899290 7.487751 0.001207
8.214640 7.487751 0.006368
8.529989 7.487751 0.006660
8.845339 7.487751 0.024908
9.160688 7.487751 0.043749
9.476040 7.487751 0.069152
9.791389 7.487751 0.077793
10.106739 7.487751 0.113655
10.422089 7.487751 0.220942
10.737438 7.487751 0.280297
11.052790 7.487751 0.374885
11.368139 7.487751 0.503285
11.683489 7.487751 0.638135
11.998838 7.487751 0.610395
12.314190 7.487751 0.794630
12.629539 7.487751 0.992310
12.944889 7.487751 1.080812
13.260239 7.487751 1.170030
13.575588 7.487751 1.456787
13.890940 7.487751 1.628983
14.206289 7.487751 2.104038
14.521639 7.487751 3.067324
14.836988 7.487751 4.304849
15.152340 7.487751 5.537601
15.467690 7.487751 0.000000
15.783039 7.487751 0.000000
16.098389 7.487751 0.000000
16.413738 7.487751 0.000000
16.729090 7.487751 0.000000
17.044439 7.487751 0.000000
17.359789 7.487751 0.000000
17.675138 7.487751 0.000000
17.990490 7.487751 33.889946
18.305840 7.487751 39.689659
18.621189 7.487751 44.282982
18.936539 7.487751 0.000000
19.251888 7.487751 0.000000
-7.237510 7.172401 0.000000
-6.922160 7.172401 0.005742
-6.606810 7.172401 0.003232
-6.291460 7.172401 0.002876
-5.976110 7.172401 0.002843
-5.660760 7.172401 0.002731
-5.345410 7.172401 0.002828
-5.030060 7.172401 0.002685
-4.714710 7.172401 0.002308
-4.399360 7.172401 0.002189
-4.084010 7.172401 0.002242
-3.768660 7.172401 0.002068
-3.453310 7.172401 0.001853
-3.137960 7.172401 0.001777
-2.822610 7.172401 0.001667
-2.507260 7.172401 0.001501
-2.191910 7.172401 0.001551
-1.876560 7.172401 0.001558
-1.561210 7.172401 0.001527
-1.245860 7.172401 0.001461
-0.930510 7.172401 0.001589
-0.615160 7.172401 0.001716
-0.299810 7.172401 0.001532
0.015540 7.172401 0.001089
0.330890 7.172401 0.000839
0.646240 7.172401 0.000946
0.961589 7.172401 0.001097
1.276940 7.172401 0.001168
1.592289 7.172401 0.001442
1.907640 7.172401 0.001574
2.222990 7.172401 0.001558
2.538340 7.172401 0.001481
2.853690 7.172401 0.001350
3.169039 7.172401 0.001596
3.484390 7.172401 0.001745
3.799739 7.172401 0.001989
4.115090 7.172401 0.002186
4.430439 7.172401 0.002612
4.745790 7.172401 0.002788
5.061140 7.172401 0.002431
5.376490 7.172401 0.002142
5.691840 7.172401 0.002144
6.007189 7.172401 0.001893
6.322540 7.172401 0.001172
6.637889 7.172401 0.000721
6.953240 7.172401 0.000324
7.268589 7.172401 -0.000657
7.583940 7.172401 -0.000868
7.899290 7.172401 0.001078
8.214640 7.172401 0.005150
8.529989 7.172401 0.005852
8.845339 7.172401 0.022693
9.160688 7.172401 0.046277
9.476040 7.172401 0.070323
9.791389 7.172401 0.099869
10.106739 7.172401 0.134087
10.422089 7.172401 0.222168
10.737438 7.172401 0.275126
11.052790 7.172401 0.388898
11.368139 7.172401 0.480638
11.683489 7.172401 0.614863
11.998838 7.172401 0.664070
12.314190 7.172401 0.815135
12.629539 7.172401 1.003556
12.944889 7.172401 1.060651
13.260239 7.172401 1.152817
13.575588 7.172401 1.486203
13.890940 7.172401 1.805876
14.206289 7.172401 2.295611
14.521639 7.172401 2.870288
14.836988 7.172401 4.001847
15.152340 7.172401 5.490614
15.467690 7.172401 0.000000
15.783039 7.172401 0.000000
16.098389 7.172401 0.000000
16.413738 7.172401 0.000000
16.729090 7.172401 0.000000
17.044439 7.172401 0.000000
17.359789 7.172401 0.000000
17.675138 7.172401 0.000000
17.990490 7.172401 30.013668
18.305840 7.172401 36.896008
18.621189 7.172401 41.097889
18.936539 7.172401 0.000000
19.251888 7.172401 0.000000
-7.237510 6.857052 0.000000
-6.922160 6.857052 0.004736
-6.606810 6.857052 0.002683
-6.291460 6.857052 0.002266
-5.976110 6.857052 0.002278
-5.660760 6.857052 0.002219
-5.345410 6.857052 0.002379
-5.030060 6.857052 0.002408
-4.714710 6.857052 0.002063
-4.399360 6.857052 0.002014
-4.084010 6.857052 0.002072
-3.768660 6.857052 0.001912
-3.453310 6.857052 0.001677
-3.137960 6.857052 0.001671
-2.822610 6.857052 0.001528
-2.507260 6.857052 0.001461
-2.191910 6.857052 0.001497
-1.876560 6.857052 0.001530
-1.561210 6.857052 0.001643
-1.245860 6.857052 0.001694
-0.930510 6.857052 0.001614
-0.615160 6.857052 0.001532
-0.299810 6.857052 0.001306
0.015540 6.857052 0.000878
0.330890 6.857052 0.000649
0.646240 6.857052 0.000833
0.961589 6.857052 0.000945
1.276940 6.857052 0.001011
1.592289 6.857052 0.001223
1.907640 6.857052 0.001538
2.222990 6.857052 0.001689
2.538340 6.857052 0.001739
2.853690 6.857052 0.001633
3.169039 6.857052 0.001897
3.484390 6.857052 0.002014
3.799739 6.857052 0.002024
4.115090 6.857052 0.002102
4.430439 6.857052 0.002456
4.745790 6.857052 0.002686
5.061140 6.857052 0.002401
5.376490 6.857052 0.002103
5.691840 6.857052 0.002057
6.007189 6.857052 0.001921
6.322540 6.857052 0.001763
6.637889 6.857052 0.000922
6.953240 6.857052 0.001038
7.268589 6.857052 0.001441
7.583940 6.857052 -0.000452
7.899290 6.857052 0.003511
8.214640 6.857052 0.004962
8.529989 6.857052 0.010595
8.845339 6.857052 0.034077
9.160688 6.857052 0.053013
9.476040 6.857052 0.074419
9.791389 6.857052 0.108120
10.106739 6.857052 0.148231
10.422089 6.857052 0.199340
10.737438 6.857052 0.340207
11.052790 6.857052 0.414740
11.368139 6.857052 0.450910
11.683489 6.857052 0.611483
11.998838 6.857052 0.700068
12.314190 6.857052 0.829043
12.629539 6.857052 0.968124
12.944889 6.857052 1.065035
13.260239 6.857052 1.289291
13.575588 6.857052 1.614951
13.890940 6.857052 1.830450
14.206289 6.857052 2.543873
14.521639 6.857052 3.058970
14.836988 6.857052 3.961522
15.152340 6.857052 5.299868
15.467690 6.857052 0.000000
15.783039 6.857052 0.000000
16.098389 6.857052 0.000000
16.413738 6.857052 0.000000
16.729090 6.857052 0.000000
17.044439 6.857052 0.000000
17.359789 6.857052 0.000000
17.675138 6.857052 0.000000
17.990490 6.857052 27.522768
18.305840 6.857052 32.835915
18.621189 6.857052 35.947422
18.936539 6.857052 0.000000
19.251888 6.857052 0.000000
-7.237510 6.541702 0.000000
-6.922160 6.541702 0.003759
-6.606810 6.541702 0.002011
-6.291460 6.541702 0.001740
-5.976110 6.541702 0.001771
-5.660760 6.541702 0.001878
-5.345410 6.541702 0.002038
-5.030060 6.541702 0.002170
-4.714710 6.541702 0.002082
-4.399360 6.541702 0.001966
-4.084010 6.541702 0.001947
-3.768660 6.541702 0.001739
-3.453310 6.541702 0.001581
-3.137960 6.541702 0.001578
-2.822610 6.541702 0.001442
-2.507260 6.541702 0.001432
-2.191910 6.541702 0.001509
-1.876560 6.541702 0.001624
-1.561210 6.541702 0.001744
-1.245860 6.541702 0.001739
-0.930510 6.541702 0.001503
-0.615160 6.541702 0.001273
-0.299810 6.541702 0.001131
0.015540 6.541702 0.000845
0.330890 6.541702 0.000675
0.646240 6.541702 0.000870
0.961589 6.541702 0.000978
1.276940 6.541702 0.001050
1.592289 6.541702 0.001356
1.907640 6.541702 0.001646
2.222990 6.541702 0.001911
2.538340 6.541702 0.001920
2.853690 6.541702 0.001863
3.169039 6.541702 0.002024
3.484390 6.541702 0.002103
3.799739 6.541702 0.001938
4.115090 6.541702 0.001868
4.430439 6.541702 0.002285
4.745790 6.541702 0.002555
5.061140 6.541702 0.002469
5.376490 6.541702 0.002285
5.691840 6.541702 0.002309
6.007189 6.541702 0.002387
6.322540 6.541702 0.002348
6.637889 6.541702 0.001607
6.953240 6.541702 0.001338
7.268589 6.541702 0.001275
7.583940 6.541702 0.000763
7.899290 6.541702 0.003389
8.214640 6.541702 0.006690
8.529989 6.541702 0.012210
8.845339 6.541702 0.032948
9.160688 6.541702 0.050345
9.476040 6.541702 0.069253
9.791389 6.541702 0.096607
10.106739 6.541702 0.163132
10.422089 6.541702 0.208518
10.737438 6.541702 0.295382
11.052790 6.541702 0.389568
11.368139 6.541702 0.477195
11.683489 6.541702 0.635685
11.998838 6.541702 0.801992
12.314190 6.541702 0.914218
12.629539 6.541702 1.125502
12.944889 6.541702 1.207823
13.260239 6.541702 1.308804
13.575588 6.541702 1.579674
13.890940 6.541702 1.983180
14.206289 6.541702 2.598808
14.521639 6.541702 3.169659
14.836988 6.541702 4.408231
15.152340 6.541702 5.579852
15.467690 6.541702 0.000000
15.783039 6.541702 0.000000
16.098389 6.541702 0.000000
16.413738 6.541702 0.000000
16.729090 6.541702 0.000000
17.044439 6.541702 0.000000
17.359789 6.541702 0.000000
17.675138 6.541702 0.000000
17.990490 6.541702 24.527023
18.305840 6.541702 28.020496
18.621189 6.541702 30.909199
18.936539 6.541702 0.000000
19.251888 6.541702 0.000000
-7.237510 6.226353 0.000000
-6.922160 6.226353 0.003187
-6.606810 6.226353 0.001515
-6.291460 6.226353 0.001356
-5.976110 6.226353 0.001541
-5.660760 6.226353 0.001694
-5.345410 6.226353 0.001909
-5.030060 6.226353 0.001998
-4.714710 6.226353 0.002095
-4.399360 6.226353 0.002012
-4.084010 6.226353 0.001955
-3.768660 6.226353 0.001701
-3.453310 6.226353 0.001561
-3.137960 6.226353 0.001563
-2.822610 6.226353 0.001366
-2.507260 6.226353 0.001372
-2.191910 6.226353 0.001524
-1.876560 6.226353 0.001677
-1.561210 6.226353 0.001747
-1.245860 6.226353 0.001622
-0.930510 6.226353 0.001300
-0.615160 6.226353 0.001169
-0.299810 6.226353 0.001159
0.015540 6.226353 0.001138
0.330890 6.226353 0.001039
0.646240 6.226353 0.001138
0.961589 6.226353 0.001176
1.276940 6.226353 0.001175
1.592289 6.226353 0.001384
1.907640 6.226353 0.001679
2.222990 6.226353 0.001967
2.538340 6.226353 0.002004
2.853690 6.226353 0.001924
3.169039 6.226353 0.001992
3.484390 6.226353 0.002077
3.799739 6.226353 0.001904
4.115090 6.226353 0.001907
4.430439 6.226353 0.002311
4.745790 6.226353 0.002769
5.061140 6.226353 0.002842
5.376490 6.226353 0.002714
5.691840 6.226353 0.002656
6.007189 6.226353 0.002935
6.322540 6.226353 0.002366
6.637889 6.226353 0.001701
6.953240 6.226353 0.001484
7.268589 6.226353 0.002413
7.583940 6.226353 0.000972
7.899290 6.226353 0.004740
8.214640 6.226353 0.009534
8.529989 6.226353 0.014122
8.845339 6.226353 0.029378
9.160688 6.226353 0.053438
9.476040 6.226353 0.077925
9.791389 6.226353 0.114273
10.106739 6.226353 0.182757
10.422089 6.226353 0.210286
10.737438 6.226353 0.248807
11.052790 6.226353 0.367141
11.368139 6.226353 0.528843
11.683489 6.226353 0.670723
11.998838 6.226353 0.828744
12.314190 6.226353 0.921350
12.629539 6.226353 1.043456
12.944889 6.226353 1.153150
13.260239 6.226353 1.310692
13.575588 6.226353 1.587681
13.890940 6.226353 1.925510
14.206289 6.226353 2.422358
14.521639 6.226353 3.375554
14.836988 6.226353 4.421345
15.152340 6.226353 5.835094
15.467690 6.226353 0.000000
15.783039 6.226353 0.000000
16.098389 6.226353 0.000000
16.413738 6.226353 0.000000
16.729090 6.226353 0.000000
17.044439 6.226353 0.000000
17.359789 6.226353 0.000000
17.675138 6.226353 0.000000
17.990490 6.226353 23.088892
18.305840 6.226353 25.010235
18.621189 6.226353 25.508621
18.936539 6.226353 0.000000
19.251888 6.226353 0.000000
-7.237510 5.910999 0.000000
-6.922160 5.910999 0.002784
-6.606810 5.910999 0.001236
-6.291460 5.910999 0.001158
-5.976110 5.910999 0.001358
-5.660760 5.910999 0.001568
-5.345410 5.910999 0.001744
-5.030060 5.910999 0.001899
-4.714710 5.910999 0.002075
-4.399360 5.910999 0.002082
-4.084010 5.910999 0.001997
-3.768660 5.910999 0.001660
-3.453310 5.910999 0.001558
-3.137960 5.910999 0.001525
-2.822610 5.910999 0.001334
-2.507260 5.910999 0.001322
-2.191910 5.910999 0.001573
-1.876560 5.910999 0.001783
-1.561210 5.910999 0.001803
-1.245860 5.910999 0.001567
-0.930510 5.910999 0.001258
-0.615160 5.910999 0.001256
-0.299810 5.910999 0.001489
0.015540 5.910999 0.001629
0.330890 5.910999 0.001516
0.646240 5.910999 0.001428
0.961589 5.910999 0.001350
1.276940 5.910999 0.001304
1.592289 5.910999 0.001253
1.907640 5.910999 0.001397
2.222990 5.910999 0.001720
2.538340 5.910999 0.001855
2.853690 5.910999 0.001896
3.169039 5.910999 0.002064
3.484390 5.910999 0.002360
3.799739 5.910999 0.002359
4.115090 5.910999 0.002491
4.430439 5.910999 0.002874
4.745790 5.910999 0.003286
5.061140 5.910999 0.003210
5.376490 5.910999 0.003049
5.691840 5.910999 0.003028
6.007189 5.910999 0.002954
6.322540 5.910999 0.002413
6.637889 5.910999 0.001761
6.953240 5.910999 0.000424
7.268589 5.910999 0.000226
7.583940 5.910999 0.002076
7.899290 5.910999 0.005437
8.214640 5.910999 0.008961
8.529989 5.910999 0.013998
8.845339 5.910999 0.030722
9.160688 5.910999 0.054038
9.476040 5.910999 0.074838
9.791389 5.910999 0.128612
10.106739 5.910999 0.186708
10.422089 5.910999 0.244302
10.737438 5.910999 0.282469
11.052790 5.910999 0.435849
11.368139 5.910999 0.578719
11.683489 5.910999 0.693233
11.998838 5.910999 0.863968
12.314190 5.910999 0.900536
12.629539 5.910999 1.069206
12.944889 5.910999 1.143763
13.260239 5.910999 1.442470
13.575588 5.910999 1.661873
13.890940 5.910999 2.000191
14.206289 5.910999 2.573927
14.521639 5.910999 3.614555
14.836988 5.910999 4.473206
15.152340 5.910999 5.788095
15.467690 5.910999 0.000000
15.783039 5.910999 0.000000
16.098389 5.910999 0.000000
16.413738 5.910999 0.000000
16.729090 5.910999 0.000000
17.044439 5.910999 0.000000
17.359789 5.910999 0.000000
17.675138 5.910999 0.000000
17.990490 5.910999 19.314674
18.305840 5.910999 21.468838
18.621189 5.910999 23.577066
18.936539 5.910999 0.000000
19.251888 5.910999 0.000000
-7.237510 5.595650 0.000000
-6.922160 5.595650 0.002424
-6.606810 5.595650 0.001059
-6.291460 5.595650 0.001126
-5.976110 5.595650 0.001232
-5.660760 5.595650 0.001455
-5.345410 5.595650 0.001646
-5.030060 5.595650 0.001820
-4.714710 5.595650 0.001944
-4.399360 5.595650 0.002092
-4.084010 5.595650 0.002021
-3.768660 5.595650 0.001685
-3.453310 5.595650 0.001557
-3.137960 5.595650 0.001524
-2.822610 5.595650 0.001393
-2.507260 5.595650 0.001378
-2.191910 5.595650 0.001720
-1.876560 5.595650 0.002028
-1.561210 5.595650 0.001932
-1.245860 5.595650 0.001625
-0.930510 5.595650 0.001312
-0.615160 5.595650 0.001475
-0.299810 5.595650 0.001848
0.015540 5.595650 0.002055
0.330890 5.595650 0.001901
0.646240 5.595650 0.001615
0.961589 5.595650 0.001439
1.276940 5.595650 0.001288
1.592289 5.595650 0.001189
1.907640 5.595650 0.001212
2.222990 5.595650 0.001536
2.538340 5.595650 0.001893
2.853690 5.595650 0.002233
3.169039 5.595650 0.002541
3.484390 5.595650 0.002914
3.799739 5.595650 0.003074
4.115090 5.595650 0.003166
4.430439 5.595650 0.003334
4.745790 5.595650 0.003575
5.061140 5.595650 0.003409
5.376490 5.595650 0.003003
5.691840 5.595650 0.002953
6.007189 5.595650 0.003002
6.322540 5.595650 0.002190
6.637889 5.595650 0.001189
6.953240 5.595650 0.000311
7.268589 5.595650 -0.000150
7.583940 5.595650 0.005409
7.899290 5.595650 0.001576
8.214640 5.595650 0.006579
8.529989 5.595650 0.017966
8.845339 5.595650 0.031574
9.160688 5.595650 0.063342
9.476040 5.595650 0.089550
9.791389 5.595650 0.137224
10.106739 5.595650 0.211311
10.422089 5.595650 0.256436
10.737438 5.595650 0.319951
11.052790 5.595650 0.446463
11.368139 5.595650 0.545302
11.683489 5.595650 0.679186
11.998838 5.595650 0.858669
12.314190 5.595650 1.005176
12.629539 5.595650 1.043465
12.944889 5.595650 1.172997
13.260239 5.595650 1.492005
13.575588 5.595650 1.769796
13.890940 5.595650 2.143607
14.206289 5.595650 2.658713
14.521639 5.595650 3.668344
14.836988 5.595650 4.594966
15.152340 5.595650 5.276654
15.467690 5.595650 0.000000
15.783039 5.595650 0.000000
16.098389 5.595650 0.000000
16.413738 5.595650 0.000000
16.729090 5.595650 0.000000
17.044439 5.595650 0.000000
17.359789 5.595650 0.000000
17.675138 5.595650 0.000000
17.990490 5.595650 16.388584
18.305840 5.595650 20.295294
18.621189 5.595650 23.253069
18.936539 5.595650 0.000000
19.251888 5.595650 0.000000
-7.237510 5.280300 0.000000
-6.922160 5.280300 0.002267
-6.606810 5.280300 0.001082
-6.291460 5.280300 0.001139
-5.976110 5.280300 0.001136
-5.660760 5.280300 0.001321
-5.345410 5.280300 0.001502
-5.030060 5.280300 0.001655
-4.714710 5.280300 0.001874
-4.399360 5.280300 0.002146
-4.084010 5.280300 0.002129
-3.768660 5.280300 0.001759
-3.453310 5.280300 0.001623
-3.137960 5.280300 0.001621
-2.822610 5.280300 0.001546
-2.507260 5.280300 0.001532
-2.191910 5.280300 0.001949
-1.876560 5.280300 0.002250
-1.561210 5.280300 0.002102
-1.245860 5.280300 0.001696
-0.930510 5.280300 0.001376
-0.615160 5.280300 0.001566
-0.299810 5.280300 0.001960
0.015540 5.280300 0.002203
0.330890 5.280300 0.002035
0.646240 5.280300 0.001741
0.961589 5.280300 0.001616
1.276940 5.280300 0.001544
1.592289 5.280300 0.001483
1.907640 5.280300 0.001584
2.222990 5.280300 0.001885
2.538340 5.280300 0.002268
2.853690 5.280300 0.002724
3.169039 5.280300 0.003032
3.484390 5.280300 0.003295
3.799739 5.280300 0.003393
4.115090 5.280300 0.003364
4.430439 5.280300 0.003260
4.745790 5.280300 0.003302
5.061140 5.280300 0.003069
5.376490 5.280300 0.002771
5.691840 5.280300 0.002870
6.007189 5.280300 0.002973
6.322540 5.280300 0.001963
6.637889 5.280300 0.000956
6.953240 5.280300 0.000278
7.268589 5.280300 -0.000399
7.583940 5.280300 0.002570
7.899290 5.280300 0.005547
8.214640 5.280300 0.012660
8.529989 5.280300 0.023806
8.845339 5.280300 0.040626
9.160688 5.280300 0.066597
9.476040 5.280300 0.100649
9.791389 5.280300 0.132299
10.106739 5.280300 0.181498
10.422089 5.280300 0.259532
10.737438 5.280300 0.313962
11.052790 5.280300 0.478463
11.368139 5.280300 0.606351
11.683489 5.280300 0.795830
11.998838 5.280300 0.873459
12.314190 5.280300 0.926311
12.629539 5.280300 1.107823
12.944889 5.280300 1.231662
13.260239 5.280300 1.510830
13.575588 5.280300 1.705512
13.890940 5.280300 2.306944
14.206289 5.280300 2.860929
14.521639 5.280300 3.792616
14.836988 5.280300 4.633976
15.152340 5.280300 5.434588
15.467690 5.280300 0.000000
15.783039 5.280300 0.000000
16.098389 5.280300 0.000000
16.413738 5.280300 0.000000
16.729090 5.280300 0.000000
17.044439 5.280300 0.000000
17.359789 5.280300 0.000000
17.675138 5.280300 0.000000
17.990490 5.280300 13.967456
18.305840 5.280300 19.414635
18.621189 5.280300 21.650049
18.936539 5.280300 0.000000
19.251888 5.280300 0.000000
-7.237510 4.964951 0.000000
-6.922160 4.964951 0.002293
-6.606810 4.964951 0.001226
-6.291460 4.964951 0.001232
-5.976110 4.964951 0.001207
-5.660760 4.964951 0.001254
-5.345410 4.964951 0.001318
-5.030060 4.964951 0.001536
-4.714710 4.964951 0.001830
-4.399360 4.964951 0.002216
-4.084010 4.964951 0.002209
-3.768660 4.964951 0.001958
-3.453310 4.964951 0.001823
-3.137960 4.964951 0.001812
-2.822610 4.964951 0.001759
-2.507260 4.964951 0.001778
-2.191910 4.964951 0.002073
-1.876560 4.964951 0.002234
-1.561210 4.964951 0.002046
-1.245860 4.964951 0.001705
-0.930510 4.964951 0.001521
-0.615160 4.964951 0.001594
-0.299810 4.964951 0.001974
0.015540 4.964951 0.002265
0.330890 4.964951 0.002224
0.646240 4.964951 0.002160
0.961589 4.964951 0.002157
1.276940 4.964951 0.002181
1.592289 4.964951 0.002119
1.907640 4.964951 0.002185
2.222990 4.964951 0.002379
2.538340 4.964951 0.002726
2.853690 4.964951 0.003094
3.169039 4.964951 0.003205
3.484390 4.964951 0.003378
3.799739 4.964951 0.003392
4.115090 4.964951 0.003211
4.430439 4.964951 0.002960
4.745790 4.964951 0.002892
5.061140 4.964951 0.002901
5.376490 4.964951 0.002893
5.691840 4.964951 0.002915
6.007189 4.964951 0.002662
6.322540 4.964951 0.001599
6.637889 4.964951 -0.000190
6.953240 4.964951 -0.000205
7.268589 4.964951 -0.000066
7.583940 4.964951 0.002456
7.899290 4.964951 0.008419
8.214640 4.964951 0.015127
8.529989 4.964951 0.026644
8.845339 4.964951 0.040081
9.160688 4.964951 0.076004
9.476040 4.964951 0.099685
9.791389 4.964951 0.103862
10.106739 4.964951 0.139333
10.422089 4.964951 0.212192
10.737438 4.964951 0.332989
11.052790 4.964951 0.518329
11.368139 4.964951 0.657450
11.683489 4.964951 0.752466
11.998838 4.964951 0.849206
12.314190 4.964951 0.943016
12.629539 4.964951 1.094680
12.944889 4.964951 1.255176
13.260239 4.964951 1.478344
13.575588 4.964951 1.952219
13.890940 4.964951 2.412226
14.206289 4.964951 3.093348
14.521639 4.964951 3.855172
14.836988 4.964951 4.889157
15.152340 4.964951 5.479328
15.467690 4.964951 0.000000
15.783039 4.964951 0.000000
16.098389 4.964951 0.000000
16.413738 4.964951 0.000000
16.729090 4.964951 0.000000
17.044439 4.964951 0.000000
17.359789 4.964951 0.000000
17.675138 4.964951 0.000000
17.990490 4.964951 11.440972
18.305840 4.964951 16.844362
18.621189 4.964951 20.348669
18.936539 4.964951 0.000000
19.251888 4.964951 0.000000
-7.237510 4.649601 0.000000
-6.922160 4.649601 0.002314
-6.606810 4.649601 0.001353
-6.291460 4.649601 0.001339
-5.976110 4.649601 0.001258
-5.660760 4.649601 0.001266
-5.345410 4.649601 0.001237
-5.030060 4.649601 0.001445
-4.714710 4.649601 0.001810
-4.399360 4.649601 0.002217
-4.084010 4.649601 0.002166
-3.768660 4.649601 0.002004
-3.453310 4.649601 0.001971
-3.137960 4.649601 0.001914
-2.822610 4.649601 0.001866
-2.507260 4.649601 0.001907
-2.191910 4.649601 0.002095
-1.876560 4.649601 0.002020
-1.561210 4.649601 0.001897
-1.245860 4.649601 0.001805
-0.930510 4.649601 0.001807
-0.615160 4.649601 0.001887
-0.299810 4.649601 0.002076
0.015540 4.649601 0.002378
0.330890 4.649601 0.002590
0.646240 4.649601 0.002680
0.961589 4.649601 0.002788
1.276940 4.649601 0.002870
1.592289 4.649601 0.002760
1.907640 4.649601 0.002613
2.222990 4.649601 0.002707
2.538340 4.649601 0.002997
2.853690 4.649601 0.003227
3.169039 4.649601 0.003190
3.484390 4.649601 0.003326
3.799739 4.649601 0.003456
4.115090 4.649601 0.003225
4.430439 4.649601 0.002919
4.745790 4.649601 0.002829
5.061140 4.649601 0.002915
5.376490 4.649601 0.003042
5.691840 4.649601 0.002719
6.007189 4.649601 0.002261
6.322540 4.649601 0.001359
6.637889 4.649601 -0.000091
6.953240 4.649601 -0.000358
7.268589 4.649601 0.000526
7.583940 4.649601 0.001392
7.899290 4.649601 0.007791
8.214640 4.649601 0.020487
8.529989 4.649601 0.025641
8.845339 4.649601 0.042880
9.160688 4.649601 0.085926
9.476040 4.649601 0.113171
9.791389 4.649601 0.107576
10.106739 4.649601 0.143982
10.422089 4.649601 0.220552
10.737438 4.649601 0.328806
11.052790 4.649601 0.506479
11.368139 4.649601 0.644812
11.683489 4.649601 0.757696
11.998838 4.649601 0.850306
12.314190 4.649601 0.904859
12.629539 4.649601 0.986125
12.944889 4.649601 1.301124
13.260239 4.649601 1.518217
13.575588 4.649601 1.909678
13.890940 4.649601 2.267212
14.206289 4.649601 3.237631
14.521639 4.649601 4.144942
14.836988 4.649601 5.280278
15.152340 4.649601 6.110011
15.467690 4.649601 0.000000
15.783039 4.649601 0.000000
16.098389 4.649601 0.000000
16.413738 4.649601 0.000000
16.729090 4.649601 0.000000
17.044439 4.649601 0.000000
17.359789 4.649601 0.000000
17.675138 4.649601 0.000000
17.990490 4.649601 8.847776
18.305840 4.649601 14.056551
18.621189 4.649601 17.179674
18.936539 4.649601 0.000000
19.251888 4.649601 0.000000
-7.237510 4.334251 0.000000
-6.922160 4.334251 0.002349
-6.606810 4.334251 0.001376
-6.291460 4.334251 0.001407
-5.976110 4.334251 0.001353
-5.660760 4.334251 0.001286
-5.345410 4.334251 0.001104
-5.030060 4.334251 0.001232
-4.714710 4.334251 0.001697
-4.399360 4.334251 0.002012
-4.084010 4.334251 0.001881
-3.768660 4.334251 0.001832
-3.453310 4.334251 0.001893
-3.137960 4.334251 0.001999
-2.822610 4.334251 0.001990
-2.507260 4.334251 0.001997
-2.191910 4.334251 0.002164
-1.876560 4.334251 0.002067
-1.561210 4.334251 0.002001
-1.245860 4.334251 0.002186
-0.930510 4.334251 0.002393
-0.615160 4.334251 0.002452
-0.299810 4.334251 0.002387
0.015540 4.334251 0.002546
0.330890 4.334251 0.002884
0.646240 4.334251 0.003002
0.961589 4.334251 0.003178
1.276940 4.334251 0.003226
1.592289 4.334251 0.002987
1.907640 4.334251 0.002741
2.222990 4.334251 0.002864
2.538340 4.334251 0.003205
2.853690 4.334251 0.003480
3.169039 4.334251 0.003380
3.484390 4.334251 0.003503
3.799739 4.334251 0.003760
4.115090 4.334251 0.003378
4.430439 4.334251 0.002954
4.745790 4.334251 0.002923
5.061140 4.334251 0.003016
5.376490 4.334251 0.002995
5.691840 4.334251 0.002484
6.007189 4.334251 0.001883
6.322540 4.334251 0.001438
6.637889 4.334251 0.000539
6.953240 4.334251 -0.000120
7.268589 4.334251 -0.000087
7.583940 4.334251 0.000627
7.899290 4.334251 0.005421
8.214640 4.334251 0.013227
8.529989 4.334251 0.027017
8.845339 4.334251 0.044169
9.160688 4.334251 0.081375
9.476040 4.334251 0.107125
9.791389 4.334251 0.107678
10.106739 4.334251 0.128930
10.422089 4.334251 0.242733
10.737438 4.334251 0.342349
11.052790 4.334251 0.462963
11.368139 4.334251 0.614005
11.683489 4.334251 0.764126
11.998838 4.334251 0.801121
12.314190 4.334251 0.917423
12.629539 4.334251 1.010947
12.944889 4.334251 1.212360
13.260239 4.334251 1.461203
13.575588 4.334251 1.944757
13.890940 4.334251 2.532334
14.206289 4.334251 3.245149
14.521639 4.334251 4.452013
14.836988 4.334251 6.456184
15.152340 4.334251 7.978891
15.467690 4.334251 0.000000
15.783039 4.334251 0.000000
16.098389 4.334251 0.000000
16.413738 4.334251 0.000000
16.729090 4.334251 0.000000
17.044439 4.334251 0.000000
17.359789 4.334251 0.000000
17.675138 4.334251 0.000000
17.990490 4.334251 7.987593
18.305840 4.334251 14.320994
18.621189 4.334251 18.218277
18.936539 4.334251 0.000000
19.251888 4.334251 0.000000
-7.237510 4.018902 0.000000
-6.922160 4.018902 0.002204
-6.606810 4.018902 0.001230
-6.291460 4.018902 0.001353
-5.976110 4.018902 0.001408
-5.660760 4.018902 0.001242
-5.345410 4.018902 0.000994
-5.030060 4.018902 0.001061
-4.714710 4.018902 0.001435
-4.399360 4.018902 0.001664
-4.084010 4.018902 0.001564
-3.768660 4.018902 0.001679
-3.453310 4.018902 0.001988
-3.137960 4.018902 0.002238
-2.822610 4.018902 0.002257
-2.507260 4.018902 0.002296
-2.191910 4.018902 0.002378
-1.876560 4.018902 0.002343
-1.561210 4.018902 0.002350
-1.245860 4.018902 0.002716
-0.930510 4.018902 0.003050
-0.615160 4.018902 0.002957
-0.299810 4.018902 0.002674
0.015540 4.018902 0.002721
0.330890 4.018902 0.002981
0.646240 4.018902 0.003114
0.961589 4.018902 0.003349
1.276940 4.018902 0.003419
1.592289 4.018902 0.003292
1.907640 4.018902 0.003136
2.222990 4.018902 0.003129
2.538340 4.018902 0.003458
2.853690 4.018902 0.003747
3.169039 4.018902 0.003622
3.484390 4.018902 0.003785
3.799739 4.018902 0.004021
4.115090 4.018902 0.003527
4.430439 4.018902 0.002954
4.745790 4.018902 0.002911
5.061140 4.018902 0.002936
5.376490 4.018902 0.002872
5.691840 4.018902 0.002363
6.007189 4.018902 0.001792
6.322540 4.018902 0.001364
6.637889 4.018902 0.000430
6.953240 4.018902 -0.000309
7.268589 4.018902 -0.000239
7.583940 4.018902 0.000550
7.899290 4.018902 0.003739
8.214640 4.018902 0.014460
8.529989 4.018902 0.031557
8.845339 4.018902 0.044497
9.160688 4.018902 0.082822
9.476040 4.018902 0.109050
9.791389 4.018902 0.114217
10.106739 4.018902 0.167294
10.422089 4.018902 0.223146
10.737438 4.018902 0.320698
11.052790 4.018902 0.450940
11.368139 4.018902 0.538120
11.683489 4.018902 0.714686
11.998838 4.018902 0.840424
12.314190 4.018902 0.858330
12.629539 4.018902 0.919809
12.944889 4.018902 1.249176
13.260239 4.018902 1.405716
13.575588 4.018902 1.909106
13.890940 4.018902 2.634997
14.206289 4.018902 3.355067
14.521639 4.018902 4.869821
14.836988 4.018902 7.467948
15.152340 4.018902 9.314752
15.467690 4.018902 0.000000
15.783039 4.018902 0.000000
16.098389 4.018902 0.000000
16.413738 4.018902 0.000000
16.729090 4.018902 0.000000
17.044439 4.018902 0.000000
17.359789 4.018902 0.000000
17.675138 4.018902 0.000000
17.990490 4.018902 8.420459
18.305840 4.018902 15.829406
18.621189 4.018902 20.512543
18.936539 4.018902 0.000000
19.251888 4.018902 0.000000
-7.237510 3.703552 0.000000
-6.922160 3.703552 0.001975
-6.606810 3.703552 0.001013
-6.291460 3.703552 0.001249
-5.976110 3.703552 0.001371
-5.660760 3.703552 0.001193
-5.345410 3.703552 0.000834
-5.030060 3.703552 0.000853
-4.714710 3.703552 0.001257
-4.399360 3.703552 0.001372
-4.084010 3.703552 0.001410
-3.768660 3.703552 0.001698
-3.453310 3.703552 0.002170
-3.137960 3.703552 0.002570
-2.822610 3.703552 0.002498
-2.507260 3.703552 0.002527
-2.191910 3.703552 0.002573
-1.876560 3.703552 0.002550
-1.561210 3.703552 0.002672
-1.245860 3.703552 0.003087
-0.930510 3.703552 0.003415
-0.615160 3.703552 0.003162
-0.299810 3.703552 0.002859
0.015540 3.703552 0.002926
0.330890 3.703552 0.003167
0.646240 3.703552 0.003289
0.961589 3.703552 0.003583
1.276940 3.703552 0.003806
1.592289 3.703552 0.003805
1.907640 3.703552 0.003653
2.222990 3.703552 0.003472
2.538340 3.703552 0.003624
2.853690 3.703552 0.003820
3.169039 3.703552 0.003667
3.484390 3.703552 0.003706
3.799739 3.703552 0.003932
4.115090 3.703552 0.003536
4.430439 3.703552 0.003007
4.745790 3.703552 0.002954
5.061140 3.703552 0.002824
5.376490 3.703552 0.002951
5.691840 3.703552 0.002668
6.007189 3.703552 0.001967
6.322540 3.703552 0.001012
6.637889 3.703552 -0.000261
6.953240 3.703552 -0.001292
7.268589 3.703552 -0.001764
7.583940 3.703552 -0.000451
7.899290 3.703552 0.001797
8.214640 3.703552 0.011778
8.529989 3.703552 0.026891
8.845339 3.703552 0.041664
9.160688 3.703552 0.090363
9.476040 3.703552 0.098038
9.791389 3.703552 0.117071
10.106739 3.703552 0.177996
10.422089 3.703552 0.244025
10.737438 3.703552 0.352473
11.052790 3.703552 0.446749
11.368139 3.703552 0.561728
11.683489 3.703552 0.662529
11.998838 3.703552 0.856894
12.314190 3.703552 0.866007
12.629539 3.703552 0.996486
12.944889 3.703552 1.202520
13.260239 3.703552 1.460352
13.575588 3.703552 1.751240
13.890940 3.703552 2.524616
14.206289 3.703552 3.686170
14.521639 3.703552 5.480978
14.836988 3.703552 7.888130
15.152340 3.703552 9.795049
15.467690 3.703552 0.000000
15.783039 3.703552 0.000000
16.098389 3.703552 0.000000
16.413738 3.703552 0.000000
16.729090 3.703552 0.000000
17.044439 3.703552 0.000000
17.359789 3.703552 0.000000
17.675138 3.703552 0.000000
17.990490 3.703552 7.380755
18.305840 3.703552 14.881566
18.621189 3.703552 20.317135
18.936539 3.703552 0.000000
19.251888 3.703552 0.000000
-7.237510 3.388203 0.000000
-6.922160 3.388203 0.001866
-6.606810 3.388203 0.000888
-6.291460 3.388203 0.001139
-5.976110 3.388203 0.001354
-5.660760 3.388203 0.001209
-5.345410 3.388203 0.000939
-5.030060 3.388203 0.000897
-4.714710 3.388203 0.001159
-4.399360 3.388203 0.001274
-4.084010 3.388203 0.001333
-3.768660 3.388203 0.001735
-3.453310 3.388203 0.002332
-3.137960 3.388203 0.002678
-2.822610 3.388203 0.002617
-2.507260 3.388203 0.002577
-2.191910 3.388203 0.002653
-1.876560 3.388203 0.002678
-1.561210 3.388203 0.002905
-1.245860 3.388203 0.003340
-0.930510 3.388203 0.003568
-0.615160 3.388203 0.003411
-0.299810 3.388203 0.003292
0.015540 3.388203 0.003419
0.330890 3.388203 0.003526
0.646240 3.388203 0.003568
0.961589 3.388203 0.003762
1.276940 3.388203 0.004070
1.592289 3.388203 0.004172
1.907640 3.388203 0.003946
2.222990 3.388203 0.003645
2.538340 3.388203 0.003554
2.853690 3.388203 0.003595
3.169039 3.388203 0.003402
3.484390 3.388203 0.003412
3.799739 3.388203 0.003675
4.115090 3.388203 0.003595
4.430439 3.388203 0.003316
4.745790 3.388203 0.003180
5.061140 3.388203 0.002960
5.376490 3.388203 0.003063
5.691840 3.388203 0.002923
6.007189 3.388203 0.002179
6.322540 3.388203 0.000810
6.637889 3.388203 -0.000272
6.953240 3.388203 -0.000314
7.268589 3.388203 -0.001657
7.583940 3.388203 -0.000346
7.899290 3.388203 -0.000104
8.214640 3.388203 0.008947
8.529989 3.388203 0.018917
8.845339 3.388203 0.045772
9.160688 3.388203 0.074463
9.476040 3.388203 0.073881
9.791389 3.388203 0.104522
10.106739 3.388203 0.192958
10.422089 3.388203 0.279525
10.737438 3.388203 0.389150
11.052790 3.388203 0.495697
11.368139 3.388203 0.597186
11.683489 3.388203 0.714879
11.998838 3.388203 0.861613
12.314190 3.388203 0.968745
12.629539 3.388203 1.067444
12.944889 3.388203 1.314393
13.260239 3.388203 1.421438
13.575588 3.388203 1.893970
13.890940 3.388203 2.885451
14.206289 3.388203 3.930391
14.521639 3.388203 5.425759
14.836988 3.388203 7.450614
15.152340 3.388203 7.473310
15.467690 3.388203 0.000000
15.783039 3.388203 0.000000
16.098389 3.388203 0.000000
16.413738 3.388203 0.000000
16.729090 3.388203 0.000000
17.044439 3.388203 0.000000
17.359789 3.388203 0.000000
17.675138 3.388203 0.000000
17.990490 3.388203 5.126819
18.305840 3.388203 13.079412
18.621189 3.388203 18.852005
18.936539 3.388203 0.000000
19.251888 3.388203 0.000000
-7.237510 3.072849 0.000000
-6.922160 3.072849 0.001857
-6.606810 3.072849 0.000834
-6.291460 3.072849 0.001106
-5.976110 3.072849 0.001317
-5.660760 3.072849 0.001272
-5.345410 3.072849 0.001227
-5.030060 3.072849 0.001258
-4.714710 3.072849 0.001235
-4.399360 3.072849 0.001236
-4.084010 3.072849 0.001290
-3.768660 3.072849 0.001814
-3.453310 3.072849 0.002413
-3.137960 3.072849 0.002653
-2.822610 3.072849 0.002646
-2.507260 3.072849 0.002692
-2.191910 3.072849 0.002826
-1.876560 3.072849 0.002908
-1.561210 3.072849 0.003243
-1.245860 3.072849 0.003643
-0.930510 3.072849 0.003712
-0.615160 3.072849 0.003748
-0.299810 3.072849 0.003882
0.015540 3.072849 0.004031
0.330890 3.072849 0.003896
0.646240 3.072849 0.003627
0.961589 3.072849 0.003603
1.276940 3.072849 0.003995
1.592289 3.072849 0.004089
1.907640 3.072849 0.003907
2.222990 3.072849 0.003682
2.538340 3.072849 0.003607
2.853690 3.072849 0.003509
3.169039 3.072849 0.003359
3.484390 3.072849 0.003306
3.799739 3.072849 0.003582
4.115090 3.072849 0.003772
4.430439 3.072849 0.003710
4.745790 3.072849 0.003425
5.061140 3.072849 0.003035
5.376490 3.072849 0.003177
5.691840 3.072849 0.002967
6.007189 3.072849 0.002214
6.322540 3.072849 0.000821
6.637889 3.072849 -0.000437
6.953240 3.072849 -0.000639
7.268589 3.072849 -0.001229
7.583940 3.072849 -0.002274
7.899290 3.072849 -0.003114
8.214640 3.072849 0.002553
8.529989 3.072849 0.011832
8.845339 3.072849 0.033833
9.160688 3.072849 0.069765
9.476040 3.072849 0.067865
9.791389 3.072849 0.101742
10.106739 3.072849 0.181870
10.422089 3.072849 0.294326
10.737438 3.072849 0.363884
11.052790 3.072849 0.446020
11.368139 3.072849 0.562306
11.683489 3.072849 0.693130
11.998838 3.072849 0.814379
12.314190 3.072849 1.020956
12.629539 3.072849 1.115855
12.944889 3.072849 1.234534
13.260239 3.072849 1.519044
13.575588 3.072849 2.043812
13.890940 3.072849 2.845268
14.206289 3.072849 3.853142
14.521639 3.072849 5.341660
14.836988 3.072849 6.288297
15.152340 3.072849 0.000000
15.467690 3.072849 0.000000
15.783039 3.072849 0.000000
16.098389 3.072849 0.000000
16.413738 3.072849 0.000000
16.729090 3.072849 0.000000
17.044439 3.072849 0.000000
17.359789 3.072849 0.000000
17.675138 3.072849 0.000000
17.990490 3.072849 5.466468
18.305840 3.072849 13.184072
18.621189 3.072849 18.398754
18.936539 3.072849 0.000000
19.251888 3.072849 0.000000
-7.237510 2.757500 0.000000
-6.922160 2.757500 0.001641
-6.606810 2.757500 0.000748
-6.291460 2.757500 0.001082
-5.976110 2.757500 0.001185
-5.660760 2.757500 0.001281
-5.345410 2.757500 0.001468
-5.030060 2.757500 0.001509
-4.714710 2.757500 0.001400
-4.399360 2.757500 0.001415
-4.084010 2.757500 0.001507
-3.768660 2.757500 0.001996
-3.453310 2.757500 0.002574
-3.137960 2.757500 0.002820
-2.822610 2.757500 0.002872
-2.507260 2.757500 0.002950
-2.191910 2.757500 0.003208
-1.876560 2.757500 0.003441
-1.561210 2.757500 0.003673
-1.245860 2.757500 0.003787
-0.930510 2.757500 0.003770
-0.615160 2.757500 0.003987
-0.299810 2.757500 0.004294
0.015540 2.757500 0.004343
0.330890 2.757500 0.003974
0.646240 2.757500 0.003497
0.961589 2.757500 0.003336
1.276940 2.757500 0.003803
1.592289 2.757500 0.004086
1.907640 2.757500 0.003929
2.222990 2.757500 0.003805
2.538340 2.757500 0.003899
2.853690 2.757500 0.003781
3.169039 2.757500 0.003516
3.484390 2.757500 0.003288
3.799739 2.757500 0.003538
4.115090 2.757500 0.003796
4.430439 2.757500 0.003814
4.745790 2.757500 0.003270
5.061140 2.757500 0.002785
5.376490 2.757500 0.003051
5.691840 2.757500 0.002920
6.007189 2.757500 0.002020
6.322540 2.757500 0.000587
6.637889 2.757500 -0.000035
6.953240 2.757500 0.000282
7.268589 2.757500 -0.000741
7.583940 2.757500 -0.003364
7.899290 2.757500 -0.002942
8.214640 2.757500 -0.003210
8.529989 2.757500 0.013323
8.845339 2.757500 0.045307
9.160688 2.757500 0.063565
9.476040 2.757500 0.088595
9.791389 2.757500 0.116112
10.106739 2.757500 0.201288
10.422089 2.757500 0.270298
10.737438 2.757500 0.372715
11.052790 2.757500 0.423261
11.368139 2.757500 0.566847
11.683489 2.757500 0.643793
11.998838 2.757500 0.812674
12.314190 2.757500 0.994739
12.629539 2.757500 1.152623
12.944889 2.757500 1.402591
13.260239 2.757500 1.522193
13.575588 2.757500 1.918596
13.890940 2.757500 2.812015
14.206289 2.757500 3.768923
14.521639 2.757500 4.589664
14.836988 2.757500 5.186952
15.152340 2.757500 0.000000
15.467690 2.757500 0.000000
15.783039 2.757500 0.000000
16.098389 2.757500 0.000000
16.413738 2.757500 0.000000
16.729090 2.757500 0.000000
17.044439 2.757500 0.000000
17.359789 2.757500 0.000000
17.675138 2.757500 0.000000
17.990490 2.757500 8.376680
18.305840 2.757500 15.695065
18.621189 2.757500 20.000299
18.936539 2.757500 0.000000
19.251888 2.757500 0.000000
-7.237510 2.442150 0.000000
-6.922160 2.442150 0.001393
-6.606810 2.442150 0.000728
-6.291460 2.442150 0.000936
-5.976110 2.442150 0.001032
-5.660760 2.442150 0.001393
-5.345410 2.442150 0.001720
-5.030060 2.442150 0.001891
-4.714710 2.442150 0.001813
-4.399360 2.442150 0.001800
-4.084010 2.442150 0.001874
-3.768660 2.442150 0.002173
-3.453310 2.442150 0.002716
-3.137960 2.442150 0.002952
-2.822610 2.442150 0.003075
-2.507260 2.442150 0.003256
-2.191910 2.442150 0.003595
-1.876560 2.442150 0.003854
-1.561210 2.442150 0.003927
-1.245860 2.442150 0.003690
-0.930510 2.442150 0.003677
-0.615160 2.442150 0.003946
-0.299810 2.442150 0.004346
0.015540 2.442150 0.004403
0.330890 2.442150 0.003921
0.646240 2.442150 0.003471
0.961589 2.442150 0.003339
1.276940 2.442150 0.003781
1.592289 2.442150 0.004237
1.907640 2.442150 0.004146
2.222990 2.442150 0.003994
2.538340 2.442150 0.004109
2.853690 2.442150 0.003931
3.169039 2.442150 0.003589
3.484390 2.442150 0.003106
3.799739 2.442150 0.003227
4.115090 2.442150 0.003543
4.430439 2.442150 0.003519
4.745790 2.442150 0.003032
5.061140 2.442150 0.002721
5.376490 2.442150 0.002822
5.691840 2.442150 0.002673
6.007189 2.442150 0.001710
6.322540 2.442150 0.000665
6.637889 2.442150 0.000317
6.953240 2.442150 0.000139
7.268589 2.442150 -0.000034
7.583940 2.442150 -0.000681
7.899290 2.442150 -0.003419
8.214640 2.442150 -0.001074
8.529989 2.442150 0.018017
8.845339 2.442150 0.040549
9.160688 2.442150 0.069768
9.476040 2.442150 0.102016
9.791389 2.442150 0.115638
10.106739 2.442150 0.202567
10.422089 2.442150 0.274834
10.737438 2.442150 0.342348
11.052790 2.442150 0.393154
11.368139 2.442150 0.491742
11.683489 2.442150 0.613144
11.998838 2.442150 0.851911
12.314190 2.442150 1.000989
12.629539 2.442150 1.078752
12.944889 2.442150 1.367751
13.260239 2.442150 1.612412
13.575588 2.442150 1.985765
13.890940 2.442150 2.645552
14.206289 2.442150 3.680964
14.521639 2.442150 4.348723
14.836988 2.442150 4.634597
15.152340 2.442150 0.000000
15.467690 2.442150 0.000000
15.783039 2.442150 0.000000
16.098389 2.442150 0.000000
16.413738 2.442150 0.000000
16.729090 2.442150 0.000000
17.044439 2.442150 0.000000
17.359789 2.442150 0.000000
17.675138 2.442150 0.000000
17.990490 2.442150 13.973855
18.305840 2.442150 19.603777
18.621189 2.442150 22.866671
18.936539 2.442150 0.000000
19.251888 2.442150 0.000000
-7.237510 2.126801 0.000000
-6.922160 2.126801 0.001366
-6.606810 2.126801 0.000882
-6.291460 2.126801 0.001005
-5.976110 2.126801 0.001072
-5.660760 2.126801 0.001611
-5.345410 2.126801 0.002121
-5.030060 2.126801 0.002296
-4.714710 2.126801 0.002301
-4.399360 2.126801 0.002375
-4.084010 2.126801 0.002235
-3.768660 2.126801 0.002316
-3.453310 2.126801 0.002785
-3.137960 2.126801 0.003010
-2.822610 2.126801 0.003148
-2.507260 2.126801 0.003346
-2.191910 2.126801 0.003625
-1.876560 2.126801 0.003953
-1.561210 2.126801 0.004082
-1.245860 2.126801 0.003678
-0.930510 2.126801 0.003717
-0.615160 2.126801 0.004074
-0.299810 2.126801 0.004472
0.015540 2.126801 0.004568
0.330890 2.126801 0.004148
0.646240 2.126801 0.003630
0.961589 2.126801 0.003442
1.276940 2.126801 0.003784
1.592289 2.126801 0.004216
1.907640 2.126801 0.004334
2.222990 2.126801 0.004167
2.538340 2.126801 0.004014
2.853690 2.126801 0.003907
3.169039 2.126801 0.003440
3.484390 2.126801 0.002804
3.799739 2.126801 0.002789
4.115090 2.126801 0.003129
4.430439 2.126801 0.003134
4.745790 2.126801 0.002853
5.061140 2.126801 0.002668
5.376490 2.126801 0.002459
5.691840 2.126801 0.002278
6.007189 2.126801 0.001401
6.322540 2.126801 0.000538
6.637889 2.126801 -0.000249
6.953240 2.126801 -0.000072
7.268589 2.126801 -0.000787
7.583940 2.126801 -0.000677
7.899290 2.126801 0.001611
8.214640 2.126801 0.008029
8.529989 2.126801 0.017063
8.845339 2.126801 0.038396
9.160688 2.126801 0.061336
9.476040 2.126801 0.092849
9.791389 2.126801 0.107252
10.106739 2.126801 0.181570
10.422089 2.126801 0.267163
10.737438 2.126801 0.323339
11.052790 2.126801 0.394850
11.368139 2.126801 0.490314
11.683489 2.126801 0.557000
11.998838 2.126801 0.770639
12.314190 2.126801 1.007765
12.629539 2.126801 1.175749
12.944889 2.126801 1.387494
13.260239 2.126801 1.586108
13.575588 2.126801 2.108578
13.890940 2.126801 2.859073
14.206289 2.126801 3.615116
14.521639 2.126801 4.057564
14.836988 2.126801 4.248469
15.152340 2.126801 0.000000
15.467690 2.126801 0.000000
15.783039 2.126801 0.000000
16.098389 2.126801 0.000000
16.413738 2.126801 0.000000
16.729090 2.126801 0.000000
17.044439 2.126801 0.000000
17.359789 2.126801 0.000000
17.675138 2.126801 0.000000
17.990490 2.126801 19.543989
18.305840 2.126801 24.175037
18.621189 2.126801 26.105232
18.936539 2.126801 0.000000
19.251888 2.126801 0.000000
-7.237510 1.811451 0.000000
-6.922160 1.811451 0.001803
-6.606810 1.811451 0.001210
-6.291460 1.811451 0.001279
-5.976110 1.811451 0.001348
-5.660760 1.811451 0.001861
-5.345410 1.811451 0.002386
-5.030060 1.811451 0.002620
-4.714710 1.811451 0.002733
-4.399360 1.811451 0.002882
-4.084010 1.811451 0.002586
-3.768660 1.811451 0.002383
-3.453310 1.811451 0.002633
-3.137960 1.811451 0.002953
-2.822610 1.811451 0.003213
-2.507260 1.811451 0.003401
-2.191910 1.811451 0.003716
-1.876560 1.811451 0.004042
-1.561210 1.811451 0.004159
-1.245860 1.811451 0.003952
-0.930510 1.811451 0.004041
-0.615160 1.811451 0.004442
-0.299810 1.811451 0.004764
0.015540 1.811451 0.004861
0.330890 1.811451 0.004418
0.646240 1.811451 0.003929
0.961589 1.811451 0.003621
1.276940 1.811451 0.003800
1.592289 1.811451 0.004113
1.907640 1.811451 0.004201
2.222990 1.811451 0.003987
2.538340 1.811451 0.003812
2.853690 1.811451 0.003724
3.169039 1.811451 0.003305
3.484390 1.811451 0.002714
3.799739 1.811451 0.002560
4.115090 1.811451 0.002719
4.430439 1.811451 0.002804
4.745790 1.811451 0.002707
5.061140 1.811451 0.002474
5.376490 1.811451 0.002036
5.691840 1.811451 0.001497
6.007189 1.811451 0.001192
6.322540 1.811451 0.000762
6.637889 1.811451 -0.000173
6.953240 1.811451 -0.000302
7.268589 1.811451 -0.001554
7.583940 1.811451 -0.000994
7.899290 1.811451 0.004775
8.214640 1.811451 0.012437
8.529989 1.811451 0.012037
8.845339 1.811451 0.028980
9.160688 1.811451 0.071906
9.476040 1.811451 0.102353
9.791389 1.811451 0.111443
10.106739 1.811451 0.179358
10.422089 1.811451 0.283443
10.737438 1.811451 0.326009
11.052790 1.811451 0.372656
11.368139 1.811451 0.446820
11.683489 1.811451 0.564332
11.998838 1.811451 0.671181
12.314190 1.811451 0.896626
12.629539 1.811451 1.122601
12.944889 1.811451 1.383442
13.260239 1.811451 1.622296
13.575588 1.811451 2.085539
13.890940 1.811451 2.760893
14.206289 1.811451 3.753983
14.521639 1.811451 4.320711
14.836988 1.811451 0.000000
15.152340 1.811451 0.000000
15.467690 1.811451 0.000000
15.783039 1.811451 0.000000
16.098389 1.811451 0.000000
16.413738 1.811451 0.000000
16.729090 1.811451 0.000000
17.044439 1.811451 0.000000
17.359789 1.811451 0.000000
17.675138 1.811451 0.000000
17.990490 1.811451 23.903549
18.305840 1.811451 28.050861
18.621189 1.811451 28.740686
18.936539 1.811451 0.000000
19.251888 1.811451 0.000000
-7.237510 1.496101 0.000000
-6.922160 1.496101 0.002360
-6.606810 1.496101 0.001460
-6.291460 1.496101 0.001344
-5.976110 1.496101 0.001496
-5.660760 1.496101 0.001964
-5.345410 1.496101 0.002328
-5.030060 1.496101 0.002645
-4.714710 1.496101 0.002970
-4.399360 1.496101 0.003231
-4.084010 1.496101 0.002885
-3.768660 1.496101 0.002503
-3.453310 1.496101 0.002726
-3.137960 1.496101 0.003015
-2.822610 1.496101 0.003328
-2.507260 1.496101 0.003544
-2.191910 1.496101 0.003895
-1.876560 1.496101 0.004179
-1.561210 1.496101 0.004321
-1.245860 1.496101 0.004257
-0.930510 1.496101 0.004424
-0.615160 1.496101 0.004800
-0.299810 1.496101 0.005026
0.015540 1.496101 0.005054
0.330890 1.496101 0.004710
0.646240 1.496101 0.004232
0.961589 1.496101 0.003869
1.276940 1.496101 0.003927
1.592289 1.496101 0.004077
1.907640 1.496101 0.004185
2.222990 1.496101 0.004009
2.538340 1.496101 0.003730
2.853690 1.496101 0.003621
3.169039 1.496101 0.003376
3.484390 1.496101 0.002798
3.799739 1.496101 0.002388
4.115090 1.496101 0.002316
4.430439 1.496101 0.002411
4.745790 1.496101 0.002478
5.061140 1.496101 0.002132
5.376490 1.496101 0.001590
5.691840 1.496101 0.000961
6.007189 1.496101 0.000647
6.322540 1.496101 0.000290
6.637889 1.496101 -0.000707
6.953240 1.496101 -0.002095
7.268589 1.496101 -0.002182
7.583940 1.496101 -0.002577
7.899290 1.496101 0.001935
8.214640 1.496101 0.010820
8.529989 1.496101 0.026935
8.845339 1.496101 0.051298
9.160688 1.496101 0.086066
9.476040 1.496101 0.098098
9.791389 1.496101 0.127371
10.106739 1.496101 0.191767
10.422089 1.496101 0.270362
10.737438 1.496101 0.343476
11.052790 1.496101 0.368752
11.368139 1.496101 0.408543
11.683489 1.496101 0.545584
11.998838 1.496101 0.721238
12.314190 1.496101 0.892077
12.629539 1.496101 1.082214
12.944889 1.496101 1.367670
13.260239 1.496101 1.561194
13.575588 1.496101 2.037036
13.890940 1.496101 2.813638
14.206289 1.496101 3.917071
14.521639 1.496101 5.063342
14.836988 1.496101 0.000000
15.152340 1.496101 0.000000
15.467690 1.496101 0.000000
15.783039 1.496101 0.000000
16.098389 1.496101 0.000000
16.413738 1.496101 0.000000
16.729090 1.496101 0.000000
17.044439 1.496101 0.000000
17.359789 1.496101 0.000000
17.675138 1.496101 0.000000
17.990490 1.496101 26.027065
18.305840 1.496101 29.852768
18.621189 1.496101 30.279764
18.936539 1.496101 0.000000
19.251888 1.496101 0.000000
-7.237510 1.180752 0.000000
-6.922160 1.180752 0.002730
-6.606810 1.180752 0.001768
-6.291460 1.180752 0.001446
-5.976110 1.180752 0.001602
-5.660760 1.180752 0.001960
-5.345410 1.180752 0.002192
-5.030060 1.180752 0.002644
-4.714710 1.180752 0.003273
-4.399360 1.180752 0.003585
-4.084010 1.180752 0.003459
-3.768660 1.180752 0.003240
-3.453310 1.180752 0.003584
-3.137960 1.180752 0.003769
-2.822610 1.180752 0.004115
-2.507260 1.180752 0.004385
-2.191910 1.180752 0.004631
-1.876560 1.180752 0.004756
-1.561210 1.180752 0.004847
-1.245860 1.180752 0.004661
-0.930510 1.180752 0.004748
-0.615160 1.180752 0.005093
-0.299810 1.180752 0.005162
0.015540 1.180752 0.005128
0.330890 1.180752 0.004962
0.646240 1.180752 0.004734
0.961589 1.180752 0.004608
1.276940 1.180752 0.004560
1.592289 1.180752 0.004658
1.907640 1.180752 0.004769
2.222990 1.180752 0.004560
2.538340 1.180752 0.004190
2.853690 1.180752 0.004096
3.169039 1.180752 0.003810
3.484390 1.180752 0.003204
3.799739 1.180752 0.002442
4.115090 1.180752 0.002060
4.430439 1.180752 0.002138
4.745790 1.180752 0.002145
5.061140 1.180752 0.001900
5.376490 1.180752 0.001459
5.691840 1.180752 0.001091
6.007189 1.180752 0.000634
6.322540 1.180752 0.000006
6.637889 1.180752 -0.000626
6.953240 1.180752 -0.001295
7.268589 1.180752 -0.002774
7.583940 1.180752 0.000335
7.899290 1.180752 0.001336
8.214640 1.180752 0.018168
8.529989 1.180752 0.041457
8.845339 1.180752 0.071150
9.160688 1.180752 0.106695
9.476040 1.180752 0.109204
9.791389 1.180752 0.149303
10.106739 1.180752 0.219780
10.422089 1.180752 0.293082
10.737438 1.180752 0.348176
11.052790 1.180752 0.435235
11.368139 1.180752 0.539684
11.683489 1.180752 0.621310
11.998838 1.180752 0.816005
12.314190 1.180752 0.976847
12.629539 1.180752 1.207797
12.944889 1.180752 1.361036
13.260239 1.180752 1.734497
13.575588 1.180752 2.180981
13.890940 1.180752 3.058036
14.206289 1.180752 4.712961
14.521639 1.180752 5.705672
14.836988 1.180752 0.000000
15.152340 1.180752 0.000000
15.467690 1.180752 0.000000
15.783039 1.180752 0.000000
16.098389 1.180752 0.000000
16.413738 1.180752 0.000000
16.729090 1.180752 0.000000
17.044439 1.180752 0.000000
17.359789 1.180752 0.000000
17.675138 1.180752 0.000000
17.990490 1.180752 24.566870
18.305840 1.180752 29.696379
18.621189 1.180752 30.000452
18.936539 1.180752 0.000000
19.251888 1.180752 0.000000
-7.237510 0.865402 0.000000
-6.922160 0.865402 0.001639
-6.606810 0.865402 0.001772
-6.291460 0.865402 0.001677
-5.976110 0.865402 0.001829
-5.660760 0.865402 0.002275
-5.345410 0.865402 0.002558
-5.030060 0.865402 0.003295
-4.714710 0.865402 0.004365
-4.399360 0.865402 0.005105
-4.084010 0.865402 0.005521
-3.768660 0.865402 0.005728
-3.453310 0.865402 0.005926
-3.137960 0.865402 0.006160
-2.822610 0.865402 0.006380
-2.507260 0.865402 0.006529
-2.191910 0.865402 0.006369
-1.876560 0.865402 0.006018
-1.561210 0.865402 0.005603
-1.245860 0.865402 0.005085
-0.930510 0.865402 0.005155
-0.615160 0.865402 0.005568
-0.299810 0.865402 0.005656
0.015540 0.865402 0.005802
0.330890 0.865402 0.006012
0.646240 0.865402 0.006032
0.961589 0.865402 0.006490
1.276940 0.865402 0.006576
1.592289 0.865402 0.006649
1.907640 0.865402 0.006662
2.222990 0.865402 0.006175
2.538340 0.865402 0.005672
2.853690 0.865402 0.005233
3.169039 0.865402 0.004774
3.484390 0.865402 0.003910
3.799739 0.865402 0.002748
4.115090 0.865402 0.002028
4.430439 0.865402 0.002111
4.745790 0.865402 0.002284
5.061140 0.865402 0.002370
5.376490 0.865402 0.002082
5.691840 0.865402 0.002019
6.007189 0.865402 0.001369
6.322540 0.865402 0.001164
6.637889 0.865402 0.000383
6.953240 0.865402 0.000129
7.268589 0.865402 0.000801
7.583940 0.865402 0.009326
7.899290 0.865402 0.013158
8.214640 0.865402 0.030438
8.529989 0.865402 0.065413
8.845339 0.865402 0.102856
9.160688 0.865402 0.117929
9.476040 0.865402 0.173337
9.791389 0.865402 0.202091
10.106739 0.865402 0.294395
10.422089 0.865402 0.345787
10.737438 0.865402 0.440366
11.052790 0.865402 0.511169
11.368139 0.865402 0.664024
11.683489 0.865402 0.749687
11.998838 0.865402 0.990737
12.314190 0.865402 1.113822
12.629539 0.865402 1.373891
12.944889 0.865402 1.573628
13.260239 0.865402 1.828748
13.575588 0.865402 2.283337
13.890940 0.865402 3.131492
14.206289 0.865402 4.882391
14.521639 0.865402 6.234778
14.836988 0.865402 0.000000
15.152340 0.865402 0.000000
15.467690 0.865402 0.000000
15.783039 0.865402 0.000000
16.098389 0.865402 0.000000
16.413738 0.865402 0.000000
16.729090 0.865402 0.000000
17.044439 0.865402 0.000000
17.359789 0.865402 0.000000
17.675138 0.865402 0.000000
17.990490 0.865402 20.961479
18.305840 0.865402 26.514046
18.621189 0.865402 27.258984
18.936539 0.865402 0.000000
19.251888 0.865402 0.000000
-7.237510 0.550053 0.000000
-6.922160 0.550053 0.001572
-6.606810 0.550053 0.001301
-6.291460 0.550053 0.001838
-5.976110 0.550053 0.002215
-5.660760 0.550053 0.003451
-5.345410 0.550053 0.004300
-5.030060 0.550053 0.005444
-4.714710 0.550053 0.006942
-4.399360 0.550053 0.008361
-4.084010 0.550053 0.009239
-3.768660 0.550053 0.009733
-3.453310 0.550053 0.009886
-3.137960 0.550053 0.009991
-2.822610 0.550053 0.010088
-2.507260 0.550053 0.009946
-2.191910 0.550053 0.009124
-1.876560 0.550053 0.007963
-1.561210 0.550053 0.006935
-1.245860 0.550053 0.006078
-0.930510 0.550053 0.006202
-0.615160 0.550053 0.006651
-0.299810 0.550053 0.007068
0.015540 0.550053 0.007421
0.330890 0.550053 0.008091
0.646240 0.550053 0.008947
0.961589 0.550053 0.009941
1.276940 0.550053 0.010269
1.592289 0.550053 0.010165
1.907640 0.550053 0.009849
2.222990 0.550053 0.008971
2.538340 0.550053 0.008130
2.853690 0.550053 0.007420
3.169039 0.550053 0.006409
3.484390 0.550053 0.005288
3.799739 0.550053 0.003779
4.115090 0.550053 0.002976
4.430439 0.550053 0.003155
4.745790 0.550053 0.003443
5.061140 0.550053 0.003833
5.376490 0.550053 0.003998
5.691840 0.550053 0.004195
6.007189 0.550053 0.003663
6.322540 0.550053 0.003454
6.637889 0.550053 0.003946
6.953240 0.550053 0.005394
7.268589 0.550053 0.007453
7.583940 0.550053 0.025303
7.899290 0.550053 0.032120
8.214640 0.550053 0.049303
8.529989 0.550053 0.101483
8.845339 0.550053 0.137162
9.160688 0.550053 0.183808
9.476040 0.550053 0.239680
9.791389 0.550053 0.273170
10.106739 0.550053 0.365689
10.422089 0.550053 0.479161
10.737438 0.550053 0.588605
11.052790 0.550053 0.690262
11.368139 0.550053 0.818297
11.683489 0.550053 1.005472
11.998838 0.550053 1.206980
12.314190 0.550053 1.387504
12.629539 0.550053 1.566469
12.944889 0.550053 1.731157
13.260239 0.550053 1.971623
13.575588 0.550053 2.492525
13.890940 0.550053 3.388942
14.206289 0.550053 4.948929
14.521639 0.550053 5.463842
14.836988 0.550053 0.000000
15.152340 0.550053 0.000000
15.467690 0.550053 0.000000
15.783039 0.550053 0.000000
16.098389 0.550053 0.000000
16.413738 0.550053 0.000000
16.729090 0.550053 0.000000
17.044439 0.550053 0.000000
17.359789 0.550053 0.000000
17.675138 0.550053 0.000000
17.990490 0.550053 17.083052
18.305840 0.550053 22.209028
18.621189 0.550053 22.996252
18.936539 0.550053 0.000000
19.251888 0.550053 0.000000
-7.237510 0.234699 0.000000
-6.922160 0.234699 0.000000
-6.606810 0.234699 0.000000
-6.291460 0.234699 0.000000
-5.976110 0.234699 0.000000
-5.660760 0.234699 0.000000
-5.345410 0.234699 0.000000
-5.030060 0.234699 0.000000
-4.714710 0.234699 0.000000
-4.399360 0.234699 0.000000
-4.084010 0.234699 0.000000
-3.768660 0.234699 0.000000
-3.453310 0.234699 0.000000
-3.137960 0.234699 0.000000
-2.822610 0.234699 0.000000
-2.507260 0.234699 0.000000
-2.191910 0.234699 0.000000
-1.876560 0.234699 0.000000
-1.561210 0.234699 0.000000
-1.245860 0.234699 0.000000
-0.930510 0.234699 0.000000
-0.615160 0.234699 0.000000
-0.299810 0.234699 0.000000
0.015540 0.234699 0.000000
0.330890 0.234699 0.000000
0.646240 0.234699 0.000000
0.961589 0.234699 0.000000
1.276940 0.234699 0.000000
1.592289 0.234699 0.000000
1.907640 0.234699 0.000000
2.222990 0.234699 0.000000
2.538340 0.234699 0.000000
2.853690 0.234699 0.000000
3.169039 0.234699 0.000000
3.484390 0.234699 0.000000
3.799739 0.234699 0.000000
4.115090 0.234699 0.000000
4.430439 0.234699 0.000000
4.745790 0.234699 0.000000
5.061140 0.234699 0.000000
5.376490 0.234699 0.000000
5.691840 0.234699 0.000000
6.007189 0.234699 0.000000
6.322540 0.234699 0.865391
6.637889 0.234699 -0.058227
6.953240 0.234699 0.032773
7.268589 0.234699 -0.101031
7.583940 0.234699 -0.020315
7.899290 0.234699 -0.025974
8.214640 0.234699 0.023132
8.529989 0.234699 0.012192
8.845339 0.234699 0.044681
9.160688 0.234699 0.090139
9.476040 0.234699 0.157638
9.791389 0.234699 0.211107
10.106739 0.234699 0.340040
10.422089 0.234699 0.459787
10.737438 0.234699 0.571006
11.052790 0.234699 0.685973
11.368139 0.234699 0.895605
11.683489 0.234699 1.085872
11.998838 0.234699 1.235015
12.314190 0.234699 1.464812
12.629539 0.234699 1.572152
12.944889 0.234699 1.728074
13.260239 0.234699 1.981912
13.575588 0.234699 2.538170
13.890940 0.234699 3.054023
14.206289 0.234699 3.652176
14.521639 0.234699 0.000000
14.836988 0.234699 0.000000
15.152340 0.234699 0.000000
15.467690 0.234699 0.000000
15.783039 0.234699 0.000000
16.098389 0.234699 0.000000
16.413738 0.234699 0.000000
16.729090 0.234699 0.000000
17.044439 0.234699 0.000000
17.359789 0.234699 0.000000
17.675138 0.234699 0.000000
17.990490 0.234699 13.336910
18.305840 0.234699 17.454762
18.621189 0.234699 17.434696
18.936539 0.234699 0.000000
19.251888 0.234699 0.000000
-7.237510 -0.080650 0.000000
-6.922160 -0.080650 0.000000
-6.606810 -0.080650 0.000000
-6.291460 -0.080650 0.000000
-5.976110 -0.080650 0.000000
-5.660760 -0.080650 0.000000
-5.345410 -0.080650 0.000000
-5.030060 -0.080650 0.000000
-4.714710 -0.080650 0.000000
-4.399360 -0.080650 0.000000
-4.084010 -0.080650 0.000000
-3.768660 -0.080650 0.000000
-3.453310 -0.080650 0.000000
-3.137960 -0.080650 0.000000
-2.822610 -0.080650 0.000000
-2.507260 -0.080650 0.000000
-2.191910 -0.080650 0.000000
-1.876560 -0.080650 0.000000
-1.561210 -0.080650 0.000000
-1.245860 -0.080650 0.000000
-0.930510 -0.080650 0.000000
-0.615160 -0.080650 0.000000
-0.299810 -0.080650 0.000000
0.015540 -0.080650 0.000000
0.330890 -0.080650 0.000000
0.646240 -0.080650 0.000000
0.961589 -0.080650 0.000000
1.276940 -0.080650 0.000000
1.592289 -0.080650 0.000000
1.907640 -0.080650 0.000000
2.222990 -0.080650 0.000000
2.538340 -0.080650 0.000000
2.853690 -0.080650 0.000000
3.169039 -0.080650 0.000000
3.484390 -0.080650 0.000000
3.799739 -0.080650 0.000000
4.115090 -0.080650 0.000000
4.430439 -0.080650 0.000000
4.745790 -0.080650 0.000000
5.061140 -0.080650 0.000000
5.376490 -0.080650 0.000000
5.691840 -0.080650 0.000000
6.007189 -0.080650 0.000000
6.322540 -0.080650 0.000000
6.637889 -0.080650 0.000000
6.953240 -0.080650 0.000000
7.268589 -0.080650 0.000000
7.583940 -0.080650 0.000000
7.899290 -0.080650 0.000000
8.214640 -0.080650 0.000000
8.529989 -0.080650 13.607116
8.845339 -0.080650 0.357202
9.160688 -0.080650 2.260990
9.476040 -0.080650 1.998922
9.791389 -0.080650 2.056886
10.106739 -0.080650 1.972486
10.422089 -0.080650 2.118227
10.737438 -0.080650 1.277704
11.052790 -0.080650 0.894926
11.368139 -0.080650 0.953841
11.683489 -0.080650 0.753265
11.998838 -0.080650 0.680587
12.314190 -0.080650 0.761874
12.629539 -0.080650 0.868042
12.944889 -0.080650 1.068059
13.260239 -0.080650 1.160444
13.575588 -0.080650 1.311725
13.890940 -0.080650 1.386439
14.206289 -0.080650 1.607650
14.521639 -0.080650 0.000000
14.836988 -0.080650 0.000000
15.152340 -0.080650 0.000000
15.467690 -0.080650 0.000000
15.783039 -0.080650 0.000000
16.098389 -0.080650 0.000000
16.413738 -0.080650 0.000000
16.729090 -0.080650 0.000000
17.044439 -0.080650 0.000000
17.359789 -0.080650 0.000000
17.675138 -0.080650 0.000000
17.990490 -0.080650 9.856686
18.305840 -0.080650 11.834175
18.621189 -0.080650 11.332762
18.936539 -0.080650 0.000000
19.251888 -0.080650 0.000000
-7.237510 -0.396000 0.000000
-6.922160 -0.396000 0.000000
-6.606810 -0.396000 0.000000
-6.291460 -0.396000 0.000000
-5.976110 -0.396000 0.000000
-5.660760 -0.396000 0.000000
-5.345410 -0.396000 0.000000
-5.030060 -0.396000 0.000000
-4.714710 -0.396000 0.000000
-4.399360 -0.396000 0.000000
-4.084010 -0.396000 0.000000
-3.768660 -0.396000 0.000000
-3.453310 -0.396000 0.000000
-3.137960 -0.396000 0.000000
-2.822610 -0.396000 0.000000
-2.507260 -0.396000 0.000000
-2.191910 -0.396000 0.000000
-1.876560 -0.396000 0.000000
-1.561210 -0.396000 0.000000
-1.245860 -0.396000 0.000000
-0.930510 -0.396000 0.000000
-0.615160 -0.396000 0.000000
-0.299810 -0.396000 0.000000
0.015540 -0.396000 0.000000
0.330890 -0.396000 0.000000
0.646240 -0.396000 0.000000
0.961589 -0.396000 0.000000
1.276940 -0.396000 0.000000
1.592289 -0.396000 0.000000
1.907640 -0.396000 0.000000
2.222990 -0.396000 0.000000
2.538340 -0.396000 0.000000
2.853690 -0.396000 0.000000
3.169039 -0.396000 0.000000
3.484390 -0.396000 0.000000
3.799739 -0.396000 0.000000
4.115090 -0.396000 0.000000
4.430439 -0.396000 0.000000
4.745790 -0.396000 0.000000
5.061140 -0.396000 0.000000
5.376490 -0.396000 0.000000
5.691840 -0.396000 0.000000
6.007189 -0.396000 0.000000
6.322540 -0.396000 0.000000
6.637889 -0.396000 0.000000
6.953240 -0.396000 0.000000
7.268589 -0.396000 0.000000
7.583940 -0.396000 0.000000
7.899290 -0.396000 0.000000
8.214640 -0.396000 0.000000
8.529989 -0.396000 0.000000
8.845339 -0.396000 0.000000
9.160688 -0.396000 0.000000
9.476040 -0.396000 0.000000
9.791389 -0.396000 0.000000
10.106739 -0.396000 0.000000
10.422089 -0.396000 0.000000
10.737438 -0.396000 0.000000
11.052790 -0.396000 0.394996
11.368139 -0.396000 6.776068
11.683489 -0.396000 4.386663
11.998838 -0.396000 2.782267
12.314190 -0.396000 1.667734
12.629539 -0.396000 4.788066
12.944889 -0.396000 4.016739
13.260239 -0.396000 5.032754
13.575588 -0.396000 5.642936
13.890940 -0.396000 2.541726
14.206289 -0.396000 1.535212
14.521639 -0.396000 0.000000
14.836988 -0.396000 0.000000
15.152340 -0.396000 0.000000
15.467690 -0.396000 0.000000
15.783039 -0.396000 0.000000
16.098389 -0.396000 0.000000
16.413738 -0.396000 0.000000
16.729090 -0.396000 0.000000
17.044439 -0.396000 0.000000
17.359789 -0.396000 0.000000
17.675138 -0.396000 0.000000
17.990490 -0.396000 7.108437
18.305840 -0.396000 6.260921
18.621189 -0.396000 6.862533
18.936539 -0.396000 0.000000
19.251888 -0.396000 0.000000
-7.237510 -0.711349 0.000000
-6.922160 -0.711349 0.000000
-6.606810 -0.711349 0.000000
-6.291460 -0.711349 0.000000
-5.976110 -0.711349 0.000000
-5.660760 -0.711349 0.000000
-5.345410 -0.711349 0.000000
-5.030060 -0.711349 0.000000
-4.714710 -0.711349 0.000000
-4.399360 -0.711349 0.000000
-4.084010 -0.711349 0.000000
-3.768660 -0.711349 0.000000
-3.453310 -0.711349 0.000000
-3.137960 -0.711349 0.000000
-2.822610 -0.711349 0.000000
-2.507260 -0.711349 0.000000
-2.191910 -0.711349 0.000000
-1.876560 -0.711349 0.000000
-1.561210 -0.711349 0.000000
-1.245860 -0.711349 0.000000
-0.930510 -0.711349 0.000000
-0.615160 -0.711349 0.000000
-0.299810 -0.711349 0.000000
0.015540 -0.711349 0.000000
0.330890 -0.711349 0.000000
0.646240 -0.711349 0.000000
0.961589 -0.711349 0.000000
1.276940 -0.711349 0.000000
1.592289 -0.711349 0.000000
1.907640 -0.711349 0.000000
2.222990 -0.711349 0.000000
2.538340 -0.711349 0.000000
2.853690 -0.711349 0.000000
3.169039 -0.711349 0.000000
3.484390 -0.711349 0.000000
3.799739 -0.711349 0.000000
4.115090 -0.711349 0.000000
4.430439 -0.711349 0.000000
4.745790 -0.711349 0.000000
5.061140 -0.711349 0.000000
5.376490 -0.711349 0.000000
5.691840 -0.711349 0.000000
6.007189 -0.711349 0.000000
6.322540 -0.711349 0.000000
6.637889 -0.711349 0.000000
6.953240 -0.711349 0.000000
7.268589 -0.711349 0.000000
7.583940 -0.711349 0.000000
7.899290 -0.711349 0.000000
8.214640 -0.711349 0.000000
8.529989 -0.711349 0.000000
8.845339 -0.711349 0.000000
9.160688 -0.711349 0.000000
9.476040 -0.711349 0.000000
9.791389 -0.711349 0.000000
10.106739 -0.711349 0.000000
10.422089 -0.711349 0.000000
10.737438 -0.711349 0.000000
11.052790 -0.711349 0.000000
11.368139 -0.711349 0.000000
11.683489 -0.711349 0.000000
11.998838 -0.711349 0.000000
12.314190 -0.711349 0.000000
12.629539 -0.711349 0.000000
12.944889 -0.711349 0.000000
13.260239 -0.711349 0.000000
13.575588 -0.711349 0.000000
13.890940 -0.711349 0.000000
14.206289 -0.711349 0.000000
14.521639 -0.711349 0.000000
14.836988 -0.711349 0.000000
15.152340 -0.711349 0.000000
15.467690 -0.711349 0.000000
15.783039 -0.711349 0.000000
16.098389 -0.711349 0.000000
16.413738 -0.711349 0.000000
16.729090 -0.711349 0.000000
17.044439 -0.711349 0.000000
17.359789 -0.711349 0.000000
17.675138 -0.711349 0.000000
17.990490 -0.711349 0.000000
18.305840 -0.711349 0.000000
18.621189 -0.711349 0.000000
18.936539 -0.711349 0.000000
19.251888 -0.711349 0.000000
