TITLE = "B00014"
VARIABLES = "x", "y", "Reynold stress ZZ"
ZONE T="Frame 1" I=85, J=164, F=POINT
-7.237510 50.690701 0.000000
-6.922160 50.690701 0.000000
-6.606810 50.690701 0.000000
-6.291460 50.690701 0.000000
-5.976110 50.690701 0.000000
-5.660760 50.690701 0.000000
-5.345410 50.690701 0.000000
-5.030060 50.690701 0.000000
-4.714710 50.690701 0.000000
-4.399360 50.690701 0.000000
-4.084010 50.690701 0.000000
-3.768660 50.690701 0.000000
-3.453310 50.690701 0.000000
-3.137960 50.690701 0.000000
-2.822610 50.690701 0.000000
-2.507260 50.690701 0.000000
-2.191910 50.690701 0.000000
-1.876560 50.690701 0.000000
-1.561210 50.690701 0.000000
-1.245860 50.690701 0.000000
-0.930510 50.690701 0.000000
-0.615160 50.690701 0.000000
-0.299810 50.690701 0.000000
0.015540 50.690701 0.000000
0.330890 50.690701 0.000000
0.646240 50.690701 0.000000
0.961589 50.690701 0.000000
1.276940 50.690701 0.000000
1.592289 50.690701 0.000000
1.907640 50.690701 0.000000
2.222990 50.690701 0.000000
2.538340 50.690701 0.000000
2.853690 50.690701 0.000000
3.169039 50.690701 0.000000
3.484390 50.690701 0.000000
3.799739 50.690701 0.000000
4.115090 50.690701 0.000000
4.430439 50.690701 0.000000
4.745790 50.690701 0.000000
5.061140 50.690701 0.000000
5.376490 50.690701 0.000000
5.691840 50.690701 0.000000
6.007189 50.690701 0.000000
6.322540 50.690701 0.000000
6.637889 50.690701 0.000000
6.953240 50.690701 0.000000
7.268589 50.690701 0.000000
7.583940 50.690701 0.000000
7.899290 50.690701 0.000000
8.214640 50.690701 0.000000
8.529989 50.690701 0.000000
8.845339 50.690701 0.000000
9.160688 50.690701 0.000000
9.476040 50.690701 0.000000
9.791389 50.690701 0.000000
10.106739 50.690701 0.000000
10.422089 50.690701 0.000000
10.737438 50.690701 0.000000
11.052790 50.690701 0.000000
11.368139 50.690701 0.000000
11.683489 50.690701 0.000000
11.998838 50.690701 0.000000
12.314190 50.690701 0.000000
12.629539 50.690701 0.000000
12.944889 50.690701 0.000000
13.260239 50.690701 0.000000
13.575588 50.690701 0.000000
13.890940 50.690701 0.000000
14.206289 50.690701 0.000000
14.521639 50.690701 0.000000
14.836988 50.690701 0.000000
15.152340 50.690701 0.000000
15.467690 50.690701 0.000000
15.783039 50.690701 0.000000
16.098389 50.690701 0.000000
16.413738 50.690701 0.000000
16.729090 50.690701 0.000000
17.044439 50.690701 0.000000
17.359789 50.690701 0.000000
17.675138 50.690701 0.000000
17.990490 50.690701 0.000000
18.305840 50.690701 0.000000
18.621189 50.690701 0.000000
18.936539 50.690701 0.000000
19.251888 50.690701 0.000000
-7.237510 50.375351 0.000000
-6.922160 50.375351 0.000000
-6.606810 50.375351 0.000000
-6.291460 50.375351 0.000000
-5.976110 50.375351 0.000000
-5.660760 50.375351 0.000000
-5.345410 50.375351 0.000000
-5.030060 50.375351 0.000000
-4.714710 50.375351 0.000000
-4.399360 50.375351 0.000000
-4.084010 50.375351 0.000000
-3.768660 50.375351 0.000000
-3.453310 50.375351 0.000000
-3.137960 50.375351 0.000000
-2.822610 50.375351 0.000000
-2.507260 50.375351 0.000000
-2.191910 50.375351 0.000000
-1.876560 50.375351 0.000000
-1.561210 50.375351 0.000000
-1.245860 50.375351 0.000000
-0.930510 50.375351 0.000000
-0.615160 50.375351 0.000000
-0.299810 50.375351 0.000000
0.015540 50.375351 0.000000
0.330890 50.375351 0.000000
0.646240 50.375351 0.000000
0.961589 50.375351 0.000000
1.276940 50.375351 0.000000
1.592289 50.375351 0.000000
1.907640 50.375351 0.000000
2.222990 50.375351 0.000000
2.538340 50.375351 0.000000
2.853690 50.375351 0.000000
3.169039 50.375351 0.000000
3.484390 50.375351 0.000000
3.799739 50.375351 0.000000
4.115090 50.375351 0.000000
4.430439 50.375351 0.000000
4.745790 50.375351 0.000000
5.061140 50.375351 0.000000
5.376490 50.375351 0.000000
5.691840 50.375351 0.000000
6.007189 50.375351 0.000000
6.322540 50.375351 0.000000
6.637889 50.375351 0.000000
6.953240 50.375351 0.000000
7.268589 50.375351 0.000000
7.583940 50.375351 0.000000
7.899290 50.375351 0.000000
8.214640 50.375351 0.000000
8.529989 50.375351 0.000000
8.845339 50.375351 0.000000
9.160688 50.375351 0.000000
9.476040 50.375351 0.000000
9.791389 50.375351 0.000000
10.106739 50.375351 0.000000
10.422089 50.375351 0.000000
10.737438 50.375351 0.000000
11.052790 50.375351 0.000000
11.368139 50.375351 0.000000
11.683489 50.375351 0.000000
11.998838 50.375351 0.000000
12.314190 50.375351 0.000000
12.629539 50.375351 0.000000
12.944889 50.375351 0.000000
13.260239 50.375351 0.000000
13.575588 50.375351 5.200281
13.890940 50.375351 0.000000
14.206289 50.375351 0.000000
14.521639 50.375351 0.000000
14.836988 50.375351 0.000000
15.152340 50.375351 1.561820
15.467690 50.375351 87.934731
15.783039 50.375351 41.228096
16.098389 50.375351 19.588921
16.413738 50.375351 57.164478
16.729090 50.375351 26.425879
17.044439 50.375351 22.005154
17.359789 50.375351 28.324869
17.675138 50.375351 26.172546
17.990490 50.375351 38.709820
18.305840 50.375351 42.484722
18.621189 50.375351 44.991081
18.936539 50.375351 62.918079
19.251888 50.375351 0.000000
-7.237510 50.060001 0.000000
-6.922160 50.060001 0.000000
-6.606810 50.060001 0.000000
-6.291460 50.060001 0.000000
-5.976110 50.060001 0.000000
-5.660760 50.060001 0.000000
-5.345410 50.060001 0.000000
-5.030060 50.060001 0.000000
-4.714710 50.060001 0.000000
-4.399360 50.060001 0.000000
-4.084010 50.060001 0.000000
-3.768660 50.060001 0.000000
-3.453310 50.060001 0.000000
-3.137960 50.060001 0.000000
-2.822610 50.060001 0.000000
-2.507260 50.060001 0.000000
-2.191910 50.060001 0.000000
-1.876560 50.060001 0.000000
-1.561210 50.060001 0.000000
-1.245860 50.060001 0.000000
-0.930510 50.060001 0.000000
-0.615160 50.060001 0.000000
-0.299810 50.060001 0.000000
0.015540 50.060001 0.000000
0.330890 50.060001 0.000000
0.646240 50.060001 0.000000
0.961589 50.060001 0.000000
1.276940 50.060001 0.000000
1.592289 50.060001 0.000000
1.907640 50.060001 0.000000
2.222990 50.060001 0.000000
2.538340 50.060001 0.000000
2.853690 50.060001 0.000000
3.169039 50.060001 0.000000
3.484390 50.060001 0.000000
3.799739 50.060001 0.000000
4.115090 50.060001 0.000000
4.430439 50.060001 0.000000
4.745790 50.060001 0.000000
5.061140 50.060001 0.000000
5.376490 50.060001 0.000000
5.691840 50.060001 0.000000
6.007189 50.060001 0.000000
6.322540 50.060001 0.000000
6.637889 50.060001 0.000000
6.953240 50.060001 0.000000
7.268589 50.060001 0.000000
7.583940 50.060001 0.000000
7.899290 50.060001 0.000000
8.214640 50.060001 0.000000
8.529989 50.060001 0.931773
8.845339 50.060001 1.025557
9.160688 50.060001 16.848005
9.476040 50.060001 1.153938
9.791389 50.060001 35.098579
10.106739 50.060001 27.760485
10.422089 50.060001 15.070950
10.737438 50.060001 23.954695
11.052790 50.060001 21.900967
11.368139 50.060001 19.184900
11.683489 50.060001 22.898571
11.998838 50.060001 28.471575
12.314190 50.060001 29.777321
12.629539 50.060001 28.166367
12.944889 50.060001 23.562969
13.260239 50.060001 23.220392
13.575588 50.060001 19.859013
13.890940 50.060001 18.146803
14.206289 50.060001 26.014290
14.521639 50.060001 30.253315
14.836988 50.060001 29.363321
15.152340 50.060001 25.483372
15.467690 50.060001 25.503145
15.783039 50.060001 22.320831
16.098389 50.060001 20.646849
16.413738 50.060001 17.892031
16.729090 50.060001 16.572937
17.044439 50.060001 17.273052
17.359789 50.060001 20.730972
17.675138 50.060001 28.334408
17.990490 50.060001 38.211990
18.305840 50.060001 47.093925
18.621189 50.060001 51.897507
18.936539 50.060001 62.341606
19.251888 50.060001 0.000000
-7.237510 49.744652 0.000000
-6.922160 49.744652 0.000000
-6.606810 49.744652 0.057851
-6.291460 49.744652 0.055381
-5.976110 49.744652 0.076623
-5.660760 49.744652 0.074386
-5.345410 49.744652 0.072329
-5.030060 49.744652 0.071345
-4.714710 49.744652 0.071878
-4.399360 49.744652 0.070960
-4.084010 49.744652 0.068315
-3.768660 49.744652 0.067440
-3.453310 49.744652 0.065918
-3.137960 49.744652 0.065634
-2.822610 49.744652 0.066153
-2.507260 49.744652 0.063665
-2.191910 49.744652 0.060938
-1.876560 49.744652 0.060267
-1.561210 49.744652 0.060028
-1.245860 49.744652 0.058580
-0.930510 49.744652 0.060064
-0.615160 49.744652 0.060685
-0.299810 49.744652 0.059523
0.015540 49.744652 0.059787
0.330890 49.744652 0.061874
0.646240 49.744652 0.058575
0.961589 49.744652 0.057438
1.276940 49.744652 0.053665
1.592289 49.744652 0.051009
1.907640 49.744652 0.055096
2.222990 49.744652 0.049033
2.538340 49.744652 0.079807
2.853690 49.744652 0.793824
3.169039 49.744652 0.348707
3.484390 49.744652 0.347430
3.799739 49.744652 11.433974
4.115090 49.744652 2.719119
4.430439 49.744652 0.457839
4.745790 49.744652 28.891600
5.061140 49.744652 0.000000
5.376490 49.744652 0.000000
5.691840 49.744652 0.000000
6.007189 49.744652 6.780749
6.322540 49.744652 3.553613
6.637889 49.744652 6.059113
6.953240 49.744652 6.840159
7.268589 49.744652 13.838202
7.583940 49.744652 9.208868
7.899290 49.744652 6.512100
8.214640 49.744652 5.783433
8.529989 49.744652 4.134224
8.845339 49.744652 4.057692
9.160688 49.744652 4.112409
9.476040 49.744652 3.820925
9.791389 49.744652 3.667752
10.106739 49.744652 3.501605
10.422089 49.744652 3.971528
10.737438 49.744652 4.040269
11.052790 49.744652 4.045031
11.368139 49.744652 4.444551
11.683489 49.744652 4.716528
11.998838 49.744652 4.794718
12.314190 49.744652 5.197053
12.629539 49.744652 5.049064
12.944889 49.744652 5.098995
13.260239 49.744652 5.318380
13.575588 49.744652 5.258945
13.890940 49.744652 5.392093
14.206289 49.744652 5.534415
14.521639 49.744652 5.990426
14.836988 49.744652 6.275186
15.152340 49.744652 6.747006
15.467690 49.744652 7.445982
15.783039 49.744652 8.926130
16.098389 49.744652 11.402234
16.413738 49.744652 14.702642
16.729090 49.744652 17.091024
17.044439 49.744652 18.866703
17.359789 49.744652 20.675892
17.675138 49.744652 22.973497
17.990490 49.744652 25.351528
18.305840 49.744652 30.820885
18.621189 49.744652 37.818604
18.936539 49.744652 40.857826
19.251888 49.744652 0.000000
-7.237510 49.429302 0.000000
-6.922160 49.429302 0.000000
-6.606810 49.429302 0.046249
-6.291460 49.429302 0.058122
-5.976110 49.429302 0.056023
-5.660760 49.429302 0.055164
-5.345410 49.429302 0.055062
-5.030060 49.429302 0.054488
-4.714710 49.429302 0.055402
-4.399360 49.429302 0.054481
-4.084010 49.429302 0.052827
-3.768660 49.429302 0.051977
-3.453310 49.429302 0.051100
-3.137960 49.429302 0.051064
-2.822610 49.429302 0.050868
-2.507260 49.429302 0.049180
-2.191910 49.429302 0.047279
-1.876560 49.429302 0.047512
-1.561210 49.429302 0.047008
-1.245860 49.429302 0.046706
-0.930510 49.429302 0.047000
-0.615160 49.429302 0.046529
-0.299810 49.429302 0.046126
0.015540 49.429302 0.045706
0.330890 49.429302 0.045648
0.646240 49.429302 0.045297
0.961589 49.429302 0.043927
1.276940 49.429302 0.043555
1.592289 49.429302 0.044320
1.907640 49.429302 0.044328
2.222990 49.429302 0.044781
2.538340 49.429302 0.044181
2.853690 49.429302 0.043786
3.169039 49.429302 0.044160
3.484390 49.429302 0.044271
3.799739 49.429302 0.043614
4.115090 49.429302 0.042929
4.430439 49.429302 0.042995
4.745790 49.429302 0.042618
5.061140 49.429302 0.044155
5.376490 49.429302 0.044494
5.691840 49.429302 0.045905
6.007189 49.429302 0.048288
6.322540 49.429302 0.050485
6.637889 49.429302 0.054443
6.953240 49.429302 0.059824
7.268589 49.429302 0.066681
7.583940 49.429302 0.079773
7.899290 49.429302 0.097682
8.214640 49.429302 0.134272
8.529989 49.429302 0.189997
8.845339 49.429302 0.282098
9.160688 49.429302 0.412200
9.476040 49.429302 0.577838
9.791389 49.429302 0.832436
10.106739 49.429302 1.096778
10.422089 49.429302 1.465344
10.737438 49.429302 1.841701
11.052790 49.429302 2.193398
11.368139 49.429302 2.701144
11.683489 49.429302 3.073062
11.998838 49.429302 3.631784
12.314190 49.429302 4.199491
12.629539 49.429302 4.574566
12.944889 49.429302 4.913407
13.260239 49.429302 4.968179
13.575588 49.429302 5.092003
13.890940 49.429302 5.442718
14.206289 49.429302 5.576685
14.521639 49.429302 5.855166
14.836988 49.429302 6.229440
15.152340 49.429302 6.817644
15.467690 49.429302 7.632363
15.783039 49.429302 9.179880
16.098389 49.429302 12.075907
16.413738 49.429302 15.898424
16.729090 49.429302 18.769079
17.044439 49.429302 21.374138
17.359789 49.429302 23.186516
17.675138 49.429302 24.986599
17.990490 49.429302 29.321585
18.305840 49.429302 35.667370
18.621189 49.429302 46.276047
18.936539 49.429302 54.352188
19.251888 49.429302 0.000000
-7.237510 49.113949 0.000000
-6.922160 49.113949 0.000000
-6.606810 49.113949 0.059619
-6.291460 49.113949 0.045764
-5.976110 49.113949 0.041847
-5.660760 49.113949 0.041921
-5.345410 49.113949 0.042440
-5.030060 49.113949 0.041532
-4.714710 49.113949 0.041693
-4.399360 49.113949 0.041187
-4.084010 49.113949 0.039641
-3.768660 49.113949 0.039085
-3.453310 49.113949 0.038774
-3.137960 49.113949 0.038425
-2.822610 49.113949 0.037608
-2.507260 49.113949 0.036671
-2.191910 49.113949 0.035743
-1.876560 49.113949 0.036080
-1.561210 49.113949 0.035471
-1.245860 49.113949 0.035109
-0.930510 49.113949 0.035107
-0.615160 49.113949 0.034184
-0.299810 49.113949 0.034238
0.015540 49.113949 0.034279
0.330890 49.113949 0.034369
0.646240 49.113949 0.034370
0.961589 49.113949 0.033144
1.276940 49.113949 0.032508
1.592289 49.113949 0.033193
1.907640 49.113949 0.033011
2.222990 49.113949 0.033338
2.538340 49.113949 0.032085
2.853690 49.113949 0.032488
3.169039 49.113949 0.032950
3.484390 49.113949 0.032568
3.799739 49.113949 0.032566
4.115090 49.113949 0.032593
4.430439 49.113949 0.032786
4.745790 49.113949 0.032649
5.061140 49.113949 0.033119
5.376490 49.113949 0.033886
5.691840 49.113949 0.034730
6.007189 49.113949 0.036806
6.322540 49.113949 0.039201
6.637889 49.113949 0.042610
6.953240 49.113949 0.046973
7.268589 49.113949 0.052985
7.583940 49.113949 0.065551
7.899290 49.113949 0.078641
8.214640 49.113949 0.109425
8.529989 49.113949 0.156849
8.845339 49.113949 0.218628
9.160688 49.113949 0.345902
9.476040 49.113949 0.503813
9.791389 49.113949 0.710037
10.106739 49.113949 0.923203
10.422089 49.113949 1.208637
10.737438 49.113949 1.514086
11.052790 49.113949 1.899917
11.368139 49.113949 2.252702
11.683489 49.113949 2.657534
11.998838 49.113949 3.049622
12.314190 49.113949 3.528719
12.629539 49.113949 3.785174
12.944889 49.113949 4.127113
13.260239 49.113949 4.307625
13.575588 49.113949 4.368719
13.890940 49.113949 4.708248
14.206289 49.113949 4.936932
14.521639 49.113949 5.012471
14.836988 49.113949 5.301857
15.152340 49.113949 5.649301
15.467690 49.113949 6.498142
15.783039 49.113949 8.258101
16.098389 49.113949 11.067615
16.413738 49.113949 15.079582
16.729090 49.113949 18.234011
17.044439 49.113949 21.642895
17.359789 49.113949 23.047464
17.675138 49.113949 25.343611
17.990490 49.113949 29.865013
18.305840 49.113949 38.120495
18.621189 49.113949 53.698082
18.936539 49.113949 68.157974
19.251888 49.113949 0.000000
-7.237510 48.798599 0.000000
-6.922160 48.798599 0.000000
-6.606810 48.798599 0.053358
-6.291460 48.798599 0.040536
-5.976110 48.798599 0.037157
-5.660760 48.798599 0.037630
-5.345410 48.798599 0.037943
-5.030060 48.798599 0.037074
-4.714710 48.798599 0.036850
-4.399360 48.798599 0.036114
-4.084010 48.798599 0.035064
-3.768660 48.798599 0.034587
-3.453310 48.798599 0.034498
-3.137960 48.798599 0.033553
-2.822610 48.798599 0.032644
-2.507260 48.798599 0.032003
-2.191910 48.798599 0.031444
-1.876560 48.798599 0.031996
-1.561210 48.798599 0.031663
-1.245860 48.798599 0.031142
-0.930510 48.798599 0.030377
-0.615160 48.798599 0.029366
-0.299810 48.798599 0.029861
0.015540 48.798599 0.029941
0.330890 48.798599 0.030004
0.646240 48.798599 0.029646
0.961589 48.798599 0.029067
1.276940 48.798599 0.028191
1.592289 48.798599 0.028249
1.907640 48.798599 0.028542
2.222990 48.798599 0.028571
2.538340 48.798599 0.027491
2.853690 48.798599 0.027956
3.169039 48.798599 0.028297
3.484390 48.798599 0.027876
3.799739 48.798599 0.027728
4.115090 48.798599 0.027988
4.430439 48.798599 0.028590
4.745790 48.798599 0.028818
5.061140 48.798599 0.029363
5.376490 48.798599 0.029788
5.691840 48.798599 0.030750
6.007189 48.798599 0.032869
6.322540 48.798599 0.034714
6.637889 48.798599 0.037858
6.953240 48.798599 0.041937
7.268589 48.798599 0.047385
7.583940 48.798599 0.058040
7.899290 48.798599 0.071486
8.214640 48.798599 0.100285
8.529989 48.798599 0.137151
8.845339 48.798599 0.207970
9.160688 48.798599 0.306093
9.476040 48.798599 0.446993
9.791389 48.798599 0.628677
10.106739 48.798599 0.810026
10.422089 48.798599 1.028830
10.737438 48.798599 1.348586
11.052790 48.798599 1.660796
11.368139 48.798599 2.008703
11.683489 48.798599 2.323787
11.998838 48.798599 2.699161
12.314190 48.798599 3.132510
12.629539 48.798599 3.379767
12.944889 48.798599 3.575685
13.260239 48.798599 3.769521
13.575588 48.798599 4.044178
13.890940 48.798599 4.272363
14.206289 48.798599 4.377635
14.521639 48.798599 4.391758
14.836988 48.798599 4.589584
15.152340 48.798599 4.781733
15.467690 48.798599 5.316155
15.783039 48.798599 7.481941
16.098389 48.798599 10.476233
16.413738 48.798599 14.561795
16.729090 48.798599 18.645922
17.044439 48.798599 21.873039
17.359789 48.798599 23.832718
17.675138 48.798599 26.536032
17.990490 48.798599 31.342611
18.305840 48.798599 42.679428
18.621189 48.798599 58.231049
18.936539 48.798599 76.302979
19.251888 48.798599 0.000000
-7.237510 48.483250 0.000000
-6.922160 48.483250 0.000000
-6.606810 48.483250 0.051866
-6.291460 48.483250 0.039850
-5.976110 48.483250 0.037971
-5.660760 48.483250 0.037840
-5.345410 48.483250 0.037237
-5.030060 48.483250 0.036792
-4.714710 48.483250 0.036414
-4.399360 48.483250 0.035734
-4.084010 48.483250 0.034752
-3.768660 48.483250 0.034152
-3.453310 48.483250 0.033477
-3.137960 48.483250 0.032590
-2.822610 48.483250 0.031500
-2.507260 48.483250 0.030938
-2.191910 48.483250 0.031026
-1.876560 48.483250 0.031473
-1.561210 48.483250 0.031034
-1.245860 48.483250 0.030876
-0.930510 48.483250 0.029870
-0.615160 48.483250 0.028814
-0.299810 48.483250 0.028841
0.015540 48.483250 0.029085
0.330890 48.483250 0.028979
0.646240 48.483250 0.028451
0.961589 48.483250 0.028177
1.276940 48.483250 0.027589
1.592289 48.483250 0.027214
1.907640 48.483250 0.027887
2.222990 48.483250 0.027190
2.538340 48.483250 0.026619
2.853690 48.483250 0.027053
3.169039 48.483250 0.027526
3.484390 48.483250 0.027113
3.799739 48.483250 0.027087
4.115090 48.483250 0.027268
4.430439 48.483250 0.027710
4.745790 48.483250 0.028056
5.061140 48.483250 0.028858
5.376490 48.483250 0.029501
5.691840 48.483250 0.030739
6.007189 48.483250 0.032429
6.322540 48.483250 0.034257
6.637889 48.483250 0.037216
6.953240 48.483250 0.040927
7.268589 48.483250 0.048227
7.583940 48.483250 0.059604
7.899290 48.483250 0.070244
8.214640 48.483250 0.096633
8.529989 48.483250 0.134509
8.845339 48.483250 0.198915
9.160688 48.483250 0.291484
9.476040 48.483250 0.449377
9.791389 48.483250 0.614540
10.106739 48.483250 0.778860
10.422089 48.483250 0.966159
10.737438 48.483250 1.229977
11.052790 48.483250 1.549077
11.368139 48.483250 1.945515
11.683489 48.483250 2.269567
11.998838 48.483250 2.601070
12.314190 48.483250 2.876394
12.629539 48.483250 3.054846
12.944889 48.483250 3.257932
13.260239 48.483250 3.355929
13.575588 48.483250 3.891315
13.890940 48.483250 3.932333
14.206289 48.483250 4.082386
14.521639 48.483250 4.175782
14.836988 48.483250 4.211444
15.152340 48.483250 4.549829
15.467690 48.483250 5.294772
15.783039 48.483250 6.745490
16.098389 48.483250 9.828988
16.413738 48.483250 13.917640
16.729090 48.483250 18.829147
17.044439 48.483250 22.101568
17.359789 48.483250 25.101479
17.675138 48.483250 28.198931
17.990490 48.483250 33.977135
18.305840 48.483250 44.598846
18.621189 48.483250 62.612640
18.936539 48.483250 81.823212
19.251888 48.483250 0.000000
-7.237510 48.167900 0.000000
-6.922160 48.167900 0.000000
-6.606810 48.167900 0.052774
-6.291460 48.167900 0.040150
-5.976110 48.167900 0.038891
-5.660760 48.167900 0.038190
-5.345410 48.167900 0.037736
-5.030060 48.167900 0.037385
-4.714710 48.167900 0.036413
-4.399360 48.167900 0.035675
-4.084010 48.167900 0.034667
-3.768660 48.167900 0.033891
-3.453310 48.167900 0.032975
-3.137960 48.167900 0.032247
-2.822610 48.167900 0.031400
-2.507260 48.167900 0.030778
-2.191910 48.167900 0.030919
-1.876560 48.167900 0.031405
-1.561210 48.167900 0.030876
-1.245860 48.167900 0.030740
-0.930510 48.167900 0.029865
-0.615160 48.167900 0.029295
-0.299810 48.167900 0.028989
0.015540 48.167900 0.029218
0.330890 48.167900 0.028763
0.646240 48.167900 0.027900
0.961589 48.167900 0.027844
1.276940 48.167900 0.027997
1.592289 48.167900 0.027674
1.907640 48.167900 0.027799
2.222990 48.167900 0.027094
2.538340 48.167900 0.026628
2.853690 48.167900 0.026874
3.169039 48.167900 0.027162
3.484390 48.167900 0.027394
3.799739 48.167900 0.027608
4.115090 48.167900 0.027426
4.430439 48.167900 0.027559
4.745790 48.167900 0.027781
5.061140 48.167900 0.028573
5.376490 48.167900 0.029702
5.691840 48.167900 0.031156
6.007189 48.167900 0.032562
6.322540 48.167900 0.034302
6.637889 48.167900 0.037360
6.953240 48.167900 0.041628
7.268589 48.167900 0.047825
7.583940 48.167900 0.059025
7.899290 48.167900 0.072518
8.214640 48.167900 0.099398
8.529989 48.167900 0.135319
8.845339 48.167900 0.199481
9.160688 48.167900 0.292670
9.476040 48.167900 0.426988
9.791389 48.167900 0.590627
10.106739 48.167900 0.775207
10.422089 48.167900 0.966910
10.737438 48.167900 1.207871
11.052790 48.167900 1.521216
11.368139 48.167900 1.889972
11.683489 48.167900 2.268080
11.998838 48.167900 2.501667
12.314190 48.167900 2.773945
12.629539 48.167900 3.016994
12.944889 48.167900 3.214771
13.260239 48.167900 3.441951
13.575588 48.167900 3.589420
13.890940 48.167900 3.754605
14.206289 48.167900 3.865333
14.521639 48.167900 4.018284
14.836988 48.167900 4.219120
15.152340 48.167900 4.493307
15.467690 48.167900 5.171373
15.783039 48.167900 6.499433
16.098389 48.167900 9.320127
16.413738 48.167900 14.228282
16.729090 48.167900 20.112875
17.044439 48.167900 24.141081
17.359789 48.167900 27.627760
17.675138 48.167900 31.214439
17.990490 48.167900 37.962715
18.305840 48.167900 50.906219
18.621189 48.167900 68.323647
18.936539 48.167900 89.670509
19.251888 48.167900 0.000000
-7.237510 47.852551 0.000000
-6.922160 47.852551 0.000000
-6.606810 47.852551 0.050847
-6.291460 47.852551 0.039538
-5.976110 47.852551 0.038110
-5.660760 47.852551 0.037378
-5.345410 47.852551 0.037459
-5.030060 47.852551 0.037237
-4.714710 47.852551 0.035756
-4.399360 47.852551 0.034478
-4.084010 47.852551 0.033802
-3.768660 47.852551 0.032797
-3.453310 47.852551 0.032398
-3.137960 47.852551 0.031867
-2.822610 47.852551 0.031245
-2.507260 47.852551 0.030708
-2.191910 47.852551 0.030386
-1.876560 47.852551 0.030610
-1.561210 47.852551 0.030331
-1.245860 47.852551 0.029644
-0.930510 47.852551 0.029545
-0.615160 47.852551 0.029337
-0.299810 47.852551 0.029073
0.015540 47.852551 0.029006
0.330890 47.852551 0.028350
0.646240 47.852551 0.027657
0.961589 47.852551 0.027259
1.276940 47.852551 0.027702
1.592289 47.852551 0.028149
1.907640 47.852551 0.027617
2.222990 47.852551 0.026775
2.538340 47.852551 0.026421
2.853690 47.852551 0.026618
3.169039 47.852551 0.026742
3.484390 47.852551 0.027248
3.799739 47.852551 0.027458
4.115090 47.852551 0.026988
4.430439 47.852551 0.027108
4.745790 47.852551 0.027258
5.061140 47.852551 0.028164
5.376490 47.852551 0.029623
5.691840 47.852551 0.031038
6.007189 47.852551 0.032166
6.322540 47.852551 0.034092
6.637889 47.852551 0.037556
6.953240 47.852551 0.042124
7.268589 47.852551 0.048013
7.583940 47.852551 0.058976
7.899290 47.852551 0.076932
8.214640 47.852551 0.101360
8.529989 47.852551 0.136589
8.845339 47.852551 0.195531
9.160688 47.852551 0.282860
9.476040 47.852551 0.415798
9.791389 47.852551 0.577024
10.106739 47.852551 0.782190
10.422089 47.852551 0.985658
10.737438 47.852551 1.198505
11.052790 47.852551 1.494710
11.368139 47.852551 1.842435
11.683489 47.852551 2.164064
11.998838 47.852551 2.468374
12.314190 47.852551 2.787262
12.629539 47.852551 3.036824
12.944889 47.852551 3.276240
13.260239 47.852551 3.407551
13.575588 47.852551 3.528811
13.890940 47.852551 3.900319
14.206289 47.852551 3.836123
14.521639 47.852551 3.822267
14.836988 47.852551 4.056104
15.152340 47.852551 4.420990
15.467690 47.852551 5.546419
15.783039 47.852551 6.881265
16.098389 47.852551 10.200540
16.413738 47.852551 14.637070
16.729090 47.852551 20.689758
17.044439 47.852551 25.512674
17.359789 47.852551 29.416998
17.675138 47.852551 34.664883
17.990490 47.852551 43.075138
18.305840 47.852551 55.575146
18.621189 47.852551 73.824669
18.936539 47.852551 95.599655
19.251888 47.852551 0.000000
-7.237510 47.537201 0.000000
-6.922160 47.537201 0.000000
-6.606810 47.537201 0.050154
-6.291460 47.537201 0.039336
-5.976110 47.537201 0.037135
-5.660760 47.537201 0.036422
-5.345410 47.537201 0.036108
-5.030060 47.537201 0.036022
-4.714710 47.537201 0.035030
-4.399360 47.537201 0.033216
-4.084010 47.537201 0.032583
-3.768660 47.537201 0.032167
-3.453310 47.537201 0.031819
-3.137960 47.537201 0.031654
-2.822610 47.537201 0.031143
-2.507260 47.537201 0.030195
-2.191910 47.537201 0.029765
-1.876560 47.537201 0.029788
-1.561210 47.537201 0.029521
-1.245860 47.537201 0.028894
-0.930510 47.537201 0.028840
-0.615160 47.537201 0.028613
-0.299810 47.537201 0.028495
0.015540 47.537201 0.028524
0.330890 47.537201 0.027969
0.646240 47.537201 0.027457
0.961589 47.537201 0.026802
1.276940 47.537201 0.027162
1.592289 47.537201 0.027959
1.907640 47.537201 0.027401
2.222990 47.537201 0.026735
2.538340 47.537201 0.026655
2.853690 47.537201 0.026698
3.169039 47.537201 0.026835
3.484390 47.537201 0.027030
3.799739 47.537201 0.026730
4.115090 47.537201 0.026512
4.430439 47.537201 0.026744
4.745790 47.537201 0.027073
5.061140 47.537201 0.027974
5.376490 47.537201 0.029271
5.691840 47.537201 0.030766
6.007189 47.537201 0.031758
6.322540 47.537201 0.033648
6.637889 47.537201 0.037032
6.953240 47.537201 0.041575
7.268589 47.537201 0.047113
7.583940 47.537201 0.058546
7.899290 47.537201 0.074569
8.214640 47.537201 0.099544
8.529989 47.537201 0.144087
8.845339 47.537201 0.203023
9.160688 47.537201 0.288008
9.476040 47.537201 0.415505
9.791389 47.537201 0.567972
10.106739 47.537201 0.764765
10.422089 47.537201 0.977371
10.737438 47.537201 1.202262
11.052790 47.537201 1.502132
11.368139 47.537201 1.820697
11.683489 47.537201 2.147442
11.998838 47.537201 2.427746
12.314190 47.537201 2.773814
12.629539 47.537201 3.069565
12.944889 47.537201 3.314274
13.260239 47.537201 3.405172
13.575588 47.537201 3.622473
13.890940 47.537201 3.848401
14.206289 47.537201 3.904027
14.521639 47.537201 3.961231
14.836988 47.537201 4.095007
15.152340 47.537201 4.417704
15.467690 47.537201 5.705410
15.783039 47.537201 7.455951
16.098389 47.537201 10.756922
16.413738 47.537201 15.128760
16.729090 47.537201 21.385393
17.044439 47.537201 28.455276
17.359789 47.537201 32.574127
17.675138 47.537201 37.297558
17.990490 47.537201 46.984486
18.305840 47.537201 59.898438
18.621189 47.537201 80.189812
18.936539 47.537201 101.489037
19.251888 47.537201 0.000000
-7.237510 47.221851 0.000000
-6.922160 47.221851 0.000000
-6.606810 47.221851 0.048979
-6.291460 47.221851 0.038530
-5.976110 47.221851 0.036835
-5.660760 47.221851 0.035732
-5.345410 47.221851 0.034940
-5.030060 47.221851 0.034963
-4.714710 47.221851 0.034369
-4.399360 47.221851 0.032463
-4.084010 47.221851 0.031708
-3.768660 47.221851 0.031767
-3.453310 47.221851 0.031304
-3.137960 47.221851 0.030917
-2.822610 47.221851 0.030096
-2.507260 47.221851 0.029487
-2.191910 47.221851 0.029004
-1.876560 47.221851 0.028777
-1.561210 47.221851 0.028697
-1.245860 47.221851 0.028577
-0.930510 47.221851 0.028232
-0.615160 47.221851 0.027704
-0.299810 47.221851 0.027854
0.015540 47.221851 0.027860
0.330890 47.221851 0.027538
0.646240 47.221851 0.027255
0.961589 47.221851 0.026311
1.276940 47.221851 0.026192
1.592289 47.221851 0.027486
1.907640 47.221851 0.027408
2.222990 47.221851 0.026732
2.538340 47.221851 0.026739
2.853690 47.221851 0.027000
3.169039 47.221851 0.027589
3.484390 47.221851 0.026907
3.799739 47.221851 0.026336
4.115090 47.221851 0.026651
4.430439 47.221851 0.026914
4.745790 47.221851 0.027121
5.061140 47.221851 0.027794
5.376490 47.221851 0.029191
5.691840 47.221851 0.030323
6.007189 47.221851 0.031474
6.322540 47.221851 0.033425
6.637889 47.221851 0.036632
6.953240 47.221851 0.040635
7.268589 47.221851 0.045999
7.583940 47.221851 0.057051
7.899290 47.221851 0.072430
8.214640 47.221851 0.101596
8.529989 47.221851 0.141085
8.845339 47.221851 0.200786
9.160688 47.221851 0.292470
9.476040 47.221851 0.402740
9.791389 47.221851 0.551729
10.106739 47.221851 0.758802
10.422089 47.221851 0.953830
10.737438 47.221851 1.187410
11.052790 47.221851 1.485474
11.368139 47.221851 1.821684
11.683489 47.221851 2.178071
11.998838 47.221851 2.462637
12.314190 47.221851 2.723315
12.629539 47.221851 3.039378
12.944889 47.221851 3.252558
13.260239 47.221851 3.453366
13.575588 47.221851 3.628597
13.890940 47.221851 3.622084
14.206289 47.221851 3.824737
14.521639 47.221851 4.099156
14.836988 47.221851 4.272998
15.152340 47.221851 4.548895
15.467690 47.221851 5.817832
15.783039 47.221851 8.128844
16.098389 47.221851 11.314249
16.413738 47.221851 16.203779
16.729090 47.221851 23.221773
17.044439 47.221851 30.029179
17.359789 47.221851 34.794647
17.675138 47.221851 42.275440
17.990490 47.221851 52.589203
18.305840 47.221851 66.387291
18.621189 47.221851 87.435196
18.936539 47.221851 110.328156
19.251888 47.221851 0.000000
-7.237510 46.906502 0.000000
-6.922160 46.906502 0.000000
-6.606810 46.906502 0.048655
-6.291460 46.906502 0.037677
-5.976110 46.906502 0.036359
-5.660760 46.906502 0.035639
-5.345410 46.906502 0.034129
-5.030060 46.906502 0.034064
-4.714710 46.906502 0.033725
-4.399360 46.906502 0.032049
-4.084010 46.906502 0.031566
-3.768660 46.906502 0.031465
-3.453310 46.906502 0.030889
-3.137960 46.906502 0.030100
-2.822610 46.906502 0.029319
-2.507260 46.906502 0.029013
-2.191910 46.906502 0.028215
-1.876560 46.906502 0.028015
-1.561210 46.906502 0.028203
-1.245860 46.906502 0.028355
-0.930510 46.906502 0.027643
-0.615160 46.906502 0.026983
-0.299810 46.906502 0.027410
0.015540 46.906502 0.027354
0.330890 46.906502 0.027144
0.646240 46.906502 0.026823
0.961589 46.906502 0.025837
1.276940 46.906502 0.025436
1.592289 46.906502 0.026441
1.907640 46.906502 0.026829
2.222990 46.906502 0.026826
2.538340 46.906502 0.026824
2.853690 46.906502 0.027380
3.169039 46.906502 0.027939
3.484390 46.906502 0.026886
3.799739 46.906502 0.026546
4.115090 46.906502 0.027174
4.430439 46.906502 0.027703
4.745790 46.906502 0.027440
5.061140 46.906502 0.027847
5.376490 46.906502 0.028939
5.691840 46.906502 0.030091
6.007189 46.906502 0.031026
6.322540 46.906502 0.032950
6.637889 46.906502 0.036245
6.953240 46.906502 0.040500
7.268589 46.906502 0.046815
7.583940 46.906502 0.056765
7.899290 46.906502 0.071981
8.214640 46.906502 0.098006
8.529989 46.906502 0.132271
8.845339 46.906502 0.205253
9.160688 46.906502 0.286050
9.476040 46.906502 0.407874
9.791389 46.906502 0.542438
10.106739 46.906502 0.756708
10.422089 46.906502 0.999565
10.737438 46.906502 1.248063
11.052790 46.906502 1.465771
11.368139 46.906502 1.741401
11.683489 46.906502 2.137383
11.998838 46.906502 2.410006
12.314190 46.906502 2.713261
12.629539 46.906502 3.079289
12.944889 46.906502 3.299819
13.260239 46.906502 3.480233
13.575588 46.906502 3.492238
13.890940 46.906502 3.661909
14.206289 46.906502 3.882193
14.521639 46.906502 4.192846
14.836988 46.906502 4.362334
15.152340 46.906502 5.061229
15.467690 46.906502 6.490057
15.783039 46.906502 9.158831
16.098389 46.906502 13.008018
16.413738 46.906502 18.171654
16.729090 46.906502 25.348406
17.044439 46.906502 31.989641
17.359789 46.906502 38.594833
17.675138 46.906502 47.732380
17.990490 46.906502 57.317520
18.305840 46.906502 69.794540
18.621189 46.906502 92.542313
18.936539 46.906502 110.301872
19.251888 46.906502 0.000000
-7.237510 46.591152 0.000000
-6.922160 46.591152 0.000000
-6.606810 46.591152 0.047128
-6.291460 46.591152 0.036977
-5.976110 46.591152 0.035793
-5.660760 46.591152 0.034748
-5.345410 46.591152 0.033049
-5.030060 46.591152 0.032709
-4.714710 46.591152 0.033067
-4.399360 46.591152 0.031867
-4.084010 46.591152 0.031397
-3.768660 46.591152 0.031490
-3.453310 46.591152 0.030966
-3.137960 46.591152 0.030036
-2.822610 46.591152 0.028762
-2.507260 46.591152 0.028689
-2.191910 46.591152 0.027960
-1.876560 46.591152 0.027782
-1.561210 46.591152 0.027849
-1.245860 46.591152 0.027827
-0.930510 46.591152 0.026734
-0.615160 46.591152 0.026289
-0.299810 46.591152 0.027055
0.015540 46.591152 0.027125
0.330890 46.591152 0.026752
0.646240 46.591152 0.026131
0.961589 46.591152 0.025721
1.276940 46.591152 0.025440
1.592289 46.591152 0.026125
1.907640 46.591152 0.026200
2.222990 46.591152 0.026288
2.538340 46.591152 0.026414
2.853690 46.591152 0.027093
3.169039 46.591152 0.027477
3.484390 46.591152 0.026472
3.799739 46.591152 0.026957
4.115090 46.591152 0.027720
4.430439 46.591152 0.027915
4.745790 46.591152 0.027611
5.061140 46.591152 0.028127
5.376490 46.591152 0.028887
5.691840 46.591152 0.030110
6.007189 46.591152 0.031199
6.322540 46.591152 0.032962
6.637889 46.591152 0.036118
6.953240 46.591152 0.040657
7.268589 46.591152 0.047255
7.583940 46.591152 0.056237
7.899290 46.591152 0.070462
8.214640 46.591152 0.098921
8.529989 46.591152 0.133491
8.845339 46.591152 0.191019
9.160688 46.591152 0.276630
9.476040 46.591152 0.395950
9.791389 46.591152 0.560215
10.106739 46.591152 0.781793
10.422089 46.591152 1.017412
10.737438 46.591152 1.201552
11.052790 46.591152 1.479395
11.368139 46.591152 1.757350
11.683489 46.591152 2.092942
11.998838 46.591152 2.395397
12.314190 46.591152 2.611840
12.629539 46.591152 3.043026
12.944889 46.591152 3.244543
13.260239 46.591152 3.354585
13.575588 46.591152 3.599735
13.890940 46.591152 3.660892
14.206289 46.591152 3.885322
14.521639 46.591152 4.138346
14.836988 46.591152 4.669025
15.152340 46.591152 5.558246
15.467690 46.591152 7.489429
15.783039 46.591152 10.726158
16.098389 46.591152 15.625319
16.413738 46.591152 21.616583
16.729090 46.591152 27.920729
17.044439 46.591152 34.236465
17.359789 46.591152 41.745453
17.675138 46.591152 49.803223
17.990490 46.591152 59.001369
18.305840 46.591152 68.667877
18.621189 46.591152 89.921494
18.936539 46.591152 110.770622
19.251888 46.591152 0.000000
-7.237510 46.275803 0.000000
-6.922160 46.275803 0.000000
-6.606810 46.275803 0.046028
-6.291460 46.275803 0.036546
-5.976110 46.275803 0.034907
-5.660760 46.275803 0.033900
-5.345410 46.275803 0.032375
-5.030060 46.275803 0.032118
-4.714710 46.275803 0.032427
-4.399360 46.275803 0.031808
-4.084010 46.275803 0.031141
-3.768660 46.275803 0.031078
-3.453310 46.275803 0.030980
-3.137960 46.275803 0.030131
-2.822610 46.275803 0.028472
-2.507260 46.275803 0.027945
-2.191910 46.275803 0.027991
-1.876560 46.275803 0.027879
-1.561210 46.275803 0.027820
-1.245860 46.275803 0.027357
-0.930510 46.275803 0.026197
-0.615160 46.275803 0.025545
-0.299810 46.275803 0.026430
0.015540 46.275803 0.026666
0.330890 46.275803 0.025945
0.646240 46.275803 0.025226
0.961589 46.275803 0.025673
1.276940 46.275803 0.026050
1.592289 46.275803 0.026411
1.907640 46.275803 0.026024
2.222990 46.275803 0.025525
2.538340 46.275803 0.025562
2.853690 46.275803 0.026458
3.169039 46.275803 0.026733
3.484390 46.275803 0.026087
3.799739 46.275803 0.026810
4.115090 46.275803 0.027348
4.430439 46.275803 0.027511
4.745790 46.275803 0.027530
5.061140 46.275803 0.028547
5.376490 46.275803 0.029541
5.691840 46.275803 0.030591
6.007189 46.275803 0.031922
6.322540 46.275803 0.033354
6.637889 46.275803 0.036302
6.953240 46.275803 0.041190
7.268589 46.275803 0.047181
7.583940 46.275803 0.056686
7.899290 46.275803 0.073071
8.214640 46.275803 0.100439
8.529989 46.275803 0.139416
8.845339 46.275803 0.194296
9.160688 46.275803 0.281320
9.476040 46.275803 0.401692
9.791389 46.275803 0.591671
10.106739 46.275803 0.808382
10.422089 46.275803 1.007741
10.737438 46.275803 1.249741
11.052790 46.275803 1.502375
11.368139 46.275803 1.788551
11.683489 46.275803 2.115931
11.998838 46.275803 2.425251
12.314190 46.275803 2.611540
12.629539 46.275803 3.024136
12.944889 46.275803 3.206748
13.260239 46.275803 3.295150
13.575588 46.275803 3.526852
13.890940 46.275803 3.695226
14.206289 46.275803 3.920724
14.521639 46.275803 4.407891
14.836988 46.275803 4.920928
15.152340 46.275803 6.340968
15.467690 46.275803 8.991376
15.783039 46.275803 13.660887
16.098389 46.275803 18.948750
16.413738 46.275803 24.161823
16.729090 46.275803 28.409513
17.044439 46.275803 32.626621
17.359789 46.275803 37.562687
17.675138 46.275803 45.918266
17.990490 46.275803 61.685734
18.305840 46.275803 92.518898
18.621189 46.275803 90.664352
18.936539 46.275803 105.517998
19.251888 46.275803 0.000000
-7.237510 45.960449 0.000000
-6.922160 45.960449 0.000000
-6.606810 45.960449 0.045183
-6.291460 45.960449 0.035765
-5.976110 45.960449 0.033563
-5.660760 45.960449 0.032930
-5.345410 45.960449 0.031604
-5.030060 45.960449 0.031675
-4.714710 45.960449 0.031628
-4.399360 45.960449 0.030910
-4.084010 45.960449 0.030387
-3.768660 45.960449 0.030012
-3.453310 45.960449 0.029929
-3.137960 45.960449 0.029426
-2.822610 45.960449 0.028157
-2.507260 45.960449 0.027279
-2.191910 45.960449 0.027921
-1.876560 45.960449 0.028133
-1.561210 45.960449 0.027873
-1.245860 45.960449 0.027099
-0.930510 45.960449 0.025924
-0.615160 45.960449 0.025092
-0.299810 45.960449 0.026081
0.015540 45.960449 0.026314
0.330890 45.960449 0.025368
0.646240 45.960449 0.024724
0.961589 45.960449 0.025152
1.276940 45.960449 0.025671
1.592289 45.960449 0.026009
1.907640 45.960449 0.025573
2.222990 45.960449 0.025130
2.538340 45.960449 0.025356
2.853690 45.960449 0.026218
3.169039 45.960449 0.025839
3.484390 45.960449 0.025641
3.799739 45.960449 0.026388
4.115090 45.960449 0.026664
4.430439 45.960449 0.026653
4.745790 45.960449 0.026972
5.061140 45.960449 0.028520
5.376490 45.960449 0.030061
5.691840 45.960449 0.031211
6.007189 45.960449 0.032398
6.322540 45.960449 0.034228
6.637889 45.960449 0.036794
6.953240 45.960449 0.040737
7.268589 45.960449 0.047338
7.583940 45.960449 0.057045
7.899290 45.960449 0.070941
8.214640 45.960449 0.099382
8.529989 45.960449 0.135667
8.845339 45.960449 0.200987
9.160688 45.960449 0.290361
9.476040 45.960449 0.407594
9.791389 45.960449 0.581348
10.106739 45.960449 0.811147
10.422089 45.960449 1.029404
10.737438 45.960449 1.313835
11.052790 45.960449 1.577534
11.368139 45.960449 1.764991
11.683489 45.960449 2.071247
11.998838 45.960449 2.464265
12.314190 45.960449 2.677405
12.629539 45.960449 2.959428
12.944889 45.960449 3.178724
13.260239 45.960449 3.456215
13.575588 45.960449 3.612129
13.890940 45.960449 3.777842
14.206289 45.960449 3.973806
14.521639 45.960449 4.541315
14.836988 45.960449 5.418976
15.152340 45.960449 6.802706
15.467690 45.960449 9.717337
15.783039 45.960449 15.762734
16.098389 45.960449 23.410900
16.413738 45.960449 23.909508
16.729090 45.960449 21.470779
17.044439 45.960449 24.385744
17.359789 45.960449 37.019211
17.675138 45.960449 53.463509
17.990490 45.960449 75.582687
18.305840 45.960449 109.963043
18.621189 45.960449 89.406425
18.936539 45.960449 94.530121
19.251888 45.960449 0.000000
-7.237510 45.645100 0.000000
-6.922160 45.645100 0.000000
-6.606810 45.645100 0.042878
-6.291460 45.645100 0.033923
-5.976110 45.645100 0.032371
-5.660760 45.645100 0.031864
-5.345410 45.645100 0.031143
-5.030060 45.645100 0.031088
-4.714710 45.645100 0.030269
-4.399360 45.645100 0.029793
-4.084010 45.645100 0.029350
-3.768660 45.645100 0.028635
-3.453310 45.645100 0.028322
-3.137960 45.645100 0.028362
-2.822610 45.645100 0.027321
-2.507260 45.645100 0.026667
-2.191910 45.645100 0.027128
-1.876560 45.645100 0.027838
-1.561210 45.645100 0.027653
-1.245860 45.645100 0.026671
-0.930510 45.645100 0.025539
-0.615160 45.645100 0.025029
-0.299810 45.645100 0.025534
0.015540 45.645100 0.025765
0.330890 45.645100 0.024929
0.646240 45.645100 0.024392
0.961589 45.645100 0.024775
1.276940 45.645100 0.024986
1.592289 45.645100 0.025262
1.907640 45.645100 0.025081
2.222990 45.645100 0.024525
2.538340 45.645100 0.024963
2.853690 45.645100 0.025920
3.169039 45.645100 0.025680
3.484390 45.645100 0.025491
3.799739 45.645100 0.025770
4.115090 45.645100 0.025943
4.430439 45.645100 0.026209
4.745790 45.645100 0.026436
5.061140 45.645100 0.028169
5.376490 45.645100 0.029886
5.691840 45.645100 0.031169
6.007189 45.645100 0.032436
6.322540 45.645100 0.034549
6.637889 45.645100 0.037351
6.953240 45.645100 0.041073
7.268589 45.645100 0.047139
7.583940 45.645100 0.056129
7.899290 45.645100 0.070652
8.214640 45.645100 0.097129
8.529989 45.645100 0.143912
8.845339 45.645100 0.207995
9.160688 45.645100 0.284283
9.476040 45.645100 0.432524
9.791389 45.645100 0.585892
10.106739 45.645100 0.805010
10.422089 45.645100 1.002195
10.737438 45.645100 1.358737
11.052790 45.645100 1.525728
11.368139 45.645100 1.792460
11.683489 45.645100 2.105858
11.998838 45.645100 2.450212
12.314190 45.645100 2.815745
12.629539 45.645100 2.985038
12.944889 45.645100 3.129324
13.260239 45.645100 3.318468
13.575588 45.645100 3.520920
13.890940 45.645100 3.785184
14.206289 45.645100 4.045323
14.521639 45.645100 4.483363
14.836988 45.645100 5.591910
15.152340 45.645100 7.192942
15.467690 45.645100 10.644168
15.783039 45.645100 17.824957
16.098389 45.645100 40.608009
16.413738 45.645100 89.288261
16.729090 45.645100 24.374949
17.044439 45.645100 0.000000
17.359789 45.645100 0.000000
17.675138 45.645100 0.000000
17.990490 45.645100 26.349190
18.305840 45.645100 94.523071
18.621189 45.645100 81.795029
18.936539 45.645100 90.570160
19.251888 45.645100 0.000000
-7.237510 45.329750 0.000000
-6.922160 45.329750 0.000000
-6.606810 45.329750 0.041341
-6.291460 45.329750 0.032737
-5.976110 45.329750 0.031438
-5.660760 45.329750 0.031149
-5.345410 45.329750 0.030511
-5.030060 45.329750 0.030167
-4.714710 45.329750 0.029312
-4.399360 45.329750 0.028880
-4.084010 45.329750 0.028251
-3.768660 45.329750 0.027561
-3.453310 45.329750 0.027293
-3.137960 45.329750 0.027250
-2.822610 45.329750 0.026468
-2.507260 45.329750 0.025998
-2.191910 45.329750 0.026122
-1.876560 45.329750 0.026908
-1.561210 45.329750 0.026889
-1.245860 45.329750 0.026243
-0.930510 45.329750 0.025246
-0.615160 45.329750 0.024957
-0.299810 45.329750 0.025281
0.015540 45.329750 0.025473
0.330890 45.329750 0.024867
0.646240 45.329750 0.024606
0.961589 45.329750 0.024783
1.276940 45.329750 0.024548
1.592289 45.329750 0.024722
1.907640 45.329750 0.024490
2.222990 45.329750 0.024236
2.538340 45.329750 0.024765
2.853690 45.329750 0.025573
3.169039 45.329750 0.025976
3.484390 45.329750 0.025469
3.799739 45.329750 0.025462
4.115090 45.329750 0.025861
4.430439 45.329750 0.026173
4.745790 45.329750 0.026594
5.061140 45.329750 0.027736
5.376490 45.329750 0.029097
5.691840 45.329750 0.030453
6.007189 45.329750 0.031903
6.322540 45.329750 0.034338
6.637889 45.329750 0.037319
6.953240 45.329750 0.041314
7.268589 45.329750 0.047600
7.583940 45.329750 0.056839
7.899290 45.329750 0.069356
8.214640 45.329750 0.096274
8.529989 45.329750 0.142797
8.845339 45.329750 0.204567
9.160688 45.329750 0.304717
9.476040 45.329750 0.459788
9.791389 45.329750 0.599911
10.106739 45.329750 0.815779
10.422089 45.329750 1.036377
10.737438 45.329750 1.274318
11.052790 45.329750 1.563735
11.368139 45.329750 1.813082
11.683489 45.329750 2.158250
11.998838 45.329750 2.481921
12.314190 45.329750 2.716580
12.629539 45.329750 2.930755
12.944889 45.329750 3.131770
13.260239 45.329750 3.313909
13.575588 45.329750 3.518755
13.890940 45.329750 3.850544
14.206289 45.329750 4.351306
14.521639 45.329750 4.680835
14.836988 45.329750 5.687013
15.152340 45.329750 7.850876
15.467690 45.329750 11.150672
15.783039 45.329750 17.228596
16.098389 45.329750 37.819538
16.413738 45.329750 0.000000
16.729090 45.329750 0.000000
17.044439 45.329750 0.000000
17.359789 45.329750 0.000000
17.675138 45.329750 0.000000
17.990490 45.329750 0.000000
18.305840 45.329750 65.649551
18.621189 45.329750 82.633720
18.936539 45.329750 114.970261
19.251888 45.329750 0.000000
-7.237510 45.014400 0.000000
-6.922160 45.014400 0.000000
-6.606810 45.014400 0.040731
-6.291460 45.014400 0.032299
-5.976110 45.014400 0.030964
-5.660760 45.014400 0.030684
-5.345410 45.014400 0.029607
-5.030060 45.014400 0.029233
-4.714710 45.014400 0.028712
-4.399360 45.014400 0.028442
-4.084010 45.014400 0.027619
-3.768660 45.014400 0.027239
-3.453310 45.014400 0.026982
-3.137960 45.014400 0.026587
-2.822610 45.014400 0.025703
-2.507260 45.014400 0.025069
-2.191910 45.014400 0.024779
-1.876560 45.014400 0.025819
-1.561210 45.014400 0.026121
-1.245860 45.014400 0.025559
-0.930510 45.014400 0.024986
-0.615160 45.014400 0.024657
-0.299810 45.014400 0.025083
0.015540 45.014400 0.025396
0.330890 45.014400 0.024851
0.646240 45.014400 0.024708
0.961589 45.014400 0.024851
1.276940 45.014400 0.024782
1.592289 45.014400 0.024645
1.907640 45.014400 0.024212
2.222990 45.014400 0.024197
2.538340 45.014400 0.024598
2.853690 45.014400 0.025185
3.169039 45.014400 0.025709
3.484390 45.014400 0.025257
3.799739 45.014400 0.025532
4.115090 45.014400 0.026087
4.430439 45.014400 0.026525
4.745790 45.014400 0.026919
5.061140 45.014400 0.027617
5.376490 45.014400 0.028323
5.691840 45.014400 0.029287
6.007189 45.014400 0.031241
6.322540 45.014400 0.033649
6.637889 45.014400 0.036444
6.953240 45.014400 0.040424
7.268589 45.014400 0.047043
7.583940 45.014400 0.055563
7.899290 45.014400 0.069268
8.214640 45.014400 0.094405
8.529989 45.014400 0.145069
8.845339 45.014400 0.210885
9.160688 45.014400 0.309186
9.476040 45.014400 0.442675
9.791389 45.014400 0.601011
10.106739 45.014400 0.823641
10.422089 45.014400 1.030738
10.737438 45.014400 1.296305
11.052790 45.014400 1.539107
11.368139 45.014400 1.819137
11.683489 45.014400 2.162723
11.998838 45.014400 2.483247
12.314190 45.014400 2.770644
12.629539 45.014400 2.965815
12.944889 45.014400 3.178053
13.260239 45.014400 3.337777
13.575588 45.014400 3.508813
13.890940 45.014400 3.785807
14.206289 45.014400 4.250555
14.521639 45.014400 4.707074
14.836988 45.014400 5.848468
15.152340 45.014400 7.610114
15.467690 45.014400 11.143809
15.783039 45.014400 16.694908
16.098389 45.014400 36.543385
16.413738 45.014400 0.000000
16.729090 45.014400 0.000000
17.044439 45.014400 0.000000
17.359789 45.014400 0.000000
17.675138 45.014400 0.000000
17.990490 45.014400 0.000000
18.305840 45.014400 94.940422
18.621189 45.014400 114.348007
18.936539 45.014400 167.629929
19.251888 45.014400 0.000000
-7.237510 44.699051 0.000000
-6.922160 44.699051 0.000000
-6.606810 44.699051 0.040806
-6.291460 44.699051 0.032635
-5.976110 44.699051 0.031547
-5.660760 44.699051 0.030527
-5.345410 44.699051 0.029162
-5.030060 44.699051 0.028582
-4.714710 44.699051 0.028279
-4.399360 44.699051 0.027871
-4.084010 44.699051 0.027282
-3.768660 44.699051 0.026904
-3.453310 44.699051 0.026446
-3.137960 44.699051 0.025808
-2.822610 44.699051 0.024809
-2.507260 44.699051 0.024226
-2.191910 44.699051 0.024147
-1.876560 44.699051 0.024974
-1.561210 44.699051 0.025458
-1.245860 44.699051 0.024848
-0.930510 44.699051 0.024227
-0.615160 44.699051 0.024401
-0.299810 44.699051 0.024819
0.015540 44.699051 0.024966
0.330890 44.699051 0.024349
0.646240 44.699051 0.024155
0.961589 44.699051 0.025049
1.276940 44.699051 0.024919
1.592289 44.699051 0.024826
1.907640 44.699051 0.024416
2.222990 44.699051 0.024522
2.538340 44.699051 0.024850
2.853690 44.699051 0.025089
3.169039 44.699051 0.025337
3.484390 44.699051 0.025129
3.799739 44.699051 0.025826
4.115090 44.699051 0.026280
4.430439 44.699051 0.026672
4.745790 44.699051 0.027083
5.061140 44.699051 0.027269
5.376490 44.699051 0.027954
5.691840 44.699051 0.028620
6.007189 44.699051 0.030310
6.322540 44.699051 0.032522
6.637889 44.699051 0.035065
6.953240 44.699051 0.039195
7.268589 44.699051 0.045234
7.583940 44.699051 0.053893
7.899290 44.699051 0.070904
8.214640 44.699051 0.095175
8.529989 44.699051 0.140627
8.845339 44.699051 0.207707
9.160688 44.699051 0.302062
9.476040 44.699051 0.456341
9.791389 44.699051 0.612374
10.106739 44.699051 0.826215
10.422089 44.699051 1.050542
10.737438 44.699051 1.324712
11.052790 44.699051 1.575891
11.368139 44.699051 1.882530
11.683489 44.699051 2.224383
11.998838 44.699051 2.474282
12.314190 44.699051 2.919115
12.629539 44.699051 3.067556
12.944889 44.699051 3.266880
13.260239 44.699051 3.416606
13.575588 44.699051 3.600625
13.890940 44.699051 3.883935
14.206289 44.699051 4.022842
14.521639 44.699051 4.537285
14.836988 44.699051 5.584168
15.152340 44.699051 7.807940
15.467690 44.699051 10.555916
15.783039 44.699051 15.289969
16.098389 44.699051 45.775593
16.413738 44.699051 0.000000
16.729090 44.699051 0.000000
17.044439 44.699051 0.000000
17.359789 44.699051 0.000000
17.675138 44.699051 0.000000
17.990490 44.699051 0.000000
18.305840 44.699051 0.000000
18.621189 44.699051 53.261635
18.936539 44.699051 0.000000
19.251888 44.699051 0.000000
-7.237510 44.383701 0.000000
-6.922160 44.383701 0.000000
-6.606810 44.383701 0.040254
-6.291460 44.383701 0.032835
-5.976110 44.383701 0.031775
-5.660760 44.383701 0.030497
-5.345410 44.383701 0.028832
-5.030060 44.383701 0.028375
-4.714710 44.383701 0.028065
-4.399360 44.383701 0.027438
-4.084010 44.383701 0.027185
-3.768660 44.383701 0.026781
-3.453310 44.383701 0.025780
-3.137960 44.383701 0.025221
-2.822610 44.383701 0.024214
-2.507260 44.383701 0.023752
-2.191910 44.383701 0.023831
-1.876560 44.383701 0.024236
-1.561210 44.383701 0.024498
-1.245860 44.383701 0.024313
-0.930510 44.383701 0.023747
-0.615160 44.383701 0.023803
-0.299810 44.383701 0.024399
0.015540 44.383701 0.024348
0.330890 44.383701 0.023654
0.646240 44.383701 0.023615
0.961589 44.383701 0.024660
1.276940 44.383701 0.024504
1.592289 44.383701 0.024642
1.907640 44.383701 0.024674
2.222990 44.383701 0.025039
2.538340 44.383701 0.025104
2.853690 44.383701 0.025240
3.169039 44.383701 0.025287
3.484390 44.383701 0.025178
3.799739 44.383701 0.026114
4.115090 44.383701 0.026370
4.430439 44.383701 0.026279
4.745790 44.383701 0.026523
5.061140 44.383701 0.027162
5.376490 44.383701 0.027730
5.691840 44.383701 0.028334
6.007189 44.383701 0.029622
6.322540 44.383701 0.031767
6.637889 44.383701 0.034351
6.953240 44.383701 0.038241
7.268589 44.383701 0.044414
7.583940 44.383701 0.052709
7.899290 44.383701 0.070337
8.214640 44.383701 0.096329
8.529989 44.383701 0.140307
8.845339 44.383701 0.200172
9.160688 44.383701 0.309906
9.476040 44.383701 0.451836
9.791389 44.383701 0.630461
10.106739 44.383701 0.815909
10.422089 44.383701 1.068193
10.737438 44.383701 1.337343
11.052790 44.383701 1.552907
11.368139 44.383701 1.901382
11.683489 44.383701 2.257057
11.998838 44.383701 2.539173
12.314190 44.383701 2.873511
12.629539 44.383701 3.114940
12.944889 44.383701 3.286477
13.260239 44.383701 3.668575
13.575588 44.383701 3.805006
13.890940 44.383701 3.820062
14.206289 44.383701 3.927055
14.521639 44.383701 4.589236
14.836988 44.383701 5.612050
15.152340 44.383701 7.262578
15.467690 44.383701 9.424674
15.783039 44.383701 12.699765
16.098389 44.383701 48.728745
16.413738 44.383701 0.000000
16.729090 44.383701 0.000000
17.044439 44.383701 0.000000
17.359789 44.383701 0.000000
17.675138 44.383701 0.000000
17.990490 44.383701 0.000000
18.305840 44.383701 0.000000
18.621189 44.383701 0.000000
18.936539 44.383701 0.000000
19.251888 44.383701 0.000000
-7.237510 44.068352 0.000000
-6.922160 44.068352 0.000000
-6.606810 44.068352 0.038101
-6.291460 44.068352 0.031012
-5.976110 44.068352 0.030561
-5.660760 44.068352 0.029312
-5.345410 44.068352 0.028164
-5.030060 44.068352 0.027531
-4.714710 44.068352 0.027451
-4.399360 44.068352 0.027088
-4.084010 44.068352 0.026981
-3.768660 44.068352 0.026686
-3.453310 44.068352 0.025830
-3.137960 44.068352 0.025160
-2.822610 44.068352 0.023984
-2.507260 44.068352 0.023665
-2.191910 44.068352 0.023589
-1.876560 44.068352 0.023515
-1.561210 44.068352 0.023704
-1.245860 44.068352 0.023807
-0.930510 44.068352 0.023407
-0.615160 44.068352 0.023447
-0.299810 44.068352 0.024094
0.015540 44.068352 0.024028
0.330890 44.068352 0.023367
0.646240 44.068352 0.023197
0.961589 44.068352 0.023794
1.276940 44.068352 0.023496
1.592289 44.068352 0.024038
1.907640 44.068352 0.024506
2.222990 44.068352 0.024701
2.538340 44.068352 0.024986
2.853690 44.068352 0.025489
3.169039 44.068352 0.025356
3.484390 44.068352 0.025085
3.799739 44.068352 0.026007
4.115090 44.068352 0.026232
4.430439 44.068352 0.025921
4.745790 44.068352 0.025882
5.061140 44.068352 0.026786
5.376490 44.068352 0.027616
5.691840 44.068352 0.028324
6.007189 44.068352 0.029486
6.322540 44.068352 0.031969
6.637889 44.068352 0.034551
6.953240 44.068352 0.038421
7.268589 44.068352 0.043057
7.583940 44.068352 0.052704
7.899290 44.068352 0.070348
8.214640 44.068352 0.096897
8.529989 44.068352 0.139025
8.845339 44.068352 0.202735
9.160688 44.068352 0.311982
9.476040 44.068352 0.433780
9.791389 44.068352 0.606188
10.106739 44.068352 0.802721
10.422089 44.068352 1.037132
10.737438 44.068352 1.307887
11.052790 44.068352 1.592605
11.368139 44.068352 1.990186
11.683489 44.068352 2.194454
11.998838 44.068352 2.526150
12.314190 44.068352 2.704207
12.629539 44.068352 2.959141
12.944889 44.068352 3.258658
13.260239 44.068352 3.663995
13.575588 44.068352 3.854994
13.890940 44.068352 3.893704
14.206289 44.068352 3.911741
14.521639 44.068352 4.594994
14.836988 44.068352 5.647053
15.152340 44.068352 6.592290
15.467690 44.068352 8.125396
15.783039 44.068352 11.439627
16.098389 44.068352 0.000000
16.413738 44.068352 0.000000
16.729090 44.068352 0.000000
17.044439 44.068352 0.000000
17.359789 44.068352 0.000000
17.675138 44.068352 0.000000
17.990490 44.068352 0.000000
18.305840 44.068352 0.000000
18.621189 44.068352 0.000000
18.936539 44.068352 0.000000
19.251888 44.068352 0.000000
-7.237510 43.753002 0.000000
-6.922160 43.753002 0.000000
-6.606810 43.753002 0.035946
-6.291460 43.753002 0.028667
-5.976110 43.753002 0.028506
-5.660760 43.753002 0.027913
-5.345410 43.753002 0.026908
-5.030060 43.753002 0.026648
-4.714710 43.753002 0.026550
-4.399360 43.753002 0.026168
-4.084010 43.753002 0.026268
-3.768660 43.753002 0.026287
-3.453310 43.753002 0.026041
-3.137960 43.753002 0.025439
-2.822610 43.753002 0.024196
-2.507260 43.753002 0.023421
-2.191910 43.753002 0.023349
-1.876560 43.753002 0.023189
-1.561210 43.753002 0.023156
-1.245860 43.753002 0.023306
-0.930510 43.753002 0.023003
-0.615160 43.753002 0.023175
-0.299810 43.753002 0.023766
0.015540 43.753002 0.023701
0.330890 43.753002 0.023302
0.646240 43.753002 0.023067
0.961589 43.753002 0.023229
1.276940 43.753002 0.022972
1.592289 43.753002 0.023110
1.907640 43.753002 0.023849
2.222990 43.753002 0.024022
2.538340 43.753002 0.024417
2.853690 43.753002 0.025378
3.169039 43.753002 0.025206
3.484390 43.753002 0.025232
3.799739 43.753002 0.025621
4.115090 43.753002 0.026221
4.430439 43.753002 0.025966
4.745790 43.753002 0.025936
5.061140 43.753002 0.026763
5.376490 43.753002 0.027798
5.691840 43.753002 0.028381
6.007189 43.753002 0.029876
6.322540 43.753002 0.032022
6.637889 43.753002 0.034953
6.953240 43.753002 0.038978
7.268589 43.753002 0.043427
7.583940 43.753002 0.052697
7.899290 43.753002 0.069938
8.214640 43.753002 0.094843
8.529989 43.753002 0.134399
8.845339 43.753002 0.196116
9.160688 43.753002 0.302437
9.476040 43.753002 0.436403
9.791389 43.753002 0.591832
10.106739 43.753002 0.757499
10.422089 43.753002 1.020678
10.737438 43.753002 1.315266
11.052790 43.753002 1.633558
11.368139 43.753002 2.029886
11.683489 43.753002 2.233308
11.998838 43.753002 2.515059
12.314190 43.753002 2.779524
12.629539 43.753002 2.992917
12.944889 43.753002 3.262508
13.260239 43.753002 3.533667
13.575588 43.753002 3.760306
13.890940 43.753002 3.798202
14.206289 43.753002 4.070621
14.521639 43.753002 4.696277
14.836988 43.753002 5.651609
15.152340 43.753002 6.162031
15.467690 43.753002 7.778540
15.783039 43.753002 9.979332
16.098389 43.753002 0.000000
16.413738 43.753002 0.000000
16.729090 43.753002 0.000000
17.044439 43.753002 0.000000
17.359789 43.753002 0.000000
17.675138 43.753002 0.000000
17.990490 43.753002 0.000000
18.305840 43.753002 0.000000
18.621189 43.753002 0.000000
18.936539 43.753002 0.000000
19.251888 43.753002 0.000000
-7.237510 43.437653 0.000000
-6.922160 43.437653 0.000000
-6.606810 43.437653 0.034132
-6.291460 43.437653 0.027295
-5.976110 43.437653 0.026842
-5.660760 43.437653 0.026681
-5.345410 43.437653 0.025928
-5.030060 43.437653 0.025582
-4.714710 43.437653 0.025158
-4.399360 43.437653 0.024825
-4.084010 43.437653 0.025178
-3.768660 43.437653 0.025357
-3.453310 43.437653 0.025833
-3.137960 43.437653 0.025454
-2.822610 43.437653 0.024273
-2.507260 43.437653 0.023476
-2.191910 43.437653 0.023142
-1.876560 43.437653 0.022997
-1.561210 43.437653 0.022734
-1.245860 43.437653 0.022592
-0.930510 43.437653 0.022571
-0.615160 43.437653 0.022678
-0.299810 43.437653 0.023088
0.015540 43.437653 0.023131
0.330890 43.437653 0.022976
0.646240 43.437653 0.022681
0.961589 43.437653 0.023003
1.276940 43.437653 0.023259
1.592289 43.437653 0.022947
1.907640 43.437653 0.023292
2.222990 43.437653 0.023396
2.538340 43.437653 0.023701
2.853690 43.437653 0.024782
3.169039 43.437653 0.025081
3.484390 43.437653 0.025070
3.799739 43.437653 0.025517
4.115090 43.437653 0.026252
4.430439 43.437653 0.026112
4.745790 43.437653 0.026555
5.061140 43.437653 0.027430
5.376490 43.437653 0.028036
5.691840 43.437653 0.028846
6.007189 43.437653 0.030174
6.322540 43.437653 0.031970
6.637889 43.437653 0.034702
6.953240 43.437653 0.039128
7.268589 43.437653 0.044176
7.583940 43.437653 0.052832
7.899290 43.437653 0.069616
8.214640 43.437653 0.091456
8.529989 43.437653 0.130894
8.845339 43.437653 0.194163
9.160688 43.437653 0.303330
9.476040 43.437653 0.436768
9.791389 43.437653 0.587609
10.106739 43.437653 0.759629
10.422089 43.437653 0.981961
10.737438 43.437653 1.315312
11.052790 43.437653 1.659778
11.368139 43.437653 1.968232
11.683489 43.437653 2.239991
11.998838 43.437653 2.527041
12.314190 43.437653 2.742321
12.629539 43.437653 2.921324
12.944889 43.437653 3.208543
13.260239 43.437653 3.572090
13.575588 43.437653 3.700879
13.890940 43.437653 3.843073
14.206289 43.437653 4.117228
14.521639 43.437653 4.690636
14.836988 43.437653 5.705204
15.152340 43.437653 6.297483
15.467690 43.437653 7.330249
15.783039 43.437653 9.193970
16.098389 43.437653 0.000000
16.413738 43.437653 0.000000
16.729090 43.437653 0.000000
17.044439 43.437653 0.000000
17.359789 43.437653 0.000000
17.675138 43.437653 0.000000
17.990490 43.437653 0.000000
18.305840 43.437653 0.000000
18.621189 43.437653 0.000000
18.936539 43.437653 0.000000
19.251888 43.437653 0.000000
-7.237510 43.122299 0.000000
-6.922160 43.122299 0.000000
-6.606810 43.122299 0.032939
-6.291460 43.122299 0.026702
-5.976110 43.122299 0.026057
-5.660760 43.122299 0.026029
-5.345410 43.122299 0.025358
-5.030060 43.122299 0.024914
-4.714710 43.122299 0.024615
-4.399360 43.122299 0.024228
-4.084010 43.122299 0.024005
-3.768660 43.122299 0.024130
-3.453310 43.122299 0.024789
-3.137960 43.122299 0.024511
-2.822610 43.122299 0.023654
-2.507260 43.122299 0.023409
-2.191910 43.122299 0.023039
-1.876560 43.122299 0.022818
-1.561210 43.122299 0.022706
-1.245860 43.122299 0.022119
-0.930510 43.122299 0.021980
-0.615160 43.122299 0.022324
-0.299810 43.122299 0.022274
0.015540 43.122299 0.022342
0.330890 43.122299 0.022601
0.646240 43.122299 0.022124
0.961589 43.122299 0.022898
1.276940 43.122299 0.023485
1.592289 43.122299 0.023219
1.907640 43.122299 0.022904
2.222990 43.122299 0.023210
2.538340 43.122299 0.023321
2.853690 43.122299 0.024202
3.169039 43.122299 0.024595
3.484390 43.122299 0.024693
3.799739 43.122299 0.025578
4.115090 43.122299 0.026175
4.430439 43.122299 0.026396
4.745790 43.122299 0.027279
5.061140 43.122299 0.028101
5.376490 43.122299 0.028832
5.691840 43.122299 0.029505
6.007189 43.122299 0.030652
6.322540 43.122299 0.032269
6.637889 43.122299 0.034287
6.953240 43.122299 0.038632
7.268589 43.122299 0.044594
7.583940 43.122299 0.053330
7.899290 43.122299 0.069080
8.214640 43.122299 0.089094
8.529989 43.122299 0.134919
8.845339 43.122299 0.206127
9.160688 43.122299 0.292828
9.476040 43.122299 0.423481
9.791389 43.122299 0.557192
10.106739 43.122299 0.739085
10.422089 43.122299 0.987401
10.737438 43.122299 1.266495
11.052790 43.122299 1.603127
11.368139 43.122299 1.915316
11.683489 43.122299 2.325254
11.998838 43.122299 2.530152
12.314190 43.122299 2.701130
12.629539 43.122299 2.934624
12.944889 43.122299 3.267639
13.260239 43.122299 3.713298
13.575588 43.122299 3.833955
13.890940 43.122299 3.771694
14.206289 43.122299 4.128542
14.521639 43.122299 4.671674
14.836988 43.122299 5.285475
15.152340 43.122299 6.284915
15.467690 43.122299 7.127997
15.783039 43.122299 9.296557
16.098389 43.122299 0.000000
16.413738 43.122299 0.000000
16.729090 43.122299 0.000000
17.044439 43.122299 0.000000
17.359789 43.122299 0.000000
17.675138 43.122299 0.000000
17.990490 43.122299 0.000000
18.305840 43.122299 0.000000
18.621189 43.122299 0.000000
18.936539 43.122299 0.000000
19.251888 43.122299 0.000000
-7.237510 42.806950 0.000000
-6.922160 42.806950 0.000000
-6.606810 42.806950 0.032128
-6.291460 42.806950 0.026221
-5.976110 42.806950 0.025717
-5.660760 42.806950 0.025434
-5.345410 42.806950 0.024815
-5.030060 42.806950 0.024655
-4.714710 42.806950 0.024611
-4.399360 42.806950 0.024204
-4.084010 42.806950 0.023443
-3.768660 42.806950 0.023105
-3.453310 42.806950 0.023585
-3.137960 42.806950 0.023273
-2.822610 42.806950 0.022954
-2.507260 42.806950 0.023197
-2.191910 42.806950 0.022567
-1.876560 42.806950 0.022671
-1.561210 42.806950 0.022745
-1.245860 42.806950 0.022163
-0.930510 42.806950 0.021633
-0.615160 42.806950 0.022305
-0.299810 42.806950 0.022176
0.015540 42.806950 0.021928
0.330890 42.806950 0.022039
0.646240 42.806950 0.021614
0.961589 42.806950 0.022565
1.276940 42.806950 0.023278
1.592289 42.806950 0.023123
1.907640 42.806950 0.022741
2.222990 42.806950 0.023085
2.538340 42.806950 0.023169
2.853690 42.806950 0.023884
3.169039 42.806950 0.024150
3.484390 42.806950 0.024369
3.799739 42.806950 0.025430
4.115090 42.806950 0.025945
4.430439 42.806950 0.026466
4.745790 42.806950 0.027655
5.061140 42.806950 0.028436
5.376490 42.806950 0.029114
5.691840 42.806950 0.029954
6.007189 42.806950 0.031056
6.322540 42.806950 0.032702
6.637889 42.806950 0.034737
6.953240 42.806950 0.038168
7.268589 42.806950 0.044366
7.583940 42.806950 0.052733
7.899290 42.806950 0.066398
8.214640 42.806950 0.088750
8.529989 42.806950 0.138427
8.845339 42.806950 0.209562
9.160688 42.806950 0.293673
9.476040 42.806950 0.404805
9.791389 42.806950 0.551244
10.106739 42.806950 0.735241
10.422089 42.806950 0.968068
10.737438 42.806950 1.216818
11.052790 42.806950 1.537426
11.368139 42.806950 1.899792
11.683489 42.806950 2.129488
11.998838 42.806950 2.419185
12.314190 42.806950 2.709925
12.629539 42.806950 2.990480
12.944889 42.806950 3.244844
13.260239 42.806950 3.528650
13.575588 42.806950 3.778102
13.890940 42.806950 3.816519
14.206289 42.806950 4.019032
14.521639 42.806950 4.626819
14.836988 42.806950 5.124251
15.152340 42.806950 6.048547
15.467690 42.806950 6.771961
15.783039 42.806950 9.206626
16.098389 42.806950 0.000000
16.413738 42.806950 0.000000
16.729090 42.806950 0.000000
17.044439 42.806950 0.000000
17.359789 42.806950 0.000000
17.675138 42.806950 0.000000
17.990490 42.806950 0.000000
18.305840 42.806950 0.000000
18.621189 42.806950 0.000000
18.936539 42.806950 0.000000
19.251888 42.806950 0.000000
-7.237510 42.491600 0.000000
-6.922160 42.491600 0.000000
-6.606810 42.491600 0.031400
-6.291460 42.491600 0.025490
-5.976110 42.491600 0.025083
-5.660760 42.491600 0.024774
-5.345410 42.491600 0.024132
-5.030060 42.491600 0.024453
-4.714710 42.491600 0.024680
-4.399360 42.491600 0.024342
-4.084010 42.491600 0.023344
-3.768660 42.491600 0.022413
-3.453310 42.491600 0.022582
-3.137960 42.491600 0.022441
-2.822610 42.491600 0.022321
-2.507260 42.491600 0.022535
-2.191910 42.491600 0.022020
-1.876560 42.491600 0.022308
-1.561210 42.491600 0.022624
-1.245860 42.491600 0.021924
-0.930510 42.491600 0.021540
-0.615160 42.491600 0.022444
-0.299810 42.491600 0.022397
0.015540 42.491600 0.022017
0.330890 42.491600 0.021594
0.646240 42.491600 0.021159
0.961589 42.491600 0.021932
1.276940 42.491600 0.022537
1.592289 42.491600 0.022535
1.907640 42.491600 0.022673
2.222990 42.491600 0.022718
2.538340 42.491600 0.022895
2.853690 42.491600 0.023738
3.169039 42.491600 0.024131
3.484390 42.491600 0.024093
3.799739 42.491600 0.025602
4.115090 42.491600 0.025708
4.430439 42.491600 0.026037
4.745790 42.491600 0.027443
5.061140 42.491600 0.028025
5.376490 42.491600 0.028852
5.691840 42.491600 0.029815
6.007189 42.491600 0.031149
6.322540 42.491600 0.033039
6.637889 42.491600 0.035278
6.953240 42.491600 0.038740
7.268589 42.491600 0.044386
7.583940 42.491600 0.053038
7.899290 42.491600 0.067264
8.214640 42.491600 0.089327
8.529989 42.491600 0.136144
8.845339 42.491600 0.197176
9.160688 42.491600 0.291746
9.476040 42.491600 0.407125
9.791389 42.491600 0.569428
10.106739 42.491600 0.736356
10.422089 42.491600 0.986429
10.737438 42.491600 1.248750
11.052790 42.491600 1.520069
11.368139 42.491600 1.847991
11.683489 42.491600 2.150082
11.998838 42.491600 2.351252
12.314190 42.491600 2.626373
12.629539 42.491600 2.947176
12.944889 42.491600 3.175537
13.260239 42.491600 3.572582
13.575588 42.491600 3.744988
13.890940 42.491600 3.713984
14.206289 42.491600 3.998285
14.521639 42.491600 4.575417
14.836988 42.491600 5.218894
15.152340 42.491600 5.995123
15.467690 42.491600 6.843265
15.783039 42.491600 8.832349
16.098389 42.491600 0.000000
16.413738 42.491600 0.000000
16.729090 42.491600 0.000000
17.044439 42.491600 0.000000
17.359789 42.491600 0.000000
17.675138 42.491600 0.000000
17.990490 42.491600 0.000000
18.305840 42.491600 0.000000
18.621189 42.491600 0.000000
18.936539 42.491600 0.000000
19.251888 42.491600 0.000000
-7.237510 42.176250 0.000000
-6.922160 42.176250 0.000000
-6.606810 42.176250 0.030989
-6.291460 42.176250 0.024810
-5.976110 42.176250 0.024285
-5.660760 42.176250 0.023995
-5.345410 42.176250 0.023394
-5.030060 42.176250 0.023837
-4.714710 42.176250 0.024077
-4.399360 42.176250 0.024171
-4.084010 42.176250 0.023045
-3.768660 42.176250 0.022175
-3.453310 42.176250 0.022242
-3.137960 42.176250 0.021925
-2.822610 42.176250 0.021652
-2.507260 42.176250 0.021488
-2.191910 42.176250 0.021656
-1.876560 42.176250 0.021853
-1.561210 42.176250 0.021817
-1.245860 42.176250 0.021661
-0.930510 42.176250 0.021525
-0.615160 42.176250 0.022069
-0.299810 42.176250 0.022395
0.015540 42.176250 0.021905
0.330890 42.176250 0.021436
0.646240 42.176250 0.020836
0.961589 42.176250 0.021337
1.276940 42.176250 0.021789
1.592289 42.176250 0.021952
1.907640 42.176250 0.022509
2.222990 42.176250 0.022435
2.538340 42.176250 0.022607
2.853690 42.176250 0.023531
3.169039 42.176250 0.023995
3.484390 42.176250 0.023972
3.799739 42.176250 0.025107
4.115090 42.176250 0.025331
4.430439 42.176250 0.025470
4.745790 42.176250 0.026713
5.061140 42.176250 0.027241
5.376490 42.176250 0.028341
5.691840 42.176250 0.029802
6.007189 42.176250 0.031336
6.322540 42.176250 0.033195
6.637889 42.176250 0.035894
6.953240 42.176250 0.039449
7.268589 42.176250 0.045343
7.583940 42.176250 0.053016
7.899290 42.176250 0.065883
8.214640 42.176250 0.091280
8.529989 42.176250 0.134264
8.845339 42.176250 0.197715
9.160688 42.176250 0.290890
9.476040 42.176250 0.411574
9.791389 42.176250 0.570963
10.106739 42.176250 0.764265
10.422089 42.176250 0.946760
10.737438 42.176250 1.298666
11.052790 42.176250 1.557543
11.368139 42.176250 1.837097
11.683489 42.176250 2.104767
11.998838 42.176250 2.407741
12.314190 42.176250 2.710923
12.629539 42.176250 2.942995
12.944889 42.176250 3.315328
13.260239 42.176250 3.589678
13.575588 42.176250 3.839907
13.890940 42.176250 3.958710
14.206289 42.176250 4.273755
14.521639 42.176250 4.491310
14.836988 42.176250 5.193325
15.152340 42.176250 5.987627
15.467690 42.176250 7.537511
15.783039 42.176250 9.302276
16.098389 42.176250 0.000000
16.413738 42.176250 0.000000
16.729090 42.176250 0.000000
17.044439 42.176250 0.000000
17.359789 42.176250 0.000000
17.675138 42.176250 0.000000
17.990490 42.176250 0.000000
18.305840 42.176250 0.000000
18.621189 42.176250 0.000000
18.936539 42.176250 0.000000
19.251888 42.176250 0.000000
-7.237510 41.860901 0.000000
-6.922160 41.860901 0.000000
-6.606810 41.860901 0.030053
-6.291460 41.860901 0.024450
-5.976110 41.860901 0.024006
-5.660760 41.860901 0.023446
-5.345410 41.860901 0.022678
-5.030060 41.860901 0.022632
-4.714710 41.860901 0.023070
-4.399360 41.860901 0.023172
-4.084010 41.860901 0.022509
-3.768660 41.860901 0.021895
-3.453310 41.860901 0.021774
-3.137960 41.860901 0.021386
-2.822610 41.860901 0.021111
-2.507260 41.860901 0.020807
-2.191910 41.860901 0.021109
-1.876560 41.860901 0.021307
-1.561210 41.860901 0.021032
-1.245860 41.860901 0.021267
-0.930510 41.860901 0.021203
-0.615160 41.860901 0.021367
-0.299810 41.860901 0.021637
0.015540 41.860901 0.021563
0.330890 41.860901 0.021279
0.646240 41.860901 0.020918
0.961589 41.860901 0.021154
1.276940 41.860901 0.021456
1.592289 41.860901 0.021751
1.907640 41.860901 0.022301
2.222990 41.860901 0.022067
2.538340 41.860901 0.022328
2.853690 41.860901 0.023326
3.169039 41.860901 0.023899
3.484390 41.860901 0.023737
3.799739 41.860901 0.024613
4.115090 41.860901 0.024822
4.430439 41.860901 0.024896
4.745790 41.860901 0.026252
5.061140 41.860901 0.026860
5.376490 41.860901 0.027994
5.691840 41.860901 0.029730
6.007189 41.860901 0.031218
6.322540 41.860901 0.032782
6.637889 41.860901 0.035568
6.953240 41.860901 0.039497
7.268589 41.860901 0.044417
7.583940 41.860901 0.052175
7.899290 41.860901 0.066244
8.214640 41.860901 0.094680
8.529989 41.860901 0.134362
8.845339 41.860901 0.197870
9.160688 41.860901 0.306304
9.476040 41.860901 0.410462
9.791389 41.860901 0.600422
10.106739 41.860901 0.764859
10.422089 41.860901 1.022466
10.737438 41.860901 1.309146
11.052790 41.860901 1.565501
11.368139 41.860901 1.890968
11.683489 41.860901 2.034975
11.998838 41.860901 2.343856
12.314190 41.860901 2.780107
12.629539 41.860901 2.997126
12.944889 41.860901 3.349705
13.260239 41.860901 3.677043
13.575588 41.860901 3.840425
13.890940 41.860901 3.950751
14.206289 41.860901 4.110940
14.521639 41.860901 4.653776
14.836988 41.860901 4.891194
15.152340 41.860901 5.688935
15.467690 41.860901 7.234633
15.783039 41.860901 8.986523
16.098389 41.860901 0.000000
16.413738 41.860901 0.000000
16.729090 41.860901 0.000000
17.044439 41.860901 0.000000
17.359789 41.860901 0.000000
17.675138 41.860901 0.000000
17.990490 41.860901 0.000000
18.305840 41.860901 0.000000
18.621189 41.860901 0.000000
18.936539 41.860901 0.000000
19.251888 41.860901 0.000000
-7.237510 41.545551 0.000000
-6.922160 41.545551 0.000000
-6.606810 41.545551 0.029299
-6.291460 41.545551 0.024363
-5.976110 41.545551 0.023994
-5.660760 41.545551 0.023357
-5.345410 41.545551 0.022373
-5.030060 41.545551 0.021878
-4.714710 41.545551 0.021962
-4.399360 41.545551 0.022249
-4.084010 41.545551 0.021947
-3.768660 41.545551 0.021631
-3.453310 41.545551 0.021580
-3.137960 41.545551 0.021134
-2.822610 41.545551 0.020559
-2.507260 41.545551 0.020341
-2.191910 41.545551 0.020821
-1.876560 41.545551 0.020775
-1.561210 41.545551 0.020245
-1.245860 41.545551 0.020805
-0.930510 41.545551 0.020644
-0.615160 41.545551 0.020631
-0.299810 41.545551 0.020909
0.015540 41.545551 0.020942
0.330890 41.545551 0.021085
0.646240 41.545551 0.021092
0.961589 41.545551 0.021371
1.276940 41.545551 0.021656
1.592289 41.545551 0.021659
1.907640 41.545551 0.021781
2.222990 41.545551 0.021976
2.538340 41.545551 0.022445
2.853690 41.545551 0.023287
3.169039 41.545551 0.023817
3.484390 41.545551 0.023496
3.799739 41.545551 0.024268
4.115090 41.545551 0.024615
4.430439 41.545551 0.024723
4.745790 41.545551 0.026059
5.061140 41.545551 0.026748
5.376490 41.545551 0.027878
5.691840 41.545551 0.029382
6.007189 41.545551 0.030643
6.322540 41.545551 0.032198
6.637889 41.545551 0.035134
6.953240 41.545551 0.038956
7.268589 41.545551 0.043467
7.583940 41.545551 0.051011
7.899290 41.545551 0.066161
8.214640 41.545551 0.094830
8.529989 41.545551 0.136434
8.845339 41.545551 0.199285
9.160688 41.545551 0.310750
9.476040 41.545551 0.455159
9.791389 41.545551 0.602834
10.106739 41.545551 0.775981
10.422089 41.545551 1.032128
10.737438 41.545551 1.312127
11.052790 41.545551 1.589172
11.368139 41.545551 1.875409
11.683489 41.545551 2.037484
11.998838 41.545551 2.387267
12.314190 41.545551 2.704199
12.629539 41.545551 3.099371
12.944889 41.545551 3.504702
13.260239 41.545551 3.636833
13.575588 41.545551 3.712662
13.890940 41.545551 3.843127
14.206289 41.545551 4.036304
14.521639 41.545551 4.405550
14.836988 41.545551 4.790647
15.152340 41.545551 5.617846
15.467690 41.545551 6.903047
15.783039 41.545551 8.680074
16.098389 41.545551 0.000000
16.413738 41.545551 0.000000
16.729090 41.545551 0.000000
17.044439 41.545551 0.000000
17.359789 41.545551 0.000000
17.675138 41.545551 0.000000
17.990490 41.545551 0.000000
18.305840 41.545551 0.000000
18.621189 41.545551 0.000000
18.936539 41.545551 0.000000
19.251888 41.545551 0.000000
-7.237510 41.230202 0.000000
-6.922160 41.230202 0.000000
-6.606810 41.230202 0.028609
-6.291460 41.230202 0.024265
-5.976110 41.230202 0.023823
-5.660760 41.230202 0.023287
-5.345410 41.230202 0.022444
-5.030060 41.230202 0.021878
-4.714710 41.230202 0.021243
-4.399360 41.230202 0.021407
-4.084010 41.230202 0.021406
-3.768660 41.230202 0.021050
-3.453310 41.230202 0.021221
-3.137960 41.230202 0.021008
-2.822610 41.230202 0.020322
-2.507260 41.230202 0.020429
-2.191910 41.230202 0.020741
-1.876560 41.230202 0.020359
-1.561210 41.230202 0.020181
-1.245860 41.230202 0.020524
-0.930510 41.230202 0.020027
-0.615160 41.230202 0.020090
-0.299810 41.230202 0.020304
0.015540 41.230202 0.020466
0.330890 41.230202 0.020609
0.646240 41.230202 0.020905
0.961589 41.230202 0.021653
1.276940 41.230202 0.021816
1.592289 41.230202 0.021493
1.907640 41.230202 0.021466
2.222990 41.230202 0.021879
2.538340 41.230202 0.022484
2.853690 41.230202 0.023142
3.169039 41.230202 0.023366
3.484390 41.230202 0.023202
3.799739 41.230202 0.024082
4.115090 41.230202 0.024767
4.430439 41.230202 0.024991
4.745790 41.230202 0.026011
5.061140 41.230202 0.026677
5.376490 41.230202 0.027884
5.691840 41.230202 0.029226
6.007189 41.230202 0.030053
6.322540 41.230202 0.031857
6.637889 41.230202 0.034734
6.953240 41.230202 0.038339
7.268589 41.230202 0.043520
7.583940 41.230202 0.050700
7.899290 41.230202 0.065940
8.214640 41.230202 0.092675
8.529989 41.230202 0.136787
8.845339 41.230202 0.209147
9.160688 41.230202 0.320796
9.476040 41.230202 0.435648
9.791389 41.230202 0.587259
10.106739 41.230202 0.772006
10.422089 41.230202 0.995968
10.737438 41.230202 1.260526
11.052790 41.230202 1.514583
11.368139 41.230202 1.878984
11.683489 41.230202 2.160742
11.998838 41.230202 2.496826
12.314190 41.230202 2.809713
12.629539 41.230202 3.050628
12.944889 41.230202 3.344722
13.260239 41.230202 3.596830
13.575588 41.230202 3.778888
13.890940 41.230202 3.725902
14.206289 41.230202 3.850150
14.521639 41.230202 4.385650
14.836988 41.230202 4.748158
15.152340 41.230202 5.749903
15.467690 41.230202 6.422542
15.783039 41.230202 8.683716
16.098389 41.230202 0.000000
16.413738 41.230202 0.000000
16.729090 41.230202 0.000000
17.044439 41.230202 0.000000
17.359789 41.230202 0.000000
17.675138 41.230202 0.000000
17.990490 41.230202 0.000000
18.305840 41.230202 0.000000
18.621189 41.230202 0.000000
18.936539 41.230202 0.000000
19.251888 41.230202 0.000000
-7.237510 40.914848 0.000000
-6.922160 40.914848 0.000000
-6.606810 40.914848 0.027589
-6.291460 40.914848 0.023443
-5.976110 40.914848 0.023105
-5.660760 40.914848 0.022851
-5.345410 40.914848 0.022429
-5.030060 40.914848 0.022085
-4.714710 40.914848 0.021092
-4.399360 40.914848 0.020856
-4.084010 40.914848 0.020759
-3.768660 40.914848 0.020577
-3.453310 40.914848 0.020809
-3.137960 40.914848 0.020684
-2.822610 40.914848 0.019989
-2.507260 40.914848 0.020363
-2.191910 40.914848 0.020463
-1.876560 40.914848 0.020115
-1.561210 40.914848 0.020235
-1.245860 40.914848 0.020301
-0.930510 40.914848 0.019653
-0.615160 40.914848 0.019705
-0.299810 40.914848 0.020037
0.015540 40.914848 0.020546
0.330890 40.914848 0.020367
0.646240 40.914848 0.020503
0.961589 40.914848 0.021559
1.276940 40.914848 0.021490
1.592289 40.914848 0.021283
1.907640 40.914848 0.021315
2.222990 40.914848 0.021970
2.538340 40.914848 0.022639
2.853690 40.914848 0.023057
3.169039 40.914848 0.022918
3.484390 40.914848 0.023122
3.799739 40.914848 0.024176
4.115090 40.914848 0.025031
4.430439 40.914848 0.025413
4.745790 40.914848 0.025968
5.061140 40.914848 0.026410
5.376490 40.914848 0.027687
5.691840 40.914848 0.029282
6.007189 40.914848 0.030090
6.322540 40.914848 0.031811
6.637889 40.914848 0.034477
6.953240 40.914848 0.038073
7.268589 40.914848 0.043809
7.583940 40.914848 0.051465
7.899290 40.914848 0.065985
8.214640 40.914848 0.089584
8.529989 40.914848 0.132130
8.845339 40.914848 0.205614
9.160688 40.914848 0.325841
9.476040 40.914848 0.445951
9.791389 40.914848 0.585986
10.106739 40.914848 0.724821
10.422089 40.914848 0.945171
10.737438 40.914848 1.187620
11.052790 40.914848 1.545368
11.368139 40.914848 1.863261
11.683489 40.914848 2.094301
11.998838 40.914848 2.506588
12.314190 40.914848 2.714903
12.629539 40.914848 3.079561
12.944889 40.914848 3.431417
13.260239 40.914848 3.528214
13.575588 40.914848 3.658693
13.890940 40.914848 3.829990
14.206289 40.914848 4.079456
14.521639 40.914848 4.235240
14.836988 40.914848 4.672436
15.152340 40.914848 5.541620
15.467690 40.914848 6.905670
15.783039 40.914848 8.601486
16.098389 40.914848 0.000000
16.413738 40.914848 0.000000
16.729090 40.914848 0.000000
17.044439 40.914848 0.000000
17.359789 40.914848 0.000000
17.675138 40.914848 0.000000
17.990490 40.914848 0.000000
18.305840 40.914848 0.000000
18.621189 40.914848 0.000000
18.936539 40.914848 0.000000
19.251888 40.914848 0.000000
-7.237510 40.599503 0.000000
-6.922160 40.599503 0.000000
-6.606810 40.599503 0.026738
-6.291460 40.599503 0.022319
-5.976110 40.599503 0.022205
-5.660760 40.599503 0.022098
-5.345410 40.599503 0.022029
-5.030060 40.599503 0.022256
-4.714710 40.599503 0.021133
-4.399360 40.599503 0.020710
-4.084010 40.599503 0.020463
-3.768660 40.599503 0.020178
-3.453310 40.599503 0.020349
-3.137960 40.599503 0.020142
-2.822610 40.599503 0.019558
-2.507260 40.599503 0.019911
-2.191910 40.599503 0.019945
-1.876560 40.599503 0.019873
-1.561210 40.599503 0.020170
-1.245860 40.599503 0.020207
-0.930510 40.599503 0.019594
-0.615160 40.599503 0.019759
-0.299810 40.599503 0.020026
0.015540 40.599503 0.020662
0.330890 40.599503 0.020101
0.646240 40.599503 0.020057
0.961589 40.599503 0.020940
1.276940 40.599503 0.021073
1.592289 40.599503 0.021106
1.907640 40.599503 0.021184
2.222990 40.599503 0.021727
2.538340 40.599503 0.022692
2.853690 40.599503 0.022958
3.169039 40.599503 0.022919
3.484390 40.599503 0.023118
3.799739 40.599503 0.024205
4.115090 40.599503 0.024884
4.430439 40.599503 0.025400
4.745790 40.599503 0.025689
5.061140 40.599503 0.026127
5.376490 40.599503 0.027386
5.691840 40.599503 0.029185
6.007189 40.599503 0.030120
6.322540 40.599503 0.032077
6.637889 40.599503 0.034361
6.953240 40.599503 0.037998
7.268589 40.599503 0.044100
7.583940 40.599503 0.054405
7.899290 40.599503 0.066685
8.214640 40.599503 0.087839
8.529989 40.599503 0.132742
8.845339 40.599503 0.200144
9.160688 40.599503 0.307727
9.476040 40.599503 0.437327
9.791389 40.599503 0.579980
10.106739 40.599503 0.759676
10.422089 40.599503 0.922493
10.737438 40.599503 1.189256
11.052790 40.599503 1.517227
11.368139 40.599503 1.873699
11.683489 40.599503 2.145423
11.998838 40.599503 2.551923
12.314190 40.599503 2.896812
12.629539 40.599503 3.013480
12.944889 40.599503 3.275040
13.260239 40.599503 3.582808
13.575588 40.599503 3.778121
13.890940 40.599503 3.884041
14.206289 40.599503 4.145142
14.521639 40.599503 4.303317
14.836988 40.599503 4.454301
15.152340 40.599503 5.370499
15.467690 40.599503 6.491879
15.783039 40.599503 8.418945
16.098389 40.599503 0.000000
16.413738 40.599503 0.000000
16.729090 40.599503 0.000000
17.044439 40.599503 0.000000
17.359789 40.599503 0.000000
17.675138 40.599503 0.000000
17.990490 40.599503 0.000000
18.305840 40.599503 0.000000
18.621189 40.599503 0.000000
18.936539 40.599503 0.000000
19.251888 40.599503 0.000000
-7.237510 40.284149 0.000000
-6.922160 40.284149 0.000000
-6.606810 40.284149 0.026058
-6.291460 40.284149 0.021388
-5.976110 40.284149 0.021319
-5.660760 40.284149 0.021384
-5.345410 40.284149 0.021473
-5.030060 40.284149 0.021839
-4.714710 40.284149 0.021326
-4.399360 40.284149 0.020833
-4.084010 40.284149 0.020285
-3.768660 40.284149 0.019784
-3.453310 40.284149 0.019888
-3.137960 40.284149 0.019713
-2.822610 40.284149 0.019123
-2.507260 40.284149 0.019276
-2.191910 40.284149 0.019412
-1.876560 40.284149 0.019552
-1.561210 40.284149 0.019860
-1.245860 40.284149 0.019813
-0.930510 40.284149 0.019685
-0.615160 40.284149 0.019816
-0.299810 40.284149 0.020119
0.015540 40.284149 0.020591
0.330890 40.284149 0.020015
0.646240 40.284149 0.019837
0.961589 40.284149 0.020391
1.276940 40.284149 0.020584
1.592289 40.284149 0.020860
1.907640 40.284149 0.020871
2.222990 40.284149 0.021512
2.538340 40.284149 0.022429
2.853690 40.284149 0.022793
3.169039 40.284149 0.022931
3.484390 40.284149 0.023228
3.799739 40.284149 0.024079
4.115090 40.284149 0.024543
4.430439 40.284149 0.025033
4.745790 40.284149 0.025385
5.061140 40.284149 0.025984
5.376490 40.284149 0.027414
5.691840 40.284149 0.028957
6.007189 40.284149 0.030089
6.322540 40.284149 0.032128
6.637889 40.284149 0.034260
6.953240 40.284149 0.037684
7.268589 40.284149 0.043727
7.583940 40.284149 0.052179
7.899290 40.284149 0.068137
8.214640 40.284149 0.091364
8.529989 40.284149 0.127163
8.845339 40.284149 0.210154
9.160688 40.284149 0.293885
9.476040 40.284149 0.431151
9.791389 40.284149 0.593125
10.106739 40.284149 0.776267
10.422089 40.284149 0.946344
10.737438 40.284149 1.213135
11.052790 40.284149 1.552834
11.368139 40.284149 1.901710
11.683489 40.284149 2.181274
11.998838 40.284149 2.576012
12.314190 40.284149 2.839783
12.629539 40.284149 3.121195
12.944889 40.284149 3.321728
13.260239 40.284149 3.636953
13.575588 40.284149 3.759265
13.890940 40.284149 4.155099
14.206289 40.284149 4.023002
14.521639 40.284149 4.251645
14.836988 40.284149 4.454677
15.152340 40.284149 5.307301
15.467690 40.284149 6.449514
15.783039 40.284149 8.570201
16.098389 40.284149 0.000000
16.413738 40.284149 0.000000
16.729090 40.284149 0.000000
17.044439 40.284149 0.000000
17.359789 40.284149 0.000000
17.675138 40.284149 0.000000
17.990490 40.284149 0.000000
18.305840 40.284149 0.000000
18.621189 40.284149 0.000000
18.936539 40.284149 0.000000
19.251888 40.284149 0.000000
-7.237510 39.968800 0.000000
-6.922160 39.968800 0.000000
-6.606810 39.968800 0.025285
-6.291460 39.968800 0.020788
-5.976110 39.968800 0.020716
-5.660760 39.968800 0.020828
-5.345410 39.968800 0.020783
-5.030060 39.968800 0.021007
-4.714710 39.968800 0.020966
-4.399360 39.968800 0.020575
-4.084010 39.968800 0.019869
-3.768660 39.968800 0.019559
-3.453310 39.968800 0.019700
-3.137960 39.968800 0.019346
-2.822610 39.968800 0.019037
-2.507260 39.968800 0.018986
-2.191910 39.968800 0.018999
-1.876560 39.968800 0.019229
-1.561210 39.968800 0.019346
-1.245860 39.968800 0.019424
-0.930510 39.968800 0.019696
-0.615160 39.968800 0.019616
-0.299810 39.968800 0.019867
0.015540 39.968800 0.020382
0.330890 39.968800 0.020099
0.646240 39.968800 0.020172
0.961589 39.968800 0.020487
1.276940 39.968800 0.020765
1.592289 39.968800 0.021038
1.907640 39.968800 0.020984
2.222990 39.968800 0.021493
2.538340 39.968800 0.022280
2.853690 39.968800 0.022650
3.169039 39.968800 0.023032
3.484390 39.968800 0.023556
3.799739 39.968800 0.024278
4.115090 39.968800 0.024320
4.430439 39.968800 0.024603
4.745790 39.968800 0.025117
5.061140 39.968800 0.025763
5.376490 39.968800 0.027423
5.691840 39.968800 0.029076
6.007189 39.968800 0.029898
6.322540 39.968800 0.032178
6.637889 39.968800 0.034112
6.953240 39.968800 0.037275
7.268589 39.968800 0.043213
7.583940 39.968800 0.052223
7.899290 39.968800 0.065391
8.214640 39.968800 0.087557
8.529989 39.968800 0.129415
8.845339 39.968800 0.200429
9.160688 39.968800 0.283613
9.476040 39.968800 0.426238
9.791389 39.968800 0.594912
10.106739 39.968800 0.752286
10.422089 39.968800 0.973794
10.737438 39.968800 1.260991
11.052790 39.968800 1.537705
11.368139 39.968800 1.839937
11.683489 39.968800 2.140157
11.998838 39.968800 2.497652
12.314190 39.968800 2.857668
12.629539 39.968800 3.182401
12.944889 39.968800 3.489297
13.260239 39.968800 3.536005
13.575588 39.968800 4.004351
13.890940 39.968800 4.003011
14.206289 39.968800 4.150675
14.521639 39.968800 4.477205
14.836988 39.968800 4.728928
15.152340 39.968800 5.322140
15.467690 39.968800 6.128917
15.783039 39.968800 8.523526
16.098389 39.968800 0.000000
16.413738 39.968800 0.000000
16.729090 39.968800 0.000000
17.044439 39.968800 0.000000
17.359789 39.968800 0.000000
17.675138 39.968800 0.000000
17.990490 39.968800 0.000000
18.305840 39.968800 0.000000
18.621189 39.968800 0.000000
18.936539 39.968800 0.000000
19.251888 39.968800 0.000000
-7.237510 39.653450 0.000000
-6.922160 39.653450 0.000000
-6.606810 39.653450 0.024541
-6.291460 39.653450 0.020613
-5.976110 39.653450 0.020416
-5.660760 39.653450 0.020517
-5.345410 39.653450 0.020364
-5.030060 39.653450 0.020082
-4.714710 39.653450 0.020368
-4.399360 39.653450 0.020236
-4.084010 39.653450 0.019567
-3.768660 39.653450 0.019394
-3.453310 39.653450 0.019479
-3.137960 39.653450 0.019290
-2.822610 39.653450 0.019048
-2.507260 39.653450 0.019040
-2.191910 39.653450 0.018896
-1.876560 39.653450 0.018918
-1.561210 39.653450 0.018833
-1.245860 39.653450 0.019264
-0.930510 39.653450 0.019456
-0.615160 39.653450 0.019183
-0.299810 39.653450 0.019486
0.015540 39.653450 0.020038
0.330890 39.653450 0.020182
0.646240 39.653450 0.020511
0.961589 39.653450 0.020780
1.276940 39.653450 0.020850
1.592289 39.653450 0.021188
1.907640 39.653450 0.021289
2.222990 39.653450 0.021518
2.538340 39.653450 0.022178
2.853690 39.653450 0.022520
3.169039 39.653450 0.022905
3.484390 39.653450 0.023677
3.799739 39.653450 0.023995
4.115090 39.653450 0.024000
4.430439 39.653450 0.024301
4.745790 39.653450 0.024985
5.061140 39.653450 0.025903
5.376490 39.653450 0.027486
5.691840 39.653450 0.029000
6.007189 39.653450 0.029716
6.322540 39.653450 0.031934
6.637889 39.653450 0.034208
6.953240 39.653450 0.037336
7.268589 39.653450 0.042730
7.583940 39.653450 0.051570
7.899290 39.653450 0.067638
8.214640 39.653450 0.088393
8.529989 39.653450 0.128966
8.845339 39.653450 0.195376
9.160688 39.653450 0.290709
9.476040 39.653450 0.434966
9.791389 39.653450 0.583112
10.106739 39.653450 0.768129
10.422089 39.653450 1.047246
10.737438 39.653450 1.310628
11.052790 39.653450 1.584686
11.368139 39.653450 1.838559
11.683489 39.653450 2.116022
11.998838 39.653450 2.553907
12.314190 39.653450 2.882213
12.629539 39.653450 3.111643
12.944889 39.653450 3.537796
13.260239 39.653450 3.684805
13.575588 39.653450 3.999566
13.890940 39.653450 3.988341
14.206289 39.653450 4.153831
14.521639 39.653450 4.385962
14.836988 39.653450 4.684138
15.152340 39.653450 5.101755
15.467690 39.653450 6.338488
15.783039 39.653450 8.447340
16.098389 39.653450 0.000000
16.413738 39.653450 0.000000
16.729090 39.653450 0.000000
17.044439 39.653450 0.000000
17.359789 39.653450 0.000000
17.675138 39.653450 0.000000
17.990490 39.653450 0.000000
18.305840 39.653450 0.000000
18.621189 39.653450 0.000000
18.936539 39.653450 0.000000
19.251888 39.653450 0.000000
-7.237510 39.338100 0.000000
-6.922160 39.338100 0.000000
-6.606810 39.338100 0.024126
-6.291460 39.338100 0.020676
-5.976110 39.338100 0.020328
-5.660760 39.338100 0.020445
-5.345410 39.338100 0.020142
-5.030060 39.338100 0.019571
-4.714710 39.338100 0.019651
-4.399360 39.338100 0.019611
-4.084010 39.338100 0.019148
-3.768660 39.338100 0.019206
-3.453310 39.338100 0.019455
-3.137960 39.338100 0.019344
-2.822610 39.338100 0.019166
-2.507260 39.338100 0.019006
-2.191910 39.338100 0.018772
-1.876560 39.338100 0.018614
-1.561210 39.338100 0.018788
-1.245860 39.338100 0.019338
-0.930510 39.338100 0.019087
-0.615160 39.338100 0.018734
-0.299810 39.338100 0.019200
0.015540 39.338100 0.019826
0.330890 39.338100 0.020102
0.646240 39.338100 0.020497
0.961589 39.338100 0.021002
1.276940 39.338100 0.020758
1.592289 39.338100 0.021194
1.907640 39.338100 0.021339
2.222990 39.338100 0.021538
2.538340 39.338100 0.022097
2.853690 39.338100 0.022404
3.169039 39.338100 0.022851
3.484390 39.338100 0.023594
3.799739 39.338100 0.023596
4.115090 39.338100 0.023771
4.430439 39.338100 0.024228
4.745790 39.338100 0.024952
5.061140 39.338100 0.025970
5.376490 39.338100 0.027493
5.691840 39.338100 0.028715
6.007189 39.338100 0.029508
6.322540 39.338100 0.031860
6.637889 39.338100 0.034270
6.953240 39.338100 0.037044
7.268589 39.338100 0.042718
7.583940 39.338100 0.051782
7.899290 39.338100 0.066626
8.214640 39.338100 0.091613
8.529989 39.338100 0.127985
8.845339 39.338100 0.198848
9.160688 39.338100 0.301440
9.476040 39.338100 0.429168
9.791389 39.338100 0.597735
10.106739 39.338100 0.786065
10.422089 39.338100 1.018197
10.737438 39.338100 1.305909
11.052790 39.338100 1.604935
11.368139 39.338100 1.841359
11.683489 39.338100 2.167625
11.998838 39.338100 2.485783
12.314190 39.338100 2.851711
12.629539 39.338100 3.076254
12.944889 39.338100 3.466630
13.260239 39.338100 3.684887
13.575588 39.338100 4.002734
13.890940 39.338100 3.958148
14.206289 39.338100 4.155576
14.521639 39.338100 4.180826
14.836988 39.338100 4.578013
15.152340 39.338100 5.217818
15.467690 39.338100 6.350961
15.783039 39.338100 8.463994
16.098389 39.338100 0.000000
16.413738 39.338100 0.000000
16.729090 39.338100 0.000000
17.044439 39.338100 0.000000
17.359789 39.338100 0.000000
17.675138 39.338100 0.000000
17.990490 39.338100 0.000000
18.305840 39.338100 0.000000
18.621189 39.338100 0.000000
18.936539 39.338100 0.000000
19.251888 39.338100 0.000000
-7.237510 39.022751 0.000000
-6.922160 39.022751 0.000000
-6.606810 39.022751 0.024038
-6.291460 39.022751 0.020662
-5.976110 39.022751 0.020148
-5.660760 39.022751 0.020198
-5.345410 39.022751 0.020039
-5.030060 39.022751 0.019532
-4.714710 39.022751 0.019176
-4.399360 39.022751 0.019280
-4.084010 39.022751 0.019117
-3.768660 39.022751 0.019298
-3.453310 39.022751 0.019540
-3.137960 39.022751 0.019410
-2.822610 39.022751 0.019022
-2.507260 39.022751 0.018831
-2.191910 39.022751 0.018732
-1.876560 39.022751 0.018630
-1.561210 39.022751 0.018915
-1.245860 39.022751 0.019235
-0.930510 39.022751 0.018809
-0.615160 39.022751 0.018599
-0.299810 39.022751 0.019085
0.015540 39.022751 0.019652
0.330890 39.022751 0.019949
0.646240 39.022751 0.020367
0.961589 39.022751 0.020944
1.276940 39.022751 0.020518
1.592289 39.022751 0.020819
1.907640 39.022751 0.021269
2.222990 39.022751 0.021208
2.538340 39.022751 0.021627
2.853690 39.022751 0.022192
3.169039 39.022751 0.022902
3.484390 39.022751 0.023173
3.799739 39.022751 0.023340
4.115090 39.022751 0.023859
4.430439 39.022751 0.024272
4.745790 39.022751 0.024982
5.061140 39.022751 0.025795
5.376490 39.022751 0.027221
5.691840 39.022751 0.028549
6.007189 39.022751 0.029433
6.322540 39.022751 0.031746
6.637889 39.022751 0.034070
6.953240 39.022751 0.037054
7.268589 39.022751 0.042377
7.583940 39.022751 0.053096
7.899290 39.022751 0.067263
8.214640 39.022751 0.091120
8.529989 39.022751 0.130860
8.845339 39.022751 0.198466
9.160688 39.022751 0.290084
9.476040 39.022751 0.434752
9.791389 39.022751 0.601826
10.106739 39.022751 0.791328
10.422089 39.022751 1.012143
10.737438 39.022751 1.287548
11.052790 39.022751 1.561863
11.368139 39.022751 1.830947
11.683489 39.022751 2.183534
11.998838 39.022751 2.495696
12.314190 39.022751 2.902108
12.629539 39.022751 3.113688
12.944889 39.022751 3.407855
13.260239 39.022751 3.617488
13.575588 39.022751 3.923989
13.890940 39.022751 4.034546
14.206289 39.022751 4.145265
14.521639 39.022751 4.223270
14.836988 39.022751 4.809714
15.152340 39.022751 5.119985
15.467690 39.022751 6.229149
15.783039 39.022751 8.131195
16.098389 39.022751 0.000000
16.413738 39.022751 0.000000
16.729090 39.022751 0.000000
17.044439 39.022751 0.000000
17.359789 39.022751 0.000000
17.675138 39.022751 0.000000
17.990490 39.022751 0.000000
18.305840 39.022751 0.000000
18.621189 39.022751 0.000000
18.936539 39.022751 0.000000
19.251888 39.022751 0.000000
-7.237510 38.707401 0.000000
-6.922160 38.707401 0.000000
-6.606810 38.707401 0.023898
-6.291460 38.707401 0.020503
-5.976110 38.707401 0.020036
-5.660760 38.707401 0.019971
-5.345410 38.707401 0.019924
-5.030060 38.707401 0.019719
-4.714710 38.707401 0.019329
-4.399360 38.707401 0.019193
-4.084010 38.707401 0.019030
-3.768660 38.707401 0.019470
-3.453310 38.707401 0.019625
-3.137960 38.707401 0.019275
-2.822610 38.707401 0.018808
-2.507260 38.707401 0.018748
-2.191910 38.707401 0.018694
-1.876560 38.707401 0.018714
-1.561210 38.707401 0.018955
-1.245860 38.707401 0.019113
-0.930510 38.707401 0.018885
-0.615160 38.707401 0.018778
-0.299810 38.707401 0.019230
0.015540 38.707401 0.019803
0.330890 38.707401 0.019856
0.646240 38.707401 0.020015
0.961589 38.707401 0.020413
1.276940 38.707401 0.020484
1.592289 38.707401 0.020564
1.907640 38.707401 0.021157
2.222990 38.707401 0.020816
2.538340 38.707401 0.021172
2.853690 38.707401 0.021925
3.169039 38.707401 0.022885
3.484390 38.707401 0.023045
3.799739 38.707401 0.023417
4.115090 38.707401 0.024060
4.430439 38.707401 0.024493
4.745790 38.707401 0.025083
5.061140 38.707401 0.025883
5.376490 38.707401 0.027072
5.691840 38.707401 0.028493
6.007189 38.707401 0.029229
6.322540 38.707401 0.031471
6.637889 38.707401 0.034156
6.953240 38.707401 0.037412
7.268589 38.707401 0.042472
7.583940 38.707401 0.053805
7.899290 38.707401 0.064348
8.214640 38.707401 0.088985
8.529989 38.707401 0.130567
8.845339 38.707401 0.192088
9.160688 38.707401 0.290587
9.476040 38.707401 0.426721
9.791389 38.707401 0.605582
10.106739 38.707401 0.781000
10.422089 38.707401 1.019961
10.737438 38.707401 1.278336
11.052790 38.707401 1.574230
11.368139 38.707401 1.858524
11.683489 38.707401 2.100445
11.998838 38.707401 2.570250
12.314190 38.707401 2.819092
12.629539 38.707401 3.196966
12.944889 38.707401 3.431621
13.260239 38.707401 3.570331
13.575588 38.707401 3.808717
13.890940 38.707401 3.850851
14.206289 38.707401 3.842953
14.521639 38.707401 4.090582
14.836988 38.707401 4.404383
15.152340 38.707401 5.146516
15.467690 38.707401 6.084323
15.783039 38.707401 8.235749
16.098389 38.707401 0.000000
16.413738 38.707401 0.000000
16.729090 38.707401 0.000000
17.044439 38.707401 0.000000
17.359789 38.707401 0.000000
17.675138 38.707401 0.000000
17.990490 38.707401 0.000000
18.305840 38.707401 0.000000
18.621189 38.707401 0.000000
18.936539 38.707401 0.000000
19.251888 38.707401 0.000000
-7.237510 38.392052 0.000000
-6.922160 38.392052 0.000000
-6.606810 38.392052 0.023449
-6.291460 38.392052 0.020099
-5.976110 38.392052 0.020010
-5.660760 38.392052 0.019980
-5.345410 38.392052 0.019796
-5.030060 38.392052 0.019842
-4.714710 38.392052 0.019491
-4.399360 38.392052 0.019273
-4.084010 38.392052 0.018949
-3.768660 38.392052 0.019355
-3.453310 38.392052 0.019443
-3.137960 38.392052 0.019045
-2.822610 38.392052 0.018612
-2.507260 38.392052 0.018784
-2.191910 38.392052 0.018885
-1.876560 38.392052 0.018883
-1.561210 38.392052 0.018999
-1.245860 38.392052 0.019143
-0.930510 38.392052 0.019105
-0.615160 38.392052 0.019167
-0.299810 38.392052 0.019604
0.015540 38.392052 0.019975
0.330890 38.392052 0.019774
0.646240 38.392052 0.019781
0.961589 38.392052 0.020286
1.276940 38.392052 0.020574
1.592289 38.392052 0.020659
1.907640 38.392052 0.021130
2.222990 38.392052 0.020940
2.538340 38.392052 0.021208
2.853690 38.392052 0.021948
3.169039 38.392052 0.022755
3.484390 38.392052 0.022982
3.799739 38.392052 0.023812
4.115090 38.392052 0.024171
4.430439 38.392052 0.024483
4.745790 38.392052 0.025108
5.061140 38.392052 0.025974
5.376490 38.392052 0.027367
5.691840 38.392052 0.028445
6.007189 38.392052 0.029310
6.322540 38.392052 0.031188
6.637889 38.392052 0.034138
6.953240 38.392052 0.038016
7.268589 38.392052 0.043100
7.583940 38.392052 0.052272
7.899290 38.392052 0.065455
8.214640 38.392052 0.088508
8.529989 38.392052 0.129997
8.845339 38.392052 0.192803
9.160688 38.392052 0.287540
9.476040 38.392052 0.443842
9.791389 38.392052 0.594366
10.106739 38.392052 0.765769
10.422089 38.392052 1.057932
10.737438 38.392052 1.266927
11.052790 38.392052 1.592286
11.368139 38.392052 1.888408
11.683489 38.392052 2.127518
11.998838 38.392052 2.650211
12.314190 38.392052 2.956228
12.629539 38.392052 3.303855
12.944889 38.392052 3.541608
13.260239 38.392052 3.676014
13.575588 38.392052 3.780009
13.890940 38.392052 3.735035
14.206289 38.392052 3.837563
14.521639 38.392052 4.039776
14.836988 38.392052 4.277518
15.152340 38.392052 4.963946
15.467690 38.392052 5.906042
15.783039 38.392052 8.082458
16.098389 38.392052 0.000000
16.413738 38.392052 0.000000
16.729090 38.392052 0.000000
17.044439 38.392052 0.000000
17.359789 38.392052 0.000000
17.675138 38.392052 0.000000
17.990490 38.392052 0.000000
18.305840 38.392052 0.000000
18.621189 38.392052 0.000000
18.936539 38.392052 0.000000
19.251888 38.392052 0.000000
-7.237510 38.076698 0.000000
-6.922160 38.076698 0.000000
-6.606810 38.076698 0.023295
-6.291460 38.076698 0.019782
-5.976110 38.076698 0.019939
-5.660760 38.076698 0.019981
-5.345410 38.076698 0.019856
-5.030060 38.076698 0.019681
-4.714710 38.076698 0.019460
-4.399360 38.076698 0.019167
-4.084010 38.076698 0.018867
-3.768660 38.076698 0.019142
-3.453310 38.076698 0.019371
-3.137960 38.076698 0.018877
-2.822610 38.076698 0.018586
-2.507260 38.076698 0.018909
-2.191910 38.076698 0.019115
-1.876560 38.076698 0.018855
-1.561210 38.076698 0.018949
-1.245860 38.076698 0.019271
-0.930510 38.076698 0.019370
-0.615160 38.076698 0.019443
-0.299810 38.076698 0.019895
0.015540 38.076698 0.020022
0.330890 38.076698 0.019662
0.646240 38.076698 0.019909
0.961589 38.076698 0.020331
1.276940 38.076698 0.020716
1.592289 38.076698 0.020912
1.907640 38.076698 0.021236
2.222990 38.076698 0.021119
2.538340 38.076698 0.021501
2.853690 38.076698 0.022132
3.169039 38.076698 0.022657
3.484390 38.076698 0.022940
3.799739 38.076698 0.023970
4.115090 38.076698 0.024226
4.430439 38.076698 0.024382
4.745790 38.076698 0.025173
5.061140 38.076698 0.026170
5.376490 38.076698 0.027340
5.691840 38.076698 0.028115
6.007189 38.076698 0.029084
6.322540 38.076698 0.030927
6.637889 38.076698 0.034076
6.953240 38.076698 0.038458
7.268589 38.076698 0.043029
7.583940 38.076698 0.051628
7.899290 38.076698 0.066863
8.214640 38.076698 0.090813
8.529989 38.076698 0.131490
8.845339 38.076698 0.193972
9.160688 38.076698 0.304356
9.476040 38.076698 0.433856
9.791389 38.076698 0.600218
10.106739 38.076698 0.793415
10.422089 38.076698 1.038159
10.737438 38.076698 1.279336
11.052790 38.076698 1.541414
11.368139 38.076698 1.870227
11.683489 38.076698 2.235670
11.998838 38.076698 2.599565
12.314190 38.076698 2.981091
12.629539 38.076698 3.304358
12.944889 38.076698 3.471625
13.260239 38.076698 3.706684
13.575588 38.076698 3.996669
13.890940 38.076698 3.878287
14.206289 38.076698 3.882138
14.521639 38.076698 3.994106
14.836988 38.076698 4.408325
15.152340 38.076698 4.740723
15.467690 38.076698 5.921482
15.783039 38.076698 7.624702
16.098389 38.076698 0.000000
16.413738 38.076698 0.000000
16.729090 38.076698 0.000000
17.044439 38.076698 0.000000
17.359789 38.076698 0.000000
17.675138 38.076698 0.000000
17.990490 38.076698 0.000000
18.305840 38.076698 0.000000
18.621189 38.076698 0.000000
18.936539 38.076698 0.000000
19.251888 38.076698 0.000000
-7.237510 37.761353 0.000000
-6.922160 37.761353 0.000000
-6.606810 37.761353 0.023066
-6.291460 37.761353 0.019689
-5.976110 37.761353 0.019741
-5.660760 37.761353 0.019937
-5.345410 37.761353 0.019728
-5.030060 37.761353 0.019383
-4.714710 37.761353 0.019128
-4.399360 37.761353 0.018865
-4.084010 37.761353 0.018840
-3.768660 37.761353 0.019076
-3.453310 37.761353 0.019570
-3.137960 37.761353 0.019108
-2.822610 37.761353 0.018681
-2.507260 37.761353 0.018998
-2.191910 37.761353 0.019198
-1.876560 37.761353 0.018769
-1.561210 37.761353 0.018923
-1.245860 37.761353 0.019348
-0.930510 37.761353 0.019379
-0.615160 37.761353 0.019411
-0.299810 37.761353 0.019853
0.015540 37.761353 0.020067
0.330890 37.761353 0.019721
0.646240 37.761353 0.020258
0.961589 37.761353 0.020582
1.276940 37.761353 0.020886
1.592289 37.761353 0.021146
1.907640 37.761353 0.021538
2.222990 37.761353 0.021846
2.538340 37.761353 0.021898
2.853690 37.761353 0.022199
3.169039 37.761353 0.022480
3.484390 37.761353 0.022928
3.799739 37.761353 0.023896
4.115090 37.761353 0.024042
4.430439 37.761353 0.024357
4.745790 37.761353 0.025250
5.061140 37.761353 0.026260
5.376490 37.761353 0.027063
5.691840 37.761353 0.027849
6.007189 37.761353 0.028838
6.322540 37.761353 0.030988
6.637889 37.761353 0.033839
6.953240 37.761353 0.038570
7.268589 37.761353 0.043374
7.583940 37.761353 0.051660
7.899290 37.761353 0.064877
8.214640 37.761353 0.090229
8.529989 37.761353 0.131285
8.845339 37.761353 0.193861
9.160688 37.761353 0.307114
9.476040 37.761353 0.444893
9.791389 37.761353 0.612722
10.106739 37.761353 0.803853
10.422089 37.761353 1.009626
10.737438 37.761353 1.316362
11.052790 37.761353 1.631187
11.368139 37.761353 1.885172
11.683489 37.761353 2.315372
11.998838 37.761353 2.738300
12.314190 37.761353 3.028999
12.629539 37.761353 3.467528
12.944889 37.761353 3.540487
13.260239 37.761353 3.755551
13.575588 37.761353 4.013868
13.890940 37.761353 3.916772
14.206289 37.761353 3.827664
14.521639 37.761353 3.878506
14.836988 37.761353 4.255930
15.152340 37.761353 4.639289
15.467690 37.761353 5.989046
15.783039 37.761353 7.530256
16.098389 37.761353 0.000000
16.413738 37.761353 0.000000
16.729090 37.761353 0.000000
17.044439 37.761353 0.000000
17.359789 37.761353 0.000000
17.675138 37.761353 0.000000
17.990490 37.761353 0.000000
18.305840 37.761353 0.000000
18.621189 37.761353 0.000000
18.936539 37.761353 0.000000
19.251888 37.761353 0.000000
-7.237510 37.445999 0.000000
-6.922160 37.445999 0.000000
-6.606810 37.445999 0.022877
-6.291460 37.445999 0.019493
-5.976110 37.445999 0.019371
-5.660760 37.445999 0.019715
-5.345410 37.445999 0.019408
-5.030060 37.445999 0.018930
-4.714710 37.445999 0.018772
-4.399360 37.445999 0.018633
-4.084010 37.445999 0.018732
-3.768660 37.445999 0.019161
-3.453310 37.445999 0.019792
-3.137960 37.445999 0.019384
-2.822610 37.445999 0.018827
-2.507260 37.445999 0.018973
-2.191910 37.445999 0.019073
-1.876560 37.445999 0.018771
-1.561210 37.445999 0.019117
-1.245860 37.445999 0.019252
-0.930510 37.445999 0.018957
-0.615160 37.445999 0.019260
-0.299810 37.445999 0.019715
0.015540 37.445999 0.020082
0.330890 37.445999 0.019755
0.646240 37.445999 0.020292
0.961589 37.445999 0.020696
1.276940 37.445999 0.020938
1.592289 37.445999 0.021330
1.907640 37.445999 0.021751
2.222990 37.445999 0.022308
2.538340 37.445999 0.022270
2.853690 37.445999 0.022188
3.169039 37.445999 0.022329
3.484390 37.445999 0.022909
3.799739 37.445999 0.023649
4.115090 37.445999 0.024019
4.430439 37.445999 0.024289
4.745790 37.445999 0.025324
5.061140 37.445999 0.026100
5.376490 37.445999 0.026772
5.691840 37.445999 0.027445
6.007189 37.445999 0.028775
6.322540 37.445999 0.030989
6.637889 37.445999 0.033741
6.953240 37.445999 0.037783
7.268589 37.445999 0.043384
7.583940 37.445999 0.052725
7.899290 37.445999 0.065460
8.214640 37.445999 0.088141
8.529989 37.445999 0.129326
8.845339 37.445999 0.198366
9.160688 37.445999 0.307964
9.476040 37.445999 0.431492
9.791389 37.445999 0.618216
10.106739 37.445999 0.795246
10.422089 37.445999 1.007307
10.737438 37.445999 1.331691
11.052790 37.445999 1.598897
11.368139 37.445999 1.886325
11.683489 37.445999 2.283539
11.998838 37.445999 2.738102
12.314190 37.445999 3.178736
12.629539 37.445999 3.325146
12.944889 37.445999 3.542472
13.260239 37.445999 3.722549
13.575588 37.445999 3.915950
13.890940 37.445999 3.768269
14.206289 37.445999 3.769461
14.521639 37.445999 3.808842
14.836988 37.445999 3.991133
15.152340 37.445999 4.472207
15.467690 37.445999 5.659140
15.783039 37.445999 7.206498
16.098389 37.445999 0.000000
16.413738 37.445999 0.000000
16.729090 37.445999 0.000000
17.044439 37.445999 0.000000
17.359789 37.445999 0.000000
17.675138 37.445999 0.000000
17.990490 37.445999 0.000000
18.305840 37.445999 0.000000
18.621189 37.445999 0.000000
18.936539 37.445999 0.000000
19.251888 37.445999 0.000000
-7.237510 37.130650 0.000000
-6.922160 37.130650 0.000000
-6.606810 37.130650 0.022897
-6.291460 37.130650 0.019411
-5.976110 37.130650 0.019137
-5.660760 37.130650 0.019437
-5.345410 37.130650 0.019243
-5.030060 37.130650 0.018985
-4.714710 37.130650 0.018768
-4.399360 37.130650 0.018773
-4.084010 37.130650 0.018859
-3.768660 37.130650 0.019331
-3.453310 37.130650 0.019753
-3.137960 37.130650 0.019266
-2.822610 37.130650 0.018828
-2.507260 37.130650 0.019107
-2.191910 37.130650 0.019063
-1.876560 37.130650 0.018958
-1.561210 37.130650 0.019292
-1.245860 37.130650 0.019246
-0.930510 37.130650 0.018765
-0.615160 37.130650 0.019142
-0.299810 37.130650 0.019708
0.015540 37.130650 0.020108
0.330890 37.130650 0.019917
0.646240 37.130650 0.020292
0.961589 37.130650 0.020881
1.276940 37.130650 0.021213
1.592289 37.130650 0.021543
1.907640 37.130650 0.022004
2.222990 37.130650 0.022396
2.538340 37.130650 0.022590
2.853690 37.130650 0.022528
3.169039 37.130650 0.022446
3.484390 37.130650 0.022745
3.799739 37.130650 0.023154
4.115090 37.130650 0.023889
4.430439 37.130650 0.024390
4.745790 37.130650 0.025161
5.061140 37.130650 0.025987
5.376490 37.130650 0.026766
5.691840 37.130650 0.027770
6.007189 37.130650 0.029207
6.322540 37.130650 0.031092
6.637889 37.130650 0.033550
6.953240 37.130650 0.037221
7.268589 37.130650 0.043706
7.583940 37.130650 0.052923
7.899290 37.130650 0.066849
8.214640 37.130650 0.092687
8.529989 37.130650 0.125119
8.845339 37.130650 0.192876
9.160688 37.130650 0.296932
9.476040 37.130650 0.452282
9.791389 37.130650 0.613289
10.106739 37.130650 0.782578
10.422089 37.130650 1.040262
10.737438 37.130650 1.315973
11.052790 37.130650 1.567238
11.368139 37.130650 1.931469
11.683489 37.130650 2.267095
11.998838 37.130650 2.711992
12.314190 37.130650 2.986799
12.629539 37.130650 3.292161
12.944889 37.130650 3.495844
13.260239 37.130650 3.703294
13.575588 37.130650 3.843163
13.890940 37.130650 3.819068
14.206289 37.130650 3.769712
14.521639 37.130650 3.867112
14.836988 37.130650 4.057928
15.152340 37.130650 4.551198
15.467690 37.130650 5.499585
15.783039 37.130650 6.593624
16.098389 37.130650 0.000000
16.413738 37.130650 0.000000
16.729090 37.130650 0.000000
17.044439 37.130650 0.000000
17.359789 37.130650 0.000000
17.675138 37.130650 0.000000
17.990490 37.130650 0.000000
18.305840 37.130650 0.000000
18.621189 37.130650 0.000000
18.936539 37.130650 0.000000
19.251888 37.130650 0.000000
-7.237510 36.815300 0.000000
-6.922160 36.815300 0.000000
-6.606810 36.815300 0.023104
-6.291460 36.815300 0.019636
-5.976110 36.815300 0.019299
-5.660760 36.815300 0.019379
-5.345410 36.815300 0.019355
-5.030060 36.815300 0.019339
-4.714710 36.815300 0.019129
-4.399360 36.815300 0.019187
-4.084010 36.815300 0.019240
-3.768660 36.815300 0.019539
-3.453310 36.815300 0.019528
-3.137960 36.815300 0.019025
-2.822610 36.815300 0.018817
-2.507260 36.815300 0.019449
-2.191910 36.815300 0.019554
-1.876560 36.815300 0.019422
-1.561210 36.815300 0.019566
-1.245860 36.815300 0.019448
-0.930510 36.815300 0.019196
-0.615160 36.815300 0.019327
-0.299810 36.815300 0.019576
0.015540 36.815300 0.020419
0.330890 36.815300 0.020383
0.646240 36.815300 0.020598
0.961589 36.815300 0.021024
1.276940 36.815300 0.021330
1.592289 36.815300 0.021650
1.907640 36.815300 0.021992
2.222990 36.815300 0.022431
2.538340 36.815300 0.022775
2.853690 36.815300 0.022947
3.169039 36.815300 0.022680
3.484390 36.815300 0.022862
3.799739 36.815300 0.023168
4.115090 36.815300 0.023742
4.430439 36.815300 0.024304
4.745790 36.815300 0.025102
5.061140 36.815300 0.025958
5.376490 36.815300 0.026981
5.691840 36.815300 0.028074
6.007189 36.815300 0.029529
6.322540 36.815300 0.030973
6.637889 36.815300 0.033171
6.953240 36.815300 0.037437
7.268589 36.815300 0.042949
7.583940 36.815300 0.051552
7.899290 36.815300 0.068083
8.214640 36.815300 0.094336
8.529989 36.815300 0.134988
8.845339 36.815300 0.201232
9.160688 36.815300 0.296765
9.476040 36.815300 0.436575
9.791389 36.815300 0.600755
10.106739 36.815300 0.797589
10.422089 36.815300 1.042982
10.737438 36.815300 1.294596
11.052790 36.815300 1.585654
11.368139 36.815300 1.937759
11.683489 36.815300 2.280371
11.998838 36.815300 2.536381
12.314190 36.815300 2.992015
12.629539 36.815300 3.340097
12.944889 36.815300 3.458352
13.260239 36.815300 3.566350
13.575588 36.815300 3.986731
13.890940 36.815300 3.993652
14.206289 36.815300 3.808105
14.521639 36.815300 3.881466
14.836988 36.815300 4.039707
15.152340 36.815300 4.407560
15.467690 36.815300 5.342758
15.783039 36.815300 6.277032
16.098389 36.815300 0.000000
16.413738 36.815300 0.000000
16.729090 36.815300 0.000000
17.044439 36.815300 0.000000
17.359789 36.815300 0.000000
17.675138 36.815300 0.000000
17.990490 36.815300 0.000000
18.305840 36.815300 0.000000
18.621189 36.815300 0.000000
18.936539 36.815300 0.000000
19.251888 36.815300 0.000000
-7.237510 36.499950 0.000000
-6.922160 36.499950 0.000000
-6.606810 36.499950 0.023337
-6.291460 36.499950 0.019929
-5.976110 36.499950 0.019841
-5.660760 36.499950 0.019595
-5.345410 36.499950 0.019533
-5.030060 36.499950 0.019559
-4.714710 36.499950 0.019505
-4.399360 36.499950 0.019670
-4.084010 36.499950 0.019602
-3.768660 36.499950 0.019855
-3.453310 36.499950 0.019504
-3.137960 36.499950 0.019113
-2.822610 36.499950 0.019106
-2.507260 36.499950 0.019700
-2.191910 36.499950 0.020145
-1.876560 36.499950 0.019990
-1.561210 36.499950 0.019979
-1.245860 36.499950 0.019876
-0.930510 36.499950 0.019786
-0.615160 36.499950 0.019783
-0.299810 36.499950 0.019770
0.015540 36.499950 0.020590
0.330890 36.499950 0.020709
0.646240 36.499950 0.020834
0.961589 36.499950 0.021171
1.276940 36.499950 0.021292
1.592289 36.499950 0.021577
1.907640 36.499950 0.022000
2.222990 36.499950 0.022338
2.538340 36.499950 0.023026
2.853690 36.499950 0.023224
3.169039 36.499950 0.023078
3.484390 36.499950 0.023220
3.799739 36.499950 0.023596
4.115090 36.499950 0.023818
4.430439 36.499950 0.024375
4.745790 36.499950 0.025209
5.061140 36.499950 0.025923
5.376490 36.499950 0.026825
5.691840 36.499950 0.028022
6.007189 36.499950 0.029169
6.322540 36.499950 0.030472
6.637889 36.499950 0.032488
6.953240 36.499950 0.036670
7.268589 36.499950 0.042514
7.583940 36.499950 0.051051
7.899290 36.499950 0.066312
8.214640 36.499950 0.094851
8.529989 36.499950 0.139866
8.845339 36.499950 0.196528
9.160688 36.499950 0.305091
9.476040 36.499950 0.421137
9.791389 36.499950 0.612709
10.106739 36.499950 0.830758
10.422089 36.499950 1.020594
10.737438 36.499950 1.332668
11.052790 36.499950 1.646713
11.368139 36.499950 1.971445
11.683489 36.499950 2.340322
11.998838 36.499950 2.561232
12.314190 36.499950 3.037733
12.629539 36.499950 3.306449
12.944889 36.499950 3.593977
13.260239 36.499950 3.798896
13.575588 36.499950 3.927336
13.890940 36.499950 4.016679
14.206289 36.499950 3.884986
14.521639 36.499950 4.017166
14.836988 36.499950 4.201252
15.152340 36.499950 4.449935
15.467690 36.499950 5.238941
15.783039 36.499950 6.138840
16.098389 36.499950 0.000000
16.413738 36.499950 0.000000
16.729090 36.499950 0.000000
17.044439 36.499950 0.000000
17.359789 36.499950 0.000000
17.675138 36.499950 0.000000
17.990490 36.499950 0.000000
18.305840 36.499950 0.000000
18.621189 36.499950 0.000000
18.936539 36.499950 0.000000
19.251888 36.499950 0.000000
-7.237510 36.184601 0.000000
-6.922160 36.184601 0.000000
-6.606810 36.184601 0.023589
-6.291460 36.184601 0.020174
-5.976110 36.184601 0.020315
-5.660760 36.184601 0.019833
-5.345410 36.184601 0.019615
-5.030060 36.184601 0.019503
-4.714710 36.184601 0.019618
-4.399360 36.184601 0.019795
-4.084010 36.184601 0.019698
-3.768660 36.184601 0.019994
-3.453310 36.184601 0.019961
-3.137960 36.184601 0.019267
-2.822610 36.184601 0.019464
-2.507260 36.184601 0.019809
-2.191910 36.184601 0.020352
-1.876560 36.184601 0.020395
-1.561210 36.184601 0.020237
-1.245860 36.184601 0.020280
-0.930510 36.184601 0.020271
-0.615160 36.184601 0.020200
-0.299810 36.184601 0.020309
0.015540 36.184601 0.020877
0.330890 36.184601 0.020768
0.646240 36.184601 0.021014
0.961589 36.184601 0.021077
1.276940 36.184601 0.021275
1.592289 36.184601 0.021586
1.907640 36.184601 0.022173
2.222990 36.184601 0.022385
2.538340 36.184601 0.023265
2.853690 36.184601 0.023701
3.169039 36.184601 0.023515
3.484390 36.184601 0.023595
3.799739 36.184601 0.023941
4.115090 36.184601 0.023634
4.430439 36.184601 0.024285
4.745790 36.184601 0.025556
5.061140 36.184601 0.025980
5.376490 36.184601 0.026581
5.691840 36.184601 0.027669
6.007189 36.184601 0.028569
6.322540 36.184601 0.029597
6.637889 36.184601 0.031760
6.953240 36.184601 0.035680
7.268589 36.184601 0.042035
7.583940 36.184601 0.049460
7.899290 36.184601 0.064305
8.214640 36.184601 0.093502
8.529989 36.184601 0.137764
8.845339 36.184601 0.202565
9.160688 36.184601 0.305045
9.476040 36.184601 0.434940
9.791389 36.184601 0.622000
10.106739 36.184601 0.819405
10.422089 36.184601 1.054235
10.737438 36.184601 1.331184
11.052790 36.184601 1.597514
11.368139 36.184601 1.963557
11.683489 36.184601 2.360649
11.998838 36.184601 2.711296
12.314190 36.184601 2.917918
12.629539 36.184601 3.280387
12.944889 36.184601 3.686314
13.260239 36.184601 3.885269
13.575588 36.184601 3.901096
13.890940 36.184601 3.918937
14.206289 36.184601 3.848143
14.521639 36.184601 4.037224
14.836988 36.184601 4.349795
15.152340 36.184601 4.554902
15.467690 36.184601 5.233965
15.783039 36.184601 6.013231
16.098389 36.184601 0.000000
16.413738 36.184601 0.000000
16.729090 36.184601 0.000000
17.044439 36.184601 0.000000
17.359789 36.184601 0.000000
17.675138 36.184601 0.000000
17.990490 36.184601 0.000000
18.305840 36.184601 0.000000
18.621189 36.184601 0.000000
18.936539 36.184601 0.000000
19.251888 36.184601 0.000000
-7.237510 35.869251 0.000000
-6.922160 35.869251 0.000000
-6.606810 35.869251 0.023791
-6.291460 35.869251 0.020298
-5.976110 35.869251 0.020355
-5.660760 35.869251 0.019890
-5.345410 35.869251 0.019554
-5.030060 35.869251 0.019409
-4.714710 35.869251 0.019536
-4.399360 35.869251 0.019624
-4.084010 35.869251 0.019784
-3.768660 35.869251 0.020107
-3.453310 35.869251 0.020208
-3.137960 35.869251 0.019698
-2.822610 35.869251 0.019640
-2.507260 35.869251 0.019555
-2.191910 35.869251 0.019975
-1.876560 35.869251 0.020047
-1.561210 35.869251 0.020115
-1.245860 35.869251 0.020270
-0.930510 35.869251 0.020417
-0.615160 35.869251 0.020417
-0.299810 35.869251 0.020608
0.015540 35.869251 0.021148
0.330890 35.869251 0.020981
0.646240 35.869251 0.021148
0.961589 35.869251 0.021089
1.276940 35.869251 0.021258
1.592289 35.869251 0.021705
1.907640 35.869251 0.022062
2.222990 35.869251 0.022613
2.538340 35.869251 0.023575
2.853690 35.869251 0.024220
3.169039 35.869251 0.023896
3.484390 35.869251 0.023890
3.799739 35.869251 0.023884
4.115090 35.869251 0.023440
4.430439 35.869251 0.024170
4.745790 35.869251 0.025937
5.061140 35.869251 0.026254
5.376490 35.869251 0.026703
5.691840 35.869251 0.027356
6.007189 35.869251 0.028084
6.322540 35.869251 0.029209
6.637889 35.869251 0.031739
6.953240 35.869251 0.035021
7.268589 35.869251 0.041109
7.583940 35.869251 0.049407
7.899290 35.869251 0.064914
8.214640 35.869251 0.090959
8.529989 35.869251 0.134127
8.845339 35.869251 0.203867
9.160688 35.869251 0.306022
9.476040 35.869251 0.425304
9.791389 35.869251 0.614542
10.106739 35.869251 0.806996
10.422089 35.869251 1.079746
10.737438 35.869251 1.336622
11.052790 35.869251 1.569657
11.368139 35.869251 1.907200
11.683489 35.869251 2.331129
11.998838 35.869251 2.775179
12.314190 35.869251 3.018692
12.629539 35.869251 3.190010
12.944889 35.869251 3.621851
13.260239 35.869251 3.872714
13.575588 35.869251 3.887315
13.890940 35.869251 3.805236
14.206289 35.869251 3.834892
14.521639 35.869251 3.929150
14.836988 35.869251 4.371841
15.152340 35.869251 4.590418
15.467690 35.869251 5.293003
15.783039 35.869251 5.626888
16.098389 35.869251 0.000000
16.413738 35.869251 0.000000
16.729090 35.869251 0.000000
17.044439 35.869251 0.000000
17.359789 35.869251 0.000000
17.675138 35.869251 0.000000
17.990490 35.869251 0.000000
18.305840 35.869251 0.000000
18.621189 35.869251 0.000000
18.936539 35.869251 0.000000
19.251888 35.869251 0.000000
-7.237510 35.553902 0.000000
-6.922160 35.553902 0.079282
-6.606810 35.553902 0.024030
-6.291460 35.553902 0.020534
-5.976110 35.553902 0.020447
-5.660760 35.553902 0.019964
-5.345410 35.553902 0.019500
-5.030060 35.553902 0.019597
-4.714710 35.553902 0.019592
-4.399360 35.553902 0.019686
-4.084010 35.553902 0.019849
-3.768660 35.553902 0.020321
-3.453310 35.553902 0.020556
-3.137960 35.553902 0.020345
-2.822610 35.553902 0.019944
-2.507260 35.553902 0.019668
-2.191910 35.553902 0.019932
-1.876560 35.553902 0.019837
-1.561210 35.553902 0.019883
-1.245860 35.553902 0.019889
-0.930510 35.553902 0.020250
-0.615160 35.553902 0.020503
-0.299810 35.553902 0.021155
0.015540 35.553902 0.021683
0.330890 35.553902 0.021397
0.646240 35.553902 0.021289
0.961589 35.553902 0.021280
1.276940 35.553902 0.021387
1.592289 35.553902 0.021501
1.907640 35.553902 0.021861
2.222990 35.553902 0.022694
2.538340 35.553902 0.023858
2.853690 35.553902 0.024554
3.169039 35.553902 0.024259
3.484390 35.553902 0.024109
3.799739 35.553902 0.023763
4.115090 35.553902 0.023612
4.430439 35.553902 0.024266
4.745790 35.553902 0.026000
5.061140 35.553902 0.026522
5.376490 35.553902 0.026941
5.691840 35.553902 0.027139
6.007189 35.553902 0.028058
6.322540 35.553902 0.029153
6.637889 35.553902 0.031649
6.953240 35.553902 0.035099
7.268589 35.553902 0.040956
7.583940 35.553902 0.049337
7.899290 35.553902 0.064082
8.214640 35.553902 0.092057
8.529989 35.553902 0.131390
8.845339 35.553902 0.201995
9.160688 35.553902 0.299525
9.476040 35.553902 0.438342
9.791389 35.553902 0.595813
10.106739 35.553902 0.801443
10.422089 35.553902 1.071406
10.737438 35.553902 1.312687
11.052790 35.553902 1.555319
11.368139 35.553902 1.890591
11.683489 35.553902 2.317207
11.998838 35.553902 2.766082
12.314190 35.553902 3.139363
12.629539 35.553902 3.433303
12.944889 35.553902 3.565621
13.260239 35.553902 3.686924
13.575588 35.553902 3.790859
13.890940 35.553902 3.832131
14.206289 35.553902 3.979249
14.521639 35.553902 4.269006
14.836988 35.553902 4.200289
15.152340 35.553902 4.701597
15.467690 35.553902 5.428168
15.783039 35.553902 5.637577
16.098389 35.553902 0.000000
16.413738 35.553902 0.000000
16.729090 35.553902 0.000000
17.044439 35.553902 0.000000
17.359789 35.553902 0.000000
17.675138 35.553902 0.000000
17.990490 35.553902 0.000000
18.305840 35.553902 0.000000
18.621189 35.553902 0.000000
18.936539 35.553902 0.000000
19.251888 35.553902 0.000000
-7.237510 35.238552 0.000000
-6.922160 35.238552 0.373667
-6.606810 35.238552 0.024417
-6.291460 35.238552 0.020578
-5.976110 35.238552 0.020705
-5.660760 35.238552 0.020277
-5.345410 35.238552 0.019955
-5.030060 35.238552 0.019963
-4.714710 35.238552 0.020070
-4.399360 35.238552 0.019995
-4.084010 35.238552 0.020253
-3.768660 35.238552 0.020614
-3.453310 35.238552 0.021020
-3.137960 35.238552 0.021014
-2.822610 35.238552 0.020352
-2.507260 35.238552 0.020204
-2.191910 35.238552 0.020353
-1.876560 35.238552 0.020246
-1.561210 35.238552 0.020172
-1.245860 35.238552 0.019848
-0.930510 35.238552 0.020188
-0.615160 35.238552 0.020748
-0.299810 35.238552 0.021550
0.015540 35.238552 0.022090
0.330890 35.238552 0.021810
0.646240 35.238552 0.021706
0.961589 35.238552 0.021711
1.276940 35.238552 0.021771
1.592289 35.238552 0.021448
1.907640 35.238552 0.022003
2.222990 35.238552 0.022697
2.538340 35.238552 0.023907
2.853690 35.238552 0.024807
3.169039 35.238552 0.024624
3.484390 35.238552 0.024295
3.799739 35.238552 0.023939
4.115090 35.238552 0.023770
4.430439 35.238552 0.024206
4.745790 35.238552 0.025635
5.061140 35.238552 0.026524
5.376490 35.238552 0.027105
5.691840 35.238552 0.027086
6.007189 35.238552 0.027692
6.322540 35.238552 0.029005
6.637889 35.238552 0.031712
6.953240 35.238552 0.035642
7.268589 35.238552 0.041380
7.583940 35.238552 0.050251
7.899290 35.238552 0.062884
8.214640 35.238552 0.090041
8.529989 35.238552 0.127377
8.845339 35.238552 0.191581
9.160688 35.238552 0.300878
9.476040 35.238552 0.440947
9.791389 35.238552 0.593045
10.106739 35.238552 0.802500
10.422089 35.238552 1.056316
10.737438 35.238552 1.285506
11.052790 35.238552 1.535780
11.368139 35.238552 1.841186
11.683489 35.238552 2.251126
11.998838 35.238552 2.644375
12.314190 35.238552 3.039553
12.629539 35.238552 3.418227
12.944889 35.238552 3.557533
13.260239 35.238552 3.741527
13.575588 35.238552 3.796450
13.890940 35.238552 3.764615
14.206289 35.238552 4.184387
14.521639 35.238552 4.220133
14.836988 35.238552 4.398739
15.152340 35.238552 4.657700
15.467690 35.238552 5.631526
15.783039 35.238552 5.317585
16.098389 35.238552 0.000000
16.413738 35.238552 0.000000
16.729090 35.238552 0.000000
17.044439 35.238552 0.000000
17.359789 35.238552 0.000000
17.675138 35.238552 0.000000
17.990490 35.238552 0.000000
18.305840 35.238552 0.000000
18.621189 35.238552 0.000000
18.936539 35.238552 0.000000
19.251888 35.238552 0.000000
-7.237510 34.923203 0.000000
-6.922160 34.923203 0.127808
-6.606810 34.923203 0.024711
-6.291460 34.923203 0.020925
-5.976110 34.923203 0.021224
-5.660760 34.923203 0.020687
-5.345410 34.923203 0.020441
-5.030060 34.923203 0.020550
-4.714710 34.923203 0.020743
-4.399360 34.923203 0.020627
-4.084010 34.923203 0.020975
-3.768660 34.923203 0.021040
-3.453310 34.923203 0.021250
-3.137960 34.923203 0.021523
-2.822610 34.923203 0.021017
-2.507260 34.923203 0.021140
-2.191910 34.923203 0.021017
-1.876560 34.923203 0.021063
-1.561210 34.923203 0.020889
-1.245860 34.923203 0.020557
-0.930510 34.923203 0.020552
-0.615160 34.923203 0.021184
-0.299810 34.923203 0.021827
0.015540 34.923203 0.022356
0.330890 34.923203 0.021974
0.646240 34.923203 0.021726
0.961589 34.923203 0.021848
1.276940 34.923203 0.021804
1.592289 34.923203 0.021819
1.907640 34.923203 0.022297
2.222990 34.923203 0.022990
2.538340 34.923203 0.024084
2.853690 34.923203 0.024877
3.169039 34.923203 0.024702
3.484390 34.923203 0.024412
3.799739 34.923203 0.024162
4.115090 34.923203 0.023991
4.430439 34.923203 0.024265
4.745790 34.923203 0.025091
5.061140 34.923203 0.026199
5.376490 34.923203 0.026897
5.691840 34.923203 0.027232
6.007189 34.923203 0.027699
6.322540 34.923203 0.029074
6.637889 34.923203 0.031993
6.953240 34.923203 0.035957
7.268589 34.923203 0.041468
7.583940 34.923203 0.050086
7.899290 34.923203 0.064278
8.214640 34.923203 0.087361
8.529989 34.923203 0.126695
8.845339 34.923203 0.196991
9.160688 34.923203 0.305418
9.476040 34.923203 0.444553
9.791389 34.923203 0.588773
10.106739 34.923203 0.785761
10.422089 34.923203 1.067087
10.737438 34.923203 1.316933
11.052790 34.923203 1.566241
11.368139 34.923203 1.883708
11.683489 34.923203 2.300448
11.998838 34.923203 2.701308
12.314190 34.923203 3.116396
12.629539 34.923203 3.384565
12.944889 34.923203 3.615128
13.260239 34.923203 3.888434
13.575588 34.923203 3.740959
13.890940 34.923203 3.905445
14.206289 34.923203 4.136594
14.521639 34.923203 4.476371
14.836988 34.923203 4.390984
15.152340 34.923203 5.060206
15.467690 34.923203 5.924328
15.783039 34.923203 5.433879
16.098389 34.923203 0.000000
16.413738 34.923203 0.000000
16.729090 34.923203 0.000000
17.044439 34.923203 0.000000
17.359789 34.923203 0.000000
17.675138 34.923203 0.000000
17.990490 34.923203 0.000000
18.305840 34.923203 0.000000
18.621189 34.923203 0.000000
18.936539 34.923203 0.000000
19.251888 34.923203 0.000000
-7.237510 34.607849 0.000000
-6.922160 34.607849 0.084289
-6.606810 34.607849 0.025098
-6.291460 34.607849 0.021215
-5.976110 34.607849 0.021695
-5.660760 34.607849 0.021416
-5.345410 34.607849 0.021139
-5.030060 34.607849 0.021300
-4.714710 34.607849 0.021231
-4.399360 34.607849 0.021272
-4.084010 34.607849 0.021405
-3.768660 34.607849 0.021457
-3.453310 34.607849 0.021573
-3.137960 34.607849 0.021795
-2.822610 34.607849 0.021580
-2.507260 34.607849 0.021728
-2.191910 34.607849 0.021699
-1.876560 34.607849 0.021774
-1.561210 34.607849 0.021625
-1.245860 34.607849 0.021472
-0.930510 34.607849 0.021229
-0.615160 34.607849 0.021465
-0.299810 34.607849 0.022285
0.015540 34.607849 0.022675
0.330890 34.607849 0.021971
0.646240 34.607849 0.021547
0.961589 34.607849 0.021715
1.276940 34.607849 0.021965
1.592289 34.607849 0.022278
1.907640 34.607849 0.022617
2.222990 34.607849 0.023178
2.538340 34.607849 0.024127
2.853690 34.607849 0.024793
3.169039 34.607849 0.024906
3.484390 34.607849 0.024753
3.799739 34.607849 0.024441
4.115090 34.607849 0.024291
4.430439 34.607849 0.024206
4.745790 34.607849 0.024585
5.061140 34.607849 0.025982
5.376490 34.607849 0.026636
5.691840 34.607849 0.027317
6.007189 34.607849 0.027700
6.322540 34.607849 0.029022
6.637889 34.607849 0.031830
6.953240 34.607849 0.035627
7.268589 34.607849 0.040641
7.583940 34.607849 0.049859
7.899290 34.607849 0.065670
8.214640 34.607849 0.088566
8.529989 34.607849 0.131644
8.845339 34.607849 0.195438
9.160688 34.607849 0.296324
9.476040 34.607849 0.428234
9.791389 34.607849 0.604506
10.106739 34.607849 0.792384
10.422089 34.607849 1.040586
10.737438 34.607849 1.282205
11.052790 34.607849 1.564488
11.368139 34.607849 1.944365
11.683489 34.607849 2.353582
11.998838 34.607849 2.579043
12.314190 34.607849 3.065831
12.629539 34.607849 3.459487
12.944889 34.607849 3.617019
13.260239 34.607849 3.807609
13.575588 34.607849 3.934381
13.890940 34.607849 3.909041
14.206289 34.607849 4.176258
14.521639 34.607849 4.433372
14.836988 34.607849 4.350708
15.152340 34.607849 4.913785
15.467690 34.607849 5.724376
15.783039 34.607849 5.114484
16.098389 34.607849 0.000000
16.413738 34.607849 0.000000
16.729090 34.607849 0.000000
17.044439 34.607849 0.000000
17.359789 34.607849 0.000000
17.675138 34.607849 0.000000
17.990490 34.607849 0.000000
18.305840 34.607849 0.000000
18.621189 34.607849 0.000000
18.936539 34.607849 0.000000
19.251888 34.607849 0.000000
-7.237510 34.292503 0.000000
-6.922160 34.292503 0.056771
-6.606810 34.292503 0.025709
-6.291460 34.292503 0.021833
-5.976110 34.292503 0.022502
-5.660760 34.292503 0.022269
-5.345410 34.292503 0.022166
-5.030060 34.292503 0.021982
-4.714710 34.292503 0.021622
-4.399360 34.292503 0.021380
-4.084010 34.292503 0.021497
-3.768660 34.292503 0.021564
-3.453310 34.292503 0.021967
-3.137960 34.292503 0.022204
-2.822610 34.292503 0.022132
-2.507260 34.292503 0.022233
-2.191910 34.292503 0.022318
-1.876560 34.292503 0.022265
-1.561210 34.292503 0.022299
-1.245860 34.292503 0.022139
-0.930510 34.292503 0.021868
-0.615160 34.292503 0.022179
-0.299810 34.292503 0.022711
0.015540 34.292503 0.022954
0.330890 34.292503 0.022153
0.646240 34.292503 0.021731
0.961589 34.292503 0.021792
1.276940 34.292503 0.022115
1.592289 34.292503 0.022493
1.907640 34.292503 0.022891
2.222990 34.292503 0.023496
2.538340 34.292503 0.024298
2.853690 34.292503 0.024802
3.169039 34.292503 0.025099
3.484390 34.292503 0.025020
3.799739 34.292503 0.024749
4.115090 34.292503 0.024407
4.430439 34.292503 0.024136
4.745790 34.292503 0.024823
5.061140 34.292503 0.025788
5.376490 34.292503 0.026399
5.691840 34.292503 0.027478
6.007189 34.292503 0.027772
6.322540 34.292503 0.028894
6.637889 34.292503 0.031016
6.953240 34.292503 0.034903
7.268589 34.292503 0.039984
7.583940 34.292503 0.049841
7.899290 34.292503 0.065594
8.214640 34.292503 0.089891
8.529989 34.292503 0.129516
8.845339 34.292503 0.197318
9.160688 34.292503 0.294609
9.476040 34.292503 0.433420
9.791389 34.292503 0.595834
10.106739 34.292503 0.788347
10.422089 34.292503 1.029580
10.737438 34.292503 1.303487
11.052790 34.292503 1.563018
11.368139 34.292503 1.953886
11.683489 34.292503 2.248548
11.998838 34.292503 2.692848
12.314190 34.292503 3.103202
12.629539 34.292503 3.515046
12.944889 34.292503 3.680626
13.260239 34.292503 3.813903
13.575588 34.292503 4.099770
13.890940 34.292503 4.223768
14.206289 34.292503 4.307661
14.521639 34.292503 4.495489
14.836988 34.292503 4.357413
15.152340 34.292503 4.781239
15.467690 34.292503 5.911422
15.783039 34.292503 5.311391
16.098389 34.292503 0.000000
16.413738 34.292503 0.000000
16.729090 34.292503 0.000000
17.044439 34.292503 0.000000
17.359789 34.292503 0.000000
17.675138 34.292503 0.000000
17.990490 34.292503 0.000000
18.305840 34.292503 0.000000
18.621189 34.292503 0.000000
18.936539 34.292503 0.000000
19.251888 34.292503 0.000000
-7.237510 33.977150 0.000000
-6.922160 33.977150 0.044073
-6.606810 33.977150 0.026376
-6.291460 33.977150 0.022370
-5.976110 33.977150 0.023210
-5.660760 33.977150 0.022993
-5.345410 33.977150 0.022837
-5.030060 33.977150 0.022638
-4.714710 33.977150 0.021882
-4.399360 33.977150 0.021208
-4.084010 33.977150 0.021436
-3.768660 33.977150 0.021817
-3.453310 33.977150 0.022488
-3.137960 33.977150 0.022689
-2.822610 33.977150 0.022558
-2.507260 33.977150 0.022751
-2.191910 33.977150 0.022837
-1.876560 33.977150 0.022865
-1.561210 33.977150 0.022880
-1.245860 33.977150 0.022259
-0.930510 33.977150 0.022273
-0.615160 33.977150 0.022582
-0.299810 33.977150 0.023154
0.015540 33.977150 0.023053
0.330890 33.977150 0.022479
0.646240 33.977150 0.022243
0.961589 33.977150 0.022057
1.276940 33.977150 0.022309
1.592289 33.977150 0.022691
1.907640 33.977150 0.023013
2.222990 33.977150 0.023660
2.538340 33.977150 0.024283
2.853690 33.977150 0.024518
3.169039 33.977150 0.024831
3.484390 33.977150 0.024932
3.799739 33.977150 0.024764
4.115090 33.977150 0.024216
4.430439 33.977150 0.024192
4.745790 33.977150 0.024946
5.061140 33.977150 0.025591
5.376490 33.977150 0.026049
5.691840 33.977150 0.027337
6.007189 33.977150 0.027994
6.322540 33.977150 0.029105
6.637889 33.977150 0.031069
6.953240 33.977150 0.034565
7.268589 33.977150 0.040213
7.583940 33.977150 0.050201
7.899290 33.977150 0.065613
8.214640 33.977150 0.091687
8.529989 33.977150 0.130342
8.845339 33.977150 0.203018
9.160688 33.977150 0.302264
9.476040 33.977150 0.429760
9.791389 33.977150 0.596567
10.106739 33.977150 0.779343
10.422089 33.977150 1.001692
10.737438 33.977150 1.283816
11.052790 33.977150 1.599811
11.368139 33.977150 1.886845
11.683489 33.977150 2.343710
11.998838 33.977150 2.653264
12.314190 33.977150 3.082734
12.629539 33.977150 3.447767
12.944889 33.977150 3.842821
13.260239 33.977150 3.828800
13.575588 33.977150 4.111342
13.890940 33.977150 4.106748
14.206289 33.977150 4.389767
14.521639 33.977150 4.565717
14.836988 33.977150 4.793983
15.152340 33.977150 5.085287
15.467690 33.977150 6.003570
15.783039 33.977150 5.442828
16.098389 33.977150 0.000000
16.413738 33.977150 0.000000
16.729090 33.977150 0.000000
17.044439 33.977150 0.000000
17.359789 33.977150 0.000000
17.675138 33.977150 0.000000
17.990490 33.977150 0.000000
18.305840 33.977150 0.000000
18.621189 33.977150 0.000000
18.936539 33.977150 0.000000
19.251888 33.977150 0.000000
-7.237510 33.661800 0.000000
-6.922160 33.661800 0.043242
-6.606810 33.661800 0.026802
-6.291460 33.661800 0.023077
-5.976110 33.661800 0.023852
-5.660760 33.661800 0.023532
-5.345410 33.661800 0.023267
-5.030060 33.661800 0.022994
-4.714710 33.661800 0.022471
-4.399360 33.661800 0.021833
-4.084010 33.661800 0.021805
-3.768660 33.661800 0.022402
-3.453310 33.661800 0.023109
-3.137960 33.661800 0.023202
-2.822610 33.661800 0.023011
-2.507260 33.661800 0.023357
-2.191910 33.661800 0.023271
-1.876560 33.661800 0.023355
-1.561210 33.661800 0.023126
-1.245860 33.661800 0.022315
-0.930510 33.661800 0.022691
-0.615160 33.661800 0.022974
-0.299810 33.661800 0.023382
0.015540 33.661800 0.023422
0.330890 33.661800 0.022901
0.646240 33.661800 0.022744
0.961589 33.661800 0.022602
1.276940 33.661800 0.022548
1.592289 33.661800 0.022696
1.907640 33.661800 0.023006
2.222990 33.661800 0.023770
2.538340 33.661800 0.024269
2.853690 33.661800 0.024465
3.169039 33.661800 0.024751
3.484390 33.661800 0.024649
3.799739 33.661800 0.024339
4.115090 33.661800 0.024258
4.430439 33.661800 0.024395
4.745790 33.661800 0.025082
5.061140 33.661800 0.025549
5.376490 33.661800 0.026003
5.691840 33.661800 0.027033
6.007189 33.661800 0.027932
6.322540 33.661800 0.029454
6.637889 33.661800 0.031768
6.953240 33.661800 0.035228
7.268589 33.661800 0.040238
7.583940 33.661800 0.050629
7.899290 33.661800 0.066126
8.214640 33.661800 0.093364
8.529989 33.661800 0.137053
8.845339 33.661800 0.206216
9.160688 33.661800 0.292921
9.476040 33.661800 0.429788
9.791389 33.661800 0.603161
10.106739 33.661800 0.774447
10.422089 33.661800 0.996295
10.737438 33.661800 1.307078
11.052790 33.661800 1.570726
11.368139 33.661800 1.910429
11.683489 33.661800 2.258579
11.998838 33.661800 2.674129
12.314190 33.661800 3.039482
12.629539 33.661800 3.561496
12.944889 33.661800 3.866988
13.260239 33.661800 4.029788
13.575588 33.661800 4.158585
13.890940 33.661800 4.237056
14.206289 33.661800 4.381973
14.521639 33.661800 4.512153
14.836988 33.661800 4.847423
15.152340 33.661800 5.226045
15.467690 33.661800 6.502281
15.783039 33.661800 5.760424
16.098389 33.661800 0.000000
16.413738 33.661800 0.000000
16.729090 33.661800 0.000000
17.044439 33.661800 0.000000
17.359789 33.661800 0.000000
17.675138 33.661800 0.000000
17.990490 33.661800 0.000000
18.305840 33.661800 0.000000
18.621189 33.661800 0.000000
18.936539 33.661800 0.000000
19.251888 33.661800 0.000000
-7.237510 33.346451 0.000000
-6.922160 33.346451 0.039154
-6.606810 33.346451 0.027106
-6.291460 33.346451 0.023638
-5.976110 33.346451 0.024198
-5.660760 33.346451 0.023750
-5.345410 33.346451 0.023535
-5.030060 33.346451 0.023295
-4.714710 33.346451 0.023167
-4.399360 33.346451 0.022863
-4.084010 33.346451 0.022425
-3.768660 33.346451 0.022874
-3.453310 33.346451 0.023571
-3.137960 33.346451 0.023862
-2.822610 33.346451 0.023648
-2.507260 33.346451 0.023922
-2.191910 33.346451 0.023957
-1.876560 33.346451 0.023985
-1.561210 33.346451 0.023650
-1.245860 33.346451 0.022628
-0.930510 33.346451 0.022919
-0.615160 33.346451 0.023266
-0.299810 33.346451 0.023622
0.015540 33.346451 0.023766
0.330890 33.346451 0.023397
0.646240 33.346451 0.023228
0.961589 33.346451 0.023002
1.276940 33.346451 0.022582
1.592289 33.346451 0.022853
1.907640 33.346451 0.023197
2.222990 33.346451 0.023810
2.538340 33.346451 0.024444
2.853690 33.346451 0.024916
3.169039 33.346451 0.024974
3.484390 33.346451 0.024843
3.799739 33.346451 0.024561
4.115090 33.346451 0.024333
4.430439 33.346451 0.024673
4.745790 33.346451 0.025276
5.061140 33.346451 0.025692
5.376490 33.346451 0.025968
5.691840 33.346451 0.026647
6.007189 33.346451 0.027899
6.322540 33.346451 0.029579
6.637889 33.346451 0.032070
6.953240 33.346451 0.035281
7.268589 33.346451 0.040631
7.583940 33.346451 0.050667
7.899290 33.346451 0.064699
8.214640 33.346451 0.096204
8.529989 33.346451 0.129826
8.845339 33.346451 0.204719
9.160688 33.346451 0.292142
9.476040 33.346451 0.441449
9.791389 33.346451 0.611236
10.106739 33.346451 0.796617
10.422089 33.346451 1.025398
10.737438 33.346451 1.314727
11.052790 33.346451 1.564004
11.368139 33.346451 1.906818
11.683489 33.346451 2.241970
11.998838 33.346451 2.614530
12.314190 33.346451 3.069406
12.629539 33.346451 3.482531
12.944889 33.346451 3.710667
13.260239 33.346451 4.001290
13.575588 33.346451 4.138608
13.890940 33.346451 4.353060
14.206289 33.346451 4.484840
14.521639 33.346451 4.732774
14.836988 33.346451 4.738719
15.152340 33.346451 5.374762
15.467690 33.346451 6.871750
15.783039 33.346451 5.578076
16.098389 33.346451 0.000000
16.413738 33.346451 0.000000
16.729090 33.346451 0.000000
17.044439 33.346451 0.000000
17.359789 33.346451 0.000000
17.675138 33.346451 0.000000
17.990490 33.346451 0.000000
18.305840 33.346451 0.000000
18.621189 33.346451 0.000000
18.936539 33.346451 0.000000
19.251888 33.346451 0.000000
-7.237510 33.031101 0.000000
-6.922160 33.031101 0.039468
-6.606810 33.031101 0.027327
-6.291460 33.031101 0.024049
-5.976110 33.031101 0.024259
-5.660760 33.031101 0.024206
-5.345410 33.031101 0.024019
-5.030060 33.031101 0.023677
-4.714710 33.031101 0.023846
-4.399360 33.031101 0.023822
-4.084010 33.031101 0.023196
-3.768660 33.031101 0.023538
-3.453310 33.031101 0.024231
-3.137960 33.031101 0.024589
-2.822610 33.031101 0.024469
-2.507260 33.031101 0.024607
-2.191910 33.031101 0.024583
-1.876560 33.031101 0.024588
-1.561210 33.031101 0.024057
-1.245860 33.031101 0.022968
-0.930510 33.031101 0.022756
-0.615160 33.031101 0.023553
-0.299810 33.031101 0.023764
0.015540 33.031101 0.024055
0.330890 33.031101 0.023912
0.646240 33.031101 0.023536
0.961589 33.031101 0.023250
1.276940 33.031101 0.022842
1.592289 33.031101 0.023343
1.907640 33.031101 0.023930
2.222990 33.031101 0.024302
2.538340 33.031101 0.024968
2.853690 33.031101 0.025513
3.169039 33.031101 0.025473
3.484390 33.031101 0.025077
3.799739 33.031101 0.024916
4.115090 33.031101 0.024608
4.430439 33.031101 0.024780
4.745790 33.031101 0.024991
5.061140 33.031101 0.025585
5.376490 33.031101 0.025987
5.691840 33.031101 0.026820
6.007189 33.031101 0.027958
6.322540 33.031101 0.029379
6.637889 33.031101 0.031897
6.953240 33.031101 0.035228
7.268589 33.031101 0.040341
7.583940 33.031101 0.049927
7.899290 33.031101 0.067233
8.214640 33.031101 0.094040
8.529989 33.031101 0.134943
8.845339 33.031101 0.198613
9.160688 33.031101 0.289149
9.476040 33.031101 0.417245
9.791389 33.031101 0.592634
10.106739 33.031101 0.800911
10.422089 33.031101 1.020281
10.737438 33.031101 1.313377
11.052790 33.031101 1.635479
11.368139 33.031101 1.979580
11.683489 33.031101 2.227424
11.998838 33.031101 2.683143
12.314190 33.031101 3.039882
12.629539 33.031101 3.362522
12.944889 33.031101 3.565707
13.260239 33.031101 4.043102
13.575588 33.031101 4.152089
13.890940 33.031101 4.315243
14.206289 33.031101 4.496535
14.521639 33.031101 4.635635
14.836988 33.031101 4.734682
15.152340 33.031101 5.392128
15.467690 33.031101 6.686774
15.783039 33.031101 6.205636
16.098389 33.031101 0.000000
16.413738 33.031101 0.000000
16.729090 33.031101 0.000000
17.044439 33.031101 0.000000
17.359789 33.031101 0.000000
17.675138 33.031101 0.000000
17.990490 33.031101 0.000000
18.305840 33.031101 0.000000
18.621189 33.031101 0.000000
18.936539 33.031101 0.000000
19.251888 33.031101 0.000000
-7.237510 32.715752 0.000000
-6.922160 32.715752 0.039845
-6.606810 32.715752 0.027531
-6.291460 32.715752 0.024235
-5.976110 32.715752 0.024520
-5.660760 32.715752 0.024929
-5.345410 32.715752 0.024927
-5.030060 32.715752 0.024714
-4.714710 32.715752 0.024726
-4.399360 32.715752 0.024329
-4.084010 32.715752 0.023868
-3.768660 32.715752 0.024162
-3.453310 32.715752 0.024766
-3.137960 32.715752 0.025377
-2.822610 32.715752 0.025155
-2.507260 32.715752 0.025319
-2.191910 32.715752 0.025335
-1.876560 32.715752 0.025259
-1.561210 32.715752 0.024610
-1.245860 32.715752 0.023590
-0.930510 32.715752 0.023137
-0.615160 32.715752 0.023855
-0.299810 32.715752 0.024398
0.015540 32.715752 0.024435
0.330890 32.715752 0.024129
0.646240 32.715752 0.023986
0.961589 32.715752 0.023793
1.276940 32.715752 0.023508
1.592289 32.715752 0.024111
1.907640 32.715752 0.024823
2.222990 32.715752 0.025069
2.538340 32.715752 0.025780
2.853690 32.715752 0.026337
3.169039 32.715752 0.026055
3.484390 32.715752 0.025294
3.799739 32.715752 0.025056
4.115090 32.715752 0.024702
4.430439 32.715752 0.024608
4.745790 32.715752 0.024844
5.061140 32.715752 0.025385
5.376490 32.715752 0.025935
5.691840 32.715752 0.027105
6.007189 32.715752 0.027930
6.322540 32.715752 0.029069
6.637889 32.715752 0.031286
6.953240 32.715752 0.034537
7.268589 32.715752 0.040330
7.583940 32.715752 0.049565
7.899290 32.715752 0.066675
8.214640 32.715752 0.092906
8.529989 32.715752 0.131703
8.845339 32.715752 0.201576
9.160688 32.715752 0.301696
9.476040 32.715752 0.418206
9.791389 32.715752 0.598716
10.106739 32.715752 0.793307
10.422089 32.715752 1.018889
10.737438 32.715752 1.326689
11.052790 32.715752 1.597227
11.368139 32.715752 1.963031
11.683489 32.715752 2.351998
11.998838 32.715752 2.713401
12.314190 32.715752 3.150957
12.629539 32.715752 3.433916
12.944889 32.715752 3.784687
13.260239 32.715752 4.012001
13.575588 32.715752 4.152112
13.890940 32.715752 4.247245
14.206289 32.715752 4.427901
14.521639 32.715752 4.566068
14.836988 32.715752 4.809102
15.152340 32.715752 5.266820
15.467690 32.715752 6.704032
15.783039 32.715752 4.942327
16.098389 32.715752 0.000000
16.413738 32.715752 0.000000
16.729090 32.715752 0.000000
17.044439 32.715752 0.000000
17.359789 32.715752 0.000000
17.675138 32.715752 0.000000
17.990490 32.715752 0.000000
18.305840 32.715752 0.000000
18.621189 32.715752 0.000000
18.936539 32.715752 0.000000
19.251888 32.715752 0.000000
-7.237510 32.400398 0.000000
-6.922160 32.400398 0.041478
-6.606810 32.400398 0.027755
-6.291460 32.400398 0.024223
-5.976110 32.400398 0.024958
-5.660760 32.400398 0.025605
-5.345410 32.400398 0.025786
-5.030060 32.400398 0.025392
-4.714710 32.400398 0.025146
-4.399360 32.400398 0.024395
-4.084010 32.400398 0.024452
-3.768660 32.400398 0.024637
-3.453310 32.400398 0.025466
-3.137960 32.400398 0.025958
-2.822610 32.400398 0.025994
-2.507260 32.400398 0.025689
-2.191910 32.400398 0.025638
-1.876560 32.400398 0.025673
-1.561210 32.400398 0.025114
-1.245860 32.400398 0.024571
-0.930510 32.400398 0.024298
-0.615160 32.400398 0.024541
-0.299810 32.400398 0.025145
0.015540 32.400398 0.024881
0.330890 32.400398 0.024249
0.646240 32.400398 0.024526
0.961589 32.400398 0.024870
1.276940 32.400398 0.024428
1.592289 32.400398 0.024888
1.907640 32.400398 0.025264
2.222990 32.400398 0.025459
2.538340 32.400398 0.026264
2.853690 32.400398 0.026882
3.169039 32.400398 0.026514
3.484390 32.400398 0.025688
3.799739 32.400398 0.025075
4.115090 32.400398 0.024614
4.430439 32.400398 0.024368
4.745790 32.400398 0.024758
5.061140 32.400398 0.025716
5.376490 32.400398 0.026345
5.691840 32.400398 0.027377
6.007189 32.400398 0.027935
6.322540 32.400398 0.028581
6.637889 32.400398 0.030675
6.953240 32.400398 0.033897
7.268589 32.400398 0.039527
7.583940 32.400398 0.049801
7.899290 32.400398 0.064851
8.214640 32.400398 0.089668
8.529989 32.400398 0.141866
8.845339 32.400398 0.206233
9.160688 32.400398 0.308961
9.476040 32.400398 0.431700
9.791389 32.400398 0.614216
10.106739 32.400398 0.804620
10.422089 32.400398 1.034757
10.737438 32.400398 1.330473
11.052790 32.400398 1.625961
11.368139 32.400398 1.979436
11.683489 32.400398 2.367162
11.998838 32.400398 2.737259
12.314190 32.400398 3.237004
12.629539 32.400398 3.509007
12.944889 32.400398 3.712584
13.260239 32.400398 4.043077
13.575588 32.400398 4.331378
13.890940 32.400398 4.350886
14.206289 32.400398 4.278879
14.521639 32.400398 4.617606
14.836988 32.400398 4.839009
15.152340 32.400398 5.605256
15.467690 32.400398 6.702020
15.783039 32.400398 9.210074
16.098389 32.400398 0.000000
16.413738 32.400398 0.000000
16.729090 32.400398 0.000000
17.044439 32.400398 0.000000
17.359789 32.400398 0.000000
17.675138 32.400398 0.000000
17.990490 32.400398 0.000000
18.305840 32.400398 0.000000
18.621189 32.400398 0.000000
18.936539 32.400398 0.000000
19.251888 32.400398 0.000000
-7.237510 32.085052 0.000000
-6.922160 32.085052 0.042191
-6.606810 32.085052 0.028440
-6.291460 32.085052 0.024749
-5.976110 32.085052 0.025502
-5.660760 32.085052 0.026108
-5.345410 32.085052 0.025970
-5.030060 32.085052 0.025876
-4.714710 32.085052 0.025286
-4.399360 32.085052 0.024631
-4.084010 32.085052 0.025121
-3.768660 32.085052 0.025647
-3.453310 32.085052 0.026133
-3.137960 32.085052 0.026351
-2.822610 32.085052 0.026707
-2.507260 32.085052 0.026334
-2.191910 32.085052 0.025781
-1.876560 32.085052 0.025676
-1.561210 32.085052 0.025435
-1.245860 32.085052 0.025466
-0.930510 32.085052 0.025605
-0.615160 32.085052 0.025780
-0.299810 32.085052 0.025719
0.015540 32.085052 0.025608
0.330890 32.085052 0.024965
0.646240 32.085052 0.025630
0.961589 32.085052 0.025617
1.276940 32.085052 0.025265
1.592289 32.085052 0.025276
1.907640 32.085052 0.025542
2.222990 32.085052 0.025666
2.538340 32.085052 0.026561
2.853690 32.085052 0.027070
3.169039 32.085052 0.026800
3.484390 32.085052 0.026139
3.799739 32.085052 0.025236
4.115090 32.085052 0.024491
4.430439 32.085052 0.024502
4.745790 32.085052 0.025011
5.061140 32.085052 0.026159
5.376490 32.085052 0.026877
5.691840 32.085052 0.027243
6.007189 32.085052 0.027679
6.322540 32.085052 0.028070
6.637889 32.085052 0.030255
6.953240 32.085052 0.033428
7.268589 32.085052 0.039221
7.583940 32.085052 0.048033
7.899290 32.085052 0.064127
8.214640 32.085052 0.091029
8.529989 32.085052 0.134261
8.845339 32.085052 0.210299
9.160688 32.085052 0.301331
9.476040 32.085052 0.438275
9.791389 32.085052 0.615588
10.106739 32.085052 0.826919
10.422089 32.085052 1.017583
10.737438 32.085052 1.329529
11.052790 32.085052 1.591117
11.368139 32.085052 2.002526
11.683489 32.085052 2.383676
11.998838 32.085052 2.841684
12.314190 32.085052 3.196088
12.629539 32.085052 3.602485
12.944889 32.085052 3.748666
13.260239 32.085052 4.048950
13.575588 32.085052 4.355217
13.890940 32.085052 4.403918
14.206289 32.085052 4.432316
14.521639 32.085052 4.720899
14.836988 32.085052 5.170809
15.152340 32.085052 5.889094
15.467690 32.085052 7.140795
15.783039 32.085052 0.000000
16.098389 32.085052 0.000000
16.413738 32.085052 0.000000
16.729090 32.085052 0.000000
17.044439 32.085052 0.000000
17.359789 32.085052 0.000000
17.675138 32.085052 0.000000
17.990490 32.085052 0.000000
18.305840 32.085052 0.000000
18.621189 32.085052 0.000000
18.936539 32.085052 0.000000
19.251888 32.085052 0.000000
-7.237510 31.769701 0.000000
-6.922160 31.769701 0.042935
-6.606810 31.769701 0.028696
-6.291460 31.769701 0.025738
-5.976110 31.769701 0.026209
-5.660760 31.769701 0.026253
-5.345410 31.769701 0.025946
-5.030060 31.769701 0.026229
-4.714710 31.769701 0.025779
-4.399360 31.769701 0.025115
-4.084010 31.769701 0.025588
-3.768660 31.769701 0.026722
-3.453310 31.769701 0.026825
-3.137960 31.769701 0.026948
-2.822610 31.769701 0.027212
-2.507260 31.769701 0.027067
-2.191910 31.769701 0.026153
-1.876560 31.769701 0.025958
-1.561210 31.769701 0.025819
-1.245860 31.769701 0.025972
-0.930510 31.769701 0.026541
-0.615160 31.769701 0.026724
-0.299810 31.769701 0.026644
0.015540 31.769701 0.026435
0.330890 31.769701 0.025760
0.646240 31.769701 0.026505
0.961589 31.769701 0.026107
1.276940 31.769701 0.025711
1.592289 31.769701 0.025523
1.907640 31.769701 0.025653
2.222990 31.769701 0.026031
2.538340 31.769701 0.026828
2.853690 31.769701 0.026754
3.169039 31.769701 0.026607
3.484390 31.769701 0.026114
3.799739 31.769701 0.025116
4.115090 31.769701 0.024704
4.430439 31.769701 0.024820
4.745790 31.769701 0.025305
5.061140 31.769701 0.026413
5.376490 31.769701 0.026969
5.691840 31.769701 0.027107
6.007189 31.769701 0.027554
6.322540 31.769701 0.028064
6.637889 31.769701 0.030285
6.953240 31.769701 0.033619
7.268589 31.769701 0.039197
7.583940 31.769701 0.047658
7.899290 31.769701 0.061960
8.214640 31.769701 0.090424
8.529989 31.769701 0.139166
8.845339 31.769701 0.207951
9.160688 31.769701 0.299353
9.476040 31.769701 0.435442
9.791389 31.769701 0.625956
10.106739 31.769701 0.840582
10.422089 31.769701 1.067912
10.737438 31.769701 1.326077
11.052790 31.769701 1.634400
11.368139 31.769701 1.976059
11.683489 31.769701 2.426505
11.998838 31.769701 2.842913
12.314190 31.769701 3.109420
12.629539 31.769701 3.520258
12.944889 31.769701 3.747947
13.260239 31.769701 4.159456
13.575588 31.769701 4.230898
13.890940 31.769701 4.229687
14.206289 31.769701 4.399506
14.521639 31.769701 4.860955
14.836988 31.769701 5.205234
15.152340 31.769701 6.089783
15.467690 31.769701 7.419987
15.783039 31.769701 0.000000
16.098389 31.769701 0.000000
16.413738 31.769701 0.000000
16.729090 31.769701 0.000000
17.044439 31.769701 0.000000
17.359789 31.769701 0.000000
17.675138 31.769701 0.000000
17.990490 31.769701 0.000000
18.305840 31.769701 0.000000
18.621189 31.769701 0.000000
18.936539 31.769701 0.000000
19.251888 31.769701 0.000000
-7.237510 31.454351 0.000000
-6.922160 31.454351 0.044486
-6.606810 31.454351 0.029977
-6.291460 31.454351 0.026826
-5.976110 31.454351 0.026551
-5.660760 31.454351 0.026611
-5.345410 31.454351 0.026301
-5.030060 31.454351 0.026485
-4.714710 31.454351 0.026426
-4.399360 31.454351 0.025890
-4.084010 31.454351 0.026213
-3.768660 31.454351 0.027474
-3.453310 31.454351 0.027606
-3.137960 31.454351 0.028046
-2.822610 31.454351 0.028042
-2.507260 31.454351 0.027778
-2.191910 31.454351 0.026819
-1.876560 31.454351 0.026713
-1.561210 31.454351 0.026526
-1.245860 31.454351 0.026400
-0.930510 31.454351 0.026766
-0.615160 31.454351 0.027056
-0.299810 31.454351 0.027185
0.015540 31.454351 0.026558
0.330890 31.454351 0.025884
0.646240 31.454351 0.026693
0.961589 31.454351 0.026664
1.276940 31.454351 0.026228
1.592289 31.454351 0.026181
1.907640 31.454351 0.025987
2.222990 31.454351 0.026552
2.538340 31.454351 0.027237
2.853690 31.454351 0.026699
3.169039 31.454351 0.026338
3.484390 31.454351 0.025870
3.799739 31.454351 0.025177
4.115090 31.454351 0.024815
4.430439 31.454351 0.025053
4.745790 31.454351 0.025579
5.061140 31.454351 0.026563
5.376490 31.454351 0.026687
5.691840 31.454351 0.026947
6.007189 31.454351 0.027543
6.322540 31.454351 0.028393
6.637889 31.454351 0.030623
6.953240 31.454351 0.034074
7.268589 31.454351 0.039417
7.583940 31.454351 0.047357
7.899290 31.454351 0.062447
8.214640 31.454351 0.092949
8.529989 31.454351 0.134487
8.845339 31.454351 0.196006
9.160688 31.454351 0.296402
9.476040 31.454351 0.419324
9.791389 31.454351 0.625902
10.106739 31.454351 0.851273
10.422089 31.454351 1.116128
10.737438 31.454351 1.363316
11.052790 31.454351 1.610242
11.368139 31.454351 2.006986
11.683489 31.454351 2.449001
11.998838 31.454351 2.941206
12.314190 31.454351 3.272012
12.629539 31.454351 3.505488
12.944889 31.454351 3.857968
13.260239 31.454351 4.183677
13.575588 31.454351 4.242967
13.890940 31.454351 4.191665
14.206289 31.454351 4.437162
14.521639 31.454351 4.931229
14.836988 31.454351 5.598190
15.152340 31.454351 6.012648
15.467690 31.454351 7.370785
15.783039 31.454351 0.000000
16.098389 31.454351 0.000000
16.413738 31.454351 0.000000
16.729090 31.454351 0.000000
17.044439 31.454351 0.000000
17.359789 31.454351 0.000000
17.675138 31.454351 0.000000
17.990490 31.454351 0.000000
18.305840 31.454351 0.000000
18.621189 31.454351 0.000000
18.936539 31.454351 0.000000
19.251888 31.454351 0.000000
-7.237510 31.139000 0.000000
-6.922160 31.139000 0.046737
-6.606810 31.139000 0.030880
-6.291460 31.139000 0.027763
-5.976110 31.139000 0.027381
-5.660760 31.139000 0.027296
-5.345410 31.139000 0.027173
-5.030060 31.139000 0.026692
-4.714710 31.139000 0.026499
-4.399360 31.139000 0.026566
-4.084010 31.139000 0.027163
-3.768660 31.139000 0.028028
-3.453310 31.139000 0.028378
-3.137960 31.139000 0.029053
-2.822610 31.139000 0.028834
-2.507260 31.139000 0.028388
-2.191910 31.139000 0.027458
-1.876560 31.139000 0.027560
-1.561210 31.139000 0.027293
-1.245860 31.139000 0.026820
-0.930510 31.139000 0.026880
-0.615160 31.139000 0.027059
-0.299810 31.139000 0.027757
0.015540 31.139000 0.027151
0.330890 31.139000 0.026342
0.646240 31.139000 0.026801
0.961589 31.139000 0.026916
1.276940 31.139000 0.026781
1.592289 31.139000 0.026582
1.907640 31.139000 0.026142
2.222990 31.139000 0.027022
2.538340 31.139000 0.027588
2.853690 31.139000 0.027040
3.169039 31.139000 0.026496
3.484390 31.139000 0.025749
3.799739 31.139000 0.025317
4.115090 31.139000 0.024899
4.430439 31.139000 0.024981
4.745790 31.139000 0.025731
5.061140 31.139000 0.026266
5.376490 31.139000 0.026167
5.691840 31.139000 0.026606
6.007189 31.139000 0.027744
6.322540 31.139000 0.028629
6.637889 31.139000 0.030946
6.953240 31.139000 0.034342
7.268589 31.139000 0.038990
7.583940 31.139000 0.048320
7.899290 31.139000 0.062788
8.214640 31.139000 0.093448
8.529989 31.139000 0.138665
8.845339 31.139000 0.197231
9.160688 31.139000 0.301975
9.476040 31.139000 0.436859
9.791389 31.139000 0.640327
10.106739 31.139000 0.844159
10.422089 31.139000 1.099303
10.737438 31.139000 1.432374
11.052790 31.139000 1.735441
11.368139 31.139000 2.113081
11.683489 31.139000 2.455122
11.998838 31.139000 2.843601
12.314190 31.139000 3.210795
12.629539 31.139000 3.695916
12.944889 31.139000 3.967042
13.260239 31.139000 4.140006
13.575588 31.139000 4.351004
13.890940 31.139000 4.239619
14.206289 31.139000 4.462058
14.521639 31.139000 4.891466
14.836988 31.139000 5.594310
15.152340 31.139000 6.149284
15.467690 31.139000 7.284638
15.783039 31.139000 0.000000
16.098389 31.139000 0.000000
16.413738 31.139000 0.000000
16.729090 31.139000 0.000000
17.044439 31.139000 0.000000
17.359789 31.139000 0.000000
17.675138 31.139000 0.000000
17.990490 31.139000 0.000000
18.305840 31.139000 0.000000
18.621189 31.139000 0.000000
18.936539 31.139000 0.000000
19.251888 31.139000 0.000000
-7.237510 30.823650 0.000000
-6.922160 30.823650 0.049113
-6.606810 30.823650 0.032124
-6.291460 30.823650 0.028322
-5.976110 30.823650 0.028012
-5.660760 30.823650 0.028260
-5.345410 30.823650 0.028012
-5.030060 30.823650 0.027188
-4.714710 30.823650 0.026639
-4.399360 30.823650 0.027297
-4.084010 30.823650 0.028052
-3.768660 30.823650 0.028556
-3.453310 30.823650 0.029050
-3.137960 30.823650 0.029714
-2.822610 30.823650 0.029609
-2.507260 30.823650 0.028928
-2.191910 30.823650 0.028088
-1.876560 30.823650 0.028026
-1.561210 30.823650 0.027747
-1.245860 30.823650 0.027441
-0.930510 30.823650 0.027252
-0.615160 30.823650 0.027466
-0.299810 30.823650 0.028348
0.015540 30.823650 0.028004
0.330890 30.823650 0.027175
0.646240 30.823650 0.027242
0.961589 30.823650 0.027515
1.276940 30.823650 0.027171
1.592289 30.823650 0.027147
1.907640 30.823650 0.026876
2.222990 30.823650 0.027666
2.538340 30.823650 0.028080
2.853690 30.823650 0.027321
3.169039 30.823650 0.026618
3.484390 30.823650 0.025853
3.799739 30.823650 0.025497
4.115090 30.823650 0.025208
4.430439 30.823650 0.025071
4.745790 30.823650 0.025858
5.061140 30.823650 0.025976
5.376490 30.823650 0.025832
5.691840 30.823650 0.026337
6.007189 30.823650 0.027445
6.322540 30.823650 0.029003
6.637889 30.823650 0.031102
6.953240 30.823650 0.033912
7.268589 30.823650 0.038676
7.583940 30.823650 0.046684
7.899290 30.823650 0.062572
8.214640 30.823650 0.092948
8.529989 30.823650 0.141236
8.845339 30.823650 0.204092
9.160688 30.823650 0.305750
9.476040 30.823650 0.447769
9.791389 30.823650 0.633046
10.106739 30.823650 0.841770
10.422089 30.823650 1.082330
10.737438 30.823650 1.398654
11.052790 30.823650 1.715363
11.368139 30.823650 2.078260
11.683489 30.823650 2.492016
11.998838 30.823650 2.842114
12.314190 30.823650 3.221169
12.629539 30.823650 3.665344
12.944889 30.823650 3.950591
13.260239 30.823650 4.159967
13.575588 30.823650 4.370553
13.890940 30.823650 4.225526
14.206289 30.823650 4.291741
14.521639 30.823650 4.803682
14.836988 30.823650 5.466511
15.152340 30.823650 5.991261
15.467690 30.823650 7.283004
15.783039 30.823650 0.000000
16.098389 30.823650 0.000000
16.413738 30.823650 0.000000
16.729090 30.823650 0.000000
17.044439 30.823650 0.000000
17.359789 30.823650 0.000000
17.675138 30.823650 0.000000
17.990490 30.823650 0.000000
18.305840 30.823650 0.000000
18.621189 30.823650 0.000000
18.936539 30.823650 0.000000
19.251888 30.823650 0.000000
-7.237510 30.508301 0.000000
-6.922160 30.508301 0.050207
-6.606810 30.508301 0.032917
-6.291460 30.508301 0.028599
-5.976110 30.508301 0.028488
-5.660760 30.508301 0.029103
-5.345410 30.508301 0.028654
-5.030060 30.508301 0.028031
-4.714710 30.508301 0.027413
-4.399360 30.508301 0.028158
-4.084010 30.508301 0.029140
-3.768660 30.508301 0.029095
-3.453310 30.508301 0.029500
-3.137960 30.508301 0.030126
-2.822610 30.508301 0.030139
-2.507260 30.508301 0.029297
-2.191910 30.508301 0.028202
-1.876560 30.508301 0.028156
-1.561210 30.508301 0.028298
-1.245860 30.508301 0.028043
-0.930510 30.508301 0.028048
-0.615160 30.508301 0.028074
-0.299810 30.508301 0.028784
0.015540 30.508301 0.028375
0.330890 30.508301 0.027545
0.646240 30.508301 0.027866
0.961589 30.508301 0.028104
1.276940 30.508301 0.027712
1.592289 30.508301 0.027929
1.907640 30.508301 0.028058
2.222990 30.508301 0.028258
2.538340 30.508301 0.028454
2.853690 30.508301 0.027695
3.169039 30.508301 0.026547
3.484390 30.508301 0.025700
3.799739 30.508301 0.025629
4.115090 30.508301 0.025510
4.430439 30.508301 0.025021
4.745790 30.508301 0.025893
5.061140 30.508301 0.026257
5.376490 30.508301 0.026162
5.691840 30.508301 0.026558
6.007189 30.508301 0.027295
6.322540 30.508301 0.029069
6.637889 30.508301 0.031210
6.953240 30.508301 0.034066
7.268589 30.508301 0.038386
7.583940 30.508301 0.045971
7.899290 30.508301 0.063572
8.214640 30.508301 0.095188
8.529989 30.508301 0.139014
8.845339 30.508301 0.207580
9.160688 30.508301 0.312166
9.476040 30.508301 0.443302
9.791389 30.508301 0.625591
10.106739 30.508301 0.854994
10.422089 30.508301 1.085894
10.737438 30.508301 1.410448
11.052790 30.508301 1.736319
11.368139 30.508301 2.033361
11.683489 30.508301 2.510815
11.998838 30.508301 2.758544
12.314190 30.508301 3.216619
12.629539 30.508301 3.671124
12.944889 30.508301 3.990020
13.260239 30.508301 4.196674
13.575588 30.508301 4.314923
13.890940 30.508301 4.287604
14.206289 30.508301 4.304037
14.521639 30.508301 4.659747
14.836988 30.508301 5.291665
15.152340 30.508301 5.716711
15.467690 30.508301 6.904096
15.783039 30.508301 0.000000
16.098389 30.508301 0.000000
16.413738 30.508301 0.000000
16.729090 30.508301 0.000000
17.044439 30.508301 0.000000
17.359789 30.508301 0.000000
17.675138 30.508301 0.000000
17.990490 30.508301 0.000000
18.305840 30.508301 0.000000
18.621189 30.508301 0.000000
18.936539 30.508301 0.000000
19.251888 30.508301 0.000000
-7.237510 30.192951 0.000000
-6.922160 30.192951 0.050432
-6.606810 30.192951 0.033471
-6.291460 30.192951 0.028474
-5.976110 30.192951 0.028867
-5.660760 30.192951 0.029377
-5.345410 30.192951 0.029086
-5.030060 30.192951 0.028826
-4.714710 30.192951 0.028644
-4.399360 30.192951 0.028811
-4.084010 30.192951 0.029455
-3.768660 30.192951 0.029725
-3.453310 30.192951 0.030041
-3.137960 30.192951 0.030426
-2.822610 30.192951 0.030375
-2.507260 30.192951 0.029621
-2.191910 30.192951 0.028345
-1.876560 30.192951 0.028156
-1.561210 30.192951 0.028468
-1.245860 30.192951 0.028648
-0.930510 30.192951 0.028804
-0.615160 30.192951 0.028840
-0.299810 30.192951 0.029277
0.015540 30.192951 0.028882
0.330890 30.192951 0.028054
0.646240 30.192951 0.028343
0.961589 30.192951 0.028912
1.276940 30.192951 0.028462
1.592289 30.192951 0.028992
1.907640 30.192951 0.029018
2.222990 30.192951 0.028649
2.538340 30.192951 0.028263
2.853690 30.192951 0.027639
3.169039 30.192951 0.026523
3.484390 30.192951 0.025773
3.799739 30.192951 0.025880
4.115090 30.192951 0.025932
4.430439 30.192951 0.025234
4.745790 30.192951 0.026135
5.061140 30.192951 0.026897
5.376490 30.192951 0.026818
5.691840 30.192951 0.026862
6.007189 30.192951 0.027346
6.322540 30.192951 0.028980
6.637889 30.192951 0.031429
6.953240 30.192951 0.034201
7.268589 30.192951 0.038391
7.583940 30.192951 0.046060
7.899290 30.192951 0.062687
8.214640 30.192951 0.093038
8.529989 30.192951 0.140361
8.845339 30.192951 0.215678
9.160688 30.192951 0.312582
9.476040 30.192951 0.447109
9.791389 30.192951 0.639312
10.106739 30.192951 0.867954
10.422089 30.192951 1.099904
10.737438 30.192951 1.416292
11.052790 30.192951 1.737634
11.368139 30.192951 2.060792
11.683489 30.192951 2.448819
11.998838 30.192951 2.874949
12.314190 30.192951 3.257163
12.629539 30.192951 3.649525
12.944889 30.192951 4.169708
13.260239 30.192951 4.220350
13.575588 30.192951 4.468943
13.890940 30.192951 4.324084
14.206289 30.192951 4.378770
14.521639 30.192951 4.783510
14.836988 30.192951 5.348260
15.152340 30.192951 5.811164
15.467690 30.192951 6.966486
15.783039 30.192951 0.000000
16.098389 30.192951 0.000000
16.413738 30.192951 0.000000
16.729090 30.192951 0.000000
17.044439 30.192951 0.000000
17.359789 30.192951 0.000000
17.675138 30.192951 0.000000
17.990490 30.192951 0.000000
18.305840 30.192951 0.000000
18.621189 30.192951 0.000000
18.936539 30.192951 0.000000
19.251888 30.192951 0.000000
-7.237510 29.877602 0.000000
-6.922160 29.877602 0.051194
-6.606810 29.877602 0.033801
-6.291460 29.877602 0.029203
-5.976110 29.877602 0.029323
-5.660760 29.877602 0.029320
-5.345410 29.877602 0.029291
-5.030060 29.877602 0.029449
-4.714710 29.877602 0.029110
-4.399360 29.877602 0.029102
-4.084010 29.877602 0.030056
-3.768660 29.877602 0.030432
-3.453310 29.877602 0.030510
-3.137960 29.877602 0.030614
-2.822610 29.877602 0.030499
-2.507260 29.877602 0.029832
-2.191910 29.877602 0.028895
-1.876560 29.877602 0.028673
-1.561210 29.877602 0.029470
-1.245860 29.877602 0.029742
-0.930510 29.877602 0.029426
-0.615160 29.877602 0.029688
-0.299810 29.877602 0.029979
0.015540 29.877602 0.029679
0.330890 29.877602 0.028754
0.646240 29.877602 0.029179
0.961589 29.877602 0.029551
1.276940 29.877602 0.029305
1.592289 29.877602 0.029994
1.907640 29.877602 0.029646
2.222990 29.877602 0.028797
2.538340 29.877602 0.028090
2.853690 29.877602 0.027411
3.169039 29.877602 0.026731
3.484390 29.877602 0.026209
3.799739 29.877602 0.026054
4.115090 29.877602 0.026420
4.430439 29.877602 0.025777
4.745790 29.877602 0.026403
5.061140 29.877602 0.027061
5.376490 29.877602 0.026964
5.691840 29.877602 0.027283
6.007189 29.877602 0.027623
6.322540 29.877602 0.029242
6.637889 29.877602 0.031514
6.953240 29.877602 0.034187
7.268589 29.877602 0.038549
7.583940 29.877602 0.046962
7.899290 29.877602 0.062454
8.214640 29.877602 0.089436
8.529989 29.877602 0.136622
8.845339 29.877602 0.213188
9.160688 29.877602 0.317253
9.476040 29.877602 0.445727
9.791389 29.877602 0.636273
10.106739 29.877602 0.849587
10.422089 29.877602 1.096439
10.737438 29.877602 1.365144
11.052790 29.877602 1.713256
11.368139 29.877602 2.003377
11.683489 29.877602 2.348744
11.998838 29.877602 2.665004
12.314190 29.877602 3.180641
12.629539 29.877602 3.651084
12.944889 29.877602 4.011178
13.260239 29.877602 4.338177
13.575588 29.877602 4.500836
13.890940 29.877602 4.506809
14.206289 29.877602 4.483099
14.521639 29.877602 4.870565
14.836988 29.877602 5.094321
15.152340 29.877602 5.883637
15.467690 29.877602 7.225668
15.783039 29.877602 0.000000
16.098389 29.877602 0.000000
16.413738 29.877602 0.000000
16.729090 29.877602 0.000000
17.044439 29.877602 0.000000
17.359789 29.877602 0.000000
17.675138 29.877602 0.000000
17.990490 29.877602 0.000000
18.305840 29.877602 0.000000
18.621189 29.877602 0.000000
18.936539 29.877602 0.000000
19.251888 29.877602 0.000000
-7.237510 29.562250 0.000000
-6.922160 29.562250 0.051823
-6.606810 29.562250 0.034798
-6.291460 29.562250 0.030258
-5.976110 29.562250 0.029918
-5.660760 29.562250 0.029619
-5.345410 29.562250 0.029642
-5.030060 29.562250 0.029783
-4.714710 29.562250 0.029633
-4.399360 29.562250 0.029316
-4.084010 29.562250 0.030780
-3.768660 29.562250 0.031256
-3.453310 29.562250 0.031152
-3.137960 29.562250 0.030942
-2.822610 29.562250 0.030543
-2.507260 29.562250 0.030276
-2.191910 29.562250 0.029509
-1.876560 29.562250 0.029349
-1.561210 29.562250 0.030452
-1.245860 29.562250 0.030379
-0.930510 29.562250 0.029947
-0.615160 29.562250 0.030188
-0.299810 29.562250 0.031008
0.015540 29.562250 0.030537
0.330890 29.562250 0.029737
0.646240 29.562250 0.030396
0.961589 29.562250 0.030390
1.276940 29.562250 0.030175
1.592289 29.562250 0.030479
1.907640 29.562250 0.029805
2.222990 29.562250 0.028731
2.538340 29.562250 0.027683
2.853690 29.562250 0.027075
3.169039 29.562250 0.027064
3.484390 29.562250 0.026682
3.799739 29.562250 0.026396
4.115090 29.562250 0.026461
4.430439 29.562250 0.026379
4.745790 29.562250 0.026631
5.061140 29.562250 0.026864
5.376490 29.562250 0.027058
5.691840 29.562250 0.027459
6.007189 29.562250 0.027900
6.322540 29.562250 0.029615
6.637889 29.562250 0.032238
6.953240 29.562250 0.034362
7.268589 29.562250 0.037763
7.583940 29.562250 0.046316
7.899290 29.562250 0.063927
8.214640 29.562250 0.092663
8.529989 29.562250 0.134160
8.845339 29.562250 0.207906
9.160688 29.562250 0.311217
9.476040 29.562250 0.458312
9.791389 29.562250 0.622501
10.106739 29.562250 0.844909
10.422089 29.562250 1.077223
10.737438 29.562250 1.387949
11.052790 29.562250 1.674340
11.368139 29.562250 1.999219
11.683489 29.562250 2.398649
11.998838 29.562250 2.760258
12.314190 29.562250 3.244042
12.629539 29.562250 3.553905
12.944889 29.562250 3.988520
13.260239 29.562250 4.268518
13.575588 29.562250 4.430324
13.890940 29.562250 4.477242
14.206289 29.562250 4.599877
14.521639 29.562250 4.881005
14.836988 29.562250 5.199119
15.152340 29.562250 5.534555
15.467690 29.562250 6.761379
15.783039 29.562250 0.000000
16.098389 29.562250 0.000000
16.413738 29.562250 0.000000
16.729090 29.562250 0.000000
17.044439 29.562250 0.000000
17.359789 29.562250 0.000000
17.675138 29.562250 0.000000
17.990490 29.562250 0.000000
18.305840 29.562250 179.606796
18.621189 29.562250 202.324844
18.936539 29.562250 250.880615
19.251888 29.562250 0.000000
-7.237510 29.246901 0.000000
-6.922160 29.246901 0.052068
-6.606810 29.246901 0.035469
-6.291460 29.246901 0.031411
-5.976110 29.246901 0.030602
-5.660760 29.246901 0.030606
-5.345410 29.246901 0.030430
-5.030060 29.246901 0.030320
-4.714710 29.246901 0.030072
-4.399360 29.246901 0.030152
-4.084010 29.246901 0.031560
-3.768660 29.246901 0.032276
-3.453310 29.246901 0.031517
-3.137960 29.246901 0.031674
-2.822610 29.246901 0.030880
-2.507260 29.246901 0.030556
-2.191910 29.246901 0.030205
-1.876560 29.246901 0.030512
-1.561210 29.246901 0.031585
-1.245860 29.246901 0.030823
-0.930510 29.246901 0.030352
-0.615160 29.246901 0.030602
-0.299810 29.246901 0.031654
0.015540 29.246901 0.031213
0.330890 29.246901 0.030301
0.646240 29.246901 0.030953
0.961589 29.246901 0.031299
1.276940 29.246901 0.030577
1.592289 29.246901 0.030225
1.907640 29.246901 0.029560
2.222990 29.246901 0.028898
2.538340 29.246901 0.028005
2.853690 29.246901 0.027492
3.169039 29.246901 0.027206
3.484390 29.246901 0.026792
3.799739 29.246901 0.026515
4.115090 29.246901 0.026684
4.430439 29.246901 0.026947
4.745790 29.246901 0.026657
5.061140 29.246901 0.026577
5.376490 29.246901 0.027092
5.691840 29.246901 0.027590
6.007189 29.246901 0.028280
6.322540 29.246901 0.029842
6.637889 29.246901 0.031916
6.953240 29.246901 0.034106
7.268589 29.246901 0.037717
7.583940 29.246901 0.046867
7.899290 29.246901 0.062876
8.214640 29.246901 0.092506
8.529989 29.246901 0.134845
8.845339 29.246901 0.207090
9.160688 29.246901 0.311124
9.476040 29.246901 0.431339
9.791389 29.246901 0.618352
10.106739 29.246901 0.837167
10.422089 29.246901 1.074230
10.737438 29.246901 1.339558
11.052790 29.246901 1.694231
11.368139 29.246901 2.031902
11.683489 29.246901 2.277421
11.998838 29.246901 2.729681
12.314190 29.246901 3.239121
12.629539 29.246901 3.672138
12.944889 29.246901 4.054336
13.260239 29.246901 4.331334
13.575588 29.246901 4.322016
13.890940 29.246901 4.487196
14.206289 29.246901 4.610122
14.521639 29.246901 4.878746
14.836988 29.246901 5.063547
15.152340 29.246901 5.506736
15.467690 29.246901 6.682253
15.783039 29.246901 0.000000
16.098389 29.246901 0.000000
16.413738 29.246901 0.000000
16.729090 29.246901 0.000000
17.044439 29.246901 0.000000
17.359789 29.246901 0.000000
17.675138 29.246901 0.000000
17.990490 29.246901 0.000000
18.305840 29.246901 151.192154
18.621189 29.246901 189.065338
18.936539 29.246901 216.374619
19.251888 29.246901 0.000000
-7.237510 28.931551 0.000000
-6.922160 28.931551 0.052962
-6.606810 28.931551 0.036318
-6.291460 28.931551 0.031909
-5.976110 28.931551 0.031369
-5.660760 28.931551 0.031585
-5.345410 28.931551 0.031636
-5.030060 28.931551 0.031480
-4.714710 28.931551 0.030880
-4.399360 28.931551 0.031269
-4.084010 28.931551 0.032593
-3.768660 28.931551 0.032978
-3.453310 28.931551 0.032320
-3.137960 28.931551 0.032007
-2.822610 28.931551 0.031350
-2.507260 28.931551 0.030820
-2.191910 28.931551 0.030935
-1.876560 28.931551 0.031463
-1.561210 28.931551 0.032191
-1.245860 28.931551 0.031513
-0.930510 28.931551 0.030663
-0.615160 28.931551 0.030961
-0.299810 28.931551 0.032049
0.015540 28.931551 0.031705
0.330890 28.931551 0.030917
0.646240 28.931551 0.031474
0.961589 28.931551 0.031535
1.276940 28.931551 0.030675
1.592289 28.931551 0.030007
1.907640 28.931551 0.029690
2.222990 28.931551 0.029492
2.538340 28.931551 0.028789
2.853690 28.931551 0.027904
3.169039 28.931551 0.027665
3.484390 28.931551 0.026950
3.799739 28.931551 0.027142
4.115090 28.931551 0.026963
4.430439 28.931551 0.026996
4.745790 28.931551 0.026585
5.061140 28.931551 0.026335
5.376490 28.931551 0.026930
5.691840 28.931551 0.027603
6.007189 28.931551 0.028234
6.322540 28.931551 0.029688
6.637889 28.931551 0.031105
6.953240 28.931551 0.033353
7.268589 28.931551 0.037282
7.583940 28.931551 0.045797
7.899290 28.931551 0.062615
8.214640 28.931551 0.093631
8.529989 28.931551 0.135105
8.845339 28.931551 0.198940
9.160688 28.931551 0.314125
9.476040 28.931551 0.438703
9.791389 28.931551 0.619583
10.106739 28.931551 0.873476
10.422089 28.931551 1.089952
10.737438 28.931551 1.393674
11.052790 28.931551 1.713137
11.368139 28.931551 2.014948
11.683489 28.931551 2.405897
11.998838 28.931551 2.896388
12.314190 28.931551 3.256425
12.629539 28.931551 3.652053
12.944889 28.931551 3.934570
13.260239 28.931551 4.073076
13.575588 28.931551 4.337918
13.890940 28.931551 4.593636
14.206289 28.931551 4.666156
14.521639 28.931551 4.815666
14.836988 28.931551 5.010408
15.152340 28.931551 5.386414
15.467690 28.931551 6.725538
15.783039 28.931551 0.000000
16.098389 28.931551 0.000000
16.413738 28.931551 0.000000
16.729090 28.931551 0.000000
17.044439 28.931551 0.000000
17.359789 28.931551 0.000000
17.675138 28.931551 0.000000
17.990490 28.931551 0.000000
18.305840 28.931551 163.547699
18.621189 28.931551 178.214417
18.936539 28.931551 223.226837
19.251888 28.931551 0.000000
-7.237510 28.616201 0.000000
-6.922160 28.616201 0.053209
-6.606810 28.616201 0.036599
-6.291460 28.616201 0.032204
-5.976110 28.616201 0.031569
-5.660760 28.616201 0.032461
-5.345410 28.616201 0.032519
-5.030060 28.616201 0.032302
-4.714710 28.616201 0.031997
-4.399360 28.616201 0.032337
-4.084010 28.616201 0.033197
-3.768660 28.616201 0.033008
-3.453310 28.616201 0.032664
-3.137960 28.616201 0.032494
-2.822610 28.616201 0.031810
-2.507260 28.616201 0.031407
-2.191910 28.616201 0.031426
-1.876560 28.616201 0.031636
-1.561210 28.616201 0.032369
-1.245860 28.616201 0.031918
-0.930510 28.616201 0.031027
-0.615160 28.616201 0.030935
-0.299810 28.616201 0.031980
0.015540 28.616201 0.031423
0.330890 28.616201 0.031337
0.646240 28.616201 0.031679
0.961589 28.616201 0.031549
1.276940 28.616201 0.030519
1.592289 28.616201 0.029981
1.907640 28.616201 0.029842
2.222990 28.616201 0.029758
2.538340 28.616201 0.028968
2.853690 28.616201 0.028272
3.169039 28.616201 0.027994
3.484390 28.616201 0.027648
3.799739 28.616201 0.027617
4.115090 28.616201 0.027205
4.430439 28.616201 0.026965
4.745790 28.616201 0.026815
5.061140 28.616201 0.026472
5.376490 28.616201 0.027009
5.691840 28.616201 0.027244
6.007189 28.616201 0.027867
6.322540 28.616201 0.028969
6.637889 28.616201 0.030184
6.953240 28.616201 0.032566
7.268589 28.616201 0.037038
7.583940 28.616201 0.046113
7.899290 28.616201 0.062275
8.214640 28.616201 0.091917
8.529989 28.616201 0.136118
8.845339 28.616201 0.197481
9.160688 28.616201 0.294294
9.476040 28.616201 0.457763
9.791389 28.616201 0.646512
10.106739 28.616201 0.884519
10.422089 28.616201 1.115656
10.737438 28.616201 1.408454
11.052790 28.616201 1.687440
11.368139 28.616201 2.030529
11.683489 28.616201 2.415383
11.998838 28.616201 2.802511
12.314190 28.616201 3.315715
12.629539 28.616201 3.778258
12.944889 28.616201 3.896014
13.260239 28.616201 4.009792
13.575588 28.616201 4.208939
13.890940 28.616201 4.479033
14.206289 28.616201 4.656126
14.521639 28.616201 4.704917
14.836988 28.616201 4.879760
15.152340 28.616201 5.055095
15.467690 28.616201 6.534877
15.783039 28.616201 0.000000
16.098389 28.616201 0.000000
16.413738 28.616201 0.000000
16.729090 28.616201 0.000000
17.044439 28.616201 0.000000
17.359789 28.616201 0.000000
17.675138 28.616201 0.000000
17.990490 28.616201 0.000000
18.305840 28.616201 157.417221
18.621189 28.616201 176.523117
18.936539 28.616201 223.747681
19.251888 28.616201 0.000000
-7.237510 28.300850 0.000000
-6.922160 28.300850 0.052378
-6.606810 28.300850 0.036038
-6.291460 28.300850 0.031756
-5.976110 28.300850 0.031927
-5.660760 28.300850 0.032542
-5.345410 28.300850 0.032623
-5.030060 28.300850 0.032713
-4.714710 28.300850 0.032483
-4.399360 28.300850 0.032727
-4.084010 28.300850 0.033496
-3.768660 28.300850 0.032874
-3.453310 28.300850 0.032701
-3.137960 28.300850 0.032651
-2.822610 28.300850 0.032134
-2.507260 28.300850 0.031920
-2.191910 28.300850 0.031631
-1.876560 28.300850 0.031390
-1.561210 28.300850 0.032152
-1.245860 28.300850 0.032383
-0.930510 28.300850 0.031394
-0.615160 28.300850 0.031317
-0.299810 28.300850 0.032172
0.015540 28.300850 0.031415
0.330890 28.300850 0.031465
0.646240 28.300850 0.031611
0.961589 28.300850 0.031434
1.276940 28.300850 0.031027
1.592289 28.300850 0.030622
1.907640 28.300850 0.030013
2.222990 28.300850 0.029701
2.538340 28.300850 0.028947
2.853690 28.300850 0.028446
3.169039 28.300850 0.028330
3.484390 28.300850 0.027795
3.799739 28.300850 0.027687
4.115090 28.300850 0.026934
4.430439 28.300850 0.026715
4.745790 28.300850 0.027176
5.061140 28.300850 0.027003
5.376490 28.300850 0.027203
5.691840 28.300850 0.027035
6.007189 28.300850 0.027507
6.322540 28.300850 0.028283
6.637889 28.300850 0.029561
6.953240 28.300850 0.032233
7.268589 28.300850 0.037298
7.583940 28.300850 0.046542
7.899290 28.300850 0.063813
8.214640 28.300850 0.095570
8.529989 28.300850 0.141524
8.845339 28.300850 0.203940
9.160688 28.300850 0.310919
9.476040 28.300850 0.445157
9.791389 28.300850 0.616043
10.106739 28.300850 0.868594
10.422089 28.300850 1.108651
10.737438 28.300850 1.376138
11.052790 28.300850 1.710251
11.368139 28.300850 2.107415
11.683489 28.300850 2.412832
11.998838 28.300850 2.911854
12.314190 28.300850 3.365407
12.629539 28.300850 3.726348
12.944889 28.300850 3.990760
13.260239 28.300850 3.985754
13.575588 28.300850 4.221935
13.890940 28.300850 4.404783
14.206289 28.300850 4.669449
14.521639 28.300850 4.870804
14.836988 28.300850 4.840848
15.152340 28.300850 5.383559
15.467690 28.300850 6.803860
15.783039 28.300850 0.000000
16.098389 28.300850 0.000000
16.413738 28.300850 0.000000
16.729090 28.300850 0.000000
17.044439 28.300850 0.000000
17.359789 28.300850 0.000000
17.675138 28.300850 0.000000
17.990490 28.300850 0.000000
18.305840 28.300850 163.135056
18.621189 28.300850 184.856583
18.936539 28.300850 203.148972
19.251888 28.300850 0.000000
-7.237510 27.985500 0.000000
-6.922160 27.985500 0.052492
-6.606810 27.985500 0.036077
-6.291460 27.985500 0.031784
-5.976110 27.985500 0.031816
-5.660760 27.985500 0.032246
-5.345410 27.985500 0.032980
-5.030060 27.985500 0.032898
-4.714710 27.985500 0.032476
-4.399360 27.985500 0.032938
-4.084010 27.985500 0.033215
-3.768660 27.985500 0.032888
-3.453310 27.985500 0.032491
-3.137960 27.985500 0.032585
-2.822610 27.985500 0.032579
-2.507260 27.985500 0.032203
-2.191910 27.985500 0.031399
-1.876560 27.985500 0.031867
-1.561210 27.985500 0.032377
-1.245860 27.985500 0.032846
-0.930510 27.985500 0.031808
-0.615160 27.985500 0.031719
-0.299810 27.985500 0.032597
0.015540 27.985500 0.031865
0.330890 27.985500 0.031827
0.646240 27.985500 0.032144
0.961589 27.985500 0.031868
1.276940 27.985500 0.031634
1.592289 27.985500 0.031023
1.907640 27.985500 0.029845
2.222990 27.985500 0.029301
2.538340 27.985500 0.028931
2.853690 27.985500 0.028697
3.169039 27.985500 0.028387
3.484390 27.985500 0.027808
3.799739 27.985500 0.027374
4.115090 27.985500 0.026892
4.430439 27.985500 0.026616
4.745790 27.985500 0.027576
5.061140 27.985500 0.027597
5.376490 27.985500 0.027193
5.691840 27.985500 0.026869
6.007189 27.985500 0.027093
6.322540 27.985500 0.028152
6.637889 27.985500 0.029114
6.953240 27.985500 0.032046
7.268589 27.985500 0.038881
7.583940 27.985500 0.046933
7.899290 27.985500 0.064117
8.214640 27.985500 0.091945
8.529989 27.985500 0.141152
8.845339 27.985500 0.213401
9.160688 27.985500 0.305914
9.476040 27.985500 0.451030
9.791389 27.985500 0.615646
10.106739 27.985500 0.818220
10.422089 27.985500 1.101240
10.737438 27.985500 1.366602
11.052790 27.985500 1.709886
11.368139 27.985500 2.038681
11.683489 27.985500 2.317514
11.998838 27.985500 2.754391
12.314190 27.985500 3.263944
12.629539 27.985500 3.840044
12.944889 27.985500 3.980190
13.260239 27.985500 4.214850
13.575588 27.985500 4.251918
13.890940 27.985500 4.606432
14.206289 27.985500 4.733640
14.521639 27.985500 4.961196
14.836988 27.985500 5.069908
15.152340 27.985500 5.523838
15.467690 27.985500 7.246353
15.783039 27.985500 0.000000
16.098389 27.985500 0.000000
16.413738 27.985500 0.000000
16.729090 27.985500 0.000000
17.044439 27.985500 0.000000
17.359789 27.985500 0.000000
17.675138 27.985500 0.000000
17.990490 27.985500 0.000000
18.305840 27.985500 155.241852
18.621189 27.985500 172.468781
18.936539 27.985500 192.442978
19.251888 27.985500 0.000000
-7.237510 27.670151 0.000000
-6.922160 27.670151 0.053344
-6.606810 27.670151 0.035797
-6.291460 27.670151 0.031807
-5.976110 27.670151 0.032235
-5.660760 27.670151 0.032202
-5.345410 27.670151 0.032900
-5.030060 27.670151 0.033213
-4.714710 27.670151 0.032893
-4.399360 27.670151 0.032770
-4.084010 27.670151 0.032935
-3.768660 27.670151 0.032727
-3.453310 27.670151 0.032196
-3.137960 27.670151 0.032630
-2.822610 27.670151 0.032685
-2.507260 27.670151 0.032471
-2.191910 27.670151 0.032285
-1.876560 27.670151 0.032526
-1.561210 27.670151 0.033070
-1.245860 27.670151 0.032930
-0.930510 27.670151 0.032385
-0.615160 27.670151 0.032332
-0.299810 27.670151 0.033096
0.015540 27.670151 0.032592
0.330890 27.670151 0.032289
0.646240 27.670151 0.032855
0.961589 27.670151 0.032372
1.276940 27.670151 0.031870
1.592289 27.670151 0.031098
1.907640 27.670151 0.029715
2.222990 27.670151 0.029268
2.538340 27.670151 0.029301
2.853690 27.670151 0.028914
3.169039 27.670151 0.028492
3.484390 27.670151 0.027967
3.799739 27.670151 0.027209
4.115090 27.670151 0.026916
4.430439 27.670151 0.027183
4.745790 27.670151 0.027673
5.061140 27.670151 0.027664
5.376490 27.670151 0.027264
5.691840 27.670151 0.026932
6.007189 27.670151 0.027190
6.322540 27.670151 0.028196
6.637889 27.670151 0.029509
6.953240 27.670151 0.032333
7.268589 27.670151 0.039293
7.583940 27.670151 0.049896
7.899290 27.670151 0.066751
8.214640 27.670151 0.094297
8.529989 27.670151 0.142339
8.845339 27.670151 0.210831
9.160688 27.670151 0.326695
9.476040 27.670151 0.472152
9.791389 27.670151 0.624674
10.106739 27.670151 0.806778
10.422089 27.670151 1.121911
10.737438 27.670151 1.419651
11.052790 27.670151 1.733009
11.368139 27.670151 2.109555
11.683489 27.670151 2.448509
11.998838 27.670151 2.853394
12.314190 27.670151 3.332804
12.629539 27.670151 3.754966
12.944889 27.670151 4.087657
13.260239 27.670151 4.261734
13.575588 27.670151 4.565143
13.890940 27.670151 4.614959
14.206289 27.670151 4.883029
14.521639 27.670151 5.010912
14.836988 27.670151 5.209016
15.152340 27.670151 5.951082
15.467690 27.670151 7.354846
15.783039 27.670151 0.000000
16.098389 27.670151 0.000000
16.413738 27.670151 0.000000
16.729090 27.670151 0.000000
17.044439 27.670151 0.000000
17.359789 27.670151 0.000000
17.675138 27.670151 0.000000
17.990490 27.670151 0.000000
18.305840 27.670151 173.366379
18.621189 27.670151 179.791183
18.936539 27.670151 185.182846
19.251888 27.670151 0.000000
-7.237510 27.354801 0.000000
-6.922160 27.354801 0.053900
-6.606810 27.354801 0.036367
-6.291460 27.354801 0.032118
-5.976110 27.354801 0.032889
-5.660760 27.354801 0.033039
-5.345410 27.354801 0.033144
-5.030060 27.354801 0.033425
-4.714710 27.354801 0.033186
-4.399360 27.354801 0.032501
-4.084010 27.354801 0.033154
-3.768660 27.354801 0.033158
-3.453310 27.354801 0.032454
-3.137960 27.354801 0.032980
-2.822610 27.354801 0.033149
-2.507260 27.354801 0.032781
-2.191910 27.354801 0.032997
-1.876560 27.354801 0.033599
-1.561210 27.354801 0.033273
-1.245860 27.354801 0.032805
-0.930510 27.354801 0.032344
-0.615160 27.354801 0.032740
-0.299810 27.354801 0.033652
0.015540 27.354801 0.033046
0.330890 27.354801 0.032504
0.646240 27.354801 0.032738
0.961589 27.354801 0.032216
1.276940 27.354801 0.031398
1.592289 27.354801 0.030519
1.907640 27.354801 0.029809
2.222990 27.354801 0.029273
2.538340 27.354801 0.029555
2.853690 27.354801 0.028954
3.169039 27.354801 0.028252
3.484390 27.354801 0.028121
3.799739 27.354801 0.027345
4.115090 27.354801 0.027474
4.430439 27.354801 0.027646
4.745790 27.354801 0.027682
5.061140 27.354801 0.027590
5.376490 27.354801 0.027400
5.691840 27.354801 0.027078
6.007189 27.354801 0.027025
6.322540 27.354801 0.028448
6.637889 27.354801 0.029924
6.953240 27.354801 0.032665
7.268589 27.354801 0.039734
7.583940 27.354801 0.049300
7.899290 27.354801 0.065058
8.214640 27.354801 0.090095
8.529989 27.354801 0.143093
8.845339 27.354801 0.220112
9.160688 27.354801 0.329299
9.476040 27.354801 0.461683
9.791389 27.354801 0.618825
10.106739 27.354801 0.824678
10.422089 27.354801 1.105628
10.737438 27.354801 1.424560
11.052790 27.354801 1.747776
11.368139 27.354801 2.169251
11.683489 27.354801 2.580653
11.998838 27.354801 3.053473
12.314190 27.354801 3.372416
12.629539 27.354801 3.792342
12.944889 27.354801 4.091747
13.260239 27.354801 4.442760
13.575588 27.354801 4.740574
13.890940 27.354801 4.611046
14.206289 27.354801 4.922430
14.521639 27.354801 5.124590
14.836988 27.354801 5.324737
15.152340 27.354801 6.114196
15.467690 27.354801 7.839295
15.783039 27.354801 0.000000
16.098389 27.354801 0.000000
16.413738 27.354801 0.000000
16.729090 27.354801 0.000000
17.044439 27.354801 0.000000
17.359789 27.354801 0.000000
17.675138 27.354801 0.000000
17.990490 27.354801 0.000000
18.305840 27.354801 169.015274
18.621189 27.354801 182.119156
18.936539 27.354801 181.181839
19.251888 27.354801 0.000000
-7.237510 27.039452 0.000000
-6.922160 27.039452 0.054176
-6.606810 27.039452 0.037143
-6.291460 27.039452 0.032344
-5.976110 27.039452 0.033051
-5.660760 27.039452 0.033737
-5.345410 27.039452 0.033218
-5.030060 27.039452 0.033412
-4.714710 27.039452 0.033329
-4.399360 27.039452 0.032893
-4.084010 27.039452 0.033619
-3.768660 27.039452 0.033352
-3.453310 27.039452 0.033226
-3.137960 27.039452 0.033534
-2.822610 27.039452 0.033258
-2.507260 27.039452 0.032984
-2.191910 27.039452 0.033523
-1.876560 27.039452 0.034015
-1.561210 27.039452 0.033314
-1.245860 27.039452 0.032589
-0.930510 27.039452 0.032249
-0.615160 27.039452 0.033104
-0.299810 27.039452 0.033426
0.015540 27.039452 0.033236
0.330890 27.039452 0.032527
0.646240 27.039452 0.032429
0.961589 27.039452 0.031584
1.276940 27.039452 0.030616
1.592289 27.039452 0.029958
1.907640 27.039452 0.029867
2.222990 27.039452 0.029767
2.538340 27.039452 0.029696
2.853690 27.039452 0.028958
3.169039 27.039452 0.028362
3.484390 27.039452 0.027902
3.799739 27.039452 0.027631
4.115090 27.039452 0.027867
4.430439 27.039452 0.027976
4.745790 27.039452 0.027425
5.061140 27.039452 0.027546
5.376490 27.039452 0.027071
5.691840 27.039452 0.026682
6.007189 27.039452 0.026675
6.322540 27.039452 0.028320
6.637889 27.039452 0.030378
6.953240 27.039452 0.033308
7.268589 27.039452 0.037863
7.583940 27.039452 0.046266
7.899290 27.039452 0.060667
8.214640 27.039452 0.091133
8.529989 27.039452 0.139645
8.845339 27.039452 0.215158
9.160688 27.039452 0.314654
9.476040 27.039452 0.460620
9.791389 27.039452 0.628164
10.106739 27.039452 0.845344
10.422089 27.039452 1.111823
10.737438 27.039452 1.412506
11.052790 27.039452 1.739634
11.368139 27.039452 2.087524
11.683489 27.039452 2.599314
11.998838 27.039452 2.982227
12.314190 27.039452 3.360929
12.629539 27.039452 3.972178
12.944889 27.039452 4.239330
13.260239 27.039452 4.388202
13.575588 27.039452 4.617572
13.890940 27.039452 4.679102
14.206289 27.039452 5.018906
14.521639 27.039452 5.280431
14.836988 27.039452 5.693071
15.152340 27.039452 6.613670
15.467690 27.039452 8.422559
15.783039 27.039452 0.000000
16.098389 27.039452 0.000000
16.413738 27.039452 0.000000
16.729090 27.039452 0.000000
17.044439 27.039452 0.000000
17.359789 27.039452 0.000000
17.675138 27.039452 0.000000
17.990490 27.039452 0.000000
18.305840 27.039452 187.282257
18.621189 27.039452 192.904465
18.936539 27.039452 203.827805
19.251888 27.039452 0.000000
-7.237510 26.724100 0.000000
-6.922160 26.724100 0.055097
-6.606810 26.724100 0.037689
-6.291460 26.724100 0.032954
-5.976110 26.724100 0.033322
-5.660760 26.724100 0.034077
-5.345410 26.724100 0.033484
-5.030060 26.724100 0.033388
-4.714710 26.724100 0.033237
-4.399360 26.724100 0.032766
-4.084010 26.724100 0.033739
-3.768660 26.724100 0.033396
-3.453310 26.724100 0.033495
-3.137960 26.724100 0.033929
-2.822610 26.724100 0.033289
-2.507260 26.724100 0.033200
-2.191910 26.724100 0.033531
-1.876560 26.724100 0.033471
-1.561210 26.724100 0.033189
-1.245860 26.724100 0.032829
-0.930510 26.724100 0.032231
-0.615160 26.724100 0.032882
-0.299810 26.724100 0.033064
0.015540 26.724100 0.032682
0.330890 26.724100 0.032250
0.646240 26.724100 0.032082
0.961589 26.724100 0.031220
1.276940 26.724100 0.030318
1.592289 26.724100 0.030016
1.907640 26.724100 0.030021
2.222990 26.724100 0.030265
2.538340 26.724100 0.030021
2.853690 26.724100 0.029438
3.169039 26.724100 0.028182
3.484390 26.724100 0.027699
3.799739 26.724100 0.027594
4.115090 26.724100 0.027975
4.430439 26.724100 0.027528
4.745790 26.724100 0.027054
5.061140 26.724100 0.027079
5.376490 26.724100 0.026850
5.691840 26.724100 0.026367
6.007189 26.724100 0.026813
6.322540 26.724100 0.028401
6.637889 26.724100 0.030625
6.953240 26.724100 0.032981
7.268589 26.724100 0.037897
7.583940 26.724100 0.047178
7.899290 26.724100 0.060842
8.214640 26.724100 0.087765
8.529989 26.724100 0.134578
8.845339 26.724100 0.211621
9.160688 26.724100 0.315633
9.476040 26.724100 0.444727
9.791389 26.724100 0.625419
10.106739 26.724100 0.860066
10.422089 26.724100 1.113722
10.737438 26.724100 1.381056
11.052790 26.724100 1.725214
11.368139 26.724100 2.137039
11.683489 26.724100 2.606338
11.998838 26.724100 2.990228
12.314190 26.724100 3.399183
12.629539 26.724100 4.027464
12.944889 26.724100 4.401076
13.260239 26.724100 4.492895
13.575588 26.724100 4.774577
13.890940 26.724100 4.650960
14.206289 26.724100 4.895845
14.521639 26.724100 5.311188
14.836988 26.724100 5.477130
15.152340 26.724100 6.758724
15.467690 26.724100 8.699389
15.783039 26.724100 0.000000
16.098389 26.724100 0.000000
16.413738 26.724100 0.000000
16.729090 26.724100 0.000000
17.044439 26.724100 0.000000
17.359789 26.724100 0.000000
17.675138 26.724100 0.000000
17.990490 26.724100 0.000000
18.305840 26.724100 191.579498
18.621189 26.724100 204.211777
18.936539 26.724100 206.742264
19.251888 26.724100 0.000000
-7.237510 26.408751 0.000000
-6.922160 26.408751 0.055637
-6.606810 26.408751 0.038090
-6.291460 26.408751 0.032960
-5.976110 26.408751 0.033193
-5.660760 26.408751 0.033656
-5.345410 26.408751 0.033113
-5.030060 26.408751 0.033122
-4.714710 26.408751 0.032616
-4.399360 26.408751 0.032437
-4.084010 26.408751 0.033478
-3.768660 26.408751 0.033510
-3.453310 26.408751 0.033391
-3.137960 26.408751 0.033748
-2.822610 26.408751 0.033073
-2.507260 26.408751 0.033121
-2.191910 26.408751 0.033058
-1.876560 26.408751 0.032778
-1.561210 26.408751 0.033051
-1.245860 26.408751 0.033084
-0.930510 26.408751 0.032387
-0.615160 26.408751 0.032494
-0.299810 26.408751 0.032502
0.015540 26.408751 0.032115
0.330890 26.408751 0.031703
0.646240 26.408751 0.031735
0.961589 26.408751 0.031478
1.276940 26.408751 0.031119
1.592289 26.408751 0.030805
1.907640 26.408751 0.030809
2.222990 26.408751 0.030439
2.538340 26.408751 0.029829
2.853690 26.408751 0.029123
3.169039 26.408751 0.028061
3.484390 26.408751 0.027697
3.799739 26.408751 0.027776
4.115090 26.408751 0.027649
4.430439 26.408751 0.027106
4.745790 26.408751 0.026533
5.061140 26.408751 0.026418
5.376490 26.408751 0.026518
5.691840 26.408751 0.026543
6.007189 26.408751 0.027100
6.322540 26.408751 0.028429
6.637889 26.408751 0.030534
6.953240 26.408751 0.032791
7.268589 26.408751 0.037720
7.583940 26.408751 0.045858
7.899290 26.408751 0.060896
8.214640 26.408751 0.087462
8.529989 26.408751 0.139072
8.845339 26.408751 0.210749
9.160688 26.408751 0.325503
9.476040 26.408751 0.465059
9.791389 26.408751 0.658174
10.106739 26.408751 0.853771
10.422089 26.408751 1.099839
10.737438 26.408751 1.419276
11.052790 26.408751 1.742356
11.368139 26.408751 2.156864
11.683489 26.408751 2.692048
11.998838 26.408751 2.992860
12.314190 26.408751 3.369777
12.629539 26.408751 3.860411
12.944889 26.408751 4.411413
13.260239 26.408751 4.518786
13.575588 26.408751 4.712489
13.890940 26.408751 4.864566
14.206289 26.408751 4.807949
14.521639 26.408751 5.333285
14.836988 26.408751 5.733065
15.152340 26.408751 6.785050
15.467690 26.408751 9.108891
15.783039 26.408751 0.000000
16.098389 26.408751 0.000000
16.413738 26.408751 0.000000
16.729090 26.408751 0.000000
17.044439 26.408751 0.000000
17.359789 26.408751 0.000000
17.675138 26.408751 0.000000
17.990490 26.408751 0.000000
18.305840 26.408751 192.701218
18.621189 26.408751 199.153748
18.936539 26.408751 200.990891
19.251888 26.408751 0.000000
-7.237510 26.093401 0.000000
-6.922160 26.093401 0.054813
-6.606810 26.093401 0.037913
-6.291460 26.093401 0.032976
-5.976110 26.093401 0.032586
-5.660760 26.093401 0.032844
-5.345410 26.093401 0.032743
-5.030060 26.093401 0.032697
-4.714710 26.093401 0.032138
-4.399360 26.093401 0.032114
-4.084010 26.093401 0.033032
-3.768660 26.093401 0.033244
-3.453310 26.093401 0.033449
-3.137960 26.093401 0.033208
-2.822610 26.093401 0.032904
-2.507260 26.093401 0.032791
-2.191910 26.093401 0.032470
-1.876560 26.093401 0.032651
-1.561210 26.093401 0.032997
-1.245860 26.093401 0.032843
-0.930510 26.093401 0.032148
-0.615160 26.093401 0.032747
-0.299810 26.093401 0.032464
0.015540 26.093401 0.031742
0.330890 26.093401 0.031647
0.646240 26.093401 0.031896
0.961589 26.093401 0.031682
1.276940 26.093401 0.031823
1.592289 26.093401 0.031380
1.907640 26.093401 0.031041
2.222990 26.093401 0.030526
2.538340 26.093401 0.029204
2.853690 26.093401 0.028603
3.169039 26.093401 0.028154
3.484390 26.093401 0.027629
3.799739 26.093401 0.027881
4.115090 26.093401 0.027395
4.430439 26.093401 0.026420
4.745790 26.093401 0.026318
5.061140 26.093401 0.026260
5.376490 26.093401 0.026384
5.691840 26.093401 0.026856
6.007189 26.093401 0.027380
6.322540 26.093401 0.028471
6.637889 26.093401 0.030259
6.953240 26.093401 0.032507
7.268589 26.093401 0.037210
7.583940 26.093401 0.045391
7.899290 26.093401 0.060857
8.214640 26.093401 0.091187
8.529989 26.093401 0.141206
8.845339 26.093401 0.212296
9.160688 26.093401 0.331915
9.476040 26.093401 0.459183
9.791389 26.093401 0.645943
10.106739 26.093401 0.834213
10.422089 26.093401 1.095338
10.737438 26.093401 1.341144
11.052790 26.093401 1.734274
11.368139 26.093401 2.107210
11.683489 26.093401 2.559455
11.998838 26.093401 2.880743
12.314190 26.093401 3.382812
12.629539 26.093401 3.895220
12.944889 26.093401 4.496866
13.260239 26.093401 4.553836
13.575588 26.093401 4.739460
13.890940 26.093401 4.759631
14.206289 26.093401 4.836209
14.521639 26.093401 5.171050
14.836988 26.093401 6.036808
15.152340 26.093401 7.313861
15.467690 26.093401 9.369656
15.783039 26.093401 0.000000
16.098389 26.093401 0.000000
16.413738 26.093401 0.000000
16.729090 26.093401 0.000000
17.044439 26.093401 0.000000
17.359789 26.093401 0.000000
17.675138 26.093401 0.000000
17.990490 26.093401 0.000000
18.305840 26.093401 191.059723
18.621189 26.093401 191.003799
18.936539 26.093401 168.901596
19.251888 26.093401 0.000000
-7.237510 25.778051 0.000000
-6.922160 25.778051 0.052510
-6.606810 25.778051 0.036293
-6.291460 25.778051 0.032458
-5.976110 25.778051 0.031625
-5.660760 25.778051 0.031556
-5.345410 25.778051 0.032187
-5.030060 25.778051 0.032509
-4.714710 25.778051 0.032385
-4.399360 25.778051 0.031902
-4.084010 25.778051 0.032229
-3.768660 25.778051 0.032757
-3.453310 25.778051 0.033331
-3.137960 25.778051 0.032912
-2.822610 25.778051 0.032859
-2.507260 25.778051 0.032453
-2.191910 25.778051 0.032509
-1.876560 25.778051 0.032947
-1.561210 25.778051 0.032932
-1.245860 25.778051 0.032245
-0.930510 25.778051 0.031711
-0.615160 25.778051 0.032268
-0.299810 25.778051 0.032235
0.015540 25.778051 0.031701
0.330890 25.778051 0.031921
0.646240 25.778051 0.031980
0.961589 25.778051 0.031640
1.276940 25.778051 0.031779
1.592289 25.778051 0.031332
1.907640 25.778051 0.030980
2.222990 25.778051 0.030374
2.538340 25.778051 0.028937
2.853690 25.778051 0.028559
3.169039 25.778051 0.028274
3.484390 25.778051 0.027870
3.799739 25.778051 0.027696
4.115090 25.778051 0.027154
4.430439 25.778051 0.026150
4.745790 25.778051 0.026235
5.061140 25.778051 0.026149
5.376490 25.778051 0.026672
5.691840 25.778051 0.027207
6.007189 25.778051 0.027485
6.322540 25.778051 0.028488
6.637889 25.778051 0.029655
6.953240 25.778051 0.032133
7.268589 25.778051 0.037238
7.583940 25.778051 0.046121
7.899290 25.778051 0.062480
8.214640 25.778051 0.094123
8.529989 25.778051 0.144554
8.845339 25.778051 0.213197
9.160688 25.778051 0.328889
9.476040 25.778051 0.466864
9.791389 25.778051 0.638906
10.106739 25.778051 0.859679
10.422089 25.778051 1.129892
10.737438 25.778051 1.393906
11.052790 25.778051 1.705773
11.368139 25.778051 2.108820
11.683489 25.778051 2.483291
11.998838 25.778051 2.872563
12.314190 25.778051 3.344282
12.629539 25.778051 4.089564
12.944889 25.778051 4.448208
13.260239 25.778051 4.737073
13.575588 25.778051 4.615562
13.890940 25.778051 4.731439
14.206289 25.778051 5.042337
14.521639 25.778051 5.254332
14.836988 25.778051 6.100964
15.152340 25.778051 7.320263
15.467690 25.778051 9.114928
15.783039 25.778051 0.000000
16.098389 25.778051 0.000000
16.413738 25.778051 0.000000
16.729090 25.778051 0.000000
17.044439 25.778051 0.000000
17.359789 25.778051 0.000000
17.675138 25.778051 0.000000
17.990490 25.778051 0.000000
18.305840 25.778051 195.772095
18.621189 25.778051 189.820465
18.936539 25.778051 174.351212
19.251888 25.778051 0.000000
-7.237510 25.462700 0.000000
-6.922160 25.462700 0.050076
-6.606810 25.462700 0.035062
-6.291460 25.462700 0.031748
-5.976110 25.462700 0.031392
-5.660760 25.462700 0.030976
-5.345410 25.462700 0.031706
-5.030060 25.462700 0.032437
-4.714710 25.462700 0.032356
-4.399360 25.462700 0.031584
-4.084010 25.462700 0.031662
-3.768660 25.462700 0.032309
-3.453310 25.462700 0.033057
-3.137960 25.462700 0.032172
-2.822610 25.462700 0.032188
-2.507260 25.462700 0.032121
-2.191910 25.462700 0.032775
-1.876560 25.462700 0.033242
-1.561210 25.462700 0.032792
-1.245860 25.462700 0.032164
-0.930510 25.462700 0.031441
-0.615160 25.462700 0.031761
-0.299810 25.462700 0.031721
0.015540 25.462700 0.031702
0.330890 25.462700 0.031878
0.646240 25.462700 0.032208
0.961589 25.462700 0.031415
1.276940 25.462700 0.030837
1.592289 25.462700 0.030557
1.907640 25.462700 0.030447
2.222990 25.462700 0.029919
2.538340 25.462700 0.028949
2.853690 25.462700 0.028433
3.169039 25.462700 0.028081
3.484390 25.462700 0.027667
3.799739 25.462700 0.027307
4.115090 25.462700 0.027190
4.430439 25.462700 0.026539
4.745790 25.462700 0.026425
5.061140 25.462700 0.026629
5.376490 25.462700 0.027139
5.691840 25.462700 0.027082
6.007189 25.462700 0.027219
6.322540 25.462700 0.027989
6.637889 25.462700 0.029253
6.953240 25.462700 0.031148
7.268589 25.462700 0.036770
7.583940 25.462700 0.046735
7.899290 25.462700 0.061251
8.214640 25.462700 0.092324
8.529989 25.462700 0.141530
8.845339 25.462700 0.225094
9.160688 25.462700 0.337270
9.476040 25.462700 0.476805
9.791389 25.462700 0.633514
10.106739 25.462700 0.866197
10.422089 25.462700 1.124594
10.737438 25.462700 1.433787
11.052790 25.462700 1.719697
11.368139 25.462700 2.138262
11.683489 25.462700 2.619159
11.998838 25.462700 2.990894
12.314190 25.462700 3.609875
12.629539 25.462700 3.955780
12.944889 25.462700 4.579104
13.260239 25.462700 4.626315
13.575588 25.462700 4.745618
13.890940 25.462700 4.899816
14.206289 25.462700 5.128612
14.521639 25.462700 5.414894
14.836988 25.462700 6.057569
15.152340 25.462700 7.093716
15.467690 25.462700 9.727619
15.783039 25.462700 0.000000
16.098389 25.462700 0.000000
16.413738 25.462700 0.000000
16.729090 25.462700 0.000000
17.044439 25.462700 0.000000
17.359789 25.462700 0.000000
17.675138 25.462700 0.000000
17.990490 25.462700 0.000000
18.305840 25.462700 187.822281
18.621189 25.462700 188.963226
18.936539 25.462700 169.526703
19.251888 25.462700 0.000000
-7.237510 25.147350 0.000000
-6.922160 25.147350 0.048200
-6.606810 25.147350 0.033853
-6.291460 25.147350 0.031018
-5.976110 25.147350 0.031462
-5.660760 25.147350 0.031196
-5.345410 25.147350 0.031566
-5.030060 25.147350 0.032343
-4.714710 25.147350 0.032076
-4.399360 25.147350 0.031306
-4.084010 25.147350 0.031880
-3.768660 25.147350 0.032312
-3.453310 25.147350 0.032890
-3.137960 25.147350 0.031922
-2.822610 25.147350 0.031365
-2.507260 25.147350 0.032169
-2.191910 25.147350 0.033138
-1.876560 25.147350 0.032787
-1.561210 25.147350 0.031957
-1.245860 25.147350 0.031771
-0.930510 25.147350 0.031493
-0.615160 25.147350 0.031660
-0.299810 25.147350 0.031503
0.015540 25.147350 0.031505
0.330890 25.147350 0.031989
0.646240 25.147350 0.031915
0.961589 25.147350 0.030494
1.276940 25.147350 0.029843
1.592289 25.147350 0.029804
1.907640 25.147350 0.030029
2.222990 25.147350 0.029590
2.538340 25.147350 0.028698
2.853690 25.147350 0.027992
3.169039 25.147350 0.027334
3.484390 25.147350 0.027222
3.799739 25.147350 0.027052
4.115090 25.147350 0.027199
4.430439 25.147350 0.026944
4.745790 25.147350 0.026648
5.061140 25.147350 0.027213
5.376490 25.147350 0.027362
5.691840 25.147350 0.026493
6.007189 25.147350 0.026383
6.322540 25.147350 0.027258
6.637889 25.147350 0.028489
6.953240 25.147350 0.030698
7.268589 25.147350 0.036439
7.583940 25.147350 0.044978
7.899290 25.147350 0.061250
8.214640 25.147350 0.091072
8.529989 25.147350 0.142400
8.845339 25.147350 0.215397
9.160688 25.147350 0.331361
9.476040 25.147350 0.478838
9.791389 25.147350 0.627526
10.106739 25.147350 0.856597
10.422089 25.147350 1.124165
10.737438 25.147350 1.480664
11.052790 25.147350 1.834069
11.368139 25.147350 2.252959
11.683489 25.147350 2.641274
11.998838 25.147350 2.964770
12.314190 25.147350 3.562230
12.629539 25.147350 4.003835
12.944889 25.147350 4.340652
13.260239 25.147350 4.710632
13.575588 25.147350 4.680424
13.890940 25.147350 5.010928
14.206289 25.147350 5.397821
14.521639 25.147350 5.632648
14.836988 25.147350 5.883929
15.152340 25.147350 7.119767
15.467690 25.147350 9.804083
15.783039 25.147350 0.000000
16.098389 25.147350 0.000000
16.413738 25.147350 0.000000
16.729090 25.147350 0.000000
17.044439 25.147350 0.000000
17.359789 25.147350 0.000000
17.675138 25.147350 0.000000
17.990490 25.147350 0.000000
18.305840 25.147350 178.006363
18.621189 25.147350 180.349136
18.936539 25.147350 156.562347
19.251888 25.147350 0.000000
-7.237510 24.832001 0.000000
-6.922160 24.832001 0.048051
-6.606810 24.832001 0.033161
-6.291460 24.832001 0.030210
-5.976110 24.832001 0.030707
-5.660760 24.832001 0.031245
-5.345410 24.832001 0.031691
-5.030060 24.832001 0.032378
-4.714710 24.832001 0.031730
-4.399360 24.832001 0.031287
-4.084010 24.832001 0.031679
-3.768660 24.832001 0.031909
-3.453310 24.832001 0.032297
-3.137960 24.832001 0.031916
-2.822610 24.832001 0.031440
-2.507260 24.832001 0.032080
-2.191910 24.832001 0.032827
-1.876560 24.832001 0.032069
-1.561210 24.832001 0.031393
-1.245860 24.832001 0.031225
-0.930510 24.832001 0.031490
-0.615160 24.832001 0.031650
-0.299810 24.832001 0.031360
0.015540 24.832001 0.031355
0.330890 24.832001 0.031401
0.646240 24.832001 0.031062
0.961589 24.832001 0.029444
1.276940 24.832001 0.028702
1.592289 24.832001 0.028899
1.907640 24.832001 0.029437
2.222990 24.832001 0.029168
2.538340 24.832001 0.028565
2.853690 24.832001 0.027650
3.169039 24.832001 0.026703
3.484390 24.832001 0.026974
3.799739 24.832001 0.026963
4.115090 24.832001 0.027179
4.430439 24.832001 0.027037
4.745790 24.832001 0.026854
5.061140 24.832001 0.027446
5.376490 24.832001 0.026902
5.691840 24.832001 0.025582
6.007189 24.832001 0.025142
6.322540 24.832001 0.026169
6.637889 24.832001 0.027729
6.953240 24.832001 0.030106
7.268589 24.832001 0.035613
7.583940 24.832001 0.044662
7.899290 24.832001 0.060453
8.214640 24.832001 0.091315
8.529989 24.832001 0.146587
8.845339 24.832001 0.219154
9.160688 24.832001 0.333058
9.476040 24.832001 0.474442
9.791389 24.832001 0.617373
10.106739 24.832001 0.836916
10.422089 24.832001 1.104226
10.737438 24.832001 1.403622
11.052790 24.832001 1.890640
11.368139 24.832001 2.256808
11.683489 24.832001 2.550622
11.998838 24.832001 3.024241
12.314190 24.832001 3.467190
12.629539 24.832001 3.997350
12.944889 24.832001 4.312676
13.260239 24.832001 4.660258
13.575588 24.832001 4.991602
13.890940 24.832001 4.886428
14.206289 24.832001 5.157611
14.521639 24.832001 5.549022
14.836988 24.832001 5.760817
15.152340 24.832001 7.029069
15.467690 24.832001 9.614188
15.783039 24.832001 0.000000
16.098389 24.832001 0.000000
16.413738 24.832001 0.000000
16.729090 24.832001 0.000000
17.044439 24.832001 0.000000
17.359789 24.832001 0.000000
17.675138 24.832001 0.000000
17.990490 24.832001 0.000000
18.305840 24.832001 172.030792
18.621189 24.832001 168.302231
18.936539 24.832001 0.000000
19.251888 24.832001 0.000000
-7.237510 24.516651 0.000000
-6.922160 24.516651 0.048243
-6.606810 24.516651 0.033009
-6.291460 24.516651 0.029713
-5.976110 24.516651 0.030147
-5.660760 24.516651 0.030737
-5.345410 24.516651 0.031177
-5.030060 24.516651 0.031964
-4.714710 24.516651 0.031447
-4.399360 24.516651 0.030970
-4.084010 24.516651 0.031126
-3.768660 24.516651 0.031053
-3.453310 24.516651 0.031478
-3.137960 24.516651 0.031502
-2.822610 24.516651 0.031194
-2.507260 24.516651 0.031661
-2.191910 24.516651 0.032056
-1.876560 24.516651 0.031239
-1.561210 24.516651 0.031095
-1.245860 24.516651 0.030876
-0.930510 24.516651 0.031173
-0.615160 24.516651 0.031313
-0.299810 24.516651 0.031482
0.015540 24.516651 0.030941
0.330890 24.516651 0.030649
0.646240 24.516651 0.030130
0.961589 24.516651 0.028907
1.276940 24.516651 0.028641
1.592289 24.516651 0.028784
1.907640 24.516651 0.029045
2.222990 24.516651 0.028747
2.538340 24.516651 0.028211
2.853690 24.516651 0.027480
3.169039 24.516651 0.026368
3.484390 24.516651 0.026812
3.799739 24.516651 0.027387
4.115090 24.516651 0.027118
4.430439 24.516651 0.027056
4.745790 24.516651 0.026912
5.061140 24.516651 0.026796
5.376490 24.516651 0.025692
5.691840 24.516651 0.024582
6.007189 24.516651 0.024256
6.322540 24.516651 0.025416
6.637889 24.516651 0.027464
6.953240 24.516651 0.029999
7.268589 24.516651 0.034907
7.583940 24.516651 0.044470
7.899290 24.516651 0.060606
8.214640 24.516651 0.091440
8.529989 24.516651 0.149640
8.845339 24.516651 0.222790
9.160688 24.516651 0.334500
9.476040 24.516651 0.478334
9.791389 24.516651 0.638281
10.106739 24.516651 0.831862
10.422089 24.516651 1.087384
10.737438 24.516651 1.430045
11.052790 24.516651 1.844908
11.368139 24.516651 2.225014
11.683489 24.516651 2.602304
11.998838 24.516651 3.001970
12.314190 24.516651 3.427226
12.629539 24.516651 3.845402
12.944889 24.516651 4.397614
13.260239 24.516651 4.549292
13.575588 24.516651 4.891424
13.890940 24.516651 4.879940
14.206289 24.516651 4.958640
14.521639 24.516651 5.176993
14.836988 24.516651 5.819959
15.152340 24.516651 6.868394
15.467690 24.516651 9.347767
15.783039 24.516651 0.000000
16.098389 24.516651 0.000000
16.413738 24.516651 0.000000
16.729090 24.516651 0.000000
17.044439 24.516651 0.000000
17.359789 24.516651 0.000000
17.675138 24.516651 0.000000
17.990490 24.516651 0.000000
18.305840 24.516651 163.521957
18.621189 24.516651 162.930969
18.936539 24.516651 0.000000
19.251888 24.516651 0.000000
-7.237510 24.201302 0.000000
-6.922160 24.201302 0.047578
-6.606810 24.201302 0.032629
-6.291460 24.201302 0.029433
-5.976110 24.201302 0.029682
-5.660760 24.201302 0.029973
-5.345410 24.201302 0.030385
-5.030060 24.201302 0.030993
-4.714710 24.201302 0.030678
-4.399360 24.201302 0.030556
-4.084010 24.201302 0.030434
-3.768660 24.201302 0.030405
-3.453310 24.201302 0.030849
-3.137960 24.201302 0.031169
-2.822610 24.201302 0.031139
-2.507260 24.201302 0.030896
-2.191910 24.201302 0.030638
-1.876560 24.201302 0.030457
-1.561210 24.201302 0.030653
-1.245860 24.201302 0.030379
-0.930510 24.201302 0.030650
-0.615160 24.201302 0.030988
-0.299810 24.201302 0.031232
0.015540 24.201302 0.030421
0.330890 24.201302 0.029840
0.646240 24.201302 0.029518
0.961589 24.201302 0.028712
1.276940 24.201302 0.029006
1.592289 24.201302 0.028786
1.907640 24.201302 0.028584
2.222990 24.201302 0.027900
2.538340 24.201302 0.027259
2.853690 24.201302 0.026973
3.169039 24.201302 0.026425
3.484390 24.201302 0.027028
3.799739 24.201302 0.027765
4.115090 24.201302 0.027126
4.430439 24.201302 0.026520
4.745790 24.201302 0.026170
5.061140 24.201302 0.025385
5.376490 24.201302 0.024484
5.691840 24.201302 0.024043
6.007189 24.201302 0.023986
6.322540 24.201302 0.025173
6.637889 24.201302 0.027093
6.953240 24.201302 0.029566
7.268589 24.201302 0.034612
7.583940 24.201302 0.044889
7.899290 24.201302 0.062191
8.214640 24.201302 0.093400
8.529989 24.201302 0.144937
8.845339 24.201302 0.222014
9.160688 24.201302 0.336619
9.476040 24.201302 0.488566
9.791389 24.201302 0.627991
10.106739 24.201302 0.853179
10.422089 24.201302 1.138843
10.737438 24.201302 1.444819
11.052790 24.201302 1.834240
11.368139 24.201302 2.216303
11.683489 24.201302 2.674483
11.998838 24.201302 2.929243
12.314190 24.201302 3.330436
12.629539 24.201302 3.812730
12.944889 24.201302 4.256462
13.260239 24.201302 4.655761
13.575588 24.201302 4.980471
13.890940 24.201302 4.790821
14.206289 24.201302 5.011398
14.521639 24.201302 5.254651
14.836988 24.201302 5.582635
15.152340 24.201302 6.705839
15.467690 24.201302 8.784776
15.783039 24.201302 0.000000
16.098389 24.201302 0.000000
16.413738 24.201302 0.000000
16.729090 24.201302 0.000000
17.044439 24.201302 0.000000
17.359789 24.201302 0.000000
17.675138 24.201302 0.000000
17.990490 24.201302 0.000000
18.305840 24.201302 158.045990
18.621189 24.201302 161.189026
18.936539 24.201302 0.000000
19.251888 24.201302 0.000000
-7.237510 23.885950 0.000000
-6.922160 23.885950 0.047891
-6.606810 23.885950 0.032485
-6.291460 23.885950 0.029489
-5.976110 23.885950 0.029267
-5.660760 23.885950 0.029332
-5.345410 23.885950 0.029357
-5.030060 23.885950 0.029859
-4.714710 23.885950 0.030232
-4.399360 23.885950 0.030114
-4.084010 23.885950 0.029950
-3.768660 23.885950 0.030066
-3.453310 23.885950 0.030411
-3.137960 23.885950 0.030550
-2.822610 23.885950 0.030799
-2.507260 23.885950 0.029956
-2.191910 23.885950 0.029614
-1.876560 23.885950 0.030019
-1.561210 23.885950 0.029971
-1.245860 23.885950 0.029618
-0.930510 23.885950 0.029836
-0.615160 23.885950 0.030335
-0.299810 23.885950 0.030452
0.015540 23.885950 0.029417
0.330890 23.885950 0.029037
0.646240 23.885950 0.028807
0.961589 23.885950 0.028307
1.276940 23.885950 0.028639
1.592289 23.885950 0.028058
1.907640 23.885950 0.027713
2.222990 23.885950 0.026754
2.538340 23.885950 0.026242
2.853690 23.885950 0.026727
3.169039 23.885950 0.026491
3.484390 23.885950 0.026832
3.799739 23.885950 0.027439
4.115090 23.885950 0.026766
4.430439 23.885950 0.025670
4.745790 23.885950 0.025059
5.061140 23.885950 0.024256
5.376490 23.885950 0.023748
5.691840 23.885950 0.024015
6.007189 23.885950 0.024412
6.322540 23.885950 0.025313
6.637889 23.885950 0.026693
6.953240 23.885950 0.029460
7.268589 23.885950 0.036156
7.583940 23.885950 0.046013
7.899290 23.885950 0.064805
8.214640 23.885950 0.096311
8.529989 23.885950 0.147965
8.845339 23.885950 0.222198
9.160688 23.885950 0.343356
9.476040 23.885950 0.491064
9.791389 23.885950 0.663576
10.106739 23.885950 0.864020
10.422089 23.885950 1.128183
10.737438 23.885950 1.407477
11.052790 23.885950 1.839913
11.368139 23.885950 2.241714
11.683489 23.885950 2.605283
11.998838 23.885950 2.983522
12.314190 23.885950 3.442459
12.629539 23.885950 3.949595
12.944889 23.885950 4.390419
13.260239 23.885950 4.588538
13.575588 23.885950 5.068593
13.890940 23.885950 4.856716
14.206289 23.885950 4.971241
14.521639 23.885950 5.160463
14.836988 23.885950 5.741122
15.152340 23.885950 6.906240
15.467690 23.885950 8.786531
15.783039 23.885950 0.000000
16.098389 23.885950 0.000000
16.413738 23.885950 0.000000
16.729090 23.885950 0.000000
17.044439 23.885950 0.000000
17.359789 23.885950 0.000000
17.675138 23.885950 0.000000
17.990490 23.885950 0.000000
18.305840 23.885950 158.114090
18.621189 23.885950 158.296967
18.936539 23.885950 0.000000
19.251888 23.885950 0.000000
-7.237510 23.570601 0.000000
-6.922160 23.570601 0.046365
-6.606810 23.570601 0.031494
-6.291460 23.570601 0.029026
-5.976110 23.570601 0.028891
-5.660760 23.570601 0.028792
-5.345410 23.570601 0.028672
-5.030060 23.570601 0.029203
-4.714710 23.570601 0.029662
-4.399360 23.570601 0.029644
-4.084010 23.570601 0.029540
-3.768660 23.570601 0.029655
-3.453310 23.570601 0.029774
-3.137960 23.570601 0.029474
-2.822610 23.570601 0.029440
-2.507260 23.570601 0.029205
-2.191910 23.570601 0.028991
-1.876560 23.570601 0.029210
-1.561210 23.570601 0.028963
-1.245860 23.570601 0.028900
-0.930510 23.570601 0.029063
-0.615160 23.570601 0.029290
-0.299810 23.570601 0.029295
0.015540 23.570601 0.028336
0.330890 23.570601 0.028379
0.646240 23.570601 0.028242
0.961589 23.570601 0.027880
1.276940 23.570601 0.027796
1.592289 23.570601 0.027244
1.907640 23.570601 0.026752
2.222990 23.570601 0.026077
2.538340 23.570601 0.026107
2.853690 23.570601 0.027050
3.169039 23.570601 0.026988
3.484390 23.570601 0.026330
3.799739 23.570601 0.026408
4.115090 23.570601 0.026237
4.430439 23.570601 0.025064
4.745790 23.570601 0.024578
5.061140 23.570601 0.023887
5.376490 23.570601 0.023787
5.691840 23.570601 0.023921
6.007189 23.570601 0.024505
6.322540 23.570601 0.025298
6.637889 23.570601 0.026707
6.953240 23.570601 0.030515
7.268589 23.570601 0.037218
7.583940 23.570601 0.047436
7.899290 23.570601 0.065931
8.214640 23.570601 0.097726
8.529989 23.570601 0.141363
8.845339 23.570601 0.226191
9.160688 23.570601 0.345297
9.476040 23.570601 0.480281
9.791389 23.570601 0.680899
10.106739 23.570601 0.899339
10.422089 23.570601 1.131797
10.737438 23.570601 1.404633
11.052790 23.570601 1.742368
11.368139 23.570601 2.120022
11.683489 23.570601 2.518547
11.998838 23.570601 2.877537
12.314190 23.570601 3.567282
12.629539 23.570601 4.119146
12.944889 23.570601 4.408212
13.260239 23.570601 4.764368
13.575588 23.570601 4.847995
13.890940 23.570601 5.061523
14.206289 23.570601 5.115789
14.521639 23.570601 5.289670
14.836988 23.570601 5.552362
15.152340 23.570601 6.733383
15.467690 23.570601 9.113496
15.783039 23.570601 0.000000
16.098389 23.570601 0.000000
16.413738 23.570601 0.000000
16.729090 23.570601 0.000000
17.044439 23.570601 0.000000
17.359789 23.570601 0.000000
17.675138 23.570601 0.000000
17.990490 23.570601 0.000000
18.305840 23.570601 160.078415
18.621189 23.570601 163.622757
18.936539 23.570601 0.000000
19.251888 23.570601 0.000000
-7.237510 23.255251 0.000000
-6.922160 23.255251 0.045239
-6.606810 23.255251 0.030014
-6.291460 23.255251 0.028168
-5.976110 23.255251 0.028400
-5.660760 23.255251 0.028427
-5.345410 23.255251 0.028202
-5.030060 23.255251 0.028594
-4.714710 23.255251 0.028695
-4.399360 23.255251 0.028540
-4.084010 23.255251 0.028675
-3.768660 23.255251 0.028935
-3.453310 23.255251 0.029021
-3.137960 23.255251 0.028481
-2.822610 23.255251 0.028143
-2.507260 23.255251 0.028733
-2.191910 23.255251 0.028926
-1.876560 23.255251 0.028406
-1.561210 23.255251 0.027870
-1.245860 23.255251 0.028006
-0.930510 23.255251 0.028152
-0.615160 23.255251 0.028056
-0.299810 23.255251 0.028366
0.015540 23.255251 0.027555
0.330890 23.255251 0.027510
0.646240 23.255251 0.027467
0.961589 23.255251 0.026972
1.276940 23.255251 0.026833
1.592289 23.255251 0.026584
1.907640 23.255251 0.026242
2.222990 23.255251 0.026003
2.538340 23.255251 0.026537
2.853690 23.255251 0.027149
3.169039 23.255251 0.026534
3.484390 23.255251 0.025701
3.799739 23.255251 0.025309
4.115090 23.255251 0.025356
4.430439 23.255251 0.024732
4.745790 23.255251 0.024435
5.061140 23.255251 0.024062
5.376490 23.255251 0.023829
5.691840 23.255251 0.023703
6.007189 23.255251 0.024252
6.322540 23.255251 0.025402
6.637889 23.255251 0.026741
6.953240 23.255251 0.031106
7.268589 23.255251 0.037863
7.583940 23.255251 0.048006
7.899290 23.255251 0.065797
8.214640 23.255251 0.098114
8.529989 23.255251 0.141573
8.845339 23.255251 0.231806
9.160688 23.255251 0.337182
9.476040 23.255251 0.486991
9.791389 23.255251 0.682391
10.106739 23.255251 0.889096
10.422089 23.255251 1.124980
10.737438 23.255251 1.445184
11.052790 23.255251 1.682263
11.368139 23.255251 2.092204
11.683489 23.255251 2.508179
11.998838 23.255251 2.862423
12.314190 23.255251 3.428138
12.629539 23.255251 3.978041
12.944889 23.255251 4.525874
13.260239 23.255251 4.824206
13.575588 23.255251 5.089770
13.890940 23.255251 5.191214
14.206289 23.255251 5.214736
14.521639 23.255251 5.256108
14.836988 23.255251 5.543664
15.152340 23.255251 6.767845
15.467690 23.255251 9.042428
15.783039 23.255251 0.000000
16.098389 23.255251 0.000000
16.413738 23.255251 0.000000
16.729090 23.255251 0.000000
17.044439 23.255251 0.000000
17.359789 23.255251 0.000000
17.675138 23.255251 0.000000
17.990490 23.255251 0.000000
18.305840 23.255251 163.982803
18.621189 23.255251 165.915024
18.936539 23.255251 0.000000
19.251888 23.255251 0.000000
-7.237510 22.939901 0.000000
-6.922160 22.939901 0.044276
-6.606810 22.939901 0.028869
-6.291460 22.939901 0.026903
-5.976110 22.939901 0.027571
-5.660760 22.939901 0.027892
-5.345410 22.939901 0.027919
-5.030060 22.939901 0.028085
-4.714710 22.939901 0.027487
-4.399360 22.939901 0.027346
-4.084010 22.939901 0.027613
-3.768660 22.939901 0.027948
-3.453310 22.939901 0.028239
-3.137960 22.939901 0.027681
-2.822610 22.939901 0.027497
-2.507260 22.939901 0.028384
-2.191910 22.939901 0.028763
-1.876560 22.939901 0.027509
-1.561210 22.939901 0.026666
-1.245860 22.939901 0.026814
-0.930510 22.939901 0.027076
-0.615160 22.939901 0.027366
-0.299810 22.939901 0.027391
0.015540 22.939901 0.026940
0.330890 22.939901 0.026738
0.646240 22.939901 0.026376
0.961589 22.939901 0.025728
1.276940 22.939901 0.025873
1.592289 22.939901 0.025990
1.907640 22.939901 0.026401
2.222990 22.939901 0.026180
2.538340 22.939901 0.026502
2.853690 22.939901 0.026515
3.169039 22.939901 0.025582
3.484390 22.939901 0.024659
3.799739 22.939901 0.024406
4.115090 22.939901 0.024510
4.430439 22.939901 0.024450
4.745790 22.939901 0.024235
5.061140 22.939901 0.024003
5.376490 22.939901 0.023560
5.691840 22.939901 0.023142
6.007189 22.939901 0.023892
6.322540 22.939901 0.025762
6.637889 22.939901 0.027627
6.953240 22.939901 0.031694
7.268589 22.939901 0.038474
7.583940 22.939901 0.046665
7.899290 22.939901 0.066634
8.214640 22.939901 0.097790
8.529989 22.939901 0.146705
8.845339 22.939901 0.224431
9.160688 22.939901 0.338196
9.476040 22.939901 0.479605
9.791389 22.939901 0.667047
10.106739 22.939901 0.888809
10.422089 22.939901 1.118097
10.737438 22.939901 1.417192
11.052790 22.939901 1.768894
11.368139 22.939901 2.088411
11.683489 22.939901 2.519346
11.998838 22.939901 2.972898
12.314190 22.939901 3.390168
12.629539 22.939901 4.063763
12.944889 22.939901 4.625092
13.260239 22.939901 4.799706
13.575588 22.939901 5.170516
13.890940 22.939901 5.229432
14.206289 22.939901 5.244306
14.521639 22.939901 5.272108
14.836988 22.939901 5.674629
15.152340 22.939901 6.993171
15.467690 22.939901 9.612488
15.783039 22.939901 0.000000
16.098389 22.939901 0.000000
16.413738 22.939901 0.000000
16.729090 22.939901 0.000000
17.044439 22.939901 0.000000
17.359789 22.939901 0.000000
17.675138 22.939901 0.000000
17.990490 22.939901 0.000000
18.305840 22.939901 166.843903
18.621189 22.939901 166.577652
18.936539 22.939901 0.000000
19.251888 22.939901 0.000000
-7.237510 22.624552 0.000000
-6.922160 22.624552 0.044346
-6.606810 22.624552 0.027712
-6.291460 22.624552 0.026087
-5.976110 22.624552 0.026804
-5.660760 22.624552 0.027212
-5.345410 22.624552 0.027455
-5.030060 22.624552 0.027479
-4.714710 22.624552 0.026663
-4.399360 22.624552 0.026576
-4.084010 22.624552 0.026635
-3.768660 22.624552 0.027109
-3.453310 22.624552 0.027703
-3.137960 22.624552 0.027464
-2.822610 22.624552 0.027249
-2.507260 22.624552 0.027297
-2.191910 22.624552 0.027328
-1.876560 22.624552 0.026161
-1.561210 22.624552 0.025421
-1.245860 22.624552 0.025724
-0.930510 22.624552 0.025843
-0.615160 22.624552 0.026281
-0.299810 22.624552 0.026379
0.015540 22.624552 0.025904
0.330890 22.624552 0.025584
0.646240 22.624552 0.025124
0.961589 22.624552 0.025011
1.276940 22.624552 0.025349
1.592289 22.624552 0.026007
1.907640 22.624552 0.026516
2.222990 22.624552 0.025865
2.538340 22.624552 0.025508
2.853690 22.624552 0.025207
3.169039 22.624552 0.024297
3.484390 22.624552 0.024101
3.799739 22.624552 0.023794
4.115090 22.624552 0.023764
4.430439 22.624552 0.024051
4.745790 22.624552 0.023878
5.061140 22.624552 0.023535
5.376490 22.624552 0.022999
5.691840 22.624552 0.022999
6.007189 22.624552 0.023949
6.322540 22.624552 0.026375
6.637889 22.624552 0.028638
6.953240 22.624552 0.032188
7.268589 22.624552 0.037752
7.583940 22.624552 0.045311
7.899290 22.624552 0.062455
8.214640 22.624552 0.095819
8.529989 22.624552 0.147097
8.845339 22.624552 0.224901
9.160688 22.624552 0.342612
9.476040 22.624552 0.470976
9.791389 22.624552 0.694463
10.106739 22.624552 0.892183
10.422089 22.624552 1.157600
10.737438 22.624552 1.447025
11.052790 22.624552 1.740919
11.368139 22.624552 2.145163
11.683489 22.624552 2.506674
11.998838 22.624552 3.018878
12.314190 22.624552 3.386441
12.629539 22.624552 3.952320
12.944889 22.624552 4.677986
13.260239 22.624552 4.967251
13.575588 22.624552 5.351201
13.890940 22.624552 5.379903
14.206289 22.624552 5.357707
14.521639 22.624552 5.676496
14.836988 22.624552 6.049677
15.152340 22.624552 7.413081
15.467690 22.624552 9.864621
15.783039 22.624552 0.000000
16.098389 22.624552 0.000000
16.413738 22.624552 0.000000
16.729090 22.624552 0.000000
17.044439 22.624552 0.000000
17.359789 22.624552 0.000000
17.675138 22.624552 0.000000
17.990490 22.624552 0.000000
18.305840 22.624552 166.828445
18.621189 22.624552 166.730255
18.936539 22.624552 0.000000
19.251888 22.624552 0.000000
-7.237510 22.309200 0.000000
-6.922160 22.309200 0.042671
-6.606810 22.309200 0.027160
-6.291460 22.309200 0.025809
-5.976110 22.309200 0.026432
-5.660760 22.309200 0.026294
-5.345410 22.309200 0.026467
-5.030060 22.309200 0.026419
-4.714710 22.309200 0.026131
-4.399360 22.309200 0.026035
-4.084010 22.309200 0.026228
-3.768660 22.309200 0.026298
-3.453310 22.309200 0.027144
-3.137960 22.309200 0.027293
-2.822610 22.309200 0.026708
-2.507260 22.309200 0.025914
-2.191910 22.309200 0.025428
-1.876560 22.309200 0.025085
-1.561210 22.309200 0.024748
-1.245860 22.309200 0.024513
-0.930510 22.309200 0.024499
-0.615160 22.309200 0.025098
-0.299810 22.309200 0.024883
0.015540 22.309200 0.024436
0.330890 22.309200 0.024495
0.646240 22.309200 0.024258
0.961589 22.309200 0.024940
1.276940 22.309200 0.025306
1.592289 22.309200 0.025900
1.907640 22.309200 0.025889
2.222990 22.309200 0.024574
2.538340 22.309200 0.024000
2.853690 22.309200 0.023870
3.169039 22.309200 0.023095
3.484390 22.309200 0.023618
3.799739 22.309200 0.023448
4.115090 22.309200 0.023418
4.430439 22.309200 0.023320
4.745790 22.309200 0.023014
5.061140 22.309200 0.022737
5.376490 22.309200 0.023086
5.691840 22.309200 0.023520
6.007189 22.309200 0.024785
6.322540 22.309200 0.026769
6.637889 22.309200 0.028550
6.953240 22.309200 0.031485
7.268589 22.309200 0.036798
7.583940 22.309200 0.045503
7.899290 22.309200 0.062804
8.214640 22.309200 0.092884
8.529989 22.309200 0.146758
8.845339 22.309200 0.216354
9.160688 22.309200 0.346836
9.476040 22.309200 0.488162
9.791389 22.309200 0.677332
10.106739 22.309200 0.913262
10.422089 22.309200 1.155744
10.737438 22.309200 1.465421
11.052790 22.309200 1.853758
11.368139 22.309200 2.185840
11.683489 22.309200 2.543072
11.998838 22.309200 2.938862
12.314190 22.309200 3.628849
12.629539 22.309200 4.029922
12.944889 22.309200 4.603371
13.260239 22.309200 5.033416
13.575588 22.309200 5.601421
13.890940 22.309200 5.781692
14.206289 22.309200 5.710375
14.521639 22.309200 5.817756
14.836988 22.309200 6.273194
15.152340 22.309200 7.992499
15.467690 22.309200 10.871533
15.783039 22.309200 0.000000
16.098389 22.309200 0.000000
16.413738 22.309200 0.000000
16.729090 22.309200 0.000000
17.044439 22.309200 0.000000
17.359789 22.309200 0.000000
17.675138 22.309200 0.000000
17.990490 22.309200 0.000000
18.305840 22.309200 164.947662
18.621189 22.309200 166.029831
18.936539 22.309200 0.000000
19.251888 22.309200 0.000000
-7.237510 21.993851 0.000000
-6.922160 21.993851 0.040777
-6.606810 21.993851 0.026888
-6.291460 21.993851 0.026000
-5.976110 21.993851 0.025981
-5.660760 21.993851 0.025402
-5.345410 21.993851 0.025313
-5.030060 21.993851 0.025525
-4.714710 21.993851 0.025907
-4.399360 21.993851 0.025859
-4.084010 21.993851 0.025821
-3.768660 21.993851 0.025903
-3.453310 21.993851 0.026570
-3.137960 21.993851 0.026676
-2.822610 21.993851 0.025848
-2.507260 21.993851 0.024617
-2.191910 21.993851 0.023862
-1.876560 21.993851 0.024516
-1.561210 21.993851 0.024525
-1.245860 21.993851 0.023847
-0.930510 21.993851 0.023440
-0.615160 21.993851 0.023731
-0.299810 21.993851 0.023478
0.015540 21.993851 0.023369
0.330890 21.993851 0.023815
0.646240 21.993851 0.023917
0.961589 21.993851 0.024656
1.276940 21.993851 0.025028
1.592289 21.993851 0.025042
1.907640 21.993851 0.024117
2.222990 21.993851 0.022435
2.538340 21.993851 0.022380
2.853690 21.993851 0.022210
3.169039 21.993851 0.022501
3.484390 21.993851 0.023030
3.799739 21.993851 0.023121
4.115090 21.993851 0.022914
4.430439 21.993851 0.022357
4.745790 21.993851 0.022219
5.061140 21.993851 0.022624
5.376490 21.993851 0.023624
5.691840 21.993851 0.024630
6.007189 21.993851 0.025264
6.322540 21.993851 0.026343
6.637889 21.993851 0.027604
6.953240 21.993851 0.030871
7.268589 21.993851 0.035873
7.583940 21.993851 0.048364
7.899290 21.993851 0.065647
8.214640 21.993851 0.096971
8.529989 21.993851 0.149426
8.845339 21.993851 0.218194
9.160688 21.993851 0.352410
9.476040 21.993851 0.504306
9.791389 21.993851 0.675359
10.106739 21.993851 0.914972
10.422089 21.993851 1.179973
10.737438 21.993851 1.513390
11.052790 21.993851 1.840855
11.368139 21.993851 2.150237
11.683489 21.993851 2.536931
11.998838 21.993851 2.922754
12.314190 21.993851 3.393835
12.629539 21.993851 4.021540
12.944889 21.993851 4.644144
13.260239 21.993851 5.128032
13.575588 21.993851 5.532192
13.890940 21.993851 5.690584
14.206289 21.993851 5.810870
14.521639 21.993851 5.834463
14.836988 21.993851 6.520068
15.152340 21.993851 8.174570
15.467690 21.993851 10.940135
15.783039 21.993851 0.000000
16.098389 21.993851 0.000000
16.413738 21.993851 0.000000
16.729090 21.993851 0.000000
17.044439 21.993851 0.000000
17.359789 21.993851 0.000000
17.675138 21.993851 0.000000
17.990490 21.993851 0.000000
18.305840 21.993851 163.068283
18.621189 21.993851 166.960388
18.936539 21.993851 0.000000
19.251888 21.993851 0.000000
-7.237510 21.678501 0.000000
-6.922160 21.678501 0.038933
-6.606810 21.678501 0.026275
-6.291460 21.678501 0.025686
-5.976110 21.678501 0.025514
-5.660760 21.678501 0.024514
-5.345410 21.678501 0.024788
-5.030060 21.678501 0.025290
-4.714710 21.678501 0.025707
-4.399360 21.678501 0.025559
-4.084010 21.678501 0.025294
-3.768660 21.678501 0.025190
-3.453310 21.678501 0.025425
-3.137960 21.678501 0.025286
-2.822610 21.678501 0.024281
-2.507260 21.678501 0.023388
-2.191910 21.678501 0.023058
-1.876560 21.678501 0.023939
-1.561210 21.678501 0.023933
-1.245860 21.678501 0.023151
-0.930510 21.678501 0.022146
-0.615160 21.678501 0.022250
-0.299810 21.678501 0.022751
0.015540 21.678501 0.022889
0.330890 21.678501 0.023351
0.646240 21.678501 0.023558
0.961589 21.678501 0.023754
1.276940 21.678501 0.023757
1.592289 21.678501 0.023325
1.907640 21.678501 0.021984
2.222990 21.678501 0.021127
2.538340 21.678501 0.021261
2.853690 21.678501 0.021361
3.169039 21.678501 0.021619
3.484390 21.678501 0.022008
3.799739 21.678501 0.022238
4.115090 21.678501 0.022231
4.430439 21.678501 0.021815
4.745790 21.678501 0.022253
5.061140 21.678501 0.023228
5.376490 21.678501 0.023939
5.691840 21.678501 0.024570
6.007189 21.678501 0.024637
6.322540 21.678501 0.025256
6.637889 21.678501 0.026700
6.953240 21.678501 0.030281
7.268589 21.678501 0.036127
7.583940 21.678501 0.049234
7.899290 21.678501 0.068074
8.214640 21.678501 0.098043
8.529989 21.678501 0.151353
8.845339 21.678501 0.225789
9.160688 21.678501 0.342851
9.476040 21.678501 0.489163
9.791389 21.678501 0.666250
10.106739 21.678501 0.909403
10.422089 21.678501 1.210254
10.737438 21.678501 1.517053
11.052790 21.678501 1.856023
11.368139 21.678501 2.150988
11.683489 21.678501 2.460410
11.998838 21.678501 2.904521
12.314190 21.678501 3.308689
12.629539 21.678501 4.102783
12.944889 21.678501 4.589776
13.260239 21.678501 5.088779
13.575588 21.678501 5.436199
13.890940 21.678501 5.461358
14.206289 21.678501 5.844108
14.521639 21.678501 6.114650
14.836988 21.678501 6.946954
15.152340 21.678501 8.757975
15.467690 21.678501 11.250797
15.783039 21.678501 0.000000
16.098389 21.678501 0.000000
16.413738 21.678501 0.000000
16.729090 21.678501 0.000000
17.044439 21.678501 0.000000
17.359789 21.678501 0.000000
17.675138 21.678501 0.000000
17.990490 21.678501 0.000000
18.305840 21.678501 162.547638
18.621189 21.678501 162.928421
18.936539 21.678501 0.000000
19.251888 21.678501 0.000000
-7.237510 21.363152 0.000000
-6.922160 21.363152 0.036819
-6.606810 21.363152 0.025109
-6.291460 21.363152 0.024923
-5.976110 21.363152 0.024828
-5.660760 21.363152 0.024548
-5.345410 21.363152 0.024609
-5.030060 21.363152 0.024985
-4.714710 21.363152 0.025092
-4.399360 21.363152 0.024651
-4.084010 21.363152 0.024140
-3.768660 21.363152 0.024124
-3.453310 21.363152 0.024091
-3.137960 21.363152 0.023631
-2.822610 21.363152 0.023229
-2.507260 21.363152 0.023048
-2.191910 21.363152 0.022949
-1.876560 21.363152 0.023221
-1.561210 21.363152 0.022709
-1.245860 21.363152 0.022149
-0.930510 21.363152 0.021407
-0.615160 21.363152 0.021552
-0.299810 21.363152 0.022337
0.015540 21.363152 0.022660
0.330890 21.363152 0.022778
0.646240 21.363152 0.022463
0.961589 21.363152 0.021963
1.276940 21.363152 0.022053
1.592289 21.363152 0.021433
1.907640 21.363152 0.020587
2.222990 21.363152 0.020607
2.538340 21.363152 0.020810
2.853690 21.363152 0.020793
3.169039 21.363152 0.020690
3.484390 21.363152 0.020638
3.799739 21.363152 0.021228
4.115090 21.363152 0.021823
4.430439 21.363152 0.021828
4.745790 21.363152 0.022881
5.061140 21.363152 0.023557
5.376490 21.363152 0.023537
5.691840 21.363152 0.023380
6.007189 21.363152 0.023379
6.322540 21.363152 0.024342
6.637889 21.363152 0.026017
6.953240 21.363152 0.029706
7.268589 21.363152 0.036881
7.583940 21.363152 0.048764
7.899290 21.363152 0.066681
8.214640 21.363152 0.100049
8.529989 21.363152 0.143441
8.845339 21.363152 0.224268
9.160688 21.363152 0.339016
9.476040 21.363152 0.486878
9.791389 21.363152 0.652647
10.106739 21.363152 0.881763
10.422089 21.363152 1.193604
10.737438 21.363152 1.465082
11.052790 21.363152 1.799256
11.368139 21.363152 2.155297
11.683489 21.363152 2.498044
11.998838 21.363152 2.816522
12.314190 21.363152 3.318045
12.629539 21.363152 3.936489
12.944889 21.363152 4.530126
13.260239 21.363152 5.022643
13.575588 21.363152 5.320545
13.890940 21.363152 5.395760
14.206289 21.363152 5.851469
14.521639 21.363152 5.817794
14.836988 21.363152 6.614705
15.152340 21.363152 8.791003
15.467690 21.363152 11.577203
15.783039 21.363152 0.000000
16.098389 21.363152 0.000000
16.413738 21.363152 0.000000
16.729090 21.363152 0.000000
17.044439 21.363152 0.000000
17.359789 21.363152 0.000000
17.675138 21.363152 0.000000
17.990490 21.363152 0.000000
18.305840 21.363152 163.498871
18.621189 21.363152 161.479675
18.936539 21.363152 0.000000
19.251888 21.363152 0.000000
-7.237510 21.047800 0.000000
-6.922160 21.047800 0.034300
-6.606810 21.047800 0.023936
-6.291460 21.047800 0.024106
-5.976110 21.047800 0.024897
-5.660760 21.047800 0.024682
-5.345410 21.047800 0.024599
-5.030060 21.047800 0.024425
-4.714710 21.047800 0.024098
-4.399360 21.047800 0.023534
-4.084010 21.047800 0.023062
-3.768660 21.047800 0.022890
-3.453310 21.047800 0.022865
-3.137960 21.047800 0.022441
-2.822610 21.047800 0.022629
-2.507260 21.047800 0.022807
-2.191910 21.047800 0.022689
-1.876560 21.047800 0.022131
-1.561210 21.047800 0.021383
-1.245860 21.047800 0.021140
-0.930510 21.047800 0.021113
-0.615160 21.047800 0.021429
-0.299810 21.047800 0.022120
0.015540 21.047800 0.022052
0.330890 21.047800 0.021674
0.646240 21.047800 0.020779
0.961589 21.047800 0.020226
1.276940 21.047800 0.020716
1.592289 21.047800 0.020684
1.907640 21.047800 0.019982
2.222990 21.047800 0.020173
2.538340 21.047800 0.020145
2.853690 21.047800 0.020186
3.169039 21.047800 0.019815
3.484390 21.047800 0.019636
3.799739 21.047800 0.020675
4.115090 21.047800 0.021491
4.430439 21.047800 0.021903
4.745790 21.047800 0.022610
5.061140 21.047800 0.022938
5.376490 21.047800 0.022212
5.691840 21.047800 0.021939
6.007189 21.047800 0.022574
6.322540 21.047800 0.024009
6.637889 21.047800 0.025374
6.953240 21.047800 0.028941
7.268589 21.047800 0.037020
7.583940 21.047800 0.048869
7.899290 21.047800 0.068393
8.214640 21.047800 0.102320
8.529989 21.047800 0.153484
8.845339 21.047800 0.234377
9.160688 21.047800 0.342372
9.476040 21.047800 0.493688
9.791389 21.047800 0.629673
10.106739 21.047800 0.884585
10.422089 21.047800 1.148906
10.737438 21.047800 1.520010
11.052790 21.047800 1.784933
11.368139 21.047800 2.221051
11.683489 21.047800 2.440682
11.998838 21.047800 2.818073
12.314190 21.047800 3.368249
12.629539 21.047800 3.919598
12.944889 21.047800 4.418167
13.260239 21.047800 4.908610
13.575588 21.047800 5.196811
13.890940 21.047800 5.476690
14.206289 21.047800 5.848120
14.521639 21.047800 6.395221
14.836988 21.047800 6.751513
15.152340 21.047800 8.506826
15.467690 21.047800 11.571249
15.783039 21.047800 0.000000
16.098389 21.047800 0.000000
16.413738 21.047800 0.000000
16.729090 21.047800 0.000000
17.044439 21.047800 0.000000
17.359789 21.047800 0.000000
17.675138 21.047800 0.000000
17.990490 21.047800 0.000000
18.305840 21.047800 165.831284
18.621189 21.047800 164.430618
18.936539 21.047800 0.000000
19.251888 21.047800 0.000000
-7.237510 20.732450 0.000000
-6.922160 20.732450 0.033529
-6.606810 20.732450 0.023656
-6.291460 20.732450 0.023856
-5.976110 20.732450 0.024955
-5.660760 20.732450 0.024604
-5.345410 20.732450 0.023925
-5.030060 20.732450 0.023514
-4.714710 20.732450 0.022880
-4.399360 20.732450 0.022394
-4.084010 20.732450 0.022195
-3.768660 20.732450 0.021967
-3.453310 20.732450 0.021941
-3.137960 20.732450 0.021695
-2.822610 20.732450 0.021781
-2.507260 20.732450 0.021919
-2.191910 20.732450 0.021765
-1.876560 20.732450 0.021241
-1.561210 20.732450 0.020684
-1.245860 20.732450 0.020627
-0.930510 20.732450 0.020976
-0.615160 20.732450 0.020993
-0.299810 20.732450 0.021168
0.015540 20.732450 0.020784
0.330890 20.732450 0.020179
0.646240 20.732450 0.019459
0.961589 20.732450 0.018928
1.276940 20.732450 0.019950
1.592289 20.732450 0.020426
1.907640 20.732450 0.019617
2.222990 20.732450 0.019378
2.538340 20.732450 0.019304
2.853690 20.732450 0.019238
3.169039 20.732450 0.019100
3.484390 20.732450 0.019512
3.799739 20.732450 0.020444
4.115090 20.732450 0.020928
4.430439 20.732450 0.021232
4.745790 20.732450 0.021281
5.061140 20.732450 0.021288
5.376490 20.732450 0.021174
5.691840 20.732450 0.021305
6.007189 20.732450 0.022235
6.322540 20.732450 0.023671
6.637889 20.732450 0.025159
6.953240 20.732450 0.028756
7.268589 20.732450 0.036848
7.583940 20.732450 0.048343
7.899290 20.732450 0.068451
8.214640 20.732450 0.099828
8.529989 20.732450 0.160543
8.845339 20.732450 0.233631
9.160688 20.732450 0.351608
9.476040 20.732450 0.501945
9.791389 20.732450 0.668607
10.106739 20.732450 0.905889
10.422089 20.732450 1.151014
10.737438 20.732450 1.508296
11.052790 20.732450 1.805481
11.368139 20.732450 2.184424
11.683489 20.732450 2.467952
11.998838 20.732450 2.858913
12.314190 20.732450 3.236836
12.629539 20.732450 3.911514
12.944889 20.732450 4.385333
13.260239 20.732450 4.921298
13.575588 20.732450 5.534443
13.890940 20.732450 5.828362
14.206289 20.732450 5.748108
14.521639 20.732450 6.429202
14.836988 20.732450 7.046978
15.152340 20.732450 8.621550
15.467690 20.732450 11.117086
15.783039 20.732450 0.000000
16.098389 20.732450 0.000000
16.413738 20.732450 0.000000
16.729090 20.732450 0.000000
17.044439 20.732450 0.000000
17.359789 20.732450 0.000000
17.675138 20.732450 0.000000
17.990490 20.732450 0.000000
18.305840 20.732450 167.727295
18.621189 20.732450 166.586166
18.936539 20.732450 0.000000
19.251888 20.732450 0.000000
-7.237510 20.417101 0.000000
-6.922160 20.417101 0.033363
-6.606810 20.417101 0.023791
-6.291460 20.417101 0.023636
-5.976110 20.417101 0.024101
-5.660760 20.417101 0.023785
-5.345410 20.417101 0.022769
-5.030060 20.417101 0.022602
-4.714710 20.417101 0.022052
-4.399360 20.417101 0.021767
-4.084010 20.417101 0.021440
-3.768660 20.417101 0.021228
-3.453310 20.417101 0.021144
-3.137960 20.417101 0.020968
-2.822610 20.417101 0.020567
-2.507260 20.417101 0.020605
-2.191910 20.417101 0.020720
-1.876560 20.417101 0.020768
-1.561210 20.417101 0.020605
-1.245860 20.417101 0.020410
-0.930510 20.417101 0.020336
-0.615160 20.417101 0.019799
-0.299810 20.417101 0.019511
0.015540 20.417101 0.019075
0.330890 20.417101 0.019043
0.646240 20.417101 0.018817
0.961589 20.417101 0.018512
1.276940 20.417101 0.019061
1.592289 20.417101 0.019595
1.907640 20.417101 0.018729
2.222990 20.417101 0.018262
2.538340 20.417101 0.018347
2.853690 20.417101 0.018547
3.169039 20.417101 0.018785
3.484390 20.417101 0.019109
3.799739 20.417101 0.019899
4.115090 20.417101 0.020026
4.430439 20.417101 0.019888
4.745790 20.417101 0.020046
5.061140 20.417101 0.020035
5.376490 20.417101 0.020506
5.691840 20.417101 0.021167
6.007189 20.417101 0.021923
6.322540 20.417101 0.023363
6.637889 20.417101 0.025032
6.953240 20.417101 0.028941
7.268589 20.417101 0.037385
7.583940 20.417101 0.047592
7.899290 20.417101 0.068389
8.214640 20.417101 0.102157
8.529989 20.417101 0.163878
8.845339 20.417101 0.243018
9.160688 20.417101 0.359617
9.476040 20.417101 0.508859
9.791389 20.417101 0.682035
10.106739 20.417101 0.899958
10.422089 20.417101 1.180039
10.737438 20.417101 1.505029
11.052790 20.417101 1.825350
11.368139 20.417101 2.276145
11.683489 20.417101 2.576341
11.998838 20.417101 2.853288
12.314190 20.417101 3.395353
12.629539 20.417101 3.885362
12.944889 20.417101 4.732555
13.260239 20.417101 4.965336
13.575588 20.417101 5.408259
13.890940 20.417101 5.763988
14.206289 20.417101 5.945326
14.521639 20.417101 6.613495
14.836988 20.417101 7.105556
15.152340 20.417101 8.743653
15.467690 20.417101 11.304173
15.783039 20.417101 0.000000
16.098389 20.417101 0.000000
16.413738 20.417101 0.000000
16.729090 20.417101 0.000000
17.044439 20.417101 0.000000
17.359789 20.417101 0.000000
17.675138 20.417101 0.000000
17.990490 20.417101 0.000000
18.305840 20.417101 171.336517
18.621189 20.417101 170.567551
18.936539 20.417101 0.000000
19.251888 20.417101 0.000000
-7.237510 20.101751 0.000000
-6.922160 20.101751 0.033163
-6.606810 20.101751 0.023390
-6.291460 20.101751 0.022673
-5.976110 20.101751 0.022691
-5.660760 20.101751 0.022296
-5.345410 20.101751 0.021804
-5.030060 20.101751 0.022030
-4.714710 20.101751 0.022011
-4.399360 20.101751 0.021473
-4.084010 20.101751 0.020891
-3.768660 20.101751 0.020686
-3.453310 20.101751 0.020521
-3.137960 20.101751 0.020424
-2.822610 20.101751 0.019746
-2.507260 20.101751 0.019866
-2.191910 20.101751 0.020201
-1.876560 20.101751 0.020519
-1.561210 20.101751 0.020265
-1.245860 20.101751 0.019767
-0.930510 20.101751 0.019298
-0.615160 20.101751 0.018531
-0.299810 20.101751 0.018175
0.015540 20.101751 0.018079
0.330890 20.101751 0.018352
0.646240 20.101751 0.018492
0.961589 20.101751 0.018080
1.276940 20.101751 0.018049
1.592289 20.101751 0.018202
1.907640 20.101751 0.017688
2.222990 20.101751 0.017438
2.538340 20.101751 0.017840
2.853690 20.101751 0.018182
3.169039 20.101751 0.018336
3.484390 20.101751 0.018444
3.799739 20.101751 0.018773
4.115090 20.101751 0.018564
4.430439 20.101751 0.018652
4.745790 20.101751 0.019270
5.061140 20.101751 0.019288
5.376490 20.101751 0.020080
5.691840 20.101751 0.020898
6.007189 20.101751 0.021545
6.322540 20.101751 0.022986
6.637889 20.101751 0.025105
6.953240 20.101751 0.029399
7.268589 20.101751 0.036666
7.583940 20.101751 0.049097
7.899290 20.101751 0.069412
8.214640 20.101751 0.104824
8.529989 20.101751 0.165915
8.845339 20.101751 0.248506
9.160688 20.101751 0.362718
9.476040 20.101751 0.497051
9.791389 20.101751 0.679408
10.106739 20.101751 0.910532
10.422089 20.101751 1.183028
10.737438 20.101751 1.480062
11.052790 20.101751 1.810921
11.368139 20.101751 2.240427
11.683489 20.101751 2.619143
11.998838 20.101751 3.029674
12.314190 20.101751 3.363256
12.629539 20.101751 3.864774
12.944889 20.101751 4.375613
13.260239 20.101751 5.159245
13.575588 20.101751 5.356659
13.890940 20.101751 5.820399
14.206289 20.101751 6.024400
14.521639 20.101751 6.489854
14.836988 20.101751 7.278772
15.152340 20.101751 9.753442
15.467690 20.101751 12.430487
15.783039 20.101751 0.000000
16.098389 20.101751 0.000000
16.413738 20.101751 0.000000
16.729090 20.101751 0.000000
17.044439 20.101751 0.000000
17.359789 20.101751 0.000000
17.675138 20.101751 0.000000
17.990490 20.101751 0.000000
18.305840 20.101751 177.234726
18.621189 20.101751 174.394836
18.936539 20.101751 0.000000
19.251888 20.101751 0.000000
-7.237510 19.786402 0.000000
-6.922160 19.786402 0.032055
-6.606810 19.786402 0.022278
-6.291460 19.786402 0.021526
-5.976110 19.786402 0.021450
-5.660760 19.786402 0.021298
-5.345410 19.786402 0.021290
-5.030060 19.786402 0.021862
-4.714710 19.786402 0.021654
-4.399360 19.786402 0.020882
-4.084010 19.786402 0.020259
-3.768660 19.786402 0.020176
-3.453310 19.786402 0.020219
-3.137960 19.786402 0.020159
-2.822610 19.786402 0.019422
-2.507260 19.786402 0.019643
-2.191910 19.786402 0.019940
-1.876560 19.786402 0.019827
-1.561210 19.786402 0.019116
-1.245860 19.786402 0.018377
-0.930510 19.786402 0.018029
-0.615160 19.786402 0.017886
-0.299810 19.786402 0.017648
0.015540 19.786402 0.017607
0.330890 19.786402 0.017653
0.646240 19.786402 0.017619
0.961589 19.786402 0.017210
1.276940 19.786402 0.016845
1.592289 19.786402 0.017213
1.907640 19.786402 0.017370
2.222990 19.786402 0.017346
2.538340 19.786402 0.017378
2.853690 19.786402 0.017323
3.169039 19.786402 0.017378
3.484390 19.786402 0.017412
3.799739 19.786402 0.017445
4.115090 19.786402 0.017597
4.430439 19.786402 0.018226
4.745790 19.786402 0.018836
5.061140 19.786402 0.018830
5.376490 19.786402 0.019238
5.691840 19.786402 0.020170
6.007189 19.786402 0.021173
6.322540 19.786402 0.023121
6.637889 19.786402 0.025701
6.953240 19.786402 0.030042
7.268589 19.786402 0.036740
7.583940 19.786402 0.047440
7.899290 19.786402 0.067409
8.214640 19.786402 0.101746
8.529989 19.786402 0.153867
8.845339 19.786402 0.240575
9.160688 19.786402 0.359786
9.476040 19.786402 0.481403
9.791389 19.786402 0.679367
10.106739 19.786402 0.934778
10.422089 19.786402 1.190462
10.737438 19.786402 1.515809
11.052790 19.786402 1.900982
11.368139 19.786402 2.249372
11.683489 19.786402 2.675279
11.998838 19.786402 2.998283
12.314190 19.786402 3.395058
12.629539 19.786402 3.883706
12.944889 19.786402 4.570801
13.260239 19.786402 4.988162
13.575588 19.786402 5.373699
13.890940 19.786402 5.953644
14.206289 19.786402 6.075786
14.521639 19.786402 6.589224
14.836988 19.786402 7.787570
15.152340 19.786402 10.057820
15.467690 19.786402 12.145425
15.783039 19.786402 0.000000
16.098389 19.786402 0.000000
16.413738 19.786402 0.000000
16.729090 19.786402 0.000000
17.044439 19.786402 0.000000
17.359789 19.786402 0.000000
17.675138 19.786402 0.000000
17.990490 19.786402 0.000000
18.305840 19.786402 177.432358
18.621189 19.786402 174.955276
18.936539 19.786402 0.000000
19.251888 19.786402 0.000000
-7.237510 19.471050 0.000000
-6.922160 19.471050 0.030489
-6.606810 19.471050 0.021534
-6.291460 19.471050 0.021040
-5.976110 19.471050 0.021183
-5.660760 19.471050 0.020906
-5.345410 19.471050 0.020763
-5.030060 19.471050 0.021148
-4.714710 19.471050 0.020664
-4.399360 19.471050 0.020233
-4.084010 19.471050 0.019741
-3.768660 19.471050 0.020033
-3.453310 19.471050 0.020343
-3.137960 19.471050 0.020082
-2.822610 19.471050 0.019143
-2.507260 19.471050 0.019180
-2.191910 19.471050 0.019016
-1.876560 19.471050 0.018488
-1.561210 19.471050 0.017789
-1.245860 19.471050 0.017260
-0.930510 19.471050 0.017332
-0.615160 19.471050 0.017313
-0.299810 19.471050 0.016935
0.015540 19.471050 0.016847
0.330890 19.471050 0.016730
0.646240 19.471050 0.016569
0.961589 19.471050 0.016355
1.276940 19.471050 0.016309
1.592289 19.471050 0.016641
1.907640 19.471050 0.017095
2.222990 19.471050 0.017124
2.538340 19.471050 0.016677
2.853690 19.471050 0.016199
3.169039 19.471050 0.016411
3.484390 19.471050 0.016336
3.799739 19.471050 0.016557
4.115090 19.471050 0.017148
4.430439 19.471050 0.017660
4.745790 19.471050 0.018156
5.061140 19.471050 0.018428
5.376490 19.471050 0.018692
5.691840 19.471050 0.019868
6.007189 19.471050 0.021279
6.322540 19.471050 0.023119
6.637889 19.471050 0.025758
6.953240 19.471050 0.029651
7.268589 19.471050 0.036091
7.583940 19.471050 0.047309
7.899290 19.471050 0.068759
8.214640 19.471050 0.101856
8.529989 19.471050 0.160711
8.845339 19.471050 0.244257
9.160688 19.471050 0.353403
9.476040 19.471050 0.498568
9.791389 19.471050 0.700611
10.106739 19.471050 0.944860
10.422089 19.471050 1.235227
10.737438 19.471050 1.562300
11.052790 19.471050 1.839235
11.368139 19.471050 2.262207
11.683489 19.471050 2.571450
11.998838 19.471050 3.131269
12.314190 19.471050 3.492270
12.629539 19.471050 3.901012
12.944889 19.471050 4.593022
13.260239 19.471050 5.135050
13.575588 19.471050 5.507060
13.890940 19.471050 5.848608
14.206289 19.471050 6.090273
14.521639 19.471050 6.775177
14.836988 19.471050 7.762659
15.152340 19.471050 10.098268
15.467690 19.471050 12.375695
15.783039 19.471050 0.000000
16.098389 19.471050 0.000000
16.413738 19.471050 0.000000
16.729090 19.471050 0.000000
17.044439 19.471050 0.000000
17.359789 19.471050 0.000000
17.675138 19.471050 0.000000
17.990490 19.471050 0.000000
18.305840 19.471050 175.887329
18.621189 19.471050 174.192719
18.936539 19.471050 0.000000
19.251888 19.471050 0.000000
-7.237510 19.155701 0.000000
-6.922160 19.155701 0.029910
-6.606810 19.155701 0.021370
-6.291460 19.155701 0.021094
-5.976110 19.155701 0.020858
-5.660760 19.155701 0.020430
-5.345410 19.155701 0.019857
-5.030060 19.155701 0.020176
-4.714710 19.155701 0.020042
-4.399360 19.155701 0.019973
-4.084010 19.155701 0.019642
-3.768660 19.155701 0.020019
-3.453310 19.155701 0.020143
-3.137960 19.155701 0.019427
-2.822610 19.155701 0.018527
-2.507260 19.155701 0.018156
-2.191910 19.155701 0.017843
-1.876560 19.155701 0.017399
-1.561210 19.155701 0.017033
-1.245860 19.155701 0.016839
-0.930510 19.155701 0.016831
-0.615160 19.155701 0.016351
-0.299810 19.155701 0.016006
0.015540 19.155701 0.015812
0.330890 19.155701 0.015960
0.646240 19.155701 0.015969
0.961589 19.155701 0.015949
1.276940 19.155701 0.015992
1.592289 19.155701 0.016096
1.907640 19.155701 0.016121
2.222990 19.155701 0.015902
2.538340 19.155701 0.015613
2.853690 19.155701 0.015453
3.169039 19.155701 0.015457
3.484390 19.155701 0.015653
3.799739 19.155701 0.016129
4.115090 19.155701 0.016669
4.430439 19.155701 0.016797
4.745790 19.155701 0.017503
5.061140 19.155701 0.018153
5.376490 19.155701 0.018694
5.691840 19.155701 0.019990
6.007189 19.155701 0.021180
6.322540 19.155701 0.022760
6.637889 19.155701 0.025159
6.953240 19.155701 0.029417
7.268589 19.155701 0.035521
7.583940 19.155701 0.047171
7.899290 19.155701 0.066870
8.214640 19.155701 0.101104
8.529989 19.155701 0.164895
8.845339 19.155701 0.246072
9.160688 19.155701 0.362397
9.476040 19.155701 0.501854
9.791389 19.155701 0.702789
10.106739 19.155701 0.950759
10.422089 19.155701 1.222005
10.737438 19.155701 1.518096
11.052790 19.155701 1.803718
11.368139 19.155701 2.227165
11.683489 19.155701 2.601975
11.998838 19.155701 3.044954
12.314190 19.155701 3.593434
12.629539 19.155701 4.070427
12.944889 19.155701 4.486882
13.260239 19.155701 5.061640
13.575588 19.155701 5.427436
13.890940 19.155701 5.740228
14.206289 19.155701 6.150068
14.521639 19.155701 6.765039
14.836988 19.155701 7.686815
15.152340 19.155701 10.008839
15.467690 19.155701 13.118590
15.783039 19.155701 0.000000
16.098389 19.155701 0.000000
16.413738 19.155701 0.000000
16.729090 19.155701 0.000000
17.044439 19.155701 0.000000
17.359789 19.155701 0.000000
17.675138 19.155701 0.000000
17.990490 19.155701 0.000000
18.305840 19.155701 173.488327
18.621189 19.155701 170.325180
18.936539 19.155701 0.000000
19.251888 19.155701 0.000000
-7.237510 18.840351 0.000000
-6.922160 18.840351 0.028711
-6.606810 18.840351 0.020797
-6.291460 18.840351 0.020873
-5.976110 18.840351 0.020539
-5.660760 18.840351 0.019817
-5.345410 18.840351 0.019433
-5.030060 18.840351 0.019743
-4.714710 18.840351 0.019928
-4.399360 18.840351 0.019867
-4.084010 18.840351 0.019373
-3.768660 18.840351 0.019391
-3.453310 18.840351 0.018919
-3.137960 18.840351 0.018337
-2.822610 18.840351 0.017556
-2.507260 18.840351 0.017283
-2.191910 18.840351 0.017175
-1.876560 18.840351 0.017040
-1.561210 18.840351 0.016706
-1.245860 18.840351 0.016510
-0.930510 18.840351 0.016259
-0.615160 18.840351 0.015752
-0.299810 18.840351 0.015531
0.015540 18.840351 0.015623
0.330890 18.840351 0.015636
0.646240 18.840351 0.015787
0.961589 18.840351 0.015614
1.276940 18.840351 0.015566
1.592289 18.840351 0.015395
1.907640 18.840351 0.014889
2.222990 18.840351 0.014677
2.538340 18.840351 0.014828
2.853690 18.840351 0.014985
3.169039 18.840351 0.014879
3.484390 18.840351 0.015040
3.799739 18.840351 0.015576
4.115090 18.840351 0.016087
4.430439 18.840351 0.016274
4.745790 18.840351 0.017174
5.061140 18.840351 0.018101
5.376490 18.840351 0.018865
5.691840 18.840351 0.020078
6.007189 18.840351 0.021201
6.322540 18.840351 0.022345
6.637889 18.840351 0.024661
6.953240 18.840351 0.029036
7.268589 18.840351 0.035749
7.583940 18.840351 0.047229
7.899290 18.840351 0.067539
8.214640 18.840351 0.102422
8.529989 18.840351 0.162282
8.845339 18.840351 0.243550
9.160688 18.840351 0.353108
9.476040 18.840351 0.506572
9.791389 18.840351 0.708649
10.106739 18.840351 0.946654
10.422089 18.840351 1.202735
10.737438 18.840351 1.522761
11.052790 18.840351 1.858225
11.368139 18.840351 2.183023
11.683489 18.840351 2.714547
11.998838 18.840351 3.079933
12.314190 18.840351 3.452441
12.629539 18.840351 4.002115
12.944889 18.840351 4.558314
13.260239 18.840351 5.018834
13.575588 18.840351 5.460003
13.890940 18.840351 5.763827
14.206289 18.840351 6.224347
14.521639 18.840351 6.940580
14.836988 18.840351 7.728828
15.152340 18.840351 9.775826
15.467690 18.840351 12.281999
15.783039 18.840351 0.000000
16.098389 18.840351 0.000000
16.413738 18.840351 0.000000
16.729090 18.840351 0.000000
17.044439 18.840351 0.000000
17.359789 18.840351 0.000000
17.675138 18.840351 0.000000
17.990490 18.840351 0.000000
18.305840 18.840351 166.926224
18.621189 18.840351 167.531158
18.936539 18.840351 0.000000
19.251888 18.840351 0.000000
-7.237510 18.525002 0.000000
-6.922160 18.525002 0.027537
-6.606810 18.525002 0.020139
-6.291460 18.525002 0.020611
-5.976110 18.525002 0.020413
-5.660760 18.525002 0.020006
-5.345410 18.525002 0.019793
-5.030060 18.525002 0.019789
-4.714710 18.525002 0.019706
-4.399360 18.525002 0.019178
-4.084010 18.525002 0.018671
-3.768660 18.525002 0.018180
-3.453310 18.525002 0.017686
-3.137960 18.525002 0.017563
-2.822610 18.525002 0.017107
-2.507260 18.525002 0.016932
-2.191910 18.525002 0.016715
-1.876560 18.525002 0.016641
-1.561210 18.525002 0.016065
-1.245860 18.525002 0.015847
-0.930510 18.525002 0.015738
-0.615160 18.525002 0.015755
-0.299810 18.525002 0.015731
0.015540 18.525002 0.015518
0.330890 18.525002 0.015359
0.646240 18.525002 0.015285
0.961589 18.525002 0.014881
1.276940 18.525002 0.014845
1.592289 18.525002 0.014781
1.907640 18.525002 0.014326
2.222990 18.525002 0.014152
2.538340 18.525002 0.014379
2.853690 18.525002 0.014429
3.169039 18.525002 0.014182
3.484390 18.525002 0.014428
3.799739 18.525002 0.015229
4.115090 18.525002 0.015679
4.430439 18.525002 0.016147
4.745790 18.525002 0.017153
5.061140 18.525002 0.018058
5.376490 18.525002 0.018819
5.691840 18.525002 0.019710
6.007189 18.525002 0.021148
6.322540 18.525002 0.022528
6.637889 18.525002 0.024586
6.953240 18.525002 0.028828
7.268589 18.525002 0.035974
7.583940 18.525002 0.048149
7.899290 18.525002 0.067419
8.214640 18.525002 0.102995
8.529989 18.525002 0.160392
8.845339 18.525002 0.245486
9.160688 18.525002 0.360119
9.476040 18.525002 0.524757
9.791389 18.525002 0.717662
10.106739 18.525002 0.958380
10.422089 18.525002 1.277240
10.737438 18.525002 1.519942
11.052790 18.525002 1.902032
11.368139 18.525002 2.214749
11.683489 18.525002 2.688758
11.998838 18.525002 3.112236
12.314190 18.525002 3.410352
12.629539 18.525002 3.958977
12.944889 18.525002 4.499998
13.260239 18.525002 5.095413
13.575588 18.525002 5.293086
13.890940 18.525002 5.781755
14.206289 18.525002 5.855496
14.521639 18.525002 6.916110
14.836988 18.525002 8.200009
15.152340 18.525002 10.116862
15.467690 18.525002 12.716890
15.783039 18.525002 0.000000
16.098389 18.525002 0.000000
16.413738 18.525002 0.000000
16.729090 18.525002 0.000000
17.044439 18.525002 0.000000
17.359789 18.525002 0.000000
17.675138 18.525002 0.000000
17.990490 18.525002 0.000000
18.305840 18.525002 162.861862
18.621189 18.525002 164.057983
18.936539 18.525002 0.000000
19.251888 18.525002 0.000000
-7.237510 18.209652 0.000000
-6.922160 18.209652 0.027250
-6.606810 18.209652 0.020112
-6.291460 18.209652 0.020671
-5.976110 18.209652 0.020450
-5.660760 18.209652 0.020256
-5.345410 18.209652 0.019946
-5.030060 18.209652 0.019531
-4.714710 18.209652 0.019009
-4.399360 18.209652 0.018279
-4.084010 18.209652 0.017916
-3.768660 18.209652 0.017528
-3.453310 18.209652 0.017518
-3.137960 18.209652 0.017533
-2.822610 18.209652 0.016967
-2.507260 18.209652 0.016701
-2.191910 18.209652 0.016139
-1.876560 18.209652 0.015973
-1.561210 18.209652 0.015593
-1.245860 18.209652 0.015574
-0.930510 18.209652 0.015816
-0.615160 18.209652 0.016038
-0.299810 18.209652 0.015852
0.015540 18.209652 0.015235
0.330890 18.209652 0.014811
0.646240 18.209652 0.014502
0.961589 18.209652 0.013944
1.276940 18.209652 0.014232
1.592289 18.209652 0.014484
1.907640 18.209652 0.014055
2.222990 18.209652 0.013909
2.538340 18.209652 0.013837
2.853690 18.209652 0.013904
3.169039 18.209652 0.013895
3.484390 18.209652 0.014283
3.799739 18.209652 0.015106
4.115090 18.209652 0.015506
4.430439 18.209652 0.015940
4.745790 18.209652 0.016987
5.061140 18.209652 0.017701
5.376490 18.209652 0.018456
5.691840 18.209652 0.019690
6.007189 18.209652 0.021115
6.322540 18.209652 0.022689
6.637889 18.209652 0.024613
6.953240 18.209652 0.028905
7.268589 18.209652 0.036117
7.583940 18.209652 0.049982
7.899290 18.209652 0.069691
8.214640 18.209652 0.110761
8.529989 18.209652 0.161868
8.845339 18.209652 0.251148
9.160688 18.209652 0.372366
9.476040 18.209652 0.532716
9.791389 18.209652 0.725449
10.106739 18.209652 0.998681
10.422089 18.209652 1.221360
10.737438 18.209652 1.540193
11.052790 18.209652 1.825533
11.368139 18.209652 2.222032
11.683489 18.209652 2.656190
11.998838 18.209652 3.028732
12.314190 18.209652 3.464959
12.629539 18.209652 3.916480
12.944889 18.209652 4.693700
13.260239 18.209652 5.104462
13.575588 18.209652 5.214301
13.890940 18.209652 5.753015
14.206289 18.209652 6.383689
14.521639 18.209652 6.780361
14.836988 18.209652 8.117887
15.152340 18.209652 10.687251
15.467690 18.209652 13.791260
15.783039 18.209652 0.000000
16.098389 18.209652 0.000000
16.413738 18.209652 0.000000
16.729090 18.209652 0.000000
17.044439 18.209652 0.000000
17.359789 18.209652 0.000000
17.675138 18.209652 0.000000
17.990490 18.209652 0.000000
18.305840 18.209652 163.910721
18.621189 18.209652 165.013962
18.936539 18.209652 0.000000
19.251888 18.209652 0.000000
-7.237510 17.894302 0.000000
-6.922160 17.894302 0.027862
-6.606810 17.894302 0.020797
-6.291460 17.894302 0.020836
-5.976110 17.894302 0.020196
-5.660760 17.894302 0.019871
-5.345410 17.894302 0.019475
-5.030060 17.894302 0.018843
-4.714710 17.894302 0.018182
-4.399360 17.894302 0.017890
-4.084010 17.894302 0.017810
-3.768660 17.894302 0.017616
-3.453310 17.894302 0.017633
-3.137960 17.894302 0.017262
-2.822610 17.894302 0.016622
-2.507260 17.894302 0.016353
-2.191910 17.894302 0.015937
-1.876560 17.894302 0.015855
-1.561210 17.894302 0.015905
-1.245860 17.894302 0.015993
-0.930510 17.894302 0.015989
-0.615160 17.894302 0.015781
-0.299810 17.894302 0.015403
0.015540 17.894302 0.014716
0.330890 17.894302 0.014150
0.646240 17.894302 0.013893
0.961589 17.894302 0.013601
1.276940 17.894302 0.013763
1.592289 17.894302 0.014049
1.907640 17.894302 0.013789
2.222990 17.894302 0.013410
2.538340 17.894302 0.013388
2.853690 17.894302 0.013735
3.169039 17.894302 0.014017
3.484390 17.894302 0.014595
3.799739 17.894302 0.015036
4.115090 17.894302 0.015278
4.430439 17.894302 0.015637
4.745790 17.894302 0.016482
5.061140 17.894302 0.017349
5.376490 17.894302 0.018494
5.691840 17.894302 0.019608
6.007189 17.894302 0.020802
6.322540 17.894302 0.022570
6.637889 17.894302 0.024920
6.953240 17.894302 0.029471
7.268589 17.894302 0.035915
7.583940 17.894302 0.049304
7.899290 17.894302 0.072732
8.214640 17.894302 0.109955
8.529989 17.894302 0.166389
8.845339 17.894302 0.253664
9.160688 17.894302 0.386777
9.476040 17.894302 0.540336
9.791389 17.894302 0.722220
10.106739 17.894302 0.979092
10.422089 17.894302 1.248235
10.737438 17.894302 1.525081
11.052790 17.894302 1.835209
11.368139 17.894302 2.187376
11.683489 17.894302 2.595623
11.998838 17.894302 3.060059
12.314190 17.894302 3.602387
12.629539 17.894302 4.133346
12.944889 17.894302 4.600990
13.260239 17.894302 4.976574
13.575588 17.894302 5.413833
13.890940 17.894302 5.618992
14.206289 17.894302 6.372083
14.521639 17.894302 7.146239
14.836988 17.894302 8.451154
15.152340 17.894302 10.920250
15.467690 17.894302 13.629918
15.783039 17.894302 0.000000
16.098389 17.894302 0.000000
16.413738 17.894302 0.000000
16.729090 17.894302 0.000000
17.044439 17.894302 0.000000
17.359789 17.894302 0.000000
17.675138 17.894302 0.000000
17.990490 17.894302 0.000000
18.305840 17.894302 166.728745
18.621189 17.894302 169.377136
18.936539 17.894302 0.000000
19.251888 17.894302 0.000000
-7.237510 17.578953 0.000000
-6.922160 17.578953 0.028724
-6.606810 17.578953 0.020966
-6.291460 17.578953 0.020343
-5.976110 17.578953 0.019665
-5.660760 17.578953 0.019034
-5.345410 17.578953 0.018688
-5.030060 17.578953 0.018293
-4.714710 17.578953 0.018027
-4.399360 17.578953 0.018194
-4.084010 17.578953 0.017836
-3.768660 17.578953 0.017621
-3.453310 17.578953 0.017338
-3.137960 17.578953 0.016837
-2.822610 17.578953 0.016555
-2.507260 17.578953 0.016406
-2.191910 17.578953 0.016265
-1.876560 17.578953 0.016397
-1.561210 17.578953 0.016192
-1.245860 17.578953 0.015922
-0.930510 17.578953 0.015607
-0.615160 17.578953 0.015022
-0.299810 17.578953 0.014685
0.015540 17.578953 0.014350
0.330890 17.578953 0.013914
0.646240 17.578953 0.013773
0.961589 17.578953 0.013703
1.276940 17.578953 0.013512
1.592289 17.578953 0.013709
1.907640 17.578953 0.013482
2.222990 17.578953 0.013216
2.538340 17.578953 0.013347
2.853690 17.578953 0.013858
3.169039 17.578953 0.014130
3.484390 17.578953 0.014549
3.799739 17.578953 0.014744
4.115090 17.578953 0.015075
4.430439 17.578953 0.015534
4.745790 17.578953 0.016390
5.061140 17.578953 0.017286
5.376490 17.578953 0.018291
5.691840 17.578953 0.019275
6.007189 17.578953 0.020257
6.322540 17.578953 0.022359
6.637889 17.578953 0.025345
6.953240 17.578953 0.030440
7.268589 17.578953 0.036845
7.583940 17.578953 0.048931
7.899290 17.578953 0.069390
8.214640 17.578953 0.107797
8.529989 17.578953 0.164573
8.845339 17.578953 0.258303
9.160688 17.578953 0.387277
9.476040 17.578953 0.530003
9.791389 17.578953 0.725108
10.106739 17.578953 0.969939
10.422089 17.578953 1.217402
10.737438 17.578953 1.483663
11.052790 17.578953 1.861239
11.368139 17.578953 2.158191
11.683489 17.578953 2.619219
11.998838 17.578953 3.146783
12.314190 17.578953 3.789918
12.629539 17.578953 4.240148
12.944889 17.578953 4.583341
13.260239 17.578953 4.882359
13.575588 17.578953 5.488189
13.890940 17.578953 5.782360
14.206289 17.578953 6.239534
14.521639 17.578953 7.119316
14.836988 17.578953 8.268157
15.152340 17.578953 11.393001
15.467690 17.578953 14.096245
15.783039 17.578953 0.000000
16.098389 17.578953 0.000000
16.413738 17.578953 0.000000
16.729090 17.578953 0.000000
17.044439 17.578953 0.000000
17.359789 17.578953 0.000000
17.675138 17.578953 0.000000
17.990490 17.578953 0.000000
18.305840 17.578953 177.010010
18.621189 17.578953 177.089523
18.936539 17.578953 0.000000
19.251888 17.578953 0.000000
-7.237510 17.263599 0.000000
-6.922160 17.263599 0.028617
-6.606810 17.263599 0.020515
-6.291460 17.263599 0.019682
-5.976110 17.263599 0.019222
-5.660760 17.263599 0.018703
-5.345410 17.263599 0.018595
-5.030060 17.263599 0.018107
-4.714710 17.263599 0.017948
-4.399360 17.263599 0.018094
-4.084010 17.263599 0.017555
-3.768660 17.263599 0.017225
-3.453310 17.263599 0.016960
-3.137960 17.263599 0.016957
-2.822610 17.263599 0.017003
-2.507260 17.263599 0.016864
-2.191910 17.263599 0.016731
-1.876560 17.263599 0.016627
-1.561210 17.263599 0.015822
-1.245860 17.263599 0.015138
-0.930510 17.263599 0.015110
-0.615160 17.263599 0.014447
-0.299810 17.263599 0.014377
0.015540 17.263599 0.014466
0.330890 17.263599 0.013922
0.646240 17.263599 0.013615
0.961589 17.263599 0.013605
1.276940 17.263599 0.013491
1.592289 17.263599 0.013559
1.907640 17.263599 0.013515
2.222990 17.263599 0.013451
2.538340 17.263599 0.013676
2.853690 17.263599 0.013756
3.169039 17.263599 0.013938
3.484390 17.263599 0.014192
3.799739 17.263599 0.014493
4.115090 17.263599 0.014848
4.430439 17.263599 0.015494
4.745790 17.263599 0.016343
5.061140 17.263599 0.017196
5.376490 17.263599 0.017731
5.691840 17.263599 0.018721
6.007189 17.263599 0.020342
6.322540 17.263599 0.022499
6.637889 17.263599 0.025919
6.953240 17.263599 0.030428
7.268589 17.263599 0.037211
7.583940 17.263599 0.049285
7.899290 17.263599 0.071301
8.214640 17.263599 0.104858
8.529989 17.263599 0.162048
8.845339 17.263599 0.257205
9.160688 17.263599 0.388613
9.476040 17.263599 0.528764
9.791389 17.263599 0.710751
10.106739 17.263599 0.942117
10.422089 17.263599 1.225422
10.737438 17.263599 1.493280
11.052790 17.263599 1.860056
11.368139 17.263599 2.177061
11.683489 17.263599 2.565744
11.998838 17.263599 3.137232
12.314190 17.263599 3.723140
12.629539 17.263599 4.252645
12.944889 17.263599 4.499947
13.260239 17.263599 4.876618
13.575588 17.263599 5.290798
13.890940 17.263599 5.576368
14.206289 17.263599 6.419878
14.521639 17.263599 6.941858
14.836988 17.263599 8.329256
15.152340 17.263599 11.907944
15.467690 17.263599 14.072137
15.783039 17.263599 0.000000
16.098389 17.263599 0.000000
16.413738 17.263599 0.000000
16.729090 17.263599 0.000000
17.044439 17.263599 0.000000
17.359789 17.263599 0.000000
17.675138 17.263599 0.000000
17.990490 17.263599 181.871689
18.305840 17.263599 188.545380
18.621189 17.263599 187.543777
18.936539 17.263599 0.000000
19.251888 17.263599 0.000000
-7.237510 16.948250 0.000000
-6.922160 16.948250 0.028225
-6.606810 16.948250 0.020199
-6.291460 16.948250 0.019516
-5.976110 16.948250 0.019062
-5.660760 16.948250 0.018831
-5.345410 16.948250 0.018616
-5.030060 16.948250 0.017886
-4.714710 16.948250 0.017596
-4.399360 16.948250 0.017858
-4.084010 16.948250 0.017432
-3.768660 16.948250 0.017248
-3.453310 16.948250 0.017148
-3.137960 16.948250 0.017453
-2.822610 16.948250 0.017353
-2.507260 16.948250 0.016749
-2.191910 16.948250 0.016485
-1.876560 16.948250 0.016301
-1.561210 16.948250 0.015262
-1.245860 16.948250 0.014717
-0.930510 16.948250 0.014921
-0.615160 16.948250 0.014390
-0.299810 16.948250 0.014518
0.015540 16.948250 0.014659
0.330890 16.948250 0.014004
0.646240 16.948250 0.013681
0.961589 16.948250 0.013693
1.276940 16.948250 0.013523
1.592289 16.948250 0.013668
1.907640 16.948250 0.013679
2.222990 16.948250 0.013659
2.538340 16.948250 0.013741
2.853690 16.948250 0.013627
3.169039 16.948250 0.013670
3.484390 16.948250 0.014172
3.799739 16.948250 0.014416
4.115090 16.948250 0.014776
4.430439 16.948250 0.015505
4.745790 16.948250 0.016264
5.061140 16.948250 0.016732
5.376490 16.948250 0.017165
5.691840 16.948250 0.018571
6.007189 16.948250 0.020459
6.322540 16.948250 0.022765
6.637889 16.948250 0.025804
6.953240 16.948250 0.030039
7.268589 16.948250 0.037128
7.583940 16.948250 0.048744
7.899290 16.948250 0.070860
8.214640 16.948250 0.107816
8.529989 16.948250 0.169491
8.845339 16.948250 0.269491
9.160688 16.948250 0.387167
9.476040 16.948250 0.517400
9.791389 16.948250 0.697113
10.106739 16.948250 0.964844
10.422089 16.948250 1.235043
10.737438 16.948250 1.488506
11.052790 16.948250 1.832282
11.368139 16.948250 2.217801
11.683489 16.948250 2.628602
11.998838 16.948250 3.165495
12.314190 16.948250 3.722535
12.629539 16.948250 4.140240
12.944889 16.948250 4.415751
13.260239 16.948250 5.033371
13.575588 16.948250 5.070442
13.890940 16.948250 5.548678
14.206289 16.948250 5.964362
14.521639 16.948250 7.277744
14.836988 16.948250 8.812867
15.152340 16.948250 11.471183
15.467690 16.948250 14.720650
15.783039 16.948250 0.000000
16.098389 16.948250 0.000000
16.413738 16.948250 0.000000
16.729090 16.948250 0.000000
17.044439 16.948250 0.000000
17.359789 16.948250 0.000000
17.675138 16.948250 0.000000
17.990490 16.948250 165.535355
18.305840 16.948250 196.413956
18.621189 16.948250 197.502518
18.936539 16.948250 0.000000
19.251888 16.948250 0.000000
-7.237510 16.632900 0.000000
-6.922160 16.632900 0.027872
-6.606810 16.632900 0.020157
-6.291460 16.632900 0.019453
-5.976110 16.632900 0.019068
-5.660760 16.632900 0.018913
-5.345410 16.632900 0.018504
-5.030060 16.632900 0.017840
-4.714710 16.632900 0.017748
-4.399360 16.632900 0.018015
-4.084010 16.632900 0.017709
-3.768660 16.632900 0.017598
-3.453310 16.632900 0.017573
-3.137960 16.632900 0.017575
-2.822610 16.632900 0.017129
-2.507260 16.632900 0.016203
-2.191910 16.632900 0.015848
-1.876560 16.632900 0.015817
-1.561210 16.632900 0.015024
-1.245860 16.632900 0.014731
-0.930510 16.632900 0.015008
-0.615160 16.632900 0.014652
-0.299810 16.632900 0.014764
0.015540 16.632900 0.014814
0.330890 16.632900 0.014417
0.646240 16.632900 0.014080
0.961589 16.632900 0.013975
1.276940 16.632900 0.013740
1.592289 16.632900 0.013725
1.907640 16.632900 0.013495
2.222990 16.632900 0.013665
2.538340 16.632900 0.013854
2.853690 16.632900 0.013860
3.169039 16.632900 0.013843
3.484390 16.632900 0.014330
3.799739 16.632900 0.014526
4.115090 16.632900 0.014906
4.430439 16.632900 0.015452
4.745790 16.632900 0.016144
5.061140 16.632900 0.016536
5.376490 16.632900 0.017034
5.691840 16.632900 0.018441
6.007189 16.632900 0.020551
6.322540 16.632900 0.022759
6.637889 16.632900 0.025685
6.953240 16.632900 0.029854
7.268589 16.632900 0.036964
7.583940 16.632900 0.049269
7.899290 16.632900 0.071051
8.214640 16.632900 0.109106
8.529989 16.632900 0.177640
8.845339 16.632900 0.269443
9.160688 16.632900 0.379458
9.476040 16.632900 0.522907
9.791389 16.632900 0.705974
10.106739 16.632900 0.965155
10.422089 16.632900 1.224379
10.737438 16.632900 1.533637
11.052790 16.632900 1.891698
11.368139 16.632900 2.201935
11.683489 16.632900 2.710563
11.998838 16.632900 3.227448
12.314190 16.632900 3.621447
12.629539 16.632900 4.088119
12.944889 16.632900 4.435839
13.260239 16.632900 4.826901
13.575588 16.632900 5.371206
13.890940 16.632900 5.836333
14.206289 16.632900 6.215776
14.521639 16.632900 7.294243
14.836988 16.632900 9.456218
15.152340 16.632900 11.859292
15.467690 16.632900 15.534942
15.783039 16.632900 0.000000
16.098389 16.632900 0.000000
16.413738 16.632900 0.000000
16.729090 16.632900 0.000000
17.044439 16.632900 0.000000
17.359789 16.632900 0.000000
17.675138 16.632900 0.000000
17.990490 16.632900 179.402908
18.305840 16.632900 195.484558
18.621189 16.632900 198.610001
18.936539 16.632900 0.000000
19.251888 16.632900 0.000000
-7.237510 16.317551 0.000000
-6.922160 16.317551 0.027363
-6.606810 16.317551 0.019930
-6.291460 16.317551 0.019423
-5.976110 16.317551 0.019084
-5.660760 16.317551 0.019170
-5.345410 16.317551 0.018830
-5.030060 16.317551 0.018484
-4.714710 16.317551 0.018233
-4.399360 16.317551 0.018171
-4.084010 16.317551 0.017884
-3.768660 16.317551 0.017593
-3.453310 16.317551 0.017451
-3.137960 16.317551 0.017339
-2.822610 16.317551 0.016816
-2.507260 16.317551 0.016027
-2.191910 16.317551 0.015810
-1.876560 16.317551 0.015647
-1.561210 16.317551 0.015130
-1.245860 16.317551 0.014933
-0.930510 16.317551 0.015051
-0.615160 16.317551 0.014947
-0.299810 16.317551 0.015120
0.015540 16.317551 0.015106
0.330890 16.317551 0.014900
0.646240 16.317551 0.014692
0.961589 16.317551 0.014168
1.276940 16.317551 0.013796
1.592289 16.317551 0.013823
1.907640 16.317551 0.013448
2.222990 16.317551 0.013889
2.538340 16.317551 0.014119
2.853690 16.317551 0.014126
3.169039 16.317551 0.014177
3.484390 16.317551 0.014528
3.799739 16.317551 0.014732
4.115090 16.317551 0.015058
4.430439 16.317551 0.015598
4.745790 16.317551 0.016113
5.061140 16.317551 0.016603
5.376490 16.317551 0.017340
5.691840 16.317551 0.018600
6.007189 16.317551 0.020272
6.322540 16.317551 0.022568
6.637889 16.317551 0.025669
6.953240 16.317551 0.030350
7.268589 16.317551 0.037518
7.583940 16.317551 0.049514
7.899290 16.317551 0.074282
8.214640 16.317551 0.111276
8.529989 16.317551 0.173367
8.845339 16.317551 0.264676
9.160688 16.317551 0.389097
9.476040 16.317551 0.541469
9.791389 16.317551 0.713586
10.106739 16.317551 0.983701
10.422089 16.317551 1.244715
10.737438 16.317551 1.524187
11.052790 16.317551 1.836294
11.368139 16.317551 2.271652
11.683489 16.317551 2.695485
11.998838 16.317551 3.212556
12.314190 16.317551 3.590029
12.629539 16.317551 4.156153
12.944889 16.317551 4.587909
13.260239 16.317551 5.041173
13.575588 16.317551 5.371017
13.890940 16.317551 5.880270
14.206289 16.317551 6.563413
14.521639 16.317551 7.679832
14.836988 16.317551 9.526768
15.152340 16.317551 12.578558
15.467690 16.317551 15.402712
15.783039 16.317551 0.000000
16.098389 16.317551 0.000000
16.413738 16.317551 0.000000
16.729090 16.317551 0.000000
17.044439 16.317551 0.000000
17.359789 16.317551 0.000000
17.675138 16.317551 0.000000
17.990490 16.317551 194.683365
18.305840 16.317551 191.750885
18.621189 16.317551 190.354019
18.936539 16.317551 0.000000
19.251888 16.317551 0.000000
-7.237510 16.002201 0.000000
-6.922160 16.002201 0.027037
-6.606810 16.002201 0.019635
-6.291460 16.002201 0.019521
-5.976110 16.002201 0.019485
-5.660760 16.002201 0.019604
-5.345410 16.002201 0.019542
-5.030060 16.002201 0.019089
-4.714710 16.002201 0.018360
-4.399360 16.002201 0.017983
-4.084010 16.002201 0.017490
-3.768660 16.002201 0.017244
-3.453310 16.002201 0.017109
-3.137960 16.002201 0.017257
-2.822610 16.002201 0.016886
-2.507260 16.002201 0.016228
-2.191910 16.002201 0.015909
-1.876560 16.002201 0.015952
-1.561210 16.002201 0.015666
-1.245860 16.002201 0.015234
-0.930510 16.002201 0.015238
-0.615160 16.002201 0.015369
-0.299810 16.002201 0.015489
0.015540 16.002201 0.015232
0.330890 16.002201 0.015080
0.646240 16.002201 0.014708
0.961589 16.002201 0.014088
1.276940 16.002201 0.013931
1.592289 16.002201 0.013903
1.907640 16.002201 0.013795
2.222990 16.002201 0.014210
2.538340 16.002201 0.014373
2.853690 16.002201 0.014348
3.169039 16.002201 0.014495
3.484390 16.002201 0.014762
3.799739 16.002201 0.015032
4.115090 16.002201 0.015467
4.430439 16.002201 0.015827
4.745790 16.002201 0.016345
5.061140 16.002201 0.016799
5.376490 16.002201 0.017805
5.691840 16.002201 0.018964
6.007189 16.002201 0.020302
6.322540 16.002201 0.022189
6.637889 16.002201 0.025263
6.953240 16.002201 0.030457
7.268589 16.002201 0.039140
7.583940 16.002201 0.050917
7.899290 16.002201 0.074880
8.214640 16.002201 0.112389
8.529989 16.002201 0.180760
8.845339 16.002201 0.275051
9.160688 16.002201 0.396677
9.476040 16.002201 0.546440
9.791389 16.002201 0.756002
10.106739 16.002201 1.015829
10.422089 16.002201 1.294413
10.737438 16.002201 1.554608
11.052790 16.002201 1.889930
11.368139 16.002201 2.232074
11.683489 16.002201 2.687315
11.998838 16.002201 3.119622
12.314190 16.002201 3.601276
12.629539 16.002201 4.047579
12.944889 16.002201 4.611998
13.260239 16.002201 4.794962
13.575588 16.002201 5.145597
13.890940 16.002201 5.758981
14.206289 16.002201 6.643594
14.521639 16.002201 7.671085
14.836988 16.002201 9.607038
15.152340 16.002201 13.529065
15.467690 16.002201 16.899380
15.783039 16.002201 0.000000
16.098389 16.002201 0.000000
16.413738 16.002201 0.000000
16.729090 16.002201 0.000000
17.044439 16.002201 0.000000
17.359789 16.002201 0.000000
17.675138 16.002201 0.000000
17.990490 16.002201 162.496811
18.305840 16.002201 181.005707
18.621189 16.002201 180.081589
18.936539 16.002201 0.000000
19.251888 16.002201 0.000000
-7.237510 15.686852 0.000000
-6.922160 15.686852 0.027959
-6.606810 15.686852 0.019851
-6.291460 15.686852 0.020042
-5.976110 15.686852 0.019671
-5.660760 15.686852 0.019506
-5.345410 15.686852 0.019498
-5.030060 15.686852 0.019033
-4.714710 15.686852 0.018348
-4.399360 15.686852 0.017938
-4.084010 15.686852 0.017689
-3.768660 15.686852 0.017435
-3.453310 15.686852 0.017211
-3.137960 15.686852 0.017248
-2.822610 15.686852 0.017073
-2.507260 15.686852 0.016581
-2.191910 15.686852 0.016266
-1.876560 15.686852 0.016473
-1.561210 15.686852 0.016519
-1.245860 15.686852 0.015784
-0.930510 15.686852 0.015701
-0.615160 15.686852 0.015587
-0.299810 15.686852 0.015615
0.015540 15.686852 0.015179
0.330890 15.686852 0.014915
0.646240 15.686852 0.014562
0.961589 15.686852 0.014134
1.276940 15.686852 0.014200
1.592289 15.686852 0.014211
1.907640 15.686852 0.014216
2.222990 15.686852 0.014434
2.538340 15.686852 0.014416
2.853690 15.686852 0.014653
3.169039 15.686852 0.014823
3.484390 15.686852 0.015018
3.799739 15.686852 0.015270
4.115090 15.686852 0.015666
4.430439 15.686852 0.016175
4.745790 15.686852 0.016673
5.061140 15.686852 0.017242
5.376490 15.686852 0.018241
5.691840 15.686852 0.019442
6.007189 15.686852 0.020711
6.322540 15.686852 0.022139
6.637889 15.686852 0.024956
6.953240 15.686852 0.029937
7.268589 15.686852 0.037851
7.583940 15.686852 0.051479
7.899290 15.686852 0.076814
8.214640 15.686852 0.117631
8.529989 15.686852 0.175841
8.845339 15.686852 0.271690
9.160688 15.686852 0.400331
9.476040 15.686852 0.566696
9.791389 15.686852 0.769257
10.106739 15.686852 1.012698
10.422089 15.686852 1.276256
10.737438 15.686852 1.533939
11.052790 15.686852 1.911618
11.368139 15.686852 2.168982
11.683489 15.686852 2.692172
11.998838 15.686852 3.144812
12.314190 15.686852 3.526928
12.629539 15.686852 4.018673
12.944889 15.686852 4.558916
13.260239 15.686852 4.887518
13.575588 15.686852 5.144552
13.890940 15.686852 5.917319
14.206289 15.686852 6.738010
14.521639 15.686852 7.350406
14.836988 15.686852 9.220461
15.152340 15.686852 13.278035
15.467690 15.686852 16.372986
15.783039 15.686852 0.000000
16.098389 15.686852 0.000000
16.413738 15.686852 0.000000
16.729090 15.686852 0.000000
17.044439 15.686852 0.000000
17.359789 15.686852 0.000000
17.675138 15.686852 0.000000
17.990490 15.686852 152.524490
18.305840 15.686852 172.334412
18.621189 15.686852 174.212250
18.936539 15.686852 0.000000
19.251888 15.686852 0.000000
-7.237510 15.371502 0.000000
-6.922160 15.371502 0.029116
-6.606810 15.371502 0.020185
-6.291460 15.371502 0.020063
-5.976110 15.371502 0.019360
-5.660760 15.371502 0.019075
-5.345410 15.371502 0.019179
-5.030060 15.371502 0.018994
-4.714710 15.371502 0.018757
-4.399360 15.371502 0.018479
-4.084010 15.371502 0.018098
-3.768660 15.371502 0.017850
-3.453310 15.371502 0.017774
-3.137960 15.371502 0.017723
-2.822610 15.371502 0.017511
-2.507260 15.371502 0.017185
-2.191910 15.371502 0.016937
-1.876560 15.371502 0.017224
-1.561210 15.371502 0.017181
-1.245860 15.371502 0.016275
-0.930510 15.371502 0.016012
-0.615160 15.371502 0.015759
-0.299810 15.371502 0.015732
0.015540 15.371502 0.015343
0.330890 15.371502 0.014998
0.646240 15.371502 0.014852
0.961589 15.371502 0.014774
1.276940 15.371502 0.014693
1.592289 15.371502 0.014612
1.907640 15.371502 0.014720
2.222990 15.371502 0.014829
2.538340 15.371502 0.014613
2.853690 15.371502 0.014885
3.169039 15.371502 0.015196
3.484390 15.371502 0.015471
3.799739 15.371502 0.015760
4.115090 15.371502 0.015940
4.430439 15.371502 0.016589
4.745790 15.371502 0.017013
5.061140 15.371502 0.017772
5.376490 15.371502 0.018413
5.691840 15.371502 0.019537
6.007189 15.371502 0.020806
6.322540 15.371502 0.022472
6.637889 15.371502 0.025062
6.953240 15.371502 0.029265
7.268589 15.371502 0.036945
7.583940 15.371502 0.052076
7.899290 15.371502 0.079017
8.214640 15.371502 0.116149
8.529989 15.371502 0.181581
8.845339 15.371502 0.268847
9.160688 15.371502 0.398763
9.476040 15.371502 0.584793
9.791389 15.371502 0.769707
10.106739 15.371502 0.981907
10.422089 15.371502 1.273537
10.737438 15.371502 1.546300
11.052790 15.371502 1.861989
11.368139 15.371502 2.183307
11.683489 15.371502 2.629105
11.998838 15.371502 3.064649
12.314190 15.371502 3.532135
12.629539 15.371502 4.014310
12.944889 15.371502 4.315483
13.260239 15.371502 4.833443
13.575588 15.371502 5.229879
13.890940 15.371502 5.818080
14.206289 15.371502 6.667178
14.521639 15.371502 7.521349
14.836988 15.371502 8.946825
15.152340 15.371502 13.247804
15.467690 15.371502 17.180811
15.783039 15.371502 0.000000
16.098389 15.371502 0.000000
16.413738 15.371502 0.000000
16.729090 15.371502 0.000000
17.044439 15.371502 0.000000
17.359789 15.371502 0.000000
17.675138 15.371502 0.000000
17.990490 15.371502 162.990936
18.305840 15.371502 170.631653
18.621189 15.371502 170.381607
18.936539 15.371502 0.000000
19.251888 15.371502 0.000000
-7.237510 15.056152 0.000000
-6.922160 15.056152 0.029640
-6.606810 15.056152 0.020091
-6.291460 15.056152 0.020002
-5.976110 15.056152 0.019141
-5.660760 15.056152 0.018944
-5.345410 15.056152 0.018966
-5.030060 15.056152 0.019027
-4.714710 15.056152 0.019187
-4.399360 15.056152 0.018871
-4.084010 15.056152 0.018391
-3.768660 15.056152 0.018282
-3.453310 15.056152 0.018572
-3.137960 15.056152 0.018481
-2.822610 15.056152 0.018101
-2.507260 15.056152 0.017937
-2.191910 15.056152 0.017434
-1.876560 15.056152 0.017467
-1.561210 15.056152 0.017214
-1.245860 15.056152 0.016608
-0.930510 15.056152 0.016405
-0.615160 15.056152 0.016086
-0.299810 15.056152 0.016055
0.015540 15.056152 0.016036
0.330890 15.056152 0.015492
0.646240 15.056152 0.015355
0.961589 15.056152 0.015573
1.276940 15.056152 0.015455
1.592289 15.056152 0.015371
1.907640 15.056152 0.015420
2.222990 15.056152 0.015313
2.538340 15.056152 0.015210
2.853690 15.056152 0.015373
3.169039 15.056152 0.015575
3.484390 15.056152 0.015792
3.799739 15.056152 0.016068
4.115090 15.056152 0.016375
4.430439 15.056152 0.017084
4.745790 15.056152 0.017383
5.061140 15.056152 0.017872
5.376490 15.056152 0.018296
5.691840 15.056152 0.019282
6.007189 15.056152 0.020871
6.322540 15.056152 0.022953
6.637889 15.056152 0.025427
6.953240 15.056152 0.029240
7.268589 15.056152 0.037167
7.583940 15.056152 0.052873
7.899290 15.056152 0.078354
8.214640 15.056152 0.119566
8.529989 15.056152 0.179813
8.845339 15.056152 0.275038
9.160688 15.056152 0.413735
9.476040 15.056152 0.589875
9.791389 15.056152 0.810897
10.106739 15.056152 1.015998
10.422089 15.056152 1.257233
10.737438 15.056152 1.583186
11.052790 15.056152 1.876646
11.368139 15.056152 2.254951
11.683489 15.056152 2.637196
11.998838 15.056152 2.983974
12.314190 15.056152 3.374379
12.629539 15.056152 4.087803
12.944889 15.056152 4.379220
13.260239 15.056152 4.833294
13.575588 15.056152 5.305650
13.890940 15.056152 5.898504
14.206289 15.056152 6.600440
14.521639 15.056152 8.133739
14.836988 15.056152 10.022222
15.152340 15.056152 13.839770
15.467690 15.056152 17.796570
15.783039 15.056152 0.000000
16.098389 15.056152 0.000000
16.413738 15.056152 0.000000
16.729090 15.056152 0.000000
17.044439 15.056152 0.000000
17.359789 15.056152 0.000000
17.675138 15.056152 0.000000
17.990490 15.056152 169.090744
18.305840 15.056152 171.623764
18.621189 15.056152 174.313873
18.936539 15.056152 0.000000
19.251888 15.056152 0.000000
-7.237510 14.740803 0.000000
-6.922160 14.740803 0.029898
-6.606810 14.740803 0.020227
-6.291460 14.740803 0.020181
-5.976110 14.740803 0.019569
-5.660760 14.740803 0.019216
-5.345410 14.740803 0.018972
-5.030060 14.740803 0.019180
-4.714710 14.740803 0.019272
-4.399360 14.740803 0.018969
-4.084010 14.740803 0.018819
-3.768660 14.740803 0.018980
-3.453310 14.740803 0.019496
-3.137960 14.740803 0.019122
-2.822610 14.740803 0.018457
-2.507260 14.740803 0.018265
-2.191910 14.740803 0.017598
-1.876560 14.740803 0.017525
-1.561210 14.740803 0.017201
-1.245860 14.740803 0.016973
-0.930510 14.740803 0.016746
-0.615160 14.740803 0.016579
-0.299810 14.740803 0.016677
0.015540 14.740803 0.016742
0.330890 14.740803 0.016115
0.646240 14.740803 0.016223
0.961589 14.740803 0.016387
1.276940 14.740803 0.016474
1.592289 14.740803 0.016438
1.907640 14.740803 0.016074
2.222990 14.740803 0.015863
2.538340 14.740803 0.015855
2.853690 14.740803 0.015927
3.169039 14.740803 0.016052
3.484390 14.740803 0.016179
3.799739 14.740803 0.016531
4.115090 14.740803 0.016767
4.430439 14.740803 0.017252
4.745790 14.740803 0.017359
5.061140 14.740803 0.017823
5.376490 14.740803 0.018051
5.691840 14.740803 0.019165
6.007189 14.740803 0.020902
6.322540 14.740803 0.023227
6.637889 14.740803 0.025553
6.953240 14.740803 0.030169
7.268589 14.740803 0.039601
7.583940 14.740803 0.054426
7.899290 14.740803 0.081682
8.214640 14.740803 0.118131
8.529989 14.740803 0.187385
8.845339 14.740803 0.284656
9.160688 14.740803 0.424415
9.476040 14.740803 0.601246
9.791389 14.740803 0.776410
10.106739 14.740803 1.019366
10.422089 14.740803 1.265710
10.737438 14.740803 1.508215
11.052790 14.740803 1.873538
11.368139 14.740803 2.225436
11.683489 14.740803 2.625985
11.998838 14.740803 3.139062
12.314190 14.740803 3.439909
12.629539 14.740803 4.192682
12.944889 14.740803 4.457355
13.260239 14.740803 4.895976
13.575588 14.740803 5.170797
13.890940 14.740803 5.728384
14.206289 14.740803 6.938300
14.521639 14.740803 8.161427
14.836988 14.740803 10.790366
15.152340 14.740803 14.431930
15.467690 14.740803 19.341236
15.783039 14.740803 0.000000
16.098389 14.740803 0.000000
16.413738 14.740803 0.000000
16.729090 14.740803 0.000000
17.044439 14.740803 0.000000
17.359789 14.740803 0.000000
17.675138 14.740803 0.000000
17.990490 14.740803 172.569763
18.305840 14.740803 180.668564
18.621189 14.740803 178.669601
18.936539 14.740803 0.000000
19.251888 14.740803 0.000000
-7.237510 14.425449 0.000000
-6.922160 14.425449 0.029630
-6.606810 14.425449 0.020497
-6.291460 14.425449 0.020538
-5.976110 14.425449 0.020040
-5.660760 14.425449 0.019629
-5.345410 14.425449 0.019076
-5.030060 14.425449 0.019298
-4.714710 14.425449 0.019402
-4.399360 14.425449 0.019329
-4.084010 14.425449 0.019268
-3.768660 14.425449 0.019527
-3.453310 14.425449 0.019677
-3.137960 14.425449 0.019132
-2.822610 14.425449 0.018271
-2.507260 14.425449 0.018225
-2.191910 14.425449 0.017834
-1.876560 14.425449 0.017751
-1.561210 14.425449 0.017555
-1.245860 14.425449 0.017308
-0.930510 14.425449 0.017179
-0.615160 14.425449 0.017227
-0.299810 14.425449 0.017471
0.015540 14.425449 0.017395
0.330890 14.425449 0.016920
0.646240 14.425449 0.016992
0.961589 14.425449 0.017027
1.276940 14.425449 0.017350
1.592289 14.425449 0.017212
1.907640 14.425449 0.016471
2.222990 14.425449 0.016176
2.538340 14.425449 0.016440
2.853690 14.425449 0.016349
3.169039 14.425449 0.016647
3.484390 14.425449 0.016763
3.799739 14.425449 0.016823
4.115090 14.425449 0.017081
4.430439 14.425449 0.017379
4.745790 14.425449 0.017443
5.061140 14.425449 0.017958
5.376490 14.425449 0.018360
5.691840 14.425449 0.019253
6.007189 14.425449 0.020879
6.322540 14.425449 0.023249
6.637889 14.425449 0.025984
6.953240 14.425449 0.031334
7.268589 14.425449 0.041557
7.583940 14.425449 0.057041
7.899290 14.425449 0.081130
8.214640 14.425449 0.117664
8.529989 14.425449 0.183296
8.845339 14.425449 0.291819
9.160688 14.425449 0.417589
9.476040 14.425449 0.571291
9.791389 14.425449 0.759327
10.106739 14.425449 0.993533
10.422089 14.425449 1.227265
10.737438 14.425449 1.487308
11.052790 14.425449 1.862390
11.368139 14.425449 2.282087
11.683489 14.425449 2.734880
11.998838 14.425449 3.159916
12.314190 14.425449 3.441368
12.629539 14.425449 3.980551
12.944889 14.425449 4.591002
13.260239 14.425449 4.820851
13.575588 14.425449 5.297614
13.890940 14.425449 5.758916
14.206289 14.425449 7.045493
14.521639 14.425449 8.282250
14.836988 14.425449 10.894628
15.152340 14.425449 15.103058
15.467690 14.425449 19.644117
15.783039 14.425449 0.000000
16.098389 14.425449 0.000000
16.413738 14.425449 0.000000
16.729090 14.425449 0.000000
17.044439 14.425449 0.000000
17.359789 14.425449 0.000000
17.675138 14.425449 0.000000
17.990490 14.425449 182.300140
18.305840 14.425449 194.366547
18.621189 14.425449 189.838898
18.936539 14.425449 0.000000
19.251888 14.425449 0.000000
-7.237510 14.110100 0.000000
-6.922160 14.110100 0.029825
-6.606810 14.110100 0.020816
-6.291460 14.110100 0.020794
-5.976110 14.110100 0.020586
-5.660760 14.110100 0.020247
-5.345410 14.110100 0.019638
-5.030060 14.110100 0.019658
-4.714710 14.110100 0.019519
-4.399360 14.110100 0.019700
-4.084010 14.110100 0.019609
-3.768660 14.110100 0.019235
-3.453310 14.110100 0.019314
-3.137960 14.110100 0.018742
-2.822610 14.110100 0.018209
-2.507260 14.110100 0.018413
-2.191910 14.110100 0.018067
-1.876560 14.110100 0.017971
-1.561210 14.110100 0.017896
-1.245860 14.110100 0.017661
-0.930510 14.110100 0.017625
-0.615160 14.110100 0.017833
-0.299810 14.110100 0.018067
0.015540 14.110100 0.017589
0.330890 14.110100 0.017234
0.646240 14.110100 0.017318
0.961589 14.110100 0.017462
1.276940 14.110100 0.017713
1.592289 14.110100 0.017625
1.907640 14.110100 0.016901
2.222990 14.110100 0.016715
2.538340 14.110100 0.016945
2.853690 14.110100 0.016875
3.169039 14.110100 0.017027
3.484390 14.110100 0.017364
3.799739 14.110100 0.017404
4.115090 14.110100 0.017489
4.430439 14.110100 0.017753
4.745790 14.110100 0.018070
5.061140 14.110100 0.018336
5.376490 14.110100 0.018631
5.691840 14.110100 0.019583
6.007189 14.110100 0.021093
6.322540 14.110100 0.023023
6.637889 14.110100 0.026256
6.953240 14.110100 0.031952
7.268589 14.110100 0.042223
7.583940 14.110100 0.057808
7.899290 14.110100 0.082568
8.214640 14.110100 0.117848
8.529989 14.110100 0.190605
8.845339 14.110100 0.298876
9.160688 14.110100 0.422660
9.476040 14.110100 0.601550
9.791389 14.110100 0.780327
10.106739 14.110100 1.002371
10.422089 14.110100 1.223086
10.737438 14.110100 1.488776
11.052790 14.110100 1.897438
11.368139 14.110100 2.328863
11.683489 14.110100 2.813344
11.998838 14.110100 3.019404
12.314190 14.110100 3.549915
12.629539 14.110100 4.124427
12.944889 14.110100 4.487098
13.260239 14.110100 4.828952
13.575588 14.110100 5.397719
13.890940 14.110100 5.917253
14.206289 14.110100 6.851877
14.521639 14.110100 8.541562
14.836988 14.110100 11.666327
15.152340 14.110100 16.333143
15.467690 14.110100 20.179182
15.783039 14.110100 0.000000
16.098389 14.110100 0.000000
16.413738 14.110100 0.000000
16.729090 14.110100 0.000000
17.044439 14.110100 0.000000
17.359789 14.110100 0.000000
17.675138 14.110100 0.000000
17.990490 14.110100 200.644974
18.305840 14.110100 205.166306
18.621189 14.110100 200.933777
18.936539 14.110100 0.000000
19.251888 14.110100 0.000000
-7.237510 13.794750 0.000000
-6.922160 13.794750 0.030124
-6.606810 13.794750 0.021190
-6.291460 13.794750 0.021408
-5.976110 13.794750 0.021111
-5.660760 13.794750 0.020721
-5.345410 13.794750 0.020158
-5.030060 13.794750 0.019996
-4.714710 13.794750 0.019560
-4.399360 13.794750 0.019813
-4.084010 13.794750 0.019603
-3.768660 13.794750 0.018851
-3.453310 13.794750 0.018783
-3.137960 13.794750 0.018462
-2.822610 13.794750 0.018275
-2.507260 13.794750 0.018567
-2.191910 13.794750 0.018361
-1.876560 13.794750 0.018356
-1.561210 13.794750 0.018322
-1.245860 13.794750 0.018016
-0.930510 13.794750 0.017910
-0.615160 13.794750 0.018234
-0.299810 13.794750 0.018501
0.015540 13.794750 0.018028
0.330890 13.794750 0.017381
0.646240 13.794750 0.017413
0.961589 13.794750 0.017682
1.276940 13.794750 0.017889
1.592289 13.794750 0.017870
1.907640 13.794750 0.017326
2.222990 13.794750 0.017191
2.538340 13.794750 0.017321
2.853690 13.794750 0.017320
3.169039 13.794750 0.017417
3.484390 13.794750 0.017765
3.799739 13.794750 0.017844
4.115090 13.794750 0.018149
4.430439 13.794750 0.018335
4.745790 13.794750 0.018521
5.061140 13.794750 0.018515
5.376490 13.794750 0.018999
5.691840 13.794750 0.020034
6.007189 13.794750 0.021388
6.322540 13.794750 0.023040
6.637889 13.794750 0.025969
6.953240 13.794750 0.031018
7.268589 13.794750 0.040303
7.583940 13.794750 0.055899
7.899290 13.794750 0.079180
8.214640 13.794750 0.123018
8.529989 13.794750 0.188601
8.845339 13.794750 0.295039
9.160688 13.794750 0.443832
9.476040 13.794750 0.591396
9.791389 13.794750 0.796200
10.106739 13.794750 1.002582
10.422089 13.794750 1.220203
10.737438 13.794750 1.550001
11.052790 13.794750 1.872350
11.368139 13.794750 2.333512
11.683489 13.794750 2.741832
11.998838 13.794750 3.077748
12.314190 13.794750 3.566715
12.629539 13.794750 4.043432
12.944889 13.794750 4.528262
13.260239 13.794750 4.714526
13.575588 13.794750 5.250527
13.890940 13.794750 6.028793
14.206289 13.794750 6.879835
14.521639 13.794750 8.626899
14.836988 13.794750 11.641474
15.152340 13.794750 17.240294
15.467690 13.794750 19.761143
15.783039 13.794750 0.000000
16.098389 13.794750 0.000000
16.413738 13.794750 0.000000
16.729090 13.794750 0.000000
17.044439 13.794750 0.000000
17.359789 13.794750 0.000000
17.675138 13.794750 0.000000
17.990490 13.794750 214.220459
18.305840 13.794750 218.144043
18.621189 13.794750 215.027039
18.936539 13.794750 0.000000
19.251888 13.794750 0.000000
-7.237510 13.479401 0.000000
-6.922160 13.479401 0.030719
-6.606810 13.479401 0.021540
-6.291460 13.479401 0.021593
-5.976110 13.479401 0.021028
-5.660760 13.479401 0.020763
-5.345410 13.479401 0.020350
-5.030060 13.479401 0.020147
-4.714710 13.479401 0.019663
-4.399360 13.479401 0.019653
-4.084010 13.479401 0.019606
-3.768660 13.479401 0.019040
-3.453310 13.479401 0.018858
-3.137960 13.479401 0.018532
-2.822610 13.479401 0.018488
-2.507260 13.479401 0.018664
-2.191910 13.479401 0.018596
-1.876560 13.479401 0.018688
-1.561210 13.479401 0.018741
-1.245860 13.479401 0.018403
-0.930510 13.479401 0.018111
-0.615160 13.479401 0.018470
-0.299810 13.479401 0.018794
0.015540 13.479401 0.018441
0.330890 13.479401 0.017951
0.646240 13.479401 0.017704
0.961589 13.479401 0.017935
1.276940 13.479401 0.017998
1.592289 13.479401 0.018167
1.907640 13.479401 0.017976
2.222990 13.479401 0.017731
2.538340 13.479401 0.017738
2.853690 13.479401 0.017840
3.169039 13.479401 0.017874
3.484390 13.479401 0.018084
3.799739 13.479401 0.018239
4.115090 13.479401 0.018543
4.430439 13.479401 0.018916
4.745790 13.479401 0.019021
5.061140 13.479401 0.018743
5.376490 13.479401 0.019283
5.691840 13.479401 0.020425
6.007189 13.479401 0.021370
6.322540 13.479401 0.022857
6.637889 13.479401 0.025845
6.953240 13.479401 0.030311
7.268589 13.479401 0.039592
7.583940 13.479401 0.054529
7.899290 13.479401 0.081047
8.214640 13.479401 0.121763
8.529989 13.479401 0.197969
8.845339 13.479401 0.299098
9.160688 13.479401 0.443550
9.476040 13.479401 0.617606
9.791389 13.479401 0.803289
10.106739 13.479401 1.017390
10.422089 13.479401 1.303389
10.737438 13.479401 1.542436
11.052790 13.479401 1.870069
11.368139 13.479401 2.377399
11.683489 13.479401 2.779227
11.998838 13.479401 3.249684
12.314190 13.479401 3.601726
12.629539 13.479401 4.267723
12.944889 13.479401 4.745681
13.260239 13.479401 4.987007
13.575588 13.479401 5.483060
13.890940 13.479401 5.987026
14.206289 13.479401 7.215773
14.521639 13.479401 8.799478
14.836988 13.479401 11.735986
15.152340 13.479401 16.980682
15.467690 13.479401 20.897490
15.783039 13.479401 0.000000
16.098389 13.479401 0.000000
16.413738 13.479401 0.000000
16.729090 13.479401 0.000000
17.044439 13.479401 0.000000
17.359789 13.479401 0.000000
17.675138 13.479401 0.000000
17.990490 13.479401 219.831039
18.305840 13.479401 223.304733
18.621189 13.479401 225.077286
18.936539 13.479401 0.000000
19.251888 13.479401 0.000000
-7.237510 13.164051 0.000000
-6.922160 13.164051 0.030855
-6.606810 13.164051 0.021763
-6.291460 13.164051 0.021019
-5.976110 13.164051 0.020499
-5.660760 13.164051 0.020378
-5.345410 13.164051 0.020346
-5.030060 13.164051 0.020531
-4.714710 13.164051 0.020150
-4.399360 13.164051 0.019923
-4.084010 13.164051 0.019838
-3.768660 13.164051 0.019436
-3.453310 13.164051 0.019150
-3.137960 13.164051 0.018594
-2.822610 13.164051 0.018571
-2.507260 13.164051 0.018898
-2.191910 13.164051 0.018693
-1.876560 13.164051 0.018776
-1.561210 13.164051 0.019026
-1.245860 13.164051 0.018770
-0.930510 13.164051 0.018332
-0.615160 13.164051 0.018488
-0.299810 13.164051 0.018937
0.015540 13.164051 0.018968
0.330890 13.164051 0.018673
0.646240 13.164051 0.018236
0.961589 13.164051 0.018391
1.276940 13.164051 0.018022
1.592289 13.164051 0.018434
1.907640 13.164051 0.018542
2.222990 13.164051 0.018276
2.538340 13.164051 0.018278
2.853690 13.164051 0.018317
3.169039 13.164051 0.018398
3.484390 13.164051 0.018429
3.799739 13.164051 0.018673
4.115090 13.164051 0.018993
4.430439 13.164051 0.019182
4.745790 13.164051 0.019262
5.061140 13.164051 0.019207
5.376490 13.164051 0.019621
5.691840 13.164051 0.020901
6.007189 13.164051 0.021243
6.322540 13.164051 0.022984
6.637889 13.164051 0.025774
6.953240 13.164051 0.030038
7.268589 13.164051 0.039381
7.583940 13.164051 0.054459
7.899290 13.164051 0.081613
8.214640 13.164051 0.131316
8.529989 13.164051 0.195438
8.845339 13.164051 0.304518
9.160688 13.164051 0.439749
9.476040 13.164051 0.600046
9.791389 13.164051 0.796814
10.106739 13.164051 1.023455
10.422089 13.164051 1.312039
10.737438 13.164051 1.601949
11.052790 13.164051 1.913478
11.368139 13.164051 2.252974
11.683489 13.164051 2.759090
11.998838 13.164051 3.232486
12.314190 13.164051 3.793721
12.629539 13.164051 4.066161
12.944889 13.164051 4.498933
13.260239 13.164051 5.089531
13.575588 13.164051 5.737441
13.890940 13.164051 6.216382
14.206289 13.164051 7.152561
14.521639 13.164051 8.589788
14.836988 13.164051 11.072417
15.152340 13.164051 16.590195
15.467690 13.164051 20.175329
15.783039 13.164051 0.000000
16.098389 13.164051 0.000000
16.413738 13.164051 0.000000
16.729090 13.164051 0.000000
17.044439 13.164051 0.000000
17.359789 13.164051 0.000000
17.675138 13.164051 0.000000
17.990490 13.164051 209.789963
18.305840 13.164051 218.552704
18.621189 13.164051 221.549408
18.936539 13.164051 0.000000
19.251888 13.164051 0.000000
-7.237510 12.848701 0.000000
-6.922160 12.848701 0.031486
-6.606810 12.848701 0.021609
-6.291460 12.848701 0.020975
-5.976110 12.848701 0.020386
-5.660760 12.848701 0.020162
-5.345410 12.848701 0.020312
-5.030060 12.848701 0.020839
-4.714710 12.848701 0.020637
-4.399360 12.848701 0.020062
-4.084010 12.848701 0.020109
-3.768660 12.848701 0.020011
-3.453310 12.848701 0.019694
-3.137960 12.848701 0.018881
-2.822610 12.848701 0.018681
-2.507260 12.848701 0.018857
-2.191910 12.848701 0.018827
-1.876560 12.848701 0.018807
-1.561210 12.848701 0.019040
-1.245860 12.848701 0.018984
-0.930510 12.848701 0.018729
-0.615160 12.848701 0.018615
-0.299810 12.848701 0.019195
0.015540 12.848701 0.019404
0.330890 12.848701 0.019140
0.646240 12.848701 0.018760
0.961589 12.848701 0.018882
1.276940 12.848701 0.018350
1.592289 12.848701 0.018382
1.907640 12.848701 0.018854
2.222990 12.848701 0.018967
2.538340 12.848701 0.018731
2.853690 12.848701 0.018703
3.169039 12.848701 0.018880
3.484390 12.848701 0.018905
3.799739 12.848701 0.019149
4.115090 12.848701 0.019258
4.430439 12.848701 0.019242
4.745790 12.848701 0.019461
5.061140 12.848701 0.019551
5.376490 12.848701 0.019926
5.691840 12.848701 0.021006
6.007189 12.848701 0.021291
6.322540 12.848701 0.023085
6.637889 12.848701 0.026026
6.953240 12.848701 0.030858
7.268589 12.848701 0.039738
7.583940 12.848701 0.055897
7.899290 12.848701 0.081264
8.214640 12.848701 0.126869
8.529989 12.848701 0.206580
8.845339 12.848701 0.311559
9.160688 12.848701 0.436026
9.476040 12.848701 0.576780
9.791389 12.848701 0.772395
10.106739 12.848701 1.013357
10.422089 12.848701 1.316169
10.737438 12.848701 1.597909
11.052790 12.848701 1.897796
11.368139 12.848701 2.274421
11.683489 12.848701 2.774454
11.998838 12.848701 3.285612
12.314190 12.848701 3.706318
12.629539 12.848701 3.973165
12.944889 12.848701 4.603786
13.260239 12.848701 4.966424
13.575588 12.848701 5.608545
13.890940 12.848701 6.017544
14.206289 12.848701 7.016318
14.521639 12.848701 8.462150
14.836988 12.848701 10.916302
15.152340 12.848701 15.553508
15.467690 12.848701 18.562748
15.783039 12.848701 0.000000
16.098389 12.848701 0.000000
16.413738 12.848701 0.000000
16.729090 12.848701 0.000000
17.044439 12.848701 0.000000
17.359789 12.848701 0.000000
17.675138 12.848701 0.000000
17.990490 12.848701 192.016617
18.305840 12.848701 202.072739
18.621189 12.848701 203.945023
18.936539 12.848701 0.000000
19.251888 12.848701 0.000000
-7.237510 12.533352 0.000000
-6.922160 12.533352 0.031450
-6.606810 12.533352 0.021386
-6.291460 12.533352 0.021085
-5.976110 12.533352 0.020630
-5.660760 12.533352 0.020145
-5.345410 12.533352 0.020505
-5.030060 12.533352 0.020794
-4.714710 12.533352 0.020540
-4.399360 12.533352 0.020286
-4.084010 12.533352 0.020085
-3.768660 12.533352 0.020196
-3.453310 12.533352 0.019724
-3.137960 12.533352 0.019110
-2.822610 12.533352 0.018693
-2.507260 12.533352 0.018686
-2.191910 12.533352 0.018658
-1.876560 12.533352 0.018855
-1.561210 12.533352 0.019139
-1.245860 12.533352 0.019025
-0.930510 12.533352 0.019127
-0.615160 12.533352 0.018759
-0.299810 12.533352 0.019143
0.015540 12.533352 0.019246
0.330890 12.533352 0.019258
0.646240 12.533352 0.019326
0.961589 12.533352 0.019425
1.276940 12.533352 0.019103
1.592289 12.533352 0.018702
1.907640 12.533352 0.019074
2.222990 12.533352 0.019431
2.538340 12.533352 0.019176
2.853690 12.533352 0.019010
3.169039 12.533352 0.019144
3.484390 12.533352 0.019242
3.799739 12.533352 0.019514
4.115090 12.533352 0.019552
4.430439 12.533352 0.019380
4.745790 12.533352 0.019533
5.061140 12.533352 0.019634
5.376490 12.533352 0.019959
5.691840 12.533352 0.020778
6.007189 12.533352 0.021584
6.322540 12.533352 0.023407
6.637889 12.533352 0.026614
6.953240 12.533352 0.031588
7.268589 12.533352 0.040819
7.583940 12.533352 0.056802
7.899290 12.533352 0.081437
8.214640 12.533352 0.130069
8.529989 12.533352 0.210625
8.845339 12.533352 0.320047
9.160688 12.533352 0.439332
9.476040 12.533352 0.583514
9.791389 12.533352 0.751140
10.106739 12.533352 1.022547
10.422089 12.533352 1.305505
10.737438 12.533352 1.618294
11.052790 12.533352 1.956254
11.368139 12.533352 2.297698
11.683489 12.533352 2.792770
11.998838 12.533352 3.283509
12.314190 12.533352 3.616091
12.629539 12.533352 4.016062
12.944889 12.533352 4.437994
13.260239 12.533352 4.943257
13.575588 12.533352 5.521855
13.890940 12.533352 6.078537
14.206289 12.533352 7.250534
14.521639 12.533352 8.478367
14.836988 12.533352 11.140603
15.152340 12.533352 15.111609
15.467690 12.533352 15.725721
15.783039 12.533352 0.000000
16.098389 12.533352 0.000000
16.413738 12.533352 0.000000
16.729090 12.533352 0.000000
17.044439 12.533352 0.000000
17.359789 12.533352 0.000000
17.675138 12.533352 0.000000
17.990490 12.533352 177.821259
18.305840 12.533352 181.864594
18.621189 12.533352 184.519348
18.936539 12.533352 0.000000
19.251888 12.533352 0.000000
-7.237510 12.218002 0.000000
-6.922160 12.218002 0.030931
-6.606810 12.218002 0.021386
-6.291460 12.218002 0.021215
-5.976110 12.218002 0.020708
-5.660760 12.218002 0.020234
-5.345410 12.218002 0.020442
-5.030060 12.218002 0.020437
-4.714710 12.218002 0.019964
-4.399360 12.218002 0.020060
-4.084010 12.218002 0.020046
-3.768660 12.218002 0.020175
-3.453310 12.218002 0.019761
-3.137960 12.218002 0.019054
-2.822610 12.218002 0.018810
-2.507260 12.218002 0.018865
-2.191910 12.218002 0.018819
-1.876560 12.218002 0.018862
-1.561210 12.218002 0.019134
-1.245860 12.218002 0.019172
-0.930510 12.218002 0.019177
-0.615160 12.218002 0.018968
-0.299810 12.218002 0.019298
0.015540 12.218002 0.019210
0.330890 12.218002 0.019143
0.646240 12.218002 0.019515
0.961589 12.218002 0.019773
1.276940 12.218002 0.019504
1.592289 12.218002 0.019145
1.907640 12.218002 0.019193
2.222990 12.218002 0.019634
2.538340 12.218002 0.019458
2.853690 12.218002 0.019266
3.169039 12.218002 0.019329
3.484390 12.218002 0.019474
3.799739 12.218002 0.019606
4.115090 12.218002 0.019590
4.430439 12.218002 0.019357
4.745790 12.218002 0.019479
5.061140 12.218002 0.019578
5.376490 12.218002 0.019940
5.691840 12.218002 0.020805
6.007189 12.218002 0.022093
6.322540 12.218002 0.023878
6.637889 12.218002 0.026906
6.953240 12.218002 0.031979
7.268589 12.218002 0.040708
7.583940 12.218002 0.056077
7.899290 12.218002 0.084467
8.214640 12.218002 0.131810
8.529989 12.218002 0.211395
8.845339 12.218002 0.323466
9.160688 12.218002 0.468323
9.476040 12.218002 0.584193
9.791389 12.218002 0.784234
10.106739 12.218002 0.999279
10.422089 12.218002 1.297829
10.737438 12.218002 1.649377
11.052790 12.218002 1.980616
11.368139 12.218002 2.295949
11.683489 12.218002 2.766020
11.998838 12.218002 3.277345
12.314190 12.218002 3.594820
12.629539 12.218002 4.050214
12.944889 12.218002 4.350820
13.260239 12.218002 5.041002
13.575588 12.218002 5.519371
13.890940 12.218002 5.993980
14.206289 12.218002 6.929726
14.521639 12.218002 8.370075
14.836988 12.218002 10.532575
15.152340 12.218002 14.829003
15.467690 12.218002 13.616996
15.783039 12.218002 0.000000
16.098389 12.218002 0.000000
16.413738 12.218002 0.000000
16.729090 12.218002 0.000000
17.044439 12.218002 0.000000
17.359789 12.218002 0.000000
17.675138 12.218002 0.000000
17.990490 12.218002 166.155167
18.305840 12.218002 168.547455
18.621189 12.218002 167.867462
18.936539 12.218002 0.000000
19.251888 12.218002 0.000000
-7.237510 11.902653 0.000000
-6.922160 11.902653 0.030336
-6.606810 11.902653 0.021171
-6.291460 11.902653 0.021232
-5.976110 11.902653 0.020917
-5.660760 11.902653 0.020388
-5.345410 11.902653 0.020257
-5.030060 11.902653 0.020045
-4.714710 11.902653 0.019544
-4.399360 11.902653 0.019855
-4.084010 11.902653 0.019710
-3.768660 11.902653 0.020030
-3.453310 11.902653 0.019638
-3.137960 11.902653 0.019092
-2.822610 11.902653 0.018844
-2.507260 11.902653 0.019131
-2.191910 11.902653 0.018954
-1.876560 11.902653 0.018877
-1.561210 11.902653 0.019005
-1.245860 11.902653 0.019091
-0.930510 11.902653 0.018985
-0.615160 11.902653 0.018995
-0.299810 11.902653 0.019265
0.015540 11.902653 0.019173
0.330890 11.902653 0.018690
0.646240 11.902653 0.019298
0.961589 11.902653 0.019517
1.276940 11.902653 0.019424
1.592289 11.902653 0.019491
1.907640 11.902653 0.019384
2.222990 11.902653 0.019576
2.538340 11.902653 0.019887
2.853690 11.902653 0.019607
3.169039 11.902653 0.019169
3.484390 11.902653 0.019222
3.799739 11.902653 0.019853
4.115090 11.902653 0.019757
4.430439 11.902653 0.019311
4.745790 11.902653 0.019407
5.061140 11.902653 0.019358
5.376490 11.902653 0.019982
5.691840 11.902653 0.021105
6.007189 11.902653 0.022257
6.322540 11.902653 0.023765
6.637889 11.902653 0.026633
6.953240 11.902653 0.031717
7.268589 11.902653 0.040473
7.583940 11.902653 0.057839
7.899290 11.902653 0.094272
8.214640 11.902653 0.137327
8.529989 11.902653 0.221327
8.845339 11.902653 0.326312
9.160688 11.902653 0.459138
9.476040 11.902653 0.625951
9.791389 11.902653 0.813149
10.106739 11.902653 1.022015
10.422089 11.902653 1.264625
10.737438 11.902653 1.627121
11.052790 11.902653 1.949974
11.368139 11.902653 2.330151
11.683489 11.902653 2.843844
11.998838 11.902653 3.270043
12.314190 11.902653 3.633775
12.629539 11.902653 4.010238
12.944889 11.902653 4.289314
13.260239 11.902653 4.899337
13.575588 11.902653 5.469177
13.890940 11.902653 6.152899
14.206289 11.902653 6.938770
14.521639 11.902653 8.354501
14.836988 11.902653 9.966646
15.152340 11.902653 13.472209
15.467690 11.902653 10.754018
15.783039 11.902653 0.000000
16.098389 11.902653 0.000000
16.413738 11.902653 0.000000
16.729090 11.902653 0.000000
17.044439 11.902653 0.000000
17.359789 11.902653 0.000000
17.675138 11.902653 0.000000
17.990490 11.902653 154.377457
18.305840 11.902653 156.560989
18.621189 11.902653 160.479156
18.936539 11.902653 0.000000
19.251888 11.902653 0.000000
-7.237510 11.587299 0.000000
-6.922160 11.587299 0.030202
-6.606810 11.587299 0.021101
-6.291460 11.587299 0.020867
-5.976110 11.587299 0.020531
-5.660760 11.587299 0.020271
-5.345410 11.587299 0.020086
-5.030060 11.587299 0.019769
-4.714710 11.587299 0.019738
-4.399360 11.587299 0.019759
-4.084010 11.587299 0.019703
-3.768660 11.587299 0.019793
-3.453310 11.587299 0.019638
-3.137960 11.587299 0.019224
-2.822610 11.587299 0.018879
-2.507260 11.587299 0.019083
-2.191910 11.587299 0.018999
-1.876560 11.587299 0.018865
-1.561210 11.587299 0.018927
-1.245860 11.587299 0.018971
-0.930510 11.587299 0.018817
-0.615160 11.587299 0.018984
-0.299810 11.587299 0.019144
0.015540 11.587299 0.018804
0.330890 11.587299 0.018442
0.646240 11.587299 0.019000
0.961589 11.587299 0.019203
1.276940 11.587299 0.019021
1.592289 11.587299 0.019366
1.907640 11.587299 0.019258
2.222990 11.587299 0.019509
2.538340 11.587299 0.020043
2.853690 11.587299 0.019687
3.169039 11.587299 0.019167
3.484390 11.587299 0.019218
3.799739 11.587299 0.019639
4.115090 11.587299 0.019510
4.430439 11.587299 0.019390
4.745790 11.587299 0.019454
5.061140 11.587299 0.019171
5.376490 11.587299 0.019841
5.691840 11.587299 0.020891
6.007189 11.587299 0.021614
6.322540 11.587299 0.023008
6.637889 11.587299 0.026073
6.953240 11.587299 0.031287
7.268589 11.587299 0.040423
7.583940 11.587299 0.058079
7.899290 11.587299 0.089269
8.214640 11.587299 0.148260
8.529989 11.587299 0.223816
8.845339 11.587299 0.324027
9.160688 11.587299 0.475754
9.476040 11.587299 0.644878
9.791389 11.587299 0.862955
10.106739 11.587299 1.056345
10.422089 11.587299 1.311602
10.737438 11.587299 1.593593
11.052790 11.587299 1.983889
11.368139 11.587299 2.349555
11.683489 11.587299 2.742602
11.998838 11.587299 3.098217
12.314190 11.587299 3.609838
12.629539 11.587299 4.177523
12.944889 11.587299 4.495244
13.260239 11.587299 4.843755
13.575588 11.587299 5.397268
13.890940 11.587299 6.017811
14.206289 11.587299 6.860645
14.521639 11.587299 7.977776
14.836988 11.587299 10.056901
15.152340 11.587299 13.367115
15.467690 11.587299 35.127789
15.783039 11.587299 0.000000
16.098389 11.587299 0.000000
16.413738 11.587299 0.000000
16.729090 11.587299 0.000000
17.044439 11.587299 0.000000
17.359789 11.587299 0.000000
17.675138 11.587299 0.000000
17.990490 11.587299 149.645569
18.305840 11.587299 152.853561
18.621189 11.587299 157.336227
18.936539 11.587299 0.000000
19.251888 11.587299 0.000000
-7.237510 11.271950 0.000000
-6.922160 11.271950 0.029963
-6.606810 11.271950 0.020989
-6.291460 11.271950 0.020365
-5.976110 11.271950 0.019933
-5.660760 11.271950 0.020020
-5.345410 11.271950 0.020060
-5.030060 11.271950 0.020081
-4.714710 11.271950 0.020043
-4.399360 11.271950 0.019727
-4.084010 11.271950 0.019511
-3.768660 11.271950 0.019662
-3.453310 11.271950 0.019543
-3.137960 11.271950 0.018848
-2.822610 11.271950 0.018513
-2.507260 11.271950 0.018778
-2.191910 11.271950 0.018726
-1.876560 11.271950 0.018627
-1.561210 11.271950 0.018930
-1.245860 11.271950 0.018674
-0.930510 11.271950 0.018532
-0.615160 11.271950 0.018806
-0.299810 11.271950 0.018896
0.015540 11.271950 0.018563
0.330890 11.271950 0.018337
0.646240 11.271950 0.018762
0.961589 11.271950 0.018633
1.276940 11.271950 0.018728
1.592289 11.271950 0.018958
1.907640 11.271950 0.018906
2.222990 11.271950 0.019494
2.538340 11.271950 0.019621
2.853690 11.271950 0.019383
3.169039 11.271950 0.019230
3.484390 11.271950 0.019269
3.799739 11.271950 0.019279
4.115090 11.271950 0.019136
4.430439 11.271950 0.019305
4.745790 11.271950 0.019608
5.061140 11.271950 0.019039
5.376490 11.271950 0.019437
5.691840 11.271950 0.020290
6.007189 11.271950 0.021089
6.322540 11.271950 0.022538
6.637889 11.271950 0.025752
6.953240 11.271950 0.031522
7.268589 11.271950 0.040873
7.583940 11.271950 0.061482
7.899290 11.271950 0.090524
8.214640 11.271950 0.154013
8.529989 11.271950 0.238321
8.845339 11.271950 0.349790
9.160688 11.271950 0.483185
9.476040 11.271950 0.666417
9.791389 11.271950 0.845174
10.106739 11.271950 1.083242
10.422089 11.271950 1.304518
10.737438 11.271950 1.587342
11.052790 11.271950 1.918843
11.368139 11.271950 2.305547
11.683489 11.271950 2.782746
11.998838 11.271950 3.171315
12.314190 11.271950 3.741024
12.629539 11.271950 4.297743
12.944889 11.271950 4.456637
13.260239 11.271950 4.959972
13.575588 11.271950 5.459826
13.890940 11.271950 6.018551
14.206289 11.271950 6.897139
14.521639 11.271950 8.200009
14.836988 11.271950 10.245263
15.152340 11.271950 13.538435
15.467690 11.271950 0.000000
15.783039 11.271950 0.000000
16.098389 11.271950 0.000000
16.413738 11.271950 0.000000
16.729090 11.271950 0.000000
17.044439 11.271950 0.000000
17.359789 11.271950 0.000000
17.675138 11.271950 0.000000
17.990490 11.271950 153.415573
18.305840 11.271950 155.472580
18.621189 11.271950 160.724075
18.936539 11.271950 0.000000
19.251888 11.271950 0.000000
-7.237510 10.956600 0.000000
-6.922160 10.956600 0.030120
-6.606810 10.956600 0.020902
-6.291460 10.956600 0.019998
-5.976110 10.956600 0.019707
-5.660760 10.956600 0.019869
-5.345410 10.956600 0.020174
-5.030060 10.956600 0.020190
-4.714710 10.956600 0.020017
-4.399360 10.956600 0.019511
-4.084010 10.956600 0.019151
-3.768660 10.956600 0.019479
-3.453310 10.956600 0.019149
-3.137960 10.956600 0.018353
-2.822610 10.956600 0.018176
-2.507260 10.956600 0.018361
-2.191910 10.956600 0.018396
-1.876560 10.956600 0.018402
-1.561210 10.956600 0.018733
-1.245860 10.956600 0.018534
-0.930510 10.956600 0.018369
-0.615160 10.956600 0.018417
-0.299810 10.956600 0.018510
0.015540 10.956600 0.018276
0.330890 10.956600 0.018446
0.646240 10.956600 0.018573
0.961589 10.956600 0.018422
1.276940 10.956600 0.018545
1.592289 10.956600 0.018729
1.907640 10.956600 0.018874
2.222990 10.956600 0.019157
2.538340 10.956600 0.019182
2.853690 10.956600 0.019044
3.169039 10.956600 0.019192
3.484390 10.956600 0.019165
3.799739 10.956600 0.019034
4.115090 10.956600 0.018707
4.430439 10.956600 0.019024
4.745790 10.956600 0.019463
5.061140 10.956600 0.019046
5.376490 10.956600 0.018889
5.691840 10.956600 0.019766
6.007189 10.956600 0.020937
6.322540 10.956600 0.022776
6.637889 10.956600 0.026191
6.953240 10.956600 0.031944
7.268589 10.956600 0.043113
7.583940 10.956600 0.062723
7.899290 10.956600 0.091301
8.214640 10.956600 0.152428
8.529989 10.956600 0.244500
8.845339 10.956600 0.356727
9.160688 10.956600 0.504011
9.476040 10.956600 0.651645
9.791389 10.956600 0.859080
10.106739 10.956600 1.070547
10.422089 10.956600 1.332180
10.737438 10.956600 1.617663
11.052790 10.956600 1.970636
11.368139 10.956600 2.431573
11.683489 10.956600 2.888993
11.998838 10.956600 3.386039
12.314190 10.956600 3.762325
12.629539 10.956600 4.128118
12.944889 10.956600 4.396106
13.260239 10.956600 5.137744
13.575588 10.956600 5.754046
13.890940 10.956600 6.209793
14.206289 10.956600 6.831362
14.521639 10.956600 8.264503
14.836988 10.956600 10.348611
15.152340 10.956600 14.014498
15.467690 10.956600 0.000000
15.783039 10.956600 0.000000
16.098389 10.956600 0.000000
16.413738 10.956600 0.000000
16.729090 10.956600 0.000000
17.044439 10.956600 0.000000
17.359789 10.956600 0.000000
17.675138 10.956600 0.000000
17.990490 10.956600 156.707703
18.305840 10.956600 157.176056
18.621189 10.956600 163.587097
18.936539 10.956600 0.000000
19.251888 10.956600 0.000000
-7.237510 10.641251 0.000000
-6.922160 10.641251 0.029098
-6.606810 10.641251 0.020604
-6.291460 10.641251 0.019769
-5.976110 10.641251 0.019532
-5.660760 10.641251 0.019838
-5.345410 10.641251 0.020079
-5.030060 10.641251 0.019932
-4.714710 10.641251 0.019395
-4.399360 10.641251 0.018989
-4.084010 10.641251 0.018980
-3.768660 10.641251 0.019048
-3.453310 10.641251 0.018564
-3.137960 10.641251 0.018004
-2.822610 10.641251 0.018002
-2.507260 10.641251 0.017961
-2.191910 10.641251 0.018064
-1.876560 10.641251 0.018243
-1.561210 10.641251 0.018411
-1.245860 10.641251 0.018388
-0.930510 10.641251 0.018387
-0.615160 10.641251 0.018150
-0.299810 10.641251 0.018188
0.015540 10.641251 0.018174
0.330890 10.641251 0.018566
0.646240 10.641251 0.018599
0.961589 10.641251 0.018497
1.276940 10.641251 0.018439
1.592289 10.641251 0.018525
1.907640 10.641251 0.018789
2.222990 10.641251 0.018988
2.538340 10.641251 0.018388
2.853690 10.641251 0.018461
3.169039 10.641251 0.018763
3.484390 10.641251 0.018715
3.799739 10.641251 0.018578
4.115090 10.641251 0.018147
4.430439 10.641251 0.018580
4.745790 10.641251 0.019137
5.061140 10.641251 0.018984
5.376490 10.641251 0.018478
5.691840 10.641251 0.019231
6.007189 10.641251 0.021111
6.322540 10.641251 0.023653
6.637889 10.641251 0.026951
6.953240 10.641251 0.032817
7.268589 10.641251 0.043940
7.583940 10.641251 0.062864
7.899290 10.641251 0.098203
8.214640 10.641251 0.150881
8.529989 10.641251 0.242837
8.845339 10.641251 0.352670
9.160688 10.641251 0.492532
9.476040 10.641251 0.670312
9.791389 10.641251 0.877169
10.106739 10.641251 1.096834
10.422089 10.641251 1.361705
10.737438 10.641251 1.651697
11.052790 10.641251 2.025932
11.368139 10.641251 2.461380
11.683489 10.641251 2.807409
11.998838 10.641251 3.258167
12.314190 10.641251 3.613881
12.629539 10.641251 3.987658
12.944889 10.641251 4.574069
13.260239 10.641251 5.105322
13.575588 10.641251 5.637939
13.890940 10.641251 6.082588
14.206289 10.641251 6.926062
14.521639 10.641251 8.263357
14.836988 10.641251 10.613973
15.152340 10.641251 14.400592
15.467690 10.641251 0.000000
15.783039 10.641251 0.000000
16.098389 10.641251 0.000000
16.413738 10.641251 0.000000
16.729090 10.641251 0.000000
17.044439 10.641251 0.000000
17.359789 10.641251 0.000000
17.675138 10.641251 0.000000
17.990490 10.641251 161.688477
18.305840 10.641251 160.031311
18.621189 10.641251 165.561386
18.936539 10.641251 0.000000
19.251888 10.641251 0.000000
-7.237510 10.325901 0.000000
-6.922160 10.325901 0.028317
-6.606810 10.325901 0.020175
-6.291460 10.325901 0.019497
-5.976110 10.325901 0.019264
-5.660760 10.325901 0.019352
-5.345410 10.325901 0.019739
-5.030060 10.325901 0.019360
-4.714710 10.325901 0.018790
-4.399360 10.325901 0.018382
-4.084010 10.325901 0.018484
-3.768660 10.325901 0.018372
-3.453310 10.325901 0.017866
-3.137960 10.325901 0.017710
-2.822610 10.325901 0.017966
-2.507260 10.325901 0.017813
-2.191910 10.325901 0.018191
-1.876560 10.325901 0.018297
-1.561210 10.325901 0.017943
-1.245860 10.325901 0.018117
-0.930510 10.325901 0.018154
-0.615160 10.325901 0.018100
-0.299810 10.325901 0.017966
0.015540 10.325901 0.018059
0.330890 10.325901 0.018308
0.646240 10.325901 0.018361
0.961589 10.325901 0.018321
1.276940 10.325901 0.018416
1.592289 10.325901 0.018273
1.907640 10.325901 0.018450
2.222990 10.325901 0.018627
2.538340 10.325901 0.017963
2.853690 10.325901 0.017962
3.169039 10.325901 0.018034
3.484390 10.325901 0.018179
3.799739 10.325901 0.018264
4.115090 10.325901 0.017931
4.430439 10.325901 0.018164
4.745790 10.325901 0.018962
5.061140 10.325901 0.018955
5.376490 10.325901 0.018340
5.691840 10.325901 0.019093
6.007189 10.325901 0.021059
6.322540 10.325901 0.023589
6.637889 10.325901 0.027177
6.953240 10.325901 0.032331
7.268589 10.325901 0.043937
7.583940 10.325901 0.064372
7.899290 10.325901 0.100388
8.214640 10.325901 0.155317
8.529989 10.325901 0.233966
8.845339 10.325901 0.347065
9.160688 10.325901 0.494331
9.476040 10.325901 0.680516
9.791389 10.325901 0.879224
10.106739 10.325901 1.112973
10.422089 10.325901 1.337308
10.737438 10.325901 1.683839
11.052790 10.325901 2.008040
11.368139 10.325901 2.446119
11.683489 10.325901 2.846332
11.998838 10.325901 3.258549
12.314190 10.325901 3.792308
12.629539 10.325901 4.237005
12.944889 10.325901 4.441143
13.260239 10.325901 5.035916
13.575588 10.325901 5.460527
13.890940 10.325901 6.213480
14.206289 10.325901 6.979880
14.521639 10.325901 8.377085
14.836988 10.325901 10.446892
15.152340 10.325901 15.109667
15.467690 10.325901 0.000000
15.783039 10.325901 0.000000
16.098389 10.325901 0.000000
16.413738 10.325901 0.000000
16.729090 10.325901 0.000000
17.044439 10.325901 0.000000
17.359789 10.325901 0.000000
17.675138 10.325901 0.000000
17.990490 10.325901 160.995758
18.305840 10.325901 160.043655
18.621189 10.325901 160.360535
18.936539 10.325901 0.000000
19.251888 10.325901 0.000000
-7.237510 10.010551 0.000000
-6.922160 10.010551 0.028270
-6.606810 10.010551 0.019870
-6.291460 10.010551 0.019198
-5.976110 10.010551 0.018979
-5.660760 10.010551 0.018781
-5.345410 10.010551 0.019013
-5.030060 10.010551 0.018736
-4.714710 10.010551 0.018227
-4.399360 10.010551 0.017998
-4.084010 10.010551 0.017842
-3.768660 10.010551 0.017735
-3.453310 10.010551 0.017462
-3.137960 10.010551 0.017574
-2.822610 10.010551 0.017690
-2.507260 10.010551 0.017850
-2.191910 10.010551 0.018181
-1.876560 10.010551 0.018036
-1.561210 10.010551 0.017739
-1.245860 10.010551 0.017816
-0.930510 10.010551 0.017799
-0.615160 10.010551 0.017839
-0.299810 10.010551 0.017672
0.015540 10.010551 0.017816
0.330890 10.010551 0.018022
0.646240 10.010551 0.018125
0.961589 10.010551 0.017896
1.276940 10.010551 0.017741
1.592289 10.010551 0.017679
1.907640 10.010551 0.017837
2.222990 10.010551 0.018023
2.538340 10.010551 0.017650
2.853690 10.010551 0.017419
3.169039 10.010551 0.017479
3.484390 10.010551 0.017779
3.799739 10.010551 0.017909
4.115090 10.010551 0.017659
4.430439 10.010551 0.017728
4.745790 10.010551 0.018635
5.061140 10.010551 0.018655
5.376490 10.010551 0.018437
5.691840 10.010551 0.018912
6.007189 10.010551 0.020516
6.322540 10.010551 0.023055
6.637889 10.010551 0.026913
6.953240 10.010551 0.032934
7.268589 10.010551 0.044351
7.583940 10.010551 0.066448
7.899290 10.010551 0.102409
8.214640 10.010551 0.162089
8.529989 10.010551 0.243710
8.845339 10.010551 0.350741
9.160688 10.010551 0.501060
9.476040 10.010551 0.702688
9.791389 10.010551 0.880384
10.106739 10.010551 1.085960
10.422089 10.010551 1.332405
10.737438 10.010551 1.664443
11.052790 10.010551 2.045621
11.368139 10.010551 2.396096
11.683489 10.010551 2.869559
11.998838 10.010551 3.267039
12.314190 10.010551 3.668587
12.629539 10.010551 4.210289
12.944889 10.010551 4.481409
13.260239 10.010551 5.061896
13.575588 10.010551 5.607808
13.890940 10.010551 6.255042
14.206289 10.010551 7.445145
14.521639 10.010551 8.580224
14.836988 10.010551 11.395562
15.152340 10.010551 15.508279
15.467690 10.010551 0.000000
15.783039 10.010551 0.000000
16.098389 10.010551 0.000000
16.413738 10.010551 0.000000
16.729090 10.010551 0.000000
17.044439 10.010551 0.000000
17.359789 10.010551 0.000000
17.675138 10.010551 0.000000
17.990490 10.010551 157.758652
18.305840 10.010551 155.310867
18.621189 10.010551 152.110474
18.936539 10.010551 0.000000
19.251888 10.010551 0.000000
-7.237510 9.695202 0.000000
-6.922160 9.695202 0.027768
-6.606810 9.695202 0.019402
-6.291460 9.695202 0.018632
-5.976110 9.695202 0.018460
-5.660760 9.695202 0.018265
-5.345410 9.695202 0.018395
-5.030060 9.695202 0.018236
-4.714710 9.695202 0.017976
-4.399360 9.695202 0.017619
-4.084010 9.695202 0.017318
-3.768660 9.695202 0.017344
-3.453310 9.695202 0.017163
-3.137960 9.695202 0.017373
-2.822610 9.695202 0.017362
-2.507260 9.695202 0.017531
-2.191910 9.695202 0.017923
-1.876560 9.695202 0.017714
-1.561210 9.695202 0.017641
-1.245860 9.695202 0.017569
-0.930510 9.695202 0.017605
-0.615160 9.695202 0.017417
-0.299810 9.695202 0.017208
0.015540 9.695202 0.017306
0.330890 9.695202 0.017470
0.646240 9.695202 0.017620
0.961589 9.695202 0.017293
1.276940 9.695202 0.016935
1.592289 9.695202 0.017059
1.907640 9.695202 0.017166
2.222990 9.695202 0.017456
2.538340 9.695202 0.017308
2.853690 9.695202 0.016992
3.169039 9.695202 0.016969
3.484390 9.695202 0.017322
3.799739 9.695202 0.017475
4.115090 9.695202 0.017247
4.430439 9.695202 0.017138
4.745790 9.695202 0.017823
5.061140 9.695202 0.018067
5.376490 9.695202 0.018247
5.691840 9.695202 0.018560
6.007189 9.695202 0.019836
6.322540 9.695202 0.022392
6.637889 9.695202 0.026650
6.953240 9.695202 0.032793
7.268589 9.695202 0.044869
7.583940 9.695202 0.067537
7.899290 9.695202 0.102173
8.214640 9.695202 0.159180
8.529989 9.695202 0.246584
8.845339 9.695202 0.364709
9.160688 9.695202 0.525564
9.476040 9.695202 0.671690
9.791389 9.695202 0.856863
10.106739 9.695202 1.064353
10.422089 9.695202 1.321705
10.737438 9.695202 1.642129
11.052790 9.695202 2.100080
11.368139 9.695202 2.413224
11.683489 9.695202 2.872236
11.998838 9.695202 3.303045
12.314190 9.695202 3.753410
12.629539 9.695202 4.067658
12.944889 9.695202 4.436956
13.260239 9.695202 4.957778
13.575588 9.695202 5.619370
13.890940 9.695202 6.582521
14.206289 9.695202 7.501143
14.521639 9.695202 8.830265
14.836988 9.695202 11.143070
15.152340 9.695202 16.073803
15.467690 9.695202 0.000000
15.783039 9.695202 0.000000
16.098389 9.695202 0.000000
16.413738 9.695202 0.000000
16.729090 9.695202 0.000000
17.044439 9.695202 0.000000
17.359789 9.695202 0.000000
17.675138 9.695202 0.000000
17.990490 9.695202 151.473587
18.305840 9.695202 149.238510
18.621189 9.695202 150.118530
18.936539 9.695202 0.000000
19.251888 9.695202 0.000000
-7.237510 9.379852 0.000000
-6.922160 9.379852 0.026780
-6.606810 9.379852 0.018537
-6.291460 9.379852 0.017979
-5.976110 9.379852 0.017953
-5.660760 9.379852 0.017802
-5.345410 9.379852 0.017710
-5.030060 9.379852 0.017837
-4.714710 9.379852 0.017700
-4.399360 9.379852 0.017366
-4.084010 9.379852 0.017057
-3.768660 9.379852 0.017182
-3.453310 9.379852 0.017104
-3.137960 9.379852 0.017134
-2.822610 9.379852 0.017098
-2.507260 9.379852 0.017144
-2.191910 9.379852 0.017540
-1.876560 9.379852 0.017498
-1.561210 9.379852 0.017480
-1.245860 9.379852 0.017149
-0.930510 9.379852 0.017064
-0.615160 9.379852 0.016856
-0.299810 9.379852 0.016643
0.015540 9.379852 0.016632
0.330890 9.379852 0.016683
0.646240 9.379852 0.016706
0.961589 9.379852 0.016471
1.276940 9.379852 0.016301
1.592289 9.379852 0.016554
1.907640 9.379852 0.016609
2.222990 9.379852 0.016756
2.538340 9.379852 0.016784
2.853690 9.379852 0.016680
3.169039 9.379852 0.016633
3.484390 9.379852 0.016808
3.799739 9.379852 0.016773
4.115090 9.379852 0.016566
4.430439 9.379852 0.016506
4.745790 9.379852 0.017058
5.061140 9.379852 0.017367
5.376490 9.379852 0.017874
5.691840 9.379852 0.018329
6.007189 9.379852 0.019398
6.322540 9.379852 0.022119
6.637889 9.379852 0.026297
6.953240 9.379852 0.033052
7.268589 9.379852 0.044393
7.583940 9.379852 0.066749
7.899290 9.379852 0.104710
8.214640 9.379852 0.166938
8.529989 9.379852 0.258228
8.845339 9.379852 0.376123
9.160688 9.379852 0.516940
9.476040 9.379852 0.699427
9.791389 9.379852 0.843897
10.106739 9.379852 1.061644
10.422089 9.379852 1.318552
10.737438 9.379852 1.660590
11.052790 9.379852 2.105481
11.368139 9.379852 2.528742
11.683489 9.379852 2.969319
11.998838 9.379852 3.374715
12.314190 9.379852 3.686675
12.629539 9.379852 4.077488
12.944889 9.379852 4.406525
13.260239 9.379852 5.071573
13.575588 9.379852 5.574499
13.890940 9.379852 6.301922
14.206289 9.379852 7.360531
14.521639 9.379852 8.811588
14.836988 9.379852 11.420131
15.152340 9.379852 15.912971
15.467690 9.379852 0.000000
15.783039 9.379852 0.000000
16.098389 9.379852 0.000000
16.413738 9.379852 0.000000
16.729090 9.379852 0.000000
17.044439 9.379852 0.000000
17.359789 9.379852 0.000000
17.675138 9.379852 0.000000
17.990490 9.379852 148.902771
18.305840 9.379852 146.824677
18.621189 9.379852 149.263260
18.936539 9.379852 0.000000
19.251888 9.379852 0.000000
-7.237510 9.064503 0.000000
-6.922160 9.064503 0.025801
-6.606810 9.064503 0.017799
-6.291460 9.064503 0.017387
-5.976110 9.064503 0.017529
-5.660760 9.064503 0.017372
-5.345410 9.064503 0.017284
-5.030060 9.064503 0.017264
-4.714710 9.064503 0.017220
-4.399360 9.064503 0.017123
-4.084010 9.064503 0.016859
-3.768660 9.064503 0.017102
-3.453310 9.064503 0.016874
-3.137960 9.064503 0.016844
-2.822610 9.064503 0.016683
-2.507260 9.064503 0.016723
-2.191910 9.064503 0.016913
-1.876560 9.064503 0.017079
-1.561210 9.064503 0.017074
-1.245860 9.064503 0.016462
-0.930510 9.064503 0.016438
-0.615160 9.064503 0.016135
-0.299810 9.064503 0.016012
0.015540 9.064503 0.015949
0.330890 9.064503 0.016092
0.646240 9.064503 0.016024
0.961589 9.064503 0.015811
1.276940 9.064503 0.015928
1.592289 9.064503 0.016040
1.907640 9.064503 0.016132
2.222990 9.064503 0.016043
2.538340 9.064503 0.016051
2.853690 9.064503 0.016105
3.169039 9.064503 0.016146
3.484390 9.064503 0.016193
3.799739 9.064503 0.015987
4.115090 9.064503 0.015709
4.430439 9.064503 0.015796
4.745790 9.064503 0.016379
5.061140 9.064503 0.016771
5.376490 9.064503 0.017422
5.691840 9.064503 0.018089
6.007189 9.064503 0.019431
6.322540 9.064503 0.022366
6.637889 9.064503 0.026656
6.953240 9.064503 0.033227
7.268589 9.064503 0.044646
7.583940 9.064503 0.067318
7.899290 9.064503 0.103640
8.214640 9.064503 0.165589
8.529989 9.064503 0.263313
8.845339 9.064503 0.378045
9.160688 9.064503 0.528432
9.476040 9.064503 0.698974
9.791389 9.064503 0.885485
10.106739 9.064503 1.123926
10.422089 9.064503 1.418712
10.737438 9.064503 1.718708
11.052790 9.064503 2.047336
11.368139 9.064503 2.464495
11.683489 9.064503 3.025435
11.998838 9.064503 3.481645
12.314190 9.064503 3.836997
12.629539 9.064503 4.241176
12.944889 9.064503 4.566565
13.260239 9.064503 4.935886
13.575588 9.064503 5.575929
13.890940 9.064503 6.199891
14.206289 9.064503 7.291175
14.521639 9.064503 9.012425
14.836988 9.064503 11.105597
15.152340 9.064503 16.236153
15.467690 9.064503 0.000000
15.783039 9.064503 0.000000
16.098389 9.064503 0.000000
16.413738 9.064503 0.000000
16.729090 9.064503 0.000000
17.044439 9.064503 0.000000
17.359789 9.064503 0.000000
17.675138 9.064503 0.000000
17.990490 9.064503 146.902573
18.305840 9.064503 145.668320
18.621189 9.064503 151.909729
18.936539 9.064503 0.000000
19.251888 9.064503 0.000000
-7.237510 8.749149 0.000000
-6.922160 8.749149 0.025062
-6.606810 8.749149 0.017552
-6.291460 8.749149 0.016929
-5.976110 8.749149 0.017084
-5.660760 8.749149 0.016908
-5.345410 8.749149 0.016769
-5.030060 8.749149 0.016638
-4.714710 8.749149 0.016535
-4.399360 8.749149 0.016727
-4.084010 8.749149 0.016620
-3.768660 8.749149 0.016711
-3.453310 8.749149 0.016477
-3.137960 8.749149 0.016485
-2.822610 8.749149 0.016287
-2.507260 8.749149 0.016080
-2.191910 8.749149 0.016123
-1.876560 8.749149 0.016386
-1.561210 8.749149 0.016433
-1.245860 8.749149 0.015835
-0.930510 8.749149 0.015882
-0.615160 8.749149 0.015707
-0.299810 8.749149 0.015553
0.015540 8.749149 0.015665
0.330890 8.749149 0.015536
0.646240 8.749149 0.015472
0.961589 8.749149 0.015469
1.276940 8.749149 0.015437
1.592289 8.749149 0.015324
1.907640 8.749149 0.015352
2.222990 8.749149 0.015375
2.538340 8.749149 0.015404
2.853690 8.749149 0.015502
3.169039 8.749149 0.015417
3.484390 8.749149 0.015308
3.799739 8.749149 0.015198
4.115090 8.749149 0.015011
4.430439 8.749149 0.015440
4.745790 8.749149 0.016267
5.061140 8.749149 0.016568
5.376490 8.749149 0.016978
5.691840 8.749149 0.017879
6.007189 8.749149 0.019653
6.322540 8.749149 0.022625
6.637889 8.749149 0.026764
6.953240 8.749149 0.034089
7.268589 8.749149 0.046453
7.583940 8.749149 0.068172
7.899290 8.749149 0.105725
8.214640 8.749149 0.167598
8.529989 8.749149 0.272154
8.845339 8.749149 0.388549
9.160688 8.749149 0.525929
9.476040 8.749149 0.718077
9.791389 8.749149 0.903191
10.106739 8.749149 1.178516
10.422089 8.749149 1.470054
10.737438 8.749149 1.746046
11.052790 8.749149 2.039680
11.368139 8.749149 2.396717
11.683489 8.749149 2.911075
11.998838 8.749149 3.451309
12.314190 8.749149 3.843786
12.629539 8.749149 4.230627
12.944889 8.749149 4.672541
13.260239 8.749149 5.041903
13.575588 8.749149 5.572431
13.890940 8.749149 6.214208
14.206289 8.749149 7.088649
14.521639 8.749149 8.702802
14.836988 8.749149 11.829654
15.152340 8.749149 16.068014
15.467690 8.749149 0.000000
15.783039 8.749149 0.000000
16.098389 8.749149 0.000000
16.413738 8.749149 0.000000
16.729090 8.749149 0.000000
17.044439 8.749149 0.000000
17.359789 8.749149 0.000000
17.675138 8.749149 0.000000
17.990490 8.749149 152.112442
18.305840 8.749149 149.577545
18.621189 8.749149 155.597519
18.936539 8.749149 0.000000
19.251888 8.749149 0.000000
-7.237510 8.433800 0.000000
-6.922160 8.433800 0.024346
-6.606810 8.433800 0.017084
-6.291460 8.433800 0.016548
-5.976110 8.433800 0.016522
-5.660760 8.433800 0.016419
-5.345410 8.433800 0.016341
-5.030060 8.433800 0.016114
-4.714710 8.433800 0.016000
-4.399360 8.433800 0.016224
-4.084010 8.433800 0.016220
-3.768660 8.433800 0.016095
-3.453310 8.433800 0.016002
-3.137960 8.433800 0.015938
-2.822610 8.433800 0.015857
-2.507260 8.433800 0.015510
-2.191910 8.433800 0.015431
-1.876560 8.433800 0.015736
-1.561210 8.433800 0.015764
-1.245860 8.433800 0.015254
-0.930510 8.433800 0.015353
-0.615160 8.433800 0.015319
-0.299810 8.433800 0.015528
0.015540 8.433800 0.015631
0.330890 8.433800 0.015191
0.646240 8.433800 0.015035
0.961589 8.433800 0.014846
1.276940 8.433800 0.014780
1.592289 8.433800 0.014402
1.907640 8.433800 0.014593
2.222990 8.433800 0.014799
2.538340 8.433800 0.014785
2.853690 8.433800 0.014930
3.169039 8.433800 0.014840
3.484390 8.433800 0.014725
3.799739 8.433800 0.014733
4.115090 8.433800 0.014763
4.430439 8.433800 0.015196
4.745790 8.433800 0.015965
5.061140 8.433800 0.016465
5.376490 8.433800 0.016655
5.691840 8.433800 0.017959
6.007189 8.433800 0.020118
6.322540 8.433800 0.022667
6.637889 8.433800 0.026660
6.953240 8.433800 0.034754
7.268589 8.433800 0.048630
7.583940 8.433800 0.069167
7.899290 8.433800 0.108393
8.214640 8.433800 0.180035
8.529989 8.433800 0.281911
8.845339 8.433800 0.390233
9.160688 8.433800 0.535427
9.476040 8.433800 0.721231
9.791389 8.433800 0.934355
10.106739 8.433800 1.184885
10.422089 8.433800 1.464413
10.737438 8.433800 1.715724
11.052790 8.433800 2.074008
11.368139 8.433800 2.358114
11.683489 8.433800 2.918730
11.998838 8.433800 3.445491
12.314190 8.433800 4.127046
12.629539 8.433800 4.358508
12.944889 8.433800 4.712214
13.260239 8.433800 4.878522
13.575588 8.433800 5.234994
13.890940 8.433800 6.029018
14.206289 8.433800 7.035594
14.521639 8.433800 8.425564
14.836988 8.433800 12.082273
15.152340 8.433800 17.460274
15.467690 8.433800 0.000000
15.783039 8.433800 0.000000
16.098389 8.433800 0.000000
16.413738 8.433800 0.000000
16.729090 8.433800 0.000000
17.044439 8.433800 0.000000
17.359789 8.433800 0.000000
17.675138 8.433800 0.000000
17.990490 8.433800 152.470566
18.305840 8.433800 150.661209
18.621189 8.433800 160.679718
18.936539 8.433800 0.000000
19.251888 8.433800 0.000000
-7.237510 8.118450 0.000000
-6.922160 8.118450 0.023233
-6.606810 8.118450 0.016565
-6.291460 8.118450 0.016070
-5.976110 8.118450 0.016133
-5.660760 8.118450 0.016068
-5.345410 8.118450 0.015961
-5.030060 8.118450 0.015950
-4.714710 8.118450 0.015636
-4.399360 8.118450 0.015711
-4.084010 8.118450 0.015448
-3.768660 8.118450 0.015399
-3.453310 8.118450 0.015397
-3.137960 8.118450 0.015442
-2.822610 8.118450 0.015389
-2.507260 8.118450 0.015081
-2.191910 8.118450 0.014926
-1.876560 8.118450 0.015259
-1.561210 8.118450 0.015342
-1.245860 8.118450 0.014826
-0.930510 8.118450 0.014902
-0.615160 8.118450 0.014869
-0.299810 8.118450 0.015291
0.015540 8.118450 0.015335
0.330890 8.118450 0.014960
0.646240 8.118450 0.014436
0.961589 8.118450 0.014198
1.276940 8.118450 0.014144
1.592289 8.118450 0.013679
1.907640 8.118450 0.013932
2.222990 8.118450 0.014328
2.538340 8.118450 0.014224
2.853690 8.118450 0.014371
3.169039 8.118450 0.014337
3.484390 8.118450 0.014265
3.799739 8.118450 0.014393
4.115090 8.118450 0.014572
4.430439 8.118450 0.014824
4.745790 8.118450 0.015613
5.061140 8.118450 0.016263
5.376490 8.118450 0.016527
5.691840 8.118450 0.017965
6.007189 8.118450 0.020102
6.322540 8.118450 0.022804
6.637889 8.118450 0.027160
6.953240 8.118450 0.034767
7.268589 8.118450 0.049294
7.583940 8.118450 0.072676
7.899290 8.118450 0.112807
8.214640 8.118450 0.184521
8.529989 8.118450 0.276392
8.845339 8.118450 0.392007
9.160688 8.118450 0.545669
9.476040 8.118450 0.727685
9.791389 8.118450 0.927953
10.106739 8.118450 1.210644
10.422089 8.118450 1.517524
10.737438 8.118450 1.773197
11.052790 8.118450 2.059279
11.368139 8.118450 2.416306
11.683489 8.118450 2.927849
11.998838 8.118450 3.472976
12.314190 8.118450 3.886137
12.629539 8.118450 4.398656
12.944889 8.118450 4.559004
13.260239 8.118450 4.887427
13.575588 8.118450 5.395629
13.890940 8.118450 5.963473
14.206289 8.118450 7.015075
14.521639 8.118450 8.574101
14.836988 8.118450 12.204097
15.152340 8.118450 18.389559
15.467690 8.118450 0.000000
15.783039 8.118450 0.000000
16.098389 8.118450 0.000000
16.413738 8.118450 0.000000
16.729090 8.118450 0.000000
17.044439 8.118450 0.000000
17.359789 8.118450 0.000000
17.675138 8.118450 0.000000
17.990490 8.118450 149.513351
18.305840 8.118450 150.103607
18.621189 8.118450 159.201447
18.936539 8.118450 0.000000
19.251888 8.118450 0.000000
-7.237510 7.803101 0.000000
-6.922160 7.803101 0.022055
-6.606810 7.803101 0.015913
-6.291460 7.803101 0.015623
-5.976110 7.803101 0.015713
-5.660760 7.803101 0.015707
-5.345410 7.803101 0.015777
-5.030060 7.803101 0.015700
-4.714710 7.803101 0.015258
-4.399360 7.803101 0.015149
-4.084010 7.803101 0.014836
-3.768660 7.803101 0.014816
-3.453310 7.803101 0.015041
-3.137960 7.803101 0.014966
-2.822610 7.803101 0.014798
-2.507260 7.803101 0.014680
-2.191910 7.803101 0.014687
-1.876560 7.803101 0.014953
-1.561210 7.803101 0.014837
-1.245860 7.803101 0.014653
-0.930510 7.803101 0.014431
-0.615160 7.803101 0.014325
-0.299810 7.803101 0.014662
0.015540 7.803101 0.014713
0.330890 7.803101 0.014300
0.646240 7.803101 0.013964
0.961589 7.803101 0.013665
1.276940 7.803101 0.013534
1.592289 7.803101 0.013176
1.907640 7.803101 0.013551
2.222990 7.803101 0.013962
2.538340 7.803101 0.013842
2.853690 7.803101 0.013863
3.169039 7.803101 0.013879
3.484390 7.803101 0.013834
3.799739 7.803101 0.013929
4.115090 7.803101 0.014071
4.430439 7.803101 0.014496
4.745790 7.803101 0.015248
5.061140 7.803101 0.015996
5.376490 7.803101 0.016495
5.691840 7.803101 0.017644
6.007189 7.803101 0.019903
6.322540 7.803101 0.022768
6.637889 7.803101 0.027807
6.953240 7.803101 0.035671
7.268589 7.803101 0.049674
7.583940 7.803101 0.075768
7.899290 7.803101 0.120440
8.214640 7.803101 0.189243
8.529989 7.803101 0.281920
8.845339 7.803101 0.412282
9.160688 7.803101 0.556780
9.476040 7.803101 0.746242
9.791389 7.803101 0.943299
10.106739 7.803101 1.172872
10.422089 7.803101 1.502922
10.737438 7.803101 1.808627
11.052790 7.803101 2.065142
11.368139 7.803101 2.455774
11.683489 7.803101 3.002131
11.998838 7.803101 3.280887
12.314190 7.803101 3.922139
12.629539 7.803101 4.266551
12.944889 7.803101 4.539682
13.260239 7.803101 4.996079
13.575588 7.803101 5.505473
13.890940 7.803101 6.223066
14.206289 7.803101 6.949809
14.521639 7.803101 9.235933
14.836988 7.803101 12.970024
15.152340 7.803101 18.324982
15.467690 7.803101 0.000000
15.783039 7.803101 0.000000
16.098389 7.803101 0.000000
16.413738 7.803101 0.000000
16.729090 7.803101 0.000000
17.044439 7.803101 0.000000
17.359789 7.803101 0.000000
17.675138 7.803101 0.000000
17.990490 7.803101 145.733109
18.305840 7.803101 145.924286
18.621189 7.803101 154.654846
18.936539 7.803101 0.000000
19.251888 7.803101 0.000000
-7.237510 7.487751 0.000000
-6.922160 7.487751 0.021277
-6.606810 7.487751 0.015126
-6.291460 7.487751 0.015103
-5.976110 7.487751 0.015154
-5.660760 7.487751 0.015223
-5.345410 7.487751 0.015303
-5.030060 7.487751 0.015182
-4.714710 7.487751 0.014850
-4.399360 7.487751 0.014627
-4.084010 7.487751 0.014391
-3.768660 7.487751 0.014552
-3.453310 7.487751 0.014780
-3.137960 7.487751 0.014594
-2.822610 7.487751 0.014186
-2.507260 7.487751 0.014182
-2.191910 7.487751 0.014495
-1.876560 7.487751 0.014711
-1.561210 7.487751 0.014473
-1.245860 7.487751 0.014276
-0.930510 7.487751 0.014135
-0.615160 7.487751 0.013868
-0.299810 7.487751 0.014011
0.015540 7.487751 0.014029
0.330890 7.487751 0.013848
0.646240 7.487751 0.013610
0.961589 7.487751 0.013357
1.276940 7.487751 0.013319
1.592289 7.487751 0.012993
1.907640 7.487751 0.013238
2.222990 7.487751 0.013531
2.538340 7.487751 0.013274
2.853690 7.487751 0.013134
3.169039 7.487751 0.013192
3.484390 7.487751 0.013237
3.799739 7.487751 0.013367
4.115090 7.487751 0.013669
4.430439 7.487751 0.014386
4.745790 7.487751 0.015223
5.061140 7.487751 0.015955
5.376490 7.487751 0.016469
5.691840 7.487751 0.017489
6.007189 7.487751 0.019826
6.322540 7.487751 0.022883
6.637889 7.487751 0.028351
6.953240 7.487751 0.037342
7.268589 7.487751 0.050970
7.583940 7.487751 0.077560
7.899290 7.487751 0.122576
8.214640 7.487751 0.188892
8.529989 7.487751 0.288687
8.845339 7.487751 0.418163
9.160688 7.487751 0.576966
9.476040 7.487751 0.751506
9.791389 7.487751 0.950394
10.106739 7.487751 1.214043
10.422089 7.487751 1.555821
10.737438 7.487751 1.834909
11.052790 7.487751 2.103042
11.368139 7.487751 2.482744
11.683489 7.487751 2.979344
11.998838 7.487751 3.309678
12.314190 7.487751 3.873995
12.629539 7.487751 4.399584
12.944889 7.487751 4.575874
13.260239 7.487751 4.825627
13.575588 7.487751 5.552565
13.890940 7.487751 6.308419
14.206289 7.487751 7.122107
14.521639 7.487751 9.841785
14.836988 7.487751 13.749984
15.152340 7.487751 18.875380
15.467690 7.487751 0.000000
15.783039 7.487751 0.000000
16.098389 7.487751 0.000000
16.413738 7.487751 0.000000
16.729090 7.487751 0.000000
17.044439 7.487751 0.000000
17.359789 7.487751 0.000000
17.675138 7.487751 0.000000
17.990490 7.487751 142.695618
18.305840 7.487751 143.074066
18.621189 7.487751 152.047012
18.936539 7.487751 0.000000
19.251888 7.487751 0.000000
-7.237510 7.172401 0.000000
-6.922160 7.172401 0.020446
-6.606810 7.172401 0.014485
-6.291460 7.172401 0.014521
-5.976110 7.172401 0.014680
-5.660760 7.172401 0.014438
-5.345410 7.172401 0.014469
-5.030060 7.172401 0.014636
-4.714710 7.172401 0.014328
-4.399360 7.172401 0.014163
-4.084010 7.172401 0.014204
-3.768660 7.172401 0.014544
-3.453310 7.172401 0.014466
-3.137960 7.172401 0.014214
-2.822610 7.172401 0.013579
-2.507260 7.172401 0.013649
-2.191910 7.172401 0.014000
-1.876560 7.172401 0.014170
-1.561210 7.172401 0.014102
-1.245860 7.172401 0.014061
-0.930510 7.172401 0.013936
-0.615160 7.172401 0.013595
-0.299810 7.172401 0.013605
0.015540 7.172401 0.013632
0.330890 7.172401 0.013543
0.646240 7.172401 0.013319
0.961589 7.172401 0.013189
1.276940 7.172401 0.013060
1.592289 7.172401 0.012809
1.907640 7.172401 0.012865
2.222990 7.172401 0.012989
2.538340 7.172401 0.012766
2.853690 7.172401 0.012513
3.169039 7.172401 0.012663
3.484390 7.172401 0.012803
3.799739 7.172401 0.013069
4.115090 7.172401 0.013529
4.430439 7.172401 0.014434
4.745790 7.172401 0.015266
5.061140 7.172401 0.015847
5.376490 7.172401 0.016502
5.691840 7.172401 0.017607
6.007189 7.172401 0.019877
6.322540 7.172401 0.023102
6.637889 7.172401 0.028766
6.953240 7.172401 0.038061
7.268589 7.172401 0.050454
7.583940 7.172401 0.078090
7.899290 7.172401 0.121209
8.214640 7.172401 0.196048
8.529989 7.172401 0.295721
8.845339 7.172401 0.425320
9.160688 7.172401 0.584766
9.476040 7.172401 0.753534
9.791389 7.172401 0.965647
10.106739 7.172401 1.193782
10.422089 7.172401 1.567149
10.737438 7.172401 1.828145
11.052790 7.172401 2.129106
11.368139 7.172401 2.561292
11.683489 7.172401 2.917561
11.998838 7.172401 3.287149
12.314190 7.172401 3.756726
12.629539 7.172401 4.300141
12.944889 7.172401 4.567784
13.260239 7.172401 4.896565
13.575588 7.172401 5.713272
13.890940 7.172401 6.578967
14.206289 7.172401 7.876976
14.521639 7.172401 9.762349
14.836988 7.172401 13.453962
15.152340 7.172401 18.909559
15.467690 7.172401 0.000000
15.783039 7.172401 0.000000
16.098389 7.172401 0.000000
16.413738 7.172401 0.000000
16.729090 7.172401 0.000000
17.044439 7.172401 0.000000
17.359789 7.172401 0.000000
17.675138 7.172401 0.000000
17.990490 7.172401 137.805038
18.305840 7.172401 140.496323
18.621189 7.172401 144.754379
18.936539 7.172401 0.000000
19.251888 7.172401 0.000000
-7.237510 6.857052 0.000000
-6.922160 6.857052 0.019745
-6.606810 6.857052 0.014118
-6.291460 6.857052 0.014013
-5.976110 6.857052 0.014063
-5.660760 6.857052 0.013916
-5.345410 6.857052 0.013960
-5.030060 6.857052 0.014326
-4.714710 6.857052 0.014083
-4.399360 6.857052 0.013829
-4.084010 6.857052 0.013982
-3.768660 6.857052 0.014310
-3.453310 6.857052 0.014149
-3.137960 6.857052 0.013944
-2.822610 6.857052 0.013176
-2.507260 6.857052 0.013259
-2.191910 6.857052 0.013659
-1.876560 6.857052 0.013826
-1.561210 6.857052 0.013964
-1.245860 6.857052 0.014062
-0.930510 6.857052 0.013804
-0.615160 6.857052 0.013441
-0.299810 6.857052 0.013593
0.015540 6.857052 0.013454
0.330890 6.857052 0.013242
0.646240 6.857052 0.013098
0.961589 6.857052 0.012807
1.276940 6.857052 0.012657
1.592289 6.857052 0.012545
1.907640 6.857052 0.012491
2.222990 6.857052 0.012596
2.538340 6.857052 0.012633
2.853690 6.857052 0.012419
3.169039 6.857052 0.012632
3.484390 6.857052 0.012875
3.799739 6.857052 0.013091
4.115090 6.857052 0.013574
4.430439 6.857052 0.014399
4.745790 6.857052 0.015156
5.061140 6.857052 0.015559
5.376490 6.857052 0.016442
5.691840 6.857052 0.017733
6.007189 6.857052 0.019913
6.322540 6.857052 0.023351
6.637889 6.857052 0.028768
6.953240 6.857052 0.037809
7.268589 6.857052 0.053396
7.583940 6.857052 0.082318
7.899290 6.857052 0.127380
8.214640 6.857052 0.200022
8.529989 6.857052 0.304261
8.845339 6.857052 0.433161
9.160688 6.857052 0.587318
9.476040 6.857052 0.781430
9.791389 6.857052 0.982549
10.106739 6.857052 1.257040
10.422089 6.857052 1.523419
10.737438 6.857052 1.897006
11.052790 6.857052 2.212564
11.368139 6.857052 2.583825
11.683489 6.857052 2.994288
11.998838 6.857052 3.349310
12.314190 6.857052 3.786775
12.629539 6.857052 4.254763
12.944889 6.857052 4.615726
13.260239 6.857052 5.192571
13.575588 6.857052 5.808573
13.890940 6.857052 6.900964
14.206289 6.857052 8.615157
14.521639 6.857052 10.234440
14.836988 6.857052 13.034306
15.152340 6.857052 18.639301
15.467690 6.857052 0.000000
15.783039 6.857052 0.000000
16.098389 6.857052 0.000000
16.413738 6.857052 0.000000
16.729090 6.857052 0.000000
17.044439 6.857052 0.000000
17.359789 6.857052 0.000000
17.675138 6.857052 0.000000
17.990490 6.857052 134.164963
18.305840 6.857052 130.869293
18.621189 6.857052 135.131729
18.936539 6.857052 0.000000
19.251888 6.857052 0.000000
-7.237510 6.541702 0.000000
-6.922160 6.541702 0.019077
-6.606810 6.541702 0.013827
-6.291460 6.541702 0.013834
-5.976110 6.541702 0.013753
-5.660760 6.541702 0.013648
-5.345410 6.541702 0.013780
-5.030060 6.541702 0.014127
-4.714710 6.541702 0.013970
-4.399360 6.541702 0.013860
-4.084010 6.541702 0.013891
-3.768660 6.541702 0.013905
-3.453310 6.541702 0.013901
-3.137960 6.541702 0.013801
-2.822610 6.541702 0.013325
-2.507260 6.541702 0.013318
-2.191910 6.541702 0.013523
-1.876560 6.541702 0.013690
-1.561210 6.541702 0.013908
-1.245860 6.541702 0.013954
-0.930510 6.541702 0.013556
-0.615160 6.541702 0.013492
-0.299810 6.541702 0.013493
0.015540 6.541702 0.013122
0.330890 6.541702 0.012852
0.646240 6.541702 0.012768
0.961589 6.541702 0.012433
1.276940 6.541702 0.012272
1.592289 6.541702 0.012388
1.907640 6.541702 0.012343
2.222990 6.541702 0.012477
2.538340 6.541702 0.012735
2.853690 6.541702 0.012769
3.169039 6.541702 0.012809
3.484390 6.541702 0.012924
3.799739 6.541702 0.013135
4.115090 6.541702 0.013427
4.430439 6.541702 0.014113
4.745790 6.541702 0.014674
5.061140 6.541702 0.015179
5.376490 6.541702 0.016104
5.691840 6.541702 0.017675
6.007189 6.541702 0.020303
6.322540 6.541702 0.023839
6.637889 6.541702 0.029688
6.953240 6.541702 0.039734
7.268589 6.541702 0.055600
7.583940 6.541702 0.086742
7.899290 6.541702 0.132461
8.214640 6.541702 0.208911
8.529989 6.541702 0.316195
8.845339 6.541702 0.446014
9.160688 6.541702 0.601381
9.476040 6.541702 0.794008
9.791389 6.541702 0.977719
10.106739 6.541702 1.270859
10.422089 6.541702 1.575057
10.737438 6.541702 1.873542
11.052790 6.541702 2.294154
11.368139 6.541702 2.738616
11.683489 6.541702 3.031934
11.998838 6.541702 3.400740
12.314190 6.541702 3.783167
12.629539 6.541702 4.270486
12.944889 6.541702 4.657906
13.260239 6.541702 5.071227
13.575588 6.541702 5.731898
13.890940 6.541702 7.046577
14.206289 6.541702 8.692845
14.521639 6.541702 10.229846
14.836988 6.541702 13.579165
15.152340 6.541702 18.557032
15.467690 6.541702 0.000000
15.783039 6.541702 0.000000
16.098389 6.541702 0.000000
16.413738 6.541702 0.000000
16.729090 6.541702 0.000000
17.044439 6.541702 0.000000
17.359789 6.541702 0.000000
17.675138 6.541702 0.000000
17.990490 6.541702 118.694389
18.305840 6.541702 115.828819
18.621189 6.541702 124.802727
18.936539 6.541702 0.000000
19.251888 6.541702 0.000000
-7.237510 6.226353 0.000000
-6.922160 6.226353 0.018675
-6.606810 6.226353 0.013612
-6.291460 6.226353 0.013628
-5.976110 6.226353 0.013628
-5.660760 6.226353 0.013510
-5.345410 6.226353 0.013684
-5.030060 6.226353 0.013774
-4.714710 6.226353 0.013720
-4.399360 6.226353 0.013962
-4.084010 6.226353 0.013873
-3.768660 6.226353 0.013571
-3.453310 6.226353 0.013754
-3.137960 6.226353 0.013788
-2.822610 6.226353 0.013471
-2.507260 6.226353 0.013437
-2.191910 6.226353 0.013356
-1.876560 6.226353 0.013428
-1.561210 6.226353 0.013656
-1.245860 6.226353 0.013557
-0.930510 6.226353 0.013222
-0.615160 6.226353 0.013171
-0.299810 6.226353 0.013130
0.015540 6.226353 0.012910
0.330890 6.226353 0.012701
0.646240 6.226353 0.012667
0.961589 6.226353 0.012411
1.276940 6.226353 0.012317
1.592289 6.226353 0.012458
1.907640 6.226353 0.012401
2.222990 6.226353 0.012314
2.538340 6.226353 0.012708
2.853690 6.226353 0.012951
3.169039 6.226353 0.012914
3.484390 6.226353 0.012871
3.799739 6.226353 0.013084
4.115090 6.226353 0.013306
4.430439 6.226353 0.013659
4.745790 6.226353 0.014505
5.061140 6.226353 0.015208
5.376490 6.226353 0.016217
5.691840 6.226353 0.017764
6.007189 6.226353 0.020846
6.322540 6.226353 0.024532
6.637889 6.226353 0.031108
6.953240 6.226353 0.041511
7.268589 6.226353 0.063055
7.583940 6.226353 0.090547
7.899290 6.226353 0.148322
8.214640 6.226353 0.219145
8.529989 6.226353 0.316350
8.845339 6.226353 0.448975
9.160688 6.226353 0.611394
9.476040 6.226353 0.810461
9.791389 6.226353 1.016398
10.106739 6.226353 1.277331
10.422089 6.226353 1.558672
10.737438 6.226353 1.888514
11.052790 6.226353 2.296327
11.368139 6.226353 2.774427
11.683489 6.226353 3.166005
11.998838 6.226353 3.516593
12.314190 6.226353 3.792724
12.629539 6.226353 4.251452
12.944889 6.226353 4.683142
13.260239 6.226353 5.233476
13.575588 6.226353 5.663863
13.890940 6.226353 6.707924
14.206289 6.226353 8.213976
14.521639 6.226353 10.310270
14.836988 6.226353 13.973827
15.152340 6.226353 19.362286
15.467690 6.226353 0.000000
15.783039 6.226353 0.000000
16.098389 6.226353 0.000000
16.413738 6.226353 0.000000
16.729090 6.226353 0.000000
17.044439 6.226353 0.000000
17.359789 6.226353 0.000000
17.675138 6.226353 0.000000
17.990490 6.226353 99.660133
18.305840 6.226353 100.764481
18.621189 6.226353 112.315239
18.936539 6.226353 0.000000
19.251888 6.226353 0.000000
-7.237510 5.910999 0.000000
-6.922160 5.910999 0.018146
-6.606810 5.910999 0.013335
-6.291460 5.910999 0.013436
-5.976110 5.910999 0.013501
-5.660760 5.910999 0.013374
-5.345410 5.910999 0.013443
-5.030060 5.910999 0.013412
-4.714710 5.910999 0.013426
-4.399360 5.910999 0.013827
-4.084010 5.910999 0.013650
-3.768660 5.910999 0.013349
-3.453310 5.910999 0.013677
-3.137960 5.910999 0.013713
-2.822610 5.910999 0.013368
-2.507260 5.910999 0.013239
-2.191910 5.910999 0.013133
-1.876560 5.910999 0.013169
-1.561210 5.910999 0.013213
-1.245860 5.910999 0.013091
-0.930510 5.910999 0.012859
-0.615160 5.910999 0.012823
-0.299810 5.910999 0.012930
0.015540 5.910999 0.012805
0.330890 5.910999 0.012862
0.646240 5.910999 0.012855
0.961589 5.910999 0.012523
1.276940 5.910999 0.012488
1.592289 5.910999 0.012487
1.907640 5.910999 0.012362
2.222990 5.910999 0.012186
2.538340 5.910999 0.012503
2.853690 5.910999 0.012878
3.169039 5.910999 0.012695
3.484390 5.910999 0.012769
3.799739 5.910999 0.013257
4.115090 5.910999 0.013430
4.430439 5.910999 0.013758
4.745790 5.910999 0.014818
5.061140 5.910999 0.015564
5.376490 5.910999 0.016434
5.691840 5.910999 0.018173
6.007189 5.910999 0.021021
6.322540 5.910999 0.024541
6.637889 5.910999 0.031208
6.953240 5.910999 0.043013
7.268589 5.910999 0.062947
7.583940 5.910999 0.094716
7.899290 5.910999 0.153646
8.214640 5.910999 0.228137
8.529989 5.910999 0.329712
8.845339 5.910999 0.450113
9.160688 5.910999 0.616059
9.476040 5.910999 0.818259
9.791389 5.910999 1.053796
10.106739 5.910999 1.295265
10.422089 5.910999 1.638145
10.737438 5.910999 1.924902
11.052790 5.910999 2.432303
11.368139 5.910999 2.845508
11.683489 5.910999 3.221512
11.998838 5.910999 3.596429
12.314190 5.910999 3.837582
12.629539 5.910999 4.241151
12.944889 5.910999 4.608125
13.260239 5.910999 5.447014
13.575588 5.910999 6.114739
13.890940 5.910999 6.737910
14.206289 5.910999 8.278321
14.521639 5.910999 10.652649
14.836988 5.910999 14.034007
15.152340 5.910999 18.981035
15.467690 5.910999 0.000000
15.783039 5.910999 0.000000
16.098389 5.910999 0.000000
16.413738 5.910999 0.000000
16.729090 5.910999 0.000000
17.044439 5.910999 0.000000
17.359789 5.910999 0.000000
17.675138 5.910999 0.000000
17.990490 5.910999 82.137428
18.305840 5.910999 86.753090
18.621189 5.910999 104.728859
18.936539 5.910999 0.000000
19.251888 5.910999 0.000000
-7.237510 5.595650 0.000000
-6.922160 5.595650 0.017589
-6.606810 5.595650 0.013038
-6.291460 5.595650 0.013191
-5.976110 5.595650 0.013206
-5.660760 5.595650 0.013190
-5.345410 5.595650 0.013254
-5.030060 5.595650 0.013126
-4.714710 5.595650 0.013217
-4.399360 5.595650 0.013502
-4.084010 5.595650 0.013320
-3.768660 5.595650 0.013102
-3.453310 5.595650 0.013420
-3.137960 5.595650 0.013439
-2.822610 5.595650 0.013062
-2.507260 5.595650 0.013032
-2.191910 5.595650 0.013111
-1.876560 5.595650 0.013031
-1.561210 5.595650 0.012987
-1.245860 5.595650 0.012925
-0.930510 5.595650 0.012784
-0.615160 5.595650 0.012849
-0.299810 5.595650 0.012938
0.015540 5.595650 0.012938
0.330890 5.595650 0.012911
0.646240 5.595650 0.012762
0.961589 5.595650 0.012512
1.276940 5.595650 0.012475
1.592289 5.595650 0.012364
1.907640 5.595650 0.012233
2.222990 5.595650 0.012095
2.538340 5.595650 0.012378
2.853690 5.595650 0.012772
3.169039 5.595650 0.012755
3.484390 5.595650 0.012995
3.799739 5.595650 0.013579
4.115090 5.595650 0.013816
4.430439 5.595650 0.014189
4.745790 5.595650 0.015315
5.061140 5.595650 0.015953
5.376490 5.595650 0.016422
5.691840 5.595650 0.018174
6.007189 5.595650 0.020997
6.322540 5.595650 0.024190
6.637889 5.595650 0.030802
6.953240 5.595650 0.043892
7.268589 5.595650 0.063892
7.583940 5.595650 0.097792
7.899290 5.595650 0.154738
8.214640 5.595650 0.237971
8.529989 5.595650 0.337635
8.845339 5.595650 0.464864
9.160688 5.595650 0.660930
9.476040 5.595650 0.862707
9.791389 5.595650 1.085753
10.106739 5.595650 1.357770
10.422089 5.595650 1.626715
10.737438 5.595650 2.010812
11.052790 5.595650 2.357325
11.368139 5.595650 2.767830
11.683489 5.595650 3.124705
11.998838 5.595650 3.645877
12.314190 5.595650 3.950053
12.629539 5.595650 4.164986
12.944889 5.595650 4.743522
13.260239 5.595650 5.540369
13.575588 5.595650 6.150784
13.890940 5.595650 7.104542
14.206289 5.595650 8.296231
14.521639 5.595650 10.857133
14.836988 5.595650 14.063460
15.152340 5.595650 19.136831
15.467690 5.595650 0.000000
15.783039 5.595650 0.000000
16.098389 5.595650 0.000000
16.413738 5.595650 0.000000
16.729090 5.595650 0.000000
17.044439 5.595650 0.000000
17.359789 5.595650 0.000000
17.675138 5.595650 0.000000
17.990490 5.595650 69.872498
18.305840 5.595650 79.706741
18.621189 5.595650 98.418053
18.936539 5.595650 0.000000
19.251888 5.595650 0.000000
-7.237510 5.280300 0.000000
-6.922160 5.280300 0.017214
-6.606810 5.280300 0.012722
-6.291460 5.280300 0.012986
-5.976110 5.280300 0.012986
-5.660760 5.280300 0.012966
-5.345410 5.280300 0.013064
-5.030060 5.280300 0.013005
-4.714710 5.280300 0.013149
-4.399360 5.280300 0.013251
-4.084010 5.280300 0.013179
-3.768660 5.280300 0.013057
-3.453310 5.280300 0.013250
-3.137960 5.280300 0.013335
-2.822610 5.280300 0.012887
-2.507260 5.280300 0.013025
-2.191910 5.280300 0.013256
-1.876560 5.280300 0.013069
-1.561210 5.280300 0.013074
-1.245860 5.280300 0.013170
-0.930510 5.280300 0.013013
-0.615160 5.280300 0.012861
-0.299810 5.280300 0.012969
0.015540 5.280300 0.012918
0.330890 5.280300 0.012651
0.646240 5.280300 0.012413
0.961589 5.280300 0.012296
1.276940 5.280300 0.012341
1.592289 5.280300 0.012256
1.907640 5.280300 0.012223
2.222990 5.280300 0.012165
2.538340 5.280300 0.012412
2.853690 5.280300 0.012858
3.169039 5.280300 0.013092
3.484390 5.280300 0.013260
3.799739 5.280300 0.013658
4.115090 5.280300 0.014005
4.430439 5.280300 0.014523
4.745790 5.280300 0.015422
5.061140 5.280300 0.015899
5.376490 5.280300 0.016531
5.691840 5.280300 0.018215
6.007189 5.280300 0.020879
6.322540 5.280300 0.023750
6.637889 5.280300 0.031791
6.953240 5.280300 0.043993
7.268589 5.280300 0.064834
7.583940 5.280300 0.096529
7.899290 5.280300 0.156342
8.214640 5.280300 0.244706
8.529989 5.280300 0.358132
8.845339 5.280300 0.491329
9.160688 5.280300 0.674053
9.476040 5.280300 0.880545
9.791389 5.280300 1.095114
10.106739 5.280300 1.369850
10.422089 5.280300 1.655394
10.737438 5.280300 2.100897
11.052790 5.280300 2.464357
11.368139 5.280300 2.843200
11.683489 5.280300 3.185509
11.998838 5.280300 3.520657
12.314190 5.280300 3.896503
12.629539 5.280300 4.134251
12.944889 5.280300 4.822312
13.260239 5.280300 5.412325
13.575588 5.280300 6.141244
13.890940 5.280300 7.297031
14.206289 5.280300 8.899510
14.521639 5.280300 11.049325
14.836988 5.280300 14.622709
15.152340 5.280300 19.438068
15.467690 5.280300 0.000000
15.783039 5.280300 0.000000
16.098389 5.280300 0.000000
16.413738 5.280300 0.000000
16.729090 5.280300 0.000000
17.044439 5.280300 0.000000
17.359789 5.280300 0.000000
17.675138 5.280300 0.000000
17.990490 5.280300 61.075047
18.305840 5.280300 73.203461
18.621189 5.280300 91.293365
18.936539 5.280300 0.000000
19.251888 5.280300 0.000000
-7.237510 4.964951 0.000000
-6.922160 4.964951 0.016889
-6.606810 4.964951 0.012537
-6.291460 4.964951 0.012844
-5.976110 4.964951 0.012864
-5.660760 4.964951 0.012721
-5.345410 4.964951 0.012866
-5.030060 4.964951 0.013009
-4.714710 4.964951 0.013151
-4.399360 4.964951 0.013246
-4.084010 4.964951 0.013350
-3.768660 4.964951 0.013283
-3.453310 4.964951 0.013312
-3.137960 4.964951 0.013458
-2.822610 4.964951 0.013169
-2.507260 4.964951 0.013321
-2.191910 4.964951 0.013564
-1.876560 4.964951 0.013171
-1.561210 4.964951 0.013148
-1.245860 4.964951 0.013235
-0.930510 4.964951 0.013167
-0.615160 4.964951 0.012926
-0.299810 4.964951 0.012942
0.015540 4.964951 0.012683
0.330890 4.964951 0.012271
0.646240 4.964951 0.012108
0.961589 4.964951 0.012183
1.276940 4.964951 0.012393
1.592289 4.964951 0.012351
1.907640 4.964951 0.012379
2.222990 4.964951 0.012425
2.538340 4.964951 0.012703
2.853690 4.964951 0.013122
3.169039 4.964951 0.013310
3.484390 4.964951 0.013376
3.799739 4.964951 0.013514
4.115090 4.964951 0.014010
4.430439 4.964951 0.014588
4.745790 4.964951 0.015195
5.061140 4.964951 0.015791
5.376490 4.964951 0.016729
5.691840 4.964951 0.018371
6.007189 4.964951 0.020926
6.322540 4.964951 0.024121
6.637889 4.964951 0.030599
6.953240 4.964951 0.043562
7.268589 4.964951 0.065011
7.583940 4.964951 0.101478
7.899290 4.964951 0.162669
8.214640 4.964951 0.248971
8.529989 4.964951 0.366110
8.845339 4.964951 0.507353
9.160688 4.964951 0.688392
9.476040 4.964951 0.899595
9.791389 4.964951 1.104272
10.106739 4.964951 1.317552
10.422089 4.964951 1.664706
10.737438 4.964951 2.099755
11.052790 4.964951 2.619784
11.368139 4.964951 3.004583
11.683489 4.964951 3.119576
11.998838 4.964951 3.596811
12.314190 4.964951 3.782475
12.629539 4.964951 4.303478
12.944889 4.964951 4.740077
13.260239 4.964951 5.465486
13.575588 4.964951 6.517621
13.890940 4.964951 7.531288
14.206289 4.964951 9.036624
14.521639 4.964951 11.445893
14.836988 4.964951 15.392555
15.152340 4.964951 20.640869
15.467690 4.964951 0.000000
15.783039 4.964951 0.000000
16.098389 4.964951 0.000000
16.413738 4.964951 0.000000
16.729090 4.964951 0.000000
17.044439 4.964951 0.000000
17.359789 4.964951 0.000000
17.675138 4.964951 0.000000
17.990490 4.964951 56.255428
18.305840 4.964951 66.187683
18.621189 4.964951 87.099144
18.936539 4.964951 0.000000
19.251888 4.964951 0.000000
-7.237510 4.649601 0.000000
-6.922160 4.649601 0.016557
-6.606810 4.649601 0.012533
-6.291460 4.649601 0.012838
-5.976110 4.649601 0.012792
-5.660760 4.649601 0.012679
-5.345410 4.649601 0.012850
-5.030060 4.649601 0.013075
-4.714710 4.649601 0.013222
-4.399360 4.649601 0.013552
-4.084010 4.649601 0.013652
-3.768660 4.649601 0.013569
-3.453310 4.649601 0.013567
-3.137960 4.649601 0.013702
-2.822610 4.649601 0.013507
-2.507260 4.649601 0.013560
-2.191910 4.649601 0.013774
-1.876560 4.649601 0.013322
-1.561210 4.649601 0.013054
-1.245860 4.649601 0.013158
-0.930510 4.649601 0.013235
-0.615160 4.649601 0.013132
-0.299810 4.649601 0.013030
0.015540 4.649601 0.012779
0.330890 4.649601 0.012329
0.646240 4.649601 0.012200
0.961589 4.649601 0.012419
1.276940 4.649601 0.012654
1.592289 4.649601 0.012626
1.907640 4.649601 0.012637
2.222990 4.649601 0.012868
2.538340 4.649601 0.013088
2.853690 4.649601 0.013323
3.169039 4.649601 0.013374
3.484390 4.649601 0.013337
3.799739 4.649601 0.013485
4.115090 4.649601 0.014009
4.430439 4.649601 0.014599
4.745790 4.649601 0.015009
5.061140 4.649601 0.015887
5.376490 4.649601 0.017178
5.691840 4.649601 0.018630
6.007189 4.649601 0.021264
6.322540 4.649601 0.025032
6.637889 4.649601 0.031817
6.953240 4.649601 0.044763
7.268589 4.649601 0.065253
7.583940 4.649601 0.105371
7.899290 4.649601 0.170530
8.214640 4.649601 0.261073
8.529989 4.649601 0.371185
8.845339 4.649601 0.506495
9.160688 4.649601 0.703336
9.476040 4.649601 0.894883
9.791389 4.649601 1.097441
10.106739 4.649601 1.374792
10.422089 4.649601 1.706206
10.737438 4.649601 2.119715
11.052790 4.649601 2.580112
11.368139 4.649601 3.010450
11.683489 4.649601 3.250213
11.998838 4.649601 3.511240
12.314190 4.649601 3.875043
12.629539 4.649601 4.275654
12.944889 4.649601 4.906973
13.260239 4.649601 5.478903
13.575588 4.649601 6.317339
13.890940 4.649601 7.505401
14.206289 4.649601 9.804733
14.521639 4.649601 12.693205
14.836988 4.649601 17.312090
15.152340 4.649601 23.147079
15.467690 4.649601 0.000000
15.783039 4.649601 0.000000
16.098389 4.649601 0.000000
16.413738 4.649601 0.000000
16.729090 4.649601 0.000000
17.044439 4.649601 0.000000
17.359789 4.649601 0.000000
17.675138 4.649601 0.000000
17.990490 4.649601 56.699108
18.305840 4.649601 65.514183
18.621189 4.649601 82.590904
18.936539 4.649601 0.000000
19.251888 4.649601 0.000000
-7.237510 4.334251 0.000000
-6.922160 4.334251 0.016417
-6.606810 4.334251 0.012569
-6.291460 4.334251 0.012959
-5.976110 4.334251 0.012839
-5.660760 4.334251 0.012646
-5.345410 4.334251 0.012923
-5.030060 4.334251 0.013099
-4.714710 4.334251 0.013302
-4.399360 4.334251 0.013691
-4.084010 4.334251 0.013680
-3.768660 4.334251 0.013666
-3.453310 4.334251 0.013717
-3.137960 4.334251 0.013910
-2.822610 4.334251 0.013560
-2.507260 4.334251 0.013488
-2.191910 4.334251 0.013662
-1.876560 4.334251 0.013481
-1.561210 4.334251 0.013141
-1.245860 4.334251 0.013132
-0.930510 4.334251 0.013225
-0.615160 4.334251 0.013406
-0.299810 4.334251 0.013144
0.015540 4.334251 0.012980
0.330890 4.334251 0.012622
0.646240 4.334251 0.012555
0.961589 4.334251 0.012645
1.276940 4.334251 0.012741
1.592289 4.334251 0.012696
1.907640 4.334251 0.012847
2.222990 4.334251 0.013121
2.538340 4.334251 0.013410
2.853690 4.334251 0.013559
3.169039 4.334251 0.013294
3.484390 4.334251 0.013267
3.799739 4.334251 0.013625
4.115090 4.334251 0.014163
4.430439 4.334251 0.014602
4.745790 4.334251 0.015157
5.061140 4.334251 0.016238
5.376490 4.334251 0.017436
5.691840 4.334251 0.018893
6.007189 4.334251 0.021572
6.322540 4.334251 0.025553
6.637889 4.334251 0.032462
6.953240 4.334251 0.045158
7.268589 4.334251 0.065858
7.583940 4.334251 0.109713
7.899290 4.334251 0.174673
8.214640 4.334251 0.264899
8.529989 4.334251 0.380421
8.845339 4.334251 0.519342
9.160688 4.334251 0.698887
9.476040 4.334251 0.876944
9.791389 4.334251 1.114553
10.106739 4.334251 1.350779
10.422089 4.334251 1.689158
10.737438 4.334251 2.018816
11.052790 4.334251 2.542781
11.368139 4.334251 2.885672
11.683489 4.334251 3.256173
11.998838 4.334251 3.396939
12.314190 4.334251 3.907414
12.629539 4.334251 4.228939
12.944889 4.334251 5.012936
13.260239 4.334251 5.379797
13.575588 4.334251 6.490356
13.890940 4.334251 7.949996
14.206289 4.334251 9.902200
14.521639 4.334251 13.674150
14.836988 4.334251 20.218346
15.152340 4.334251 27.166351
15.467690 4.334251 0.000000
15.783039 4.334251 0.000000
16.098389 4.334251 0.000000
16.413738 4.334251 0.000000
16.729090 4.334251 0.000000
17.044439 4.334251 0.000000
17.359789 4.334251 0.000000
17.675138 4.334251 0.000000
17.990490 4.334251 63.295013
18.305840 4.334251 73.441772
18.621189 4.334251 88.402412
18.936539 4.334251 0.000000
19.251888 4.334251 0.000000
-7.237510 4.018902 0.000000
-6.922160 4.018902 0.016346
-6.606810 4.018902 0.012592
-6.291460 4.018902 0.013068
-5.976110 4.018902 0.012949
-5.660760 4.018902 0.012829
-5.345410 4.018902 0.013131
-5.030060 4.018902 0.013122
-4.714710 4.018902 0.013263
-4.399360 4.018902 0.013510
-4.084010 4.018902 0.013438
-3.768660 4.018902 0.013682
-3.453310 4.018902 0.013728
-3.137960 4.018902 0.013814
-2.822610 4.018902 0.013481
-2.507260 4.018902 0.013384
-2.191910 4.018902 0.013458
-1.876560 4.018902 0.013668
-1.561210 4.018902 0.013561
-1.245860 4.018902 0.013362
-0.930510 4.018902 0.013329
-0.615160 4.018902 0.013341
-0.299810 4.018902 0.013109
0.015540 4.018902 0.013071
0.330890 4.018902 0.012877
0.646240 4.018902 0.012630
0.961589 4.018902 0.012671
1.276940 4.018902 0.012651
1.592289 4.018902 0.012835
1.907640 4.018902 0.013105
2.222990 4.018902 0.013217
2.538340 4.018902 0.013493
2.853690 4.018902 0.013644
3.169039 4.018902 0.013326
3.484390 4.018902 0.013359
3.799739 4.018902 0.013917
4.115090 4.018902 0.014290
4.430439 4.018902 0.014537
4.745790 4.018902 0.015321
5.061140 4.018902 0.016437
5.376490 4.018902 0.017328
5.691840 4.018902 0.018964
6.007189 4.018902 0.021778
6.322540 4.018902 0.026290
6.637889 4.018902 0.033263
6.953240 4.018902 0.046636
7.268589 4.018902 0.068916
7.583940 4.018902 0.108410
7.899290 4.018902 0.177261
8.214640 4.018902 0.278367
8.529989 4.018902 0.392274
8.845339 4.018902 0.525380
9.160688 4.018902 0.727418
9.476040 4.018902 0.908914
9.791389 4.018902 1.135218
10.106739 4.018902 1.385449
10.422089 4.018902 1.632961
10.737438 4.018902 2.020410
11.052790 4.018902 2.424981
11.368139 4.018902 2.772178
11.683489 4.018902 3.097589
11.998838 4.018902 3.518703
12.314190 4.018902 3.808974
12.629539 4.018902 4.331162
12.944889 4.018902 5.014475
13.260239 4.018902 5.365215
13.575588 4.018902 6.136099
13.890940 4.018902 7.914488
14.206289 4.018902 10.327624
14.521639 4.018902 14.331922
14.836988 4.018902 22.316521
15.152340 4.018902 29.249945
15.467690 4.018902 0.000000
15.783039 4.018902 0.000000
16.098389 4.018902 0.000000
16.413738 4.018902 0.000000
16.729090 4.018902 0.000000
17.044439 4.018902 0.000000
17.359789 4.018902 0.000000
17.675138 4.018902 0.000000
17.990490 4.018902 73.729881
18.305840 4.018902 83.754524
18.621189 4.018902 94.898720
18.936539 4.018902 0.000000
19.251888 4.018902 0.000000
-7.237510 3.703552 0.000000
-6.922160 3.703552 0.016391
-6.606810 3.703552 0.012543
-6.291460 3.703552 0.013101
-5.976110 3.703552 0.013064
-5.660760 3.703552 0.013062
-5.345410 3.703552 0.013085
-5.030060 3.703552 0.013131
-4.714710 3.703552 0.013279
-4.399360 3.703552 0.013376
-4.084010 3.703552 0.013416
-3.768660 3.703552 0.013765
-3.453310 3.703552 0.013832
-3.137960 3.703552 0.013709
-2.822610 3.703552 0.013456
-2.507260 3.703552 0.013424
-2.191910 3.703552 0.013515
-1.876560 3.703552 0.013853
-1.561210 3.703552 0.013896
-1.245860 3.703552 0.013672
-0.930510 3.703552 0.013326
-0.615160 3.703552 0.013042
-0.299810 3.703552 0.012871
0.015540 3.703552 0.012996
0.330890 3.703552 0.012987
0.646240 3.703552 0.012766
0.961589 3.703552 0.012695
1.276940 3.703552 0.012825
1.592289 3.703552 0.013146
1.907640 3.703552 0.013266
2.222990 3.703552 0.013167
2.538340 3.703552 0.013376
2.853690 3.703552 0.013630
3.169039 3.703552 0.013465
3.484390 3.703552 0.013471
3.799739 3.703552 0.013902
4.115090 3.703552 0.014235
4.430439 3.703552 0.014664
4.745790 3.703552 0.015519
5.061140 3.703552 0.016251
5.376490 3.703552 0.017011
5.691840 3.703552 0.018784
6.007189 3.703552 0.022015
6.322540 3.703552 0.026729
6.637889 3.703552 0.034111
6.953240 3.703552 0.047298
7.268589 3.703552 0.073740
7.583940 3.703552 0.112547
7.899290 3.703552 0.177458
8.214640 3.703552 0.281129
8.529989 3.703552 0.400289
8.845339 3.703552 0.552496
9.160688 3.703552 0.735819
9.476040 3.703552 0.917220
9.791389 3.703552 1.149757
10.106739 3.703552 1.442171
10.422089 3.703552 1.717856
10.737438 3.703552 2.032436
11.052790 3.703552 2.475934
11.368139 3.703552 2.776602
11.683489 3.703552 3.162579
11.998838 3.703552 3.620292
12.314190 3.703552 4.076461
12.629539 3.703552 4.389591
12.944889 3.703552 4.959355
13.260239 3.703552 5.396830
13.575588 3.703552 6.189024
13.890940 3.703552 7.785636
14.206289 3.703552 10.872055
14.521639 3.703552 15.347483
14.836988 3.703552 22.211010
15.152340 3.703552 27.444515
15.467690 3.703552 0.000000
15.783039 3.703552 0.000000
16.098389 3.703552 0.000000
16.413738 3.703552 0.000000
16.729090 3.703552 0.000000
17.044439 3.703552 0.000000
17.359789 3.703552 0.000000
17.675138 3.703552 0.000000
17.990490 3.703552 81.013725
18.305840 3.703552 88.288757
18.621189 3.703552 94.680656
18.936539 3.703552 0.000000
19.251888 3.703552 0.000000
-7.237510 3.388203 0.000000
-6.922160 3.388203 0.016396
-6.606810 3.388203 0.012614
-6.291460 3.388203 0.013153
-5.976110 3.388203 0.013158
-5.660760 3.388203 0.013136
-5.345410 3.388203 0.013061
-5.030060 3.388203 0.013279
-4.714710 3.388203 0.013504
-4.399360 3.388203 0.013585
-4.084010 3.388203 0.013628
-3.768660 3.388203 0.013976
-3.453310 3.388203 0.013917
-3.137960 3.388203 0.013729
-2.822610 3.388203 0.013649
-2.507260 3.388203 0.013577
-2.191910 3.388203 0.013590
-1.876560 3.388203 0.013801
-1.561210 3.388203 0.013956
-1.245860 3.388203 0.013825
-0.930510 3.388203 0.013394
-0.615160 3.388203 0.012822
-0.299810 3.388203 0.012822
0.015540 3.388203 0.013057
0.330890 3.388203 0.013174
0.646240 3.388203 0.013025
0.961589 3.388203 0.012910
1.276940 3.388203 0.013155
1.592289 3.388203 0.013424
1.907640 3.388203 0.013387
2.222990 3.388203 0.013205
2.538340 3.388203 0.013336
2.853690 3.388203 0.013532
3.169039 3.388203 0.013534
3.484390 3.388203 0.013580
3.799739 3.388203 0.013914
4.115090 3.388203 0.014256
4.430439 3.388203 0.014772
4.745790 3.388203 0.015533
5.061140 3.388203 0.016059
5.376490 3.388203 0.016900
5.691840 3.388203 0.018613
6.007189 3.388203 0.022227
6.322540 3.388203 0.027183
6.637889 3.388203 0.035224
6.953240 3.388203 0.051439
7.268589 3.388203 0.073791
7.583940 3.388203 0.118520
7.899290 3.388203 0.189406
8.214640 3.388203 0.282572
8.529989 3.388203 0.404428
8.845339 3.388203 0.557983
9.160688 3.388203 0.738002
9.476040 3.388203 0.941135
9.791389 3.388203 1.191317
10.106739 3.388203 1.506414
10.422089 3.388203 1.788121
10.737438 3.388203 2.107415
11.052790 3.388203 2.496289
11.368139 3.388203 2.768358
11.683489 3.388203 3.218270
11.998838 3.388203 3.661511
12.314190 3.388203 4.091815
12.629539 3.388203 4.589665
12.944889 3.388203 5.188855
13.260239 3.388203 5.357580
13.575588 3.388203 6.431301
13.890940 3.388203 8.453045
14.206289 3.388203 11.377992
14.521639 3.388203 14.915673
14.836988 3.388203 21.242146
15.152340 3.388203 26.915379
15.467690 3.388203 0.000000
15.783039 3.388203 0.000000
16.098389 3.388203 0.000000
16.413738 3.388203 0.000000
16.729090 3.388203 0.000000
17.044439 3.388203 0.000000
17.359789 3.388203 0.000000
17.675138 3.388203 0.000000
17.990490 3.388203 83.286583
18.305840 3.388203 83.870071
18.621189 3.388203 89.230888
18.936539 3.388203 0.000000
19.251888 3.388203 0.000000
-7.237510 3.072849 0.000000
-6.922160 3.072849 0.016582
-6.606810 3.072849 0.012770
-6.291460 3.072849 0.013387
-5.976110 3.072849 0.013425
-5.660760 3.072849 0.013208
-5.345410 3.072849 0.013240
-5.030060 3.072849 0.013457
-4.714710 3.072849 0.013633
-4.399360 3.072849 0.013717
-4.084010 3.072849 0.013899
-3.768660 3.072849 0.014172
-3.453310 3.072849 0.014130
-3.137960 3.072849 0.013894
-2.822610 3.072849 0.013827
-2.507260 3.072849 0.013829
-2.191910 3.072849 0.013739
-1.876560 3.072849 0.013734
-1.561210 3.072849 0.013830
-1.245860 3.072849 0.013671
-0.930510 3.072849 0.013343
-0.615160 3.072849 0.012952
-0.299810 3.072849 0.013118
0.015540 3.072849 0.013342
0.330890 3.072849 0.013458
0.646240 3.072849 0.013220
0.961589 3.072849 0.013114
1.276940 3.072849 0.013345
1.592289 3.072849 0.013307
1.907640 3.072849 0.013251
2.222990 3.072849 0.013257
2.538340 3.072849 0.013396
2.853690 3.072849 0.013468
3.169039 3.072849 0.013539
3.484390 3.072849 0.013811
3.799739 3.072849 0.014156
4.115090 3.072849 0.014417
4.430439 3.072849 0.014928
4.745790 3.072849 0.015494
5.061140 3.072849 0.015880
5.376490 3.072849 0.016811
5.691840 3.072849 0.018778
6.007189 3.072849 0.022462
6.322540 3.072849 0.027870
6.637889 3.072849 0.036403
6.953240 3.072849 0.051168
7.268589 3.072849 0.076571
7.583940 3.072849 0.121954
7.899290 3.072849 0.193474
8.214640 3.072849 0.291723
8.529989 3.072849 0.426513
8.845339 3.072849 0.566819
9.160688 3.072849 0.738371
9.476040 3.072849 0.955070
9.791389 3.072849 1.183980
10.106739 3.072849 1.479680
10.422089 3.072849 1.807438
10.737438 3.072849 2.105558
11.052790 3.072849 2.392092
11.368139 3.072849 2.782168
11.683489 3.072849 3.128080
11.998838 3.072849 3.534846
12.314190 3.072849 4.148863
12.629539 3.072849 4.590917
12.944889 3.072849 5.020597
13.260239 3.072849 5.495445
13.575588 3.072849 6.663964
13.890940 3.072849 8.420237
14.206289 3.072849 11.164280
14.521639 3.072849 14.782250
14.836988 3.072849 18.588587
15.152340 3.072849 0.000000
15.467690 3.072849 0.000000
15.783039 3.072849 0.000000
16.098389 3.072849 0.000000
16.413738 3.072849 0.000000
16.729090 3.072849 0.000000
17.044439 3.072849 0.000000
17.359789 3.072849 0.000000
17.675138 3.072849 0.000000
17.990490 3.072849 77.854851
18.305840 3.072849 79.056862
18.621189 3.072849 82.121841
18.936539 3.072849 0.000000
19.251888 3.072849 0.000000
-7.237510 2.757500 0.000000
-6.922160 2.757500 0.016794
-6.606810 2.757500 0.012963
-6.291460 2.757500 0.013696
-5.976110 2.757500 0.013574
-5.660760 2.757500 0.013354
-5.345410 2.757500 0.013585
-5.030060 2.757500 0.013744
-4.714710 2.757500 0.013664
-4.399360 2.757500 0.013858
-4.084010 2.757500 0.014181
-3.768660 2.757500 0.014308
-3.453310 2.757500 0.014325
-3.137960 2.757500 0.014252
-2.822610 2.757500 0.014039
-2.507260 2.757500 0.014143
-2.191910 2.757500 0.014164
-1.876560 2.757500 0.013858
-1.561210 2.757500 0.013799
-1.245860 2.757500 0.013554
-0.930510 2.757500 0.013343
-0.615160 2.757500 0.013269
-0.299810 2.757500 0.013447
0.015540 2.757500 0.013643
0.330890 2.757500 0.013623
0.646240 2.757500 0.013305
0.961589 2.757500 0.013087
1.276940 2.757500 0.013275
1.592289 2.757500 0.013153
1.907640 2.757500 0.013092
2.222990 2.757500 0.013225
2.538340 2.757500 0.013524
2.853690 2.757500 0.013526
3.169039 2.757500 0.013571
3.484390 2.757500 0.013842
3.799739 2.757500 0.014363
4.115090 2.757500 0.014600
4.430439 2.757500 0.014960
4.745790 2.757500 0.015203
5.061140 2.757500 0.015603
5.376490 2.757500 0.016687
5.691840 2.757500 0.019111
6.007189 2.757500 0.022771
6.322540 2.757500 0.028002
6.637889 2.757500 0.036997
6.953240 2.757500 0.051847
7.268589 2.757500 0.079165
7.583940 2.757500 0.126378
7.899290 2.757500 0.198605
8.214640 2.757500 0.291232
8.529989 2.757500 0.433080
8.845339 2.757500 0.586140
9.160688 2.757500 0.754947
9.476040 2.757500 0.971953
9.791389 2.757500 1.186007
10.106739 2.757500 1.459211
10.422089 2.757500 1.825474
10.737438 2.757500 2.074441
11.052790 2.757500 2.287219
11.368139 2.757500 2.745256
11.683489 2.757500 3.021802
11.998838 2.757500 3.615843
12.314190 2.757500 4.189323
12.629539 2.757500 4.492096
12.944889 2.757500 5.113922
13.260239 2.757500 5.357280
13.575588 2.757500 6.466470
13.890940 2.757500 8.534115
14.206289 2.757500 10.662648
14.521639 2.757500 13.825432
14.836988 2.757500 16.766003
15.152340 2.757500 0.000000
15.467690 2.757500 0.000000
15.783039 2.757500 0.000000
16.098389 2.757500 0.000000
16.413738 2.757500 0.000000
16.729090 2.757500 0.000000
17.044439 2.757500 0.000000
17.359789 2.757500 0.000000
17.675138 2.757500 0.000000
17.990490 2.757500 70.716484
18.305840 2.757500 73.238350
18.621189 2.757500 79.925369
18.936539 2.757500 0.000000
19.251888 2.757500 0.000000
-7.237510 2.442150 0.000000
-6.922160 2.442150 0.016874
-6.606810 2.442150 0.013100
-6.291460 2.442150 0.013707
-5.976110 2.442150 0.013514
-5.660760 2.442150 0.013535
-5.345410 2.442150 0.013903
-5.030060 2.442150 0.014010
-4.714710 2.442150 0.013777
-4.399360 2.442150 0.013991
-4.084010 2.442150 0.014366
-3.768660 2.442150 0.014532
-3.453310 2.442150 0.014553
-3.137960 2.442150 0.014452
-2.822610 2.442150 0.014258
-2.507260 2.442150 0.014266
-2.191910 2.442150 0.014368
-1.876560 2.442150 0.014120
-1.561210 2.442150 0.013785
-1.245860 2.442150 0.013370
-0.930510 2.442150 0.013304
-0.615160 2.442150 0.013168
-0.299810 2.442150 0.013443
0.015540 2.442150 0.013645
0.330890 2.442150 0.013498
0.646240 2.442150 0.013234
0.961589 2.442150 0.012993
1.276940 2.442150 0.013201
1.592289 2.442150 0.013164
1.907640 2.442150 0.013132
2.222990 2.442150 0.013302
2.538340 2.442150 0.013670
2.853690 2.442150 0.013618
3.169039 2.442150 0.013611
3.484390 2.442150 0.013738
3.799739 2.442150 0.014194
4.115090 2.442150 0.014709
4.430439 2.442150 0.014752
4.745790 2.442150 0.014993
5.061140 2.442150 0.015517
5.376490 2.442150 0.016813
5.691840 2.442150 0.019457
6.007189 2.442150 0.022854
6.322540 2.442150 0.027942
6.637889 2.442150 0.036823
6.953240 2.442150 0.052393
7.268589 2.442150 0.081457
7.583940 2.442150 0.128193
7.899290 2.442150 0.202351
8.214640 2.442150 0.307563
8.529989 2.442150 0.450021
8.845339 2.442150 0.603996
9.160688 2.442150 0.756663
9.476040 2.442150 0.968114
9.791389 2.442150 1.189523
10.106739 2.442150 1.464979
10.422089 2.442150 1.767140
10.737438 2.442150 2.090436
11.052790 2.442150 2.319889
11.368139 2.442150 2.647017
11.683489 2.442150 3.070040
11.998838 2.442150 3.609417
12.314190 2.442150 4.195782
12.629539 2.442150 4.453054
12.944889 2.442150 5.050503
13.260239 2.442150 5.736010
13.575588 2.442150 6.445233
13.890940 2.442150 8.409599
14.206289 2.442150 11.310176
14.521639 2.442150 13.734238
14.836988 2.442150 16.189014
15.152340 2.442150 0.000000
15.467690 2.442150 0.000000
15.783039 2.442150 0.000000
16.098389 2.442150 0.000000
16.413738 2.442150 0.000000
16.729090 2.442150 0.000000
17.044439 2.442150 0.000000
17.359789 2.442150 0.000000
17.675138 2.442150 0.000000
17.990490 2.442150 70.352623
18.305840 2.442150 71.334732
18.621189 2.442150 80.884178
18.936539 2.442150 0.000000
19.251888 2.442150 0.000000
-7.237510 2.126801 0.000000
-6.922160 2.126801 0.016824
-6.606810 2.126801 0.013290
-6.291460 2.126801 0.013655
-5.976110 2.126801 0.013604
-5.660760 2.126801 0.013833
-5.345410 2.126801 0.014258
-5.030060 2.126801 0.014267
-4.714710 2.126801 0.014183
-4.399360 2.126801 0.014217
-4.084010 2.126801 0.014499
-3.768660 2.126801 0.014944
-3.453310 2.126801 0.014791
-3.137960 2.126801 0.014437
-2.822610 2.126801 0.014097
-2.507260 2.126801 0.014011
-2.191910 2.126801 0.014119
-1.876560 2.126801 0.014014
-1.561210 2.126801 0.013789
-1.245860 2.126801 0.013347
-0.930510 2.126801 0.013177
-0.615160 2.126801 0.012982
-0.299810 2.126801 0.013254
0.015540 2.126801 0.013476
0.330890 2.126801 0.013513
0.646240 2.126801 0.013172
0.961589 2.126801 0.012827
1.276940 2.126801 0.013128
1.592289 2.126801 0.013128
1.907640 2.126801 0.013196
2.222990 2.126801 0.013423
2.538340 2.126801 0.013592
2.853690 2.126801 0.013693
3.169039 2.126801 0.013527
3.484390 2.126801 0.013443
3.799739 2.126801 0.013759
4.115090 2.126801 0.014472
4.430439 2.126801 0.014701
4.745790 2.126801 0.014884
5.061140 2.126801 0.015547
5.376490 2.126801 0.016987
5.691840 2.126801 0.019794
6.007189 2.126801 0.022790
6.322540 2.126801 0.027509
6.637889 2.126801 0.037384
6.953240 2.126801 0.053792
7.268589 2.126801 0.083334
7.583940 2.126801 0.132121
7.899290 2.126801 0.205487
8.214640 2.126801 0.317851
8.529989 2.126801 0.453464
8.845339 2.126801 0.606075
9.160688 2.126801 0.778327
9.476040 2.126801 0.956960
9.791389 2.126801 1.173521
10.106739 2.126801 1.452740
10.422089 2.126801 1.712280
10.737438 2.126801 2.055955
11.052790 2.126801 2.315222
11.368139 2.126801 2.680463
11.683489 2.126801 2.971000
11.998838 2.126801 3.521753
12.314190 2.126801 4.091057
12.629539 2.126801 4.574868
12.944889 2.126801 5.230327
13.260239 2.126801 5.701697
13.575588 2.126801 7.130360
13.890940 2.126801 9.285283
14.206289 2.126801 11.912657
14.521639 2.126801 14.528686
14.836988 2.126801 15.397612
15.152340 2.126801 0.000000
15.467690 2.126801 0.000000
15.783039 2.126801 0.000000
16.098389 2.126801 0.000000
16.413738 2.126801 0.000000
16.729090 2.126801 0.000000
17.044439 2.126801 0.000000
17.359789 2.126801 0.000000
17.675138 2.126801 0.000000
17.990490 2.126801 73.637268
18.305840 2.126801 76.568039
18.621189 2.126801 86.142281
18.936539 2.126801 0.000000
19.251888 2.126801 0.000000
-7.237510 1.811451 0.000000
-6.922160 1.811451 0.016959
-6.606810 1.811451 0.013290
-6.291460 1.811451 0.013607
-5.976110 1.811451 0.013849
-5.660760 1.811451 0.014209
-5.345410 1.811451 0.014469
-5.030060 1.811451 0.014505
-4.714710 1.811451 0.014408
-4.399360 1.811451 0.014408
-4.084010 1.811451 0.014564
-3.768660 1.811451 0.015026
-3.453310 1.811451 0.014854
-3.137960 1.811451 0.014315
-2.822610 1.811451 0.013868
-2.507260 1.811451 0.013691
-2.191910 1.811451 0.013743
-1.876560 1.811451 0.013965
-1.561210 1.811451 0.013918
-1.245860 1.811451 0.013479
-0.930510 1.811451 0.013154
-0.615160 1.811451 0.012948
-0.299810 1.811451 0.013065
0.015540 1.811451 0.013306
0.330890 1.811451 0.013266
0.646240 1.811451 0.012904
0.961589 1.811451 0.012646
1.276940 1.811451 0.012936
1.592289 1.811451 0.012956
1.907640 1.811451 0.012873
2.222990 1.811451 0.012986
2.538340 1.811451 0.013296
2.853690 1.811451 0.013564
3.169039 1.811451 0.013349
3.484390 1.811451 0.013211
3.799739 1.811451 0.013414
4.115090 1.811451 0.014095
4.430439 1.811451 0.014583
4.745790 1.811451 0.014825
5.061140 1.811451 0.015564
5.376490 1.811451 0.016807
5.691840 1.811451 0.019357
6.007189 1.811451 0.022557
6.322540 1.811451 0.028256
6.637889 1.811451 0.038735
6.953240 1.811451 0.056501
7.268589 1.811451 0.085729
7.583940 1.811451 0.131124
7.899290 1.811451 0.221210
8.214640 1.811451 0.343435
8.529989 1.811451 0.470204
8.845339 1.811451 0.599548
9.160688 1.811451 0.797922
9.476040 1.811451 0.970051
9.791389 1.811451 1.218025
10.106739 1.811451 1.462538
10.422089 1.811451 1.832385
10.737438 1.811451 2.079921
11.052790 1.811451 2.380262
11.368139 1.811451 2.735276
11.683489 1.811451 3.034411
11.998838 1.811451 3.353460
12.314190 1.811451 4.045080
12.629539 1.811451 4.613713
12.944889 1.811451 5.161439
13.260239 1.811451 6.307463
13.575588 1.811451 7.966764
13.890940 1.811451 10.230947
14.206289 1.811451 13.211135
14.521639 1.811451 16.750113
14.836988 1.811451 0.000000
15.152340 1.811451 0.000000
15.467690 1.811451 0.000000
15.783039 1.811451 0.000000
16.098389 1.811451 0.000000
16.413738 1.811451 0.000000
16.729090 1.811451 0.000000
17.044439 1.811451 0.000000
17.359789 1.811451 0.000000
17.675138 1.811451 0.000000
17.990490 1.811451 77.379173
18.305840 1.811451 82.869492
18.621189 1.811451 93.150574
18.936539 1.811451 0.000000
19.251888 1.811451 0.000000
-7.237510 1.496101 0.000000
-6.922160 1.496101 0.017315
-6.606810 1.496101 0.013241
-6.291460 1.496101 0.013619
-5.976110 1.496101 0.014014
-5.660760 1.496101 0.014501
-5.345410 1.496101 0.014545
-5.030060 1.496101 0.014645
-4.714710 1.496101 0.014538
-4.399360 1.496101 0.014541
-4.084010 1.496101 0.014580
-3.768660 1.496101 0.014795
-3.453310 1.496101 0.014677
-3.137960 1.496101 0.014226
-2.822610 1.496101 0.013814
-2.507260 1.496101 0.013600
-2.191910 1.496101 0.013642
-1.876560 1.496101 0.014064
-1.561210 1.496101 0.014072
-1.245860 1.496101 0.013421
-0.930510 1.496101 0.013027
-0.615160 1.496101 0.012940
-0.299810 1.496101 0.013018
0.015540 1.496101 0.013082
0.330890 1.496101 0.013053
0.646240 1.496101 0.012788
0.961589 1.496101 0.012509
1.276940 1.496101 0.012772
1.592289 1.496101 0.012722
1.907640 1.496101 0.012655
2.222990 1.496101 0.012622
2.538340 1.496101 0.012897
2.853690 1.496101 0.013190
3.169039 1.496101 0.013130
3.484390 1.496101 0.013089
3.799739 1.496101 0.013073
4.115090 1.496101 0.013721
4.430439 1.496101 0.014271
4.745790 1.496101 0.014609
5.061140 1.496101 0.015337
5.376490 1.496101 0.016456
5.691840 1.496101 0.018727
6.007189 1.496101 0.022385
6.322540 1.496101 0.028611
6.637889 1.496101 0.040304
6.953240 1.496101 0.059714
7.268589 1.496101 0.088830
7.583940 1.496101 0.138881
7.899290 1.496101 0.220945
8.214640 1.496101 0.346322
8.529989 1.496101 0.474828
8.845339 1.496101 0.640290
9.160688 1.496101 0.827441
9.476040 1.496101 1.006401
9.791389 1.496101 1.232627
10.106739 1.496101 1.522390
10.422089 1.496101 1.856698
10.737438 1.496101 2.159977
11.052790 1.496101 2.449916
11.368139 1.496101 2.695422
11.683489 1.496101 3.106444
11.998838 1.496101 3.463945
12.314190 1.496101 3.958534
12.629539 1.496101 4.549615
12.944889 1.496101 5.404868
13.260239 1.496101 6.586260
13.575588 1.496101 9.168615
13.890940 1.496101 12.287061
14.206289 1.496101 15.804670
14.521639 1.496101 19.529160
14.836988 1.496101 0.000000
15.152340 1.496101 0.000000
15.467690 1.496101 0.000000
15.783039 1.496101 0.000000
16.098389 1.496101 0.000000
16.413738 1.496101 0.000000
16.729090 1.496101 0.000000
17.044439 1.496101 0.000000
17.359789 1.496101 0.000000
17.675138 1.496101 0.000000
17.990490 1.496101 83.367424
18.305840 1.496101 89.361916
18.621189 1.496101 102.160141
18.936539 1.496101 0.000000
19.251888 1.496101 0.000000
-7.237510 1.180752 0.000000
-6.922160 1.180752 0.017913
-6.606810 1.180752 0.014080
-6.291460 1.180752 0.014317
-5.976110 1.180752 0.014834
-5.660760 1.180752 0.015147
-5.345410 1.180752 0.015238
-5.030060 1.180752 0.015310
-4.714710 1.180752 0.015398
-4.399360 1.180752 0.015432
-4.084010 1.180752 0.015262
-3.768660 1.180752 0.015354
-3.453310 1.180752 0.015303
-3.137960 1.180752 0.014787
-2.822610 1.180752 0.014441
-2.507260 1.180752 0.014218
-2.191910 1.180752 0.014317
-1.876560 1.180752 0.014478
-1.561210 1.180752 0.014451
-1.245860 1.180752 0.013624
-0.930510 1.180752 0.013335
-0.615160 1.180752 0.013430
-0.299810 1.180752 0.013474
0.015540 1.180752 0.013481
0.330890 1.180752 0.013490
0.646240 1.180752 0.013341
0.961589 1.180752 0.013175
1.276940 1.180752 0.013211
1.592289 1.180752 0.013124
1.907640 1.180752 0.013049
2.222990 1.180752 0.012948
2.538340 1.180752 0.013125
2.853690 1.180752 0.013373
3.169039 1.180752 0.013216
3.484390 1.180752 0.013293
3.799739 1.180752 0.013244
4.115090 1.180752 0.013800
4.430439 1.180752 0.014515
4.745790 1.180752 0.014948
5.061140 1.180752 0.015834
5.376490 1.180752 0.017150
5.691840 1.180752 0.019232
6.007189 1.180752 0.022982
6.322540 1.180752 0.029686
6.637889 1.180752 0.042645
6.953240 1.180752 0.062038
7.268589 1.180752 0.095093
7.583940 1.180752 0.149318
7.899290 1.180752 0.240035
8.214640 1.180752 0.365683
8.529989 1.180752 0.519403
8.845339 1.180752 0.706777
9.160688 1.180752 0.893925
9.476040 1.180752 1.113177
9.791389 1.180752 1.297715
10.106739 1.180752 1.605087
10.422089 1.180752 1.957641
10.737438 1.180752 2.257811
11.052790 1.180752 2.604393
11.368139 1.180752 2.869724
11.683489 1.180752 3.185241
11.998838 1.180752 3.666019
12.314190 1.180752 4.202209
12.629539 1.180752 4.697616
12.944889 1.180752 5.613597
13.260239 1.180752 7.184005
13.575588 1.180752 10.087554
13.890940 1.180752 14.197680
14.206289 1.180752 18.721880
14.521639 1.180752 22.414213
14.836988 1.180752 0.000000
15.152340 1.180752 0.000000
15.467690 1.180752 0.000000
15.783039 1.180752 0.000000
16.098389 1.180752 0.000000
16.413738 1.180752 0.000000
16.729090 1.180752 0.000000
17.044439 1.180752 0.000000
17.359789 1.180752 0.000000
17.675138 1.180752 0.000000
17.990490 1.180752 87.124901
18.305840 1.180752 98.563347
18.621189 1.180752 108.737968
18.936539 1.180752 0.000000
19.251888 1.180752 0.000000
-7.237510 0.865402 0.000000
-6.922160 0.865402 0.013555
-6.606810 0.865402 0.016795
-6.291460 0.865402 0.017365
-5.976110 0.865402 0.017716
-5.660760 0.865402 0.018186
-5.345410 0.865402 0.018387
-5.030060 0.865402 0.018254
-4.714710 0.865402 0.018430
-4.399360 0.865402 0.018686
-4.084010 0.865402 0.018202
-3.768660 0.865402 0.018334
-3.453310 0.865402 0.018140
-3.137960 0.865402 0.017548
-2.822610 0.865402 0.017273
-2.507260 0.865402 0.017260
-2.191910 0.865402 0.017179
-1.876560 0.865402 0.017064
-1.561210 0.865402 0.016740
-1.245860 0.865402 0.015918
-0.930510 0.865402 0.015661
-0.615160 0.865402 0.015938
-0.299810 0.865402 0.015979
0.015540 0.865402 0.016105
0.330890 0.865402 0.016089
0.646240 0.865402 0.015690
0.961589 0.865402 0.015783
1.276940 0.865402 0.015536
1.592289 0.865402 0.015366
1.907640 0.865402 0.015414
2.222990 0.865402 0.015173
2.538340 0.865402 0.015283
2.853690 0.865402 0.015357
3.169039 0.865402 0.015124
3.484390 0.865402 0.015228
3.799739 0.865402 0.015208
4.115090 0.865402 0.015734
4.430439 0.865402 0.016504
4.745790 0.865402 0.017038
5.061140 0.865402 0.018332
5.376490 0.865402 0.019753
5.691840 0.865402 0.021758
6.007189 0.865402 0.025995
6.322540 0.865402 0.033575
6.637889 0.865402 0.046637
6.953240 0.865402 0.069822
7.268589 0.865402 0.112170
7.583940 0.865402 0.179080
7.899290 0.865402 0.283668
8.214640 0.865402 0.410551
8.529989 0.865402 0.606573
8.845339 0.865402 0.816824
9.160688 0.865402 1.025105
9.476040 0.865402 1.292972
9.791389 0.865402 1.480292
10.106739 0.865402 1.837388
10.422089 0.865402 2.208627
10.737438 0.865402 2.501735
11.052790 0.865402 2.823098
11.368139 0.865402 3.246075
11.683489 0.865402 3.626208
11.998838 0.865402 4.073558
12.314190 0.865402 4.547788
12.629539 0.865402 5.235056
12.944889 0.865402 6.004625
13.260239 0.865402 7.654020
13.575588 0.865402 10.998871
13.890940 0.865402 14.893863
14.206289 0.865402 20.431154
14.521639 0.865402 23.533127
14.836988 0.865402 0.000000
15.152340 0.865402 0.000000
15.467690 0.865402 0.000000
15.783039 0.865402 0.000000
16.098389 0.865402 0.000000
16.413738 0.865402 0.000000
16.729090 0.865402 0.000000
17.044439 0.865402 0.000000
17.359789 0.865402 0.000000
17.675138 0.865402 0.000000
17.990490 0.865402 92.097427
18.305840 0.865402 105.520157
18.621189 0.865402 113.465942
18.936539 0.865402 0.000000
19.251888 0.865402 0.000000
-7.237510 0.550053 0.000000
-6.922160 0.550053 0.016694
-6.606810 0.550053 0.016301
-6.291460 0.550053 0.022424
-5.976110 0.550053 0.023448
-5.660760 0.550053 0.024904
-5.345410 0.550053 0.025460
-5.030060 0.550053 0.024922
-4.714710 0.550053 0.025209
-4.399360 0.550053 0.025536
-4.084010 0.550053 0.024870
-3.768660 0.550053 0.024787
-3.453310 0.550053 0.024386
-3.137960 0.550053 0.023861
-2.822610 0.550053 0.023711
-2.507260 0.550053 0.023947
-2.191910 0.550053 0.023796
-1.876560 0.550053 0.022947
-1.561210 0.550053 0.022453
-1.245860 0.550053 0.021901
-0.930510 0.550053 0.021640
-0.615160 0.550053 0.021633
-0.299810 0.550053 0.021524
0.015540 0.550053 0.021640
0.330890 0.550053 0.021612
0.646240 0.550053 0.021329
0.961589 0.550053 0.021402
1.276940 0.550053 0.021025
1.592289 0.550053 0.020623
1.907640 0.550053 0.020603
2.222990 0.550053 0.020387
2.538340 0.550053 0.020259
2.853690 0.550053 0.020513
3.169039 0.550053 0.020174
3.484390 0.550053 0.020307
3.799739 0.550053 0.020419
4.115090 0.550053 0.021023
4.430439 0.550053 0.021841
4.745790 0.550053 0.022294
5.061140 0.550053 0.023824
5.376490 0.550053 0.025385
5.691840 0.550053 0.028027
6.007189 0.550053 0.032720
6.322540 0.550053 0.041671
6.637889 0.550053 0.057829
6.953240 0.550053 0.087473
7.268589 0.550053 0.146286
7.583940 0.550053 0.237477
7.899290 0.550053 0.362120
8.214640 0.550053 0.515589
8.529989 0.550053 0.740282
8.845339 0.550053 0.981771
9.160688 0.550053 1.295522
9.476040 0.550053 1.579982
9.791389 0.550053 1.783700
10.106739 0.550053 2.217303
10.422089 0.550053 2.649392
10.737438 0.550053 2.956010
11.052790 0.550053 3.310325
11.368139 0.550053 3.845823
11.683489 0.550053 4.377782
11.998838 0.550053 4.974268
12.314190 0.550053 5.341936
12.629539 0.550053 5.883174
12.944889 0.550053 6.776649
13.260239 0.550053 8.667356
13.575588 0.550053 11.799575
13.890940 0.550053 16.292410
14.206289 0.550053 20.636168
14.521639 0.550053 21.681313
14.836988 0.550053 0.000000
15.152340 0.550053 0.000000
15.467690 0.550053 0.000000
15.783039 0.550053 0.000000
16.098389 0.550053 0.000000
16.413738 0.550053 0.000000
16.729090 0.550053 0.000000
17.044439 0.550053 0.000000
17.359789 0.550053 0.000000
17.675138 0.550053 0.000000
17.990490 0.550053 98.302742
18.305840 0.550053 108.907799
18.621189 0.550053 115.559013
18.936539 0.550053 0.000000
19.251888 0.550053 0.000000
-7.237510 0.234699 0.000000
-6.922160 0.234699 0.000000
-6.606810 0.234699 0.000000
-6.291460 0.234699 0.000000
-5.976110 0.234699 0.000000
-5.660760 0.234699 0.000000
-5.345410 0.234699 0.000000
-5.030060 0.234699 0.000000
-4.714710 0.234699 0.000000
-4.399360 0.234699 0.000000
-4.084010 0.234699 0.000000
-3.768660 0.234699 0.000000
-3.453310 0.234699 0.000000
-3.137960 0.234699 0.000000
-2.822610 0.234699 0.000000
-2.507260 0.234699 0.000000
-2.191910 0.234699 0.000000
-1.876560 0.234699 0.000000
-1.561210 0.234699 0.000000
-1.245860 0.234699 0.000000
-0.930510 0.234699 0.000000
-0.615160 0.234699 0.000000
-0.299810 0.234699 0.000000
0.015540 0.234699 0.000000
0.330890 0.234699 0.000000
0.646240 0.234699 0.000000
0.961589 0.234699 0.000000
1.276940 0.234699 0.000000
1.592289 0.234699 0.000000
1.907640 0.234699 0.000000
2.222990 0.234699 0.000000
2.538340 0.234699 0.000000
2.853690 0.234699 0.000000
3.169039 0.234699 0.000000
3.484390 0.234699 0.000000
3.799739 0.234699 0.000000
4.115090 0.234699 0.000000
4.430439 0.234699 0.000000
4.745790 0.234699 0.000000
5.061140 0.234699 0.000000
5.376490 0.234699 0.000000
5.691840 0.234699 0.000000
6.007189 0.234699 0.000000
6.322540 0.234699 4.555067
6.637889 0.234699 1.496273
6.953240 0.234699 2.171039
7.268589 0.234699 1.756218
7.583940 0.234699 1.725335
7.899290 0.234699 1.630202
8.214640 0.234699 1.509504
8.529989 0.234699 1.423104
8.845339 0.234699 1.457743
9.160688 0.234699 1.654579
9.476040 0.234699 1.935311
9.791389 0.234699 2.130502
10.106739 0.234699 2.454096
10.422089 0.234699 2.897751
10.737438 0.234699 3.349173
11.052790 0.234699 3.736351
11.368139 0.234699 4.517860
11.683489 0.234699 4.967068
11.998838 0.234699 5.422358
12.314190 0.234699 6.023886
12.629539 0.234699 6.392510
12.944889 0.234699 7.611358
13.260239 0.234699 9.135966
13.575588 0.234699 12.104939
13.890940 0.234699 15.156478
14.206289 0.234699 18.547739
14.521639 0.234699 0.000000
14.836988 0.234699 0.000000
15.152340 0.234699 0.000000
15.467690 0.234699 0.000000
15.783039 0.234699 0.000000
16.098389 0.234699 0.000000
16.413738 0.234699 0.000000
16.729090 0.234699 0.000000
17.044439 0.234699 0.000000
17.359789 0.234699 0.000000
17.675138 0.234699 0.000000
17.990490 0.234699 96.747177
18.305840 0.234699 102.938087
18.621189 0.234699 107.594856
18.936539 0.234699 0.000000
19.251888 0.234699 0.000000
-7.237510 -0.080650 0.000000
-6.922160 -0.080650 0.000000
-6.606810 -0.080650 0.000000
-6.291460 -0.080650 0.000000
-5.976110 -0.080650 0.000000
-5.660760 -0.080650 0.000000
-5.345410 -0.080650 0.000000
-5.030060 -0.080650 0.000000
-4.714710 -0.080650 0.000000
-4.399360 -0.080650 0.000000
-4.084010 -0.080650 0.000000
-3.768660 -0.080650 0.000000
-3.453310 -0.080650 0.000000
-3.137960 -0.080650 0.000000
-2.822610 -0.080650 0.000000
-2.507260 -0.080650 0.000000
-2.191910 -0.080650 0.000000
-1.876560 -0.080650 0.000000
-1.561210 -0.080650 0.000000
-1.245860 -0.080650 0.000000
-0.930510 -0.080650 0.000000
-0.615160 -0.080650 0.000000
-0.299810 -0.080650 0.000000
0.015540 -0.080650 0.000000
0.330890 -0.080650 0.000000
0.646240 -0.080650 0.000000
0.961589 -0.080650 0.000000
1.276940 -0.080650 0.000000
1.592289 -0.080650 0.000000
1.907640 -0.080650 0.000000
2.222990 -0.080650 0.000000
2.538340 -0.080650 0.000000
2.853690 -0.080650 0.000000
3.169039 -0.080650 0.000000
3.484390 -0.080650 0.000000
3.799739 -0.080650 0.000000
4.115090 -0.080650 0.000000
4.430439 -0.080650 0.000000
4.745790 -0.080650 0.000000
5.061140 -0.080650 0.000000
5.376490 -0.080650 0.000000
5.691840 -0.080650 0.000000
6.007189 -0.080650 0.000000
6.322540 -0.080650 0.000000
6.637889 -0.080650 0.000000
6.953240 -0.080650 0.000000
7.268589 -0.080650 0.000000
7.583940 -0.080650 0.000000
7.899290 -0.080650 0.000000
8.214640 -0.080650 0.000000
8.529989 -0.080650 25.985289
8.845339 -0.080650 1.724483
9.160688 -0.080650 10.542583
9.476040 -0.080650 14.971642
9.791389 -0.080650 10.892168
10.106739 -0.080650 8.626136
10.422089 -0.080650 9.440023
10.737438 -0.080650 9.244335
11.052790 -0.080650 6.895749
11.368139 -0.080650 6.332957
11.683489 -0.080650 6.001036
11.998838 -0.080650 5.846297
12.314190 -0.080650 5.909099
12.629539 -0.080650 5.999019
12.944889 -0.080650 6.666067
13.260239 -0.080650 7.663492
13.575588 -0.080650 9.170401
13.890940 -0.080650 10.519834
14.206289 -0.080650 11.226338
14.521639 -0.080650 0.000000
14.836988 -0.080650 0.000000
15.152340 -0.080650 0.000000
15.467690 -0.080650 0.000000
15.783039 -0.080650 0.000000
16.098389 -0.080650 0.000000
16.413738 -0.080650 0.000000
16.729090 -0.080650 0.000000
17.044439 -0.080650 0.000000
17.359789 -0.080650 0.000000
17.675138 -0.080650 0.000000
17.990490 -0.080650 78.598038
18.305840 -0.080650 80.155289
18.621189 -0.080650 80.549957
18.936539 -0.080650 0.000000
19.251888 -0.080650 0.000000
-7.237510 -0.396000 0.000000
-6.922160 -0.396000 0.000000
-6.606810 -0.396000 0.000000
-6.291460 -0.396000 0.000000
-5.976110 -0.396000 0.000000
-5.660760 -0.396000 0.000000
-5.345410 -0.396000 0.000000
-5.030060 -0.396000 0.000000
-4.714710 -0.396000 0.000000
-4.399360 -0.396000 0.000000
-4.084010 -0.396000 0.000000
-3.768660 -0.396000 0.000000
-3.453310 -0.396000 0.000000
-3.137960 -0.396000 0.000000
-2.822610 -0.396000 0.000000
-2.507260 -0.396000 0.000000
-2.191910 -0.396000 0.000000
-1.876560 -0.396000 0.000000
-1.561210 -0.396000 0.000000
-1.245860 -0.396000 0.000000
-0.930510 -0.396000 0.000000
-0.615160 -0.396000 0.000000
-0.299810 -0.396000 0.000000
0.015540 -0.396000 0.000000
0.330890 -0.396000 0.000000
0.646240 -0.396000 0.000000
0.961589 -0.396000 0.000000
1.276940 -0.396000 0.000000
1.592289 -0.396000 0.000000
1.907640 -0.396000 0.000000
2.222990 -0.396000 0.000000
2.538340 -0.396000 0.000000
2.853690 -0.396000 0.000000
3.169039 -0.396000 0.000000
3.484390 -0.396000 0.000000
3.799739 -0.396000 0.000000
4.115090 -0.396000 0.000000
4.430439 -0.396000 0.000000
4.745790 -0.396000 0.000000
5.061140 -0.396000 0.000000
5.376490 -0.396000 0.000000
5.691840 -0.396000 0.000000
6.007189 -0.396000 0.000000
6.322540 -0.396000 0.000000
6.637889 -0.396000 0.000000
6.953240 -0.396000 0.000000
7.268589 -0.396000 0.000000
7.583940 -0.396000 0.000000
7.899290 -0.396000 0.000000
8.214640 -0.396000 0.000000
8.529989 -0.396000 0.000000
8.845339 -0.396000 0.000000
9.160688 -0.396000 0.000000
9.476040 -0.396000 0.000000
9.791389 -0.396000 0.000000
10.106739 -0.396000 0.000000
10.422089 -0.396000 0.000000
10.737438 -0.396000 0.000000
11.052790 -0.396000 0.224697
11.368139 -0.396000 20.735315
11.683489 -0.396000 30.527109
11.998838 -0.396000 9.793111
12.314190 -0.396000 16.844568
12.629539 -0.396000 17.731834
12.944889 -0.396000 15.423441
13.260239 -0.396000 16.558725
13.575588 -0.396000 15.634142
13.890940 -0.396000 9.504536
14.206289 -0.396000 8.227873
14.521639 -0.396000 0.000000
14.836988 -0.396000 0.000000
15.152340 -0.396000 0.000000
15.467690 -0.396000 0.000000
15.783039 -0.396000 0.000000
16.098389 -0.396000 0.000000
16.413738 -0.396000 0.000000
16.729090 -0.396000 0.000000
17.044439 -0.396000 0.000000
17.359789 -0.396000 0.000000
17.675138 -0.396000 0.000000
17.990490 -0.396000 41.487251
18.305840 -0.396000 40.179585
18.621189 -0.396000 42.091984
18.936539 -0.396000 0.000000
19.251888 -0.396000 0.000000
-7.237510 -0.711349 0.000000
-6.922160 -0.711349 0.000000
-6.606810 -0.711349 0.000000
-6.291460 -0.711349 0.000000
-5.976110 -0.711349 0.000000
-5.660760 -0.711349 0.000000
-5.345410 -0.711349 0.000000
-5.030060 -0.711349 0.000000
-4.714710 -0.711349 0.000000
-4.399360 -0.711349 0.000000
-4.084010 -0.711349 0.000000
-3.768660 -0.711349 0.000000
-3.453310 -0.711349 0.000000
-3.137960 -0.711349 0.000000
-2.822610 -0.711349 0.000000
-2.507260 -0.711349 0.000000
-2.191910 -0.711349 0.000000
-1.876560 -0.711349 0.000000
-1.561210 -0.711349 0.000000
-1.245860 -0.711349 0.000000
-0.930510 -0.711349 0.000000
-0.615160 -0.711349 0.000000
-0.299810 -0.711349 0.000000
0.015540 -0.711349 0.000000
0.330890 -0.711349 0.000000
0.646240 -0.711349 0.000000
0.961589 -0.711349 0.000000
1.276940 -0.711349 0.000000
1.592289 -0.711349 0.000000
1.907640 -0.711349 0.000000
2.222990 -0.711349 0.000000
2.538340 -0.711349 0.000000
2.853690 -0.711349 0.000000
3.169039 -0.711349 0.000000
3.484390 -0.711349 0.000000
3.799739 -0.711349 0.000000
4.115090 -0.711349 0.000000
4.430439 -0.711349 0.000000
4.745790 -0.711349 0.000000
5.061140 -0.711349 0.000000
5.376490 -0.711349 0.000000
5.691840 -0.711349 0.000000
6.007189 -0.711349 0.000000
6.322540 -0.711349 0.000000
6.637889 -0.711349 0.000000
6.953240 -0.711349 0.000000
7.268589 -0.711349 0.000000
7.583940 -0.711349 0.000000
7.899290 -0.711349 0.000000
8.214640 -0.711349 0.000000
8.529989 -0.711349 0.000000
8.845339 -0.711349 0.000000
9.160688 -0.711349 0.000000
9.476040 -0.711349 0.000000
9.791389 -0.711349 0.000000
10.106739 -0.711349 0.000000
10.422089 -0.711349 0.000000
10.737438 -0.711349 0.000000
11.052790 -0.711349 0.000000
11.368139 -0.711349 0.000000
11.683489 -0.711349 0.000000
11.998838 -0.711349 0.000000
12.314190 -0.711349 0.000000
12.629539 -0.711349 0.000000
12.944889 -0.711349 0.000000
13.260239 -0.711349 0.000000
13.575588 -0.711349 0.000000
13.890940 -0.711349 0.000000
14.206289 -0.711349 0.000000
14.521639 -0.711349 0.000000
14.836988 -0.711349 0.000000
15.152340 -0.711349 0.000000
15.467690 -0.711349 0.000000
15.783039 -0.711349 0.000000
16.098389 -0.711349 0.000000
16.413738 -0.711349 0.000000
16.729090 -0.711349 0.000000
17.044439 -0.711349 0.000000
17.359789 -0.711349 0.000000
17.675138 -0.711349 0.000000
17.990490 -0.711349 0.000000
18.305840 -0.711349 0.000000
18.621189 -0.711349 0.000000
18.936539 -0.711349 0.000000
19.251888 -0.711349 0.000000
