TITLE = "B00012"
VARIABLES = "x", "y", "Reynold stress XX"
ZONE T="Frame 1" I=83, J=162, F=POINT
-7.065720 48.465302 0.000000
-6.750999 48.465302 0.000000
-6.436278 48.465302 0.000000
-6.121557 48.465302 0.000000
-5.806836 48.465302 0.000000
-5.492115 48.465302 0.000000
-5.177394 48.465302 0.000000
-4.862673 48.465302 0.000000
-4.547952 48.465302 0.000000
-4.233231 48.465302 0.000000
-3.918510 48.465302 0.000000
-3.603789 48.465302 0.000000
-3.289068 48.465302 0.000000
-2.974347 48.465302 0.000000
-2.659626 48.465302 0.000000
-2.344905 48.465302 0.000000
-2.030184 48.465302 0.000000
-1.715463 48.465302 0.000000
-1.400742 48.465302 0.000000
-1.086021 48.465302 0.000000
-0.771300 48.465302 0.000000
-0.456579 48.465302 0.000000
-0.141859 48.465302 0.000000
0.172863 48.465302 0.000000
0.487584 48.465302 0.000000
0.802305 48.465302 0.000000
1.117026 48.465302 0.000000
1.431747 48.465302 0.000000
1.746467 48.465302 0.000000
2.061188 48.465302 0.000000
2.375909 48.465302 0.000000
2.690630 48.465302 0.000000
3.005352 48.465302 0.000000
3.320073 48.465302 0.000000
3.634794 48.465302 0.000000
3.949515 48.465302 0.000000
4.264236 48.465302 0.000000
4.578956 48.465302 0.000000
4.893677 48.465302 0.000000
5.208398 48.465302 0.000000
5.523119 48.465302 0.000000
5.837841 48.465302 0.000000
6.152562 48.465302 0.000000
6.467283 48.465302 0.000000
6.782003 48.465302 0.000000
7.096724 48.465302 0.000000
7.411445 48.465302 0.000000
7.726166 48.465302 0.000000
8.040888 48.465302 0.000000
8.355608 48.465302 0.000000
8.670330 48.465302 0.000000
8.985050 48.465302 0.000000
9.299772 48.465302 0.000000
9.614492 48.465302 0.000000
9.929214 48.465302 0.000000
10.243935 48.465302 0.000000
10.558655 48.465302 0.000000
10.873377 48.465302 0.000000
11.188097 48.465302 0.000000
11.502819 48.465302 0.000000
11.817539 48.465302 0.000000
12.132261 48.465302 0.000000
12.446981 48.465302 0.000000
12.761703 48.465302 0.000000
13.076424 48.465302 0.000000
13.391144 48.465302 0.000000
13.705866 48.465302 0.000000
14.020586 48.465302 0.000000
14.335308 48.465302 0.000000
14.650028 48.465302 0.000000
14.964750 48.465302 0.000000
15.279470 48.465302 0.000000
15.594193 48.465302 0.000000
15.908913 48.465302 0.000000
16.223633 48.465302 0.000000
16.538355 48.465302 0.000000
16.853075 48.465302 0.000000
17.167797 48.465302 0.000000
17.482517 48.465302 0.000000
17.797239 48.465302 0.000000
18.111959 48.465302 0.000000
18.426680 48.465302 0.000000
18.741402 48.465302 0.000000
-7.065720 48.150581 0.000000
-6.750999 48.150581 0.000000
-6.436278 48.150581 0.000000
-6.121557 48.150581 0.000000
-5.806836 48.150581 0.000000
-5.492115 48.150581 0.000000
-5.177394 48.150581 0.000000
-4.862673 48.150581 0.000000
-4.547952 48.150581 0.000000
-4.233231 48.150581 0.000000
-3.918510 48.150581 0.000000
-3.603789 48.150581 0.000000
-3.289068 48.150581 0.000000
-2.974347 48.150581 0.000000
-2.659626 48.150581 0.000000
-2.344905 48.150581 0.000000
-2.030184 48.150581 0.000000
-1.715463 48.150581 0.000000
-1.400742 48.150581 0.000000
-1.086021 48.150581 0.000000
-0.771300 48.150581 0.000000
-0.456579 48.150581 0.000000
-0.141859 48.150581 0.000000
0.172863 48.150581 0.000000
0.487584 48.150581 0.000000
0.802305 48.150581 0.000000
1.117026 48.150581 0.000000
1.431747 48.150581 0.000000
1.746467 48.150581 0.000000
2.061188 48.150581 0.000000
2.375909 48.150581 0.000000
2.690630 48.150581 0.000000
3.005352 48.150581 0.000000
3.320073 48.150581 0.000000
3.634794 48.150581 0.000000
3.949515 48.150581 0.000000
4.264236 48.150581 0.000000
4.578956 48.150581 0.000000
4.893677 48.150581 0.000000
5.208398 48.150581 0.000000
5.523119 48.150581 0.000000
5.837841 48.150581 0.000000
6.152562 48.150581 0.000000
6.467283 48.150581 0.000000
6.782003 48.150581 0.000000
7.096724 48.150581 0.000000
7.411445 48.150581 0.000000
7.726166 48.150581 0.000000
8.040888 48.150581 0.000000
8.355608 48.150581 0.000000
8.670330 48.150581 0.000000
8.985050 48.150581 0.000000
9.299772 48.150581 0.000000
9.614492 48.150581 0.000000
9.929214 48.150581 0.000000
10.243935 48.150581 0.000000
10.558655 48.150581 0.000000
10.873377 48.150581 0.000000
11.188097 48.150581 0.000000
11.502819 48.150581 0.000000
11.817539 48.150581 0.000000
12.132261 48.150581 0.000000
12.446981 48.150581 0.000000
12.761703 48.150581 0.000000
13.076424 48.150581 0.000000
13.391144 48.150581 0.000000
13.705866 48.150581 0.000000
14.020586 48.150581 0.000000
14.335308 48.150581 0.000000
14.650028 48.150581 0.000000
14.964750 48.150581 0.000000
15.279470 48.150581 0.000000
15.594193 48.150581 0.000000
15.908913 48.150581 0.000000
16.223633 48.150581 0.000000
16.538355 48.150581 0.000000
16.853075 48.150581 0.000000
17.167797 48.150581 0.000000
17.482517 48.150581 0.000000
17.797239 48.150581 0.000000
18.111959 48.150581 0.000000
18.426680 48.150581 0.000000
18.741402 48.150581 0.000000
-7.065720 47.835861 0.000000
-6.750999 47.835861 0.000000
-6.436278 47.835861 0.000000
-6.121557 47.835861 0.000000
-5.806836 47.835861 0.000000
-5.492115 47.835861 0.000000
-5.177394 47.835861 0.000000
-4.862673 47.835861 0.000000
-4.547952 47.835861 0.000000
-4.233231 47.835861 0.000000
-3.918510 47.835861 0.000000
-3.603789 47.835861 0.000000
-3.289068 47.835861 0.000000
-2.974347 47.835861 0.000000
-2.659626 47.835861 0.000000
-2.344905 47.835861 0.000000
-2.030184 47.835861 0.000000
-1.715463 47.835861 0.000000
-1.400742 47.835861 0.000000
-1.086021 47.835861 0.000000
-0.771300 47.835861 0.000000
-0.456579 47.835861 0.000000
-0.141859 47.835861 0.000000
0.172863 47.835861 0.000000
0.487584 47.835861 0.000000
0.802305 47.835861 0.000000
1.117026 47.835861 0.000000
1.431747 47.835861 0.000000
1.746467 47.835861 0.000000
2.061188 47.835861 0.000000
2.375909 47.835861 0.000000
2.690630 47.835861 0.000000
3.005352 47.835861 0.000000
3.320073 47.835861 0.000000
3.634794 47.835861 0.000000
3.949515 47.835861 0.000000
4.264236 47.835861 0.000000
4.578956 47.835861 0.000000
4.893677 47.835861 0.000000
5.208398 47.835861 0.000000
5.523119 47.835861 0.000000
5.837841 47.835861 0.000000
6.152562 47.835861 0.000000
6.467283 47.835861 0.000000
6.782003 47.835861 0.000000
7.096724 47.835861 0.000000
7.411445 47.835861 0.000000
7.726166 47.835861 0.000000
8.040888 47.835861 0.000000
8.355608 47.835861 0.000000
8.670330 47.835861 0.000000
8.985050 47.835861 0.000000
9.299772 47.835861 0.000000
9.614492 47.835861 0.000000
9.929214 47.835861 0.000000
10.243935 47.835861 0.000000
10.558655 47.835861 1.570071
10.873377 47.835861 0.383323
11.188097 47.835861 3.394147
11.502819 47.835861 2.461383
11.817539 47.835861 4.069544
12.132261 47.835861 2.159561
12.446981 47.835861 2.726485
12.761703 47.835861 3.553035
13.076424 47.835861 3.090324
13.391144 47.835861 3.276829
13.705866 47.835861 2.604547
14.020586 47.835861 2.013319
14.335308 47.835861 2.086628
14.650028 47.835861 2.280686
14.964750 47.835861 2.027007
15.279470 47.835861 2.154180
15.594193 47.835861 1.833288
15.908913 47.835861 1.951903
16.223633 47.835861 2.112100
16.538355 47.835861 2.312219
16.853075 47.835861 2.183159
17.167797 47.835861 2.876078
17.482517 47.835861 2.456289
17.797239 47.835861 2.681607
18.111959 47.835861 2.330703
18.426680 47.835861 2.138073
18.741402 47.835861 1.056245
-7.065720 47.521137 0.000000
-6.750999 47.521137 0.000000
-6.436278 47.521137 0.006513
-6.121557 47.521137 0.006557
-5.806836 47.521137 0.008364
-5.492115 47.521137 0.008219
-5.177394 47.521137 0.008726
-4.862673 47.521137 0.009422
-4.547952 47.521137 0.009878
-4.233231 47.521137 0.010243
-3.918510 47.521137 0.010627
-3.603789 47.521137 0.012246
-3.289068 47.521137 0.010495
-2.974347 47.521137 0.009958
-2.659626 47.521137 0.009280
-2.344905 47.521137 0.001655
-2.030184 47.521137 0.000000
-1.715463 47.521137 0.000000
-1.400742 47.521137 0.000000
-1.086021 47.521137 0.000000
-0.771300 47.521137 0.000000
-0.456579 47.521137 0.000000
-0.141859 47.521137 0.000000
0.172863 47.521137 0.000000
0.487584 47.521137 0.000000
0.802305 47.521137 0.000000
1.117026 47.521137 0.000000
1.431747 47.521137 0.000000
1.746467 47.521137 0.000000
2.061188 47.521137 0.000000
2.375909 47.521137 0.000000
2.690630 47.521137 0.000000
3.005352 47.521137 0.000000
3.320073 47.521137 0.000000
3.634794 47.521137 0.000000
3.949515 47.521137 0.000000
4.264236 47.521137 0.000000
4.578956 47.521137 0.000000
4.893677 47.521137 0.000000
5.208398 47.521137 0.000000
5.523119 47.521137 0.000000
5.837841 47.521137 0.000000
6.152562 47.521137 0.000000
6.467283 47.521137 0.000000
6.782003 47.521137 0.000000
7.096724 47.521137 0.229731
7.411445 47.521137 1.368466
7.726166 47.521137 1.315896
8.040888 47.521137 1.273009
8.355608 47.521137 1.472196
8.670330 47.521137 1.257852
8.985050 47.521137 1.165174
9.299772 47.521137 1.235800
9.614492 47.521137 1.370777
9.929214 47.521137 1.350632
10.243935 47.521137 1.366000
10.558655 47.521137 1.297531
10.873377 47.521137 1.302768
11.188097 47.521137 1.284430
11.502819 47.521137 1.309666
11.817539 47.521137 1.353332
12.132261 47.521137 1.391403
12.446981 47.521137 1.397595
12.761703 47.521137 1.435049
13.076424 47.521137 1.431744
13.391144 47.521137 1.415619
13.705866 47.521137 1.439716
14.020586 47.521137 1.448258
14.335308 47.521137 1.420364
14.650028 47.521137 1.389366
14.964750 47.521137 1.353237
15.279470 47.521137 1.325112
15.594193 47.521137 1.266778
15.908913 47.521137 1.228181
16.223633 47.521137 1.187036
16.538355 47.521137 1.175398
16.853075 47.521137 1.172398
17.167797 47.521137 1.188900
17.482517 47.521137 1.202578
17.797239 47.521137 1.203451
18.111959 47.521137 1.146774
18.426680 47.521137 1.117423
18.741402 47.521137 0.426106
-7.065720 47.206417 0.000000
-6.750999 47.206417 0.000000
-6.436278 47.206417 0.006297
-6.121557 47.206417 0.007066
-5.806836 47.206417 0.006952
-5.492115 47.206417 0.007060
-5.177394 47.206417 0.007295
-4.862673 47.206417 0.007469
-4.547952 47.206417 0.007447
-4.233231 47.206417 0.007365
-3.918510 47.206417 0.007272
-3.603789 47.206417 0.007363
-3.289068 47.206417 0.007367
-2.974347 47.206417 0.007358
-2.659626 47.206417 0.007585
-2.344905 47.206417 0.007745
-2.030184 47.206417 0.007760
-1.715463 47.206417 0.007815
-1.400742 47.206417 0.007975
-1.086021 47.206417 0.008114
-0.771300 47.206417 0.008278
-0.456579 47.206417 0.008648
-0.141859 47.206417 0.008923
0.172863 47.206417 0.009044
0.487584 47.206417 0.009488
0.802305 47.206417 0.009833
1.117026 47.206417 0.010230
1.431747 47.206417 0.010752
1.746467 47.206417 0.011364
2.061188 47.206417 0.012051
2.375909 47.206417 0.012884
2.690630 47.206417 0.013852
3.005352 47.206417 0.015063
3.320073 47.206417 0.016388
3.634794 47.206417 0.017844
3.949515 47.206417 0.019256
4.264236 47.206417 0.021172
4.578956 47.206417 0.023477
4.893677 47.206417 0.026757
5.208398 47.206417 0.030968
5.523119 47.206417 0.035941
5.837841 47.206417 0.042935
6.152562 47.206417 0.051545
6.467283 47.206417 0.063439
6.782003 47.206417 0.079013
7.096724 47.206417 0.100323
7.411445 47.206417 0.125557
7.726166 47.206417 0.158870
8.040888 47.206417 0.209158
8.355608 47.206417 0.267623
8.670330 47.206417 0.342619
8.985050 47.206417 0.417049
9.299772 47.206417 0.496698
9.614492 47.206417 0.595080
9.929214 47.206417 0.710839
10.243935 47.206417 0.820764
10.558655 47.206417 0.939276
10.873377 47.206417 1.055308
11.188097 47.206417 1.146612
11.502819 47.206417 1.230448
11.817539 47.206417 1.311581
12.132261 47.206417 1.389254
12.446981 47.206417 1.457275
12.761703 47.206417 1.525245
13.076424 47.206417 1.548922
13.391144 47.206417 1.554048
13.705866 47.206417 1.549082
14.020586 47.206417 1.532141
14.335308 47.206417 1.492480
14.650028 47.206417 1.446211
14.964750 47.206417 1.389366
15.279470 47.206417 1.343322
15.594193 47.206417 1.276796
15.908913 47.206417 1.223717
16.223633 47.206417 1.169896
16.538355 47.206417 1.152093
16.853075 47.206417 1.143043
17.167797 47.206417 1.157670
17.482517 47.206417 1.194705
17.797239 47.206417 1.208139
18.111959 47.206417 1.234065
18.426680 47.206417 1.264127
18.741402 47.206417 0.408440
-7.065720 46.891697 0.000000
-6.750999 46.891697 0.000000
-6.436278 46.891697 0.007274
-6.121557 46.891697 0.006133
-5.806836 46.891697 0.005945
-5.492115 46.891697 0.005975
-5.177394 46.891697 0.006105
-4.862673 46.891697 0.006274
-4.547952 46.891697 0.006261
-4.233231 46.891697 0.006241
-3.918510 46.891697 0.006209
-3.603789 46.891697 0.006223
-3.289068 46.891697 0.006264
-2.974347 46.891697 0.006266
-2.659626 46.891697 0.006425
-2.344905 46.891697 0.006513
-2.030184 46.891697 0.006546
-1.715463 46.891697 0.006631
-1.400742 46.891697 0.006772
-1.086021 46.891697 0.006885
-0.771300 46.891697 0.007049
-0.456579 46.891697 0.007385
-0.141859 46.891697 0.007689
0.172863 46.891697 0.007809
0.487584 46.891697 0.008148
0.802305 46.891697 0.008474
1.117026 46.891697 0.008890
1.431747 46.891697 0.009405
1.746467 46.891697 0.009958
2.061188 46.891697 0.010624
2.375909 46.891697 0.011433
2.690630 46.891697 0.012325
3.005352 46.891697 0.013411
3.320073 46.891697 0.014783
3.634794 46.891697 0.016275
3.949515 46.891697 0.017803
4.264236 46.891697 0.019546
4.578956 46.891697 0.021876
4.893677 46.891697 0.025027
5.208398 46.891697 0.029079
5.523119 46.891697 0.033867
5.837841 46.891697 0.040359
6.152562 46.891697 0.048884
6.467283 46.891697 0.059982
6.782003 46.891697 0.075319
7.096724 46.891697 0.094941
7.411445 46.891697 0.121426
7.726166 46.891697 0.150594
8.040888 46.891697 0.194758
8.355608 46.891697 0.248085
8.670330 46.891697 0.315713
8.985050 46.891697 0.387326
9.299772 46.891697 0.465311
9.614492 46.891697 0.554202
9.929214 46.891697 0.659915
10.243935 46.891697 0.769261
10.558655 46.891697 0.884862
10.873377 46.891697 0.987410
11.188097 46.891697 1.075298
11.502819 46.891697 1.165238
11.817539 46.891697 1.246992
12.132261 46.891697 1.318818
12.446981 46.891697 1.380590
12.761703 46.891697 1.433135
13.076424 46.891697 1.458945
13.391144 46.891697 1.466811
13.705866 46.891697 1.460951
14.020586 46.891697 1.456023
14.335308 46.891697 1.408691
14.650028 46.891697 1.351707
14.964750 46.891697 1.317143
15.279470 46.891697 1.260860
15.594193 46.891697 1.200323
15.908913 46.891697 1.153792
16.223633 46.891697 1.102099
16.538355 46.891697 1.071947
16.853075 46.891697 1.075507
17.167797 46.891697 1.086130
17.482517 46.891697 1.120871
17.797239 46.891697 1.151212
18.111959 46.891697 1.181462
18.426680 46.891697 1.268234
18.741402 46.891697 0.395606
-7.065720 46.576977 0.000000
-6.750999 46.576977 0.000000
-6.436278 46.576977 0.006779
-6.121557 46.576977 0.005612
-5.806836 46.576977 0.005549
-5.492115 46.576977 0.005592
-5.177394 46.576977 0.005643
-4.862673 46.576977 0.005763
-4.547952 46.576977 0.005773
-4.233231 46.576977 0.005799
-3.918510 46.576977 0.005792
-3.603789 46.576977 0.005803
-3.289068 46.576977 0.005831
-2.974347 46.576977 0.005843
-2.659626 46.576977 0.005934
-2.344905 46.576977 0.005990
-2.030184 46.576977 0.006034
-1.715463 46.576977 0.006148
-1.400742 46.576977 0.006288
-1.086021 46.576977 0.006429
-0.771300 46.576977 0.006592
-0.456579 46.576977 0.006862
-0.141859 46.576977 0.007173
0.172863 46.576977 0.007322
0.487584 46.576977 0.007608
0.802305 46.576977 0.007900
1.117026 46.576977 0.008334
1.431747 46.576977 0.008820
1.746467 46.576977 0.009401
2.061188 46.576977 0.010064
2.375909 46.576977 0.010832
2.690630 46.576977 0.011668
3.005352 46.576977 0.012666
3.320073 46.576977 0.013954
3.634794 46.576977 0.015468
3.949515 46.576977 0.017023
4.264236 46.576977 0.018861
4.578956 46.576977 0.021158
4.893677 46.576977 0.024255
5.208398 46.576977 0.028224
5.523119 46.576977 0.033130
5.837841 46.576977 0.039593
6.152562 46.576977 0.047592
6.467283 46.576977 0.058454
6.782003 46.576977 0.073451
7.096724 46.576977 0.092031
7.411445 46.576977 0.114769
7.726166 46.576977 0.146365
8.040888 46.576977 0.187382
8.355608 46.576977 0.239111
8.670330 46.576977 0.301757
8.985050 46.576977 0.368855
9.299772 46.576977 0.442970
9.614492 46.576977 0.533719
9.929214 46.576977 0.632216
10.243935 46.576977 0.737018
10.558655 46.576977 0.844996
10.873377 46.576977 0.947695
11.188097 46.576977 1.036805
11.502819 46.576977 1.113914
11.817539 46.576977 1.200073
12.132261 46.576977 1.267422
12.446981 46.576977 1.329405
12.761703 46.576977 1.379331
13.076424 46.576977 1.400010
13.391144 46.576977 1.412600
13.705866 46.576977 1.410297
14.020586 46.576977 1.398197
14.335308 46.576977 1.372500
14.650028 46.576977 1.320728
14.964750 46.576977 1.270813
15.279470 46.576977 1.210507
15.594193 46.576977 1.167123
15.908913 46.576977 1.113994
16.223633 46.576977 1.075482
16.538355 46.576977 1.049436
16.853075 46.576977 1.042908
17.167797 46.576977 1.067229
17.482517 46.576977 1.109971
17.797239 46.576977 1.130432
18.111959 46.576977 1.177014
18.426680 46.576977 1.255822
18.741402 46.576977 0.379823
-7.065720 46.262253 0.000000
-6.750999 46.262253 0.000000
-6.436278 46.262253 0.006551
-6.121557 46.262253 0.005468
-5.806836 46.262253 0.005483
-5.492115 46.262253 0.005520
-5.177394 46.262253 0.005506
-4.862673 46.262253 0.005584
-4.547952 46.262253 0.005617
-4.233231 46.262253 0.005677
-3.918510 46.262253 0.005692
-3.603789 46.262253 0.005732
-3.289068 46.262253 0.005777
-2.974347 46.262253 0.005787
-2.659626 46.262253 0.005851
-2.344905 46.262253 0.005863
-2.030184 46.262253 0.005898
-1.715463 46.262253 0.006027
-1.400742 46.262253 0.006189
-1.086021 46.262253 0.006337
-0.771300 46.262253 0.006510
-0.456579 46.262253 0.006747
-0.141859 46.262253 0.007055
0.172863 46.262253 0.007230
0.487584 46.262253 0.007480
0.802305 46.262253 0.007795
1.117026 46.262253 0.008207
1.431747 46.262253 0.008722
1.746467 46.262253 0.009304
2.061188 46.262253 0.009955
2.375909 46.262253 0.010723
2.690630 46.262253 0.011521
3.005352 46.262253 0.012454
3.320073 46.262253 0.013664
3.634794 46.262253 0.015152
3.949515 46.262253 0.016784
4.264236 46.262253 0.018644
4.578956 46.262253 0.020924
4.893677 46.262253 0.024038
5.208398 46.262253 0.028145
5.523119 46.262253 0.033234
5.837841 46.262253 0.039616
6.152562 46.262253 0.048421
6.467283 46.262253 0.058490
6.782003 46.262253 0.072816
7.096724 46.262253 0.091504
7.411445 46.262253 0.113911
7.726166 46.262253 0.146249
8.040888 46.262253 0.188982
8.355608 46.262253 0.238173
8.670330 46.262253 0.296288
8.985050 46.262253 0.364236
9.299772 46.262253 0.440496
9.614492 46.262253 0.532514
9.929214 46.262253 0.629400
10.243935 46.262253 0.726896
10.558655 46.262253 0.829267
10.873377 46.262253 0.929580
11.188097 46.262253 1.022663
11.502819 46.262253 1.105407
11.817539 46.262253 1.192564
12.132261 46.262253 1.257436
12.446981 46.262253 1.318243
12.761703 46.262253 1.356868
13.076424 46.262253 1.385408
13.391144 46.262253 1.404099
13.705866 46.262253 1.404900
14.020586 46.262253 1.394074
14.335308 46.262253 1.363007
14.650028 46.262253 1.312578
14.964750 46.262253 1.265993
15.279470 46.262253 1.199304
15.594193 46.262253 1.150121
15.908913 46.262253 1.107962
16.223633 46.262253 1.071601
16.538355 46.262253 1.044028
16.853075 46.262253 1.045197
17.167797 46.262253 1.073701
17.482517 46.262253 1.113372
17.797239 46.262253 1.128670
18.111959 46.262253 1.175984
18.426680 46.262253 1.235896
18.741402 46.262253 0.368928
-7.065720 45.947533 0.000000
-6.750999 45.947533 0.000000
-6.436278 45.947533 0.006509
-6.121557 45.947533 0.005485
-5.806836 45.947533 0.005490
-5.492115 45.947533 0.005501
-5.177394 45.947533 0.005417
-4.862673 45.947533 0.005466
-4.547952 45.947533 0.005528
-4.233231 45.947533 0.005622
-3.918510 45.947533 0.005633
-3.603789 45.947533 0.005687
-3.289068 45.947533 0.005788
-2.974347 45.947533 0.005821
-2.659626 45.947533 0.005866
-2.344905 45.947533 0.005854
-2.030184 45.947533 0.005886
-1.715463 45.947533 0.006006
-1.400742 45.947533 0.006141
-1.086021 45.947533 0.006321
-0.771300 45.947533 0.006501
-0.456579 45.947533 0.006729
-0.141859 45.947533 0.007024
0.172863 45.947533 0.007213
0.487584 45.947533 0.007448
0.802305 45.947533 0.007779
1.117026 45.947533 0.008206
1.431747 45.947533 0.008690
1.746467 45.947533 0.009302
2.061188 45.947533 0.009936
2.375909 45.947533 0.010710
2.690630 45.947533 0.011529
3.005352 45.947533 0.012382
3.320073 45.947533 0.013504
3.634794 45.947533 0.014949
3.949515 45.947533 0.016660
4.264236 45.947533 0.018564
4.578956 45.947533 0.020817
4.893677 45.947533 0.024013
5.208398 45.947533 0.028006
5.523119 45.947533 0.032983
5.837841 45.947533 0.039529
6.152562 45.947533 0.047717
6.467283 45.947533 0.058625
6.782003 45.947533 0.072752
7.096724 45.947533 0.090884
7.411445 45.947533 0.115086
7.726166 45.947533 0.145786
8.040888 45.947533 0.189226
8.355608 45.947533 0.241399
8.670330 45.947533 0.301448
8.985050 45.947533 0.371528
9.299772 45.947533 0.449503
9.614492 45.947533 0.537953
9.929214 45.947533 0.635953
10.243935 45.947533 0.732312
10.558655 45.947533 0.831172
10.873377 45.947533 0.933222
11.188097 45.947533 1.034833
11.502819 45.947533 1.119051
11.817539 45.947533 1.199827
12.132261 45.947533 1.266000
12.446981 45.947533 1.324485
12.761703 45.947533 1.367439
13.076424 45.947533 1.397444
13.391144 45.947533 1.423906
13.705866 45.947533 1.419876
14.020586 45.947533 1.403097
14.335308 45.947533 1.365524
14.650028 45.947533 1.318961
14.964750 45.947533 1.265318
15.279470 45.947533 1.207696
15.594193 45.947533 1.154536
15.908913 45.947533 1.112501
16.223633 45.947533 1.065219
16.538355 45.947533 1.049992
16.853075 45.947533 1.059130
17.167797 45.947533 1.083478
17.482517 45.947533 1.132283
17.797239 45.947533 1.145200
18.111959 45.947533 1.172497
18.426680 45.947533 1.234240
18.741402 45.947533 0.342762
-7.065720 45.632813 0.000000
-6.750999 45.632813 0.000000
-6.436278 45.632813 0.006439
-6.121557 45.632813 0.005503
-5.806836 45.632813 0.005489
-5.492115 45.632813 0.005472
-5.177394 45.632813 0.005352
-4.862673 45.632813 0.005376
-4.547952 45.632813 0.005457
-4.233231 45.632813 0.005563
-3.918510 45.632813 0.005578
-3.603789 45.632813 0.005640
-3.289068 45.632813 0.005756
-2.974347 45.632813 0.005807
-2.659626 45.632813 0.005867
-2.344905 45.632813 0.005854
-2.030184 45.632813 0.005845
-1.715463 45.632813 0.005964
-1.400742 45.632813 0.006074
-1.086021 45.632813 0.006237
-0.771300 45.632813 0.006436
-0.456579 45.632813 0.006687
-0.141859 45.632813 0.006983
0.172863 45.632813 0.007144
0.487584 45.632813 0.007404
0.802305 45.632813 0.007752
1.117026 45.632813 0.008183
1.431747 45.632813 0.008650
1.746467 45.632813 0.009212
2.061188 45.632813 0.009833
2.375909 45.632813 0.010603
2.690630 45.632813 0.011463
3.005352 45.632813 0.012278
3.320073 45.632813 0.013387
3.634794 45.632813 0.014791
3.949515 45.632813 0.016525
4.264236 45.632813 0.018443
4.578956 45.632813 0.020813
4.893677 45.632813 0.023871
5.208398 45.632813 0.027835
5.523119 45.632813 0.032788
5.837841 45.632813 0.039264
6.152562 45.632813 0.047395
6.467283 45.632813 0.058903
6.782003 45.632813 0.073373
7.096724 45.632813 0.091740
7.411445 45.632813 0.115534
7.726166 45.632813 0.146513
8.040888 45.632813 0.189907
8.355608 45.632813 0.241456
8.670330 45.632813 0.302370
8.985050 45.632813 0.375227
9.299772 45.632813 0.452492
9.614492 45.632813 0.537797
9.929214 45.632813 0.633614
10.243935 45.632813 0.740817
10.558655 45.632813 0.844086
10.873377 45.632813 0.949016
11.188097 45.632813 1.050626
11.502819 45.632813 1.139456
11.817539 45.632813 1.211795
12.132261 45.632813 1.273963
12.446981 45.632813 1.331650
12.761703 45.632813 1.379765
13.076424 45.632813 1.415876
13.391144 45.632813 1.436745
13.705866 45.632813 1.429394
14.020586 45.632813 1.406555
14.335308 45.632813 1.370603
14.650028 45.632813 1.320317
14.964750 45.632813 1.265696
15.279470 45.632813 1.213002
15.594193 45.632813 1.159326
15.908913 45.632813 1.110770
16.223633 45.632813 1.071928
16.538355 45.632813 1.049378
16.853075 45.632813 1.078522
17.167797 45.632813 1.106390
17.482517 45.632813 1.145613
17.797239 45.632813 1.165107
18.111959 45.632813 1.185880
18.426680 45.632813 1.268862
18.741402 45.632813 0.320316
-7.065720 45.318092 0.000000
-6.750999 45.318092 0.000000
-6.436278 45.318092 0.006380
-6.121557 45.318092 0.005507
-5.806836 45.318092 0.005484
-5.492115 45.318092 0.005451
-5.177394 45.318092 0.005351
-4.862673 45.318092 0.005366
-4.547952 45.318092 0.005430
-4.233231 45.318092 0.005527
-3.918510 45.318092 0.005558
-3.603789 45.318092 0.005613
-3.289068 45.318092 0.005700
-2.974347 45.318092 0.005742
-2.659626 45.318092 0.005833
-2.344905 45.318092 0.005829
-2.030184 45.318092 0.005804
-1.715463 45.318092 0.005914
-1.400742 45.318092 0.006005
-1.086021 45.318092 0.006206
-0.771300 45.318092 0.006409
-0.456579 45.318092 0.006661
-0.141859 45.318092 0.006897
0.172863 45.318092 0.007068
0.487584 45.318092 0.007319
0.802305 45.318092 0.007684
1.117026 45.318092 0.008144
1.431747 45.318092 0.008567
1.746467 45.318092 0.009055
2.061188 45.318092 0.009679
2.375909 45.318092 0.010432
2.690630 45.318092 0.011283
3.005352 45.318092 0.012136
3.320073 45.318092 0.013202
3.634794 45.318092 0.014631
3.949515 45.318092 0.016318
4.264236 45.318092 0.018311
4.578956 45.318092 0.020753
4.893677 45.318092 0.023909
5.208398 45.318092 0.027842
5.523119 45.318092 0.032594
5.837841 45.318092 0.038842
6.152562 45.318092 0.047181
6.467283 45.318092 0.057941
6.782003 45.318092 0.072715
7.096724 45.318092 0.091649
7.411445 45.318092 0.115919
7.726166 45.318092 0.146578
8.040888 45.318092 0.187008
8.355608 45.318092 0.239172
8.670330 45.318092 0.301003
8.985050 45.318092 0.376195
9.299772 45.318092 0.453865
9.614492 45.318092 0.539331
9.929214 45.318092 0.643246
10.243935 45.318092 0.749462
10.558655 45.318092 0.850450
10.873377 45.318092 0.957872
11.188097 45.318092 1.056240
11.502819 45.318092 1.144411
11.817539 45.318092 1.221633
12.132261 45.318092 1.286161
12.446981 45.318092 1.336560
12.761703 45.318092 1.386111
13.076424 45.318092 1.421783
13.391144 45.318092 1.437856
13.705866 45.318092 1.424005
14.020586 45.318092 1.398535
14.335308 45.318092 1.366234
14.650028 45.318092 1.326951
14.964750 45.318092 1.275140
15.279470 45.318092 1.226409
15.594193 45.318092 1.165667
15.908913 45.318092 1.120549
16.223633 45.318092 1.085466
16.538355 45.318092 1.071165
16.853075 45.318092 1.095332
17.167797 45.318092 1.119233
17.482517 45.318092 1.130908
17.797239 45.318092 1.168513
18.111959 45.318092 1.207127
18.426680 45.318092 1.281098
18.741402 45.318092 0.314472
-7.065720 45.003372 0.000000
-6.750999 45.003372 0.000000
-6.436278 45.003372 0.006340
-6.121557 45.003372 0.005465
-5.806836 45.003372 0.005425
-5.492115 45.003372 0.005384
-5.177394 45.003372 0.005347
-4.862673 45.003372 0.005400
-4.547952 45.003372 0.005448
-4.233231 45.003372 0.005517
-3.918510 45.003372 0.005541
-3.603789 45.003372 0.005580
-3.289068 45.003372 0.005627
-2.974347 45.003372 0.005667
-2.659626 45.003372 0.005776
-2.344905 45.003372 0.005792
-2.030184 45.003372 0.005770
-1.715463 45.003372 0.005880
-1.400742 45.003372 0.005995
-1.086021 45.003372 0.006206
-0.771300 45.003372 0.006399
-0.456579 45.003372 0.006609
-0.141859 45.003372 0.006806
0.172863 45.003372 0.006998
0.487584 45.003372 0.007267
0.802305 45.003372 0.007628
1.117026 45.003372 0.008106
1.431747 45.003372 0.008517
1.746467 45.003372 0.008910
2.061188 45.003372 0.009509
2.375909 45.003372 0.010264
2.690630 45.003372 0.011096
3.005352 45.003372 0.012008
3.320073 45.003372 0.013106
3.634794 45.003372 0.014483
3.949515 45.003372 0.016158
4.264236 45.003372 0.018178
4.578956 45.003372 0.020767
4.893677 45.003372 0.023895
5.208398 45.003372 0.027811
5.523119 45.003372 0.032570
5.837841 45.003372 0.038671
6.152562 45.003372 0.046702
6.467283 45.003372 0.057792
6.782003 45.003372 0.072282
7.096724 45.003372 0.091416
7.411445 45.003372 0.116409
7.726166 45.003372 0.147438
8.040888 45.003372 0.184784
8.355608 45.003372 0.236853
8.670330 45.003372 0.302647
8.985050 45.003372 0.380139
9.299772 45.003372 0.456940
9.614492 45.003372 0.540136
9.929214 45.003372 0.637057
10.243935 45.003372 0.743971
10.558655 45.003372 0.852276
10.873377 45.003372 0.966553
11.188097 45.003372 1.059466
11.502819 45.003372 1.140812
11.817539 45.003372 1.218030
12.132261 45.003372 1.290408
12.446981 45.003372 1.344393
12.761703 45.003372 1.392705
13.076424 45.003372 1.419540
13.391144 45.003372 1.431938
13.705866 45.003372 1.423509
14.020586 45.003372 1.408148
14.335308 45.003372 1.372579
14.650028 45.003372 1.336458
14.964750 45.003372 1.286789
15.279470 45.003372 1.232631
15.594193 45.003372 1.177622
15.908913 45.003372 1.130390
16.223633 45.003372 1.095949
16.538355 45.003372 1.074484
16.853075 45.003372 1.101854
17.167797 45.003372 1.127357
17.482517 45.003372 1.150448
17.797239 45.003372 1.179639
18.111959 45.003372 1.205281
18.426680 45.003372 1.301911
18.741402 45.003372 0.291331
-7.065720 44.688648 0.000000
-6.750999 44.688648 0.000000
-6.436278 44.688648 0.006312
-6.121557 44.688648 0.005401
-5.806836 44.688648 0.005377
-5.492115 44.688648 0.005319
-5.177394 44.688648 0.005352
-4.862673 44.688648 0.005420
-4.547952 44.688648 0.005456
-4.233231 44.688648 0.005529
-3.918510 44.688648 0.005530
-3.603789 44.688648 0.005531
-3.289068 44.688648 0.005539
-2.974347 44.688648 0.005583
-2.659626 44.688648 0.005706
-2.344905 44.688648 0.005766
-2.030184 44.688648 0.005781
-1.715463 44.688648 0.005863
-1.400742 44.688648 0.006000
-1.086021 44.688648 0.006192
-0.771300 44.688648 0.006361
-0.456579 44.688648 0.006541
-0.141859 44.688648 0.006706
0.172863 44.688648 0.006931
0.487584 44.688648 0.007214
0.802305 44.688648 0.007547
1.117026 44.688648 0.008034
1.431747 44.688648 0.008432
1.746467 44.688648 0.008804
2.061188 44.688648 0.009348
2.375909 44.688648 0.010093
2.690630 44.688648 0.010983
3.005352 44.688648 0.011927
3.320073 44.688648 0.013062
3.634794 44.688648 0.014381
3.949515 44.688648 0.016096
4.264236 44.688648 0.018101
4.578956 44.688648 0.020634
4.893677 44.688648 0.023870
5.208398 44.688648 0.027561
5.523119 44.688648 0.032352
5.837841 44.688648 0.038602
6.152562 44.688648 0.047151
6.467283 44.688648 0.057788
6.782003 44.688648 0.072662
7.096724 44.688648 0.091782
7.411445 44.688648 0.115384
7.726166 44.688648 0.145398
8.040888 44.688648 0.184589
8.355608 44.688648 0.240028
8.670330 44.688648 0.306791
8.985050 44.688648 0.379507
9.299772 44.688648 0.454604
9.614492 44.688648 0.542963
9.929214 44.688648 0.635939
10.243935 44.688648 0.737159
10.558655 44.688648 0.852357
10.873377 44.688648 0.968640
11.188097 44.688648 1.063034
11.502819 44.688648 1.137540
11.817539 44.688648 1.219435
12.132261 44.688648 1.294243
12.446981 44.688648 1.347456
12.761703 44.688648 1.389488
13.076424 44.688648 1.416785
13.391144 44.688648 1.433908
13.705866 44.688648 1.425953
14.020586 44.688648 1.416506
14.335308 44.688648 1.387507
14.650028 44.688648 1.354778
14.964750 44.688648 1.288671
15.279470 44.688648 1.234796
15.594193 44.688648 1.179422
15.908913 44.688648 1.136514
16.223633 44.688648 1.089010
16.538355 44.688648 1.073469
16.853075 44.688648 1.102395
17.167797 44.688648 1.127171
17.482517 44.688648 1.142269
17.797239 44.688648 1.160057
18.111959 44.688648 1.197735
18.426680 44.688648 1.304704
18.741402 44.688648 0.263111
-7.065720 44.373928 0.000000
-6.750999 44.373928 0.000000
-6.436278 44.373928 0.006301
-6.121557 44.373928 0.005378
-5.806836 44.373928 0.005346
-5.492115 44.373928 0.005286
-5.177394 44.373928 0.005360
-4.862673 44.373928 0.005442
-4.547952 44.373928 0.005448
-4.233231 44.373928 0.005511
-3.918510 44.373928 0.005516
-3.603789 44.373928 0.005489
-3.289068 44.373928 0.005474
-2.974347 44.373928 0.005485
-2.659626 44.373928 0.005595
-2.344905 44.373928 0.005719
-2.030184 44.373928 0.005782
-1.715463 44.373928 0.005886
-1.400742 44.373928 0.006031
-1.086021 44.373928 0.006167
-0.771300 44.373928 0.006301
-0.456579 44.373928 0.006449
-0.141859 44.373928 0.006632
0.172863 44.373928 0.006870
0.487584 44.373928 0.007143
0.802305 44.373928 0.007484
1.117026 44.373928 0.007938
1.431747 44.373928 0.008319
1.746467 44.373928 0.008721
2.061188 44.373928 0.009241
2.375909 44.373928 0.009926
2.690630 44.373928 0.010809
3.005352 44.373928 0.011818
3.320073 44.373928 0.012999
3.634794 44.373928 0.014342
3.949515 44.373928 0.016023
4.264236 44.373928 0.018044
4.578956 44.373928 0.020601
4.893677 44.373928 0.023839
5.208398 44.373928 0.027531
5.523119 44.373928 0.032523
5.837841 44.373928 0.038953
6.152562 44.373928 0.047627
6.467283 44.373928 0.058035
6.782003 44.373928 0.072942
7.096724 44.373928 0.091432
7.411445 44.373928 0.114143
7.726166 44.373928 0.145444
8.040888 44.373928 0.185369
8.355608 44.373928 0.238488
8.670330 44.373928 0.307595
8.985050 44.373928 0.379728
9.299772 44.373928 0.462146
9.614492 44.373928 0.544716
9.929214 44.373928 0.638802
10.243935 44.373928 0.737501
10.558655 44.373928 0.849017
10.873377 44.373928 0.968365
11.188097 44.373928 1.066877
11.502819 44.373928 1.150125
11.817539 44.373928 1.220534
12.132261 44.373928 1.291275
12.446981 44.373928 1.346300
12.761703 44.373928 1.388436
13.076424 44.373928 1.416223
13.391144 44.373928 1.434029
13.705866 44.373928 1.430482
14.020586 44.373928 1.414025
14.335308 44.373928 1.386727
14.650028 44.373928 1.354719
14.964750 44.373928 1.301883
15.279470 44.373928 1.238072
15.594193 44.373928 1.191648
15.908913 44.373928 1.141643
16.223633 44.373928 1.077812
16.538355 44.373928 1.062442
16.853075 44.373928 1.113335
17.167797 44.373928 1.115335
17.482517 44.373928 1.108382
17.797239 44.373928 1.122995
18.111959 44.373928 1.173632
18.426680 44.373928 1.282017
18.741402 44.373928 0.244791
-7.065720 44.059208 0.000000
-6.750999 44.059208 0.000000
-6.436278 44.059208 0.006239
-6.121557 44.059208 0.005361
-5.806836 44.059208 0.005334
-5.492115 44.059208 0.005283
-5.177394 44.059208 0.005366
-4.862673 44.059208 0.005466
-4.547952 44.059208 0.005454
-4.233231 44.059208 0.005470
-3.918510 44.059208 0.005483
-3.603789 44.059208 0.005448
-3.289068 44.059208 0.005417
-2.974347 44.059208 0.005421
-2.659626 44.059208 0.005527
-2.344905 44.059208 0.005674
-2.030184 44.059208 0.005771
-1.715463 44.059208 0.005894
-1.400742 44.059208 0.006029
-1.086021 44.059208 0.006103
-0.771300 44.059208 0.006208
-0.456579 44.059208 0.006351
-0.141859 44.059208 0.006567
0.172863 44.059208 0.006810
0.487584 44.059208 0.007087
0.802305 44.059208 0.007425
1.117026 44.059208 0.007856
1.431747 44.059208 0.008232
1.746467 44.059208 0.008678
2.061188 44.059208 0.009202
2.375909 44.059208 0.009823
2.690630 44.059208 0.010705
3.005352 44.059208 0.011756
3.320073 44.059208 0.012933
3.634794 44.059208 0.014312
3.949515 44.059208 0.015946
4.264236 44.059208 0.018025
4.578956 44.059208 0.020564
4.893677 44.059208 0.023753
5.208398 44.059208 0.027388
5.523119 44.059208 0.032392
5.837841 44.059208 0.038925
6.152562 44.059208 0.047873
6.467283 44.059208 0.058711
6.782003 44.059208 0.072870
7.096724 44.059208 0.090621
7.411445 44.059208 0.114342
7.726166 44.059208 0.143862
8.040888 44.059208 0.184981
8.355608 44.059208 0.241967
8.670330 44.059208 0.305594
8.985050 44.059208 0.378120
9.299772 44.059208 0.456908
9.614492 44.059208 0.547820
9.929214 44.059208 0.635403
10.243935 44.059208 0.741124
10.558655 44.059208 0.863878
10.873377 44.059208 0.972251
11.188097 44.059208 1.070349
11.502819 44.059208 1.146981
11.817539 44.059208 1.224782
12.132261 44.059208 1.284584
12.446981 44.059208 1.336415
12.761703 44.059208 1.382962
13.076424 44.059208 1.418977
13.391144 44.059208 1.451113
13.705866 44.059208 1.440538
14.020586 44.059208 1.416264
14.335308 44.059208 1.387628
14.650028 44.059208 1.356869
14.964750 44.059208 1.307363
15.279470 44.059208 1.242664
15.594193 44.059208 1.196021
15.908913 44.059208 1.143320
16.223633 44.059208 1.060999
16.538355 44.059208 1.020042
16.853075 44.059208 1.049352
17.167797 44.059208 1.052525
17.482517 44.059208 1.039344
17.797239 44.059208 1.078452
18.111959 44.059208 1.147413
18.426680 44.059208 1.245460
18.741402 44.059208 0.216648
-7.065720 43.744488 0.000000
-6.750999 43.744488 0.000000
-6.436278 43.744488 0.006148
-6.121557 43.744488 0.005348
-5.806836 43.744488 0.005333
-5.492115 43.744488 0.005299
-5.177394 43.744488 0.005368
-4.862673 43.744488 0.005479
-4.547952 43.744488 0.005478
-4.233231 43.744488 0.005434
-3.918510 43.744488 0.005434
-3.603789 43.744488 0.005394
-3.289068 43.744488 0.005371
-2.974347 43.744488 0.005399
-2.659626 43.744488 0.005481
-2.344905 43.744488 0.005631
-2.030184 43.744488 0.005769
-1.715463 43.744488 0.005882
-1.400742 43.744488 0.005973
-1.086021 43.744488 0.006014
-0.771300 43.744488 0.006121
-0.456579 43.744488 0.006285
-0.141859 43.744488 0.006502
0.172863 43.744488 0.006730
0.487584 43.744488 0.007026
0.802305 43.744488 0.007375
1.117026 43.744488 0.007749
1.431747 43.744488 0.008130
1.746467 43.744488 0.008655
2.061188 43.744488 0.009167
2.375909 43.744488 0.009789
2.690630 43.744488 0.010646
3.005352 43.744488 0.011685
3.320073 43.744488 0.012884
3.634794 43.744488 0.014311
3.949515 43.744488 0.015870
4.264236 43.744488 0.017974
4.578956 43.744488 0.020424
4.893677 43.744488 0.023491
5.208398 43.744488 0.027160
5.523119 43.744488 0.032075
5.837841 43.744488 0.038884
6.152562 43.744488 0.047911
6.467283 43.744488 0.058522
6.782003 43.744488 0.072094
7.096724 43.744488 0.090098
7.411445 43.744488 0.113644
7.726166 43.744488 0.145660
8.040888 43.744488 0.187459
8.355608 43.744488 0.240898
8.670330 43.744488 0.300518
8.985050 43.744488 0.373127
9.299772 43.744488 0.454576
9.614492 43.744488 0.548528
9.929214 43.744488 0.636881
10.243935 43.744488 0.744765
10.558655 43.744488 0.870754
10.873377 43.744488 0.979187
11.188097 43.744488 1.069730
11.502819 43.744488 1.149468
11.817539 43.744488 1.225619
12.132261 43.744488 1.285899
12.446981 43.744488 1.341154
12.761703 43.744488 1.388335
13.076424 43.744488 1.430757
13.391144 43.744488 1.452443
13.705866 43.744488 1.438251
14.020586 43.744488 1.407077
14.335308 43.744488 1.385809
14.650028 43.744488 1.362908
14.964750 43.744488 1.307445
15.279470 43.744488 1.243539
15.594193 43.744488 1.199498
15.908913 43.744488 1.136319
16.223633 43.744488 1.036732
16.538355 43.744488 0.926230
16.853075 43.744488 0.904337
17.167797 43.744488 0.909697
17.482517 43.744488 0.933326
17.797239 43.744488 1.018143
18.111959 43.744488 1.107941
18.426680 43.744488 1.224460
18.741402 43.744488 0.186096
-7.065720 43.429764 0.000000
-6.750999 43.429764 0.000000
-6.436278 43.429764 0.006103
-6.121557 43.429764 0.005349
-5.806836 43.429764 0.005346
-5.492115 43.429764 0.005321
-5.177394 43.429764 0.005370
-4.862673 43.429764 0.005472
-4.547952 43.429764 0.005455
-4.233231 43.429764 0.005405
-3.918510 43.429764 0.005363
-3.603789 43.429764 0.005355
-3.289068 43.429764 0.005360
-2.974347 43.429764 0.005375
-2.659626 43.429764 0.005471
-2.344905 43.429764 0.005587
-2.030184 43.429764 0.005751
-1.715463 43.429764 0.005858
-1.400742 43.429764 0.005917
-1.086021 43.429764 0.005939
-0.771300 43.429764 0.006051
-0.456579 43.429764 0.006255
-0.141859 43.429764 0.006485
0.172863 43.429764 0.006695
0.487584 43.429764 0.006979
0.802305 43.429764 0.007281
1.117026 43.429764 0.007651
1.431747 43.429764 0.008061
1.746467 43.429764 0.008609
2.061188 43.429764 0.009187
2.375909 43.429764 0.009831
2.690630 43.429764 0.010639
3.005352 43.429764 0.011624
3.320073 43.429764 0.012828
3.634794 43.429764 0.014249
3.949515 43.429764 0.015849
4.264236 43.429764 0.017838
4.578956 43.429764 0.020151
4.893677 43.429764 0.023131
5.208398 43.429764 0.027067
5.523119 43.429764 0.032048
5.837841 43.429764 0.038757
6.152562 43.429764 0.047765
6.467283 43.429764 0.058391
6.782003 43.429764 0.072411
7.096724 43.429764 0.089834
7.411445 43.429764 0.112957
7.726166 43.429764 0.144681
8.040888 43.429764 0.187210
8.355608 43.429764 0.238560
8.670330 43.429764 0.298389
8.985050 43.429764 0.371220
9.299772 43.429764 0.454938
9.614492 43.429764 0.542022
9.929214 43.429764 0.634993
10.243935 43.429764 0.746596
10.558655 43.429764 0.863263
10.873377 43.429764 0.987027
11.188097 43.429764 1.072920
11.502819 43.429764 1.157611
11.817539 43.429764 1.232381
12.132261 43.429764 1.293795
12.446981 43.429764 1.342221
12.761703 43.429764 1.391554
13.076424 43.429764 1.431859
13.391144 43.429764 1.446307
13.705866 43.429764 1.431574
14.020586 43.429764 1.409147
14.335308 43.429764 1.390908
14.650028 43.429764 1.370142
14.964750 43.429764 1.310964
15.279470 43.429764 1.241586
15.594193 43.429764 1.193837
15.908913 43.429764 1.118531
16.223633 43.429764 0.985049
16.538355 43.429764 0.820200
16.853075 43.429764 0.699981
17.167797 43.429764 0.694253
17.482517 43.429764 0.804314
17.797239 43.429764 0.951057
18.111959 43.429764 1.073990
18.426680 43.429764 1.198396
18.741402 43.429764 0.173345
-7.065720 43.115044 0.000000
-6.750999 43.115044 0.000000
-6.436278 43.115044 0.006055
-6.121557 43.115044 0.005339
-5.806836 43.115044 0.005357
-5.492115 43.115044 0.005334
-5.177394 43.115044 0.005340
-4.862673 43.115044 0.005430
-4.547952 43.115044 0.005437
-4.233231 43.115044 0.005376
-3.918510 43.115044 0.005305
-3.603789 43.115044 0.005339
-3.289068 43.115044 0.005359
-2.974347 43.115044 0.005359
-2.659626 43.115044 0.005469
-2.344905 43.115044 0.005550
-2.030184 43.115044 0.005682
-1.715463 43.115044 0.005802
-1.400742 43.115044 0.005861
-1.086021 43.115044 0.005923
-0.771300 43.115044 0.006026
-0.456579 43.115044 0.006244
-0.141859 43.115044 0.006424
0.172863 43.115044 0.006635
0.487584 43.115044 0.006926
0.802305 43.115044 0.007207
1.117026 43.115044 0.007566
1.431747 43.115044 0.007991
1.746467 43.115044 0.008532
2.061188 43.115044 0.009141
2.375909 43.115044 0.009826
2.690630 43.115044 0.010618
3.005352 43.115044 0.011562
3.320073 43.115044 0.012802
3.634794 43.115044 0.014186
3.949515 43.115044 0.015740
4.264236 43.115044 0.017665
4.578956 43.115044 0.019954
4.893677 43.115044 0.022923
5.208398 43.115044 0.026874
5.523119 43.115044 0.031724
5.837841 43.115044 0.038425
6.152562 43.115044 0.047153
6.467283 43.115044 0.057667
6.782003 43.115044 0.071156
7.096724 43.115044 0.090370
7.411445 43.115044 0.115534
7.726166 43.115044 0.146537
8.040888 43.115044 0.187266
8.355608 43.115044 0.238441
8.670330 43.115044 0.301779
8.985050 43.115044 0.374452
9.299772 43.115044 0.451162
9.614492 43.115044 0.542551
9.929214 43.115044 0.636606
10.243935 43.115044 0.747791
10.558655 43.115044 0.858844
10.873377 43.115044 0.982659
11.188097 43.115044 1.083616
11.502819 43.115044 1.168566
11.817539 43.115044 1.244056
12.132261 43.115044 1.300375
12.446981 43.115044 1.350767
12.761703 43.115044 1.394843
13.076424 43.115044 1.429319
13.391144 43.115044 1.437619
13.705866 43.115044 1.432431
14.020586 43.115044 1.414371
14.335308 43.115044 1.404242
14.650028 43.115044 1.374622
14.964750 43.115044 1.317038
15.279470 43.115044 1.242565
15.594193 43.115044 1.186122
15.908913 43.115044 1.099923
16.223633 43.115044 0.938635
16.538355 43.115044 0.710693
16.853075 43.115044 0.534824
17.167797 43.115044 0.539565
17.482517 43.115044 0.701187
17.797239 43.115044 0.890478
18.111959 43.115044 1.044374
18.426680 43.115044 1.175252
18.741402 43.115044 0.149443
-7.065720 42.800323 0.000000
-6.750999 42.800323 0.000000
-6.436278 42.800323 0.006001
-6.121557 42.800323 0.005320
-5.806836 42.800323 0.005343
-5.492115 42.800323 0.005308
-5.177394 42.800323 0.005294
-4.862673 42.800323 0.005375
-4.547952 42.800323 0.005400
-4.233231 42.800323 0.005348
-3.918510 42.800323 0.005269
-3.603789 42.800323 0.005328
-3.289068 42.800323 0.005376
-2.974347 42.800323 0.005359
-2.659626 42.800323 0.005473
-2.344905 42.800323 0.005522
-2.030184 42.800323 0.005626
-1.715463 42.800323 0.005720
-1.400742 42.800323 0.005796
-1.086021 42.800323 0.005928
-0.771300 42.800323 0.006038
-0.456579 42.800323 0.006236
-0.141859 42.800323 0.006380
0.172863 42.800323 0.006587
0.487584 42.800323 0.006887
0.802305 42.800323 0.007133
1.117026 42.800323 0.007497
1.431747 42.800323 0.007943
1.746467 42.800323 0.008457
2.061188 42.800323 0.009070
2.375909 42.800323 0.009763
2.690630 42.800323 0.010540
3.005352 42.800323 0.011491
3.320073 42.800323 0.012726
3.634794 42.800323 0.014156
3.949515 42.800323 0.015662
4.264236 42.800323 0.017488
4.578956 42.800323 0.019799
4.893677 42.800323 0.022797
5.208398 42.800323 0.026843
5.523119 42.800323 0.031754
5.837841 42.800323 0.038063
6.152562 42.800323 0.046677
6.467283 42.800323 0.057830
6.782003 42.800323 0.071966
7.096724 42.800323 0.091053
7.411445 42.800323 0.114634
7.726166 42.800323 0.146248
8.040888 42.800323 0.188473
8.355608 42.800323 0.240607
8.670330 42.800323 0.308004
8.985050 42.800323 0.378810
9.299772 42.800323 0.461399
9.614492 42.800323 0.542114
9.929214 42.800323 0.637291
10.243935 42.800323 0.745896
10.558655 42.800323 0.867429
10.873377 42.800323 0.980478
11.188097 42.800323 1.087716
11.502819 42.800323 1.178682
11.817539 42.800323 1.246900
12.132261 42.800323 1.303957
12.446981 42.800323 1.351593
12.761703 42.800323 1.401101
13.076424 42.800323 1.425435
13.391144 42.800323 1.436501
13.705866 42.800323 1.427211
14.020586 42.800323 1.423140
14.335308 42.800323 1.407153
14.650028 42.800323 1.375231
14.964750 42.800323 1.318582
15.279470 42.800323 1.249340
15.594193 42.800323 1.177558
15.908913 42.800323 1.077677
16.223633 42.800323 0.888268
16.538355 42.800323 0.632519
16.853075 42.800323 0.430807
17.167797 42.800323 0.438213
17.482517 42.800323 0.639067
17.797239 42.800323 0.841805
18.111959 42.800323 1.015567
18.426680 42.800323 1.167549
18.741402 42.800323 0.145002
-7.065720 42.485603 0.000000
-6.750999 42.485603 0.000000
-6.436278 42.485603 0.005987
-6.121557 42.485603 0.005299
-5.806836 42.485603 0.005336
-5.492115 42.485603 0.005273
-5.177394 42.485603 0.005242
-4.862673 42.485603 0.005308
-4.547952 42.485603 0.005345
-4.233231 42.485603 0.005328
-3.918510 42.485603 0.005254
-3.603789 42.485603 0.005335
-3.289068 42.485603 0.005401
-2.974347 42.485603 0.005402
-2.659626 42.485603 0.005496
-2.344905 42.485603 0.005503
-2.030184 42.485603 0.005564
-1.715463 42.485603 0.005658
-1.400742 42.485603 0.005774
-1.086021 42.485603 0.005894
-0.771300 42.485603 0.006015
-0.456579 42.485603 0.006204
-0.141859 42.485603 0.006342
0.172863 42.485603 0.006548
0.487584 42.485603 0.006835
0.802305 42.485603 0.007082
1.117026 42.485603 0.007452
1.431747 42.485603 0.007919
1.746467 42.485603 0.008433
2.061188 42.485603 0.009012
2.375909 42.485603 0.009674
2.690630 42.485603 0.010457
3.005352 42.485603 0.011358
3.320073 42.485603 0.012621
3.634794 42.485603 0.014050
3.949515 42.485603 0.015489
4.264236 42.485603 0.017356
4.578956 42.485603 0.019677
4.893677 42.485603 0.022729
5.208398 42.485603 0.026776
5.523119 42.485603 0.031834
5.837841 42.485603 0.038095
6.152562 42.485603 0.046503
6.467283 42.485603 0.057576
6.782003 42.485603 0.072297
7.096724 42.485603 0.091075
7.411445 42.485603 0.113761
7.726166 42.485603 0.145470
8.040888 42.485603 0.186007
8.355608 42.485603 0.242145
8.670330 42.485603 0.310791
8.985050 42.485603 0.380165
9.299772 42.485603 0.464245
9.614492 42.485603 0.550847
9.929214 42.485603 0.644572
10.243935 42.485603 0.750561
10.558655 42.485603 0.866714
10.873377 42.485603 0.984936
11.188097 42.485603 1.085821
11.502819 42.485603 1.182001
11.817539 42.485603 1.248288
12.132261 42.485603 1.301839
12.446981 42.485603 1.361815
12.761703 42.485603 1.406827
13.076424 42.485603 1.418381
13.391144 42.485603 1.428131
13.705866 42.485603 1.426627
14.020586 42.485603 1.421826
14.335308 42.485603 1.401894
14.650028 42.485603 1.366705
14.964750 42.485603 1.316792
15.279470 42.485603 1.250973
15.594193 42.485603 1.174981
15.908913 42.485603 1.049890
16.223633 42.485603 0.851783
16.538355 42.485603 0.581477
16.853075 42.485603 0.378994
17.167797 42.485603 0.385558
17.482517 42.485603 0.596628
17.797239 42.485603 0.812359
18.111959 42.485603 1.000756
18.426680 42.485603 1.152867
18.741402 42.485603 0.126963
-7.065720 42.170883 0.000000
-6.750999 42.170883 0.000000
-6.436278 42.170883 0.006015
-6.121557 42.170883 0.005297
-5.806836 42.170883 0.005317
-5.492115 42.170883 0.005237
-5.177394 42.170883 0.005205
-4.862673 42.170883 0.005238
-4.547952 42.170883 0.005249
-4.233231 42.170883 0.005295
-3.918510 42.170883 0.005272
-3.603789 42.170883 0.005368
-3.289068 42.170883 0.005414
-2.974347 42.170883 0.005402
-2.659626 42.170883 0.005490
-2.344905 42.170883 0.005475
-2.030184 42.170883 0.005485
-1.715463 42.170883 0.005588
-1.400742 42.170883 0.005741
-1.086021 42.170883 0.005822
-0.771300 42.170883 0.005959
-0.456579 42.170883 0.006174
-0.141859 42.170883 0.006339
0.172863 42.170883 0.006525
0.487584 42.170883 0.006807
0.802305 42.170883 0.007060
1.117026 42.170883 0.007446
1.431747 42.170883 0.007903
1.746467 42.170883 0.008402
2.061188 42.170883 0.008974
2.375909 42.170883 0.009610
2.690630 42.170883 0.010378
3.005352 42.170883 0.011267
3.320073 42.170883 0.012464
3.634794 42.170883 0.013846
3.949515 42.170883 0.015327
4.264236 42.170883 0.017122
4.578956 42.170883 0.019580
4.893677 42.170883 0.022713
5.208398 42.170883 0.026699
5.523119 42.170883 0.031471
5.837841 42.170883 0.037748
6.152562 42.170883 0.046298
6.467283 42.170883 0.057246
6.782003 42.170883 0.071721
7.096724 42.170883 0.090221
7.411445 42.170883 0.113389
7.726166 42.170883 0.144196
8.040888 42.170883 0.184399
8.355608 42.170883 0.241469
8.670330 42.170883 0.309281
8.985050 42.170883 0.383592
9.299772 42.170883 0.466448
9.614492 42.170883 0.550509
9.929214 42.170883 0.643075
10.243935 42.170883 0.739101
10.558655 42.170883 0.862587
10.873377 42.170883 0.986550
11.188097 42.170883 1.088186
11.502819 42.170883 1.174647
11.817539 42.170883 1.247618
12.132261 42.170883 1.305199
12.446981 42.170883 1.362997
12.761703 42.170883 1.402089
13.076424 42.170883 1.414838
13.391144 42.170883 1.423865
13.705866 42.170883 1.429071
14.020586 42.170883 1.411887
14.335308 42.170883 1.393906
14.650028 42.170883 1.362278
14.964750 42.170883 1.316701
15.279470 42.170883 1.247129
15.594193 42.170883 1.171150
15.908913 42.170883 1.028153
16.223633 42.170883 0.816672
16.538355 42.170883 0.557118
16.853075 42.170883 0.357258
17.167797 42.170883 0.376282
17.482517 42.170883 0.580731
17.797239 42.170883 0.795984
18.111959 42.170883 1.000301
18.426680 42.170883 1.167196
18.741402 42.170883 0.121308
-7.065720 41.856159 0.000000
-6.750999 41.856159 0.000000
-6.436278 41.856159 0.006037
-6.121557 41.856159 0.005294
-5.806836 41.856159 0.005295
-5.492115 41.856159 0.005197
-5.177394 41.856159 0.005134
-4.862673 41.856159 0.005172
-4.547952 41.856159 0.005213
-4.233231 41.856159 0.005291
-3.918510 41.856159 0.005287
-3.603789 41.856159 0.005349
-3.289068 41.856159 0.005410
-2.974347 41.856159 0.005433
-2.659626 41.856159 0.005462
-2.344905 41.856159 0.005405
-2.030184 41.856159 0.005428
-1.715463 41.856159 0.005538
-1.400742 41.856159 0.005676
-1.086021 41.856159 0.005766
-0.771300 41.856159 0.005901
-0.456579 41.856159 0.006117
-0.141859 41.856159 0.006296
0.172863 41.856159 0.006513
0.487584 41.856159 0.006808
0.802305 41.856159 0.007092
1.117026 41.856159 0.007473
1.431747 41.856159 0.007868
1.746467 41.856159 0.008348
2.061188 41.856159 0.008930
2.375909 41.856159 0.009555
2.690630 41.856159 0.010327
3.005352 41.856159 0.011220
3.320073 41.856159 0.012302
3.634794 41.856159 0.013676
3.949515 41.856159 0.015219
4.264236 41.856159 0.017074
4.578956 41.856159 0.019494
4.893677 41.856159 0.022715
5.208398 41.856159 0.026512
5.523119 41.856159 0.031384
5.837841 41.856159 0.037645
6.152562 41.856159 0.045936
6.467283 41.856159 0.056931
6.782003 41.856159 0.072311
7.096724 41.856159 0.090278
7.411445 41.856159 0.114393
7.726166 41.856159 0.145829
8.040888 41.856159 0.186623
8.355608 41.856159 0.240572
8.670330 41.856159 0.303964
8.985050 41.856159 0.381701
9.299772 41.856159 0.465037
9.614492 41.856159 0.556923
9.929214 41.856159 0.644437
10.243935 41.856159 0.741574
10.558655 41.856159 0.871645
10.873377 41.856159 0.991063
11.188097 41.856159 1.085271
11.502819 41.856159 1.172510
11.817539 41.856159 1.247793
12.132261 41.856159 1.308223
12.446981 41.856159 1.364978
12.761703 41.856159 1.405102
13.076424 41.856159 1.415956
13.391144 41.856159 1.426757
13.705866 41.856159 1.428267
14.020586 41.856159 1.412019
14.335308 41.856159 1.390272
14.650028 41.856159 1.362018
14.964750 41.856159 1.308533
15.279470 41.856159 1.242018
15.594193 41.856159 1.162772
15.908913 41.856159 1.007175
16.223633 41.856159 0.791790
16.538355 41.856159 0.539060
16.853075 41.856159 0.348652
17.167797 41.856159 0.377935
17.482517 41.856159 0.577646
17.797239 41.856159 0.790373
18.111959 41.856159 1.011693
18.426680 41.856159 1.184103
18.741402 41.856159 0.106481
-7.065720 41.541439 0.000000
-6.750999 41.541439 0.000000
-6.436278 41.541439 0.006011
-6.121557 41.541439 0.005283
-5.806836 41.541439 0.005282
-5.492115 41.541439 0.005176
-5.177394 41.541439 0.005126
-4.862673 41.541439 0.005150
-4.547952 41.541439 0.005224
-4.233231 41.541439 0.005299
-3.918510 41.541439 0.005300
-3.603789 41.541439 0.005314
-3.289068 41.541439 0.005382
-2.974347 41.541439 0.005432
-2.659626 41.541439 0.005453
-2.344905 41.541439 0.005378
-2.030184 41.541439 0.005386
-1.715463 41.541439 0.005481
-1.400742 41.541439 0.005615
-1.086021 41.541439 0.005737
-0.771300 41.541439 0.005847
-0.456579 41.541439 0.006068
-0.141859 41.541439 0.006266
0.172863 41.541439 0.006504
0.487584 41.541439 0.006785
0.802305 41.541439 0.007107
1.117026 41.541439 0.007452
1.431747 41.541439 0.007797
1.746467 41.541439 0.008230
2.061188 41.541439 0.008852
2.375909 41.541439 0.009491
2.690630 41.541439 0.010219
3.005352 41.541439 0.011110
3.320073 41.541439 0.012166
3.634794 41.541439 0.013521
3.949515 41.541439 0.015123
4.264236 41.541439 0.017183
4.578956 41.541439 0.019603
4.893677 41.541439 0.022665
5.208398 41.541439 0.026425
5.523119 41.541439 0.031199
5.837841 41.541439 0.037194
6.152562 41.541439 0.045346
6.467283 41.541439 0.056870
6.782003 41.541439 0.071413
7.096724 41.541439 0.090010
7.411445 41.541439 0.115373
7.726166 41.541439 0.147565
8.040888 41.541439 0.188531
8.355608 41.541439 0.239136
8.670330 41.541439 0.299960
8.985050 41.541439 0.381541
9.299772 41.541439 0.463407
9.614492 41.541439 0.549292
9.929214 41.541439 0.644859
10.243935 41.541439 0.749713
10.558655 41.541439 0.878342
10.873377 41.541439 0.995924
11.188097 41.541439 1.084715
11.502819 41.541439 1.164515
11.817539 41.541439 1.242835
12.132261 41.541439 1.309377
12.446981 41.541439 1.379548
12.761703 41.541439 1.406127
13.076424 41.541439 1.427104
13.391144 41.541439 1.434556
13.705866 41.541439 1.433862
14.020586 41.541439 1.420045
14.335308 41.541439 1.395535
14.650028 41.541439 1.362950
14.964750 41.541439 1.303676
15.279470 41.541439 1.245519
15.594193 41.541439 1.153032
15.908913 41.541439 0.996727
16.223633 41.541439 0.782015
16.538355 41.541439 0.527080
16.853075 41.541439 0.348824
17.167797 41.541439 0.376439
17.482517 41.541439 0.566515
17.797239 41.541439 0.787544
18.111959 41.541439 1.005734
18.426680 41.541439 1.182677
18.741402 41.541439 0.116293
-7.065720 41.226719 0.000000
-6.750999 41.226719 0.000000
-6.436278 41.226719 0.005918
-6.121557 41.226719 0.005250
-5.806836 41.226719 0.005268
-5.492115 41.226719 0.005200
-5.177394 41.226719 0.005146
-4.862673 41.226719 0.005136
-4.547952 41.226719 0.005251
-4.233231 41.226719 0.005328
-3.918510 41.226719 0.005291
-3.603789 41.226719 0.005268
-3.289068 41.226719 0.005305
-2.974347 41.226719 0.005396
-2.659626 41.226719 0.005445
-2.344905 41.226719 0.005343
-2.030184 41.226719 0.005357
-1.715463 41.226719 0.005442
-1.400742 41.226719 0.005534
-1.086021 41.226719 0.005710
-0.771300 41.226719 0.005836
-0.456579 41.226719 0.006036
-0.141859 41.226719 0.006219
0.172863 41.226719 0.006470
0.487584 41.226719 0.006740
0.802305 41.226719 0.007063
1.117026 41.226719 0.007392
1.431747 41.226719 0.007710
1.746467 41.226719 0.008132
2.061188 41.226719 0.008726
2.375909 41.226719 0.009417
2.690630 41.226719 0.010126
3.005352 41.226719 0.010979
3.320073 41.226719 0.012056
3.634794 41.226719 0.013401
3.949515 41.226719 0.015102
4.264236 41.226719 0.017169
4.578956 41.226719 0.019676
4.893677 41.226719 0.022562
5.208398 41.226719 0.026189
5.523119 41.226719 0.030980
5.837841 41.226719 0.037062
6.152562 41.226719 0.045385
6.467283 41.226719 0.055992
6.782003 41.226719 0.071369
7.096724 41.226719 0.090251
7.411445 41.226719 0.115764
7.726166 41.226719 0.147393
8.040888 41.226719 0.186609
8.355608 41.226719 0.239252
8.670330 41.226719 0.303112
8.985050 41.226719 0.384180
9.299772 41.226719 0.461343
9.614492 41.226719 0.549664
9.929214 41.226719 0.642184
10.243935 41.226719 0.745647
10.558655 41.226719 0.878824
10.873377 41.226719 0.998869
11.188097 41.226719 1.087151
11.502819 41.226719 1.167073
11.817539 41.226719 1.256782
12.132261 41.226719 1.318475
12.446981 41.226719 1.370388
12.761703 41.226719 1.411636
13.076424 41.226719 1.425286
13.391144 41.226719 1.437745
13.705866 41.226719 1.441133
14.020586 41.226719 1.423474
14.335308 41.226719 1.405715
14.650028 41.226719 1.369931
14.964750 41.226719 1.306061
15.279470 41.226719 1.246961
15.594193 41.226719 1.148461
15.908913 41.226719 1.001522
16.223633 41.226719 0.780662
16.538355 41.226719 0.530626
16.853075 41.226719 0.353894
17.167797 41.226719 0.379209
17.482517 41.226719 0.574719
17.797239 41.226719 0.801655
18.111959 41.226719 1.002869
18.426680 41.226719 1.173109
18.741402 41.226719 0.087486
-7.065720 40.911999 0.000000
-6.750999 40.911999 0.000000
-6.436278 40.911999 0.005851
-6.121557 40.911999 0.005191
-5.806836 40.911999 0.005251
-5.492115 40.911999 0.005229
-5.177394 40.911999 0.005170
-4.862673 40.911999 0.005147
-4.547952 40.911999 0.005264
-4.233231 40.911999 0.005337
-3.918510 40.911999 0.005244
-3.603789 40.911999 0.005217
-3.289068 40.911999 0.005234
-2.974347 40.911999 0.005341
-2.659626 40.911999 0.005400
-2.344905 40.911999 0.005326
-2.030184 40.911999 0.005386
-1.715463 40.911999 0.005414
-1.400742 40.911999 0.005499
-1.086021 40.911999 0.005690
-0.771300 40.911999 0.005825
-0.456579 40.911999 0.005988
-0.141859 40.911999 0.006173
0.172863 40.911999 0.006441
0.487584 40.911999 0.006694
0.802305 40.911999 0.007011
1.117026 40.911999 0.007346
1.431747 40.911999 0.007646
1.746467 40.911999 0.008026
2.061188 40.911999 0.008631
2.375909 40.911999 0.009353
2.690630 40.911999 0.010065
3.005352 40.911999 0.010904
3.320073 40.911999 0.012008
3.634794 40.911999 0.013355
3.949515 40.911999 0.015049
4.264236 40.911999 0.017147
4.578956 40.911999 0.019614
4.893677 40.911999 0.022444
5.208398 40.911999 0.026013
5.523119 40.911999 0.030818
5.837841 40.911999 0.037128
6.152562 40.911999 0.045694
6.467283 40.911999 0.055696
6.782003 40.911999 0.070588
7.096724 40.911999 0.090347
7.411445 40.911999 0.113439
7.726166 40.911999 0.145389
8.040888 40.911999 0.187362
8.355608 40.911999 0.241740
8.670330 40.911999 0.300568
8.985050 40.911999 0.380170
9.299772 40.911999 0.460998
9.614492 40.911999 0.549583
9.929214 40.911999 0.652727
10.243935 40.911999 0.751883
10.558655 40.911999 0.875180
10.873377 40.911999 0.992203
11.188097 40.911999 1.088336
11.502819 40.911999 1.166009
11.817539 40.911999 1.256197
12.132261 40.911999 1.327284
12.446981 40.911999 1.371154
12.761703 40.911999 1.402540
13.076424 40.911999 1.428786
13.391144 40.911999 1.434753
13.705866 40.911999 1.438406
14.020586 40.911999 1.425955
14.335308 40.911999 1.405723
14.650028 40.911999 1.374814
14.964750 40.911999 1.313467
15.279470 40.911999 1.250617
15.594193 40.911999 1.156334
15.908913 40.911999 1.010669
16.223633 40.911999 0.791804
16.538355 40.911999 0.539540
16.853075 40.911999 0.368192
17.167797 40.911999 0.388352
17.482517 40.911999 0.572319
17.797239 40.911999 0.786314
18.111959 40.911999 0.992882
18.426680 40.911999 1.175251
18.741402 40.911999 0.000000
-7.065720 40.597275 0.000000
-6.750999 40.597275 0.000000
-6.436278 40.597275 0.005854
-6.121557 40.597275 0.005178
-5.806836 40.597275 0.005238
-5.492115 40.597275 0.005243
-5.177394 40.597275 0.005186
-4.862673 40.597275 0.005169
-4.547952 40.597275 0.005282
-4.233231 40.597275 0.005333
-3.918510 40.597275 0.005200
-3.603789 40.597275 0.005170
-3.289068 40.597275 0.005187
-2.974347 40.597275 0.005284
-2.659626 40.597275 0.005361
-2.344905 40.597275 0.005341
-2.030184 40.597275 0.005417
-1.715463 40.597275 0.005461
-1.400742 40.597275 0.005501
-1.086021 40.597275 0.005653
-0.771300 40.597275 0.005791
-0.456579 40.597275 0.005941
-0.141859 40.597275 0.006103
0.172863 40.597275 0.006387
0.487584 40.597275 0.006678
0.802305 40.597275 0.006958
1.117026 40.597275 0.007290
1.431747 40.597275 0.007633
1.746467 40.597275 0.007975
2.061188 40.597275 0.008566
2.375909 40.597275 0.009233
2.690630 40.597275 0.010003
3.005352 40.597275 0.010879
3.320073 40.597275 0.011936
3.634794 40.597275 0.013323
3.949515 40.597275 0.014991
4.264236 40.597275 0.016981
4.578956 40.597275 0.019520
4.893677 40.597275 0.022436
5.208398 40.597275 0.026137
5.523119 40.597275 0.030805
5.837841 40.597275 0.037472
6.152562 40.597275 0.046120
6.467283 40.597275 0.056205
6.782003 40.597275 0.071076
7.096724 40.597275 0.090133
7.411445 40.597275 0.114039
7.726166 40.597275 0.144571
8.040888 40.597275 0.184561
8.355608 40.597275 0.238040
8.670330 40.597275 0.307691
8.985050 40.597275 0.382105
9.299772 40.597275 0.464740
9.614492 40.597275 0.547455
9.929214 40.597275 0.649889
10.243935 40.597275 0.753569
10.558655 40.597275 0.858645
10.873377 40.597275 0.985312
11.188097 40.597275 1.086526
11.502819 40.597275 1.168433
11.817539 40.597275 1.252076
12.132261 40.597275 1.317953
12.446981 40.597275 1.363703
12.761703 40.597275 1.398215
13.076424 40.597275 1.421885
13.391144 40.597275 1.435624
13.705866 40.597275 1.431299
14.020586 40.597275 1.414270
14.335308 40.597275 1.393518
14.650028 40.597275 1.373954
14.964750 40.597275 1.321607
15.279470 40.597275 1.252763
15.594193 40.597275 1.158776
15.908913 40.597275 1.015871
16.223633 40.597275 0.802102
16.538355 40.597275 0.558317
16.853075 40.597275 0.381221
17.167797 40.597275 0.396038
17.482517 40.597275 0.575438
17.797239 40.597275 0.790666
18.111959 40.597275 0.988952
18.426680 40.597275 1.164005
18.741402 40.597275 0.000000
-7.065720 40.282555 0.000000
-6.750999 40.282555 0.000000
-6.436278 40.282555 0.005947
-6.121557 40.282555 0.005230
-5.806836 40.282555 0.005231
-5.492115 40.282555 0.005240
-5.177394 40.282555 0.005204
-4.862673 40.282555 0.005207
-4.547952 40.282555 0.005271
-4.233231 40.282555 0.005311
-3.918510 40.282555 0.005201
-3.603789 40.282555 0.005140
-3.289068 40.282555 0.005153
-2.974347 40.282555 0.005233
-2.659626 40.282555 0.005348
-2.344905 40.282555 0.005402
-2.030184 40.282555 0.005465
-1.715463 40.282555 0.005468
-1.400742 40.282555 0.005520
-1.086021 40.282555 0.005618
-0.771300 40.282555 0.005722
-0.456579 40.282555 0.005866
-0.141859 40.282555 0.006028
0.172863 40.282555 0.006288
0.487584 40.282555 0.006615
0.802305 40.282555 0.006882
1.117026 40.282555 0.007225
1.431747 40.282555 0.007627
1.746467 40.282555 0.008016
2.061188 40.282555 0.008506
2.375909 40.282555 0.009119
2.690630 40.282555 0.009923
3.005352 40.282555 0.010842
3.320073 40.282555 0.011901
3.634794 40.282555 0.013232
3.949515 40.282555 0.014834
4.264236 40.282555 0.016833
4.578956 40.282555 0.019376
4.893677 40.282555 0.022235
5.208398 40.282555 0.025975
5.523119 40.282555 0.030954
5.837841 40.282555 0.037619
6.152562 40.282555 0.046075
6.467283 40.282555 0.056830
6.782003 40.282555 0.070879
7.096724 40.282555 0.090149
7.411445 40.282555 0.112701
7.726166 40.282555 0.143908
8.040888 40.282555 0.184703
8.355608 40.282555 0.237622
8.670330 40.282555 0.306449
8.985050 40.282555 0.380353
9.299772 40.282555 0.463791
9.614492 40.282555 0.549132
9.929214 40.282555 0.650152
10.243935 40.282555 0.747146
10.558655 40.282555 0.858111
10.873377 40.282555 0.985786
11.188097 40.282555 1.097913
11.502819 40.282555 1.181079
11.817539 40.282555 1.254539
12.132261 40.282555 1.308974
12.446981 40.282555 1.351916
12.761703 40.282555 1.389880
13.076424 40.282555 1.415128
13.391144 40.282555 1.429161
13.705866 40.282555 1.414083
14.020586 40.282555 1.409301
14.335308 40.282555 1.393387
14.650028 40.282555 1.365118
14.964750 40.282555 1.314980
15.279470 40.282555 1.248610
15.594193 40.282555 1.165983
15.908913 40.282555 1.022115
16.223633 40.282555 0.813010
16.538355 40.282555 0.580050
16.853075 40.282555 0.350632
17.167797 40.282555 0.371536
17.482517 40.282555 0.520799
17.797239 40.282555 0.765831
18.111959 40.282555 0.987894
18.426680 40.282555 1.155674
18.741402 40.282555 0.000000
-7.065720 39.967834 0.000000
-6.750999 39.967834 0.000000
-6.436278 39.967834 0.006036
-6.121557 39.967834 0.005277
-5.806836 39.967834 0.005246
-5.492115 39.967834 0.005224
-5.177394 39.967834 0.005225
-4.862673 39.967834 0.005225
-4.547952 39.967834 0.005255
-4.233231 39.967834 0.005285
-3.918510 39.967834 0.005179
-3.603789 39.967834 0.005116
-3.289068 39.967834 0.005120
-2.974347 39.967834 0.005187
-2.659626 39.967834 0.005342
-2.344905 39.967834 0.005412
-2.030184 39.967834 0.005482
-1.715463 39.967834 0.005483
-1.400742 39.967834 0.005534
-1.086021 39.967834 0.005578
-0.771300 39.967834 0.005658
-0.456579 39.967834 0.005790
-0.141859 39.967834 0.005936
0.172863 39.967834 0.006198
0.487584 39.967834 0.006532
0.802305 39.967834 0.006841
1.117026 39.967834 0.007167
1.431747 39.967834 0.007607
1.746467 39.967834 0.008011
2.061188 39.967834 0.008419
2.375909 39.967834 0.009001
2.690630 39.967834 0.009813
3.005352 39.967834 0.010753
3.320073 39.967834 0.011867
3.634794 39.967834 0.013126
3.949515 39.967834 0.014693
4.264236 39.967834 0.016719
4.578956 39.967834 0.019215
4.893677 39.967834 0.022071
5.208398 39.967834 0.025782
5.523119 39.967834 0.030691
5.837841 39.967834 0.037640
6.152562 39.967834 0.046246
6.467283 39.967834 0.057139
6.782003 39.967834 0.071150
7.096724 39.967834 0.089574
7.411445 39.967834 0.112477
7.726166 39.967834 0.144225
8.040888 39.967834 0.182825
8.355608 39.967834 0.237729
8.670330 39.967834 0.303181
8.985050 39.967834 0.377248
9.299772 39.967834 0.463598
9.614492 39.967834 0.555044
9.929214 39.967834 0.650945
10.243935 39.967834 0.753747
10.558655 39.967834 0.867956
10.873377 39.967834 0.994604
11.188097 39.967834 1.104482
11.502819 39.967834 1.190186
11.817539 39.967834 1.251447
12.132261 39.967834 1.312271
12.446981 39.967834 1.352459
12.761703 39.967834 1.390782
13.076424 39.967834 1.424485
13.391144 39.967834 1.425156
13.705866 39.967834 1.413582
14.020586 39.967834 1.401177
14.335308 39.967834 1.390091
14.650028 39.967834 1.362052
14.964750 39.967834 1.311552
15.279470 39.967834 1.248323
15.594193 39.967834 1.164104
15.908913 39.967834 1.026016
16.223633 39.967834 0.837385
16.538355 39.967834 0.336669
16.853075 39.967834 0.567901
17.167797 39.967834 0.967871
17.482517 39.967834 1.643928
17.797239 39.967834 0.764697
18.111959 39.967834 0.962361
18.426680 39.967834 1.158229
18.741402 39.967834 0.000000
-7.065720 39.653114 0.000000
-6.750999 39.653114 0.000000
-6.436278 39.653114 0.006022
-6.121557 39.653114 0.005275
-5.806836 39.653114 0.005258
-5.492115 39.653114 0.005227
-5.177394 39.653114 0.005210
-4.862673 39.653114 0.005221
-4.547952 39.653114 0.005230
-4.233231 39.653114 0.005228
-3.918510 39.653114 0.005181
-3.603789 39.653114 0.005112
-3.289068 39.653114 0.005071
-2.974347 39.653114 0.005173
-2.659626 39.653114 0.005312
-2.344905 39.653114 0.005381
-2.030184 39.653114 0.005445
-1.715463 39.653114 0.005426
-1.400742 39.653114 0.005489
-1.086021 39.653114 0.005524
-0.771300 39.653114 0.005575
-0.456579 39.653114 0.005691
-0.141859 39.653114 0.005852
0.172863 39.653114 0.006111
0.487584 39.653114 0.006453
0.802305 39.653114 0.006783
1.117026 39.653114 0.007116
1.431747 39.653114 0.007552
1.746467 39.653114 0.007920
2.061188 39.653114 0.008345
2.375909 39.653114 0.008944
2.690630 39.653114 0.009756
3.005352 39.653114 0.010729
3.320073 39.653114 0.011850
3.634794 39.653114 0.013073
3.949515 39.653114 0.014588
4.264236 39.653114 0.016611
4.578956 39.653114 0.019052
4.893677 39.653114 0.021922
5.208398 39.653114 0.025609
5.523119 39.653114 0.030518
5.837841 39.653114 0.037582
6.152562 39.653114 0.046127
6.467283 39.653114 0.056994
6.782003 39.653114 0.070130
7.096724 39.653114 0.088863
7.411445 39.653114 0.112485
7.726166 39.653114 0.145300
8.040888 39.653114 0.188283
8.355608 39.653114 0.236596
8.670330 39.653114 0.305338
8.985050 39.653114 0.378542
9.299772 39.653114 0.466291
9.614492 39.653114 0.561621
9.929214 39.653114 0.656402
10.243935 39.653114 0.760609
10.558655 39.653114 0.883939
10.873377 39.653114 0.998371
11.188097 39.653114 1.111101
11.502819 39.653114 1.188667
11.817539 39.653114 1.257395
12.132261 39.653114 1.317567
12.446981 39.653114 1.358097
12.761703 39.653114 1.391251
13.076424 39.653114 1.428846
13.391144 39.653114 1.434421
13.705866 39.653114 1.418901
14.020586 39.653114 1.410422
14.335308 39.653114 1.398365
14.650028 39.653114 1.374423
14.964750 39.653114 1.311396
15.279470 39.653114 1.252997
15.594193 39.653114 1.165703
15.908913 39.653114 1.035019
16.223633 39.653114 0.846703
16.538355 39.653114 0.327001
16.853075 39.653114 0.000000
17.167797 39.653114 0.000000
17.482517 39.653114 0.000000
17.797239 39.653114 0.566524
18.111959 39.653114 0.937227
18.426680 39.653114 1.129882
18.741402 39.653114 0.000000
-7.065720 39.338394 0.000000
-6.750999 39.338394 0.000000
-6.436278 39.338394 0.005986
-6.121557 39.338394 0.005239
-5.806836 39.338394 0.005255
-5.492115 39.338394 0.005254
-5.177394 39.338394 0.005214
-4.862673 39.338394 0.005183
-4.547952 39.338394 0.005169
-4.233231 39.338394 0.005146
-3.918510 39.338394 0.005153
-3.603789 39.338394 0.005098
-3.289068 39.338394 0.005045
-2.974347 39.338394 0.005158
-2.659626 39.338394 0.005280
-2.344905 39.338394 0.005327
-2.030184 39.338394 0.005378
-1.715463 39.338394 0.005363
-1.400742 39.338394 0.005432
-1.086021 39.338394 0.005486
-0.771300 39.338394 0.005510
-0.456579 39.338394 0.005627
-0.141859 39.338394 0.005799
0.172863 39.338394 0.006031
0.487584 39.338394 0.006397
0.802305 39.338394 0.006725
1.117026 39.338394 0.007043
1.431747 39.338394 0.007478
1.746467 39.338394 0.007843
2.061188 39.338394 0.008302
2.375909 39.338394 0.008924
2.690630 39.338394 0.009715
3.005352 39.338394 0.010737
3.320073 39.338394 0.011884
3.634794 39.338394 0.013079
3.949515 39.338394 0.014581
4.264236 39.338394 0.016503
4.578956 39.338394 0.018852
4.893677 39.338394 0.021837
5.208398 39.338394 0.025594
5.523119 39.338394 0.030493
5.837841 39.338394 0.037278
6.152562 39.338394 0.045938
6.467283 39.338394 0.056469
6.782003 39.338394 0.070028
7.096724 39.338394 0.088856
7.411445 39.338394 0.113840
7.726166 39.338394 0.146968
8.040888 39.338394 0.188100
8.355608 39.338394 0.240368
8.670330 39.338394 0.309379
8.985050 39.338394 0.386306
9.299772 39.338394 0.468478
9.614492 39.338394 0.562165
9.929214 39.338394 0.666449
10.243935 39.338394 0.764030
10.558655 39.338394 0.881434
10.873377 39.338394 0.997779
11.188097 39.338394 1.100156
11.502819 39.338394 1.184060
11.817539 39.338394 1.266904
12.132261 39.338394 1.326027
12.446981 39.338394 1.366752
12.761703 39.338394 1.401111
13.076424 39.338394 1.428433
13.391144 39.338394 1.442247
13.705866 39.338394 1.426757
14.020586 39.338394 1.415183
14.335308 39.338394 1.410636
14.650028 39.338394 1.375969
14.964750 39.338394 1.311827
15.279470 39.338394 1.243896
15.594193 39.338394 1.169976
15.908913 39.338394 1.042780
16.223633 39.338394 0.853588
16.538355 39.338394 0.344698
16.853075 39.338394 0.000000
17.167797 39.338394 0.000000
17.482517 39.338394 0.000000
17.797239 39.338394 0.634597
18.111959 39.338394 0.892533
18.426680 39.338394 1.098587
18.741402 39.338394 0.000000
-7.065720 39.023674 0.000000
-6.750999 39.023674 0.001856
-6.436278 39.023674 0.005944
-6.121557 39.023674 0.005177
-5.806836 39.023674 0.005218
-5.492115 39.023674 0.005232
-5.177394 39.023674 0.005173
-4.862673 39.023674 0.005101
-4.547952 39.023674 0.005092
-4.233231 39.023674 0.005073
-3.918510 39.023674 0.005111
-3.603789 39.023674 0.005117
-3.289068 39.023674 0.005059
-2.974347 39.023674 0.005142
-2.659626 39.023674 0.005222
-2.344905 39.023674 0.005238
-2.030184 39.023674 0.005270
-1.715463 39.023674 0.005280
-1.400742 39.023674 0.005355
-1.086021 39.023674 0.005478
-0.771300 39.023674 0.005502
-0.456579 39.023674 0.005630
-0.141859 39.023674 0.005754
0.172863 39.023674 0.005999
0.487584 39.023674 0.006345
0.802305 39.023674 0.006632
1.117026 39.023674 0.006978
1.431747 39.023674 0.007410
1.746467 39.023674 0.007766
2.061188 39.023674 0.008305
2.375909 39.023674 0.008947
2.690630 39.023674 0.009726
3.005352 39.023674 0.010741
3.320073 39.023674 0.011861
3.634794 39.023674 0.013067
3.949515 39.023674 0.014600
4.264236 39.023674 0.016476
4.578956 39.023674 0.018803
4.893677 39.023674 0.021840
5.208398 39.023674 0.025594
5.523119 39.023674 0.030429
5.837841 39.023674 0.036925
6.152562 39.023674 0.045654
6.467283 39.023674 0.055817
6.782003 39.023674 0.070230
7.096724 39.023674 0.090489
7.411445 39.023674 0.114405
7.726166 39.023674 0.144371
8.040888 39.023674 0.186915
8.355608 39.023674 0.239545
8.670330 39.023674 0.306171
8.985050 39.023674 0.384162
9.299772 39.023674 0.466186
9.614492 39.023674 0.564505
9.929214 39.023674 0.657276
10.243935 39.023674 0.767780
10.558655 39.023674 0.865882
10.873377 39.023674 0.989274
11.188097 39.023674 1.094844
11.502819 39.023674 1.189034
11.817539 39.023674 1.274182
12.132261 39.023674 1.333044
12.446981 39.023674 1.371435
12.761703 39.023674 1.402531
13.076424 39.023674 1.432848
13.391144 39.023674 1.453162
13.705866 39.023674 1.434619
14.020586 39.023674 1.418427
14.335308 39.023674 1.409448
14.650028 39.023674 1.378090
14.964750 39.023674 1.313137
15.279470 39.023674 1.245764
15.594193 39.023674 1.180032
15.908913 39.023674 1.052060
16.223633 39.023674 0.863993
16.538355 39.023674 0.409878
16.853075 39.023674 0.000000
17.167797 39.023674 0.000000
17.482517 39.023674 0.000000
17.797239 39.023674 0.432926
18.111959 39.023674 0.789181
18.426680 39.023674 1.084249
18.741402 39.023674 0.000000
-7.065720 38.708950 0.000000
-6.750999 38.708950 0.003572
-6.436278 38.708950 0.005885
-6.121557 38.708950 0.005092
-5.806836 38.708950 0.005138
-5.492115 38.708950 0.005161
-5.177394 38.708950 0.005124
-4.862673 38.708950 0.005045
-4.547952 38.708950 0.005033
-4.233231 38.708950 0.005018
-3.918510 38.708950 0.005042
-3.603789 38.708950 0.005131
-3.289068 38.708950 0.005131
-2.974347 38.708950 0.005156
-2.659626 38.708950 0.005179
-2.344905 38.708950 0.005143
-2.030184 38.708950 0.005171
-1.715463 38.708950 0.005197
-1.400742 38.708950 0.005290
-1.086021 38.708950 0.005459
-0.771300 38.708950 0.005521
-0.456579 38.708950 0.005619
-0.141859 38.708950 0.005749
0.172863 38.708950 0.005974
0.487584 38.708950 0.006310
0.802305 38.708950 0.006591
1.117026 38.708950 0.006931
1.431747 38.708950 0.007338
1.746467 38.708950 0.007697
2.061188 38.708950 0.008286
2.375909 38.708950 0.008977
2.690630 38.708950 0.009776
3.005352 38.708950 0.010700
3.320073 38.708950 0.011802
3.634794 38.708950 0.013092
3.949515 38.708950 0.014553
4.264236 38.708950 0.016447
4.578956 38.708950 0.018784
4.893677 38.708950 0.021711
5.208398 38.708950 0.025484
5.523119 38.708950 0.030421
5.837841 38.708950 0.036869
6.152562 38.708950 0.045178
6.467283 38.708950 0.055853
6.782003 38.708950 0.070786
7.096724 38.708950 0.089907
7.411445 38.708950 0.114401
7.726166 38.708950 0.144143
8.040888 38.708950 0.183293
8.355608 38.708950 0.239704
8.670330 38.708950 0.306738
8.985050 38.708950 0.379771
9.299772 38.708950 0.468312
9.614492 38.708950 0.558632
9.929214 38.708950 0.654889
10.243935 38.708950 0.760689
10.558655 38.708950 0.866686
10.873377 38.708950 0.978461
11.188097 38.708950 1.087830
11.502819 38.708950 1.181043
11.817539 38.708950 1.261456
12.132261 38.708950 1.327541
12.446981 38.708950 1.376985
12.761703 38.708950 1.415639
13.076424 38.708950 1.443726
13.391144 38.708950 1.458830
13.705866 38.708950 1.447224
14.020586 38.708950 1.419060
14.335308 38.708950 1.411196
14.650028 38.708950 1.382817
14.964750 38.708950 1.327192
15.279470 38.708950 1.262422
15.594193 38.708950 1.179093
15.908913 38.708950 1.048312
16.223633 38.708950 0.858811
16.538355 38.708950 0.000000
16.853075 38.708950 0.000000
17.167797 38.708950 0.000000
17.482517 38.708950 0.000000
17.797239 38.708950 0.000000
18.111959 38.708950 0.484929
18.426680 38.708950 0.546341
18.741402 38.708950 0.000000
-7.065720 38.394230 0.000000
-6.750999 38.394230 0.003147
-6.436278 38.394230 0.005853
-6.121557 38.394230 0.004997
-5.806836 38.394230 0.005045
-5.492115 38.394230 0.005100
-5.177394 38.394230 0.005069
-4.862673 38.394230 0.005001
-4.547952 38.394230 0.004987
-4.233231 38.394230 0.004996
-3.918510 38.394230 0.005007
-3.603789 38.394230 0.005152
-3.289068 38.394230 0.005185
-2.974347 38.394230 0.005158
-2.659626 38.394230 0.005139
-2.344905 38.394230 0.005087
-2.030184 38.394230 0.005098
-1.715463 38.394230 0.005125
-1.400742 38.394230 0.005255
-1.086021 38.394230 0.005415
-0.771300 38.394230 0.005504
-0.456579 38.394230 0.005618
-0.141859 38.394230 0.005752
0.172863 38.394230 0.005948
0.487584 38.394230 0.006284
0.802305 38.394230 0.006571
1.117026 38.394230 0.006907
1.431747 38.394230 0.007306
1.746467 38.394230 0.007668
2.061188 38.394230 0.008298
2.375909 38.394230 0.008984
2.690630 38.394230 0.009735
3.005352 38.394230 0.010584
3.320073 38.394230 0.011687
3.634794 38.394230 0.013026
3.949515 38.394230 0.014462
4.264236 38.394230 0.016353
4.578956 38.394230 0.018679
4.893677 38.394230 0.021627
5.208398 38.394230 0.025415
5.523119 38.394230 0.030366
5.837841 38.394230 0.036814
6.152562 38.394230 0.044839
6.467283 38.394230 0.055682
6.782003 38.394230 0.070593
7.096724 38.394230 0.089599
7.411445 38.394230 0.113546
7.726166 38.394230 0.144510
8.040888 38.394230 0.186318
8.355608 38.394230 0.237394
8.670330 38.394230 0.304404
8.985050 38.394230 0.377044
9.299772 38.394230 0.468112
9.614492 38.394230 0.557632
9.929214 38.394230 0.661039
10.243935 38.394230 0.756819
10.558655 38.394230 0.861485
10.873377 38.394230 0.969624
11.188097 38.394230 1.074733
11.502819 38.394230 1.173501
11.817539 38.394230 1.256142
12.132261 38.394230 1.318992
12.446981 38.394230 1.380971
12.761703 38.394230 1.411376
13.076424 38.394230 1.442496
13.391144 38.394230 1.460018
13.705866 38.394230 1.451962
14.020586 38.394230 1.429967
14.335308 38.394230 1.414098
14.650028 38.394230 1.383817
14.964750 38.394230 1.338840
15.279470 38.394230 1.281496
15.594193 38.394230 1.186481
15.908913 38.394230 1.047588
16.223633 38.394230 0.858054
16.538355 38.394230 0.000000
16.853075 38.394230 0.000000
17.167797 38.394230 0.000000
17.482517 38.394230 0.000000
17.797239 38.394230 0.000000
18.111959 38.394230 0.403932
18.426680 38.394230 0.731347
18.741402 38.394230 0.000000
-7.065720 38.079510 0.000000
-6.750999 38.079510 0.002644
-6.436278 38.079510 0.005820
-6.121557 38.079510 0.004911
-5.806836 38.079510 0.004960
-5.492115 38.079510 0.005010
-5.177394 38.079510 0.004985
-4.862673 38.079510 0.004956
-4.547952 38.079510 0.004968
-4.233231 38.079510 0.004979
-3.918510 38.079510 0.004995
-3.603789 38.079510 0.005164
-3.289068 38.079510 0.005170
-2.974347 38.079510 0.005140
-2.659626 38.079510 0.005127
-2.344905 38.079510 0.005035
-2.030184 38.079510 0.005053
-1.715463 38.079510 0.005088
-1.400742 38.079510 0.005239
-1.086021 38.079510 0.005405
-0.771300 38.079510 0.005521
-0.456579 38.079510 0.005618
-0.141859 38.079510 0.005758
0.172863 38.079510 0.005966
0.487584 38.079510 0.006299
0.802305 38.079510 0.006564
1.117026 38.079510 0.006866
1.431747 38.079510 0.007252
1.746467 38.079510 0.007676
2.061188 38.079510 0.008286
2.375909 38.079510 0.008930
2.690630 38.079510 0.009636
3.005352 38.079510 0.010429
3.320073 38.079510 0.011542
3.634794 38.079510 0.012935
3.949515 38.079510 0.014450
4.264236 38.079510 0.016351
4.578956 38.079510 0.018620
4.893677 38.079510 0.021391
5.208398 38.079510 0.025147
5.523119 38.079510 0.030193
5.837841 38.079510 0.036437
6.152562 38.079510 0.045017
6.467283 38.079510 0.056676
6.782003 38.079510 0.071365
7.096724 38.079510 0.089706
7.411445 38.079510 0.113124
7.726166 38.079510 0.145520
8.040888 38.079510 0.188290
8.355608 38.079510 0.237561
8.670330 38.079510 0.300451
8.985050 38.079510 0.373779
9.299772 38.079510 0.462858
9.614492 38.079510 0.557915
9.929214 38.079510 0.661573
10.243935 38.079510 0.764063
10.558655 38.079510 0.871819
10.873377 38.079510 0.977787
11.188097 38.079510 1.082944
11.502819 38.079510 1.182535
11.817539 38.079510 1.255899
12.132261 38.079510 1.321688
12.446981 38.079510 1.381244
12.761703 38.079510 1.421559
13.076424 38.079510 1.451031
13.391144 38.079510 1.459600
13.705866 38.079510 1.454381
14.020586 38.079510 1.434349
14.335308 38.079510 1.412352
14.650028 38.079510 1.389907
14.964750 38.079510 1.341691
15.279470 38.079510 1.283022
15.594193 38.079510 1.190934
15.908913 38.079510 1.040964
16.223633 38.079510 0.843216
16.538355 38.079510 0.000000
16.853075 38.079510 0.000000
17.167797 38.079510 0.000000
17.482517 38.079510 0.000000
17.797239 38.079510 0.000000
18.111959 38.079510 0.360511
18.426680 38.079510 0.514057
18.741402 38.079510 0.000000
-7.065720 37.764786 0.000000
-6.750999 37.764786 0.002558
-6.436278 37.764786 0.005815
-6.121557 37.764786 0.004884
-5.806836 37.764786 0.004893
-5.492115 37.764786 0.004917
-5.177394 37.764786 0.004911
-4.862673 37.764786 0.004938
-4.547952 37.764786 0.004974
-4.233231 37.764786 0.004982
-3.918510 37.764786 0.005006
-3.603789 37.764786 0.005132
-3.289068 37.764786 0.005118
-2.974347 37.764786 0.005113
-2.659626 37.764786 0.005089
-2.344905 37.764786 0.005040
-2.030184 37.764786 0.005016
-1.715463 37.764786 0.005095
-1.400742 37.764786 0.005245
-1.086021 37.764786 0.005404
-0.771300 37.764786 0.005548
-0.456579 37.764786 0.005636
-0.141859 37.764786 0.005778
0.172863 37.764786 0.006010
0.487584 37.764786 0.006340
0.802305 37.764786 0.006586
1.117026 37.764786 0.006796
1.431747 37.764786 0.007177
1.746467 37.764786 0.007680
2.061188 37.764786 0.008262
2.375909 37.764786 0.008891
2.690630 37.764786 0.009529
3.005352 37.764786 0.010283
3.320073 37.764786 0.011382
3.634794 37.764786 0.012798
3.949515 37.764786 0.014400
4.264236 37.764786 0.016336
4.578956 37.764786 0.018566
4.893677 37.764786 0.021393
5.208398 37.764786 0.024974
5.523119 37.764786 0.029830
5.837841 37.764786 0.036238
6.152562 37.764786 0.044813
6.467283 37.764786 0.056300
6.782003 37.764786 0.070997
7.096724 37.764786 0.088790
7.411445 37.764786 0.113847
7.726166 37.764786 0.146455
8.040888 37.764786 0.190399
8.355608 37.764786 0.245333
8.670330 37.764786 0.308893
8.985050 37.764786 0.383611
9.299772 37.764786 0.466980
9.614492 37.764786 0.563608
9.929214 37.764786 0.663350
10.243935 37.764786 0.774747
10.558655 37.764786 0.877000
10.873377 37.764786 0.982023
11.188097 37.764786 1.093441
11.502819 37.764786 1.185825
11.817539 37.764786 1.266976
12.132261 37.764786 1.336076
12.446981 37.764786 1.385548
12.761703 37.764786 1.430984
13.076424 37.764786 1.462224
13.391144 37.764786 1.469939
13.705866 37.764786 1.459097
14.020586 37.764786 1.438493
14.335308 37.764786 1.419306
14.650028 37.764786 1.383835
14.964750 37.764786 1.342635
15.279470 37.764786 1.272736
15.594193 37.764786 1.170071
15.908913 37.764786 1.016475
16.223633 37.764786 0.825084
16.538355 37.764786 0.000000
16.853075 37.764786 0.000000
17.167797 37.764786 0.000000
17.482517 37.764786 0.000000
17.797239 37.764786 0.000000
18.111959 37.764786 0.241332
18.426680 37.764786 0.275558
18.741402 37.764786 0.000000
-7.065720 37.450066 0.000000
-6.750999 37.450066 0.003201
-6.436278 37.450066 0.005779
-6.121557 37.450066 0.004881
-5.806836 37.450066 0.004879
-5.492115 37.450066 0.004871
-5.177394 37.450066 0.004868
-4.862673 37.450066 0.004934
-4.547952 37.450066 0.004990
-4.233231 37.450066 0.004976
-3.918510 37.450066 0.004999
-3.603789 37.450066 0.005094
-3.289068 37.450066 0.005056
-2.974347 37.450066 0.005089
-2.659626 37.450066 0.005071
-2.344905 37.450066 0.005020
-2.030184 37.450066 0.004998
-1.715463 37.450066 0.005073
-1.400742 37.450066 0.005209
-1.086021 37.450066 0.005389
-0.771300 37.450066 0.005528
-0.456579 37.450066 0.005629
-0.141859 37.450066 0.005805
0.172863 37.450066 0.006042
0.487584 37.450066 0.006346
0.802305 37.450066 0.006573
1.117026 37.450066 0.006771
1.431747 37.450066 0.007092
1.746467 37.450066 0.007626
2.061188 37.450066 0.008225
2.375909 37.450066 0.008813
2.690630 37.450066 0.009427
3.005352 37.450066 0.010194
3.320073 37.450066 0.011265
3.634794 37.450066 0.012649
3.949515 37.450066 0.014254
4.264236 37.450066 0.016230
4.578956 37.450066 0.018485
4.893677 37.450066 0.021303
5.208398 37.450066 0.024903
5.523119 37.450066 0.029709
5.837841 37.450066 0.035994
6.152562 37.450066 0.044390
6.467283 37.450066 0.055827
6.782003 37.450066 0.070247
7.096724 37.450066 0.090429
7.411445 37.450066 0.115163
7.726166 37.450066 0.146934
8.040888 37.450066 0.190644
8.355608 37.450066 0.247240
8.670330 37.450066 0.315401
8.985050 37.450066 0.389708
9.299772 37.450066 0.469155
9.614492 37.450066 0.568919
9.929214 37.450066 0.671379
10.243935 37.450066 0.778969
10.558655 37.450066 0.873726
10.873377 37.450066 0.978643
11.188097 37.450066 1.089050
11.502819 37.450066 1.190720
11.817539 37.450066 1.280196
12.132261 37.450066 1.338257
12.446981 37.450066 1.394544
12.761703 37.450066 1.438798
13.076424 37.450066 1.471934
13.391144 37.450066 1.471433
13.705866 37.450066 1.460446
14.020586 37.450066 1.442677
14.335308 37.450066 1.417597
14.650028 37.450066 1.378510
14.964750 37.450066 1.338512
15.279470 37.450066 1.266382
15.594193 37.450066 1.155482
15.908913 37.450066 1.014264
16.223633 37.450066 0.825535
16.538355 37.450066 0.000000
16.853075 37.450066 0.000000
17.167797 37.450066 0.000000
17.482517 37.450066 0.000000
17.797239 37.450066 0.000000
18.111959 37.450066 0.000000
18.426680 37.450066 0.000000
18.741402 37.450066 0.000000
-7.065720 37.135345 0.000000
-6.750999 37.135345 0.004138
-6.436278 37.135345 0.005776
-6.121557 37.135345 0.004919
-5.806836 37.135345 0.004891
-5.492115 37.135345 0.004863
-5.177394 37.135345 0.004864
-4.862673 37.135345 0.004916
-4.547952 37.135345 0.005005
-4.233231 37.135345 0.004980
-3.918510 37.135345 0.004980
-3.603789 37.135345 0.005037
-3.289068 37.135345 0.005014
-2.974347 37.135345 0.005059
-2.659626 37.135345 0.005041
-2.344905 37.135345 0.004987
-2.030184 37.135345 0.005010
-1.715463 37.135345 0.005054
-1.400742 37.135345 0.005172
-1.086021 37.135345 0.005347
-0.771300 37.135345 0.005487
-0.456579 37.135345 0.005630
-0.141859 37.135345 0.005816
0.172863 37.135345 0.006045
0.487584 37.135345 0.006290
0.802305 37.135345 0.006535
1.117026 37.135345 0.006717
1.431747 37.135345 0.007015
1.746467 37.135345 0.007565
2.061188 37.135345 0.008164
2.375909 37.135345 0.008712
2.690630 37.135345 0.009349
3.005352 37.135345 0.010124
3.320073 37.135345 0.011187
3.634794 37.135345 0.012511
3.949515 37.135345 0.014130
4.264236 37.135345 0.016121
4.578956 37.135345 0.018336
4.893677 37.135345 0.021215
5.208398 37.135345 0.024791
5.523119 37.135345 0.029678
5.837841 37.135345 0.035920
6.152562 37.135345 0.044261
6.467283 37.135345 0.055068
6.782003 37.135345 0.070167
7.096724 37.135345 0.089809
7.411445 37.135345 0.113408
7.726166 37.135345 0.143989
8.040888 37.135345 0.186283
8.355608 37.135345 0.243126
8.670330 37.135345 0.313332
8.985050 37.135345 0.383642
9.299772 37.135345 0.466665
9.614492 37.135345 0.566504
9.929214 37.135345 0.670545
10.243935 37.135345 0.779388
10.558655 37.135345 0.865477
10.873377 37.135345 0.978182
11.188097 37.135345 1.085812
11.502819 37.135345 1.183779
11.817539 37.135345 1.269025
12.132261 37.135345 1.332688
12.446981 37.135345 1.397892
12.761703 37.135345 1.437473
13.076424 37.135345 1.473440
13.391144 37.135345 1.465200
13.705866 37.135345 1.450193
14.020586 37.135345 1.445926
14.335308 37.135345 1.421345
14.650028 37.135345 1.379287
14.964750 37.135345 1.337352
15.279470 37.135345 1.270212
15.594193 37.135345 1.160794
15.908913 37.135345 1.019207
16.223633 37.135345 0.827615
16.538355 37.135345 0.000000
16.853075 37.135345 0.000000
17.167797 37.135345 0.000000
17.482517 37.135345 0.000000
17.797239 37.135345 0.000000
18.111959 37.135345 0.000000
18.426680 37.135345 0.000000
18.741402 37.135345 0.000000
-7.065720 36.820625 0.000000
-6.750999 36.820625 0.005481
-6.436278 36.820625 0.005724
-6.121557 36.820625 0.004936
-5.806836 36.820625 0.004890
-5.492115 36.820625 0.004858
-5.177394 36.820625 0.004873
-4.862673 36.820625 0.004910
-4.547952 36.820625 0.004963
-4.233231 36.820625 0.004996
-3.918510 36.820625 0.004975
-3.603789 36.820625 0.004988
-3.289068 36.820625 0.005011
-2.974347 36.820625 0.005053
-2.659626 36.820625 0.005015
-2.344905 36.820625 0.004944
-2.030184 36.820625 0.005045
-1.715463 36.820625 0.005063
-1.400742 36.820625 0.005136
-1.086021 36.820625 0.005309
-0.771300 36.820625 0.005463
-0.456579 36.820625 0.005607
-0.141859 36.820625 0.005797
0.172863 36.820625 0.005958
0.487584 36.820625 0.006202
0.802305 36.820625 0.006481
1.117026 36.820625 0.006688
1.431747 36.820625 0.006989
1.746467 36.820625 0.007491
2.061188 36.820625 0.008076
2.375909 36.820625 0.008623
2.690630 36.820625 0.009267
3.005352 36.820625 0.010084
3.320073 36.820625 0.011125
3.634794 36.820625 0.012445
3.949515 36.820625 0.014018
4.264236 36.820625 0.016011
4.578956 36.820625 0.018212
4.893677 36.820625 0.021103
5.208398 36.820625 0.024789
5.523119 36.820625 0.029661
5.837841 36.820625 0.036004
6.152562 36.820625 0.044420
6.467283 36.820625 0.055707
6.782003 36.820625 0.070167
7.096724 36.820625 0.090970
7.411445 36.820625 0.113940
7.726166 36.820625 0.144118
8.040888 36.820625 0.186757
8.355608 36.820625 0.240866
8.670330 36.820625 0.309499
8.985050 36.820625 0.381514
9.299772 36.820625 0.468241
9.614492 36.820625 0.565497
9.929214 36.820625 0.661997
10.243935 36.820625 0.767899
10.558655 36.820625 0.863489
10.873377 36.820625 0.968676
11.188097 36.820625 1.081342
11.502819 36.820625 1.180611
11.817539 36.820625 1.251222
12.132261 36.820625 1.332911
12.446981 36.820625 1.391439
12.761703 36.820625 1.440251
13.076424 36.820625 1.464600
13.391144 36.820625 1.465490
13.705866 36.820625 1.459001
14.020586 36.820625 1.453719
14.335308 36.820625 1.427716
14.650028 36.820625 1.381308
14.964750 36.820625 1.332997
15.279470 36.820625 1.272148
15.594193 36.820625 1.169731
15.908913 36.820625 1.023520
16.223633 36.820625 0.823789
16.538355 36.820625 0.000000
16.853075 36.820625 0.000000
17.167797 36.820625 0.000000
17.482517 36.820625 0.000000
17.797239 36.820625 0.000000
18.111959 36.820625 0.000000
18.426680 36.820625 0.000000
18.741402 36.820625 0.000000
-7.065720 36.505905 0.000000
-6.750999 36.505905 0.006676
-6.436278 36.505905 0.005730
-6.121557 36.505905 0.004955
-5.806836 36.505905 0.004882
-5.492115 36.505905 0.004831
-5.177394 36.505905 0.004903
-4.862673 36.505905 0.004894
-4.547952 36.505905 0.004925
-4.233231 36.505905 0.004979
-3.918510 36.505905 0.004931
-3.603789 36.505905 0.004930
-3.289068 36.505905 0.004988
-2.974347 36.505905 0.005028
-2.659626 36.505905 0.005016
-2.344905 36.505905 0.004996
-2.030184 36.505905 0.005111
-1.715463 36.505905 0.005098
-1.400742 36.505905 0.005122
-1.086021 36.505905 0.005278
-0.771300 36.505905 0.005420
-0.456579 36.505905 0.005605
-0.141859 36.505905 0.005758
0.172863 36.505905 0.005885
0.487584 36.505905 0.006111
0.802305 36.505905 0.006407
1.117026 36.505905 0.006664
1.431747 36.505905 0.007028
1.746467 36.505905 0.007476
2.061188 36.505905 0.007972
2.375909 36.505905 0.008529
2.690630 36.505905 0.009184
3.005352 36.505905 0.010017
3.320073 36.505905 0.011065
3.634794 36.505905 0.012396
3.949515 36.505905 0.013988
4.264236 36.505905 0.015861
4.578956 36.505905 0.018089
4.893677 36.505905 0.021107
5.208398 36.505905 0.024821
5.523119 36.505905 0.029670
5.837841 36.505905 0.036165
6.152562 36.505905 0.044354
6.467283 36.505905 0.055398
6.782003 36.505905 0.070396
7.096724 36.505905 0.090567
7.411445 36.505905 0.114668
7.726166 36.505905 0.144810
8.040888 36.505905 0.189830
8.355608 36.505905 0.239430
8.670330 36.505905 0.307734
8.985050 36.505905 0.381114
9.299772 36.505905 0.468094
9.614492 36.505905 0.557881
9.929214 36.505905 0.660659
10.243935 36.505905 0.767314
10.558655 36.505905 0.868005
10.873377 36.505905 0.970928
11.188097 36.505905 1.084493
11.502819 36.505905 1.178923
11.817539 36.505905 1.248164
12.132261 36.505905 1.329457
12.446981 36.505905 1.386772
12.761703 36.505905 1.437653
13.076424 36.505905 1.457911
13.391144 36.505905 1.467186
13.705866 36.505905 1.458612
14.020586 36.505905 1.449257
14.335308 36.505905 1.427779
14.650028 36.505905 1.384110
14.964750 36.505905 1.335111
15.279470 36.505905 1.272247
15.594193 36.505905 1.167303
15.908913 36.505905 1.024237
16.223633 36.505905 0.827680
16.538355 36.505905 0.000000
16.853075 36.505905 0.000000
17.167797 36.505905 0.000000
17.482517 36.505905 0.000000
17.797239 36.505905 0.000000
18.111959 36.505905 0.000000
18.426680 36.505905 0.000000
18.741402 36.505905 0.000000
-7.065720 36.191185 0.000000
-6.750999 36.191185 0.007313
-6.436278 36.191185 0.005715
-6.121557 36.191185 0.004991
-5.806836 36.191185 0.004911
-5.492115 36.191185 0.004860
-5.177394 36.191185 0.004933
-4.862673 36.191185 0.004908
-4.547952 36.191185 0.004907
-4.233231 36.191185 0.004958
-3.918510 36.191185 0.004922
-3.603789 36.191185 0.004910
-3.289068 36.191185 0.004945
-2.974347 36.191185 0.004995
-2.659626 36.191185 0.005027
-2.344905 36.191185 0.005066
-2.030184 36.191185 0.005154
-1.715463 36.191185 0.005130
-1.400742 36.191185 0.005146
-1.086021 36.191185 0.005261
-0.771300 36.191185 0.005398
-0.456579 36.191185 0.005570
-0.141859 36.191185 0.005684
0.172863 36.191185 0.005816
0.487584 36.191185 0.006057
0.802305 36.191185 0.006353
1.117026 36.191185 0.006658
1.431747 36.191185 0.007072
1.746467 36.191185 0.007475
2.061188 36.191185 0.007930
2.375909 36.191185 0.008473
2.690630 36.191185 0.009192
3.005352 36.191185 0.010035
3.320073 36.191185 0.011059
3.634794 36.191185 0.012363
3.949515 36.191185 0.013899
4.264236 36.191185 0.015764
4.578956 36.191185 0.018057
4.893677 36.191185 0.021055
5.208398 36.191185 0.024967
5.523119 36.191185 0.029759
5.837841 36.191185 0.036252
6.152562 36.191185 0.044889
6.467283 36.191185 0.055898
6.782003 36.191185 0.071280
7.096724 36.191185 0.090578
7.411445 36.191185 0.113627
7.726166 36.191185 0.143893
8.040888 36.191185 0.188022
8.355608 36.191185 0.241155
8.670330 36.191185 0.306501
8.985050 36.191185 0.382058
9.299772 36.191185 0.465692
9.614492 36.191185 0.562356
9.929214 36.191185 0.673815
10.243935 36.191185 0.772312
10.558655 36.191185 0.872042
10.873377 36.191185 0.981497
11.188097 36.191185 1.086556
11.502819 36.191185 1.191710
11.817539 36.191185 1.264064
12.132261 36.191185 1.324736
12.446981 36.191185 1.387950
12.761703 36.191185 1.434717
13.076424 36.191185 1.458097
13.391144 36.191185 1.467775
13.705866 36.191185 1.458516
14.020586 36.191185 1.448205
14.335308 36.191185 1.421369
14.650028 36.191185 1.387357
14.964750 36.191185 1.346598
15.279470 36.191185 1.279918
15.594193 36.191185 1.175310
15.908913 36.191185 1.029223
16.223633 36.191185 0.835952
16.538355 36.191185 0.000000
16.853075 36.191185 0.000000
17.167797 36.191185 0.000000
17.482517 36.191185 0.000000
17.797239 36.191185 0.000000
18.111959 36.191185 0.000000
18.426680 36.191185 0.000000
18.741402 36.191185 0.000000
-7.065720 35.876461 0.000000
-6.750999 35.876461 0.007563
-6.436278 35.876461 0.005696
-6.121557 35.876461 0.005015
-5.806836 35.876461 0.004955
-5.492115 35.876461 0.004891
-5.177394 35.876461 0.004963
-4.862673 35.876461 0.004958
-4.547952 35.876461 0.004925
-4.233231 35.876461 0.004949
-3.918510 35.876461 0.004908
-3.603789 35.876461 0.004886
-3.289068 35.876461 0.004920
-2.974347 35.876461 0.004964
-2.659626 35.876461 0.005023
-2.344905 35.876461 0.005082
-2.030184 35.876461 0.005146
-1.715463 35.876461 0.005129
-1.400742 35.876461 0.005185
-1.086021 35.876461 0.005269
-0.771300 35.876461 0.005403
-0.456579 35.876461 0.005538
-0.141859 35.876461 0.005616
0.172863 35.876461 0.005760
0.487584 35.876461 0.006028
0.802305 35.876461 0.006302
1.117026 35.876461 0.006639
1.431747 35.876461 0.007071
1.746467 35.876461 0.007510
2.061188 35.876461 0.007952
2.375909 35.876461 0.008493
2.690630 35.876461 0.009253
3.005352 35.876461 0.010060
3.320073 35.876461 0.011058
3.634794 35.876461 0.012307
3.949515 35.876461 0.013838
4.264236 35.876461 0.015662
4.578956 35.876461 0.018042
4.893677 35.876461 0.021124
5.208398 35.876461 0.024950
5.523119 35.876461 0.029935
5.837841 35.876461 0.036344
6.152562 35.876461 0.044884
6.467283 35.876461 0.055703
6.782003 35.876461 0.070348
7.096724 35.876461 0.089925
7.411445 35.876461 0.112637
7.726166 35.876461 0.144030
8.040888 35.876461 0.188564
8.355608 35.876461 0.247700
8.670330 35.876461 0.314314
8.985050 35.876461 0.388092
9.299772 35.876461 0.471075
9.614492 35.876461 0.567890
9.929214 35.876461 0.669661
10.243935 35.876461 0.776268
10.558655 35.876461 0.874407
10.873377 35.876461 0.980643
11.188097 35.876461 1.094503
11.502819 35.876461 1.203304
11.817539 35.876461 1.281039
12.132261 35.876461 1.336903
12.446981 35.876461 1.382167
12.761703 35.876461 1.445534
13.076424 35.876461 1.468550
13.391144 35.876461 1.475086
13.705866 35.876461 1.459327
14.020586 35.876461 1.441195
14.335308 35.876461 1.420026
14.650028 35.876461 1.388524
14.964750 35.876461 1.359040
15.279470 35.876461 1.292738
15.594193 35.876461 1.183635
15.908913 35.876461 1.052326
16.223633 35.876461 0.837625
16.538355 35.876461 0.000000
16.853075 35.876461 0.000000
17.167797 35.876461 0.000000
17.482517 35.876461 0.000000
17.797239 35.876461 0.000000
18.111959 35.876461 0.000000
18.426680 35.876461 0.000000
18.741402 35.876461 0.000000
-7.065720 35.561741 0.000000
-6.750999 35.561741 0.007655
-6.436278 35.561741 0.005676
-6.121557 35.561741 0.004999
-5.806836 35.561741 0.004994
-5.492115 35.561741 0.004918
-5.177394 35.561741 0.004939
-4.862673 35.561741 0.004981
-4.547952 35.561741 0.004937
-4.233231 35.561741 0.004919
-3.918510 35.561741 0.004896
-3.603789 35.561741 0.004897
-3.289068 35.561741 0.004917
-2.974347 35.561741 0.004954
-2.659626 35.561741 0.004983
-2.344905 35.561741 0.005014
-2.030184 35.561741 0.005109
-1.715463 35.561741 0.005147
-1.400742 35.561741 0.005204
-1.086021 35.561741 0.005289
-0.771300 35.561741 0.005411
-0.456579 35.561741 0.005498
-0.141859 35.561741 0.005583
0.172863 35.561741 0.005755
0.487584 35.561741 0.006021
0.802305 35.561741 0.006299
1.117026 35.561741 0.006630
1.431747 35.561741 0.007062
1.746467 35.561741 0.007528
2.061188 35.561741 0.007987
2.375909 35.561741 0.008554
2.690630 35.561741 0.009309
3.005352 35.561741 0.010120
3.320073 35.561741 0.011091
3.634794 35.561741 0.012299
3.949515 35.561741 0.013799
4.264236 35.561741 0.015636
4.578956 35.561741 0.018003
4.893677 35.561741 0.021064
5.208398 35.561741 0.024834
5.523119 35.561741 0.029828
5.837841 35.561741 0.036335
6.152562 35.561741 0.044650
6.467283 35.561741 0.055146
6.782003 35.561741 0.069541
7.096724 35.561741 0.089033
7.411445 35.561741 0.113242
7.726166 35.561741 0.145045
8.040888 35.561741 0.188413
8.355608 35.561741 0.243923
8.670330 35.561741 0.316609
8.985050 35.561741 0.394534
9.299772 35.561741 0.475859
9.614492 35.561741 0.568074
9.929214 35.561741 0.668607
10.243935 35.561741 0.771484
10.558655 35.561741 0.870606
10.873377 35.561741 0.974740
11.188097 35.561741 1.086590
11.502819 35.561741 1.197060
11.817539 35.561741 1.278583
12.132261 35.561741 1.344162
12.446981 35.561741 1.406299
12.761703 35.561741 1.458103
13.076424 35.561741 1.484370
13.391144 35.561741 1.483508
13.705866 35.561741 1.474221
14.020586 35.561741 1.450111
14.335308 35.561741 1.423535
14.650028 35.561741 1.393344
14.964750 35.561741 1.362552
15.279470 35.561741 1.304324
15.594193 35.561741 1.201125
15.908913 35.561741 1.063272
16.223633 35.561741 0.832611
16.538355 35.561741 0.000000
16.853075 35.561741 0.000000
17.167797 35.561741 0.000000
17.482517 35.561741 0.000000
17.797239 35.561741 0.000000
18.111959 35.561741 0.000000
18.426680 35.561741 0.000000
18.741402 35.561741 0.000000
-7.065720 35.247021 0.000000
-6.750999 35.247021 0.007556
-6.436278 35.247021 0.005602
-6.121557 35.247021 0.004961
-5.806836 35.247021 0.004987
-5.492115 35.247021 0.004913
-5.177394 35.247021 0.004903
-4.862673 35.247021 0.004936
-4.547952 35.247021 0.004912
-4.233231 35.247021 0.004887
-3.918510 35.247021 0.004892
-3.603789 35.247021 0.004895
-3.289068 35.247021 0.004910
-2.974347 35.247021 0.004940
-2.659626 35.247021 0.004908
-2.344905 35.247021 0.004935
-2.030184 35.247021 0.005044
-1.715463 35.247021 0.005134
-1.400742 35.247021 0.005207
-1.086021 35.247021 0.005277
-0.771300 35.247021 0.005388
-0.456579 35.247021 0.005462
-0.141859 35.247021 0.005565
0.172863 35.247021 0.005752
0.487584 35.247021 0.006023
0.802305 35.247021 0.006298
1.117026 35.247021 0.006615
1.431747 35.247021 0.007036
1.746467 35.247021 0.007499
2.061188 35.247021 0.007974
2.375909 35.247021 0.008575
2.690630 35.247021 0.009289
3.005352 35.247021 0.010105
3.320073 35.247021 0.011061
3.634794 35.247021 0.012291
3.949515 35.247021 0.013731
4.264236 35.247021 0.015562
4.578956 35.247021 0.017948
4.893677 35.247021 0.020934
5.208398 35.247021 0.024890
5.523119 35.247021 0.029858
5.837841 35.247021 0.036212
6.152562 35.247021 0.044644
6.467283 35.247021 0.055412
6.782003 35.247021 0.069692
7.096724 35.247021 0.089681
7.411445 35.247021 0.113370
7.726166 35.247021 0.144145
8.040888 35.247021 0.185611
8.355608 35.247021 0.241196
8.670330 35.247021 0.313389
8.985050 35.247021 0.392952
9.299772 35.247021 0.475797
9.614492 35.247021 0.571593
9.929214 35.247021 0.669059
10.243935 35.247021 0.769912
10.558655 35.247021 0.875012
10.873377 35.247021 0.975657
11.188097 35.247021 1.075540
11.502819 35.247021 1.185695
11.817539 35.247021 1.267886
12.132261 35.247021 1.339558
12.446981 35.247021 1.405738
12.761703 35.247021 1.459836
13.076424 35.247021 1.487957
13.391144 35.247021 1.491586
13.705866 35.247021 1.480602
14.020586 35.247021 1.455709
14.335308 35.247021 1.429286
14.650028 35.247021 1.404507
14.964750 35.247021 1.368196
15.279470 35.247021 1.308823
15.594193 35.247021 1.217382
15.908913 35.247021 1.069563
16.223633 35.247021 0.819765
16.538355 35.247021 0.000000
16.853075 35.247021 0.000000
17.167797 35.247021 0.000000
17.482517 35.247021 0.000000
17.797239 35.247021 0.000000
18.111959 35.247021 0.000000
18.426680 35.247021 0.000000
18.741402 35.247021 0.000000
-7.065720 34.932297 0.000000
-6.750999 34.932297 0.007382
-6.436278 34.932297 0.005493
-6.121557 34.932297 0.004919
-5.806836 34.932297 0.004995
-5.492115 34.932297 0.004912
-5.177394 34.932297 0.004873
-4.862673 34.932297 0.004892
-4.547952 34.932297 0.004898
-4.233231 34.932297 0.004897
-3.918510 34.932297 0.004884
-3.603789 34.932297 0.004891
-3.289068 34.932297 0.004883
-2.974347 34.932297 0.004907
-2.659626 34.932297 0.004851
-2.344905 34.932297 0.004837
-2.030184 34.932297 0.004974
-1.715463 34.932297 0.005031
-1.400742 34.932297 0.005144
-1.086021 34.932297 0.005231
-0.771300 34.932297 0.005339
-0.456579 34.932297 0.005441
-0.141859 34.932297 0.005557
0.172863 34.932297 0.005751
0.487584 34.932297 0.006026
0.802305 34.932297 0.006310
1.117026 34.932297 0.006615
1.431747 34.932297 0.007010
1.746467 34.932297 0.007401
2.061188 34.932297 0.007907
2.375909 34.932297 0.008531
2.690630 34.932297 0.009221
3.005352 34.932297 0.010052
3.320073 34.932297 0.011072
3.634794 34.932297 0.012292
3.949515 34.932297 0.013698
4.264236 34.932297 0.015556
4.578956 34.932297 0.017938
4.893677 34.932297 0.020964
5.208398 34.932297 0.024886
5.523119 34.932297 0.029708
5.837841 34.932297 0.036080
6.152562 34.932297 0.044434
6.467283 34.932297 0.055168
6.782003 34.932297 0.069682
7.096724 34.932297 0.089735
7.411445 34.932297 0.114098
7.726166 34.932297 0.143749
8.040888 34.932297 0.183060
8.355608 34.932297 0.237743
8.670330 34.932297 0.303306
8.985050 34.932297 0.383799
9.299772 34.932297 0.472413
9.614492 34.932297 0.567553
9.929214 34.932297 0.670748
10.243935 34.932297 0.773934
10.558655 34.932297 0.876086
10.873377 34.932297 0.973794
11.188097 34.932297 1.082118
11.502819 34.932297 1.188542
11.817539 34.932297 1.259957
12.132261 34.932297 1.334166
12.446981 34.932297 1.404137
12.761703 34.932297 1.453777
13.076424 34.932297 1.487875
13.391144 34.932297 1.494937
13.705866 34.932297 1.490268
14.020586 34.932297 1.460798
14.335308 34.932297 1.437934
14.650028 34.932297 1.417831
14.964750 34.932297 1.375920
15.279470 34.932297 1.314066
15.594193 34.932297 1.221595
15.908913 34.932297 1.070133
16.223633 34.932297 0.794055
16.538355 34.932297 0.000000
16.853075 34.932297 0.000000
17.167797 34.932297 0.000000
17.482517 34.932297 0.000000
17.797239 34.932297 0.000000
18.111959 34.932297 0.000000
18.426680 34.932297 0.000000
18.741402 34.932297 0.000000
-7.065720 34.617577 0.000000
-6.750999 34.617577 0.007185
-6.436278 34.617577 0.005400
-6.121557 34.617577 0.004893
-5.806836 34.617577 0.004968
-5.492115 34.617577 0.004868
-5.177394 34.617577 0.004860
-4.862673 34.617577 0.004882
-4.547952 34.617577 0.004887
-4.233231 34.617577 0.004939
-3.918510 34.617577 0.004909
-3.603789 34.617577 0.004867
-3.289068 34.617577 0.004852
-2.974347 34.617577 0.004854
-2.659626 34.617577 0.004842
-2.344905 34.617577 0.004813
-2.030184 34.617577 0.004935
-1.715463 34.617577 0.005001
-1.400742 34.617577 0.005114
-1.086021 34.617577 0.005196
-0.771300 34.617577 0.005267
-0.456579 34.617577 0.005405
-0.141859 34.617577 0.005569
0.172863 34.617577 0.005788
0.487584 34.617577 0.006046
0.802305 34.617577 0.006286
1.117026 34.617577 0.006619
1.431747 34.617577 0.006973
1.746467 34.617577 0.007337
2.061188 34.617577 0.007853
2.375909 34.617577 0.008464
2.690630 34.617577 0.009136
3.005352 34.617577 0.010008
3.320073 34.617577 0.011076
3.634794 34.617577 0.012295
3.949515 34.617577 0.013647
4.264236 34.617577 0.015494
4.578956 34.617577 0.017836
4.893677 34.617577 0.020902
5.208398 34.617577 0.024826
5.523119 34.617577 0.029557
5.837841 34.617577 0.035963
6.152562 34.617577 0.044560
6.467283 34.617577 0.055186
6.782003 34.617577 0.070389
7.096724 34.617577 0.089331
7.411445 34.617577 0.114233
7.726166 34.617577 0.145054
8.040888 34.617577 0.185812
8.355608 34.617577 0.237955
8.670330 34.617577 0.304754
8.985050 34.617577 0.380146
9.299772 34.617577 0.467157
9.614492 34.617577 0.562724
9.929214 34.617577 0.667850
10.243935 34.617577 0.778910
10.558655 34.617577 0.890691
10.873377 34.617577 0.985675
11.188097 34.617577 1.081877
11.502819 34.617577 1.191774
11.817539 34.617577 1.269397
12.132261 34.617577 1.335868
12.446981 34.617577 1.393768
12.761703 34.617577 1.454649
13.076424 34.617577 1.489771
13.391144 34.617577 1.501557
13.705866 34.617577 1.497225
14.020586 34.617577 1.466397
14.335308 34.617577 1.441949
14.650028 34.617577 1.415640
14.964750 34.617577 1.373524
15.279470 34.617577 1.316189
15.594193 34.617577 1.221461
15.908913 34.617577 1.069443
16.223633 34.617577 0.592839
16.538355 34.617577 0.000000
16.853075 34.617577 0.000000
17.167797 34.617577 0.000000
17.482517 34.617577 0.000000
17.797239 34.617577 0.000000
18.111959 34.617577 0.000000
18.426680 34.617577 0.000000
18.741402 34.617577 0.000000
-7.065720 34.302856 0.000000
-6.750999 34.302856 0.007002
-6.436278 34.302856 0.005323
-6.121557 34.302856 0.004873
-5.806836 34.302856 0.004923
-5.492115 34.302856 0.004815
-5.177394 34.302856 0.004842
-4.862673 34.302856 0.004875
-4.547952 34.302856 0.004880
-4.233231 34.302856 0.004963
-3.918510 34.302856 0.004901
-3.603789 34.302856 0.004819
-3.289068 34.302856 0.004791
-2.974347 34.302856 0.004816
-2.659626 34.302856 0.004841
-2.344905 34.302856 0.004845
-2.030184 34.302856 0.004928
-1.715463 34.302856 0.005002
-1.400742 34.302856 0.005088
-1.086021 34.302856 0.005187
-0.771300 34.302856 0.005249
-0.456579 34.302856 0.005391
-0.141859 34.302856 0.005567
0.172863 34.302856 0.005820
0.487584 34.302856 0.006053
0.802305 34.302856 0.006285
1.117026 34.302856 0.006592
1.431747 34.302856 0.006955
1.746467 34.302856 0.007329
2.061188 34.302856 0.007824
2.375909 34.302856 0.008387
2.690630 34.302856 0.009083
3.005352 34.302856 0.009985
3.320073 34.302856 0.011063
3.634794 34.302856 0.012209
3.949515 34.302856 0.013582
4.264236 34.302856 0.015446
4.578956 34.302856 0.017869
4.893677 34.302856 0.020877
5.208398 34.302856 0.024639
5.523119 34.302856 0.029511
5.837841 34.302856 0.035903
6.152562 34.302856 0.044505
6.467283 34.302856 0.055199
6.782003 34.302856 0.070020
7.096724 34.302856 0.090016
7.411445 34.302856 0.114541
7.726166 34.302856 0.145549
8.040888 34.302856 0.188137
8.355608 34.302856 0.243824
8.670330 34.302856 0.309640
8.985050 34.302856 0.383802
9.299772 34.302856 0.473429
9.614492 34.302856 0.568391
9.929214 34.302856 0.667584
10.243935 34.302856 0.781347
10.558655 34.302856 0.885492
10.873377 34.302856 0.990907
11.188097 34.302856 1.090441
11.502819 34.302856 1.191814
11.817539 34.302856 1.267620
12.132261 34.302856 1.336385
12.446981 34.302856 1.396204
12.761703 34.302856 1.448480
13.076424 34.302856 1.502385
13.391144 34.302856 1.510686
13.705866 34.302856 1.498621
14.020586 34.302856 1.471804
14.335308 34.302856 1.437398
14.650028 34.302856 1.411780
14.964750 34.302856 1.373829
15.279470 34.302856 1.311783
15.594193 34.302856 1.218968
15.908913 34.302856 1.071204
16.223633 34.302856 0.573127
16.538355 34.302856 0.000000
16.853075 34.302856 0.000000
17.167797 34.302856 0.000000
17.482517 34.302856 0.000000
17.797239 34.302856 0.000000
18.111959 34.302856 0.000000
18.426680 34.302856 0.000000
18.741402 34.302856 0.000000
-7.065720 33.988136 0.000000
-6.750999 33.988136 0.006873
-6.436278 33.988136 0.005266
-6.121557 33.988136 0.004858
-5.806836 33.988136 0.004890
-5.492115 33.988136 0.004790
-5.177394 33.988136 0.004859
-4.862673 33.988136 0.004890
-4.547952 33.988136 0.004887
-4.233231 33.988136 0.004933
-3.918510 33.988136 0.004869
-3.603789 33.988136 0.004785
-3.289068 33.988136 0.004758
-2.974347 33.988136 0.004796
-2.659626 33.988136 0.004854
-2.344905 33.988136 0.004899
-2.030184 33.988136 0.004964
-1.715463 33.988136 0.004995
-1.400742 33.988136 0.005094
-1.086021 33.988136 0.005189
-0.771300 33.988136 0.005253
-0.456579 33.988136 0.005367
-0.141859 33.988136 0.005594
0.172863 33.988136 0.005817
0.487584 33.988136 0.006036
0.802305 33.988136 0.006236
1.117026 33.988136 0.006564
1.431747 33.988136 0.006936
1.746467 33.988136 0.007337
2.061188 33.988136 0.007822
2.375909 33.988136 0.008354
2.690630 33.988136 0.009073
3.005352 33.988136 0.009993
3.320073 33.988136 0.011047
3.634794 33.988136 0.012166
3.949515 33.988136 0.013577
4.264236 33.988136 0.015522
4.578956 33.988136 0.017953
4.893677 33.988136 0.020963
5.208398 33.988136 0.024691
5.523119 33.988136 0.029281
5.837841 33.988136 0.035503
6.152562 33.988136 0.044180
6.467283 33.988136 0.055732
6.782003 33.988136 0.069670
7.096724 33.988136 0.088816
7.411445 33.988136 0.113786
7.726166 33.988136 0.145268
8.040888 33.988136 0.192597
8.355608 33.988136 0.247422
8.670330 33.988136 0.313348
8.985050 33.988136 0.392618
9.299772 33.988136 0.475511
9.614492 33.988136 0.565246
9.929214 33.988136 0.664020
10.243935 33.988136 0.774023
10.558655 33.988136 0.887741
10.873377 33.988136 0.993152
11.188097 33.988136 1.099947
11.502819 33.988136 1.193509
11.817539 33.988136 1.262747
12.132261 33.988136 1.337133
12.446981 33.988136 1.395707
12.761703 33.988136 1.454265
13.076424 33.988136 1.501778
13.391144 33.988136 1.515928
13.705866 33.988136 1.508430
14.020586 33.988136 1.479445
14.335308 33.988136 1.437802
14.650028 33.988136 1.412030
14.964750 33.988136 1.373057
15.279470 33.988136 1.308170
15.594193 33.988136 1.216085
15.908913 33.988136 1.072446
16.223633 33.988136 0.553097
16.538355 33.988136 0.000000
16.853075 33.988136 0.000000
17.167797 33.988136 0.000000
17.482517 33.988136 0.000000
17.797239 33.988136 0.000000
18.111959 33.988136 0.000000
18.426680 33.988136 0.000000
18.741402 33.988136 0.000000
-7.065720 33.673416 0.000000
-6.750999 33.673416 0.006886
-6.436278 33.673416 0.005254
-6.121557 33.673416 0.004856
-5.806836 33.673416 0.004891
-5.492115 33.673416 0.004796
-5.177394 33.673416 0.004875
-4.862673 33.673416 0.004914
-4.547952 33.673416 0.004927
-4.233231 33.673416 0.004923
-3.918510 33.673416 0.004860
-3.603789 33.673416 0.004820
-3.289068 33.673416 0.004805
-2.974347 33.673416 0.004832
-2.659626 33.673416 0.004903
-2.344905 33.673416 0.004950
-2.030184 33.673416 0.005006
-1.715463 33.673416 0.005057
-1.400742 33.673416 0.005136
-1.086021 33.673416 0.005184
-0.771300 33.673416 0.005236
-0.456579 33.673416 0.005385
-0.141859 33.673416 0.005618
0.172863 33.673416 0.005843
0.487584 33.673416 0.006044
0.802305 33.673416 0.006204
1.117026 33.673416 0.006527
1.431747 33.673416 0.006907
1.746467 33.673416 0.007343
2.061188 33.673416 0.007803
2.375909 33.673416 0.008376
2.690630 33.673416 0.009075
3.005352 33.673416 0.009956
3.320073 33.673416 0.010978
3.634794 33.673416 0.012116
3.949515 33.673416 0.013606
4.264236 33.673416 0.015602
4.578956 33.673416 0.018015
4.893677 33.673416 0.020941
5.208398 33.673416 0.024648
5.523119 33.673416 0.029056
5.837841 33.673416 0.035295
6.152562 33.673416 0.043853
6.467283 33.673416 0.055475
6.782003 33.673416 0.069338
7.096724 33.673416 0.088142
7.411445 33.673416 0.113079
7.726166 33.673416 0.145328
8.040888 33.673416 0.190326
8.355608 33.673416 0.249275
8.670330 33.673416 0.319554
8.985050 33.673416 0.397695
9.299772 33.673416 0.484002
9.614492 33.673416 0.569557
9.929214 33.673416 0.672543
10.243935 33.673416 0.781884
10.558655 33.673416 0.887246
10.873377 33.673416 0.992596
11.188097 33.673416 1.099906
11.502819 33.673416 1.186928
11.817539 33.673416 1.263047
12.132261 33.673416 1.330802
12.446981 33.673416 1.392645
12.761703 33.673416 1.441989
13.076424 33.673416 1.493031
13.391144 33.673416 1.512786
13.705866 33.673416 1.512105
14.020586 33.673416 1.478647
14.335308 33.673416 1.455327
14.650028 33.673416 1.426443
14.964750 33.673416 1.382984
15.279470 33.673416 1.313430
15.594193 33.673416 1.212021
15.908913 33.673416 1.072198
16.223633 33.673416 0.521237
16.538355 33.673416 0.000000
16.853075 33.673416 0.000000
17.167797 33.673416 0.000000
17.482517 33.673416 0.000000
17.797239 33.673416 0.000000
18.111959 33.673416 0.000000
18.426680 33.673416 0.000000
18.741402 33.673416 0.000000
-7.065720 33.358696 0.000000
-6.750999 33.358696 0.006959
-6.436278 33.358696 0.005312
-6.121557 33.358696 0.004904
-5.806836 33.358696 0.004935
-5.492115 33.358696 0.004819
-5.177394 33.358696 0.004854
-4.862673 33.358696 0.004918
-4.547952 33.358696 0.004935
-4.233231 33.358696 0.004901
-3.918510 33.358696 0.004860
-3.603789 33.358696 0.004865
-3.289068 33.358696 0.004874
-2.974347 33.358696 0.004901
-2.659626 33.358696 0.004947
-2.344905 33.358696 0.004984
-2.030184 33.358696 0.005052
-1.715463 33.358696 0.005093
-1.400742 33.358696 0.005155
-1.086021 33.358696 0.005198
-0.771300 33.358696 0.005225
-0.456579 33.358696 0.005418
-0.141859 33.358696 0.005654
0.172863 33.358696 0.005871
0.487584 33.358696 0.006074
0.802305 33.358696 0.006187
1.117026 33.358696 0.006502
1.431747 33.358696 0.006910
1.746467 33.358696 0.007314
2.061188 33.358696 0.007818
2.375909 33.358696 0.008385
2.690630 33.358696 0.009054
3.005352 33.358696 0.009892
3.320073 33.358696 0.010918
3.634794 33.358696 0.012129
3.949515 33.358696 0.013676
4.264236 33.358696 0.015702
4.578956 33.358696 0.018062
4.893677 33.358696 0.020920
5.208398 33.358696 0.024574
5.523119 33.358696 0.029364
5.837841 33.358696 0.035714
6.152562 33.358696 0.043821
6.467283 33.358696 0.055297
6.782003 33.358696 0.069403
7.096724 33.358696 0.087576
7.411445 33.358696 0.114232
7.726166 33.358696 0.146007
8.040888 33.358696 0.191154
8.355608 33.358696 0.248886
8.670330 33.358696 0.319836
8.985050 33.358696 0.395069
9.299772 33.358696 0.483139
9.614492 33.358696 0.573752
9.929214 33.358696 0.676035
10.243935 33.358696 0.788008
10.558655 33.358696 0.891881
10.873377 33.358696 0.994474
11.188097 33.358696 1.102757
11.502819 33.358696 1.186945
11.817539 33.358696 1.265777
12.132261 33.358696 1.327863
12.446981 33.358696 1.388144
12.761703 33.358696 1.440094
13.076424 33.358696 1.477706
13.391144 33.358696 1.509009
13.705866 33.358696 1.509727
14.020586 33.358696 1.484437
14.335308 33.358696 1.465089
14.650028 33.358696 1.437748
14.964750 33.358696 1.377919
15.279470 33.358696 1.309793
15.594193 33.358696 1.208540
15.908913 33.358696 1.062126
16.223633 33.358696 0.268289
16.538355 33.358696 0.000000
16.853075 33.358696 0.000000
17.167797 33.358696 0.000000
17.482517 33.358696 0.000000
17.797239 33.358696 0.000000
18.111959 33.358696 0.000000
18.426680 33.358696 0.000000
18.741402 33.358696 0.000000
-7.065720 33.043972 0.000000
-6.750999 33.043972 0.007054
-6.436278 33.043972 0.005399
-6.121557 33.043972 0.004938
-5.806836 33.043972 0.004972
-5.492115 33.043972 0.004839
-5.177394 33.043972 0.004843
-4.862673 33.043972 0.004907
-4.547952 33.043972 0.004952
-4.233231 33.043972 0.004917
-3.918510 33.043972 0.004877
-3.603789 33.043972 0.004886
-3.289068 33.043972 0.004905
-2.974347 33.043972 0.004942
-2.659626 33.043972 0.004962
-2.344905 33.043972 0.005025
-2.030184 33.043972 0.005095
-1.715463 33.043972 0.005094
-1.400742 33.043972 0.005168
-1.086021 33.043972 0.005217
-0.771300 33.043972 0.005279
-0.456579 33.043972 0.005481
-0.141859 33.043972 0.005743
0.172863 33.043972 0.005944
0.487584 33.043972 0.006115
0.802305 33.043972 0.006224
1.117026 33.043972 0.006517
1.431747 33.043972 0.006925
1.746467 33.043972 0.007327
2.061188 33.043972 0.007828
2.375909 33.043972 0.008380
2.690630 33.043972 0.009053
3.005352 33.043972 0.009853
3.320073 33.043972 0.010831
3.634794 33.043972 0.012106
3.949515 33.043972 0.013704
4.264236 33.043972 0.015687
4.578956 33.043972 0.018066
4.893677 33.043972 0.020799
5.208398 33.043972 0.024590
5.523119 33.043972 0.029418
5.837841 33.043972 0.035801
6.152562 33.043972 0.044108
6.467283 33.043972 0.054905
6.782003 33.043972 0.069981
7.096724 33.043972 0.088909
7.411445 33.043972 0.114138
7.726166 33.043972 0.146645
8.040888 33.043972 0.189085
8.355608 33.043972 0.241977
8.670330 33.043972 0.310548
8.985050 33.043972 0.392823
9.299772 33.043972 0.486055
9.614492 33.043972 0.579397
9.929214 33.043972 0.677099
10.243935 33.043972 0.782220
10.558655 33.043972 0.892962
10.873377 33.043972 1.000030
11.188097 33.043972 1.100872
11.502819 33.043972 1.192819
11.817539 33.043972 1.258020
12.132261 33.043972 1.331926
12.446981 33.043972 1.394424
12.761703 33.043972 1.451354
13.076424 33.043972 1.481079
13.391144 33.043972 1.510054
13.705866 33.043972 1.512002
14.020586 33.043972 1.499925
14.335308 33.043972 1.472882
14.650028 33.043972 1.431296
14.964750 33.043972 1.366946
15.279470 33.043972 1.295826
15.594193 33.043972 1.198924
15.908913 33.043972 1.051484
16.223633 33.043972 0.244926
16.538355 33.043972 0.000000
16.853075 33.043972 0.000000
17.167797 33.043972 0.000000
17.482517 33.043972 0.000000
17.797239 33.043972 0.000000
18.111959 33.043972 0.000000
18.426680 33.043972 0.000000
18.741402 33.043972 0.000000
-7.065720 32.729252 0.000000
-6.750999 32.729252 0.007103
-6.436278 32.729252 0.005465
-6.121557 32.729252 0.004945
-5.806836 32.729252 0.004955
-5.492115 32.729252 0.004865
-5.177394 32.729252 0.004879
-4.862673 32.729252 0.004908
-4.547952 32.729252 0.004963
-4.233231 32.729252 0.004942
-3.918510 32.729252 0.004870
-3.603789 32.729252 0.004865
-3.289068 32.729252 0.004880
-2.974347 32.729252 0.004943
-2.659626 32.729252 0.004969
-2.344905 32.729252 0.005027
-2.030184 32.729252 0.005123
-1.715463 32.729252 0.005104
-1.400742 32.729252 0.005199
-1.086021 32.729252 0.005259
-0.771300 32.729252 0.005341
-0.456579 32.729252 0.005569
-0.141859 32.729252 0.005804
0.172863 32.729252 0.005995
0.487584 32.729252 0.006150
0.802305 32.729252 0.006272
1.117026 32.729252 0.006545
1.431747 32.729252 0.006950
1.746467 32.729252 0.007361
2.061188 32.729252 0.007856
2.375909 32.729252 0.008403
2.690630 32.729252 0.009041
3.005352 32.729252 0.009827
3.320073 32.729252 0.010803
3.634794 32.729252 0.012052
3.949515 32.729252 0.013582
4.264236 32.729252 0.015548
4.578956 32.729252 0.018004
4.893677 32.729252 0.020841
5.208398 32.729252 0.024760
5.523119 32.729252 0.029622
5.837841 32.729252 0.036090
6.152562 32.729252 0.044567
6.467283 32.729252 0.055806
6.782003 32.729252 0.070395
7.096724 32.729252 0.089821
7.411445 32.729252 0.114022
7.726166 32.729252 0.146688
8.040888 32.729252 0.190303
8.355608 32.729252 0.244035
8.670330 32.729252 0.310633
8.985050 32.729252 0.385899
9.299772 32.729252 0.473712
9.614492 32.729252 0.572991
9.929214 32.729252 0.682337
10.243935 32.729252 0.785959
10.558655 32.729252 0.899574
10.873377 32.729252 1.004748
11.188097 32.729252 1.106927
11.502819 32.729252 1.200133
11.817539 32.729252 1.277105
12.132261 32.729252 1.340876
12.446981 32.729252 1.398392
12.761703 32.729252 1.451185
13.076424 32.729252 1.480378
13.391144 32.729252 1.499062
13.705866 32.729252 1.506991
14.020586 32.729252 1.499438
14.335308 32.729252 1.471913
14.650028 32.729252 1.429871
14.964750 32.729252 1.364118
15.279470 32.729252 1.294963
15.594193 32.729252 1.191397
15.908913 32.729252 1.047516
16.223633 32.729252 0.222003
16.538355 32.729252 0.000000
16.853075 32.729252 0.000000
17.167797 32.729252 0.000000
17.482517 32.729252 0.000000
17.797239 32.729252 0.000000
18.111959 32.729252 0.000000
18.426680 32.729252 0.000000
18.741402 32.729252 0.000000
-7.065720 32.414532 0.000000
-6.750999 32.414532 0.007173
-6.436278 32.414532 0.005505
-6.121557 32.414532 0.004942
-5.806836 32.414532 0.004956
-5.492115 32.414532 0.004931
-5.177394 32.414532 0.004969
-4.862673 32.414532 0.004930
-4.547952 32.414532 0.004960
-4.233231 32.414532 0.004940
-3.918510 32.414532 0.004853
-3.603789 32.414532 0.004854
-3.289068 32.414532 0.004879
-2.974347 32.414532 0.004938
-2.659626 32.414532 0.004981
-2.344905 32.414532 0.005057
-2.030184 32.414532 0.005144
-1.715463 32.414532 0.005165
-1.400742 32.414532 0.005206
-1.086021 32.414532 0.005246
-0.771300 32.414532 0.005385
-0.456579 32.414532 0.005579
-0.141859 32.414532 0.005816
0.172863 32.414532 0.005995
0.487584 32.414532 0.006154
0.802305 32.414532 0.006284
1.117026 32.414532 0.006603
1.431747 32.414532 0.007002
1.746467 32.414532 0.007415
2.061188 32.414532 0.007894
2.375909 32.414532 0.008407
2.690630 32.414532 0.009048
3.005352 32.414532 0.009811
3.320073 32.414532 0.010750
3.634794 32.414532 0.011988
3.949515 32.414532 0.013503
4.264236 32.414532 0.015467
4.578956 32.414532 0.017856
4.893677 32.414532 0.020791
5.208398 32.414532 0.024622
5.523119 32.414532 0.029625
5.837841 32.414532 0.036217
6.152562 32.414532 0.044909
6.467283 32.414532 0.055882
6.782003 32.414532 0.070689
7.096724 32.414532 0.090037
7.411445 32.414532 0.114340
7.726166 32.414532 0.147135
8.040888 32.414532 0.193386
8.355608 32.414532 0.248663
8.670330 32.414532 0.317087
8.985050 32.414532 0.389457
9.299772 32.414532 0.470388
9.614492 32.414532 0.570412
9.929214 32.414532 0.673103
10.243935 32.414532 0.785233
10.558655 32.414532 0.904596
10.873377 32.414532 1.009732
11.188097 32.414532 1.113663
11.502819 32.414532 1.209662
11.817539 32.414532 1.281178
12.132261 32.414532 1.344828
12.446981 32.414532 1.401609
12.761703 32.414532 1.455037
13.076424 32.414532 1.483044
13.391144 32.414532 1.500766
13.705866 32.414532 1.506354
14.020586 32.414532 1.504640
14.335308 32.414532 1.479334
14.650028 32.414532 1.429474
14.964750 32.414532 1.370715
15.279470 32.414532 1.297334
15.594193 32.414532 1.195888
15.908913 32.414532 1.056233
16.223633 32.414532 0.214318
16.538355 32.414532 0.000000
16.853075 32.414532 0.000000
17.167797 32.414532 0.000000
17.482517 32.414532 0.000000
17.797239 32.414532 0.000000
18.111959 32.414532 0.000000
18.426680 32.414532 0.000000
18.741402 32.414532 0.000000
-7.065720 32.099808 0.000000
-6.750999 32.099808 0.007197
-6.436278 32.099808 0.005457
-6.121557 32.099808 0.004945
-5.806836 32.099808 0.005010
-5.492115 32.099808 0.005020
-5.177394 32.099808 0.005071
-4.862673 32.099808 0.004965
-4.547952 32.099808 0.004916
-4.233231 32.099808 0.004901
-3.918510 32.099808 0.004836
-3.603789 32.099808 0.004822
-3.289068 32.099808 0.004845
-2.974347 32.099808 0.004913
-2.659626 32.099808 0.004964
-2.344905 32.099808 0.005065
-2.030184 32.099808 0.005172
-1.715463 32.099808 0.005186
-1.400742 32.099808 0.005201
-1.086021 32.099808 0.005245
-0.771300 32.099808 0.005394
-0.456579 32.099808 0.005567
-0.141859 32.099808 0.005780
0.172863 32.099808 0.005958
0.487584 32.099808 0.006126
0.802305 32.099808 0.006292
1.117026 32.099808 0.006638
1.431747 32.099808 0.007062
1.746467 32.099808 0.007470
2.061188 32.099808 0.007890
2.375909 32.099808 0.008424
2.690630 32.099808 0.009071
3.005352 32.099808 0.009830
3.320073 32.099808 0.010737
3.634794 32.099808 0.011992
3.949515 32.099808 0.013455
4.264236 32.099808 0.015390
4.578956 32.099808 0.017813
4.893677 32.099808 0.020742
5.208398 32.099808 0.024607
5.523119 32.099808 0.029666
5.837841 32.099808 0.036132
6.152562 32.099808 0.044976
6.467283 32.099808 0.055853
6.782003 32.099808 0.070879
7.096724 32.099808 0.089366
7.411445 32.099808 0.114329
7.726166 32.099808 0.147167
8.040888 32.099808 0.193141
8.355608 32.099808 0.251418
8.670330 32.099808 0.319561
8.985050 32.099808 0.394382
9.299772 32.099808 0.476904
9.614492 32.099808 0.574698
9.929214 32.099808 0.674528
10.243935 32.099808 0.790909
10.558655 32.099808 0.896680
10.873377 32.099808 0.997914
11.188097 32.099808 1.104890
11.502819 32.099808 1.196352
11.817539 32.099808 1.277762
12.132261 32.099808 1.345907
12.446981 32.099808 1.404991
12.761703 32.099808 1.467664
13.076424 32.099808 1.490995
13.391144 32.099808 1.507338
13.705866 32.099808 1.517704
14.020586 32.099808 1.517406
14.335308 32.099808 1.485919
14.650028 32.099808 1.430433
14.964750 32.099808 1.372058
15.279470 32.099808 1.293174
15.594193 32.099808 1.193668
15.908913 32.099808 1.067285
16.223633 32.099808 0.202665
16.538355 32.099808 0.000000
16.853075 32.099808 0.000000
17.167797 32.099808 0.000000
17.482517 32.099808 0.000000
17.797239 32.099808 0.000000
18.111959 32.099808 0.000000
18.426680 32.099808 0.000000
18.741402 32.099808 0.000000
-7.065720 31.785089 0.000000
-6.750999 31.785089 0.007141
-6.436278 31.785089 0.005398
-6.121557 31.785089 0.004936
-5.806836 31.785089 0.005043
-5.492115 31.785089 0.005068
-5.177394 31.785089 0.005109
-4.862673 31.785089 0.004986
-4.547952 31.785089 0.004900
-4.233231 31.785089 0.004901
-3.918510 31.785089 0.004837
-3.603789 31.785089 0.004804
-3.289068 31.785089 0.004820
-2.974347 31.785089 0.004893
-2.659626 31.785089 0.004951
-2.344905 31.785089 0.005050
-2.030184 31.785089 0.005173
-1.715463 31.785089 0.005177
-1.400742 31.785089 0.005192
-1.086021 31.785089 0.005251
-0.771300 31.785089 0.005375
-0.456579 31.785089 0.005535
-0.141859 31.785089 0.005715
0.172863 31.785089 0.005920
0.487584 31.785089 0.006109
0.802305 31.785089 0.006285
1.117026 31.785089 0.006649
1.431747 31.785089 0.007073
1.746467 31.785089 0.007486
2.061188 31.785089 0.007930
2.375909 31.785089 0.008462
2.690630 31.785089 0.009083
3.005352 31.785089 0.009812
3.320073 31.785089 0.010792
3.634794 31.785089 0.012005
3.949515 31.785089 0.013477
4.264236 31.785089 0.015407
4.578956 31.785089 0.017841
4.893677 31.785089 0.020787
5.208398 31.785089 0.024606
5.523119 31.785089 0.029723
5.837841 31.785089 0.036147
6.152562 31.785089 0.044664
6.467283 31.785089 0.055368
6.782003 31.785089 0.070283
7.096724 31.785089 0.089200
7.411445 31.785089 0.113310
7.726166 31.785089 0.148051
8.040888 31.785089 0.193356
8.355608 31.785089 0.250996
8.670330 31.785089 0.317652
8.985050 31.785089 0.400762
9.299772 31.785089 0.483375
9.614492 31.785089 0.578150
9.929214 31.785089 0.678229
10.243935 31.785089 0.785822
10.558655 31.785089 0.887514
10.873377 31.785089 0.993761
11.188097 31.785089 1.092270
11.502819 31.785089 1.186002
11.817539 31.785089 1.269749
12.132261 31.785089 1.338953
12.446981 31.785089 1.420473
12.761703 31.785089 1.475358
13.076424 31.785089 1.508689
13.391144 31.785089 1.507514
13.705866 31.785089 1.533242
14.020586 31.785089 1.534090
14.335308 31.785089 1.500984
14.650028 31.785089 1.442833
14.964750 31.785089 1.369470
15.279470 31.785089 1.294157
15.594193 31.785089 1.196968
15.908913 31.785089 1.069780
16.223633 31.785089 0.188091
16.538355 31.785089 0.000000
16.853075 31.785089 0.000000
17.167797 31.785089 0.000000
17.482517 31.785089 0.000000
17.797239 31.785089 0.000000
18.111959 31.785089 0.000000
18.426680 31.785089 0.000000
18.741402 31.785089 0.000000
-7.065720 31.470367 0.000000
-6.750999 31.470367 0.007112
-6.436278 31.470367 0.005367
-6.121557 31.470367 0.004947
-5.806836 31.470367 0.005037
-5.492115 31.470367 0.005019
-5.177394 31.470367 0.005033
-4.862673 31.470367 0.004967
-4.547952 31.470367 0.004914
-4.233231 31.470367 0.004931
-3.918510 31.470367 0.004869
-3.603789 31.470367 0.004826
-3.289068 31.470367 0.004833
-2.974347 31.470367 0.004869
-2.659626 31.470367 0.004935
-2.344905 31.470367 0.005021
-2.030184 31.470367 0.005123
-1.715463 31.470367 0.005149
-1.400742 31.470367 0.005185
-1.086021 31.470367 0.005245
-0.771300 31.470367 0.005342
-0.456579 31.470367 0.005458
-0.141859 31.470367 0.005632
0.172863 31.470367 0.005881
0.487584 31.470367 0.006096
0.802305 31.470367 0.006259
1.117026 31.470367 0.006639
1.431747 31.470367 0.007034
1.746467 31.470367 0.007435
2.061188 31.470367 0.007951
2.375909 31.470367 0.008449
2.690630 31.470367 0.009099
3.005352 31.470367 0.009841
3.320073 31.470367 0.010840
3.634794 31.470367 0.012089
3.949515 31.470367 0.013515
4.264236 31.470367 0.015351
4.578956 31.470367 0.017765
4.893677 31.470367 0.020694
5.208398 31.470367 0.024639
5.523119 31.470367 0.029701
5.837841 31.470367 0.036052
6.152562 31.470367 0.044391
6.467283 31.470367 0.055439
6.782003 31.470367 0.069834
7.096724 31.470367 0.090264
7.411445 31.470367 0.115226
7.726166 31.470367 0.149273
8.040888 31.470367 0.193835
8.355608 31.470367 0.251990
8.670330 31.470367 0.320860
8.985050 31.470367 0.396443
9.299772 31.470367 0.482275
9.614492 31.470367 0.579302
9.929214 31.470367 0.680413
10.243935 31.470367 0.778213
10.558655 31.470367 0.877405
10.873377 31.470367 0.986839
11.188097 31.470367 1.085567
11.502819 31.470367 1.186250
11.817539 31.470367 1.269351
12.132261 31.470367 1.337241
12.446981 31.470367 1.417949
12.761703 31.470367 1.479156
13.076424 31.470367 1.512496
13.391144 31.470367 1.514192
13.705866 31.470367 1.534990
14.020586 31.470367 1.539560
14.335308 31.470367 1.496667
14.650028 31.470367 1.441219
14.964750 31.470367 1.374693
15.279470 31.470367 1.295200
15.594193 31.470367 1.210753
15.908913 31.470367 1.077112
16.223633 31.470367 0.184537
16.538355 31.470367 0.000000
16.853075 31.470367 0.000000
17.167797 31.470367 0.000000
17.482517 31.470367 0.000000
17.797239 31.470367 0.000000
18.111959 31.470367 0.000000
18.426680 31.470367 0.000000
18.741402 31.470367 0.000000
-7.065720 31.155647 0.000000
-6.750999 31.155647 0.007144
-6.436278 31.155647 0.005384
-6.121557 31.155647 0.004968
-5.806836 31.155647 0.005056
-5.492115 31.155647 0.004976
-5.177394 31.155647 0.004972
-4.862673 31.155647 0.004952
-4.547952 31.155647 0.004927
-4.233231 31.155647 0.004944
-3.918510 31.155647 0.004889
-3.603789 31.155647 0.004824
-3.289068 31.155647 0.004852
-2.974347 31.155647 0.004868
-2.659626 31.155647 0.004913
-2.344905 31.155647 0.004977
-2.030184 31.155647 0.005061
-1.715463 31.155647 0.005134
-1.400742 31.155647 0.005217
-1.086021 31.155647 0.005245
-0.771300 31.155647 0.005291
-0.456579 31.155647 0.005387
-0.141859 31.155647 0.005574
0.172863 31.155647 0.005832
0.487584 31.155647 0.006080
0.802305 31.155647 0.006261
1.117026 31.155647 0.006606
1.431747 31.155647 0.006977
1.746467 31.155647 0.007379
2.061188 31.155647 0.008006
2.375909 31.155647 0.008503
2.690630 31.155647 0.009126
3.005352 31.155647 0.009888
3.320073 31.155647 0.010914
3.634794 31.155647 0.012155
3.949515 31.155647 0.013527
4.264236 31.155647 0.015428
4.578956 31.155647 0.017792
4.893677 31.155647 0.020803
5.208398 31.155647 0.024665
5.523119 31.155647 0.029659
5.837841 31.155647 0.036307
6.152562 31.155647 0.044820
6.467283 31.155647 0.055848
6.782003 31.155647 0.070287
7.096724 31.155647 0.090847
7.411445 31.155647 0.115187
7.726166 31.155647 0.147513
8.040888 31.155647 0.193397
8.355608 31.155647 0.247769
8.670330 31.155647 0.315543
8.985050 31.155647 0.397971
9.299772 31.155647 0.478439
9.614492 31.155647 0.576645
9.929214 31.155647 0.676068
10.243935 31.155647 0.779046
10.558655 31.155647 0.883262
10.873377 31.155647 0.990578
11.188097 31.155647 1.094465
11.502819 31.155647 1.193733
11.817539 31.155647 1.272167
12.132261 31.155647 1.341515
12.446981 31.155647 1.415967
12.761703 31.155647 1.478861
13.076424 31.155647 1.508298
13.391144 31.155647 1.513399
13.705866 31.155647 1.527809
14.020586 31.155647 1.533083
14.335308 31.155647 1.489357
14.650028 31.155647 1.440856
14.964750 31.155647 1.384652
15.279470 31.155647 1.306911
15.594193 31.155647 1.200010
15.908913 31.155647 1.076496
16.223633 31.155647 0.138221
16.538355 31.155647 0.000000
16.853075 31.155647 0.000000
17.167797 31.155647 0.000000
17.482517 31.155647 0.000000
17.797239 31.155647 0.000000
18.111959 31.155647 0.000000
18.426680 31.155647 0.000000
18.741402 31.155647 0.000000
-7.065720 30.840927 0.000000
-6.750999 30.840927 0.007208
-6.436278 30.840927 0.005399
-6.121557 30.840927 0.004973
-5.806836 30.840927 0.005064
-5.492115 30.840927 0.004942
-5.177394 30.840927 0.004932
-4.862673 30.840927 0.004955
-4.547952 30.840927 0.004919
-4.233231 30.840927 0.004953
-3.918510 30.840927 0.004910
-3.603789 30.840927 0.004831
-3.289068 30.840927 0.004865
-2.974347 30.840927 0.004873
-2.659626 30.840927 0.004902
-2.344905 30.840927 0.004951
-2.030184 30.840927 0.005051
-1.715463 30.840927 0.005137
-1.400742 30.840927 0.005241
-1.086021 30.840927 0.005257
-0.771300 30.840927 0.005270
-0.456579 30.840927 0.005348
-0.141859 30.840927 0.005552
0.172863 30.840927 0.005820
0.487584 30.840927 0.006073
0.802305 30.840927 0.006277
1.117026 30.840927 0.006612
1.431747 30.840927 0.006930
1.746467 30.840927 0.007383
2.061188 30.840927 0.008011
2.375909 30.840927 0.008569
2.690630 30.840927 0.009179
3.005352 30.840927 0.009915
3.320073 30.840927 0.010925
3.634794 30.840927 0.012168
3.949515 30.840927 0.013474
4.264236 30.840927 0.015338
4.578956 30.840927 0.017738
4.893677 30.840927 0.020734
5.208398 30.840927 0.024440
5.523119 30.840927 0.029344
5.837841 30.840927 0.035859
6.152562 30.840927 0.044853
6.467283 30.840927 0.056291
6.782003 30.840927 0.070966
7.096724 30.840927 0.089511
7.411445 30.840927 0.115884
7.726166 30.840927 0.148336
8.040888 30.840927 0.193421
8.355608 30.840927 0.249495
8.670330 30.840927 0.318275
8.985050 30.840927 0.393418
9.299772 30.840927 0.477469
9.614492 30.840927 0.577044
9.929214 30.840927 0.672113
10.243935 30.840927 0.783202
10.558655 30.840927 0.894914
10.873377 30.840927 1.010823
11.188097 30.840927 1.111509
11.502819 30.840927 1.205549
11.817539 30.840927 1.281072
12.132261 30.840927 1.350571
12.446981 30.840927 1.416587
12.761703 30.840927 1.473864
13.076424 30.840927 1.505161
13.391144 30.840927 1.519633
13.705866 30.840927 1.535188
14.020586 30.840927 1.527002
14.335308 30.840927 1.490072
14.650028 30.840927 1.451591
14.964750 30.840927 1.399212
15.279470 30.840927 1.315668
15.594193 30.840927 1.200719
15.908913 30.840927 1.063725
16.223633 30.840927 0.000000
16.538355 30.840927 0.000000
16.853075 30.840927 0.000000
17.167797 30.840927 0.000000
17.482517 30.840927 0.000000
17.797239 30.840927 0.000000
18.111959 30.840927 0.000000
18.426680 30.840927 0.000000
18.741402 30.840927 0.000000
-7.065720 30.526205 0.000000
-6.750999 30.526205 0.007258
-6.436278 30.526205 0.005427
-6.121557 30.526205 0.004968
-5.806836 30.526205 0.005052
-5.492115 30.526205 0.004947
-5.177394 30.526205 0.004928
-4.862673 30.526205 0.004929
-4.547952 30.526205 0.004934
-4.233231 30.526205 0.004944
-3.918510 30.526205 0.004905
-3.603789 30.526205 0.004883
-3.289068 30.526205 0.004912
-2.974347 30.526205 0.004899
-2.659626 30.526205 0.004900
-2.344905 30.526205 0.004965
-2.030184 30.526205 0.005049
-1.715463 30.526205 0.005147
-1.400742 30.526205 0.005227
-1.086021 30.526205 0.005249
-0.771300 30.526205 0.005260
-0.456579 30.526205 0.005336
-0.141859 30.526205 0.005526
0.172863 30.526205 0.005823
0.487584 30.526205 0.006062
0.802305 30.526205 0.006306
1.117026 30.526205 0.006619
1.431747 30.526205 0.006942
1.746467 30.526205 0.007342
2.061188 30.526205 0.007974
2.375909 30.526205 0.008575
2.690630 30.526205 0.009187
3.005352 30.526205 0.009929
3.320073 30.526205 0.010921
3.634794 30.526205 0.012158
3.949515 30.526205 0.013539
4.264236 30.526205 0.015325
4.578956 30.526205 0.017737
4.893677 30.526205 0.020651
5.208398 30.526205 0.024341
5.523119 30.526205 0.029030
5.837841 30.526205 0.035518
6.152562 30.526205 0.044651
6.467283 30.526205 0.055967
6.782003 30.526205 0.070600
7.096724 30.526205 0.088710
7.411445 30.526205 0.116152
7.726166 30.526205 0.149500
8.040888 30.526205 0.193133
8.355608 30.526205 0.248432
8.670330 30.526205 0.315428
8.985050 30.526205 0.392298
9.299772 30.526205 0.479963
9.614492 30.526205 0.576765
9.929214 30.526205 0.682069
10.243935 30.526205 0.784698
10.558655 30.526205 0.893330
10.873377 30.526205 1.009956
11.188097 30.526205 1.124509
11.502819 30.526205 1.212357
11.817539 30.526205 1.288509
12.132261 30.526205 1.355931
12.446981 30.526205 1.417619
12.761703 30.526205 1.469683
13.076424 30.526205 1.504675
13.391144 30.526205 1.533083
13.705866 30.526205 1.546757
14.020586 30.526205 1.533316
14.335308 30.526205 1.503680
14.650028 30.526205 1.461154
14.964750 30.526205 1.402620
15.279470 30.526205 1.318402
15.594193 30.526205 1.202308
15.908913 30.526205 1.064846
16.223633 30.526205 0.000000
16.538355 30.526205 0.000000
16.853075 30.526205 0.000000
17.167797 30.526205 0.000000
17.482517 30.526205 0.000000
17.797239 30.526205 0.000000
18.111959 30.526205 0.000000
18.426680 30.526205 0.000000
18.741402 30.526205 0.000000
-7.065720 30.211485 0.000000
-6.750999 30.211485 0.007334
-6.436278 30.211485 0.005447
-6.121557 30.211485 0.004976
-5.806836 30.211485 0.005047
-5.492115 30.211485 0.004947
-5.177394 30.211485 0.004938
-4.862673 30.211485 0.004917
-4.547952 30.211485 0.004917
-4.233231 30.211485 0.004940
-3.918510 30.211485 0.004897
-3.603789 30.211485 0.004933
-3.289068 30.211485 0.004926
-2.974347 30.211485 0.004925
-2.659626 30.211485 0.004910
-2.344905 30.211485 0.004976
-2.030184 30.211485 0.005051
-1.715463 30.211485 0.005118
-1.400742 30.211485 0.005168
-1.086021 30.211485 0.005232
-0.771300 30.211485 0.005280
-0.456579 30.211485 0.005374
-0.141859 30.211485 0.005546
0.172863 30.211485 0.005809
0.487584 30.211485 0.006073
0.802305 30.211485 0.006345
1.117026 30.211485 0.006659
1.431747 30.211485 0.006944
1.746467 30.211485 0.007350
2.061188 30.211485 0.007921
2.375909 30.211485 0.008511
2.690630 30.211485 0.009150
3.005352 30.211485 0.009941
3.320073 30.211485 0.010919
3.634794 30.211485 0.012142
3.949515 30.211485 0.013580
4.264236 30.211485 0.015420
4.578956 30.211485 0.017715
4.893677 30.211485 0.020523
5.208398 30.211485 0.024196
5.523119 30.211485 0.028865
5.837841 30.211485 0.035447
6.152562 30.211485 0.044398
6.467283 30.211485 0.056229
6.782003 30.211485 0.070795
7.096724 30.211485 0.090106
7.411445 30.211485 0.116839
7.726166 30.211485 0.151151
8.040888 30.211485 0.194447
8.355608 30.211485 0.249970
8.670330 30.211485 0.321255
8.985050 30.211485 0.399818
9.299772 30.211485 0.481223
9.614492 30.211485 0.577280
9.929214 30.211485 0.682257
10.243935 30.211485 0.781375
10.558655 30.211485 0.898918
10.873377 30.211485 1.007989
11.188097 30.211485 1.122958
11.502819 30.211485 1.203205
11.817539 30.211485 1.282652
12.132261 30.211485 1.357217
12.446981 30.211485 1.423511
12.761703 30.211485 1.470703
13.076424 30.211485 1.510487
13.391144 30.211485 1.547858
13.705866 30.211485 1.561992
14.020586 30.211485 1.550247
14.335308 30.211485 1.514575
14.650028 30.211485 1.465476
14.964750 30.211485 1.402029
15.279470 30.211485 1.316129
15.594193 30.211485 1.202357
15.908913 30.211485 1.067769
16.223633 30.211485 0.000000
16.538355 30.211485 0.000000
16.853075 30.211485 0.000000
17.167797 30.211485 0.000000
17.482517 30.211485 0.000000
17.797239 30.211485 0.000000
18.111959 30.211485 0.000000
18.426680 30.211485 0.000000
18.741402 30.211485 0.000000
-7.065720 29.896763 0.000000
-6.750999 29.896763 0.007383
-6.436278 29.896763 0.005444
-6.121557 29.896763 0.004973
-5.806836 29.896763 0.005004
-5.492115 29.896763 0.004934
-5.177394 29.896763 0.004932
-4.862673 29.896763 0.004906
-4.547952 29.896763 0.004937
-4.233231 29.896763 0.004925
-3.918510 29.896763 0.004899
-3.603789 29.896763 0.004969
-3.289068 29.896763 0.004947
-2.974347 29.896763 0.004909
-2.659626 29.896763 0.004917
-2.344905 29.896763 0.004960
-2.030184 29.896763 0.005060
-1.715463 29.896763 0.005075
-1.400742 29.896763 0.005103
-1.086021 29.896763 0.005188
-0.771300 29.896763 0.005303
-0.456579 29.896763 0.005458
-0.141859 29.896763 0.005606
0.172863 29.896763 0.005835
0.487584 29.896763 0.006102
0.802305 29.896763 0.006402
1.117026 29.896763 0.006693
1.431747 29.896763 0.006950
1.746467 29.896763 0.007329
2.061188 29.896763 0.007873
2.375909 29.896763 0.008486
2.690630 29.896763 0.009077
3.005352 29.896763 0.009910
3.320073 29.896763 0.010916
3.634794 29.896763 0.012127
3.949515 29.896763 0.013699
4.264236 29.896763 0.015559
4.578956 29.896763 0.017764
4.893677 29.896763 0.020501
5.208398 29.896763 0.024094
5.523119 29.896763 0.028646
5.837841 29.896763 0.035312
6.152562 29.896763 0.044404
6.467283 29.896763 0.056038
6.782003 29.896763 0.070435
7.096724 29.896763 0.090379
7.411445 29.896763 0.116181
7.726166 29.896763 0.152765
8.040888 29.896763 0.197311
8.355608 29.896763 0.251794
8.670330 29.896763 0.321022
8.985050 29.896763 0.402928
9.299772 29.896763 0.488690
9.614492 29.896763 0.581016
9.929214 29.896763 0.681617
10.243935 29.896763 0.786868
10.558655 29.896763 0.898485
10.873377 29.896763 1.007018
11.188097 29.896763 1.112604
11.502819 29.896763 1.202088
11.817539 29.896763 1.290787
12.132261 29.896763 1.358590
12.446981 29.896763 1.422203
12.761703 29.896763 1.470176
13.076424 29.896763 1.519330
13.391144 29.896763 1.552566
13.705866 29.896763 1.561294
14.020586 29.896763 1.550557
14.335308 29.896763 1.523261
14.650028 29.896763 1.468803
14.964750 29.896763 1.408433
15.279470 29.896763 1.322986
15.594193 29.896763 1.206049
15.908913 29.896763 1.051901
16.223633 29.896763 0.000000
16.538355 29.896763 0.000000
16.853075 29.896763 0.000000
17.167797 29.896763 0.000000
17.482517 29.896763 0.000000
17.797239 29.896763 0.000000
18.111959 29.896763 0.000000
18.426680 29.896763 0.000000
18.741402 29.896763 0.000000
-7.065720 29.582043 0.000000
-6.750999 29.582043 0.007389
-6.436278 29.582043 0.005391
-6.121557 29.582043 0.004943
-5.806836 29.582043 0.004925
-5.492115 29.582043 0.004888
-5.177394 29.582043 0.004924
-4.862673 29.582043 0.004940
-4.547952 29.582043 0.004982
-4.233231 29.582043 0.004935
-3.918510 29.582043 0.004932
-3.603789 29.582043 0.005012
-3.289068 29.582043 0.004969
-2.974347 29.582043 0.004963
-2.659626 29.582043 0.004928
-2.344905 29.582043 0.004983
-2.030184 29.582043 0.005064
-1.715463 29.582043 0.005075
-1.400742 29.582043 0.005065
-1.086021 29.582043 0.005153
-0.771300 29.582043 0.005356
-0.456579 29.582043 0.005548
-0.141859 29.582043 0.005689
0.172863 29.582043 0.005860
0.487584 29.582043 0.006144
0.802305 29.582043 0.006438
1.117026 29.582043 0.006693
1.431747 29.582043 0.006985
1.746467 29.582043 0.007333
2.061188 29.582043 0.007841
2.375909 29.582043 0.008432
2.690630 29.582043 0.009005
3.005352 29.582043 0.009877
3.320073 29.582043 0.010880
3.634794 29.582043 0.012136
3.949515 29.582043 0.013749
4.264236 29.582043 0.015671
4.578956 29.582043 0.017787
4.893677 29.582043 0.020423
5.208398 29.582043 0.024009
5.523119 29.582043 0.028770
5.837841 29.582043 0.035285
6.152562 29.582043 0.044318
6.467283 29.582043 0.055572
6.782003 29.582043 0.070309
7.096724 29.582043 0.089394
7.411445 29.582043 0.115622
7.726166 29.582043 0.150169
8.040888 29.582043 0.194162
8.355608 29.582043 0.252257
8.670330 29.582043 0.318613
8.985050 29.582043 0.404301
9.299772 29.582043 0.483381
9.614492 29.582043 0.577948
9.929214 29.582043 0.681360
10.243935 29.582043 0.791771
10.558655 29.582043 0.908685
10.873377 29.582043 1.014139
11.188097 29.582043 1.111159
11.502819 29.582043 1.209483
11.817539 29.582043 1.298237
12.132261 29.582043 1.366595
12.446981 29.582043 1.428174
12.761703 29.582043 1.465285
13.076424 29.582043 1.508775
13.391144 29.582043 1.545309
13.705866 29.582043 1.559183
14.020586 29.582043 1.552391
14.335308 29.582043 1.527224
14.650028 29.582043 1.478975
14.964750 29.582043 1.415210
15.279470 29.582043 1.323704
15.594193 29.582043 1.203953
15.908913 29.582043 1.031999
16.223633 29.582043 0.000000
16.538355 29.582043 0.000000
16.853075 29.582043 0.000000
17.167797 29.582043 0.000000
17.482517 29.582043 0.000000
17.797239 29.582043 0.000000
18.111959 29.582043 0.000000
18.426680 29.582043 0.000000
18.741402 29.582043 0.000000
-7.065720 29.267321 0.000000
-6.750999 29.267321 0.007377
-6.436278 29.267321 0.005340
-6.121557 29.267321 0.004911
-5.806836 29.267321 0.004905
-5.492115 29.267321 0.004891
-5.177394 29.267321 0.004942
-4.862673 29.267321 0.005002
-4.547952 29.267321 0.005032
-4.233231 29.267321 0.004976
-3.918510 29.267321 0.004986
-3.603789 29.267321 0.005049
-3.289068 29.267321 0.005028
-2.974347 29.267321 0.005020
-2.659626 29.267321 0.004949
-2.344905 29.267321 0.005004
-2.030184 29.267321 0.005086
-1.715463 29.267321 0.005109
-1.400742 29.267321 0.005077
-1.086021 29.267321 0.005147
-0.771300 29.267321 0.005374
-0.456579 29.267321 0.005620
-0.141859 29.267321 0.005746
0.172863 29.267321 0.005873
0.487584 29.267321 0.006148
0.802305 29.267321 0.006400
1.117026 29.267321 0.006682
1.431747 29.267321 0.006993
1.746467 29.267321 0.007362
2.061188 29.267321 0.007866
2.375909 29.267321 0.008402
2.690630 29.267321 0.009024
3.005352 29.267321 0.009870
3.320073 29.267321 0.010871
3.634794 29.267321 0.012125
3.949515 29.267321 0.013733
4.264236 29.267321 0.015659
4.578956 29.267321 0.017862
4.893677 29.267321 0.020607
5.208398 29.267321 0.024161
5.523119 29.267321 0.029041
5.837841 29.267321 0.035406
6.152562 29.267321 0.044468
6.467283 29.267321 0.055739
6.782003 29.267321 0.069377
7.096724 29.267321 0.090276
7.411445 29.267321 0.116144
7.726166 29.267321 0.150166
8.040888 29.267321 0.194882
8.355608 29.267321 0.249989
8.670330 29.267321 0.318618
8.985050 29.267321 0.398362
9.299772 29.267321 0.478911
9.614492 29.267321 0.572006
9.929214 29.267321 0.675993
10.243935 29.267321 0.792597
10.558655 29.267321 0.912543
10.873377 29.267321 1.026575
11.188097 29.267321 1.123532
11.502819 29.267321 1.210535
11.817539 29.267321 1.291464
12.132261 29.267321 1.367430
12.446981 29.267321 1.433755
12.761703 29.267321 1.464813
13.076424 29.267321 1.498621
13.391144 29.267321 1.537618
13.705866 29.267321 1.553056
14.020586 29.267321 1.554427
14.335308 29.267321 1.529343
14.650028 29.267321 1.482788
14.964750 29.267321 1.422302
15.279470 29.267321 1.330805
15.594193 29.267321 1.194667
15.908913 29.267321 1.017721
16.223633 29.267321 0.000000
16.538355 29.267321 0.000000
16.853075 29.267321 0.000000
17.167797 29.267321 0.000000
17.482517 29.267321 0.000000
17.797239 29.267321 0.000000
18.111959 29.267321 0.000000
18.426680 29.267321 0.000000
18.741402 29.267321 0.000000
-7.065720 28.952600 0.000000
-6.750999 28.952600 0.007339
-6.436278 28.952600 0.005271
-6.121557 28.952600 0.004932
-5.806836 28.952600 0.004965
-5.492115 28.952600 0.004960
-5.177394 28.952600 0.004961
-4.862673 28.952600 0.005043
-4.547952 28.952600 0.005062
-4.233231 28.952600 0.005016
-3.918510 28.952600 0.005023
-3.603789 28.952600 0.005059
-3.289068 28.952600 0.005068
-2.974347 28.952600 0.005066
-2.659626 28.952600 0.005008
-2.344905 28.952600 0.005036
-2.030184 28.952600 0.005112
-1.715463 28.952600 0.005141
-1.400742 28.952600 0.005115
-1.086021 28.952600 0.005188
-0.771300 28.952600 0.005397
-0.456579 28.952600 0.005656
-0.141859 28.952600 0.005780
0.172863 28.952600 0.005869
0.487584 28.952600 0.006118
0.802305 28.952600 0.006352
1.117026 28.952600 0.006655
1.431747 28.952600 0.007035
1.746467 28.952600 0.007426
2.061188 28.952600 0.007882
2.375909 28.952600 0.008379
2.690630 28.952600 0.009058
3.005352 28.952600 0.009879
3.320073 28.952600 0.010867
3.634794 28.952600 0.012159
3.949515 28.952600 0.013761
4.264236 28.952600 0.015596
4.578956 28.952600 0.017813
4.893677 28.952600 0.020712
5.208398 28.952600 0.024462
5.523119 28.952600 0.029372
5.837841 28.952600 0.035505
6.152562 28.952600 0.044491
6.467283 28.952600 0.056203
6.782003 28.952600 0.070548
7.096724 28.952600 0.090271
7.411445 28.952600 0.116902
7.726166 28.952600 0.149703
8.040888 28.952600 0.194958
8.355608 28.952600 0.249575
8.670330 28.952600 0.320458
8.985050 28.952600 0.396744
9.299772 28.952600 0.483340
9.614492 28.952600 0.575322
9.929214 28.952600 0.680144
10.243935 28.952600 0.803530
10.558655 28.952600 0.918993
10.873377 28.952600 1.033520
11.188097 28.952600 1.125658
11.502819 28.952600 1.207626
11.817539 28.952600 1.292120
12.132261 28.952600 1.377631
12.446981 28.952600 1.435128
12.761703 28.952600 1.465632
13.076424 28.952600 1.500301
13.391144 28.952600 1.530741
13.705866 28.952600 1.555246
14.020586 28.952600 1.551211
14.335308 28.952600 1.519533
14.650028 28.952600 1.494447
14.964750 28.952600 1.425411
15.279470 28.952600 1.331734
15.594193 28.952600 1.199884
15.908913 28.952600 1.028990
16.223633 28.952600 0.000000
16.538355 28.952600 0.000000
16.853075 28.952600 0.000000
17.167797 28.952600 0.000000
17.482517 28.952600 0.000000
17.797239 28.952600 0.000000
18.111959 28.952600 0.000000
18.426680 28.952600 0.000000
18.741402 28.952600 0.000000
-7.065720 28.637878 0.000000
-6.750999 28.637878 0.007328
-6.436278 28.637878 0.005213
-6.121557 28.637878 0.004972
-5.806836 28.637878 0.005072
-5.492115 28.637878 0.005064
-5.177394 28.637878 0.005011
-4.862673 28.637878 0.005034
-4.547952 28.637878 0.005067
-4.233231 28.637878 0.005033
-3.918510 28.637878 0.005035
-3.603789 28.637878 0.005052
-3.289068 28.637878 0.005055
-2.974347 28.637878 0.005067
-2.659626 28.637878 0.005039
-2.344905 28.637878 0.005055
-2.030184 28.637878 0.005135
-1.715463 28.637878 0.005170
-1.400742 28.637878 0.005159
-1.086021 28.637878 0.005268
-0.771300 28.637878 0.005424
-0.456579 28.637878 0.005673
-0.141859 28.637878 0.005782
0.172863 28.637878 0.005855
0.487584 28.637878 0.006101
0.802305 28.637878 0.006337
1.117026 28.637878 0.006695
1.431747 28.637878 0.007116
1.746467 28.637878 0.007490
2.061188 28.637878 0.007910
2.375909 28.637878 0.008423
2.690630 28.637878 0.009105
3.005352 28.637878 0.009932
3.320073 28.637878 0.010912
3.634794 28.637878 0.012160
3.949515 28.637878 0.013746
4.264236 28.637878 0.015594
4.578956 28.637878 0.017837
4.893677 28.637878 0.020774
5.208398 28.637878 0.024630
5.523119 28.637878 0.029388
5.837841 28.637878 0.035730
6.152562 28.637878 0.044578
6.467283 28.637878 0.056252
6.782003 28.637878 0.072119
7.096724 28.637878 0.091372
7.411445 28.637878 0.119797
7.726166 28.637878 0.151363
8.040888 28.637878 0.196650
8.355608 28.637878 0.251317
8.670330 28.637878 0.320148
8.985050 28.637878 0.401778
9.299772 28.637878 0.488363
9.614492 28.637878 0.579384
9.929214 28.637878 0.686184
10.243935 28.637878 0.803779
10.558655 28.637878 0.919936
10.873377 28.637878 1.030267
11.188097 28.637878 1.121365
11.502819 28.637878 1.203516
11.817539 28.637878 1.295352
12.132261 28.637878 1.381799
12.446981 28.637878 1.444593
12.761703 28.637878 1.470479
13.076424 28.637878 1.499479
13.391144 28.637878 1.531637
13.705866 28.637878 1.556373
14.020586 28.637878 1.549762
14.335308 28.637878 1.528574
14.650028 28.637878 1.499261
14.964750 28.637878 1.434289
15.279470 28.637878 1.338182
15.594193 28.637878 1.209414
15.908913 28.637878 1.035626
16.223633 28.637878 0.000000
16.538355 28.637878 0.000000
16.853075 28.637878 0.000000
17.167797 28.637878 0.000000
17.482517 28.637878 0.000000
17.797239 28.637878 0.000000
18.111959 28.637878 0.000000
18.426680 28.637878 0.000000
18.741402 28.637878 0.000000
-7.065720 28.323158 0.000000
-6.750999 28.323158 0.007411
-6.436278 28.323158 0.005191
-6.121557 28.323158 0.005052
-5.806836 28.323158 0.005156
-5.492115 28.323158 0.005140
-5.177394 28.323158 0.005057
-4.862673 28.323158 0.005037
-4.547952 28.323158 0.005064
-4.233231 28.323158 0.005046
-3.918510 28.323158 0.005007
-3.603789 28.323158 0.005017
-3.289068 28.323158 0.005001
-2.974347 28.323158 0.005024
-2.659626 28.323158 0.005054
-2.344905 28.323158 0.005069
-2.030184 28.323158 0.005113
-1.715463 28.323158 0.005158
-1.400742 28.323158 0.005209
-1.086021 28.323158 0.005341
-0.771300 28.323158 0.005478
-0.456579 28.323158 0.005673
-0.141859 28.323158 0.005789
0.172863 28.323158 0.005881
0.487584 28.323158 0.006102
0.802305 28.323158 0.006369
1.117026 28.323158 0.006763
1.431747 28.323158 0.007184
1.746467 28.323158 0.007555
2.061188 28.323158 0.007924
2.375909 28.323158 0.008460
2.690630 28.323158 0.009203
3.005352 28.323158 0.010014
3.320073 28.323158 0.010956
3.634794 28.323158 0.012183
3.949515 28.323158 0.013715
4.264236 28.323158 0.015570
4.578956 28.323158 0.017890
4.893677 28.323158 0.020848
5.208398 28.323158 0.024645
5.523119 28.323158 0.029531
5.837841 28.323158 0.036013
6.152562 28.323158 0.044655
6.467283 28.323158 0.056380
6.782003 28.323158 0.071857
7.096724 28.323158 0.091683
7.411445 28.323158 0.119596
7.726166 28.323158 0.152877
8.040888 28.323158 0.198841
8.355608 28.323158 0.254037
8.670330 28.323158 0.324176
8.985050 28.323158 0.404719
9.299772 28.323158 0.492850
9.614492 28.323158 0.583571
9.929214 28.323158 0.692364
10.243935 28.323158 0.804411
10.558655 28.323158 0.921010
10.873377 28.323158 1.034383
11.188097 28.323158 1.121946
11.502819 28.323158 1.210013
11.817539 28.323158 1.305575
12.132261 28.323158 1.392100
12.446981 28.323158 1.459016
12.761703 28.323158 1.490065
13.076424 28.323158 1.511161
13.391144 28.323158 1.548302
13.705866 28.323158 1.568331
14.020586 28.323158 1.555376
14.335308 28.323158 1.540353
14.650028 28.323158 1.500550
14.964750 28.323158 1.435953
15.279470 28.323158 1.338019
15.594193 28.323158 1.214884
15.908913 28.323158 1.031694
16.223633 28.323158 0.000000
16.538355 28.323158 0.000000
16.853075 28.323158 0.000000
17.167797 28.323158 0.000000
17.482517 28.323158 0.000000
17.797239 28.323158 0.000000
18.111959 28.323158 0.000000
18.426680 28.323158 0.000000
18.741402 28.323158 0.000000
-7.065720 28.008438 0.000000
-6.750999 28.008438 0.007449
-6.436278 28.008438 0.005228
-6.121557 28.008438 0.005103
-5.806836 28.008438 0.005169
-5.492115 28.008438 0.005164
-5.177394 28.008438 0.005087
-4.862673 28.008438 0.005066
-4.547952 28.008438 0.005096
-4.233231 28.008438 0.005062
-3.918510 28.008438 0.005011
-3.603789 28.008438 0.004967
-3.289068 28.008438 0.004940
-2.974347 28.008438 0.005006
-2.659626 28.008438 0.005081
-2.344905 28.008438 0.005112
-2.030184 28.008438 0.005101
-1.715463 28.008438 0.005174
-1.400742 28.008438 0.005267
-1.086021 28.008438 0.005393
-0.771300 28.008438 0.005499
-0.456579 28.008438 0.005655
-0.141859 28.008438 0.005776
0.172863 28.008438 0.005895
0.487584 28.008438 0.006101
0.802305 28.008438 0.006398
1.117026 28.008438 0.006836
1.431747 28.008438 0.007224
1.746467 28.008438 0.007581
2.061188 28.008438 0.007961
2.375909 28.008438 0.008478
2.690630 28.008438 0.009249
3.005352 28.008438 0.010064
3.320073 28.008438 0.011043
3.634794 28.008438 0.012220
3.949515 28.008438 0.013708
4.264236 28.008438 0.015546
4.578956 28.008438 0.017933
4.893677 28.008438 0.020897
5.208398 28.008438 0.024803
5.523119 28.008438 0.029602
5.837841 28.008438 0.035990
6.152562 28.008438 0.044481
6.467283 28.008438 0.055957
6.782003 28.008438 0.071662
7.096724 28.008438 0.091603
7.411445 28.008438 0.117297
7.726166 28.008438 0.153965
8.040888 28.008438 0.199360
8.355608 28.008438 0.256980
8.670330 28.008438 0.326905
8.985050 28.008438 0.407784
9.299772 28.008438 0.495177
9.614492 28.008438 0.592680
9.929214 28.008438 0.688250
10.243935 28.008438 0.800845
10.558655 28.008438 0.910274
10.873377 28.008438 1.029031
11.188097 28.008438 1.130735
11.502819 28.008438 1.215310
11.817539 28.008438 1.307254
12.132261 28.008438 1.400700
12.446981 28.008438 1.463202
12.761703 28.008438 1.496969
13.076424 28.008438 1.523123
13.391144 28.008438 1.559821
13.705866 28.008438 1.574752
14.020586 28.008438 1.564380
14.335308 28.008438 1.547325
14.650028 28.008438 1.501728
14.964750 28.008438 1.435781
15.279470 28.008438 1.340429
15.594193 28.008438 1.222086
15.908913 28.008438 1.048550
16.223633 28.008438 0.000000
16.538355 28.008438 0.000000
16.853075 28.008438 0.000000
17.167797 28.008438 0.000000
17.482517 28.008438 0.000000
17.797239 28.008438 0.000000
18.111959 28.008438 0.000000
18.426680 28.008438 0.000000
18.741402 28.008438 0.000000
-7.065720 27.693716 0.000000
-6.750999 27.693716 0.007454
-6.436278 27.693716 0.005284
-6.121557 27.693716 0.005096
-5.806836 27.693716 0.005154
-5.492115 27.693716 0.005162
-5.177394 27.693716 0.005135
-4.862673 27.693716 0.005102
-4.547952 27.693716 0.005147
-4.233231 27.693716 0.005119
-3.918510 27.693716 0.005072
-3.603789 27.693716 0.004988
-3.289068 27.693716 0.004929
-2.974347 27.693716 0.005009
-2.659626 27.693716 0.005088
-2.344905 27.693716 0.005151
-2.030184 27.693716 0.005116
-1.715463 27.693716 0.005200
-1.400742 27.693716 0.005306
-1.086021 27.693716 0.005405
-0.771300 27.693716 0.005515
-0.456579 27.693716 0.005646
-0.141859 27.693716 0.005765
0.172863 27.693716 0.005901
0.487584 27.693716 0.006109
0.802305 27.693716 0.006428
1.117026 27.693716 0.006882
1.431747 27.693716 0.007227
1.746467 27.693716 0.007588
2.061188 27.693716 0.007995
2.375909 27.693716 0.008505
2.690630 27.693716 0.009264
3.005352 27.693716 0.010056
3.320073 27.693716 0.011042
3.634794 27.693716 0.012240
3.949515 27.693716 0.013670
4.264236 27.693716 0.015549
4.578956 27.693716 0.017863
4.893677 27.693716 0.020835
5.208398 27.693716 0.024702
5.523119 27.693716 0.029733
5.837841 27.693716 0.036290
6.152562 27.693716 0.044609
6.467283 27.693716 0.055794
6.782003 27.693716 0.071480
7.096724 27.693716 0.091773
7.411445 27.693716 0.118351
7.726166 27.693716 0.151176
8.040888 27.693716 0.198997
8.355608 27.693716 0.257344
8.670330 27.693716 0.328129
8.985050 27.693716 0.411025
9.299772 27.693716 0.493272
9.614492 27.693716 0.580681
9.929214 27.693716 0.684399
10.243935 27.693716 0.788908
10.558655 27.693716 0.915838
10.873377 27.693716 1.030864
11.188097 27.693716 1.125548
11.502819 27.693716 1.212274
11.817539 27.693716 1.300574
12.132261 27.693716 1.384165
12.446981 27.693716 1.451019
12.761703 27.693716 1.485150
13.076424 27.693716 1.518034
13.391144 27.693716 1.546636
13.705866 27.693716 1.569196
14.020586 27.693716 1.561353
14.335308 27.693716 1.543001
14.650028 27.693716 1.506926
14.964750 27.693716 1.441274
15.279470 27.693716 1.359033
15.594193 27.693716 1.225350
15.908913 27.693716 1.066943
16.223633 27.693716 0.000000
16.538355 27.693716 0.000000
16.853075 27.693716 0.000000
17.167797 27.693716 0.000000
17.482517 27.693716 0.000000
17.797239 27.693716 0.000000
18.111959 27.693716 0.000000
18.426680 27.693716 0.000000
18.741402 27.693716 0.000000
-7.065720 27.378996 0.000000
-6.750999 27.378996 0.007446
-6.436278 27.378996 0.005297
-6.121557 27.378996 0.005061
-5.806836 27.378996 0.005128
-5.492115 27.378996 0.005158
-5.177394 27.378996 0.005183
-4.862673 27.378996 0.005171
-4.547952 27.378996 0.005229
-4.233231 27.378996 0.005191
-3.918510 27.378996 0.005097
-3.603789 27.378996 0.005005
-3.289068 27.378996 0.004960
-2.974347 27.378996 0.005045
-2.659626 27.378996 0.005105
-2.344905 27.378996 0.005148
-2.030184 27.378996 0.005166
-1.715463 27.378996 0.005264
-1.400742 27.378996 0.005335
-1.086021 27.378996 0.005401
-0.771300 27.378996 0.005486
-0.456579 27.378996 0.005598
-0.141859 27.378996 0.005762
0.172863 27.378996 0.005928
0.487584 27.378996 0.006134
0.802305 27.378996 0.006416
1.117026 27.378996 0.006861
1.431747 27.378996 0.007181
1.746467 27.378996 0.007559
2.061188 27.378996 0.008029
2.375909 27.378996 0.008552
2.690630 27.378996 0.009224
3.005352 27.378996 0.010040
3.320073 27.378996 0.011000
3.634794 27.378996 0.012192
3.949515 27.378996 0.013658
4.264236 27.378996 0.015493
4.578956 27.378996 0.017860
4.893677 27.378996 0.020832
5.208398 27.378996 0.024721
5.523119 27.378996 0.029764
5.837841 27.378996 0.036028
6.152562 27.378996 0.044688
6.467283 27.378996 0.055940
6.782003 27.378996 0.071223
7.096724 27.378996 0.092271
7.411445 27.378996 0.118755
7.726166 27.378996 0.151564
8.040888 27.378996 0.196905
8.355608 27.378996 0.251246
8.670330 27.378996 0.321180
8.985050 27.378996 0.405861
9.299772 27.378996 0.489723
9.614492 27.378996 0.580167
9.929214 27.378996 0.681614
10.243935 27.378996 0.793733
10.558655 27.378996 0.919537
10.873377 27.378996 1.031202
11.188097 27.378996 1.138637
11.502819 27.378996 1.220558
11.817539 27.378996 1.293031
12.132261 27.378996 1.361680
12.446981 27.378996 1.439788
12.761703 27.378996 1.477738
13.076424 27.378996 1.508702
13.391144 27.378996 1.542321
13.705866 27.378996 1.567259
14.020586 27.378996 1.568070
14.335308 27.378996 1.545978
14.650028 27.378996 1.500421
14.964750 27.378996 1.443655
15.279470 27.378996 1.361211
15.594193 27.378996 1.249717
15.908913 27.378996 1.077062
16.223633 27.378996 0.000000
16.538355 27.378996 0.000000
16.853075 27.378996 0.000000
17.167797 27.378996 0.000000
17.482517 27.378996 0.000000
17.797239 27.378996 0.000000
18.111959 27.378996 0.000000
18.426680 27.378996 0.000000
18.741402 27.378996 0.000000
-7.065720 27.064274 0.000000
-6.750999 27.064274 0.007374
-6.436278 27.064274 0.005267
-6.121557 27.064274 0.005026
-5.806836 27.064274 0.005108
-5.492115 27.064274 0.005137
-5.177394 27.064274 0.005199
-4.862673 27.064274 0.005202
-4.547952 27.064274 0.005252
-4.233231 27.064274 0.005207
-3.918510 27.064274 0.005090
-3.603789 27.064274 0.005007
-3.289068 27.064274 0.004990
-2.974347 27.064274 0.005050
-2.659626 27.064274 0.005084
-2.344905 27.064274 0.005124
-2.030184 27.064274 0.005209
-1.715463 27.064274 0.005314
-1.400742 27.064274 0.005369
-1.086021 27.064274 0.005408
-0.771300 27.064274 0.005446
-0.456579 27.064274 0.005542
-0.141859 27.064274 0.005749
0.172863 27.064274 0.005964
0.487584 27.064274 0.006167
0.802305 27.064274 0.006403
1.117026 27.064274 0.006793
1.431747 27.064274 0.007123
1.746467 27.064274 0.007506
2.061188 27.064274 0.007994
2.375909 27.064274 0.008495
2.690630 27.064274 0.009185
3.005352 27.064274 0.009986
3.320073 27.064274 0.010949
3.634794 27.064274 0.012151
3.949515 27.064274 0.013605
4.264236 27.064274 0.015472
4.578956 27.064274 0.017780
4.893677 27.064274 0.020895
5.208398 27.064274 0.024683
5.523119 27.064274 0.029583
5.837841 27.064274 0.035965
6.152562 27.064274 0.044643
6.467283 27.064274 0.056309
6.782003 27.064274 0.070868
7.096724 27.064274 0.090844
7.411445 27.064274 0.118109
7.726166 27.064274 0.152719
8.040888 27.064274 0.196549
8.355608 27.064274 0.251355
8.670330 27.064274 0.322696
8.985050 27.064274 0.405815
9.299772 27.064274 0.492895
9.614492 27.064274 0.580573
9.929214 27.064274 0.685720
10.243935 27.064274 0.809915
10.558655 27.064274 0.927577
10.873377 27.064274 1.029318
11.188097 27.064274 1.139065
11.502819 27.064274 1.216922
11.817539 27.064274 1.284790
12.132261 27.064274 1.371334
12.446981 27.064274 1.437580
12.761703 27.064274 1.487237
13.076424 27.064274 1.511429
13.391144 27.064274 1.542844
13.705866 27.064274 1.574022
14.020586 27.064274 1.569362
14.335308 27.064274 1.544377
14.650028 27.064274 1.493416
14.964750 27.064274 1.438477
15.279470 27.064274 1.366602
15.594193 27.064274 1.262312
15.908913 27.064274 1.090139
16.223633 27.064274 0.000000
16.538355 27.064274 0.000000
16.853075 27.064274 0.000000
17.167797 27.064274 0.000000
17.482517 27.064274 0.000000
17.797239 27.064274 0.000000
18.111959 27.064274 0.000000
18.426680 27.064274 0.000000
18.741402 27.064274 0.000000
-7.065720 26.749554 0.000000
-6.750999 26.749554 0.007231
-6.436278 26.749554 0.005214
-6.121557 26.749554 0.005030
-5.806836 26.749554 0.005104
-5.492115 26.749554 0.005113
-5.177394 26.749554 0.005169
-4.862673 26.749554 0.005164
-4.547952 26.749554 0.005201
-4.233231 26.749554 0.005154
-3.918510 26.749554 0.005057
-3.603789 26.749554 0.004980
-3.289068 26.749554 0.004971
-2.974347 26.749554 0.005007
-2.659626 26.749554 0.005022
-2.344905 26.749554 0.005060
-2.030184 26.749554 0.005184
-1.715463 26.749554 0.005286
-1.400742 26.749554 0.005378
-1.086021 26.749554 0.005401
-0.771300 26.749554 0.005411
-0.456579 26.749554 0.005508
-0.141859 26.749554 0.005744
0.172863 26.749554 0.005995
0.487584 26.749554 0.006193
0.802305 26.749554 0.006408
1.117026 26.749554 0.006737
1.431747 26.749554 0.007028
1.746467 26.749554 0.007441
2.061188 26.749554 0.007969
2.375909 26.749554 0.008476
2.690630 26.749554 0.009185
3.005352 26.749554 0.009977
3.320073 26.749554 0.010987
3.634794 26.749554 0.012175
3.949515 26.749554 0.013644
4.264236 26.749554 0.015416
4.578956 26.749554 0.017642
4.893677 26.749554 0.020640
5.208398 26.749554 0.024580
5.523119 26.749554 0.029292
5.837841 26.749554 0.035876
6.152562 26.749554 0.044980
6.467283 26.749554 0.056728
6.782003 26.749554 0.071805
7.096724 26.749554 0.091879
7.411445 26.749554 0.119987
7.726166 26.749554 0.153959
8.040888 26.749554 0.198901
8.355608 26.749554 0.256967
8.670330 26.749554 0.324077
8.985050 26.749554 0.404767
9.299772 26.749554 0.499140
9.614492 26.749554 0.590745
9.929214 26.749554 0.699081
10.243935 26.749554 0.813206
10.558655 26.749554 0.925155
10.873377 26.749554 1.033742
11.188097 26.749554 1.127521
11.502819 26.749554 1.212880
11.817539 26.749554 1.289876
12.132261 26.749554 1.383503
12.446981 26.749554 1.453416
12.761703 26.749554 1.510893
13.076424 26.749554 1.530517
13.391144 26.749554 1.549185
13.705866 26.749554 1.569797
14.020586 26.749554 1.561091
14.335308 26.749554 1.539845
14.650028 26.749554 1.493297
14.964750 26.749554 1.437300
15.279470 26.749554 1.376247
15.594193 26.749554 1.276147
15.908913 26.749554 1.093327
16.223633 26.749554 0.000000
16.538355 26.749554 0.000000
16.853075 26.749554 0.000000
17.167797 26.749554 0.000000
17.482517 26.749554 0.000000
17.797239 26.749554 0.000000
18.111959 26.749554 0.000000
18.426680 26.749554 0.000000
18.741402 26.749554 0.000000
-7.065720 26.434832 0.000000
-6.750999 26.434832 0.007164
-6.436278 26.434832 0.005193
-6.121557 26.434832 0.005051
-5.806836 26.434832 0.005108
-5.492115 26.434832 0.005117
-5.177394 26.434832 0.005107
-4.862673 26.434832 0.005071
-4.547952 26.434832 0.005109
-4.233231 26.434832 0.005075
-3.918510 26.434832 0.005015
-3.603789 26.434832 0.004952
-3.289068 26.434832 0.004956
-2.974347 26.434832 0.004957
-2.659626 26.434832 0.004970
-2.344905 26.434832 0.005018
-2.030184 26.434832 0.005149
-1.715463 26.434832 0.005253
-1.400742 26.434832 0.005371
-1.086021 26.434832 0.005376
-0.771300 26.434832 0.005414
-0.456579 26.434832 0.005533
-0.141859 26.434832 0.005730
0.172863 26.434832 0.005963
0.487584 26.434832 0.006187
0.802305 26.434832 0.006403
1.117026 26.434832 0.006699
1.431747 26.434832 0.006995
1.746467 26.434832 0.007405
2.061188 26.434832 0.007935
2.375909 26.434832 0.008530
2.690630 26.434832 0.009231
3.005352 26.434832 0.010011
3.320073 26.434832 0.010980
3.634794 26.434832 0.012222
3.949515 26.434832 0.013643
4.264236 26.434832 0.015391
4.578956 26.434832 0.017544
4.893677 26.434832 0.020462
5.208398 26.434832 0.024446
5.523119 26.434832 0.029217
5.837841 26.434832 0.035835
6.152562 26.434832 0.045261
6.467283 26.434832 0.057230
6.782003 26.434832 0.072244
7.096724 26.434832 0.092418
7.411445 26.434832 0.120166
7.726166 26.434832 0.156218
8.040888 26.434832 0.203540
8.355608 26.434832 0.263376
8.670330 26.434832 0.332574
8.985050 26.434832 0.407614
9.299772 26.434832 0.498049
9.614492 26.434832 0.598566
9.929214 26.434832 0.705515
10.243935 26.434832 0.822167
10.558655 26.434832 0.927184
10.873377 26.434832 1.043026
11.188097 26.434832 1.144548
11.502819 26.434832 1.223494
11.817539 26.434832 1.305208
12.132261 26.434832 1.391759
12.446981 26.434832 1.461099
12.761703 26.434832 1.505898
13.076424 26.434832 1.542992
13.391144 26.434832 1.554250
13.705866 26.434832 1.575162
14.020586 26.434832 1.567026
14.335308 26.434832 1.537894
14.650028 26.434832 1.490633
14.964750 26.434832 1.429888
15.279470 26.434832 1.379745
15.594193 26.434832 1.284403
15.908913 26.434832 1.094642
16.223633 26.434832 0.000000
16.538355 26.434832 0.000000
16.853075 26.434832 0.000000
17.167797 26.434832 0.000000
17.482517 26.434832 0.000000
17.797239 26.434832 0.000000
18.111959 26.434832 0.000000
18.426680 26.434832 0.000000
18.741402 26.434832 0.000000
-7.065720 26.120111 0.000000
-6.750999 26.120111 0.007121
-6.436278 26.120111 0.005233
-6.121557 26.120111 0.005063
-5.806836 26.120111 0.005091
-5.492115 26.120111 0.005120
-5.177394 26.120111 0.005065
-4.862673 26.120111 0.005023
-4.547952 26.120111 0.005054
-4.233231 26.120111 0.005028
-3.918510 26.120111 0.004996
-3.603789 26.120111 0.004964
-3.289068 26.120111 0.004961
-2.974347 26.120111 0.004945
-2.659626 26.120111 0.004953
-2.344905 26.120111 0.005040
-2.030184 26.120111 0.005118
-1.715463 26.120111 0.005239
-1.400742 26.120111 0.005343
-1.086021 26.120111 0.005372
-0.771300 26.120111 0.005436
-0.456579 26.120111 0.005583
-0.141859 26.120111 0.005733
0.172863 26.120111 0.005945
0.487584 26.120111 0.006163
0.802305 26.120111 0.006405
1.117026 26.120111 0.006699
1.431747 26.120111 0.006965
1.746467 26.120111 0.007376
2.061188 26.120111 0.007932
2.375909 26.120111 0.008562
2.690630 26.120111 0.009287
3.005352 26.120111 0.010063
3.320073 26.120111 0.011006
3.634794 26.120111 0.012241
3.949515 26.120111 0.013674
4.264236 26.120111 0.015416
4.578956 26.120111 0.017512
4.893677 26.120111 0.020402
5.208398 26.120111 0.024244
5.523119 26.120111 0.029084
5.837841 26.120111 0.035890
6.152562 26.120111 0.045539
6.467283 26.120111 0.056759
6.782003 26.120111 0.072283
7.096724 26.120111 0.092504
7.411445 26.120111 0.119973
7.726166 26.120111 0.157583
8.040888 26.120111 0.205054
8.355608 26.120111 0.264448
8.670330 26.120111 0.331336
8.985050 26.120111 0.408808
9.299772 26.120111 0.502547
9.614492 26.120111 0.603573
9.929214 26.120111 0.702939
10.243935 26.120111 0.811065
10.558655 26.120111 0.926169
10.873377 26.120111 1.046821
11.188097 26.120111 1.155757
11.502819 26.120111 1.237644
11.817539 26.120111 1.320682
12.132261 26.120111 1.385583
12.446981 26.120111 1.447088
12.761703 26.120111 1.501810
13.076424 26.120111 1.532310
13.391144 26.120111 1.557637
13.705866 26.120111 1.568886
14.020586 26.120111 1.565941
14.335308 26.120111 1.546894
14.650028 26.120111 1.498520
14.964750 26.120111 1.445773
15.279470 26.120111 1.387330
15.594193 26.120111 1.293351
15.908913 26.120111 1.016908
16.223633 26.120111 0.000000
16.538355 26.120111 0.000000
16.853075 26.120111 0.000000
17.167797 26.120111 0.000000
17.482517 26.120111 0.000000
17.797239 26.120111 0.000000
18.111959 26.120111 0.000000
18.426680 26.120111 0.000000
18.741402 26.120111 0.000000
-7.065720 25.805389 0.000000
-6.750999 25.805389 0.007158
-6.436278 25.805389 0.005288
-6.121557 25.805389 0.005084
-5.806836 25.805389 0.005063
-5.492115 25.805389 0.005067
-5.177394 25.805389 0.005021
-4.862673 25.805389 0.005005
-4.547952 25.805389 0.005028
-4.233231 25.805389 0.004997
-3.918510 25.805389 0.005025
-3.603789 25.805389 0.005031
-3.289068 25.805389 0.005005
-2.974347 25.805389 0.004995
-2.659626 25.805389 0.004980
-2.344905 25.805389 0.005062
-2.030184 25.805389 0.005123
-1.715463 25.805389 0.005187
-1.400742 25.805389 0.005297
-1.086021 25.805389 0.005351
-0.771300 25.805389 0.005480
-0.456579 25.805389 0.005645
-0.141859 25.805389 0.005770
0.172863 25.805389 0.005975
0.487584 25.805389 0.006156
0.802305 25.805389 0.006384
1.117026 25.805389 0.006710
1.431747 25.805389 0.006969
1.746467 25.805389 0.007357
2.061188 25.805389 0.007961
2.375909 25.805389 0.008583
2.690630 25.805389 0.009283
3.005352 25.805389 0.010041
3.320073 25.805389 0.011038
3.634794 25.805389 0.012255
3.949515 25.805389 0.013758
4.264236 25.805389 0.015465
4.578956 25.805389 0.017476
4.893677 25.805389 0.020371
5.208398 25.805389 0.024196
5.523119 25.805389 0.029169
5.837841 25.805389 0.036283
6.152562 25.805389 0.045256
6.467283 25.805389 0.057099
6.782003 25.805389 0.072865
7.096724 25.805389 0.094234
7.411445 25.805389 0.119805
7.726166 25.805389 0.156477
8.040888 25.805389 0.205353
8.355608 25.805389 0.262130
8.670330 25.805389 0.333494
8.985050 25.805389 0.409861
9.299772 25.805389 0.501397
9.614492 25.805389 0.597097
9.929214 25.805389 0.701757
10.243935 25.805389 0.809932
10.558655 25.805389 0.929483
10.873377 25.805389 1.045113
11.188097 25.805389 1.155844
11.502819 25.805389 1.242937
11.817539 25.805389 1.313636
12.132261 25.805389 1.379408
12.446981 25.805389 1.439372
12.761703 25.805389 1.486910
13.076424 25.805389 1.529136
13.391144 25.805389 1.548782
13.705866 25.805389 1.566750
14.020586 25.805389 1.570519
14.335308 25.805389 1.554837
14.650028 25.805389 1.506538
14.964750 25.805389 1.452745
15.279470 25.805389 1.388897
15.594193 25.805389 1.295826
15.908913 25.805389 0.991538
16.223633 25.805389 0.000000
16.538355 25.805389 0.000000
16.853075 25.805389 0.000000
17.167797 25.805389 0.000000
17.482517 25.805389 0.000000
17.797239 25.805389 0.000000
18.111959 25.805389 0.000000
18.426680 25.805389 0.000000
18.741402 25.805389 0.000000
-7.065720 25.490669 0.000000
-6.750999 25.490669 0.007219
-6.436278 25.490669 0.005361
-6.121557 25.490669 0.005112
-5.806836 25.490669 0.005038
-5.492115 25.490669 0.005007
-5.177394 25.490669 0.005021
-4.862673 25.490669 0.005018
-4.547952 25.490669 0.005025
-4.233231 25.490669 0.004998
-3.918510 25.490669 0.005058
-3.603789 25.490669 0.005123
-3.289068 25.490669 0.005103
-2.974347 25.490669 0.005085
-2.659626 25.490669 0.005051
-2.344905 25.490669 0.005098
-2.030184 25.490669 0.005128
-1.715463 25.490669 0.005162
-1.400742 25.490669 0.005236
-1.086021 25.490669 0.005351
-0.771300 25.490669 0.005492
-0.456579 25.490669 0.005660
-0.141859 25.490669 0.005821
0.172863 25.490669 0.005998
0.487584 25.490669 0.006147
0.802305 25.490669 0.006351
1.117026 25.490669 0.006705
1.431747 25.490669 0.007001
1.746467 25.490669 0.007395
2.061188 25.490669 0.007961
2.375909 25.490669 0.008526
2.690630 25.490669 0.009236
3.005352 25.490669 0.009994
3.320073 25.490669 0.010988
3.634794 25.490669 0.012291
3.949515 25.490669 0.013793
4.264236 25.490669 0.015473
4.578956 25.490669 0.017503
4.893677 25.490669 0.020383
5.208398 25.490669 0.024211
5.523119 25.490669 0.029255
5.837841 25.490669 0.035938
6.152562 25.490669 0.045285
6.467283 25.490669 0.056996
6.782003 25.490669 0.073388
7.096724 25.490669 0.094283
7.411445 25.490669 0.121274
7.726166 25.490669 0.156300
8.040888 25.490669 0.204690
8.355608 25.490669 0.260366
8.670330 25.490669 0.330537
8.985050 25.490669 0.410672
9.299772 25.490669 0.498585
9.614492 25.490669 0.592697
9.929214 25.490669 0.704116
10.243935 25.490669 0.817506
10.558655 25.490669 0.936166
10.873377 25.490669 1.045074
11.188097 25.490669 1.141966
11.502819 25.490669 1.233232
11.817539 25.490669 1.313335
12.132261 25.490669 1.387710
12.446981 25.490669 1.445096
12.761703 25.490669 1.497979
13.076424 25.490669 1.531904
13.391144 25.490669 1.558470
13.705866 25.490669 1.571429
14.020586 25.490669 1.574039
14.335308 25.490669 1.556596
14.650028 25.490669 1.514850
14.964750 25.490669 1.461168
15.279470 25.490669 1.396843
15.594193 25.490669 1.305436
15.908913 25.490669 0.967836
16.223633 25.490669 0.000000
16.538355 25.490669 0.000000
16.853075 25.490669 0.000000
17.167797 25.490669 0.000000
17.482517 25.490669 0.000000
17.797239 25.490669 0.000000
18.111959 25.490669 0.000000
18.426680 25.490669 0.000000
18.741402 25.490669 0.000000
-7.065720 25.175949 0.000000
-6.750999 25.175949 0.007267
-6.436278 25.175949 0.005434
-6.121557 25.175949 0.005189
-5.806836 25.175949 0.005070
-5.492115 25.175949 0.005014
-5.177394 25.175949 0.005047
-4.862673 25.175949 0.005037
-4.547952 25.175949 0.005034
-4.233231 25.175949 0.005018
-3.918510 25.175949 0.005055
-3.603789 25.175949 0.005158
-3.289068 25.175949 0.005169
-2.974347 25.175949 0.005168
-2.659626 25.175949 0.005135
-2.344905 25.175949 0.005110
-2.030184 25.175949 0.005163
-1.715463 25.175949 0.005165
-1.400742 25.175949 0.005208
-1.086021 25.175949 0.005343
-0.771300 25.175949 0.005481
-0.456579 25.175949 0.005654
-0.141859 25.175949 0.005858
0.172863 25.175949 0.006029
0.487584 25.175949 0.006146
0.802305 25.175949 0.006332
1.117026 25.175949 0.006686
1.431747 25.175949 0.007023
1.746467 25.175949 0.007427
2.061188 25.175949 0.007956
2.375909 25.175949 0.008465
2.690630 25.175949 0.009162
3.005352 25.175949 0.009879
3.320073 25.175949 0.010914
3.634794 25.175949 0.012278
3.949515 25.175949 0.013800
4.264236 25.175949 0.015508
4.578956 25.175949 0.017577
4.893677 25.175949 0.020577
5.208398 25.175949 0.024530
5.523119 25.175949 0.029429
5.837841 25.175949 0.036093
6.152562 25.175949 0.045152
6.467283 25.175949 0.057115
6.782003 25.175949 0.072905
7.096724 25.175949 0.094294
7.411445 25.175949 0.120984
7.726166 25.175949 0.156752
8.040888 25.175949 0.201970
8.355608 25.175949 0.260854
8.670330 25.175949 0.331691
8.985050 25.175949 0.411940
9.299772 25.175949 0.503580
9.614492 25.175949 0.601207
9.929214 25.175949 0.704205
10.243935 25.175949 0.814822
10.558655 25.175949 0.939939
10.873377 25.175949 1.042149
11.188097 25.175949 1.137502
11.502819 25.175949 1.234185
11.817539 25.175949 1.323465
12.132261 25.175949 1.395047
12.446981 25.175949 1.448260
12.761703 25.175949 1.499989
13.076424 25.175949 1.539337
13.391144 25.175949 1.551873
13.705866 25.175949 1.571717
14.020586 25.175949 1.581491
14.335308 25.175949 1.554230
14.650028 25.175949 1.521193
14.964750 25.175949 1.468985
15.279470 25.175949 1.392339
15.594193 25.175949 1.296434
15.908913 25.175949 0.934243
16.223633 25.175949 0.000000
16.538355 25.175949 0.000000
16.853075 25.175949 0.000000
17.167797 25.175949 0.000000
17.482517 25.175949 0.000000
17.797239 25.175949 0.000000
18.111959 25.175949 0.000000
18.426680 25.175949 0.000000
18.741402 25.175949 0.000000
-7.065720 24.861227 0.000000
-6.750999 24.861227 0.007301
-6.436278 24.861227 0.005487
-6.121557 24.861227 0.005260
-5.806836 24.861227 0.005145
-5.492115 24.861227 0.005042
-5.177394 24.861227 0.005030
-4.862673 24.861227 0.005007
-4.547952 24.861227 0.004996
-4.233231 24.861227 0.005002
-3.918510 24.861227 0.005030
-3.603789 24.861227 0.005141
-3.289068 24.861227 0.005194
-2.974347 24.861227 0.005218
-2.659626 24.861227 0.005162
-2.344905 24.861227 0.005130
-2.030184 24.861227 0.005186
-1.715463 24.861227 0.005163
-1.400742 24.861227 0.005203
-1.086021 24.861227 0.005352
-0.771300 24.861227 0.005487
-0.456579 24.861227 0.005684
-0.141859 24.861227 0.005855
0.172863 24.861227 0.006001
0.487584 24.861227 0.006131
0.802305 24.861227 0.006357
1.117026 24.861227 0.006721
1.431747 24.861227 0.007037
1.746467 24.861227 0.007437
2.061188 24.861227 0.007918
2.375909 24.861227 0.008400
2.690630 24.861227 0.009064
3.005352 24.861227 0.009804
3.320073 24.861227 0.010832
3.634794 24.861227 0.012237
3.949515 24.861227 0.013766
4.264236 24.861227 0.015567
4.578956 24.861227 0.017697
4.893677 24.861227 0.020674
5.208398 24.861227 0.024523
5.523119 24.861227 0.029567
5.837841 24.861227 0.036186
6.152562 24.861227 0.045435
6.467283 24.861227 0.057235
6.782003 24.861227 0.073231
7.096724 24.861227 0.095191
7.411445 24.861227 0.123007
7.726166 24.861227 0.160060
8.040888 24.861227 0.205396
8.355608 24.861227 0.264688
8.670330 24.861227 0.335471
8.985050 24.861227 0.417134
9.299772 24.861227 0.510131
9.614492 24.861227 0.603085
9.929214 24.861227 0.714970
10.243935 24.861227 0.823176
10.558655 24.861227 0.942258
10.873377 24.861227 1.045761
11.188097 24.861227 1.151102
11.502819 24.861227 1.237733
11.817539 24.861227 1.328164
12.132261 24.861227 1.398361
12.446981 24.861227 1.450388
12.761703 24.861227 1.502494
13.076424 24.861227 1.536850
13.391144 24.861227 1.560489
13.705866 24.861227 1.574157
14.020586 24.861227 1.568148
14.335308 24.861227 1.543369
14.650028 24.861227 1.515352
14.964750 24.861227 1.457228
15.279470 24.861227 1.371942
15.594193 24.861227 1.283888
15.908913 24.861227 0.920781
16.223633 24.861227 0.000000
16.538355 24.861227 0.000000
16.853075 24.861227 0.000000
17.167797 24.861227 0.000000
17.482517 24.861227 0.000000
17.797239 24.861227 0.000000
18.111959 24.861227 0.000000
18.426680 24.861227 0.000000
18.741402 24.861227 0.000000
-7.065720 24.546507 0.000000
-6.750999 24.546507 0.007297
-6.436278 24.546507 0.005510
-6.121557 24.546507 0.005273
-5.806836 24.546507 0.005196
-5.492115 24.546507 0.005088
-5.177394 24.546507 0.005007
-4.862673 24.546507 0.004984
-4.547952 24.546507 0.004988
-4.233231 24.546507 0.005017
-3.918510 24.546507 0.005021
-3.603789 24.546507 0.005113
-3.289068 24.546507 0.005197
-2.974347 24.546507 0.005228
-2.659626 24.546507 0.005183
-2.344905 24.546507 0.005159
-2.030184 24.546507 0.005200
-1.715463 24.546507 0.005191
-1.400742 24.546507 0.005254
-1.086021 24.546507 0.005367
-0.771300 24.546507 0.005506
-0.456579 24.546507 0.005711
-0.141859 24.546507 0.005835
0.172863 24.546507 0.005957
0.487584 24.546507 0.006097
0.802305 24.546507 0.006399
1.117026 24.546507 0.006753
1.431747 24.546507 0.007025
1.746467 24.546507 0.007389
2.061188 24.546507 0.007876
2.375909 24.546507 0.008380
2.690630 24.546507 0.009055
3.005352 24.546507 0.009798
3.320073 24.546507 0.010833
3.634794 24.546507 0.012189
3.949515 24.546507 0.013747
4.264236 24.546507 0.015561
4.578956 24.546507 0.017870
4.893677 24.546507 0.020786
5.208398 24.546507 0.024603
5.523119 24.546507 0.029585
5.837841 24.546507 0.036156
6.152562 24.546507 0.045168
6.467283 24.546507 0.057191
6.782003 24.546507 0.074066
7.096724 24.546507 0.095063
7.411445 24.546507 0.123564
7.726166 24.546507 0.163318
8.040888 24.546507 0.209764
8.355608 24.546507 0.269052
8.670330 24.546507 0.339128
8.985050 24.546507 0.421975
9.299772 24.546507 0.511092
9.614492 24.546507 0.611077
9.929214 24.546507 0.721800
10.243935 24.546507 0.826901
10.558655 24.546507 0.950398
10.873377 24.546507 1.056420
11.188097 24.546507 1.157941
11.502819 24.546507 1.246466
11.817539 24.546507 1.327521
12.132261 24.546507 1.395988
12.446981 24.546507 1.446363
12.761703 24.546507 1.493615
13.076424 24.546507 1.529206
13.391144 24.546507 1.549307
13.705866 24.546507 1.564027
14.020586 24.546507 1.562942
14.335308 24.546507 1.541692
14.650028 24.546507 1.503871
14.964750 24.546507 1.435753
15.279470 24.546507 1.374526
15.594193 24.546507 1.287176
15.908913 24.546507 0.903369
16.223633 24.546507 0.000000
16.538355 24.546507 0.000000
16.853075 24.546507 0.000000
17.167797 24.546507 0.000000
17.482517 24.546507 0.000000
17.797239 24.546507 0.000000
18.111959 24.546507 0.000000
18.426680 24.546507 0.000000
18.741402 24.546507 0.000000
-7.065720 24.231785 0.000000
-6.750999 24.231785 0.007288
-6.436278 24.231785 0.005480
-6.121557 24.231785 0.005206
-5.806836 24.231785 0.005209
-5.492115 24.231785 0.005138
-5.177394 24.231785 0.005033
-4.862673 24.231785 0.005008
-4.547952 24.231785 0.005013
-4.233231 24.231785 0.005039
-3.918510 24.231785 0.005050
-3.603789 24.231785 0.005109
-3.289068 24.231785 0.005183
-2.974347 24.231785 0.005199
-2.659626 24.231785 0.005176
-2.344905 24.231785 0.005162
-2.030184 24.231785 0.005217
-1.715463 24.231785 0.005228
-1.400742 24.231785 0.005270
-1.086021 24.231785 0.005379
-0.771300 24.231785 0.005532
-0.456579 24.231785 0.005718
-0.141859 24.231785 0.005821
0.172863 24.231785 0.005939
0.487584 24.231785 0.006086
0.802305 24.231785 0.006419
1.117026 24.231785 0.006741
1.431747 24.231785 0.006988
1.746467 24.231785 0.007315
2.061188 24.231785 0.007810
2.375909 24.231785 0.008374
2.690630 24.231785 0.009095
3.005352 24.231785 0.009857
3.320073 24.231785 0.010875
3.634794 24.231785 0.012148
3.949515 24.231785 0.013726
4.264236 24.231785 0.015608
4.578956 24.231785 0.017877
4.893677 24.231785 0.020806
5.208398 24.231785 0.024708
5.523119 24.231785 0.029692
5.837841 24.231785 0.036492
6.152562 24.231785 0.045284
6.467283 24.231785 0.057265
6.782003 24.231785 0.074028
7.096724 24.231785 0.096360
7.411445 24.231785 0.124440
7.726166 24.231785 0.162390
8.040888 24.231785 0.208797
8.355608 24.231785 0.266583
8.670330 24.231785 0.336056
8.985050 24.231785 0.422105
9.299772 24.231785 0.515498
9.614492 24.231785 0.613002
9.929214 24.231785 0.730071
10.243935 24.231785 0.829441
10.558655 24.231785 0.944015
10.873377 24.231785 1.056933
11.188097 24.231785 1.161138
11.502819 24.231785 1.257339
11.817539 24.231785 1.322839
12.132261 24.231785 1.387035
12.446981 24.231785 1.441845
12.761703 24.231785 1.491600
13.076424 24.231785 1.527838
13.391144 24.231785 1.546517
13.705866 24.231785 1.559899
14.020586 24.231785 1.560662
14.335308 24.231785 1.546482
14.650028 24.231785 1.498057
14.964750 24.231785 1.444821
15.279470 24.231785 1.387960
15.594193 24.231785 1.293265
15.908913 24.231785 0.894646
16.223633 24.231785 0.000000
16.538355 24.231785 0.000000
16.853075 24.231785 0.000000
17.167797 24.231785 0.000000
17.482517 24.231785 0.000000
17.797239 24.231785 0.000000
18.111959 24.231785 0.000000
18.426680 24.231785 0.000000
18.741402 24.231785 0.000000
-7.065720 23.917065 0.000000
-6.750999 23.917065 0.007248
-6.436278 23.917065 0.005408
-6.121557 23.917065 0.005102
-5.806836 23.917065 0.005169
-5.492115 23.917065 0.005159
-5.177394 23.917065 0.005102
-4.862673 23.917065 0.005078
-4.547952 23.917065 0.005082
-4.233231 23.917065 0.005069
-3.918510 23.917065 0.005064
-3.603789 23.917065 0.005067
-3.289068 23.917065 0.005081
-2.974347 23.917065 0.005130
-2.659626 23.917065 0.005130
-2.344905 23.917065 0.005136
-2.030184 23.917065 0.005201
-1.715463 23.917065 0.005251
-1.400742 23.917065 0.005289
-1.086021 23.917065 0.005381
-0.771300 23.917065 0.005522
-0.456579 23.917065 0.005683
-0.141859 23.917065 0.005806
0.172863 23.917065 0.005942
0.487584 23.917065 0.006097
0.802305 23.917065 0.006382
1.117026 23.917065 0.006687
1.431747 23.917065 0.006936
1.746467 23.917065 0.007271
2.061188 23.917065 0.007754
2.375909 23.917065 0.008374
2.690630 23.917065 0.009134
3.005352 23.917065 0.009917
3.320073 23.917065 0.010923
3.634794 23.917065 0.012125
3.949515 23.917065 0.013680
4.264236 23.917065 0.015647
4.578956 23.917065 0.017913
4.893677 23.917065 0.020750
5.208398 23.917065 0.024760
5.523119 23.917065 0.029947
5.837841 23.917065 0.036538
6.152562 23.917065 0.045634
6.467283 23.917065 0.057604
6.782003 23.917065 0.074815
7.096724 23.917065 0.097216
7.411445 23.917065 0.125857
7.726166 23.917065 0.164509
8.040888 23.917065 0.209705
8.355608 23.917065 0.266085
8.670330 23.917065 0.336668
8.985050 23.917065 0.421864
9.299772 23.917065 0.514345
9.614492 23.917065 0.615609
9.929214 23.917065 0.727967
10.243935 23.917065 0.829629
10.558655 23.917065 0.943328
10.873377 23.917065 1.055261
11.188097 23.917065 1.159470
11.502819 23.917065 1.252536
11.817539 23.917065 1.321413
12.132261 23.917065 1.392049
12.446981 23.917065 1.448595
12.761703 23.917065 1.499046
13.076424 23.917065 1.544601
13.391144 23.917065 1.555835
13.705866 23.917065 1.561530
14.020586 23.917065 1.561612
14.335308 23.917065 1.542847
14.650028 23.917065 1.503833
14.964750 23.917065 1.456354
15.279470 23.917065 1.395585
15.594193 23.917065 1.310504
15.908913 23.917065 0.879759
16.223633 23.917065 0.000000
16.538355 23.917065 0.000000
16.853075 23.917065 0.000000
17.167797 23.917065 0.000000
17.482517 23.917065 0.000000
17.797239 23.917065 0.000000
18.111959 23.917065 0.000000
18.426680 23.917065 0.000000
18.741402 23.917065 0.000000
-7.065720 23.602343 0.000000
-6.750999 23.602343 0.007182
-6.436278 23.602343 0.005333
-6.121557 23.602343 0.005037
-5.806836 23.602343 0.005094
-5.492115 23.602343 0.005161
-5.177394 23.602343 0.005128
-4.862673 23.602343 0.005101
-4.547952 23.602343 0.005089
-4.233231 23.602343 0.005078
-3.918510 23.602343 0.005068
-3.603789 23.602343 0.004983
-3.289068 23.602343 0.004980
-2.974347 23.602343 0.005074
-2.659626 23.602343 0.005079
-2.344905 23.602343 0.005090
-2.030184 23.602343 0.005194
-1.715463 23.602343 0.005229
-1.400742 23.602343 0.005263
-1.086021 23.602343 0.005367
-0.771300 23.602343 0.005492
-0.456579 23.602343 0.005602
-0.141859 23.602343 0.005733
0.172863 23.602343 0.005934
0.487584 23.602343 0.006099
0.802305 23.602343 0.006334
1.117026 23.602343 0.006596
1.431747 23.602343 0.006866
1.746467 23.602343 0.007257
2.061188 23.602343 0.007741
2.375909 23.602343 0.008381
2.690630 23.602343 0.009146
3.005352 23.602343 0.010013
3.320073 23.602343 0.010971
3.634794 23.602343 0.012083
3.949515 23.602343 0.013601
4.264236 23.602343 0.015590
4.578956 23.602343 0.017895
4.893677 23.602343 0.020794
5.208398 23.602343 0.024728
5.523119 23.602343 0.029687
5.837841 23.602343 0.036433
6.152562 23.602343 0.045802
6.467283 23.602343 0.058024
6.782003 23.602343 0.074238
7.096724 23.602343 0.096031
7.411445 23.602343 0.125127
7.726166 23.602343 0.161885
8.040888 23.602343 0.208538
8.355608 23.602343 0.265503
8.670330 23.602343 0.335338
8.985050 23.602343 0.418016
9.299772 23.602343 0.518775
9.614492 23.602343 0.608837
9.929214 23.602343 0.725917
10.243935 23.602343 0.830257
10.558655 23.602343 0.937324
10.873377 23.602343 1.056639
11.188097 23.602343 1.156304
11.502819 23.602343 1.245002
11.817539 23.602343 1.337537
12.132261 23.602343 1.407019
12.446981 23.602343 1.467355
12.761703 23.602343 1.517856
13.076424 23.602343 1.545938
13.391144 23.602343 1.560390
13.705866 23.602343 1.573417
14.020586 23.602343 1.572837
14.335308 23.602343 1.552908
14.650028 23.602343 1.522411
14.964750 23.602343 1.467596
15.279470 23.602343 1.400894
15.594193 23.602343 1.326971
15.908913 23.602343 0.696223
16.223633 23.602343 0.000000
16.538355 23.602343 0.000000
16.853075 23.602343 0.000000
17.167797 23.602343 0.000000
17.482517 23.602343 0.000000
17.797239 23.602343 0.000000
18.111959 23.602343 0.000000
18.426680 23.602343 0.000000
18.741402 23.602343 0.000000
-7.065720 23.287622 0.000000
-6.750999 23.287622 0.007096
-6.436278 23.287622 0.005291
-6.121557 23.287622 0.005045
-5.806836 23.287622 0.005038
-5.492115 23.287622 0.005112
-5.177394 23.287622 0.005118
-4.862673 23.287622 0.005065
-4.547952 23.287622 0.005049
-4.233231 23.287622 0.005078
-3.918510 23.287622 0.005021
-3.603789 23.287622 0.004919
-3.289068 23.287622 0.004918
-2.974347 23.287622 0.005016
-2.659626 23.287622 0.005006
-2.344905 23.287622 0.005037
-2.030184 23.287622 0.005206
-1.715463 23.287622 0.005229
-1.400742 23.287622 0.005233
-1.086021 23.287622 0.005335
-0.771300 23.287622 0.005433
-0.456579 23.287622 0.005519
-0.141859 23.287622 0.005655
0.172863 23.287622 0.005906
0.487584 23.287622 0.006090
0.802305 23.287622 0.006294
1.117026 23.287622 0.006538
1.431747 23.287622 0.006801
1.746467 23.287622 0.007257
2.061188 23.287622 0.007743
2.375909 23.287622 0.008367
2.690630 23.287622 0.009192
3.005352 23.287622 0.010078
3.320073 23.287622 0.010976
3.634794 23.287622 0.012053
3.949515 23.287622 0.013558
4.264236 23.287622 0.015585
4.578956 23.287622 0.017831
4.893677 23.287622 0.020818
5.208398 23.287622 0.024723
5.523119 23.287622 0.029876
5.837841 23.287622 0.036670
6.152562 23.287622 0.045722
6.467283 23.287622 0.058334
6.782003 23.287622 0.074202
7.096724 23.287622 0.095590
7.411445 23.287622 0.127135
7.726166 23.287622 0.163824
8.040888 23.287622 0.211994
8.355608 23.287622 0.267579
8.670330 23.287622 0.336534
8.985050 23.287622 0.414982
9.299772 23.287622 0.506718
9.614492 23.287622 0.607439
9.929214 23.287622 0.719563
10.243935 23.287622 0.831810
10.558655 23.287622 0.935989
10.873377 23.287622 1.048677
11.188097 23.287622 1.148580
11.502819 23.287622 1.245476
11.817539 23.287622 1.335386
12.132261 23.287622 1.411383
12.446981 23.287622 1.460855
12.761703 23.287622 1.514375
13.076424 23.287622 1.548157
13.391144 23.287622 1.568270
13.705866 23.287622 1.580832
14.020586 23.287622 1.576077
14.335308 23.287622 1.567597
14.650028 23.287622 1.527033
14.964750 23.287622 1.469513
15.279470 23.287622 1.398307
15.594193 23.287622 1.335787
15.908913 23.287622 0.529738
16.223633 23.287622 0.000000
16.538355 23.287622 0.000000
16.853075 23.287622 0.000000
17.167797 23.287622 0.000000
17.482517 23.287622 0.000000
17.797239 23.287622 0.000000
18.111959 23.287622 0.000000
18.426680 23.287622 0.000000
18.741402 23.287622 0.000000
-7.065720 22.972902 0.000000
-6.750999 22.972902 0.007056
-6.436278 22.972902 0.005303
-6.121557 22.972902 0.005065
-5.806836 22.972902 0.005015
-5.492115 22.972902 0.005026
-5.177394 22.972902 0.005063
-4.862673 22.972902 0.004973
-4.547952 22.972902 0.004966
-4.233231 22.972902 0.005023
-3.918510 22.972902 0.004962
-3.603789 22.972902 0.004868
-3.289068 22.972902 0.004875
-2.974347 22.972902 0.004938
-2.659626 22.972902 0.004914
-2.344905 22.972902 0.004998
-2.030184 22.972902 0.005189
-1.715463 22.972902 0.005242
-1.400742 22.972902 0.005212
-1.086021 22.972902 0.005260
-0.771300 22.972902 0.005348
-0.456579 22.972902 0.005435
-0.141859 22.972902 0.005600
0.172863 22.972902 0.005836
0.487584 22.972902 0.006046
0.802305 22.972902 0.006274
1.117026 22.972902 0.006484
1.431747 22.972902 0.006761
1.746467 22.972902 0.007272
2.061188 22.972902 0.007762
2.375909 22.972902 0.008368
2.690630 22.972902 0.009181
3.005352 22.972902 0.010011
3.320073 22.972902 0.010933
3.634794 22.972902 0.012031
3.949515 22.972902 0.013506
4.264236 22.972902 0.015449
4.578956 22.972902 0.017727
4.893677 22.972902 0.020670
5.208398 22.972902 0.024637
5.523119 22.972902 0.029859
5.837841 22.972902 0.036826
6.152562 22.972902 0.045999
6.467283 22.972902 0.058203
6.782003 22.972902 0.074003
7.096724 22.972902 0.096612
7.411445 22.972902 0.127548
7.726166 22.972902 0.166731
8.040888 22.972902 0.214514
8.355608 22.972902 0.273537
8.670330 22.972902 0.340242
8.985050 22.972902 0.417481
9.299772 22.972902 0.507794
9.614492 22.972902 0.613651
9.929214 22.972902 0.723355
10.243935 22.972902 0.832589
10.558655 22.972902 0.943423
10.873377 22.972902 1.047929
11.188097 22.972902 1.149336
11.502819 22.972902 1.237207
11.817539 22.972902 1.336583
12.132261 22.972902 1.404887
12.446981 22.972902 1.456848
12.761703 22.972902 1.503208
13.076424 22.972902 1.540150
13.391144 22.972902 1.570022
13.705866 22.972902 1.575495
14.020586 22.972902 1.584239
14.335308 22.972902 1.577124
14.650028 22.972902 1.533777
14.964750 22.972902 1.471878
15.279470 22.972902 1.401648
15.594193 22.972902 1.345445
15.908913 22.972902 0.505302
16.223633 22.972902 0.000000
16.538355 22.972902 0.000000
16.853075 22.972902 0.000000
17.167797 22.972902 0.000000
17.482517 22.972902 0.000000
17.797239 22.972902 0.000000
18.111959 22.972902 0.000000
18.426680 22.972902 0.000000
18.741402 22.972902 0.000000
-7.065720 22.658180 0.000000
-6.750999 22.658180 0.007070
-6.436278 22.658180 0.005311
-6.121557 22.658180 0.005080
-5.806836 22.658180 0.005018
-5.492115 22.658180 0.004994
-5.177394 22.658180 0.005015
-4.862673 22.658180 0.004910
-4.547952 22.658180 0.004884
-4.233231 22.658180 0.004948
-3.918510 22.658180 0.004929
-3.603789 22.658180 0.004853
-3.289068 22.658180 0.004846
-2.974347 22.658180 0.004875
-2.659626 22.658180 0.004862
-2.344905 22.658180 0.004958
-2.030184 22.658180 0.005145
-1.715463 22.658180 0.005222
-1.400742 22.658180 0.005188
-1.086021 22.658180 0.005179
-0.771300 22.658180 0.005250
-0.456579 22.658180 0.005372
-0.141859 22.658180 0.005560
0.172863 22.658180 0.005774
0.487584 22.658180 0.006000
0.802305 22.658180 0.006248
1.117026 22.658180 0.006448
1.431747 22.658180 0.006795
1.746467 22.658180 0.007296
2.061188 22.658180 0.007796
2.375909 22.658180 0.008386
2.690630 22.658180 0.009132
3.005352 22.658180 0.009904
3.320073 22.658180 0.010859
3.634794 22.658180 0.012002
3.949515 22.658180 0.013426
4.264236 22.658180 0.015302
4.578956 22.658180 0.017594
4.893677 22.658180 0.020554
5.208398 22.658180 0.024544
5.523119 22.658180 0.029753
5.837841 22.658180 0.036948
6.152562 22.658180 0.046197
6.467283 22.658180 0.058531
6.782003 22.658180 0.074473
7.096724 22.658180 0.096624
7.411445 22.658180 0.127703
7.726166 22.658180 0.167978
8.040888 22.658180 0.216296
8.355608 22.658180 0.274785
8.670330 22.658180 0.340741
8.985050 22.658180 0.419931
9.299772 22.658180 0.516998
9.614492 22.658180 0.621721
9.929214 22.658180 0.726942
10.243935 22.658180 0.829938
10.558655 22.658180 0.942219
10.873377 22.658180 1.053865
11.188097 22.658180 1.152174
11.502819 22.658180 1.247551
11.817539 22.658180 1.333607
12.132261 22.658180 1.407639
12.446981 22.658180 1.457162
12.761703 22.658180 1.504743
13.076424 22.658180 1.541867
13.391144 22.658180 1.567699
13.705866 22.658180 1.581270
14.020586 22.658180 1.600577
14.335308 22.658180 1.589367
14.650028 22.658180 1.539960
14.964750 22.658180 1.482250
15.279470 22.658180 1.402522
15.594193 22.658180 1.351592
15.908913 22.658180 0.525800
16.223633 22.658180 0.000000
16.538355 22.658180 0.000000
16.853075 22.658180 0.000000
17.167797 22.658180 0.000000
17.482517 22.658180 0.000000
17.797239 22.658180 0.000000
18.111959 22.658180 0.000000
18.426680 22.658180 0.000000
18.741402 22.658180 0.000000
-7.065720 22.343460 0.000000
-6.750999 22.343460 0.007119
-6.436278 22.343460 0.005295
-6.121557 22.343460 0.005073
-5.806836 22.343460 0.005025
-5.492115 22.343460 0.004987
-5.177394 22.343460 0.004996
-4.862673 22.343460 0.004919
-4.547952 22.343460 0.004884
-4.233231 22.343460 0.004916
-3.918510 22.343460 0.004919
-3.603789 22.343460 0.004856
-3.289068 22.343460 0.004848
-2.974347 22.343460 0.004852
-2.659626 22.343460 0.004871
-2.344905 22.343460 0.004948
-2.030184 22.343460 0.005116
-1.715463 22.343460 0.005167
-1.400742 22.343460 0.005133
-1.086021 22.343460 0.005114
-0.771300 22.343460 0.005176
-0.456579 22.343460 0.005338
-0.141859 22.343460 0.005537
0.172863 22.343460 0.005752
0.487584 22.343460 0.005991
0.802305 22.343460 0.006236
1.117026 22.343460 0.006458
1.431747 22.343460 0.006812
1.746467 22.343460 0.007303
2.061188 22.343460 0.007793
2.375909 22.343460 0.008346
2.690630 22.343460 0.009009
3.005352 22.343460 0.009815
3.320073 22.343460 0.010807
3.634794 22.343460 0.011979
3.949515 22.343460 0.013383
4.264236 22.343460 0.015208
4.578956 22.343460 0.017485
4.893677 22.343460 0.020494
5.208398 22.343460 0.024396
5.523119 22.343460 0.029460
5.837841 22.343460 0.036941
6.152562 22.343460 0.046615
6.467283 22.343460 0.059233
6.782003 22.343460 0.074960
7.096724 22.343460 0.097758
7.411445 22.343460 0.126666
7.726166 22.343460 0.168300
8.040888 22.343460 0.219069
8.355608 22.343460 0.274825
8.670330 22.343460 0.342014
8.985050 22.343460 0.427305
9.299772 22.343460 0.527877
9.614492 22.343460 0.630394
9.929214 22.343460 0.730142
10.243935 22.343460 0.841029
10.558655 22.343460 0.941134
10.873377 22.343460 1.057637
11.188097 22.343460 1.165051
11.502819 22.343460 1.244828
11.817539 22.343460 1.332913
12.132261 22.343460 1.405027
12.446981 22.343460 1.457658
12.761703 22.343460 1.503330
13.076424 22.343460 1.543256
13.391144 22.343460 1.566633
13.705866 22.343460 1.589118
14.020586 22.343460 1.599090
14.335308 22.343460 1.593109
14.650028 22.343460 1.556143
14.964750 22.343460 1.483273
15.279470 22.343460 1.412036
15.594193 22.343460 1.364690
15.908913 22.343460 0.255885
16.223633 22.343460 0.000000
16.538355 22.343460 0.000000
16.853075 22.343460 0.000000
17.167797 22.343460 0.000000
17.482517 22.343460 0.000000
17.797239 22.343460 0.000000
18.111959 22.343460 0.000000
18.426680 22.343460 0.000000
18.741402 22.343460 0.000000
-7.065720 22.028738 0.000000
-6.750999 22.028738 0.007149
-6.436278 22.028738 0.005275
-6.121557 22.028738 0.005014
-5.806836 22.028738 0.005018
-5.492115 22.028738 0.004973
-5.177394 22.028738 0.004974
-4.862673 22.028738 0.004966
-4.547952 22.028738 0.004937
-4.233231 22.028738 0.004937
-3.918510 22.028738 0.004929
-3.603789 22.028738 0.004890
-3.289068 22.028738 0.004860
-2.974347 22.028738 0.004865
-2.659626 22.028738 0.004900
-2.344905 22.028738 0.004954
-2.030184 22.028738 0.005035
-1.715463 22.028738 0.005033
-1.400742 22.028738 0.005064
-1.086021 22.028738 0.005069
-0.771300 22.028738 0.005142
-0.456579 22.028738 0.005343
-0.141859 22.028738 0.005547
0.172863 22.028738 0.005754
0.487584 22.028738 0.005999
0.802305 22.028738 0.006250
1.117026 22.028738 0.006485
1.431747 22.028738 0.006808
1.746467 22.028738 0.007256
2.061188 22.028738 0.007747
2.375909 22.028738 0.008241
2.690630 22.028738 0.008843
3.005352 22.028738 0.009691
3.320073 22.028738 0.010784
3.634794 22.028738 0.011985
3.949515 22.028738 0.013372
4.264236 22.028738 0.015100
4.578956 22.028738 0.017440
4.893677 22.028738 0.020530
5.208398 22.028738 0.024377
5.523119 22.028738 0.029821
5.837841 22.028738 0.036940
6.152562 22.028738 0.046817
6.467283 22.028738 0.059607
6.782003 22.028738 0.075794
7.096724 22.028738 0.099194
7.411445 22.028738 0.127468
7.726166 22.028738 0.168770
8.040888 22.028738 0.216728
8.355608 22.028738 0.270781
8.670330 22.028738 0.343095
8.985050 22.028738 0.432814
9.299772 22.028738 0.527932
9.614492 22.028738 0.629818
9.929214 22.028738 0.727847
10.243935 22.028738 0.832715
10.558655 22.028738 0.944582
10.873377 22.028738 1.065117
11.188097 22.028738 1.155850
11.502819 22.028738 1.237496
11.817539 22.028738 1.328438
12.132261 22.028738 1.396907
12.446981 22.028738 1.459948
12.761703 22.028738 1.504663
13.076424 22.028738 1.537015
13.391144 22.028738 1.563309
13.705866 22.028738 1.583004
14.020586 22.028738 1.617238
14.335308 22.028738 1.604247
14.650028 22.028738 1.564572
14.964750 22.028738 1.488949
15.279470 22.028738 1.419174
15.594193 22.028738 1.379686
15.908913 22.028738 0.236623
16.223633 22.028738 0.000000
16.538355 22.028738 0.000000
16.853075 22.028738 0.000000
17.167797 22.028738 0.000000
17.482517 22.028738 0.000000
17.797239 22.028738 0.000000
18.111959 22.028738 0.000000
18.426680 22.028738 0.000000
18.741402 22.028738 0.000000
-7.065720 21.714018 0.000000
-6.750999 21.714018 0.007149
-6.436278 21.714018 0.005211
-6.121557 21.714018 0.004944
-5.806836 21.714018 0.004925
-5.492115 21.714018 0.004933
-5.177394 21.714018 0.004950
-4.862673 21.714018 0.004990
-4.547952 21.714018 0.004986
-4.233231 21.714018 0.004971
-3.918510 21.714018 0.004956
-3.603789 21.714018 0.004939
-3.289068 21.714018 0.004933
-2.974347 21.714018 0.004900
-2.659626 21.714018 0.004907
-2.344905 21.714018 0.004927
-2.030184 21.714018 0.004925
-1.715463 21.714018 0.004895
-1.400742 21.714018 0.005015
-1.086021 21.714018 0.005059
-0.771300 21.714018 0.005149
-0.456579 21.714018 0.005329
-0.141859 21.714018 0.005540
0.172863 21.714018 0.005761
0.487584 21.714018 0.005998
0.802305 21.714018 0.006244
1.117026 21.714018 0.006483
1.431747 21.714018 0.006767
1.746467 21.714018 0.007179
2.061188 21.714018 0.007639
2.375909 21.714018 0.008108
2.690630 21.714018 0.008699
3.005352 21.714018 0.009602
3.320073 21.714018 0.010736
3.634794 21.714018 0.011955
3.949515 21.714018 0.013313
4.264236 21.714018 0.015034
4.578956 21.714018 0.017471
4.893677 21.714018 0.020555
5.208398 21.714018 0.024383
5.523119 21.714018 0.029550
5.837841 21.714018 0.036761
6.152562 21.714018 0.046702
6.467283 21.714018 0.059031
6.782003 21.714018 0.075822
7.096724 21.714018 0.099240
7.411445 21.714018 0.128480
7.726166 21.714018 0.169047
8.040888 21.714018 0.215327
8.355608 21.714018 0.272369
8.670330 21.714018 0.345829
8.985050 21.714018 0.426361
9.299772 21.714018 0.529171
9.614492 21.714018 0.621539
9.929214 21.714018 0.724016
10.243935 21.714018 0.833292
10.558655 21.714018 0.945791
10.873377 21.714018 1.065238
11.188097 21.714018 1.156326
11.502819 21.714018 1.241446
11.817539 21.714018 1.324004
12.132261 21.714018 1.390950
12.446981 21.714018 1.455684
12.761703 21.714018 1.491180
13.076424 21.714018 1.528949
13.391144 21.714018 1.566777
13.705866 21.714018 1.586082
14.020586 21.714018 1.612966
14.335308 21.714018 1.598879
14.650028 21.714018 1.555555
14.964750 21.714018 1.478112
15.279470 21.714018 1.428334
15.594193 21.714018 1.386106
15.908913 21.714018 0.245924
16.223633 21.714018 0.000000
16.538355 21.714018 0.000000
16.853075 21.714018 0.000000
17.167797 21.714018 0.000000
17.482517 21.714018 0.000000
17.797239 21.714018 0.000000
18.111959 21.714018 0.000000
18.426680 21.714018 0.000000
18.741402 21.714018 0.000000
-7.065720 21.399296 0.000000
-6.750999 21.399296 0.007105
-6.436278 21.399296 0.005149
-6.121557 21.399296 0.004886
-5.806836 21.399296 0.004886
-5.492115 21.399296 0.004924
-5.177394 21.399296 0.004923
-4.862673 21.399296 0.004962
-4.547952 21.399296 0.004983
-4.233231 21.399296 0.004954
-3.918510 21.399296 0.004955
-3.603789 21.399296 0.004992
-3.289068 21.399296 0.005006
-2.974347 21.399296 0.004947
-2.659626 21.399296 0.004903
-2.344905 21.399296 0.004910
-2.030184 21.399296 0.004851
-1.715463 21.399296 0.004815
-1.400742 21.399296 0.004953
-1.086021 21.399296 0.005037
-0.771300 21.399296 0.005145
-0.456579 21.399296 0.005325
-0.141859 21.399296 0.005511
0.172863 21.399296 0.005732
0.487584 21.399296 0.005963
0.802305 21.399296 0.006192
1.117026 21.399296 0.006458
1.431747 21.399296 0.006711
1.746467 21.399296 0.007084
2.061188 21.399296 0.007506
2.375909 21.399296 0.007976
2.690630 21.399296 0.008584
3.005352 21.399296 0.009522
3.320073 21.399296 0.010645
3.634794 21.399296 0.011911
3.949515 21.399296 0.013289
4.264236 21.399296 0.014997
4.578956 21.399296 0.017453
4.893677 21.399296 0.020608
5.208398 21.399296 0.024578
5.523119 21.399296 0.029847
5.837841 21.399296 0.036645
6.152562 21.399296 0.046316
6.467283 21.399296 0.058752
6.782003 21.399296 0.076225
7.096724 21.399296 0.099417
7.411445 21.399296 0.130196
7.726166 21.399296 0.169530
8.040888 21.399296 0.215903
8.355608 21.399296 0.274395
8.670330 21.399296 0.344013
8.985050 21.399296 0.430056
9.299772 21.399296 0.526584
9.614492 21.399296 0.623521
9.929214 21.399296 0.724885
10.243935 21.399296 0.844089
10.558655 21.399296 0.948519
10.873377 21.399296 1.058432
11.188097 21.399296 1.150331
11.502819 21.399296 1.245554
11.817539 21.399296 1.326405
12.132261 21.399296 1.392533
12.446981 21.399296 1.437539
12.761703 21.399296 1.482634
13.076424 21.399296 1.527557
13.391144 21.399296 1.569398
13.705866 21.399296 1.594949
14.020586 21.399296 1.606241
14.335308 21.399296 1.603051
14.650028 21.399296 1.543103
14.964750 21.399296 1.480488
15.279470 21.399296 1.431825
15.594193 21.399296 1.388252
15.908913 21.399296 0.217781
16.223633 21.399296 0.000000
16.538355 21.399296 0.000000
16.853075 21.399296 0.000000
17.167797 21.399296 0.000000
17.482517 21.399296 0.000000
17.797239 21.399296 0.000000
18.111959 21.399296 0.000000
18.426680 21.399296 0.000000
18.741402 21.399296 0.000000
-7.065720 21.084576 0.000000
-6.750999 21.084576 0.006995
-6.436278 21.084576 0.005079
-6.121557 21.084576 0.004863
-5.806836 21.084576 0.004876
-5.492115 21.084576 0.004942
-5.177394 21.084576 0.004910
-4.862673 21.084576 0.004905
-4.547952 21.084576 0.004921
-4.233231 21.084576 0.004885
-3.918510 21.084576 0.004928
-3.603789 21.084576 0.005029
-3.289068 21.084576 0.005029
-2.974347 21.084576 0.004951
-2.659626 21.084576 0.004907
-2.344905 21.084576 0.004891
-2.030184 21.084576 0.004848
-1.715463 21.084576 0.004823
-1.400742 21.084576 0.004932
-1.086021 21.084576 0.005036
-0.771300 21.084576 0.005162
-0.456579 21.084576 0.005344
-0.141859 21.084576 0.005493
0.172863 21.084576 0.005669
0.487584 21.084576 0.005889
0.802305 21.084576 0.006125
1.117026 21.084576 0.006386
1.431747 21.084576 0.006654
1.746467 21.084576 0.007004
2.061188 21.084576 0.007396
2.375909 21.084576 0.007880
2.690630 21.084576 0.008516
3.005352 21.084576 0.009392
3.320073 21.084576 0.010516
3.634794 21.084576 0.011867
3.949515 21.084576 0.013295
4.264236 21.084576 0.015028
4.578956 21.084576 0.017394
4.893677 21.084576 0.020546
5.208398 21.084576 0.024632
5.523119 21.084576 0.029866
5.837841 21.084576 0.036799
6.152562 21.084576 0.046392
6.467283 21.084576 0.059144
6.782003 21.084576 0.076689
7.096724 21.084576 0.099596
7.411445 21.084576 0.131397
7.726166 21.084576 0.170755
8.040888 21.084576 0.217249
8.355608 21.084576 0.275466
8.670330 21.084576 0.346590
8.985050 21.084576 0.430553
9.299772 21.084576 0.529025
9.614492 21.084576 0.627576
9.929214 21.084576 0.728772
10.243935 21.084576 0.846003
10.558655 21.084576 0.960981
10.873377 21.084576 1.062878
11.188097 21.084576 1.160523
11.502819 21.084576 1.250675
11.817539 21.084576 1.329420
12.132261 21.084576 1.385470
12.446981 21.084576 1.439248
12.761703 21.084576 1.483137
13.076424 21.084576 1.538322
13.391144 21.084576 1.572362
13.705866 21.084576 1.607226
14.020586 21.084576 1.612135
14.335308 21.084576 1.608675
14.650028 21.084576 1.538474
14.964750 21.084576 1.486158
15.279470 21.084576 1.433510
15.594193 21.084576 1.392276
15.908913 21.084576 0.195626
16.223633 21.084576 0.000000
16.538355 21.084576 0.000000
16.853075 21.084576 0.000000
17.167797 21.084576 0.000000
17.482517 21.084576 0.000000
17.797239 21.084576 0.000000
18.111959 21.084576 0.000000
18.426680 21.084576 0.000000
18.741402 21.084576 0.000000
-7.065720 20.769855 0.000000
-6.750999 20.769855 0.006810
-6.436278 20.769855 0.005025
-6.121557 20.769855 0.004861
-5.806836 20.769855 0.004924
-5.492115 20.769855 0.004982
-5.177394 20.769855 0.004909
-4.862673 20.769855 0.004860
-4.547952 20.769855 0.004846
-4.233231 20.769855 0.004823
-3.918510 20.769855 0.004893
-3.603789 20.769855 0.005012
-3.289068 20.769855 0.004987
-2.974347 20.769855 0.004906
-2.659626 20.769855 0.004873
-2.344905 20.769855 0.004911
-2.030184 20.769855 0.004873
-1.715463 20.769855 0.004871
-1.400742 20.769855 0.004933
-1.086021 20.769855 0.005015
-0.771300 20.769855 0.005172
-0.456579 20.769855 0.005336
-0.141859 20.769855 0.005476
0.172863 20.769855 0.005601
0.487584 20.769855 0.005819
0.802305 20.769855 0.006058
1.117026 20.769855 0.006320
1.431747 20.769855 0.006601
1.746467 20.769855 0.006960
2.061188 20.769855 0.007342
2.375909 20.769855 0.007841
2.690630 20.769855 0.008493
3.005352 20.769855 0.009294
3.320073 20.769855 0.010424
3.634794 20.769855 0.011819
3.949515 20.769855 0.013322
4.264236 20.769855 0.015081
4.578956 20.769855 0.017425
4.893677 20.769855 0.020571
5.208398 20.769855 0.024725
5.523119 20.769855 0.029731
5.837841 20.769855 0.036792
6.152562 20.769855 0.046305
6.467283 20.769855 0.059726
6.782003 20.769855 0.077406
7.096724 20.769855 0.100976
7.411445 20.769855 0.134319
7.726166 20.769855 0.172210
8.040888 20.769855 0.220327
8.355608 20.769855 0.280154
8.670330 20.769855 0.351513
8.985050 20.769855 0.434590
9.299772 20.769855 0.531855
9.614492 20.769855 0.640076
9.929214 20.769855 0.745824
10.243935 20.769855 0.848061
10.558655 20.769855 0.961027
10.873377 20.769855 1.070190
11.188097 20.769855 1.153738
11.502819 20.769855 1.238731
11.817539 20.769855 1.319200
12.132261 20.769855 1.387903
12.446981 20.769855 1.437574
12.761703 20.769855 1.490768
13.076424 20.769855 1.544273
13.391144 20.769855 1.583851
13.705866 20.769855 1.622248
14.020586 20.769855 1.625068
14.335308 20.769855 1.607064
14.650028 20.769855 1.551126
14.964750 20.769855 1.490129
15.279470 20.769855 1.443670
15.594193 20.769855 1.393692
15.908913 20.769855 0.000000
16.223633 20.769855 0.000000
16.538355 20.769855 0.000000
16.853075 20.769855 0.000000
17.167797 20.769855 0.000000
17.482517 20.769855 0.000000
17.797239 20.769855 0.000000
18.111959 20.769855 0.000000
18.426680 20.769855 0.000000
18.741402 20.769855 0.000000
-7.065720 20.455133 0.000000
-6.750999 20.455133 0.006664
-6.436278 20.455133 0.005009
-6.121557 20.455133 0.004892
-5.806836 20.455133 0.004952
-5.492115 20.455133 0.005018
-5.177394 20.455133 0.004948
-4.862673 20.455133 0.004859
-4.547952 20.455133 0.004808
-4.233231 20.455133 0.004800
-3.918510 20.455133 0.004842
-3.603789 20.455133 0.004942
-3.289068 20.455133 0.004922
-2.974347 20.455133 0.004849
-2.659626 20.455133 0.004837
-2.344905 20.455133 0.004897
-2.030184 20.455133 0.004903
-1.715463 20.455133 0.004889
-1.400742 20.455133 0.004949
-1.086021 20.455133 0.005000
-0.771300 20.455133 0.005171
-0.456579 20.455133 0.005329
-0.141859 20.455133 0.005434
0.172863 20.455133 0.005535
0.487584 20.455133 0.005749
0.802305 20.455133 0.006015
1.117026 20.455133 0.006268
1.431747 20.455133 0.006559
1.746467 20.455133 0.006925
2.061188 20.455133 0.007299
2.375909 20.455133 0.007824
2.690630 20.455133 0.008476
3.005352 20.455133 0.009259
3.320073 20.455133 0.010389
3.634794 20.455133 0.011804
3.949515 20.455133 0.013397
4.264236 20.455133 0.015228
4.578956 20.455133 0.017543
4.893677 20.455133 0.020621
5.208398 20.455133 0.024682
5.523119 20.455133 0.029763
5.837841 20.455133 0.037099
6.152562 20.455133 0.046856
6.467283 20.455133 0.059959
6.782003 20.455133 0.077419
7.096724 20.455133 0.102783
7.411445 20.455133 0.134291
7.726166 20.455133 0.173150
8.040888 20.455133 0.224886
8.355608 20.455133 0.281527
8.670330 20.455133 0.353041
8.985050 20.455133 0.430373
9.299772 20.455133 0.529321
9.614492 20.455133 0.637495
9.929214 20.455133 0.744199
10.243935 20.455133 0.853103
10.558655 20.455133 0.961275
10.873377 20.455133 1.072006
11.188097 20.455133 1.156799
11.502819 20.455133 1.239502
11.817539 20.455133 1.317806
12.132261 20.455133 1.382043
12.446981 20.455133 1.440534
12.761703 20.455133 1.492756
13.076424 20.455133 1.549163
13.391144 20.455133 1.583978
13.705866 20.455133 1.624022
14.020586 20.455133 1.639579
14.335308 20.455133 1.620300
14.650028 20.455133 1.559130
14.964750 20.455133 1.488282
15.279470 20.455133 1.450851
15.594193 20.455133 1.402838
15.908913 20.455133 0.000000
16.223633 20.455133 0.000000
16.538355 20.455133 0.000000
16.853075 20.455133 0.000000
17.167797 20.455133 0.000000
17.482517 20.455133 0.000000
17.797239 20.455133 0.000000
18.111959 20.455133 0.000000
18.426680 20.455133 0.000000
18.741402 20.455133 0.000000
-7.065720 20.140413 0.000000
-6.750999 20.140413 0.006593
-6.436278 20.140413 0.005019
-6.121557 20.140413 0.004945
-5.806836 20.140413 0.004975
-5.492115 20.140413 0.005019
-5.177394 20.140413 0.004975
-4.862673 20.140413 0.004894
-4.547952 20.140413 0.004827
-4.233231 20.140413 0.004779
-3.918510 20.140413 0.004783
-3.603789 20.140413 0.004852
-3.289068 20.140413 0.004844
-2.974347 20.140413 0.004817
-2.659626 20.140413 0.004831
-2.344905 20.140413 0.004880
-2.030184 20.140413 0.004890
-1.715463 20.140413 0.004872
-1.400742 20.140413 0.004940
-1.086021 20.140413 0.005019
-0.771300 20.140413 0.005150
-0.456579 20.140413 0.005303
-0.141859 20.140413 0.005390
0.172863 20.140413 0.005454
0.487584 20.140413 0.005668
0.802305 20.140413 0.005993
1.117026 20.140413 0.006232
1.431747 20.140413 0.006522
1.746467 20.140413 0.006898
2.061188 20.140413 0.007287
2.375909 20.140413 0.007831
2.690630 20.140413 0.008482
3.005352 20.140413 0.009251
3.320073 20.140413 0.010363
3.634794 20.140413 0.011724
3.949515 20.140413 0.013381
4.264236 20.140413 0.015310
4.578956 20.140413 0.017720
4.893677 20.140413 0.020660
5.208398 20.140413 0.024729
5.523119 20.140413 0.029970
5.837841 20.140413 0.037337
6.152562 20.140413 0.047087
6.467283 20.140413 0.060850
6.782003 20.140413 0.078667
7.096724 20.140413 0.103484
7.411445 20.140413 0.134435
7.726166 20.140413 0.174599
8.040888 20.140413 0.224526
8.355608 20.140413 0.284299
8.670330 20.140413 0.353366
8.985050 20.140413 0.432508
9.299772 20.140413 0.523233
9.614492 20.140413 0.633946
9.929214 20.140413 0.737618
10.243935 20.140413 0.854204
10.558655 20.140413 0.969122
10.873377 20.140413 1.089131
11.188097 20.140413 1.168312
11.502819 20.140413 1.238540
11.817539 20.140413 1.320825
12.132261 20.140413 1.388624
12.446981 20.140413 1.448853
12.761703 20.140413 1.497931
13.076424 20.140413 1.545083
13.391144 20.140413 1.581272
13.705866 20.140413 1.627836
14.020586 20.140413 1.649370
14.335308 20.140413 1.627066
14.650028 20.140413 1.575402
14.964750 20.140413 1.507144
15.279470 20.140413 1.463294
15.594193 20.140413 1.416183
15.908913 20.140413 0.000000
16.223633 20.140413 0.000000
16.538355 20.140413 0.000000
16.853075 20.140413 0.000000
17.167797 20.140413 0.000000
17.482517 20.140413 0.000000
17.797239 20.140413 0.000000
18.111959 20.140413 0.000000
18.426680 20.140413 0.000000
18.741402 20.140413 0.000000
-7.065720 19.825691 0.000000
-6.750999 19.825691 0.006561
-6.436278 19.825691 0.005046
-6.121557 19.825691 0.004975
-5.806836 19.825691 0.004979
-5.492115 19.825691 0.004952
-5.177394 19.825691 0.004956
-4.862673 19.825691 0.004946
-4.547952 19.825691 0.004874
-4.233231 19.825691 0.004788
-3.918510 19.825691 0.004716
-3.603789 19.825691 0.004755
-3.289068 19.825691 0.004778
-2.974347 19.825691 0.004805
-2.659626 19.825691 0.004809
-2.344905 19.825691 0.004819
-2.030184 19.825691 0.004849
-1.715463 19.825691 0.004848
-1.400742 19.825691 0.004942
-1.086021 19.825691 0.005022
-0.771300 19.825691 0.005126
-0.456579 19.825691 0.005250
-0.141859 19.825691 0.005342
0.172863 19.825691 0.005391
0.487584 19.825691 0.005611
0.802305 19.825691 0.005974
1.117026 19.825691 0.006204
1.431747 19.825691 0.006506
1.746467 19.825691 0.006870
2.061188 19.825691 0.007269
2.375909 19.825691 0.007831
2.690630 19.825691 0.008505
3.005352 19.825691 0.009301
3.320073 19.825691 0.010359
3.634794 19.825691 0.011693
3.949515 19.825691 0.013384
4.264236 19.825691 0.015354
4.578956 19.825691 0.017722
4.893677 19.825691 0.020749
5.208398 19.825691 0.024771
5.523119 19.825691 0.030086
5.837841 19.825691 0.037542
6.152562 19.825691 0.047554
6.467283 19.825691 0.060987
6.782003 19.825691 0.079295
7.096724 19.825691 0.103692
7.411445 19.825691 0.132814
7.726166 19.825691 0.173553
8.040888 19.825691 0.226196
8.355608 19.825691 0.285154
8.670330 19.825691 0.353411
8.985050 19.825691 0.438141
9.299772 19.825691 0.526261
9.614492 19.825691 0.630939
9.929214 19.825691 0.739909
10.243935 19.825691 0.852133
10.558655 19.825691 0.976527
10.873377 19.825691 1.098556
11.188097 19.825691 1.184888
11.502819 19.825691 1.253532
11.817539 19.825691 1.337288
12.132261 19.825691 1.402829
12.446981 19.825691 1.455221
12.761703 19.825691 1.507838
13.076424 19.825691 1.542314
13.391144 19.825691 1.581939
13.705866 19.825691 1.624396
14.020586 19.825691 1.641213
14.335308 19.825691 1.627196
14.650028 19.825691 1.587585
14.964750 19.825691 1.535721
15.279470 19.825691 1.475910
15.594193 19.825691 1.410731
15.908913 19.825691 0.000000
16.223633 19.825691 0.000000
16.538355 19.825691 0.000000
16.853075 19.825691 0.000000
17.167797 19.825691 0.000000
17.482517 19.825691 0.000000
17.797239 19.825691 0.000000
18.111959 19.825691 0.000000
18.426680 19.825691 0.000000
18.741402 19.825691 0.000000
-7.065720 19.510971 0.000000
-6.750999 19.510971 0.006531
-6.436278 19.510971 0.005044
-6.121557 19.510971 0.004952
-5.806836 19.510971 0.004945
-5.492115 19.510971 0.004912
-5.177394 19.510971 0.004928
-4.862673 19.510971 0.004949
-4.547952 19.510971 0.004914
-4.233231 19.510971 0.004777
-3.918510 19.510971 0.004651
-3.603789 19.510971 0.004681
-3.289068 19.510971 0.004710
-2.974347 19.510971 0.004792
-2.659626 19.510971 0.004762
-2.344905 19.510971 0.004739
-2.030184 19.510971 0.004793
-1.715463 19.510971 0.004809
-1.400742 19.510971 0.004941
-1.086021 19.510971 0.005017
-0.771300 19.510971 0.005048
-0.456579 19.510971 0.005175
-0.141859 19.510971 0.005313
0.172863 19.510971 0.005375
0.487584 19.510971 0.005615
0.802305 19.510971 0.005922
1.117026 19.510971 0.006171
1.431747 19.510971 0.006504
1.746467 19.510971 0.006856
2.061188 19.510971 0.007232
2.375909 19.510971 0.007820
2.690630 19.510971 0.008547
3.005352 19.510971 0.009353
3.320073 19.510971 0.010340
3.634794 19.510971 0.011658
3.949515 19.510971 0.013316
4.264236 19.510971 0.015355
4.578956 19.510971 0.017869
4.893677 19.510971 0.020855
5.208398 19.510971 0.024812
5.523119 19.510971 0.030191
5.837841 19.510971 0.037772
6.152562 19.510971 0.047977
6.467283 19.510971 0.061650
6.782003 19.510971 0.079747
7.096724 19.510971 0.103239
7.411445 19.510971 0.134107
7.726166 19.510971 0.175908
8.040888 19.510971 0.226382
8.355608 19.510971 0.284906
8.670330 19.510971 0.355565
8.985050 19.510971 0.438830
9.299772 19.510971 0.530900
9.614492 19.510971 0.639076
9.929214 19.510971 0.745076
10.243935 19.510971 0.852130
10.558655 19.510971 0.979686
10.873377 19.510971 1.092383
11.188097 19.510971 1.183826
11.502819 19.510971 1.268195
11.817539 19.510971 1.353173
12.132261 19.510971 1.416663
12.446981 19.510971 1.461632
12.761703 19.510971 1.505857
13.076424 19.510971 1.552250
13.391144 19.510971 1.602701
13.705866 19.510971 1.631952
14.020586 19.510971 1.637868
14.335308 19.510971 1.625609
14.650028 19.510971 1.594598
14.964750 19.510971 1.538476
15.279470 19.510971 1.464596
15.594193 19.510971 1.411776
15.908913 19.510971 0.000000
16.223633 19.510971 0.000000
16.538355 19.510971 0.000000
16.853075 19.510971 0.000000
17.167797 19.510971 0.000000
17.482517 19.510971 0.000000
17.797239 19.510971 0.000000
18.111959 19.510971 0.000000
18.426680 19.510971 0.000000
18.741402 19.510971 0.000000
-7.065720 19.196249 0.000000
-6.750999 19.196249 0.006528
-6.436278 19.196249 0.005024
-6.121557 19.196249 0.004918
-5.806836 19.196249 0.004922
-5.492115 19.196249 0.004911
-5.177394 19.196249 0.004885
-4.862673 19.196249 0.004903
-4.547952 19.196249 0.004881
-4.233231 19.196249 0.004720
-3.918510 19.196249 0.004622
-3.603789 19.196249 0.004656
-3.289068 19.196249 0.004677
-2.974347 19.196249 0.004725
-2.659626 19.196249 0.004680
-2.344905 19.196249 0.004659
-2.030184 19.196249 0.004743
-1.715463 19.196249 0.004799
-1.400742 19.196249 0.004933
-1.086021 19.196249 0.004983
-0.771300 19.196249 0.004972
-0.456579 19.196249 0.005096
-0.141859 19.196249 0.005243
0.172863 19.196249 0.005370
0.487584 19.196249 0.005597
0.802305 19.196249 0.005856
1.117026 19.196249 0.006119
1.431747 19.196249 0.006505
1.746467 19.196249 0.006840
2.061188 19.196249 0.007199
2.375909 19.196249 0.007790
2.690630 19.196249 0.008564
3.005352 19.196249 0.009366
3.320073 19.196249 0.010296
3.634794 19.196249 0.011590
3.949515 19.196249 0.013250
4.264236 19.196249 0.015245
4.578956 19.196249 0.017808
4.893677 19.196249 0.020902
5.208398 19.196249 0.024805
5.523119 19.196249 0.030186
5.837841 19.196249 0.037755
6.152562 19.196249 0.047747
6.467283 19.196249 0.061340
6.782003 19.196249 0.079579
7.096724 19.196249 0.102408
7.411445 19.196249 0.135606
7.726166 19.196249 0.176157
8.040888 19.196249 0.228966
8.355608 19.196249 0.288007
8.670330 19.196249 0.359886
8.985050 19.196249 0.442487
9.299772 19.196249 0.536197
9.614492 19.196249 0.647472
9.929214 19.196249 0.750905
10.243935 19.196249 0.858068
10.558655 19.196249 0.980000
10.873377 19.196249 1.089943
11.188097 19.196249 1.186133
11.502819 19.196249 1.282070
11.817539 19.196249 1.348870
12.132261 19.196249 1.416419
12.446981 19.196249 1.457194
12.761703 19.196249 1.517419
13.076424 19.196249 1.565725
13.391144 19.196249 1.603444
13.705866 19.196249 1.636633
14.020586 19.196249 1.631087
14.335308 19.196249 1.619011
14.650028 19.196249 1.579235
14.964750 19.196249 1.524215
15.279470 19.196249 1.459615
15.594193 19.196249 1.412957
15.908913 19.196249 0.000000
16.223633 19.196249 0.000000
16.538355 19.196249 0.000000
16.853075 19.196249 0.000000
17.167797 19.196249 0.000000
17.482517 19.196249 0.000000
17.797239 19.196249 0.000000
18.111959 19.196249 0.000000
18.426680 19.196249 0.000000
18.741402 19.196249 0.000000
-7.065720 18.881529 0.000000
-6.750999 18.881529 0.006515
-6.436278 18.881529 0.005014
-6.121557 18.881529 0.004914
-5.806836 18.881529 0.004931
-5.492115 18.881529 0.004910
-5.177394 18.881529 0.004831
-4.862673 18.881529 0.004835
-4.547952 18.881529 0.004797
-4.233231 18.881529 0.004664
-3.918510 18.881529 0.004618
-3.603789 18.881529 0.004648
-3.289068 18.881529 0.004650
-2.974347 18.881529 0.004657
-2.659626 18.881529 0.004592
-2.344905 18.881529 0.004608
-2.030184 18.881529 0.004710
-1.715463 18.881529 0.004788
-1.400742 18.881529 0.004911
-1.086021 18.881529 0.004925
-0.771300 18.881529 0.004898
-0.456579 18.881529 0.005019
-0.141859 18.881529 0.005174
0.172863 18.881529 0.005341
0.487584 18.881529 0.005580
0.802305 18.881529 0.005815
1.117026 18.881529 0.006116
1.431747 18.881529 0.006496
1.746467 18.881529 0.006817
2.061188 18.881529 0.007168
2.375909 18.881529 0.007786
2.690630 18.881529 0.008566
3.005352 18.881529 0.009370
3.320073 18.881529 0.010267
3.634794 18.881529 0.011533
3.949515 18.881529 0.013185
4.264236 18.881529 0.015184
4.578956 18.881529 0.017734
4.893677 18.881529 0.020690
5.208398 18.881529 0.024598
5.523119 18.881529 0.030196
5.837841 18.881529 0.037867
6.152562 18.881529 0.048054
6.467283 18.881529 0.061727
6.782003 18.881529 0.078531
7.096724 18.881529 0.103485
7.411445 18.881529 0.137329
7.726166 18.881529 0.179836
8.040888 18.881529 0.232242
8.355608 18.881529 0.296254
8.670330 18.881529 0.367237
8.985050 18.881529 0.445416
9.299772 18.881529 0.540220
9.614492 18.881529 0.652823
9.929214 18.881529 0.756256
10.243935 18.881529 0.865746
10.558655 18.881529 0.978691
10.873377 18.881529 1.088311
11.188097 18.881529 1.187034
11.502819 18.881529 1.269576
11.817539 18.881529 1.348120
12.132261 18.881529 1.412601
12.446981 18.881529 1.455447
12.761703 18.881529 1.517896
13.076424 18.881529 1.564278
13.391144 18.881529 1.611385
13.705866 18.881529 1.631186
14.020586 18.881529 1.623968
14.335308 18.881529 1.610954
14.650028 18.881529 1.574313
14.964750 18.881529 1.517038
15.279470 18.881529 1.447633
15.594193 18.881529 1.407564
15.908913 18.881529 0.000000
16.223633 18.881529 0.000000
16.538355 18.881529 0.000000
16.853075 18.881529 0.000000
17.167797 18.881529 0.000000
17.482517 18.881529 0.000000
17.797239 18.881529 0.000000
18.111959 18.881529 0.000000
18.426680 18.881529 0.000000
18.741402 18.881529 0.000000
-7.065720 18.566807 0.000000
-6.750999 18.566807 0.006490
-6.436278 18.566807 0.005012
-6.121557 18.566807 0.004905
-5.806836 18.566807 0.004949
-5.492115 18.566807 0.004908
-5.177394 18.566807 0.004801
-4.862673 18.566807 0.004776
-4.547952 18.566807 0.004730
-4.233231 18.566807 0.004633
-3.918510 18.566807 0.004620
-3.603789 18.566807 0.004659
-3.289068 18.566807 0.004640
-2.974347 18.566807 0.004602
-2.659626 18.566807 0.004545
-2.344905 18.566807 0.004605
-2.030184 18.566807 0.004710
-1.715463 18.566807 0.004774
-1.400742 18.566807 0.004867
-1.086021 18.566807 0.004880
-0.771300 18.566807 0.004856
-0.456579 18.566807 0.004958
-0.141859 18.566807 0.005103
0.172863 18.566807 0.005318
0.487584 18.566807 0.005551
0.802305 18.566807 0.005788
1.117026 18.566807 0.006089
1.431747 18.566807 0.006440
1.746467 18.566807 0.006777
2.061188 18.566807 0.007176
2.375909 18.566807 0.007801
2.690630 18.566807 0.008546
3.005352 18.566807 0.009326
3.320073 18.566807 0.010242
3.634794 18.566807 0.011481
3.949515 18.566807 0.013098
4.264236 18.566807 0.015064
4.578956 18.566807 0.017573
4.893677 18.566807 0.020484
5.208398 18.566807 0.024426
5.523119 18.566807 0.030340
5.837841 18.566807 0.038099
6.152562 18.566807 0.048522
6.467283 18.566807 0.062224
6.782003 18.566807 0.080528
7.096724 18.566807 0.105237
7.411445 18.566807 0.138501
7.726166 18.566807 0.181681
8.040888 18.566807 0.233564
8.355608 18.566807 0.293739
8.670330 18.566807 0.369500
8.985050 18.566807 0.449347
9.299772 18.566807 0.541847
9.614492 18.566807 0.651485
9.929214 18.566807 0.764508
10.243935 18.566807 0.878136
10.558655 18.566807 0.985415
10.873377 18.566807 1.086248
11.188097 18.566807 1.188753
11.502819 18.566807 1.271392
11.817539 18.566807 1.339957
12.132261 18.566807 1.400059
12.446981 18.566807 1.457869
12.761703 18.566807 1.512632
13.076424 18.566807 1.555256
13.391144 18.566807 1.588128
13.705866 18.566807 1.607924
14.020586 18.566807 1.612645
14.335308 18.566807 1.607433
14.650028 18.566807 1.573145
14.964750 18.566807 1.515792
15.279470 18.566807 1.445641
15.594193 18.566807 1.382386
15.908913 18.566807 0.000000
16.223633 18.566807 0.000000
16.538355 18.566807 0.000000
16.853075 18.566807 0.000000
17.167797 18.566807 0.000000
17.482517 18.566807 0.000000
17.797239 18.566807 0.000000
18.111959 18.566807 0.000000
18.426680 18.566807 0.000000
18.741402 18.566807 0.000000
-7.065720 18.252087 0.000000
-6.750999 18.252087 0.006394
-6.436278 18.252087 0.004958
-6.121557 18.252087 0.004884
-5.806836 18.252087 0.004918
-5.492115 18.252087 0.004876
-5.177394 18.252087 0.004754
-4.862673 18.252087 0.004724
-4.547952 18.252087 0.004706
-4.233231 18.252087 0.004643
-3.918510 18.252087 0.004625
-3.603789 18.252087 0.004655
-3.289068 18.252087 0.004645
-2.974347 18.252087 0.004595
-2.659626 18.252087 0.004545
-2.344905 18.252087 0.004642
-2.030184 18.252087 0.004703
-1.715463 18.252087 0.004739
-1.400742 18.252087 0.004819
-1.086021 18.252087 0.004852
-0.771300 18.252087 0.004855
-0.456579 18.252087 0.004935
-0.141859 18.252087 0.005069
0.172863 18.252087 0.005290
0.487584 18.252087 0.005537
0.802305 18.252087 0.005760
1.117026 18.252087 0.006052
1.431747 18.252087 0.006377
1.746467 18.252087 0.006737
2.061188 18.252087 0.007168
2.375909 18.252087 0.007798
2.690630 18.252087 0.008505
3.005352 18.252087 0.009254
3.320073 18.252087 0.010242
3.634794 18.252087 0.011486
3.949515 18.252087 0.013004
4.264236 18.252087 0.015009
4.578956 18.252087 0.017407
4.893677 18.252087 0.020427
5.208398 18.252087 0.024499
5.523119 18.252087 0.030246
5.837841 18.252087 0.038192
6.152562 18.252087 0.048607
6.467283 18.252087 0.062243
6.782003 18.252087 0.081279
7.096724 18.252087 0.107196
7.411445 18.252087 0.139880
7.726166 18.252087 0.182252
8.040888 18.252087 0.232423
8.355608 18.252087 0.291579
8.670330 18.252087 0.364129
8.985050 18.252087 0.449630
9.299772 18.252087 0.545599
9.614492 18.252087 0.657774
9.929214 18.252087 0.767138
10.243935 18.252087 0.883367
10.558655 18.252087 0.988928
10.873377 18.252087 1.093768
11.188097 18.252087 1.183925
11.502819 18.252087 1.261911
11.817539 18.252087 1.324686
12.132261 18.252087 1.400105
12.446981 18.252087 1.459273
12.761703 18.252087 1.525600
13.076424 18.252087 1.570475
13.391144 18.252087 1.591324
13.705866 18.252087 1.602572
14.020586 18.252087 1.620109
14.335308 18.252087 1.605936
14.650028 18.252087 1.570851
14.964750 18.252087 1.521320
15.279470 18.252087 1.448462
15.594193 18.252087 1.388963
15.908913 18.252087 0.000000
16.223633 18.252087 0.000000
16.538355 18.252087 0.000000
16.853075 18.252087 0.000000
17.167797 18.252087 0.000000
17.482517 18.252087 0.000000
17.797239 18.252087 0.000000
18.111959 18.252087 0.000000
18.426680 18.252087 0.000000
18.741402 18.252087 0.000000
-7.065720 17.937366 0.000000
-6.750999 17.937366 0.006288
-6.436278 17.937366 0.004891
-6.121557 17.937366 0.004838
-5.806836 17.937366 0.004800
-5.492115 17.937366 0.004777
-5.177394 17.937366 0.004713
-4.862673 17.937366 0.004666
-4.547952 17.937366 0.004696
-4.233231 17.937366 0.004669
-3.918510 17.937366 0.004646
-3.603789 17.937366 0.004657
-3.289068 17.937366 0.004654
-2.974347 17.937366 0.004649
-2.659626 17.937366 0.004604
-2.344905 17.937366 0.004646
-2.030184 17.937366 0.004686
-1.715463 17.937366 0.004696
-1.400742 17.937366 0.004787
-1.086021 17.937366 0.004842
-0.771300 17.937366 0.004863
-0.456579 17.937366 0.004941
-0.141859 17.937366 0.005058
0.172863 17.937366 0.005234
0.487584 17.937366 0.005470
0.802305 17.937366 0.005731
1.117026 17.937366 0.006018
1.431747 17.937366 0.006312
1.746467 17.937366 0.006701
2.061188 17.937366 0.007134
2.375909 17.937366 0.007737
2.690630 17.937366 0.008433
3.005352 17.937366 0.009225
3.320073 17.937366 0.010216
3.634794 17.937366 0.011445
3.949515 17.937366 0.012944
4.264236 17.937366 0.014861
4.578956 17.937366 0.017302
4.893677 17.937366 0.020430
5.208398 17.937366 0.024734
5.523119 17.937366 0.030498
5.837841 17.937366 0.038364
6.152562 17.937366 0.049105
6.467283 17.937366 0.062220
6.782003 17.937366 0.082347
7.096724 17.937366 0.106330
7.411445 17.937366 0.139888
7.726166 17.937366 0.180979
8.040888 17.937366 0.230733
8.355608 17.937366 0.293309
8.670330 17.937366 0.366064
8.985050 17.937366 0.450414
9.299772 17.937366 0.546705
9.614492 17.937366 0.656887
9.929214 17.937366 0.769885
10.243935 17.937366 0.884530
10.558655 17.937366 0.988607
10.873377 17.937366 1.091680
11.188097 17.937366 1.186220
11.502819 17.937366 1.259062
11.817539 17.937366 1.327426
12.132261 17.937366 1.399383
12.446981 17.937366 1.465937
12.761703 17.937366 1.541212
13.076424 17.937366 1.589468
13.391144 17.937366 1.603097
13.705866 17.937366 1.611460
14.020586 17.937366 1.619336
14.335308 17.937366 1.601506
14.650028 17.937366 1.566981
14.964750 17.937366 1.518326
15.279470 17.937366 1.466859
15.594193 17.937366 1.408535
15.908913 17.937366 0.000000
16.223633 17.937366 0.000000
16.538355 17.937366 0.000000
16.853075 17.937366 0.000000
17.167797 17.937366 0.000000
17.482517 17.937366 0.000000
17.797239 17.937366 0.000000
18.111959 17.937366 0.000000
18.426680 17.937366 0.000000
18.741402 17.937366 0.000000
-7.065720 17.622644 0.000000
-6.750999 17.622644 0.006210
-6.436278 17.622644 0.004839
-6.121557 17.622644 0.004787
-5.806836 17.622644 0.004690
-5.492115 17.622644 0.004690
-5.177394 17.622644 0.004682
-4.862673 17.622644 0.004658
-4.547952 17.622644 0.004716
-4.233231 17.622644 0.004708
-3.918510 17.622644 0.004654
-3.603789 17.622644 0.004668
-3.289068 17.622644 0.004690
-2.974347 17.622644 0.004717
-2.659626 17.622644 0.004655
-2.344905 17.622644 0.004650
-2.030184 17.622644 0.004667
-1.715463 17.622644 0.004656
-1.400742 17.622644 0.004767
-1.086021 17.622644 0.004835
-0.771300 17.622644 0.004859
-0.456579 17.622644 0.004955
-0.141859 17.622644 0.005060
0.172863 17.622644 0.005191
0.487584 17.622644 0.005410
0.802305 17.622644 0.005680
1.117026 17.622644 0.005960
1.431747 17.622644 0.006261
1.746467 17.622644 0.006640
2.061188 17.622644 0.007067
2.375909 17.622644 0.007668
2.690630 17.622644 0.008371
3.005352 17.622644 0.009196
3.320073 17.622644 0.010244
3.634794 17.622644 0.011443
3.949515 17.622644 0.012884
4.264236 17.622644 0.014807
4.578956 17.622644 0.017259
4.893677 17.622644 0.020454
5.208398 17.622644 0.024806
5.523119 17.622644 0.030564
5.837841 17.622644 0.038018
6.152562 17.622644 0.049100
6.467283 17.622644 0.062571
6.782003 17.622644 0.082018
7.096724 17.622644 0.106772
7.411445 17.622644 0.139047
7.726166 17.622644 0.181776
8.040888 17.622644 0.233647
8.355608 17.622644 0.296638
8.670330 17.622644 0.371385
8.985050 17.622644 0.452164
9.299772 17.622644 0.552242
9.614492 17.622644 0.657777
9.929214 17.622644 0.770344
10.243935 17.622644 0.874110
10.558655 17.622644 0.984159
10.873377 17.622644 1.092073
11.188097 17.622644 1.181926
11.502819 17.622644 1.260929
11.817539 17.622644 1.333479
12.132261 17.622644 1.405716
12.446981 17.622644 1.475294
12.761703 17.622644 1.546431
13.076424 17.622644 1.585282
13.391144 17.622644 1.605292
13.705866 17.622644 1.611540
14.020586 17.622644 1.614583
14.335308 17.622644 1.594138
14.650028 17.622644 1.555369
14.964750 17.622644 1.512358
15.279470 17.622644 1.469368
15.594193 17.622644 1.428201
15.908913 17.622644 0.000000
16.223633 17.622644 0.000000
16.538355 17.622644 0.000000
16.853075 17.622644 0.000000
17.167797 17.622644 0.000000
17.482517 17.622644 0.000000
17.797239 17.622644 0.000000
18.111959 17.622644 0.000000
18.426680 17.622644 0.000000
18.741402 17.622644 0.000000
-7.065720 17.307924 0.000000
-6.750999 17.307924 0.006157
-6.436278 17.307924 0.004784
-6.121557 17.307924 0.004757
-5.806836 17.307924 0.004663
-5.492115 17.307924 0.004637
-5.177394 17.307924 0.004657
-4.862673 17.307924 0.004701
-4.547952 17.307924 0.004753
-4.233231 17.307924 0.004727
-3.918510 17.307924 0.004665
-3.603789 17.307924 0.004679
-3.289068 17.307924 0.004696
-2.974347 17.307924 0.004739
-2.659626 17.307924 0.004676
-2.344905 17.307924 0.004648
-2.030184 17.307924 0.004617
-1.715463 17.307924 0.004614
-1.400742 17.307924 0.004761
-1.086021 17.307924 0.004801
-0.771300 17.307924 0.004833
-0.456579 17.307924 0.004922
-0.141859 17.307924 0.005047
0.172863 17.307924 0.005181
0.487584 17.307924 0.005403
0.802305 17.307924 0.005620
1.117026 17.307924 0.005891
1.431747 17.307924 0.006188
1.746467 17.307924 0.006569
2.061188 17.307924 0.007019
2.375909 17.307924 0.007633
2.690630 17.307924 0.008313
3.005352 17.307924 0.009171
3.320073 17.307924 0.010257
3.634794 17.307924 0.011463
3.949515 17.307924 0.012846
4.264236 17.307924 0.014732
4.578956 17.307924 0.017254
4.893677 17.307924 0.020681
5.208398 17.307924 0.024971
5.523119 17.307924 0.030577
5.837841 17.307924 0.038155
6.152562 17.307924 0.048733
6.467283 17.307924 0.062867
6.782003 17.307924 0.082490
7.096724 17.307924 0.107385
7.411445 17.307924 0.141356
7.726166 17.307924 0.184570
8.040888 17.307924 0.236624
8.355608 17.307924 0.305642
8.670330 17.307924 0.380468
8.985050 17.307924 0.460390
9.299772 17.307924 0.558629
9.614492 17.307924 0.664113
9.929214 17.307924 0.774063
10.243935 17.307924 0.881115
10.558655 17.307924 0.995648
10.873377 17.307924 1.090324
11.188097 17.307924 1.185265
11.502819 17.307924 1.266418
11.817539 17.307924 1.346978
12.132261 17.307924 1.425290
12.446981 17.307924 1.484891
12.761703 17.307924 1.538232
13.076424 17.307924 1.576242
13.391144 17.307924 1.604233
13.705866 17.307924 1.606696
14.020586 17.307924 1.605937
14.335308 17.307924 1.588446
14.650028 17.307924 1.560889
14.964750 17.307924 1.522403
15.279470 17.307924 1.470312
15.594193 17.307924 1.431142
15.908913 17.307924 0.000000
16.223633 17.307924 0.000000
16.538355 17.307924 0.000000
16.853075 17.307924 0.000000
17.167797 17.307924 0.000000
17.482517 17.307924 0.000000
17.797239 17.307924 0.000000
18.111959 17.307924 0.000000
18.426680 17.307924 0.000000
18.741402 17.307924 0.000000
-7.065720 16.993202 0.000000
-6.750999 16.993202 0.006101
-6.436278 16.993202 0.004761
-6.121557 16.993202 0.004741
-5.806836 16.993202 0.004678
-5.492115 16.993202 0.004647
-5.177394 16.993202 0.004682
-4.862673 16.993202 0.004744
-4.547952 16.993202 0.004761
-4.233231 16.993202 0.004689
-3.918510 16.993202 0.004663
-3.603789 16.993202 0.004686
-3.289068 16.993202 0.004714
-2.974347 16.993202 0.004708
-2.659626 16.993202 0.004664
-2.344905 16.993202 0.004642
-2.030184 16.993202 0.004610
-1.715463 16.993202 0.004638
-1.400742 16.993202 0.004747
-1.086021 16.993202 0.004752
-0.771300 16.993202 0.004781
-0.456579 16.993202 0.004893
-0.141859 16.993202 0.005019
0.172863 16.993202 0.005171
0.487584 16.993202 0.005425
0.802305 16.993202 0.005624
1.117026 16.993202 0.005852
1.431747 16.993202 0.006135
1.746467 16.993202 0.006511
2.061188 16.993202 0.007030
2.375909 16.993202 0.007647
2.690630 16.993202 0.008283
3.005352 16.993202 0.009150
3.320073 16.993202 0.010260
3.634794 16.993202 0.011481
3.949515 16.993202 0.012879
4.264236 16.993202 0.014695
4.578956 16.993202 0.017334
4.893677 16.993202 0.020755
5.208398 16.993202 0.024920
5.523119 16.993202 0.030428
5.837841 16.993202 0.038132
6.152562 16.993202 0.048954
6.467283 16.993202 0.062993
6.782003 16.993202 0.083033
7.096724 16.993202 0.109014
7.411445 16.993202 0.143938
7.726166 16.993202 0.188025
8.040888 16.993202 0.239786
8.355608 16.993202 0.303258
8.670330 16.993202 0.382675
8.985050 16.993202 0.463760
9.299772 16.993202 0.558973
9.614492 16.993202 0.670607
9.929214 16.993202 0.770938
10.243935 16.993202 0.889466
10.558655 16.993202 1.003909
10.873377 16.993202 1.102209
11.188097 16.993202 1.187441
11.502819 16.993202 1.275321
11.817539 16.993202 1.348647
12.132261 16.993202 1.429992
12.446981 16.993202 1.495592
12.761703 16.993202 1.542810
13.076424 16.993202 1.569831
13.391144 16.993202 1.602820
13.705866 16.993202 1.612395
14.020586 16.993202 1.603988
14.335308 16.993202 1.582611
14.650028 16.993202 1.561651
14.964750 16.993202 1.529527
15.279470 16.993202 1.479332
15.594193 16.993202 1.423176
15.908913 16.993202 0.000000
16.223633 16.993202 0.000000
16.538355 16.993202 0.000000
16.853075 16.993202 0.000000
17.167797 16.993202 0.000000
17.482517 16.993202 0.000000
17.797239 16.993202 0.000000
18.111959 16.993202 0.000000
18.426680 16.993202 0.000000
18.741402 16.993202 0.000000
-7.065720 16.678482 0.000000
-6.750999 16.678482 0.006138
-6.436278 16.678482 0.004791
-6.121557 16.678482 0.004758
-5.806836 16.678482 0.004709
-5.492115 16.678482 0.004688
-5.177394 16.678482 0.004713
-4.862673 16.678482 0.004749
-4.547952 16.678482 0.004741
-4.233231 16.678482 0.004658
-3.918510 16.678482 0.004641
-3.603789 16.678482 0.004656
-3.289068 16.678482 0.004671
-2.974347 16.678482 0.004660
-2.659626 16.678482 0.004631
-2.344905 16.678482 0.004657
-2.030184 16.678482 0.004624
-1.715463 16.678482 0.004659
-1.400742 16.678482 0.004746
-1.086021 16.678482 0.004732
-0.771300 16.678482 0.004779
-0.456579 16.678482 0.004915
-0.141859 16.678482 0.005004
0.172863 16.678482 0.005200
0.487584 16.678482 0.005484
0.802305 16.678482 0.005655
1.117026 16.678482 0.005846
1.431747 16.678482 0.006119
1.746467 16.678482 0.006511
2.061188 16.678482 0.007049
2.375909 16.678482 0.007630
2.690630 16.678482 0.008261
3.005352 16.678482 0.009168
3.320073 16.678482 0.010279
3.634794 16.678482 0.011466
3.949515 16.678482 0.012922
4.264236 16.678482 0.014833
4.578956 16.678482 0.017444
4.893677 16.678482 0.020867
5.208398 16.678482 0.024978
5.523119 16.678482 0.030818
5.837841 16.678482 0.038851
6.152562 16.678482 0.049652
6.467283 16.678482 0.064562
6.782003 16.678482 0.084716
7.096724 16.678482 0.111661
7.411445 16.678482 0.146261
7.726166 16.678482 0.189541
8.040888 16.678482 0.240245
8.355608 16.678482 0.302643
8.670330 16.678482 0.379946
8.985050 16.678482 0.462288
9.299772 16.678482 0.560218
9.614492 16.678482 0.665054
9.929214 16.678482 0.782411
10.243935 16.678482 0.899293
10.558655 16.678482 1.016152
10.873377 16.678482 1.105610
11.188097 16.678482 1.196722
11.502819 16.678482 1.278535
11.817539 16.678482 1.359025
12.132261 16.678482 1.434224
12.446981 16.678482 1.487395
12.761703 16.678482 1.529741
13.076424 16.678482 1.566675
13.391144 16.678482 1.604067
13.705866 16.678482 1.618229
14.020586 16.678482 1.601221
14.335308 16.678482 1.592391
14.650028 16.678482 1.573609
14.964750 16.678482 1.531090
15.279470 16.678482 1.495954
15.594193 16.678482 1.433488
15.908913 16.678482 0.000000
16.223633 16.678482 0.000000
16.538355 16.678482 0.000000
16.853075 16.678482 0.000000
17.167797 16.678482 0.000000
17.482517 16.678482 0.000000
17.797239 16.678482 0.000000
18.111959 16.678482 0.000000
18.426680 16.678482 0.000000
18.741402 16.678482 0.000000
-7.065720 16.363762 0.000000
-6.750999 16.363762 0.006209
-6.436278 16.363762 0.004846
-6.121557 16.363762 0.004799
-5.806836 16.363762 0.004773
-5.492115 16.363762 0.004747
-5.177394 16.363762 0.004735
-4.862673 16.363762 0.004730
-4.547952 16.363762 0.004709
-4.233231 16.363762 0.004636
-3.918510 16.363762 0.004586
-3.603789 16.363762 0.004563
-3.289068 16.363762 0.004593
-2.974347 16.363762 0.004605
-2.659626 16.363762 0.004578
-2.344905 16.363762 0.004600
-2.030184 16.363762 0.004599
-1.715463 16.363762 0.004675
-1.400742 16.363762 0.004720
-1.086021 16.363762 0.004732
-0.771300 16.363762 0.004812
-0.456579 16.363762 0.004907
-0.141859 16.363762 0.005001
0.172863 16.363762 0.005236
0.487584 16.363762 0.005522
0.802305 16.363762 0.005676
1.117026 16.363762 0.005859
1.431747 16.363762 0.006112
1.746467 16.363762 0.006537
2.061188 16.363762 0.007070
2.375909 16.363762 0.007601
2.690630 16.363762 0.008218
3.005352 16.363762 0.009143
3.320073 16.363762 0.010274
3.634794 16.363762 0.011489
3.949515 16.363762 0.013072
4.264236 16.363762 0.015048
4.578956 16.363762 0.017678
4.893677 16.363762 0.021116
5.208398 16.363762 0.025280
5.523119 16.363762 0.031199
5.837841 16.363762 0.039274
6.152562 16.363762 0.050116
6.467283 16.363762 0.065649
6.782003 16.363762 0.086632
7.096724 16.363762 0.113563
7.411445 16.363762 0.146860
7.726166 16.363762 0.187643
8.040888 16.363762 0.240397
8.355608 16.363762 0.306658
8.670330 16.363762 0.383902
8.985050 16.363762 0.465183
9.299772 16.363762 0.562577
9.614492 16.363762 0.667983
9.929214 16.363762 0.780435
10.243935 16.363762 0.903914
10.558655 16.363762 1.006794
10.873377 16.363762 1.104159
11.188097 16.363762 1.203915
11.502819 16.363762 1.289040
11.817539 16.363762 1.373594
12.132261 16.363762 1.437753
12.446981 16.363762 1.472238
12.761703 16.363762 1.529833
13.076424 16.363762 1.568477
13.391144 16.363762 1.611098
13.705866 16.363762 1.619563
14.020586 16.363762 1.607628
14.335308 16.363762 1.595903
14.650028 16.363762 1.582519
14.964750 16.363762 1.544876
15.279470 16.363762 1.495597
15.594193 16.363762 1.423436
15.908913 16.363762 0.000000
16.223633 16.363762 0.000000
16.538355 16.363762 0.000000
16.853075 16.363762 0.000000
17.167797 16.363762 0.000000
17.482517 16.363762 0.000000
17.797239 16.363762 0.000000
18.111959 16.363762 0.000000
18.426680 16.363762 0.000000
18.741402 16.363762 0.000000
-7.065720 16.049038 0.000000
-6.750999 16.049038 0.006262
-6.436278 16.049038 0.004902
-6.121557 16.049038 0.004859
-5.806836 16.049038 0.004851
-5.492115 16.049038 0.004820
-5.177394 16.049038 0.004752
-4.862673 16.049038 0.004689
-4.547952 16.049038 0.004683
-4.233231 16.049038 0.004587
-3.918510 16.049038 0.004500
-3.603789 16.049038 0.004476
-3.289068 16.049038 0.004526
-2.974347 16.049038 0.004571
-2.659626 16.049038 0.004538
-2.344905 16.049038 0.004549
-2.030184 16.049038 0.004563
-1.715463 16.049038 0.004648
-1.400742 16.049038 0.004706
-1.086021 16.049038 0.004735
-0.771300 16.049038 0.004836
-0.456579 16.049038 0.004888
-0.141859 16.049038 0.004989
0.172863 16.049038 0.005230
0.487584 16.049038 0.005521
0.802305 16.049038 0.005670
1.117026 16.049038 0.005879
1.431747 16.049038 0.006121
1.746467 16.049038 0.006554
2.061188 16.049038 0.007067
2.375909 16.049038 0.007546
2.690630 16.049038 0.008192
3.005352 16.049038 0.009127
3.320073 16.049038 0.010203
3.634794 16.049038 0.011461
3.949515 16.049038 0.013178
4.264236 16.049038 0.015212
4.578956 16.049038 0.017907
4.893677 16.049038 0.021221
5.208398 16.049038 0.025620
5.523119 16.049038 0.031621
5.837841 16.049038 0.039563
6.152562 16.049038 0.050487
6.467283 16.049038 0.065430
6.782003 16.049038 0.086253
7.096724 16.049038 0.112252
7.411445 16.049038 0.146977
7.726166 16.049038 0.190100
8.040888 16.049038 0.243102
8.355608 16.049038 0.308764
8.670330 16.049038 0.385999
8.985050 16.049038 0.469072
9.299772 16.049038 0.566918
9.614492 16.049038 0.675524
9.929214 16.049038 0.788735
10.243935 16.049038 0.901266
10.558655 16.049038 1.004617
10.873377 16.049038 1.105962
11.188097 16.049038 1.208061
11.502819 16.049038 1.292948
11.817539 16.049038 1.366076
12.132261 16.049038 1.437903
12.446981 16.049038 1.477698
12.761703 16.049038 1.541593
13.076424 16.049038 1.581415
13.391144 16.049038 1.600302
13.705866 16.049038 1.612644
14.020586 16.049038 1.608752
14.335308 16.049038 1.592848
14.650028 16.049038 1.572133
14.964750 16.049038 1.548001
15.279470 16.049038 1.500126
15.594193 16.049038 1.382646
15.908913 16.049038 0.000000
16.223633 16.049038 0.000000
16.538355 16.049038 0.000000
16.853075 16.049038 0.000000
17.167797 16.049038 0.000000
17.482517 16.049038 0.000000
17.797239 16.049038 0.000000
18.111959 16.049038 0.000000
18.426680 16.049038 0.000000
18.741402 16.049038 0.000000
-7.065720 15.734318 0.000000
-6.750999 15.734318 0.006273
-6.436278 15.734318 0.004927
-6.121557 15.734318 0.004870
-5.806836 15.734318 0.004864
-5.492115 15.734318 0.004838
-5.177394 15.734318 0.004744
-4.862673 15.734318 0.004670
-4.547952 15.734318 0.004662
-4.233231 15.734318 0.004530
-3.918510 15.734318 0.004424
-3.603789 15.734318 0.004437
-3.289068 15.734318 0.004527
-2.974347 15.734318 0.004592
-2.659626 15.734318 0.004523
-2.344905 15.734318 0.004508
-2.030184 15.734318 0.004549
-1.715463 15.734318 0.004637
-1.400742 15.734318 0.004702
-1.086021 15.734318 0.004703
-0.771300 15.734318 0.004800
-0.456579 15.734318 0.004864
-0.141859 15.734318 0.004962
0.172863 15.734318 0.005199
0.487584 15.734318 0.005475
0.802305 15.734318 0.005654
1.117026 15.734318 0.005869
1.431747 15.734318 0.006153
1.746467 15.734318 0.006576
2.061188 15.734318 0.007024
2.375909 15.734318 0.007504
2.690630 15.734318 0.008207
3.005352 15.734318 0.009117
3.320073 15.734318 0.010175
3.634794 15.734318 0.011494
3.949515 15.734318 0.013244
4.264236 15.734318 0.015321
4.578956 15.734318 0.017994
4.893677 15.734318 0.021303
5.208398 15.734318 0.025720
5.523119 15.734318 0.031695
5.837841 15.734318 0.039829
6.152562 15.734318 0.051095
6.467283 15.734318 0.066437
6.782003 15.734318 0.085750
7.096724 15.734318 0.110353
7.411445 15.734318 0.147792
7.726166 15.734318 0.192960
8.040888 15.734318 0.245682
8.355608 15.734318 0.311881
8.670330 15.734318 0.390364
8.985050 15.734318 0.476624
9.299772 15.734318 0.578477
9.614492 15.734318 0.674809
9.929214 15.734318 0.789620
10.243935 15.734318 0.912488
10.558655 15.734318 1.009896
10.873377 15.734318 1.110105
11.188097 15.734318 1.204522
11.502819 15.734318 1.294603
11.817539 15.734318 1.372578
12.132261 15.734318 1.436409
12.446981 15.734318 1.488239
12.761703 15.734318 1.529978
13.076424 15.734318 1.580148
13.391144 15.734318 1.605692
13.705866 15.734318 1.620455
14.020586 15.734318 1.608390
14.335308 15.734318 1.597835
14.650028 15.734318 1.590382
14.964750 15.734318 1.557339
15.279470 15.734318 1.500895
15.594193 15.734318 1.347096
15.908913 15.734318 0.000000
16.223633 15.734318 0.000000
16.538355 15.734318 0.000000
16.853075 15.734318 0.000000
17.167797 15.734318 0.000000
17.482517 15.734318 0.000000
17.797239 15.734318 0.000000
18.111959 15.734318 0.000000
18.426680 15.734318 0.000000
18.741402 15.734318 0.000000
-7.065720 15.419598 0.000000
-6.750999 15.419598 0.006256
-6.436278 15.419598 0.004919
-6.121557 15.419598 0.004828
-5.806836 15.419598 0.004838
-5.492115 15.419598 0.004802
-5.177394 15.419598 0.004728
-4.862673 15.419598 0.004690
-4.547952 15.419598 0.004619
-4.233231 15.419598 0.004467
-3.918510 15.419598 0.004397
-3.603789 15.419598 0.004448
-3.289068 15.419598 0.004528
-2.974347 15.419598 0.004592
-2.659626 15.419598 0.004526
-2.344905 15.419598 0.004512
-2.030184 15.419598 0.004549
-1.715463 15.419598 0.004606
-1.400742 15.419598 0.004649
-1.086021 15.419598 0.004655
-0.771300 15.419598 0.004728
-0.456579 15.419598 0.004831
-0.141859 15.419598 0.004972
0.172863 15.419598 0.005189
0.487584 15.419598 0.005428
0.802305 15.419598 0.005627
1.117026 15.419598 0.005855
1.431747 15.419598 0.006142
1.746467 15.419598 0.006564
2.061188 15.419598 0.006982
2.375909 15.419598 0.007473
2.690630 15.419598 0.008214
3.005352 15.419598 0.009106
3.320073 15.419598 0.010168
3.634794 15.419598 0.011595
3.949515 15.419598 0.013303
4.264236 15.419598 0.015441
4.578956 15.419598 0.018145
4.893677 15.419598 0.021382
5.208398 15.419598 0.025713
5.523119 15.419598 0.031813
5.837841 15.419598 0.039882
6.152562 15.419598 0.051279
6.467283 15.419598 0.066311
6.782003 15.419598 0.085462
7.096724 15.419598 0.112201
7.411445 15.419598 0.149464
7.726166 15.419598 0.195216
8.040888 15.419598 0.247822
8.355608 15.419598 0.316077
8.670330 15.419598 0.393171
8.985050 15.419598 0.477102
9.299772 15.419598 0.577152
9.614492 15.419598 0.684167
9.929214 15.419598 0.795277
10.243935 15.419598 0.916021
10.558655 15.419598 1.013669
10.873377 15.419598 1.121355
11.188097 15.419598 1.216742
11.502819 15.419598 1.307234
11.817539 15.419598 1.370233
12.132261 15.419598 1.434300
12.446981 15.419598 1.489559
12.761703 15.419598 1.522461
13.076424 15.419598 1.572678
13.391144 15.419598 1.594624
13.705866 15.419598 1.623964
14.020586 15.419598 1.609132
14.335308 15.419598 1.618253
14.650028 15.419598 1.599125
14.964750 15.419598 1.556927
15.279470 15.419598 1.494369
15.594193 15.419598 1.316015
15.908913 15.419598 0.000000
16.223633 15.419598 0.000000
16.538355 15.419598 0.000000
16.853075 15.419598 0.000000
17.167797 15.419598 0.000000
17.482517 15.419598 0.000000
17.797239 15.419598 0.000000
18.111959 15.419598 0.000000
18.426680 15.419598 0.000000
18.741402 15.419598 0.000000
-7.065720 15.104877 0.000000
-6.750999 15.104877 0.006159
-6.436278 15.104877 0.004880
-6.121557 15.104877 0.004786
-5.806836 15.104877 0.004760
-5.492115 15.104877 0.004739
-5.177394 15.104877 0.004697
-4.862673 15.104877 0.004661
-4.547952 15.104877 0.004565
-4.233231 15.104877 0.004436
-3.918510 15.104877 0.004412
-3.603789 15.104877 0.004458
-3.289068 15.104877 0.004509
-2.974347 15.104877 0.004553
-2.659626 15.104877 0.004536
-2.344905 15.104877 0.004552
-2.030184 15.104877 0.004576
-1.715463 15.104877 0.004593
-1.400742 15.104877 0.004596
-1.086021 15.104877 0.004602
-0.771300 15.104877 0.004703
-0.456579 15.104877 0.004837
-0.141859 15.104877 0.004993
0.172863 15.104877 0.005199
0.487584 15.104877 0.005405
0.802305 15.104877 0.005600
1.117026 15.104877 0.005836
1.431747 15.104877 0.006139
1.746467 15.104877 0.006560
2.061188 15.104877 0.006975
2.375909 15.104877 0.007491
2.690630 15.104877 0.008238
3.005352 15.104877 0.009075
3.320073 15.104877 0.010164
3.634794 15.104877 0.011663
3.949515 15.104877 0.013369
4.264236 15.104877 0.015465
4.578956 15.104877 0.018191
4.893677 15.104877 0.021432
5.208398 15.104877 0.025914
5.523119 15.104877 0.032077
5.837841 15.104877 0.040215
6.152562 15.104877 0.051292
6.467283 15.104877 0.066255
6.782003 15.104877 0.086642
7.096724 15.104877 0.114352
7.411445 15.104877 0.151332
7.726166 15.104877 0.198910
8.040888 15.104877 0.255530
8.355608 15.104877 0.318337
8.670330 15.104877 0.395356
8.985050 15.104877 0.483409
9.299772 15.104877 0.584134
9.614492 15.104877 0.694022
9.929214 15.104877 0.807689
10.243935 15.104877 0.912738
10.558655 15.104877 1.014209
10.873377 15.104877 1.118457
11.188097 15.104877 1.204898
11.502819 15.104877 1.300081
11.817539 15.104877 1.373305
12.132261 15.104877 1.437267
12.446981 15.104877 1.483725
12.761703 15.104877 1.526937
13.076424 15.104877 1.573898
13.391144 15.104877 1.598864
13.705866 15.104877 1.613093
14.020586 15.104877 1.623782
14.335308 15.104877 1.627607
14.650028 15.104877 1.603522
14.964750 15.104877 1.555536
15.279470 15.104877 1.473059
15.594193 15.104877 1.191841
15.908913 15.104877 0.000000
16.223633 15.104877 0.000000
16.538355 15.104877 0.000000
16.853075 15.104877 0.000000
17.167797 15.104877 0.000000
17.482517 15.104877 0.000000
17.797239 15.104877 0.000000
18.111959 15.104877 0.000000
18.426680 15.104877 0.000000
18.741402 15.104877 0.000000
-7.065720 14.790157 0.000000
-6.750999 14.790157 0.006069
-6.436278 14.790157 0.004838
-6.121557 14.790157 0.004756
-5.806836 14.790157 0.004695
-5.492115 14.790157 0.004664
-5.177394 14.790157 0.004648
-4.862673 14.790157 0.004589
-4.547952 14.790157 0.004515
-4.233231 14.790157 0.004440
-3.918510 14.790157 0.004440
-3.603789 14.790157 0.004457
-3.289068 14.790157 0.004496
-2.974347 14.790157 0.004541
-2.659626 14.790157 0.004563
-2.344905 14.790157 0.004580
-2.030184 14.790157 0.004590
-1.715463 14.790157 0.004602
-1.400742 14.790157 0.004584
-1.086021 14.790157 0.004617
-0.771300 14.790157 0.004742
-0.456579 14.790157 0.004911
-0.141859 14.790157 0.005030
0.172863 14.790157 0.005199
0.487584 14.790157 0.005382
0.802305 14.790157 0.005575
1.117026 14.790157 0.005814
1.431747 14.790157 0.006161
1.746467 14.790157 0.006573
2.061188 14.790157 0.007009
2.375909 14.790157 0.007531
2.690630 14.790157 0.008253
3.005352 14.790157 0.009086
3.320073 14.790157 0.010202
3.634794 14.790157 0.011681
3.949515 14.790157 0.013331
4.264236 14.790157 0.015356
4.578956 14.790157 0.017970
4.893677 14.790157 0.021402
5.208398 14.790157 0.026119
5.523119 14.790157 0.032500
5.837841 14.790157 0.040940
6.152562 14.790157 0.052028
6.467283 14.790157 0.067255
6.782003 14.790157 0.088377
7.096724 14.790157 0.116901
7.411445 14.790157 0.153752
7.726166 14.790157 0.198897
8.040888 14.790157 0.252699
8.355608 14.790157 0.316595
8.670330 14.790157 0.398641
8.985050 14.790157 0.496608
9.299772 14.790157 0.588778
9.614492 14.790157 0.697099
9.929214 14.790157 0.810340
10.243935 14.790157 0.911857
10.558655 14.790157 1.009913
10.873377 14.790157 1.111235
11.188097 14.790157 1.211760
11.502819 14.790157 1.297368
11.817539 14.790157 1.367721
12.132261 14.790157 1.430568
12.446981 14.790157 1.487118
12.761703 14.790157 1.531945
13.076424 14.790157 1.572366
13.391144 14.790157 1.603334
13.705866 14.790157 1.627597
14.020586 14.790157 1.606458
14.335308 14.790157 1.630250
14.650028 14.790157 1.627875
14.964750 14.790157 1.570744
15.279470 14.790157 1.485482
15.594193 14.790157 1.005593
15.908913 14.790157 0.000000
16.223633 14.790157 0.000000
16.538355 14.790157 0.000000
16.853075 14.790157 0.000000
17.167797 14.790157 0.000000
17.482517 14.790157 0.000000
17.797239 14.790157 0.000000
18.111959 14.790157 0.000000
18.426680 14.790157 0.000000
18.741402 14.790157 0.000000
-7.065720 14.475433 0.000000
-6.750999 14.475433 0.006030
-6.436278 14.475433 0.004822
-6.121557 14.475433 0.004711
-5.806836 14.475433 0.004642
-5.492115 14.475433 0.004623
-5.177394 14.475433 0.004604
-4.862673 14.475433 0.004540
-4.547952 14.475433 0.004498
-4.233231 14.475433 0.004444
-3.918510 14.475433 0.004444
-3.603789 14.475433 0.004423
-3.289068 14.475433 0.004489
-2.974347 14.475433 0.004547
-2.659626 14.475433 0.004572
-2.344905 14.475433 0.004564
-2.030184 14.475433 0.004566
-1.715463 14.475433 0.004601
-1.400742 14.475433 0.004616
-1.086021 14.475433 0.004668
-0.771300 14.475433 0.004795
-0.456579 14.475433 0.004964
-0.141859 14.475433 0.005067
0.172863 14.475433 0.005198
0.487584 14.475433 0.005366
0.802305 14.475433 0.005577
1.117026 14.475433 0.005829
1.431747 14.475433 0.006208
1.746467 14.475433 0.006616
2.061188 14.475433 0.007075
2.375909 14.475433 0.007608
2.690630 14.475433 0.008316
3.005352 14.475433 0.009173
3.320073 14.475433 0.010277
3.634794 14.475433 0.011618
3.949515 14.475433 0.013276
4.264236 14.475433 0.015251
4.578956 14.475433 0.017901
4.893677 14.475433 0.021470
5.208398 14.475433 0.026351
5.523119 14.475433 0.033006
5.837841 14.475433 0.041189
6.152562 14.475433 0.052084
6.467283 14.475433 0.067432
6.782003 14.475433 0.088380
7.096724 14.475433 0.118565
7.411445 14.475433 0.153615
7.726166 14.475433 0.197362
8.040888 14.475433 0.253099
8.355608 14.475433 0.317175
8.670330 14.475433 0.399277
8.985050 14.475433 0.497352
9.299772 14.475433 0.593437
9.614492 14.475433 0.696529
9.929214 14.475433 0.809751
10.243935 14.475433 0.914183
10.558655 14.475433 1.008299
10.873377 14.475433 1.114249
11.188097 14.475433 1.221250
11.502819 14.475433 1.295676
11.817539 14.475433 1.367309
12.132261 14.475433 1.433966
12.446981 14.475433 1.492725
12.761703 14.475433 1.536021
13.076424 14.475433 1.567104
13.391144 14.475433 1.599187
13.705866 14.475433 1.614006
14.020586 14.475433 1.611478
14.335308 14.475433 1.625431
14.650028 14.475433 1.626467
14.964750 14.475433 1.572831
15.279470 14.475433 1.496496
15.594193 14.475433 0.990307
15.908913 14.475433 0.000000
16.223633 14.475433 0.000000
16.538355 14.475433 0.000000
16.853075 14.475433 0.000000
17.167797 14.475433 0.000000
17.482517 14.475433 0.000000
17.797239 14.475433 0.000000
18.111959 14.475433 0.000000
18.426680 14.475433 0.000000
18.741402 14.475433 0.000000
-7.065720 14.160713 0.000000
-6.750999 14.160713 0.006021
-6.436278 14.160713 0.004817
-6.121557 14.160713 0.004682
-5.806836 14.160713 0.004627
-5.492115 14.160713 0.004595
-5.177394 14.160713 0.004565
-4.862673 14.160713 0.004523
-4.547952 14.160713 0.004505
-4.233231 14.160713 0.004487
-3.918510 14.160713 0.004471
-3.603789 14.160713 0.004399
-3.289068 14.160713 0.004496
-2.974347 14.160713 0.004574
-2.659626 14.160713 0.004557
-2.344905 14.160713 0.004507
-2.030184 14.160713 0.004516
-1.715463 14.160713 0.004584
-1.400742 14.160713 0.004649
-1.086021 14.160713 0.004700
-0.771300 14.160713 0.004826
-0.456579 14.160713 0.004971
-0.141859 14.160713 0.005068
0.172863 14.160713 0.005181
0.487584 14.160713 0.005376
0.802305 14.160713 0.005601
1.117026 14.160713 0.005872
1.431747 14.160713 0.006265
1.746467 14.160713 0.006655
2.061188 14.160713 0.007131
2.375909 14.160713 0.007696
2.690630 14.160713 0.008436
3.005352 14.160713 0.009328
3.320073 14.160713 0.010386
3.634794 14.160713 0.011620
3.949515 14.160713 0.013265
4.264236 14.160713 0.015219
4.578956 14.160713 0.017896
4.893677 14.160713 0.021660
5.208398 14.160713 0.026562
5.523119 14.160713 0.032911
5.837841 14.160713 0.041306
6.152562 14.160713 0.052512
6.467283 14.160713 0.067162
6.782003 14.160713 0.088789
7.096724 14.160713 0.117268
7.411445 14.160713 0.154711
7.726166 14.160713 0.199843
8.040888 14.160713 0.253591
8.355608 14.160713 0.321270
8.670330 14.160713 0.403267
8.985050 14.160713 0.495320
9.299772 14.160713 0.594505
9.614492 14.160713 0.695047
9.929214 14.160713 0.806741
10.243935 14.160713 0.921917
10.558655 14.160713 1.024657
10.873377 14.160713 1.132406
11.188097 14.160713 1.226695
11.502819 14.160713 1.303182
11.817539 14.160713 1.379272
12.132261 14.160713 1.440166
12.446981 14.160713 1.494615
12.761703 14.160713 1.541865
13.076424 14.160713 1.577527
13.391144 14.160713 1.611600
13.705866 14.160713 1.609380
14.020586 14.160713 1.606876
14.335308 14.160713 1.617885
14.650028 14.160713 1.614539
14.964750 14.160713 1.568989
15.279470 14.160713 1.505201
15.594193 14.160713 0.962048
15.908913 14.160713 0.000000
16.223633 14.160713 0.000000
16.538355 14.160713 0.000000
16.853075 14.160713 0.000000
17.167797 14.160713 0.000000
17.482517 14.160713 0.000000
17.797239 14.160713 0.000000
18.111959 14.160713 0.000000
18.426680 14.160713 0.000000
18.741402 14.160713 0.000000
-7.065720 13.845993 0.000000
-6.750999 13.845993 0.006004
-6.436278 13.845993 0.004757
-6.121557 13.845993 0.004656
-5.806836 13.845993 0.004599
-5.492115 13.845993 0.004604
-5.177394 13.845993 0.004569
-4.862673 13.845993 0.004533
-4.547952 13.845993 0.004538
-4.233231 13.845993 0.004541
-3.918510 13.845993 0.004494
-3.603789 13.845993 0.004420
-3.289068 13.845993 0.004519
-2.974347 13.845993 0.004594
-2.659626 13.845993 0.004524
-2.344905 13.845993 0.004457
-2.030184 13.845993 0.004457
-1.715463 13.845993 0.004555
-1.400742 13.845993 0.004691
-1.086021 13.845993 0.004715
-0.771300 13.845993 0.004833
-0.456579 13.845993 0.004956
-0.141859 13.845993 0.005029
0.172863 13.845993 0.005165
0.487584 13.845993 0.005379
0.802305 13.845993 0.005617
1.117026 13.845993 0.005939
1.431747 13.845993 0.006296
1.746467 13.845993 0.006677
2.061188 13.845993 0.007193
2.375909 13.845993 0.007760
2.690630 13.845993 0.008513
3.005352 13.845993 0.009452
3.320073 13.845993 0.010472
3.634794 13.845993 0.011696
3.949515 13.845993 0.013254
4.264236 13.845993 0.015222
4.578956 13.845993 0.017923
4.893677 13.845993 0.021877
5.208398 13.845993 0.026636
5.523119 13.845993 0.032858
5.837841 13.845993 0.041393
6.152562 13.845993 0.053329
6.467283 13.845993 0.068735
6.782003 13.845993 0.089009
7.096724 13.845993 0.117650
7.411445 13.845993 0.157927
7.726166 13.845993 0.203133
8.040888 13.845993 0.258368
8.355608 13.845993 0.329132
8.670330 13.845993 0.404983
8.985050 13.845993 0.495804
9.299772 13.845993 0.596283
9.614492 13.845993 0.704131
9.929214 13.845993 0.813087
10.243935 13.845993 0.926435
10.558655 13.845993 1.031773
10.873377 13.845993 1.145414
11.188097 13.845993 1.245976
11.502819 13.845993 1.324725
11.817539 13.845993 1.401769
12.132261 13.845993 1.459604
12.446981 13.845993 1.505998
12.761703 13.845993 1.549721
13.076424 13.845993 1.586426
13.391144 13.845993 1.616885
13.705866 13.845993 1.604177
14.020586 13.845993 1.607787
14.335308 13.845993 1.606117
14.650028 13.845993 1.597250
14.964750 13.845993 1.558539
15.279470 13.845993 1.503321
15.594193 13.845993 0.936049
15.908913 13.845993 0.000000
16.223633 13.845993 0.000000
16.538355 13.845993 0.000000
16.853075 13.845993 0.000000
17.167797 13.845993 0.000000
17.482517 13.845993 0.000000
17.797239 13.845993 0.000000
18.111959 13.845993 0.000000
18.426680 13.845993 0.000000
18.741402 13.845993 0.000000
-7.065720 13.531273 0.000000
-6.750999 13.531273 0.005918
-6.436278 13.531273 0.004677
-6.121557 13.531273 0.004634
-5.806836 13.531273 0.004617
-5.492115 13.531273 0.004600
-5.177394 13.531273 0.004619
-4.862673 13.531273 0.004590
-4.547952 13.531273 0.004568
-4.233231 13.531273 0.004562
-3.918510 13.531273 0.004516
-3.603789 13.531273 0.004468
-3.289068 13.531273 0.004533
-2.974347 13.531273 0.004602
-2.659626 13.531273 0.004506
-2.344905 13.531273 0.004413
-2.030184 13.531273 0.004429
-1.715463 13.531273 0.004529
-1.400742 13.531273 0.004681
-1.086021 13.531273 0.004721
-0.771300 13.531273 0.004825
-0.456579 13.531273 0.004953
-0.141859 13.531273 0.004999
0.172863 13.531273 0.005150
0.487584 13.531273 0.005350
0.802305 13.531273 0.005613
1.117026 13.531273 0.005972
1.431747 13.531273 0.006319
1.746467 13.531273 0.006716
2.061188 13.531273 0.007230
2.375909 13.531273 0.007796
2.690630 13.531273 0.008561
3.005352 13.531273 0.009516
3.320073 13.531273 0.010521
3.634794 13.531273 0.011773
3.949515 13.531273 0.013347
4.264236 13.531273 0.015280
4.578956 13.531273 0.018101
4.893677 13.531273 0.021975
5.208398 13.531273 0.026778
5.523119 13.531273 0.032977
5.837841 13.531273 0.041349
6.152562 13.531273 0.052713
6.467283 13.531273 0.069287
6.782003 13.531273 0.089426
7.096724 13.531273 0.120076
7.411445 13.531273 0.162015
7.726166 13.531273 0.211362
8.040888 13.531273 0.265131
8.355608 13.531273 0.335634
8.670330 13.531273 0.413037
8.985050 13.531273 0.502229
9.299772 13.531273 0.608467
9.614492 13.531273 0.710944
9.929214 13.531273 0.825248
10.243935 13.531273 0.927653
10.558655 13.531273 1.042645
10.873377 13.531273 1.157552
11.188097 13.531273 1.249051
11.502819 13.531273 1.323481
11.817539 13.531273 1.403973
12.132261 13.531273 1.469293
12.446981 13.531273 1.515303
12.761703 13.531273 1.558174
13.076424 13.531273 1.602788
13.391144 13.531273 1.621160
13.705866 13.531273 1.616688
14.020586 13.531273 1.601715
14.335308 13.531273 1.601975
14.650028 13.531273 1.596717
14.964750 13.531273 1.548048
15.279470 13.531273 1.505379
15.594193 13.531273 0.898685
15.908913 13.531273 0.000000
16.223633 13.531273 0.000000
16.538355 13.531273 0.000000
16.853075 13.531273 0.000000
17.167797 13.531273 0.000000
17.482517 13.531273 0.000000
17.797239 13.531273 0.000000
18.111959 13.531273 0.000000
18.426680 13.531273 0.000000
18.741402 13.531273 0.000000
-7.065720 13.216553 0.000000
-6.750999 13.216553 0.005829
-6.436278 13.216553 0.004612
-6.121557 13.216553 0.004640
-5.806836 13.216553 0.004632
-5.492115 13.216553 0.004606
-5.177394 13.216553 0.004665
-4.862673 13.216553 0.004638
-4.547952 13.216553 0.004587
-4.233231 13.216553 0.004549
-3.918510 13.216553 0.004515
-3.603789 13.216553 0.004480
-3.289068 13.216553 0.004509
-2.974347 13.216553 0.004582
-2.659626 13.216553 0.004473
-2.344905 13.216553 0.004414
-2.030184 13.216553 0.004425
-1.715463 13.216553 0.004519
-1.400742 13.216553 0.004664
-1.086021 13.216553 0.004757
-0.771300 13.216553 0.004837
-0.456579 13.216553 0.004951
-0.141859 13.216553 0.005010
0.172863 13.216553 0.005172
0.487584 13.216553 0.005355
0.802305 13.216553 0.005648
1.117026 13.216553 0.005964
1.431747 13.216553 0.006306
1.746467 13.216553 0.006744
2.061188 13.216553 0.007253
2.375909 13.216553 0.007801
2.690630 13.216553 0.008558
3.005352 13.216553 0.009492
3.320073 13.216553 0.010550
3.634794 13.216553 0.011884
3.949515 13.216553 0.013486
4.264236 13.216553 0.015439
4.578956 13.216553 0.018314
4.893677 13.216553 0.022139
5.208398 13.216553 0.026888
5.523119 13.216553 0.033370
5.837841 13.216553 0.041644
6.152562 13.216553 0.053768
6.467283 13.216553 0.069832
6.782003 13.216553 0.092975
7.096724 13.216553 0.122517
7.411445 13.216553 0.162647
7.726166 13.216553 0.214575
8.040888 13.216553 0.268357
8.355608 13.216553 0.335534
8.670330 13.216553 0.419380
8.985050 13.216553 0.513499
9.299772 13.216553 0.616599
9.614492 13.216553 0.725087
9.929214 13.216553 0.836019
10.243935 13.216553 0.938766
10.558655 13.216553 1.044514
10.873377 13.216553 1.155435
11.188097 13.216553 1.237876
11.502819 13.216553 1.316566
11.817539 13.216553 1.395765
12.132261 13.216553 1.463849
12.446981 13.216553 1.520476
12.761703 13.216553 1.563852
13.076424 13.216553 1.601393
13.391144 13.216553 1.632740
13.705866 13.216553 1.620514
14.020586 13.216553 1.598643
14.335308 13.216553 1.598547
14.650028 13.216553 1.580455
14.964750 13.216553 1.552111
15.279470 13.216553 1.484546
15.594193 13.216553 0.859203
15.908913 13.216553 0.000000
16.223633 13.216553 0.000000
16.538355 13.216553 0.000000
16.853075 13.216553 0.000000
17.167797 13.216553 0.000000
17.482517 13.216553 0.000000
17.797239 13.216553 0.000000
18.111959 13.216553 0.000000
18.426680 13.216553 0.000000
18.741402 13.216553 0.000000
-7.065720 12.901829 0.000000
-6.750999 12.901829 0.005760
-6.436278 12.901829 0.004592
-6.121557 12.901829 0.004630
-5.806836 12.901829 0.004642
-5.492115 12.901829 0.004614
-5.177394 12.901829 0.004653
-4.862673 12.901829 0.004616
-4.547952 12.901829 0.004518
-4.233231 12.901829 0.004503
-3.918510 12.901829 0.004472
-3.603789 12.901829 0.004459
-3.289068 12.901829 0.004474
-2.974347 12.901829 0.004564
-2.659626 12.901829 0.004490
-2.344905 12.901829 0.004429
-2.030184 12.901829 0.004449
-1.715463 12.901829 0.004543
-1.400742 12.901829 0.004675
-1.086021 12.901829 0.004778
-0.771300 12.901829 0.004854
-0.456579 12.901829 0.004979
-0.141859 12.901829 0.005079
0.172863 12.901829 0.005230
0.487584 12.901829 0.005417
0.802305 12.901829 0.005708
1.117026 12.901829 0.005971
1.431747 12.901829 0.006316
1.746467 12.901829 0.006767
2.061188 12.901829 0.007279
2.375909 12.901829 0.007807
2.690630 12.901829 0.008555
3.005352 12.901829 0.009453
3.320073 12.901829 0.010578
3.634794 12.901829 0.011990
3.949515 12.901829 0.013697
4.264236 12.901829 0.015747
4.578956 12.901829 0.018562
4.893677 12.901829 0.022257
5.208398 12.901829 0.026941
5.523119 12.901829 0.033740
5.837841 12.901829 0.042722
6.152562 12.901829 0.054404
6.467283 12.901829 0.071729
6.782003 12.901829 0.094710
7.096724 12.901829 0.125398
7.411445 12.901829 0.164769
7.726166 12.901829 0.213145
8.040888 12.901829 0.270808
8.355608 12.901829 0.338415
8.670330 12.901829 0.420759
8.985050 12.901829 0.518959
9.299772 12.901829 0.618235
9.614492 12.901829 0.732154
9.929214 12.901829 0.843539
10.243935 12.901829 0.944650
10.558655 12.901829 1.053237
10.873377 12.901829 1.156029
11.188097 12.901829 1.243219
11.502819 12.901829 1.318082
11.817539 12.901829 1.402606
12.132261 12.901829 1.468027
12.446981 12.901829 1.512166
12.761703 12.901829 1.563861
13.076424 12.901829 1.586740
13.391144 12.901829 1.617976
13.705866 12.901829 1.622417
14.020586 12.901829 1.607078
14.335308 12.901829 1.599298
14.650028 12.901829 1.591109
14.964750 12.901829 1.550744
15.279470 12.901829 1.483539
15.594193 12.901829 0.831058
15.908913 12.901829 0.000000
16.223633 12.901829 0.000000
16.538355 12.901829 0.000000
16.853075 12.901829 0.000000
17.167797 12.901829 0.000000
17.482517 12.901829 0.000000
17.797239 12.901829 0.000000
18.111959 12.901829 0.000000
18.426680 12.901829 0.000000
18.741402 12.901829 0.000000
-7.065720 12.587109 0.000000
-6.750999 12.587109 0.005726
-6.436278 12.587109 0.004615
-6.121557 12.587109 0.004648
-5.806836 12.587109 0.004657
-5.492115 12.587109 0.004655
-5.177394 12.587109 0.004633
-4.862673 12.587109 0.004541
-4.547952 12.587109 0.004423
-4.233231 12.587109 0.004459
-3.918510 12.587109 0.004453
-3.603789 12.587109 0.004427
-3.289068 12.587109 0.004462
-2.974347 12.587109 0.004558
-2.659626 12.587109 0.004484
-2.344905 12.587109 0.004464
-2.030184 12.587109 0.004485
-1.715463 12.587109 0.004554
-1.400742 12.587109 0.004721
-1.086021 12.587109 0.004805
-0.771300 12.587109 0.004876
-0.456579 12.587109 0.005018
-0.141859 12.587109 0.005139
0.172863 12.587109 0.005302
0.487584 12.587109 0.005521
0.802305 12.587109 0.005778
1.117026 12.587109 0.006016
1.431747 12.587109 0.006360
1.746467 12.587109 0.006815
2.061188 12.587109 0.007313
2.375909 12.587109 0.007799
2.690630 12.587109 0.008533
3.005352 12.587109 0.009471
3.320073 12.587109 0.010636
3.634794 12.587109 0.012076
3.949515 12.587109 0.013856
4.264236 12.587109 0.016015
4.578956 12.587109 0.018684
4.893677 12.587109 0.022261
5.208398 12.587109 0.027151
5.523119 12.587109 0.034034
5.837841 12.587109 0.043407
6.152562 12.587109 0.055403
6.467283 12.587109 0.072792
6.782003 12.587109 0.095262
7.096724 12.587109 0.125033
7.411445 12.587109 0.164603
7.726166 12.587109 0.211550
8.040888 12.587109 0.269543
8.355608 12.587109 0.339613
8.670330 12.587109 0.424471
8.985050 12.587109 0.523170
9.299772 12.587109 0.616987
9.614492 12.587109 0.727104
9.929214 12.587109 0.833805
10.243935 12.587109 0.948068
10.558655 12.587109 1.052645
10.873377 12.587109 1.152206
11.188097 12.587109 1.242056
11.502819 12.587109 1.330212
11.817539 12.587109 1.406549
12.132261 12.587109 1.463981
12.446981 12.587109 1.512279
12.761703 12.587109 1.550947
13.076424 12.587109 1.574244
13.391144 12.587109 1.602191
13.705866 12.587109 1.619253
14.020586 12.587109 1.616529
14.335308 12.587109 1.607555
14.650028 12.587109 1.594122
14.964750 12.587109 1.537574
15.279470 12.587109 1.483375
15.594193 12.587109 0.795729
15.908913 12.587109 0.000000
16.223633 12.587109 0.000000
16.538355 12.587109 0.000000
16.853075 12.587109 0.000000
17.167797 12.587109 0.000000
17.482517 12.587109 0.000000
17.797239 12.587109 0.000000
18.111959 12.587109 0.000000
18.426680 12.587109 0.000000
18.741402 12.587109 0.000000
-7.065720 12.272388 0.000000
-6.750999 12.272388 0.005749
-6.436278 12.272388 0.004646
-6.121557 12.272388 0.004685
-5.806836 12.272388 0.004710
-5.492115 12.272388 0.004691
-5.177394 12.272388 0.004612
-4.862673 12.272388 0.004472
-4.547952 12.272388 0.004362
-4.233231 12.272388 0.004428
-3.918510 12.272388 0.004448
-3.603789 12.272388 0.004433
-3.289068 12.272388 0.004465
-2.974347 12.272388 0.004536
-2.659626 12.272388 0.004483
-2.344905 12.272388 0.004478
-2.030184 12.272388 0.004527
-1.715463 12.272388 0.004607
-1.400742 12.272388 0.004724
-1.086021 12.272388 0.004772
-0.771300 12.272388 0.004856
-0.456579 12.272388 0.005020
-0.141859 12.272388 0.005170
0.172863 12.272388 0.005362
0.487584 12.272388 0.005590
0.802305 12.272388 0.005842
1.117026 12.272388 0.006088
1.431747 12.272388 0.006425
1.746467 12.272388 0.006864
2.061188 12.272388 0.007344
2.375909 12.272388 0.007813
2.690630 12.272388 0.008507
3.005352 12.272388 0.009486
3.320073 12.272388 0.010708
3.634794 12.272388 0.012196
3.949515 12.272388 0.014028
4.264236 12.272388 0.016227
4.578956 12.272388 0.018854
4.893677 12.272388 0.022403
5.208398 12.272388 0.027223
5.523119 12.272388 0.034033
5.837841 12.272388 0.043360
6.152562 12.272388 0.055880
6.467283 12.272388 0.073158
6.782003 12.272388 0.095959
7.096724 12.272388 0.126092
7.411445 12.272388 0.166523
7.726166 12.272388 0.214988
8.040888 12.272388 0.273736
8.355608 12.272388 0.343825
8.670330 12.272388 0.427699
8.985050 12.272388 0.526328
9.299772 12.272388 0.626377
9.614492 12.272388 0.734763
9.929214 12.272388 0.835789
10.243935 12.272388 0.941081
10.558655 12.272388 1.054689
10.873377 12.272388 1.149419
11.188097 12.272388 1.236521
11.502819 12.272388 1.329081
11.817539 12.272388 1.402780
12.132261 12.272388 1.463995
12.446981 12.272388 1.501046
12.761703 12.272388 1.535503
13.076424 12.272388 1.561107
13.391144 12.272388 1.601362
13.705866 12.272388 1.614379
14.020586 12.272388 1.605792
14.335308 12.272388 1.593899
14.650028 12.272388 1.578090
14.964750 12.272388 1.526021
15.279470 12.272388 1.477896
15.594193 12.272388 0.689178
15.908913 12.272388 0.000000
16.223633 12.272388 0.000000
16.538355 12.272388 0.000000
16.853075 12.272388 0.000000
17.167797 12.272388 0.000000
17.482517 12.272388 0.000000
17.797239 12.272388 0.000000
18.111959 12.272388 0.000000
18.426680 12.272388 0.000000
18.741402 12.272388 0.000000
-7.065720 11.957668 0.000000
-6.750999 11.957668 0.005787
-6.436278 11.957668 0.004672
-6.121557 11.957668 0.004702
-5.806836 11.957668 0.004722
-5.492115 11.957668 0.004690
-5.177394 11.957668 0.004603
-4.862673 11.957668 0.004467
-4.547952 11.957668 0.004373
-4.233231 11.957668 0.004417
-3.918510 11.957668 0.004470
-3.603789 11.957668 0.004446
-3.289068 11.957668 0.004455
-2.974347 11.957668 0.004477
-2.659626 11.957668 0.004460
-2.344905 11.957668 0.004460
-2.030184 11.957668 0.004511
-1.715463 11.957668 0.004631
-1.400742 11.957668 0.004719
-1.086021 11.957668 0.004732
-0.771300 11.957668 0.004845
-0.456579 11.957668 0.005015
-0.141859 11.957668 0.005178
0.172863 11.957668 0.005394
0.487584 11.957668 0.005628
0.802305 11.957668 0.005862
1.117026 11.957668 0.006148
1.431747 11.957668 0.006485
1.746467 11.957668 0.006894
2.061188 11.957668 0.007358
2.375909 11.957668 0.007808
2.690630 11.957668 0.008462
3.005352 11.957668 0.009492
3.320073 11.957668 0.010822
3.634794 11.957668 0.012250
3.949515 11.957668 0.014120
4.264236 11.957668 0.016324
4.578956 11.957668 0.018977
4.893677 11.957668 0.022381
5.208398 11.957668 0.027545
5.523119 11.957668 0.034424
5.837841 11.957668 0.043896
6.152562 11.957668 0.057290
6.467283 11.957668 0.074145
6.782003 11.957668 0.095666
7.096724 11.957668 0.126881
7.411445 11.957668 0.169356
7.726166 11.957668 0.219412
8.040888 11.957668 0.276481
8.355608 11.957668 0.351242
8.670330 11.957668 0.432611
8.985050 11.957668 0.531160
9.299772 11.957668 0.629530
9.614492 11.957668 0.731957
9.929214 11.957668 0.836075
10.243935 11.957668 0.944263
10.558655 11.957668 1.055541
10.873377 11.957668 1.148402
11.188097 11.957668 1.227679
11.502819 11.957668 1.315752
11.817539 11.957668 1.394927
12.132261 11.957668 1.458964
12.446981 11.957668 1.498610
12.761703 11.957668 1.529227
13.076424 11.957668 1.551877
13.391144 11.957668 1.587570
13.705866 11.957668 1.597027
14.020586 11.957668 1.596115
14.335308 11.957668 1.576151
14.650028 11.957668 1.553178
14.964750 11.957668 1.516316
15.279470 11.957668 1.468454
15.594193 11.957668 0.433404
15.908913 11.957668 0.000000
16.223633 11.957668 0.000000
16.538355 11.957668 0.000000
16.853075 11.957668 0.000000
17.167797 11.957668 0.000000
17.482517 11.957668 0.000000
17.797239 11.957668 0.000000
18.111959 11.957668 0.000000
18.426680 11.957668 0.000000
18.741402 11.957668 0.000000
-7.065720 11.642944 0.000000
-6.750999 11.642944 0.005802
-6.436278 11.642944 0.004664
-6.121557 11.642944 0.004672
-5.806836 11.642944 0.004673
-5.492115 11.642944 0.004652
-5.177394 11.642944 0.004606
-4.862673 11.642944 0.004499
-4.547952 11.642944 0.004403
-4.233231 11.642944 0.004405
-3.918510 11.642944 0.004477
-3.603789 11.642944 0.004469
-3.289068 11.642944 0.004443
-2.974347 11.642944 0.004440
-2.659626 11.642944 0.004444
-2.344905 11.642944 0.004464
-2.030184 11.642944 0.004483
-1.715463 11.642944 0.004614
-1.400742 11.642944 0.004666
-1.086021 11.642944 0.004680
-0.771300 11.642944 0.004833
-0.456579 11.642944 0.004996
-0.141859 11.642944 0.005182
0.172863 11.642944 0.005428
0.487584 11.642944 0.005648
0.802305 11.642944 0.005868
1.117026 11.642944 0.006178
1.431747 11.642944 0.006510
1.746467 11.642944 0.006903
2.061188 11.642944 0.007349
2.375909 11.642944 0.007792
2.690630 11.642944 0.008428
3.005352 11.642944 0.009470
3.320073 11.642944 0.010850
3.634794 11.642944 0.012247
3.949515 11.642944 0.014101
4.264236 11.642944 0.016414
4.578956 11.642944 0.018899
4.893677 11.642944 0.022473
5.208398 11.642944 0.027744
5.523119 11.642944 0.034512
5.837841 11.642944 0.043985
6.152562 11.642944 0.057525
6.467283 11.642944 0.074255
6.782003 11.642944 0.096966
7.096724 11.642944 0.129198
7.411445 11.642944 0.172484
7.726166 11.642944 0.224217
8.040888 11.642944 0.287042
8.355608 11.642944 0.359249
8.670330 11.642944 0.441197
8.985050 11.642944 0.535251
9.299772 11.642944 0.635248
9.614492 11.642944 0.739024
9.929214 11.642944 0.842882
10.243935 11.642944 0.949174
10.558655 11.642944 1.049146
10.873377 11.642944 1.152071
11.188097 11.642944 1.225674
11.502819 11.642944 1.312364
11.817539 11.642944 1.395644
12.132261 11.642944 1.447314
12.446981 11.642944 1.492626
12.761703 11.642944 1.518744
13.076424 11.642944 1.545312
13.391144 11.642944 1.579105
13.705866 11.642944 1.591481
14.020586 11.642944 1.585705
14.335308 11.642944 1.574054
14.650028 11.642944 1.541431
14.964750 11.642944 1.513532
15.279470 11.642944 1.447243
15.594193 11.642944 0.403528
15.908913 11.642944 0.000000
16.223633 11.642944 0.000000
16.538355 11.642944 0.000000
16.853075 11.642944 0.000000
17.167797 11.642944 0.000000
17.482517 11.642944 0.000000
17.797239 11.642944 0.000000
18.111959 11.642944 0.000000
18.426680 11.642944 0.000000
18.741402 11.642944 0.000000
-7.065720 11.328224 0.000000
-6.750999 11.328224 0.005772
-6.436278 11.328224 0.004660
-6.121557 11.328224 0.004646
-5.806836 11.328224 0.004615
-5.492115 11.328224 0.004591
-5.177394 11.328224 0.004609
-4.862673 11.328224 0.004547
-4.547952 11.328224 0.004439
-4.233231 11.328224 0.004402
-3.918510 11.328224 0.004470
-3.603789 11.328224 0.004452
-3.289068 11.328224 0.004437
-2.974347 11.328224 0.004436
-2.659626 11.328224 0.004453
-2.344905 11.328224 0.004483
-2.030184 11.328224 0.004510
-1.715463 11.328224 0.004593
-1.400742 11.328224 0.004620
-1.086021 11.328224 0.004641
-0.771300 11.328224 0.004802
-0.456579 11.328224 0.004984
-0.141859 11.328224 0.005189
0.172863 11.328224 0.005451
0.487584 11.328224 0.005642
0.802305 11.328224 0.005863
1.117026 11.328224 0.006173
1.431747 11.328224 0.006464
1.746467 11.328224 0.006890
2.061188 11.328224 0.007340
2.375909 11.328224 0.007792
2.690630 11.328224 0.008443
3.005352 11.328224 0.009443
3.320073 11.328224 0.010797
3.634794 11.328224 0.012189
3.949515 11.328224 0.014011
4.264236 11.328224 0.016330
4.578956 11.328224 0.019020
4.893677 11.328224 0.022724
5.208398 11.328224 0.027913
5.523119 11.328224 0.034762
5.837841 11.328224 0.044509
6.152562 11.328224 0.057566
6.467283 11.328224 0.074835
6.782003 11.328224 0.098041
7.096724 11.328224 0.130802
7.411445 11.328224 0.175461
7.726166 11.328224 0.227748
8.040888 11.328224 0.291625
8.355608 11.328224 0.365612
8.670330 11.328224 0.448401
8.985050 11.328224 0.541140
9.299772 11.328224 0.642364
9.614492 11.328224 0.743887
9.929214 11.328224 0.849386
10.243935 11.328224 0.950104
10.558655 11.328224 1.052872
10.873377 11.328224 1.150470
11.188097 11.328224 1.229634
11.502819 11.328224 1.315431
11.817539 11.328224 1.395532
12.132261 11.328224 1.450338
12.446981 11.328224 1.487140
12.761703 11.328224 1.513615
13.076424 11.328224 1.547856
13.391144 11.328224 1.576323
13.705866 11.328224 1.591272
14.020586 11.328224 1.591516
14.335308 11.328224 1.581344
14.650028 11.328224 1.541191
14.964750 11.328224 1.501158
15.279470 11.328224 1.449854
15.594193 11.328224 0.494188
15.908913 11.328224 0.000000
16.223633 11.328224 0.000000
16.538355 11.328224 0.000000
16.853075 11.328224 0.000000
17.167797 11.328224 0.000000
17.482517 11.328224 0.000000
17.797239 11.328224 0.000000
18.111959 11.328224 0.000000
18.426680 11.328224 0.000000
18.741402 11.328224 0.000000
-7.065720 11.013504 0.000000
-6.750999 11.013504 0.005728
-6.436278 11.013504 0.004662
-6.121557 11.013504 0.004629
-5.806836 11.013504 0.004569
-5.492115 11.013504 0.004528
-5.177394 11.013504 0.004545
-4.862673 11.013504 0.004538
-4.547952 11.013504 0.004453
-4.233231 11.013504 0.004426
-3.918510 11.013504 0.004473
-3.603789 11.013504 0.004440
-3.289068 11.013504 0.004440
-2.974347 11.013504 0.004469
-2.659626 11.013504 0.004485
-2.344905 11.013504 0.004519
-2.030184 11.013504 0.004556
-1.715463 11.013504 0.004585
-1.400742 11.013504 0.004599
-1.086021 11.013504 0.004647
-0.771300 11.013504 0.004798
-0.456579 11.013504 0.004973
-0.141859 11.013504 0.005200
0.172863 11.013504 0.005429
0.487584 11.013504 0.005614
0.802305 11.013504 0.005823
1.117026 11.013504 0.006103
1.431747 11.013504 0.006404
1.746467 11.013504 0.006863
2.061188 11.013504 0.007338
2.375909 11.013504 0.007824
2.690630 11.013504 0.008515
3.005352 11.013504 0.009439
3.320073 11.013504 0.010671
3.634794 11.013504 0.012138
3.949515 11.013504 0.013952
4.264236 11.013504 0.016224
4.578956 11.013504 0.019233
4.893677 11.013504 0.023137
5.208398 11.013504 0.028170
5.523119 11.013504 0.035308
5.837841 11.013504 0.045320
6.152562 11.013504 0.058247
6.467283 11.013504 0.076113
6.782003 11.013504 0.100572
7.096724 11.013504 0.133580
7.411445 11.013504 0.176040
7.726166 11.013504 0.229061
8.040888 11.013504 0.292547
8.355608 11.013504 0.368039
8.670330 11.013504 0.449884
8.985050 11.013504 0.545740
9.299772 11.013504 0.649976
9.614492 11.013504 0.748819
9.929214 11.013504 0.849976
10.243935 11.013504 0.955977
10.558655 11.013504 1.054662
10.873377 11.013504 1.148079
11.188097 11.013504 1.229514
11.502819 11.013504 1.315919
11.817539 11.013504 1.390898
12.132261 11.013504 1.445472
12.446981 11.013504 1.484698
12.761703 11.013504 1.511116
13.076424 11.013504 1.555028
13.391144 11.013504 1.593003
13.705866 11.013504 1.602532
14.020586 11.013504 1.596028
14.335308 11.013504 1.580362
14.650028 11.013504 1.542752
14.964750 11.013504 1.482502
15.279470 11.013504 1.439652
15.594193 11.013504 1.755268
15.908913 11.013504 0.000000
16.223633 11.013504 0.000000
16.538355 11.013504 0.000000
16.853075 11.013504 0.000000
17.167797 11.013504 0.000000
17.482517 11.013504 0.000000
17.797239 11.013504 0.000000
18.111959 11.013504 0.000000
18.426680 11.013504 0.000000
18.741402 11.013504 0.000000
-7.065720 10.698784 0.000000
-6.750999 10.698784 0.005680
-6.436278 10.698784 0.004656
-6.121557 10.698784 0.004617
-5.806836 10.698784 0.004544
-5.492115 10.698784 0.004515
-5.177394 10.698784 0.004478
-4.862673 10.698784 0.004503
-4.547952 10.698784 0.004459
-4.233231 10.698784 0.004450
-3.918510 10.698784 0.004471
-3.603789 10.698784 0.004459
-3.289068 10.698784 0.004468
-2.974347 10.698784 0.004490
-2.659626 10.698784 0.004487
-2.344905 10.698784 0.004548
-2.030184 10.698784 0.004616
-1.715463 10.698784 0.004617
-1.400742 10.698784 0.004630
-1.086021 10.698784 0.004691
-0.771300 10.698784 0.004818
-0.456579 10.698784 0.004991
-0.141859 10.698784 0.005176
0.172863 10.698784 0.005375
0.487584 10.698784 0.005557
0.802305 10.698784 0.005743
1.117026 10.698784 0.005992
1.431747 10.698784 0.006342
1.746467 10.698784 0.006879
2.061188 10.698784 0.007373
2.375909 10.698784 0.007898
2.690630 10.698784 0.008599
3.005352 10.698784 0.009470
3.320073 10.698784 0.010675
3.634794 10.698784 0.012161
3.949515 10.698784 0.013976
4.264236 10.698784 0.016220
4.578956 10.698784 0.019310
4.893677 10.698784 0.023311
5.208398 10.698784 0.028608
5.523119 10.698784 0.035730
5.837841 10.698784 0.045739
6.152562 10.698784 0.058935
6.467283 10.698784 0.076468
6.782003 10.698784 0.101541
7.096724 10.698784 0.134259
7.411445 10.698784 0.176117
7.726166 10.698784 0.228363
8.040888 10.698784 0.294891
8.355608 10.698784 0.366056
8.670330 10.698784 0.451508
8.985050 10.698784 0.549580
9.299772 10.698784 0.651446
9.614492 10.698784 0.752546
9.929214 10.698784 0.851078
10.243935 10.698784 0.960610
10.558655 10.698784 1.060439
10.873377 10.698784 1.157648
11.188097 10.698784 1.234195
11.502819 10.698784 1.315701
11.817539 10.698784 1.386866
12.132261 10.698784 1.448496
12.446981 10.698784 1.479617
12.761703 10.698784 1.522160
13.076424 10.698784 1.564876
13.391144 10.698784 1.601341
13.705866 10.698784 1.612534
14.020586 10.698784 1.597007
14.335308 10.698784 1.574413
14.650028 10.698784 1.531679
14.964750 10.698784 1.483165
15.279470 10.698784 1.427345
15.594193 10.698784 0.000000
15.908913 10.698784 0.000000
16.223633 10.698784 0.000000
16.538355 10.698784 0.000000
16.853075 10.698784 0.000000
17.167797 10.698784 0.000000
17.482517 10.698784 0.000000
17.797239 10.698784 0.000000
18.111959 10.698784 0.000000
18.426680 10.698784 0.000000
18.741402 10.698784 0.000000
-7.065720 10.384064 0.000000
-6.750999 10.384064 0.005643
-6.436278 10.384064 0.004635
-6.121557 10.384064 0.004589
-5.806836 10.384064 0.004522
-5.492115 10.384064 0.004546
-5.177394 10.384064 0.004484
-4.862673 10.384064 0.004468
-4.547952 10.384064 0.004474
-4.233231 10.384064 0.004489
-3.918510 10.384064 0.004481
-3.603789 10.384064 0.004471
-3.289068 10.384064 0.004482
-2.974347 10.384064 0.004486
-2.659626 10.384064 0.004454
-2.344905 10.384064 0.004545
-2.030184 10.384064 0.004641
-1.715463 10.384064 0.004653
-1.400742 10.384064 0.004706
-1.086021 10.384064 0.004746
-0.771300 10.384064 0.004858
-0.456579 10.384064 0.005033
-0.141859 10.384064 0.005123
0.172863 10.384064 0.005270
0.487584 10.384064 0.005477
0.802305 10.384064 0.005666
1.117026 10.384064 0.005908
1.431747 10.384064 0.006309
1.746467 10.384064 0.006905
2.061188 10.384064 0.007420
2.375909 10.384064 0.007992
2.690630 10.384064 0.008696
3.005352 10.384064 0.009567
3.320073 10.384064 0.010726
3.634794 10.384064 0.012231
3.949515 10.384064 0.014008
4.264236 10.384064 0.016322
4.578956 10.384064 0.019485
4.893677 10.384064 0.023530
5.208398 10.384064 0.028876
5.523119 10.384064 0.036091
5.837841 10.384064 0.046347
6.152562 10.384064 0.059422
6.467283 10.384064 0.077374
6.782003 10.384064 0.102152
7.096724 10.384064 0.134994
7.411445 10.384064 0.176732
7.726166 10.384064 0.230224
8.040888 10.384064 0.294382
8.355608 10.384064 0.373583
8.670330 10.384064 0.460661
8.985050 10.384064 0.557802
9.299772 10.384064 0.657142
9.614492 10.384064 0.756934
9.929214 10.384064 0.856785
10.243935 10.384064 0.959262
10.558655 10.384064 1.065097
10.873377 10.384064 1.162851
11.188097 10.384064 1.240933
11.502819 10.384064 1.320134
11.817539 10.384064 1.385325
12.132261 10.384064 1.435802
12.446981 10.384064 1.479820
12.761703 10.384064 1.531035
13.076424 10.384064 1.582502
13.391144 10.384064 1.622217
13.705866 10.384064 1.622574
14.020586 10.384064 1.590656
14.335308 10.384064 1.554409
14.650028 10.384064 1.506010
14.964750 10.384064 1.471259
15.279470 10.384064 1.419134
15.594193 10.384064 0.000000
15.908913 10.384064 0.000000
16.223633 10.384064 0.000000
16.538355 10.384064 0.000000
16.853075 10.384064 0.000000
17.167797 10.384064 0.000000
17.482517 10.384064 0.000000
17.797239 10.384064 0.000000
18.111959 10.384064 0.000000
18.426680 10.384064 0.000000
18.741402 10.384064 0.000000
-7.065720 10.069340 0.000000
-6.750999 10.069340 0.005596
-6.436278 10.069340 0.004600
-6.121557 10.069340 0.004559
-5.806836 10.069340 0.004541
-5.492115 10.069340 0.004572
-5.177394 10.069340 0.004505
-4.862673 10.069340 0.004435
-4.547952 10.069340 0.004475
-4.233231 10.069340 0.004497
-3.918510 10.069340 0.004488
-3.603789 10.069340 0.004456
-3.289068 10.069340 0.004459
-2.974347 10.069340 0.004441
-2.659626 10.069340 0.004405
-2.344905 10.069340 0.004501
-2.030184 10.069340 0.004621
-1.715463 10.069340 0.004686
-1.400742 10.069340 0.004746
-1.086021 10.069340 0.004779
-0.771300 10.069340 0.004879
-0.456579 10.069340 0.005032
-0.141859 10.069340 0.005062
0.172863 10.069340 0.005180
0.487584 10.069340 0.005395
0.802305 10.069340 0.005604
1.117026 10.069340 0.005860
1.431747 10.069340 0.006300
1.746467 10.069340 0.006922
2.061188 10.069340 0.007465
2.375909 10.069340 0.008066
2.690630 10.069340 0.008791
3.005352 10.069340 0.009684
3.320073 10.069340 0.010857
3.634794 10.069340 0.012309
3.949515 10.069340 0.014079
4.264236 10.069340 0.016509
4.578956 10.069340 0.019605
4.893677 10.069340 0.023661
5.208398 10.069340 0.029034
5.523119 10.069340 0.036331
5.837841 10.069340 0.046420
6.152562 10.069340 0.060349
6.467283 10.069340 0.078248
6.782003 10.069340 0.104847
7.096724 10.069340 0.139438
7.411445 10.069340 0.182335
7.726166 10.069340 0.234645
8.040888 10.069340 0.297580
8.355608 10.069340 0.376708
8.670330 10.069340 0.460989
8.985050 10.069340 0.566579
9.299772 10.069340 0.666682
9.614492 10.069340 0.768093
9.929214 10.069340 0.864663
10.243935 10.069340 0.962956
10.558655 10.069340 1.065061
10.873377 10.069340 1.168562
11.188097 10.069340 1.252862
11.502819 10.069340 1.331212
11.817539 10.069340 1.388822
12.132261 10.069340 1.427512
12.446981 10.069340 1.461957
12.761703 10.069340 1.531626
13.076424 10.069340 1.593437
13.391144 10.069340 1.628456
13.705866 10.069340 1.617948
14.020586 10.069340 1.585311
14.335308 10.069340 1.538668
14.650028 10.069340 1.495392
14.964750 10.069340 1.456065
15.279470 10.069340 1.410483
15.594193 10.069340 0.000000
15.908913 10.069340 0.000000
16.223633 10.069340 0.000000
16.538355 10.069340 0.000000
16.853075 10.069340 0.000000
17.167797 10.069340 0.000000
17.482517 10.069340 0.000000
17.797239 10.069340 0.000000
18.111959 10.069340 0.000000
18.426680 10.069340 0.000000
18.741402 10.069340 0.000000
-7.065720 9.754620 0.000000
-6.750999 9.754620 0.005514
-6.436278 9.754620 0.004548
-6.121557 9.754620 0.004533
-5.806836 9.754620 0.004556
-5.492115 9.754620 0.004601
-5.177394 9.754620 0.004553
-4.862673 9.754620 0.004435
-4.547952 9.754620 0.004467
-4.233231 9.754620 0.004484
-3.918510 9.754620 0.004483
-3.603789 9.754620 0.004401
-3.289068 9.754620 0.004397
-2.974347 9.754620 0.004380
-2.659626 9.754620 0.004356
-2.344905 9.754620 0.004439
-2.030184 9.754620 0.004572
-1.715463 9.754620 0.004681
-1.400742 9.754620 0.004756
-1.086021 9.754620 0.004804
-0.771300 9.754620 0.004902
-0.456579 9.754620 0.005014
-0.141859 9.754620 0.005000
0.172863 9.754620 0.005160
0.487584 9.754620 0.005375
0.802305 9.754620 0.005586
1.117026 9.754620 0.005857
1.431747 9.754620 0.006322
1.746467 9.754620 0.006916
2.061188 9.754620 0.007478
2.375909 9.754620 0.008120
2.690630 9.754620 0.008878
3.005352 9.754620 0.009830
3.320073 9.754620 0.010987
3.634794 9.754620 0.012358
3.949515 9.754620 0.014152
4.264236 9.754620 0.016589
4.578956 9.754620 0.019646
4.893677 9.754620 0.023665
5.208398 9.754620 0.029111
5.523119 9.754620 0.036766
5.837841 9.754620 0.046550
6.152562 9.754620 0.060856
6.467283 9.754620 0.080004
6.782003 9.754620 0.107169
7.096724 9.754620 0.141258
7.411445 9.754620 0.188302
7.726166 9.754620 0.239779
8.040888 9.754620 0.305002
8.355608 9.754620 0.381348
8.670330 9.754620 0.467967
8.985050 9.754620 0.569446
9.299772 9.754620 0.675920
9.614492 9.754620 0.774885
9.929214 9.754620 0.866126
10.243935 9.754620 0.959107
10.558655 9.754620 1.069288
10.873377 9.754620 1.167821
11.188097 9.754620 1.256772
11.502819 9.754620 1.335070
11.817539 9.754620 1.393692
12.132261 9.754620 1.424873
12.446981 9.754620 1.466106
12.761703 9.754620 1.532359
13.076424 9.754620 1.598194
13.391144 9.754620 1.633215
13.705866 9.754620 1.596275
14.020586 9.754620 1.562896
14.335308 9.754620 1.514829
14.650028 9.754620 1.487434
14.964750 9.754620 1.449861
15.279470 9.754620 1.411572
15.594193 9.754620 0.000000
15.908913 9.754620 0.000000
16.223633 9.754620 0.000000
16.538355 9.754620 0.000000
16.853075 9.754620 0.000000
17.167797 9.754620 0.000000
17.482517 9.754620 0.000000
17.797239 9.754620 0.000000
18.111959 9.754620 0.000000
18.426680 9.754620 0.000000
18.741402 9.754620 0.000000
-7.065720 9.439899 0.000000
-6.750999 9.439899 0.005464
-6.436278 9.439899 0.004547
-6.121557 9.439899 0.004546
-5.806836 9.439899 0.004554
-5.492115 9.439899 0.004597
-5.177394 9.439899 0.004574
-4.862673 9.439899 0.004471
-4.547952 9.439899 0.004436
-4.233231 9.439899 0.004463
-3.918510 9.439899 0.004445
-3.603789 9.439899 0.004348
-3.289068 9.439899 0.004348
-2.974347 9.439899 0.004361
-2.659626 9.439899 0.004349
-2.344905 9.439899 0.004440
-2.030184 9.439899 0.004538
-1.715463 9.439899 0.004634
-1.400742 9.439899 0.004717
-1.086021 9.439899 0.004792
-0.771300 9.439899 0.004916
-0.456579 9.439899 0.004968
-0.141859 9.439899 0.004992
0.172863 9.439899 0.005197
0.487584 9.439899 0.005405
0.802305 9.439899 0.005648
1.117026 9.439899 0.005940
1.431747 9.439899 0.006374
1.746467 9.439899 0.006925
2.061188 9.439899 0.007488
2.375909 9.439899 0.008150
2.690630 9.439899 0.008921
3.005352 9.439899 0.009939
3.320073 9.439899 0.011112
3.634794 9.439899 0.012472
3.949515 9.439899 0.014268
4.264236 9.439899 0.016668
4.578956 9.439899 0.019876
4.893677 9.439899 0.023956
5.208398 9.439899 0.029480
5.523119 9.439899 0.037127
5.837841 9.439899 0.047317
6.152562 9.439899 0.061816
6.467283 9.439899 0.082146
6.782003 9.439899 0.108264
7.096724 9.439899 0.142704
7.411445 9.439899 0.189651
7.726166 9.439899 0.243688
8.040888 9.439899 0.307815
8.355608 9.439899 0.386378
8.670330 9.439899 0.478178
8.985050 9.439899 0.570178
9.299772 9.439899 0.675074
9.614492 9.439899 0.777407
9.929214 9.439899 0.868501
10.243935 9.439899 0.970282
10.558655 9.439899 1.070987
10.873377 9.439899 1.169880
11.188097 9.439899 1.263012
11.502819 9.439899 1.335084
11.817539 9.439899 1.392714
12.132261 9.439899 1.432115
12.446981 9.439899 1.472925
12.761703 9.439899 1.520573
13.076424 9.439899 1.588849
13.391144 9.439899 1.617970
13.705866 9.439899 1.582242
14.020586 9.439899 1.543613
14.335308 9.439899 1.496336
14.650028 9.439899 1.477199
14.964750 9.439899 1.453245
15.279470 9.439899 1.431407
15.594193 9.439899 0.000000
15.908913 9.439899 0.000000
16.223633 9.439899 0.000000
16.538355 9.439899 0.000000
16.853075 9.439899 0.000000
17.167797 9.439899 0.000000
17.482517 9.439899 0.000000
17.797239 9.439899 0.000000
18.111959 9.439899 0.000000
18.426680 9.439899 0.000000
18.741402 9.439899 0.000000
-7.065720 9.125179 0.000000
-6.750999 9.125179 0.005473
-6.436278 9.125179 0.004590
-6.121557 9.125179 0.004592
-5.806836 9.125179 0.004553
-5.492115 9.125179 0.004576
-5.177394 9.125179 0.004545
-4.862673 9.125179 0.004453
-4.547952 9.125179 0.004426
-4.233231 9.125179 0.004435
-3.918510 9.125179 0.004400
-3.603789 9.125179 0.004313
-3.289068 9.125179 0.004342
-2.974347 9.125179 0.004369
-2.659626 9.125179 0.004397
-2.344905 9.125179 0.004483
-2.030184 9.125179 0.004538
-1.715463 9.125179 0.004593
-1.400742 9.125179 0.004677
-1.086021 9.125179 0.004779
-0.771300 9.125179 0.004884
-0.456579 9.125179 0.004935
-0.141859 9.125179 0.005026
0.172863 9.125179 0.005268
0.487584 9.125179 0.005469
0.802305 9.125179 0.005747
1.117026 9.125179 0.006045
1.431747 9.125179 0.006441
1.746467 9.125179 0.006944
2.061188 9.125179 0.007513
2.375909 9.125179 0.008161
2.690630 9.125179 0.008964
3.005352 9.125179 0.010041
3.320073 9.125179 0.011196
3.634794 9.125179 0.012586
3.949515 9.125179 0.014469
4.264236 9.125179 0.016783
4.578956 9.125179 0.020063
4.893677 9.125179 0.024098
5.208398 9.125179 0.029632
5.523119 9.125179 0.037448
5.837841 9.125179 0.047838
6.152562 9.125179 0.063114
6.467283 9.125179 0.083070
6.782003 9.125179 0.109179
7.096724 9.125179 0.143888
7.411445 9.125179 0.189577
7.726166 9.125179 0.246165
8.040888 9.125179 0.311218
8.355608 9.125179 0.384621
8.670330 9.125179 0.478423
8.985050 9.125179 0.575585
9.299772 9.125179 0.675191
9.614492 9.125179 0.770517
9.929214 9.125179 0.863266
10.243935 9.125179 0.967812
10.558655 9.125179 1.075420
10.873377 9.125179 1.175798
11.188097 9.125179 1.256620
11.502819 9.125179 1.325442
11.817539 9.125179 1.380627
12.132261 9.125179 1.422596
12.446981 9.125179 1.468339
12.761703 9.125179 1.508957
13.076424 9.125179 1.574175
13.391144 9.125179 1.600159
13.705866 9.125179 1.569613
14.020586 9.125179 1.523840
14.335308 9.125179 1.508206
14.650028 9.125179 1.492475
14.964750 9.125179 1.461769
15.279470 9.125179 1.417617
15.594193 9.125179 0.000000
15.908913 9.125179 0.000000
16.223633 9.125179 0.000000
16.538355 9.125179 0.000000
16.853075 9.125179 0.000000
17.167797 9.125179 0.000000
17.482517 9.125179 0.000000
17.797239 9.125179 0.000000
18.111959 9.125179 0.000000
18.426680 9.125179 0.000000
18.741402 9.125179 0.000000
-7.065720 8.810455 0.000000
-6.750999 8.810455 0.005457
-6.436278 8.810455 0.004592
-6.121557 8.810455 0.004611
-5.806836 8.810455 0.004585
-5.492115 8.810455 0.004566
-5.177394 8.810455 0.004491
-4.862673 8.810455 0.004415
-4.547952 8.810455 0.004413
-4.233231 8.810455 0.004405
-3.918510 8.810455 0.004369
-3.603789 8.810455 0.004318
-3.289068 8.810455 0.004357
-2.974347 8.810455 0.004391
-2.659626 8.810455 0.004425
-2.344905 8.810455 0.004507
-2.030184 8.810455 0.004521
-1.715463 8.810455 0.004543
-1.400742 8.810455 0.004639
-1.086021 8.810455 0.004741
-0.771300 8.810455 0.004839
-0.456579 8.810455 0.004939
-0.141859 8.810455 0.005088
0.172863 8.810455 0.005319
0.487584 8.810455 0.005541
0.802305 8.810455 0.005859
1.117026 8.810455 0.006140
1.431747 8.810455 0.006480
1.746467 8.810455 0.006982
2.061188 8.810455 0.007546
2.375909 8.810455 0.008221
2.690630 8.810455 0.009033
3.005352 8.810455 0.010121
3.320073 8.810455 0.011279
3.634794 8.810455 0.012667
3.949515 8.810455 0.014591
4.264236 8.810455 0.016980
4.578956 8.810455 0.020128
4.893677 8.810455 0.024312
5.208398 8.810455 0.029999
5.523119 8.810455 0.037571
5.837841 8.810455 0.048564
6.152562 8.810455 0.063742
6.467283 8.810455 0.083504
6.782003 8.810455 0.109926
7.096724 8.810455 0.145534
7.411445 8.810455 0.189919
7.726166 8.810455 0.247312
8.040888 8.810455 0.315716
8.355608 8.810455 0.393045
8.670330 8.810455 0.485647
8.985050 8.810455 0.585008
9.299772 8.810455 0.676629
9.614492 8.810455 0.771698
9.929214 8.810455 0.866270
10.243935 8.810455 0.968685
10.558655 8.810455 1.081514
10.873377 8.810455 1.176817
11.188097 8.810455 1.253724
11.502819 8.810455 1.311691
11.817539 8.810455 1.367369
12.132261 8.810455 1.417115
12.446981 8.810455 1.452392
12.761703 8.810455 1.498272
13.076424 8.810455 1.563163
13.391144 8.810455 1.571758
13.705866 8.810455 1.562093
14.020586 8.810455 1.521701
14.335308 8.810455 1.509240
14.650028 8.810455 1.488140
14.964750 8.810455 1.449702
15.279470 8.810455 1.421734
15.594193 8.810455 0.000000
15.908913 8.810455 0.000000
16.223633 8.810455 0.000000
16.538355 8.810455 0.000000
16.853075 8.810455 0.000000
17.167797 8.810455 0.000000
17.482517 8.810455 0.000000
17.797239 8.810455 0.000000
18.111959 8.810455 0.000000
18.426680 8.810455 0.000000
18.741402 8.810455 0.000000
-7.065720 8.495735 0.000000
-6.750999 8.495735 0.005423
-6.436278 8.495735 0.004557
-6.121557 8.495735 0.004573
-5.806836 8.495735 0.004586
-5.492115 8.495735 0.004568
-5.177394 8.495735 0.004464
-4.862673 8.495735 0.004393
-4.547952 8.495735 0.004393
-4.233231 8.495735 0.004370
-3.918510 8.495735 0.004359
-3.603789 8.495735 0.004337
-3.289068 8.495735 0.004365
-2.974347 8.495735 0.004391
-2.659626 8.495735 0.004414
-2.344905 8.495735 0.004471
-2.030184 8.495735 0.004469
-1.715463 8.495735 0.004508
-1.400742 8.495735 0.004618
-1.086021 8.495735 0.004745
-0.771300 8.495735 0.004843
-0.456579 8.495735 0.004974
-0.141859 8.495735 0.005159
0.172863 8.495735 0.005341
0.487584 8.495735 0.005567
0.802305 8.495735 0.005933
1.117026 8.495735 0.006210
1.431747 8.495735 0.006517
1.746467 8.495735 0.007018
2.061188 8.495735 0.007586
2.375909 8.495735 0.008282
2.690630 8.495735 0.009106
3.005352 8.495735 0.010184
3.320073 8.495735 0.011351
3.634794 8.495735 0.012768
3.949515 8.495735 0.014688
4.264236 8.495735 0.017209
4.578956 8.495735 0.020350
4.893677 8.495735 0.024603
5.208398 8.495735 0.030300
5.523119 8.495735 0.038146
5.837841 8.495735 0.048822
6.152562 8.495735 0.064898
6.467283 8.495735 0.085607
6.782003 8.495735 0.111399
7.096724 8.495735 0.147466
7.411445 8.495735 0.192645
7.726166 8.495735 0.246340
8.040888 8.495735 0.317754
8.355608 8.495735 0.399374
8.670330 8.495735 0.490403
8.985050 8.495735 0.588966
9.299772 8.495735 0.685439
9.614492 8.495735 0.777198
9.929214 8.495735 0.874100
10.243935 8.495735 0.978348
10.558655 8.495735 1.084929
10.873377 8.495735 1.174273
11.188097 8.495735 1.252293
11.502819 8.495735 1.311273
11.817539 8.495735 1.365184
12.132261 8.495735 1.405773
12.446981 8.495735 1.442310
12.761703 8.495735 1.501618
13.076424 8.495735 1.550117
13.391144 8.495735 1.559675
13.705866 8.495735 1.549511
14.020586 8.495735 1.523067
14.335308 8.495735 1.504441
14.650028 8.495735 1.467266
14.964750 8.495735 1.454772
15.279470 8.495735 1.416327
15.594193 8.495735 0.000000
15.908913 8.495735 0.000000
16.223633 8.495735 0.000000
16.538355 8.495735 0.000000
16.853075 8.495735 0.000000
17.167797 8.495735 0.000000
17.482517 8.495735 0.000000
17.797239 8.495735 0.000000
18.111959 8.495735 0.000000
18.426680 8.495735 0.000000
18.741402 8.495735 0.000000
-7.065720 8.181015 0.000000
-6.750999 8.181015 0.005427
-6.436278 8.181015 0.004520
-6.121557 8.181015 0.004512
-5.806836 8.181015 0.004540
-5.492115 8.181015 0.004554
-5.177394 8.181015 0.004455
-4.862673 8.181015 0.004357
-4.547952 8.181015 0.004338
-4.233231 8.181015 0.004337
-3.918510 8.181015 0.004354
-3.603789 8.181015 0.004340
-3.289068 8.181015 0.004335
-2.974347 8.181015 0.004358
-2.659626 8.181015 0.004381
-2.344905 8.181015 0.004387
-2.030184 8.181015 0.004386
-1.715463 8.181015 0.004465
-1.400742 8.181015 0.004588
-1.086021 8.181015 0.004724
-0.771300 8.181015 0.004856
-0.456579 8.181015 0.005015
-0.141859 8.181015 0.005188
0.172863 8.181015 0.005360
0.487584 8.181015 0.005555
0.802305 8.181015 0.005937
1.117026 8.181015 0.006208
1.431747 8.181015 0.006542
1.746467 8.181015 0.007046
2.061188 8.181015 0.007603
2.375909 8.181015 0.008289
2.690630 8.181015 0.009126
3.005352 8.181015 0.010193
3.320073 8.181015 0.011393
3.634794 8.181015 0.012896
3.949515 8.181015 0.014842
4.264236 8.181015 0.017274
4.578956 8.181015 0.020470
4.893677 8.181015 0.025027
5.208398 8.181015 0.030712
5.523119 8.181015 0.038288
5.837841 8.181015 0.049729
6.152562 8.181015 0.065502
6.467283 8.181015 0.086408
6.782003 8.181015 0.114067
7.096724 8.181015 0.151148
7.411445 8.181015 0.198637
7.726166 8.181015 0.255256
8.040888 8.181015 0.322974
8.355608 8.181015 0.408053
8.670330 8.181015 0.495491
8.985050 8.181015 0.589248
9.299772 8.181015 0.682817
9.614492 8.181015 0.780297
9.929214 8.181015 0.874678
10.243935 8.181015 0.978610
10.558655 8.181015 1.078474
10.873377 8.181015 1.174211
11.188097 8.181015 1.249768
11.502819 8.181015 1.307754
11.817539 8.181015 1.372641
12.132261 8.181015 1.411235
12.446981 8.181015 1.455614
12.761703 8.181015 1.503236
13.076424 8.181015 1.549244
13.391144 8.181015 1.554138
13.705866 8.181015 1.538581
14.020586 8.181015 1.526868
14.335308 8.181015 1.493360
14.650028 8.181015 1.461575
14.964750 8.181015 1.452014
15.279470 8.181015 1.418941
15.594193 8.181015 0.000000
15.908913 8.181015 0.000000
16.223633 8.181015 0.000000
16.538355 8.181015 0.000000
16.853075 8.181015 0.000000
17.167797 8.181015 0.000000
17.482517 8.181015 0.000000
17.797239 8.181015 0.000000
18.111959 8.181015 0.000000
18.426680 8.181015 0.000000
18.741402 8.181015 0.000000
-7.065720 7.866295 0.000000
-6.750999 7.866295 0.005463
-6.436278 7.866295 0.004488
-6.121557 7.866295 0.004488
-5.806836 7.866295 0.004501
-5.492115 7.866295 0.004531
-5.177394 7.866295 0.004459
-4.862673 7.866295 0.004326
-4.547952 7.866295 0.004263
-4.233231 7.866295 0.004295
-3.918510 7.866295 0.004345
-3.603789 7.866295 0.004338
-3.289068 7.866295 0.004295
-2.974347 7.866295 0.004327
-2.659626 7.866295 0.004348
-2.344905 7.866295 0.004305
-2.030184 7.866295 0.004298
-1.715463 7.866295 0.004408
-1.400742 7.866295 0.004549
-1.086021 7.866295 0.004686
-0.771300 7.866295 0.004848
-0.456579 7.866295 0.005030
-0.141859 7.866295 0.005196
0.172863 7.866295 0.005346
0.487584 7.866295 0.005552
0.802305 7.866295 0.005885
1.117026 7.866295 0.006138
1.431747 7.866295 0.006524
1.746467 7.866295 0.007062
2.061188 7.866295 0.007596
2.375909 7.866295 0.008256
2.690630 7.866295 0.009097
3.005352 7.866295 0.010163
3.320073 7.866295 0.011413
3.634794 7.866295 0.012967
3.949515 7.866295 0.014927
4.264236 7.866295 0.017393
4.578956 7.866295 0.020590
4.893677 7.866295 0.025130
5.208398 7.866295 0.030833
5.523119 7.866295 0.038871
5.837841 7.866295 0.050670
6.152562 7.866295 0.065786
6.467283 7.866295 0.087599
6.782003 7.866295 0.115599
7.096724 7.866295 0.153907
7.411445 7.866295 0.203195
7.726166 7.866295 0.259025
8.040888 7.866295 0.329456
8.355608 7.866295 0.411627
8.670330 7.866295 0.506626
8.985050 7.866295 0.600702
9.299772 7.866295 0.686958
9.614492 7.866295 0.778884
9.929214 7.866295 0.883183
10.243935 7.866295 0.982846
10.558655 7.866295 1.080945
10.873377 7.866295 1.175094
11.188097 7.866295 1.244865
11.502819 7.866295 1.315081
11.817539 7.866295 1.369119
12.132261 7.866295 1.422800
12.446981 7.866295 1.467987
12.761703 7.866295 1.520961
13.076424 7.866295 1.553926
13.391144 7.866295 1.547861
13.705866 7.866295 1.521902
14.020586 7.866295 1.515523
14.335308 7.866295 1.472771
14.650028 7.866295 1.462769
14.964750 7.866295 1.442346
15.279470 7.866295 1.418934
15.594193 7.866295 0.000000
15.908913 7.866295 0.000000
16.223633 7.866295 0.000000
16.538355 7.866295 0.000000
16.853075 7.866295 0.000000
17.167797 7.866295 0.000000
17.482517 7.866295 0.000000
17.797239 7.866295 0.000000
18.111959 7.866295 0.000000
18.426680 7.866295 0.000000
18.741402 7.866295 0.000000
-7.065720 7.551575 0.000000
-6.750999 7.551575 0.005516
-6.436278 7.551575 0.004497
-6.121557 7.551575 0.004469
-5.806836 7.551575 0.004445
-5.492115 7.551575 0.004480
-5.177394 7.551575 0.004439
-4.862673 7.551575 0.004273
-4.547952 7.551575 0.004209
-4.233231 7.551575 0.004261
-3.918510 7.551575 0.004329
-3.603789 7.551575 0.004313
-3.289068 7.551575 0.004273
-2.974347 7.551575 0.004312
-2.659626 7.551575 0.004317
-2.344905 7.551575 0.004268
-2.030184 7.551575 0.004270
-1.715463 7.551575 0.004378
-1.400742 7.551575 0.004516
-1.086021 7.551575 0.004644
-0.771300 7.551575 0.004839
-0.456579 7.551575 0.005025
-0.141859 7.551575 0.005194
0.172863 7.551575 0.005341
0.487584 7.551575 0.005530
0.802305 7.551575 0.005813
1.117026 7.551575 0.006081
1.431747 7.551575 0.006507
1.746467 7.551575 0.007054
2.061188 7.551575 0.007587
2.375909 7.551575 0.008223
2.690630 7.551575 0.009049
3.005352 7.551575 0.010139
3.320073 7.551575 0.011363
3.634794 7.551575 0.013001
3.949515 7.551575 0.015015
4.264236 7.551575 0.017531
4.578956 7.551575 0.020820
4.893677 7.551575 0.025254
5.208398 7.551575 0.031216
5.523119 7.551575 0.039512
5.837841 7.551575 0.050857
6.152562 7.551575 0.066067
6.467283 7.551575 0.088452
6.782003 7.551575 0.117239
7.096724 7.551575 0.153711
7.411445 7.551575 0.201895
7.726166 7.551575 0.261801
8.040888 7.551575 0.333918
8.355608 7.551575 0.420416
8.670330 7.551575 0.518324
8.985050 7.551575 0.606932
9.299772 7.551575 0.695497
9.614492 7.551575 0.787548
9.929214 7.551575 0.889889
10.243935 7.551575 0.988824
10.558655 7.551575 1.083631
10.873377 7.551575 1.174099
11.188097 7.551575 1.247857
11.502819 7.551575 1.310613
11.817539 7.551575 1.367279
12.132261 7.551575 1.428688
12.446981 7.551575 1.475782
12.761703 7.551575 1.520069
13.076424 7.551575 1.551710
13.391144 7.551575 1.546504
13.705866 7.551575 1.510174
14.020586 7.551575 1.497583
14.335308 7.551575 1.472398
14.650028 7.551575 1.448043
14.964750 7.551575 1.415860
15.279470 7.551575 1.385680
15.594193 7.551575 0.000000
15.908913 7.551575 0.000000
16.223633 7.551575 0.000000
16.538355 7.551575 0.000000
16.853075 7.551575 0.000000
17.167797 7.551575 0.000000
17.482517 7.551575 0.000000
17.797239 7.551575 0.000000
18.111959 7.551575 0.000000
18.426680 7.551575 0.000000
18.741402 7.551575 0.000000
-7.065720 7.236851 0.001769
-6.750999 7.236851 0.005530
-6.436278 7.236851 0.004505
-6.121557 7.236851 0.004439
-5.806836 7.236851 0.004383
-5.492115 7.236851 0.004401
-5.177394 7.236851 0.004357
-4.862673 7.236851 0.004231
-4.547952 7.236851 0.004199
-4.233231 7.236851 0.004269
-3.918510 7.236851 0.004312
-3.603789 7.236851 0.004284
-3.289068 7.236851 0.004269
-2.974347 7.236851 0.004321
-2.659626 7.236851 0.004321
-2.344905 7.236851 0.004280
-2.030184 7.236851 0.004312
-1.715463 7.236851 0.004386
-1.400742 7.236851 0.004515
-1.086021 7.236851 0.004661
-0.771300 7.236851 0.004839
-0.456579 7.236851 0.005014
-0.141859 7.236851 0.005177
0.172863 7.236851 0.005309
0.487584 7.236851 0.005489
0.802305 7.236851 0.005763
1.117026 7.236851 0.006055
1.431747 7.236851 0.006492
1.746467 7.236851 0.007023
2.061188 7.236851 0.007551
2.375909 7.236851 0.008180
2.690630 7.236851 0.009016
3.005352 7.236851 0.010069
3.320073 7.236851 0.011322
3.634794 7.236851 0.012989
3.949515 7.236851 0.015122
4.264236 7.236851 0.017556
4.578956 7.236851 0.020852
4.893677 7.236851 0.025522
5.208398 7.236851 0.031658
5.523119 7.236851 0.040087
5.837841 7.236851 0.051543
6.152562 7.236851 0.067234
6.467283 7.236851 0.089144
6.782003 7.236851 0.118949
7.096724 7.236851 0.155796
7.411445 7.236851 0.201155
7.726166 7.236851 0.262599
8.040888 7.236851 0.338262
8.355608 7.236851 0.424323
8.670330 7.236851 0.518735
8.985050 7.236851 0.612099
9.299772 7.236851 0.703297
9.614492 7.236851 0.796567
9.929214 7.236851 0.903012
10.243935 7.236851 1.000968
10.558655 7.236851 1.096029
10.873377 7.236851 1.180417
11.188097 7.236851 1.253961
11.502819 7.236851 1.309355
11.817539 7.236851 1.365515
12.132261 7.236851 1.427921
12.446981 7.236851 1.481103
12.761703 7.236851 1.525120
13.076424 7.236851 1.548938
13.391144 7.236851 1.544786
13.705866 7.236851 1.519217
14.020586 7.236851 1.477040
14.335308 7.236851 1.472966
14.650028 7.236851 1.438924
14.964750 7.236851 1.411277
15.279470 7.236851 1.323134
15.594193 7.236851 0.000000
15.908913 7.236851 0.000000
16.223633 7.236851 0.000000
16.538355 7.236851 0.000000
16.853075 7.236851 0.000000
17.167797 7.236851 0.000000
17.482517 7.236851 0.000000
17.797239 7.236851 0.000000
18.111959 7.236851 0.000000
18.426680 7.236851 0.000000
18.741402 7.236851 0.000000
-7.065720 6.922131 0.002672
-6.750999 6.922131 0.005429
-6.436278 6.922131 0.004453
-6.121557 6.922131 0.004378
-5.806836 6.922131 0.004346
-5.492115 6.922131 0.004327
-5.177394 6.922131 0.004264
-4.862673 6.922131 0.004221
-4.547952 6.922131 0.004238
-4.233231 6.922131 0.004298
-3.918510 6.922131 0.004305
-3.603789 6.922131 0.004290
-3.289068 6.922131 0.004284
-2.974347 6.922131 0.004341
-2.659626 6.922131 0.004358
-2.344905 6.922131 0.004344
-2.030184 6.922131 0.004377
-1.715463 6.922131 0.004411
-1.400742 6.922131 0.004516
-1.086021 6.922131 0.004690
-0.771300 6.922131 0.004845
-0.456579 6.922131 0.005000
-0.141859 6.922131 0.005140
0.172863 6.922131 0.005278
0.487584 6.922131 0.005455
0.802305 6.922131 0.005754
1.117026 6.922131 0.006042
1.431747 6.922131 0.006456
1.746467 6.922131 0.006986
2.061188 6.922131 0.007529
2.375909 6.922131 0.008170
2.690630 6.922131 0.009036
3.005352 6.922131 0.010065
3.320073 6.922131 0.011245
3.634794 6.922131 0.012917
3.949515 6.922131 0.015109
4.264236 6.922131 0.017600
4.578956 6.922131 0.021111
4.893677 6.922131 0.025940
5.208398 6.922131 0.032226
5.523119 6.922131 0.040614
5.837841 6.922131 0.053283
6.152562 6.922131 0.068964
6.467283 6.922131 0.090293
6.782003 6.922131 0.119121
7.096724 6.922131 0.157068
7.411445 6.922131 0.207137
7.726166 6.922131 0.268979
8.040888 6.922131 0.341845
8.355608 6.922131 0.426222
8.670330 6.922131 0.521817
8.985050 6.922131 0.609928
9.299772 6.922131 0.708369
9.614492 6.922131 0.807176
9.929214 6.922131 0.910387
10.243935 6.922131 1.016346
10.558655 6.922131 1.103187
10.873377 6.922131 1.193161
11.188097 6.922131 1.256907
11.502819 6.922131 1.316708
11.817539 6.922131 1.375693
12.132261 6.922131 1.429372
12.446981 6.922131 1.465705
12.761703 6.922131 1.522722
13.076424 6.922131 1.543472
13.391144 6.922131 1.527618
13.705866 6.922131 1.509920
14.020586 6.922131 1.475641
14.335308 6.922131 1.465664
14.650028 6.922131 1.437031
14.964750 6.922131 1.412584
15.279470 6.922131 1.289433
15.594193 6.922131 0.000000
15.908913 6.922131 0.000000
16.223633 6.922131 0.000000
16.538355 6.922131 0.000000
16.853075 6.922131 0.000000
17.167797 6.922131 0.000000
17.482517 6.922131 0.000000
17.797239 6.922131 0.000000
18.111959 6.922131 0.000000
18.426680 6.922131 0.000000
18.741402 6.922131 0.000000
-7.065720 6.607410 0.001761
-6.750999 6.607410 0.005292
-6.436278 6.607410 0.004354
-6.121557 6.607410 0.004338
-5.806836 6.607410 0.004357
-5.492115 6.607410 0.004308
-5.177394 6.607410 0.004209
-4.862673 6.607410 0.004233
-4.547952 6.607410 0.004318
-4.233231 6.607410 0.004360
-3.918510 6.607410 0.004333
-3.603789 6.607410 0.004327
-3.289068 6.607410 0.004315
-2.974347 6.607410 0.004357
-2.659626 6.607410 0.004399
-2.344905 6.607410 0.004415
-2.030184 6.607410 0.004447
-1.715463 6.607410 0.004445
-1.400742 6.607410 0.004517
-1.086021 6.607410 0.004705
-0.771300 6.607410 0.004869
-0.456579 6.607410 0.004977
-0.141859 6.607410 0.005112
0.172863 6.607410 0.005256
0.487584 6.607410 0.005425
0.802305 6.607410 0.005701
1.117026 6.607410 0.005997
1.431747 6.607410 0.006397
1.746467 6.607410 0.006913
2.061188 6.607410 0.007498
2.375909 6.607410 0.008175
2.690630 6.607410 0.009071
3.005352 6.607410 0.010067
3.320073 6.607410 0.011278
3.634794 6.607410 0.012892
3.949515 6.607410 0.015044
4.264236 6.607410 0.017726
4.578956 6.607410 0.021148
4.893677 6.607410 0.025991
5.208398 6.607410 0.032478
5.523119 6.607410 0.041438
5.837841 6.607410 0.054034
6.152562 6.607410 0.071206
6.467283 6.607410 0.093925
6.782003 6.607410 0.122495
7.096724 6.607410 0.161208
7.411445 6.607410 0.212997
7.726166 6.607410 0.272700
8.040888 6.607410 0.343778
8.355608 6.607410 0.430197
8.670330 6.607410 0.518022
8.985050 6.607410 0.609599
9.299772 6.607410 0.711471
9.614492 6.607410 0.810553
9.929214 6.607410 0.921878
10.243935 6.607410 1.020883
10.558655 6.607410 1.114277
10.873377 6.607410 1.194722
11.188097 6.607410 1.265491
11.502819 6.607410 1.320422
11.817539 6.607410 1.388174
12.132261 6.607410 1.428910
12.446981 6.607410 1.466979
12.761703 6.607410 1.508809
13.076424 6.607410 1.535542
13.391144 6.607410 1.514774
13.705866 6.607410 1.499490
14.020586 6.607410 1.485317
14.335308 6.607410 1.471032
14.650028 6.607410 1.441195
14.964750 6.607410 1.399162
15.279470 6.607410 1.275308
15.594193 6.607410 0.000000
15.908913 6.607410 0.000000
16.223633 6.607410 0.000000
16.538355 6.607410 0.000000
16.853075 6.607410 0.000000
17.167797 6.607410 0.000000
17.482517 6.607410 0.000000
17.797239 6.607410 0.000000
18.111959 6.607410 0.000000
18.426680 6.607410 0.000000
18.741402 6.607410 0.000000
-7.065720 6.292690 0.002093
-6.750999 6.292690 0.005187
-6.436278 6.292690 0.004294
-6.121557 6.292690 0.004333
-5.806836 6.292690 0.004370
-5.492115 6.292690 0.004322
-5.177394 6.292690 0.004224
-4.862673 6.292690 0.004276
-4.547952 6.292690 0.004386
-4.233231 6.292690 0.004401
-3.918510 6.292690 0.004382
-3.603789 6.292690 0.004378
-3.289068 6.292690 0.004334
-2.974347 6.292690 0.004344
-2.659626 6.292690 0.004409
-2.344905 6.292690 0.004468
-2.030184 6.292690 0.004503
-1.715463 6.292690 0.004496
-1.400742 6.292690 0.004561
-1.086021 6.292690 0.004704
-0.771300 6.292690 0.004862
-0.456579 6.292690 0.004961
-0.141859 6.292690 0.005106
0.172863 6.292690 0.005265
0.487584 6.292690 0.005428
0.802305 6.292690 0.005666
1.117026 6.292690 0.005958
1.431747 6.292690 0.006370
1.746467 6.292690 0.006866
2.061188 6.292690 0.007474
2.375909 6.292690 0.008190
2.690630 6.292690 0.009054
3.005352 6.292690 0.010086
3.320073 6.292690 0.011304
3.634794 6.292690 0.012946
3.949515 6.292690 0.015084
4.264236 6.292690 0.017770
4.578956 6.292690 0.021340
4.893677 6.292690 0.026233
5.208398 6.292690 0.032954
5.523119 6.292690 0.041812
5.837841 6.292690 0.054487
6.152562 6.292690 0.072274
6.467283 6.292690 0.095499
6.782003 6.292690 0.126140
7.096724 6.292690 0.165806
7.411445 6.292690 0.216559
7.726166 6.292690 0.278514
8.040888 6.292690 0.347534
8.355608 6.292690 0.436649
8.670330 6.292690 0.525016
8.985050 6.292690 0.619302
9.299772 6.292690 0.717867
9.614492 6.292690 0.814493
9.929214 6.292690 0.915574
10.243935 6.292690 1.015445
10.558655 6.292690 1.112888
10.873377 6.292690 1.202519
11.188097 6.292690 1.270647
11.502819 6.292690 1.331432
11.817539 6.292690 1.406504
12.132261 6.292690 1.444116
12.446981 6.292690 1.468342
12.761703 6.292690 1.502721
13.076424 6.292690 1.535334
13.391144 6.292690 1.517990
13.705866 6.292690 1.510656
14.020586 6.292690 1.487230
14.335308 6.292690 1.477263
14.650028 6.292690 1.438959
14.964750 6.292690 1.397257
15.279470 6.292690 1.252933
15.594193 6.292690 0.000000
15.908913 6.292690 0.000000
16.223633 6.292690 0.000000
16.538355 6.292690 0.000000
16.853075 6.292690 0.000000
17.167797 6.292690 0.000000
17.482517 6.292690 0.000000
17.797239 6.292690 0.000000
18.111959 6.292690 0.000000
18.426680 6.292690 0.000000
18.741402 6.292690 0.000000
-7.065720 5.977966 0.002089
-6.750999 5.977966 0.005167
-6.436278 5.977966 0.004294
-6.121557 5.977966 0.004359
-5.806836 5.977966 0.004368
-5.492115 5.977966 0.004342
-5.177394 5.977966 0.004287
-4.862673 5.977966 0.004314
-4.547952 5.977966 0.004393
-4.233231 5.977966 0.004401
-3.918510 5.977966 0.004401
-3.603789 5.977966 0.004399
-3.289068 5.977966 0.004339
-2.974347 5.977966 0.004328
-2.659626 5.977966 0.004392
-2.344905 5.977966 0.004479
-2.030184 5.977966 0.004539
-1.715463 5.977966 0.004548
-1.400742 5.977966 0.004596
-1.086021 5.977966 0.004696
-0.771300 5.977966 0.004822
-0.456579 5.977966 0.004941
-0.141859 5.977966 0.005110
0.172863 5.977966 0.005276
0.487584 5.977966 0.005456
0.802305 5.977966 0.005679
1.117026 5.977966 0.005976
1.431747 5.977966 0.006405
1.746467 5.977966 0.006874
2.061188 5.977966 0.007462
2.375909 5.977966 0.008173
2.690630 5.977966 0.009074
3.005352 5.977966 0.010109
3.320073 5.977966 0.011381
3.634794 5.977966 0.013021
3.949515 5.977966 0.015200
4.264236 5.977966 0.017890
4.578956 5.977966 0.021564
4.893677 5.977966 0.026363
5.208398 5.977966 0.033319
5.523119 5.977966 0.042476
5.837841 5.977966 0.055368
6.152562 5.977966 0.072704
6.467283 5.977966 0.096270
6.782003 5.977966 0.126725
7.096724 5.977966 0.167074
7.411445 5.977966 0.218900
7.726166 5.977966 0.281388
8.040888 5.977966 0.356038
8.355608 5.977966 0.443763
8.670330 5.977966 0.535499
8.985050 5.977966 0.624174
9.299772 5.977966 0.721690
9.614492 5.977966 0.816998
9.929214 5.977966 0.925592
10.243935 5.977966 1.019583
10.558655 5.977966 1.113326
10.873377 5.977966 1.204150
11.188097 5.977966 1.274615
11.502819 5.977966 1.330441
11.817539 5.977966 1.401053
12.132261 5.977966 1.453236
12.446981 5.977966 1.474598
12.761703 5.977966 1.502137
13.076424 5.977966 1.524335
13.391144 5.977966 1.515817
13.705866 5.977966 1.496876
14.020586 5.977966 1.484841
14.335308 5.977966 1.472272
14.650028 5.977966 1.428388
14.964750 5.977966 1.371456
15.279470 5.977966 1.239977
15.594193 5.977966 0.000000
15.908913 5.977966 0.000000
16.223633 5.977966 0.000000
16.538355 5.977966 0.000000
16.853075 5.977966 0.000000
17.167797 5.977966 0.000000
17.482517 5.977966 0.000000
17.797239 5.977966 0.000000
18.111959 5.977966 0.000000
18.426680 5.977966 0.000000
18.741402 5.977966 0.000000
-7.065720 5.663246 0.002579
-6.750999 5.663246 0.005202
-6.436278 5.663246 0.004326
-6.121557 5.663246 0.004389
-5.806836 5.663246 0.004369
-5.492115 5.663246 0.004371
-5.177394 5.663246 0.004352
-4.862673 5.663246 0.004358
-4.547952 5.663246 0.004380
-4.233231 5.663246 0.004362
-3.918510 5.663246 0.004376
-3.603789 5.663246 0.004388
-3.289068 5.663246 0.004346
-2.974347 5.663246 0.004333
-2.659626 5.663246 0.004361
-2.344905 5.663246 0.004484
-2.030184 5.663246 0.004555
-1.715463 5.663246 0.004579
-1.400742 5.663246 0.004649
-1.086021 5.663246 0.004686
-0.771300 5.663246 0.004776
-0.456579 5.663246 0.004912
-0.141859 5.663246 0.005108
0.172863 5.663246 0.005279
0.487584 5.663246 0.005489
0.802305 5.663246 0.005742
1.117026 5.663246 0.006060
1.431747 5.663246 0.006481
1.746467 5.663246 0.006902
2.061188 5.663246 0.007463
2.375909 5.663246 0.008188
2.690630 5.663246 0.009084
3.005352 5.663246 0.010166
3.320073 5.663246 0.011442
3.634794 5.663246 0.013084
3.949515 5.663246 0.015319
4.264236 5.663246 0.018189
4.578956 5.663246 0.021926
4.893677 5.663246 0.026728
5.208398 5.663246 0.033584
5.523119 5.663246 0.043232
5.837841 5.663246 0.056423
6.152562 5.663246 0.073716
6.467283 5.663246 0.098459
6.782003 5.663246 0.129529
7.096724 5.663246 0.168811
7.411445 5.663246 0.222408
7.726166 5.663246 0.286426
8.040888 5.663246 0.363405
8.355608 5.663246 0.453796
8.670330 5.663246 0.547518
8.985050 5.663246 0.634343
9.299772 5.663246 0.723821
9.614492 5.663246 0.821255
9.929214 5.663246 0.929779
10.243935 5.663246 1.027291
10.558655 5.663246 1.122574
10.873377 5.663246 1.213160
11.188097 5.663246 1.275137
11.502819 5.663246 1.327846
11.817539 5.663246 1.390949
12.132261 5.663246 1.443462
12.446981 5.663246 1.481176
12.761703 5.663246 1.511047
13.076424 5.663246 1.522644
13.391144 5.663246 1.513975
13.705866 5.663246 1.505205
14.020586 5.663246 1.482781
14.335308 5.663246 1.463176
14.650028 5.663246 1.422325
14.964750 5.663246 1.377365
15.279470 5.663246 1.215413
15.594193 5.663246 0.000000
15.908913 5.663246 0.000000
16.223633 5.663246 0.000000
16.538355 5.663246 0.000000
16.853075 5.663246 0.000000
17.167797 5.663246 0.000000
17.482517 5.663246 0.000000
17.797239 5.663246 0.000000
18.111959 5.663246 0.000000
18.426680 5.663246 0.000000
18.741402 5.663246 0.000000
-7.065720 5.348526 0.003336
-6.750999 5.348526 0.005218
-6.436278 5.348526 0.004366
-6.121557 5.348526 0.004417
-5.806836 5.348526 0.004404
-5.492115 5.348526 0.004395
-5.177394 5.348526 0.004402
-4.862673 5.348526 0.004389
-4.547952 5.348526 0.004366
-4.233231 5.348526 0.004329
-3.918510 5.348526 0.004326
-3.603789 5.348526 0.004356
-3.289068 5.348526 0.004367
-2.974347 5.348526 0.004344
-2.659626 5.348526 0.004350
-2.344905 5.348526 0.004503
-2.030184 5.348526 0.004574
-1.715463 5.348526 0.004595
-1.400742 5.348526 0.004684
-1.086021 5.348526 0.004732
-0.771300 5.348526 0.004770
-0.456579 5.348526 0.004895
-0.141859 5.348526 0.005089
0.172863 5.348526 0.005286
0.487584 5.348526 0.005547
0.802305 5.348526 0.005867
1.117026 5.348526 0.006194
1.431747 5.348526 0.006570
1.746467 5.348526 0.006967
2.061188 5.348526 0.007510
2.375909 5.348526 0.008259
2.690630 5.348526 0.009160
3.005352 5.348526 0.010214
3.320073 5.348526 0.011500
3.634794 5.348526 0.013191
3.949515 5.348526 0.015432
4.264236 5.348526 0.018320
4.578956 5.348526 0.022020
4.893677 5.348526 0.027035
5.208398 5.348526 0.034110
5.523119 5.348526 0.043739
5.837841 5.348526 0.056843
6.152562 5.348526 0.074982
6.467283 5.348526 0.099258
6.782003 5.348526 0.129638
7.096724 5.348526 0.170593
7.411445 5.348526 0.224822
7.726166 5.348526 0.289569
8.040888 5.348526 0.370541
8.355608 5.348526 0.460724
8.670330 5.348526 0.556000
8.985050 5.348526 0.639354
9.299772 5.348526 0.730313
9.614492 5.348526 0.829321
9.929214 5.348526 0.934773
10.243935 5.348526 1.025626
10.558655 5.348526 1.124361
10.873377 5.348526 1.211086
11.188097 5.348526 1.278770
11.502819 5.348526 1.334034
11.817539 5.348526 1.391094
12.132261 5.348526 1.445082
12.446981 5.348526 1.484439
12.761703 5.348526 1.510648
13.076424 5.348526 1.522693
13.391144 5.348526 1.513956
13.705866 5.348526 1.501462
14.020586 5.348526 1.475835
14.335308 5.348526 1.447344
14.650028 5.348526 1.404295
14.964750 5.348526 1.359928
15.279470 5.348526 1.196312
15.594193 5.348526 0.000000
15.908913 5.348526 0.000000
16.223633 5.348526 0.000000
16.538355 5.348526 0.000000
16.853075 5.348526 0.000000
17.167797 5.348526 0.000000
17.482517 5.348526 0.000000
17.797239 5.348526 0.000000
18.111959 5.348526 0.000000
18.426680 5.348526 0.000000
18.741402 5.348526 0.000000
-7.065720 5.033806 0.004451
-6.750999 5.033806 0.005182
-6.436278 5.033806 0.004360
-6.121557 5.033806 0.004437
-5.806836 5.033806 0.004448
-5.492115 5.033806 0.004419
-5.177394 5.033806 0.004408
-4.862673 5.033806 0.004380
-4.547952 5.033806 0.004360
-4.233231 5.033806 0.004311
-3.918510 5.033806 0.004286
-3.603789 5.033806 0.004340
-3.289068 5.033806 0.004393
-2.974347 5.033806 0.004369
-2.659626 5.033806 0.004359
-2.344905 5.033806 0.004515
-2.030184 5.033806 0.004599
-1.715463 5.033806 0.004604
-1.400742 5.033806 0.004728
-1.086021 5.033806 0.004785
-0.771300 5.033806 0.004805
-0.456579 5.033806 0.004904
-0.141859 5.033806 0.005097
0.172863 5.033806 0.005317
0.487584 5.033806 0.005647
0.802305 5.033806 0.006009
1.117026 5.033806 0.006307
1.431747 5.033806 0.006647
1.746467 5.033806 0.007065
2.061188 5.033806 0.007633
2.375909 5.033806 0.008369
2.690630 5.033806 0.009245
3.005352 5.033806 0.010292
3.320073 5.033806 0.011627
3.634794 5.033806 0.013315
3.949515 5.033806 0.015542
4.264236 5.033806 0.018481
4.578956 5.033806 0.022387
4.893677 5.033806 0.027552
5.208398 5.033806 0.034720
5.523119 5.033806 0.044246
5.837841 5.033806 0.058210
6.152562 5.033806 0.076884
6.467283 5.033806 0.101795
6.782003 5.033806 0.131213
7.096724 5.033806 0.176377
7.411445 5.033806 0.229961
7.726166 5.033806 0.295473
8.040888 5.033806 0.374899
8.355608 5.033806 0.463624
8.670330 5.033806 0.553732
8.985050 5.033806 0.642017
9.299772 5.033806 0.732423
9.614492 5.033806 0.839997
9.929214 5.033806 0.939281
10.243935 5.033806 1.029243
10.558655 5.033806 1.121830
10.873377 5.033806 1.201967
11.188097 5.033806 1.274916
11.502819 5.033806 1.341678
11.817539 5.033806 1.402728
12.132261 5.033806 1.456657
12.446981 5.033806 1.479348
12.761703 5.033806 1.501773
13.076424 5.033806 1.517294
13.391144 5.033806 1.516924
13.705866 5.033806 1.508326
14.020586 5.033806 1.475625
14.335308 5.033806 1.434099
14.650028 5.033806 1.387980
14.964750 5.033806 1.343028
15.279470 5.033806 1.183919
15.594193 5.033806 0.000000
15.908913 5.033806 0.000000
16.223633 5.033806 0.000000
16.538355 5.033806 0.000000
16.853075 5.033806 0.000000
17.167797 5.033806 0.000000
17.482517 5.033806 0.000000
17.797239 5.033806 0.000000
18.111959 5.033806 0.000000
18.426680 5.033806 0.000000
18.741402 5.033806 0.000000
-7.065720 4.719086 0.005429
-6.750999 4.719086 0.005072
-6.436278 4.719086 0.004338
-6.121557 4.719086 0.004450
-5.806836 4.719086 0.004454
-5.492115 4.719086 0.004405
-5.177394 4.719086 0.004379
-4.862673 4.719086 0.004373
-4.547952 4.719086 0.004351
-4.233231 4.719086 0.004293
-3.918510 4.719086 0.004273
-3.603789 4.719086 0.004324
-3.289068 4.719086 0.004395
-2.974347 4.719086 0.004385
-2.659626 4.719086 0.004394
-2.344905 4.719086 0.004494
-2.030184 4.719086 0.004576
-1.715463 4.719086 0.004621
-1.400742 4.719086 0.004756
-1.086021 4.719086 0.004837
-0.771300 4.719086 0.004852
-0.456579 4.719086 0.004952
-0.141859 4.719086 0.005122
0.172863 4.719086 0.005382
0.487584 4.719086 0.005744
0.802305 4.719086 0.006086
1.117026 4.719086 0.006334
1.431747 4.719086 0.006680
1.746467 4.719086 0.007165
2.061188 4.719086 0.007775
2.375909 4.719086 0.008476
2.690630 4.719086 0.009358
3.005352 4.719086 0.010388
3.320073 4.719086 0.011750
3.634794 4.719086 0.013476
3.949515 4.719086 0.015715
4.264236 4.719086 0.018693
4.578956 4.719086 0.022511
4.893677 4.719086 0.027738
5.208398 4.719086 0.034979
5.523119 4.719086 0.044892
5.837841 4.719086 0.058901
6.152562 4.719086 0.078639
6.467283 4.719086 0.103864
6.782003 4.719086 0.137181
7.096724 4.719086 0.181346
7.411445 4.719086 0.235831
7.726166 4.719086 0.301452
8.040888 4.719086 0.379188
8.355608 4.719086 0.468108
8.670330 4.719086 0.554376
8.985050 4.719086 0.651166
9.299772 4.719086 0.746712
9.614492 4.719086 0.843187
9.929214 4.719086 0.948689
10.243935 4.719086 1.038360
10.558655 4.719086 1.119815
10.873377 4.719086 1.196630
11.188097 4.719086 1.272110
11.502819 4.719086 1.336119
11.817539 4.719086 1.398803
12.132261 4.719086 1.454623
12.446981 4.719086 1.486531
12.761703 4.719086 1.507811
13.076424 4.719086 1.516950
13.391144 4.719086 1.506439
13.705866 4.719086 1.485632
14.020586 4.719086 1.456098
14.335308 4.719086 1.425131
14.650028 4.719086 1.379822
14.964750 4.719086 1.352090
15.279470 4.719086 1.155051
15.594193 4.719086 0.000000
15.908913 4.719086 0.000000
16.223633 4.719086 0.000000
16.538355 4.719086 0.000000
16.853075 4.719086 0.000000
17.167797 4.719086 0.000000
17.482517 4.719086 0.000000
17.797239 4.719086 0.000000
18.111959 4.719086 0.000000
18.426680 4.719086 0.000000
18.741402 4.719086 0.000000
-7.065720 4.404362 0.006036
-6.750999 4.404362 0.004937
-6.436278 4.404362 0.004325
-6.121557 4.404362 0.004470
-5.806836 4.404362 0.004456
-5.492115 4.404362 0.004394
-5.177394 4.404362 0.004318
-4.862673 4.404362 0.004370
-4.547952 4.404362 0.004347
-4.233231 4.404362 0.004303
-3.918510 4.404362 0.004310
-3.603789 4.404362 0.004344
-3.289068 4.404362 0.004380
-2.974347 4.404362 0.004402
-2.659626 4.404362 0.004415
-2.344905 4.404362 0.004454
-2.030184 4.404362 0.004536
-1.715463 4.404362 0.004632
-1.400742 4.404362 0.004750
-1.086021 4.404362 0.004847
-0.771300 4.404362 0.004893
-0.456579 4.404362 0.005012
-0.141859 4.404362 0.005209
0.172863 4.404362 0.005470
0.487584 4.404362 0.005789
0.802305 4.404362 0.006082
1.117026 4.404362 0.006330
1.431747 4.404362 0.006713
1.746467 4.404362 0.007267
2.061188 4.404362 0.007861
2.375909 4.404362 0.008535
2.690630 4.404362 0.009402
3.005352 4.404362 0.010499
3.320073 4.404362 0.011902
3.634794 4.404362 0.013578
3.949515 4.404362 0.015800
4.264236 4.404362 0.018776
4.578956 4.404362 0.022752
4.893677 4.404362 0.028058
5.208398 4.404362 0.035722
5.523119 4.404362 0.045833
5.837841 4.404362 0.059455
6.152562 4.404362 0.080683
6.467283 4.404362 0.106313
6.782003 4.404362 0.141740
7.096724 4.404362 0.184405
7.411445 4.404362 0.239345
7.726166 4.404362 0.306024
8.040888 4.404362 0.386957
8.355608 4.404362 0.475668
8.670330 4.404362 0.564608
8.985050 4.404362 0.662897
9.299772 4.404362 0.753109
9.614492 4.404362 0.851150
9.929214 4.404362 0.948250
10.243935 4.404362 1.037241
10.558655 4.404362 1.117472
10.873377 4.404362 1.193292
11.188097 4.404362 1.269128
11.502819 4.404362 1.336707
11.817539 4.404362 1.405007
12.132261 4.404362 1.461769
12.446981 4.404362 1.492722
12.761703 4.404362 1.509595
13.076424 4.404362 1.516159
13.391144 4.404362 1.495870
13.705866 4.404362 1.473996
14.020586 4.404362 1.448404
14.335308 4.404362 1.419945
14.650028 4.404362 1.389457
14.964750 4.404362 1.340798
15.279470 4.404362 1.075514
15.594193 4.404362 0.000000
15.908913 4.404362 0.000000
16.223633 4.404362 0.000000
16.538355 4.404362 0.000000
16.853075 4.404362 0.000000
17.167797 4.404362 0.000000
17.482517 4.404362 0.000000
17.797239 4.404362 0.000000
18.111959 4.404362 0.000000
18.426680 4.404362 0.000000
18.741402 4.404362 0.000000
-7.065720 4.089642 0.006370
-6.750999 4.089642 0.004913
-6.436278 4.089642 0.004346
-6.121557 4.089642 0.004468
-5.806836 4.089642 0.004438
-5.492115 4.089642 0.004389
-5.177394 4.089642 0.004306
-4.862673 4.089642 0.004342
-4.547952 4.089642 0.004328
-4.233231 4.089642 0.004309
-3.918510 4.089642 0.004359
-3.603789 4.089642 0.004379
-3.289068 4.089642 0.004397
-2.974347 4.089642 0.004406
-2.659626 4.089642 0.004391
-2.344905 4.089642 0.004406
-2.030184 4.089642 0.004511
-1.715463 4.089642 0.004656
-1.400742 4.089642 0.004745
-1.086021 4.089642 0.004826
-0.771300 4.089642 0.004902
-0.456579 4.089642 0.005083
-0.141859 4.089642 0.005318
0.172863 4.089642 0.005540
0.487584 4.089642 0.005775
0.802305 4.089642 0.006039
1.117026 4.089642 0.006326
1.431747 4.089642 0.006761
1.746467 4.089642 0.007342
2.061188 4.089642 0.007904
2.375909 4.089642 0.008563
2.690630 4.089642 0.009402
3.005352 4.089642 0.010559
3.320073 4.089642 0.011982
3.634794 4.089642 0.013702
3.949515 4.089642 0.015895
4.264236 4.089642 0.019027
4.578956 4.089642 0.023065
4.893677 4.089642 0.028590
5.208398 4.089642 0.036235
5.523119 4.089642 0.046416
5.837841 4.089642 0.061074
6.152562 4.089642 0.081231
6.467283 4.089642 0.108319
6.782003 4.089642 0.142291
7.096724 4.089642 0.187166
7.411445 4.089642 0.239999
7.726166 4.089642 0.307947
8.040888 4.089642 0.389151
8.355608 4.089642 0.483548
8.670330 4.089642 0.577276
8.985050 4.089642 0.670750
9.299772 4.089642 0.757965
9.614492 4.089642 0.844642
9.929214 4.089642 0.942265
10.243935 4.089642 1.037263
10.558655 4.089642 1.125349
10.873377 4.089642 1.191930
11.188097 4.089642 1.269444
11.502819 4.089642 1.343866
11.817539 4.089642 1.404856
12.132261 4.089642 1.456234
12.446981 4.089642 1.481696
12.761703 4.089642 1.487427
13.076424 4.089642 1.491680
13.391144 4.089642 1.476064
13.705866 4.089642 1.450794
14.020586 4.089642 1.423506
14.335308 4.089642 1.411366
14.650028 4.089642 1.377792
14.964750 4.089642 1.334398
15.279470 4.089642 1.028262
15.594193 4.089642 0.000000
15.908913 4.089642 0.000000
16.223633 4.089642 0.000000
16.538355 4.089642 0.000000
16.853075 4.089642 0.000000
17.167797 4.089642 0.000000
17.482517 4.089642 0.000000
17.797239 4.089642 0.000000
18.111959 4.089642 0.000000
18.426680 4.089642 0.000000
18.741402 4.089642 0.000000
-7.065720 3.774921 0.006528
-6.750999 3.774921 0.004988
-6.436278 3.774921 0.004362
-6.121557 3.774921 0.004450
-5.806836 3.774921 0.004424
-5.492115 3.774921 0.004413
-5.177394 3.774921 0.004333
-4.862673 3.774921 0.004315
-4.547952 3.774921 0.004297
-4.233231 3.774921 0.004296
-3.918510 3.774921 0.004374
-3.603789 3.774921 0.004412
-3.289068 3.774921 0.004415
-2.974347 3.774921 0.004377
-2.659626 3.774921 0.004350
-2.344905 3.774921 0.004405
-2.030184 3.774921 0.004514
-1.715463 3.774921 0.004687
-1.400742 3.774921 0.004778
-1.086021 3.774921 0.004836
-0.771300 3.774921 0.004954
-0.456579 3.774921 0.005165
-0.141859 3.774921 0.005382
0.172863 3.774921 0.005568
0.487584 3.774921 0.005734
0.802305 3.774921 0.006001
1.117026 3.774921 0.006383
1.431747 3.774921 0.006827
1.746467 3.774921 0.007362
2.061188 3.774921 0.007911
2.375909 3.774921 0.008579
2.690630 3.774921 0.009454
3.005352 3.774921 0.010634
3.320073 3.774921 0.012091
3.634794 3.774921 0.013831
3.949515 3.774921 0.016170
4.264236 3.774921 0.019335
4.578956 3.774921 0.023557
4.893677 3.774921 0.029084
5.208398 3.774921 0.036712
5.523119 3.774921 0.047012
5.837841 3.774921 0.061668
6.152562 3.774921 0.082186
6.467283 3.774921 0.109303
6.782003 3.774921 0.144096
7.096724 3.774921 0.188407
7.411445 3.774921 0.246225
7.726166 3.774921 0.313357
8.040888 3.774921 0.393809
8.355608 3.774921 0.495825
8.670330 3.774921 0.583956
8.985050 3.774921 0.674544
9.299772 3.774921 0.762264
9.614492 3.774921 0.854746
9.929214 3.774921 0.947012
10.243935 3.774921 1.038801
10.558655 3.774921 1.127859
10.873377 3.774921 1.194248
11.188097 3.774921 1.266968
11.502819 3.774921 1.342072
11.817539 3.774921 1.396485
12.132261 3.774921 1.444325
12.446981 3.774921 1.465901
12.761703 3.774921 1.468725
13.076424 3.774921 1.472710
13.391144 3.774921 1.459472
13.705866 3.774921 1.430777
14.020586 3.774921 1.404399
14.335308 3.774921 1.386900
14.650028 3.774921 1.362234
14.964750 3.774921 1.317088
15.279470 3.774921 0.888306
15.594193 3.774921 0.000000
15.908913 3.774921 0.000000
16.223633 3.774921 0.000000
16.538355 3.774921 0.000000
16.853075 3.774921 0.000000
17.167797 3.774921 0.000000
17.482517 3.774921 0.000000
17.797239 3.774921 0.000000
18.111959 3.774921 0.000000
18.426680 3.774921 0.000000
18.741402 3.774921 0.000000
-7.065720 3.460201 0.006649
-6.750999 3.460201 0.005083
-6.436278 3.460201 0.004367
-6.121557 3.460201 0.004413
-5.806836 3.460201 0.004411
-5.492115 3.460201 0.004440
-5.177394 3.460201 0.004348
-4.862673 3.460201 0.004300
-4.547952 3.460201 0.004308
-4.233231 3.460201 0.004312
-3.918510 3.460201 0.004376
-3.603789 3.460201 0.004425
-3.289068 3.460201 0.004433
-2.974347 3.460201 0.004371
-2.659626 3.460201 0.004372
-2.344905 3.460201 0.004481
-2.030184 3.460201 0.004537
-1.715463 3.460201 0.004708
-1.400742 3.460201 0.004823
-1.086021 3.460201 0.004858
-0.771300 3.460201 0.005024
-0.456579 3.460201 0.005256
-0.141859 3.460201 0.005411
0.172863 3.460201 0.005557
0.487584 3.460201 0.005738
0.802305 3.460201 0.006010
1.117026 3.460201 0.006440
1.431747 3.460201 0.006914
1.746467 3.460201 0.007356
2.061188 3.460201 0.007879
2.375909 3.460201 0.008599
2.690630 3.460201 0.009535
3.005352 3.460201 0.010675
3.320073 3.460201 0.012166
3.634794 3.460201 0.013972
3.949515 3.460201 0.016314
4.264236 3.460201 0.019603
4.578956 3.460201 0.024068
4.893677 3.460201 0.029794
5.208398 3.460201 0.036896
5.523119 3.460201 0.047569
5.837841 3.460201 0.062419
6.152562 3.460201 0.082694
6.467283 3.460201 0.109659
6.782003 3.460201 0.145297
7.096724 3.460201 0.190942
7.411445 3.460201 0.250172
7.726166 3.460201 0.320783
8.040888 3.460201 0.404325
8.355608 3.460201 0.500941
8.670330 3.460201 0.593469
8.985050 3.460201 0.684813
9.299772 3.460201 0.777620
9.614492 3.460201 0.865203
9.929214 3.460201 0.960903
10.243935 3.460201 1.047584
10.558655 3.460201 1.117110
10.873377 3.460201 1.200861
11.188097 3.460201 1.269628
11.502819 3.460201 1.326426
11.817539 3.460201 1.387893
12.132261 3.460201 1.435086
12.446981 3.460201 1.450467
12.761703 3.460201 1.469495
13.076424 3.460201 1.462069
13.391144 3.460201 1.450635
13.705866 3.460201 1.416523
14.020586 3.460201 1.389670
14.335308 3.460201 1.366645
14.650028 3.460201 1.337039
14.964750 3.460201 1.279456
15.279470 3.460201 0.602980
15.594193 3.460201 0.000000
15.908913 3.460201 0.000000
16.223633 3.460201 0.000000
16.538355 3.460201 0.000000
16.853075 3.460201 0.000000
17.167797 3.460201 0.000000
17.482517 3.460201 0.000000
17.797239 3.460201 0.000000
18.111959 3.460201 0.000000
18.426680 3.460201 0.000000
18.741402 3.460201 0.000000
-7.065720 3.145477 0.006706
-6.750999 3.145477 0.005103
-6.436278 3.145477 0.004336
-6.121557 3.145477 0.004379
-5.806836 3.145477 0.004387
-5.492115 3.145477 0.004435
-5.177394 3.145477 0.004340
-4.862673 3.145477 0.004323
-4.547952 3.145477 0.004358
-4.233231 3.145477 0.004327
-3.918510 3.145477 0.004367
-3.603789 3.145477 0.004432
-3.289068 3.145477 0.004459
-2.974347 3.145477 0.004410
-2.659626 3.145477 0.004454
-2.344905 3.145477 0.004574
-2.030184 3.145477 0.004589
-1.715463 3.145477 0.004736
-1.400742 3.145477 0.004877
-1.086021 3.145477 0.004902
-0.771300 3.145477 0.005091
-0.456579 3.145477 0.005325
-0.141859 3.145477 0.005406
0.172863 3.145477 0.005540
0.487584 3.145477 0.005769
0.802305 3.145477 0.006050
1.117026 3.145477 0.006456
1.431747 3.145477 0.006915
1.746467 3.145477 0.007346
2.061188 3.145477 0.007855
2.375909 3.145477 0.008646
2.690630 3.145477 0.009560
3.005352 3.145477 0.010724
3.320073 3.145477 0.012227
3.634794 3.145477 0.014160
3.949515 3.145477 0.016530
4.264236 3.145477 0.020009
4.578956 3.145477 0.024547
4.893677 3.145477 0.030078
5.208398 3.145477 0.037466
5.523119 3.145477 0.048697
5.837841 3.145477 0.063935
6.152562 3.145477 0.084699
6.467283 3.145477 0.112158
6.782003 3.145477 0.151066
7.096724 3.145477 0.196760
7.411445 3.145477 0.256493
7.726166 3.145477 0.327366
8.040888 3.145477 0.410648
8.355608 3.145477 0.505913
8.670330 3.145477 0.601943
8.985050 3.145477 0.696873
9.299772 3.145477 0.794298
9.614492 3.145477 0.879110
9.929214 3.145477 0.968229
10.243935 3.145477 1.045682
10.558655 3.145477 1.122132
10.873377 3.145477 1.199926
11.188097 3.145477 1.274417
11.502819 3.145477 1.328420
11.817539 3.145477 1.378281
12.132261 3.145477 1.433827
12.446981 3.145477 1.448819
12.761703 3.145477 1.463738
13.076424 3.145477 1.455511
13.391144 3.145477 1.451843
13.705866 3.145477 1.410242
14.020586 3.145477 1.374204
14.335308 3.145477 1.352874
14.650028 3.145477 1.313978
14.964750 3.145477 1.254006
15.279470 3.145477 0.571323
15.594193 3.145477 0.000000
15.908913 3.145477 0.000000
16.223633 3.145477 0.000000
16.538355 3.145477 0.000000
16.853075 3.145477 0.000000
17.167797 3.145477 0.000000
17.482517 3.145477 0.000000
17.797239 3.145477 0.000000
18.111959 3.145477 0.000000
18.426680 3.145477 0.000000
18.741402 3.145477 0.000000
-7.065720 2.830757 0.006718
-6.750999 2.830757 0.005112
-6.436278 2.830757 0.004322
-6.121557 2.830757 0.004369
-5.806836 2.830757 0.004363
-5.492115 2.830757 0.004398
-5.177394 2.830757 0.004337
-4.862673 2.830757 0.004371
-4.547952 2.830757 0.004382
-4.233231 2.830757 0.004359
-3.918510 2.830757 0.004361
-3.603789 2.830757 0.004426
-3.289068 2.830757 0.004482
-2.974347 2.830757 0.004473
-2.659626 2.830757 0.004543
-2.344905 2.830757 0.004658
-2.030184 2.830757 0.004679
-1.715463 2.830757 0.004781
-1.400742 2.830757 0.004920
-1.086021 2.830757 0.004983
-0.771300 2.830757 0.005156
-0.456579 2.830757 0.005337
-0.141859 2.830757 0.005400
0.172863 2.830757 0.005529
0.487584 2.830757 0.005804
0.802305 2.830757 0.006099
1.117026 2.830757 0.006455
1.431747 2.830757 0.006897
1.746467 2.830757 0.007333
2.061188 2.830757 0.007855
2.375909 2.830757 0.008661
2.690630 2.830757 0.009576
3.005352 2.830757 0.010773
3.320073 2.830757 0.012370
3.634794 2.830757 0.014333
3.949515 2.830757 0.016768
4.264236 2.830757 0.020032
4.578956 2.830757 0.024757
4.893677 2.830757 0.030564
5.208398 2.830757 0.038235
5.523119 2.830757 0.049879
5.837841 2.830757 0.065498
6.152562 2.830757 0.087398
6.467283 2.830757 0.115274
6.782003 2.830757 0.154068
7.096724 2.830757 0.203056
7.411445 2.830757 0.264044
7.726166 2.830757 0.332568
8.040888 2.830757 0.415660
8.355608 2.830757 0.513395
8.670330 2.830757 0.610259
8.985050 2.830757 0.710427
9.299772 2.830757 0.805034
9.614492 2.830757 0.890069
9.929214 2.830757 0.972428
10.243935 2.830757 1.052358
10.558655 2.830757 1.128235
10.873377 2.830757 1.208776
11.188097 2.830757 1.278805
11.502819 2.830757 1.333809
11.817539 2.830757 1.384661
12.132261 2.830757 1.423473
12.446981 2.830757 1.444155
12.761703 2.830757 1.461287
13.076424 2.830757 1.459232
13.391144 2.830757 1.447875
13.705866 2.830757 1.403568
14.020586 2.830757 1.356445
14.335308 2.830757 1.324152
14.650028 2.830757 1.298766
14.964750 2.830757 1.246206
15.279470 2.830757 0.532085
15.594193 2.830757 0.000000
15.908913 2.830757 0.000000
16.223633 2.830757 0.000000
16.538355 2.830757 0.000000
16.853075 2.830757 0.000000
17.167797 2.830757 0.000000
17.482517 2.830757 0.000000
17.797239 2.830757 0.000000
18.111959 2.830757 0.000000
18.426680 2.830757 0.000000
18.741402 2.830757 0.000000
-7.065720 2.516037 0.006680
-6.750999 2.516037 0.005120
-6.436278 2.516037 0.004351
-6.121557 2.516037 0.004386
-5.806836 2.516037 0.004378
-5.492115 2.516037 0.004375
-5.177394 2.516037 0.004366
-4.862673 2.516037 0.004440
-4.547952 2.516037 0.004423
-4.233231 2.516037 0.004393
-3.918510 2.516037 0.004378
-3.603789 2.516037 0.004427
-3.289068 2.516037 0.004496
-2.974347 2.516037 0.004530
-2.659626 2.516037 0.004602
-2.344905 2.516037 0.004692
-2.030184 2.516037 0.004757
-1.715463 2.516037 0.004830
-1.400742 2.516037 0.004936
-1.086021 2.516037 0.005041
-0.771300 2.516037 0.005199
-0.456579 2.516037 0.005337
-0.141859 2.516037 0.005407
0.172863 2.516037 0.005553
0.487584 2.516037 0.005849
0.802305 2.516037 0.006158
1.117026 2.516037 0.006482
1.431747 2.516037 0.006881
1.746467 2.516037 0.007348
2.061188 2.516037 0.007898
2.375909 2.516037 0.008703
2.690630 2.516037 0.009587
3.005352 2.516037 0.010865
3.320073 2.516037 0.012472
3.634794 2.516037 0.014459
3.949515 2.516037 0.016938
4.264236 2.516037 0.020335
4.578956 2.516037 0.024845
4.893677 2.516037 0.031060
5.208398 2.516037 0.039186
5.523119 2.516037 0.051056
5.837841 2.516037 0.067209
6.152562 2.516037 0.089686
6.467283 2.516037 0.118776
6.782003 2.516037 0.157207
7.096724 2.516037 0.206779
7.411445 2.516037 0.265561
7.726166 2.516037 0.340570
8.040888 2.516037 0.420269
8.355608 2.516037 0.515198
8.670330 2.516037 0.613849
8.985050 2.516037 0.712335
9.299772 2.516037 0.803717
9.614492 2.516037 0.884187
9.929214 2.516037 0.972930
10.243935 2.516037 1.062016
10.558655 2.516037 1.140666
10.873377 2.516037 1.221770
11.188097 2.516037 1.288961
11.502819 2.516037 1.349205
11.817539 2.516037 1.399364
12.132261 2.516037 1.429006
12.446981 2.516037 1.446217
12.761703 2.516037 1.446059
13.076424 2.516037 1.464405
13.391144 2.516037 1.454105
13.705866 2.516037 1.405841
14.020586 2.516037 1.355343
14.335308 2.516037 1.313243
14.650028 2.516037 1.267233
14.964750 2.516037 1.247719
15.279470 2.516037 0.508242
15.594193 2.516037 0.000000
15.908913 2.516037 0.000000
16.223633 2.516037 0.000000
16.538355 2.516037 0.000000
16.853075 2.516037 0.000000
17.167797 2.516037 0.000000
17.482517 2.516037 0.000000
17.797239 2.516037 0.000000
18.111959 2.516037 0.000000
18.426680 2.516037 0.000000
18.741402 2.516037 0.000000
-7.065720 2.201317 0.006611
-6.750999 2.201317 0.005131
-6.436278 2.201317 0.004397
-6.121557 2.201317 0.004435
-5.806836 2.201317 0.004429
-5.492115 2.201317 0.004424
-5.177394 2.201317 0.004430
-4.862673 2.201317 0.004489
-4.547952 2.201317 0.004476
-4.233231 2.201317 0.004461
-3.918510 2.201317 0.004440
-3.603789 2.201317 0.004469
-3.289068 2.201317 0.004522
-2.974347 2.201317 0.004575
-2.659626 2.201317 0.004625
-2.344905 2.201317 0.004713
-2.030184 2.201317 0.004786
-1.715463 2.201317 0.004865
-1.400742 2.201317 0.004911
-1.086021 2.201317 0.005029
-0.771300 2.201317 0.005196
-0.456579 2.201317 0.005327
-0.141859 2.201317 0.005447
0.172863 2.201317 0.005584
0.487584 2.201317 0.005895
0.802305 2.201317 0.006216
1.117026 2.201317 0.006470
1.431747 2.201317 0.006851
1.746467 2.201317 0.007366
2.061188 2.201317 0.007982
2.375909 2.201317 0.008767
2.690630 2.201317 0.009711
3.005352 2.201317 0.010961
3.320073 2.201317 0.012578
3.634794 2.201317 0.014535
3.949515 2.201317 0.017116
4.264236 2.201317 0.020499
4.578956 2.201317 0.024974
4.893677 2.201317 0.031204
5.208398 2.201317 0.040060
5.523119 2.201317 0.052145
5.837841 2.201317 0.068501
6.152562 2.201317 0.090815
6.467283 2.201317 0.121062
6.782003 2.201317 0.160265
7.096724 2.201317 0.208602
7.411445 2.201317 0.269270
7.726166 2.201317 0.346456
8.040888 2.201317 0.432993
8.355608 2.201317 0.522113
8.670330 2.201317 0.623159
8.985050 2.201317 0.716930
9.299772 2.201317 0.811201
9.614492 2.201317 0.895389
9.929214 2.201317 0.979346
10.243935 2.201317 1.067624
10.558655 2.201317 1.141638
10.873377 2.201317 1.226485
11.188097 2.201317 1.287909
11.502819 2.201317 1.347643
11.817539 2.201317 1.399151
12.132261 2.201317 1.429137
12.446981 2.201317 1.438892
12.761703 2.201317 1.443694
13.076424 2.201317 1.463390
13.391144 2.201317 1.450666
13.705866 2.201317 1.410434
14.020586 2.201317 1.351620
14.335308 2.201317 1.296331
14.650028 2.201317 1.249702
14.964750 2.201317 1.206897
15.279470 2.201317 0.381093
15.594193 2.201317 0.000000
15.908913 2.201317 0.000000
16.223633 2.201317 0.000000
16.538355 2.201317 0.000000
16.853075 2.201317 0.000000
17.167797 2.201317 0.000000
17.482517 2.201317 0.000000
17.797239 2.201317 0.000000
18.111959 2.201317 0.000000
18.426680 2.201317 0.000000
18.741402 2.201317 0.000000
-7.065720 1.886597 0.006581
-6.750999 1.886597 0.005189
-6.436278 1.886597 0.004457
-6.121557 1.886597 0.004503
-5.806836 1.886597 0.004541
-5.492115 1.886597 0.004516
-5.177394 1.886597 0.004508
-4.862673 1.886597 0.004527
-4.547952 1.886597 0.004530
-4.233231 1.886597 0.004532
-3.918510 1.886597 0.004506
-3.603789 1.886597 0.004499
-3.289068 1.886597 0.004553
-2.974347 1.886597 0.004613
-2.659626 1.886597 0.004637
-2.344905 1.886597 0.004712
-2.030184 1.886597 0.004781
-1.715463 1.886597 0.004843
-1.400742 1.886597 0.004857
-1.086021 1.886597 0.005020
-0.771300 1.886597 0.005185
-0.456579 1.886597 0.005325
-0.141859 1.886597 0.005487
0.172863 1.886597 0.005624
0.487584 1.886597 0.005918
0.802305 1.886597 0.006235
1.117026 1.886597 0.006490
1.431747 1.886597 0.006850
1.746467 1.886597 0.007383
2.061188 1.886597 0.008042
2.375909 1.886597 0.008862
2.690630 1.886597 0.009830
3.005352 1.886597 0.011101
3.320073 1.886597 0.012657
3.634794 1.886597 0.014669
3.949515 1.886597 0.017259
4.264236 1.886597 0.020642
4.578956 1.886597 0.025269
4.893677 1.886597 0.031653
5.208398 1.886597 0.040721
5.523119 1.886597 0.053397
5.837841 1.886597 0.069420
6.152562 1.886597 0.092493
6.467283 1.886597 0.122478
6.782003 1.886597 0.162244
7.096724 1.886597 0.212141
7.411445 1.886597 0.272477
7.726166 1.886597 0.353078
8.040888 1.886597 0.441378
8.355608 1.886597 0.533189
8.670330 1.886597 0.622617
8.985050 1.886597 0.720466
9.299772 1.886597 0.819083
9.614492 1.886597 0.911399
9.929214 1.886597 0.990999
10.243935 1.886597 1.081285
10.558655 1.886597 1.150427
10.873377 1.886597 1.224537
11.188097 1.886597 1.290012
11.502819 1.886597 1.357395
11.817539 1.886597 1.393121
12.132261 1.886597 1.425079
12.446981 1.886597 1.428236
12.761703 1.886597 1.436241
13.076424 1.886597 1.454384
13.391144 1.886597 1.435427
13.705866 1.886597 1.400238
14.020586 1.886597 1.340944
14.335308 1.886597 1.264334
14.650028 1.886597 1.220604
14.964750 1.886597 1.184856
15.279470 1.886597 0.290069
15.594193 1.886597 0.000000
15.908913 1.886597 0.000000
16.223633 1.886597 0.000000
16.538355 1.886597 0.000000
16.853075 1.886597 0.000000
17.167797 1.886597 0.000000
17.482517 1.886597 0.000000
17.797239 1.886597 0.000000
18.111959 1.886597 0.000000
18.426680 1.886597 0.000000
18.741402 1.886597 0.000000
-7.065720 1.571873 0.006672
-6.750999 1.571873 0.005227
-6.436278 1.571873 0.004505
-6.121557 1.571873 0.004554
-5.806836 1.571873 0.004618
-5.492115 1.571873 0.004598
-5.177394 1.571873 0.004559
-4.862673 1.571873 0.004535
-4.547952 1.571873 0.004552
-4.233231 1.571873 0.004549
-3.918510 1.571873 0.004526
-3.603789 1.571873 0.004504
-3.289068 1.571873 0.004585
-2.974347 1.571873 0.004657
-2.659626 1.571873 0.004704
-2.344905 1.571873 0.004731
-2.030184 1.571873 0.004751
-1.715463 1.571873 0.004833
-1.400742 1.571873 0.004848
-1.086021 1.571873 0.005013
-0.771300 1.571873 0.005190
-0.456579 1.571873 0.005317
-0.141859 1.571873 0.005505
0.172863 1.571873 0.005684
0.487584 1.571873 0.005902
0.802305 1.571873 0.006234
1.117026 1.571873 0.006542
1.431747 1.571873 0.006904
1.746467 1.571873 0.007425
2.061188 1.571873 0.008096
2.375909 1.571873 0.008956
2.690630 1.571873 0.009957
3.005352 1.571873 0.011225
3.320073 1.571873 0.012831
3.634794 1.571873 0.014802
3.949515 1.571873 0.017532
4.264236 1.571873 0.020993
4.578956 1.571873 0.025729
4.893677 1.571873 0.032478
5.208398 1.571873 0.041534
5.523119 1.571873 0.054085
5.837841 1.571873 0.071176
6.152562 1.571873 0.094026
6.467283 1.571873 0.124329
6.782003 1.571873 0.164127
7.096724 1.571873 0.218647
7.411445 1.571873 0.279385
7.726166 1.571873 0.359236
8.040888 1.571873 0.450238
8.355608 1.571873 0.539283
8.670330 1.571873 0.625754
8.985050 1.571873 0.727518
9.299772 1.571873 0.827679
9.614492 1.571873 0.927344
9.929214 1.571873 1.007300
10.243935 1.571873 1.086210
10.558655 1.571873 1.159743
10.873377 1.571873 1.229552
11.188097 1.571873 1.298873
11.502819 1.571873 1.359620
11.817539 1.571873 1.388589
12.132261 1.571873 1.427518
12.446981 1.571873 1.431031
12.761703 1.571873 1.425488
13.076424 1.571873 1.435588
13.391144 1.571873 1.431414
13.705866 1.571873 1.391758
14.020586 1.571873 1.325205
14.335308 1.571873 1.242624
14.650028 1.571873 1.175424
14.964750 1.571873 1.123968
15.279470 1.571873 0.000000
15.594193 1.571873 0.000000
15.908913 1.571873 0.000000
16.223633 1.571873 0.000000
16.538355 1.571873 0.000000
16.853075 1.571873 0.000000
17.167797 1.571873 0.000000
17.482517 1.571873 0.000000
17.797239 1.571873 0.000000
18.111959 1.571873 0.000000
18.426680 1.571873 0.000000
18.741402 1.571873 0.000000
-7.065720 1.257153 0.006719
-6.750999 1.257153 0.005260
-6.436278 1.257153 0.004532
-6.121557 1.257153 0.004565
-5.806836 1.257153 0.004659
-5.492115 1.257153 0.004624
-5.177394 1.257153 0.004571
-4.862673 1.257153 0.004535
-4.547952 1.257153 0.004527
-4.233231 1.257153 0.004515
-3.918510 1.257153 0.004533
-3.603789 1.257153 0.004508
-3.289068 1.257153 0.004587
-2.974347 1.257153 0.004701
-2.659626 1.257153 0.004774
-2.344905 1.257153 0.004747
-2.030184 1.257153 0.004753
-1.715463 1.257153 0.004847
-1.400742 1.257153 0.004875
-1.086021 1.257153 0.005015
-0.771300 1.257153 0.005199
-0.456579 1.257153 0.005306
-0.141859 1.257153 0.005520
0.172863 1.257153 0.005744
0.487584 1.257153 0.005884
0.802305 1.257153 0.006208
1.117026 1.257153 0.006589
1.431747 1.257153 0.006985
1.746467 1.257153 0.007464
2.061188 1.257153 0.008140
2.375909 1.257153 0.009033
2.690630 1.257153 0.010056
3.005352 1.257153 0.011362
3.320073 1.257153 0.012980
3.634794 1.257153 0.015024
3.949515 1.257153 0.017718
4.264236 1.257153 0.021218
4.578956 1.257153 0.026161
4.893677 1.257153 0.032906
5.208398 1.257153 0.041961
5.523119 1.257153 0.054931
5.837841 1.257153 0.072961
6.152562 1.257153 0.096591
6.467283 1.257153 0.128332
6.782003 1.257153 0.170434
7.096724 1.257153 0.225420
7.411445 1.257153 0.288962
7.726166 1.257153 0.365705
8.040888 1.257153 0.458211
8.355608 1.257153 0.544524
8.670330 1.257153 0.638826
8.985050 1.257153 0.737317
9.299772 1.257153 0.838229
9.614492 1.257153 0.929703
9.929214 1.257153 1.016458
10.243935 1.257153 1.101730
10.558655 1.257153 1.173732
10.873377 1.257153 1.238452
11.188097 1.257153 1.306921
11.502819 1.257153 1.373491
11.817539 1.257153 1.400850
12.132261 1.257153 1.420466
12.446981 1.257153 1.429653
12.761703 1.257153 1.422336
13.076424 1.257153 1.432283
13.391144 1.257153 1.409611
13.705866 1.257153 1.358086
14.020586 1.257153 1.288375
14.335308 1.257153 1.207912
14.650028 1.257153 1.133983
14.964750 1.257153 1.056731
15.279470 1.257153 0.000000
15.594193 1.257153 0.000000
15.908913 1.257153 0.000000
16.223633 1.257153 0.000000
16.538355 1.257153 0.000000
16.853075 1.257153 0.000000
17.167797 1.257153 0.000000
17.482517 1.257153 0.000000
17.797239 1.257153 0.000000
18.111959 1.257153 0.000000
18.426680 1.257153 0.000000
18.741402 1.257153 0.000000
-7.065720 0.942432 0.006682
-6.750999 0.942432 0.005233
-6.436278 0.942432 0.004517
-6.121557 0.942432 0.004549
-5.806836 0.942432 0.004630
-5.492115 0.942432 0.004623
-5.177394 0.942432 0.004555
-4.862673 0.942432 0.004503
-4.547952 0.942432 0.004478
-4.233231 0.942432 0.004476
-3.918510 0.942432 0.004540
-3.603789 0.942432 0.004526
-3.289068 0.942432 0.004545
-2.974347 0.942432 0.004690
-2.659626 0.942432 0.004793
-2.344905 0.942432 0.004766
-2.030184 0.942432 0.004776
-1.715463 0.942432 0.004884
-1.400742 0.942432 0.004934
-1.086021 0.942432 0.005043
-0.771300 0.942432 0.005197
-0.456579 0.942432 0.005300
-0.141859 0.942432 0.005518
0.172863 0.942432 0.005781
0.487584 0.942432 0.005932
0.802305 0.942432 0.006250
1.117026 0.942432 0.006633
1.431747 0.942432 0.007048
1.746467 0.942432 0.007521
2.061188 0.942432 0.008208
2.375909 0.942432 0.009076
2.690630 0.942432 0.010119
3.005352 0.942432 0.011518
3.320073 0.942432 0.013141
3.634794 0.942432 0.015182
3.949515 0.942432 0.017967
4.264236 0.942432 0.021568
4.578956 0.942432 0.026667
4.893677 0.942432 0.033624
5.208398 0.942432 0.042898
5.523119 0.942432 0.056101
5.837841 0.942432 0.074408
6.152562 0.942432 0.099835
6.467283 0.942432 0.132537
6.782003 0.942432 0.177554
7.096724 0.942432 0.230275
7.411445 0.942432 0.294874
7.726166 0.942432 0.374778
8.040888 0.942432 0.461028
8.355608 0.942432 0.552664
8.670330 0.942432 0.646210
8.985050 0.942432 0.736786
9.299772 0.942432 0.835157
9.614492 0.942432 0.925120
9.929214 0.942432 1.019499
10.243935 0.942432 1.110512
10.558655 0.942432 1.180080
10.873377 0.942432 1.244830
11.188097 0.942432 1.316276
11.502819 0.942432 1.376591
11.817539 0.942432 1.415716
12.132261 0.942432 1.423681
12.446981 0.942432 1.426951
12.761703 0.942432 1.413581
13.076424 0.942432 1.422297
13.391144 0.942432 1.404820
13.705866 0.942432 1.354527
14.020586 0.942432 1.262348
14.335308 0.942432 1.166236
14.650028 0.942432 1.092841
14.964750 0.942432 0.959299
15.279470 0.942432 0.000000
15.594193 0.942432 0.000000
15.908913 0.942432 0.000000
16.223633 0.942432 0.000000
16.538355 0.942432 0.000000
16.853075 0.942432 0.000000
17.167797 0.942432 0.000000
17.482517 0.942432 0.000000
17.797239 0.942432 0.000000
18.111959 0.942432 0.000000
18.426680 0.942432 0.000000
18.741402 0.942432 0.000000
-7.065720 0.627712 0.006648
-6.750999 0.627712 0.005181
-6.436278 0.627712 0.004521
-6.121557 0.627712 0.004555
-5.806836 0.627712 0.004590
-5.492115 0.627712 0.004596
-5.177394 0.627712 0.004532
-4.862673 0.627712 0.004484
-4.547952 0.627712 0.004441
-4.233231 0.627712 0.004451
-3.918510 0.627712 0.004550
-3.603789 0.627712 0.004563
-3.289068 0.627712 0.004540
-2.974347 0.627712 0.004634
-2.659626 0.627712 0.004757
-2.344905 0.627712 0.004821
-2.030184 0.627712 0.004851
-1.715463 0.627712 0.004933
-1.400742 0.627712 0.004991
-1.086021 0.627712 0.005094
-0.771300 0.627712 0.005207
-0.456579 0.627712 0.005302
-0.141859 0.627712 0.005490
0.172863 0.627712 0.005764
0.487584 0.627712 0.005994
0.802305 0.627712 0.006313
1.117026 0.627712 0.006661
1.431747 0.627712 0.007059
1.746467 0.627712 0.007592
2.061188 0.627712 0.008288
2.375909 0.627712 0.009112
2.690630 0.627712 0.010160
3.005352 0.627712 0.011610
3.320073 0.627712 0.013302
3.634794 0.627712 0.015277
3.949515 0.627712 0.017977
4.264236 0.627712 0.021850
4.578956 0.627712 0.027179
4.893677 0.627712 0.034248
5.208398 0.627712 0.043723
5.523119 0.627712 0.056478
5.837841 0.627712 0.076038
6.152562 0.627712 0.103141
6.467283 0.627712 0.136864
6.782003 0.627712 0.180632
7.096724 0.627712 0.235513
7.411445 0.627712 0.304857
7.726166 0.627712 0.383110
8.040888 0.627712 0.465933
8.355608 0.627712 0.562602
8.670330 0.627712 0.654272
8.985050 0.627712 0.749587
9.299772 0.627712 0.835613
9.614492 0.627712 0.923543
9.929214 0.627712 1.024492
10.243935 0.627712 1.115989
10.558655 0.627712 1.189581
10.873377 0.627712 1.257379
11.188097 0.627712 1.321856
11.502819 0.627712 1.373631
11.817539 0.627712 1.412616
12.132261 0.627712 1.433620
12.446981 0.627712 1.440145
12.761703 0.627712 1.417426
13.076424 0.627712 1.410319
13.391144 0.627712 1.398569
13.705866 0.627712 1.330584
14.020586 0.627712 1.249229
14.335308 0.627712 1.127097
14.650028 0.627712 1.047870
14.964750 0.627712 0.585712
15.279470 0.627712 0.000000
15.594193 0.627712 0.000000
15.908913 0.627712 0.000000
16.223633 0.627712 0.000000
16.538355 0.627712 0.000000
16.853075 0.627712 0.000000
17.167797 0.627712 0.000000
17.482517 0.627712 0.000000
17.797239 0.627712 0.000000
18.111959 0.627712 0.000000
18.426680 0.627712 0.000000
18.741402 0.627712 0.000000
-7.065720 0.312992 0.006569
-6.750999 0.312992 0.005109
-6.436278 0.312992 0.004486
-6.121557 0.312992 0.004523
-5.806836 0.312992 0.004558
-5.492115 0.312992 0.004567
-5.177394 0.312992 0.004513
-4.862673 0.312992 0.004466
-4.547952 0.312992 0.004442
-4.233231 0.312992 0.004471
-3.918510 0.312992 0.004560
-3.603789 0.312992 0.004591
-3.289068 0.312992 0.004557
-2.974347 0.312992 0.004579
-2.659626 0.312992 0.004702
-2.344905 0.312992 0.004847
-2.030184 0.312992 0.004897
-1.715463 0.312992 0.004953
-1.400742 0.312992 0.005001
-1.086021 0.312992 0.005129
-0.771300 0.312992 0.005210
-0.456579 0.312992 0.005307
-0.141859 0.312992 0.005486
0.172863 0.312992 0.005738
0.487584 0.312992 0.006026
0.802305 0.312992 0.006340
1.117026 0.312992 0.006629
1.431747 0.312992 0.007055
1.746467 0.312992 0.007647
2.061188 0.312992 0.008329
2.375909 0.312992 0.009117
2.690630 0.312992 0.010185
3.005352 0.312992 0.011699
3.320073 0.312992 0.013452
3.634794 0.312992 0.015415
3.949515 0.312992 0.018129
4.264236 0.312992 0.022070
4.578956 0.312992 0.027657
4.893677 0.312992 0.034612
5.208398 0.312992 0.044166
5.523119 0.312992 0.057910
5.837841 0.312992 0.077199
6.152562 0.312992 0.102666
6.467283 0.312992 0.138064
6.782003 0.312992 0.183998
7.096724 0.312992 0.239121
7.411445 0.312992 0.307298
7.726166 0.312992 0.388487
8.040888 0.312992 0.475151
8.355608 0.312992 0.567290
8.670330 0.312992 0.660600
8.985050 0.312992 0.751761
9.299772 0.312992 0.845481
9.614492 0.312992 0.935128
9.929214 0.312992 1.030665
10.243935 0.312992 1.115405
10.558655 0.312992 1.183455
10.873377 0.312992 1.247693
11.188097 0.312992 1.315538
11.502819 0.312992 1.377242
11.817539 0.312992 1.420913
12.132261 0.312992 1.441677
12.446981 0.312992 1.447968
12.761703 0.312992 1.430903
13.076424 0.312992 1.420336
13.391144 0.312992 1.395737
13.705866 0.312992 1.313735
14.020586 0.312992 1.222589
14.335308 0.312992 1.104608
14.650028 0.312992 1.025205
14.964750 0.312992 0.000000
15.279470 0.312992 0.000000
15.594193 0.312992 0.000000
15.908913 0.312992 0.000000
16.223633 0.312992 0.000000
16.538355 0.312992 0.000000
16.853075 0.312992 0.000000
17.167797 0.312992 0.000000
17.482517 0.312992 0.000000
17.797239 0.312992 0.000000
18.111959 0.312992 0.000000
18.426680 0.312992 0.000000
18.741402 0.312992 0.000000
-7.065720 -0.001732 0.006459
-6.750999 -0.001732 0.005109
-6.436278 -0.001732 0.004458
-6.121557 -0.001732 0.004498
-5.806836 -0.001732 0.004554
-5.492115 -0.001732 0.004576
-5.177394 -0.001732 0.004495
-4.862673 -0.001732 0.004456
-4.547952 -0.001732 0.004485
-4.233231 -0.001732 0.004518
-3.918510 -0.001732 0.004589
-3.603789 -0.001732 0.004637
-3.289068 -0.001732 0.004592
-2.974347 -0.001732 0.004556
-2.659626 -0.001732 0.004679
-2.344905 -0.001732 0.004852
-2.030184 -0.001732 0.004926
-1.715463 -0.001732 0.004947
-1.400742 -0.001732 0.004985
-1.086021 -0.001732 0.005142
-0.771300 -0.001732 0.005216
-0.456579 -0.001732 0.005296
-0.141859 -0.001732 0.005478
0.172863 -0.001732 0.005718
0.487584 -0.001732 0.006008
0.802305 -0.001732 0.006335
1.117026 -0.001732 0.006585
1.431747 -0.001732 0.007038
1.746467 -0.001732 0.007665
2.061188 -0.001732 0.008329
2.375909 -0.001732 0.009128
2.690630 -0.001732 0.010241
3.005352 -0.001732 0.011758
3.320073 -0.001732 0.013472
3.634794 -0.001732 0.015507
3.949515 -0.001732 0.018299
4.264236 -0.001732 0.022401
4.578956 -0.001732 0.027923
4.893677 -0.001732 0.034745
5.208398 -0.001732 0.044540
5.523119 -0.001732 0.059301
5.837841 -0.001732 0.077882
6.152562 -0.001732 0.103387
6.467283 -0.001732 0.138991
6.782003 -0.001732 0.185198
7.096724 -0.001732 0.240008
7.411445 -0.001732 0.310835
7.726166 -0.001732 0.387006
8.040888 -0.001732 0.477130
8.355608 -0.001732 0.564405
8.670330 -0.001732 0.659732
8.985050 -0.001732 0.747767
9.299772 -0.001732 0.847668
9.614492 -0.001732 0.946494
9.929214 -0.001732 1.024645
10.243935 -0.001732 1.113345
10.558655 -0.001732 1.189195
10.873377 -0.001732 1.249399
11.188097 -0.001732 1.317793
11.502819 -0.001732 1.377420
11.817539 -0.001732 1.432320
12.132261 -0.001732 1.449207
12.446981 -0.001732 1.444647
12.761703 -0.001732 1.430440
13.076424 -0.001732 1.407898
13.391144 -0.001732 1.380163
13.705866 -0.001732 1.319444
14.020586 -0.001732 1.201994
14.335308 -0.001732 1.100145
14.650028 -0.001732 1.026447
14.964750 -0.001732 0.000000
15.279470 -0.001732 0.000000
15.594193 -0.001732 0.000000
15.908913 -0.001732 0.000000
16.223633 -0.001732 0.000000
16.538355 -0.001732 0.000000
16.853075 -0.001732 0.000000
17.167797 -0.001732 0.000000
17.482517 -0.001732 0.000000
17.797239 -0.001732 0.000000
18.111959 -0.001732 0.000000
18.426680 -0.001732 0.000000
18.741402 -0.001732 0.000000
-7.065720 -0.316452 0.005150
-6.750999 -0.316452 0.005397
-6.436278 -0.316452 0.004701
-6.121557 -0.316452 0.004687
-5.806836 -0.316452 0.004764
-5.492115 -0.316452 0.004768
-5.177394 -0.316452 0.004640
-4.862673 -0.316452 0.004583
-4.547952 -0.316452 0.004657
-4.233231 -0.316452 0.004701
-3.918510 -0.316452 0.004759
-3.603789 -0.316452 0.004806
-3.289068 -0.316452 0.004756
-2.974347 -0.316452 0.004698
-2.659626 -0.316452 0.004816
-2.344905 -0.316452 0.004990
-2.030184 -0.316452 0.005070
-1.715463 -0.316452 0.005078
-1.400742 -0.316452 0.005094
-1.086021 -0.316452 0.005270
-0.771300 -0.316452 0.005357
-0.456579 -0.316452 0.005396
-0.141859 -0.316452 0.005599
0.172863 -0.316452 0.005833
0.487584 -0.316452 0.006099
0.802305 -0.316452 0.006451
1.117026 -0.316452 0.006697
1.431747 -0.316452 0.007157
1.746467 -0.316452 0.007762
2.061188 -0.316452 0.008415
2.375909 -0.316452 0.009290
2.690630 -0.316452 0.010471
3.005352 -0.316452 0.012011
3.320073 -0.316452 0.013654
3.634794 -0.316452 0.015810
3.949515 -0.316452 0.018887
4.264236 -0.316452 0.023110
4.578956 -0.316452 0.028379
4.893677 -0.316452 0.035137
5.208398 -0.316452 0.045364
5.523119 -0.316452 0.060399
5.837841 -0.316452 0.080325
6.152562 -0.316452 0.105795
6.467283 -0.316452 0.142065
6.782003 -0.316452 0.190505
7.096724 -0.316452 0.249086
7.411445 -0.316452 0.319887
7.726166 -0.316452 0.397444
8.040888 -0.316452 0.485425
8.355608 -0.316452 0.582713
8.670330 -0.316452 0.675251
8.985050 -0.316452 0.759898
9.299772 -0.316452 0.860176
9.614492 -0.316452 0.946492
9.929214 -0.316452 1.032536
10.243935 -0.316452 1.127971
10.558655 -0.316452 1.197068
10.873377 -0.316452 1.261716
11.188097 -0.316452 1.330666
11.502819 -0.316452 1.392415
11.817539 -0.316452 1.432743
12.132261 -0.316452 1.446827
12.446981 -0.316452 1.445515
12.761703 -0.316452 1.435539
13.076424 -0.316452 1.415998
13.391144 -0.316452 1.388564
13.705866 -0.316452 1.314004
14.020586 -0.316452 1.197602
14.335308 -0.316452 1.096055
14.650028 -0.316452 1.007118
14.964750 -0.316452 0.000000
15.279470 -0.316452 0.000000
15.594193 -0.316452 0.000000
15.908913 -0.316452 0.000000
16.223633 -0.316452 0.000000
16.538355 -0.316452 0.000000
16.853075 -0.316452 0.000000
17.167797 -0.316452 0.000000
17.482517 -0.316452 0.000000
17.797239 -0.316452 0.000000
18.111959 -0.316452 0.000000
18.426680 -0.316452 0.000000
18.741402 -0.316452 0.000000
-7.065720 -0.631172 0.005468
-6.750999 -0.631172 0.005758
-6.436278 -0.631172 0.005287
-6.121557 -0.631172 0.005398
-5.806836 -0.631172 0.005528
-5.492115 -0.631172 0.005494
-5.177394 -0.631172 0.005320
-4.862673 -0.631172 0.005245
-4.547952 -0.631172 0.005348
-4.233231 -0.631172 0.005374
-3.918510 -0.631172 0.005439
-3.603789 -0.631172 0.005527
-3.289068 -0.631172 0.005466
-2.974347 -0.631172 0.005388
-2.659626 -0.631172 0.005468
-2.344905 -0.631172 0.005587
-2.030184 -0.631172 0.005684
-1.715463 -0.631172 0.005671
-1.400742 -0.631172 0.005653
-1.086021 -0.631172 0.005820
-0.771300 -0.631172 0.005906
-0.456579 -0.631172 0.005918
-0.141859 -0.631172 0.006150
0.172863 -0.631172 0.006372
0.487584 -0.631172 0.006640
0.802305 -0.631172 0.007002
1.117026 -0.631172 0.007254
1.431747 -0.631172 0.007691
1.746467 -0.631172 0.008241
2.061188 -0.631172 0.008953
2.375909 -0.631172 0.009929
2.690630 -0.631172 0.011217
3.005352 -0.631172 0.012776
3.320073 -0.631172 0.014414
3.634794 -0.631172 0.016630
3.949515 -0.631172 0.019801
4.264236 -0.631172 0.024227
4.578956 -0.631172 0.029091
4.893677 -0.631172 0.036578
5.208398 -0.631172 0.047174
5.523119 -0.631172 0.062084
5.837841 -0.631172 0.083234
6.152562 -0.631172 0.111488
6.467283 -0.631172 0.151169
6.782003 -0.631172 0.203973
7.096724 -0.631172 0.270207
7.411445 -0.631172 0.340750
7.726166 -0.631172 0.422172
8.040888 -0.631172 0.514418
8.355608 -0.631172 0.607507
8.670330 -0.631172 0.710097
8.985050 -0.631172 0.800753
9.299772 -0.631172 0.893782
9.614492 -0.631172 0.986617
9.929214 -0.631172 1.067732
10.243935 -0.631172 1.168575
10.558655 -0.631172 1.244721
10.873377 -0.631172 1.314634
11.188097 -0.631172 1.374008
11.502819 -0.631172 1.430696
11.817539 -0.631172 1.461947
12.132261 -0.631172 1.468154
12.446981 -0.631172 1.477530
12.761703 -0.631172 1.465969
13.076424 -0.631172 1.443644
13.391144 -0.631172 1.410041
13.705866 -0.631172 1.340810
14.020586 -0.631172 1.222780
14.335308 -0.631172 1.096984
14.650028 -0.631172 0.944530
14.964750 -0.631172 0.000000
15.279470 -0.631172 0.000000
15.594193 -0.631172 0.000000
15.908913 -0.631172 0.000000
16.223633 -0.631172 0.000000
16.538355 -0.631172 0.000000
16.853075 -0.631172 0.000000
17.167797 -0.631172 0.000000
17.482517 -0.631172 0.000000
17.797239 -0.631172 0.000000
18.111959 -0.631172 0.000000
18.426680 -0.631172 0.000000
18.741402 -0.631172 0.000000
-7.065720 -0.945892 0.005426
-6.750999 -0.945892 0.004844
-6.436278 -0.945892 0.004412
-6.121557 -0.945892 0.006482
-5.806836 -0.945892 0.006988
-5.492115 -0.945892 0.006966
-5.177394 -0.945892 0.006739
-4.862673 -0.945892 0.006694
-4.547952 -0.945892 0.006849
-4.233231 -0.945892 0.006887
-3.918510 -0.945892 0.006939
-3.603789 -0.945892 0.007057
-3.289068 -0.945892 0.006999
-2.974347 -0.945892 0.006896
-2.659626 -0.945892 0.006948
-2.344905 -0.945892 0.006996
-2.030184 -0.945892 0.007134
-1.715463 -0.945892 0.007117
-1.400742 -0.945892 0.006978
-1.086021 -0.945892 0.007133
-0.771300 -0.945892 0.007211
-0.456579 -0.945892 0.007198
-0.141859 -0.945892 0.007496
0.172863 -0.945892 0.007729
0.487584 -0.945892 0.007943
0.802305 -0.945892 0.008285
1.117026 -0.945892 0.008561
1.431747 -0.945892 0.009019
1.746467 -0.945892 0.009505
2.061188 -0.945892 0.010258
2.375909 -0.945892 0.011353
2.690630 -0.945892 0.012770
3.005352 -0.945892 0.014374
3.320073 -0.945892 0.015912
3.634794 -0.945892 0.018272
3.949515 -0.945892 0.021719
4.264236 -0.945892 0.026068
4.578956 -0.945892 0.031121
4.893677 -0.945892 0.038717
5.208398 -0.945892 0.050524
5.523119 -0.945892 0.067171
5.837841 -0.945892 0.090352
6.152562 -0.945892 0.120727
6.467283 -0.945892 0.166021
6.782003 -0.945892 0.224488
7.096724 -0.945892 0.294408
7.411445 -0.945892 0.372429
7.726166 -0.945892 0.460526
8.040888 -0.945892 0.563311
8.355608 -0.945892 0.662503
8.670330 -0.945892 0.765910
8.985050 -0.945892 0.867784
9.299772 -0.945892 0.965401
9.614492 -0.945892 1.063577
9.929214 -0.945892 1.139378
10.243935 -0.945892 1.250487
10.558655 -0.945892 1.330019
10.873377 -0.945892 1.406255
11.188097 -0.945892 1.477647
11.502819 -0.945892 1.522212
11.817539 -0.945892 1.538815
12.132261 -0.945892 1.545375
12.446981 -0.945892 1.549267
12.761703 -0.945892 1.543607
13.076424 -0.945892 1.530267
13.391144 -0.945892 1.474485
13.705866 -0.945892 1.402872
14.020586 -0.945892 1.257881
14.335308 -0.945892 1.134035
14.650028 -0.945892 0.637654
14.964750 -0.945892 0.000000
15.279470 -0.945892 0.000000
15.594193 -0.945892 0.000000
15.908913 -0.945892 0.000000
16.223633 -0.945892 0.000000
16.538355 -0.945892 0.000000
16.853075 -0.945892 0.000000
17.167797 -0.945892 0.000000
17.482517 -0.945892 0.000000
17.797239 -0.945892 0.000000
18.111959 -0.945892 0.000000
18.426680 -0.945892 0.000000
18.741402 -0.945892 0.000000
-7.065720 -1.260616 0.000000
-6.750999 -1.260616 0.000000
-6.436278 -1.260616 0.000000
-6.121557 -1.260616 0.000000
-5.806836 -1.260616 0.000000
-5.492115 -1.260616 0.000000
-5.177394 -1.260616 0.000000
-4.862673 -1.260616 0.000000
-4.547952 -1.260616 0.000000
-4.233231 -1.260616 0.000000
-3.918510 -1.260616 0.000000
-3.603789 -1.260616 0.000000
-3.289068 -1.260616 0.000000
-2.974347 -1.260616 0.000000
-2.659626 -1.260616 0.000000
-2.344905 -1.260616 0.000000
-2.030184 -1.260616 0.000000
-1.715463 -1.260616 0.000000
-1.400742 -1.260616 0.000000
-1.086021 -1.260616 0.000000
-0.771300 -1.260616 0.000000
-0.456579 -1.260616 0.000000
-0.141859 -1.260616 0.000000
0.172863 -1.260616 0.000000
0.487584 -1.260616 0.000000
0.802305 -1.260616 0.000000
1.117026 -1.260616 0.000000
1.431747 -1.260616 0.000000
1.746467 -1.260616 0.000000
2.061188 -1.260616 0.000000
2.375909 -1.260616 0.000000
2.690630 -1.260616 0.000000
3.005352 -1.260616 0.000000
3.320073 -1.260616 0.000000
3.634794 -1.260616 0.000000
3.949515 -1.260616 0.000000
4.264236 -1.260616 0.000000
4.578956 -1.260616 0.000000
4.893677 -1.260616 0.000000
5.208398 -1.260616 0.000000
5.523119 -1.260616 0.000000
5.837841 -1.260616 0.280798
6.152562 -1.260616 1.154270
6.467283 -1.260616 1.348968
6.782003 -1.260616 1.114403
7.096724 -1.260616 1.014843
7.411445 -1.260616 0.967794
7.726166 -1.260616 0.906075
8.040888 -1.260616 0.869119
8.355608 -1.260616 0.889851
8.670330 -1.260616 0.908784
8.985050 -1.260616 0.957444
9.299772 -1.260616 1.040773
9.614492 -1.260616 1.126177
9.929214 -1.260616 1.217926
10.243935 -1.260616 1.331850
10.558655 -1.260616 1.430087
10.873377 -1.260616 1.514035
11.188097 -1.260616 1.590490
11.502819 -1.260616 1.627338
11.817539 -1.260616 1.650138
12.132261 -1.260616 1.665041
12.446981 -1.260616 1.677356
12.761703 -1.260616 1.677779
13.076424 -1.260616 1.646091
13.391144 -1.260616 1.604540
13.705866 -1.260616 1.509091
14.020586 -1.260616 1.355188
14.335308 -1.260616 1.192713
14.650028 -1.260616 0.000000
14.964750 -1.260616 0.000000
15.279470 -1.260616 0.000000
15.594193 -1.260616 0.000000
15.908913 -1.260616 0.000000
16.223633 -1.260616 0.000000
16.538355 -1.260616 0.000000
16.853075 -1.260616 0.000000
17.167797 -1.260616 0.000000
17.482517 -1.260616 0.000000
17.797239 -1.260616 0.000000
18.111959 -1.260616 0.000000
18.426680 -1.260616 0.000000
18.741402 -1.260616 0.000000
-7.065720 -1.575336 0.000000
-6.750999 -1.575336 0.000000
-6.436278 -1.575336 0.000000
-6.121557 -1.575336 0.000000
-5.806836 -1.575336 0.000000
-5.492115 -1.575336 0.000000
-5.177394 -1.575336 0.000000
-4.862673 -1.575336 0.000000
-4.547952 -1.575336 0.000000
-4.233231 -1.575336 0.000000
-3.918510 -1.575336 0.000000
-3.603789 -1.575336 0.000000
-3.289068 -1.575336 0.000000
-2.974347 -1.575336 0.000000
-2.659626 -1.575336 0.000000
-2.344905 -1.575336 0.000000
-2.030184 -1.575336 0.000000
-1.715463 -1.575336 0.000000
-1.400742 -1.575336 0.000000
-1.086021 -1.575336 0.000000
-0.771300 -1.575336 0.000000
-0.456579 -1.575336 0.000000
-0.141859 -1.575336 0.000000
0.172863 -1.575336 0.000000
0.487584 -1.575336 0.000000
0.802305 -1.575336 0.000000
1.117026 -1.575336 0.000000
1.431747 -1.575336 0.000000
1.746467 -1.575336 0.000000
2.061188 -1.575336 0.000000
2.375909 -1.575336 0.000000
2.690630 -1.575336 0.000000
3.005352 -1.575336 0.000000
3.320073 -1.575336 0.000000
3.634794 -1.575336 0.000000
3.949515 -1.575336 0.000000
4.264236 -1.575336 0.000000
4.578956 -1.575336 0.000000
4.893677 -1.575336 0.000000
5.208398 -1.575336 0.000000
5.523119 -1.575336 0.000000
5.837841 -1.575336 0.000000
6.152562 -1.575336 0.000000
6.467283 -1.575336 0.000000
6.782003 -1.575336 0.000000
7.096724 -1.575336 0.000000
7.411445 -1.575336 0.000000
7.726166 -1.575336 0.000000
8.040888 -1.575336 0.000000
8.355608 -1.575336 0.000000
8.670330 -1.575336 0.000000
8.985050 -1.575336 1.509701
9.299772 -1.575336 1.173754
9.614492 -1.575336 1.723015
9.929214 -1.575336 1.792885
10.243935 -1.575336 1.666273
10.558655 -1.575336 1.447070
10.873377 -1.575336 1.509656
11.188097 -1.575336 1.395869
11.502819 -1.575336 1.404563
11.817539 -1.575336 1.387984
12.132261 -1.575336 1.425276
12.446981 -1.575336 1.460521
12.761703 -1.575336 1.537574
13.076424 -1.575336 1.536231
13.391144 -1.575336 1.554125
13.705866 -1.575336 1.516608
14.020586 -1.575336 1.372370
14.335308 -1.575336 1.195525
14.650028 -1.575336 0.000000
14.964750 -1.575336 0.000000
15.279470 -1.575336 0.000000
15.594193 -1.575336 0.000000
15.908913 -1.575336 0.000000
16.223633 -1.575336 0.000000
16.538355 -1.575336 0.000000
16.853075 -1.575336 0.000000
17.167797 -1.575336 0.000000
17.482517 -1.575336 0.000000
17.797239 -1.575336 0.000000
18.111959 -1.575336 0.000000
18.426680 -1.575336 0.000000
18.741402 -1.575336 0.000000
-7.065720 -1.890057 0.000000
-6.750999 -1.890057 0.000000
-6.436278 -1.890057 0.000000
-6.121557 -1.890057 0.000000
-5.806836 -1.890057 0.000000
-5.492115 -1.890057 0.000000
-5.177394 -1.890057 0.000000
-4.862673 -1.890057 0.000000
-4.547952 -1.890057 0.000000
-4.233231 -1.890057 0.000000
-3.918510 -1.890057 0.000000
-3.603789 -1.890057 0.000000
-3.289068 -1.890057 0.000000
-2.974347 -1.890057 0.000000
-2.659626 -1.890057 0.000000
-2.344905 -1.890057 0.000000
-2.030184 -1.890057 0.000000
-1.715463 -1.890057 0.000000
-1.400742 -1.890057 0.000000
-1.086021 -1.890057 0.000000
-0.771300 -1.890057 0.000000
-0.456579 -1.890057 0.000000
-0.141859 -1.890057 0.000000
0.172863 -1.890057 0.000000
0.487584 -1.890057 0.000000
0.802305 -1.890057 0.000000
1.117026 -1.890057 0.000000
1.431747 -1.890057 0.000000
1.746467 -1.890057 0.000000
2.061188 -1.890057 0.000000
2.375909 -1.890057 0.000000
2.690630 -1.890057 0.000000
3.005352 -1.890057 0.000000
3.320073 -1.890057 0.000000
3.634794 -1.890057 0.000000
3.949515 -1.890057 0.000000
4.264236 -1.890057 0.000000
4.578956 -1.890057 0.000000
4.893677 -1.890057 0.000000
5.208398 -1.890057 0.000000
5.523119 -1.890057 0.000000
5.837841 -1.890057 0.000000
6.152562 -1.890057 0.000000
6.467283 -1.890057 0.000000
6.782003 -1.890057 0.000000
7.096724 -1.890057 0.000000
7.411445 -1.890057 0.000000
7.726166 -1.890057 0.000000
8.040888 -1.890057 0.000000
8.355608 -1.890057 0.000000
8.670330 -1.890057 0.000000
8.985050 -1.890057 0.000000
9.299772 -1.890057 0.000000
9.614492 -1.890057 0.000000
9.929214 -1.890057 0.000000
10.243935 -1.890057 0.000000
10.558655 -1.890057 0.000000
10.873377 -1.890057 0.000000
11.188097 -1.890057 0.000000
11.502819 -1.890057 0.275605
11.817539 -1.890057 1.569960
12.132261 -1.890057 0.835820
12.446981 -1.890057 2.277155
12.761703 -1.890057 2.208585
13.076424 -1.890057 1.548095
13.391144 -1.890057 1.455934
13.705866 -1.890057 1.066601
14.020586 -1.890057 0.833477
14.335308 -1.890057 0.670525
14.650028 -1.890057 0.000000
14.964750 -1.890057 0.000000
15.279470 -1.890057 0.000000
15.594193 -1.890057 0.000000
15.908913 -1.890057 0.000000
16.223633 -1.890057 0.000000
16.538355 -1.890057 0.000000
16.853075 -1.890057 0.000000
17.167797 -1.890057 0.000000
17.482517 -1.890057 0.000000
17.797239 -1.890057 0.000000
18.111959 -1.890057 0.000000
18.426680 -1.890057 0.000000
18.741402 -1.890057 0.000000
-7.065720 -2.204777 0.000000
-6.750999 -2.204777 0.000000
-6.436278 -2.204777 0.000000
-6.121557 -2.204777 0.000000
-5.806836 -2.204777 0.000000
-5.492115 -2.204777 0.000000
-5.177394 -2.204777 0.000000
-4.862673 -2.204777 0.000000
-4.547952 -2.204777 0.000000
-4.233231 -2.204777 0.000000
-3.918510 -2.204777 0.000000
-3.603789 -2.204777 0.000000
-3.289068 -2.204777 0.000000
-2.974347 -2.204777 0.000000
-2.659626 -2.204777 0.000000
-2.344905 -2.204777 0.000000
-2.030184 -2.204777 0.000000
-1.715463 -2.204777 0.000000
-1.400742 -2.204777 0.000000
-1.086021 -2.204777 0.000000
-0.771300 -2.204777 0.000000
-0.456579 -2.204777 0.000000
-0.141859 -2.204777 0.000000
0.172863 -2.204777 0.000000
0.487584 -2.204777 0.000000
0.802305 -2.204777 0.000000
1.117026 -2.204777 0.000000
1.431747 -2.204777 0.000000
1.746467 -2.204777 0.000000
2.061188 -2.204777 0.000000
2.375909 -2.204777 0.000000
2.690630 -2.204777 0.000000
3.005352 -2.204777 0.000000
3.320073 -2.204777 0.000000
3.634794 -2.204777 0.000000
3.949515 -2.204777 0.000000
4.264236 -2.204777 0.000000
4.578956 -2.204777 0.000000
4.893677 -2.204777 0.000000
5.208398 -2.204777 0.000000
5.523119 -2.204777 0.000000
5.837841 -2.204777 0.000000
6.152562 -2.204777 0.000000
6.467283 -2.204777 0.000000
6.782003 -2.204777 0.000000
7.096724 -2.204777 0.000000
7.411445 -2.204777 0.000000
7.726166 -2.204777 0.000000
8.040888 -2.204777 0.000000
8.355608 -2.204777 0.000000
8.670330 -2.204777 0.000000
8.985050 -2.204777 0.000000
9.299772 -2.204777 0.000000
9.614492 -2.204777 0.000000
9.929214 -2.204777 0.000000
10.243935 -2.204777 0.000000
10.558655 -2.204777 0.000000
10.873377 -2.204777 0.000000
11.188097 -2.204777 0.000000
11.502819 -2.204777 0.000000
11.817539 -2.204777 0.000000
12.132261 -2.204777 0.000000
12.446981 -2.204777 0.000000
12.761703 -2.204777 0.000000
13.076424 -2.204777 0.000000
13.391144 -2.204777 0.000000
13.705866 -2.204777 0.000000
14.020586 -2.204777 0.000000
14.335308 -2.204777 0.000000
14.650028 -2.204777 0.000000
14.964750 -2.204777 0.000000
15.279470 -2.204777 0.000000
15.594193 -2.204777 0.000000
15.908913 -2.204777 0.000000
16.223633 -2.204777 0.000000
16.538355 -2.204777 0.000000
16.853075 -2.204777 0.000000
17.167797 -2.204777 0.000000
17.482517 -2.204777 0.000000
17.797239 -2.204777 0.000000
18.111959 -2.204777 0.000000
18.426680 -2.204777 0.000000
18.741402 -2.204777 0.000000
