TITLE = "B00014"
VARIABLES = "x", "y", "Reynold stress ZZ"
ZONE T="Frame 1" I=83, J=162, F=POINT
-7.065720 48.465302 0.000000
-6.750999 48.465302 0.000000
-6.436278 48.465302 0.000000
-6.121557 48.465302 0.000000
-5.806836 48.465302 0.000000
-5.492115 48.465302 0.000000
-5.177394 48.465302 0.000000
-4.862673 48.465302 0.000000
-4.547952 48.465302 0.000000
-4.233231 48.465302 0.000000
-3.918510 48.465302 0.000000
-3.603789 48.465302 0.000000
-3.289068 48.465302 0.000000
-2.974347 48.465302 0.000000
-2.659626 48.465302 0.000000
-2.344905 48.465302 0.000000
-2.030184 48.465302 0.000000
-1.715463 48.465302 0.000000
-1.400742 48.465302 0.000000
-1.086021 48.465302 0.000000
-0.771300 48.465302 0.000000
-0.456579 48.465302 0.000000
-0.141859 48.465302 0.000000
0.172863 48.465302 0.000000
0.487584 48.465302 0.000000
0.802305 48.465302 0.000000
1.117026 48.465302 0.000000
1.431747 48.465302 0.000000
1.746467 48.465302 0.000000
2.061188 48.465302 0.000000
2.375909 48.465302 0.000000
2.690630 48.465302 0.000000
3.005352 48.465302 0.000000
3.320073 48.465302 0.000000
3.634794 48.465302 0.000000
3.949515 48.465302 0.000000
4.264236 48.465302 0.000000
4.578956 48.465302 0.000000
4.893677 48.465302 0.000000
5.208398 48.465302 0.000000
5.523119 48.465302 0.000000
5.837841 48.465302 0.000000
6.152562 48.465302 0.000000
6.467283 48.465302 0.000000
6.782003 48.465302 0.000000
7.096724 48.465302 0.000000
7.411445 48.465302 0.000000
7.726166 48.465302 0.000000
8.040888 48.465302 0.000000
8.355608 48.465302 0.000000
8.670330 48.465302 0.000000
8.985050 48.465302 0.000000
9.299772 48.465302 0.000000
9.614492 48.465302 0.000000
9.929214 48.465302 0.000000
10.243935 48.465302 0.000000
10.558655 48.465302 0.000000
10.873377 48.465302 0.000000
11.188097 48.465302 0.000000
11.502819 48.465302 0.000000
11.817539 48.465302 0.000000
12.132261 48.465302 0.000000
12.446981 48.465302 0.000000
12.761703 48.465302 0.000000
13.076424 48.465302 0.000000
13.391144 48.465302 0.000000
13.705866 48.465302 0.000000
14.020586 48.465302 0.000000
14.335308 48.465302 0.000000
14.650028 48.465302 0.000000
14.964750 48.465302 0.000000
15.279470 48.465302 0.000000
15.594193 48.465302 0.000000
15.908913 48.465302 0.000000
16.223633 48.465302 0.000000
16.538355 48.465302 0.000000
16.853075 48.465302 0.000000
17.167797 48.465302 0.000000
17.482517 48.465302 0.000000
17.797239 48.465302 0.000000
18.111959 48.465302 0.000000
18.426680 48.465302 0.000000
18.741402 48.465302 0.000000
-7.065720 48.150581 0.000000
-6.750999 48.150581 0.000000
-6.436278 48.150581 0.000000
-6.121557 48.150581 0.000000
-5.806836 48.150581 0.000000
-5.492115 48.150581 0.000000
-5.177394 48.150581 0.000000
-4.862673 48.150581 0.000000
-4.547952 48.150581 0.000000
-4.233231 48.150581 0.000000
-3.918510 48.150581 0.000000
-3.603789 48.150581 0.000000
-3.289068 48.150581 0.000000
-2.974347 48.150581 0.000000
-2.659626 48.150581 0.000000
-2.344905 48.150581 0.000000
-2.030184 48.150581 0.000000
-1.715463 48.150581 0.000000
-1.400742 48.150581 0.000000
-1.086021 48.150581 0.000000
-0.771300 48.150581 0.000000
-0.456579 48.150581 0.000000
-0.141859 48.150581 0.000000
0.172863 48.150581 0.000000
0.487584 48.150581 0.000000
0.802305 48.150581 0.000000
1.117026 48.150581 0.000000
1.431747 48.150581 0.000000
1.746467 48.150581 0.000000
2.061188 48.150581 0.000000
2.375909 48.150581 0.000000
2.690630 48.150581 0.000000
3.005352 48.150581 0.000000
3.320073 48.150581 0.000000
3.634794 48.150581 0.000000
3.949515 48.150581 0.000000
4.264236 48.150581 0.000000
4.578956 48.150581 0.000000
4.893677 48.150581 0.000000
5.208398 48.150581 0.000000
5.523119 48.150581 0.000000
5.837841 48.150581 0.000000
6.152562 48.150581 0.000000
6.467283 48.150581 0.000000
6.782003 48.150581 0.000000
7.096724 48.150581 0.000000
7.411445 48.150581 0.000000
7.726166 48.150581 0.000000
8.040888 48.150581 0.000000
8.355608 48.150581 0.000000
8.670330 48.150581 0.000000
8.985050 48.150581 0.000000
9.299772 48.150581 0.000000
9.614492 48.150581 0.000000
9.929214 48.150581 0.000000
10.243935 48.150581 0.000000
10.558655 48.150581 0.000000
10.873377 48.150581 0.000000
11.188097 48.150581 0.000000
11.502819 48.150581 0.000000
11.817539 48.150581 0.000000
12.132261 48.150581 0.000000
12.446981 48.150581 0.000000
12.761703 48.150581 0.000000
13.076424 48.150581 0.000000
13.391144 48.150581 0.000000
13.705866 48.150581 0.000000
14.020586 48.150581 0.000000
14.335308 48.150581 0.000000
14.650028 48.150581 0.000000
14.964750 48.150581 0.000000
15.279470 48.150581 0.000000
15.594193 48.150581 0.000000
15.908913 48.150581 0.000000
16.223633 48.150581 0.000000
16.538355 48.150581 0.000000
16.853075 48.150581 0.000000
17.167797 48.150581 0.000000
17.482517 48.150581 0.000000
17.797239 48.150581 0.000000
18.111959 48.150581 0.000000
18.426680 48.150581 0.000000
18.741402 48.150581 0.000000
-7.065720 47.835861 0.000000
-6.750999 47.835861 0.000000
-6.436278 47.835861 0.000000
-6.121557 47.835861 0.000000
-5.806836 47.835861 0.000000
-5.492115 47.835861 0.000000
-5.177394 47.835861 0.000000
-4.862673 47.835861 0.000000
-4.547952 47.835861 0.000000
-4.233231 47.835861 0.000000
-3.918510 47.835861 0.000000
-3.603789 47.835861 0.000000
-3.289068 47.835861 0.000000
-2.974347 47.835861 0.000000
-2.659626 47.835861 0.000000
-2.344905 47.835861 0.000000
-2.030184 47.835861 0.000000
-1.715463 47.835861 0.000000
-1.400742 47.835861 0.000000
-1.086021 47.835861 0.000000
-0.771300 47.835861 0.000000
-0.456579 47.835861 0.000000
-0.141859 47.835861 0.000000
0.172863 47.835861 0.000000
0.487584 47.835861 0.000000
0.802305 47.835861 0.000000
1.117026 47.835861 0.000000
1.431747 47.835861 0.000000
1.746467 47.835861 0.000000
2.061188 47.835861 0.000000
2.375909 47.835861 0.000000
2.690630 47.835861 0.000000
3.005352 47.835861 0.000000
3.320073 47.835861 0.000000
3.634794 47.835861 0.000000
3.949515 47.835861 0.000000
4.264236 47.835861 0.000000
4.578956 47.835861 0.000000
4.893677 47.835861 0.000000
5.208398 47.835861 0.000000
5.523119 47.835861 0.000000
5.837841 47.835861 0.000000
6.152562 47.835861 0.000000
6.467283 47.835861 0.000000
6.782003 47.835861 0.000000
7.096724 47.835861 0.000000
7.411445 47.835861 0.000000
7.726166 47.835861 0.000000
8.040888 47.835861 0.000000
8.355608 47.835861 0.000000
8.670330 47.835861 0.000000
8.985050 47.835861 0.000000
9.299772 47.835861 0.000000
9.614492 47.835861 0.000000
9.929214 47.835861 0.000000
10.243935 47.835861 0.000000
10.558655 47.835861 5.483868
10.873377 47.835861 8.490326
11.188097 47.835861 10.942548
11.502819 47.835861 8.262371
11.817539 47.835861 12.739814
12.132261 47.835861 11.003564
12.446981 47.835861 9.783528
12.761703 47.835861 11.415174
13.076424 47.835861 13.378699
13.391144 47.835861 14.831068
13.705866 47.835861 12.278040
14.020586 47.835861 15.298779
14.335308 47.835861 17.730600
14.650028 47.835861 16.741961
14.964750 47.835861 10.653685
15.279470 47.835861 13.160124
15.594193 47.835861 14.757013
15.908913 47.835861 15.629164
16.223633 47.835861 22.248293
16.538355 47.835861 18.766840
16.853075 47.835861 19.583757
17.167797 47.835861 22.909115
17.482517 47.835861 22.759329
17.797239 47.835861 21.225933
18.111959 47.835861 23.077126
18.426680 47.835861 27.344709
18.741402 47.835861 30.711750
-7.065720 47.521137 0.000000
-6.750999 47.521137 0.000000
-6.436278 47.521137 0.025520
-6.121557 47.521137 0.024156
-5.806836 47.521137 0.032696
-5.492115 47.521137 0.033154
-5.177394 47.521137 0.034530
-4.862673 47.521137 0.037363
-4.547952 47.521137 0.036719
-4.233231 47.521137 0.035960
-3.918510 47.521137 0.030715
-3.603789 47.521137 0.038060
-3.289068 47.521137 0.040901
-2.974347 47.521137 0.029484
-2.659626 47.521137 0.034349
-2.344905 47.521137 0.033580
-2.030184 47.521137 0.000000
-1.715463 47.521137 0.000000
-1.400742 47.521137 0.000000
-1.086021 47.521137 0.000000
-0.771300 47.521137 0.000000
-0.456579 47.521137 0.000000
-0.141859 47.521137 0.000000
0.172863 47.521137 0.000000
0.487584 47.521137 0.000000
0.802305 47.521137 0.000000
1.117026 47.521137 0.000000
1.431747 47.521137 0.000000
1.746467 47.521137 0.000000
2.061188 47.521137 0.000000
2.375909 47.521137 0.000000
2.690630 47.521137 0.000000
3.005352 47.521137 0.000000
3.320073 47.521137 0.000000
3.634794 47.521137 0.000000
3.949515 47.521137 0.000000
4.264236 47.521137 0.000000
4.578956 47.521137 0.000000
4.893677 47.521137 0.000000
5.208398 47.521137 0.000000
5.523119 47.521137 0.000000
5.837841 47.521137 0.000000
6.152562 47.521137 0.000000
6.467283 47.521137 0.000000
6.782003 47.521137 0.000000
7.096724 47.521137 1.530734
7.411445 47.521137 1.726816
7.726166 47.521137 3.008137
8.040888 47.521137 1.912067
8.355608 47.521137 2.182047
8.670330 47.521137 2.768472
8.985050 47.521137 2.463993
9.299772 47.521137 2.458078
9.614492 47.521137 2.670141
9.929214 47.521137 2.774323
10.243935 47.521137 2.359903
10.558655 47.521137 2.462721
10.873377 47.521137 2.490901
11.188097 47.521137 2.522102
11.502819 47.521137 2.488957
11.817539 47.521137 2.667555
12.132261 47.521137 2.708924
12.446981 47.521137 2.701294
12.761703 47.521137 2.680494
13.076424 47.521137 2.625257
13.391144 47.521137 2.495699
13.705866 47.521137 2.433407
14.020586 47.521137 2.350295
14.335308 47.521137 2.322813
14.650028 47.521137 2.181045
14.964750 47.521137 2.100208
15.279470 47.521137 2.028881
15.594193 47.521137 1.936907
15.908913 47.521137 1.938409
16.223633 47.521137 1.894609
16.538355 47.521137 1.911042
16.853075 47.521137 1.971581
17.167797 47.521137 2.353736
17.482517 47.521137 2.978729
17.797239 47.521137 4.013800
18.111959 47.521137 5.219461
18.426680 47.521137 6.623668
18.741402 47.521137 5.944942
-7.065720 47.206417 0.000000
-6.750999 47.206417 0.000000
-6.436278 47.206417 0.021310
-6.121557 47.206417 0.026992
-5.806836 47.206417 0.026084
-5.492115 47.206417 0.026292
-5.177394 47.206417 0.026686
-4.862673 47.206417 0.027599
-4.547952 47.206417 0.027826
-4.233231 47.206417 0.027509
-3.918510 47.206417 0.027353
-3.603789 47.206417 0.027584
-3.289068 47.206417 0.027109
-2.974347 47.206417 0.026904
-2.659626 47.206417 0.026906
-2.344905 47.206417 0.026806
-2.030184 47.206417 0.026832
-1.715463 47.206417 0.027592
-1.400742 47.206417 0.028627
-1.086021 47.206417 0.028909
-0.771300 47.206417 0.028734
-0.456579 47.206417 0.028173
-0.141859 47.206417 0.029153
0.172863 47.206417 0.029703
0.487584 47.206417 0.029611
0.802305 47.206417 0.029537
1.117026 47.206417 0.029582
1.431747 47.206417 0.029968
1.746467 47.206417 0.030269
2.061188 47.206417 0.030593
2.375909 47.206417 0.030653
2.690630 47.206417 0.030740
3.005352 47.206417 0.031283
3.320073 47.206417 0.031495
3.634794 47.206417 0.031503
3.949515 47.206417 0.031531
4.264236 47.206417 0.031805
4.578956 47.206417 0.032765
4.893677 47.206417 0.033348
5.208398 47.206417 0.034503
5.523119 47.206417 0.036250
5.837841 47.206417 0.037277
6.152562 47.206417 0.040094
6.467283 47.206417 0.044417
6.782003 47.206417 0.049745
7.096724 47.206417 0.058173
7.411445 47.206417 0.072113
7.726166 47.206417 0.092281
8.040888 47.206417 0.131148
8.355608 47.206417 0.189059
8.670330 47.206417 0.260155
8.985050 47.206417 0.352007
9.299772 47.206417 0.478995
9.614492 47.206417 0.624592
9.929214 47.206417 0.781571
10.243935 47.206417 0.920388
10.558655 47.206417 1.109427
10.873377 47.206417 1.315032
11.188097 47.206417 1.544349
11.502819 47.206417 1.733844
11.817539 47.206417 1.941741
12.132261 47.206417 2.146549
12.446981 47.206417 2.275344
12.761703 47.206417 2.412267
13.076424 47.206417 2.465611
13.391144 47.206417 2.463285
13.705866 47.206417 2.440389
14.020586 47.206417 2.424587
14.335308 47.206417 2.318342
14.650028 47.206417 2.160146
14.964750 47.206417 2.100330
15.279470 47.206417 1.964688
15.594193 47.206417 1.908692
15.908913 47.206417 1.881929
16.223633 47.206417 1.834167
16.538355 47.206417 1.862603
16.853075 47.206417 2.015231
17.167797 47.206417 2.506903
17.482517 47.206417 3.507321
17.797239 47.206417 4.920538
18.111959 47.206417 7.192912
18.426680 47.206417 10.430743
18.741402 47.206417 8.981097
-7.065720 46.891697 0.000000
-6.750999 46.891697 0.000000
-6.436278 46.891697 0.025624
-6.121557 46.891697 0.021323
-5.806836 46.891697 0.020293
-5.492115 46.891697 0.020222
-5.177394 46.891697 0.020266
-4.862673 46.891697 0.020960
-4.547952 46.891697 0.021228
-4.233231 46.891697 0.020912
-3.918510 46.891697 0.020566
-3.603789 46.891697 0.020670
-3.289068 46.891697 0.020379
-2.974347 46.891697 0.020423
-2.659626 46.891697 0.020584
-2.344905 46.891697 0.020607
-2.030184 46.891697 0.020542
-1.715463 46.891697 0.020894
-1.400742 46.891697 0.021373
-1.086021 46.891697 0.021709
-0.771300 46.891697 0.021660
-0.456579 46.891697 0.021278
-0.141859 46.891697 0.021848
0.172863 46.891697 0.022216
0.487584 46.891697 0.022201
0.802305 46.891697 0.022060
1.117026 46.891697 0.022372
1.431747 46.891697 0.022741
1.746467 46.891697 0.022694
2.061188 46.891697 0.022834
2.375909 46.891697 0.022952
2.690630 46.891697 0.022907
3.005352 46.891697 0.023490
3.320073 46.891697 0.023841
3.634794 46.891697 0.024162
3.949515 46.891697 0.024273
4.264236 46.891697 0.024394
4.578956 46.891697 0.025117
4.893677 46.891697 0.025759
5.208398 46.891697 0.026763
5.523119 46.891697 0.027920
5.837841 46.891697 0.029042
6.152562 46.891697 0.032046
6.467283 46.891697 0.035545
6.782003 46.891697 0.040011
7.096724 46.891697 0.047882
7.411445 46.891697 0.060955
7.726166 46.891697 0.079390
8.040888 46.891697 0.111819
8.355608 46.891697 0.162042
8.670330 46.891697 0.224544
8.985050 46.891697 0.308483
9.299772 46.891697 0.421114
9.614492 46.891697 0.539699
9.929214 46.891697 0.678073
10.243935 46.891697 0.836802
10.558655 46.891697 0.992157
10.873377 46.891697 1.201782
11.188097 46.891697 1.371369
11.502819 46.891697 1.545157
11.817539 46.891697 1.711477
12.132261 46.891697 1.897278
12.446981 46.891697 2.044580
12.761703 46.891697 2.190004
13.076424 46.891697 2.186862
13.391144 46.891697 2.142585
13.705866 46.891697 2.155725
14.020586 46.891697 2.150038
14.335308 46.891697 2.003585
14.650028 46.891697 1.883005
14.964750 46.891697 1.799882
15.279470 46.891697 1.739352
15.594193 46.891697 1.670917
15.908913 46.891697 1.642344
16.223633 46.891697 1.629727
16.538355 46.891697 1.674156
16.853075 46.891697 1.873116
17.167797 46.891697 2.348502
17.482517 46.891697 3.402720
17.797239 46.891697 5.348844
18.111959 46.891697 8.184443
18.426680 46.891697 12.883188
18.741402 46.891697 11.097548
-7.065720 46.576977 0.000000
-6.750999 46.576977 0.000000
-6.436278 46.576977 0.022611
-6.121557 46.576977 0.018339
-5.806836 46.576977 0.017978
-5.492115 46.576977 0.018261
-5.177394 46.576977 0.018066
-4.862673 46.576977 0.018259
-4.547952 46.576977 0.018606
-4.233231 46.576977 0.018343
-3.918510 46.576977 0.017945
-3.603789 46.576977 0.017907
-3.289068 46.576977 0.017739
-2.974347 46.576977 0.017811
-2.659626 46.576977 0.018138
-2.344905 46.576977 0.018248
-2.030184 46.576977 0.018083
-1.715463 46.576977 0.018113
-1.400742 46.576977 0.018528
-1.086021 46.576977 0.018866
-0.771300 46.576977 0.018760
-0.456579 46.576977 0.018465
-0.141859 46.576977 0.018786
0.172863 46.576977 0.018907
0.487584 46.576977 0.019073
0.802305 46.576977 0.018977
1.117026 46.576977 0.019488
1.431747 46.576977 0.019748
1.746467 46.576977 0.019666
2.061188 46.576977 0.019843
2.375909 46.576977 0.019711
2.690630 46.576977 0.019534
3.005352 46.576977 0.020266
3.320073 46.576977 0.020681
3.634794 46.576977 0.020892
3.949515 46.576977 0.021139
4.264236 46.576977 0.021519
4.578956 46.576977 0.021921
4.893677 46.576977 0.022677
5.208398 46.576977 0.023584
5.523119 46.576977 0.024433
5.837841 46.576977 0.025910
6.152562 46.576977 0.029042
6.467283 46.576977 0.031989
6.782003 46.576977 0.036195
7.096724 46.576977 0.043518
7.411445 46.576977 0.054737
7.726166 46.576977 0.075004
8.040888 46.576977 0.107595
8.355608 46.576977 0.148660
8.670330 46.576977 0.216422
8.985050 46.576977 0.279158
9.299772 46.576977 0.379660
9.614492 46.576977 0.498262
9.929214 46.576977 0.625152
10.243935 46.576977 0.766312
10.558655 46.576977 0.896698
10.873377 46.576977 1.069776
11.188097 46.576977 1.248610
11.502819 46.576977 1.405564
11.817539 46.576977 1.531667
12.132261 46.576977 1.714082
12.446981 46.576977 1.861090
12.761703 46.576977 1.949839
13.076424 46.576977 1.955793
13.391144 46.576977 1.989634
13.705866 46.576977 2.018391
14.020586 46.576977 1.945024
14.335308 46.576977 1.825886
14.650028 46.576977 1.757316
14.964750 46.576977 1.656436
15.279470 46.576977 1.617022
15.594193 46.576977 1.557672
15.908913 46.576977 1.480823
16.223633 46.576977 1.475883
16.538355 46.576977 1.562423
16.853075 46.576977 1.813559
17.167797 46.576977 2.453362
17.482517 46.576977 3.525735
17.797239 46.576977 5.952367
18.111959 46.576977 9.600202
18.426680 46.576977 14.719216
18.741402 46.576977 13.162162
-7.065720 46.262253 0.000000
-6.750999 46.262253 0.000000
-6.436278 46.262253 0.021738
-6.121557 46.262253 0.017785
-5.806836 46.262253 0.017803
-5.492115 46.262253 0.018270
-5.177394 46.262253 0.017944
-4.862673 46.262253 0.017826
-4.547952 46.262253 0.018166
-4.233231 46.262253 0.018145
-3.918510 46.262253 0.017761
-3.603789 46.262253 0.017643
-3.289068 46.262253 0.017536
-2.974347 46.262253 0.017601
-2.659626 46.262253 0.017683
-2.344905 46.262253 0.018130
-2.030184 46.262253 0.017926
-1.715463 46.262253 0.017857
-1.400742 46.262253 0.018251
-1.086021 46.262253 0.018507
-0.771300 46.262253 0.018345
-0.456579 46.262253 0.018179
-0.141859 46.262253 0.018240
0.172863 46.262253 0.018145
0.487584 46.262253 0.018397
0.802305 46.262253 0.018448
1.117026 46.262253 0.019044
1.431747 46.262253 0.019120
1.746467 46.262253 0.019247
2.061188 46.262253 0.019702
2.375909 46.262253 0.019287
2.690630 46.262253 0.018920
3.005352 46.262253 0.019540
3.320073 46.262253 0.020088
3.634794 46.262253 0.020035
3.949515 46.262253 0.020372
4.264236 46.262253 0.021124
4.578956 46.262253 0.021581
4.893677 46.262253 0.022293
5.208398 46.262253 0.023202
5.523119 46.262253 0.024093
5.837841 46.262253 0.025743
6.152562 46.262253 0.028569
6.467283 46.262253 0.031636
6.782003 46.262253 0.035983
7.096724 46.262253 0.042843
7.411445 46.262253 0.054501
7.726166 46.262253 0.075088
8.040888 46.262253 0.105366
8.355608 46.262253 0.151094
8.670330 46.262253 0.204476
8.985050 46.262253 0.274021
9.299772 46.262253 0.372139
9.614492 46.262253 0.490231
9.929214 46.262253 0.610117
10.243935 46.262253 0.727192
10.558655 46.262253 0.877950
10.873377 46.262253 1.044811
11.188097 46.262253 1.210609
11.502819 46.262253 1.393085
11.817539 46.262253 1.495464
12.132261 46.262253 1.654598
12.446981 46.262253 1.762458
12.761703 46.262253 1.876856
13.076424 46.262253 1.888418
13.391144 46.262253 1.912700
13.705866 46.262253 1.947860
14.020586 46.262253 1.857170
14.335308 46.262253 1.743659
14.650028 46.262253 1.675341
14.964750 46.262253 1.601233
15.279470 46.262253 1.521408
15.594193 46.262253 1.464032
15.908913 46.262253 1.441955
16.223633 46.262253 1.457435
16.538355 46.262253 1.601925
16.853075 46.262253 1.954410
17.167797 46.262253 2.605388
17.482517 46.262253 4.132267
17.797239 46.262253 6.663087
18.111959 46.262253 11.276628
18.426680 46.262253 16.372627
18.741402 46.262253 14.321671
-7.065720 45.947533 0.000000
-6.750999 45.947533 0.000000
-6.436278 45.947533 0.021859
-6.121557 45.947533 0.018109
-5.806836 45.947533 0.018110
-5.492115 45.947533 0.018504
-5.177394 45.947533 0.018093
-4.862673 45.947533 0.018015
-4.547952 45.947533 0.018216
-4.233231 45.947533 0.018365
-3.918510 45.947533 0.018071
-3.603789 45.947533 0.017975
-3.289068 45.947533 0.017942
-2.974347 45.947533 0.017926
-2.659626 45.947533 0.017829
-2.344905 45.947533 0.018249
-2.030184 45.947533 0.018301
-1.715463 45.947533 0.018266
-1.400742 45.947533 0.018435
-1.086021 45.947533 0.018603
-0.771300 45.947533 0.018477
-0.456579 45.947533 0.018398
-0.141859 45.947533 0.018413
0.172863 45.947533 0.018298
0.487584 45.947533 0.018362
0.802305 45.947533 0.018573
1.117026 45.947533 0.019056
1.431747 45.947533 0.018923
1.746467 45.947533 0.019446
2.061188 45.947533 0.020027
2.375909 45.947533 0.019593
2.690630 45.947533 0.019084
3.005352 45.947533 0.019371
3.320073 45.947533 0.019974
3.634794 45.947533 0.019733
3.949515 45.947533 0.020221
4.264236 45.947533 0.021189
4.578956 45.947533 0.021824
4.893677 45.947533 0.022466
5.208398 45.947533 0.023461
5.523119 45.947533 0.024589
5.837841 45.947533 0.026163
6.152562 45.947533 0.028361
6.467283 45.947533 0.031605
6.782003 45.947533 0.036402
7.096724 45.947533 0.042693
7.411445 45.947533 0.052943
7.726166 45.947533 0.073788
8.040888 45.947533 0.105490
8.355608 45.947533 0.146242
8.670330 45.947533 0.201177
8.985050 45.947533 0.268529
9.299772 45.947533 0.358974
9.614492 45.947533 0.481087
9.929214 45.947533 0.589442
10.243935 45.947533 0.712989
10.558655 45.947533 0.872855
10.873377 45.947533 1.052000
11.188097 45.947533 1.218607
11.502819 45.947533 1.384585
11.817539 45.947533 1.518375
12.132261 45.947533 1.649697
12.446981 45.947533 1.727767
12.761703 45.947533 1.819536
13.076424 45.947533 1.859417
13.391144 45.947533 1.904757
13.705866 45.947533 1.832224
14.020586 45.947533 1.782807
14.335308 45.947533 1.715878
14.650028 45.947533 1.631361
14.964750 45.947533 1.582382
15.279470 45.947533 1.505770
15.594193 45.947533 1.439460
15.908913 45.947533 1.421931
16.223633 45.947533 1.431391
16.538355 45.947533 1.696175
16.853075 45.947533 2.152615
17.167797 45.947533 3.286356
17.482517 45.947533 4.850564
17.797239 45.947533 7.775383
18.111959 45.947533 12.796218
18.426680 45.947533 18.391773
18.741402 45.947533 15.659972
-7.065720 45.632813 0.000000
-6.750999 45.632813 0.000000
-6.436278 45.632813 0.021676
-6.121557 45.632813 0.018174
-5.806836 45.632813 0.018084
-5.492115 45.632813 0.018466
-5.177394 45.632813 0.017965
-4.862673 45.632813 0.017996
-4.547952 45.632813 0.018041
-4.233231 45.632813 0.018155
-3.918510 45.632813 0.018004
-3.603789 45.632813 0.018021
-3.289068 45.632813 0.018086
-2.974347 45.632813 0.018053
-2.659626 45.632813 0.017914
-2.344905 45.632813 0.018064
-2.030184 45.632813 0.018205
-1.715463 45.632813 0.018203
-1.400742 45.632813 0.018410
-1.086021 45.632813 0.018502
-0.771300 45.632813 0.018518
-0.456579 45.632813 0.018426
-0.141859 45.632813 0.018496
0.172863 45.632813 0.018403
0.487584 45.632813 0.018329
0.802305 45.632813 0.018606
1.117026 45.632813 0.018760
1.431747 45.632813 0.018585
1.746467 45.632813 0.019259
2.061188 45.632813 0.019690
2.375909 45.632813 0.019510
2.690630 45.632813 0.019204
3.005352 45.632813 0.019243
3.320073 45.632813 0.019635
3.634794 45.632813 0.019430
3.949515 45.632813 0.020048
4.264236 45.632813 0.020968
4.578956 45.632813 0.021759
4.893677 45.632813 0.022322
5.208398 45.632813 0.023425
5.523119 45.632813 0.024631
5.837841 45.632813 0.025887
6.152562 45.632813 0.027921
6.467283 45.632813 0.031271
6.782003 45.632813 0.035929
7.096724 45.632813 0.042008
7.411445 45.632813 0.053023
7.726166 45.632813 0.071821
8.040888 45.632813 0.102921
8.355608 45.632813 0.143880
8.670330 45.632813 0.202205
8.985050 45.632813 0.273769
9.299772 45.632813 0.362679
9.614492 45.632813 0.475003
9.929214 45.632813 0.595313
10.243935 45.632813 0.716013
10.558655 45.632813 0.848316
10.873377 45.632813 1.035760
11.188097 45.632813 1.204967
11.502819 45.632813 1.379748
11.817539 45.632813 1.509006
12.132261 45.632813 1.613573
12.446981 45.632813 1.714179
12.761703 45.632813 1.798480
13.076424 45.632813 1.881547
13.391144 45.632813 1.880993
13.705866 45.632813 1.825133
14.020586 45.632813 1.743745
14.335308 45.632813 1.691207
14.650028 45.632813 1.632762
14.964750 45.632813 1.539272
15.279470 45.632813 1.458215
15.594193 45.632813 1.424176
15.908913 45.632813 1.394853
16.223633 45.632813 1.454569
16.538355 45.632813 1.899881
16.853075 45.632813 2.698762
17.167797 45.632813 4.237749
17.482517 45.632813 6.397786
17.797239 45.632813 9.763628
18.111959 45.632813 14.582346
18.426680 45.632813 19.657198
18.741402 45.632813 16.354492
-7.065720 45.318092 0.000000
-6.750999 45.318092 0.000000
-6.436278 45.318092 0.021612
-6.121557 45.318092 0.018095
-5.806836 45.318092 0.018038
-5.492115 45.318092 0.018337
-5.177394 45.318092 0.017894
-4.862673 45.318092 0.017899
-4.547952 45.318092 0.017796
-4.233231 45.318092 0.017827
-3.918510 45.318092 0.017912
-3.603789 45.318092 0.018020
-3.289068 45.318092 0.018005
-2.974347 45.318092 0.018064
-2.659626 45.318092 0.017886
-2.344905 45.318092 0.017778
-2.030184 45.318092 0.017891
-1.715463 45.318092 0.018070
-1.400742 45.318092 0.018232
-1.086021 45.318092 0.018400
-0.771300 45.318092 0.018577
-0.456579 45.318092 0.018311
-0.141859 45.318092 0.018389
0.172863 45.318092 0.018378
0.487584 45.318092 0.018370
0.802305 45.318092 0.018611
1.117026 45.318092 0.018577
1.431747 45.318092 0.018476
1.746467 45.318092 0.018921
2.061188 45.318092 0.019031
2.375909 45.318092 0.019093
2.690630 45.318092 0.019092
3.005352 45.318092 0.019244
3.320073 45.318092 0.019512
3.634794 45.318092 0.019222
3.949515 45.318092 0.019749
4.264236 45.318092 0.020654
4.578956 45.318092 0.021384
4.893677 45.318092 0.021856
5.208398 45.318092 0.023052
5.523119 45.318092 0.024121
5.837841 45.318092 0.025430
6.152562 45.318092 0.027447
6.467283 45.318092 0.030886
6.782003 45.318092 0.035509
7.096724 45.318092 0.041950
7.411445 45.318092 0.053317
7.726166 45.318092 0.071573
8.040888 45.318092 0.099810
8.355608 45.318092 0.141548
8.670330 45.318092 0.199108
8.985050 45.318092 0.267974
9.299772 45.318092 0.363889
9.614492 45.318092 0.473729
9.929214 45.318092 0.603145
10.243935 45.318092 0.727524
10.558655 45.318092 0.850685
10.873377 45.318092 1.026394
11.188097 45.318092 1.195166
11.502819 45.318092 1.355513
11.817539 45.318092 1.483155
12.132261 45.318092 1.620954
12.446981 45.318092 1.703969
12.761703 45.318092 1.772762
13.076424 45.318092 1.845974
13.391144 45.318092 1.867842
13.705866 45.318092 1.800307
14.020586 45.318092 1.757641
14.335308 45.318092 1.717225
14.650028 45.318092 1.634497
14.964750 45.318092 1.507230
15.279470 45.318092 1.434878
15.594193 45.318092 1.404168
15.908913 45.318092 1.414082
16.223633 45.318092 1.571716
16.538355 45.318092 2.286547
16.853075 45.318092 3.850528
17.167797 45.318092 5.904004
17.482517 45.318092 8.640247
17.797239 45.318092 12.665217
18.111959 45.318092 17.269262
18.426680 45.318092 21.504725
18.741402 45.318092 17.705040
-7.065720 45.003372 0.000000
-6.750999 45.003372 0.000000
-6.436278 45.003372 0.021606
-6.121557 45.003372 0.018121
-5.806836 45.003372 0.017909
-5.492115 45.003372 0.018165
-5.177394 45.003372 0.017889
-4.862673 45.003372 0.017876
-4.547952 45.003372 0.017734
-4.233231 45.003372 0.017375
-3.918510 45.003372 0.017532
-3.603789 45.003372 0.017791
-3.289068 45.003372 0.017804
-2.974347 45.003372 0.017907
-2.659626 45.003372 0.017828
-2.344905 45.003372 0.017669
-2.030184 45.003372 0.017756
-1.715463 45.003372 0.017959
-1.400742 45.003372 0.018042
-1.086021 45.003372 0.018411
-0.771300 45.003372 0.018558
-0.456579 45.003372 0.018132
-0.141859 45.003372 0.018297
0.172863 45.003372 0.018335
0.487584 45.003372 0.018452
0.802305 45.003372 0.018622
1.117026 45.003372 0.018607
1.431747 45.003372 0.018750
1.746467 45.003372 0.018591
2.061188 45.003372 0.018384
2.375909 45.003372 0.018659
2.690630 45.003372 0.018792
3.005352 45.003372 0.019171
3.320073 45.003372 0.019522
3.634794 45.003372 0.019222
3.949515 45.003372 0.019543
4.264236 45.003372 0.020431
4.578956 45.003372 0.020983
4.893677 45.003372 0.021234
5.208398 45.003372 0.022433
5.523119 45.003372 0.023457
5.837841 45.003372 0.024870
6.152562 45.003372 0.027269
6.467283 45.003372 0.030464
6.782003 45.003372 0.035266
7.096724 45.003372 0.042106
7.411445 45.003372 0.053812
7.726166 45.003372 0.071861
8.040888 45.003372 0.099108
8.355608 45.003372 0.139459
8.670330 45.003372 0.195766
8.985050 45.003372 0.272516
9.299772 45.003372 0.356469
9.614492 45.003372 0.480490
9.929214 45.003372 0.592988
10.243935 45.003372 0.722204
10.558655 45.003372 0.857190
10.873377 45.003372 1.032166
11.188097 45.003372 1.192183
11.502819 45.003372 1.372527
11.817539 45.003372 1.491782
12.132261 45.003372 1.599458
12.446981 45.003372 1.696652
12.761703 45.003372 1.796348
13.076424 45.003372 1.850386
13.391144 45.003372 1.834852
13.705866 45.003372 1.782410
14.020586 45.003372 1.712825
14.335308 45.003372 1.691075
14.650028 45.003372 1.606601
14.964750 45.003372 1.486885
15.279470 45.003372 1.407661
15.594193 45.003372 1.441344
15.908913 45.003372 1.433027
16.223633 45.003372 1.735964
16.538355 45.003372 2.876246
16.853075 45.003372 5.907763
17.167797 45.003372 9.131918
17.482517 45.003372 12.263818
17.797239 45.003372 15.784181
18.111959 45.003372 19.260256
18.426680 45.003372 23.478489
18.741402 45.003372 18.066277
-7.065720 44.688648 0.000000
-6.750999 44.688648 0.000000
-6.436278 44.688648 0.021474
-6.121557 44.688648 0.018164
-5.806836 44.688648 0.017929
-5.492115 44.688648 0.017962
-5.177394 44.688648 0.017868
-4.862673 44.688648 0.017798
-4.547952 44.688648 0.017616
-4.233231 44.688648 0.017220
-3.918510 44.688648 0.017335
-3.603789 44.688648 0.017604
-3.289068 44.688648 0.017755
-2.974347 44.688648 0.017862
-2.659626 44.688648 0.017915
-2.344905 44.688648 0.017845
-2.030184 44.688648 0.017906
-1.715463 44.688648 0.017875
-1.400742 44.688648 0.018042
-1.086021 44.688648 0.018254
-0.771300 44.688648 0.018450
-0.456579 44.688648 0.017984
-0.141859 44.688648 0.018077
0.172863 44.688648 0.018455
0.487584 44.688648 0.018757
0.802305 44.688648 0.018819
1.117026 44.688648 0.018835
1.431747 44.688648 0.018973
1.746467 44.688648 0.018672
2.061188 44.688648 0.018308
2.375909 44.688648 0.018329
2.690630 44.688648 0.018517
3.005352 44.688648 0.019170
3.320073 44.688648 0.019515
3.634794 44.688648 0.019269
3.949515 44.688648 0.019429
4.264236 44.688648 0.020383
4.578956 44.688648 0.020743
4.893677 44.688648 0.020619
5.208398 44.688648 0.021713
5.523119 44.688648 0.022912
5.837841 44.688648 0.024470
6.152562 44.688648 0.027138
6.467283 44.688648 0.030198
6.782003 44.688648 0.035277
7.096724 44.688648 0.042252
7.411445 44.688648 0.053887
7.726166 44.688648 0.071958
8.040888 44.688648 0.099341
8.355608 44.688648 0.138258
8.670330 44.688648 0.191149
8.985050 44.688648 0.266715
9.299772 44.688648 0.357590
9.614492 44.688648 0.472861
9.929214 44.688648 0.593745
10.243935 44.688648 0.724987
10.558655 44.688648 0.878374
10.873377 44.688648 1.044222
11.188097 44.688648 1.214179
11.502819 44.688648 1.346582
11.817539 44.688648 1.475876
12.132261 44.688648 1.587932
12.446981 44.688648 1.708714
12.761703 44.688648 1.805145
13.076424 44.688648 1.835779
13.391144 44.688648 1.832637
13.705866 44.688648 1.784645
14.020586 44.688648 1.714142
14.335308 44.688648 1.651950
14.650028 44.688648 1.616907
14.964750 44.688648 1.517303
15.279470 44.688648 1.450642
15.594193 44.688648 1.420446
15.908913 44.688648 1.476623
16.223633 44.688648 1.856817
16.538355 44.688648 3.848133
16.853075 44.688648 8.501163
17.167797 44.688648 13.834226
17.482517 44.688648 16.603827
17.797239 44.688648 18.691874
18.111959 44.688648 21.933271
18.426680 44.688648 24.817558
18.741402 44.688648 17.838594
-7.065720 44.373928 0.000000
-6.750999 44.373928 0.000000
-6.436278 44.373928 0.021218
-6.121557 44.373928 0.018011
-5.806836 44.373928 0.017856
-5.492115 44.373928 0.017862
-5.177394 44.373928 0.017729
-4.862673 44.373928 0.017561
-4.547952 44.373928 0.017556
-4.233231 44.373928 0.017472
-3.918510 44.373928 0.017434
-3.603789 44.373928 0.017695
-3.289068 44.373928 0.017943
-2.974347 44.373928 0.017886
-2.659626 44.373928 0.018037
-2.344905 44.373928 0.018084
-2.030184 44.373928 0.018076
-1.715463 44.373928 0.018051
-1.400742 44.373928 0.018257
-1.086021 44.373928 0.017999
-0.771300 44.373928 0.018120
-0.456579 44.373928 0.017978
-0.141859 44.373928 0.018012
0.172863 44.373928 0.018616
0.487584 44.373928 0.018966
0.802305 44.373928 0.018929
1.117026 44.373928 0.019027
1.431747 44.373928 0.018965
1.746467 44.373928 0.018898
2.061188 44.373928 0.018599
2.375909 44.373928 0.018111
2.690630 44.373928 0.018187
3.005352 44.373928 0.018936
3.320073 44.373928 0.019334
3.634794 44.373928 0.019103
3.949515 44.373928 0.019282
4.264236 44.373928 0.020281
4.578956 44.373928 0.020630
4.893677 44.373928 0.020375
5.208398 44.373928 0.021247
5.523119 44.373928 0.022408
5.837841 44.373928 0.024174
6.152562 44.373928 0.027022
6.467283 44.373928 0.030330
6.782003 44.373928 0.035075
7.096724 44.373928 0.041837
7.411445 44.373928 0.052360
7.726166 44.373928 0.072231
8.040888 44.373928 0.098800
8.355608 44.373928 0.137157
8.670330 44.373928 0.193583
8.985050 44.373928 0.262011
9.299772 44.373928 0.355497
9.614492 44.373928 0.475342
9.929214 44.373928 0.592304
10.243935 44.373928 0.740248
10.558655 44.373928 0.880624
10.873377 44.373928 1.033993
11.188097 44.373928 1.187501
11.502819 44.373928 1.356164
11.817539 44.373928 1.462258
12.132261 44.373928 1.584998
12.446981 44.373928 1.697215
12.761703 44.373928 1.780151
13.076424 44.373928 1.845515
13.391144 44.373928 1.861709
13.705866 44.373928 1.811567
14.020586 44.373928 1.741504
14.335308 44.373928 1.665421
14.650028 44.373928 1.641181
14.964750 44.373928 1.545360
15.279470 44.373928 1.446250
15.594193 44.373928 1.413025
15.908913 44.373928 1.470248
16.223633 44.373928 2.024319
16.538355 44.373928 4.695307
16.853075 44.373928 11.481773
17.167797 44.373928 18.300186
17.482517 44.373928 20.311409
17.797239 44.373928 20.920218
18.111959 44.373928 22.486422
18.426680 44.373928 25.062956
18.741402 44.373928 18.801092
-7.065720 44.059208 0.000000
-6.750999 44.059208 0.000000
-6.436278 44.059208 0.021002
-6.121557 44.059208 0.017923
-5.806836 44.059208 0.017917
-5.492115 44.059208 0.017968
-5.177394 44.059208 0.017654
-4.862673 44.059208 0.017573
-4.547952 44.059208 0.017614
-4.233231 44.059208 0.017633
-3.918510 44.059208 0.017709
-3.603789 44.059208 0.017889
-3.289068 44.059208 0.018168
-2.974347 44.059208 0.017911
-2.659626 44.059208 0.018016
-2.344905 44.059208 0.018118
-2.030184 44.059208 0.018104
-1.715463 44.059208 0.018179
-1.400742 44.059208 0.018279
-1.086021 44.059208 0.017728
-0.771300 44.059208 0.017838
-0.456579 44.059208 0.018022
-0.141859 44.059208 0.018126
0.172863 44.059208 0.018624
0.487584 44.059208 0.018696
0.802305 44.059208 0.018694
1.117026 44.059208 0.018876
1.431747 44.059208 0.018793
1.746467 44.059208 0.018958
2.061188 44.059208 0.018893
2.375909 44.059208 0.018239
2.690630 44.059208 0.018176
3.005352 44.059208 0.018601
3.320073 44.059208 0.018906
3.634794 44.059208 0.018755
3.949515 44.059208 0.019121
4.264236 44.059208 0.020059
4.578956 44.059208 0.020503
4.893677 44.059208 0.020498
5.208398 44.059208 0.021322
5.523119 44.059208 0.022350
5.837841 44.059208 0.023864
6.152562 44.059208 0.026515
6.467283 44.059208 0.029964
6.782003 44.059208 0.034721
7.096724 44.059208 0.040793
7.411445 44.059208 0.051680
7.726166 44.059208 0.070173
8.040888 44.059208 0.100303
8.355608 44.059208 0.139309
8.670330 44.059208 0.191257
8.985050 44.059208 0.262833
9.299772 44.059208 0.356601
9.614492 44.059208 0.474186
9.929214 44.059208 0.595463
10.243935 44.059208 0.739305
10.558655 44.059208 0.901505
10.873377 44.059208 1.031141
11.188097 44.059208 1.194359
11.502819 44.059208 1.365938
11.817539 44.059208 1.470344
12.132261 44.059208 1.611954
12.446981 44.059208 1.707187
12.761703 44.059208 1.784849
13.076424 44.059208 1.844822
13.391144 44.059208 1.879763
13.705866 44.059208 1.826202
14.020586 44.059208 1.732337
14.335308 44.059208 1.677766
14.650028 44.059208 1.580689
14.964750 44.059208 1.505422
15.279470 44.059208 1.424425
15.594193 44.059208 1.383845
15.908913 44.059208 1.483418
16.223633 44.059208 2.130408
16.538355 44.059208 5.011565
16.853075 44.059208 11.790573
17.167797 44.059208 19.130074
17.482517 44.059208 21.870230
17.797239 44.059208 21.602640
18.111959 44.059208 22.854162
18.426680 44.059208 25.124502
18.741402 44.059208 19.515621
-7.065720 43.744488 0.000000
-6.750999 43.744488 0.000000
-6.436278 43.744488 0.020894
-6.121557 43.744488 0.017893
-5.806836 43.744488 0.017978
-5.492115 43.744488 0.018117
-5.177394 43.744488 0.017794
-4.862673 43.744488 0.017762
-4.547952 43.744488 0.017804
-4.233231 43.744488 0.017656
-3.918510 43.744488 0.017844
-3.603789 43.744488 0.018054
-3.289068 43.744488 0.018278
-2.974347 43.744488 0.017919
-2.659626 43.744488 0.017845
-2.344905 43.744488 0.017944
-2.030184 43.744488 0.017950
-1.715463 43.744488 0.018034
-1.400742 43.744488 0.018134
-1.086021 43.744488 0.017731
-0.771300 43.744488 0.017760
-0.456579 43.744488 0.018117
-0.141859 43.744488 0.018131
0.172863 43.744488 0.018356
0.487584 43.744488 0.018294
0.802305 43.744488 0.018244
1.117026 43.744488 0.018318
1.431747 43.744488 0.018349
1.746467 43.744488 0.018921
2.061188 43.744488 0.019057
2.375909 43.744488 0.018688
2.690630 43.744488 0.018563
3.005352 43.744488 0.018658
3.320073 43.744488 0.018734
3.634794 43.744488 0.018518
3.949515 43.744488 0.018896
4.264236 43.744488 0.019628
4.578956 43.744488 0.020411
4.893677 43.744488 0.020598
5.208398 43.744488 0.021420
5.523119 43.744488 0.022225
5.837841 43.744488 0.023469
6.152562 43.744488 0.026072
6.467283 43.744488 0.029439
6.782003 43.744488 0.033649
7.096724 43.744488 0.041029
7.411445 43.744488 0.051588
7.726166 43.744488 0.069103
8.040888 43.744488 0.098456
8.355608 43.744488 0.138361
8.670330 43.744488 0.192977
8.985050 43.744488 0.268673
9.299772 43.744488 0.364078
9.614492 43.744488 0.480286
9.929214 43.744488 0.612538
10.243935 43.744488 0.750954
10.558655 43.744488 0.895562
10.873377 43.744488 1.030849
11.188097 43.744488 1.193591
11.502819 43.744488 1.351463
11.817539 43.744488 1.505202
12.132261 43.744488 1.645069
12.446981 43.744488 1.741610
12.761703 43.744488 1.805080
13.076424 43.744488 1.807242
13.391144 43.744488 1.853490
13.705866 43.744488 1.795105
14.020586 43.744488 1.754746
14.335308 43.744488 1.664127
14.650028 43.744488 1.539020
14.964750 43.744488 1.476471
15.279470 43.744488 1.402978
15.594193 43.744488 1.365515
15.908913 43.744488 1.472444
16.223633 43.744488 2.090297
16.538355 43.744488 4.491627
16.853075 43.744488 10.238788
17.167797 43.744488 17.282440
17.482517 43.744488 20.446560
17.797239 43.744488 20.265795
18.111959 43.744488 21.543455
18.426680 43.744488 24.751431
18.741402 43.744488 17.281109
-7.065720 43.429764 0.000000
-6.750999 43.429764 0.000000
-6.436278 43.429764 0.020825
-6.121557 43.429764 0.017892
-5.806836 43.429764 0.017964
-5.492115 43.429764 0.018128
-5.177394 43.429764 0.017822
-4.862673 43.429764 0.017934
-4.547952 43.429764 0.017911
-4.233231 43.429764 0.017591
-3.918510 43.429764 0.017808
-3.603789 43.429764 0.018150
-3.289068 43.429764 0.018400
-2.974347 43.429764 0.018210
-2.659626 43.429764 0.017969
-2.344905 43.429764 0.017799
-2.030184 43.429764 0.017685
-1.715463 43.429764 0.017831
-1.400742 43.429764 0.017782
-1.086021 43.429764 0.017691
-0.771300 43.429764 0.018020
-0.456579 43.429764 0.018069
-0.141859 43.429764 0.018050
0.172863 43.429764 0.018269
0.487584 43.429764 0.018053
0.802305 43.429764 0.017857
1.117026 43.429764 0.017778
1.431747 43.429764 0.018106
1.746467 43.429764 0.018869
2.061188 43.429764 0.019015
2.375909 43.429764 0.018982
2.690630 43.429764 0.018967
3.005352 43.429764 0.019162
3.320073 43.429764 0.019097
3.634794 43.429764 0.018566
3.949515 43.429764 0.018816
4.264236 43.429764 0.019427
4.578956 43.429764 0.020232
4.893677 43.429764 0.020679
5.208398 43.429764 0.021346
5.523119 43.429764 0.022092
5.837841 43.429764 0.023308
6.152562 43.429764 0.025923
6.467283 43.429764 0.028687
6.782003 43.429764 0.032979
7.096724 43.429764 0.040524
7.411445 43.429764 0.050727
7.726166 43.429764 0.067542
8.040888 43.429764 0.095678
8.355608 43.429764 0.137741
8.670330 43.429764 0.193730
8.985050 43.429764 0.263989
9.299772 43.429764 0.369513
9.614492 43.429764 0.484135
9.929214 43.429764 0.607178
10.243935 43.429764 0.748342
10.558655 43.429764 0.879201
10.873377 43.429764 1.025027
11.188097 43.429764 1.210900
11.502819 43.429764 1.331324
11.817539 43.429764 1.461679
12.132261 43.429764 1.620153
12.446981 43.429764 1.733160
12.761703 43.429764 1.763999
13.076424 43.429764 1.772020
13.391144 43.429764 1.811692
13.705866 43.429764 1.779457
14.020586 43.429764 1.683255
14.335308 43.429764 1.617246
14.650028 43.429764 1.532411
14.964750 43.429764 1.463517
15.279470 43.429764 1.403492
15.594193 43.429764 1.369324
15.908913 43.429764 1.457058
16.223633 43.429764 2.059958
16.538355 43.429764 3.839520
16.853075 43.429764 8.128494
17.167797 43.429764 14.155347
17.482517 43.429764 17.861731
17.797239 43.429764 19.050222
18.111959 43.429764 20.804527
18.426680 43.429764 23.209122
18.741402 43.429764 16.533222
-7.065720 43.115044 0.000000
-6.750999 43.115044 0.000000
-6.436278 43.115044 0.020870
-6.121557 43.115044 0.018041
-5.806836 43.115044 0.017854
-5.492115 43.115044 0.017948
-5.177394 43.115044 0.017792
-4.862673 43.115044 0.018038
-4.547952 43.115044 0.017981
-4.233231 43.115044 0.017563
-3.918510 43.115044 0.017785
-3.603789 43.115044 0.018172
-3.289068 43.115044 0.018558
-2.974347 43.115044 0.018610
-2.659626 43.115044 0.018323
-2.344905 43.115044 0.017777
-2.030184 43.115044 0.017445
-1.715463 43.115044 0.017603
-1.400742 43.115044 0.017466
-1.086021 43.115044 0.017747
-0.771300 43.115044 0.018237
-0.456579 43.115044 0.018069
-0.141859 43.115044 0.017854
0.172863 43.115044 0.018048
0.487584 43.115044 0.017959
0.802305 43.115044 0.017804
1.117026 43.115044 0.017627
1.431747 43.115044 0.018104
1.746467 43.115044 0.018741
2.061188 43.115044 0.018781
2.375909 43.115044 0.018949
2.690630 43.115044 0.019147
3.005352 43.115044 0.019640
3.320073 43.115044 0.019726
3.634794 43.115044 0.018959
3.949515 43.115044 0.018837
4.264236 43.115044 0.019321
4.578956 43.115044 0.020036
4.893677 43.115044 0.020496
5.208398 43.115044 0.021140
5.523119 43.115044 0.021844
5.837841 43.115044 0.023267
6.152562 43.115044 0.025673
6.467283 43.115044 0.028267
6.782003 43.115044 0.032052
7.096724 43.115044 0.039604
7.411445 43.115044 0.051083
7.726166 43.115044 0.067616
8.040888 43.115044 0.095420
8.355608 43.115044 0.135213
8.670330 43.115044 0.195071
8.985050 43.115044 0.269302
9.299772 43.115044 0.356092
9.614492 43.115044 0.486725
9.929214 43.115044 0.603778
10.243935 43.115044 0.750442
10.558655 43.115044 0.880537
10.873377 43.115044 1.046772
11.188097 43.115044 1.200340
11.502819 43.115044 1.332755
11.817539 43.115044 1.465716
12.132261 43.115044 1.586816
12.446981 43.115044 1.694200
12.761703 43.115044 1.776266
13.076424 43.115044 1.771984
13.391144 43.115044 1.797485
13.705866 43.115044 1.774468
14.020586 43.115044 1.682224
14.335308 43.115044 1.596973
14.650028 43.115044 1.519759
14.964750 43.115044 1.434502
15.279470 43.115044 1.383020
15.594193 43.115044 1.347288
15.908913 43.115044 1.434214
16.223633 43.115044 1.973048
16.538355 43.115044 3.502799
16.853075 43.115044 6.485835
17.167797 43.115044 11.633796
17.482517 43.115044 15.986976
17.797239 43.115044 17.681328
18.111959 43.115044 19.541325
18.426680 43.115044 22.852850
18.741402 43.115044 15.416824
-7.065720 42.800323 0.000000
-6.750999 42.800323 0.000000
-6.436278 42.800323 0.020928
-6.121557 42.800323 0.018163
-5.806836 42.800323 0.017931
-5.492115 42.800323 0.017873
-5.177394 42.800323 0.017671
-4.862673 42.800323 0.018044
-4.547952 42.800323 0.018069
-4.233231 42.800323 0.017623
-3.918510 42.800323 0.017780
-3.603789 42.800323 0.018289
-3.289068 42.800323 0.018648
-2.974347 42.800323 0.018851
-2.659626 42.800323 0.018658
-2.344905 42.800323 0.018051
-2.030184 42.800323 0.017791
-1.715463 42.800323 0.017743
-1.400742 42.800323 0.017592
-1.086021 42.800323 0.017851
-0.771300 42.800323 0.018380
-0.456579 42.800323 0.017973
-0.141859 42.800323 0.017711
0.172863 42.800323 0.017913
0.487584 42.800323 0.018007
0.802305 42.800323 0.017758
1.117026 42.800323 0.017713
1.431747 42.800323 0.018156
1.746467 42.800323 0.018386
2.061188 42.800323 0.018378
2.375909 42.800323 0.018789
2.690630 42.800323 0.019103
3.005352 42.800323 0.019811
3.320073 42.800323 0.019984
3.634794 42.800323 0.019477
3.949515 42.800323 0.019096
4.264236 42.800323 0.019363
4.578956 42.800323 0.019970
4.893677 42.800323 0.020382
5.208398 42.800323 0.021151
5.523119 42.800323 0.021901
5.837841 42.800323 0.023191
6.152562 42.800323 0.025563
6.467283 42.800323 0.027755
6.782003 42.800323 0.031596
7.096724 42.800323 0.039770
7.411445 42.800323 0.051050
7.726166 42.800323 0.067867
8.040888 42.800323 0.094029
8.355608 42.800323 0.134574
8.670330 42.800323 0.189453
8.985050 42.800323 0.270076
9.299772 42.800323 0.359997
9.614492 42.800323 0.474948
9.929214 42.800323 0.609049
10.243935 42.800323 0.734237
10.558655 42.800323 0.909474
10.873377 42.800323 1.023961
11.188097 42.800323 1.194299
11.502819 42.800323 1.349485
11.817539 42.800323 1.462617
12.132261 42.800323 1.583718
12.446981 42.800323 1.695285
12.761703 42.800323 1.775806
13.076424 42.800323 1.821533
13.391144 42.800323 1.806255
13.705866 42.800323 1.800175
14.020586 42.800323 1.685041
14.335308 42.800323 1.580193
14.650028 42.800323 1.530330
14.964750 42.800323 1.467674
15.279470 42.800323 1.381892
15.594193 42.800323 1.322708
15.908913 42.800323 1.426731
16.223633 42.800323 1.950701
16.538355 42.800323 3.276740
16.853075 42.800323 6.167638
17.167797 42.800323 10.557063
17.482517 42.800323 14.196979
17.797239 42.800323 16.849051
18.111959 42.800323 18.582481
18.426680 42.800323 22.258701
18.741402 42.800323 15.319803
-7.065720 42.485603 0.000000
-6.750999 42.485603 0.000000
-6.436278 42.485603 0.020927
-6.121557 42.485603 0.018325
-5.806836 42.485603 0.018104
-5.492115 42.485603 0.018091
-5.177394 42.485603 0.017788
-4.862673 42.485603 0.018104
-4.547952 42.485603 0.018309
-4.233231 42.485603 0.017908
-3.918510 42.485603 0.017874
-3.603789 42.485603 0.018305
-3.289068 42.485603 0.018743
-2.974347 42.485603 0.018920
-2.659626 42.485603 0.018846
-2.344905 42.485603 0.018375
-2.030184 42.485603 0.018197
-1.715463 42.485603 0.018128
-1.400742 42.485603 0.017864
-1.086021 42.485603 0.017934
-0.771300 42.485603 0.018352
-0.456579 42.485603 0.017774
-0.141859 42.485603 0.017668
0.172863 42.485603 0.017959
0.487584 42.485603 0.017893
0.802305 42.485603 0.017599
1.117026 42.485603 0.017814
1.431747 42.485603 0.018244
1.746467 42.485603 0.018247
2.061188 42.485603 0.018294
2.375909 42.485603 0.018689
2.690630 42.485603 0.018933
3.005352 42.485603 0.019751
3.320073 42.485603 0.019899
3.634794 42.485603 0.019662
3.949515 42.485603 0.019423
4.264236 42.485603 0.019712
4.578956 42.485603 0.020306
4.893677 42.485603 0.020666
5.208398 42.485603 0.021052
5.523119 42.485603 0.021896
5.837841 42.485603 0.023256
6.152562 42.485603 0.025546
6.467283 42.485603 0.027800
6.782003 42.485603 0.032042
7.096724 42.485603 0.039607
7.411445 42.485603 0.050910
7.726166 42.485603 0.067756
8.040888 42.485603 0.095059
8.355608 42.485603 0.136782
8.670330 42.485603 0.191716
8.985050 42.485603 0.273530
9.299772 42.485603 0.363965
9.614492 42.485603 0.472970
9.929214 42.485603 0.586969
10.243935 42.485603 0.741940
10.558655 42.485603 0.891885
10.873377 42.485603 1.029530
11.188097 42.485603 1.199585
11.502819 42.485603 1.328136
11.817539 42.485603 1.442475
12.132261 42.485603 1.577507
12.446981 42.485603 1.685444
12.761703 42.485603 1.763215
13.076424 42.485603 1.844633
13.391144 42.485603 1.874229
13.705866 42.485603 1.788198
14.020586 42.485603 1.728495
14.335308 42.485603 1.591410
14.650028 42.485603 1.537091
14.964750 42.485603 1.452703
15.279470 42.485603 1.396691
15.594193 42.485603 1.325559
15.908913 42.485603 1.437941
16.223633 42.485603 1.984340
16.538355 42.485603 3.118900
16.853075 42.485603 5.827476
17.167797 42.485603 10.388228
17.482517 42.485603 14.124657
17.797239 42.485603 16.420507
18.111959 42.485603 18.898039
18.426680 42.485603 21.904711
18.741402 42.485603 16.817364
-7.065720 42.170883 0.000000
-6.750999 42.170883 0.000000
-6.436278 42.170883 0.021045
-6.121557 42.170883 0.018294
-5.806836 42.170883 0.018283
-5.492115 42.170883 0.018467
-5.177394 42.170883 0.017859
-4.862673 42.170883 0.018115
-4.547952 42.170883 0.018315
-4.233231 42.170883 0.017983
-3.918510 42.170883 0.017963
-3.603789 42.170883 0.018444
-3.289068 42.170883 0.018827
-2.974347 42.170883 0.018705
-2.659626 42.170883 0.018582
-2.344905 42.170883 0.018460
-2.030184 42.170883 0.018449
-1.715463 42.170883 0.018491
-1.400742 42.170883 0.018056
-1.086021 42.170883 0.017973
-0.771300 42.170883 0.018077
-0.456579 42.170883 0.017605
-0.141859 42.170883 0.017834
0.172863 42.170883 0.018051
0.487584 42.170883 0.017654
0.802305 42.170883 0.017348
1.117026 42.170883 0.017639
1.431747 42.170883 0.018160
1.746467 42.170883 0.018218
2.061188 42.170883 0.018370
2.375909 42.170883 0.018545
2.690630 42.170883 0.018760
3.005352 42.170883 0.019441
3.320073 42.170883 0.019554
3.634794 42.170883 0.019631
3.949515 42.170883 0.019703
4.264236 42.170883 0.019954
4.578956 42.170883 0.020593
4.893677 42.170883 0.020986
5.208398 42.170883 0.021165
5.523119 42.170883 0.021813
5.837841 42.170883 0.023181
6.152562 42.170883 0.025661
6.467283 42.170883 0.027951
6.782003 42.170883 0.032020
7.096724 42.170883 0.038889
7.411445 42.170883 0.049942
7.726166 42.170883 0.069018
8.040888 42.170883 0.095891
8.355608 42.170883 0.138515
8.670330 42.170883 0.189247
8.985050 42.170883 0.271454
9.299772 42.170883 0.363774
9.614492 42.170883 0.468264
9.929214 42.170883 0.597115
10.243935 42.170883 0.739735
10.558655 42.170883 0.876309
10.873377 42.170883 1.027586
11.188097 42.170883 1.210337
11.502819 42.170883 1.329895
11.817539 42.170883 1.440005
12.132261 42.170883 1.567003
12.446981 42.170883 1.675825
12.761703 42.170883 1.784932
13.076424 42.170883 1.842799
13.391144 42.170883 1.879612
13.705866 42.170883 1.803200
14.020586 42.170883 1.752013
14.335308 42.170883 1.652971
14.650028 42.170883 1.589349
14.964750 42.170883 1.463702
15.279470 42.170883 1.382906
15.594193 42.170883 1.334684
15.908913 42.170883 1.444259
16.223633 42.170883 1.949598
16.538355 42.170883 3.271965
16.853075 42.170883 6.003834
17.167797 42.170883 10.453007
17.482517 42.170883 14.477540
17.797239 42.170883 17.054251
18.111959 42.170883 19.458406
18.426680 42.170883 22.640459
18.741402 42.170883 15.345948
-7.065720 41.856159 0.000000
-6.750999 41.856159 0.000000
-6.436278 41.856159 0.020972
-6.121557 41.856159 0.018240
-5.806836 41.856159 0.018405
-5.492115 41.856159 0.018591
-5.177394 41.856159 0.018084
-4.862673 41.856159 0.018196
-4.547952 41.856159 0.018120
-4.233231 41.856159 0.017889
-3.918510 41.856159 0.017995
-3.603789 41.856159 0.018463
-3.289068 41.856159 0.018694
-2.974347 41.856159 0.018208
-2.659626 41.856159 0.018196
-2.344905 41.856159 0.018477
-2.030184 41.856159 0.018525
-1.715463 41.856159 0.018547
-1.400742 41.856159 0.018172
-1.086021 41.856159 0.017926
-0.771300 41.856159 0.017729
-0.456579 41.856159 0.017436
-0.141859 41.856159 0.017904
0.172863 41.856159 0.018104
0.487584 41.856159 0.017381
0.802305 41.856159 0.017207
1.117026 41.856159 0.017482
1.431747 41.856159 0.017817
1.746467 41.856159 0.018167
2.061188 41.856159 0.018255
2.375909 41.856159 0.018371
2.690630 41.856159 0.018452
3.005352 41.856159 0.018970
3.320073 41.856159 0.019295
3.634794 41.856159 0.019544
3.949515 41.856159 0.019704
4.264236 41.856159 0.020102
4.578956 41.856159 0.020692
4.893677 41.856159 0.021043
5.208398 41.856159 0.021306
5.523119 41.856159 0.021865
5.837841 41.856159 0.022935
6.152562 41.856159 0.025581
6.467283 41.856159 0.028242
6.782003 41.856159 0.031866
7.096724 41.856159 0.038416
7.411445 41.856159 0.050008
7.726166 41.856159 0.067036
8.040888 41.856159 0.094798
8.355608 41.856159 0.137009
8.670330 41.856159 0.190363
8.985050 41.856159 0.265829
9.299772 41.856159 0.355953
9.614492 41.856159 0.462948
9.929214 41.856159 0.591769
10.243935 41.856159 0.749058
10.558655 41.856159 0.882608
10.873377 41.856159 1.029276
11.188097 41.856159 1.200400
11.502819 41.856159 1.360688
11.817539 41.856159 1.454416
12.132261 41.856159 1.564460
12.446981 41.856159 1.678249
12.761703 41.856159 1.779354
13.076424 41.856159 1.833083
13.391144 41.856159 1.844725
13.705866 41.856159 1.844822
14.020586 41.856159 1.764810
14.335308 41.856159 1.658365
14.650028 41.856159 1.621661
14.964750 41.856159 1.479511
15.279470 41.856159 1.381125
15.594193 41.856159 1.326083
15.908913 41.856159 1.451596
16.223633 41.856159 1.973981
16.538355 41.856159 3.260051
16.853075 41.856159 6.241444
17.167797 41.856159 10.766527
17.482517 41.856159 15.296102
17.797239 41.856159 17.731827
18.111959 41.856159 20.697943
18.426680 41.856159 24.497381
18.741402 41.856159 18.898424
-7.065720 41.541439 0.000000
-6.750999 41.541439 0.000000
-6.436278 41.541439 0.021010
-6.121557 41.541439 0.018161
-5.806836 41.541439 0.018227
-5.492115 41.541439 0.018656
-5.177394 41.541439 0.018406
-4.862673 41.541439 0.018376
-4.547952 41.541439 0.017972
-4.233231 41.541439 0.017662
-3.918510 41.541439 0.017994
-3.603789 41.541439 0.018319
-3.289068 41.541439 0.018406
-2.974347 41.541439 0.017906
-2.659626 41.541439 0.018098
-2.344905 41.541439 0.018587
-2.030184 41.541439 0.018600
-1.715463 41.541439 0.018584
-1.400742 41.541439 0.018272
-1.086021 41.541439 0.017958
-0.771300 41.541439 0.017698
-0.456579 41.541439 0.017291
-0.141859 41.541439 0.017817
0.172863 41.541439 0.018058
0.487584 41.541439 0.017420
0.802305 41.541439 0.017360
1.117026 41.541439 0.017359
1.431747 41.541439 0.017560
1.746467 41.541439 0.017771
2.061188 41.541439 0.017918
2.375909 41.541439 0.018135
2.690630 41.541439 0.018338
3.005352 41.541439 0.018656
3.320073 41.541439 0.019039
3.634794 41.541439 0.019352
3.949515 41.541439 0.019604
4.264236 41.541439 0.020244
4.578956 41.541439 0.020806
4.893677 41.541439 0.021131
5.208398 41.541439 0.021343
5.523119 41.541439 0.022037
5.837841 41.541439 0.022995
6.152562 41.541439 0.025206
6.467283 41.541439 0.027996
6.782003 41.541439 0.031741
7.096724 41.541439 0.038499
7.411445 41.541439 0.050563
7.726166 41.541439 0.068531
8.040888 41.541439 0.094749
8.355608 41.541439 0.132320
8.670330 41.541439 0.183319
8.985050 41.541439 0.265189
9.299772 41.541439 0.358299
9.614492 41.541439 0.458540
9.929214 41.541439 0.596564
10.243935 41.541439 0.738279
10.558655 41.541439 0.893317
10.873377 41.541439 1.072919
11.188097 41.541439 1.192549
11.502819 41.541439 1.346055
11.817539 41.541439 1.475724
12.132261 41.541439 1.578436
12.446981 41.541439 1.691378
12.761703 41.541439 1.793264
13.076424 41.541439 1.858540
13.391144 41.541439 1.879011
13.705866 41.541439 1.840559
14.020586 41.541439 1.787686
14.335308 41.541439 1.708895
14.650028 41.541439 1.623054
14.964750 41.541439 1.498644
15.279470 41.541439 1.414335
15.594193 41.541439 1.312585
15.908913 41.541439 1.436542
16.223633 41.541439 2.029167
16.538355 41.541439 3.412902
16.853075 41.541439 6.542513
17.167797 41.541439 11.420663
17.482517 41.541439 15.688859
17.797239 41.541439 19.268154
18.111959 41.541439 22.037457
18.426680 41.541439 26.930641
18.741402 41.541439 25.078598
-7.065720 41.226719 0.000000
-6.750999 41.226719 0.000000
-6.436278 41.226719 0.021148
-6.121557 41.226719 0.018237
-5.806836 41.226719 0.018139
-5.492115 41.226719 0.018657
-5.177394 41.226719 0.018715
-4.862673 41.226719 0.018689
-4.547952 41.226719 0.018116
-4.233231 41.226719 0.017575
-3.918510 41.226719 0.017984
-3.603789 41.226719 0.018217
-3.289068 41.226719 0.018281
-2.974347 41.226719 0.017898
-2.659626 41.226719 0.018029
-2.344905 41.226719 0.018351
-2.030184 41.226719 0.018711
-1.715463 41.226719 0.018718
-1.400742 41.226719 0.018382
-1.086021 41.226719 0.018128
-0.771300 41.226719 0.017960
-0.456579 41.226719 0.017421
-0.141859 41.226719 0.017515
0.172863 41.226719 0.017962
0.487584 41.226719 0.017678
0.802305 41.226719 0.017541
1.117026 41.226719 0.017428
1.431747 41.226719 0.017495
1.746467 41.226719 0.017603
2.061188 41.226719 0.017523
2.375909 41.226719 0.017760
2.690630 41.226719 0.018058
3.005352 41.226719 0.018447
3.320073 41.226719 0.018893
3.634794 41.226719 0.019158
3.949515 41.226719 0.019492
4.264236 41.226719 0.020165
4.578956 41.226719 0.020726
4.893677 41.226719 0.020957
5.208398 41.226719 0.021243
5.523119 41.226719 0.022171
5.837841 41.226719 0.023175
6.152562 41.226719 0.025176
6.467283 41.226719 0.027634
6.782003 41.226719 0.031841
7.096724 41.226719 0.039306
7.411445 41.226719 0.050948
7.726166 41.226719 0.068106
8.040888 41.226719 0.091061
8.355608 41.226719 0.131079
8.670330 41.226719 0.187498
8.985050 41.226719 0.265717
9.299772 41.226719 0.361618
9.614492 41.226719 0.462123
9.929214 41.226719 0.591333
10.243935 41.226719 0.737457
10.558655 41.226719 0.893357
10.873377 41.226719 1.040350
11.188097 41.226719 1.221216
11.502819 41.226719 1.369502
11.817539 41.226719 1.492753
12.132261 41.226719 1.598984
12.446981 41.226719 1.708997
12.761703 41.226719 1.805763
13.076424 41.226719 1.858767
13.391144 41.226719 1.888762
13.705866 41.226719 1.834529
14.020586 41.226719 1.793398
14.335308 41.226719 1.720001
14.650028 41.226719 1.606092
14.964750 41.226719 1.483386
15.279470 41.226719 1.403777
15.594193 41.226719 1.337598
15.908913 41.226719 1.445909
16.223633 41.226719 1.992461
16.538355 41.226719 3.622006
16.853075 41.226719 6.827453
17.167797 41.226719 12.235878
17.482517 41.226719 16.608536
17.797239 41.226719 20.746279
18.111959 41.226719 23.965343
18.426680 41.226719 28.411982
18.741402 41.226719 25.822025
-7.065720 40.911999 0.000000
-6.750999 40.911999 0.000000
-6.436278 40.911999 0.021314
-6.121557 40.911999 0.018510
-5.806836 40.911999 0.018359
-5.492115 40.911999 0.018655
-5.177394 40.911999 0.018702
-4.862673 40.911999 0.018815
-4.547952 40.911999 0.018483
-4.233231 40.911999 0.017897
-3.918510 40.911999 0.018204
-3.603789 40.911999 0.018365
-3.289068 40.911999 0.018282
-2.974347 40.911999 0.018066
-2.659626 40.911999 0.017995
-2.344905 40.911999 0.018139
-2.030184 40.911999 0.018683
-1.715463 40.911999 0.018766
-1.400742 40.911999 0.018463
-1.086021 40.911999 0.018246
-0.771300 40.911999 0.018287
-0.456579 40.911999 0.017689
-0.141859 40.911999 0.017401
0.172863 40.911999 0.017732
0.487584 40.911999 0.017691
0.802305 40.911999 0.017622
1.117026 40.911999 0.017696
1.431747 40.911999 0.017750
1.746467 40.911999 0.017652
2.061188 40.911999 0.017392
2.375909 40.911999 0.017445
2.690630 40.911999 0.017686
3.005352 40.911999 0.018256
3.320073 40.911999 0.018974
3.634794 40.911999 0.019041
3.949515 40.911999 0.019383
4.264236 40.911999 0.019951
4.578956 40.911999 0.020705
4.893677 40.911999 0.020797
5.208398 40.911999 0.021111
5.523119 40.911999 0.022206
5.837841 40.911999 0.023470
6.152562 40.911999 0.025273
6.467283 40.911999 0.027579
6.782003 40.911999 0.031431
7.096724 40.911999 0.038776
7.411445 40.911999 0.050743
7.726166 40.911999 0.066733
8.040888 40.911999 0.090670
8.355608 40.911999 0.134791
8.670330 40.911999 0.187843
8.985050 40.911999 0.267190
9.299772 40.911999 0.355835
9.614492 40.911999 0.462812
9.929214 40.911999 0.597948
10.243935 40.911999 0.726533
10.558655 40.911999 0.872870
10.873377 40.911999 1.049829
11.188097 40.911999 1.232302
11.502819 40.911999 1.369601
11.817539 40.911999 1.467626
12.132261 40.911999 1.602841
12.446981 40.911999 1.733910
12.761703 40.911999 1.812784
13.076424 40.911999 1.873642
13.391144 40.911999 1.894008
13.705866 40.911999 1.856081
14.020586 40.911999 1.792819
14.335308 40.911999 1.719159
14.650028 40.911999 1.607202
14.964750 40.911999 1.493089
15.279470 40.911999 1.377995
15.594193 40.911999 1.329605
15.908913 40.911999 1.494823
16.223633 40.911999 2.118944
16.538355 40.911999 3.671764
16.853075 40.911999 7.038843
17.167797 40.911999 12.775174
17.482517 40.911999 17.266317
17.797239 40.911999 21.560652
18.111959 40.911999 26.163670
18.426680 40.911999 30.459438
18.741402 40.911999 0.000000
-7.065720 40.597275 0.000000
-6.750999 40.597275 0.000000
-6.436278 40.597275 0.021441
-6.121557 40.597275 0.018855
-5.806836 40.597275 0.018603
-5.492115 40.597275 0.018627
-5.177394 40.597275 0.018581
-4.862673 40.597275 0.018801
-4.547952 40.597275 0.018731
-4.233231 40.597275 0.018331
-3.918510 40.597275 0.018486
-3.603789 40.597275 0.018548
-3.289068 40.597275 0.018495
-2.974347 40.597275 0.018132
-2.659626 40.597275 0.018063
-2.344905 40.597275 0.018089
-2.030184 40.597275 0.018763
-1.715463 40.597275 0.018712
-1.400742 40.597275 0.018497
-1.086021 40.597275 0.018430
-0.771300 40.597275 0.018506
-0.456579 40.597275 0.017886
-0.141859 40.597275 0.017512
0.172863 40.597275 0.017609
0.487584 40.597275 0.017646
0.802305 40.597275 0.017554
1.117026 40.597275 0.017749
1.431747 40.597275 0.018027
1.746467 40.597275 0.018019
2.061188 40.597275 0.017883
2.375909 40.597275 0.017421
2.690630 40.597275 0.017562
3.005352 40.597275 0.018438
3.320073 40.597275 0.018956
3.634794 40.597275 0.018894
3.949515 40.597275 0.019350
4.264236 40.597275 0.019941
4.578956 40.597275 0.020645
4.893677 40.597275 0.020662
5.208398 40.597275 0.021034
5.523119 40.597275 0.022258
5.837841 40.597275 0.023668
6.152562 40.597275 0.025293
6.467283 40.597275 0.027913
6.782003 40.597275 0.031919
7.096724 40.597275 0.038802
7.411445 40.597275 0.049983
7.726166 40.597275 0.066193
8.040888 40.597275 0.092531
8.355608 40.597275 0.136769
8.670330 40.597275 0.192142
8.985050 40.597275 0.270286
9.299772 40.597275 0.355082
9.614492 40.597275 0.462779
9.929214 40.597275 0.591652
10.243935 40.597275 0.716475
10.558655 40.597275 0.855308
10.873377 40.597275 1.038069
11.188097 40.597275 1.224669
11.502819 40.597275 1.377652
11.817539 40.597275 1.507251
12.132261 40.597275 1.630981
12.446981 40.597275 1.724262
12.761703 40.597275 1.777374
13.076424 40.597275 1.878635
13.391144 40.597275 1.898035
13.705866 40.597275 1.873802
14.020586 40.597275 1.825210
14.335308 40.597275 1.721553
14.650028 40.597275 1.620216
14.964750 40.597275 1.465581
15.279470 40.597275 1.375394
15.594193 40.597275 1.357097
15.908913 40.597275 1.549912
16.223633 40.597275 2.212532
16.538355 40.597275 3.846894
16.853075 40.597275 7.432766
17.167797 40.597275 13.361152
17.482517 40.597275 18.505222
17.797239 40.597275 22.495392
18.111959 40.597275 27.707544
18.426680 40.597275 33.967091
18.741402 40.597275 0.000000
-7.065720 40.282555 0.000000
-6.750999 40.282555 0.000000
-6.436278 40.282555 0.021581
-6.121557 40.282555 0.019105
-5.806836 40.282555 0.018835
-5.492115 40.282555 0.018656
-5.177394 40.282555 0.018411
-4.862673 40.282555 0.018624
-4.547952 40.282555 0.018680
-4.233231 40.282555 0.018562
-3.918510 40.282555 0.018521
-3.603789 40.282555 0.018825
-3.289068 40.282555 0.018760
-2.974347 40.282555 0.018245
-2.659626 40.282555 0.018104
-2.344905 40.282555 0.018291
-2.030184 40.282555 0.018861
-1.715463 40.282555 0.018727
-1.400742 40.282555 0.018459
-1.086021 40.282555 0.018528
-0.771300 40.282555 0.018510
-0.456579 40.282555 0.017950
-0.141859 40.282555 0.017807
0.172863 40.282555 0.017614
0.487584 40.282555 0.017510
0.802305 40.282555 0.017308
1.117026 40.282555 0.017744
1.431747 40.282555 0.018087
1.746467 40.282555 0.018303
2.061188 40.282555 0.018154
2.375909 40.282555 0.017587
2.690630 40.282555 0.017601
3.005352 40.282555 0.018421
3.320073 40.282555 0.018755
3.634794 40.282555 0.018794
3.949515 40.282555 0.019394
4.264236 40.282555 0.019999
4.578956 40.282555 0.020565
4.893677 40.282555 0.020557
5.208398 40.282555 0.021107
5.523119 40.282555 0.022231
5.837841 40.282555 0.023489
6.152562 40.282555 0.025105
6.467283 40.282555 0.027659
6.782003 40.282555 0.031727
7.096724 40.282555 0.038581
7.411445 40.282555 0.049342
7.726166 40.282555 0.065809
8.040888 40.282555 0.092420
8.355608 40.282555 0.137017
8.670330 40.282555 0.193907
8.985050 40.282555 0.267583
9.299772 40.282555 0.359545
9.614492 40.282555 0.474642
9.929214 40.282555 0.590801
10.243935 40.282555 0.713317
10.558655 40.282555 0.852094
10.873377 40.282555 1.012931
11.188097 40.282555 1.217991
11.502819 40.282555 1.373418
11.817539 40.282555 1.518919
12.132261 40.282555 1.639734
12.446981 40.282555 1.722222
12.761703 40.282555 1.786503
13.076424 40.282555 1.859753
13.391144 40.282555 1.912491
13.705866 40.282555 1.877084
14.020586 40.282555 1.829776
14.335308 40.282555 1.758879
14.650028 40.282555 1.620755
14.964750 40.282555 1.488285
15.279470 40.282555 1.395180
15.594193 40.282555 1.394712
15.908913 40.282555 1.564978
16.223633 40.282555 2.289914
16.538355 40.282555 3.656545
16.853075 40.282555 6.590271
17.167797 40.282555 12.333668
17.482517 40.282555 16.975643
17.797239 40.282555 21.625422
18.111959 40.282555 30.376476
18.426680 40.282555 36.512207
18.741402 40.282555 0.000000
-7.065720 39.967834 0.000000
-6.750999 39.967834 0.000000
-6.436278 39.967834 0.021937
-6.121557 39.967834 0.019427
-5.806836 39.967834 0.019235
-5.492115 39.967834 0.018789
-5.177394 39.967834 0.018396
-4.862673 39.967834 0.018498
-4.547952 39.967834 0.018535
-4.233231 39.967834 0.018552
-3.918510 39.967834 0.018426
-3.603789 39.967834 0.018899
-3.289068 39.967834 0.018984
-2.974347 39.967834 0.018563
-2.659626 39.967834 0.018199
-2.344905 39.967834 0.018370
-2.030184 39.967834 0.018763
-1.715463 39.967834 0.018718
-1.400742 39.967834 0.018569
-1.086021 39.967834 0.018633
-0.771300 39.967834 0.018492
-0.456579 39.967834 0.018089
-0.141859 39.967834 0.018113
0.172863 39.967834 0.017775
0.487584 39.967834 0.017371
0.802305 39.967834 0.017225
1.117026 39.967834 0.017529
1.431747 39.967834 0.017909
1.746467 39.967834 0.018175
2.061188 39.967834 0.018122
2.375909 39.967834 0.017729
2.690630 39.967834 0.017661
3.005352 39.967834 0.018076
3.320073 39.967834 0.018421
3.634794 39.967834 0.018651
3.949515 39.967834 0.019285
4.264236 39.967834 0.019769
4.578956 39.967834 0.020507
4.893677 39.967834 0.020625
5.208398 39.967834 0.021112
5.523119 39.967834 0.022056
5.837841 39.967834 0.023328
6.152562 39.967834 0.025141
6.467283 39.967834 0.027300
6.782003 39.967834 0.030895
7.096724 39.967834 0.037384
7.411445 39.967834 0.048603
7.726166 39.967834 0.065672
8.040888 39.967834 0.092447
8.355608 39.967834 0.134488
8.670330 39.967834 0.193991
8.985050 39.967834 0.270506
9.299772 39.967834 0.366884
9.614492 39.967834 0.473162
9.929214 39.967834 0.594426
10.243935 39.967834 0.717847
10.558655 39.967834 0.864862
10.873377 39.967834 1.017676
11.188097 39.967834 1.188963
11.502819 39.967834 1.383772
11.817539 39.967834 1.521373
12.132261 39.967834 1.640800
12.446981 39.967834 1.758918
12.761703 39.967834 1.831182
13.076424 39.967834 1.914234
13.391144 39.967834 1.915750
13.705866 39.967834 1.888646
14.020586 39.967834 1.824095
14.335308 39.967834 1.747017
14.650028 39.967834 1.662766
14.964750 39.967834 1.526222
15.279470 39.967834 1.415441
15.594193 39.967834 1.449110
15.908913 39.967834 1.635691
16.223633 39.967834 2.484623
16.538355 39.967834 7.683712
16.853075 39.967834 54.927437
17.167797 39.967834 65.653908
17.482517 39.967834 37.231430
17.797239 39.967834 43.842033
18.111959 39.967834 35.050507
18.426680 39.967834 41.088772
18.741402 39.967834 0.000000
-7.065720 39.653114 0.000000
-6.750999 39.653114 0.000000
-6.436278 39.653114 0.022407
-6.121557 39.653114 0.019603
-5.806836 39.653114 0.019476
-5.492115 39.653114 0.018826
-5.177394 39.653114 0.018378
-4.862673 39.653114 0.018397
-4.547952 39.653114 0.018290
-4.233231 39.653114 0.018477
-3.918510 39.653114 0.018377
-3.603789 39.653114 0.018726
-3.289068 39.653114 0.019035
-2.974347 39.653114 0.018572
-2.659626 39.653114 0.018133
-2.344905 39.653114 0.018298
-2.030184 39.653114 0.018619
-1.715463 39.653114 0.018706
-1.400742 39.653114 0.018724
-1.086021 39.653114 0.018877
-0.771300 39.653114 0.018527
-0.456579 39.653114 0.018038
-0.141859 39.653114 0.018148
0.172863 39.653114 0.017941
0.487584 39.653114 0.017539
0.802305 39.653114 0.017331
1.117026 39.653114 0.017480
1.431747 39.653114 0.017789
1.746467 39.653114 0.017889
2.061188 39.653114 0.017737
2.375909 39.653114 0.017795
2.690630 39.653114 0.017684
3.005352 39.653114 0.017738
3.320073 39.653114 0.018187
3.634794 39.653114 0.018539
3.949515 39.653114 0.019074
4.264236 39.653114 0.019487
4.578956 39.653114 0.020422
4.893677 39.653114 0.020719
5.208398 39.653114 0.021123
5.523119 39.653114 0.021978
5.837841 39.653114 0.023163
6.152562 39.653114 0.025136
6.467283 39.653114 0.027515
6.782003 39.653114 0.030280
7.096724 39.653114 0.037083
7.411445 39.653114 0.047857
7.726166 39.653114 0.067359
8.040888 39.653114 0.094693
8.355608 39.653114 0.134303
8.670330 39.653114 0.188360
8.985050 39.653114 0.266651
9.299772 39.653114 0.360673
9.614492 39.653114 0.468024
9.929214 39.653114 0.600177
10.243935 39.653114 0.729289
10.558655 39.653114 0.863057
10.873377 39.653114 0.995459
11.188097 39.653114 1.176448
11.502819 39.653114 1.377742
11.817539 39.653114 1.516807
12.132261 39.653114 1.632398
12.446981 39.653114 1.779814
12.761703 39.653114 1.881159
13.076424 39.653114 1.910335
13.391144 39.653114 1.902435
13.705866 39.653114 1.901929
14.020586 39.653114 1.793878
14.335308 39.653114 1.748329
14.650028 39.653114 1.649340
14.964750 39.653114 1.485612
15.279470 39.653114 1.447864
15.594193 39.653114 1.477240
15.908913 39.653114 1.670728
16.223633 39.653114 2.621647
16.538355 39.653114 8.124122
16.853075 39.653114 0.000000
17.167797 39.653114 0.000000
17.482517 39.653114 0.000000
17.797239 39.653114 45.598808
18.111959 39.653114 39.205940
18.426680 39.653114 46.823826
18.741402 39.653114 0.000000
-7.065720 39.338394 0.000000
-6.750999 39.338394 0.000000
-6.436278 39.338394 0.022786
-6.121557 39.338394 0.019798
-5.806836 39.338394 0.019481
-5.492115 39.338394 0.018897
-5.177394 39.338394 0.018552
-4.862673 39.338394 0.018494
-4.547952 39.338394 0.018236
-4.233231 39.338394 0.018313
-3.918510 39.338394 0.018231
-3.603789 39.338394 0.018431
-3.289068 39.338394 0.018978
-2.974347 39.338394 0.018651
-2.659626 39.338394 0.018110
-2.344905 39.338394 0.018145
-2.030184 39.338394 0.018368
-1.715463 39.338394 0.018684
-1.400742 39.338394 0.018796
-1.086021 39.338394 0.018988
-0.771300 39.338394 0.018657
-0.456579 39.338394 0.018008
-0.141859 39.338394 0.018037
0.172863 39.338394 0.017959
0.487584 39.338394 0.017587
0.802305 39.338394 0.017407
1.117026 39.338394 0.017366
1.431747 39.338394 0.017669
1.746467 39.338394 0.017639
2.061188 39.338394 0.017391
2.375909 39.338394 0.017669
2.690630 39.338394 0.017665
3.005352 39.338394 0.017764
3.320073 39.338394 0.017997
3.634794 39.338394 0.018360
3.949515 39.338394 0.018962
4.264236 39.338394 0.019332
4.578956 39.338394 0.020239
4.893677 39.338394 0.020944
5.208398 39.338394 0.021273
5.523119 39.338394 0.022015
5.837841 39.338394 0.023067
6.152562 39.338394 0.024991
6.467283 39.338394 0.027920
6.782003 39.338394 0.030572
7.096724 39.338394 0.036401
7.411445 39.338394 0.047543
7.726166 39.338394 0.066919
8.040888 39.338394 0.094161
8.355608 39.338394 0.133490
8.670330 39.338394 0.192347
8.985050 39.338394 0.267864
9.299772 39.338394 0.359475
9.614492 39.338394 0.466959
9.929214 39.338394 0.598649
10.243935 39.338394 0.722097
10.558655 39.338394 0.861829
10.873377 39.338394 1.012600
11.188097 39.338394 1.174331
11.502819 39.338394 1.370078
11.817539 39.338394 1.539025
12.132261 39.338394 1.636290
12.446981 39.338394 1.749808
12.761703 39.338394 1.845932
13.076424 39.338394 1.899882
13.391144 39.338394 1.902243
13.705866 39.338394 1.858832
14.020586 39.338394 1.790620
14.335308 39.338394 1.750384
14.650028 39.338394 1.633029
14.964750 39.338394 1.492623
15.279470 39.338394 1.471169
15.594193 39.338394 1.488515
15.908913 39.338394 1.786079
16.223633 39.338394 2.823655
16.538355 39.338394 8.341129
16.853075 39.338394 0.000000
17.167797 39.338394 0.000000
17.482517 39.338394 0.000000
17.797239 39.338394 51.076714
18.111959 39.338394 44.004871
18.426680 39.338394 51.649288
18.741402 39.338394 0.000000
-7.065720 39.023674 0.000000
-6.750999 39.023674 0.000316
-6.436278 39.023674 0.022927
-6.121557 39.023674 0.019772
-5.806836 39.023674 0.019228
-5.492115 39.023674 0.019006
-5.177394 39.023674 0.018934
-4.862673 39.023674 0.018879
-4.547952 39.023674 0.018513
-4.233231 39.023674 0.018350
-3.918510 39.023674 0.018085
-3.603789 39.023674 0.018086
-3.289068 39.023674 0.018686
-2.974347 39.023674 0.018608
-2.659626 39.023674 0.017926
-2.344905 39.023674 0.017770
-2.030184 39.023674 0.018051
-1.715463 39.023674 0.018442
-1.400742 39.023674 0.018739
-1.086021 39.023674 0.019011
-0.771300 39.023674 0.018602
-0.456579 39.023674 0.018126
-0.141859 39.023674 0.017983
0.172863 39.023674 0.017967
0.487584 39.023674 0.017601
0.802305 39.023674 0.017330
1.117026 39.023674 0.017151
1.431747 39.023674 0.017547
1.746467 39.023674 0.017666
2.061188 39.023674 0.017299
2.375909 39.023674 0.017635
2.690630 39.023674 0.017734
3.005352 39.023674 0.017808
3.320073 39.023674 0.018008
3.634794 39.023674 0.018239
3.949515 39.023674 0.018885
4.264236 39.023674 0.019220
4.578956 39.023674 0.019988
4.893677 39.023674 0.020753
5.208398 39.023674 0.021215
5.523119 39.023674 0.021842
5.837841 39.023674 0.022911
6.152562 39.023674 0.025122
6.467283 39.023674 0.027854
6.782003 39.023674 0.030697
7.096724 39.023674 0.037041
7.411445 39.023674 0.047889
7.726166 39.023674 0.065266
8.040888 39.023674 0.093293
8.355608 39.023674 0.135760
8.670330 39.023674 0.190626
8.985050 39.023674 0.265356
9.299772 39.023674 0.363854
9.614492 39.023674 0.471665
9.929214 39.023674 0.584533
10.243935 39.023674 0.724455
10.558655 39.023674 0.877351
10.873377 39.023674 1.048201
11.188097 39.023674 1.189390
11.502819 39.023674 1.349526
11.817539 39.023674 1.537708
12.132261 39.023674 1.640629
12.446981 39.023674 1.759153
12.761703 39.023674 1.834576
13.076424 39.023674 1.883977
13.391144 39.023674 1.913369
13.705866 39.023674 1.872980
14.020586 39.023674 1.758123
14.335308 39.023674 1.712303
14.650028 39.023674 1.661827
14.964750 39.023674 1.525094
15.279470 39.023674 1.472528
15.594193 39.023674 1.510903
15.908913 39.023674 1.836345
16.223633 39.023674 3.085791
16.538355 39.023674 12.454598
16.853075 39.023674 0.000000
17.167797 39.023674 0.000000
17.482517 39.023674 0.000000
17.797239 39.023674 46.347866
18.111959 39.023674 43.846348
18.426680 39.023674 56.894646
18.741402 39.023674 0.000000
-7.065720 38.708950 0.000000
-6.750999 38.708950 0.048094
-6.436278 38.708950 0.022650
-6.121557 38.708950 0.019624
-5.806836 38.708950 0.019234
-5.492115 38.708950 0.019261
-5.177394 38.708950 0.019202
-4.862673 38.708950 0.019141
-4.547952 38.708950 0.018737
-4.233231 38.708950 0.018408
-3.918510 38.708950 0.018064
-3.603789 38.708950 0.018022
-3.289068 38.708950 0.018380
-2.974347 38.708950 0.018340
-2.659626 38.708950 0.017588
-2.344905 38.708950 0.017281
-2.030184 38.708950 0.017655
-1.715463 38.708950 0.017953
-1.400742 38.708950 0.018421
-1.086021 38.708950 0.018678
-0.771300 38.708950 0.018517
-0.456579 38.708950 0.018241
-0.141859 38.708950 0.018158
0.172863 38.708950 0.017839
0.487584 38.708950 0.017545
0.802305 38.708950 0.017344
1.117026 38.708950 0.017100
1.431747 38.708950 0.017429
1.746467 38.708950 0.017763
2.061188 38.708950 0.017627
2.375909 38.708950 0.017629
2.690630 38.708950 0.017893
3.005352 38.708950 0.017935
3.320073 38.708950 0.018007
3.634794 38.708950 0.018110
3.949515 38.708950 0.018711
4.264236 38.708950 0.019278
4.578956 38.708950 0.019813
4.893677 38.708950 0.020329
5.208398 38.708950 0.021014
5.523119 38.708950 0.021784
5.837841 38.708950 0.022836
6.152562 38.708950 0.024867
6.467283 38.708950 0.027792
6.782003 38.708950 0.031025
7.096724 38.708950 0.037523
7.411445 38.708950 0.048240
7.726166 38.708950 0.065821
8.040888 38.708950 0.094596
8.355608 38.708950 0.134198
8.670330 38.708950 0.191634
8.985050 38.708950 0.267529
9.299772 38.708950 0.364146
9.614492 38.708950 0.470006
9.929214 38.708950 0.581224
10.243935 38.708950 0.721429
10.558655 38.708950 0.881381
10.873377 38.708950 1.036115
11.188097 38.708950 1.191648
11.502819 38.708950 1.370546
11.817539 38.708950 1.526610
12.132261 38.708950 1.638830
12.446981 38.708950 1.787139
12.761703 38.708950 1.877359
13.076424 38.708950 1.922166
13.391144 38.708950 1.952193
13.705866 38.708950 1.880831
14.020586 38.708950 1.753314
14.335308 38.708950 1.716401
14.650028 38.708950 1.628075
14.964750 38.708950 1.530837
15.279470 38.708950 1.469186
15.594193 38.708950 1.522487
15.908913 38.708950 1.923120
16.223633 38.708950 3.454330
16.538355 38.708950 0.000000
16.853075 38.708950 0.000000
17.167797 38.708950 0.000000
17.482517 38.708950 0.000000
17.797239 38.708950 0.000000
18.111959 38.708950 44.488178
18.426680 38.708950 55.793747
18.741402 38.708950 0.000000
-7.065720 38.394230 0.000000
-6.750999 38.394230 0.040072
-6.436278 38.394230 0.022313
-6.121557 38.394230 0.019609
-5.806836 38.394230 0.019461
-5.492115 38.394230 0.019578
-5.177394 38.394230 0.019364
-4.862673 38.394230 0.019094
-4.547952 38.394230 0.018545
-4.233231 38.394230 0.018299
-3.918510 38.394230 0.018117
-3.603789 38.394230 0.018202
-3.289068 38.394230 0.018285
-2.974347 38.394230 0.018089
-2.659626 38.394230 0.017427
-2.344905 38.394230 0.017019
-2.030184 38.394230 0.017506
-1.715463 38.394230 0.017802
-1.400742 38.394230 0.018017
-1.086021 38.394230 0.018290
-0.771300 38.394230 0.018342
-0.456579 38.394230 0.018278
-0.141859 38.394230 0.018278
0.172863 38.394230 0.017776
0.487584 38.394230 0.017492
0.802305 38.394230 0.017333
1.117026 38.394230 0.017198
1.431747 38.394230 0.017363
1.746467 38.394230 0.017765
2.061188 38.394230 0.017806
2.375909 38.394230 0.017693
2.690630 38.394230 0.017862
3.005352 38.394230 0.017840
3.320073 38.394230 0.017838
3.634794 38.394230 0.017802
3.949515 38.394230 0.018531
4.264236 38.394230 0.019427
4.578956 38.394230 0.019918
4.893677 38.394230 0.020020
5.208398 38.394230 0.020833
5.523119 38.394230 0.021840
5.837841 38.394230 0.022697
6.152562 38.394230 0.024323
6.467283 38.394230 0.027098
6.782003 38.394230 0.030975
7.096724 38.394230 0.037606
7.411445 38.394230 0.049073
7.726166 38.394230 0.065907
8.040888 38.394230 0.093845
8.355608 38.394230 0.134995
8.670330 38.394230 0.195871
8.985050 38.394230 0.270060
9.299772 38.394230 0.367731
9.614492 38.394230 0.481378
9.929214 38.394230 0.601671
10.243935 38.394230 0.729717
10.558655 38.394230 0.875178
10.873377 38.394230 1.011250
11.188097 38.394230 1.188689
11.502819 38.394230 1.352975
11.817539 38.394230 1.534326
12.132261 38.394230 1.645213
12.446981 38.394230 1.776379
12.761703 38.394230 1.879737
13.076424 38.394230 1.930145
13.391144 38.394230 1.990231
13.705866 38.394230 1.888617
14.020586 38.394230 1.761920
14.335308 38.394230 1.702230
14.650028 38.394230 1.615987
14.964750 38.394230 1.517907
15.279470 38.394230 1.458657
15.594193 38.394230 1.566399
15.908913 38.394230 2.018760
16.223633 38.394230 3.870680
16.538355 38.394230 0.000000
16.853075 38.394230 0.000000
17.167797 38.394230 0.000000
17.482517 38.394230 0.000000
17.797239 38.394230 0.000000
18.111959 38.394230 77.014175
18.426680 38.394230 110.306206
18.741402 38.394230 0.000000
-7.065720 38.079510 0.000000
-6.750999 38.079510 0.037448
-6.436278 38.079510 0.022205
-6.121557 38.079510 0.019793
-5.806836 38.079510 0.019813
-5.492115 38.079510 0.019602
-5.177394 38.079510 0.019364
-4.862673 38.079510 0.018869
-4.547952 38.079510 0.018265
-4.233231 38.079510 0.018165
-3.918510 38.079510 0.018182
-3.603789 38.079510 0.018562
-3.289068 38.079510 0.018409
-2.974347 38.079510 0.018158
-2.659626 38.079510 0.017550
-2.344905 38.079510 0.017051
-2.030184 38.079510 0.017485
-1.715463 38.079510 0.017806
-1.400742 38.079510 0.017744
-1.086021 38.079510 0.018069
-0.771300 38.079510 0.018155
-0.456579 38.079510 0.018236
-0.141859 38.079510 0.018284
0.172863 38.079510 0.017724
0.487584 38.079510 0.017459
0.802305 38.079510 0.017330
1.117026 38.079510 0.017309
1.431747 38.079510 0.017330
1.746467 38.079510 0.017672
2.061188 38.079510 0.017783
2.375909 38.079510 0.017567
2.690630 38.079510 0.017493
3.005352 38.079510 0.017633
3.320073 38.079510 0.017506
3.634794 38.079510 0.017474
3.949515 38.079510 0.018484
4.264236 38.079510 0.019522
4.578956 38.079510 0.020244
4.893677 38.079510 0.020220
5.208398 38.079510 0.020825
5.523119 38.079510 0.021650
5.837841 38.079510 0.022475
6.152562 38.079510 0.024067
6.467283 38.079510 0.026722
6.782003 38.079510 0.030617
7.096724 38.079510 0.037572
7.411445 38.079510 0.048897
7.726166 38.079510 0.064651
8.040888 38.079510 0.093183
8.355608 38.079510 0.134019
8.670330 38.079510 0.193546
8.985050 38.079510 0.260977
9.299772 38.079510 0.365090
9.614492 38.079510 0.481467
9.929214 38.079510 0.623774
10.243935 38.079510 0.739717
10.558655 38.079510 0.888483
10.873377 38.079510 1.030872
11.188097 38.079510 1.185754
11.502819 38.079510 1.362792
11.817539 38.079510 1.528339
12.132261 38.079510 1.645004
12.446981 38.079510 1.776292
12.761703 38.079510 1.874289
13.076424 38.079510 1.924079
13.391144 38.079510 1.949896
13.705866 38.079510 1.877985
14.020586 38.079510 1.724376
14.335308 38.079510 1.715686
14.650028 38.079510 1.620683
14.964750 38.079510 1.501973
15.279470 38.079510 1.496251
15.594193 38.079510 1.621950
15.908913 38.079510 2.182873
16.223633 38.079510 4.322200
16.538355 38.079510 0.000000
16.853075 38.079510 0.000000
17.167797 38.079510 0.000000
17.482517 38.079510 0.000000
17.797239 38.079510 0.000000
18.111959 38.079510 61.600060
18.426680 38.079510 73.442772
18.741402 38.079510 0.000000
-7.065720 37.764786 0.000000
-6.750999 37.764786 0.030853
-6.436278 37.764786 0.022062
-6.121557 37.764786 0.020104
-5.806836 37.764786 0.020019
-5.492115 37.764786 0.019334
-5.177394 37.764786 0.019214
-4.862673 37.764786 0.018784
-4.547952 37.764786 0.018211
-4.233231 37.764786 0.018271
-3.918510 37.764786 0.018345
-3.603789 37.764786 0.018839
-3.289068 37.764786 0.018695
-2.974347 37.764786 0.018335
-2.659626 37.764786 0.017701
-2.344905 37.764786 0.017220
-2.030184 37.764786 0.017593
-1.715463 37.764786 0.017809
-1.400742 37.764786 0.017499
-1.086021 37.764786 0.017917
-0.771300 37.764786 0.018123
-0.456579 37.764786 0.018148
-0.141859 37.764786 0.018231
0.172863 37.764786 0.017723
0.487584 37.764786 0.017495
0.802305 37.764786 0.017404
1.117026 37.764786 0.017365
1.431747 37.764786 0.017385
1.746467 37.764786 0.017631
2.061188 37.764786 0.017634
2.375909 37.764786 0.017529
2.690630 37.764786 0.017291
3.005352 37.764786 0.017484
3.320073 37.764786 0.017380
3.634794 37.764786 0.017317
3.949515 37.764786 0.018406
4.264236 37.764786 0.019385
4.578956 37.764786 0.020178
4.893677 37.764786 0.020416
5.208398 37.764786 0.020886
5.523119 37.764786 0.021308
5.837841 37.764786 0.022065
6.152562 37.764786 0.023907
6.467283 37.764786 0.026241
6.782003 37.764786 0.030143
7.096724 37.764786 0.036705
7.411445 37.764786 0.049119
7.726166 37.764786 0.065755
8.040888 37.764786 0.094316
8.355608 37.764786 0.136265
8.670330 37.764786 0.191779
8.985050 37.764786 0.262812
9.299772 37.764786 0.362205
9.614492 37.764786 0.483984
9.929214 37.764786 0.626365
10.243935 37.764786 0.754257
10.558655 37.764786 0.900880
10.873377 37.764786 1.028874
11.188097 37.764786 1.189816
11.502819 37.764786 1.372287
11.817539 37.764786 1.503513
12.132261 37.764786 1.622864
12.446981 37.764786 1.752816
12.761703 37.764786 1.869434
13.076424 37.764786 1.870673
13.391144 37.764786 1.904936
13.705866 37.764786 1.835939
14.020586 37.764786 1.754345
14.335308 37.764786 1.683434
14.650028 37.764786 1.607973
14.964750 37.764786 1.540310
15.279470 37.764786 1.491766
15.594193 37.764786 1.603030
15.908913 37.764786 2.276347
16.223633 37.764786 4.487423
16.538355 37.764786 0.000000
16.853075 37.764786 0.000000
17.167797 37.764786 0.000000
17.482517 37.764786 0.000000
17.797239 37.764786 0.000000
18.111959 37.764786 61.737389
18.426680 37.764786 74.095535
18.741402 37.764786 0.000000
-7.065720 37.450066 0.000000
-6.750999 37.450066 0.030928
-6.436278 37.450066 0.022039
-6.121557 37.450066 0.020472
-5.806836 37.450066 0.020257
-5.492115 37.450066 0.019270
-5.177394 37.450066 0.019169
-4.862673 37.450066 0.018924
-4.547952 37.450066 0.018362
-4.233231 37.450066 0.018318
-3.918510 37.450066 0.018408
-3.603789 37.450066 0.018772
-3.289068 37.450066 0.018785
-2.974347 37.450066 0.018309
-2.659626 37.450066 0.017679
-2.344905 37.450066 0.017464
-2.030184 37.450066 0.017771
-1.715463 37.450066 0.017831
-1.400742 37.450066 0.017595
-1.086021 37.450066 0.018002
-0.771300 37.450066 0.018129
-0.456579 37.450066 0.017968
-0.141859 37.450066 0.018074
0.172863 37.450066 0.017737
0.487584 37.450066 0.017529
0.802305 37.450066 0.017488
1.117026 37.450066 0.017382
1.431747 37.450066 0.017559
1.746467 37.450066 0.017697
2.061188 37.450066 0.017493
2.375909 37.450066 0.017522
2.690630 37.450066 0.017458
3.005352 37.450066 0.017572
3.320073 37.450066 0.017488
3.634794 37.450066 0.017589
3.949515 37.450066 0.018430
4.264236 37.450066 0.019016
4.578956 37.450066 0.019707
4.893677 37.450066 0.020524
5.208398 37.450066 0.020864
5.523119 37.450066 0.021096
5.837841 37.450066 0.021904
6.152562 37.450066 0.023786
6.467283 37.450066 0.026298
6.782003 37.450066 0.029808
7.096724 37.450066 0.037396
7.411445 37.450066 0.049047
7.726166 37.450066 0.065481
8.040888 37.450066 0.091984
8.355608 37.450066 0.137918
8.670330 37.450066 0.198881
8.985050 37.450066 0.270248
9.299772 37.450066 0.363536
9.614492 37.450066 0.474120
9.929214 37.450066 0.613422
10.243935 37.450066 0.757192
10.558655 37.450066 0.903253
10.873377 37.450066 1.074500
11.188097 37.450066 1.220992
11.502819 37.450066 1.387820
11.817539 37.450066 1.528230
12.132261 37.450066 1.616585
12.446981 37.450066 1.749779
12.761703 37.450066 1.856712
13.076424 37.450066 1.930462
13.391144 37.450066 1.877780
13.705866 37.450066 1.822442
14.020586 37.450066 1.807279
14.335308 37.450066 1.698678
14.650028 37.450066 1.648252
14.964750 37.450066 1.559223
15.279470 37.450066 1.507615
15.594193 37.450066 1.660477
15.908913 37.450066 2.328432
16.223633 37.450066 4.520369
16.538355 37.450066 0.000000
16.853075 37.450066 0.000000
17.167797 37.450066 0.000000
17.482517 37.450066 0.000000
17.797239 37.450066 0.000000
18.111959 37.450066 0.000000
18.426680 37.450066 0.000000
18.741402 37.450066 0.000000
-7.065720 37.135345 0.000000
-6.750999 37.135345 0.030113
-6.436278 37.135345 0.021825
-6.121557 37.135345 0.020533
-5.806836 37.135345 0.020293
-5.492115 37.135345 0.019319
-5.177394 37.135345 0.019364
-4.862673 37.135345 0.019296
-4.547952 37.135345 0.018469
-4.233231 37.135345 0.018214
-3.918510 37.135345 0.018176
-3.603789 37.135345 0.018357
-3.289068 37.135345 0.018513
-2.974347 37.135345 0.018097
-2.659626 37.135345 0.017625
-2.344905 37.135345 0.017305
-2.030184 37.135345 0.017683
-1.715463 37.135345 0.017987
-1.400742 37.135345 0.017872
-1.086021 37.135345 0.018203
-0.771300 37.135345 0.018155
-0.456579 37.135345 0.017826
-0.141859 37.135345 0.017952
0.172863 37.135345 0.017937
0.487584 37.135345 0.017689
0.802305 37.135345 0.017604
1.117026 37.135345 0.017413
1.431747 37.135345 0.017629
1.746467 37.135345 0.017660
2.061188 37.135345 0.017358
2.375909 37.135345 0.017390
2.690630 37.135345 0.017634
3.005352 37.135345 0.017691
3.320073 37.135345 0.017533
3.634794 37.135345 0.017980
3.949515 37.135345 0.018444
4.264236 37.135345 0.018670
4.578956 37.135345 0.019182
4.893677 37.135345 0.020279
5.208398 37.135345 0.020791
5.523119 37.135345 0.020945
5.837841 37.135345 0.022015
6.152562 37.135345 0.023913
6.467283 37.135345 0.026461
6.782003 37.135345 0.030037
7.096724 37.135345 0.037703
7.411445 37.135345 0.049026
7.726166 37.135345 0.065085
8.040888 37.135345 0.091957
8.355608 37.135345 0.137698
8.670330 37.135345 0.198761
8.985050 37.135345 0.272113
9.299772 37.135345 0.359317
9.614492 37.135345 0.479966
9.929214 37.135345 0.603864
10.243935 37.135345 0.766168
10.558655 37.135345 0.905072
10.873377 37.135345 1.089627
11.188097 37.135345 1.251186
11.502819 37.135345 1.423325
11.817539 37.135345 1.559832
12.132261 37.135345 1.657814
12.446981 37.135345 1.758974
12.761703 37.135345 1.880403
13.076424 37.135345 1.927034
13.391144 37.135345 1.925771
13.705866 37.135345 1.860426
14.020586 37.135345 1.831999
14.335308 37.135345 1.766672
14.650028 37.135345 1.652548
14.964750 37.135345 1.581304
15.279470 37.135345 1.532486
15.594193 37.135345 1.644415
15.908913 37.135345 2.345053
16.223633 37.135345 4.315030
16.538355 37.135345 0.000000
16.853075 37.135345 0.000000
17.167797 37.135345 0.000000
17.482517 37.135345 0.000000
17.797239 37.135345 0.000000
18.111959 37.135345 0.000000
18.426680 37.135345 0.000000
18.741402 37.135345 0.000000
-7.065720 36.820625 0.000000
-6.750999 36.820625 0.029831
-6.436278 36.820625 0.021422
-6.121557 36.820625 0.019939
-5.806836 36.820625 0.020076
-5.492115 36.820625 0.019380
-5.177394 36.820625 0.019495
-4.862673 36.820625 0.019422
-4.547952 36.820625 0.018546
-4.233231 36.820625 0.017969
-3.918510 36.820625 0.017913
-3.603789 36.820625 0.017937
-3.289068 36.820625 0.018265
-2.974347 36.820625 0.017935
-2.659626 36.820625 0.017378
-2.344905 36.820625 0.016895
-2.030184 36.820625 0.017297
-1.715463 36.820625 0.017801
-1.400742 36.820625 0.017934
-1.086021 36.820625 0.018150
-0.771300 36.820625 0.018115
-0.456579 36.820625 0.017725
-0.141859 36.820625 0.017818
0.172863 36.820625 0.018007
0.487584 36.820625 0.017699
0.802305 36.820625 0.017555
1.117026 36.820625 0.017249
1.431747 36.820625 0.017532
1.746467 36.820625 0.017661
2.061188 36.820625 0.017291
2.375909 36.820625 0.017210
2.690630 36.820625 0.017767
3.005352 36.820625 0.017736
3.320073 36.820625 0.017449
3.634794 36.820625 0.017983
3.949515 36.820625 0.018462
4.264236 36.820625 0.018548
4.578956 36.820625 0.018891
4.893677 36.820625 0.019741
5.208398 36.820625 0.020499
5.523119 36.820625 0.020993
5.837841 36.820625 0.022126
6.152562 36.820625 0.023786
6.467283 36.820625 0.026743
6.782003 36.820625 0.030693
7.096724 36.820625 0.037822
7.411445 36.820625 0.048093
7.726166 36.820625 0.065756
8.040888 36.820625 0.095913
8.355608 36.820625 0.139540
8.670330 36.820625 0.200207
8.985050 36.820625 0.272453
9.299772 36.820625 0.362913
9.614492 36.820625 0.472348
9.929214 36.820625 0.602932
10.243935 36.820625 0.763816
10.558655 36.820625 0.902563
10.873377 36.820625 1.079737
11.188097 36.820625 1.245512
11.502819 36.820625 1.410274
11.817539 36.820625 1.567905
12.132261 36.820625 1.644105
12.446981 36.820625 1.774636
12.761703 36.820625 1.842198
13.076424 36.820625 1.937356
13.391144 36.820625 1.918709
13.705866 36.820625 1.897048
14.020586 36.820625 1.868814
14.335308 36.820625 1.776423
14.650028 36.820625 1.681394
14.964750 36.820625 1.579400
15.279470 36.820625 1.542352
15.594193 36.820625 1.633166
15.908913 36.820625 2.348592
16.223633 36.820625 4.180619
16.538355 36.820625 0.000000
16.853075 36.820625 0.000000
17.167797 36.820625 0.000000
17.482517 36.820625 0.000000
17.797239 36.820625 0.000000
18.111959 36.820625 0.000000
18.426680 36.820625 0.000000
18.741402 36.820625 0.000000
-7.065720 36.505905 0.000000
-6.750999 36.505905 0.029993
-6.436278 36.505905 0.021052
-6.121557 36.505905 0.019319
-5.806836 36.505905 0.019765
-5.492115 36.505905 0.019269
-5.177394 36.505905 0.019228
-4.862673 36.505905 0.019232
-4.547952 36.505905 0.018324
-4.233231 36.505905 0.017751
-3.918510 36.505905 0.017849
-3.603789 36.505905 0.017809
-3.289068 36.505905 0.017984
-2.974347 36.505905 0.017911
-2.659626 36.505905 0.017247
-2.344905 36.505905 0.016723
-2.030184 36.505905 0.016992
-1.715463 36.505905 0.017450
-1.400742 36.505905 0.017783
-1.086021 36.505905 0.018027
-0.771300 36.505905 0.017930
-0.456579 36.505905 0.017684
-0.141859 36.505905 0.017748
0.172863 36.505905 0.018062
0.487584 36.505905 0.017745
0.802305 36.505905 0.017431
1.117026 36.505905 0.017204
1.431747 36.505905 0.017366
1.746467 36.505905 0.017843
2.061188 36.505905 0.017409
2.375909 36.505905 0.017044
2.690630 36.505905 0.017690
3.005352 36.505905 0.017563
3.320073 36.505905 0.017210
3.634794 36.505905 0.017739
3.949515 36.505905 0.018411
4.264236 36.505905 0.018562
4.578956 36.505905 0.018730
4.893677 36.505905 0.019172
5.208398 36.505905 0.020238
5.523119 36.505905 0.021141
5.837841 36.505905 0.022228
6.152562 36.505905 0.023570
6.467283 36.505905 0.026490
6.782003 36.505905 0.030949
7.096724 36.505905 0.037606
7.411445 36.505905 0.048478
7.726166 36.505905 0.065915
8.040888 36.505905 0.095530
8.355608 36.505905 0.137485
8.670330 36.505905 0.195290
8.985050 36.505905 0.277879
9.299772 36.505905 0.366264
9.614492 36.505905 0.473102
9.929214 36.505905 0.597809
10.243935 36.505905 0.757950
10.558655 36.505905 0.905325
10.873377 36.505905 1.050683
11.188097 36.505905 1.241379
11.502819 36.505905 1.403838
11.817539 36.505905 1.545954
12.132261 36.505905 1.655127
12.446981 36.505905 1.738374
12.761703 36.505905 1.791377
13.076424 36.505905 1.874552
13.391144 36.505905 1.899933
13.705866 36.505905 1.921463
14.020586 36.505905 1.841227
14.335308 36.505905 1.766163
14.650028 36.505905 1.681543
14.964750 36.505905 1.573504
15.279470 36.505905 1.530875
15.594193 36.505905 1.594901
15.908913 36.505905 2.313130
16.223633 36.505905 3.804457
16.538355 36.505905 0.000000
16.853075 36.505905 0.000000
17.167797 36.505905 0.000000
17.482517 36.505905 0.000000
17.797239 36.505905 0.000000
18.111959 36.505905 0.000000
18.426680 36.505905 0.000000
18.741402 36.505905 0.000000
-7.065720 36.191185 0.000000
-6.750999 36.191185 0.030075
-6.436278 36.191185 0.020762
-6.121557 36.191185 0.018911
-5.806836 36.191185 0.019443
-5.492115 36.191185 0.019046
-5.177394 36.191185 0.018614
-4.862673 36.191185 0.018789
-4.547952 36.191185 0.018221
-4.233231 36.191185 0.017766
-3.918510 36.191185 0.017968
-3.603789 36.191185 0.017993
-3.289068 36.191185 0.017966
-2.974347 36.191185 0.017929
-2.659626 36.191185 0.017351
-2.344905 36.191185 0.016826
-2.030184 36.191185 0.017065
-1.715463 36.191185 0.017334
-1.400742 36.191185 0.017608
-1.086021 36.191185 0.017904
-0.771300 36.191185 0.017802
-0.456579 36.191185 0.017630
-0.141859 36.191185 0.017791
0.172863 36.191185 0.017855
0.487584 36.191185 0.017647
0.802305 36.191185 0.017305
1.117026 36.191185 0.017160
1.431747 36.191185 0.017379
1.746467 36.191185 0.017891
2.061188 36.191185 0.017485
2.375909 36.191185 0.016978
2.690630 36.191185 0.017473
3.005352 36.191185 0.017372
3.320073 36.191185 0.017133
3.634794 36.191185 0.017519
3.949515 36.191185 0.018389
4.264236 36.191185 0.018791
4.578956 36.191185 0.018892
4.893677 36.191185 0.019097
5.208398 36.191185 0.020059
5.523119 36.191185 0.021091
5.837841 36.191185 0.022052
6.152562 36.191185 0.023538
6.467283 36.191185 0.026478
6.782003 36.191185 0.031255
7.096724 36.191185 0.038050
7.411445 36.191185 0.047195
7.726166 36.191185 0.065542
8.040888 36.191185 0.093460
8.355608 36.191185 0.135235
8.670330 36.191185 0.190734
8.985050 36.191185 0.269217
9.299772 36.191185 0.361158
9.614492 36.191185 0.466296
9.929214 36.191185 0.599630
10.243935 36.191185 0.756547
10.558655 36.191185 0.900531
10.873377 36.191185 1.037210
11.188097 36.191185 1.209986
11.502819 36.191185 1.386480
11.817539 36.191185 1.531167
12.132261 36.191185 1.646042
12.446981 36.191185 1.723297
12.761703 36.191185 1.792590
13.076424 36.191185 1.856573
13.391144 36.191185 1.887058
13.705866 36.191185 1.940370
14.020586 36.191185 1.858956
14.335308 36.191185 1.740876
14.650028 36.191185 1.691042
14.964750 36.191185 1.590271
15.279470 36.191185 1.526384
15.594193 36.191185 1.602755
15.908913 36.191185 2.271202
16.223633 36.191185 3.712952
16.538355 36.191185 0.000000
16.853075 36.191185 0.000000
17.167797 36.191185 0.000000
17.482517 36.191185 0.000000
17.797239 36.191185 0.000000
18.111959 36.191185 0.000000
18.426680 36.191185 0.000000
18.741402 36.191185 0.000000
-7.065720 35.876461 0.000000
-6.750999 35.876461 0.030064
-6.436278 35.876461 0.020798
-6.121557 35.876461 0.018893
-5.806836 35.876461 0.019231
-5.492115 35.876461 0.018686
-5.177394 35.876461 0.018172
-4.862673 35.876461 0.018273
-4.547952 35.876461 0.018112
-4.233231 35.876461 0.017918
-3.918510 35.876461 0.018146
-3.603789 35.876461 0.018194
-3.289068 35.876461 0.017970
-2.974347 35.876461 0.017937
-2.659626 35.876461 0.017413
-2.344905 35.876461 0.017086
-2.030184 35.876461 0.017181
-1.715463 35.876461 0.017469
-1.400742 35.876461 0.017668
-1.086021 35.876461 0.017825
-0.771300 35.876461 0.017651
-0.456579 35.876461 0.017592
-0.141859 35.876461 0.017756
0.172863 35.876461 0.017626
0.487584 35.876461 0.017456
0.802305 35.876461 0.017224
1.117026 35.876461 0.017158
1.431747 35.876461 0.017345
1.746467 35.876461 0.017825
2.061188 35.876461 0.017381
2.375909 35.876461 0.016957
2.690630 35.876461 0.017163
3.005352 35.876461 0.017277
3.320073 35.876461 0.017142
3.634794 35.876461 0.017455
3.949515 35.876461 0.018305
4.264236 35.876461 0.018846
4.578956 35.876461 0.019144
4.893677 35.876461 0.019262
5.208398 35.876461 0.019913
5.523119 35.876461 0.020766
5.837841 35.876461 0.021912
6.152562 35.876461 0.023777
6.467283 35.876461 0.026769
6.782003 35.876461 0.030891
7.096724 35.876461 0.037571
7.411445 35.876461 0.047354
7.726166 35.876461 0.064729
8.040888 35.876461 0.091929
8.355608 35.876461 0.132893
8.670330 35.876461 0.191665
8.985050 35.876461 0.270599
9.299772 35.876461 0.360509
9.614492 35.876461 0.460748
9.929214 35.876461 0.605434
10.243935 35.876461 0.755430
10.558655 35.876461 0.903962
10.873377 35.876461 1.049167
11.188097 35.876461 1.206994
11.502819 35.876461 1.366250
11.817539 35.876461 1.517757
12.132261 35.876461 1.630298
12.446981 35.876461 1.730842
12.761703 35.876461 1.807606
13.076424 35.876461 1.838261
13.391144 35.876461 1.864241
13.705866 35.876461 1.919740
14.020586 35.876461 1.832604
14.335308 35.876461 1.741486
14.650028 35.876461 1.685162
14.964750 35.876461 1.611778
15.279470 35.876461 1.539616
15.594193 35.876461 1.639599
15.908913 35.876461 2.216982
16.223633 35.876461 3.417650
16.538355 35.876461 0.000000
16.853075 35.876461 0.000000
17.167797 35.876461 0.000000
17.482517 35.876461 0.000000
17.797239 35.876461 0.000000
18.111959 35.876461 0.000000
18.426680 35.876461 0.000000
18.741402 35.876461 0.000000
-7.065720 35.561741 0.000000
-6.750999 35.561741 0.030192
-6.436278 35.561741 0.021047
-6.121557 35.561741 0.019134
-5.806836 35.561741 0.019088
-5.492115 35.561741 0.018376
-5.177394 35.561741 0.017926
-4.862673 35.561741 0.017985
-4.547952 35.561741 0.018133
-4.233231 35.561741 0.018007
-3.918510 35.561741 0.018151
-3.603789 35.561741 0.018198
-3.289068 35.561741 0.018110
-2.974347 35.561741 0.017786
-2.659626 35.561741 0.017371
-2.344905 35.561741 0.017263
-2.030184 35.561741 0.017380
-1.715463 35.561741 0.017717
-1.400742 35.561741 0.017896
-1.086021 35.561741 0.017905
-0.771300 35.561741 0.017645
-0.456579 35.561741 0.017692
-0.141859 35.561741 0.017778
0.172863 35.561741 0.017762
0.487584 35.561741 0.017504
0.802305 35.561741 0.017198
1.117026 35.561741 0.017152
1.431747 35.561741 0.017289
1.746467 35.561741 0.017558
2.061188 35.561741 0.017270
2.375909 35.561741 0.016920
2.690630 35.561741 0.017005
3.005352 35.561741 0.017181
3.320073 35.561741 0.017275
3.634794 35.561741 0.017551
3.949515 35.561741 0.018142
4.264236 35.561741 0.018786
4.578956 35.561741 0.019082
4.893677 35.561741 0.019479
5.208398 35.561741 0.019877
5.523119 35.561741 0.020439
5.837841 35.561741 0.021590
6.152562 35.561741 0.023854
6.467283 35.561741 0.026816
6.782003 35.561741 0.030566
7.096724 35.561741 0.036527
7.411445 35.561741 0.047067
7.726166 35.561741 0.064629
8.040888 35.561741 0.092448
8.355608 35.561741 0.133988
8.670330 35.561741 0.195033
8.985050 35.561741 0.266163
9.299772 35.561741 0.358029
9.614492 35.561741 0.472790
9.929214 35.561741 0.605429
10.243935 35.561741 0.764234
10.558655 35.561741 0.904447
10.873377 35.561741 1.067768
11.188097 35.561741 1.207975
11.502819 35.561741 1.351161
11.817539 35.561741 1.509077
12.132261 35.561741 1.626931
12.446981 35.561741 1.760973
12.761703 35.561741 1.824541
13.076424 35.561741 1.865654
13.391144 35.561741 1.876968
13.705866 35.561741 1.917153
14.020586 35.561741 1.826256
14.335308 35.561741 1.757632
14.650028 35.561741 1.688312
14.964750 35.561741 1.588288
15.279470 35.561741 1.524144
15.594193 35.561741 1.634208
15.908913 35.561741 2.220740
16.223633 35.561741 3.319710
16.538355 35.561741 0.000000
16.853075 35.561741 0.000000
17.167797 35.561741 0.000000
17.482517 35.561741 0.000000
17.797239 35.561741 0.000000
18.111959 35.561741 0.000000
18.426680 35.561741 0.000000
18.741402 35.561741 0.000000
-7.065720 35.247021 0.000000
-6.750999 35.247021 0.029858
-6.436278 35.247021 0.021127
-6.121557 35.247021 0.019286
-5.806836 35.247021 0.018974
-5.492115 35.247021 0.018512
-5.177394 35.247021 0.018217
-4.862673 35.247021 0.018027
-4.547952 35.247021 0.017958
-4.233231 35.247021 0.017801
-3.918510 35.247021 0.017868
-3.603789 35.247021 0.017925
-3.289068 35.247021 0.017961
-2.974347 35.247021 0.017641
-2.659626 35.247021 0.017280
-2.344905 35.247021 0.017306
-2.030184 35.247021 0.017401
-1.715463 35.247021 0.017722
-1.400742 35.247021 0.017978
-1.086021 35.247021 0.018220
-0.771300 35.247021 0.017892
-0.456579 35.247021 0.017736
-0.141859 35.247021 0.017789
0.172863 35.247021 0.018032
0.487584 35.247021 0.017617
0.802305 35.247021 0.017268
1.117026 35.247021 0.017014
1.431747 35.247021 0.017240
1.746467 35.247021 0.017282
2.061188 35.247021 0.017128
2.375909 35.247021 0.017096
2.690630 35.247021 0.017177
3.005352 35.247021 0.017237
3.320073 35.247021 0.017429
3.634794 35.247021 0.017801
3.949515 35.247021 0.018202
4.264236 35.247021 0.018539
4.578956 35.247021 0.018505
4.893677 35.247021 0.019104
5.208398 35.247021 0.019640
5.523119 35.247021 0.020000
5.837841 35.247021 0.021219
6.152562 35.247021 0.023818
6.467283 35.247021 0.027276
6.782003 35.247021 0.030491
7.096724 35.247021 0.036331
7.411445 35.247021 0.047653
7.726166 35.247021 0.065269
8.040888 35.247021 0.092421
8.355608 35.247021 0.134882
8.670330 35.247021 0.196032
8.985050 35.247021 0.269247
9.299772 35.247021 0.366647
9.614492 35.247021 0.476832
9.929214 35.247021 0.602044
10.243935 35.247021 0.746165
10.558655 35.247021 0.913083
10.873377 35.247021 1.067405
11.188097 35.247021 1.211575
11.502819 35.247021 1.352812
11.817539 35.247021 1.486694
12.132261 35.247021 1.658061
12.446981 35.247021 1.748365
12.761703 35.247021 1.807990
13.076424 35.247021 1.838749
13.391144 35.247021 1.869704
13.705866 35.247021 1.858093
14.020586 35.247021 1.876020
14.335308 35.247021 1.765610
14.650028 35.247021 1.682076
14.964750 35.247021 1.567829
15.279470 35.247021 1.540202
15.594193 35.247021 1.654661
15.908913 35.247021 2.196719
16.223633 35.247021 3.328254
16.538355 35.247021 0.000000
16.853075 35.247021 0.000000
17.167797 35.247021 0.000000
17.482517 35.247021 0.000000
17.797239 35.247021 0.000000
18.111959 35.247021 0.000000
18.426680 35.247021 0.000000
18.741402 35.247021 0.000000
-7.065720 34.932297 0.000000
-6.750999 34.932297 0.029276
-6.436278 34.932297 0.020889
-6.121557 34.932297 0.019224
-5.806836 34.932297 0.018956
-5.492115 34.932297 0.018631
-5.177394 34.932297 0.018647
-4.862673 34.932297 0.018234
-4.547952 34.932297 0.017853
-4.233231 34.932297 0.017670
-3.918510 34.932297 0.017622
-3.603789 34.932297 0.017609
-3.289068 34.932297 0.017795
-2.974347 34.932297 0.017385
-2.659626 34.932297 0.017024
-2.344905 34.932297 0.017020
-2.030184 34.932297 0.017391
-1.715463 34.932297 0.017718
-1.400742 34.932297 0.018187
-1.086021 34.932297 0.018365
-0.771300 34.932297 0.017953
-0.456579 34.932297 0.017601
-0.141859 34.932297 0.017533
0.172863 34.932297 0.017899
0.487584 34.932297 0.017538
0.802305 34.932297 0.017215
1.117026 34.932297 0.016905
1.431747 34.932297 0.017295
1.746467 34.932297 0.017285
2.061188 34.932297 0.017085
2.375909 34.932297 0.017340
2.690630 34.932297 0.017470
3.005352 34.932297 0.017373
3.320073 34.932297 0.017409
3.634794 34.932297 0.018082
3.949515 34.932297 0.018403
4.264236 34.932297 0.018313
4.578956 34.932297 0.018183
4.893677 34.932297 0.018578
5.208398 34.932297 0.019091
5.523119 34.932297 0.019579
5.837841 34.932297 0.020905
6.152562 34.932297 0.023720
6.467283 34.932297 0.027333
6.782003 34.932297 0.030564
7.096724 34.932297 0.036272
7.411445 34.932297 0.047568
7.726166 34.932297 0.067144
8.040888 34.932297 0.092457
8.355608 34.932297 0.136628
8.670330 34.932297 0.194707
8.985050 34.932297 0.269811
9.299772 34.932297 0.367194
9.614492 34.932297 0.483154
9.929214 34.932297 0.602817
10.243935 34.932297 0.729829
10.558655 34.932297 0.911385
10.873377 34.932297 1.067387
11.188097 34.932297 1.239932
11.502819 34.932297 1.343422
11.817539 34.932297 1.488599
12.132261 34.932297 1.633697
12.446981 34.932297 1.778219
12.761703 34.932297 1.817983
13.076424 34.932297 1.820652
13.391144 34.932297 1.823020
13.705866 34.932297 1.855447
14.020586 34.932297 1.861369
14.335308 34.932297 1.771180
14.650028 34.932297 1.634104
14.964750 34.932297 1.551728
15.279470 34.932297 1.512591
15.594193 34.932297 1.671497
15.908913 34.932297 2.271102
16.223633 34.932297 3.331959
16.538355 34.932297 0.000000
16.853075 34.932297 0.000000
17.167797 34.932297 0.000000
17.482517 34.932297 0.000000
17.797239 34.932297 0.000000
18.111959 34.932297 0.000000
18.426680 34.932297 0.000000
18.741402 34.932297 0.000000
-7.065720 34.617577 0.000000
-6.750999 34.617577 0.028577
-6.436278 34.617577 0.020498
-6.121557 34.617577 0.018993
-5.806836 34.617577 0.018940
-5.492115 34.617577 0.018672
-5.177394 34.617577 0.018952
-4.862673 34.617577 0.018536
-4.547952 34.617577 0.017938
-4.233231 34.617577 0.017727
-3.918510 34.617577 0.017794
-3.603789 34.617577 0.017710
-3.289068 34.617577 0.017770
-2.974347 34.617577 0.017353
-2.659626 34.617577 0.016896
-2.344905 34.617577 0.016874
-2.030184 34.617577 0.017405
-1.715463 34.617577 0.017690
-1.400742 34.617577 0.018078
-1.086021 34.617577 0.018308
-0.771300 34.617577 0.017799
-0.456579 34.617577 0.017319
-0.141859 34.617577 0.017175
0.172863 34.617577 0.017377
0.487584 34.617577 0.017234
0.802305 34.617577 0.017037
1.117026 34.617577 0.016846
1.431747 34.617577 0.017259
1.746467 34.617577 0.017569
2.061188 34.617577 0.017282
2.375909 34.617577 0.017486
2.690630 34.617577 0.017538
3.005352 34.617577 0.017306
3.320073 34.617577 0.017264
3.634794 34.617577 0.018136
3.949515 34.617577 0.018630
4.264236 34.617577 0.018162
4.578956 34.617577 0.018078
4.893677 34.617577 0.018225
5.208398 34.617577 0.018626
5.523119 34.617577 0.019511
5.837841 34.617577 0.021017
6.152562 34.617577 0.023551
6.467283 34.617577 0.026841
6.782003 34.617577 0.030612
7.096724 34.617577 0.036749
7.411445 34.617577 0.047034
7.726166 34.617577 0.066578
8.040888 34.617577 0.094536
8.355608 34.617577 0.137556
8.670330 34.617577 0.194475
8.985050 34.617577 0.270303
9.299772 34.617577 0.368527
9.614492 34.617577 0.482322
9.929214 34.617577 0.599227
10.243935 34.617577 0.733646
10.558655 34.617577 0.901934
10.873377 34.617577 1.060110
11.188097 34.617577 1.228169
11.502819 34.617577 1.372286
11.817539 34.617577 1.512746
12.132261 34.617577 1.621724
12.446981 34.617577 1.752731
12.761703 34.617577 1.803401
13.076424 34.617577 1.815099
13.391144 34.617577 1.847317
13.705866 34.617577 1.864901
14.020586 34.617577 1.848519
14.335308 34.617577 1.817187
14.650028 34.617577 1.687588
14.964750 34.617577 1.588778
15.279470 34.617577 1.530424
15.594193 34.617577 1.696343
15.908913 34.617577 2.285072
16.223633 34.617577 3.278571
16.538355 34.617577 0.000000
16.853075 34.617577 0.000000
17.167797 34.617577 0.000000
17.482517 34.617577 0.000000
17.797239 34.617577 0.000000
18.111959 34.617577 0.000000
18.426680 34.617577 0.000000
18.741402 34.617577 0.000000
-7.065720 34.302856 0.000000
-6.750999 34.302856 0.028112
-6.436278 34.302856 0.020081
-6.121557 34.302856 0.018766
-5.806836 34.302856 0.018817
-5.492115 34.302856 0.018562
-5.177394 34.302856 0.018953
-4.862673 34.302856 0.018708
-4.547952 34.302856 0.018259
-4.233231 34.302856 0.017995
-3.918510 34.302856 0.018072
-3.603789 34.302856 0.018001
-3.289068 34.302856 0.017741
-2.974347 34.302856 0.017391
-2.659626 34.302856 0.016865
-2.344905 34.302856 0.016809
-2.030184 34.302856 0.017529
-1.715463 34.302856 0.017698
-1.400742 34.302856 0.017884
-1.086021 34.302856 0.018024
-0.771300 34.302856 0.017534
-0.456579 34.302856 0.017015
-0.141859 34.302856 0.016963
0.172863 34.302856 0.016927
0.487584 34.302856 0.016882
0.802305 34.302856 0.016896
1.117026 34.302856 0.016837
1.431747 34.302856 0.017164
1.746467 34.302856 0.017794
2.061188 34.302856 0.017591
2.375909 34.302856 0.017412
2.690630 34.302856 0.017399
3.005352 34.302856 0.017155
3.320073 34.302856 0.017110
3.634794 34.302856 0.017949
3.949515 34.302856 0.018557
4.264236 34.302856 0.018334
4.578956 34.302856 0.018320
4.893677 34.302856 0.018243
5.208398 34.302856 0.018476
5.523119 34.302856 0.019511
5.837841 34.302856 0.021334
6.152562 34.302856 0.023627
6.467283 34.302856 0.026799
6.782003 34.302856 0.030656
7.096724 34.302856 0.036592
7.411445 34.302856 0.047105
7.726166 34.302856 0.065706
8.040888 34.302856 0.091934
8.355608 34.302856 0.132057
8.670330 34.302856 0.188715
8.985050 34.302856 0.268204
9.299772 34.302856 0.366358
9.614492 34.302856 0.481197
9.929214 34.302856 0.600514
10.243935 34.302856 0.756955
10.558655 34.302856 0.899671
10.873377 34.302856 1.057046
11.188097 34.302856 1.221153
11.502819 34.302856 1.396527
11.817539 34.302856 1.521410
12.132261 34.302856 1.642827
12.446981 34.302856 1.744909
12.761703 34.302856 1.802587
13.076424 34.302856 1.820971
13.391144 34.302856 1.839191
13.705866 34.302856 1.879566
14.020586 34.302856 1.867077
14.335308 34.302856 1.777613
14.650028 34.302856 1.682414
14.964750 34.302856 1.606531
15.279470 34.302856 1.557891
15.594193 34.302856 1.667750
15.908913 34.302856 2.266410
16.223633 34.302856 3.369332
16.538355 34.302856 0.000000
16.853075 34.302856 0.000000
17.167797 34.302856 0.000000
17.482517 34.302856 0.000000
17.797239 34.302856 0.000000
18.111959 34.302856 0.000000
18.426680 34.302856 0.000000
18.741402 34.302856 0.000000
-7.065720 33.988136 0.000000
-6.750999 33.988136 0.027885
-6.436278 33.988136 0.019841
-6.121557 33.988136 0.018426
-5.806836 33.988136 0.018609
-5.492115 33.988136 0.018471
-5.177394 33.988136 0.018809
-4.862673 33.988136 0.018769
-4.547952 33.988136 0.018573
-4.233231 33.988136 0.018233
-3.918510 33.988136 0.018259
-3.603789 33.988136 0.018030
-3.289068 33.988136 0.017555
-2.974347 33.988136 0.017481
-2.659626 33.988136 0.016851
-2.344905 33.988136 0.016941
-2.030184 33.988136 0.017601
-1.715463 33.988136 0.017615
-1.400742 33.988136 0.017667
-1.086021 33.988136 0.017726
-0.771300 33.988136 0.017311
-0.456579 33.988136 0.016910
-0.141859 33.988136 0.016888
0.172863 33.988136 0.016677
0.487584 33.988136 0.016644
0.802305 33.988136 0.016940
1.117026 33.988136 0.016902
1.431747 33.988136 0.017046
1.746467 33.988136 0.017626
2.061188 33.988136 0.017484
2.375909 33.988136 0.017083
2.690630 33.988136 0.017024
3.005352 33.988136 0.016849
3.320073 33.988136 0.016990
3.634794 33.988136 0.017727
3.949515 33.988136 0.018263
4.264236 33.988136 0.018491
4.578956 33.988136 0.018715
4.893677 33.988136 0.018589
5.208398 33.988136 0.018583
5.523119 33.988136 0.019674
5.837841 33.988136 0.021590
6.152562 33.988136 0.024024
6.467283 33.988136 0.026642
6.782003 33.988136 0.030395
7.096724 33.988136 0.036356
7.411445 33.988136 0.046142
7.726166 33.988136 0.064630
8.040888 33.988136 0.093608
8.355608 33.988136 0.129565
8.670330 33.988136 0.187158
8.985050 33.988136 0.268694
9.299772 33.988136 0.365171
9.614492 33.988136 0.475233
9.929214 33.988136 0.602524
10.243935 33.988136 0.755117
10.558655 33.988136 0.909673
10.873377 33.988136 1.050567
11.188097 33.988136 1.231910
11.502819 33.988136 1.404550
11.817539 33.988136 1.559032
12.132261 33.988136 1.657907
12.446981 33.988136 1.777111
12.761703 33.988136 1.792264
13.076424 33.988136 1.898386
13.391144 33.988136 1.877824
13.705866 33.988136 1.870099
14.020586 33.988136 1.899773
14.335308 33.988136 1.772909
14.650028 33.988136 1.736792
14.964750 33.988136 1.652819
15.279470 33.988136 1.583049
15.594193 33.988136 1.693607
15.908913 33.988136 2.273946
16.223633 33.988136 3.173131
16.538355 33.988136 0.000000
16.853075 33.988136 0.000000
17.167797 33.988136 0.000000
17.482517 33.988136 0.000000
17.797239 33.988136 0.000000
18.111959 33.988136 0.000000
18.426680 33.988136 0.000000
18.741402 33.988136 0.000000
-7.065720 33.673416 0.000000
-6.750999 33.673416 0.027857
-6.436278 33.673416 0.019575
-6.121557 33.673416 0.018075
-5.806836 33.673416 0.018353
-5.492115 33.673416 0.018237
-5.177394 33.673416 0.018420
-4.862673 33.673416 0.018418
-4.547952 33.673416 0.018430
-4.233231 33.673416 0.018353
-3.918510 33.673416 0.018156
-3.603789 33.673416 0.017982
-3.289068 33.673416 0.017421
-2.974347 33.673416 0.017323
-2.659626 33.673416 0.016899
-2.344905 33.673416 0.017149
-2.030184 33.673416 0.017605
-1.715463 33.673416 0.017313
-1.400742 33.673416 0.017532
-1.086021 33.673416 0.017478
-0.771300 33.673416 0.017235
-0.456579 33.673416 0.016984
-0.141859 33.673416 0.017032
0.172863 33.673416 0.016751
0.487584 33.673416 0.016768
0.802305 33.673416 0.017002
1.117026 33.673416 0.017056
1.431747 33.673416 0.016943
1.746467 33.673416 0.017166
2.061188 33.673416 0.017076
2.375909 33.673416 0.016770
2.690630 33.673416 0.016801
3.005352 33.673416 0.016856
3.320073 33.673416 0.017212
3.634794 33.673416 0.017646
3.949515 33.673416 0.018031
4.264236 33.673416 0.018270
4.578956 33.673416 0.018837
4.893677 33.673416 0.018884
5.208398 33.673416 0.018822
5.523119 33.673416 0.019860
5.837841 33.673416 0.021843
6.152562 33.673416 0.024309
6.467283 33.673416 0.026617
6.782003 33.673416 0.029705
7.096724 33.673416 0.035990
7.411445 33.673416 0.046499
7.726166 33.673416 0.063490
8.040888 33.673416 0.093180
8.355608 33.673416 0.130678
8.670330 33.673416 0.192158
8.985050 33.673416 0.272252
9.299772 33.673416 0.371128
9.614492 33.673416 0.483128
9.929214 33.673416 0.619818
10.243935 33.673416 0.756746
10.558655 33.673416 0.909089
10.873377 33.673416 1.050869
11.188097 33.673416 1.212158
11.502819 33.673416 1.390744
11.817539 33.673416 1.547393
12.132261 33.673416 1.672999
12.446981 33.673416 1.760852
12.761703 33.673416 1.828416
13.076424 33.673416 1.879807
13.391144 33.673416 1.915859
13.705866 33.673416 1.905780
14.020586 33.673416 1.921594
14.335308 33.673416 1.841641
14.650028 33.673416 1.766805
14.964750 33.673416 1.692000
15.279470 33.673416 1.602329
15.594193 33.673416 1.743198
15.908913 33.673416 2.191613
16.223633 33.673416 3.063234
16.538355 33.673416 0.000000
16.853075 33.673416 0.000000
17.167797 33.673416 0.000000
17.482517 33.673416 0.000000
17.797239 33.673416 0.000000
18.111959 33.673416 0.000000
18.426680 33.673416 0.000000
18.741402 33.673416 0.000000
-7.065720 33.358696 0.000000
-6.750999 33.358696 0.028203
-6.436278 33.358696 0.019492
-6.121557 33.358696 0.017793
-5.806836 33.358696 0.018055
-5.492115 33.358696 0.018102
-5.177394 33.358696 0.018002
-4.862673 33.358696 0.018003
-4.547952 33.358696 0.017988
-4.233231 33.358696 0.018040
-3.918510 33.358696 0.017893
-3.603789 33.358696 0.017806
-3.289068 33.358696 0.017406
-2.974347 33.358696 0.017289
-2.659626 33.358696 0.017142
-2.344905 33.358696 0.017299
-2.030184 33.358696 0.017463
-1.715463 33.358696 0.017346
-1.400742 33.358696 0.017549
-1.086021 33.358696 0.017360
-0.771300 33.358696 0.017196
-0.456579 33.358696 0.017059
-0.141859 33.358696 0.017327
0.172863 33.358696 0.017223
0.487584 33.358696 0.017088
0.802305 33.358696 0.017149
1.117026 33.358696 0.017186
1.431747 33.358696 0.016975
1.746467 33.358696 0.016902
2.061188 33.358696 0.016824
2.375909 33.358696 0.016848
2.690630 33.358696 0.017035
3.005352 33.358696 0.017181
3.320073 33.358696 0.017492
3.634794 33.358696 0.017711
3.949515 33.358696 0.017917
4.264236 33.358696 0.017887
4.578956 33.358696 0.018581
4.893677 33.358696 0.019057
5.208398 33.358696 0.019267
5.523119 33.358696 0.020221
5.837841 33.358696 0.022139
6.152562 33.358696 0.024405
6.467283 33.358696 0.026110
6.782003 33.358696 0.029280
7.096724 33.358696 0.035491
7.411445 33.358696 0.045949
7.726166 33.358696 0.062749
8.040888 33.358696 0.090240
8.355608 33.358696 0.131831
8.670330 33.358696 0.191709
8.985050 33.358696 0.264646
9.299772 33.358696 0.368579
9.614492 33.358696 0.485957
9.929214 33.358696 0.619424
10.243935 33.358696 0.756689
10.558655 33.358696 0.914896
10.873377 33.358696 1.085255
11.188097 33.358696 1.227855
11.502819 33.358696 1.415548
11.817539 33.358696 1.557220
12.132261 33.358696 1.650391
12.446981 33.358696 1.748673
12.761703 33.358696 1.862850
13.076424 33.358696 1.912365
13.391144 33.358696 1.923076
13.705866 33.358696 1.937209
14.020586 33.358696 1.939263
14.335308 33.358696 1.848503
14.650028 33.358696 1.781047
14.964750 33.358696 1.707496
15.279470 33.358696 1.609540
15.594193 33.358696 1.690390
15.908913 33.358696 2.185158
16.223633 33.358696 2.810843
16.538355 33.358696 0.000000
16.853075 33.358696 0.000000
17.167797 33.358696 0.000000
17.482517 33.358696 0.000000
17.797239 33.358696 0.000000
18.111959 33.358696 0.000000
18.426680 33.358696 0.000000
18.741402 33.358696 0.000000
-7.065720 33.043972 0.000000
-6.750999 33.043972 0.028371
-6.436278 33.043972 0.019589
-6.121557 33.043972 0.017770
-5.806836 33.043972 0.017940
-5.492115 33.043972 0.018126
-5.177394 33.043972 0.018096
-4.862673 33.043972 0.018009
-4.547952 33.043972 0.017892
-4.233231 33.043972 0.017696
-3.918510 33.043972 0.017628
-3.603789 33.043972 0.017615
-3.289068 33.043972 0.017459
-2.974347 33.043972 0.017355
-2.659626 33.043972 0.017437
-2.344905 33.043972 0.017473
-2.030184 33.043972 0.017537
-1.715463 33.043972 0.017606
-1.400742 33.043972 0.017612
-1.086021 33.043972 0.017430
-0.771300 33.043972 0.017141
-0.456579 33.043972 0.017101
-0.141859 33.043972 0.017496
0.172863 33.043972 0.017777
0.487584 33.043972 0.017571
0.802305 33.043972 0.017452
1.117026 33.043972 0.017334
1.431747 33.043972 0.017081
1.746467 33.043972 0.016908
2.061188 33.043972 0.016929
2.375909 33.043972 0.017201
2.690630 33.043972 0.017382
3.005352 33.043972 0.017313
3.320073 33.043972 0.017609
3.634794 33.043972 0.017719
3.949515 33.043972 0.017701
4.264236 33.043972 0.017476
4.578956 33.043972 0.018238
4.893677 33.043972 0.019028
5.208398 33.043972 0.019614
5.523119 33.043972 0.020462
5.837841 33.043972 0.022336
6.152562 33.043972 0.024357
6.467283 33.043972 0.026114
6.782003 33.043972 0.029193
7.096724 33.043972 0.035640
7.411445 33.043972 0.045291
7.726166 33.043972 0.062868
8.040888 33.043972 0.090438
8.355608 33.043972 0.135181
8.670330 33.043972 0.194638
8.985050 33.043972 0.274422
9.299772 33.043972 0.374716
9.614492 33.043972 0.493823
9.929214 33.043972 0.619106
10.243935 33.043972 0.762630
10.558655 33.043972 0.924391
10.873377 33.043972 1.094439
11.188097 33.043972 1.273545
11.502819 33.043972 1.397010
11.817539 33.043972 1.542486
12.132261 33.043972 1.645260
12.446981 33.043972 1.770608
12.761703 33.043972 1.854802
13.076424 33.043972 1.900297
13.391144 33.043972 1.918108
13.705866 33.043972 1.941580
14.020586 33.043972 1.901859
14.335308 33.043972 1.834112
14.650028 33.043972 1.749332
14.964750 33.043972 1.669047
15.279470 33.043972 1.582615
15.594193 33.043972 1.691352
15.908913 33.043972 2.131903
16.223633 33.043972 2.620136
16.538355 33.043972 0.000000
16.853075 33.043972 0.000000
17.167797 33.043972 0.000000
17.482517 33.043972 0.000000
17.797239 33.043972 0.000000
18.111959 33.043972 0.000000
18.426680 33.043972 0.000000
18.741402 33.043972 0.000000
-7.065720 32.729252 0.000000
-6.750999 32.729252 0.028304
-6.436278 32.729252 0.019767
-6.121557 32.729252 0.018007
-5.806836 32.729252 0.017979
-5.492115 32.729252 0.018198
-5.177394 32.729252 0.018549
-4.862673 32.729252 0.018451
-4.547952 32.729252 0.017947
-4.233231 32.729252 0.017451
-3.918510 32.729252 0.017436
-3.603789 32.729252 0.017637
-3.289068 32.729252 0.017678
-2.974347 32.729252 0.017485
-2.659626 32.729252 0.017442
-2.344905 32.729252 0.017646
-2.030184 32.729252 0.017818
-1.715463 32.729252 0.017793
-1.400742 32.729252 0.017658
-1.086021 32.729252 0.017520
-0.771300 32.729252 0.017100
-0.456579 32.729252 0.017045
-0.141859 32.729252 0.017432
0.172863 32.729252 0.017885
0.487584 32.729252 0.017731
0.802305 32.729252 0.017755
1.117026 32.729252 0.017382
1.431747 32.729252 0.017183
1.746467 32.729252 0.017218
2.061188 32.729252 0.017260
2.375909 32.729252 0.017360
2.690630 32.729252 0.017398
3.005352 32.729252 0.017274
3.320073 32.729252 0.017427
3.634794 32.729252 0.017634
3.949515 32.729252 0.017506
4.264236 32.729252 0.017311
4.578956 32.729252 0.017877
4.893677 32.729252 0.018792
5.208398 32.729252 0.019686
5.523119 32.729252 0.020499
5.837841 32.729252 0.022279
6.152562 32.729252 0.024096
6.467283 32.729252 0.026014
6.782003 32.729252 0.029086
7.096724 32.729252 0.034777
7.411445 32.729252 0.044287
7.726166 32.729252 0.062916
8.040888 32.729252 0.091588
8.355608 32.729252 0.136130
8.670330 32.729252 0.196128
8.985050 32.729252 0.274209
9.299772 32.729252 0.366599
9.614492 32.729252 0.492983
9.929214 32.729252 0.619931
10.243935 32.729252 0.758549
10.558655 32.729252 0.906256
10.873377 32.729252 1.094703
11.188097 32.729252 1.279676
11.502819 32.729252 1.427415
11.817539 32.729252 1.553049
12.132261 32.729252 1.658171
12.446981 32.729252 1.759797
12.761703 32.729252 1.845309
13.076424 32.729252 1.915105
13.391144 32.729252 1.954727
13.705866 32.729252 1.937188
14.020586 32.729252 1.907975
14.335308 32.729252 1.853069
14.650028 32.729252 1.768586
14.964750 32.729252 1.667713
15.279470 32.729252 1.600130
15.594193 32.729252 1.704948
15.908913 32.729252 2.178887
16.223633 32.729252 2.426041
16.538355 32.729252 0.000000
16.853075 32.729252 0.000000
17.167797 32.729252 0.000000
17.482517 32.729252 0.000000
17.797239 32.729252 0.000000
18.111959 32.729252 0.000000
18.426680 32.729252 0.000000
18.741402 32.729252 0.000000
-7.065720 32.414532 0.000000
-6.750999 32.414532 0.028016
-6.436278 32.414532 0.019695
-6.121557 32.414532 0.018260
-5.806836 32.414532 0.018143
-5.492115 32.414532 0.018306
-5.177394 32.414532 0.018843
-4.862673 32.414532 0.018687
-4.547952 32.414532 0.017944
-4.233231 32.414532 0.017314
-3.918510 32.414532 0.017491
-3.603789 32.414532 0.017720
-3.289068 32.414532 0.017817
-2.974347 32.414532 0.017651
-2.659626 32.414532 0.017439
-2.344905 32.414532 0.017873
-2.030184 32.414532 0.018117
-1.715463 32.414532 0.017784
-1.400742 32.414532 0.017615
-1.086021 32.414532 0.017527
-0.771300 32.414532 0.017063
-0.456579 32.414532 0.017079
-0.141859 32.414532 0.017310
0.172863 32.414532 0.017568
0.487584 32.414532 0.017539
0.802305 32.414532 0.017681
1.117026 32.414532 0.017246
1.431747 32.414532 0.017016
1.746467 32.414532 0.017244
2.061188 32.414532 0.017354
2.375909 32.414532 0.017411
2.690630 32.414532 0.017389
3.005352 32.414532 0.016990
3.320073 32.414532 0.017039
3.634794 32.414532 0.017353
3.949515 32.414532 0.017388
4.264236 32.414532 0.017528
4.578956 32.414532 0.017953
4.893677 32.414532 0.018635
5.208398 32.414532 0.019505
5.523119 32.414532 0.020290
5.837841 32.414532 0.021691
6.152562 32.414532 0.023544
6.467283 32.414532 0.025572
6.782003 32.414532 0.028892
7.096724 32.414532 0.034264
7.411445 32.414532 0.043969
7.726166 32.414532 0.063179
8.040888 32.414532 0.092893
8.355608 32.414532 0.133637
8.670330 32.414532 0.191768
8.985050 32.414532 0.273930
9.299772 32.414532 0.371062
9.614492 32.414532 0.489514
9.929214 32.414532 0.613815
10.243935 32.414532 0.770728
10.558655 32.414532 0.931103
10.873377 32.414532 1.097639
11.188097 32.414532 1.255712
11.502819 32.414532 1.397581
11.817539 32.414532 1.562074
12.132261 32.414532 1.680801
12.446981 32.414532 1.773216
12.761703 32.414532 1.863446
13.076424 32.414532 1.937754
13.391144 32.414532 1.928498
13.705866 32.414532 1.931488
14.020586 32.414532 1.931672
14.335308 32.414532 1.882747
14.650028 32.414532 1.802631
14.964750 32.414532 1.660248
15.279470 32.414532 1.646277
15.594193 32.414532 1.729563
15.908913 32.414532 2.187848
16.223633 32.414532 2.403370
16.538355 32.414532 0.000000
16.853075 32.414532 0.000000
17.167797 32.414532 0.000000
17.482517 32.414532 0.000000
17.797239 32.414532 0.000000
18.111959 32.414532 0.000000
18.426680 32.414532 0.000000
18.741402 32.414532 0.000000
-7.065720 32.099808 0.000000
-6.750999 32.099808 0.027398
-6.436278 32.099808 0.019631
-6.121557 32.099808 0.018399
-5.806836 32.099808 0.018401
-5.492115 32.099808 0.018464
-5.177394 32.099808 0.018877
-4.862673 32.099808 0.018744
-4.547952 32.099808 0.017972
-4.233231 32.099808 0.017397
-3.918510 32.099808 0.017644
-3.603789 32.099808 0.017785
-3.289068 32.099808 0.017712
-2.974347 32.099808 0.017836
-2.659626 32.099808 0.017534
-2.344905 32.099808 0.017879
-2.030184 32.099808 0.018010
-1.715463 32.099808 0.017589
-1.400742 32.099808 0.017519
-1.086021 32.099808 0.017489
-0.771300 32.099808 0.017244
-0.456579 32.099808 0.017244
-0.141859 32.099808 0.017422
0.172863 32.099808 0.017203
0.487584 32.099808 0.017338
0.802305 32.099808 0.017406
1.117026 32.099808 0.016767
1.431747 32.099808 0.016663
1.746467 32.099808 0.016965
2.061188 32.099808 0.017122
2.375909 32.099808 0.017298
2.690630 32.099808 0.017189
3.005352 32.099808 0.016677
3.320073 32.099808 0.016722
3.634794 32.099808 0.017146
3.949515 32.099808 0.017502
4.264236 32.099808 0.017991
4.578956 32.099808 0.018430
4.893677 32.099808 0.018639
5.208398 32.099808 0.019163
5.523119 32.099808 0.019854
5.837841 32.099808 0.020905
6.152562 32.099808 0.022740
6.467283 32.099808 0.025051
6.782003 32.099808 0.028175
7.096724 32.099808 0.034169
7.411445 32.099808 0.043975
7.726166 32.099808 0.062512
8.040888 32.099808 0.092695
8.355608 32.099808 0.132981
8.670330 32.099808 0.192968
8.985050 32.099808 0.268535
9.299772 32.099808 0.374090
9.614492 32.099808 0.483883
9.929214 32.099808 0.607909
10.243935 32.099808 0.766675
10.558655 32.099808 0.929345
10.873377 32.099808 1.084408
11.188097 32.099808 1.289786
11.502819 32.099808 1.394438
11.817539 32.099808 1.524170
12.132261 32.099808 1.675689
12.446981 32.099808 1.756622
12.761703 32.099808 1.886932
13.076424 32.099808 1.951193
13.391144 32.099808 1.939346
13.705866 32.099808 1.969129
14.020586 32.099808 1.895762
14.335308 32.099808 1.864805
14.650028 32.099808 1.769453
14.964750 32.099808 1.696122
15.279470 32.099808 1.654805
15.594193 32.099808 1.809509
15.908913 32.099808 2.175512
16.223633 32.099808 2.289828
16.538355 32.099808 0.000000
16.853075 32.099808 0.000000
17.167797 32.099808 0.000000
17.482517 32.099808 0.000000
17.797239 32.099808 0.000000
18.111959 32.099808 0.000000
18.426680 32.099808 0.000000
18.741402 32.099808 0.000000
-7.065720 31.785089 0.000000
-6.750999 31.785089 0.027400
-6.436278 31.785089 0.019595
-6.121557 31.785089 0.018490
-5.806836 31.785089 0.018590
-5.492115 31.785089 0.018532
-5.177394 31.785089 0.018782
-4.862673 31.785089 0.018604
-4.547952 31.785089 0.018066
-4.233231 31.785089 0.017611
-3.918510 31.785089 0.017851
-3.603789 31.785089 0.017829
-3.289068 31.785089 0.017587
-2.974347 31.785089 0.017852
-2.659626 31.785089 0.017578
-2.344905 31.785089 0.017729
-2.030184 31.785089 0.017678
-1.715463 31.785089 0.017234
-1.400742 31.785089 0.017328
-1.086021 31.785089 0.017453
-0.771300 31.785089 0.017408
-0.456579 31.785089 0.017395
-0.141859 31.785089 0.017592
0.172863 31.785089 0.017154
0.487584 31.785089 0.016995
0.802305 31.785089 0.017002
1.117026 31.785089 0.016587
1.431747 31.785089 0.016485
1.746467 31.785089 0.016579
2.061188 31.785089 0.016905
2.375909 31.785089 0.017140
2.690630 31.785089 0.016980
3.005352 31.785089 0.016651
3.320073 31.785089 0.016637
3.634794 31.785089 0.017044
3.949515 31.785089 0.017836
4.264236 31.785089 0.018536
4.578956 31.785089 0.018859
4.893677 31.785089 0.018678
5.208398 31.785089 0.018668
5.523119 31.785089 0.019319
5.837841 31.785089 0.020312
6.152562 31.785089 0.022061
6.467283 31.785089 0.024167
6.782003 31.785089 0.027918
7.096724 31.785089 0.034022
7.411445 31.785089 0.043802
7.726166 31.785089 0.061550
8.040888 31.785089 0.092517
8.355608 31.785089 0.135676
8.670330 31.785089 0.196124
8.985050 31.785089 0.276389
9.299772 31.785089 0.375931
9.614492 31.785089 0.488403
9.929214 31.785089 0.608706
10.243935 31.785089 0.758795
10.558655 31.785089 0.914430
10.873377 31.785089 1.067949
11.188097 31.785089 1.280558
11.502819 31.785089 1.418155
11.817539 31.785089 1.543690
12.132261 31.785089 1.651945
12.446981 31.785089 1.782491
12.761703 31.785089 1.886513
13.076424 31.785089 1.970443
13.391144 31.785089 1.959539
13.705866 31.785089 1.960322
14.020586 31.785089 1.866899
14.335308 31.785089 1.844009
14.650028 31.785089 1.800043
14.964750 31.785089 1.695594
15.279470 31.785089 1.662482
15.594193 31.785089 1.825769
15.908913 31.785089 2.246028
16.223633 31.785089 2.205154
16.538355 31.785089 0.000000
16.853075 31.785089 0.000000
17.167797 31.785089 0.000000
17.482517 31.785089 0.000000
17.797239 31.785089 0.000000
18.111959 31.785089 0.000000
18.426680 31.785089 0.000000
18.741402 31.785089 0.000000
-7.065720 31.470367 0.000000
-6.750999 31.470367 0.027688
-6.436278 31.470367 0.019868
-6.121557 31.470367 0.018550
-5.806836 31.470367 0.018573
-5.492115 31.470367 0.018400
-5.177394 31.470367 0.018494
-4.862673 31.470367 0.018292
-4.547952 31.470367 0.018079
-4.233231 31.470367 0.017838
-3.918510 31.470367 0.017972
-3.603789 31.470367 0.017831
-3.289068 31.470367 0.017616
-2.974347 31.470367 0.017681
-2.659626 31.470367 0.017527
-2.344905 31.470367 0.017369
-2.030184 31.470367 0.017358
-1.715463 31.470367 0.017463
-1.400742 31.470367 0.017620
-1.086021 31.470367 0.017780
-0.771300 31.470367 0.017545
-0.456579 31.470367 0.017402
-0.141859 31.470367 0.017688
0.172863 31.470367 0.017243
0.487584 31.470367 0.016641
0.802305 31.470367 0.016563
1.117026 31.470367 0.016479
1.431747 31.470367 0.016532
1.746467 31.470367 0.016368
2.061188 31.470367 0.016711
2.375909 31.470367 0.017041
2.690630 31.470367 0.016797
3.005352 31.470367 0.016770
3.320073 31.470367 0.016828
3.634794 31.470367 0.017251
3.949515 31.470367 0.018130
4.264236 31.470367 0.018819
4.578956 31.470367 0.019066
4.893677 31.470367 0.018698
5.208398 31.470367 0.018385
5.523119 31.470367 0.018882
5.837841 31.470367 0.019976
6.152562 31.470367 0.021676
6.467283 31.470367 0.023895
6.782003 31.470367 0.027764
7.096724 31.470367 0.033980
7.411445 31.470367 0.044179
7.726166 31.470367 0.061383
8.040888 31.470367 0.092281
8.355608 31.470367 0.137161
8.670330 31.470367 0.196524
8.985050 31.470367 0.276913
9.299772 31.470367 0.377919
9.614492 31.470367 0.479649
9.929214 31.470367 0.613972
10.243935 31.470367 0.757903
10.558655 31.470367 0.912854
10.873377 31.470367 1.086466
11.188097 31.470367 1.253752
11.502819 31.470367 1.429654
11.817539 31.470367 1.569600
12.132261 31.470367 1.669972
12.446981 31.470367 1.735535
12.761703 31.470367 1.878686
13.076424 31.470367 1.950459
13.391144 31.470367 2.013518
13.705866 31.470367 1.952046
14.020586 31.470367 1.869625
14.335308 31.470367 1.824136
14.650028 31.470367 1.835660
14.964750 31.470367 1.726546
15.279470 31.470367 1.707345
15.594193 31.470367 1.861394
15.908913 31.470367 2.279517
16.223633 31.470367 2.211288
16.538355 31.470367 0.000000
16.853075 31.470367 0.000000
17.167797 31.470367 0.000000
17.482517 31.470367 0.000000
17.797239 31.470367 0.000000
18.111959 31.470367 0.000000
18.426680 31.470367 0.000000
18.741402 31.470367 0.000000
-7.065720 31.155647 0.000000
-6.750999 31.155647 0.028240
-6.436278 31.155647 0.020209
-6.121557 31.155647 0.018520
-5.806836 31.155647 0.018487
-5.492115 31.155647 0.018338
-5.177394 31.155647 0.018248
-4.862673 31.155647 0.017987
-4.547952 31.155647 0.017836
-4.233231 31.155647 0.017935
-3.918510 31.155647 0.018017
-3.603789 31.155647 0.018084
-3.289068 31.155647 0.017868
-2.974347 31.155647 0.017518
-2.659626 31.155647 0.017479
-2.344905 31.155647 0.017118
-2.030184 31.155647 0.017268
-1.715463 31.155647 0.017979
-1.400742 31.155647 0.018213
-1.086021 31.155647 0.018232
-0.771300 31.155647 0.017579
-0.456579 31.155647 0.017315
-0.141859 31.155647 0.017562
0.172863 31.155647 0.017294
0.487584 31.155647 0.016573
0.802305 31.155647 0.016330
1.117026 31.155647 0.016756
1.431747 31.155647 0.016853
1.746467 31.155647 0.016733
2.061188 31.155647 0.016726
2.375909 31.155647 0.017217
2.690630 31.155647 0.017115
3.005352 31.155647 0.017086
3.320073 31.155647 0.017313
3.634794 31.155647 0.017757
3.949515 31.155647 0.018359
4.264236 31.155647 0.018674
4.578956 31.155647 0.018668
4.893677 31.155647 0.018556
5.208398 31.155647 0.018304
5.523119 31.155647 0.018589
5.837841 31.155647 0.019694
6.152562 31.155647 0.021517
6.467283 31.155647 0.023930
6.782003 31.155647 0.027747
7.096724 31.155647 0.034953
7.411445 31.155647 0.045180
7.726166 31.155647 0.062058
8.040888 31.155647 0.093354
8.355608 31.155647 0.139395
8.670330 31.155647 0.198152
8.985050 31.155647 0.276133
9.299772 31.155647 0.377816
9.614492 31.155647 0.484411
9.929214 31.155647 0.613501
10.243935 31.155647 0.761549
10.558655 31.155647 0.928148
10.873377 31.155647 1.089818
11.188097 31.155647 1.255495
11.502819 31.155647 1.417843
11.817539 31.155647 1.560751
12.132261 31.155647 1.683989
12.446981 31.155647 1.743045
12.761703 31.155647 1.834148
13.076424 31.155647 1.965341
13.391144 31.155647 2.011986
13.705866 31.155647 1.957735
14.020586 31.155647 1.881181
14.335308 31.155647 1.830745
14.650028 31.155647 1.833022
14.964750 31.155647 1.746525
15.279470 31.155647 1.746242
15.594193 31.155647 1.895212
15.908913 31.155647 2.329562
16.223633 31.155647 1.536412
16.538355 31.155647 0.000000
16.853075 31.155647 0.000000
17.167797 31.155647 0.000000
17.482517 31.155647 0.000000
17.797239 31.155647 0.000000
18.111959 31.155647 0.000000
18.426680 31.155647 0.000000
18.741402 31.155647 0.000000
-7.065720 30.840927 0.000000
-6.750999 30.840927 0.028682
-6.436278 30.840927 0.020427
-6.121557 30.840927 0.018517
-5.806836 30.840927 0.018403
-5.492115 30.840927 0.018222
-5.177394 30.840927 0.018270
-4.862673 30.840927 0.018099
-4.547952 30.840927 0.017823
-4.233231 30.840927 0.017794
-3.918510 30.840927 0.017837
-3.603789 30.840927 0.018144
-3.289068 30.840927 0.017905
-2.974347 30.840927 0.017390
-2.659626 30.840927 0.017120
-2.344905 30.840927 0.016860
-2.030184 30.840927 0.017275
-1.715463 30.840927 0.018170
-1.400742 30.840927 0.018528
-1.086021 30.840927 0.018309
-0.771300 30.840927 0.017539
-0.456579 30.840927 0.017167
-0.141859 30.840927 0.017381
0.172863 30.840927 0.017205
0.487584 30.840927 0.016596
0.802305 30.840927 0.016443
1.117026 30.840927 0.016967
1.431747 30.840927 0.017368
1.746467 30.840927 0.017352
2.061188 30.840927 0.017087
2.375909 30.840927 0.017292
2.690630 30.840927 0.017457
3.005352 30.840927 0.017509
3.320073 30.840927 0.017735
3.634794 30.840927 0.018038
3.949515 30.840927 0.018377
4.264236 30.840927 0.018317
4.578956 30.840927 0.018056
4.893677 30.840927 0.018155
5.208398 30.840927 0.018217
5.523119 30.840927 0.018425
5.837841 30.840927 0.019515
6.152562 30.840927 0.021487
6.467283 30.840927 0.024167
6.782003 30.840927 0.028539
7.096724 30.840927 0.035218
7.411445 30.840927 0.046072
7.726166 30.840927 0.064321
8.040888 30.840927 0.093369
8.355608 30.840927 0.135810
8.670330 30.840927 0.198184
8.985050 30.840927 0.273208
9.299772 30.840927 0.374437
9.614492 30.840927 0.493605
9.929214 30.840927 0.624974
10.243935 30.840927 0.755342
10.558655 30.840927 0.939978
10.873377 30.840927 1.083185
11.188097 30.840927 1.244641
11.502819 30.840927 1.425167
11.817539 30.840927 1.580811
12.132261 30.840927 1.683965
12.446981 30.840927 1.770893
12.761703 30.840927 1.846922
13.076424 30.840927 1.912063
13.391144 30.840927 1.942556
13.705866 30.840927 1.911036
14.020586 30.840927 1.884277
14.335308 30.840927 1.836822
14.650028 30.840927 1.849474
14.964750 30.840927 1.747492
15.279470 30.840927 1.762362
15.594193 30.840927 2.027590
15.908913 30.840927 2.529805
16.223633 30.840927 0.000000
16.538355 30.840927 0.000000
16.853075 30.840927 0.000000
17.167797 30.840927 0.000000
17.482517 30.840927 0.000000
17.797239 30.840927 0.000000
18.111959 30.840927 0.000000
18.426680 30.840927 0.000000
18.741402 30.840927 0.000000
-7.065720 30.526205 0.000000
-6.750999 30.526205 0.028278
-6.436278 30.526205 0.020157
-6.121557 30.526205 0.018342
-5.806836 30.526205 0.018220
-5.492115 30.526205 0.018152
-5.177394 30.526205 0.018398
-4.862673 30.526205 0.018459
-4.547952 30.526205 0.017992
-4.233231 30.526205 0.017698
-3.918510 30.526205 0.017805
-3.603789 30.526205 0.017998
-3.289068 30.526205 0.017679
-2.974347 30.526205 0.017137
-2.659626 30.526205 0.016781
-2.344905 30.526205 0.016943
-2.030184 30.526205 0.017387
-1.715463 30.526205 0.018136
-1.400742 30.526205 0.018350
-1.086021 30.526205 0.017959
-0.771300 30.526205 0.017312
-0.456579 30.526205 0.016910
-0.141859 30.526205 0.017016
0.172863 30.526205 0.016964
0.487584 30.526205 0.016720
0.802305 30.526205 0.016652
1.117026 30.526205 0.016871
1.431747 30.526205 0.017545
1.746467 30.526205 0.017808
2.061188 30.526205 0.017344
2.375909 30.526205 0.017305
2.690630 30.526205 0.017799
3.005352 30.526205 0.017734
3.320073 30.526205 0.017862
3.634794 30.526205 0.017929
3.949515 30.526205 0.018206
4.264236 30.526205 0.017886
4.578956 30.526205 0.017409
4.893677 30.526205 0.017505
5.208398 30.526205 0.017866
5.523119 30.526205 0.018318
5.837841 30.526205 0.019411
6.152562 30.526205 0.021221
6.467283 30.526205 0.024178
6.782003 30.526205 0.029288
7.096724 30.526205 0.035523
7.411445 30.526205 0.046907
7.726166 30.526205 0.065206
8.040888 30.526205 0.092044
8.355608 30.526205 0.135883
8.670330 30.526205 0.195988
8.985050 30.526205 0.269930
9.299772 30.526205 0.374354
9.614492 30.526205 0.499856
9.929214 30.526205 0.629688
10.243935 30.526205 0.761368
10.558655 30.526205 0.914722
10.873377 30.526205 1.081924
11.188097 30.526205 1.233005
11.502819 30.526205 1.424513
11.817539 30.526205 1.575876
12.132261 30.526205 1.690111
12.446981 30.526205 1.785469
12.761703 30.526205 1.872182
13.076424 30.526205 1.919012
13.391144 30.526205 1.955659
13.705866 30.526205 1.904797
14.020586 30.526205 1.877171
14.335308 30.526205 1.850507
14.650028 30.526205 1.849084
14.964750 30.526205 1.796437
15.279470 30.526205 1.789951
15.594193 30.526205 2.030600
15.908913 30.526205 2.715032
16.223633 30.526205 0.000000
16.538355 30.526205 0.000000
16.853075 30.526205 0.000000
17.167797 30.526205 0.000000
17.482517 30.526205 0.000000
17.797239 30.526205 0.000000
18.111959 30.526205 0.000000
18.426680 30.526205 0.000000
18.741402 30.526205 0.000000
-7.065720 30.211485 0.000000
-6.750999 30.211485 0.027485
-6.436278 30.211485 0.019494
-6.121557 30.211485 0.018172
-5.806836 30.211485 0.018196
-5.492115 30.211485 0.018115
-5.177394 30.211485 0.018624
-4.862673 30.211485 0.018768
-4.547952 30.211485 0.018103
-4.233231 30.211485 0.017708
-3.918510 30.211485 0.017848
-3.603789 30.211485 0.017696
-3.289068 30.211485 0.017297
-2.974347 30.211485 0.016977
-2.659626 30.211485 0.016824
-2.344905 30.211485 0.017307
-2.030184 30.211485 0.017620
-1.715463 30.211485 0.017761
-1.400742 30.211485 0.017840
-1.086021 30.211485 0.017501
-0.771300 30.211485 0.017037
-0.456579 30.211485 0.016736
-0.141859 30.211485 0.016579
0.172863 30.211485 0.016576
0.487584 30.211485 0.016845
0.802305 30.211485 0.016860
1.117026 30.211485 0.016555
1.431747 30.211485 0.017286
1.746467 30.211485 0.017724
2.061188 30.211485 0.017400
2.375909 30.211485 0.017468
2.690630 30.211485 0.017915
3.005352 30.211485 0.017825
3.320073 30.211485 0.017597
3.634794 30.211485 0.017425
3.949515 30.211485 0.017722
4.264236 30.211485 0.017533
4.578956 30.211485 0.017196
4.893677 30.211485 0.017173
5.208398 30.211485 0.017434
5.523119 30.211485 0.018080
5.837841 30.211485 0.019255
6.152562 30.211485 0.020923
6.467283 30.211485 0.024281
6.782003 30.211485 0.029097
7.096724 30.211485 0.036170
7.411445 30.211485 0.047231
7.726166 30.211485 0.065795
8.040888 30.211485 0.092199
8.355608 30.211485 0.134959
8.670330 30.211485 0.192361
8.985050 30.211485 0.271249
9.299772 30.211485 0.373720
9.614492 30.211485 0.492233
9.929214 30.211485 0.621388
10.243935 30.211485 0.770110
10.558655 30.211485 0.917472
10.873377 30.211485 1.093297
11.188097 30.211485 1.278360
11.502819 30.211485 1.447298
11.817539 30.211485 1.553805
12.132261 30.211485 1.658299
12.446981 30.211485 1.794023
12.761703 30.211485 1.912476
13.076424 30.211485 1.939606
13.391144 30.211485 1.958758
13.705866 30.211485 1.913505
14.020586 30.211485 1.878215
14.335308 30.211485 1.851465
14.650028 30.211485 1.848154
14.964750 30.211485 1.782613
15.279470 30.211485 1.799237
15.594193 30.211485 2.155561
15.908913 30.211485 2.905870
16.223633 30.211485 0.000000
16.538355 30.211485 0.000000
16.853075 30.211485 0.000000
17.167797 30.211485 0.000000
17.482517 30.211485 0.000000
17.797239 30.211485 0.000000
18.111959 30.211485 0.000000
18.426680 30.211485 0.000000
18.741402 30.211485 0.000000
-7.065720 29.896763 0.000000
-6.750999 29.896763 0.026802
-6.436278 29.896763 0.018754
-6.121557 29.896763 0.017900
-5.806836 29.896763 0.018309
-5.492115 29.896763 0.018193
-5.177394 29.896763 0.018597
-4.862673 29.896763 0.018671
-4.547952 29.896763 0.018066
-4.233231 29.896763 0.017710
-3.918510 29.896763 0.017805
-3.603789 29.896763 0.017490
-3.289068 29.896763 0.017215
-2.974347 29.896763 0.017127
-2.659626 29.896763 0.017321
-2.344905 29.896763 0.017650
-2.030184 29.896763 0.017685
-1.715463 29.896763 0.017410
-1.400742 29.896763 0.017344
-1.086021 29.896763 0.016973
-0.771300 29.896763 0.016806
-0.456579 29.896763 0.016617
-0.141859 29.896763 0.016468
0.172863 29.896763 0.016360
0.487584 29.896763 0.016764
0.802305 29.896763 0.016678
1.117026 29.896763 0.016277
1.431747 29.896763 0.016826
1.746467 29.896763 0.017224
2.061188 29.896763 0.017498
2.375909 29.896763 0.017685
2.690630 29.896763 0.017882
3.005352 29.896763 0.017684
3.320073 29.896763 0.017142
3.634794 29.896763 0.016853
3.949515 29.896763 0.017111
4.264236 29.896763 0.017280
4.578956 29.896763 0.017381
4.893677 29.896763 0.017201
5.208398 29.896763 0.017174
5.523119 29.896763 0.017971
5.837841 29.896763 0.019228
6.152562 29.896763 0.020824
6.467283 29.896763 0.023893
6.782003 29.896763 0.028786
7.096724 29.896763 0.035961
7.411445 29.896763 0.047612
7.726166 29.896763 0.065485
8.040888 29.896763 0.093489
8.355608 29.896763 0.134727
8.670330 29.896763 0.191955
8.985050 29.896763 0.272409
9.299772 29.896763 0.366805
9.614492 29.896763 0.505782
9.929214 29.896763 0.643247
10.243935 29.896763 0.781612
10.558655 29.896763 0.930715
10.873377 29.896763 1.089236
11.188097 29.896763 1.295095
11.502819 29.896763 1.454630
11.817539 29.896763 1.561809
12.132261 29.896763 1.635379
12.446981 29.896763 1.740263
12.761703 29.896763 1.891024
13.076424 29.896763 1.922414
13.391144 29.896763 1.972590
13.705866 29.896763 1.949928
14.020586 29.896763 1.919150
14.335308 29.896763 1.876586
14.650028 29.896763 1.855157
14.964750 29.896763 1.795732
15.279470 29.896763 1.836498
15.594193 29.896763 2.239099
15.908913 29.896763 3.180472
16.223633 29.896763 0.000000
16.538355 29.896763 0.000000
16.853075 29.896763 0.000000
17.167797 29.896763 0.000000
17.482517 29.896763 0.000000
17.797239 29.896763 0.000000
18.111959 29.896763 0.000000
18.426680 29.896763 0.000000
18.741402 29.896763 0.000000
-7.065720 29.582043 0.000000
-6.750999 29.582043 0.026350
-6.436278 29.582043 0.018358
-6.121557 29.582043 0.017737
-5.806836 29.582043 0.018200
-5.492115 29.582043 0.018278
-5.177394 29.582043 0.018551
-4.862673 29.582043 0.018492
-4.547952 29.582043 0.017990
-4.233231 29.582043 0.017613
-3.918510 29.582043 0.017681
-3.603789 29.582043 0.017505
-3.289068 29.582043 0.017515
-2.974347 29.582043 0.017716
-2.659626 29.582043 0.017958
-2.344905 29.582043 0.017860
-2.030184 29.582043 0.017457
-1.715463 29.582043 0.017221
-1.400742 29.582043 0.016952
-1.086021 29.582043 0.016769
-0.771300 29.582043 0.016851
-0.456579 29.582043 0.016707
-0.141859 29.582043 0.016746
0.172863 29.582043 0.016416
0.487584 29.582043 0.016540
0.802305 29.582043 0.016459
1.117026 29.582043 0.016372
1.431747 29.582043 0.016553
1.746467 29.582043 0.016887
2.061188 29.582043 0.017669
2.375909 29.582043 0.017801
2.690630 29.582043 0.017624
3.005352 29.582043 0.017266
3.320073 29.582043 0.016700
3.634794 29.582043 0.016382
3.949515 29.582043 0.016607
4.264236 29.582043 0.017084
4.578956 29.582043 0.017521
4.893677 29.582043 0.017295
5.208398 29.582043 0.016966
5.523119 29.582043 0.017778
5.837841 29.582043 0.019197
6.152562 29.582043 0.021332
6.467283 29.582043 0.024170
6.782003 29.582043 0.028986
7.096724 29.582043 0.036573
7.411445 29.582043 0.047316
7.726166 29.582043 0.063977
8.040888 29.582043 0.091610
8.355608 29.582043 0.137535
8.670330 29.582043 0.196863
8.985050 29.582043 0.277833
9.299772 29.582043 0.379734
9.614492 29.582043 0.508629
9.929214 29.582043 0.642362
10.243935 29.582043 0.789707
10.558655 29.582043 0.921273
10.873377 29.582043 1.106208
11.188097 29.582043 1.296108
11.502819 29.582043 1.474690
11.817539 29.582043 1.576682
12.132261 29.582043 1.624207
12.446981 29.582043 1.729277
12.761703 29.582043 1.852529
13.076424 29.582043 1.918774
13.391144 29.582043 1.991642
13.705866 29.582043 1.957348
14.020586 29.582043 1.967960
14.335308 29.582043 1.941886
14.650028 29.582043 1.869962
14.964750 29.582043 1.811505
15.279470 29.582043 1.873226
15.594193 29.582043 2.327182
15.908913 29.582043 3.499895
16.223633 29.582043 0.000000
16.538355 29.582043 0.000000
16.853075 29.582043 0.000000
17.167797 29.582043 0.000000
17.482517 29.582043 0.000000
17.797239 29.582043 0.000000
18.111959 29.582043 0.000000
18.426680 29.582043 0.000000
18.741402 29.582043 0.000000
-7.065720 29.267321 0.000000
-6.750999 29.267321 0.026252
-6.436278 29.267321 0.018378
-6.121557 29.267321 0.017830
-5.806836 29.267321 0.018194
-5.492115 29.267321 0.018284
-5.177394 29.267321 0.018536
-4.862673 29.267321 0.018306
-4.547952 29.267321 0.017668
-4.233231 29.267321 0.017493
-3.918510 29.267321 0.017851
-3.603789 29.267321 0.017786
-3.289068 29.267321 0.017978
-2.974347 29.267321 0.018339
-2.659626 29.267321 0.018518
-2.344905 29.267321 0.017875
-2.030184 29.267321 0.017171
-1.715463 29.267321 0.017120
-1.400742 29.267321 0.016816
-1.086021 29.267321 0.016782
-0.771300 29.267321 0.017142
-0.456579 29.267321 0.017058
-0.141859 29.267321 0.017073
0.172863 29.267321 0.016471
0.487584 29.267321 0.016419
0.802305 29.267321 0.016501
1.117026 29.267321 0.016866
1.431747 29.267321 0.016980
1.746467 29.267321 0.017165
2.061188 29.267321 0.017665
2.375909 29.267321 0.017613
2.690630 29.267321 0.017111
3.005352 29.267321 0.016775
3.320073 29.267321 0.016511
3.634794 29.267321 0.016227
3.949515 29.267321 0.016255
4.264236 29.267321 0.016762
4.578956 29.267321 0.017422
4.893677 29.267321 0.017281
5.208398 29.267321 0.016822
5.523119 29.267321 0.017620
5.837841 29.267321 0.019423
6.152562 29.267321 0.021959
6.467283 29.267321 0.024573
6.782003 29.267321 0.028880
7.096724 29.267321 0.035904
7.411445 29.267321 0.046611
7.726166 29.267321 0.063550
8.040888 29.267321 0.091506
8.355608 29.267321 0.138731
8.670330 29.267321 0.195584
8.985050 29.267321 0.279934
9.299772 29.267321 0.376125
9.614492 29.267321 0.511918
9.929214 29.267321 0.633018
10.243935 29.267321 0.775214
10.558655 29.267321 0.916415
10.873377 29.267321 1.106305
11.188097 29.267321 1.308630
11.502819 29.267321 1.465416
11.817539 29.267321 1.591732
12.132261 29.267321 1.668912
12.446981 29.267321 1.763592
12.761703 29.267321 1.897306
13.076424 29.267321 1.950276
13.391144 29.267321 1.981261
13.705866 29.267321 2.014421
14.020586 29.267321 2.006399
14.335308 29.267321 1.945341
14.650028 29.267321 1.831647
14.964750 29.267321 1.762163
15.279470 29.267321 1.858154
15.594193 29.267321 2.517002
15.908913 29.267321 3.898825
16.223633 29.267321 0.000000
16.538355 29.267321 0.000000
16.853075 29.267321 0.000000
17.167797 29.267321 0.000000
17.482517 29.267321 0.000000
17.797239 29.267321 0.000000
18.111959 29.267321 0.000000
18.426680 29.267321 0.000000
18.741402 29.267321 0.000000
-7.065720 28.952600 0.000000
-6.750999 28.952600 0.026640
-6.436278 28.952600 0.018462
-6.121557 28.952600 0.018064
-5.806836 28.952600 0.018196
-5.492115 28.952600 0.018280
-5.177394 28.952600 0.018544
-4.862673 28.952600 0.018257
-4.547952 28.952600 0.017688
-4.233231 28.952600 0.017664
-3.918510 28.952600 0.018062
-3.603789 28.952600 0.018115
-3.289068 28.952600 0.018474
-2.974347 28.952600 0.018663
-2.659626 28.952600 0.018450
-2.344905 28.952600 0.017486
-2.030184 28.952600 0.016903
-1.715463 28.952600 0.017009
-1.400742 28.952600 0.016770
-1.086021 28.952600 0.017023
-0.771300 28.952600 0.017208
-0.456579 28.952600 0.017120
-0.141859 28.952600 0.017089
0.172863 28.952600 0.016576
0.487584 28.952600 0.016632
0.802305 28.952600 0.017018
1.117026 28.952600 0.017657
1.431747 28.952600 0.017613
1.746467 28.952600 0.017414
2.061188 28.952600 0.017481
2.375909 28.952600 0.017105
2.690630 28.952600 0.016535
3.005352 28.952600 0.016447
3.320073 28.952600 0.016580
3.634794 28.952600 0.016146
3.949515 28.952600 0.015949
4.264236 28.952600 0.016239
4.578956 28.952600 0.016833
4.893677 28.952600 0.016922
5.208398 28.952600 0.016843
5.523119 28.952600 0.017759
5.837841 28.952600 0.019769
6.152562 28.952600 0.022559
6.467283 28.952600 0.024865
6.782003 28.952600 0.028717
7.096724 28.952600 0.034813
7.411445 28.952600 0.045193
7.726166 28.952600 0.061980
8.040888 28.952600 0.092198
8.355608 28.952600 0.139886
8.670330 28.952600 0.200859
8.985050 28.952600 0.284815
9.299772 28.952600 0.391091
9.614492 28.952600 0.504233
9.929214 28.952600 0.619941
10.243935 28.952600 0.773357
10.558655 28.952600 0.914578
10.873377 28.952600 1.107463
11.188097 28.952600 1.296829
11.502819 28.952600 1.447719
11.817539 28.952600 1.610233
12.132261 28.952600 1.731570
12.446981 28.952600 1.795504
12.761703 28.952600 1.916709
13.076424 28.952600 1.940295
13.391144 28.952600 1.974747
13.705866 28.952600 2.039724
14.020586 28.952600 1.990779
14.335308 28.952600 1.909937
14.650028 28.952600 1.842457
14.964750 28.952600 1.780515
15.279470 28.952600 1.927153
15.594193 28.952600 2.644294
15.908913 28.952600 4.117431
16.223633 28.952600 0.000000
16.538355 28.952600 0.000000
16.853075 28.952600 0.000000
17.167797 28.952600 0.000000
17.482517 28.952600 0.000000
17.797239 28.952600 0.000000
18.111959 28.952600 0.000000
18.426680 28.952600 0.000000
18.741402 28.952600 0.000000
-7.065720 28.637878 0.000000
-6.750999 28.637878 0.026987
-6.436278 28.637878 0.018521
-6.121557 28.637878 0.018220
-5.806836 28.637878 0.018126
-5.492115 28.637878 0.018198
-5.177394 28.637878 0.018527
-4.862673 28.637878 0.018316
-4.547952 28.637878 0.017959
-4.233231 28.637878 0.018141
-3.918510 28.637878 0.018258
-3.603789 28.637878 0.018354
-3.289068 28.637878 0.018636
-2.974347 28.637878 0.018359
-2.659626 28.637878 0.017752
-2.344905 28.637878 0.017104
-2.030184 28.637878 0.016751
-1.715463 28.637878 0.016907
-1.400742 28.637878 0.016832
-1.086021 28.637878 0.017001
-0.771300 28.637878 0.016964
-0.456579 28.637878 0.016889
-0.141859 28.637878 0.016926
0.172863 28.637878 0.016820
0.487584 28.637878 0.017309
0.802305 28.637878 0.017794
1.117026 28.637878 0.018167
1.431747 28.637878 0.018046
1.746467 28.637878 0.017497
2.061188 28.637878 0.017089
2.375909 28.637878 0.016686
2.690630 28.637878 0.016327
3.005352 28.637878 0.016327
3.320073 28.637878 0.016480
3.634794 28.637878 0.016147
3.949515 28.637878 0.015918
4.264236 28.637878 0.015836
4.578956 28.637878 0.016197
4.893677 28.637878 0.016619
5.208398 28.637878 0.017264
5.523119 28.637878 0.018474
5.837841 28.637878 0.020298
6.152562 28.637878 0.022542
6.467283 28.637878 0.024773
6.782003 28.637878 0.027887
7.096724 28.637878 0.033641
7.411445 28.637878 0.044806
7.726166 28.637878 0.061207
8.040888 28.637878 0.092186
8.355608 28.637878 0.136171
8.670330 28.637878 0.200464
8.985050 28.637878 0.287808
9.299772 28.637878 0.398319
9.614492 28.637878 0.507409
9.929214 28.637878 0.615769
10.243935 28.637878 0.766589
10.558655 28.637878 0.913673
10.873377 28.637878 1.089023
11.188097 28.637878 1.271305
11.502819 28.637878 1.460839
11.817539 28.637878 1.602891
12.132261 28.637878 1.719100
12.446981 28.637878 1.795598
12.761703 28.637878 1.882921
13.076424 28.637878 1.943162
13.391144 28.637878 1.993657
13.705866 28.637878 2.025698
14.020586 28.637878 1.977287
14.335308 28.637878 1.902013
14.650028 28.637878 1.800919
14.964750 28.637878 1.769817
15.279470 28.637878 1.898065
15.594193 28.637878 2.681391
15.908913 28.637878 4.290843
16.223633 28.637878 0.000000
16.538355 28.637878 0.000000
16.853075 28.637878 0.000000
17.167797 28.637878 0.000000
17.482517 28.637878 0.000000
17.797239 28.637878 0.000000
18.111959 28.637878 0.000000
18.426680 28.637878 0.000000
18.741402 28.637878 0.000000
-7.065720 28.323158 0.000000
-6.750999 28.323158 0.027219
-6.436278 28.323158 0.018502
-6.121557 28.323158 0.018250
-5.806836 28.323158 0.017940
-5.492115 28.323158 0.018082
-5.177394 28.323158 0.018606
-4.862673 28.323158 0.018571
-4.547952 28.323158 0.018466
-4.233231 28.323158 0.018551
-3.918510 28.323158 0.018420
-3.603789 28.323158 0.018366
-3.289068 28.323158 0.018456
-2.974347 28.323158 0.017759
-2.659626 28.323158 0.017176
-2.344905 28.323158 0.017127
-2.030184 28.323158 0.017033
-1.715463 28.323158 0.017029
-1.400742 28.323158 0.017088
-1.086021 28.323158 0.016943
-0.771300 28.323158 0.016708
-0.456579 28.323158 0.016691
-0.141859 28.323158 0.017036
0.172863 28.323158 0.017377
0.487584 28.323158 0.017988
0.802305 28.323158 0.018141
1.117026 28.323158 0.018113
1.431747 28.323158 0.017919
1.746467 28.323158 0.017158
2.061188 28.323158 0.016671
2.375909 28.323158 0.016422
2.690630 28.323158 0.016538
3.005352 28.323158 0.016230
3.320073 28.323158 0.016235
3.634794 28.323158 0.016058
3.949515 28.323158 0.015958
4.264236 28.323158 0.015739
4.578956 28.323158 0.016137
4.893677 28.323158 0.016845
5.208398 28.323158 0.018065
5.523119 28.323158 0.019343
5.837841 28.323158 0.020587
6.152562 28.323158 0.022216
6.467283 28.323158 0.024137
6.782003 28.323158 0.027367
7.096724 28.323158 0.033152
7.411445 28.323158 0.043866
7.726166 28.323158 0.060933
8.040888 28.323158 0.093227
8.355608 28.323158 0.136607
8.670330 28.323158 0.199508
8.985050 28.323158 0.281518
9.299772 28.323158 0.396610
9.614492 28.323158 0.511907
9.929214 28.323158 0.634874
10.243935 28.323158 0.766376
10.558655 28.323158 0.909406
10.873377 28.323158 1.087187
11.188097 28.323158 1.273487
11.502819 28.323158 1.450982
11.817539 28.323158 1.594716
12.132261 28.323158 1.695837
12.446981 28.323158 1.830837
12.761703 28.323158 1.902408
13.076424 28.323158 1.955441
13.391144 28.323158 1.996713
13.705866 28.323158 1.970156
14.020586 28.323158 1.941582
14.335308 28.323158 1.893367
14.650028 28.323158 1.800253
14.964750 28.323158 1.806412
15.279470 28.323158 1.957079
15.594193 28.323158 2.633337
15.908913 28.323158 4.189086
16.223633 28.323158 0.000000
16.538355 28.323158 0.000000
16.853075 28.323158 0.000000
17.167797 28.323158 0.000000
17.482517 28.323158 0.000000
17.797239 28.323158 0.000000
18.111959 28.323158 0.000000
18.426680 28.323158 0.000000
18.741402 28.323158 0.000000
-7.065720 28.008438 0.000000
-6.750999 28.008438 0.027375
-6.436278 28.008438 0.018465
-6.121557 28.008438 0.018096
-5.806836 28.008438 0.017985
-5.492115 28.008438 0.018163
-5.177394 28.008438 0.018808
-4.862673 28.008438 0.018884
-4.547952 28.008438 0.018961
-4.233231 28.008438 0.018690
-3.918510 28.008438 0.018284
-3.603789 28.008438 0.018088
-3.289068 28.008438 0.017988
-2.974347 28.008438 0.017344
-2.659626 28.008438 0.017084
-2.344905 28.008438 0.017421
-2.030184 28.008438 0.017425
-1.715463 28.008438 0.017167
-1.400742 28.008438 0.017159
-1.086021 28.008438 0.016938
-0.771300 28.008438 0.016576
-0.456579 28.008438 0.016967
-0.141859 28.008438 0.017491
0.172863 28.008438 0.017890
0.487584 28.008438 0.018176
0.802305 28.008438 0.017872
1.117026 28.008438 0.017362
1.431747 28.008438 0.017122
1.746467 28.008438 0.016609
2.061188 28.008438 0.016467
2.375909 28.008438 0.016453
2.690630 28.008438 0.016678
3.005352 28.008438 0.016315
3.320073 28.008438 0.016000
3.634794 28.008438 0.015908
3.949515 28.008438 0.016117
4.264236 28.008438 0.016149
4.578956 28.008438 0.016643
4.893677 28.008438 0.017352
5.208398 28.008438 0.018584
5.523119 28.008438 0.019625
5.837841 28.008438 0.020367
6.152562 28.008438 0.021452
6.467283 28.008438 0.023618
6.782003 28.008438 0.027040
7.096724 28.008438 0.033148
7.411445 28.008438 0.043204
7.726166 28.008438 0.059849
8.040888 28.008438 0.090511
8.355608 28.008438 0.135883
8.670330 28.008438 0.197524
8.985050 28.008438 0.280025
9.299772 28.008438 0.393393
9.614492 28.008438 0.500423
9.929214 28.008438 0.631618
10.243935 28.008438 0.779266
10.558655 28.008438 0.899994
10.873377 28.008438 1.068099
11.188097 28.008438 1.285662
11.502819 28.008438 1.451743
11.817539 28.008438 1.614967
12.132261 28.008438 1.707993
12.446981 28.008438 1.820881
12.761703 28.008438 1.915348
13.076424 28.008438 1.951286
13.391144 28.008438 1.945305
13.705866 28.008438 1.943913
14.020586 28.008438 1.951425
14.335308 28.008438 1.892011
14.650028 28.008438 1.819399
14.964750 28.008438 1.838404
15.279470 28.008438 1.978452
15.594193 28.008438 2.536383
15.908913 28.008438 3.820125
16.223633 28.008438 0.000000
16.538355 28.008438 0.000000
16.853075 28.008438 0.000000
17.167797 28.008438 0.000000
17.482517 28.008438 0.000000
17.797239 28.008438 0.000000
18.111959 28.008438 0.000000
18.426680 28.008438 0.000000
18.741402 28.008438 0.000000
-7.065720 27.693716 0.000000
-6.750999 27.693716 0.027301
-6.436278 27.693716 0.018634
-6.121557 27.693716 0.018063
-5.806836 27.693716 0.018322
-5.492115 27.693716 0.018616
-5.177394 27.693716 0.019105
-4.862673 27.693716 0.019109
-4.547952 27.693716 0.019012
-4.233231 27.693716 0.018425
-3.918510 27.693716 0.018024
-3.603789 27.693716 0.017718
-3.289068 27.693716 0.017646
-2.974347 27.693716 0.017298
-2.659626 27.693716 0.017286
-2.344905 27.693716 0.017474
-2.030184 27.693716 0.017394
-1.715463 27.693716 0.017174
-1.400742 27.693716 0.017200
-1.086021 27.693716 0.017020
-0.771300 27.693716 0.016983
-0.456579 27.693716 0.017489
-0.141859 27.693716 0.017961
0.172863 27.693716 0.017900
0.487584 27.693716 0.017659
0.802305 27.693716 0.017163
1.117026 27.693716 0.016632
1.431747 27.693716 0.016353
1.746467 27.693716 0.016227
2.061188 27.693716 0.016364
2.375909 27.693716 0.016536
2.690630 27.693716 0.016640
3.005352 27.693716 0.016319
3.320073 27.693716 0.016156
3.634794 27.693716 0.016150
3.949515 27.693716 0.016431
4.264236 27.693716 0.016651
4.578956 27.693716 0.017138
4.893677 27.693716 0.017512
5.208398 27.693716 0.018274
5.523119 27.693716 0.019176
5.837841 27.693716 0.019802
6.152562 27.693716 0.020754
6.467283 27.693716 0.022915
6.782003 27.693716 0.026984
7.096724 27.693716 0.033424
7.411445 27.693716 0.044295
7.726166 27.693716 0.059892
8.040888 27.693716 0.090245
8.355608 27.693716 0.134302
8.670330 27.693716 0.200502
8.985050 27.693716 0.278205
9.299772 27.693716 0.387676
9.614492 27.693716 0.502495
9.929214 27.693716 0.639410
10.243935 27.693716 0.786968
10.558655 27.693716 0.913802
10.873377 27.693716 1.073560
11.188097 27.693716 1.280620
11.502819 27.693716 1.454884
11.817539 27.693716 1.598959
12.132261 27.693716 1.709095
12.446981 27.693716 1.824466
12.761703 27.693716 1.949669
13.076424 27.693716 1.974347
13.391144 27.693716 1.969401
13.705866 27.693716 1.963295
14.020586 27.693716 1.962411
14.335308 27.693716 1.918131
14.650028 27.693716 1.834429
14.964750 27.693716 1.863761
15.279470 27.693716 1.959541
15.594193 27.693716 2.513198
15.908913 27.693716 3.586320
16.223633 27.693716 0.000000
16.538355 27.693716 0.000000
16.853075 27.693716 0.000000
17.167797 27.693716 0.000000
17.482517 27.693716 0.000000
17.797239 27.693716 0.000000
18.111959 27.693716 0.000000
18.426680 27.693716 0.000000
18.741402 27.693716 0.000000
-7.065720 27.378996 0.000000
-6.750999 27.378996 0.027306
-6.436278 27.378996 0.018997
-6.121557 27.378996 0.018565
-5.806836 27.378996 0.018755
-5.492115 27.378996 0.018881
-5.177394 27.378996 0.019101
-4.862673 27.378996 0.018910
-4.547952 27.378996 0.018502
-4.233231 27.378996 0.017974
-3.918510 27.378996 0.017739
-3.603789 27.378996 0.017383
-3.289068 27.378996 0.017543
-2.974347 27.378996 0.017519
-2.659626 27.378996 0.017473
-2.344905 27.378996 0.017292
-2.030184 27.378996 0.017207
-1.715463 27.378996 0.017317
-1.400742 27.378996 0.017524
-1.086021 27.378996 0.017617
-0.771300 27.378996 0.017642
-0.456579 27.378996 0.017808
-0.141859 27.378996 0.017830
0.172863 27.378996 0.017423
0.487584 27.378996 0.016867
0.802305 27.378996 0.016637
1.117026 27.378996 0.016334
1.431747 27.378996 0.016103
1.746467 27.378996 0.016126
2.061188 27.378996 0.016281
2.375909 27.378996 0.016394
2.690630 27.378996 0.016380
3.005352 27.378996 0.016456
3.320073 27.378996 0.016524
3.634794 27.378996 0.016668
3.949515 27.378996 0.016713
4.264236 27.378996 0.016869
4.578956 27.378996 0.017186
4.893677 27.378996 0.017073
5.208398 27.378996 0.017379
5.523119 27.378996 0.018261
5.837841 27.378996 0.019056
6.152562 27.378996 0.020357
6.467283 27.378996 0.022596
6.782003 27.378996 0.026733
7.096724 27.378996 0.033194
7.411445 27.378996 0.044105
7.726166 27.378996 0.060640
8.040888 27.378996 0.090978
8.355608 27.378996 0.135483
8.670330 27.378996 0.198148
8.985050 27.378996 0.279285
9.299772 27.378996 0.383655
9.614492 27.378996 0.508956
9.929214 27.378996 0.642016
10.243935 27.378996 0.776447
10.558655 27.378996 0.920771
10.873377 27.378996 1.078917
11.188097 27.378996 1.260733
11.502819 27.378996 1.424050
11.817539 27.378996 1.585796
12.132261 27.378996 1.698242
12.446981 27.378996 1.857769
12.761703 27.378996 1.969153
13.076424 27.378996 2.000259
13.391144 27.378996 1.981477
13.705866 27.378996 1.981876
14.020586 27.378996 1.969544
14.335308 27.378996 1.921579
14.650028 27.378996 1.882228
14.964750 27.378996 1.865695
15.279470 27.378996 1.999642
15.594193 27.378996 2.441986
15.908913 27.378996 3.432288
16.223633 27.378996 0.000000
16.538355 27.378996 0.000000
16.853075 27.378996 0.000000
17.167797 27.378996 0.000000
17.482517 27.378996 0.000000
17.797239 27.378996 0.000000
18.111959 27.378996 0.000000
18.426680 27.378996 0.000000
18.741402 27.378996 0.000000
-7.065720 27.064274 0.000000
-6.750999 27.064274 0.027360
-6.436278 27.064274 0.019449
-6.121557 27.064274 0.019116
-5.806836 27.064274 0.019091
-5.492115 27.064274 0.018901
-5.177394 27.064274 0.018995
-4.862673 27.064274 0.018549
-4.547952 27.064274 0.018049
-4.233231 27.064274 0.017696
-3.918510 27.064274 0.017679
-3.603789 27.064274 0.017350
-3.289068 27.064274 0.017450
-2.974347 27.064274 0.017555
-2.659626 27.064274 0.017363
-2.344905 27.064274 0.017007
-2.030184 27.064274 0.017103
-1.715463 27.064274 0.017764
-1.400742 27.064274 0.018023
-1.086021 27.064274 0.018144
-0.771300 27.064274 0.018095
-0.456579 27.064274 0.017540
-0.141859 27.064274 0.017259
0.172863 27.064274 0.016682
0.487584 27.064274 0.016429
0.802305 27.064274 0.016511
1.117026 27.064274 0.016549
1.431747 27.064274 0.016054
1.746467 27.064274 0.015953
2.061188 27.064274 0.016163
2.375909 27.064274 0.016115
2.690630 27.064274 0.016174
3.005352 27.064274 0.016571
3.320073 27.064274 0.016832
3.634794 27.064274 0.016930
3.949515 27.064274 0.016818
4.264236 27.064274 0.016581
4.578956 27.064274 0.016578
4.893677 27.064274 0.016340
5.208398 27.064274 0.016571
5.523119 27.064274 0.017523
5.837841 27.064274 0.018591
6.152562 27.064274 0.019971
6.467283 27.064274 0.022607
6.782003 27.064274 0.026550
7.096724 27.064274 0.033071
7.411445 27.064274 0.044692
7.726166 27.064274 0.061396
8.040888 27.064274 0.091504
8.355608 27.064274 0.135096
8.670330 27.064274 0.196446
8.985050 27.064274 0.285130
9.299772 27.064274 0.391541
9.614492 27.064274 0.513087
9.929214 27.064274 0.652331
10.243935 27.064274 0.795734
10.558655 27.064274 0.939644
10.873377 27.064274 1.079926
11.188097 27.064274 1.248110
11.502819 27.064274 1.440522
11.817539 27.064274 1.574171
12.132261 27.064274 1.676988
12.446981 27.064274 1.834517
12.761703 27.064274 1.921617
13.076424 27.064274 1.972025
13.391144 27.064274 1.997235
13.705866 27.064274 2.015508
14.020586 27.064274 1.973538
14.335308 27.064274 1.969250
14.650028 27.064274 1.894407
14.964750 27.064274 1.862041
15.279470 27.064274 1.953068
15.594193 27.064274 2.316763
15.908913 27.064274 3.280981
16.223633 27.064274 0.000000
16.538355 27.064274 0.000000
16.853075 27.064274 0.000000
17.167797 27.064274 0.000000
17.482517 27.064274 0.000000
17.797239 27.064274 0.000000
18.111959 27.064274 0.000000
18.426680 27.064274 0.000000
18.741402 27.064274 0.000000
-7.065720 26.749554 0.000000
-6.750999 26.749554 0.027471
-6.436278 26.749554 0.019565
-6.121557 26.749554 0.019287
-5.806836 26.749554 0.018848
-5.492115 26.749554 0.018729
-5.177394 26.749554 0.018878
-4.862673 26.749554 0.018286
-4.547952 26.749554 0.017801
-4.233231 26.749554 0.017805
-3.918510 26.749554 0.017599
-3.603789 26.749554 0.017232
-3.289068 26.749554 0.017480
-2.974347 26.749554 0.017373
-2.659626 26.749554 0.017195
-2.344905 26.749554 0.016928
-2.030184 26.749554 0.017398
-1.715463 26.749554 0.018289
-1.400742 26.749554 0.018398
-1.086021 26.749554 0.017879
-0.771300 26.749554 0.017505
-0.456579 26.749554 0.016909
-0.141859 26.749554 0.016673
0.172863 26.749554 0.016385
0.487584 26.749554 0.016480
0.802305 26.749554 0.016638
1.117026 26.749554 0.016807
1.431747 26.749554 0.016146
1.746467 26.749554 0.015993
2.061188 26.749554 0.016120
2.375909 26.749554 0.016231
2.690630 26.749554 0.016358
3.005352 26.749554 0.016695
3.320073 26.749554 0.016846
3.634794 26.749554 0.016791
3.949515 26.749554 0.016561
4.264236 26.749554 0.016051
4.578956 26.749554 0.015863
4.893677 26.749554 0.015867
5.208398 26.749554 0.016227
5.523119 26.749554 0.017186
5.837841 26.749554 0.018302
6.152562 26.749554 0.019808
6.467283 26.749554 0.022644
6.782003 26.749554 0.026995
7.096724 26.749554 0.033841
7.411445 26.749554 0.045047
7.726166 26.749554 0.063739
8.040888 26.749554 0.093500
8.355608 26.749554 0.137969
8.670330 26.749554 0.198405
8.985050 26.749554 0.290560
9.299772 26.749554 0.402611
9.614492 26.749554 0.514218
9.929214 26.749554 0.647903
10.243935 26.749554 0.791278
10.558655 26.749554 0.939882
10.873377 26.749554 1.071208
11.188097 26.749554 1.258360
11.502819 26.749554 1.416008
11.817539 26.749554 1.540574
12.132261 26.749554 1.678697
12.446981 26.749554 1.796392
12.761703 26.749554 1.911732
13.076424 26.749554 1.951620
13.391144 26.749554 2.029530
13.705866 26.749554 1.991695
14.020586 26.749554 2.015264
14.335308 26.749554 1.962020
14.650028 26.749554 1.897302
14.964750 26.749554 1.849154
15.279470 26.749554 1.928230
15.594193 26.749554 2.293924
15.908913 26.749554 3.265066
16.223633 26.749554 0.000000
16.538355 26.749554 0.000000
16.853075 26.749554 0.000000
17.167797 26.749554 0.000000
17.482517 26.749554 0.000000
17.797239 26.749554 0.000000
18.111959 26.749554 0.000000
18.426680 26.749554 0.000000
18.741402 26.749554 0.000000
-7.065720 26.434832 0.000000
-6.750999 26.434832 0.027457
-6.436278 26.434832 0.019356
-6.121557 26.434832 0.018988
-5.806836 26.434832 0.018414
-5.492115 26.434832 0.018585
-5.177394 26.434832 0.018770
-4.862673 26.434832 0.018180
-4.547952 26.434832 0.017989
-4.233231 26.434832 0.017910
-3.918510 26.434832 0.017352
-3.603789 26.434832 0.017146
-3.289068 26.434832 0.017669
-2.974347 26.434832 0.017528
-2.659626 26.434832 0.017324
-2.344905 26.434832 0.017375
-2.030184 26.434832 0.017937
-1.715463 26.434832 0.018499
-1.400742 26.434832 0.018104
-1.086021 26.434832 0.017158
-0.771300 26.434832 0.016612
-0.456579 26.434832 0.016414
-0.141859 26.434832 0.016421
0.172863 26.434832 0.016490
0.487584 26.434832 0.016627
0.802305 26.434832 0.016490
1.117026 26.434832 0.016658
1.431747 26.434832 0.016249
1.746467 26.434832 0.016301
2.061188 26.434832 0.016426
2.375909 26.434832 0.016611
2.690630 26.434832 0.016734
3.005352 26.434832 0.016603
3.320073 26.434832 0.016541
3.634794 26.434832 0.016402
3.949515 26.434832 0.016229
4.264236 26.434832 0.015941
4.578956 26.434832 0.015783
4.893677 26.434832 0.015944
5.208398 26.434832 0.016284
5.523119 26.434832 0.017102
5.837841 26.434832 0.018050
6.152562 26.434832 0.019748
6.467283 26.434832 0.023043
6.782003 26.434832 0.027521
7.096724 26.434832 0.034206
7.411445 26.434832 0.045666
7.726166 26.434832 0.065839
8.040888 26.434832 0.095738
8.355608 26.434832 0.139505
8.670330 26.434832 0.204292
8.985050 26.434832 0.294298
9.299772 26.434832 0.393955
9.614492 26.434832 0.515323
9.929214 26.434832 0.663629
10.243935 26.434832 0.805227
10.558655 26.434832 0.950292
10.873377 26.434832 1.086248
11.188097 26.434832 1.262743
11.502819 26.434832 1.427229
11.817539 26.434832 1.558011
12.132261 26.434832 1.649785
12.446981 26.434832 1.816201
12.761703 26.434832 1.908077
13.076424 26.434832 1.949617
13.391144 26.434832 1.989194
13.705866 26.434832 2.044481
14.020586 26.434832 1.986651
14.335308 26.434832 1.957181
14.650028 26.434832 1.869325
14.964750 26.434832 1.856649
15.279470 26.434832 1.917813
15.594193 26.434832 2.317758
15.908913 26.434832 3.232347
16.223633 26.434832 0.000000
16.538355 26.434832 0.000000
16.853075 26.434832 0.000000
17.167797 26.434832 0.000000
17.482517 26.434832 0.000000
17.797239 26.434832 0.000000
18.111959 26.434832 0.000000
18.426680 26.434832 0.000000
18.741402 26.434832 0.000000
-7.065720 26.120111 0.000000
-6.750999 26.120111 0.027168
-6.436278 26.120111 0.019193
-6.121557 26.120111 0.018685
-5.806836 26.120111 0.018373
-5.492115 26.120111 0.018702
-5.177394 26.120111 0.018793
-4.862673 26.120111 0.018386
-4.547952 26.120111 0.018179
-4.233231 26.120111 0.017892
-3.918510 26.120111 0.017335
-3.603789 26.120111 0.017292
-3.289068 26.120111 0.017889
-2.974347 26.120111 0.017980
-2.659626 26.120111 0.017824
-2.344905 26.120111 0.017912
-2.030184 26.120111 0.018061
-1.715463 26.120111 0.018047
-1.400742 26.120111 0.017573
-1.086021 26.120111 0.016568
-0.771300 26.120111 0.016336
-0.456579 26.120111 0.016381
-0.141859 26.120111 0.016563
0.172863 26.120111 0.016515
0.487584 26.120111 0.016411
0.802305 26.120111 0.016172
1.117026 26.120111 0.016316
1.431747 26.120111 0.016536
1.746467 26.120111 0.016800
2.061188 26.120111 0.016812
2.375909 26.120111 0.016787
2.690630 26.120111 0.016627
3.005352 26.120111 0.016219
3.320073 26.120111 0.016128
3.634794 26.120111 0.016044
3.949515 26.120111 0.016131
4.264236 26.120111 0.016199
4.578956 26.120111 0.016154
4.893677 26.120111 0.016290
5.208398 26.120111 0.016476
5.523119 26.120111 0.016978
5.837841 26.120111 0.017848
6.152562 26.120111 0.019834
6.467283 26.120111 0.023251
6.782003 26.120111 0.027455
7.096724 26.120111 0.034146
7.411445 26.120111 0.045600
7.726166 26.120111 0.064959
8.040888 26.120111 0.095724
8.355608 26.120111 0.139887
8.670330 26.120111 0.206508
8.985050 26.120111 0.295834
9.299772 26.120111 0.394733
9.614492 26.120111 0.522556
9.929214 26.120111 0.679699
10.243935 26.120111 0.819829
10.558655 26.120111 0.972908
10.873377 26.120111 1.112157
11.188097 26.120111 1.286549
11.502819 26.120111 1.458793
11.817539 26.120111 1.568903
12.132261 26.120111 1.725522
12.446981 26.120111 1.785020
12.761703 26.120111 1.948701
13.076424 26.120111 2.034286
13.391144 26.120111 2.065808
13.705866 26.120111 2.035121
14.020586 26.120111 2.011014
14.335308 26.120111 1.974440
14.650028 26.120111 1.864311
14.964750 26.120111 1.902469
15.279470 26.120111 1.942592
15.594193 26.120111 2.347909
15.908913 26.120111 3.124739
16.223633 26.120111 0.000000
16.538355 26.120111 0.000000
16.853075 26.120111 0.000000
17.167797 26.120111 0.000000
17.482517 26.120111 0.000000
17.797239 26.120111 0.000000
18.111959 26.120111 0.000000
18.426680 26.120111 0.000000
18.741402 26.120111 0.000000
-7.065720 25.805389 0.000000
-6.750999 25.805389 0.026948
-6.436278 25.805389 0.019140
-6.121557 25.805389 0.018613
-5.806836 25.805389 0.018584
-5.492115 25.805389 0.018633
-5.177394 25.805389 0.018602
-4.862673 25.805389 0.018592
-4.547952 25.805389 0.018232
-4.233231 25.805389 0.017872
-3.918510 25.805389 0.017683
-3.603789 25.805389 0.017739
-3.289068 25.805389 0.018131
-2.974347 25.805389 0.018151
-2.659626 25.805389 0.018062
-2.344905 25.805389 0.017953
-2.030184 25.805389 0.017726
-1.715463 25.805389 0.017559
-1.400742 25.805389 0.017340
-1.086021 25.805389 0.016756
-0.771300 25.805389 0.016616
-0.456579 25.805389 0.016665
-0.141859 25.805389 0.016521
0.172863 25.805389 0.016327
0.487584 25.805389 0.016200
0.802305 25.805389 0.016206
1.117026 25.805389 0.016403
1.431747 25.805389 0.016896
1.746467 25.805389 0.017163
2.061188 25.805389 0.016759
2.375909 25.805389 0.016470
2.690630 25.805389 0.016162
3.005352 25.805389 0.015791
3.320073 25.805389 0.015862
3.634794 25.805389 0.015757
3.949515 25.805389 0.015915
4.264236 25.805389 0.016331
4.578956 25.805389 0.016483
4.893677 25.805389 0.016333
5.208398 25.805389 0.016400
5.523119 25.805389 0.016940
5.837841 25.805389 0.018172
6.152562 25.805389 0.020257
6.467283 25.805389 0.023367
6.782003 25.805389 0.027315
7.096724 25.805389 0.034235
7.411445 25.805389 0.045728
7.726166 25.805389 0.065472
8.040888 25.805389 0.095366
8.355608 25.805389 0.137939
8.670330 25.805389 0.211991
8.985050 25.805389 0.293638
9.299772 25.805389 0.393751
9.614492 25.805389 0.520695
9.929214 25.805389 0.657264
10.243935 25.805389 0.816806
10.558655 25.805389 0.963730
10.873377 25.805389 1.118168
11.188097 25.805389 1.267536
11.502819 25.805389 1.437279
11.817539 25.805389 1.568882
12.132261 25.805389 1.700256
12.446981 25.805389 1.826782
12.761703 25.805389 1.978307
13.076424 25.805389 2.013956
13.391144 25.805389 2.059236
13.705866 25.805389 2.041492
14.020586 25.805389 2.048461
14.335308 25.805389 1.967046
14.650028 25.805389 1.870036
14.964750 25.805389 1.856070
15.279470 25.805389 1.931539
15.594193 25.805389 2.259171
15.908913 25.805389 3.187936
16.223633 25.805389 0.000000
16.538355 25.805389 0.000000
16.853075 25.805389 0.000000
17.167797 25.805389 0.000000
17.482517 25.805389 0.000000
17.797239 25.805389 0.000000
18.111959 25.805389 0.000000
18.426680 25.805389 0.000000
18.741402 25.805389 0.000000
-7.065720 25.490669 0.000000
-6.750999 25.490669 0.026904
-6.436278 25.490669 0.019121
-6.121557 25.490669 0.018597
-5.806836 25.490669 0.018573
-5.492115 25.490669 0.018252
-5.177394 25.490669 0.018321
-4.862673 25.490669 0.018582
-4.547952 25.490669 0.018281
-4.233231 25.490669 0.018111
-3.918510 25.490669 0.018234
-3.603789 25.490669 0.018185
-3.289068 25.490669 0.018169
-2.974347 25.490669 0.018091
-2.659626 25.490669 0.017944
-2.344905 25.490669 0.017560
-2.030184 25.490669 0.017378
-1.715463 25.490669 0.017462
-1.400742 25.490669 0.017402
-1.086021 25.490669 0.017143
-0.771300 25.490669 0.016949
-0.456579 25.490669 0.016617
-0.141859 25.490669 0.016302
0.172863 25.490669 0.016129
0.487584 25.490669 0.016431
0.802305 25.490669 0.016771
1.117026 25.490669 0.016831
1.431747 25.490669 0.016975
1.746467 25.490669 0.016794
2.061188 25.490669 0.016282
2.375909 25.490669 0.015933
2.690630 25.490669 0.015662
3.005352 25.490669 0.015538
3.320073 25.490669 0.015740
3.634794 25.490669 0.015545
3.949515 25.490669 0.015400
4.264236 25.490669 0.016003
4.578956 25.490669 0.016352
4.893677 25.490669 0.016139
5.208398 25.490669 0.016444
5.523119 25.490669 0.017417
5.837841 25.490669 0.018738
6.152562 25.490669 0.020614
6.467283 25.490669 0.023066
6.782003 25.490669 0.026981
7.096724 25.490669 0.033933
7.411445 25.490669 0.046082
7.726166 25.490669 0.065028
8.040888 25.490669 0.097605
8.355608 25.490669 0.142484
8.670330 25.490669 0.209551
8.985050 25.490669 0.295405
9.299772 25.490669 0.391718
9.614492 25.490669 0.524911
9.929214 25.490669 0.660757
10.243935 25.490669 0.816152
10.558655 25.490669 0.970026
10.873377 25.490669 1.118641
11.188097 25.490669 1.249301
11.502819 25.490669 1.422503
11.817539 25.490669 1.575675
12.132261 25.490669 1.694037
12.446981 25.490669 1.837766
12.761703 25.490669 1.910788
13.076424 25.490669 2.018659
13.391144 25.490669 2.086501
13.705866 25.490669 2.060727
14.020586 25.490669 2.017725
14.335308 25.490669 1.976708
14.650028 25.490669 1.903376
14.964750 25.490669 1.864013
15.279470 25.490669 1.913734
15.594193 25.490669 2.355670
15.908913 25.490669 3.133758
16.223633 25.490669 0.000000
16.538355 25.490669 0.000000
16.853075 25.490669 0.000000
17.167797 25.490669 0.000000
17.482517 25.490669 0.000000
17.797239 25.490669 0.000000
18.111959 25.490669 0.000000
18.426680 25.490669 0.000000
18.741402 25.490669 0.000000
-7.065720 25.175949 0.000000
-6.750999 25.175949 0.027325
-6.436278 25.175949 0.019203
-6.121557 25.175949 0.018591
-5.806836 25.175949 0.018452
-5.492115 25.175949 0.018017
-5.177394 25.175949 0.018353
-4.862673 25.175949 0.018807
-4.547952 25.175949 0.018483
-4.233231 25.175949 0.018316
-3.918510 25.175949 0.018467
-3.603789 25.175949 0.018058
-3.289068 25.175949 0.017869
-2.974347 25.175949 0.017795
-2.659626 25.175949 0.017576
-2.344905 25.175949 0.017169
-2.030184 25.175949 0.017262
-1.715463 25.175949 0.017592
-1.400742 25.175949 0.017389
-1.086021 25.175949 0.017214
-0.771300 25.175949 0.017010
-0.456579 25.175949 0.016603
-0.141859 25.175949 0.016357
0.172863 25.175949 0.016496
0.487584 25.175949 0.016859
0.802305 25.175949 0.017345
1.117026 25.175949 0.016930
1.431747 25.175949 0.016469
1.746467 25.175949 0.015968
2.061188 25.175949 0.015670
2.375909 25.175949 0.015454
2.690630 25.175949 0.015399
3.005352 25.175949 0.015414
3.320073 25.175949 0.015507
3.634794 25.175949 0.015227
3.949515 25.175949 0.014803
4.264236 25.175949 0.015546
4.578956 25.175949 0.016065
4.893677 25.175949 0.016147
5.208398 25.175949 0.016729
5.523119 25.175949 0.017864
5.837841 25.175949 0.019075
6.152562 25.175949 0.020514
6.467283 25.175949 0.022748
6.782003 25.175949 0.026596
7.096724 25.175949 0.033179
7.411445 25.175949 0.046001
7.726166 25.175949 0.068100
8.040888 25.175949 0.098526
8.355608 25.175949 0.145235
8.670330 25.175949 0.207659
8.985050 25.175949 0.294575
9.299772 25.175949 0.399819
9.614492 25.175949 0.527409
9.929214 25.175949 0.665950
10.243935 25.175949 0.816284
10.558655 25.175949 0.961058
10.873377 25.175949 1.098754
11.188097 25.175949 1.261880
11.502819 25.175949 1.414437
11.817539 25.175949 1.570893
12.132261 25.175949 1.712570
12.446981 25.175949 1.836980
12.761703 25.175949 1.928812
13.076424 25.175949 2.038443
13.391144 25.175949 2.061950
13.705866 25.175949 2.089278
14.020586 25.175949 2.017074
14.335308 25.175949 1.966647
14.650028 25.175949 1.928769
14.964750 25.175949 1.877803
15.279470 25.175949 1.935793
15.594193 25.175949 2.387849
15.908913 25.175949 3.204206
16.223633 25.175949 0.000000
16.538355 25.175949 0.000000
16.853075 25.175949 0.000000
17.167797 25.175949 0.000000
17.482517 25.175949 0.000000
17.797239 25.175949 0.000000
18.111959 25.175949 0.000000
18.426680 25.175949 0.000000
18.741402 25.175949 0.000000
-7.065720 24.861227 0.000000
-6.750999 24.861227 0.027087
-6.436278 24.861227 0.019173
-6.121557 24.861227 0.018772
-5.806836 24.861227 0.018406
-5.492115 24.861227 0.018373
-5.177394 24.861227 0.018975
-4.862673 24.861227 0.019044
-4.547952 24.861227 0.018534
-4.233231 24.861227 0.018220
-3.918510 24.861227 0.017974
-3.603789 24.861227 0.017562
-3.289068 24.861227 0.017614
-2.974347 24.861227 0.017473
-2.659626 24.861227 0.017404
-2.344905 24.861227 0.017091
-2.030184 24.861227 0.017159
-1.715463 24.861227 0.017498
-1.400742 24.861227 0.017304
-1.086021 24.861227 0.017052
-0.771300 24.861227 0.016998
-0.456579 24.861227 0.016878
-0.141859 24.861227 0.016857
0.172863 24.861227 0.016956
0.487584 24.861227 0.017141
0.802305 24.861227 0.017263
1.117026 24.861227 0.016626
1.431747 24.861227 0.015906
1.746467 24.861227 0.015498
2.061188 24.861227 0.015348
2.375909 24.861227 0.015317
2.690630 24.861227 0.015323
3.005352 24.861227 0.015234
3.320073 24.861227 0.015241
3.634794 24.861227 0.015014
3.949515 24.861227 0.014916
4.264236 24.861227 0.015450
4.578956 24.861227 0.015946
4.893677 24.861227 0.016157
5.208398 24.861227 0.016772
5.523119 24.861227 0.017692
5.837841 24.861227 0.018799
6.152562 24.861227 0.020058
6.467283 24.861227 0.022575
6.782003 24.861227 0.026694
7.096724 24.861227 0.033361
7.411445 24.861227 0.045373
7.726166 24.861227 0.067329
8.040888 24.861227 0.100623
8.355608 24.861227 0.146395
8.670330 24.861227 0.208109
8.985050 24.861227 0.295910
9.299772 24.861227 0.399496
9.614492 24.861227 0.533865
9.929214 24.861227 0.667033
10.243935 24.861227 0.811690
10.558655 24.861227 0.963918
10.873377 24.861227 1.115841
11.188097 24.861227 1.267119
11.502819 24.861227 1.402300
11.817539 24.861227 1.577597
12.132261 24.861227 1.728575
12.446981 24.861227 1.853103
12.761703 24.861227 1.934272
13.076424 24.861227 2.045837
13.391144 24.861227 2.062152
13.705866 24.861227 2.046395
14.020586 24.861227 2.057122
14.335308 24.861227 1.963969
14.650028 24.861227 1.905649
14.964750 24.861227 1.879568
15.279470 24.861227 2.014582
15.594193 24.861227 2.369806
15.908913 24.861227 3.152942
16.223633 24.861227 0.000000
16.538355 24.861227 0.000000
16.853075 24.861227 0.000000
17.167797 24.861227 0.000000
17.482517 24.861227 0.000000
17.797239 24.861227 0.000000
18.111959 24.861227 0.000000
18.426680 24.861227 0.000000
18.741402 24.861227 0.000000
-7.065720 24.546507 0.000000
-6.750999 24.546507 0.027010
-6.436278 24.546507 0.019257
-6.121557 24.546507 0.019056
-5.806836 24.546507 0.018700
-5.492115 24.546507 0.018975
-5.177394 24.546507 0.019403
-4.862673 24.546507 0.018978
-4.547952 24.546507 0.018384
-4.233231 24.546507 0.017955
-3.918510 24.546507 0.017374
-3.603789 24.546507 0.017305
-3.289068 24.546507 0.017561
-2.974347 24.546507 0.017363
-2.659626 24.546507 0.017445
-2.344905 24.546507 0.017084
-2.030184 24.546507 0.017170
-1.715463 24.546507 0.017329
-1.400742 24.546507 0.017277
-1.086021 24.546507 0.017081
-0.771300 24.546507 0.017120
-0.456579 24.546507 0.017230
-0.141859 24.546507 0.017240
0.172863 24.546507 0.017056
0.487584 24.546507 0.016932
0.802305 24.546507 0.016764
1.117026 24.546507 0.016106
1.431747 24.546507 0.015715
1.746467 24.546507 0.015635
2.061188 24.546507 0.015440
2.375909 24.546507 0.015415
2.690630 24.546507 0.015118
3.005352 24.546507 0.015151
3.320073 24.546507 0.015139
3.634794 24.546507 0.015142
3.949515 24.546507 0.015248
4.264236 24.546507 0.015446
4.578956 24.546507 0.015728
4.893677 24.546507 0.015971
5.208398 24.546507 0.016422
5.523119 24.546507 0.017162
5.837841 24.546507 0.018261
6.152562 24.546507 0.019929
6.467283 24.546507 0.022733
6.782003 24.546507 0.026534
7.096724 24.546507 0.032959
7.411445 24.546507 0.044240
7.726166 24.546507 0.065861
8.040888 24.546507 0.097079
8.355608 24.546507 0.144252
8.670330 24.546507 0.212704
8.985050 24.546507 0.295944
9.299772 24.546507 0.402006
9.614492 24.546507 0.520640
9.929214 24.546507 0.661431
10.243935 24.546507 0.814510
10.558655 24.546507 0.975856
10.873377 24.546507 1.109181
11.188097 24.546507 1.259844
11.502819 24.546507 1.393866
11.817539 24.546507 1.566215
12.132261 24.546507 1.710704
12.446981 24.546507 1.860827
12.761703 24.546507 1.942886
13.076424 24.546507 2.031006
13.391144 24.546507 2.061629
13.705866 24.546507 2.037197
14.020586 24.546507 2.003558
14.335308 24.546507 1.968268
14.650028 24.546507 1.941753
14.964750 24.546507 1.925864
15.279470 24.546507 1.993034
15.594193 24.546507 2.407955
15.908913 24.546507 3.134144
16.223633 24.546507 0.000000
16.538355 24.546507 0.000000
16.853075 24.546507 0.000000
17.167797 24.546507 0.000000
17.482517 24.546507 0.000000
17.797239 24.546507 0.000000
18.111959 24.546507 0.000000
18.426680 24.546507 0.000000
18.741402 24.546507 0.000000
-7.065720 24.231785 0.000000
-6.750999 24.231785 0.027452
-6.436278 24.231785 0.019909
-6.121557 24.231785 0.019424
-5.806836 24.231785 0.018908
-5.492115 24.231785 0.019128
-5.177394 24.231785 0.019095
-4.862673 24.231785 0.018566
-4.547952 24.231785 0.018081
-4.233231 24.231785 0.017834
-3.918510 24.231785 0.017319
-3.603789 24.231785 0.017321
-3.289068 24.231785 0.017507
-2.974347 24.231785 0.017205
-2.659626 24.231785 0.017294
-2.344905 24.231785 0.017074
-2.030184 24.231785 0.017266
-1.715463 24.231785 0.017555
-1.400742 24.231785 0.017457
-1.086021 24.231785 0.017333
-0.771300 24.231785 0.017242
-0.456579 24.231785 0.017306
-0.141859 24.231785 0.017165
0.172863 24.231785 0.016819
0.487584 24.231785 0.016391
0.802305 24.231785 0.016303
1.117026 24.231785 0.015959
1.431747 24.231785 0.015825
1.746467 24.231785 0.015864
2.061188 24.231785 0.015597
2.375909 24.231785 0.015398
2.690630 24.231785 0.014999
3.005352 24.231785 0.015274
3.320073 24.231785 0.015354
3.634794 24.231785 0.015437
3.949515 24.231785 0.015457
4.264236 24.231785 0.015266
4.578956 24.231785 0.015346
4.893677 24.231785 0.015737
5.208398 24.231785 0.016179
5.523119 24.231785 0.016790
5.837841 24.231785 0.018001
6.152562 24.231785 0.019864
6.467283 24.231785 0.022568
6.782003 24.231785 0.026231
7.096724 24.231785 0.033149
7.411445 24.231785 0.043699
7.726166 24.231785 0.064069
8.040888 24.231785 0.093734
8.355608 24.231785 0.142124
8.670330 24.231785 0.209298
8.985050 24.231785 0.294927
9.299772 24.231785 0.400327
9.614492 24.231785 0.520015
9.929214 24.231785 0.664714
10.243935 24.231785 0.821887
10.558655 24.231785 0.975458
10.873377 24.231785 1.129525
11.188097 24.231785 1.286465
11.502819 24.231785 1.426930
11.817539 24.231785 1.581917
12.132261 24.231785 1.749293
12.446981 24.231785 1.820366
12.761703 24.231785 1.963504
13.076424 24.231785 2.039309
13.391144 24.231785 2.070034
13.705866 24.231785 2.032224
14.020586 24.231785 2.001018
14.335308 24.231785 2.034180
14.650028 24.231785 1.987391
14.964750 24.231785 1.902818
15.279470 24.231785 2.002142
15.594193 24.231785 2.406395
15.908913 24.231785 3.230379
16.223633 24.231785 0.000000
16.538355 24.231785 0.000000
16.853075 24.231785 0.000000
17.167797 24.231785 0.000000
17.482517 24.231785 0.000000
17.797239 24.231785 0.000000
18.111959 24.231785 0.000000
18.426680 24.231785 0.000000
18.741402 24.231785 0.000000
-7.065720 23.917065 0.000000
-6.750999 23.917065 0.028362
-6.436278 23.917065 0.020489
-6.121557 23.917065 0.019479
-5.806836 23.917065 0.018815
-5.492115 23.917065 0.018720
-5.177394 23.917065 0.018532
-4.862673 23.917065 0.018236
-4.547952 23.917065 0.018076
-4.233231 23.917065 0.017977
-3.918510 23.917065 0.017669
-3.603789 23.917065 0.017505
-3.289068 23.917065 0.017219
-2.974347 23.917065 0.016958
-2.659626 23.917065 0.017112
-2.344905 23.917065 0.017244
-2.030184 23.917065 0.017579
-1.715463 23.917065 0.017835
-1.400742 23.917065 0.017564
-1.086021 23.917065 0.017247
-0.771300 23.917065 0.017151
-0.456579 23.917065 0.017012
-0.141859 23.917065 0.016853
0.172863 23.917065 0.016505
0.487584 23.917065 0.016082
0.802305 23.917065 0.016211
1.117026 23.917065 0.016042
1.431747 23.917065 0.015810
1.746467 23.917065 0.015791
2.061188 23.917065 0.015575
2.375909 23.917065 0.015512
2.690630 23.917065 0.015177
3.005352 23.917065 0.015512
3.320073 23.917065 0.015497
3.634794 23.917065 0.015497
3.949515 23.917065 0.015350
4.264236 23.917065 0.015074
4.578956 23.917065 0.015169
4.893677 23.917065 0.015710
5.208398 23.917065 0.016055
5.523119 23.917065 0.016624
5.837841 23.917065 0.017736
6.152562 23.917065 0.019744
6.467283 23.917065 0.021997
6.782003 23.917065 0.025811
7.096724 23.917065 0.033026
7.411445 23.917065 0.044155
7.726166 23.917065 0.066506
8.040888 23.917065 0.098707
8.355608 23.917065 0.144071
8.670330 23.917065 0.216163
8.985050 23.917065 0.298550
9.299772 23.917065 0.396374
9.614492 23.917065 0.517549
9.929214 23.917065 0.661821
10.243935 23.917065 0.815815
10.558655 23.917065 0.973790
10.873377 23.917065 1.144948
11.188097 23.917065 1.293715
11.502819 23.917065 1.462966
11.817539 23.917065 1.627823
12.132261 23.917065 1.762785
12.446981 23.917065 1.847579
12.761703 23.917065 1.938950
13.076424 23.917065 2.006187
13.391144 23.917065 2.058453
13.705866 23.917065 2.015063
14.020586 23.917065 1.987585
14.335308 23.917065 2.067561
14.650028 23.917065 1.986005
14.964750 23.917065 1.921772
15.279470 23.917065 2.034883
15.594193 23.917065 2.434675
15.908913 23.917065 3.173074
16.223633 23.917065 0.000000
16.538355 23.917065 0.000000
16.853075 23.917065 0.000000
17.167797 23.917065 0.000000
17.482517 23.917065 0.000000
17.797239 23.917065 0.000000
18.111959 23.917065 0.000000
18.426680 23.917065 0.000000
18.741402 23.917065 0.000000
-7.065720 23.602343 0.000000
-6.750999 23.602343 0.028540
-6.436278 23.602343 0.020212
-6.121557 23.602343 0.019039
-5.806836 23.602343 0.018568
-5.492115 23.602343 0.018258
-5.177394 23.602343 0.018323
-4.862673 23.602343 0.018499
-4.547952 23.602343 0.018134
-4.233231 23.602343 0.017961
-3.918510 23.602343 0.017757
-3.603789 23.602343 0.017419
-3.289068 23.602343 0.017207
-2.974347 23.602343 0.017276
-2.659626 23.602343 0.017491
-2.344905 23.602343 0.017641
-2.030184 23.602343 0.017798
-1.715463 23.602343 0.017888
-1.400742 23.602343 0.017424
-1.086021 23.602343 0.016925
-0.771300 23.602343 0.016876
-0.456579 23.602343 0.016727
-0.141859 23.602343 0.016720
0.172863 23.602343 0.016326
0.487584 23.602343 0.016103
0.802305 23.602343 0.016383
1.117026 23.602343 0.015957
1.431747 23.602343 0.015660
1.746467 23.602343 0.015686
2.061188 23.602343 0.015645
2.375909 23.602343 0.015530
2.690630 23.602343 0.015307
3.005352 23.602343 0.015507
3.320073 23.602343 0.015358
3.634794 23.602343 0.015242
3.949515 23.602343 0.015008
4.264236 23.602343 0.015097
4.578956 23.602343 0.015354
4.893677 23.602343 0.015704
5.208398 23.602343 0.016029
5.523119 23.602343 0.016461
5.837841 23.602343 0.017530
6.152562 23.602343 0.019435
6.467283 23.602343 0.022040
6.782003 23.602343 0.026004
7.096724 23.602343 0.033058
7.411445 23.602343 0.045941
7.726166 23.602343 0.066770
8.040888 23.602343 0.099411
8.355608 23.602343 0.147404
8.670330 23.602343 0.217527
8.985050 23.602343 0.304877
9.299772 23.602343 0.402335
9.614492 23.602343 0.515701
9.929214 23.602343 0.663811
10.243935 23.602343 0.806413
10.558655 23.602343 0.968202
10.873377 23.602343 1.145767
11.188097 23.602343 1.313790
11.502819 23.602343 1.476986
11.817539 23.602343 1.611611
12.132261 23.602343 1.742175
12.446981 23.602343 1.830959
12.761703 23.602343 1.957995
13.076424 23.602343 2.053676
13.391144 23.602343 2.025061
13.705866 23.602343 2.007288
14.020586 23.602343 2.027859
14.335308 23.602343 2.066993
14.650028 23.602343 1.998097
14.964750 23.602343 1.939852
15.279470 23.602343 2.066208
15.594193 23.602343 2.471886
15.908913 23.602343 3.271397
16.223633 23.602343 0.000000
16.538355 23.602343 0.000000
16.853075 23.602343 0.000000
17.167797 23.602343 0.000000
17.482517 23.602343 0.000000
17.797239 23.602343 0.000000
18.111959 23.602343 0.000000
18.426680 23.602343 0.000000
18.741402 23.602343 0.000000
-7.065720 23.287622 0.000000
-6.750999 23.287622 0.028049
-6.436278 23.287622 0.019596
-6.121557 23.287622 0.018702
-5.806836 23.287622 0.018551
-5.492115 23.287622 0.018251
-5.177394 23.287622 0.018571
-4.862673 23.287622 0.018526
-4.547952 23.287622 0.017863
-4.233231 23.287622 0.017671
-3.918510 23.287622 0.017608
-3.603789 23.287622 0.017495
-3.289068 23.287622 0.017788
-2.974347 23.287622 0.018083
-2.659626 23.287622 0.017917
-2.344905 23.287622 0.017537
-2.030184 23.287622 0.017637
-1.715463 23.287622 0.017733
-1.400742 23.287622 0.017187
-1.086021 23.287622 0.016760
-0.771300 23.287622 0.016896
-0.456579 23.287622 0.016688
-0.141859 23.287622 0.016598
0.172863 23.287622 0.016167
0.487584 23.287622 0.015998
0.802305 23.287622 0.016270
1.117026 23.287622 0.015714
1.431747 23.287622 0.015618
1.746467 23.287622 0.015619
2.061188 23.287622 0.015669
2.375909 23.287622 0.015306
2.690630 23.287622 0.015073
3.005352 23.287622 0.015218
3.320073 23.287622 0.015110
3.634794 23.287622 0.015067
3.949515 23.287622 0.014938
4.264236 23.287622 0.015187
4.578956 23.287622 0.015318
4.893677 23.287622 0.015434
5.208398 23.287622 0.015761
5.523119 23.287622 0.016483
5.837841 23.287622 0.017471
6.152562 23.287622 0.019235
6.467283 23.287622 0.022494
6.782003 23.287622 0.026615
7.096724 23.287622 0.033568
7.411445 23.287622 0.047106
7.726166 23.287622 0.068300
8.040888 23.287622 0.101966
8.355608 23.287622 0.149563
8.670330 23.287622 0.220607
8.985050 23.287622 0.308187
9.299772 23.287622 0.405476
9.614492 23.287622 0.515940
9.929214 23.287622 0.658085
10.243935 23.287622 0.801389
10.558655 23.287622 0.984333
10.873377 23.287622 1.139507
11.188097 23.287622 1.300573
11.502819 23.287622 1.464421
11.817539 23.287622 1.606995
12.132261 23.287622 1.729912
12.446981 23.287622 1.841341
12.761703 23.287622 1.942104
13.076424 23.287622 2.023280
13.391144 23.287622 2.050648
13.705866 23.287622 2.029451
14.020586 23.287622 2.030862
14.335308 23.287622 2.071234
14.650028 23.287622 1.979469
14.964750 23.287622 1.994646
15.279470 23.287622 2.125129
15.594193 23.287622 2.514771
15.908913 23.287622 3.234539
16.223633 23.287622 0.000000
16.538355 23.287622 0.000000
16.853075 23.287622 0.000000
17.167797 23.287622 0.000000
17.482517 23.287622 0.000000
17.797239 23.287622 0.000000
18.111959 23.287622 0.000000
18.426680 23.287622 0.000000
18.741402 23.287622 0.000000
-7.065720 22.972902 0.000000
-6.750999 22.972902 0.027354
-6.436278 22.972902 0.019299
-6.121557 22.972902 0.018974
-5.806836 22.972902 0.018992
-5.492115 22.972902 0.018509
-5.177394 22.972902 0.018608
-4.862673 22.972902 0.018252
-4.547952 22.972902 0.017575
-4.233231 22.972902 0.017590
-3.918510 22.972902 0.017685
-3.603789 22.972902 0.017825
-3.289068 22.972902 0.018503
-2.974347 22.972902 0.018496
-2.659626 22.972902 0.017683
-2.344905 22.972902 0.016971
-2.030184 22.972902 0.017301
-1.715463 22.972902 0.017558
-1.400742 22.972902 0.017181
-1.086021 22.972902 0.016769
-0.771300 22.972902 0.016719
-0.456579 22.972902 0.016443
-0.141859 22.972902 0.016244
0.172863 22.972902 0.015947
0.487584 22.972902 0.015727
0.802305 22.972902 0.016086
1.117026 22.972902 0.015912
1.431747 22.972902 0.015895
1.746467 22.972902 0.015601
2.061188 22.972902 0.015353
2.375909 22.972902 0.014975
2.690630 22.972902 0.014981
3.005352 22.972902 0.014976
3.320073 22.972902 0.015030
3.634794 22.972902 0.015139
3.949515 22.972902 0.014957
4.264236 22.972902 0.014883
4.578956 22.972902 0.014877
4.893677 22.972902 0.015028
5.208398 22.972902 0.015446
5.523119 22.972902 0.016494
5.837841 22.972902 0.017816
6.152562 22.972902 0.019504
6.467283 22.972902 0.022727
6.782003 22.972902 0.027034
7.096724 22.972902 0.034072
7.411445 22.972902 0.046607
7.726166 22.972902 0.069839
8.040888 22.972902 0.102344
8.355608 22.972902 0.153091
8.670330 22.972902 0.219323
8.985050 22.972902 0.308537
9.299772 22.972902 0.415485
9.614492 22.972902 0.530323
9.929214 22.972902 0.653348
10.243935 22.972902 0.810206
10.558655 22.972902 0.981510
10.873377 22.972902 1.129299
11.188097 22.972902 1.272917
11.502819 22.972902 1.430087
11.817539 22.972902 1.606849
12.132261 22.972902 1.778494
12.446981 22.972902 1.853441
12.761703 22.972902 1.955543
13.076424 22.972902 2.003964
13.391144 22.972902 2.086262
13.705866 22.972902 2.064468
14.020586 22.972902 2.040948
14.335308 22.972902 2.041646
14.650028 22.972902 1.961356
14.964750 22.972902 1.984194
15.279470 22.972902 2.152197
15.594193 22.972902 2.620195
15.908913 22.972902 3.177700
16.223633 22.972902 0.000000
16.538355 22.972902 0.000000
16.853075 22.972902 0.000000
17.167797 22.972902 0.000000
17.482517 22.972902 0.000000
17.797239 22.972902 0.000000
18.111959 22.972902 0.000000
18.426680 22.972902 0.000000
18.741402 22.972902 0.000000
-7.065720 22.658180 0.000000
-6.750999 22.658180 0.027026
-6.436278 22.658180 0.019244
-6.121557 22.658180 0.019076
-5.806836 22.658180 0.019016
-5.492115 22.658180 0.018805
-5.177394 22.658180 0.018681
-4.862673 22.658180 0.018141
-4.547952 22.658180 0.017832
-4.233231 22.658180 0.018008
-3.918510 22.658180 0.018032
-3.603789 22.658180 0.018067
-3.289068 22.658180 0.018554
-2.974347 22.658180 0.018143
-2.659626 22.658180 0.017143
-2.344905 22.658180 0.016640
-2.030184 22.658180 0.017090
-1.715463 22.658180 0.017578
-1.400742 22.658180 0.017169
-1.086021 22.658180 0.016624
-0.771300 22.658180 0.016247
-0.456579 22.658180 0.015907
-0.141859 22.658180 0.015898
0.172863 22.658180 0.015798
0.487584 22.658180 0.015782
0.802305 22.658180 0.016016
1.117026 22.658180 0.016054
1.431747 22.658180 0.016149
1.746467 22.658180 0.015606
2.061188 22.658180 0.015088
2.375909 22.658180 0.015014
2.690630 22.658180 0.015060
3.005352 22.658180 0.014887
3.320073 22.658180 0.014830
3.634794 22.658180 0.015074
3.949515 22.658180 0.014888
4.264236 22.658180 0.014539
4.578956 22.658180 0.014397
4.893677 22.658180 0.014730
5.208398 22.658180 0.015318
5.523119 22.658180 0.016307
5.837841 22.658180 0.017729
6.152562 22.658180 0.019563
6.467283 22.658180 0.022899
6.782003 22.658180 0.026973
7.096724 22.658180 0.034148
7.411445 22.658180 0.046285
7.726166 22.658180 0.068015
8.040888 22.658180 0.103435
8.355608 22.658180 0.151410
8.670330 22.658180 0.217211
8.985050 22.658180 0.306934
9.299772 22.658180 0.413447
9.614492 22.658180 0.537275
9.929214 22.658180 0.655139
10.243935 22.658180 0.810563
10.558655 22.658180 0.994008
10.873377 22.658180 1.147985
11.188097 22.658180 1.281859
11.502819 22.658180 1.422579
11.817539 22.658180 1.611202
12.132261 22.658180 1.791162
12.446981 22.658180 1.887429
12.761703 22.658180 1.982393
13.076424 22.658180 2.018865
13.391144 22.658180 2.068061
13.705866 22.658180 2.106009
14.020586 22.658180 2.073553
14.335308 22.658180 1.995443
14.650028 22.658180 1.992872
14.964750 22.658180 2.014302
15.279470 22.658180 2.150400
15.594193 22.658180 2.556946
15.908913 22.658180 3.007679
16.223633 22.658180 0.000000
16.538355 22.658180 0.000000
16.853075 22.658180 0.000000
17.167797 22.658180 0.000000
17.482517 22.658180 0.000000
17.797239 22.658180 0.000000
18.111959 22.658180 0.000000
18.426680 22.658180 0.000000
18.741402 22.658180 0.000000
-7.065720 22.343460 0.000000
-6.750999 22.343460 0.026496
-6.436278 22.343460 0.019114
-6.121557 22.343460 0.018769
-5.806836 22.343460 0.018734
-5.492115 22.343460 0.018949
-5.177394 22.343460 0.018927
-4.862673 22.343460 0.018528
-4.547952 22.343460 0.018311
-4.233231 22.343460 0.018306
-3.918510 22.343460 0.018039
-3.603789 22.343460 0.017804
-3.289068 22.343460 0.017970
-2.974347 22.343460 0.017532
-2.659626 22.343460 0.016959
-2.344905 22.343460 0.016834
-2.030184 22.343460 0.017266
-1.715463 22.343460 0.017398
-1.400742 22.343460 0.016976
-1.086021 22.343460 0.016479
-0.771300 22.343460 0.016021
-0.456579 22.343460 0.015778
-0.141859 22.343460 0.015909
0.172863 22.343460 0.015762
0.487584 22.343460 0.015610
0.802305 22.343460 0.015749
1.117026 22.343460 0.015946
1.431747 22.343460 0.016275
1.746467 22.343460 0.015759
2.061188 22.343460 0.015201
2.375909 22.343460 0.015191
2.690630 22.343460 0.015086
3.005352 22.343460 0.014694
3.320073 22.343460 0.014481
3.634794 22.343460 0.014792
3.949515 22.343460 0.014721
4.264236 22.343460 0.014481
4.578956 22.343460 0.014609
4.893677 22.343460 0.014771
5.208398 22.343460 0.015200
5.523119 22.343460 0.016064
5.837841 22.343460 0.017518
6.152562 22.343460 0.019916
6.467283 22.343460 0.023080
6.782003 22.343460 0.027459
7.096724 22.343460 0.034324
7.411445 22.343460 0.046637
7.726166 22.343460 0.067446
8.040888 22.343460 0.101700
8.355608 22.343460 0.150207
8.670330 22.343460 0.215001
8.985050 22.343460 0.305170
9.299772 22.343460 0.417614
9.614492 22.343460 0.539656
9.929214 22.343460 0.663621
10.243935 22.343460 0.811156
10.558655 22.343460 0.978032
10.873377 22.343460 1.153279
11.188097 22.343460 1.311924
11.502819 22.343460 1.421979
11.817539 22.343460 1.610822
12.132261 22.343460 1.789060
12.446981 22.343460 1.882515
12.761703 22.343460 1.980952
13.076424 22.343460 2.020857
13.391144 22.343460 2.122803
13.705866 22.343460 2.070110
14.020586 22.343460 2.058337
14.335308 22.343460 2.015104
14.650028 22.343460 1.989715
14.964750 22.343460 1.994189
15.279470 22.343460 2.175917
15.594193 22.343460 2.575773
15.908913 22.343460 3.032337
16.223633 22.343460 0.000000
16.538355 22.343460 0.000000
16.853075 22.343460 0.000000
17.167797 22.343460 0.000000
17.482517 22.343460 0.000000
17.797239 22.343460 0.000000
18.111959 22.343460 0.000000
18.426680 22.343460 0.000000
18.741402 22.343460 0.000000
-7.065720 22.028738 0.000000
-6.750999 22.028738 0.026060
-6.436278 22.028738 0.019104
-6.121557 22.028738 0.018751
-5.806836 22.028738 0.018736
-5.492115 22.028738 0.018941
-5.177394 22.028738 0.019095
-4.862673 22.028738 0.018722
-4.547952 22.028738 0.018320
-4.233231 22.028738 0.017984
-3.918510 22.028738 0.017684
-3.603789 22.028738 0.017440
-3.289068 22.028738 0.017537
-2.974347 22.028738 0.017327
-2.659626 22.028738 0.017037
-2.344905 22.028738 0.017098
-2.030184 22.028738 0.017415
-1.715463 22.028738 0.017266
-1.400742 22.028738 0.016706
-1.086021 22.028738 0.016449
-0.771300 22.028738 0.016317
-0.456579 22.028738 0.016206
-0.141859 22.028738 0.016223
0.172863 22.028738 0.015722
0.487584 22.028738 0.015321
0.802305 22.028738 0.015285
1.117026 22.028738 0.015687
1.431747 22.028738 0.016251
1.746467 22.028738 0.015921
2.061188 22.028738 0.015293
2.375909 22.028738 0.015119
2.690630 22.028738 0.014830
3.005352 22.028738 0.014524
3.320073 22.028738 0.014392
3.634794 22.028738 0.014690
3.949515 22.028738 0.014791
4.264236 22.028738 0.014743
4.578956 22.028738 0.014944
4.893677 22.028738 0.014909
5.208398 22.028738 0.015085
5.523119 22.028738 0.016122
5.837841 22.028738 0.017632
6.152562 22.028738 0.020144
6.467283 22.028738 0.022943
6.782003 22.028738 0.027402
7.096724 22.028738 0.034552
7.411445 22.028738 0.047442
7.726166 22.028738 0.067748
8.040888 22.028738 0.100096
8.355608 22.028738 0.149291
8.670330 22.028738 0.216709
8.985050 22.028738 0.307548
9.299772 22.028738 0.415318
9.614492 22.028738 0.544809
9.929214 22.028738 0.670226
10.243935 22.028738 0.801158
10.558655 22.028738 0.987295
10.873377 22.028738 1.161431
11.188097 22.028738 1.297766
11.502819 22.028738 1.449354
11.817539 22.028738 1.605767
12.132261 22.028738 1.745871
12.446981 22.028738 1.833350
12.761703 22.028738 1.984350
13.076424 22.028738 2.074033
13.391144 22.028738 2.094292
13.705866 22.028738 2.055455
14.020586 22.028738 2.090880
14.335308 22.028738 2.084671
14.650028 22.028738 1.976004
14.964750 22.028738 2.031830
15.279470 22.028738 2.199353
15.594193 22.028738 2.650240
15.908913 22.028738 2.602907
16.223633 22.028738 0.000000
16.538355 22.028738 0.000000
16.853075 22.028738 0.000000
17.167797 22.028738 0.000000
17.482517 22.028738 0.000000
17.797239 22.028738 0.000000
18.111959 22.028738 0.000000
18.426680 22.028738 0.000000
18.741402 22.028738 0.000000
-7.065720 21.714018 0.000000
-6.750999 21.714018 0.025975
-6.436278 21.714018 0.019204
-6.121557 21.714018 0.018957
-5.806836 21.714018 0.018780
-5.492115 21.714018 0.018787
-5.177394 21.714018 0.018850
-4.862673 21.714018 0.018542
-4.547952 21.714018 0.017966
-4.233231 21.714018 0.017600
-3.918510 21.714018 0.017586
-3.603789 21.714018 0.017346
-3.289068 21.714018 0.017503
-2.974347 21.714018 0.017361
-2.659626 21.714018 0.017113
-2.344905 21.714018 0.017186
-2.030184 21.714018 0.017569
-1.715463 21.714018 0.017283
-1.400742 21.714018 0.016744
-1.086021 21.714018 0.016669
-0.771300 21.714018 0.016749
-0.456579 21.714018 0.016392
-0.141859 21.714018 0.016324
0.172863 21.714018 0.015519
0.487584 21.714018 0.015295
0.802305 21.714018 0.015193
1.117026 21.714018 0.015399
1.431747 21.714018 0.015792
1.746467 21.714018 0.015653
2.061188 21.714018 0.015114
2.375909 21.714018 0.014823
2.690630 21.714018 0.014533
3.005352 21.714018 0.014550
3.320073 21.714018 0.014464
3.634794 21.714018 0.014630
3.949515 21.714018 0.014723
4.264236 21.714018 0.014852
4.578956 21.714018 0.015104
4.893677 21.714018 0.015046
5.208398 21.714018 0.015206
5.523119 21.714018 0.016209
5.837841 21.714018 0.017661
6.152562 21.714018 0.019837
6.467283 21.714018 0.022531
6.782003 21.714018 0.026864
7.096724 21.714018 0.034195
7.411445 21.714018 0.047754
7.726166 21.714018 0.067746
8.040888 21.714018 0.100095
8.355608 21.714018 0.151705
8.670330 21.714018 0.226747
8.985050 21.714018 0.315882
9.299772 21.714018 0.417622
9.614492 21.714018 0.543353
9.929214 21.714018 0.666621
10.243935 21.714018 0.823186
10.558655 21.714018 1.004983
10.873377 21.714018 1.165925
11.188097 21.714018 1.318465
11.502819 21.714018 1.449541
11.817539 21.714018 1.618724
12.132261 21.714018 1.725865
12.446981 21.714018 1.829151
12.761703 21.714018 1.947940
13.076424 21.714018 2.076191
13.391144 21.714018 2.100724
13.705866 21.714018 2.052483
14.020586 21.714018 2.100435
14.335308 21.714018 2.101846
14.650028 21.714018 2.031843
14.964750 21.714018 2.051972
15.279470 21.714018 2.256758
15.594193 21.714018 2.800575
15.908913 21.714018 2.525544
16.223633 21.714018 0.000000
16.538355 21.714018 0.000000
16.853075 21.714018 0.000000
17.167797 21.714018 0.000000
17.482517 21.714018 0.000000
17.797239 21.714018 0.000000
18.111959 21.714018 0.000000
18.426680 21.714018 0.000000
18.741402 21.714018 0.000000
-7.065720 21.399296 0.000000
-6.750999 21.399296 0.026059
-6.436278 21.399296 0.019034
-6.121557 21.399296 0.018940
-5.806836 21.399296 0.018712
-5.492115 21.399296 0.018732
-5.177394 21.399296 0.018798
-4.862673 21.399296 0.018480
-4.547952 21.399296 0.017851
-4.233231 21.399296 0.017525
-3.918510 21.399296 0.017558
-3.603789 21.399296 0.017455
-3.289068 21.399296 0.017556
-2.974347 21.399296 0.017538
-2.659626 21.399296 0.017217
-2.344905 21.399296 0.017428
-2.030184 21.399296 0.017660
-1.715463 21.399296 0.017302
-1.400742 21.399296 0.016812
-1.086021 21.399296 0.016741
-0.771300 21.399296 0.016798
-0.456579 21.399296 0.016297
-0.141859 21.399296 0.016149
0.172863 21.399296 0.015533
0.487584 21.399296 0.015440
0.802305 21.399296 0.015329
1.117026 21.399296 0.015105
1.431747 21.399296 0.015271
1.746467 21.399296 0.015211
2.061188 21.399296 0.014722
2.375909 21.399296 0.014475
2.690630 21.399296 0.014467
3.005352 21.399296 0.014696
3.320073 21.399296 0.014409
3.634794 21.399296 0.014356
3.949515 21.399296 0.014550
4.264236 21.399296 0.014806
4.578956 21.399296 0.015131
4.893677 21.399296 0.015111
5.208398 21.399296 0.015342
5.523119 21.399296 0.016317
5.837841 21.399296 0.017485
6.152562 21.399296 0.019281
6.467283 21.399296 0.022037
6.782003 21.399296 0.026464
7.096724 21.399296 0.034252
7.411445 21.399296 0.047775
7.726166 21.399296 0.068339
8.040888 21.399296 0.101000
8.355608 21.399296 0.153371
8.670330 21.399296 0.230671
8.985050 21.399296 0.325148
9.299772 21.399296 0.427418
9.614492 21.399296 0.549492
9.929214 21.399296 0.688369
10.243935 21.399296 0.836412
10.558655 21.399296 1.011299
10.873377 21.399296 1.149801
11.188097 21.399296 1.300935
11.502819 21.399296 1.428293
11.817539 21.399296 1.579549
12.132261 21.399296 1.682140
12.446981 21.399296 1.844502
12.761703 21.399296 1.979446
13.076424 21.399296 2.052542
13.391144 21.399296 2.151446
13.705866 21.399296 2.087354
14.020586 21.399296 2.100153
14.335308 21.399296 2.125543
14.650028 21.399296 2.071210
14.964750 21.399296 2.085237
15.279470 21.399296 2.372784
15.594193 21.399296 2.942184
15.908913 21.399296 2.754389
16.223633 21.399296 0.000000
16.538355 21.399296 0.000000
16.853075 21.399296 0.000000
17.167797 21.399296 0.000000
17.482517 21.399296 0.000000
17.797239 21.399296 0.000000
18.111959 21.399296 0.000000
18.426680 21.399296 0.000000
18.741402 21.399296 0.000000
-7.065720 21.084576 0.000000
-6.750999 21.084576 0.025538
-6.436278 21.084576 0.018561
-6.121557 21.084576 0.018681
-5.806836 21.084576 0.018589
-5.492115 21.084576 0.018678
-5.177394 21.084576 0.018787
-4.862673 21.084576 0.018498
-4.547952 21.084576 0.017910
-4.233231 21.084576 0.017492
-3.918510 21.084576 0.017313
-3.603789 21.084576 0.017450
-3.289068 21.084576 0.017763
-2.974347 21.084576 0.017709
-2.659626 21.084576 0.017168
-2.344905 21.084576 0.017322
-2.030184 21.084576 0.017468
-1.715463 21.084576 0.017058
-1.400742 21.084576 0.016562
-1.086021 21.084576 0.016556
-0.771300 21.084576 0.016500
-0.456579 21.084576 0.015881
-0.141859 21.084576 0.015999
0.172863 21.084576 0.015555
0.487584 21.084576 0.015620
0.802305 21.084576 0.015503
1.117026 21.084576 0.014891
1.431747 21.084576 0.014853
1.746467 21.084576 0.014900
2.061188 21.084576 0.014501
2.375909 21.084576 0.014308
2.690630 21.084576 0.014454
3.005352 21.084576 0.014622
3.320073 21.084576 0.014175
3.634794 21.084576 0.014091
3.949515 21.084576 0.014335
4.264236 21.084576 0.014736
4.578956 21.084576 0.015041
4.893677 21.084576 0.014944
5.208398 21.084576 0.015242
5.523119 21.084576 0.016180
5.837841 21.084576 0.017263
6.152562 21.084576 0.019056
6.467283 21.084576 0.021873
6.782003 21.084576 0.026452
7.096724 21.084576 0.034162
7.411445 21.084576 0.048103
7.726166 21.084576 0.070132
8.040888 21.084576 0.104413
8.355608 21.084576 0.158537
8.670330 21.084576 0.239185
8.985050 21.084576 0.330419
9.299772 21.084576 0.436707
9.614492 21.084576 0.560536
9.929214 21.084576 0.702556
10.243935 21.084576 0.851961
10.558655 21.084576 0.992068
10.873377 21.084576 1.147224
11.188097 21.084576 1.292036
11.502819 21.084576 1.432366
11.817539 21.084576 1.569139
12.132261 21.084576 1.722294
12.446981 21.084576 1.818763
12.761703 21.084576 1.978886
13.076424 21.084576 2.069503
13.391144 21.084576 2.126710
13.705866 21.084576 2.132171
14.020586 21.084576 2.122413
14.335308 21.084576 2.137881
14.650028 21.084576 2.086063
14.964750 21.084576 2.126658
15.279470 21.084576 2.454525
15.594193 21.084576 3.185543
15.908913 21.084576 2.722842
16.223633 21.084576 0.000000
16.538355 21.084576 0.000000
16.853075 21.084576 0.000000
17.167797 21.084576 0.000000
17.482517 21.084576 0.000000
17.797239 21.084576 0.000000
18.111959 21.084576 0.000000
18.426680 21.084576 0.000000
18.741402 21.084576 0.000000
-7.065720 20.769855 0.000000
-6.750999 20.769855 0.025116
-6.436278 20.769855 0.018399
-6.121557 20.769855 0.018678
-5.806836 20.769855 0.018849
-5.492115 20.769855 0.018766
-5.177394 20.769855 0.018650
-4.862673 20.769855 0.018431
-4.547952 20.769855 0.018107
-4.233231 20.769855 0.017586
-3.918510 20.769855 0.017338
-3.603789 20.769855 0.017658
-3.289068 20.769855 0.017836
-2.974347 20.769855 0.017761
-2.659626 20.769855 0.017056
-2.344905 20.769855 0.017057
-2.030184 20.769855 0.017079
-1.715463 20.769855 0.016827
-1.400742 20.769855 0.016356
-1.086021 20.769855 0.016197
-0.771300 20.769855 0.016005
-0.456579 20.769855 0.015575
-0.141859 20.769855 0.015718
0.172863 20.769855 0.015572
0.487584 20.769855 0.015569
0.802305 20.769855 0.015550
1.117026 20.769855 0.014955
1.431747 20.769855 0.014828
1.746467 20.769855 0.014692
2.061188 20.769855 0.014283
2.375909 20.769855 0.014207
2.690630 20.769855 0.014540
3.005352 20.769855 0.014478
3.320073 20.769855 0.014100
3.634794 20.769855 0.014055
3.949515 20.769855 0.014193
4.264236 20.769855 0.014376
4.578956 20.769855 0.014617
4.893677 20.769855 0.014639
5.208398 20.769855 0.015034
5.523119 20.769855 0.016042
5.837841 20.769855 0.017110
6.152562 20.769855 0.018947
6.467283 20.769855 0.022261
6.782003 20.769855 0.026743
7.096724 20.769855 0.035344
7.411445 20.769855 0.049086
7.726166 20.769855 0.070650
8.040888 20.769855 0.104708
8.355608 20.769855 0.159324
8.670330 20.769855 0.237227
8.985050 20.769855 0.331253
9.299772 20.769855 0.448652
9.614492 20.769855 0.573129
9.929214 20.769855 0.707694
10.243935 20.769855 0.843482
10.558655 20.769855 0.986426
10.873377 20.769855 1.125491
11.188097 20.769855 1.286253
11.502819 20.769855 1.441028
11.817539 20.769855 1.556092
12.132261 20.769855 1.730491
12.446981 20.769855 1.872886
12.761703 20.769855 1.953608
13.076424 20.769855 2.014402
13.391144 20.769855 2.085556
13.705866 20.769855 2.162646
14.020586 20.769855 2.148224
14.335308 20.769855 2.079919
14.650028 20.769855 2.062112
14.964750 20.769855 2.119985
15.279470 20.769855 2.556507
15.594193 20.769855 3.325185
15.908913 20.769855 0.000000
16.223633 20.769855 0.000000
16.538355 20.769855 0.000000
16.853075 20.769855 0.000000
17.167797 20.769855 0.000000
17.482517 20.769855 0.000000
17.797239 20.769855 0.000000
18.111959 20.769855 0.000000
18.426680 20.769855 0.000000
18.741402 20.769855 0.000000
-7.065720 20.455133 0.000000
-6.750999 20.455133 0.024886
-6.436278 20.455133 0.018424
-6.121557 20.455133 0.018623
-5.806836 20.455133 0.019008
-5.492115 20.455133 0.019002
-5.177394 20.455133 0.018634
-4.862673 20.455133 0.018518
-4.547952 20.455133 0.018575
-4.233231 20.455133 0.017865
-3.918510 20.455133 0.017560
-3.603789 20.455133 0.017841
-3.289068 20.455133 0.017953
-2.974347 20.455133 0.017661
-2.659626 20.455133 0.017017
-2.344905 20.455133 0.016837
-2.030184 20.455133 0.016810
-1.715463 20.455133 0.016739
-1.400742 20.455133 0.016282
-1.086021 20.455133 0.015849
-0.771300 20.455133 0.015566
-0.456579 20.455133 0.015353
-0.141859 20.455133 0.015559
0.172863 20.455133 0.015585
0.487584 20.455133 0.015415
0.802305 20.455133 0.015387
1.117026 20.455133 0.015153
1.431747 20.455133 0.015013
1.746467 20.455133 0.014640
2.061188 20.455133 0.014258
2.375909 20.455133 0.014208
2.690630 20.455133 0.014567
3.005352 20.455133 0.014347
3.320073 20.455133 0.013980
3.634794 20.455133 0.013940
3.949515 20.455133 0.013809
4.264236 20.455133 0.013873
4.578956 20.455133 0.014205
4.893677 20.455133 0.014577
5.208398 20.455133 0.014988
5.523119 20.455133 0.015774
5.837841 20.455133 0.017026
6.152562 20.455133 0.019226
6.467283 20.455133 0.022653
6.782003 20.455133 0.027679
7.096724 20.455133 0.035765
7.411445 20.455133 0.050287
7.726166 20.455133 0.072323
8.040888 20.455133 0.105119
8.355608 20.455133 0.156246
8.670330 20.455133 0.232126
8.985050 20.455133 0.328528
9.299772 20.455133 0.444299
9.614492 20.455133 0.575626
9.929214 20.455133 0.703120
10.243935 20.455133 0.840795
10.558655 20.455133 0.979874
10.873377 20.455133 1.117588
11.188097 20.455133 1.280015
11.502819 20.455133 1.456114
11.817539 20.455133 1.588871
12.132261 20.455133 1.685184
12.446981 20.455133 1.871894
12.761703 20.455133 1.970888
13.076424 20.455133 2.004225
13.391144 20.455133 2.095337
13.705866 20.455133 2.122592
14.020586 20.455133 2.153127
14.335308 20.455133 2.093589
14.650028 20.455133 2.045238
14.964750 20.455133 2.184820
15.279470 20.455133 2.691909
15.594193 20.455133 3.525426
15.908913 20.455133 0.000000
16.223633 20.455133 0.000000
16.538355 20.455133 0.000000
16.853075 20.455133 0.000000
17.167797 20.455133 0.000000
17.482517 20.455133 0.000000
17.797239 20.455133 0.000000
18.111959 20.455133 0.000000
18.426680 20.455133 0.000000
18.741402 20.455133 0.000000
-7.065720 20.140413 0.000000
-6.750999 20.140413 0.024612
-6.436278 20.140413 0.018359
-6.121557 20.140413 0.018485
-5.806836 20.140413 0.018918
-5.492115 20.140413 0.019108
-5.177394 20.140413 0.018713
-4.862673 20.140413 0.018651
-4.547952 20.140413 0.018539
-4.233231 20.140413 0.017791
-3.918510 20.140413 0.017592
-3.603789 20.140413 0.017857
-3.289068 20.140413 0.017924
-2.974347 20.140413 0.017525
-2.659626 20.140413 0.017015
-2.344905 20.140413 0.016718
-2.030184 20.140413 0.016650
-1.715463 20.140413 0.016516
-1.400742 20.140413 0.016081
-1.086021 20.140413 0.015716
-0.771300 20.140413 0.015452
-0.456579 20.140413 0.015364
-0.141859 20.140413 0.015537
0.172863 20.140413 0.015499
0.487584 20.140413 0.015146
0.802305 20.140413 0.015002
1.117026 20.140413 0.015109
1.431747 20.140413 0.015109
1.746467 20.140413 0.014850
2.061188 20.140413 0.014412
2.375909 20.140413 0.014189
2.690630 20.140413 0.014287
3.005352 20.140413 0.014035
3.320073 20.140413 0.013854
3.634794 20.140413 0.013760
3.949515 20.140413 0.013526
4.264236 20.140413 0.013724
4.578956 20.140413 0.014309
4.893677 20.140413 0.014726
5.208398 20.140413 0.015068
5.523119 20.140413 0.015557
5.837841 20.140413 0.016893
6.152562 20.140413 0.019498
6.467283 20.140413 0.022773
6.782003 20.140413 0.027972
7.096724 20.140413 0.036141
7.411445 20.140413 0.049862
7.726166 20.140413 0.073233
8.040888 20.140413 0.105904
8.355608 20.140413 0.159453
8.670330 20.140413 0.228640
8.985050 20.140413 0.320100
9.299772 20.140413 0.433766
9.614492 20.140413 0.567913
9.929214 20.140413 0.695887
10.243935 20.140413 0.828627
10.558655 20.140413 0.978170
10.873377 20.140413 1.144355
11.188097 20.140413 1.287624
11.502819 20.140413 1.468950
11.817539 20.140413 1.603562
12.132261 20.140413 1.714553
12.446981 20.140413 1.861374
12.761703 20.140413 1.972785
13.076424 20.140413 2.016224
13.391144 20.140413 2.077356
13.705866 20.140413 2.142787
14.020586 20.140413 2.100730
14.335308 20.140413 2.058867
14.650028 20.140413 2.077650
14.964750 20.140413 2.267220
15.279470 20.140413 2.817888
15.594193 20.140413 3.720546
15.908913 20.140413 0.000000
16.223633 20.140413 0.000000
16.538355 20.140413 0.000000
16.853075 20.140413 0.000000
17.167797 20.140413 0.000000
17.482517 20.140413 0.000000
17.797239 20.140413 0.000000
18.111959 20.140413 0.000000
18.426680 20.140413 0.000000
18.741402 20.140413 0.000000
-7.065720 19.825691 0.000000
-6.750999 19.825691 0.024461
-6.436278 19.825691 0.018415
-6.121557 19.825691 0.018692
-5.806836 19.825691 0.018905
-5.492115 19.825691 0.018973
-5.177394 19.825691 0.018661
-4.862673 19.825691 0.018487
-4.547952 19.825691 0.018081
-4.233231 19.825691 0.017559
-3.918510 19.825691 0.017538
-3.603789 19.825691 0.017760
-3.289068 19.825691 0.017848
-2.974347 19.825691 0.017341
-2.659626 19.825691 0.016907
-2.344905 19.825691 0.016615
-2.030184 19.825691 0.016522
-1.715463 19.825691 0.016327
-1.400742 19.825691 0.016091
-1.086021 19.825691 0.015916
-0.771300 19.825691 0.015759
-0.456579 19.825691 0.015671
-0.141859 19.825691 0.015602
0.172863 19.825691 0.015340
0.487584 19.825691 0.014870
0.802305 19.825691 0.014745
1.117026 19.825691 0.014932
1.431747 19.825691 0.015228
1.746467 19.825691 0.015026
2.061188 19.825691 0.014489
2.375909 19.825691 0.014027
2.690630 19.825691 0.013986
3.005352 19.825691 0.013932
3.320073 19.825691 0.013820
3.634794 19.825691 0.013706
3.949515 19.825691 0.013655
4.264236 19.825691 0.014040
4.578956 19.825691 0.014498
4.893677 19.825691 0.014835
5.208398 19.825691 0.015249
5.523119 19.825691 0.015559
5.837841 19.825691 0.016958
6.152562 19.825691 0.019621
6.467283 19.825691 0.022380
6.782003 19.825691 0.027170
7.096724 19.825691 0.035054
7.411445 19.825691 0.048183
7.726166 19.825691 0.071117
8.040888 19.825691 0.107980
8.355608 19.825691 0.164260
8.670330 19.825691 0.235315
8.985050 19.825691 0.321081
9.299772 19.825691 0.433283
9.614492 19.825691 0.572708
9.929214 19.825691 0.687058
10.243935 19.825691 0.834822
10.558655 19.825691 0.983398
10.873377 19.825691 1.147197
11.188097 19.825691 1.301348
11.502819 19.825691 1.450653
11.817539 19.825691 1.600782
12.132261 19.825691 1.731451
12.446981 19.825691 1.844681
12.761703 19.825691 1.967340
13.076424 19.825691 2.054574
13.391144 19.825691 2.138431
13.705866 19.825691 2.142609
14.020586 19.825691 2.116070
14.335308 19.825691 2.070296
14.650028 19.825691 2.086470
14.964750 19.825691 2.270475
15.279470 19.825691 2.794655
15.594193 19.825691 3.892683
15.908913 19.825691 0.000000
16.223633 19.825691 0.000000
16.538355 19.825691 0.000000
16.853075 19.825691 0.000000
17.167797 19.825691 0.000000
17.482517 19.825691 0.000000
17.797239 19.825691 0.000000
18.111959 19.825691 0.000000
18.426680 19.825691 0.000000
18.741402 19.825691 0.000000
-7.065720 19.510971 0.000000
-6.750999 19.510971 0.024503
-6.436278 19.510971 0.018407
-6.121557 19.510971 0.018826
-5.806836 19.510971 0.018743
-5.492115 19.510971 0.018590
-5.177394 19.510971 0.018436
-4.862673 19.510971 0.018242
-4.547952 19.510971 0.017783
-4.233231 19.510971 0.017441
-3.918510 19.510971 0.017314
-3.603789 19.510971 0.017453
-3.289068 19.510971 0.017580
-2.974347 19.510971 0.017138
-2.659626 19.510971 0.016602
-2.344905 19.510971 0.016680
-2.030184 19.510971 0.016732
-1.715463 19.510971 0.016521
-1.400742 19.510971 0.016263
-1.086021 19.510971 0.016238
-0.771300 19.510971 0.015984
-0.456579 19.510971 0.015835
-0.141859 19.510971 0.015653
0.172863 19.510971 0.015140
0.487584 19.510971 0.014925
0.802305 19.510971 0.014669
1.117026 19.510971 0.014733
1.431747 19.510971 0.015221
1.746467 19.510971 0.014987
2.061188 19.510971 0.014316
2.375909 19.510971 0.013899
2.690630 19.510971 0.013868
3.005352 19.510971 0.014027
3.320073 19.510971 0.013859
3.634794 19.510971 0.013724
3.949515 19.510971 0.013848
4.264236 19.510971 0.014264
4.578956 19.510971 0.014738
4.893677 19.510971 0.014967
5.208398 19.510971 0.015412
5.523119 19.510971 0.015710
5.837841 19.510971 0.016966
6.152562 19.510971 0.019219
6.467283 19.510971 0.022187
6.782003 19.510971 0.026525
7.096724 19.510971 0.034617
7.411445 19.510971 0.048372
7.726166 19.510971 0.071537
8.040888 19.510971 0.109108
8.355608 19.510971 0.165487
8.670330 19.510971 0.235354
8.985050 19.510971 0.324935
9.299772 19.510971 0.445955
9.614492 19.510971 0.581435
9.929214 19.510971 0.688555
10.243935 19.510971 0.833435
10.558655 19.510971 0.984734
10.873377 19.510971 1.140512
11.188097 19.510971 1.317703
11.502819 19.510971 1.430123
11.817539 19.510971 1.581872
12.132261 19.510971 1.747299
12.446981 19.510971 1.895830
12.761703 19.510971 1.919946
13.076424 19.510971 2.060344
13.391144 19.510971 2.116432
13.705866 19.510971 2.140548
14.020586 19.510971 2.138957
14.335308 19.510971 2.122661
14.650028 19.510971 2.087027
14.964750 19.510971 2.334813
15.279470 19.510971 2.878497
15.594193 19.510971 4.075101
15.908913 19.510971 0.000000
16.223633 19.510971 0.000000
16.538355 19.510971 0.000000
16.853075 19.510971 0.000000
17.167797 19.510971 0.000000
17.482517 19.510971 0.000000
17.797239 19.510971 0.000000
18.111959 19.510971 0.000000
18.426680 19.510971 0.000000
18.741402 19.510971 0.000000
-7.065720 19.196249 0.000000
-6.750999 19.196249 0.024586
-6.436278 19.196249 0.018175
-6.121557 19.196249 0.018791
-5.806836 19.196249 0.018597
-5.492115 19.196249 0.018369
-5.177394 19.196249 0.018504
-4.862673 19.196249 0.018356
-4.547952 19.196249 0.017863
-4.233231 19.196249 0.017453
-3.918510 19.196249 0.017074
-3.603789 19.196249 0.017050
-3.289068 19.196249 0.017289
-2.974347 19.196249 0.016798
-2.659626 19.196249 0.016206
-2.344905 19.196249 0.016737
-2.030184 19.196249 0.016974
-1.715463 19.196249 0.016678
-1.400742 19.196249 0.016288
-1.086021 19.196249 0.016125
-0.771300 19.196249 0.015932
-0.456579 19.196249 0.015630
-0.141859 19.196249 0.015534
0.172863 19.196249 0.014966
0.487584 19.196249 0.014932
0.802305 19.196249 0.014543
1.117026 19.196249 0.014252
1.431747 19.196249 0.014835
1.746467 19.196249 0.014704
2.061188 19.196249 0.014114
2.375909 19.196249 0.013805
2.690630 19.196249 0.013810
3.005352 19.196249 0.014098
3.320073 19.196249 0.013885
3.634794 19.196249 0.013837
3.949515 19.196249 0.013955
4.264236 19.196249 0.014323
4.578956 19.196249 0.014705
4.893677 19.196249 0.014741
5.208398 19.196249 0.015111
5.523119 19.196249 0.015630
5.837841 19.196249 0.016790
6.152562 19.196249 0.019033
6.467283 19.196249 0.022041
6.782003 19.196249 0.026789
7.096724 19.196249 0.035275
7.411445 19.196249 0.048650
7.726166 19.196249 0.073827
8.040888 19.196249 0.111904
8.355608 19.196249 0.164320
8.670330 19.196249 0.233795
8.985050 19.196249 0.330836
9.299772 19.196249 0.445037
9.614492 19.196249 0.580775
9.929214 19.196249 0.704055
10.243935 19.196249 0.836191
10.558655 19.196249 0.996913
10.873377 19.196249 1.145259
11.188097 19.196249 1.315405
11.502819 19.196249 1.466598
11.817539 19.196249 1.620061
12.132261 19.196249 1.752177
12.446981 19.196249 1.881517
12.761703 19.196249 1.950386
13.076424 19.196249 2.041034
13.391144 19.196249 2.090825
13.705866 19.196249 2.148579
14.020586 19.196249 2.133807
14.335308 19.196249 2.094336
14.650028 19.196249 2.151019
14.964750 19.196249 2.320158
15.279470 19.196249 2.961018
15.594193 19.196249 4.262994
15.908913 19.196249 0.000000
16.223633 19.196249 0.000000
16.538355 19.196249 0.000000
16.853075 19.196249 0.000000
17.167797 19.196249 0.000000
17.482517 19.196249 0.000000
17.797239 19.196249 0.000000
18.111959 19.196249 0.000000
18.426680 19.196249 0.000000
18.741402 19.196249 0.000000
-7.065720 18.881529 0.000000
-6.750999 18.881529 0.024632
-6.436278 18.881529 0.018108
-6.121557 18.881529 0.018881
-5.806836 18.881529 0.018715
-5.492115 18.881529 0.018349
-5.177394 18.881529 0.018538
-4.862673 18.881529 0.018506
-4.547952 18.881529 0.017971
-4.233231 18.881529 0.017379
-3.918510 18.881529 0.016933
-3.603789 18.881529 0.016989
-3.289068 18.881529 0.017210
-2.974347 18.881529 0.016724
-2.659626 18.881529 0.016084
-2.344905 18.881529 0.016658
-2.030184 18.881529 0.016910
-1.715463 18.881529 0.016602
-1.400742 18.881529 0.015898
-1.086021 18.881529 0.015725
-0.771300 18.881529 0.015521
-0.456579 18.881529 0.015364
-0.141859 18.881529 0.015244
0.172863 18.881529 0.014766
0.487584 18.881529 0.014674
0.802305 18.881529 0.014324
1.117026 18.881529 0.013981
1.431747 18.881529 0.014396
1.746467 18.881529 0.014294
2.061188 18.881529 0.013826
2.375909 18.881529 0.013648
2.690630 18.881529 0.013790
3.005352 18.881529 0.014110
3.320073 18.881529 0.013976
3.634794 18.881529 0.013946
3.949515 18.881529 0.013978
4.264236 18.881529 0.014006
4.578956 18.881529 0.014208
4.893677 18.881529 0.014168
5.208398 18.881529 0.014597
5.523119 18.881529 0.015537
5.837841 18.881529 0.016847
6.152562 18.881529 0.019190
6.467283 18.881529 0.022234
6.782003 18.881529 0.026901
7.096724 18.881529 0.035941
7.411445 18.881529 0.050551
7.726166 18.881529 0.076346
8.040888 18.881529 0.114690
8.355608 18.881529 0.166522
8.670330 18.881529 0.237647
8.985050 18.881529 0.337596
9.299772 18.881529 0.458251
9.614492 18.881529 0.587600
9.929214 18.881529 0.702887
10.243935 18.881529 0.831572
10.558655 18.881529 0.995955
10.873377 18.881529 1.158855
11.188097 18.881529 1.311350
11.502819 18.881529 1.463668
11.817539 18.881529 1.624440
12.132261 18.881529 1.771191
12.446981 18.881529 1.858211
12.761703 18.881529 1.962095
13.076424 18.881529 2.036669
13.391144 18.881529 2.103608
13.705866 18.881529 2.144506
14.020586 18.881529 2.158344
14.335308 18.881529 2.172616
14.650028 18.881529 2.211753
14.964750 18.881529 2.364477
15.279470 18.881529 3.077728
15.594193 18.881529 4.305089
15.908913 18.881529 0.000000
16.223633 18.881529 0.000000
16.538355 18.881529 0.000000
16.853075 18.881529 0.000000
17.167797 18.881529 0.000000
17.482517 18.881529 0.000000
17.797239 18.881529 0.000000
18.111959 18.881529 0.000000
18.426680 18.881529 0.000000
18.741402 18.881529 0.000000
-7.065720 18.566807 0.000000
-6.750999 18.566807 0.024793
-6.436278 18.566807 0.018311
-6.121557 18.566807 0.018885
-5.806836 18.566807 0.018797
-5.492115 18.566807 0.018375
-5.177394 18.566807 0.018330
-4.862673 18.566807 0.018564
-4.547952 18.566807 0.018060
-4.233231 18.566807 0.017314
-3.918510 18.566807 0.017102
-3.603789 18.566807 0.017163
-3.289068 18.566807 0.017239
-2.974347 18.566807 0.016850
-2.659626 18.566807 0.016138
-2.344905 18.566807 0.016369
-2.030184 18.566807 0.016664
-1.715463 18.566807 0.016440
-1.400742 18.566807 0.015692
-1.086021 18.566807 0.015302
-0.771300 18.566807 0.015102
-0.456579 18.566807 0.014980
-0.141859 18.566807 0.014958
0.172863 18.566807 0.014583
0.487584 18.566807 0.014368
0.802305 18.566807 0.014227
1.117026 18.566807 0.014031
1.431747 18.566807 0.014354
1.746467 18.566807 0.014048
2.061188 18.566807 0.013623
2.375909 18.566807 0.013559
2.690630 18.566807 0.013607
3.005352 18.566807 0.013928
3.320073 18.566807 0.013968
3.634794 18.566807 0.013886
3.949515 18.566807 0.013705
4.264236 18.566807 0.013450
4.578956 18.566807 0.013670
4.893677 18.566807 0.013745
5.208398 18.566807 0.014250
5.523119 18.566807 0.015558
5.837841 18.566807 0.017186
6.152562 18.566807 0.019360
6.467283 18.566807 0.022903
6.782003 18.566807 0.027673
7.096724 18.566807 0.037083
7.411445 18.566807 0.052109
7.726166 18.566807 0.076910
8.040888 18.566807 0.115467
8.355608 18.566807 0.169076
8.670330 18.566807 0.245349
8.985050 18.566807 0.346119
9.299772 18.566807 0.454149
9.614492 18.566807 0.575310
9.929214 18.566807 0.699805
10.243935 18.566807 0.834095
10.558655 18.566807 0.995012
10.873377 18.566807 1.160194
11.188097 18.566807 1.321457
11.502819 18.566807 1.480306
11.817539 18.566807 1.621507
12.132261 18.566807 1.764238
12.446981 18.566807 1.871523
12.761703 18.566807 1.926789
13.076424 18.566807 2.029737
13.391144 18.566807 2.077522
13.705866 18.566807 2.159679
14.020586 18.566807 2.195568
14.335308 18.566807 2.200942
14.650028 18.566807 2.252842
14.964750 18.566807 2.471225
15.279470 18.566807 3.109628
15.594193 18.566807 4.385277
15.908913 18.566807 0.000000
16.223633 18.566807 0.000000
16.538355 18.566807 0.000000
16.853075 18.566807 0.000000
17.167797 18.566807 0.000000
17.482517 18.566807 0.000000
17.797239 18.566807 0.000000
18.111959 18.566807 0.000000
18.426680 18.566807 0.000000
18.741402 18.566807 0.000000
-7.065720 18.252087 0.000000
-6.750999 18.252087 0.024768
-6.436278 18.252087 0.018428
-6.121557 18.252087 0.018694
-5.806836 18.252087 0.018637
-5.492115 18.252087 0.018032
-5.177394 18.252087 0.018125
-4.862673 18.252087 0.018617
-4.547952 18.252087 0.018095
-4.233231 18.252087 0.017284
-3.918510 18.252087 0.017168
-3.603789 18.252087 0.017146
-3.289068 18.252087 0.017143
-2.974347 18.252087 0.016860
-2.659626 18.252087 0.016224
-2.344905 18.252087 0.016133
-2.030184 18.252087 0.016365
-1.715463 18.252087 0.016302
-1.400742 18.252087 0.015545
-1.086021 18.252087 0.014995
-0.771300 18.252087 0.014708
-0.456579 18.252087 0.014569
-0.141859 18.252087 0.014950
0.172863 18.252087 0.014569
0.487584 18.252087 0.014129
0.802305 18.252087 0.014180
1.117026 18.252087 0.014348
1.431747 18.252087 0.014602
1.746467 18.252087 0.014113
2.061188 18.252087 0.013604
2.375909 18.252087 0.013303
2.690630 18.252087 0.013343
3.005352 18.252087 0.013545
3.320073 18.252087 0.013693
3.634794 18.252087 0.013564
3.949515 18.252087 0.013312
4.264236 18.252087 0.013265
4.578956 18.252087 0.013703
4.893677 18.252087 0.013732
5.208398 18.252087 0.014301
5.523119 18.252087 0.015730
5.837841 18.252087 0.017502
6.152562 18.252087 0.019934
6.467283 18.252087 0.023078
6.782003 18.252087 0.028271
7.096724 18.252087 0.037616
7.411445 18.252087 0.051499
7.726166 18.252087 0.077013
8.040888 18.252087 0.113569
8.355608 18.252087 0.167160
8.670330 18.252087 0.244164
8.985050 18.252087 0.349515
9.299772 18.252087 0.466033
9.614492 18.252087 0.588727
9.929214 18.252087 0.699126
10.243935 18.252087 0.836925
10.558655 18.252087 0.989261
10.873377 18.252087 1.165111
11.188097 18.252087 1.325574
11.502819 18.252087 1.464671
11.817539 18.252087 1.618447
12.132261 18.252087 1.744873
12.446981 18.252087 1.822836
12.761703 18.252087 1.897477
13.076424 18.252087 2.053873
13.391144 18.252087 2.123694
13.705866 18.252087 2.176349
14.020586 18.252087 2.213758
14.335308 18.252087 2.252766
14.650028 18.252087 2.285923
14.964750 18.252087 2.517042
15.279470 18.252087 3.216970
15.594193 18.252087 4.646623
15.908913 18.252087 0.000000
16.223633 18.252087 0.000000
16.538355 18.252087 0.000000
16.853075 18.252087 0.000000
17.167797 18.252087 0.000000
17.482517 18.252087 0.000000
17.797239 18.252087 0.000000
18.111959 18.252087 0.000000
18.426680 18.252087 0.000000
18.741402 18.252087 0.000000
-7.065720 17.937366 0.000000
-6.750999 17.937366 0.024437
-6.436278 17.937366 0.018445
-6.121557 17.937366 0.018660
-5.806836 17.937366 0.018256
-5.492115 17.937366 0.017633
-5.177394 17.937366 0.017986
-4.862673 17.937366 0.018513
-4.547952 17.937366 0.017933
-4.233231 17.937366 0.017196
-3.918510 17.937366 0.017058
-3.603789 17.937366 0.017028
-3.289068 17.937366 0.017032
-2.974347 17.937366 0.016765
-2.659626 17.937366 0.016239
-2.344905 17.937366 0.016022
-2.030184 17.937366 0.016124
-1.715463 17.937366 0.015977
-1.400742 17.937366 0.015175
-1.086021 17.937366 0.014889
-0.771300 17.937366 0.014662
-0.456579 17.937366 0.014519
-0.141859 17.937366 0.015035
0.172863 17.937366 0.014724
0.487584 17.937366 0.013966
0.802305 17.937366 0.014055
1.117026 17.937366 0.014456
1.431747 17.937366 0.014745
1.746467 17.937366 0.014191
2.061188 17.937366 0.013601
2.375909 17.937366 0.013149
2.690630 17.937366 0.013120
3.005352 17.937366 0.013286
3.320073 17.937366 0.013423
3.634794 17.937366 0.013356
3.949515 17.937366 0.013403
4.264236 17.937366 0.013660
4.578956 17.937366 0.013964
4.893677 17.937366 0.014032
5.208398 17.937366 0.014546
5.523119 17.937366 0.015886
5.837841 17.937366 0.017642
6.152562 17.937366 0.020041
6.467283 17.937366 0.023152
6.782003 17.937366 0.028230
7.096724 17.937366 0.036342
7.411445 17.937366 0.050368
7.726166 17.937366 0.076298
8.040888 17.937366 0.113387
8.355608 17.937366 0.171372
8.670330 17.937366 0.247379
8.985050 17.937366 0.355439
9.299772 17.937366 0.471703
9.614492 17.937366 0.599469
9.929214 17.937366 0.715369
10.243935 17.937366 0.842729
10.558655 17.937366 0.987015
10.873377 17.937366 1.144264
11.188097 17.937366 1.324316
11.502819 17.937366 1.478716
11.817539 17.937366 1.616618
12.132261 17.937366 1.753554
12.446981 17.937366 1.819044
12.761703 17.937366 1.912166
13.076424 17.937366 2.046764
13.391144 17.937366 2.156611
13.705866 17.937366 2.207230
14.020586 17.937366 2.237921
14.335308 17.937366 2.243284
14.650028 17.937366 2.323810
14.964750 17.937366 2.595660
15.279470 17.937366 3.327019
15.594193 17.937366 4.772970
15.908913 17.937366 0.000000
16.223633 17.937366 0.000000
16.538355 17.937366 0.000000
16.853075 17.937366 0.000000
17.167797 17.937366 0.000000
17.482517 17.937366 0.000000
17.797239 17.937366 0.000000
18.111959 17.937366 0.000000
18.426680 17.937366 0.000000
18.741402 17.937366 0.000000
-7.065720 17.622644 0.000000
-6.750999 17.622644 0.024326
-6.436278 17.622644 0.018454
-6.121557 17.622644 0.018700
-5.806836 17.622644 0.018138
-5.492115 17.622644 0.017550
-5.177394 17.622644 0.017978
-4.862673 17.622644 0.018352
-4.547952 17.622644 0.017715
-4.233231 17.622644 0.017079
-3.918510 17.622644 0.016836
-3.603789 17.622644 0.016819
-3.289068 17.622644 0.016906
-2.974347 17.622644 0.016536
-2.659626 17.622644 0.016105
-2.344905 17.622644 0.016001
-2.030184 17.622644 0.015929
-1.715463 17.622644 0.015758
-1.400742 17.622644 0.015055
-1.086021 17.622644 0.014976
-0.771300 17.622644 0.014809
-0.456579 17.622644 0.014751
-0.141859 17.622644 0.015083
0.172863 17.622644 0.014790
0.487584 17.622644 0.014077
0.802305 17.622644 0.013904
1.117026 17.622644 0.014304
1.431747 17.622644 0.014567
1.746467 17.622644 0.013966
2.061188 17.622644 0.013408
2.375909 17.622644 0.013084
2.690630 17.622644 0.013038
3.005352 17.622644 0.013276
3.320073 17.622644 0.013300
3.634794 17.622644 0.013367
3.949515 17.622644 0.013674
4.264236 17.622644 0.014002
4.578956 17.622644 0.014240
4.893677 17.622644 0.014343
5.208398 17.622644 0.014972
5.523119 17.622644 0.016031
5.837841 17.622644 0.017365
6.152562 17.622644 0.019850
6.467283 17.622644 0.022897
6.782003 17.622644 0.027481
7.096724 17.622644 0.036243
7.411445 17.622644 0.051096
7.726166 17.622644 0.075713
8.040888 17.622644 0.115799
8.355608 17.622644 0.175645
8.670330 17.622644 0.256963
8.985050 17.622644 0.361136
9.299772 17.622644 0.466054
9.614492 17.622644 0.586338
9.929214 17.622644 0.715292
10.243935 17.622644 0.856499
10.558655 17.622644 0.994899
10.873377 17.622644 1.157585
11.188097 17.622644 1.318426
11.502819 17.622644 1.474375
11.817539 17.622644 1.627604
12.132261 17.622644 1.764468
12.446981 17.622644 1.875606
12.761703 17.622644 1.951703
13.076424 17.622644 2.064015
13.391144 17.622644 2.150800
13.705866 17.622644 2.208176
14.020586 17.622644 2.271430
14.335308 17.622644 2.272962
14.650028 17.622644 2.374350
14.964750 17.622644 2.625842
15.279470 17.622644 3.465665
15.594193 17.622644 5.021103
15.908913 17.622644 0.000000
16.223633 17.622644 0.000000
16.538355 17.622644 0.000000
16.853075 17.622644 0.000000
17.167797 17.622644 0.000000
17.482517 17.622644 0.000000
17.797239 17.622644 0.000000
18.111959 17.622644 0.000000
18.426680 17.622644 0.000000
18.741402 17.622644 0.000000
-7.065720 17.307924 0.000000
-6.750999 17.307924 0.024247
-6.436278 17.307924 0.018371
-6.121557 17.307924 0.018787
-5.806836 17.307924 0.018044
-5.492115 17.307924 0.017731
-5.177394 17.307924 0.018053
-4.862673 17.307924 0.018064
-4.547952 17.307924 0.017640
-4.233231 17.307924 0.016996
-3.918510 17.307924 0.016634
-3.603789 17.307924 0.016605
-3.289068 17.307924 0.016731
-2.974347 17.307924 0.016278
-2.659626 17.307924 0.015846
-2.344905 17.307924 0.016018
-2.030184 17.307924 0.015917
-1.715463 17.307924 0.015709
-1.400742 17.307924 0.015197
-1.086021 17.307924 0.015231
-0.771300 17.307924 0.014969
-0.456579 17.307924 0.014869
-0.141859 17.307924 0.015030
0.172863 17.307924 0.014766
0.487584 17.307924 0.014187
0.802305 17.307924 0.013660
1.117026 17.307924 0.013864
1.431747 17.307924 0.014164
1.746467 17.307924 0.013719
2.061188 17.307924 0.013205
2.375909 17.307924 0.013090
2.690630 17.307924 0.013174
3.005352 17.307924 0.013392
3.320073 17.307924 0.013268
3.634794 17.307924 0.013439
3.949515 17.307924 0.013739
4.264236 17.307924 0.013929
4.578956 17.307924 0.014232
4.893677 17.307924 0.014455
5.208398 17.307924 0.015156
5.523119 17.307924 0.015962
5.837841 17.307924 0.017097
6.152562 17.307924 0.019484
6.467283 17.307924 0.022443
6.782003 17.307924 0.027837
7.096724 17.307924 0.036461
7.411445 17.307924 0.051057
7.726166 17.307924 0.078390
8.040888 17.307924 0.121149
8.355608 17.307924 0.182435
8.670330 17.307924 0.264763
8.985050 17.307924 0.360914
9.299772 17.307924 0.461148
9.614492 17.307924 0.587267
9.929214 17.307924 0.719188
10.243935 17.307924 0.850802
10.558655 17.307924 1.001438
10.873377 17.307924 1.135222
11.188097 17.307924 1.313225
11.502819 17.307924 1.465282
11.817539 17.307924 1.623174
12.132261 17.307924 1.754629
12.446981 17.307924 1.846694
12.761703 17.307924 1.961032
13.076424 17.307924 2.072892
13.391144 17.307924 2.161169
13.705866 17.307924 2.285506
14.020586 17.307924 2.292449
14.335308 17.307924 2.318344
14.650028 17.307924 2.369213
14.964750 17.307924 2.650578
15.279470 17.307924 3.582765
15.594193 17.307924 5.368514
15.908913 17.307924 0.000000
16.223633 17.307924 0.000000
16.538355 17.307924 0.000000
16.853075 17.307924 0.000000
17.167797 17.307924 0.000000
17.482517 17.307924 0.000000
17.797239 17.307924 0.000000
18.111959 17.307924 0.000000
18.426680 17.307924 0.000000
18.741402 17.307924 0.000000
-7.065720 16.993202 0.000000
-6.750999 16.993202 0.024018
-6.436278 16.993202 0.018142
-6.121557 16.993202 0.018738
-5.806836 16.993202 0.018154
-5.492115 16.993202 0.017910
-5.177394 16.993202 0.018121
-4.862673 16.993202 0.017844
-4.547952 16.993202 0.017364
-4.233231 16.993202 0.016876
-3.918510 16.993202 0.016538
-3.603789 16.993202 0.016633
-3.289068 16.993202 0.016766
-2.974347 16.993202 0.016057
-2.659626 16.993202 0.015473
-2.344905 16.993202 0.015850
-2.030184 16.993202 0.015976
-1.715463 16.993202 0.015848
-1.400742 16.993202 0.015448
-1.086021 16.993202 0.015267
-0.771300 16.993202 0.014874
-0.456579 16.993202 0.014726
-0.141859 16.993202 0.014731
0.172863 16.993202 0.014484
0.487584 16.993202 0.014238
0.802305 16.993202 0.013541
1.117026 16.993202 0.013556
1.431747 16.993202 0.013856
1.746467 16.993202 0.013591
2.061188 16.993202 0.013133
2.375909 16.993202 0.013107
2.690630 16.993202 0.013283
3.005352 16.993202 0.013621
3.320073 16.993202 0.013488
3.634794 16.993202 0.013417
3.949515 16.993202 0.013440
4.264236 16.993202 0.013503
4.578956 16.993202 0.013857
4.893677 16.993202 0.014324
5.208398 16.993202 0.015099
5.523119 16.993202 0.015828
5.837841 16.993202 0.017051
6.152562 16.993202 0.019538
6.467283 16.993202 0.022844
6.782003 16.993202 0.028573
7.096724 16.993202 0.037847
7.411445 16.993202 0.053555
7.726166 16.993202 0.079515
8.040888 16.993202 0.119721
8.355608 16.993202 0.177439
8.670330 16.993202 0.266607
8.985050 16.993202 0.363079
9.299772 16.993202 0.470452
9.614492 16.993202 0.593473
9.929214 16.993202 0.732640
10.243935 16.993202 0.878254
10.558655 16.993202 1.010587
10.873377 16.993202 1.162475
11.188097 16.993202 1.306276
11.502819 16.993202 1.463107
11.817539 16.993202 1.597800
12.132261 16.993202 1.725798
12.446981 16.993202 1.820144
12.761703 16.993202 1.964430
13.076424 16.993202 2.063307
13.391144 16.993202 2.190498
13.705866 16.993202 2.307606
14.020586 16.993202 2.342053
14.335308 16.993202 2.320267
14.650028 16.993202 2.420330
14.964750 16.993202 2.712650
15.279470 16.993202 3.763755
15.594193 16.993202 5.603623
15.908913 16.993202 0.000000
16.223633 16.993202 0.000000
16.538355 16.993202 0.000000
16.853075 16.993202 0.000000
17.167797 16.993202 0.000000
17.482517 16.993202 0.000000
17.797239 16.993202 0.000000
18.111959 16.993202 0.000000
18.426680 16.993202 0.000000
18.741402 16.993202 0.000000
-7.065720 16.678482 0.000000
-6.750999 16.678482 0.023845
-6.436278 16.678482 0.018047
-6.121557 16.678482 0.018515
-5.806836 16.678482 0.018176
-5.492115 16.678482 0.017953
-5.177394 16.678482 0.017974
-4.862673 16.678482 0.017884
-4.547952 16.678482 0.017241
-4.233231 16.678482 0.016735
-3.918510 16.678482 0.016604
-3.603789 16.678482 0.016835
-3.289068 16.678482 0.016956
-2.974347 16.678482 0.016152
-2.659626 16.678482 0.015354
-2.344905 16.678482 0.015580
-2.030184 16.678482 0.015898
-1.715463 16.678482 0.015846
-1.400742 16.678482 0.015318
-1.086021 16.678482 0.014834
-0.771300 16.678482 0.014421
-0.456579 16.678482 0.014376
-0.141859 16.678482 0.014451
0.172863 16.678482 0.014278
0.487584 16.678482 0.014087
0.802305 16.678482 0.013568
1.117026 16.678482 0.013587
1.431747 16.678482 0.013913
1.746467 16.678482 0.013666
2.061188 16.678482 0.013216
2.375909 16.678482 0.013153
2.690630 16.678482 0.013418
3.005352 16.678482 0.013785
3.320073 16.678482 0.013457
3.634794 16.678482 0.013076
3.949515 16.678482 0.013043
4.264236 16.678482 0.013181
4.578956 16.678482 0.013670
4.893677 16.678482 0.014236
5.208398 16.678482 0.014998
5.523119 16.678482 0.015938
5.837841 16.678482 0.017210
6.152562 16.678482 0.019828
6.467283 16.678482 0.023613
6.782003 16.678482 0.029209
7.096724 16.678482 0.038105
7.411445 16.678482 0.053967
7.726166 16.678482 0.081207
8.040888 16.678482 0.119418
8.355608 16.678482 0.181943
8.670330 16.678482 0.263687
8.985050 16.678482 0.360151
9.299772 16.678482 0.474909
9.614492 16.678482 0.603161
9.929214 16.678482 0.739337
10.243935 16.678482 0.876048
10.558655 16.678482 1.021073
10.873377 16.678482 1.135777
11.188097 16.678482 1.306221
11.502819 16.678482 1.447862
11.817539 16.678482 1.594128
12.132261 16.678482 1.712582
12.446981 16.678482 1.799710
12.761703 16.678482 1.939897
13.076424 16.678482 2.062867
13.391144 16.678482 2.233613
13.705866 16.678482 2.287419
14.020586 16.678482 2.351879
14.335308 16.678482 2.383874
14.650028 16.678482 2.529545
14.964750 16.678482 2.874907
15.279470 16.678482 4.041698
15.594193 16.678482 5.993589
15.908913 16.678482 0.000000
16.223633 16.678482 0.000000
16.538355 16.678482 0.000000
16.853075 16.678482 0.000000
17.167797 16.678482 0.000000
17.482517 16.678482 0.000000
17.797239 16.678482 0.000000
18.111959 16.678482 0.000000
18.426680 16.678482 0.000000
18.741402 16.678482 0.000000
-7.065720 16.363762 0.000000
-6.750999 16.363762 0.023988
-6.436278 16.363762 0.017964
-6.121557 16.363762 0.018157
-5.806836 16.363762 0.018015
-5.492115 16.363762 0.017789
-5.177394 16.363762 0.017899
-4.862673 16.363762 0.018053
-4.547952 16.363762 0.017217
-4.233231 16.363762 0.016602
-3.918510 16.363762 0.016620
-3.603789 16.363762 0.016907
-3.289068 16.363762 0.016891
-2.974347 16.363762 0.016148
-2.659626 16.363762 0.015264
-2.344905 16.363762 0.015210
-2.030184 16.363762 0.015604
-1.715463 16.363762 0.015586
-1.400742 16.363762 0.014882
-1.086021 16.363762 0.014366
-0.771300 16.363762 0.014145
-0.456579 16.363762 0.014321
-0.141859 16.363762 0.014513
0.172863 16.363762 0.014311
0.487584 16.363762 0.014028
0.802305 16.363762 0.013559
1.117026 16.363762 0.013768
1.431747 16.363762 0.014123
1.746467 16.363762 0.013768
2.061188 16.363762 0.013331
2.375909 16.363762 0.013138
2.690630 16.363762 0.013411
3.005352 16.363762 0.013693
3.320073 16.363762 0.013281
3.634794 16.363762 0.012781
3.949515 16.363762 0.012849
4.264236 16.363762 0.013121
4.578956 16.363762 0.013769
4.893677 16.363762 0.014320
5.208398 16.363762 0.014923
5.523119 16.363762 0.015911
5.837841 16.363762 0.017558
6.152562 16.363762 0.020043
6.467283 16.363762 0.023999
6.782003 16.363762 0.029570
7.096724 16.363762 0.038192
7.411445 16.363762 0.053395
7.726166 16.363762 0.081506
8.040888 16.363762 0.117457
8.355608 16.363762 0.180749
8.670330 16.363762 0.261584
8.985050 16.363762 0.367732
9.299772 16.363762 0.482333
9.614492 16.363762 0.602845
9.929214 16.363762 0.739607
10.243935 16.363762 0.878601
10.558655 16.363762 1.009734
10.873377 16.363762 1.164284
11.188097 16.363762 1.311585
11.502819 16.363762 1.458241
11.817539 16.363762 1.612180
12.132261 16.363762 1.726049
12.446981 16.363762 1.791798
12.761703 16.363762 1.945765
13.076424 16.363762 2.080577
13.391144 16.363762 2.265025
13.705866 16.363762 2.387878
14.020586 16.363762 2.335742
14.335308 16.363762 2.409837
14.650028 16.363762 2.558720
14.964750 16.363762 2.972267
15.279470 16.363762 4.164093
15.594193 16.363762 6.026206
15.908913 16.363762 0.000000
16.223633 16.363762 0.000000
16.538355 16.363762 0.000000
16.853075 16.363762 0.000000
17.167797 16.363762 0.000000
17.482517 16.363762 0.000000
17.797239 16.363762 0.000000
18.111959 16.363762 0.000000
18.426680 16.363762 0.000000
18.741402 16.363762 0.000000
-7.065720 16.049038 0.000000
-6.750999 16.049038 0.024300
-6.436278 16.049038 0.018070
-6.121557 16.049038 0.017974
-5.806836 16.049038 0.017820
-5.492115 16.049038 0.017587
-5.177394 16.049038 0.017969
-4.862673 16.049038 0.018207
-4.547952 16.049038 0.017221
-4.233231 16.049038 0.016490
-3.918510 16.049038 0.016523
-3.603789 16.049038 0.016764
-3.289068 16.049038 0.016686
-2.974347 16.049038 0.015945
-2.659626 16.049038 0.015066
-2.344905 16.049038 0.014813
-2.030184 16.049038 0.015184
-1.715463 16.049038 0.015145
-1.400742 16.049038 0.014474
-1.086021 16.049038 0.014296
-0.771300 16.049038 0.014143
-0.456579 16.049038 0.014398
-0.141859 16.049038 0.014658
0.172863 16.049038 0.014349
0.487584 16.049038 0.013955
0.802305 16.049038 0.013566
1.117026 16.049038 0.013866
1.431747 16.049038 0.014111
1.746467 16.049038 0.013696
2.061188 16.049038 0.013339
2.375909 16.049038 0.012930
2.690630 16.049038 0.013149
3.005352 16.049038 0.013497
3.320073 16.049038 0.013184
3.634794 16.049038 0.012831
3.949515 16.049038 0.012964
4.264236 16.049038 0.013292
4.578956 16.049038 0.013957
4.893677 16.049038 0.014465
5.208398 16.049038 0.014823
5.523119 16.049038 0.015902
5.837841 16.049038 0.017461
6.152562 16.049038 0.019954
6.467283 16.049038 0.023727
6.782003 16.049038 0.029154
7.096724 16.049038 0.037676
7.411445 16.049038 0.053487
7.726166 16.049038 0.079844
8.040888 16.049038 0.119061
8.355608 16.049038 0.178080
8.670330 16.049038 0.261191
8.985050 16.049038 0.368567
9.299772 16.049038 0.477197
9.614492 16.049038 0.610990
9.929214 16.049038 0.746189
10.243935 16.049038 0.865224
10.558655 16.049038 1.018331
10.873377 16.049038 1.176529
11.188097 16.049038 1.317793
11.502819 16.049038 1.445037
11.817539 16.049038 1.613155
12.132261 16.049038 1.755256
12.446981 16.049038 1.892825
12.761703 16.049038 1.996696
13.076424 16.049038 2.105201
13.391144 16.049038 2.272660
13.705866 16.049038 2.373581
14.020586 16.049038 2.409940
14.335308 16.049038 2.489696
14.650028 16.049038 2.585241
14.964750 16.049038 3.065777
15.279470 16.049038 4.174163
15.594193 16.049038 6.056339
15.908913 16.049038 0.000000
16.223633 16.049038 0.000000
16.538355 16.049038 0.000000
16.853075 16.049038 0.000000
17.167797 16.049038 0.000000
17.482517 16.049038 0.000000
17.797239 16.049038 0.000000
18.111959 16.049038 0.000000
18.426680 16.049038 0.000000
18.741402 16.049038 0.000000
-7.065720 15.734318 0.000000
-6.750999 15.734318 0.024415
-6.436278 15.734318 0.018136
-6.121557 15.734318 0.017930
-5.806836 15.734318 0.017826
-5.492115 15.734318 0.017551
-5.177394 15.734318 0.018018
-4.862673 15.734318 0.018099
-4.547952 15.734318 0.017044
-4.233231 15.734318 0.016317
-3.918510 15.734318 0.016182
-3.603789 15.734318 0.016369
-3.289068 15.734318 0.016353
-2.974347 15.734318 0.015603
-2.659626 15.734318 0.014945
-2.344905 15.734318 0.014796
-2.030184 15.734318 0.014972
-1.715463 15.734318 0.014932
-1.400742 15.734318 0.014420
-1.086021 15.734318 0.014459
-0.771300 15.734318 0.014414
-0.456579 15.734318 0.014404
-0.141859 15.734318 0.014717
0.172863 15.734318 0.014287
0.487584 15.734318 0.013717
0.802305 15.734318 0.013368
1.117026 15.734318 0.013770
1.431747 15.734318 0.013857
1.746467 15.734318 0.013626
2.061188 15.734318 0.013248
2.375909 15.734318 0.012858
2.690630 15.734318 0.013083
3.005352 15.734318 0.013320
3.320073 15.734318 0.013155
3.634794 15.734318 0.013163
3.949515 15.734318 0.013218
4.264236 15.734318 0.013471
4.578956 15.734318 0.014035
4.893677 15.734318 0.014426
5.208398 15.734318 0.014712
5.523119 15.734318 0.015669
5.837841 15.734318 0.017101
6.152562 15.734318 0.019485
6.467283 15.734318 0.023520
6.782003 15.734318 0.029139
7.096724 15.734318 0.038058
7.411445 15.734318 0.055014
7.726166 15.734318 0.080984
8.040888 15.734318 0.118650
8.355608 15.734318 0.177992
8.670330 15.734318 0.258283
8.985050 15.734318 0.367428
9.299772 15.734318 0.481845
9.614492 15.734318 0.612978
9.929214 15.734318 0.740834
10.243935 15.734318 0.873289
10.558655 15.734318 1.020463
10.873377 15.734318 1.184152
11.188097 15.734318 1.324144
11.502819 15.734318 1.471992
11.817539 15.734318 1.628527
12.132261 15.734318 1.764524
12.446981 15.734318 1.922217
12.761703 15.734318 2.041494
13.076424 15.734318 2.160595
13.391144 15.734318 2.266914
13.705866 15.734318 2.402649
14.020586 15.734318 2.486449
14.335308 15.734318 2.531359
14.650028 15.734318 2.645384
14.964750 15.734318 3.093465
15.279470 15.734318 4.218792
15.594193 15.734318 6.088724
15.908913 15.734318 0.000000
16.223633 15.734318 0.000000
16.538355 15.734318 0.000000
16.853075 15.734318 0.000000
17.167797 15.734318 0.000000
17.482517 15.734318 0.000000
17.797239 15.734318 0.000000
18.111959 15.734318 0.000000
18.426680 15.734318 0.000000
18.741402 15.734318 0.000000
-7.065720 15.419598 0.000000
-6.750999 15.419598 0.024133
-6.436278 15.419598 0.018133
-6.121557 15.419598 0.018015
-5.806836 15.419598 0.017871
-5.492115 15.419598 0.017670
-5.177394 15.419598 0.017888
-4.862673 15.419598 0.017710
-4.547952 15.419598 0.016926
-4.233231 15.419598 0.016302
-3.918510 15.419598 0.015928
-3.603789 15.419598 0.015964
-3.289068 15.419598 0.015990
-2.974347 15.419598 0.015474
-2.659626 15.419598 0.014896
-2.344905 15.419598 0.014935
-2.030184 15.419598 0.015026
-1.715463 15.419598 0.014919
-1.400742 15.419598 0.014684
-1.086021 15.419598 0.014668
-0.771300 15.419598 0.014359
-0.456579 15.419598 0.014202
-0.141859 15.419598 0.014357
0.172863 15.419598 0.014080
0.487584 15.419598 0.013371
0.802305 15.419598 0.013062
1.117026 15.419598 0.013543
1.431747 15.419598 0.013639
1.746467 15.419598 0.013574
2.061188 15.419598 0.013314
2.375909 15.419598 0.012938
2.690630 15.419598 0.013187
3.005352 15.419598 0.013274
3.320073 15.419598 0.013246
3.634794 15.419598 0.013437
3.949515 15.419598 0.013300
4.264236 15.419598 0.013330
4.578956 15.419598 0.013820
4.893677 15.419598 0.014228
5.208398 15.419598 0.014646
5.523119 15.419598 0.015523
5.837841 15.419598 0.017030
6.152562 15.419598 0.019302
6.467283 15.419598 0.023481
6.782003 15.419598 0.029179
7.096724 15.419598 0.039396
7.411445 15.419598 0.055807
7.726166 15.419598 0.082207
8.040888 15.419598 0.122265
8.355608 15.419598 0.183060
8.670330 15.419598 0.259768
8.985050 15.419598 0.366886
9.299772 15.419598 0.483489
9.614492 15.419598 0.620613
9.929214 15.419598 0.757817
10.243935 15.419598 0.881388
10.558655 15.419598 1.021768
10.873377 15.419598 1.194442
11.188097 15.419598 1.318272
11.502819 15.419598 1.449973
11.817539 15.419598 1.598210
12.132261 15.419598 1.754334
12.446981 15.419598 1.925349
12.761703 15.419598 2.030351
13.076424 15.419598 2.174197
13.391144 15.419598 2.300790
13.705866 15.419598 2.376578
14.020586 15.419598 2.494893
14.335308 15.419598 2.590506
14.650028 15.419598 2.695905
14.964750 15.419598 3.211446
15.279470 15.419598 4.408026
15.594193 15.419598 6.090914
15.908913 15.419598 0.000000
16.223633 15.419598 0.000000
16.538355 15.419598 0.000000
16.853075 15.419598 0.000000
17.167797 15.419598 0.000000
17.482517 15.419598 0.000000
17.797239 15.419598 0.000000
18.111959 15.419598 0.000000
18.426680 15.419598 0.000000
18.741402 15.419598 0.000000
-7.065720 15.104877 0.000000
-6.750999 15.104877 0.023378
-6.436278 15.104877 0.018002
-6.121557 15.104877 0.017905
-5.806836 15.104877 0.017729
-5.492115 15.104877 0.017609
-5.177394 15.104877 0.017596
-4.862673 15.104877 0.017349
-4.547952 15.104877 0.016744
-4.233231 15.104877 0.016274
-3.918510 15.104877 0.015968
-3.603789 15.104877 0.015894
-3.289068 15.104877 0.015932
-2.974347 15.104877 0.015489
-2.659626 15.104877 0.015048
-2.344905 15.104877 0.014936
-2.030184 15.104877 0.014924
-1.715463 15.104877 0.014853
-1.400742 15.104877 0.014755
-1.086021 15.104877 0.014483
-0.771300 15.104877 0.013934
-0.456579 15.104877 0.013851
-0.141859 15.104877 0.013949
0.172863 15.104877 0.013819
0.487584 15.104877 0.013258
0.802305 15.104877 0.012876
1.117026 15.104877 0.013426
1.431747 15.104877 0.013510
1.746467 15.104877 0.013411
2.061188 15.104877 0.013162
2.375909 15.104877 0.013039
2.690630 15.104877 0.013290
3.005352 15.104877 0.013315
3.320073 15.104877 0.013274
3.634794 15.104877 0.013314
3.949515 15.104877 0.013066
4.264236 15.104877 0.013038
4.578956 15.104877 0.013491
4.893677 15.104877 0.013987
5.208398 15.104877 0.014763
5.523119 15.104877 0.015651
5.837841 15.104877 0.017199
6.152562 15.104877 0.019964
6.467283 15.104877 0.023622
6.782003 15.104877 0.029769
7.096724 15.104877 0.040105
7.411445 15.104877 0.057823
7.726166 15.104877 0.084962
8.040888 15.104877 0.128699
8.355608 15.104877 0.187235
8.670330 15.104877 0.273344
8.985050 15.104877 0.375811
9.299772 15.104877 0.489071
9.614492 15.104877 0.615554
9.929214 15.104877 0.755951
10.243935 15.104877 0.885023
10.558655 15.104877 1.015042
10.873377 15.104877 1.186162
11.188097 15.104877 1.319479
11.502819 15.104877 1.422065
11.817539 15.104877 1.575630
12.132261 15.104877 1.716474
12.446981 15.104877 1.862938
12.761703 15.104877 2.096032
13.076424 15.104877 2.252289
13.391144 15.104877 2.275422
13.705866 15.104877 2.438676
14.020586 15.104877 2.510976
14.335308 15.104877 2.607511
14.650028 15.104877 2.834337
14.964750 15.104877 3.280140
15.279470 15.104877 4.454433
15.594193 15.104877 6.357750
15.908913 15.104877 0.000000
16.223633 15.104877 0.000000
16.538355 15.104877 0.000000
16.853075 15.104877 0.000000
17.167797 15.104877 0.000000
17.482517 15.104877 0.000000
17.797239 15.104877 0.000000
18.111959 15.104877 0.000000
18.426680 15.104877 0.000000
18.741402 15.104877 0.000000
-7.065720 14.790157 0.000000
-6.750999 14.790157 0.022606
-6.436278 14.790157 0.017500
-6.121557 14.790157 0.017658
-5.806836 14.790157 0.017574
-5.492115 14.790157 0.017444
-5.177394 14.790157 0.017353
-4.862673 14.790157 0.017115
-4.547952 14.790157 0.016570
-4.233231 14.790157 0.016163
-3.918510 14.790157 0.015991
-3.603789 14.790157 0.015916
-3.289068 14.790157 0.015856
-2.974347 14.790157 0.015641
-2.659626 14.790157 0.015147
-2.344905 14.790157 0.014815
-2.030184 14.790157 0.014814
-1.715463 14.790157 0.014649
-1.400742 14.790157 0.014499
-1.086021 14.790157 0.014095
-0.771300 14.790157 0.013566
-0.456579 14.790157 0.013547
-0.141859 14.790157 0.013661
0.172863 14.790157 0.013679
0.487584 14.790157 0.013363
0.802305 14.790157 0.013018
1.117026 14.790157 0.013463
1.431747 14.790157 0.013415
1.746467 14.790157 0.013201
2.061188 14.790157 0.012878
2.375909 14.790157 0.012946
2.690630 14.790157 0.013160
3.005352 14.790157 0.013136
3.320073 14.790157 0.013077
3.634794 14.790157 0.013046
3.949515 14.790157 0.012834
4.264236 14.790157 0.012819
4.578956 14.790157 0.013333
4.893677 14.790157 0.013908
5.208398 14.790157 0.014938
5.523119 14.790157 0.015870
5.837841 14.790157 0.017534
6.152562 14.790157 0.020298
6.467283 14.790157 0.023649
6.782003 14.790157 0.030347
7.096724 14.790157 0.040861
7.411445 14.790157 0.058998
7.726166 14.790157 0.087041
8.040888 14.790157 0.127397
8.355608 14.790157 0.193082
8.670330 14.790157 0.278871
8.985050 14.790157 0.379204
9.299772 14.790157 0.490102
9.614492 14.790157 0.624329
9.929214 14.790157 0.753370
10.243935 14.790157 0.876569
10.558655 14.790157 1.023782
10.873377 14.790157 1.174306
11.188097 14.790157 1.340953
11.502819 14.790157 1.391906
11.817539 14.790157 1.586251
12.132261 14.790157 1.707038
12.446981 14.790157 1.898896
12.761703 14.790157 2.130189
13.076424 14.790157 2.251975
13.391144 14.790157 2.325823
13.705866 14.790157 2.490612
14.020586 14.790157 2.614943
14.335308 14.790157 2.719943
14.650028 14.790157 2.843201
14.964750 14.790157 3.363204
15.279470 14.790157 4.616313
15.594193 14.790157 6.577024
15.908913 14.790157 0.000000
16.223633 14.790157 0.000000
16.538355 14.790157 0.000000
16.853075 14.790157 0.000000
17.167797 14.790157 0.000000
17.482517 14.790157 0.000000
17.797239 14.790157 0.000000
18.111959 14.790157 0.000000
18.426680 14.790157 0.000000
18.741402 14.790157 0.000000
-7.065720 14.475433 0.000000
-6.750999 14.475433 0.022151
-6.436278 14.475433 0.017218
-6.121557 14.475433 0.017376
-5.806836 14.475433 0.017367
-5.492115 14.475433 0.017179
-5.177394 14.475433 0.017183
-4.862673 14.475433 0.017126
-4.547952 14.475433 0.016739
-4.233231 14.475433 0.016195
-3.918510 14.475433 0.015889
-3.603789 14.475433 0.015698
-3.289068 14.475433 0.015787
-2.974347 14.475433 0.015526
-2.659626 14.475433 0.014904
-2.344905 14.475433 0.014514
-2.030184 14.475433 0.014437
-1.715463 14.475433 0.014272
-1.400742 14.475433 0.014128
-1.086021 14.475433 0.013821
-0.771300 14.475433 0.013488
-0.456579 14.475433 0.013586
-0.141859 14.475433 0.013540
0.172863 14.475433 0.013556
0.487584 14.475433 0.013545
0.802305 14.475433 0.013344
1.117026 14.475433 0.013519
1.431747 14.475433 0.013313
1.746467 14.475433 0.013102
2.061188 14.475433 0.012752
2.375909 14.475433 0.012722
2.690630 14.475433 0.012947
3.005352 14.475433 0.013022
3.320073 14.475433 0.012914
3.634794 14.475433 0.012834
3.949515 14.475433 0.012765
4.264236 14.475433 0.012836
4.578956 14.475433 0.013320
4.893677 14.475433 0.013858
5.208398 14.475433 0.014933
5.523119 14.475433 0.016001
5.837841 14.475433 0.017854
6.152562 14.475433 0.020404
6.467283 14.475433 0.023848
6.782003 14.475433 0.029961
7.096724 14.475433 0.041390
7.411445 14.475433 0.059177
7.726166 14.475433 0.086742
8.040888 14.475433 0.132169
8.355608 14.475433 0.195639
8.670330 14.475433 0.280990
8.985050 14.475433 0.378550
9.299772 14.475433 0.488679
9.614492 14.475433 0.618317
9.929214 14.475433 0.758244
10.243935 14.475433 0.898828
10.558655 14.475433 1.048087
10.873377 14.475433 1.187210
11.188097 14.475433 1.304052
11.502819 14.475433 1.392811
11.817539 14.475433 1.610928
12.132261 14.475433 1.780329
12.446981 14.475433 1.953490
12.761703 14.475433 2.094480
13.076424 14.475433 2.234362
13.391144 14.475433 2.346693
13.705866 14.475433 2.535423
14.020586 14.475433 2.702161
14.335308 14.475433 2.789003
14.650028 14.475433 2.949438
14.964750 14.475433 3.381917
15.279470 14.475433 5.017240
15.594193 14.475433 6.796942
15.908913 14.475433 0.000000
16.223633 14.475433 0.000000
16.538355 14.475433 0.000000
16.853075 14.475433 0.000000
17.167797 14.475433 0.000000
17.482517 14.475433 0.000000
17.797239 14.475433 0.000000
18.111959 14.475433 0.000000
18.426680 14.475433 0.000000
18.741402 14.475433 0.000000
-7.065720 14.160713 0.000000
-6.750999 14.160713 0.022412
-6.436278 14.160713 0.017207
-6.121557 14.160713 0.017415
-5.806836 14.160713 0.017136
-5.492115 14.160713 0.016763
-5.177394 14.160713 0.017009
-4.862673 14.160713 0.017133
-4.547952 14.160713 0.016503
-4.233231 14.160713 0.015946
-3.918510 14.160713 0.015547
-3.603789 14.160713 0.015310
-3.289068 14.160713 0.015345
-2.974347 14.160713 0.015117
-2.659626 14.160713 0.014555
-2.344905 14.160713 0.014237
-2.030184 14.160713 0.014259
-1.715463 14.160713 0.014099
-1.400742 14.160713 0.014089
-1.086021 14.160713 0.013988
-0.771300 14.160713 0.013903
-0.456579 14.160713 0.013771
-0.141859 14.160713 0.013513
0.172863 14.160713 0.013518
0.487584 14.160713 0.013540
0.802305 14.160713 0.013413
1.117026 14.160713 0.013390
1.431747 14.160713 0.013054
1.746467 14.160713 0.012928
2.061188 14.160713 0.012718
2.375909 14.160713 0.012578
2.690630 14.160713 0.012965
3.005352 14.160713 0.013128
3.320073 14.160713 0.013059
3.634794 14.160713 0.012925
3.949515 14.160713 0.012911
4.264236 14.160713 0.012997
4.578956 14.160713 0.013475
4.893677 14.160713 0.013869
5.208398 14.160713 0.014930
5.523119 14.160713 0.016106
5.837841 14.160713 0.018109
6.152562 14.160713 0.020596
6.467283 14.160713 0.024223
6.782003 14.160713 0.030400
7.096724 14.160713 0.041472
7.411445 14.160713 0.060151
7.726166 14.160713 0.088015
8.040888 14.160713 0.133510
8.355608 14.160713 0.198988
8.670330 14.160713 0.283604
8.985050 14.160713 0.379146
9.299772 14.160713 0.492250
9.614492 14.160713 0.622352
9.929214 14.160713 0.767135
10.243935 14.160713 0.903861
10.558655 14.160713 1.037925
10.873377 14.160713 1.179268
11.188097 14.160713 1.281867
11.502819 14.160713 1.426063
11.817539 14.160713 1.583080
12.132261 14.160713 1.774930
12.446981 14.160713 1.952641
12.761703 14.160713 2.169892
13.076424 14.160713 2.261882
13.391144 14.160713 2.431101
13.705866 14.160713 2.503903
14.020586 14.160713 2.613920
14.335308 14.160713 2.826040
14.650028 14.160713 2.950490
14.964750 14.160713 3.562571
15.279470 14.160713 4.791982
15.594193 14.160713 6.628678
15.908913 14.160713 0.000000
16.223633 14.160713 0.000000
16.538355 14.160713 0.000000
16.853075 14.160713 0.000000
17.167797 14.160713 0.000000
17.482517 14.160713 0.000000
17.797239 14.160713 0.000000
18.111959 14.160713 0.000000
18.426680 14.160713 0.000000
18.741402 14.160713 0.000000
-7.065720 13.845993 0.000000
-6.750999 13.845993 0.022588
-6.436278 13.845993 0.017284
-6.121557 13.845993 0.017336
-5.806836 13.845993 0.016839
-5.492115 13.845993 0.016347
-5.177394 13.845993 0.016668
-4.862673 13.845993 0.016686
-4.547952 13.845993 0.016035
-4.233231 13.845993 0.015498
-3.918510 13.845993 0.015206
-3.603789 13.845993 0.015063
-3.289068 13.845993 0.014996
-2.974347 13.845993 0.014855
-2.659626 13.845993 0.014479
-2.344905 13.845993 0.014375
-2.030184 13.845993 0.014417
-1.715463 13.845993 0.014274
-1.400742 13.845993 0.014250
-1.086021 13.845993 0.014281
-0.771300 13.845993 0.014136
-0.456579 13.845993 0.013768
-0.141859 13.845993 0.013451
0.172863 13.845993 0.013361
0.487584 13.845993 0.013216
0.802305 13.845993 0.013160
1.117026 13.845993 0.013193
1.431747 13.845993 0.012931
1.746467 13.845993 0.012973
2.061188 13.845993 0.012795
2.375909 13.845993 0.012675
2.690630 13.845993 0.013095
3.005352 13.845993 0.013340
3.320073 13.845993 0.013305
3.634794 13.845993 0.013242
3.949515 13.845993 0.013033
4.264236 13.845993 0.013130
4.578956 13.845993 0.013613
4.893677 13.845993 0.014108
5.208398 13.845993 0.015105
5.523119 13.845993 0.016223
5.837841 13.845993 0.018126
6.152562 13.845993 0.020838
6.467283 13.845993 0.024689
6.782003 13.845993 0.030484
7.096724 13.845993 0.041168
7.411445 13.845993 0.060761
7.726166 13.845993 0.090826
8.040888 13.845993 0.135252
8.355608 13.845993 0.203970
8.670330 13.845993 0.291251
8.985050 13.845993 0.382077
9.299772 13.845993 0.494415
9.614492 13.845993 0.626096
9.929214 13.845993 0.753257
10.243935 13.845993 0.892319
10.558655 13.845993 1.051352
10.873377 13.845993 1.205357
11.188097 13.845993 1.299706
11.502819 13.845993 1.446303
11.817539 13.845993 1.596063
12.132261 13.845993 1.781636
12.446981 13.845993 1.973934
12.761703 13.845993 2.121731
13.076424 13.845993 2.241900
13.391144 13.845993 2.367354
13.705866 13.845993 2.496822
14.020586 13.845993 2.649480
14.335308 13.845993 2.795041
14.650028 13.845993 3.036543
14.964750 13.845993 3.458416
15.279470 13.845993 4.862609
15.594193 13.845993 6.681527
15.908913 13.845993 0.000000
16.223633 13.845993 0.000000
16.538355 13.845993 0.000000
16.853075 13.845993 0.000000
17.167797 13.845993 0.000000
17.482517 13.845993 0.000000
17.797239 13.845993 0.000000
18.111959 13.845993 0.000000
18.426680 13.845993 0.000000
18.741402 13.845993 0.000000
-7.065720 13.531273 0.000000
-6.750999 13.531273 0.022040
-6.436278 13.531273 0.017066
-6.121557 13.531273 0.017135
-5.806836 13.531273 0.016522
-5.492115 13.531273 0.016183
-5.177394 13.531273 0.016470
-4.862673 13.531273 0.016390
-4.547952 13.531273 0.015653
-4.233231 13.531273 0.015094
-3.918510 13.531273 0.014951
-3.603789 13.531273 0.015009
-3.289068 13.531273 0.015045
-2.974347 13.531273 0.014893
-2.659626 13.531273 0.014628
-2.344905 13.531273 0.014501
-2.030184 13.531273 0.014542
-1.715463 13.531273 0.014448
-1.400742 13.531273 0.014290
-1.086021 13.531273 0.014156
-0.771300 13.531273 0.013843
-0.456579 13.531273 0.013491
-0.141859 13.531273 0.013374
0.172863 13.531273 0.013255
0.487584 13.531273 0.012865
0.802305 13.531273 0.012931
1.117026 13.531273 0.013131
1.431747 13.531273 0.012945
1.746467 13.531273 0.012974
2.061188 13.531273 0.012947
2.375909 13.531273 0.012892
2.690630 13.531273 0.013091
3.005352 13.531273 0.013232
3.320073 13.531273 0.013296
3.634794 13.531273 0.013404
3.949515 13.531273 0.013115
4.264236 13.531273 0.013252
4.578956 13.531273 0.013796
4.893677 13.531273 0.014382
5.208398 13.531273 0.015330
5.523119 13.531273 0.016301
5.837841 13.531273 0.017938
6.152562 13.531273 0.020612
6.467283 13.531273 0.024864
6.782003 13.531273 0.030650
7.096724 13.531273 0.041379
7.411445 13.531273 0.060554
7.726166 13.531273 0.092120
8.040888 13.531273 0.135497
8.355608 13.531273 0.207217
8.670330 13.531273 0.291300
8.985050 13.531273 0.383799
9.299772 13.531273 0.486401
9.614492 13.531273 0.616411
9.929214 13.531273 0.760639
10.243935 13.531273 0.884060
10.558655 13.531273 1.044530
10.873377 13.531273 1.200748
11.188097 13.531273 1.322346
11.502819 13.531273 1.446151
11.817539 13.531273 1.596553
12.132261 13.531273 1.787689
12.446981 13.531273 1.935053
12.761703 13.531273 2.115195
13.076424 13.531273 2.241078
13.391144 13.531273 2.383548
13.705866 13.531273 2.439409
14.020586 13.531273 2.583983
14.335308 13.531273 2.716171
14.650028 13.531273 3.012475
14.964750 13.531273 3.578833
15.279470 13.531273 4.822189
15.594193 13.531273 6.498152
15.908913 13.531273 0.000000
16.223633 13.531273 0.000000
16.538355 13.531273 0.000000
16.853075 13.531273 0.000000
17.167797 13.531273 0.000000
17.482517 13.531273 0.000000
17.797239 13.531273 0.000000
18.111959 13.531273 0.000000
18.426680 13.531273 0.000000
18.741402 13.531273 0.000000
-7.065720 13.216553 0.000000
-6.750999 13.216553 0.021300
-6.436278 13.216553 0.016795
-6.121557 13.216553 0.016851
-5.806836 13.216553 0.016281
-5.492115 13.216553 0.016146
-5.177394 13.216553 0.016502
-4.862673 13.216553 0.016377
-4.547952 13.216553 0.015623
-4.233231 13.216553 0.015102
-3.918510 13.216553 0.015028
-3.603789 13.216553 0.015134
-3.289068 13.216553 0.015218
-2.974347 13.216553 0.014941
-2.659626 13.216553 0.014503
-2.344905 13.216553 0.014295
-2.030184 13.216553 0.014359
-1.715463 13.216553 0.014299
-1.400742 13.216553 0.014117
-1.086021 13.216553 0.013730
-0.771300 13.216553 0.013297
-0.456579 13.216553 0.013152
-0.141859 13.216553 0.013364
0.172863 13.216553 0.013316
0.487584 13.216553 0.012824
0.802305 13.216553 0.012869
1.117026 13.216553 0.013127
1.431747 13.216553 0.012976
1.746467 13.216553 0.012811
2.061188 13.216553 0.012952
2.375909 13.216553 0.012914
2.690630 13.216553 0.012986
3.005352 13.216553 0.013010
3.320073 13.216553 0.013081
3.634794 13.216553 0.013284
3.949515 13.216553 0.013195
4.264236 13.216553 0.013464
4.578956 13.216553 0.014092
4.893677 13.216553 0.014619
5.208398 13.216553 0.015368
5.523119 13.216553 0.016183
5.837841 13.216553 0.017858
6.152562 13.216553 0.020546
6.467283 13.216553 0.024399
6.782003 13.216553 0.030410
7.096724 13.216553 0.041685
7.411445 13.216553 0.060405
7.726166 13.216553 0.091742
8.040888 13.216553 0.138886
8.355608 13.216553 0.206180
8.670330 13.216553 0.295486
8.985050 13.216553 0.390765
9.299772 13.216553 0.504115
9.614492 13.216553 0.635445
9.929214 13.216553 0.768177
10.243935 13.216553 0.904557
10.558655 13.216553 1.037441
10.873377 13.216553 1.194812
11.188097 13.216553 1.336965
11.502819 13.216553 1.478565
11.817539 13.216553 1.597528
12.132261 13.216553 1.763238
12.446981 13.216553 1.968976
12.761703 13.216553 2.070613
13.076424 13.216553 2.284425
13.391144 13.216553 2.390694
13.705866 13.216553 2.438897
14.020586 13.216553 2.527432
14.335308 13.216553 2.747003
14.650028 13.216553 3.036984
14.964750 13.216553 3.704925
15.279470 13.216553 4.850275
15.594193 13.216553 6.397908
15.908913 13.216553 0.000000
16.223633 13.216553 0.000000
16.538355 13.216553 0.000000
16.853075 13.216553 0.000000
17.167797 13.216553 0.000000
17.482517 13.216553 0.000000
17.797239 13.216553 0.000000
18.111959 13.216553 0.000000
18.426680 13.216553 0.000000
18.741402 13.216553 0.000000
-7.065720 12.901829 0.000000
-6.750999 12.901829 0.020581
-6.436278 12.901829 0.016536
-6.121557 12.901829 0.016724
-5.806836 12.901829 0.016345
-5.492115 12.901829 0.016302
-5.177394 12.901829 0.016786
-4.862673 12.901829 0.016574
-4.547952 12.901829 0.015720
-4.233231 12.901829 0.015203
-3.918510 12.901829 0.015139
-3.603789 12.901829 0.015197
-3.289068 12.901829 0.015187
-2.974347 12.901829 0.014823
-2.659626 12.901829 0.014166
-2.344905 12.901829 0.013954
-2.030184 12.901829 0.014021
-1.715463 12.901829 0.013912
-1.400742 12.901829 0.013751
-1.086021 12.901829 0.013320
-0.771300 12.901829 0.013019
-0.456579 12.901829 0.013052
-0.141859 12.901829 0.013405
0.172863 12.901829 0.013379
0.487584 12.901829 0.012951
0.802305 12.901829 0.012926
1.117026 12.901829 0.013006
1.431747 12.901829 0.012815
1.746467 12.901829 0.012596
2.061188 12.901829 0.012725
2.375909 12.901829 0.012790
2.690630 12.901829 0.012800
3.005352 12.901829 0.012770
3.320073 12.901829 0.012852
3.634794 12.901829 0.013112
3.949515 12.901829 0.013257
4.264236 12.901829 0.013837
4.578956 12.901829 0.014359
4.893677 12.901829 0.014563
5.208398 12.901829 0.015208
5.523119 12.901829 0.015923
5.837841 12.901829 0.017891
6.152562 12.901829 0.020551
6.467283 12.901829 0.024048
6.782003 12.901829 0.030269
7.096724 12.901829 0.042187
7.411445 12.901829 0.061932
7.726166 12.901829 0.093204
8.040888 12.901829 0.139733
8.355608 12.901829 0.211762
8.670330 12.901829 0.294486
8.985050 12.901829 0.399226
9.299772 12.901829 0.515464
9.614492 12.901829 0.655504
9.929214 12.901829 0.768565
10.243935 12.901829 0.904622
10.558655 12.901829 1.046733
10.873377 12.901829 1.202842
11.188097 12.901829 1.366569
11.502819 12.901829 1.504190
11.817539 12.901829 1.622915
12.132261 12.901829 1.805021
12.446981 12.901829 1.975703
12.761703 12.901829 2.104161
13.076424 12.901829 2.244504
13.391144 12.901829 2.347925
13.705866 12.901829 2.421841
14.020586 12.901829 2.577721
14.335308 12.901829 2.804026
14.650028 12.901829 3.060494
14.964750 12.901829 3.679295
15.279470 12.901829 5.130911
15.594193 12.901829 6.573700
15.908913 12.901829 0.000000
16.223633 12.901829 0.000000
16.538355 12.901829 0.000000
16.853075 12.901829 0.000000
17.167797 12.901829 0.000000
17.482517 12.901829 0.000000
17.797239 12.901829 0.000000
18.111959 12.901829 0.000000
18.426680 12.901829 0.000000
18.741402 12.901829 0.000000
-7.065720 12.587109 0.000000
-6.750999 12.587109 0.020565
-6.436278 12.587109 0.016495
-6.121557 12.587109 0.016851
-5.806836 12.587109 0.016528
-5.492115 12.587109 0.016397
-5.177394 12.587109 0.016904
-4.862673 12.587109 0.016542
-4.547952 12.587109 0.015687
-4.233231 12.587109 0.015168
-3.918510 12.587109 0.015046
-3.603789 12.587109 0.015102
-3.289068 12.587109 0.015120
-2.974347 12.587109 0.014562
-2.659626 12.587109 0.013828
-2.344905 12.587109 0.013769
-2.030184 12.587109 0.013709
-1.715463 12.587109 0.013471
-1.400742 12.587109 0.013424
-1.086021 12.587109 0.013211
-0.771300 12.587109 0.013018
-0.456579 12.587109 0.013124
-0.141859 12.587109 0.013416
0.172863 12.587109 0.013323
0.487584 12.587109 0.013041
0.802305 12.587109 0.012858
1.117026 12.587109 0.012817
1.431747 12.587109 0.012817
1.746467 12.587109 0.012733
2.061188 12.587109 0.012697
2.375909 12.587109 0.012690
2.690630 12.587109 0.012755
3.005352 12.587109 0.012715
3.320073 12.587109 0.012706
3.634794 12.587109 0.012929
3.949515 12.587109 0.013260
4.264236 12.587109 0.014144
4.578956 12.587109 0.014493
4.893677 12.587109 0.014401
5.208398 12.587109 0.014883
5.523119 12.587109 0.015821
5.837841 12.587109 0.017731
6.152562 12.587109 0.020609
6.467283 12.587109 0.024410
6.782003 12.587109 0.030865
7.096724 12.587109 0.043328
7.411445 12.587109 0.064553
7.726166 12.587109 0.093784
8.040888 12.587109 0.141221
8.355608 12.587109 0.211976
8.670330 12.587109 0.303317
8.985050 12.587109 0.408286
9.299772 12.587109 0.526515
9.614492 12.587109 0.658179
9.929214 12.587109 0.764101
10.243935 12.587109 0.899034
10.558655 12.587109 1.061691
10.873377 12.587109 1.195029
11.188097 12.587109 1.359106
11.502819 12.587109 1.525063
11.817539 12.587109 1.644883
12.132261 12.587109 1.775951
12.446981 12.587109 1.950905
12.761703 12.587109 2.133102
13.076424 12.587109 2.311422
13.391144 12.587109 2.425588
13.705866 12.587109 2.519192
14.020586 12.587109 2.649063
14.335308 12.587109 2.851025
14.650028 12.587109 3.069216
14.964750 12.587109 3.754691
15.279470 12.587109 5.056455
15.594193 12.587109 6.594455
15.908913 12.587109 0.000000
16.223633 12.587109 0.000000
16.538355 12.587109 0.000000
16.853075 12.587109 0.000000
17.167797 12.587109 0.000000
17.482517 12.587109 0.000000
17.797239 12.587109 0.000000
18.111959 12.587109 0.000000
18.426680 12.587109 0.000000
18.741402 12.587109 0.000000
-7.065720 12.272388 0.000000
-6.750999 12.272388 0.020490
-6.436278 12.272388 0.016327
-6.121557 12.272388 0.016753
-5.806836 12.272388 0.016357
-5.492115 12.272388 0.016218
-5.177394 12.272388 0.016582
-4.862673 12.272388 0.016267
-4.547952 12.272388 0.015406
-4.233231 12.272388 0.014854
-3.918510 12.272388 0.014702
-3.603789 12.272388 0.014908
-3.289068 12.272388 0.014894
-2.974347 12.272388 0.014227
-2.659626 12.272388 0.013677
-2.344905 12.272388 0.013791
-2.030184 12.272388 0.013619
-1.715463 12.272388 0.013254
-1.400742 12.272388 0.013293
-1.086021 12.272388 0.013333
-0.771300 12.272388 0.013188
-0.456579 12.272388 0.013111
-0.141859 12.272388 0.013193
0.172863 12.272388 0.013133
0.487584 12.272388 0.012995
0.802305 12.272388 0.012708
1.117026 12.272388 0.012636
1.431747 12.272388 0.012806
1.746467 12.272388 0.012914
2.061188 12.272388 0.012715
2.375909 12.272388 0.012676
2.690630 12.272388 0.012851
3.005352 12.272388 0.012835
3.320073 12.272388 0.012747
3.634794 12.272388 0.012814
3.949515 12.272388 0.013124
4.264236 12.272388 0.014136
4.578956 12.272388 0.014528
4.893677 12.272388 0.014218
5.208398 12.272388 0.014770
5.523119 12.272388 0.015884
5.837841 12.272388 0.017699
6.152562 12.272388 0.020589
6.467283 12.272388 0.024915
6.782003 12.272388 0.031741
7.096724 12.272388 0.044713
7.411445 12.272388 0.065997
7.726166 12.272388 0.094743
8.040888 12.272388 0.139886
8.355608 12.272388 0.211082
8.670330 12.272388 0.303496
8.985050 12.272388 0.409269
9.299772 12.272388 0.529496
9.614492 12.272388 0.649509
9.929214 12.272388 0.755571
10.243935 12.272388 0.892846
10.558655 12.272388 1.056249
10.873377 12.272388 1.215929
11.188097 12.272388 1.360461
11.502819 12.272388 1.532065
11.817539 12.272388 1.671268
12.132261 12.272388 1.782101
12.446981 12.272388 1.931692
12.761703 12.272388 2.139511
13.076424 12.272388 2.305685
13.391144 12.272388 2.457585
13.705866 12.272388 2.539719
14.020586 12.272388 2.666921
14.335308 12.272388 2.891300
14.650028 12.272388 3.204524
14.964750 12.272388 3.805879
15.279470 12.272388 5.237718
15.594193 12.272388 6.357876
15.908913 12.272388 0.000000
16.223633 12.272388 0.000000
16.538355 12.272388 0.000000
16.853075 12.272388 0.000000
17.167797 12.272388 0.000000
17.482517 12.272388 0.000000
17.797239 12.272388 0.000000
18.111959 12.272388 0.000000
18.426680 12.272388 0.000000
18.741402 12.272388 0.000000
-7.065720 11.957668 0.000000
-6.750999 11.957668 0.020162
-6.436278 11.957668 0.015834
-6.121557 11.957668 0.016430
-5.806836 11.957668 0.015960
-5.492115 11.957668 0.015913
-5.177394 11.957668 0.016231
-4.862673 11.957668 0.015871
-4.547952 11.957668 0.015142
-4.233231 11.957668 0.014724
-3.918510 11.957668 0.014608
-3.603789 11.957668 0.014772
-3.289068 11.957668 0.014704
-2.974347 11.957668 0.014059
-2.659626 11.957668 0.013743
-2.344905 11.957668 0.013906
-2.030184 11.957668 0.013523
-1.715463 11.957668 0.013184
-1.400742 11.957668 0.013195
-1.086021 11.957668 0.013332
-0.771300 11.957668 0.013195
-0.456579 11.957668 0.012939
-0.141859 11.957668 0.013004
0.172863 11.957668 0.012937
0.487584 11.957668 0.012749
0.802305 11.957668 0.012457
1.117026 11.957668 0.012517
1.431747 11.957668 0.012830
1.746467 11.957668 0.012895
2.061188 11.957668 0.012725
2.375909 11.957668 0.012689
2.690630 11.957668 0.012897
3.005352 11.957668 0.012897
3.320073 11.957668 0.012664
3.634794 11.957668 0.012633
3.949515 11.957668 0.012900
4.264236 11.957668 0.013887
4.578956 11.957668 0.014357
4.893677 11.957668 0.014260
5.208398 11.957668 0.014853
5.523119 11.957668 0.015914
5.837841 11.957668 0.017794
6.152562 11.957668 0.020665
6.467283 11.957668 0.025184
6.782003 11.957668 0.032544
7.096724 11.957668 0.045245
7.411445 11.957668 0.066498
7.726166 11.957668 0.095391
8.040888 11.957668 0.141012
8.355608 11.957668 0.210720
8.670330 11.957668 0.303264
8.985050 11.957668 0.412407
9.299772 11.957668 0.523489
9.614492 11.957668 0.650731
9.929214 11.957668 0.769076
10.243935 11.957668 0.907353
10.558655 11.957668 1.046099
10.873377 11.957668 1.224296
11.188097 11.957668 1.362738
11.502819 11.957668 1.525976
11.817539 11.957668 1.680056
12.132261 11.957668 1.827951
12.446981 11.957668 1.965832
12.761703 11.957668 2.110339
13.076424 11.957668 2.365349
13.391144 11.957668 2.495376
13.705866 11.957668 2.559182
14.020586 11.957668 2.708324
14.335308 11.957668 2.888454
14.650028 11.957668 3.195261
14.964750 11.957668 3.840354
15.279470 11.957668 5.462071
15.594193 11.957668 6.232608
15.908913 11.957668 0.000000
16.223633 11.957668 0.000000
16.538355 11.957668 0.000000
16.853075 11.957668 0.000000
17.167797 11.957668 0.000000
17.482517 11.957668 0.000000
17.797239 11.957668 0.000000
18.111959 11.957668 0.000000
18.426680 11.957668 0.000000
18.741402 11.957668 0.000000
-7.065720 11.642944 0.000000
-6.750999 11.642944 0.019809
-6.436278 11.642944 0.015586
-6.121557 11.642944 0.016038
-5.806836 11.642944 0.015732
-5.492115 11.642944 0.015654
-5.177394 11.642944 0.016045
-4.862673 11.642944 0.015699
-4.547952 11.642944 0.014930
-4.233231 11.642944 0.014589
-3.918510 11.642944 0.014557
-3.603789 11.642944 0.014717
-3.289068 11.642944 0.014553
-2.974347 11.642944 0.014045
-2.659626 11.642944 0.013916
-2.344905 11.642944 0.013848
-2.030184 11.642944 0.013446
-1.715463 11.642944 0.013200
-1.400742 11.642944 0.013165
-1.086021 11.642944 0.013203
-0.771300 11.642944 0.013067
-0.456579 11.642944 0.012888
-0.141859 11.642944 0.012939
0.172863 11.642944 0.012806
0.487584 11.642944 0.012528
0.802305 11.642944 0.012337
1.117026 11.642944 0.012463
1.431747 11.642944 0.012737
1.746467 11.642944 0.012771
2.061188 11.642944 0.012775
2.375909 11.642944 0.012709
2.690630 11.642944 0.012771
3.005352 11.642944 0.012791
3.320073 11.642944 0.012564
3.634794 11.642944 0.012544
3.949515 11.642944 0.012842
4.264236 11.642944 0.013591
4.578956 11.642944 0.014136
4.893677 11.642944 0.014396
5.208398 11.642944 0.015079
5.523119 11.642944 0.016110
5.837841 11.642944 0.017969
6.152562 11.642944 0.020913
6.467283 11.642944 0.025482
6.782003 11.642944 0.033164
7.096724 11.642944 0.046048
7.411445 11.642944 0.066847
7.726166 11.642944 0.098074
8.040888 11.642944 0.146271
8.355608 11.642944 0.215372
8.670330 11.642944 0.303980
8.985050 11.642944 0.412397
9.299772 11.642944 0.521038
9.614492 11.642944 0.645642
9.929214 11.642944 0.772604
10.243935 11.642944 0.892169
10.558655 11.642944 1.040800
10.873377 11.642944 1.185770
11.188097 11.642944 1.343534
11.502819 11.642944 1.491983
11.817539 11.642944 1.659156
12.132261 11.642944 1.817592
12.446981 11.642944 1.964710
12.761703 11.642944 2.155231
13.076424 11.642944 2.372828
13.391144 11.642944 2.508239
13.705866 11.642944 2.548165
14.020586 11.642944 2.670579
14.335308 11.642944 2.949833
14.650028 11.642944 3.240251
14.964750 11.642944 3.901398
15.279470 11.642944 5.572222
15.594193 11.642944 5.285012
15.908913 11.642944 0.000000
16.223633 11.642944 0.000000
16.538355 11.642944 0.000000
16.853075 11.642944 0.000000
17.167797 11.642944 0.000000
17.482517 11.642944 0.000000
17.797239 11.642944 0.000000
18.111959 11.642944 0.000000
18.426680 11.642944 0.000000
18.741402 11.642944 0.000000
-7.065720 11.328224 0.000000
-6.750999 11.328224 0.019627
-6.436278 11.328224 0.015531
-6.121557 11.328224 0.015941
-5.806836 11.328224 0.015720
-5.492115 11.328224 0.015610
-5.177394 11.328224 0.015960
-4.862673 11.328224 0.015672
-4.547952 11.328224 0.014790
-4.233231 11.328224 0.014349
-3.918510 11.328224 0.014400
-3.603789 11.328224 0.014446
-3.289068 11.328224 0.014174
-2.974347 11.328224 0.013840
-2.659626 11.328224 0.013825
-2.344905 11.328224 0.013673
-2.030184 11.328224 0.013422
-1.715463 11.328224 0.013398
-1.400742 11.328224 0.013297
-1.086021 11.328224 0.013112
-0.771300 11.328224 0.012947
-0.456579 11.328224 0.012929
-0.141859 11.328224 0.013054
0.172863 11.328224 0.012665
0.487584 11.328224 0.012388
0.802305 11.328224 0.012392
1.117026 11.328224 0.012501
1.431747 11.328224 0.012572
1.746467 11.328224 0.012638
2.061188 11.328224 0.012799
2.375909 11.328224 0.012693
2.690630 11.328224 0.012597
3.005352 11.328224 0.012701
3.320073 11.328224 0.012599
3.634794 11.328224 0.012565
3.949515 11.328224 0.012909
4.264236 11.328224 0.013471
4.578956 11.328224 0.014074
4.893677 11.328224 0.014533
5.208398 11.328224 0.015259
5.523119 11.328224 0.016257
5.837841 11.328224 0.018373
6.152562 11.328224 0.021400
6.467283 11.328224 0.025770
6.782003 11.328224 0.033385
7.096724 11.328224 0.046713
7.411445 11.328224 0.066527
7.726166 11.328224 0.100138
8.040888 11.328224 0.149969
8.355608 11.328224 0.220968
8.670330 11.328224 0.307858
8.985050 11.328224 0.415697
9.299772 11.328224 0.530673
9.614492 11.328224 0.663868
9.929214 11.328224 0.781370
10.243935 11.328224 0.893317
10.558655 11.328224 1.047699
10.873377 11.328224 1.198990
11.188097 11.328224 1.336223
11.502819 11.328224 1.467607
11.817539 11.328224 1.628677
12.132261 11.328224 1.787981
12.446981 11.328224 1.959103
12.761703 11.328224 2.133937
13.076424 11.328224 2.320473
13.391144 11.328224 2.446336
13.705866 11.328224 2.554423
14.020586 11.328224 2.760232
14.335308 11.328224 2.943104
14.650028 11.328224 3.227466
14.964750 11.328224 3.980382
15.279470 11.328224 5.631689
15.594193 11.328224 17.010078
15.908913 11.328224 0.000000
16.223633 11.328224 0.000000
16.538355 11.328224 0.000000
16.853075 11.328224 0.000000
17.167797 11.328224 0.000000
17.482517 11.328224 0.000000
17.797239 11.328224 0.000000
18.111959 11.328224 0.000000
18.426680 11.328224 0.000000
18.741402 11.328224 0.000000
-7.065720 11.013504 0.000000
-6.750999 11.013504 0.019626
-6.436278 11.013504 0.015728
-6.121557 11.013504 0.015891
-5.806836 11.013504 0.015578
-5.492115 11.013504 0.015317
-5.177394 11.013504 0.015728
-4.862673 11.013504 0.015501
-4.547952 11.013504 0.014469
-4.233231 11.013504 0.014183
-3.918510 11.013504 0.014259
-3.603789 11.013504 0.014124
-3.289068 11.013504 0.013805
-2.974347 11.013504 0.013606
-2.659626 11.013504 0.013546
-2.344905 11.013504 0.013493
-2.030184 11.013504 0.013330
-1.715463 11.013504 0.013482
-1.400742 11.013504 0.013384
-1.086021 11.013504 0.013052
-0.771300 11.013504 0.012887
-0.456579 11.013504 0.012900
-0.141859 11.013504 0.012954
0.172863 11.013504 0.012631
0.487584 11.013504 0.012489
0.802305 11.013504 0.012526
1.117026 11.013504 0.012558
1.431747 11.013504 0.012500
1.746467 11.013504 0.012570
2.061188 11.013504 0.012735
2.375909 11.013504 0.012452
2.690630 11.013504 0.012509
3.005352 11.013504 0.012891
3.320073 11.013504 0.012888
3.634794 11.013504 0.012646
3.949515 11.013504 0.013002
4.264236 11.013504 0.013673
4.578956 11.013504 0.014246
4.893677 11.013504 0.014816
5.208398 11.013504 0.015380
5.523119 11.013504 0.016344
5.837841 11.013504 0.018582
6.152562 11.013504 0.021720
6.467283 11.013504 0.025856
6.782003 11.013504 0.033628
7.096724 11.013504 0.047437
7.411445 11.013504 0.069429
7.726166 11.013504 0.104502
8.040888 11.013504 0.156844
8.355608 11.013504 0.225294
8.670330 11.013504 0.310502
8.985050 11.013504 0.417975
9.299772 11.013504 0.542451
9.614492 11.013504 0.674651
9.929214 11.013504 0.797370
10.243935 11.013504 0.901878
10.558655 11.013504 1.054987
10.873377 11.013504 1.200274
11.188097 11.013504 1.368145
11.502819 11.013504 1.483371
11.817539 11.013504 1.596790
12.132261 11.013504 1.779110
12.446981 11.013504 1.947366
12.761703 11.013504 2.064579
13.076424 11.013504 2.263749
13.391144 11.013504 2.443289
13.705866 11.013504 2.518519
14.020586 11.013504 2.734356
14.335308 11.013504 2.906049
14.650028 11.013504 3.188880
14.964750 11.013504 4.155031
15.279470 11.013504 5.611709
15.594193 11.013504 215.324951
15.908913 11.013504 0.000000
16.223633 11.013504 0.000000
16.538355 11.013504 0.000000
16.853075 11.013504 0.000000
17.167797 11.013504 0.000000
17.482517 11.013504 0.000000
17.797239 11.013504 0.000000
18.111959 11.013504 0.000000
18.426680 11.013504 0.000000
18.741402 11.013504 0.000000
-7.065720 10.698784 0.000000
-6.750999 10.698784 0.019458
-6.436278 10.698784 0.015615
-6.121557 10.698784 0.015666
-5.806836 10.698784 0.015264
-5.492115 10.698784 0.015156
-5.177394 10.698784 0.015462
-4.862673 10.698784 0.015137
-4.547952 10.698784 0.014246
-4.233231 10.698784 0.014109
-3.918510 10.698784 0.014231
-3.603789 10.698784 0.014124
-3.289068 10.698784 0.013816
-2.974347 10.698784 0.013542
-2.659626 10.698784 0.013332
-2.344905 10.698784 0.013337
-2.030184 10.698784 0.013287
-1.715463 10.698784 0.013290
-1.400742 10.698784 0.013173
-1.086021 10.698784 0.012908
-0.771300 10.698784 0.012753
-0.456579 10.698784 0.012684
-0.141859 10.698784 0.012751
0.172863 10.698784 0.012584
0.487584 10.698784 0.012606
0.802305 10.698784 0.012767
1.117026 10.698784 0.012726
1.431747 10.698784 0.012698
1.746467 10.698784 0.012676
2.061188 10.698784 0.012554
2.375909 10.698784 0.012177
2.690630 10.698784 0.012572
3.005352 10.698784 0.013080
3.320073 10.698784 0.013185
3.634794 10.698784 0.012738
3.949515 10.698784 0.013061
4.264236 10.698784 0.013843
4.578956 10.698784 0.014471
4.893677 10.698784 0.014857
5.208398 10.698784 0.015393
5.523119 10.698784 0.016276
5.837841 10.698784 0.018544
6.152562 10.698784 0.022095
6.467283 10.698784 0.026232
6.782003 10.698784 0.034476
7.096724 10.698784 0.048163
7.411445 10.698784 0.070503
7.726166 10.698784 0.107162
8.040888 10.698784 0.162876
8.355608 10.698784 0.229553
8.670330 10.698784 0.313278
8.985050 10.698784 0.417794
9.299772 10.698784 0.544166
9.614492 10.698784 0.671163
9.929214 10.698784 0.789784
10.243935 10.698784 0.917692
10.558655 10.698784 1.077355
10.873377 10.698784 1.213649
11.188097 10.698784 1.349814
11.502819 10.698784 1.490239
11.817539 10.698784 1.621133
12.132261 10.698784 1.751287
12.446981 10.698784 1.902161
12.761703 10.698784 2.104238
13.076424 10.698784 2.227326
13.391144 10.698784 2.431556
13.705866 10.698784 2.505756
14.020586 10.698784 2.696602
14.335308 10.698784 2.974494
14.650028 10.698784 3.328028
14.964750 10.698784 4.233097
15.279470 10.698784 5.761775
15.594193 10.698784 0.000000
15.908913 10.698784 0.000000
16.223633 10.698784 0.000000
16.538355 10.698784 0.000000
16.853075 10.698784 0.000000
17.167797 10.698784 0.000000
17.482517 10.698784 0.000000
17.797239 10.698784 0.000000
18.111959 10.698784 0.000000
18.426680 10.698784 0.000000
18.741402 10.698784 0.000000
-7.065720 10.384064 0.000000
-6.750999 10.384064 0.019183
-6.436278 10.384064 0.015330
-6.121557 10.384064 0.015431
-5.806836 10.384064 0.015051
-5.492115 10.384064 0.015034
-5.177394 10.384064 0.015316
-4.862673 10.384064 0.014877
-4.547952 10.384064 0.014258
-4.233231 10.384064 0.014127
-3.918510 10.384064 0.014098
-3.603789 10.384064 0.014148
-3.289068 10.384064 0.013848
-2.974347 10.384064 0.013366
-2.659626 10.384064 0.013151
-2.344905 10.384064 0.013075
-2.030184 10.384064 0.013066
-1.715463 10.384064 0.013052
-1.400742 10.384064 0.013013
-1.086021 10.384064 0.012758
-0.771300 10.384064 0.012630
-0.456579 10.384064 0.012605
-0.141859 10.384064 0.012628
0.172863 10.384064 0.012489
0.487584 10.384064 0.012694
0.802305 10.384064 0.012859
1.117026 10.384064 0.012753
1.431747 10.384064 0.012719
1.746467 10.384064 0.012683
2.061188 10.384064 0.012264
2.375909 10.384064 0.012091
2.690630 10.384064 0.012677
3.005352 10.384064 0.013226
3.320073 10.384064 0.013382
3.634794 10.384064 0.012876
3.949515 10.384064 0.013154
4.264236 10.384064 0.013836
4.578956 10.384064 0.014249
4.893677 10.384064 0.014697
5.208398 10.384064 0.015278
5.523119 10.384064 0.016191
5.837841 10.384064 0.018436
6.152562 10.384064 0.022206
6.467283 10.384064 0.026544
6.782003 10.384064 0.034892
7.096724 10.384064 0.049477
7.411445 10.384064 0.072400
7.726166 10.384064 0.107581
8.040888 10.384064 0.162777
8.355608 10.384064 0.233784
8.670330 10.384064 0.324447
8.985050 10.384064 0.421915
9.299772 10.384064 0.542786
9.614492 10.384064 0.670634
9.929214 10.384064 0.794820
10.243935 10.384064 0.904637
10.558655 10.384064 1.093068
10.873377 10.384064 1.244231
11.188097 10.384064 1.377183
11.502819 10.384064 1.501321
11.817539 10.384064 1.622026
12.132261 10.384064 1.772987
12.446981 10.384064 1.913924
12.761703 10.384064 2.109648
13.076424 10.384064 2.278947
13.391144 10.384064 2.369225
13.705866 10.384064 2.520179
14.020586 10.384064 2.667344
14.335308 10.384064 2.952296
14.650028 10.384064 3.321383
14.964750 10.384064 4.343473
15.279470 10.384064 5.762953
15.594193 10.384064 0.000000
15.908913 10.384064 0.000000
16.223633 10.384064 0.000000
16.538355 10.384064 0.000000
16.853075 10.384064 0.000000
17.167797 10.384064 0.000000
17.482517 10.384064 0.000000
17.797239 10.384064 0.000000
18.111959 10.384064 0.000000
18.426680 10.384064 0.000000
18.741402 10.384064 0.000000
-7.065720 10.069340 0.000000
-6.750999 10.069340 0.018789
-6.436278 10.069340 0.014922
-6.121557 10.069340 0.015209
-5.806836 10.069340 0.014916
-5.492115 10.069340 0.015045
-5.177394 10.069340 0.015140
-4.862673 10.069340 0.014651
-4.547952 10.069340 0.014143
-4.233231 10.069340 0.014064
-3.918510 10.069340 0.013886
-3.603789 10.069340 0.013981
-3.289068 10.069340 0.013692
-2.974347 10.069340 0.013203
-2.659626 10.069340 0.013080
-2.344905 10.069340 0.012909
-2.030184 10.069340 0.012947
-1.715463 10.069340 0.013049
-1.400742 10.069340 0.013083
-1.086021 10.069340 0.012776
-0.771300 10.069340 0.012562
-0.456579 10.069340 0.012556
-0.141859 10.069340 0.012559
0.172863 10.069340 0.012390
0.487584 10.069340 0.012461
0.802305 10.069340 0.012606
1.117026 10.069340 0.012641
1.431747 10.069340 0.012641
1.746467 10.069340 0.012454
2.061188 10.069340 0.012034
2.375909 10.069340 0.012142
2.690630 10.069340 0.012807
3.005352 10.069340 0.013253
3.320073 10.069340 0.013388
3.634794 10.069340 0.013121
3.949515 10.069340 0.013241
4.264236 10.069340 0.013596
4.578956 10.069340 0.013939
4.893677 10.069340 0.014635
5.208398 10.069340 0.015350
5.523119 10.069340 0.016307
5.837841 10.069340 0.018470
6.152562 10.069340 0.022311
6.467283 10.069340 0.027016
6.782003 10.069340 0.034916
7.096724 10.069340 0.049801
7.411445 10.069340 0.072412
7.726166 10.069340 0.108310
8.040888 10.069340 0.164822
8.355608 10.069340 0.239747
8.670330 10.069340 0.330194
8.985050 10.069340 0.433052
9.299772 10.069340 0.539526
9.614492 10.069340 0.659094
9.929214 10.069340 0.793743
10.243935 10.069340 0.921487
10.558655 10.069340 1.099972
10.873377 10.069340 1.251121
11.188097 10.069340 1.395852
11.502819 10.069340 1.492720
11.817539 10.069340 1.643076
12.132261 10.069340 1.788191
12.446981 10.069340 1.900638
12.761703 10.069340 2.088223
13.076424 10.069340 2.249599
13.391144 10.069340 2.404563
13.705866 10.069340 2.525585
14.020586 10.069340 2.709105
14.335308 10.069340 2.955194
14.650028 10.069340 3.396252
14.964750 10.069340 4.349629
15.279470 10.069340 5.995167
15.594193 10.069340 0.000000
15.908913 10.069340 0.000000
16.223633 10.069340 0.000000
16.538355 10.069340 0.000000
16.853075 10.069340 0.000000
17.167797 10.069340 0.000000
17.482517 10.069340 0.000000
17.797239 10.069340 0.000000
18.111959 10.069340 0.000000
18.426680 10.069340 0.000000
18.741402 10.069340 0.000000
-7.065720 9.754620 0.000000
-6.750999 9.754620 0.018736
-6.436278 9.754620 0.014687
-6.121557 9.754620 0.014973
-5.806836 9.754620 0.014774
-5.492115 9.754620 0.014824
-5.177394 9.754620 0.014725
-4.862673 9.754620 0.014388
-4.547952 9.754620 0.013960
-4.233231 9.754620 0.013811
-3.918510 9.754620 0.013710
-3.603789 9.754620 0.013858
-3.289068 9.754620 0.013700
-2.974347 9.754620 0.013194
-2.659626 9.754620 0.013060
-2.344905 9.754620 0.012900
-2.030184 9.754620 0.013052
-1.715463 9.754620 0.013106
-1.400742 9.754620 0.013047
-1.086021 9.754620 0.012768
-0.771300 9.754620 0.012531
-0.456579 9.754620 0.012541
-0.141859 9.754620 0.012444
0.172863 9.754620 0.012185
0.487584 9.754620 0.012228
0.802305 9.754620 0.012264
1.117026 9.754620 0.012433
1.431747 9.754620 0.012597
1.746467 9.754620 0.012404
2.061188 9.754620 0.012142
2.375909 9.754620 0.012326
2.690630 9.754620 0.012871
3.005352 9.754620 0.013128
3.320073 9.754620 0.013413
3.634794 9.754620 0.013332
3.949515 9.754620 0.013279
4.264236 9.754620 0.013312
4.578956 9.754620 0.013837
4.893677 9.754620 0.014686
5.208398 9.754620 0.015533
5.523119 9.754620 0.016568
5.837841 9.754620 0.018684
6.152562 9.754620 0.022282
6.467283 9.754620 0.027530
6.782003 9.754620 0.035165
7.096724 9.754620 0.050190
7.411445 9.754620 0.074423
7.726166 9.754620 0.110862
8.040888 9.754620 0.166901
8.355608 9.754620 0.244392
8.670330 9.754620 0.333433
8.985050 9.754620 0.431715
9.299772 9.754620 0.540114
9.614492 9.754620 0.667197
9.929214 9.754620 0.803259
10.243935 9.754620 0.943972
10.558655 9.754620 1.090586
10.873377 9.754620 1.259550
11.188097 9.754620 1.381198
11.502819 9.754620 1.470735
11.817539 9.754620 1.643699
12.132261 9.754620 1.809432
12.446981 9.754620 1.937327
12.761703 9.754620 2.091497
13.076424 9.754620 2.256845
13.391144 9.754620 2.402415
13.705866 9.754620 2.574461
14.020586 9.754620 2.700130
14.335308 9.754620 2.974884
14.650028 9.754620 3.464492
14.964750 9.754620 4.428943
15.279470 9.754620 6.161346
15.594193 9.754620 0.000000
15.908913 9.754620 0.000000
16.223633 9.754620 0.000000
16.538355 9.754620 0.000000
16.853075 9.754620 0.000000
17.167797 9.754620 0.000000
17.482517 9.754620 0.000000
17.797239 9.754620 0.000000
18.111959 9.754620 0.000000
18.426680 9.754620 0.000000
18.741402 9.754620 0.000000
-7.065720 9.439899 0.000000
-6.750999 9.439899 0.018645
-6.436278 9.439899 0.014452
-6.121557 9.439899 0.014655
-5.806836 9.439899 0.014536
-5.492115 9.439899 0.014451
-5.177394 9.439899 0.014478
-4.862673 9.439899 0.014234
-4.547952 9.439899 0.013755
-4.233231 9.439899 0.013666
-3.918510 9.439899 0.013676
-3.603789 9.439899 0.013756
-3.289068 9.439899 0.013689
-2.974347 9.439899 0.013386
-2.659626 9.439899 0.013136
-2.344905 9.439899 0.012925
-2.030184 9.439899 0.013149
-1.715463 9.439899 0.013176
-1.400742 9.439899 0.012980
-1.086021 9.439899 0.012672
-0.771300 9.439899 0.012469
-0.456579 9.439899 0.012475
-0.141859 9.439899 0.012412
0.172863 9.439899 0.012137
0.487584 9.439899 0.012125
0.802305 9.439899 0.012102
1.117026 9.439899 0.012389
1.431747 9.439899 0.012571
1.746467 9.439899 0.012513
2.061188 9.439899 0.012488
2.375909 9.439899 0.012548
2.690630 9.439899 0.012838
3.005352 9.439899 0.013117
3.320073 9.439899 0.013400
3.634794 9.439899 0.013362
3.949515 9.439899 0.013145
4.264236 9.439899 0.013211
4.578956 9.439899 0.013918
4.893677 9.439899 0.014881
5.208398 9.439899 0.015717
5.523119 9.439899 0.016946
5.837841 9.439899 0.018937
6.152562 9.439899 0.022456
6.467283 9.439899 0.028048
6.782003 9.439899 0.036328
7.096724 9.439899 0.051725
7.411445 9.439899 0.076673
7.726166 9.439899 0.115281
8.040888 9.439899 0.169320
8.355608 9.439899 0.250005
8.670330 9.439899 0.340944
8.985050 9.439899 0.435271
9.299772 9.439899 0.549744
9.614492 9.439899 0.682373
9.929214 9.439899 0.810472
10.243935 9.439899 0.951826
10.558655 9.439899 1.113626
10.873377 9.439899 1.255844
11.188097 9.439899 1.362425
11.502819 9.439899 1.490791
11.817539 9.439899 1.645885
12.132261 9.439899 1.816047
12.446981 9.439899 1.951502
12.761703 9.439899 2.123724
13.076424 9.439899 2.283094
13.391144 9.439899 2.403820
13.705866 9.439899 2.545014
14.020586 9.439899 2.836274
14.335308 9.439899 3.034160
14.650028 9.439899 3.455772
14.964750 9.439899 4.468335
15.279470 9.439899 6.156341
15.594193 9.439899 0.000000
15.908913 9.439899 0.000000
16.223633 9.439899 0.000000
16.538355 9.439899 0.000000
16.853075 9.439899 0.000000
17.167797 9.439899 0.000000
17.482517 9.439899 0.000000
17.797239 9.439899 0.000000
18.111959 9.439899 0.000000
18.426680 9.439899 0.000000
18.741402 9.439899 0.000000
-7.065720 9.125179 0.000000
-6.750999 9.125179 0.018450
-6.436278 9.125179 0.014325
-6.121557 9.125179 0.014520
-5.806836 9.125179 0.014274
-5.492115 9.125179 0.014252
-5.177394 9.125179 0.014414
-4.862673 9.125179 0.014146
-4.547952 9.125179 0.013762
-4.233231 9.125179 0.013652
-3.918510 9.125179 0.013636
-3.603789 9.125179 0.013518
-3.289068 9.125179 0.013530
-2.974347 9.125179 0.013478
-2.659626 9.125179 0.013026
-2.344905 9.125179 0.012697
-2.030184 9.125179 0.012971
-1.715463 9.125179 0.013037
-1.400742 9.125179 0.012827
-1.086021 9.125179 0.012625
-0.771300 9.125179 0.012317
-0.456579 9.125179 0.012388
-0.141859 9.125179 0.012515
0.172863 9.125179 0.012298
0.487584 9.125179 0.012095
0.802305 9.125179 0.012174
1.117026 9.125179 0.012439
1.431747 9.125179 0.012554
1.746467 9.125179 0.012502
2.061188 9.125179 0.012568
2.375909 9.125179 0.012630
2.690630 9.125179 0.012839
3.005352 9.125179 0.013183
3.320073 9.125179 0.013237
3.634794 9.125179 0.013145
3.949515 9.125179 0.012980
4.264236 9.125179 0.013295
4.578956 9.125179 0.014165
4.893677 9.125179 0.015004
5.208398 9.125179 0.015763
5.523119 9.125179 0.017173
5.837841 9.125179 0.019460
6.152562 9.125179 0.022865
6.467283 9.125179 0.028252
6.782003 9.125179 0.037507
7.096724 9.125179 0.053267
7.411445 9.125179 0.080208
7.726166 9.125179 0.118140
8.040888 9.125179 0.175160
8.355608 9.125179 0.251562
8.670330 9.125179 0.346401
8.985050 9.125179 0.449589
9.299772 9.125179 0.566126
9.614492 9.125179 0.706137
9.929214 9.125179 0.819445
10.243935 9.125179 0.960634
10.558655 9.125179 1.123182
10.873377 9.125179 1.274943
11.188097 9.125179 1.390334
11.502819 9.125179 1.528323
11.817539 9.125179 1.676598
12.132261 9.125179 1.816947
12.446981 9.125179 2.000731
12.761703 9.125179 2.135850
13.076424 9.125179 2.279858
13.391144 9.125179 2.372470
13.705866 9.125179 2.513759
14.020586 9.125179 2.774451
14.335308 9.125179 3.141273
14.650028 9.125179 3.503747
14.964750 9.125179 4.562656
15.279470 9.125179 6.118833
15.594193 9.125179 0.000000
15.908913 9.125179 0.000000
16.223633 9.125179 0.000000
16.538355 9.125179 0.000000
16.853075 9.125179 0.000000
17.167797 9.125179 0.000000
17.482517 9.125179 0.000000
17.797239 9.125179 0.000000
18.111959 9.125179 0.000000
18.426680 9.125179 0.000000
18.741402 9.125179 0.000000
-7.065720 8.810455 0.000000
-6.750999 8.810455 0.018262
-6.436278 8.810455 0.014382
-6.121557 8.810455 0.014613
-5.806836 8.810455 0.014267
-5.492115 8.810455 0.014338
-5.177394 8.810455 0.014313
-4.862673 8.810455 0.013826
-4.547952 8.810455 0.013620
-4.233231 8.810455 0.013627
-3.918510 8.810455 0.013432
-3.603789 8.810455 0.013166
-3.289068 8.810455 0.013291
-2.974347 8.810455 0.013388
-2.659626 8.810455 0.012910
-2.344905 8.810455 0.012508
-2.030184 8.810455 0.012660
-1.715463 8.810455 0.012767
-1.400742 8.810455 0.012601
-1.086021 8.810455 0.012531
-0.771300 8.810455 0.012330
-0.456579 8.810455 0.012391
-0.141859 8.810455 0.012575
0.172863 8.810455 0.012429
0.487584 8.810455 0.012138
0.802305 8.810455 0.012258
1.117026 8.810455 0.012493
1.431747 8.810455 0.012574
1.746467 8.810455 0.012343
2.061188 8.810455 0.012392
2.375909 8.810455 0.012415
2.690630 8.810455 0.012802
3.005352 8.810455 0.013107
3.320073 8.810455 0.012996
3.634794 8.810455 0.012769
3.949515 8.810455 0.012780
4.264236 8.810455 0.013405
4.578956 8.810455 0.014233
4.893677 8.810455 0.015032
5.208398 8.810455 0.015654
5.523119 8.810455 0.017328
5.837841 8.810455 0.020018
6.152562 8.810455 0.023003
6.467283 8.810455 0.028264
6.782003 8.810455 0.038526
7.096724 8.810455 0.055191
7.411445 8.810455 0.080075
7.726166 8.810455 0.119762
8.040888 8.810455 0.182448
8.355608 8.810455 0.260954
8.670330 8.810455 0.352559
8.985050 8.810455 0.456585
9.299772 8.810455 0.570303
9.614492 8.810455 0.705717
9.929214 8.810455 0.827695
10.243935 8.810455 0.954797
10.558655 8.810455 1.122363
10.873377 8.810455 1.294040
11.188097 8.810455 1.416486
11.502819 8.810455 1.517687
11.817539 8.810455 1.647427
12.132261 8.810455 1.806379
12.446981 8.810455 1.978502
12.761703 8.810455 2.129263
13.076424 8.810455 2.237337
13.391144 8.810455 2.369393
13.705866 8.810455 2.513754
14.020586 8.810455 2.822131
14.335308 8.810455 3.141599
14.650028 8.810455 3.546240
14.964750 8.810455 4.504390
15.279470 8.810455 6.234865
15.594193 8.810455 0.000000
15.908913 8.810455 0.000000
16.223633 8.810455 0.000000
16.538355 8.810455 0.000000
16.853075 8.810455 0.000000
17.167797 8.810455 0.000000
17.482517 8.810455 0.000000
17.797239 8.810455 0.000000
18.111959 8.810455 0.000000
18.426680 8.810455 0.000000
18.741402 8.810455 0.000000
-7.065720 8.495735 0.000000
-6.750999 8.495735 0.018052
-6.436278 8.495735 0.014349
-6.121557 8.495735 0.014715
-5.806836 8.495735 0.014439
-5.492115 8.495735 0.014550
-5.177394 8.495735 0.014333
-4.862673 8.495735 0.013657
-4.547952 8.495735 0.013471
-4.233231 8.495735 0.013465
-3.918510 8.495735 0.013279
-3.603789 8.495735 0.013108
-3.289068 8.495735 0.013254
-2.974347 8.495735 0.013187
-2.659626 8.495735 0.012796
-2.344905 8.495735 0.012549
-2.030184 8.495735 0.012471
-1.715463 8.495735 0.012453
-1.400742 8.495735 0.012357
-1.086021 8.495735 0.012482
-0.771300 8.495735 0.012409
-0.456579 8.495735 0.012380
-0.141859 8.495735 0.012522
0.172863 8.495735 0.012425
0.487584 8.495735 0.012249
0.802305 8.495735 0.012269
1.117026 8.495735 0.012444
1.431747 8.495735 0.012522
1.746467 8.495735 0.012281
2.061188 8.495735 0.012138
2.375909 8.495735 0.012199
2.690630 8.495735 0.012709
3.005352 8.495735 0.012982
3.320073 8.495735 0.012825
3.634794 8.495735 0.012717
3.949515 8.495735 0.012920
4.264236 8.495735 0.013494
4.578956 8.495735 0.014207
4.893677 8.495735 0.014869
5.208398 8.495735 0.015553
5.523119 8.495735 0.017425
5.837841 8.495735 0.019796
6.152562 8.495735 0.022949
6.467283 8.495735 0.028047
6.782003 8.495735 0.038377
7.096724 8.495735 0.056049
7.411445 8.495735 0.081441
7.726166 8.495735 0.123770
8.040888 8.495735 0.190577
8.355608 8.495735 0.267399
8.670330 8.495735 0.360760
8.985050 8.495735 0.455354
9.299772 8.495735 0.579109
9.614492 8.495735 0.710455
9.929214 8.495735 0.837522
10.243935 8.495735 0.960932
10.558655 8.495735 1.131651
10.873377 8.495735 1.303811
11.188097 8.495735 1.430671
11.502819 8.495735 1.511266
11.817539 8.495735 1.667158
12.132261 8.495735 1.760134
12.446981 8.495735 1.942483
12.761703 8.495735 2.135812
13.076424 8.495735 2.249136
13.391144 8.495735 2.366496
13.705866 8.495735 2.507492
14.020586 8.495735 2.828103
14.335308 8.495735 3.153286
14.650028 8.495735 3.603177
14.964750 8.495735 4.477338
15.279470 8.495735 6.233160
15.594193 8.495735 0.000000
15.908913 8.495735 0.000000
16.223633 8.495735 0.000000
16.538355 8.495735 0.000000
16.853075 8.495735 0.000000
17.167797 8.495735 0.000000
17.482517 8.495735 0.000000
17.797239 8.495735 0.000000
18.111959 8.495735 0.000000
18.426680 8.495735 0.000000
18.741402 8.495735 0.000000
-7.065720 8.181015 0.000000
-6.750999 8.181015 0.017826
-6.436278 8.181015 0.014120
-6.121557 8.181015 0.014494
-5.806836 8.181015 0.014444
-5.492115 8.181015 0.014645
-5.177394 8.181015 0.014508
-4.862673 8.181015 0.013629
-4.547952 8.181015 0.013405
-4.233231 8.181015 0.013273
-3.918510 8.181015 0.013149
-3.603789 8.181015 0.013181
-3.289068 8.181015 0.013214
-2.974347 8.181015 0.013026
-2.659626 8.181015 0.012793
-2.344905 8.181015 0.012595
-2.030184 8.181015 0.012437
-1.715463 8.181015 0.012295
-1.400742 8.181015 0.012313
-1.086021 8.181015 0.012520
-0.771300 8.181015 0.012438
-0.456579 8.181015 0.012407
-0.141859 8.181015 0.012452
0.172863 8.181015 0.012370
0.487584 8.181015 0.012225
0.802305 8.181015 0.012175
1.117026 8.181015 0.012345
1.431747 8.181015 0.012480
1.746467 8.181015 0.012326
2.061188 8.181015 0.012096
2.375909 8.181015 0.012201
2.690630 8.181015 0.012626
3.005352 8.181015 0.012848
3.320073 8.181015 0.012772
3.634794 8.181015 0.012955
3.949515 8.181015 0.013229
4.264236 8.181015 0.013625
4.578956 8.181015 0.014169
4.893677 8.181015 0.014781
5.208398 8.181015 0.015413
5.523119 8.181015 0.017034
5.837841 8.181015 0.019415
6.152562 8.181015 0.022889
6.467283 8.181015 0.028320
6.782003 8.181015 0.037931
7.096724 8.181015 0.055537
7.411445 8.181015 0.084049
7.726166 8.181015 0.128629
8.040888 8.181015 0.193256
8.355608 8.181015 0.271512
8.670330 8.181015 0.360447
8.985050 8.181015 0.462417
9.299772 8.181015 0.583789
9.614492 8.181015 0.717789
9.929214 8.181015 0.850465
10.243935 8.181015 0.996952
10.558655 8.181015 1.129062
10.873377 8.181015 1.290183
11.188097 8.181015 1.441667
11.502819 8.181015 1.558704
11.817539 8.181015 1.667147
12.132261 8.181015 1.797557
12.446981 8.181015 1.935673
12.761703 8.181015 2.119920
13.076424 8.181015 2.209426
13.391144 8.181015 2.342799
13.705866 8.181015 2.551071
14.020586 8.181015 2.819657
14.335308 8.181015 3.176032
14.650028 8.181015 3.482271
14.964750 8.181015 4.605020
15.279470 8.181015 6.265393
15.594193 8.181015 0.000000
15.908913 8.181015 0.000000
16.223633 8.181015 0.000000
16.538355 8.181015 0.000000
16.853075 8.181015 0.000000
17.167797 8.181015 0.000000
17.482517 8.181015 0.000000
17.797239 8.181015 0.000000
18.111959 8.181015 0.000000
18.426680 8.181015 0.000000
18.741402 8.181015 0.000000
-7.065720 7.866295 0.000000
-6.750999 7.866295 0.017663
-6.436278 7.866295 0.013819
-6.121557 7.866295 0.014226
-5.806836 7.866295 0.014293
-5.492115 7.866295 0.014443
-5.177394 7.866295 0.014465
-4.862673 7.866295 0.013579
-4.547952 7.866295 0.013301
-4.233231 7.866295 0.013280
-3.918510 7.866295 0.013247
-3.603789 7.866295 0.013364
-3.289068 7.866295 0.013196
-2.974347 7.866295 0.012804
-2.659626 7.866295 0.012687
-2.344905 7.866295 0.012635
-2.030184 7.866295 0.012509
-1.715463 7.866295 0.012254
-1.400742 7.866295 0.012357
-1.086021 7.866295 0.012487
-0.771300 7.866295 0.012394
-0.456579 7.866295 0.012413
-0.141859 7.866295 0.012340
0.172863 7.866295 0.012244
0.487584 7.866295 0.012020
0.802305 7.866295 0.011914
1.117026 7.866295 0.012328
1.431747 7.866295 0.012481
1.746467 7.866295 0.012354
2.061188 7.866295 0.012201
2.375909 7.866295 0.012368
2.690630 7.866295 0.012713
3.005352 7.866295 0.012853
3.320073 7.866295 0.012768
3.634794 7.866295 0.013121
3.949515 7.866295 0.013365
4.264236 7.866295 0.013612
4.578956 7.866295 0.014105
4.893677 7.866295 0.014698
5.208398 7.866295 0.015311
5.523119 7.866295 0.016854
5.837841 7.866295 0.019411
6.152562 7.866295 0.023137
6.467283 7.866295 0.028748
6.782003 7.866295 0.038215
7.096724 7.866295 0.056108
7.411445 7.866295 0.085448
7.726166 7.866295 0.131034
8.040888 7.866295 0.195347
8.355608 7.866295 0.270785
8.670330 7.866295 0.364106
8.985050 7.866295 0.463320
9.299772 7.866295 0.587499
9.614492 7.866295 0.736557
9.929214 7.866295 0.871618
10.243935 7.866295 1.012121
10.558655 7.866295 1.162675
10.873377 7.866295 1.286590
11.188097 7.866295 1.433636
11.502819 7.866295 1.594187
11.817539 7.866295 1.707759
12.132261 7.866295 1.821731
12.446981 7.866295 1.954820
12.761703 7.866295 2.080428
13.076424 7.866295 2.168995
13.391144 7.866295 2.315059
13.705866 7.866295 2.533114
14.020586 7.866295 2.868161
14.335308 7.866295 3.060564
14.650028 7.866295 3.514383
14.964750 7.866295 4.489319
15.279470 7.866295 6.711905
15.594193 7.866295 0.000000
15.908913 7.866295 0.000000
16.223633 7.866295 0.000000
16.538355 7.866295 0.000000
16.853075 7.866295 0.000000
17.167797 7.866295 0.000000
17.482517 7.866295 0.000000
17.797239 7.866295 0.000000
18.111959 7.866295 0.000000
18.426680 7.866295 0.000000
18.741402 7.866295 0.000000
-7.065720 7.551575 0.000000
-6.750999 7.551575 0.017885
-6.436278 7.551575 0.013813
-6.121557 7.551575 0.014089
-5.806836 7.551575 0.014145
-5.492115 7.551575 0.014218
-5.177394 7.551575 0.014239
-4.862673 7.551575 0.013422
-4.547952 7.551575 0.013119
-4.233231 7.551575 0.013186
-3.918510 7.551575 0.013407
-3.603789 7.551575 0.013271
-3.289068 7.551575 0.013031
-2.974347 7.551575 0.012686
-2.659626 7.551575 0.012587
-2.344905 7.551575 0.012566
-2.030184 7.551575 0.012754
-1.715463 7.551575 0.012632
-1.400742 7.551575 0.012558
-1.086021 7.551575 0.012488
-0.771300 7.551575 0.012358
-0.456579 7.551575 0.012394
-0.141859 7.551575 0.012343
0.172863 7.551575 0.012239
0.487584 7.551575 0.011869
0.802305 7.551575 0.011654
1.117026 7.551575 0.012197
1.431747 7.551575 0.012506
1.746467 7.551575 0.012332
2.061188 7.551575 0.012245
2.375909 7.551575 0.012463
2.690630 7.551575 0.012796
3.005352 7.551575 0.012942
3.320073 7.551575 0.012762
3.634794 7.551575 0.013013
3.949515 7.551575 0.013232
4.264236 7.551575 0.013505
4.578956 7.551575 0.013976
4.893677 7.551575 0.014615
5.208398 7.551575 0.015322
5.523119 7.551575 0.016982
5.837841 7.551575 0.019953
6.152562 7.551575 0.023429
6.467283 7.551575 0.028712
6.782003 7.551575 0.039443
7.096724 7.551575 0.057676
7.411445 7.551575 0.087981
7.726166 7.551575 0.131666
8.040888 7.551575 0.198895
8.355608 7.551575 0.278655
8.670330 7.551575 0.376777
8.985050 7.551575 0.467126
9.299772 7.551575 0.602290
9.614492 7.551575 0.754162
9.929214 7.551575 0.891769
10.243935 7.551575 1.028057
10.558655 7.551575 1.176124
10.873377 7.551575 1.296825
11.188097 7.551575 1.436080
11.502819 7.551575 1.606781
11.817539 7.551575 1.699662
12.132261 7.551575 1.814584
12.446981 7.551575 1.997203
12.761703 7.551575 2.104105
13.076424 7.551575 2.143511
13.391144 7.551575 2.329747
13.705866 7.551575 2.580896
14.020586 7.551575 2.888884
14.335308 7.551575 3.048882
14.650028 7.551575 3.568182
14.964750 7.551575 4.673166
15.279470 7.551575 6.669013
15.594193 7.551575 0.000000
15.908913 7.551575 0.000000
16.223633 7.551575 0.000000
16.538355 7.551575 0.000000
16.853075 7.551575 0.000000
17.167797 7.551575 0.000000
17.482517 7.551575 0.000000
17.797239 7.551575 0.000000
18.111959 7.551575 0.000000
18.426680 7.551575 0.000000
18.741402 7.551575 0.000000
-7.065720 7.236851 0.013668
-6.750999 7.236851 0.018032
-6.436278 7.236851 0.013820
-6.121557 7.236851 0.014167
-5.806836 7.236851 0.014048
-5.492115 7.236851 0.014021
-5.177394 7.236851 0.013930
-4.862673 7.236851 0.013218
-4.547952 7.236851 0.012995
-4.233231 7.236851 0.013149
-3.918510 7.236851 0.013341
-3.603789 7.236851 0.013070
-3.289068 7.236851 0.012852
-2.974347 7.236851 0.012613
-2.659626 7.236851 0.012613
-2.344905 7.236851 0.012608
-2.030184 7.236851 0.012931
-1.715463 7.236851 0.013016
-1.400742 7.236851 0.012760
-1.086021 7.236851 0.012504
-0.771300 7.236851 0.012365
-0.456579 7.236851 0.012352
-0.141859 7.236851 0.012427
0.172863 7.236851 0.012347
0.487584 7.236851 0.011912
0.802305 7.236851 0.011699
1.117026 7.236851 0.012182
1.431747 7.236851 0.012446
1.746467 7.236851 0.012264
2.061188 7.236851 0.012248
2.375909 7.236851 0.012595
2.690630 7.236851 0.012937
3.005352 7.236851 0.012915
3.320073 7.236851 0.012736
3.634794 7.236851 0.012763
3.949515 7.236851 0.013060
4.264236 7.236851 0.013472
4.578956 7.236851 0.013983
4.893677 7.236851 0.014572
5.208398 7.236851 0.015309
5.523119 7.236851 0.017203
5.837841 7.236851 0.020433
6.152562 7.236851 0.023927
6.467283 7.236851 0.029385
6.782003 7.236851 0.040403
7.096724 7.236851 0.058985
7.411445 7.236851 0.089172
7.726166 7.236851 0.135864
8.040888 7.236851 0.197307
8.355608 7.236851 0.284406
8.670330 7.236851 0.383641
8.985050 7.236851 0.482833
9.299772 7.236851 0.605194
9.614492 7.236851 0.754246
9.929214 7.236851 0.887778
10.243935 7.236851 1.029301
10.558655 7.236851 1.177218
10.873377 7.236851 1.326174
11.188097 7.236851 1.455668
11.502819 7.236851 1.594599
11.817539 7.236851 1.745340
12.132261 7.236851 1.850372
12.446981 7.236851 1.977379
12.761703 7.236851 2.137583
13.076424 7.236851 2.159436
13.391144 7.236851 2.341978
13.705866 7.236851 2.610780
14.020586 7.236851 2.869580
14.335308 7.236851 3.135785
14.650028 7.236851 3.696142
14.964750 7.236851 4.745575
15.279470 7.236851 6.741910
15.594193 7.236851 0.000000
15.908913 7.236851 0.000000
16.223633 7.236851 0.000000
16.538355 7.236851 0.000000
16.853075 7.236851 0.000000
17.167797 7.236851 0.000000
17.482517 7.236851 0.000000
17.797239 7.236851 0.000000
18.111959 7.236851 0.000000
18.426680 7.236851 0.000000
18.741402 7.236851 0.000000
-7.065720 6.922131 0.016150
-6.750999 6.922131 0.017931
-6.436278 6.922131 0.013841
-6.121557 6.922131 0.014160
-5.806836 6.922131 0.014031
-5.492115 6.922131 0.013826
-5.177394 6.922131 0.013558
-4.862673 6.922131 0.013050
-4.547952 6.922131 0.013014
-4.233231 6.922131 0.013129
-3.918510 6.922131 0.013187
-3.603789 6.922131 0.013021
-3.289068 6.922131 0.012730
-2.974347 6.922131 0.012604
-2.659626 6.922131 0.012644
-2.344905 6.922131 0.012653
-2.030184 6.922131 0.012907
-1.715463 6.922131 0.013015
-1.400742 6.922131 0.012674
-1.086021 6.922131 0.012345
-0.771300 6.922131 0.012312
-0.456579 6.922131 0.012321
-0.141859 6.922131 0.012486
0.172863 6.922131 0.012480
0.487584 6.922131 0.012129
0.802305 6.922131 0.012116
1.117026 6.922131 0.012366
1.431747 6.922131 0.012411
1.746467 6.922131 0.012212
2.061188 6.922131 0.012294
2.375909 6.922131 0.012718
2.690630 6.922131 0.013092
3.005352 6.922131 0.012964
3.320073 6.922131 0.012692
3.634794 6.922131 0.012532
3.949515 6.922131 0.013029
4.264236 6.922131 0.013493
4.578956 6.922131 0.014133
4.893677 6.922131 0.014588
5.208398 6.922131 0.015365
5.523119 6.922131 0.017501
5.837841 6.922131 0.020729
6.152562 6.922131 0.023957
6.467283 6.922131 0.030255
6.782003 6.922131 0.041533
7.096724 6.922131 0.060814
7.411445 6.922131 0.092736
7.726166 6.922131 0.141184
8.040888 6.922131 0.206333
8.355608 6.922131 0.290590
8.670330 6.922131 0.390504
8.985050 6.922131 0.494515
9.299772 6.922131 0.606227
9.614492 6.922131 0.749038
9.929214 6.922131 0.881724
10.243935 6.922131 1.026478
10.558655 6.922131 1.168425
10.873377 6.922131 1.318133
11.188097 6.922131 1.464142
11.502819 6.922131 1.606820
11.817539 6.922131 1.723921
12.132261 6.922131 1.856732
12.446981 6.922131 2.031015
12.761703 6.922131 2.147484
13.076424 6.922131 2.216783
13.391144 6.922131 2.383348
13.705866 6.922131 2.587323
14.020586 6.922131 2.826805
14.335308 6.922131 3.088102
14.650028 6.922131 3.603403
14.964750 6.922131 4.953875
15.279470 6.922131 6.668983
15.594193 6.922131 0.000000
15.908913 6.922131 0.000000
16.223633 6.922131 0.000000
16.538355 6.922131 0.000000
16.853075 6.922131 0.000000
17.167797 6.922131 0.000000
17.482517 6.922131 0.000000
17.797239 6.922131 0.000000
18.111959 6.922131 0.000000
18.426680 6.922131 0.000000
18.741402 6.922131 0.000000
-7.065720 6.607410 0.035837
-6.750999 6.607410 0.017779
-6.436278 6.607410 0.013947
-6.121557 6.607410 0.014257
-5.806836 6.607410 0.014065
-5.492115 6.607410 0.013912
-5.177394 6.607410 0.013380
-4.862673 6.607410 0.013017
-4.547952 6.607410 0.013074
-4.233231 6.607410 0.012989
-3.918510 6.607410 0.013130
-3.603789 6.607410 0.013033
-3.289068 6.607410 0.012671
-2.974347 6.607410 0.012460
-2.659626 6.607410 0.012549
-2.344905 6.607410 0.012552
-2.030184 6.607410 0.012647
-1.715463 6.607410 0.012740
-1.400742 6.607410 0.012426
-1.086021 6.607410 0.012184
-0.771300 6.607410 0.012259
-0.456579 6.607410 0.012263
-0.141859 6.607410 0.012502
0.172863 6.607410 0.012441
0.487584 6.607410 0.012299
0.802305 6.607410 0.012459
1.117026 6.607410 0.012645
1.431747 6.607410 0.012544
1.746467 6.607410 0.012187
2.061188 6.607410 0.012216
2.375909 6.607410 0.012705
2.690630 6.607410 0.013136
3.005352 6.607410 0.012976
3.320073 6.607410 0.012659
3.634794 6.607410 0.012561
3.949515 6.607410 0.013092
4.264236 6.607410 0.013593
4.578956 6.607410 0.014258
4.893677 6.607410 0.014704
5.208398 6.607410 0.015569
5.523119 6.607410 0.017742
5.837841 6.607410 0.020868
6.152562 6.607410 0.024747
6.467283 6.607410 0.031405
6.782003 6.607410 0.043297
7.096724 6.607410 0.062141
7.411445 6.607410 0.099287
7.726166 6.607410 0.149336
8.040888 6.607410 0.214751
8.355608 6.607410 0.298229
8.670330 6.607410 0.394780
8.985050 6.607410 0.502988
9.299772 6.607410 0.622285
9.614492 6.607410 0.749820
9.929214 6.607410 0.869335
10.243935 6.607410 1.010734
10.558655 6.607410 1.168398
10.873377 6.607410 1.345095
11.188097 6.607410 1.481462
11.502819 6.607410 1.603358
11.817539 6.607410 1.718914
12.132261 6.607410 1.881326
12.446981 6.607410 2.056206
12.761703 6.607410 2.206889
13.076424 6.607410 2.294083
13.391144 6.607410 2.443287
13.705866 6.607410 2.626966
14.020586 6.607410 2.771224
14.335308 6.607410 3.145886
14.650028 6.607410 3.621939
14.964750 6.607410 4.854492
15.279470 6.607410 6.553334
15.594193 6.607410 0.000000
15.908913 6.607410 0.000000
16.223633 6.607410 0.000000
16.538355 6.607410 0.000000
16.853075 6.607410 0.000000
17.167797 6.607410 0.000000
17.482517 6.607410 0.000000
17.797239 6.607410 0.000000
18.111959 6.607410 0.000000
18.426680 6.607410 0.000000
18.741402 6.607410 0.000000
-7.065720 6.292690 0.027761
-6.750999 6.292690 0.017671
-6.436278 6.292690 0.013906
-6.121557 6.292690 0.014182
-5.806836 6.292690 0.014086
-5.492115 6.292690 0.014009
-5.177394 6.292690 0.013517
-4.862673 6.292690 0.013106
-4.547952 6.292690 0.013058
-4.233231 6.292690 0.012825
-3.918510 6.292690 0.012945
-3.603789 6.292690 0.012907
-3.289068 6.292690 0.012504
-2.974347 6.292690 0.012292
-2.659626 6.292690 0.012570
-2.344905 6.292690 0.012496
-2.030184 6.292690 0.012343
-1.715463 6.292690 0.012471
-1.400742 6.292690 0.012364
-1.086021 6.292690 0.012092
-0.771300 6.292690 0.012138
-0.456579 6.292690 0.012247
-0.141859 6.292690 0.012517
0.172863 6.292690 0.012318
0.487584 6.292690 0.012147
0.802305 6.292690 0.012518
1.117026 6.292690 0.012785
1.431747 6.292690 0.012652
1.746467 6.292690 0.012293
2.061188 6.292690 0.012118
2.375909 6.292690 0.012568
2.690630 6.292690 0.013120
3.005352 6.292690 0.012987
3.320073 6.292690 0.012628
3.634794 6.292690 0.012720
3.949515 6.292690 0.013232
4.264236 6.292690 0.013640
4.578956 6.292690 0.014334
4.893677 6.292690 0.014849
5.208398 6.292690 0.015966
5.523119 6.292690 0.018010
5.837841 6.292690 0.021197
6.152562 6.292690 0.025336
6.467283 6.292690 0.032308
6.782003 6.292690 0.044073
7.096724 6.292690 0.064963
7.411445 6.292690 0.100543
7.726166 6.292690 0.152308
8.040888 6.292690 0.222522
8.355608 6.292690 0.306170
8.670330 6.292690 0.401080
8.985050 6.292690 0.510690
9.299772 6.292690 0.639877
9.614492 6.292690 0.766274
9.929214 6.292690 0.872926
10.243935 6.292690 1.019642
10.558655 6.292690 1.189411
10.873377 6.292690 1.348442
11.188097 6.292690 1.452418
11.502819 6.292690 1.607027
11.817539 6.292690 1.768439
12.132261 6.292690 1.929398
12.446981 6.292690 2.101338
12.761703 6.292690 2.262277
13.076424 6.292690 2.343827
13.391144 6.292690 2.522193
13.705866 6.292690 2.714509
14.020586 6.292690 2.854718
14.335308 6.292690 3.110477
14.650028 6.292690 3.747600
14.964750 6.292690 4.852902
15.279470 6.292690 6.682812
15.594193 6.292690 0.000000
15.908913 6.292690 0.000000
16.223633 6.292690 0.000000
16.538355 6.292690 0.000000
16.853075 6.292690 0.000000
17.167797 6.292690 0.000000
17.482517 6.292690 0.000000
17.797239 6.292690 0.000000
18.111959 6.292690 0.000000
18.426680 6.292690 0.000000
18.741402 6.292690 0.000000
-7.065720 5.977966 0.024817
-6.750999 5.977966 0.017344
-6.436278 5.977966 0.013555
-6.121557 5.977966 0.013751
-5.806836 5.977966 0.013769
-5.492115 5.977966 0.013963
-5.177394 5.977966 0.013794
-4.862673 5.977966 0.013250
-4.547952 5.977966 0.013052
-4.233231 5.977966 0.012763
-3.918510 5.977966 0.012941
-3.603789 5.977966 0.012869
-3.289068 5.977966 0.012461
-2.974347 5.977966 0.012357
-2.659626 5.977966 0.012693
-2.344905 5.977966 0.012514
-2.030184 5.977966 0.012276
-1.715463 5.977966 0.012339
-1.400742 5.977966 0.012335
-1.086021 5.977966 0.012052
-0.771300 5.977966 0.012080
-0.456579 5.977966 0.012335
-0.141859 5.977966 0.012446
0.172863 5.977966 0.012188
0.487584 5.977966 0.012002
0.802305 5.977966 0.012498
1.117026 5.977966 0.012866
1.431747 5.977966 0.012697
1.746467 5.977966 0.012314
2.061188 5.977966 0.012128
2.375909 5.977966 0.012446
2.690630 5.977966 0.012991
3.005352 5.977966 0.013120
3.320073 5.977966 0.012782
3.634794 5.977966 0.012981
3.949515 5.977966 0.013211
4.264236 5.977966 0.013541
4.578956 5.977966 0.014174
4.893677 5.977966 0.014763
5.208398 5.977966 0.016147
5.523119 5.977966 0.018073
5.837841 5.977966 0.021165
6.152562 5.977966 0.025975
6.467283 5.977966 0.032518
6.782003 5.977966 0.044917
7.096724 5.977966 0.065460
7.411445 5.977966 0.103355
7.726166 5.977966 0.156125
8.040888 5.977966 0.222698
8.355608 5.977966 0.303039
8.670330 5.977966 0.401171
8.985050 5.977966 0.508604
9.299772 5.977966 0.637721
9.614492 5.977966 0.773523
9.929214 5.977966 0.898155
10.243935 5.977966 1.036000
10.558655 5.977966 1.201199
10.873377 5.977966 1.369994
11.188097 5.977966 1.499402
11.502819 5.977966 1.621873
11.817539 5.977966 1.781174
12.132261 5.977966 1.902252
12.446981 5.977966 2.041399
12.761703 5.977966 2.227672
13.076424 5.977966 2.361901
13.391144 5.977966 2.474989
13.705866 5.977966 2.599013
14.020586 5.977966 2.891283
14.335308 5.977966 3.177050
14.650028 5.977966 3.894861
14.964750 5.977966 4.973851
15.279470 5.977966 6.775352
15.594193 5.977966 0.000000
15.908913 5.977966 0.000000
16.223633 5.977966 0.000000
16.538355 5.977966 0.000000
16.853075 5.977966 0.000000
17.167797 5.977966 0.000000
17.482517 5.977966 0.000000
17.797239 5.977966 0.000000
18.111959 5.977966 0.000000
18.426680 5.977966 0.000000
18.741402 5.977966 0.000000
-7.065720 5.663246 0.024740
-6.750999 5.663246 0.017129
-6.436278 5.663246 0.013306
-6.121557 5.663246 0.013404
-5.806836 5.663246 0.013440
-5.492115 5.663246 0.013908
-5.177394 5.663246 0.013835
-4.862673 5.663246 0.013242
-4.547952 5.663246 0.012977
-4.233231 5.663246 0.012837
-3.918510 5.663246 0.013048
-3.603789 5.663246 0.012956
-3.289068 5.663246 0.012593
-2.974347 5.663246 0.012472
-2.659626 5.663246 0.012707
-2.344905 5.663246 0.012556
-2.030184 5.663246 0.012376
-1.715463 5.663246 0.012347
-1.400742 5.663246 0.012253
-1.086021 5.663246 0.012105
-0.771300 5.663246 0.012161
-0.456579 5.663246 0.012395
-0.141859 5.663246 0.012380
0.172863 5.663246 0.012132
0.487584 5.663246 0.011902
0.802305 5.663246 0.012441
1.117026 5.663246 0.012857
1.431747 5.663246 0.012738
1.746467 5.663246 0.012397
2.061188 5.663246 0.012190
2.375909 5.663246 0.012341
2.690630 5.663246 0.012762
3.005352 5.663246 0.013164
3.320073 5.663246 0.012980
3.634794 5.663246 0.013136
3.949515 5.663246 0.013190
4.264236 5.663246 0.013391
4.578956 5.663246 0.014051
4.893677 5.663246 0.014522
5.208398 5.663246 0.015965
5.523119 5.663246 0.017950
5.837841 5.663246 0.021352
6.152562 5.663246 0.026360
6.467283 5.663246 0.034088
6.782003 5.663246 0.047027
7.096724 5.663246 0.068884
7.411445 5.663246 0.106655
7.726166 5.663246 0.158308
8.040888 5.663246 0.219299
8.355608 5.663246 0.304799
8.670330 5.663246 0.404014
8.985050 5.663246 0.508844
9.299772 5.663246 0.640399
9.614492 5.663246 0.774696
9.929214 5.663246 0.914865
10.243935 5.663246 1.088690
10.558655 5.663246 1.237014
10.873377 5.663246 1.374977
11.188097 5.663246 1.496351
11.502819 5.663246 1.620017
11.817539 5.663246 1.729812
12.132261 5.663246 1.903445
12.446981 5.663246 2.046858
12.761703 5.663246 2.194587
13.076424 5.663246 2.375448
13.391144 5.663246 2.506031
13.705866 5.663246 2.615237
14.020586 5.663246 2.919950
14.335308 5.663246 3.255960
14.650028 5.663246 3.831913
14.964750 5.663246 5.220683
15.279470 5.663246 7.029917
15.594193 5.663246 0.000000
15.908913 5.663246 0.000000
16.223633 5.663246 0.000000
16.538355 5.663246 0.000000
16.853075 5.663246 0.000000
17.167797 5.663246 0.000000
17.482517 5.663246 0.000000
17.797239 5.663246 0.000000
18.111959 5.663246 0.000000
18.426680 5.663246 0.000000
18.741402 5.663246 0.000000
-7.065720 5.348526 0.026155
-6.750999 5.348526 0.017075
-6.436278 5.348526 0.013284
-6.121557 5.348526 0.013338
-5.806836 5.348526 0.013298
-5.492115 5.348526 0.013705
-5.177394 5.348526 0.013651
-4.862673 5.348526 0.013161
-4.547952 5.348526 0.012921
-4.233231 5.348526 0.012934
-3.918510 5.348526 0.013058
-3.603789 5.348526 0.012987
-3.289068 5.348526 0.012778
-2.974347 5.348526 0.012754
-2.659626 5.348526 0.012738
-2.344905 5.348526 0.012605
-2.030184 5.348526 0.012702
-1.715463 5.348526 0.012526
-1.400742 5.348526 0.012278
-1.086021 5.348526 0.012248
-0.771300 5.348526 0.012428
-0.456579 5.348526 0.012481
-0.141859 5.348526 0.012428
0.172863 5.348526 0.012198
0.487584 5.348526 0.012075
0.802305 5.348526 0.012456
1.117026 5.348526 0.012777
1.431747 5.348526 0.012799
1.746467 5.348526 0.012457
2.061188 5.348526 0.012227
2.375909 5.348526 0.012276
2.690630 5.348526 0.012566
3.005352 5.348526 0.013202
3.320073 5.348526 0.013142
3.634794 5.348526 0.013097
3.949515 5.348526 0.013187
4.264236 5.348526 0.013412
4.578956 5.348526 0.014040
4.893677 5.348526 0.014589
5.208398 5.348526 0.015807
5.523119 5.348526 0.018087
5.837841 5.348526 0.021586
6.152562 5.348526 0.027087
6.467283 5.348526 0.034950
6.782003 5.348526 0.048652
7.096724 5.348526 0.071321
7.411445 5.348526 0.105695
7.726166 5.348526 0.157800
8.040888 5.348526 0.225897
8.355608 5.348526 0.310558
8.670330 5.348526 0.416915
8.985050 5.348526 0.517733
9.299772 5.348526 0.642680
9.614492 5.348526 0.782645
9.929214 5.348526 0.906465
10.243935 5.348526 1.076274
10.558655 5.348526 1.245121
10.873377 5.348526 1.419698
11.188097 5.348526 1.508881
11.502819 5.348526 1.612414
11.817539 5.348526 1.758215
12.132261 5.348526 1.887204
12.446981 5.348526 2.053154
12.761703 5.348526 2.173530
13.076424 5.348526 2.333322
13.391144 5.348526 2.508207
13.705866 5.348526 2.677467
14.020586 5.348526 2.947396
14.335308 5.348526 3.309662
14.650028 5.348526 4.010543
14.964750 5.348526 5.268552
15.279470 5.348526 6.987730
15.594193 5.348526 0.000000
15.908913 5.348526 0.000000
16.223633 5.348526 0.000000
16.538355 5.348526 0.000000
16.853075 5.348526 0.000000
17.167797 5.348526 0.000000
17.482517 5.348526 0.000000
17.797239 5.348526 0.000000
18.111959 5.348526 0.000000
18.426680 5.348526 0.000000
18.741402 5.348526 0.000000
-7.065720 5.033806 0.026281
-6.750999 5.033806 0.016979
-6.436278 5.033806 0.013314
-6.121557 5.033806 0.013415
-5.806836 5.033806 0.013371
-5.492115 5.033806 0.013468
-5.177394 5.033806 0.013483
-4.862673 5.033806 0.013119
-4.547952 5.033806 0.012957
-4.233231 5.033806 0.012964
-3.918510 5.033806 0.012996
-3.603789 5.033806 0.012871
-3.289068 5.033806 0.012835
-2.974347 5.033806 0.013027
-2.659626 5.033806 0.012839
-2.344905 5.033806 0.012652
-2.030184 5.033806 0.012816
-1.715463 5.033806 0.012723
-1.400742 5.033806 0.012346
-1.086021 5.033806 0.012392
-0.771300 5.033806 0.012575
-0.456579 5.033806 0.012585
-0.141859 5.033806 0.012522
0.172863 5.033806 0.012183
0.487584 5.033806 0.012231
0.802305 5.033806 0.012457
1.117026 5.033806 0.012735
1.431747 5.033806 0.012835
1.746467 5.033806 0.012389
2.061188 5.033806 0.012106
2.375909 5.033806 0.012310
2.690630 5.033806 0.012620
3.005352 5.033806 0.013182
3.320073 5.033806 0.013171
3.634794 5.033806 0.012961
3.949515 5.033806 0.013330
4.264236 5.033806 0.013611
4.578956 5.033806 0.014156
4.893677 5.033806 0.014726
5.208398 5.033806 0.015810
5.523119 5.033806 0.017971
5.837841 5.033806 0.021733
6.152562 5.033806 0.026952
6.467283 5.033806 0.034867
6.782003 5.033806 0.049734
7.096724 5.033806 0.073502
7.411445 5.033806 0.111820
7.726166 5.033806 0.166203
8.040888 5.033806 0.235082
8.355608 5.033806 0.316494
8.670330 5.033806 0.413301
8.985050 5.033806 0.530875
9.299772 5.033806 0.673305
9.614492 5.033806 0.799550
9.929214 5.033806 0.918859
10.243935 5.033806 1.084804
10.558655 5.033806 1.268625
10.873377 5.033806 1.411862
11.188097 5.033806 1.506389
11.502819 5.033806 1.642444
11.817539 5.033806 1.760975
12.132261 5.033806 1.975469
12.446981 5.033806 2.081479
12.761703 5.033806 2.156961
13.076424 5.033806 2.374876
13.391144 5.033806 2.461251
13.705866 5.033806 2.790988
14.020586 5.033806 3.036004
14.335308 5.033806 3.321208
14.650028 5.033806 3.931915
14.964750 5.033806 5.517013
15.279470 5.033806 7.334545
15.594193 5.033806 0.000000
15.908913 5.033806 0.000000
16.223633 5.033806 0.000000
16.538355 5.033806 0.000000
16.853075 5.033806 0.000000
17.167797 5.033806 0.000000
17.482517 5.033806 0.000000
17.797239 5.033806 0.000000
18.111959 5.033806 0.000000
18.426680 5.033806 0.000000
18.741402 5.033806 0.000000
-7.065720 4.719086 0.026305
-6.750999 4.719086 0.016830
-6.436278 4.719086 0.013339
-6.121557 4.719086 0.013489
-5.806836 4.719086 0.013450
-5.492115 4.719086 0.013334
-5.177394 4.719086 0.013308
-4.862673 4.719086 0.013214
-4.547952 4.719086 0.013124
-4.233231 4.719086 0.013105
-3.918510 4.719086 0.012989
-3.603789 4.719086 0.012747
-3.289068 4.719086 0.012817
-2.974347 4.719086 0.013074
-2.659626 4.719086 0.012965
-2.344905 4.719086 0.012627
-2.030184 4.719086 0.012603
-1.715463 4.719086 0.012607
-1.400742 4.719086 0.012346
-1.086021 4.719086 0.012482
-0.771300 4.719086 0.012647
-0.456579 4.719086 0.012724
-0.141859 4.719086 0.012568
0.172863 4.719086 0.012229
0.487584 4.719086 0.012364
0.802305 4.719086 0.012441
1.117026 4.719086 0.012574
1.431747 4.719086 0.012796
1.746467 4.719086 0.012443
2.061188 4.719086 0.012058
2.375909 4.719086 0.012372
2.690630 4.719086 0.012777
3.005352 4.719086 0.013172
3.320073 4.719086 0.013047
3.634794 4.719086 0.012943
3.949515 4.719086 0.013432
4.264236 4.719086 0.013696
4.578956 4.719086 0.014270
4.893677 4.719086 0.014905
5.208398 4.719086 0.015947
5.523119 4.719086 0.018207
5.837841 4.719086 0.021893
6.152562 4.719086 0.027346
6.467283 4.719086 0.036508
6.782003 4.719086 0.051102
7.096724 4.719086 0.075729
7.411445 4.719086 0.117601
7.726166 4.719086 0.174449
8.040888 4.719086 0.242171
8.355608 4.719086 0.321660
8.670330 4.719086 0.420746
8.985050 4.719086 0.541160
9.299772 4.719086 0.682414
9.614492 4.719086 0.818444
9.929214 4.719086 0.949860
10.243935 4.719086 1.082497
10.558655 4.719086 1.264115
10.873377 4.719086 1.414246
11.188097 4.719086 1.523107
11.502819 4.719086 1.687768
11.817539 4.719086 1.832819
12.132261 4.719086 1.947610
12.446981 4.719086 2.099419
12.761703 4.719086 2.229031
13.076424 4.719086 2.344587
13.391144 4.719086 2.515697
13.705866 4.719086 2.762214
14.020586 4.719086 3.062486
14.335308 4.719086 3.455392
14.650028 4.719086 4.111506
14.964750 4.719086 5.769897
15.279470 4.719086 7.715042
15.594193 4.719086 0.000000
15.908913 4.719086 0.000000
16.223633 4.719086 0.000000
16.538355 4.719086 0.000000
16.853075 4.719086 0.000000
17.167797 4.719086 0.000000
17.482517 4.719086 0.000000
17.797239 4.719086 0.000000
18.111959 4.719086 0.000000
18.426680 4.719086 0.000000
18.741402 4.719086 0.000000
-7.065720 4.404362 0.026138
-6.750999 4.404362 0.016767
-6.436278 4.404362 0.013393
-6.121557 4.404362 0.013588
-5.806836 4.404362 0.013606
-5.492115 4.404362 0.013513
-5.177394 4.404362 0.013438
-4.862673 4.404362 0.013296
-4.547952 4.404362 0.013249
-4.233231 4.404362 0.013190
-3.918510 4.404362 0.012905
-3.603789 4.404362 0.012660
-3.289068 4.404362 0.012654
-2.974347 4.404362 0.012894
-2.659626 4.404362 0.013002
-2.344905 4.404362 0.012534
-2.030184 4.404362 0.012377
-1.715463 4.404362 0.012460
-1.400742 4.404362 0.012391
-1.086021 4.404362 0.012495
-0.771300 4.404362 0.012651
-0.456579 4.404362 0.012919
-0.141859 4.404362 0.012632
0.172863 4.404362 0.012189
0.487584 4.404362 0.012459
0.802305 4.404362 0.012447
1.117026 4.404362 0.012457
1.431747 4.404362 0.012802
1.746467 4.404362 0.012523
2.061188 4.404362 0.012112
2.375909 4.404362 0.012429
2.690630 4.404362 0.012884
3.005352 4.404362 0.013100
3.320073 4.404362 0.012842
3.634794 4.404362 0.012994
3.949515 4.404362 0.013450
4.264236 4.404362 0.013787
4.578956 4.404362 0.014291
4.893677 4.404362 0.015099
5.208398 4.404362 0.016391
5.523119 4.404362 0.018820
5.837841 4.404362 0.022507
6.152562 4.404362 0.028193
6.467283 4.404362 0.037266
6.782003 4.404362 0.052103
7.096724 4.404362 0.078044
7.411445 4.404362 0.119954
7.726166 4.404362 0.179656
8.040888 4.404362 0.250922
8.355608 4.404362 0.335571
8.670330 4.404362 0.437743
8.985050 4.404362 0.552288
9.299772 4.404362 0.702279
9.614492 4.404362 0.838423
9.929214 4.404362 0.960938
10.243935 4.404362 1.119568
10.558655 4.404362 1.278632
10.873377 4.404362 1.440090
11.188097 4.404362 1.550479
11.502819 4.404362 1.670564
11.817539 4.404362 1.830346
12.132261 4.404362 1.992137
12.446981 4.404362 2.116132
12.761703 4.404362 2.217750
13.076424 4.404362 2.358802
13.391144 4.404362 2.538957
13.705866 4.404362 2.781033
14.020586 4.404362 3.000316
14.335308 4.404362 3.430621
14.650028 4.404362 4.226218
14.964750 4.404362 5.702399
15.279470 4.404362 7.903704
15.594193 4.404362 0.000000
15.908913 4.404362 0.000000
16.223633 4.404362 0.000000
16.538355 4.404362 0.000000
16.853075 4.404362 0.000000
17.167797 4.404362 0.000000
17.482517 4.404362 0.000000
17.797239 4.404362 0.000000
18.111959 4.404362 0.000000
18.426680 4.404362 0.000000
18.741402 4.404362 0.000000
-7.065720 4.089642 0.026108
-6.750999 4.089642 0.016793
-6.436278 4.089642 0.013404
-6.121557 4.089642 0.013709
-5.806836 4.089642 0.013717
-5.492115 4.089642 0.013822
-5.177394 4.089642 0.013712
-4.862673 4.089642 0.013490
-4.547952 4.089642 0.013326
-4.233231 4.089642 0.013123
-3.918510 4.089642 0.012880
-3.603789 4.089642 0.012711
-3.289068 4.089642 0.012615
-2.974347 4.089642 0.012764
-2.659626 4.089642 0.012904
-2.344905 4.089642 0.012448
-2.030184 4.089642 0.012367
-1.715463 4.089642 0.012500
-1.400742 4.089642 0.012534
-1.086021 4.089642 0.012473
-0.771300 4.089642 0.012651
-0.456579 4.089642 0.012992
-0.141859 4.089642 0.012676
0.172863 4.089642 0.012200
0.487584 4.089642 0.012448
0.802305 4.089642 0.012523
1.117026 4.089642 0.012487
1.431747 4.089642 0.012691
1.746467 4.089642 0.012626
2.061188 4.089642 0.012299
2.375909 4.089642 0.012332
2.690630 4.089642 0.012752
3.005352 4.089642 0.012936
3.320073 4.089642 0.012758
3.634794 4.089642 0.013057
3.949515 4.089642 0.013421
4.264236 4.089642 0.013779
4.578956 4.089642 0.014392
4.893677 4.089642 0.015362
5.208398 4.089642 0.016917
5.523119 4.089642 0.019358
5.837841 4.089642 0.023299
6.152562 4.089642 0.029028
6.467283 4.089642 0.038922
6.782003 4.089642 0.054069
7.096724 4.089642 0.081193
7.411445 4.089642 0.124989
7.726166 4.089642 0.180707
8.040888 4.089642 0.256427
8.355608 4.089642 0.347337
8.670330 4.089642 0.446711
8.985050 4.089642 0.565965
9.299772 4.089642 0.699211
9.614492 4.089642 0.843338
9.929214 4.089642 0.971260
10.243935 4.089642 1.118549
10.558655 4.089642 1.305491
10.873377 4.089642 1.457294
11.188097 4.089642 1.580014
11.502819 4.089642 1.686510
11.817539 4.089642 1.876389
12.132261 4.089642 1.997212
12.446981 4.089642 2.093771
12.761703 4.089642 2.200754
13.076424 4.089642 2.303159
13.391144 4.089642 2.511159
13.705866 4.089642 2.735178
14.020586 4.089642 3.087847
14.335308 4.089642 3.494282
14.650028 4.089642 4.129669
14.964750 4.089642 5.753495
15.279470 4.089642 7.811913
15.594193 4.089642 0.000000
15.908913 4.089642 0.000000
16.223633 4.089642 0.000000
16.538355 4.089642 0.000000
16.853075 4.089642 0.000000
17.167797 4.089642 0.000000
17.482517 4.089642 0.000000
17.797239 4.089642 0.000000
18.111959 4.089642 0.000000
18.426680 4.089642 0.000000
18.741402 4.089642 0.000000
-7.065720 3.774921 0.026093
-6.750999 3.774921 0.016777
-6.436278 3.774921 0.013318
-6.121557 3.774921 0.013746
-5.806836 3.774921 0.013748
-5.492115 3.774921 0.013951
-5.177394 3.774921 0.013913
-4.862673 3.774921 0.013517
-4.547952 3.774921 0.013297
-4.233231 3.774921 0.013127
-3.918510 3.774921 0.012974
-3.603789 3.774921 0.012873
-3.289068 3.774921 0.012777
-2.974347 3.774921 0.012873
-2.659626 3.774921 0.012826
-2.344905 3.774921 0.012493
-2.030184 3.774921 0.012561
-1.715463 3.774921 0.012676
-1.400742 3.774921 0.012700
-1.086021 3.774921 0.012490
-0.771300 3.774921 0.012648
-0.456579 3.774921 0.012861
-0.141859 3.774921 0.012617
0.172863 3.774921 0.012229
0.487584 3.774921 0.012275
0.802305 3.774921 0.012516
1.117026 3.774921 0.012633
1.431747 3.774921 0.012722
1.746467 3.774921 0.012657
2.061188 3.774921 0.012380
2.375909 3.774921 0.012191
2.690630 3.774921 0.012572
3.005352 3.774921 0.012809
3.320073 3.774921 0.012733
3.634794 3.774921 0.013153
3.949515 3.774921 0.013505
4.264236 3.774921 0.013848
4.578956 3.774921 0.014517
4.893677 3.774921 0.015826
5.208398 3.774921 0.017397
5.523119 3.774921 0.019923
5.837841 3.774921 0.023668
6.152562 3.774921 0.029930
6.467283 3.774921 0.040406
6.782003 3.774921 0.055065
7.096724 3.774921 0.081241
7.411445 3.774921 0.125564
7.726166 3.774921 0.185891
8.040888 3.774921 0.263954
8.355608 3.774921 0.352154
8.670330 3.774921 0.445906
8.985050 3.774921 0.574388
9.299772 3.774921 0.707369
9.614492 3.774921 0.860124
9.929214 3.774921 0.990085
10.243935 3.774921 1.130868
10.558655 3.774921 1.312579
10.873377 3.774921 1.469922
11.188097 3.774921 1.593950
11.502819 3.774921 1.742000
11.817539 3.774921 1.895821
12.132261 3.774921 2.037513
12.446981 3.774921 2.135277
12.761703 3.774921 2.178113
13.076424 3.774921 2.299975
13.391144 3.774921 2.448476
13.705866 3.774921 2.706838
14.020586 3.774921 2.991873
14.335308 3.774921 3.531260
14.650028 3.774921 4.171923
14.964750 3.774921 5.967864
15.279470 3.774921 7.796439
15.594193 3.774921 0.000000
15.908913 3.774921 0.000000
16.223633 3.774921 0.000000
16.538355 3.774921 0.000000
16.853075 3.774921 0.000000
17.167797 3.774921 0.000000
17.482517 3.774921 0.000000
17.797239 3.774921 0.000000
18.111959 3.774921 0.000000
18.426680 3.774921 0.000000
18.741402 3.774921 0.000000
-7.065720 3.460201 0.026094
-6.750999 3.460201 0.016780
-6.436278 3.460201 0.013329
-6.121557 3.460201 0.013680
-5.806836 3.460201 0.013670
-5.492115 3.460201 0.013851
-5.177394 3.460201 0.013937
-4.862673 3.460201 0.013472
-4.547952 3.460201 0.013233
-4.233231 3.460201 0.012967
-3.918510 3.460201 0.012933
-3.603789 3.460201 0.013028
-3.289068 3.460201 0.013016
-2.974347 3.460201 0.013021
-2.659626 3.460201 0.012853
-2.344905 3.460201 0.012666
-2.030184 3.460201 0.012837
-1.715463 3.460201 0.012857
-1.400742 3.460201 0.012922
-1.086021 3.460201 0.012718
-0.771300 3.460201 0.012649
-0.456579 3.460201 0.012690
-0.141859 3.460201 0.012617
0.172863 3.460201 0.012308
0.487584 3.460201 0.012200
0.802305 3.460201 0.012459
1.117026 3.460201 0.012771
1.431747 3.460201 0.012732
1.746467 3.460201 0.012495
2.061188 3.460201 0.012319
2.375909 3.460201 0.012150
2.690630 3.460201 0.012448
3.005352 3.460201 0.012830
3.320073 3.460201 0.012758
3.634794 3.460201 0.013192
3.949515 3.460201 0.013633
4.264236 3.460201 0.013968
4.578956 3.460201 0.014851
4.893677 3.460201 0.016250
5.208398 3.460201 0.017788
5.523119 3.460201 0.020211
5.837841 3.460201 0.024172
6.152562 3.460201 0.030602
6.467283 3.460201 0.041139
6.782003 3.460201 0.057665
7.096724 3.460201 0.084211
7.411445 3.460201 0.129400
7.726166 3.460201 0.189474
8.040888 3.460201 0.268080
8.355608 3.460201 0.355566
8.670330 3.460201 0.450958
8.985050 3.460201 0.579856
9.299772 3.460201 0.720452
9.614492 3.460201 0.863955
9.929214 3.460201 0.999053
10.243935 3.460201 1.147496
10.558655 3.460201 1.294214
10.873377 3.460201 1.465855
11.188097 3.460201 1.624743
11.502819 3.460201 1.759355
11.817539 3.460201 1.906984
12.132261 3.460201 1.998124
12.446981 3.460201 2.150175
12.761703 3.460201 2.206115
13.076424 3.460201 2.317255
13.391144 3.460201 2.476065
13.705866 3.460201 2.673401
14.020586 3.460201 2.994076
14.335308 3.460201 3.485927
14.650028 3.460201 4.229642
14.964750 3.460201 5.800593
15.279470 3.460201 7.583346
15.594193 3.460201 0.000000
15.908913 3.460201 0.000000
16.223633 3.460201 0.000000
16.538355 3.460201 0.000000
16.853075 3.460201 0.000000
17.167797 3.460201 0.000000
17.482517 3.460201 0.000000
17.797239 3.460201 0.000000
18.111959 3.460201 0.000000
18.426680 3.460201 0.000000
18.741402 3.460201 0.000000
-7.065720 3.145477 0.026081
-6.750999 3.145477 0.016657
-6.436278 3.145477 0.013300
-6.121557 3.145477 0.013766
-5.806836 3.145477 0.013655
-5.492115 3.145477 0.013667
-5.177394 3.145477 0.013708
-4.862673 3.145477 0.013352
-4.547952 3.145477 0.013216
-4.233231 3.145477 0.012796
-3.918510 3.145477 0.012831
-3.603789 3.145477 0.013163
-3.289068 3.145477 0.013289
-2.974347 3.145477 0.013210
-2.659626 3.145477 0.012881
-2.344905 3.145477 0.012836
-2.030184 3.145477 0.013004
-1.715463 3.145477 0.012903
-1.400742 3.145477 0.012924
-1.086021 3.145477 0.012857
-0.771300 3.145477 0.012781
-0.456579 3.145477 0.012674
-0.141859 3.145477 0.012687
0.172863 3.145477 0.012399
0.487584 3.145477 0.012203
0.802305 3.145477 0.012447
1.117026 3.145477 0.012807
1.431747 3.145477 0.012683
1.746467 3.145477 0.012226
2.061188 3.145477 0.012158
2.375909 3.145477 0.012182
2.690630 3.145477 0.012486
3.005352 3.145477 0.012847
3.320073 3.145477 0.012719
3.634794 3.145477 0.013148
3.949515 3.145477 0.013737
4.264236 3.145477 0.014328
4.578956 3.145477 0.015281
4.893677 3.145477 0.016310
5.208398 3.145477 0.017951
5.523119 3.145477 0.020646
5.837841 3.145477 0.024754
6.152562 3.145477 0.031393
6.467283 3.145477 0.042122
6.782003 3.145477 0.059772
7.096724 3.145477 0.089034
7.411445 3.145477 0.131620
7.726166 3.145477 0.196303
8.040888 3.145477 0.273419
8.355608 3.145477 0.363155
8.670330 3.145477 0.468557
8.985050 3.145477 0.603995
9.299772 3.145477 0.733666
9.614492 3.145477 0.859790
9.929214 3.145477 1.022024
10.243935 3.145477 1.160365
10.558655 3.145477 1.309846
10.873377 3.145477 1.459029
11.188097 3.145477 1.619966
11.502819 3.145477 1.736487
11.817539 3.145477 1.909035
12.132261 3.145477 2.056833
12.446981 3.145477 2.157921
12.761703 3.145477 2.228383
13.076424 3.145477 2.328982
13.391144 3.145477 2.428986
13.705866 3.145477 2.661990
14.020586 3.145477 2.977663
14.335308 3.145477 3.440625
14.650028 3.145477 4.118151
14.964750 3.145477 5.564680
15.279470 3.145477 6.988895
15.594193 3.145477 0.000000
15.908913 3.145477 0.000000
16.223633 3.145477 0.000000
16.538355 3.145477 0.000000
16.853075 3.145477 0.000000
17.167797 3.145477 0.000000
17.482517 3.145477 0.000000
17.797239 3.145477 0.000000
18.111959 3.145477 0.000000
18.426680 3.145477 0.000000
18.741402 3.145477 0.000000
-7.065720 2.830757 0.025935
-6.750999 2.830757 0.016634
-6.436278 2.830757 0.013421
-6.121557 2.830757 0.013942
-5.806836 2.830757 0.013775
-5.492115 2.830757 0.013569
-5.177394 2.830757 0.013557
-4.862673 2.830757 0.013356
-4.547952 2.830757 0.013200
-4.233231 2.830757 0.012737
-3.918510 2.830757 0.012808
-3.603789 2.830757 0.013309
-3.289068 2.830757 0.013421
-2.974347 2.830757 0.013301
-2.659626 2.830757 0.012859
-2.344905 2.830757 0.012754
-2.030184 2.830757 0.013055
-1.715463 2.830757 0.012844
-1.400742 2.830757 0.012817
-1.086021 2.830757 0.012905
-0.771300 2.830757 0.012821
-0.456579 2.830757 0.012808
-0.141859 2.830757 0.012785
0.172863 2.830757 0.012576
0.487584 2.830757 0.012369
0.802305 2.830757 0.012530
1.117026 2.830757 0.012819
1.431747 2.830757 0.012651
1.746467 2.830757 0.012149
2.061188 2.830757 0.012118
2.375909 2.830757 0.012281
2.690630 2.830757 0.012660
3.005352 2.830757 0.012932
3.320073 2.830757 0.012830
3.634794 2.830757 0.013194
3.949515 2.830757 0.013780
4.264236 2.830757 0.014872
4.578956 2.830757 0.015862
4.893677 2.830757 0.016355
5.208398 2.830757 0.017838
5.523119 2.830757 0.020877
5.837841 2.830757 0.025407
6.152562 2.830757 0.032371
6.467283 2.830757 0.043233
6.782003 2.830757 0.061412
7.096724 2.830757 0.092827
7.411445 2.830757 0.138712
7.726166 2.830757 0.203129
8.040888 2.830757 0.278923
8.355608 2.830757 0.368090
8.670330 2.830757 0.478696
8.985050 2.830757 0.622212
9.299772 2.830757 0.749825
9.614492 2.830757 0.878307
9.929214 2.830757 1.021302
10.243935 2.830757 1.167998
10.558655 2.830757 1.328908
10.873377 2.830757 1.446210
11.188097 2.830757 1.630236
11.502819 2.830757 1.773126
11.817539 2.830757 1.907413
12.132261 2.830757 2.080179
12.446981 2.830757 2.183231
12.761703 2.830757 2.295681
13.076424 2.830757 2.364418
13.391144 2.830757 2.431788
13.705866 2.830757 2.626716
14.020586 2.830757 3.000456
14.335308 2.830757 3.466011
14.650028 2.830757 4.100861
14.964750 2.830757 5.536528
15.279470 2.830757 6.377326
15.594193 2.830757 0.000000
15.908913 2.830757 0.000000
16.223633 2.830757 0.000000
16.538355 2.830757 0.000000
16.853075 2.830757 0.000000
17.167797 2.830757 0.000000
17.482517 2.830757 0.000000
17.797239 2.830757 0.000000
18.111959 2.830757 0.000000
18.426680 2.830757 0.000000
18.741402 2.830757 0.000000
-7.065720 2.516037 0.025968
-6.750999 2.516037 0.016746
-6.436278 2.516037 0.013636
-6.121557 2.516037 0.014132
-5.806836 2.516037 0.014039
-5.492115 2.516037 0.013687
-5.177394 2.516037 0.013533
-4.862673 2.516037 0.013367
-4.547952 2.516037 0.013232
-4.233231 2.516037 0.012872
-3.918510 2.516037 0.012933
-3.603789 2.516037 0.013550
-3.289068 2.516037 0.013451
-2.974347 2.516037 0.013130
-2.659626 2.516037 0.012797
-2.344905 2.516037 0.012742
-2.030184 2.516037 0.013016
-1.715463 2.516037 0.012787
-1.400742 2.516037 0.012744
-1.086021 2.516037 0.012787
-0.771300 2.516037 0.012776
-0.456579 2.516037 0.012834
-0.141859 2.516037 0.012786
0.172863 2.516037 0.012653
0.487584 2.516037 0.012709
0.802305 2.516037 0.012656
1.117026 2.516037 0.012839
1.431747 2.516037 0.012794
1.746467 2.516037 0.012405
2.061188 2.516037 0.012272
2.375909 2.516037 0.012483
2.690630 2.516037 0.012874
3.005352 2.516037 0.013127
3.320073 2.516037 0.013049
3.634794 2.516037 0.013331
3.949515 2.516037 0.013819
4.264236 2.516037 0.015165
4.578956 2.516037 0.016243
4.893677 2.516037 0.016528
5.208398 2.516037 0.017838
5.523119 2.516037 0.021160
5.837841 2.516037 0.026363
6.152562 2.516037 0.033537
6.467283 2.516037 0.044786
6.782003 2.516037 0.063566
7.096724 2.516037 0.097276
7.411445 2.516037 0.145514
7.726166 2.516037 0.213133
8.040888 2.516037 0.291076
8.355608 2.516037 0.378713
8.670330 2.516037 0.485769
8.985050 2.516037 0.630194
9.299772 2.516037 0.764935
9.614492 2.516037 0.883495
9.929214 2.516037 1.015145
10.243935 2.516037 1.181524
10.558655 2.516037 1.324595
10.873377 2.516037 1.474209
11.188097 2.516037 1.605635
11.502819 2.516037 1.743145
11.817539 2.516037 1.907908
12.132261 2.516037 2.017983
12.446981 2.516037 2.180353
12.761703 2.516037 2.267215
13.076424 2.516037 2.359239
13.391144 2.516037 2.504558
13.705866 2.516037 2.609048
14.020586 2.516037 3.006855
14.335308 2.516037 3.384554
14.650028 2.516037 4.045166
14.964750 2.516037 5.271408
15.279470 2.516037 5.535842
15.594193 2.516037 0.000000
15.908913 2.516037 0.000000
16.223633 2.516037 0.000000
16.538355 2.516037 0.000000
16.853075 2.516037 0.000000
17.167797 2.516037 0.000000
17.482517 2.516037 0.000000
17.797239 2.516037 0.000000
18.111959 2.516037 0.000000
18.426680 2.516037 0.000000
18.741402 2.516037 0.000000
-7.065720 2.201317 0.026133
-6.750999 2.201317 0.016859
-6.436278 2.201317 0.013739
-6.121557 2.201317 0.014240
-5.806836 2.201317 0.014116
-5.492115 2.201317 0.013864
-5.177394 2.201317 0.013552
-4.862673 2.201317 0.013409
-4.547952 2.201317 0.013254
-4.233231 2.201317 0.013016
-3.918510 2.201317 0.013023
-3.603789 2.201317 0.013415
-3.289068 2.201317 0.013307
-2.974347 2.201317 0.012971
-2.659626 2.201317 0.012730
-2.344905 2.201317 0.012764
-2.030184 2.201317 0.012974
-1.715463 2.201317 0.012823
-1.400742 2.201317 0.012696
-1.086021 2.201317 0.012623
-0.771300 2.201317 0.012706
-0.456579 2.201317 0.012808
-0.141859 2.201317 0.012785
0.172863 2.201317 0.012730
0.487584 2.201317 0.012918
0.802305 2.201317 0.012702
1.117026 2.201317 0.012771
1.431747 2.201317 0.012913
1.746467 2.201317 0.012705
2.061188 2.201317 0.012510
2.375909 2.201317 0.012630
2.690630 2.201317 0.013003
3.005352 2.201317 0.013135
3.320073 2.201317 0.013193
3.634794 2.201317 0.013457
3.949515 2.201317 0.013968
4.264236 2.201317 0.015190
4.578956 2.201317 0.016290
4.893677 2.201317 0.016702
5.208398 2.201317 0.018221
5.523119 2.201317 0.021954
5.837841 2.201317 0.027047
6.152562 2.201317 0.034449
6.467283 2.201317 0.046933
6.782003 2.201317 0.066319
7.096724 2.201317 0.097847
7.411445 2.201317 0.148942
7.726166 2.201317 0.221935
8.040888 2.201317 0.299814
8.355608 2.201317 0.390657
8.670330 2.201317 0.493201
8.985050 2.201317 0.626345
9.299772 2.201317 0.775374
9.614492 2.201317 0.889091
9.929214 2.201317 1.026764
10.243935 2.201317 1.188228
10.558655 2.201317 1.328893
10.873377 2.201317 1.464746
11.188097 2.201317 1.590221
11.502819 2.201317 1.736324
11.817539 2.201317 1.874686
12.132261 2.201317 2.015905
12.446981 2.201317 2.191910
12.761703 2.201317 2.287083
13.076424 2.201317 2.281286
13.391144 2.201317 2.456758
13.705866 2.201317 2.595662
14.020586 2.201317 2.938809
14.335308 2.201317 3.238199
14.650028 2.201317 3.968706
14.964750 2.201317 5.184973
15.279470 2.201317 4.863525
15.594193 2.201317 0.000000
15.908913 2.201317 0.000000
16.223633 2.201317 0.000000
16.538355 2.201317 0.000000
16.853075 2.201317 0.000000
17.167797 2.201317 0.000000
17.482517 2.201317 0.000000
17.797239 2.201317 0.000000
18.111959 2.201317 0.000000
18.426680 2.201317 0.000000
18.741402 2.201317 0.000000
-7.065720 1.886597 0.026345
-6.750999 1.886597 0.016889
-6.436278 1.886597 0.013731
-6.121557 1.886597 0.014197
-5.806836 1.886597 0.014139
-5.492115 1.886597 0.014051
-5.177394 1.886597 0.013626
-4.862673 1.886597 0.013460
-4.547952 1.886597 0.013385
-4.233231 1.886597 0.013099
-3.918510 1.886597 0.013039
-3.603789 1.886597 0.013193
-3.289068 1.886597 0.013106
-2.974347 1.886597 0.012880
-2.659626 1.886597 0.012745
-2.344905 1.886597 0.012852
-2.030184 1.886597 0.012911
-1.715463 1.886597 0.012683
-1.400742 1.886597 0.012614
-1.086021 1.886597 0.012524
-0.771300 1.886597 0.012668
-0.456579 1.886597 0.012796
-0.141859 1.886597 0.012764
0.172863 1.886597 0.012643
0.487584 1.886597 0.012778
0.802305 1.886597 0.012545
1.117026 1.886597 0.012727
1.431747 1.886597 0.013068
1.746467 1.886597 0.012736
2.061188 1.886597 0.012535
2.375909 1.886597 0.012702
2.690630 1.886597 0.013025
3.005352 1.886597 0.013153
3.320073 1.886597 0.013294
3.634794 1.886597 0.013685
3.949515 1.886597 0.014270
4.264236 1.886597 0.015342
4.578956 1.886597 0.016162
4.893677 1.886597 0.016857
5.208398 1.886597 0.018801
5.523119 1.886597 0.022762
5.837841 1.886597 0.027810
6.152562 1.886597 0.035394
6.467283 1.886597 0.048034
6.782003 1.886597 0.068582
7.096724 1.886597 0.102903
7.411445 1.886597 0.156108
7.726166 1.886597 0.224067
8.040888 1.886597 0.303130
8.355608 1.886597 0.397810
8.670330 1.886597 0.502174
8.985050 1.886597 0.625163
9.299772 1.886597 0.776512
9.614492 1.886597 0.903032
9.929214 1.886597 1.036205
10.243935 1.886597 1.181320
10.558655 1.886597 1.343162
10.873377 1.886597 1.443804
11.188097 1.886597 1.592961
11.502819 1.886597 1.724148
11.817539 1.886597 1.891981
12.132261 1.886597 1.980192
12.446981 1.886597 2.118371
12.761703 1.886597 2.262107
13.076424 1.886597 2.342033
13.391144 1.886597 2.470938
13.705866 1.886597 2.551414
14.020586 1.886597 2.874075
14.335308 1.886597 3.217619
14.650028 1.886597 4.128491
14.964750 1.886597 5.226537
15.279470 1.886597 4.069707
15.594193 1.886597 0.000000
15.908913 1.886597 0.000000
16.223633 1.886597 0.000000
16.538355 1.886597 0.000000
16.853075 1.886597 0.000000
17.167797 1.886597 0.000000
17.482517 1.886597 0.000000
17.797239 1.886597 0.000000
18.111959 1.886597 0.000000
18.426680 1.886597 0.000000
18.741402 1.886597 0.000000
-7.065720 1.571873 0.026620
-6.750999 1.571873 0.016800
-6.436278 1.571873 0.013525
-6.121557 1.571873 0.014078
-5.806836 1.571873 0.014137
-5.492115 1.571873 0.014119
-5.177394 1.571873 0.013736
-4.862673 1.571873 0.013565
-4.547952 1.571873 0.013439
-4.233231 1.571873 0.013240
-3.918510 1.571873 0.013075
-3.603789 1.571873 0.013057
-3.289068 1.571873 0.013038
-2.974347 1.571873 0.012998
-2.659626 1.571873 0.012955
-2.344905 1.571873 0.012879
-2.030184 1.571873 0.012781
-1.715463 1.571873 0.012699
-1.400742 1.571873 0.012684
-1.086021 1.571873 0.012532
-0.771300 1.571873 0.012653
-0.456579 1.571873 0.012697
-0.141859 1.571873 0.012668
0.172863 1.571873 0.012396
0.487584 1.571873 0.012373
0.802305 1.571873 0.012443
1.117026 1.571873 0.012780
1.431747 1.571873 0.012927
1.746467 1.571873 0.012497
2.061188 1.571873 0.012371
2.375909 1.571873 0.012622
2.690630 1.571873 0.012992
3.005352 1.571873 0.013212
3.320073 1.571873 0.013484
3.634794 1.571873 0.013967
3.949515 1.571873 0.014720
4.264236 1.571873 0.015656
4.578956 1.571873 0.016124
4.893677 1.571873 0.016991
5.208398 1.571873 0.019205
5.523119 1.571873 0.023071
5.837841 1.571873 0.027848
6.152562 1.571873 0.035881
6.467283 1.571873 0.049403
6.782003 1.571873 0.070995
7.096724 1.571873 0.108384
7.411445 1.571873 0.159391
7.726166 1.571873 0.227545
8.040888 1.571873 0.311584
8.355608 1.571873 0.409271
8.670330 1.571873 0.510133
8.985050 1.571873 0.636328
9.299772 1.571873 0.769518
9.614492 1.571873 0.903411
9.929214 1.571873 1.028265
10.243935 1.571873 1.180216
10.558655 1.571873 1.336753
10.873377 1.571873 1.462710
11.188097 1.571873 1.616974
11.502819 1.571873 1.772501
11.817539 1.571873 1.873331
12.132261 1.571873 1.995696
12.446981 1.571873 2.093041
12.761703 1.571873 2.244197
13.076424 1.571873 2.355216
13.391144 1.571873 2.417489
13.705866 1.571873 2.658437
14.020586 1.571873 2.829422
14.335308 1.571873 3.139756
14.650028 1.571873 3.930126
14.964750 1.571873 5.129648
15.279470 1.571873 0.000000
15.594193 1.571873 0.000000
15.908913 1.571873 0.000000
16.223633 1.571873 0.000000
16.538355 1.571873 0.000000
16.853075 1.571873 0.000000
17.167797 1.571873 0.000000
17.482517 1.571873 0.000000
17.797239 1.571873 0.000000
18.111959 1.571873 0.000000
18.426680 1.571873 0.000000
18.741402 1.571873 0.000000
-7.065720 1.257153 0.026730
-6.750999 1.257153 0.016660
-6.436278 1.257153 0.013416
-6.121557 1.257153 0.014106
-5.806836 1.257153 0.014144
-5.492115 1.257153 0.014026
-5.177394 1.257153 0.013784
-4.862673 1.257153 0.013567
-4.547952 1.257153 0.013278
-4.233231 1.257153 0.013054
-3.918510 1.257153 0.013072
-3.603789 1.257153 0.013052
-3.289068 1.257153 0.013068
-2.974347 1.257153 0.013016
-2.659626 1.257153 0.013048
-2.344905 1.257153 0.012988
-2.030184 1.257153 0.012783
-1.715463 1.257153 0.012860
-1.400742 1.257153 0.012834
-1.086021 1.257153 0.012662
-0.771300 1.257153 0.012558
-0.456579 1.257153 0.012538
-0.141859 1.257153 0.012594
0.172863 1.257153 0.012304
0.487584 1.257153 0.012100
0.802305 1.257153 0.012489
1.117026 1.257153 0.012842
1.431747 1.257153 0.012714
1.746467 1.257153 0.012119
2.061188 1.257153 0.012186
2.375909 1.257153 0.012487
2.690630 1.257153 0.012838
3.005352 1.257153 0.013209
3.320073 1.257153 0.013563
3.634794 1.257153 0.014135
3.949515 1.257153 0.014972
4.264236 1.257153 0.015888
4.578956 1.257153 0.016179
4.893677 1.257153 0.016963
5.208398 1.257153 0.019262
5.523119 1.257153 0.023171
5.837841 1.257153 0.027833
6.152562 1.257153 0.036627
6.467283 1.257153 0.051130
6.782003 1.257153 0.075573
7.096724 1.257153 0.114476
7.411445 1.257153 0.166567
7.726166 1.257153 0.228302
8.040888 1.257153 0.312715
8.355608 1.257153 0.418281
8.670330 1.257153 0.525014
8.985050 1.257153 0.645092
9.299772 1.257153 0.770632
9.614492 1.257153 0.899595
9.929214 1.257153 1.026762
10.243935 1.257153 1.195804
10.558655 1.257153 1.334714
10.873377 1.257153 1.463057
11.188097 1.257153 1.654114
11.502819 1.257153 1.755304
11.817539 1.257153 1.858248
12.132261 1.257153 1.963529
12.446981 1.257153 2.109132
12.761703 1.257153 2.263441
13.076424 1.257153 2.369880
13.391144 1.257153 2.472738
13.705866 1.257153 2.649059
14.020586 1.257153 2.843104
14.335308 1.257153 3.185359
14.650028 1.257153 4.049058
14.964750 1.257153 5.168108
15.279470 1.257153 0.000000
15.594193 1.257153 0.000000
15.908913 1.257153 0.000000
16.223633 1.257153 0.000000
16.538355 1.257153 0.000000
16.853075 1.257153 0.000000
17.167797 1.257153 0.000000
17.482517 1.257153 0.000000
17.797239 1.257153 0.000000
18.111959 1.257153 0.000000
18.426680 1.257153 0.000000
18.741402 1.257153 0.000000
-7.065720 0.942432 0.026575
-6.750999 0.942432 0.016755
-6.436278 0.942432 0.013547
-6.121557 0.942432 0.014126
-5.806836 0.942432 0.014052
-5.492115 0.942432 0.013883
-5.177394 0.942432 0.013870
-4.862673 0.942432 0.013497
-4.547952 0.942432 0.013019
-4.233231 0.942432 0.012890
-3.918510 0.942432 0.013136
-3.603789 0.942432 0.013274
-3.289068 0.942432 0.013246
-2.974347 0.942432 0.013026
-2.659626 0.942432 0.013042
-2.344905 0.942432 0.013083
-2.030184 0.942432 0.012868
-1.715463 0.942432 0.013052
-1.400742 0.942432 0.012947
-1.086021 0.942432 0.012617
-0.771300 0.942432 0.012495
-0.456579 0.942432 0.012376
-0.141859 0.942432 0.012429
0.172863 0.942432 0.012311
0.487584 0.942432 0.012124
0.802305 0.942432 0.012533
1.117026 0.942432 0.012784
1.431747 0.942432 0.012479
1.746467 0.942432 0.011898
2.061188 0.942432 0.011957
2.375909 0.942432 0.012303
2.690630 0.942432 0.012719
3.005352 0.942432 0.013258
3.320073 0.942432 0.013622
3.634794 0.942432 0.014185
3.949515 0.942432 0.014922
4.264236 0.942432 0.015974
4.578956 0.942432 0.016241
4.893677 0.942432 0.016903
5.208398 0.942432 0.019350
5.523119 0.942432 0.023146
5.837841 0.942432 0.028439
6.152562 0.942432 0.037123
6.467283 0.942432 0.051916
6.782003 0.942432 0.076266
7.096724 0.942432 0.113347
7.411445 0.942432 0.168822
7.726166 0.942432 0.232910
8.040888 0.942432 0.315819
8.355608 0.942432 0.425444
8.670330 0.942432 0.537540
8.985050 0.942432 0.659099
9.299772 0.942432 0.780327
9.614492 0.942432 0.913641
9.929214 0.942432 1.051610
10.243935 0.942432 1.191646
10.558655 0.942432 1.358930
10.873377 0.942432 1.493223
11.188097 0.942432 1.637762
11.502819 0.942432 1.760532
11.817539 0.942432 1.866041
12.132261 0.942432 1.979249
12.446981 0.942432 2.141125
12.761703 0.942432 2.245100
13.076424 0.942432 2.348864
13.391144 0.942432 2.475860
13.705866 0.942432 2.608008
14.020586 0.942432 2.860152
14.335308 0.942432 3.243509
14.650028 0.942432 4.280719
14.964750 0.942432 5.034368
15.279470 0.942432 0.000000
15.594193 0.942432 0.000000
15.908913 0.942432 0.000000
16.223633 0.942432 0.000000
16.538355 0.942432 0.000000
16.853075 0.942432 0.000000
17.167797 0.942432 0.000000
17.482517 0.942432 0.000000
17.797239 0.942432 0.000000
18.111959 0.942432 0.000000
18.426680 0.942432 0.000000
18.741402 0.942432 0.000000
-7.065720 0.627712 0.026441
-6.750999 0.627712 0.017029
-6.436278 0.627712 0.013730
-6.121557 0.627712 0.014158
-5.806836 0.627712 0.013911
-5.492115 0.627712 0.013676
-5.177394 0.627712 0.013747
-4.862673 0.627712 0.013418
-4.547952 0.627712 0.012962
-4.233231 0.627712 0.012910
-3.918510 0.627712 0.013171
-3.603789 0.627712 0.013558
-3.289068 0.627712 0.013477
-2.974347 0.627712 0.012921
-2.659626 0.627712 0.012816
-2.344905 0.627712 0.013066
-2.030184 0.627712 0.012969
-1.715463 0.627712 0.013030
-1.400742 0.627712 0.012808
-1.086021 0.627712 0.012451
-0.771300 0.627712 0.012416
-0.456579 0.627712 0.012355
-0.141859 0.627712 0.012216
0.172863 0.627712 0.012283
0.487584 0.627712 0.012328
0.802305 0.627712 0.012418
1.117026 0.627712 0.012591
1.431747 0.627712 0.012381
1.746467 0.627712 0.011847
2.061188 0.627712 0.011925
2.375909 0.627712 0.012194
2.690630 0.627712 0.012634
3.005352 0.627712 0.013377
3.320073 0.627712 0.013806
3.634794 0.627712 0.014159
3.949515 0.627712 0.014665
4.264236 0.627712 0.015765
4.578956 0.627712 0.016317
4.893677 0.627712 0.017187
5.208398 0.627712 0.019502
5.523119 0.627712 0.023383
5.837841 0.627712 0.028908
6.152562 0.627712 0.037989
6.467283 0.627712 0.052177
6.782003 0.627712 0.077446
7.096724 0.627712 0.114076
7.411445 0.627712 0.171842
7.726166 0.627712 0.241841
8.040888 0.627712 0.327067
8.355608 0.627712 0.430632
8.670330 0.627712 0.550360
8.985050 0.627712 0.670208
9.299772 0.627712 0.794170
9.614492 0.627712 0.942411
9.929214 0.627712 1.063319
10.243935 0.627712 1.213405
10.558655 0.627712 1.372328
10.873377 0.627712 1.509794
11.188097 0.627712 1.605925
11.502819 0.627712 1.735455
11.817539 0.627712 1.845270
12.132261 0.627712 1.996345
12.446981 0.627712 2.097720
12.761703 0.627712 2.212441
13.076424 0.627712 2.357508
13.391144 0.627712 2.465211
13.705866 0.627712 2.684440
14.020586 0.627712 2.914008
14.335308 0.627712 3.384540
14.650028 0.627712 4.365002
14.964750 0.627712 4.361398
15.279470 0.627712 0.000000
15.594193 0.627712 0.000000
15.908913 0.627712 0.000000
16.223633 0.627712 0.000000
16.538355 0.627712 0.000000
16.853075 0.627712 0.000000
17.167797 0.627712 0.000000
17.482517 0.627712 0.000000
17.797239 0.627712 0.000000
18.111959 0.627712 0.000000
18.426680 0.627712 0.000000
18.741402 0.627712 0.000000
-7.065720 0.312992 0.026354
-6.750999 0.312992 0.016978
-6.436278 0.312992 0.013720
-6.121557 0.312992 0.014117
-5.806836 0.312992 0.013830
-5.492115 0.312992 0.013433
-5.177394 0.312992 0.013481
-4.862673 0.312992 0.013347
-4.547952 0.312992 0.013094
-4.233231 0.312992 0.013005
-3.918510 0.312992 0.013170
-3.603789 0.312992 0.013629
-3.289068 0.312992 0.013482
-2.974347 0.312992 0.012745
-2.659626 0.312992 0.012560
-2.344905 0.312992 0.012972
-2.030184 0.312992 0.012944
-1.715463 0.312992 0.012825
-1.400742 0.312992 0.012563
-1.086021 0.312992 0.012188
-0.771300 0.312992 0.012323
-0.456579 0.312992 0.012313
-0.141859 0.312992 0.011972
0.172863 0.312992 0.012207
0.487584 0.312992 0.012443
0.802305 0.312992 0.012298
1.117026 0.312992 0.012478
1.431747 0.312992 0.012507
1.746467 0.312992 0.012043
2.061188 0.312992 0.011989
2.375909 0.312992 0.012120
2.690630 0.312992 0.012538
3.005352 0.312992 0.013280
3.320073 0.312992 0.013730
3.634794 0.312992 0.014106
3.949515 0.312992 0.014597
4.264236 0.312992 0.015682
4.578956 0.312992 0.016330
4.893677 0.312992 0.017407
5.208398 0.312992 0.019921
5.523119 0.312992 0.024010
5.837841 0.312992 0.029284
6.152562 0.312992 0.038608
6.467283 0.312992 0.053965
6.782003 0.312992 0.079104
7.096724 0.312992 0.119914
7.411445 0.312992 0.175110
7.726166 0.312992 0.250053
8.040888 0.312992 0.340182
8.355608 0.312992 0.439303
8.670330 0.312992 0.552948
8.985050 0.312992 0.673365
9.299772 0.312992 0.795119
9.614492 0.312992 0.947496
9.929214 0.312992 1.078576
10.243935 0.312992 1.234393
10.558655 0.312992 1.372910
10.873377 0.312992 1.524939
11.188097 0.312992 1.634772
11.502819 0.312992 1.740533
11.817539 0.312992 1.882086
12.132261 0.312992 2.003865
12.446981 0.312992 2.146429
12.761703 0.312992 2.259063
13.076424 0.312992 2.379992
13.391144 0.312992 2.488488
13.705866 0.312992 2.678335
14.020586 0.312992 2.930703
14.335308 0.312992 3.484842
14.650028 0.312992 4.550517
14.964750 0.312992 0.000000
15.279470 0.312992 0.000000
15.594193 0.312992 0.000000
15.908913 0.312992 0.000000
16.223633 0.312992 0.000000
16.538355 0.312992 0.000000
16.853075 0.312992 0.000000
17.167797 0.312992 0.000000
17.482517 0.312992 0.000000
17.797239 0.312992 0.000000
18.111959 0.312992 0.000000
18.426680 0.312992 0.000000
18.741402 0.312992 0.000000
-7.065720 -0.001732 0.025944
-6.750999 -0.001732 0.016754
-6.436278 -0.001732 0.013387
-6.121557 -0.001732 0.013888
-5.806836 -0.001732 0.013749
-5.492115 -0.001732 0.013348
-5.177394 -0.001732 0.013282
-4.862673 -0.001732 0.013272
-4.547952 -0.001732 0.013180
-4.233231 -0.001732 0.012907
-3.918510 -0.001732 0.012917
-3.603789 -0.001732 0.013392
-3.289068 -0.001732 0.013118
-2.974347 -0.001732 0.012524
-2.659626 -0.001732 0.012456
-2.344905 -0.001732 0.012826
-2.030184 -0.001732 0.012753
-1.715463 -0.001732 0.012616
-1.400742 -0.001732 0.012410
-1.086021 -0.001732 0.012091
-0.771300 -0.001732 0.012234
-0.456579 -0.001732 0.012087
-0.141859 -0.001732 0.011684
0.172863 -0.001732 0.011938
0.487584 -0.001732 0.012277
0.802305 -0.001732 0.012149
1.117026 -0.001732 0.012490
1.431747 -0.001732 0.012682
1.746467 -0.001732 0.012087
2.061188 -0.001732 0.012043
2.375909 -0.001732 0.012095
2.690630 -0.001732 0.012462
3.005352 -0.001732 0.013068
3.320073 -0.001732 0.013523
3.634794 -0.001732 0.014107
3.949515 -0.001732 0.014924
4.264236 -0.001732 0.015814
4.578956 -0.001732 0.016363
4.893677 -0.001732 0.017712
5.208398 -0.001732 0.020133
5.523119 -0.001732 0.024264
5.837841 -0.001732 0.030324
6.152562 -0.001732 0.039776
6.467283 -0.001732 0.054735
6.782003 -0.001732 0.081420
7.096724 -0.001732 0.122859
7.411445 -0.001732 0.185194
7.726166 -0.001732 0.262948
8.040888 -0.001732 0.353544
8.355608 -0.001732 0.456137
8.670330 -0.001732 0.571047
8.985050 -0.001732 0.696497
9.299772 -0.001732 0.812864
9.614492 -0.001732 0.957771
9.929214 -0.001732 1.100864
10.243935 -0.001732 1.267090
10.558655 -0.001732 1.419185
10.873377 -0.001732 1.564423
11.188097 -0.001732 1.635452
11.502819 -0.001732 1.767205
11.817539 -0.001732 1.886763
12.132261 -0.001732 1.975371
12.446981 -0.001732 2.144991
12.761703 -0.001732 2.288557
13.076424 -0.001732 2.396333
13.391144 -0.001732 2.533160
13.705866 -0.001732 2.747335
14.020586 -0.001732 2.953253
14.335308 -0.001732 3.751617
14.650028 -0.001732 4.853004
14.964750 -0.001732 0.000000
15.279470 -0.001732 0.000000
15.594193 -0.001732 0.000000
15.908913 -0.001732 0.000000
16.223633 -0.001732 0.000000
16.538355 -0.001732 0.000000
16.853075 -0.001732 0.000000
17.167797 -0.001732 0.000000
17.482517 -0.001732 0.000000
17.797239 -0.001732 0.000000
18.111959 -0.001732 0.000000
18.426680 -0.001732 0.000000
18.741402 -0.001732 0.000000
-7.065720 -0.316452 0.016638
-6.750999 -0.316452 0.017237
-6.436278 -0.316452 0.013835
-6.121557 -0.316452 0.014198
-5.806836 -0.316452 0.014325
-5.492115 -0.316452 0.013997
-5.177394 -0.316452 0.013882
-4.862673 -0.316452 0.014002
-4.547952 -0.316452 0.013846
-4.233231 -0.316452 0.013549
-3.918510 -0.316452 0.013404
-3.603789 -0.316452 0.013718
-3.289068 -0.316452 0.013469
-2.974347 -0.316452 0.013089
-2.659626 -0.316452 0.013136
-2.344905 -0.316452 0.013180
-2.030184 -0.316452 0.013119
-1.715463 -0.316452 0.012991
-1.400742 -0.316452 0.012829
-1.086021 -0.316452 0.012555
-0.771300 -0.316452 0.012566
-0.456579 -0.316452 0.012279
-0.141859 -0.316452 0.011851
0.172863 -0.316452 0.012024
0.487584 -0.316452 0.012496
0.802305 -0.316452 0.012589
1.117026 -0.316452 0.013140
1.431747 -0.316452 0.013196
1.746467 -0.316452 0.012355
2.061188 -0.316452 0.012446
2.375909 -0.316452 0.012595
2.690630 -0.316452 0.012933
3.005352 -0.316452 0.013467
3.320073 -0.316452 0.013840
3.634794 -0.316452 0.014466
3.949515 -0.316452 0.015748
4.264236 -0.316452 0.016630
4.578956 -0.316452 0.016991
4.893677 -0.316452 0.018458
5.208398 -0.316452 0.020826
5.523119 -0.316452 0.024949
5.837841 -0.316452 0.031730
6.152562 -0.316452 0.042087
6.467283 -0.316452 0.057686
6.782003 -0.316452 0.086481
7.096724 -0.316452 0.131255
7.411445 -0.316452 0.191375
7.726166 -0.316452 0.270990
8.040888 -0.316452 0.367238
8.355608 -0.316452 0.469085
8.670330 -0.316452 0.592956
8.985050 -0.316452 0.719925
9.299772 -0.316452 0.838325
9.614492 -0.316452 0.972782
9.929214 -0.316452 1.129230
10.243935 -0.316452 1.306122
10.558655 -0.316452 1.461318
10.873377 -0.316452 1.594397
11.188097 -0.316452 1.735004
11.502819 -0.316452 1.852477
11.817539 -0.316452 1.967445
12.132261 -0.316452 2.089186
12.446981 -0.316452 2.255644
12.761703 -0.316452 2.360905
13.076424 -0.316452 2.463422
13.391144 -0.316452 2.618945
13.705866 -0.316452 2.914302
14.020586 -0.316452 3.203381
14.335308 -0.316452 3.958846
14.650028 -0.316452 5.194881
14.964750 -0.316452 0.000000
15.279470 -0.316452 0.000000
15.594193 -0.316452 0.000000
15.908913 -0.316452 0.000000
16.223633 -0.316452 0.000000
16.538355 -0.316452 0.000000
16.853075 -0.316452 0.000000
17.167797 -0.316452 0.000000
17.482517 -0.316452 0.000000
17.797239 -0.316452 0.000000
18.111959 -0.316452 0.000000
18.426680 -0.316452 0.000000
18.741402 -0.316452 0.000000
-7.065720 -0.631172 0.017448
-6.750999 -0.631172 0.018381
-6.436278 -0.631172 0.015923
-6.121557 -0.631172 0.016447
-5.806836 -0.631172 0.016890
-5.492115 -0.631172 0.016891
-5.177394 -0.631172 0.016715
-4.862673 -0.631172 0.016793
-4.547952 -0.631172 0.016448
-4.233231 -0.631172 0.016129
-3.918510 -0.631172 0.016063
-3.603789 -0.631172 0.016239
-3.289068 -0.631172 0.016092
-2.974347 -0.631172 0.015590
-2.659626 -0.631172 0.015641
-2.344905 -0.631172 0.015391
-2.030184 -0.631172 0.015272
-1.715463 -0.631172 0.015183
-1.400742 -0.631172 0.014845
-1.086021 -0.631172 0.014601
-0.771300 -0.631172 0.014401
-0.456579 -0.631172 0.014163
-0.141859 -0.631172 0.013807
0.172863 -0.631172 0.013915
0.487584 -0.631172 0.014414
0.802305 -0.631172 0.014782
1.117026 -0.631172 0.015318
1.431747 -0.631172 0.015237
1.746467 -0.631172 0.014291
2.061188 -0.631172 0.014448
2.375909 -0.631172 0.014804
2.690630 -0.631172 0.015195
3.005352 -0.631172 0.015652
3.320073 -0.631172 0.015961
3.634794 -0.631172 0.016599
3.949515 -0.631172 0.018091
4.264236 -0.631172 0.019022
4.578956 -0.631172 0.019367
4.893677 -0.631172 0.021117
5.208398 -0.631172 0.023398
5.523119 -0.631172 0.027891
5.837841 -0.631172 0.034886
6.152562 -0.631172 0.047431
6.467283 -0.631172 0.065924
6.782003 -0.631172 0.099713
7.096724 -0.631172 0.150347
7.411445 -0.631172 0.212066
7.726166 -0.631172 0.296713
8.040888 -0.631172 0.400962
8.355608 -0.631172 0.509878
8.670330 -0.631172 0.656258
8.985050 -0.631172 0.779547
9.299772 -0.631172 0.914796
9.614492 -0.631172 1.052571
9.929214 -0.631172 1.216493
10.243935 -0.631172 1.407699
10.558655 -0.631172 1.560461
10.873377 -0.631172 1.709887
11.188097 -0.631172 1.847365
11.502819 -0.631172 1.959965
11.817539 -0.631172 2.103796
12.132261 -0.631172 2.236689
12.446981 -0.631172 2.394141
12.761703 -0.631172 2.578011
13.076424 -0.631172 2.623325
13.391144 -0.631172 2.781580
13.705866 -0.631172 3.158094
14.020586 -0.631172 3.576586
14.335308 -0.631172 4.437500
14.650028 -0.631172 5.081809
14.964750 -0.631172 0.000000
15.279470 -0.631172 0.000000
15.594193 -0.631172 0.000000
15.908913 -0.631172 0.000000
16.223633 -0.631172 0.000000
16.538355 -0.631172 0.000000
16.853075 -0.631172 0.000000
17.167797 -0.631172 0.000000
17.482517 -0.631172 0.000000
17.797239 -0.631172 0.000000
18.111959 -0.631172 0.000000
18.426680 -0.631172 0.000000
18.741402 -0.631172 0.000000
-7.065720 -0.945892 0.018843
-6.750999 -0.945892 0.015416
-6.436278 -0.945892 0.012814
-6.121557 -0.945892 0.021416
-5.806836 -0.945892 0.022875
-5.492115 -0.945892 0.022506
-5.177394 -0.945892 0.022144
-4.862673 -0.945892 0.022173
-4.547952 -0.945892 0.021653
-4.233231 -0.945892 0.021590
-3.918510 -0.945892 0.021727
-3.603789 -0.945892 0.021827
-3.289068 -0.945892 0.021587
-2.974347 -0.945892 0.020959
-2.659626 -0.945892 0.020901
-2.344905 -0.945892 0.020408
-2.030184 -0.945892 0.020254
-1.715463 -0.945892 0.020081
-1.400742 -0.945892 0.019491
-1.086021 -0.945892 0.019080
-0.771300 -0.945892 0.018956
-0.456579 -0.945892 0.018962
-0.141859 -0.945892 0.018780
0.172863 -0.945892 0.018558
0.487584 -0.945892 0.019014
0.802305 -0.945892 0.019440
1.117026 -0.945892 0.020021
1.431747 -0.945892 0.019970
1.746467 -0.945892 0.019100
2.061188 -0.945892 0.019157
2.375909 -0.945892 0.019641
2.690630 -0.945892 0.020201
3.005352 -0.945892 0.020543
3.320073 -0.945892 0.020899
3.634794 -0.945892 0.021555
3.949515 -0.945892 0.023123
4.264236 -0.945892 0.024148
4.578956 -0.945892 0.024712
4.893677 -0.945892 0.026604
5.208398 -0.945892 0.029358
5.523119 -0.945892 0.034633
5.837841 -0.945892 0.043261
6.152562 -0.945892 0.058109
6.467283 -0.945892 0.080514
6.782003 -0.945892 0.120201
7.096724 -0.945892 0.181641
7.411445 -0.945892 0.256437
7.726166 -0.945892 0.350782
8.040888 -0.945892 0.461382
8.355608 -0.945892 0.569512
8.670330 -0.945892 0.740366
8.985050 -0.945892 0.900910
9.299772 -0.945892 1.063027
9.614492 -0.945892 1.214684
9.929214 -0.945892 1.422486
10.243935 -0.945892 1.616117
10.558655 -0.945892 1.793259
10.873377 -0.945892 1.982003
11.188097 -0.945892 2.145281
11.502819 -0.945892 2.277456
11.817539 -0.945892 2.451479
12.132261 -0.945892 2.652444
12.446981 -0.945892 2.756252
12.761703 -0.945892 2.873642
13.076424 -0.945892 3.024646
13.391144 -0.945892 3.187488
13.705866 -0.945892 3.668704
14.020586 -0.945892 4.070990
14.335308 -0.945892 4.631665
14.650028 -0.945892 4.427907
14.964750 -0.945892 0.000000
15.279470 -0.945892 0.000000
15.594193 -0.945892 0.000000
15.908913 -0.945892 0.000000
16.223633 -0.945892 0.000000
16.538355 -0.945892 0.000000
16.853075 -0.945892 0.000000
17.167797 -0.945892 0.000000
17.482517 -0.945892 0.000000
17.797239 -0.945892 0.000000
18.111959 -0.945892 0.000000
18.426680 -0.945892 0.000000
18.741402 -0.945892 0.000000
-7.065720 -1.260616 0.000000
-6.750999 -1.260616 0.000000
-6.436278 -1.260616 0.000000
-6.121557 -1.260616 0.000000
-5.806836 -1.260616 0.000000
-5.492115 -1.260616 0.000000
-5.177394 -1.260616 0.000000
-4.862673 -1.260616 0.000000
-4.547952 -1.260616 0.000000
-4.233231 -1.260616 0.000000
-3.918510 -1.260616 0.000000
-3.603789 -1.260616 0.000000
-3.289068 -1.260616 0.000000
-2.974347 -1.260616 0.000000
-2.659626 -1.260616 0.000000
-2.344905 -1.260616 0.000000
-2.030184 -1.260616 0.000000
-1.715463 -1.260616 0.000000
-1.400742 -1.260616 0.000000
-1.086021 -1.260616 0.000000
-0.771300 -1.260616 0.000000
-0.456579 -1.260616 0.000000
-0.141859 -1.260616 0.000000
0.172863 -1.260616 0.000000
0.487584 -1.260616 0.000000
0.802305 -1.260616 0.000000
1.117026 -1.260616 0.000000
1.431747 -1.260616 0.000000
1.746467 -1.260616 0.000000
2.061188 -1.260616 0.000000
2.375909 -1.260616 0.000000
2.690630 -1.260616 0.000000
3.005352 -1.260616 0.000000
3.320073 -1.260616 0.000000
3.634794 -1.260616 0.000000
3.949515 -1.260616 0.000000
4.264236 -1.260616 0.000000
4.578956 -1.260616 0.000000
4.893677 -1.260616 0.000000
5.208398 -1.260616 0.000000
5.523119 -1.260616 0.000000
5.837841 -1.260616 0.719843
6.152562 -1.260616 1.092224
6.467283 -1.260616 0.961996
6.782003 -1.260616 1.010572
7.096724 -1.260616 1.130467
7.411445 -1.260616 1.090133
7.726166 -1.260616 1.001194
8.040888 -1.260616 0.997548
8.355608 -1.260616 0.979325
8.670330 -1.260616 1.088344
8.985050 -1.260616 1.168679
9.299772 -1.260616 1.277171
9.614492 -1.260616 1.422415
9.929214 -1.260616 1.605435
10.243935 -1.260616 1.785618
10.558655 -1.260616 2.010967
10.873377 -1.260616 2.228291
11.188097 -1.260616 2.509738
11.502819 -1.260616 2.653219
11.817539 -1.260616 2.826720
12.132261 -1.260616 3.043033
12.446981 -1.260616 3.187427
12.761703 -1.260616 3.435588
13.076424 -1.260616 3.513457
13.391144 -1.260616 3.718163
13.705866 -1.260616 4.119233
14.020586 -1.260616 4.381797
14.335308 -1.260616 4.683882
14.650028 -1.260616 0.000000
14.964750 -1.260616 0.000000
15.279470 -1.260616 0.000000
15.594193 -1.260616 0.000000
15.908913 -1.260616 0.000000
16.223633 -1.260616 0.000000
16.538355 -1.260616 0.000000
16.853075 -1.260616 0.000000
17.167797 -1.260616 0.000000
17.482517 -1.260616 0.000000
17.797239 -1.260616 0.000000
18.111959 -1.260616 0.000000
18.426680 -1.260616 0.000000
18.741402 -1.260616 0.000000
-7.065720 -1.575336 0.000000
-6.750999 -1.575336 0.000000
-6.436278 -1.575336 0.000000
-6.121557 -1.575336 0.000000
-5.806836 -1.575336 0.000000
-5.492115 -1.575336 0.000000
-5.177394 -1.575336 0.000000
-4.862673 -1.575336 0.000000
-4.547952 -1.575336 0.000000
-4.233231 -1.575336 0.000000
-3.918510 -1.575336 0.000000
-3.603789 -1.575336 0.000000
-3.289068 -1.575336 0.000000
-2.974347 -1.575336 0.000000
-2.659626 -1.575336 0.000000
-2.344905 -1.575336 0.000000
-2.030184 -1.575336 0.000000
-1.715463 -1.575336 0.000000
-1.400742 -1.575336 0.000000
-1.086021 -1.575336 0.000000
-0.771300 -1.575336 0.000000
-0.456579 -1.575336 0.000000
-0.141859 -1.575336 0.000000
0.172863 -1.575336 0.000000
0.487584 -1.575336 0.000000
0.802305 -1.575336 0.000000
1.117026 -1.575336 0.000000
1.431747 -1.575336 0.000000
1.746467 -1.575336 0.000000
2.061188 -1.575336 0.000000
2.375909 -1.575336 0.000000
2.690630 -1.575336 0.000000
3.005352 -1.575336 0.000000
3.320073 -1.575336 0.000000
3.634794 -1.575336 0.000000
3.949515 -1.575336 0.000000
4.264236 -1.575336 0.000000
4.578956 -1.575336 0.000000
4.893677 -1.575336 0.000000
5.208398 -1.575336 0.000000
5.523119 -1.575336 0.000000
5.837841 -1.575336 0.000000
6.152562 -1.575336 0.000000
6.467283 -1.575336 0.000000
6.782003 -1.575336 0.000000
7.096724 -1.575336 0.000000
7.411445 -1.575336 0.000000
7.726166 -1.575336 0.000000
8.040888 -1.575336 0.000000
8.355608 -1.575336 0.000000
8.670330 -1.575336 0.000000
8.985050 -1.575336 10.148443
9.299772 -1.575336 3.462566
9.614492 -1.575336 5.072107
9.929214 -1.575336 4.189095
10.243935 -1.575336 3.571678
10.558655 -1.575336 3.214421
10.873377 -1.575336 3.176199
11.188097 -1.575336 2.722666
11.502819 -1.575336 2.820249
11.817539 -1.575336 2.813136
12.132261 -1.575336 2.908889
12.446981 -1.575336 3.067333
12.761703 -1.575336 3.146308
13.076424 -1.575336 3.280325
13.391144 -1.575336 3.548041
13.705866 -1.575336 3.658125
14.020586 -1.575336 3.740437
14.335308 -1.575336 3.628302
14.650028 -1.575336 0.000000
14.964750 -1.575336 0.000000
15.279470 -1.575336 0.000000
15.594193 -1.575336 0.000000
15.908913 -1.575336 0.000000
16.223633 -1.575336 0.000000
16.538355 -1.575336 0.000000
16.853075 -1.575336 0.000000
17.167797 -1.575336 0.000000
17.482517 -1.575336 0.000000
17.797239 -1.575336 0.000000
18.111959 -1.575336 0.000000
18.426680 -1.575336 0.000000
18.741402 -1.575336 0.000000
-7.065720 -1.890057 0.000000
-6.750999 -1.890057 0.000000
-6.436278 -1.890057 0.000000
-6.121557 -1.890057 0.000000
-5.806836 -1.890057 0.000000
-5.492115 -1.890057 0.000000
-5.177394 -1.890057 0.000000
-4.862673 -1.890057 0.000000
-4.547952 -1.890057 0.000000
-4.233231 -1.890057 0.000000
-3.918510 -1.890057 0.000000
-3.603789 -1.890057 0.000000
-3.289068 -1.890057 0.000000
-2.974347 -1.890057 0.000000
-2.659626 -1.890057 0.000000
-2.344905 -1.890057 0.000000
-2.030184 -1.890057 0.000000
-1.715463 -1.890057 0.000000
-1.400742 -1.890057 0.000000
-1.086021 -1.890057 0.000000
-0.771300 -1.890057 0.000000
-0.456579 -1.890057 0.000000
-0.141859 -1.890057 0.000000
0.172863 -1.890057 0.000000
0.487584 -1.890057 0.000000
0.802305 -1.890057 0.000000
1.117026 -1.890057 0.000000
1.431747 -1.890057 0.000000
1.746467 -1.890057 0.000000
2.061188 -1.890057 0.000000
2.375909 -1.890057 0.000000
2.690630 -1.890057 0.000000
3.005352 -1.890057 0.000000
3.320073 -1.890057 0.000000
3.634794 -1.890057 0.000000
3.949515 -1.890057 0.000000
4.264236 -1.890057 0.000000
4.578956 -1.890057 0.000000
4.893677 -1.890057 0.000000
5.208398 -1.890057 0.000000
5.523119 -1.890057 0.000000
5.837841 -1.890057 0.000000
6.152562 -1.890057 0.000000
6.467283 -1.890057 0.000000
6.782003 -1.890057 0.000000
7.096724 -1.890057 0.000000
7.411445 -1.890057 0.000000
7.726166 -1.890057 0.000000
8.040888 -1.890057 0.000000
8.355608 -1.890057 0.000000
8.670330 -1.890057 0.000000
8.985050 -1.890057 0.000000
9.299772 -1.890057 0.000000
9.614492 -1.890057 0.000000
9.929214 -1.890057 0.000000
10.243935 -1.890057 0.000000
10.558655 -1.890057 0.000000
10.873377 -1.890057 0.000000
11.188097 -1.890057 0.000000
11.502819 -1.890057 1.685606
11.817539 -1.890057 0.171364
12.132261 -1.890057 9.758028
12.446981 -1.890057 5.638412
12.761703 -1.890057 4.236302
13.076424 -1.890057 4.179394
13.391144 -1.890057 3.775524
13.705866 -1.890057 3.558290
14.020586 -1.890057 2.617891
14.335308 -1.890057 2.524202
14.650028 -1.890057 0.000000
14.964750 -1.890057 0.000000
15.279470 -1.890057 0.000000
15.594193 -1.890057 0.000000
15.908913 -1.890057 0.000000
16.223633 -1.890057 0.000000
16.538355 -1.890057 0.000000
16.853075 -1.890057 0.000000
17.167797 -1.890057 0.000000
17.482517 -1.890057 0.000000
17.797239 -1.890057 0.000000
18.111959 -1.890057 0.000000
18.426680 -1.890057 0.000000
18.741402 -1.890057 0.000000
-7.065720 -2.204777 0.000000
-6.750999 -2.204777 0.000000
-6.436278 -2.204777 0.000000
-6.121557 -2.204777 0.000000
-5.806836 -2.204777 0.000000
-5.492115 -2.204777 0.000000
-5.177394 -2.204777 0.000000
-4.862673 -2.204777 0.000000
-4.547952 -2.204777 0.000000
-4.233231 -2.204777 0.000000
-3.918510 -2.204777 0.000000
-3.603789 -2.204777 0.000000
-3.289068 -2.204777 0.000000
-2.974347 -2.204777 0.000000
-2.659626 -2.204777 0.000000
-2.344905 -2.204777 0.000000
-2.030184 -2.204777 0.000000
-1.715463 -2.204777 0.000000
-1.400742 -2.204777 0.000000
-1.086021 -2.204777 0.000000
-0.771300 -2.204777 0.000000
-0.456579 -2.204777 0.000000
-0.141859 -2.204777 0.000000
0.172863 -2.204777 0.000000
0.487584 -2.204777 0.000000
0.802305 -2.204777 0.000000
1.117026 -2.204777 0.000000
1.431747 -2.204777 0.000000
1.746467 -2.204777 0.000000
2.061188 -2.204777 0.000000
2.375909 -2.204777 0.000000
2.690630 -2.204777 0.000000
3.005352 -2.204777 0.000000
3.320073 -2.204777 0.000000
3.634794 -2.204777 0.000000
3.949515 -2.204777 0.000000
4.264236 -2.204777 0.000000
4.578956 -2.204777 0.000000
4.893677 -2.204777 0.000000
5.208398 -2.204777 0.000000
5.523119 -2.204777 0.000000
5.837841 -2.204777 0.000000
6.152562 -2.204777 0.000000
6.467283 -2.204777 0.000000
6.782003 -2.204777 0.000000
7.096724 -2.204777 0.000000
7.411445 -2.204777 0.000000
7.726166 -2.204777 0.000000
8.040888 -2.204777 0.000000
8.355608 -2.204777 0.000000
8.670330 -2.204777 0.000000
8.985050 -2.204777 0.000000
9.299772 -2.204777 0.000000
9.614492 -2.204777 0.000000
9.929214 -2.204777 0.000000
10.243935 -2.204777 0.000000
10.558655 -2.204777 0.000000
10.873377 -2.204777 0.000000
11.188097 -2.204777 0.000000
11.502819 -2.204777 0.000000
11.817539 -2.204777 0.000000
12.132261 -2.204777 0.000000
12.446981 -2.204777 0.000000
12.761703 -2.204777 0.000000
13.076424 -2.204777 0.000000
13.391144 -2.204777 0.000000
13.705866 -2.204777 0.000000
14.020586 -2.204777 0.000000
14.335308 -2.204777 0.000000
14.650028 -2.204777 0.000000
14.964750 -2.204777 0.000000
15.279470 -2.204777 0.000000
15.594193 -2.204777 0.000000
15.908913 -2.204777 0.000000
16.223633 -2.204777 0.000000
16.538355 -2.204777 0.000000
16.853075 -2.204777 0.000000
17.167797 -2.204777 0.000000
17.482517 -2.204777 0.000000
17.797239 -2.204777 0.000000
18.111959 -2.204777 0.000000
18.426680 -2.204777 0.000000
18.741402 -2.204777 0.000000
