TITLE = "B00010"
VARIABLES = "x", "y", "Reynold stress XZ"
ZONE T="Frame 1" I=83, J=162, F=POINT
-7.065720 48.465302 0.000000
-6.750999 48.465302 0.000000
-6.436278 48.465302 0.000000
-6.121557 48.465302 0.000000
-5.806836 48.465302 0.000000
-5.492115 48.465302 0.000000
-5.177394 48.465302 0.000000
-4.862673 48.465302 0.000000
-4.547952 48.465302 0.000000
-4.233231 48.465302 0.000000
-3.918510 48.465302 0.000000
-3.603789 48.465302 0.000000
-3.289068 48.465302 0.000000
-2.974347 48.465302 0.000000
-2.659626 48.465302 0.000000
-2.344905 48.465302 0.000000
-2.030184 48.465302 0.000000
-1.715463 48.465302 0.000000
-1.400742 48.465302 0.000000
-1.086021 48.465302 0.000000
-0.771300 48.465302 0.000000
-0.456579 48.465302 0.000000
-0.141859 48.465302 0.000000
0.172863 48.465302 0.000000
0.487584 48.465302 0.000000
0.802305 48.465302 0.000000
1.117026 48.465302 0.000000
1.431747 48.465302 0.000000
1.746467 48.465302 0.000000
2.061188 48.465302 0.000000
2.375909 48.465302 0.000000
2.690630 48.465302 0.000000
3.005352 48.465302 0.000000
3.320073 48.465302 0.000000
3.634794 48.465302 0.000000
3.949515 48.465302 0.000000
4.264236 48.465302 0.000000
4.578956 48.465302 0.000000
4.893677 48.465302 0.000000
5.208398 48.465302 0.000000
5.523119 48.465302 0.000000
5.837841 48.465302 0.000000
6.152562 48.465302 0.000000
6.467283 48.465302 0.000000
6.782003 48.465302 0.000000
7.096724 48.465302 0.000000
7.411445 48.465302 0.000000
7.726166 48.465302 0.000000
8.040888 48.465302 0.000000
8.355608 48.465302 0.000000
8.670330 48.465302 0.000000
8.985050 48.465302 0.000000
9.299772 48.465302 0.000000
9.614492 48.465302 0.000000
9.929214 48.465302 0.000000
10.243935 48.465302 0.000000
10.558655 48.465302 0.000000
10.873377 48.465302 0.000000
11.188097 48.465302 0.000000
11.502819 48.465302 0.000000
11.817539 48.465302 0.000000
12.132261 48.465302 0.000000
12.446981 48.465302 0.000000
12.761703 48.465302 0.000000
13.076424 48.465302 0.000000
13.391144 48.465302 0.000000
13.705866 48.465302 0.000000
14.020586 48.465302 0.000000
14.335308 48.465302 0.000000
14.650028 48.465302 0.000000
14.964750 48.465302 0.000000
15.279470 48.465302 0.000000
15.594193 48.465302 0.000000
15.908913 48.465302 0.000000
16.223633 48.465302 0.000000
16.538355 48.465302 0.000000
16.853075 48.465302 0.000000
17.167797 48.465302 0.000000
17.482517 48.465302 0.000000
17.797239 48.465302 0.000000
18.111959 48.465302 0.000000
18.426680 48.465302 0.000000
18.741402 48.465302 0.000000
-7.065720 48.150581 0.000000
-6.750999 48.150581 0.000000
-6.436278 48.150581 0.000000
-6.121557 48.150581 0.000000
-5.806836 48.150581 0.000000
-5.492115 48.150581 0.000000
-5.177394 48.150581 0.000000
-4.862673 48.150581 0.000000
-4.547952 48.150581 0.000000
-4.233231 48.150581 0.000000
-3.918510 48.150581 0.000000
-3.603789 48.150581 0.000000
-3.289068 48.150581 0.000000
-2.974347 48.150581 0.000000
-2.659626 48.150581 0.000000
-2.344905 48.150581 0.000000
-2.030184 48.150581 0.000000
-1.715463 48.150581 0.000000
-1.400742 48.150581 0.000000
-1.086021 48.150581 0.000000
-0.771300 48.150581 0.000000
-0.456579 48.150581 0.000000
-0.141859 48.150581 0.000000
0.172863 48.150581 0.000000
0.487584 48.150581 0.000000
0.802305 48.150581 0.000000
1.117026 48.150581 0.000000
1.431747 48.150581 0.000000
1.746467 48.150581 0.000000
2.061188 48.150581 0.000000
2.375909 48.150581 0.000000
2.690630 48.150581 0.000000
3.005352 48.150581 0.000000
3.320073 48.150581 0.000000
3.634794 48.150581 0.000000
3.949515 48.150581 0.000000
4.264236 48.150581 0.000000
4.578956 48.150581 0.000000
4.893677 48.150581 0.000000
5.208398 48.150581 0.000000
5.523119 48.150581 0.000000
5.837841 48.150581 0.000000
6.152562 48.150581 0.000000
6.467283 48.150581 0.000000
6.782003 48.150581 0.000000
7.096724 48.150581 0.000000
7.411445 48.150581 0.000000
7.726166 48.150581 0.000000
8.040888 48.150581 0.000000
8.355608 48.150581 0.000000
8.670330 48.150581 0.000000
8.985050 48.150581 0.000000
9.299772 48.150581 0.000000
9.614492 48.150581 0.000000
9.929214 48.150581 0.000000
10.243935 48.150581 0.000000
10.558655 48.150581 0.000000
10.873377 48.150581 0.000000
11.188097 48.150581 0.000000
11.502819 48.150581 0.000000
11.817539 48.150581 0.000000
12.132261 48.150581 0.000000
12.446981 48.150581 0.000000
12.761703 48.150581 0.000000
13.076424 48.150581 0.000000
13.391144 48.150581 0.000000
13.705866 48.150581 0.000000
14.020586 48.150581 0.000000
14.335308 48.150581 0.000000
14.650028 48.150581 0.000000
14.964750 48.150581 0.000000
15.279470 48.150581 0.000000
15.594193 48.150581 0.000000
15.908913 48.150581 0.000000
16.223633 48.150581 0.000000
16.538355 48.150581 0.000000
16.853075 48.150581 0.000000
17.167797 48.150581 0.000000
17.482517 48.150581 0.000000
17.797239 48.150581 0.000000
18.111959 48.150581 0.000000
18.426680 48.150581 0.000000
18.741402 48.150581 0.000000
-7.065720 47.835861 0.000000
-6.750999 47.835861 0.000000
-6.436278 47.835861 0.000000
-6.121557 47.835861 0.000000
-5.806836 47.835861 0.000000
-5.492115 47.835861 0.000000
-5.177394 47.835861 0.000000
-4.862673 47.835861 0.000000
-4.547952 47.835861 0.000000
-4.233231 47.835861 0.000000
-3.918510 47.835861 0.000000
-3.603789 47.835861 0.000000
-3.289068 47.835861 0.000000
-2.974347 47.835861 0.000000
-2.659626 47.835861 0.000000
-2.344905 47.835861 0.000000
-2.030184 47.835861 0.000000
-1.715463 47.835861 0.000000
-1.400742 47.835861 0.000000
-1.086021 47.835861 0.000000
-0.771300 47.835861 0.000000
-0.456579 47.835861 0.000000
-0.141859 47.835861 0.000000
0.172863 47.835861 0.000000
0.487584 47.835861 0.000000
0.802305 47.835861 0.000000
1.117026 47.835861 0.000000
1.431747 47.835861 0.000000
1.746467 47.835861 0.000000
2.061188 47.835861 0.000000
2.375909 47.835861 0.000000
2.690630 47.835861 0.000000
3.005352 47.835861 0.000000
3.320073 47.835861 0.000000
3.634794 47.835861 0.000000
3.949515 47.835861 0.000000
4.264236 47.835861 0.000000
4.578956 47.835861 0.000000
4.893677 47.835861 0.000000
5.208398 47.835861 0.000000
5.523119 47.835861 0.000000
5.837841 47.835861 0.000000
6.152562 47.835861 0.000000
6.467283 47.835861 0.000000
6.782003 47.835861 0.000000
7.096724 47.835861 0.000000
7.411445 47.835861 0.000000
7.726166 47.835861 0.000000
8.040888 47.835861 0.000000
8.355608 47.835861 0.000000
8.670330 47.835861 0.000000
8.985050 47.835861 0.000000
9.299772 47.835861 0.000000
9.614492 47.835861 0.000000
9.929214 47.835861 0.000000
10.243935 47.835861 0.000000
10.558655 47.835861 -2.899722
10.873377 47.835861 -1.129048
11.188097 47.835861 1.722349
11.502819 47.835861 0.652143
11.817539 47.835861 2.215675
12.132261 47.835861 -0.861226
12.446981 47.835861 -1.157498
12.761703 47.835861 1.162794
13.076424 47.835861 0.482728
13.391144 47.835861 -0.985262
13.705866 47.835861 -2.035849
14.020586 47.835861 -0.280622
14.335308 47.835861 -0.058371
14.650028 47.835861 -0.273793
14.964750 47.835861 -0.718893
15.279470 47.835861 -0.877695
15.594193 47.835861 -0.703001
15.908913 47.835861 -0.799810
16.223633 47.835861 -0.977599
16.538355 47.835861 -0.172366
16.853075 47.835861 0.357699
17.167797 47.835861 0.992342
17.482517 47.835861 0.635253
17.797239 47.835861 1.378349
18.111959 47.835861 0.619301
18.426680 47.835861 0.363194
18.741402 47.835861 -1.013197
-7.065720 47.521137 0.000000
-6.750999 47.521137 0.000000
-6.436278 47.521137 0.000624
-6.121557 47.521137 0.000808
-5.806836 47.521137 0.001050
-5.492115 47.521137 0.001001
-5.177394 47.521137 0.001108
-4.862673 47.521137 0.002021
-4.547952 47.521137 0.002524
-4.233231 47.521137 0.003632
-3.918510 47.521137 0.003273
-3.603789 47.521137 0.003341
-3.289068 47.521137 0.001108
-2.974347 47.521137 0.001698
-2.659626 47.521137 0.003475
-2.344905 47.521137 0.007455
-2.030184 47.521137 0.000000
-1.715463 47.521137 0.000000
-1.400742 47.521137 0.000000
-1.086021 47.521137 0.000000
-0.771300 47.521137 0.000000
-0.456579 47.521137 0.000000
-0.141859 47.521137 0.000000
0.172863 47.521137 0.000000
0.487584 47.521137 0.000000
0.802305 47.521137 0.000000
1.117026 47.521137 0.000000
1.431747 47.521137 0.000000
1.746467 47.521137 0.000000
2.061188 47.521137 0.000000
2.375909 47.521137 0.000000
2.690630 47.521137 0.000000
3.005352 47.521137 0.000000
3.320073 47.521137 0.000000
3.634794 47.521137 0.000000
3.949515 47.521137 0.000000
4.264236 47.521137 0.000000
4.578956 47.521137 0.000000
4.893677 47.521137 0.000000
5.208398 47.521137 0.000000
5.523119 47.521137 0.000000
5.837841 47.521137 0.000000
6.152562 47.521137 0.000000
6.467283 47.521137 0.000000
6.782003 47.521137 0.000000
7.096724 47.521137 -0.358046
7.411445 47.521137 -0.596238
7.726166 47.521137 -0.460697
8.040888 47.521137 -0.013817
8.355608 47.521137 0.150017
8.670330 47.521137 -0.161980
8.985050 47.521137 -0.251230
9.299772 47.521137 -0.208024
9.614492 47.521137 -0.252560
9.929214 47.521137 -0.213763
10.243935 47.521137 -0.182992
10.558655 47.521137 -0.202463
10.873377 47.521137 -0.213933
11.188097 47.521137 -0.231288
11.502819 47.521137 -0.195188
11.817539 47.521137 -0.193858
12.132261 47.521137 -0.201475
12.446981 47.521137 -0.153272
12.761703 47.521137 -0.216354
13.076424 47.521137 -0.187067
13.391144 47.521137 -0.144903
13.705866 47.521137 -0.113199
14.020586 47.521137 -0.104101
14.335308 47.521137 -0.089565
14.650028 47.521137 -0.089066
14.964750 47.521137 -0.073773
15.279470 47.521137 -0.042085
15.594193 47.521137 -0.027384
15.908913 47.521137 -0.009426
16.223633 47.521137 -0.003632
16.538355 47.521137 0.010152
16.853075 47.521137 0.041022
17.167797 47.521137 0.083612
17.482517 47.521137 0.101020
17.797239 47.521137 0.174981
18.111959 47.521137 0.263994
18.426680 47.521137 0.264815
18.741402 47.521137 0.072761
-7.065720 47.206417 0.000000
-6.750999 47.206417 0.000000
-6.436278 47.206417 0.000888
-6.121557 47.206417 0.001020
-5.806836 47.206417 0.001008
-5.492115 47.206417 0.001210
-5.177394 47.206417 0.001347
-4.862673 47.206417 0.001103
-4.547952 47.206417 0.000949
-4.233231 47.206417 0.001075
-3.918510 47.206417 0.001184
-3.603789 47.206417 0.001113
-3.289068 47.206417 0.001104
-2.974347 47.206417 0.001127
-2.659626 47.206417 0.000943
-2.344905 47.206417 0.000894
-2.030184 47.206417 0.000908
-1.715463 47.206417 0.000980
-1.400742 47.206417 0.000934
-1.086021 47.206417 0.000704
-0.771300 47.206417 0.000714
-0.456579 47.206417 0.000862
-0.141859 47.206417 0.000785
0.172863 47.206417 0.000659
0.487584 47.206417 0.000672
0.802305 47.206417 0.000783
1.117026 47.206417 0.000820
1.431747 47.206417 0.000741
1.746467 47.206417 0.000755
2.061188 47.206417 0.000532
2.375909 47.206417 0.000526
2.690630 47.206417 0.000809
3.005352 47.206417 0.000944
3.320073 47.206417 0.000823
3.634794 47.206417 0.000845
3.949515 47.206417 0.000666
4.264236 47.206417 0.000483
4.578956 47.206417 0.000128
4.893677 47.206417 -0.000191
5.208398 47.206417 -0.000178
5.523119 47.206417 -0.000629
5.837841 47.206417 -0.000947
6.152562 47.206417 -0.001193
6.467283 47.206417 -0.001537
6.782003 47.206417 -0.001598
7.096724 47.206417 -0.002230
7.411445 47.206417 -0.002513
7.726166 47.206417 -0.002063
8.040888 47.206417 0.000616
8.355608 47.206417 0.006679
8.670330 47.206417 0.008681
8.985050 47.206417 0.014372
9.299772 47.206417 0.021465
9.614492 47.206417 0.024274
9.929214 47.206417 0.024115
10.243935 47.206417 0.013703
10.558655 47.206417 0.018853
10.873377 47.206417 0.026700
11.188097 47.206417 0.011310
11.502819 47.206417 0.010840
11.817539 47.206417 0.007389
12.132261 47.206417 -0.014288
12.446981 47.206417 -0.012276
12.761703 47.206417 -0.020035
13.076424 47.206417 -0.014664
13.391144 47.206417 0.001671
13.705866 47.206417 0.013890
14.020586 47.206417 0.005595
14.335308 47.206417 -0.005951
14.650028 47.206417 0.011623
14.964750 47.206417 0.007681
15.279470 47.206417 0.001030
15.594193 47.206417 0.018381
15.908913 47.206417 0.032554
16.223633 47.206417 0.015497
16.538355 47.206417 0.027775
16.853075 47.206417 0.051182
17.167797 47.206417 0.075960
17.482517 47.206417 0.108186
17.797239 47.206417 0.155204
18.111959 47.206417 0.177726
18.426680 47.206417 0.143067
18.741402 47.206417 -0.029199
-7.065720 46.891697 0.000000
-6.750999 46.891697 0.000000
-6.436278 46.891697 0.001101
-6.121557 46.891697 0.000832
-5.806836 46.891697 0.000732
-5.492115 46.891697 0.000839
-5.177394 46.891697 0.000991
-4.862673 46.891697 0.000898
-4.547952 46.891697 0.000739
-4.233231 46.891697 0.000782
-3.918510 46.891697 0.000793
-3.603789 46.891697 0.000722
-3.289068 46.891697 0.000751
-2.974347 46.891697 0.000866
-2.659626 46.891697 0.000745
-2.344905 46.891697 0.000705
-2.030184 46.891697 0.000725
-1.715463 46.891697 0.000751
-1.400742 46.891697 0.000730
-1.086021 46.891697 0.000604
-0.771300 46.891697 0.000603
-0.456579 46.891697 0.000599
-0.141859 46.891697 0.000564
0.172863 46.891697 0.000534
0.487584 46.891697 0.000482
0.802305 46.891697 0.000588
1.117026 46.891697 0.000643
1.431747 46.891697 0.000538
1.746467 46.891697 0.000517
2.061188 46.891697 0.000384
2.375909 46.891697 0.000280
2.690630 46.891697 0.000367
3.005352 46.891697 0.000377
3.320073 46.891697 0.000311
3.634794 46.891697 0.000437
3.949515 46.891697 0.000413
4.264236 46.891697 0.000193
4.578956 46.891697 -0.000259
4.893677 46.891697 -0.000639
5.208398 46.891697 -0.000694
5.523119 46.891697 -0.001086
5.837841 46.891697 -0.001458
6.152562 46.891697 -0.001967
6.467283 46.891697 -0.002083
6.782003 46.891697 -0.001802
7.096724 46.891697 -0.001922
7.411445 46.891697 -0.002384
7.726166 46.891697 -0.001876
8.040888 46.891697 -0.000454
8.355608 46.891697 0.004210
8.670330 46.891697 0.008716
8.985050 46.891697 0.016022
9.299772 46.891697 0.026759
9.614492 46.891697 0.027364
9.929214 46.891697 0.019018
10.243935 46.891697 0.014905
10.558655 46.891697 0.020551
10.873377 46.891697 0.021457
11.188097 46.891697 0.008990
11.502819 46.891697 0.008345
11.817539 46.891697 0.010796
12.132261 46.891697 -0.006855
12.446981 46.891697 -0.010908
12.761703 46.891697 -0.022831
13.076424 46.891697 -0.009779
13.391144 46.891697 0.009820
13.705866 46.891697 0.014750
14.020586 46.891697 0.010671
14.335308 46.891697 -0.002623
14.650028 46.891697 0.008040
14.964750 46.891697 -0.010730
15.279470 46.891697 -0.005388
15.594193 46.891697 0.011620
15.908913 46.891697 0.023021
16.223633 46.891697 0.007230
16.538355 46.891697 0.006929
16.853075 46.891697 0.048057
17.167797 46.891697 0.078605
17.482517 46.891697 0.086854
17.797239 46.891697 0.119041
18.111959 46.891697 0.153114
18.426680 46.891697 0.151386
18.741402 46.891697 0.011182
-7.065720 46.576977 0.000000
-6.750999 46.576977 0.000000
-6.436278 46.576977 0.001058
-6.121557 46.576977 0.000722
-5.806836 46.576977 0.000619
-5.492115 46.576977 0.000632
-5.177394 46.576977 0.000797
-4.862673 46.576977 0.000790
-4.547952 46.576977 0.000613
-4.233231 46.576977 0.000576
-3.918510 46.576977 0.000588
-3.603789 46.576977 0.000557
-3.289068 46.576977 0.000623
-2.974347 46.576977 0.000730
-2.659626 46.576977 0.000688
-2.344905 46.576977 0.000716
-2.030184 46.576977 0.000719
-1.715463 46.576977 0.000656
-1.400742 46.576977 0.000626
-1.086021 46.576977 0.000541
-0.771300 46.576977 0.000511
-0.456579 46.576977 0.000461
-0.141859 46.576977 0.000505
0.172863 46.576977 0.000526
0.487584 46.576977 0.000411
0.802305 46.576977 0.000452
1.117026 46.576977 0.000528
1.431747 46.576977 0.000415
1.746467 46.576977 0.000359
2.061188 46.576977 0.000333
2.375909 46.576977 0.000240
2.690630 46.576977 0.000198
3.005352 46.576977 0.000081
3.320073 46.576977 0.000037
3.634794 46.576977 0.000139
3.949515 46.576977 0.000139
4.264236 46.576977 -0.000029
4.578956 46.576977 -0.000434
4.893677 46.576977 -0.000850
5.208398 46.576977 -0.001034
5.523119 46.576977 -0.001401
5.837841 46.576977 -0.001887
6.152562 46.576977 -0.002341
6.467283 46.576977 -0.002515
6.782003 46.576977 -0.003014
7.096724 46.576977 -0.002464
7.411445 46.576977 -0.002091
7.726166 46.576977 -0.003033
8.040888 46.576977 -0.001101
8.355608 46.576977 0.003572
8.670330 46.576977 0.012411
8.985050 46.576977 0.016718
9.299772 46.576977 0.022463
9.614492 46.576977 0.026576
9.929214 46.576977 0.017817
10.243935 46.576977 0.009840
10.558655 46.576977 0.014392
10.873377 46.576977 0.016214
11.188097 46.576977 0.011863
11.502819 46.576977 0.008039
11.817539 46.576977 0.004765
12.132261 46.576977 -0.021887
12.446981 46.576977 -0.026465
12.761703 46.576977 -0.014926
13.076424 46.576977 -0.013328
13.391144 46.576977 -0.000349
13.705866 46.576977 0.010412
14.020586 46.576977 -0.004759
14.335308 46.576977 0.000386
14.650028 46.576977 -0.001449
14.964750 46.576977 -0.019845
15.279470 46.576977 -0.023424
15.594193 46.576977 -0.010317
15.908913 46.576977 -0.011423
16.223633 46.576977 -0.002423
16.538355 46.576977 0.007023
16.853075 46.576977 0.032511
17.167797 46.576977 0.069444
17.482517 46.576977 0.076473
17.797239 46.576977 0.069972
18.111959 46.576977 0.123281
18.426680 46.576977 0.166365
18.741402 46.576977 -0.041906
-7.065720 46.262253 0.000000
-6.750999 46.262253 0.000000
-6.436278 46.262253 0.000983
-6.121557 46.262253 0.000704
-5.806836 46.262253 0.000622
-5.492115 46.262253 0.000594
-5.177394 46.262253 0.000718
-4.862673 46.262253 0.000720
-4.547952 46.262253 0.000547
-4.233231 46.262253 0.000496
-3.918510 46.262253 0.000533
-3.603789 46.262253 0.000557
-3.289068 46.262253 0.000648
-2.974347 46.262253 0.000667
-2.659626 46.262253 0.000664
-2.344905 46.262253 0.000751
-2.030184 46.262253 0.000748
-1.715463 46.262253 0.000655
-1.400742 46.262253 0.000595
-1.086021 46.262253 0.000477
-0.771300 46.262253 0.000446
-0.456579 46.262253 0.000452
-0.141859 46.262253 0.000507
0.172863 46.262253 0.000556
0.487584 46.262253 0.000435
0.802305 46.262253 0.000394
1.117026 46.262253 0.000460
1.431747 46.262253 0.000382
1.746467 46.262253 0.000328
2.061188 46.262253 0.000339
2.375909 46.262253 0.000285
2.690630 46.262253 0.000164
3.005352 46.262253 -0.000012
3.320073 46.262253 -0.000070
3.634794 46.262253 -0.000021
3.949515 46.262253 0.000001
4.264236 46.262253 -0.000190
4.578956 46.262253 -0.000561
4.893677 46.262253 -0.000985
5.208398 46.262253 -0.001263
5.523119 46.262253 -0.001604
5.837841 46.262253 -0.002187
6.152562 46.262253 -0.002568
6.467283 46.262253 -0.003014
6.782003 46.262253 -0.003838
7.096724 46.262253 -0.003831
7.411445 46.262253 -0.003344
7.726166 46.262253 -0.003277
8.040888 46.262253 -0.002143
8.355608 46.262253 0.004937
8.670330 46.262253 0.011197
8.985050 46.262253 0.015292
9.299772 46.262253 0.019539
9.614492 46.262253 0.019956
9.929214 46.262253 0.019563
10.243935 46.262253 0.007946
10.558655 46.262253 0.005187
10.873377 46.262253 0.006010
11.188097 46.262253 0.005116
11.502819 46.262253 -0.006631
11.817539 46.262253 -0.001833
12.132261 46.262253 -0.006042
12.446981 46.262253 -0.013761
12.761703 46.262253 -0.012954
13.076424 46.262253 -0.016859
13.391144 46.262253 0.005132
13.705866 46.262253 0.000531
14.020586 46.262253 -0.008772
14.335308 46.262253 0.003704
14.650028 46.262253 -0.012618
14.964750 46.262253 -0.028005
15.279470 46.262253 -0.016130
15.594193 46.262253 -0.012572
15.908913 46.262253 -0.017868
16.223633 46.262253 -0.027546
16.538355 46.262253 -0.004688
16.853075 46.262253 0.027319
17.167797 46.262253 0.059713
17.482517 46.262253 0.049355
17.797239 46.262253 0.088471
18.111959 46.262253 0.122654
18.426680 46.262253 0.152223
18.741402 46.262253 -0.068163
-7.065720 45.947533 0.000000
-6.750999 45.947533 0.000000
-6.436278 45.947533 0.000971
-6.121557 45.947533 0.000745
-5.806836 45.947533 0.000671
-5.492115 45.947533 0.000622
-5.177394 45.947533 0.000658
-4.862673 45.947533 0.000669
-4.547952 45.947533 0.000569
-4.233231 45.947533 0.000510
-3.918510 45.947533 0.000547
-3.603789 45.947533 0.000589
-3.289068 45.947533 0.000663
-2.974347 45.947533 0.000611
-2.659626 45.947533 0.000600
-2.344905 45.947533 0.000723
-2.030184 45.947533 0.000722
-1.715463 45.947533 0.000618
-1.400742 45.947533 0.000523
-1.086021 45.947533 0.000414
-0.771300 45.947533 0.000388
-0.456579 45.947533 0.000468
-0.141859 45.947533 0.000516
0.172863 45.947533 0.000547
0.487584 45.947533 0.000430
0.802305 45.947533 0.000366
1.117026 45.947533 0.000423
1.431747 45.947533 0.000397
1.746467 45.947533 0.000349
2.061188 45.947533 0.000360
2.375909 45.947533 0.000328
2.690630 45.947533 0.000206
3.005352 45.947533 0.000005
3.320073 45.947533 -0.000100
3.634794 45.947533 -0.000037
3.949515 45.947533 -0.000037
4.264236 45.947533 -0.000300
4.578956 45.947533 -0.000650
4.893677 45.947533 -0.001007
5.208398 45.947533 -0.001307
5.523119 45.947533 -0.001744
5.837841 45.947533 -0.002230
6.152562 45.947533 -0.002446
6.467283 45.947533 -0.003190
6.782003 45.947533 -0.004367
7.096724 45.947533 -0.004754
7.411445 45.947533 -0.004141
7.726166 45.947533 -0.004204
8.040888 45.947533 -0.002393
8.355608 45.947533 0.005079
8.670330 45.947533 0.008386
8.985050 45.947533 0.011898
9.299772 45.947533 0.016620
9.614492 45.947533 0.018009
9.929214 45.947533 0.017896
10.243935 45.947533 0.010103
10.558655 45.947533 0.004392
10.873377 45.947533 0.004508
11.188097 45.947533 -0.000157
11.502819 45.947533 -0.004310
11.817539 45.947533 -0.012895
12.132261 45.947533 -0.016571
12.446981 45.947533 -0.013943
12.761703 45.947533 -0.007401
13.076424 45.947533 -0.000146
13.391144 45.947533 0.009689
13.705866 45.947533 0.012758
14.020586 45.947533 0.005524
14.335308 45.947533 0.002276
14.650028 45.947533 -0.015982
14.964750 45.947533 -0.017015
15.279470 45.947533 -0.013331
15.594193 45.947533 -0.009806
15.908913 45.947533 -0.023600
16.223633 45.947533 -0.014699
16.538355 45.947533 0.003768
16.853075 45.947533 0.023313
17.167797 45.947533 0.064363
17.482517 45.947533 0.045687
17.797239 45.947533 0.106522
18.111959 45.947533 0.099473
18.426680 45.947533 0.210680
18.741402 45.947533 0.000191
-7.065720 45.632813 0.000000
-6.750999 45.632813 0.000000
-6.436278 45.632813 0.001047
-6.121557 45.632813 0.000809
-5.806836 45.632813 0.000764
-5.492115 45.632813 0.000697
-5.177394 45.632813 0.000639
-4.862673 45.632813 0.000642
-4.547952 45.632813 0.000620
-4.233231 45.632813 0.000556
-3.918510 45.632813 0.000573
-3.603789 45.632813 0.000614
-3.289068 45.632813 0.000655
-2.974347 45.632813 0.000560
-2.659626 45.632813 0.000546
-2.344905 45.632813 0.000630
-2.030184 45.632813 0.000594
-1.715463 45.632813 0.000496
-1.400742 45.632813 0.000446
-1.086021 45.632813 0.000377
-0.771300 45.632813 0.000350
-0.456579 45.632813 0.000438
-0.141859 45.632813 0.000490
0.172863 45.632813 0.000465
0.487584 45.632813 0.000378
0.802305 45.632813 0.000346
1.117026 45.632813 0.000399
1.431747 45.632813 0.000405
1.746467 45.632813 0.000406
2.061188 45.632813 0.000423
2.375909 45.632813 0.000376
2.690630 45.632813 0.000284
3.005352 45.632813 0.000073
3.320073 45.632813 -0.000082
3.634794 45.632813 -0.000008
3.949515 45.632813 -0.000014
4.264236 45.632813 -0.000371
4.578956 45.632813 -0.000708
4.893677 45.632813 -0.000909
5.208398 45.632813 -0.001248
5.523119 45.632813 -0.001612
5.837841 45.632813 -0.001972
6.152562 45.632813 -0.002143
6.467283 45.632813 -0.003029
6.782003 45.632813 -0.004470
7.096724 45.632813 -0.005444
7.411445 45.632813 -0.005191
7.726166 45.632813 -0.005682
8.040888 45.632813 -0.001968
8.355608 45.632813 0.003299
8.670330 45.632813 0.004025
8.985050 45.632813 0.007238
9.299772 45.632813 0.015757
9.614492 45.632813 0.019034
9.929214 45.632813 0.024424
10.243935 45.632813 0.015719
10.558655 45.632813 0.009288
10.873377 45.632813 0.011541
11.188097 45.632813 0.002733
11.502819 45.632813 -0.007774
11.817539 45.632813 -0.003116
12.132261 45.632813 -0.014021
12.446981 45.632813 -0.019895
12.761703 45.632813 -0.011719
13.076424 45.632813 0.005054
13.391144 45.632813 0.014322
13.705866 45.632813 0.022791
14.020586 45.632813 0.030774
14.335308 45.632813 0.017706
14.650028 45.632813 -0.000025
14.964750 45.632813 -0.006151
15.279470 45.632813 -0.022310
15.594193 45.632813 -0.021290
15.908913 45.632813 -0.022920
16.223633 45.632813 -0.021439
16.538355 45.632813 0.027288
16.853075 45.632813 0.043168
17.167797 45.632813 0.084412
17.482517 45.632813 0.052030
17.797239 45.632813 0.058703
18.111959 45.632813 0.115711
18.426680 45.632813 0.161408
18.741402 45.632813 0.042832
-7.065720 45.318092 0.000000
-6.750999 45.318092 0.000000
-6.436278 45.318092 0.001096
-6.121557 45.318092 0.000861
-5.806836 45.318092 0.000875
-5.492115 45.318092 0.000813
-5.177394 45.318092 0.000685
-4.862673 45.318092 0.000647
-4.547952 45.318092 0.000670
-4.233231 45.318092 0.000627
-3.918510 45.318092 0.000614
-3.603789 45.318092 0.000638
-3.289068 45.318092 0.000639
-2.974347 45.318092 0.000523
-2.659626 45.318092 0.000547
-2.344905 45.318092 0.000566
-2.030184 45.318092 0.000461
-1.715463 45.318092 0.000396
-1.400742 45.318092 0.000415
-1.086021 45.318092 0.000427
-0.771300 45.318092 0.000362
-0.456579 45.318092 0.000369
-0.141859 45.318092 0.000429
0.172863 45.318092 0.000373
0.487584 45.318092 0.000303
0.802305 45.318092 0.000339
1.117026 45.318092 0.000384
1.431747 45.318092 0.000412
1.746467 45.318092 0.000433
2.061188 45.318092 0.000450
2.375909 45.318092 0.000377
2.690630 45.318092 0.000289
3.005352 45.318092 0.000086
3.320073 45.318092 -0.000036
3.634794 45.318092 0.000046
3.949515 45.318092 -0.000042
4.264236 45.318092 -0.000442
4.578956 45.318092 -0.000709
4.893677 45.318092 -0.000850
5.208398 45.318092 -0.001096
5.523119 45.318092 -0.001360
5.837841 45.318092 -0.001684
6.152562 45.318092 -0.001985
6.467283 45.318092 -0.002967
6.782003 45.318092 -0.004127
7.096724 45.318092 -0.005014
7.411445 45.318092 -0.005849
7.726166 45.318092 -0.006407
8.040888 45.318092 -0.003878
8.355608 45.318092 -0.001117
8.670330 45.318092 0.001973
8.985050 45.318092 0.002337
9.299772 45.318092 0.013269
9.614492 45.318092 0.018964
9.929214 45.318092 0.025932
10.243935 45.318092 0.016106
10.558655 45.318092 0.017684
10.873377 45.318092 0.013998
11.188097 45.318092 0.010248
11.502819 45.318092 -0.004960
11.817539 45.318092 -0.018335
12.132261 45.318092 -0.015833
12.446981 45.318092 -0.021771
12.761703 45.318092 -0.018567
13.076424 45.318092 -0.001386
13.391144 45.318092 0.010390
13.705866 45.318092 0.026325
14.020586 45.318092 0.028855
14.335308 45.318092 0.024028
14.650028 45.318092 0.001672
14.964750 45.318092 -0.006548
15.279470 45.318092 -0.014855
15.594193 45.318092 -0.013409
15.908913 45.318092 -0.023318
16.223633 45.318092 -0.002376
16.538355 45.318092 0.048676
16.853075 45.318092 0.102780
17.167797 45.318092 0.130017
17.482517 45.318092 0.058570
17.797239 45.318092 0.051236
18.111959 45.318092 0.132431
18.426680 45.318092 0.199958
18.741402 45.318092 -0.027318
-7.065720 45.003372 0.000000
-6.750999 45.003372 0.000000
-6.436278 45.003372 0.001084
-6.121557 45.003372 0.000910
-5.806836 45.003372 0.000941
-5.492115 45.003372 0.000843
-5.177394 45.003372 0.000731
-4.862673 45.003372 0.000678
-4.547952 45.003372 0.000692
-4.233231 45.003372 0.000688
-3.918510 45.003372 0.000629
-3.603789 45.003372 0.000652
-3.289068 45.003372 0.000640
-2.974347 45.003372 0.000546
-2.659626 45.003372 0.000593
-2.344905 45.003372 0.000577
-2.030184 45.003372 0.000434
-1.715463 45.003372 0.000391
-1.400742 45.003372 0.000475
-1.086021 45.003372 0.000528
-0.771300 45.003372 0.000397
-0.456579 45.003372 0.000319
-0.141859 45.003372 0.000382
0.172863 45.003372 0.000327
0.487584 45.003372 0.000259
0.802305 45.003372 0.000308
1.117026 45.003372 0.000352
1.431747 45.003372 0.000378
1.746467 45.003372 0.000372
2.061188 45.003372 0.000412
2.375909 45.003372 0.000348
2.690630 45.003372 0.000277
3.005352 45.003372 0.000153
3.320073 45.003372 0.000044
3.634794 45.003372 0.000046
3.949515 45.003372 -0.000087
4.264236 45.003372 -0.000459
4.578956 45.003372 -0.000676
4.893677 45.003372 -0.000803
5.208398 45.003372 -0.001018
5.523119 45.003372 -0.001253
5.837841 45.003372 -0.001418
6.152562 45.003372 -0.001708
6.467283 45.003372 -0.002600
6.782003 45.003372 -0.003744
7.096724 45.003372 -0.004994
7.411445 45.003372 -0.006359
7.726166 45.003372 -0.005562
8.040888 45.003372 -0.004384
8.355608 45.003372 -0.001680
8.670330 45.003372 -0.001633
8.985050 45.003372 0.002675
9.299772 45.003372 0.012472
9.614492 45.003372 0.019642
9.929214 45.003372 0.018350
10.243935 45.003372 0.012411
10.558655 45.003372 0.010180
10.873377 45.003372 0.013272
11.188097 45.003372 0.009322
11.502819 45.003372 -0.002320
11.817539 45.003372 -0.024411
12.132261 45.003372 -0.020975
12.446981 45.003372 -0.024832
12.761703 45.003372 -0.020212
13.076424 45.003372 -0.004721
13.391144 45.003372 0.019025
13.705866 45.003372 0.018641
14.020586 45.003372 0.029708
14.335308 45.003372 0.017874
14.650028 45.003372 0.000402
14.964750 45.003372 -0.015753
15.279470 45.003372 -0.016617
15.594193 45.003372 -0.026065
15.908913 45.003372 -0.015464
16.223633 45.003372 0.016659
16.538355 45.003372 0.077691
16.853075 45.003372 0.144527
17.167797 45.003372 0.119110
17.482517 45.003372 0.031796
17.797239 45.003372 0.047382
18.111959 45.003372 0.134675
18.426680 45.003372 0.223266
18.741402 45.003372 -0.057131
-7.065720 44.688648 0.000000
-6.750999 44.688648 0.000000
-6.436278 44.688648 0.001015
-6.121557 44.688648 0.000901
-5.806836 44.688648 0.000910
-5.492115 44.688648 0.000758
-5.177394 44.688648 0.000724
-4.862673 44.688648 0.000721
-4.547952 44.688648 0.000712
-4.233231 44.688648 0.000720
-3.918510 44.688648 0.000644
-3.603789 44.688648 0.000660
-3.289068 44.688648 0.000639
-2.974347 44.688648 0.000600
-2.659626 44.688648 0.000651
-2.344905 44.688648 0.000644
-2.030184 44.688648 0.000482
-1.715463 44.688648 0.000422
-1.400742 44.688648 0.000565
-1.086021 44.688648 0.000631
-0.771300 44.688648 0.000469
-0.456579 44.688648 0.000379
-0.141859 44.688648 0.000417
0.172863 44.688648 0.000346
0.487584 44.688648 0.000270
0.802305 44.688648 0.000306
1.117026 44.688648 0.000314
1.431747 44.688648 0.000288
1.746467 44.688648 0.000279
2.061188 44.688648 0.000330
2.375909 44.688648 0.000285
2.690630 44.688648 0.000326
3.005352 44.688648 0.000284
3.320073 44.688648 0.000099
3.634794 44.688648 -0.000021
3.949515 44.688648 -0.000209
4.264236 44.688648 -0.000458
4.578956 44.688648 -0.000659
4.893677 44.688648 -0.000734
5.208398 44.688648 -0.000922
5.523119 44.688648 -0.001111
5.837841 44.688648 -0.001209
6.152562 44.688648 -0.001699
6.467283 44.688648 -0.002451
6.782003 44.688648 -0.003376
7.096724 44.688648 -0.004953
7.411445 44.688648 -0.005747
7.726166 44.688648 -0.005175
8.040888 44.688648 -0.003350
8.355608 44.688648 -0.001693
8.670330 44.688648 -0.000577
8.985050 44.688648 0.005859
9.299772 44.688648 0.010505
9.614492 44.688648 0.014291
9.929214 44.688648 0.013882
10.243935 44.688648 0.002021
10.558655 44.688648 -0.004749
10.873377 44.688648 0.002401
11.188097 44.688648 0.005197
11.502819 44.688648 0.000830
11.817539 44.688648 -0.023340
12.132261 44.688648 -0.019324
12.446981 44.688648 -0.022556
12.761703 44.688648 -0.019344
13.076424 44.688648 -0.005241
13.391144 44.688648 0.001338
13.705866 44.688648 0.021169
14.020586 44.688648 0.018216
14.335308 44.688648 0.009188
14.650028 44.688648 -0.011239
14.964750 44.688648 -0.014853
15.279470 44.688648 -0.024723
15.594193 44.688648 -0.011880
15.908913 44.688648 -0.007674
16.223633 44.688648 0.023144
16.538355 44.688648 0.113512
16.853075 44.688648 0.187362
17.167797 44.688648 0.168019
17.482517 44.688648 0.019371
17.797239 44.688648 0.004364
18.111959 44.688648 0.075539
18.426680 44.688648 0.196688
18.741402 44.688648 -0.027712
-7.065720 44.373928 0.000000
-6.750999 44.373928 0.000000
-6.436278 44.373928 0.000953
-6.121557 44.373928 0.000832
-5.806836 44.373928 0.000805
-5.492115 44.373928 0.000668
-5.177394 44.373928 0.000731
-4.862673 44.373928 0.000767
-4.547952 44.373928 0.000718
-4.233231 44.373928 0.000715
-3.918510 44.373928 0.000650
-3.603789 44.373928 0.000678
-3.289068 44.373928 0.000701
-2.974347 44.373928 0.000668
-2.659626 44.373928 0.000709
-2.344905 44.373928 0.000737
-2.030184 44.373928 0.000591
-1.715463 44.373928 0.000478
-1.400742 44.373928 0.000624
-1.086021 44.373928 0.000668
-0.771300 44.373928 0.000518
-0.456579 44.373928 0.000470
-0.141859 44.373928 0.000477
0.172863 44.373928 0.000393
0.487584 44.373928 0.000357
0.802305 44.373928 0.000320
1.117026 44.373928 0.000269
1.431747 44.373928 0.000207
1.746467 44.373928 0.000163
2.061188 44.373928 0.000183
2.375909 44.373928 0.000229
2.690630 44.373928 0.000388
3.005352 44.373928 0.000391
3.320073 44.373928 0.000104
3.634794 44.373928 -0.000145
3.949515 44.373928 -0.000314
4.264236 44.373928 -0.000446
4.578956 44.373928 -0.000535
4.893677 44.373928 -0.000612
5.208398 44.373928 -0.000772
5.523119 44.373928 -0.001004
5.837841 44.373928 -0.001218
6.152562 44.373928 -0.001711
6.467283 44.373928 -0.002416
6.782003 44.373928 -0.003172
7.096724 44.373928 -0.004848
7.411445 44.373928 -0.005450
7.726166 44.373928 -0.004770
8.040888 44.373928 -0.004735
8.355608 44.373928 -0.000769
8.670330 44.373928 0.004864
8.985050 44.373928 0.010020
9.299772 44.373928 0.017079
9.614492 44.373928 0.012165
9.929214 44.373928 0.012308
10.243935 44.373928 0.002624
10.558655 44.373928 -0.001280
10.873377 44.373928 0.002906
11.188097 44.373928 0.004380
11.502819 44.373928 -0.001662
11.817539 44.373928 -0.006803
12.132261 44.373928 -0.009807
12.446981 44.373928 -0.010603
12.761703 44.373928 -0.008018
13.076424 44.373928 -0.005899
13.391144 44.373928 0.003501
13.705866 44.373928 0.025611
14.020586 44.373928 0.019846
14.335308 44.373928 0.006391
14.650028 44.373928 -0.011912
14.964750 44.373928 -0.017907
15.279470 44.373928 -0.006516
15.594193 44.373928 -0.000269
15.908913 44.373928 0.009563
16.223633 44.373928 0.039819
16.538355 44.373928 0.148311
16.853075 44.373928 0.280752
17.167797 44.373928 0.253337
17.482517 44.373928 0.100540
17.797239 44.373928 0.029889
18.111959 44.373928 0.033269
18.426680 44.373928 0.162470
18.741402 44.373928 -0.078127
-7.065720 44.059208 0.000000
-6.750999 44.059208 0.000000
-6.436278 44.059208 0.000846
-6.121557 44.059208 0.000745
-5.806836 44.059208 0.000723
-5.492115 44.059208 0.000666
-5.177394 44.059208 0.000765
-4.862673 44.059208 0.000794
-4.547952 44.059208 0.000766
-4.233231 44.059208 0.000728
-3.918510 44.059208 0.000647
-3.603789 44.059208 0.000715
-3.289068 44.059208 0.000756
-2.974347 44.059208 0.000700
-2.659626 44.059208 0.000711
-2.344905 44.059208 0.000802
-2.030184 44.059208 0.000653
-1.715463 44.059208 0.000554
-1.400742 44.059208 0.000646
-1.086021 44.059208 0.000682
-0.771300 44.059208 0.000548
-0.456579 44.059208 0.000528
-0.141859 44.059208 0.000441
0.172863 44.059208 0.000391
0.487584 44.059208 0.000428
0.802305 44.059208 0.000318
1.117026 44.059208 0.000239
1.431747 44.059208 0.000152
1.746467 44.059208 0.000045
2.061188 44.059208 0.000038
2.375909 44.059208 0.000116
2.690630 44.059208 0.000357
3.005352 44.059208 0.000404
3.320073 44.059208 0.000089
3.634794 44.059208 -0.000255
3.949515 44.059208 -0.000393
4.264236 44.059208 -0.000398
4.578956 44.059208 -0.000378
4.893677 44.059208 -0.000375
5.208398 44.059208 -0.000598
5.523119 44.059208 -0.000935
5.837841 44.059208 -0.001326
6.152562 44.059208 -0.001761
6.467283 44.059208 -0.002188
6.782003 44.059208 -0.003184
7.096724 44.059208 -0.004475
7.411445 44.059208 -0.005038
7.726166 44.059208 -0.006206
8.040888 44.059208 -0.004634
8.355608 44.059208 -0.001244
8.670330 44.059208 0.006576
8.985050 44.059208 0.009551
9.299772 44.059208 0.015337
9.614492 44.059208 0.012660
9.929214 44.059208 0.018813
10.243935 44.059208 0.017642
10.558655 44.059208 0.002078
10.873377 44.059208 -0.000868
11.188097 44.059208 0.004589
11.502819 44.059208 -0.005850
11.817539 44.059208 -0.012855
12.132261 44.059208 -0.013188
12.446981 44.059208 -0.022153
12.761703 44.059208 -0.013555
13.076424 44.059208 0.000117
13.391144 44.059208 0.008772
13.705866 44.059208 0.014906
14.020586 44.059208 0.020242
14.335308 44.059208 -0.005356
14.650028 44.059208 -0.019259
14.964750 44.059208 -0.012076
15.279470 44.059208 -0.005353
15.594193 44.059208 0.004290
15.908913 44.059208 0.021848
16.223633 44.059208 0.074364
16.538355 44.059208 0.180991
16.853075 44.059208 0.312404
17.167797 44.059208 0.380760
17.482517 44.059208 0.177426
17.797239 44.059208 0.011746
18.111959 44.059208 0.085113
18.426680 44.059208 0.096409
18.741402 44.059208 -0.103624
-7.065720 43.744488 0.000000
-6.750999 43.744488 0.000000
-6.436278 43.744488 0.000827
-6.121557 43.744488 0.000707
-5.806836 43.744488 0.000702
-5.492115 43.744488 0.000713
-5.177394 43.744488 0.000807
-4.862673 43.744488 0.000839
-4.547952 43.744488 0.000865
-4.233231 43.744488 0.000784
-3.918510 43.744488 0.000657
-3.603789 43.744488 0.000681
-3.289068 43.744488 0.000771
-2.974347 43.744488 0.000657
-2.659626 43.744488 0.000639
-2.344905 43.744488 0.000739
-2.030184 43.744488 0.000689
-1.715463 43.744488 0.000646
-1.400742 43.744488 0.000663
-1.086021 43.744488 0.000648
-0.771300 43.744488 0.000553
-0.456579 43.744488 0.000533
-0.141859 43.744488 0.000395
0.172863 43.744488 0.000380
0.487584 43.744488 0.000463
0.802305 43.744488 0.000328
1.117026 43.744488 0.000199
1.431747 43.744488 0.000087
1.746467 43.744488 -0.000022
2.061188 43.744488 -0.000097
2.375909 43.744488 -0.000015
2.690630 43.744488 0.000242
3.005352 43.744488 0.000335
3.320073 43.744488 0.000059
3.634794 43.744488 -0.000320
3.949515 43.744488 -0.000448
4.264236 43.744488 -0.000361
4.578956 43.744488 -0.000215
4.893677 43.744488 -0.000139
5.208398 43.744488 -0.000436
5.523119 43.744488 -0.000830
5.837841 43.744488 -0.001458
6.152562 43.744488 -0.001870
6.467283 43.744488 -0.002255
6.782003 43.744488 -0.002999
7.096724 43.744488 -0.003628
7.411445 43.744488 -0.004027
7.726166 43.744488 -0.004905
8.040888 43.744488 -0.003429
8.355608 43.744488 -0.000688
8.670330 43.744488 0.004519
8.985050 43.744488 0.007719
9.299772 43.744488 0.010113
9.614492 43.744488 0.010940
9.929214 43.744488 0.021149
10.243935 43.744488 0.025037
10.558655 43.744488 0.015549
10.873377 43.744488 0.008625
11.188097 43.744488 0.001890
11.502819 43.744488 -0.007208
11.817539 43.744488 -0.019822
12.132261 43.744488 -0.023554
12.446981 43.744488 -0.018053
12.761703 43.744488 -0.013894
13.076424 43.744488 0.010899
13.391144 43.744488 0.009763
13.705866 43.744488 0.020611
14.020586 43.744488 0.005679
14.335308 43.744488 -0.015753
14.650028 43.744488 -0.021974
14.964750 43.744488 -0.019708
15.279470 43.744488 -0.007331
15.594193 43.744488 0.003703
15.908913 43.744488 0.015795
16.223633 43.744488 0.058629
16.538355 43.744488 0.170420
16.853075 43.744488 0.364822
17.167797 43.744488 0.382642
17.482517 43.744488 0.201255
17.797239 43.744488 0.060591
18.111959 43.744488 0.085551
18.426680 43.744488 0.069065
18.741402 43.744488 -0.115392
-7.065720 43.429764 0.000000
-6.750999 43.429764 0.000000
-6.436278 43.429764 0.000881
-6.121557 43.429764 0.000729
-5.806836 43.429764 0.000709
-5.492115 43.429764 0.000745
-5.177394 43.429764 0.000828
-4.862673 43.429764 0.000846
-4.547952 43.429764 0.000883
-4.233231 43.429764 0.000773
-3.918510 43.429764 0.000626
-3.603789 43.429764 0.000636
-3.289068 43.429764 0.000732
-2.974347 43.429764 0.000619
-2.659626 43.429764 0.000570
-2.344905 43.429764 0.000641
-2.030184 43.429764 0.000705
-1.715463 43.429764 0.000757
-1.400742 43.429764 0.000697
-1.086021 43.429764 0.000592
-0.771300 43.429764 0.000544
-0.456579 43.429764 0.000509
-0.141859 43.429764 0.000391
0.172863 43.429764 0.000396
0.487584 43.429764 0.000467
0.802305 43.429764 0.000328
1.117026 43.429764 0.000193
1.431747 43.429764 0.000072
1.746467 43.429764 -0.000033
2.061188 43.429764 -0.000121
2.375909 43.429764 -0.000085
2.690630 43.429764 0.000109
3.005352 43.429764 0.000200
3.320073 43.429764 0.000005
3.634794 43.429764 -0.000352
3.949515 43.429764 -0.000468
4.264236 43.429764 -0.000319
4.578956 43.429764 -0.000162
4.893677 43.429764 -0.000127
5.208398 43.429764 -0.000382
5.523119 43.429764 -0.000878
5.837841 43.429764 -0.001567
6.152562 43.429764 -0.002004
6.467283 43.429764 -0.002213
6.782003 43.429764 -0.002219
7.096724 43.429764 -0.003324
7.411445 43.429764 -0.003875
7.726166 43.429764 -0.005023
8.040888 43.429764 -0.005468
8.355608 43.429764 -0.002754
8.670330 43.429764 0.002299
8.985050 43.429764 0.006153
9.299772 43.429764 0.007627
9.614492 43.429764 0.010129
9.929214 43.429764 0.012575
10.243935 43.429764 0.025629
10.558655 43.429764 0.020244
10.873377 43.429764 0.006707
11.188097 43.429764 -0.006136
11.502819 43.429764 -0.021742
11.817539 43.429764 -0.023595
12.132261 43.429764 -0.024579
12.446981 43.429764 -0.024333
12.761703 43.429764 0.000869
13.076424 43.429764 0.013000
13.391144 43.429764 0.029203
13.705866 43.429764 0.024804
14.020586 43.429764 0.007272
14.335308 43.429764 -0.010146
14.650028 43.429764 -0.016950
14.964750 43.429764 -0.019350
15.279470 43.429764 -0.007730
15.594193 43.429764 0.002565
15.908913 43.429764 0.005455
16.223633 43.429764 0.043413
16.538355 43.429764 0.146117
16.853075 43.429764 0.286548
17.167797 43.429764 0.332505
17.482517 43.429764 0.194388
17.797239 43.429764 0.113976
18.111959 43.429764 0.027741
18.426680 43.429764 0.102333
18.741402 43.429764 -0.116180
-7.065720 43.115044 0.000000
-6.750999 43.115044 0.000000
-6.436278 43.115044 0.000983
-6.121557 43.115044 0.000765
-5.806836 43.115044 0.000714
-5.492115 43.115044 0.000740
-5.177394 43.115044 0.000816
-4.862673 43.115044 0.000798
-4.547952 43.115044 0.000805
-4.233231 43.115044 0.000685
-3.918510 43.115044 0.000548
-3.603789 43.115044 0.000608
-3.289068 43.115044 0.000686
-2.974347 43.115044 0.000646
-2.659626 43.115044 0.000581
-2.344905 43.115044 0.000572
-2.030184 43.115044 0.000694
-1.715463 43.115044 0.000810
-1.400742 43.115044 0.000727
-1.086021 43.115044 0.000576
-0.771300 43.115044 0.000555
-0.456579 43.115044 0.000548
-0.141859 43.115044 0.000463
0.172863 43.115044 0.000470
0.487584 43.115044 0.000486
0.802305 43.115044 0.000401
1.117026 43.115044 0.000270
1.431747 43.115044 0.000129
1.746467 43.115044 -0.000001
2.061188 43.115044 -0.000049
2.375909 43.115044 -0.000060
2.690630 43.115044 0.000015
3.005352 43.115044 0.000041
3.320073 43.115044 -0.000069
3.634794 43.115044 -0.000320
3.949515 43.115044 -0.000429
4.264236 43.115044 -0.000282
4.578956 43.115044 -0.000104
4.893677 43.115044 -0.000116
5.208398 43.115044 -0.000365
5.523119 43.115044 -0.000849
5.837841 43.115044 -0.001559
6.152562 43.115044 -0.002056
6.467283 43.115044 -0.001830
6.782003 43.115044 -0.001995
7.096724 43.115044 -0.002287
7.411445 43.115044 -0.003368
7.726166 43.115044 -0.004262
8.040888 43.115044 -0.005602
8.355608 43.115044 -0.005409
8.670330 43.115044 -0.000040
8.985050 43.115044 0.004598
9.299772 43.115044 0.005547
9.614492 43.115044 0.006711
9.929214 43.115044 0.006800
10.243935 43.115044 0.019351
10.558655 43.115044 0.017628
10.873377 43.115044 0.004769
11.188097 43.115044 -0.007807
11.502819 43.115044 -0.015667
11.817539 43.115044 -0.020243
12.132261 43.115044 -0.016772
12.446981 43.115044 -0.016049
12.761703 43.115044 0.000660
13.076424 43.115044 0.021064
13.391144 43.115044 0.032837
13.705866 43.115044 0.020973
14.020586 43.115044 0.019197
14.335308 43.115044 0.003910
14.650028 43.115044 -0.012801
14.964750 43.115044 -0.005074
15.279470 43.115044 0.005824
15.594193 43.115044 0.010264
15.908913 43.115044 0.002029
16.223633 43.115044 0.019901
16.538355 43.115044 0.077195
16.853075 43.115044 0.146272
17.167797 43.115044 0.144287
17.482517 43.115044 0.109586
17.797239 43.115044 0.038822
18.111959 43.115044 0.032147
18.426680 43.115044 0.120916
18.741402 43.115044 -0.107967
-7.065720 42.800323 0.000000
-6.750999 42.800323 0.000000
-6.436278 42.800323 0.001054
-6.121557 42.800323 0.000821
-5.806836 42.800323 0.000740
-5.492115 42.800323 0.000736
-5.177394 42.800323 0.000772
-4.862673 42.800323 0.000724
-4.547952 42.800323 0.000713
-4.233231 42.800323 0.000629
-3.918510 42.800323 0.000502
-3.603789 42.800323 0.000550
-3.289068 42.800323 0.000600
-2.974347 42.800323 0.000635
-2.659626 42.800323 0.000606
-2.344905 42.800323 0.000548
-2.030184 42.800323 0.000604
-1.715463 42.800323 0.000741
-1.400742 42.800323 0.000715
-1.086021 42.800323 0.000613
-0.771300 42.800323 0.000590
-0.456579 42.800323 0.000606
-0.141859 42.800323 0.000580
0.172863 42.800323 0.000540
0.487584 42.800323 0.000507
0.802305 42.800323 0.000475
1.117026 42.800323 0.000370
1.431747 42.800323 0.000229
1.746467 42.800323 0.000096
2.061188 42.800323 0.000052
2.375909 42.800323 -0.000016
2.690630 42.800323 -0.000042
3.005352 42.800323 -0.000052
3.320073 42.800323 -0.000147
3.634794 42.800323 -0.000262
3.949515 42.800323 -0.000308
4.264236 42.800323 -0.000160
4.578956 42.800323 -0.000091
4.893677 42.800323 -0.000158
5.208398 42.800323 -0.000411
5.523119 42.800323 -0.000908
5.837841 42.800323 -0.001526
6.152562 42.800323 -0.002105
6.467283 42.800323 -0.002130
6.782003 42.800323 -0.001964
7.096724 42.800323 -0.001624
7.411445 42.800323 -0.002552
7.726166 42.800323 -0.003035
8.040888 42.800323 -0.005773
8.355608 42.800323 -0.004721
8.670330 42.800323 -0.001977
8.985050 42.800323 0.002582
9.299772 42.800323 0.006126
9.614492 42.800323 0.006611
9.929214 42.800323 0.011384
10.243935 42.800323 0.008898
10.558655 42.800323 0.009124
10.873377 42.800323 0.001970
11.188097 42.800323 -0.008067
11.502819 42.800323 -0.011290
11.817539 42.800323 -0.005445
12.132261 42.800323 -0.007635
12.446981 42.800323 -0.009986
12.761703 42.800323 -0.006760
13.076424 42.800323 0.017219
13.391144 42.800323 0.021983
13.705866 42.800323 0.014452
14.020586 42.800323 0.012278
14.335308 42.800323 0.005263
14.650028 42.800323 0.006959
14.964750 42.800323 0.007815
15.279470 42.800323 0.018609
15.594193 42.800323 0.007243
15.908913 42.800323 -0.011366
16.223633 42.800323 -0.013049
16.538355 42.800323 0.023889
16.853075 42.800323 0.016216
17.167797 42.800323 0.026964
17.482517 42.800323 0.033029
17.797239 42.800323 0.014343
18.111959 42.800323 0.118403
18.426680 42.800323 0.177910
18.741402 42.800323 -0.037715
-7.065720 42.485603 0.000000
-6.750999 42.485603 0.000000
-6.436278 42.485603 0.001081
-6.121557 42.485603 0.000891
-5.806836 42.485603 0.000794
-5.492115 42.485603 0.000728
-5.177394 42.485603 0.000736
-4.862673 42.485603 0.000681
-4.547952 42.485603 0.000683
-4.233231 42.485603 0.000633
-3.918510 42.485603 0.000535
-3.603789 42.485603 0.000546
-3.289068 42.485603 0.000513
-2.974347 42.485603 0.000572
-2.659626 42.485603 0.000574
-2.344905 42.485603 0.000510
-2.030184 42.485603 0.000486
-1.715463 42.485603 0.000572
-1.400742 42.485603 0.000664
-1.086021 42.485603 0.000623
-0.771300 42.485603 0.000617
-0.456579 42.485603 0.000655
-0.141859 42.485603 0.000620
0.172863 42.485603 0.000570
0.487584 42.485603 0.000547
0.802305 42.485603 0.000512
1.117026 42.485603 0.000431
1.431747 42.485603 0.000299
1.746467 42.485603 0.000223
2.061188 42.485603 0.000130
2.375909 42.485603 0.000003
2.690630 42.485603 -0.000037
3.005352 42.485603 -0.000103
3.320073 42.485603 -0.000192
3.634794 42.485603 -0.000256
3.949515 42.485603 -0.000212
4.264236 42.485603 -0.000110
4.578956 42.485603 -0.000138
4.893677 42.485603 -0.000196
5.208398 42.485603 -0.000404
5.523119 42.485603 -0.000871
5.837841 42.485603 -0.001572
6.152562 42.485603 -0.002148
6.467283 42.485603 -0.002113
6.782003 42.485603 -0.001887
7.096724 42.485603 -0.002097
7.411445 42.485603 -0.002954
7.726166 42.485603 -0.003481
8.040888 42.485603 -0.004647
8.355608 42.485603 -0.003619
8.670330 42.485603 -0.000460
8.985050 42.485603 0.001846
9.299772 42.485603 0.003563
9.614492 42.485603 0.008379
9.929214 42.485603 0.017899
10.243935 42.485603 0.019008
10.558655 42.485603 0.009679
10.873377 42.485603 -0.001329
11.188097 42.485603 -0.009560
11.502819 42.485603 -0.003911
11.817539 42.485603 -0.003088
12.132261 42.485603 0.006793
12.446981 42.485603 -0.006616
12.761703 42.485603 -0.002504
13.076424 42.485603 0.006453
13.391144 42.485603 0.007072
13.705866 42.485603 -0.001116
14.020586 42.485603 0.007088
14.335308 42.485603 0.006729
14.650028 42.485603 0.003983
14.964750 42.485603 0.014133
15.279470 42.485603 0.016354
15.594193 42.485603 0.007592
15.908913 42.485603 -0.014679
16.223633 42.485603 -0.013554
16.538355 42.485603 -0.002600
16.853075 42.485603 -0.026891
17.167797 42.485603 -0.022433
17.482517 42.485603 -0.024190
17.797239 42.485603 -0.061007
18.111959 42.485603 -0.011008
18.426680 42.485603 0.114469
18.741402 42.485603 -0.091456
-7.065720 42.170883 0.000000
-6.750999 42.170883 0.000000
-6.436278 42.170883 0.001076
-6.121557 42.170883 0.000920
-5.806836 42.170883 0.000835
-5.492115 42.170883 0.000739
-5.177394 42.170883 0.000728
-4.862673 42.170883 0.000689
-4.547952 42.170883 0.000689
-4.233231 42.170883 0.000663
-3.918510 42.170883 0.000578
-3.603789 42.170883 0.000548
-3.289068 42.170883 0.000469
-2.974347 42.170883 0.000484
-2.659626 42.170883 0.000455
-2.344905 42.170883 0.000408
-2.030184 42.170883 0.000375
-1.715463 42.170883 0.000417
-1.400742 42.170883 0.000546
-1.086021 42.170883 0.000595
-0.771300 42.170883 0.000591
-0.456579 42.170883 0.000636
-0.141859 42.170883 0.000613
0.172863 42.170883 0.000609
0.487584 42.170883 0.000570
0.802305 42.170883 0.000512
1.117026 42.170883 0.000427
1.431747 42.170883 0.000323
1.746467 42.170883 0.000283
2.061188 42.170883 0.000153
2.375909 42.170883 -0.000039
2.690630 42.170883 -0.000109
3.005352 42.170883 -0.000207
3.320073 42.170883 -0.000277
3.634794 42.170883 -0.000255
3.949515 42.170883 -0.000175
4.264236 42.170883 -0.000190
4.578956 42.170883 -0.000303
4.893677 42.170883 -0.000332
5.208398 42.170883 -0.000475
5.523119 42.170883 -0.000760
5.837841 42.170883 -0.001380
6.152562 42.170883 -0.002065
6.467283 42.170883 -0.002237
6.782003 42.170883 -0.002324
7.096724 42.170883 -0.002379
7.411445 42.170883 -0.002858
7.726166 42.170883 -0.002043
8.040888 42.170883 -0.004552
8.355608 42.170883 -0.002909
8.670330 42.170883 -0.000349
8.985050 42.170883 -0.000407
9.299772 42.170883 0.001174
9.614492 42.170883 0.008975
9.929214 42.170883 0.023280
10.243935 42.170883 0.023546
10.558655 42.170883 0.014008
10.873377 42.170883 0.005783
11.188097 42.170883 0.005599
11.502819 42.170883 0.001755
11.817539 42.170883 -0.000011
12.132261 42.170883 0.006528
12.446981 42.170883 -0.001282
12.761703 42.170883 -0.006708
13.076424 42.170883 -0.012240
13.391144 42.170883 -0.015567
13.705866 42.170883 -0.004751
14.020586 42.170883 -0.003846
14.335308 42.170883 -0.000568
14.650028 42.170883 0.006735
14.964750 42.170883 0.011941
15.279470 42.170883 0.010810
15.594193 42.170883 -0.005323
15.908913 42.170883 -0.002587
16.223633 42.170883 -0.019502
16.538355 42.170883 -0.005466
16.853075 42.170883 -0.016156
17.167797 42.170883 -0.042366
17.482517 42.170883 -0.060013
17.797239 42.170883 -0.021394
18.111959 42.170883 0.007144
18.426680 42.170883 0.092366
18.741402 42.170883 -0.085128
-7.065720 41.856159 0.000000
-6.750999 41.856159 0.000000
-6.436278 41.856159 0.001076
-6.121557 41.856159 0.000910
-5.806836 41.856159 0.000849
-5.492115 41.856159 0.000768
-5.177394 41.856159 0.000768
-4.862673 41.856159 0.000762
-4.547952 41.856159 0.000763
-4.233231 41.856159 0.000718
-3.918510 41.856159 0.000637
-3.603789 41.856159 0.000570
-3.289068 41.856159 0.000472
-2.974347 41.856159 0.000392
-2.659626 41.856159 0.000336
-2.344905 41.856159 0.000295
-2.030184 41.856159 0.000261
-1.715463 41.856159 0.000299
-1.400742 41.856159 0.000420
-1.086021 41.856159 0.000520
-0.771300 41.856159 0.000526
-0.456579 41.856159 0.000554
-0.141859 41.856159 0.000582
0.172863 41.856159 0.000651
0.487584 41.856159 0.000580
0.802305 41.856159 0.000482
1.117026 41.856159 0.000450
1.431747 41.856159 0.000366
1.746467 41.856159 0.000309
2.061188 41.856159 0.000186
2.375909 41.856159 -0.000012
2.690630 41.856159 -0.000164
3.005352 41.856159 -0.000243
3.320073 41.856159 -0.000290
3.634794 41.856159 -0.000208
3.949515 41.856159 -0.000213
4.264236 41.856159 -0.000300
4.578956 41.856159 -0.000532
4.893677 41.856159 -0.000585
5.208398 41.856159 -0.000636
5.523119 41.856159 -0.000768
5.837841 41.856159 -0.001105
6.152562 41.856159 -0.001845
6.467283 41.856159 -0.002300
6.782003 41.856159 -0.002017
7.096724 41.856159 -0.002365
7.411445 41.856159 -0.002025
7.726166 41.856159 -0.002554
8.040888 41.856159 -0.003951
8.355608 41.856159 -0.001770
8.670330 41.856159 -0.001253
8.985050 41.856159 0.003823
9.299772 41.856159 0.004215
9.614492 41.856159 0.009594
9.929214 41.856159 0.021282
10.243935 41.856159 0.024300
10.558655 41.856159 0.018342
10.873377 41.856159 0.019838
11.188097 41.856159 0.005698
11.502819 41.856159 0.002122
11.817539 41.856159 0.007788
12.132261 41.856159 0.010362
12.446981 41.856159 0.001027
12.761703 41.856159 -0.008311
13.076424 41.856159 -0.018537
13.391144 41.856159 -0.019664
13.705866 41.856159 0.000238
14.020586 41.856159 -0.011745
14.335308 41.856159 -0.000473
14.650028 41.856159 -0.000851
14.964750 41.856159 0.002559
15.279470 41.856159 -0.015579
15.594193 41.856159 -0.015497
15.908913 41.856159 -0.018811
16.223633 41.856159 -0.013942
16.538355 41.856159 -0.018562
16.853075 41.856159 -0.051810
17.167797 41.856159 -0.072792
17.482517 41.856159 -0.059390
17.797239 41.856159 -0.031933
18.111959 41.856159 0.066357
18.426680 41.856159 0.034561
18.741402 41.856159 -0.019611
-7.065720 41.541439 0.000000
-6.750999 41.541439 0.000000
-6.436278 41.541439 0.001051
-6.121557 41.541439 0.000892
-5.806836 41.541439 0.000860
-5.492115 41.541439 0.000779
-5.177394 41.541439 0.000817
-4.862673 41.541439 0.000867
-4.547952 41.541439 0.000854
-4.233231 41.541439 0.000787
-3.918510 41.541439 0.000685
-3.603789 41.541439 0.000619
-3.289068 41.541439 0.000481
-2.974347 41.541439 0.000365
-2.659626 41.541439 0.000284
-2.344905 41.541439 0.000234
-2.030184 41.541439 0.000207
-1.715463 41.541439 0.000245
-1.400742 41.541439 0.000340
-1.086021 41.541439 0.000426
-0.771300 41.541439 0.000380
-0.456579 41.541439 0.000386
-0.141859 41.541439 0.000501
0.172863 41.541439 0.000605
0.487584 41.541439 0.000528
0.802305 41.541439 0.000428
1.117026 41.541439 0.000471
1.431747 41.541439 0.000422
1.746467 41.541439 0.000348
2.061188 41.541439 0.000249
2.375909 41.541439 0.000062
2.690630 41.541439 -0.000156
3.005352 41.541439 -0.000201
3.320073 41.541439 -0.000194
3.634794 41.541439 -0.000197
3.949515 41.541439 -0.000343
4.264236 41.541439 -0.000478
4.578956 41.541439 -0.000727
4.893677 41.541439 -0.000823
5.208398 41.541439 -0.000826
5.523119 41.541439 -0.000786
5.837841 41.541439 -0.001025
6.152562 41.541439 -0.001624
6.467283 41.541439 -0.002208
6.782003 41.541439 -0.002051
7.096724 41.541439 -0.001504
7.411445 41.541439 -0.001350
7.726166 41.541439 -0.002690
8.040888 41.541439 -0.003344
8.355608 41.541439 -0.000836
8.670330 41.541439 -0.000265
8.985050 41.541439 0.003857
9.299772 41.541439 0.009708
9.614492 41.541439 0.008185
9.929214 41.541439 0.014923
10.243935 41.541439 0.021509
10.558655 41.541439 0.016650
10.873377 41.541439 0.008635
11.188097 41.541439 0.008197
11.502819 41.541439 -0.000488
11.817539 41.541439 0.006703
12.132261 41.541439 0.004922
12.446981 41.541439 0.001563
12.761703 41.541439 -0.009046
13.076424 41.541439 -0.013744
13.391144 41.541439 -0.015096
13.705866 41.541439 -0.009571
14.020586 41.541439 -0.009998
14.335308 41.541439 -0.002409
14.650028 41.541439 -0.000499
14.964750 41.541439 -0.010696
15.279470 41.541439 -0.023572
15.594193 41.541439 -0.026281
15.908913 41.541439 -0.021173
16.223633 41.541439 -0.020244
16.538355 41.541439 -0.036744
16.853075 41.541439 -0.080024
17.167797 41.541439 -0.110770
17.482517 41.541439 -0.085554
17.797239 41.541439 -0.014028
18.111959 41.541439 0.023767
18.426680 41.541439 0.107905
18.741402 41.541439 -0.141638
-7.065720 41.226719 0.000000
-6.750999 41.226719 0.000000
-6.436278 41.226719 0.001008
-6.121557 41.226719 0.000853
-5.806836 41.226719 0.000836
-5.492115 41.226719 0.000762
-5.177394 41.226719 0.000849
-4.862673 41.226719 0.000941
-4.547952 41.226719 0.000918
-4.233231 41.226719 0.000839
-3.918510 41.226719 0.000733
-3.603789 41.226719 0.000690
-3.289068 41.226719 0.000540
-2.974347 41.226719 0.000413
-2.659626 41.226719 0.000347
-2.344905 41.226719 0.000274
-2.030184 41.226719 0.000214
-1.715463 41.226719 0.000283
-1.400742 41.226719 0.000334
-1.086021 41.226719 0.000367
-0.771300 41.226719 0.000254
-0.456579 41.226719 0.000211
-0.141859 41.226719 0.000381
0.172863 41.226719 0.000492
0.487584 41.226719 0.000452
0.802305 41.226719 0.000359
1.117026 41.226719 0.000455
1.431747 41.226719 0.000505
1.746467 41.226719 0.000457
2.061188 41.226719 0.000362
2.375909 41.226719 0.000169
2.690630 41.226719 -0.000065
3.005352 41.226719 -0.000072
3.320073 41.226719 -0.000022
3.634794 41.226719 -0.000141
3.949515 41.226719 -0.000439
4.264236 41.226719 -0.000581
4.578956 41.226719 -0.000825
4.893677 41.226719 -0.000916
5.208398 41.226719 -0.000916
5.523119 41.226719 -0.000812
5.837841 41.226719 -0.000933
6.152562 41.226719 -0.001467
6.467283 41.226719 -0.002205
6.782003 41.226719 -0.002274
7.096724 41.226719 -0.001442
7.411445 41.226719 -0.001248
7.726166 41.226719 -0.002114
8.040888 41.226719 -0.004624
8.355608 41.226719 -0.002674
8.670330 41.226719 0.000864
8.985050 41.226719 0.004413
9.299772 41.226719 0.004678
9.614492 41.226719 0.010630
9.929214 41.226719 0.014245
10.243935 41.226719 0.014875
10.558655 41.226719 0.003994
10.873377 41.226719 0.003689
11.188097 41.226719 -0.002274
11.502819 41.226719 -0.004254
11.817539 41.226719 0.005674
12.132261 41.226719 0.007862
12.446981 41.226719 -0.000925
12.761703 41.226719 -0.011601
13.076424 41.226719 -0.013375
13.391144 41.226719 -0.015907
13.705866 41.226719 -0.006434
14.020586 41.226719 -0.004322
14.335308 41.226719 -0.005161
14.650028 41.226719 -0.010661
14.964750 41.226719 -0.015290
15.279470 41.226719 -0.013581
15.594193 41.226719 -0.019213
15.908913 41.226719 -0.024427
16.223633 41.226719 -0.021232
16.538355 41.226719 -0.032225
16.853075 41.226719 -0.102083
17.167797 41.226719 -0.160215
17.482517 41.226719 -0.129392
17.797239 41.226719 -0.042254
18.111959 41.226719 -0.014571
18.426680 41.226719 0.080287
18.741402 41.226719 -0.188461
-7.065720 40.911999 0.000000
-6.750999 40.911999 0.000000
-6.436278 40.911999 0.001007
-6.121557 40.911999 0.000780
-5.806836 40.911999 0.000787
-5.492115 40.911999 0.000765
-5.177394 40.911999 0.000869
-4.862673 40.911999 0.000952
-4.547952 40.911999 0.000934
-4.233231 40.911999 0.000853
-3.918510 40.911999 0.000789
-3.603789 40.911999 0.000789
-3.289068 40.911999 0.000609
-2.974347 40.911999 0.000449
-2.659626 40.911999 0.000436
-2.344905 40.911999 0.000376
-2.030184 40.911999 0.000295
-1.715463 40.911999 0.000345
-1.400742 40.911999 0.000324
-1.086021 40.911999 0.000333
-0.771300 40.911999 0.000257
-0.456579 40.911999 0.000168
-0.141859 40.911999 0.000348
0.172863 40.911999 0.000414
0.487584 40.911999 0.000382
0.802305 40.911999 0.000363
1.117026 40.911999 0.000451
1.431747 40.911999 0.000530
1.746467 40.911999 0.000544
2.061188 40.911999 0.000483
2.375909 40.911999 0.000295
2.690630 40.911999 0.000141
3.005352 40.911999 0.000180
3.320073 40.911999 0.000147
3.634794 40.911999 -0.000103
3.949515 40.911999 -0.000420
4.264236 40.911999 -0.000653
4.578956 40.911999 -0.000847
4.893677 40.911999 -0.000868
5.208398 40.911999 -0.000875
5.523119 40.911999 -0.000832
5.837841 40.911999 -0.000971
6.152562 40.911999 -0.001465
6.467283 40.911999 -0.001962
6.782003 40.911999 -0.002365
7.096724 40.911999 -0.001953
7.411445 40.911999 -0.001587
7.726166 40.911999 -0.001920
8.040888 40.911999 -0.002817
8.355608 40.911999 -0.001383
8.670330 40.911999 0.000866
8.985050 40.911999 0.002139
9.299772 40.911999 0.005359
9.614492 40.911999 0.014425
9.929214 40.911999 0.019106
10.243935 40.911999 0.014932
10.558655 40.911999 0.005393
10.873377 40.911999 -0.000430
11.188097 40.911999 -0.007520
11.502819 40.911999 0.002777
11.817539 40.911999 0.006508
12.132261 40.911999 0.011334
12.446981 40.911999 0.000130
12.761703 40.911999 -0.008527
13.076424 40.911999 -0.009328
13.391144 40.911999 -0.015882
13.705866 40.911999 -0.013337
14.020586 40.911999 -0.010960
14.335308 40.911999 -0.014695
14.650028 40.911999 -0.017147
14.964750 40.911999 -0.012060
15.279470 40.911999 -0.011418
15.594193 40.911999 -0.018640
15.908913 40.911999 -0.022484
16.223633 40.911999 -0.021105
16.538355 40.911999 -0.044995
16.853075 40.911999 -0.132246
17.167797 40.911999 -0.207747
17.482517 40.911999 -0.167193
17.797239 40.911999 -0.044303
18.111959 40.911999 -0.042155
18.426680 40.911999 -0.066601
18.741402 40.911999 0.000000
-7.065720 40.597275 0.000000
-6.750999 40.597275 0.000000
-6.436278 40.597275 0.000975
-6.121557 40.597275 0.000732
-5.806836 40.597275 0.000747
-5.492115 40.597275 0.000789
-5.177394 40.597275 0.000877
-4.862673 40.597275 0.000937
-4.547952 40.597275 0.000962
-4.233231 40.597275 0.000878
-3.918510 40.597275 0.000835
-3.603789 40.597275 0.000881
-3.289068 40.597275 0.000656
-2.974347 40.597275 0.000466
-2.659626 40.597275 0.000494
-2.344905 40.597275 0.000460
-2.030184 40.597275 0.000374
-1.715463 40.597275 0.000370
-1.400742 40.597275 0.000304
-1.086021 40.597275 0.000331
-0.771300 40.597275 0.000351
-0.456579 40.597275 0.000259
-0.141859 40.597275 0.000370
0.172863 40.597275 0.000409
0.487584 40.597275 0.000366
0.802305 40.597275 0.000420
1.117026 40.597275 0.000470
1.431747 40.597275 0.000500
1.746467 40.597275 0.000522
2.061188 40.597275 0.000531
2.375909 40.597275 0.000427
2.690630 40.597275 0.000413
3.005352 40.597275 0.000451
3.320073 40.597275 0.000279
3.634794 40.597275 -0.000074
3.949515 40.597275 -0.000401
4.264236 40.597275 -0.000551
4.578956 40.597275 -0.000733
4.893677 40.597275 -0.000724
5.208398 40.597275 -0.000724
5.523119 40.597275 -0.000845
5.837841 40.597275 -0.001045
6.152562 40.597275 -0.001490
6.467283 40.597275 -0.002108
6.782003 40.597275 -0.002719
7.096724 40.597275 -0.002710
7.411445 40.597275 -0.002710
7.726166 40.597275 -0.001801
8.040888 40.597275 -0.001455
8.355608 40.597275 -0.000338
8.670330 40.597275 0.001878
8.985050 40.597275 0.007451
9.299772 40.597275 0.011144
9.614492 40.597275 0.013370
9.929214 40.597275 0.020463
10.243935 40.597275 0.015010
10.558655 40.597275 0.004818
10.873377 40.597275 0.006813
11.188097 40.597275 0.003854
11.502819 40.597275 0.000414
11.817539 40.597275 0.000672
12.132261 40.597275 0.013934
12.446981 40.597275 -0.004546
12.761703 40.597275 -0.017190
13.076424 40.597275 -0.019950
13.391144 40.597275 -0.021979
13.705866 40.597275 -0.008951
14.020586 40.597275 -0.007385
14.335308 40.597275 -0.013512
14.650028 40.597275 -0.014745
14.964750 40.597275 -0.015713
15.279470 40.597275 -0.014379
15.594193 40.597275 -0.018149
15.908913 40.597275 -0.035102
16.223633 40.597275 -0.032604
16.538355 40.597275 -0.073169
16.853075 40.597275 -0.151397
17.167797 40.597275 -0.249753
17.482517 40.597275 -0.199005
17.797239 40.597275 -0.101099
18.111959 40.597275 -0.044134
18.426680 40.597275 -0.015497
18.741402 40.597275 0.000000
-7.065720 40.282555 0.000000
-6.750999 40.282555 0.000000
-6.436278 40.282555 0.000907
-6.121557 40.282555 0.000708
-5.806836 40.282555 0.000781
-5.492115 40.282555 0.000826
-5.177394 40.282555 0.000883
-4.862673 40.282555 0.000953
-4.547952 40.282555 0.000996
-4.233231 40.282555 0.000920
-3.918510 40.282555 0.000874
-3.603789 40.282555 0.000921
-3.289068 40.282555 0.000740
-2.974347 40.282555 0.000529
-2.659626 40.282555 0.000519
-2.344905 40.282555 0.000476
-2.030184 40.282555 0.000401
-1.715463 40.282555 0.000347
-1.400742 40.282555 0.000247
-1.086021 40.282555 0.000283
-0.771300 40.282555 0.000403
-0.456579 40.282555 0.000333
-0.141859 40.282555 0.000373
0.172863 40.282555 0.000441
0.487584 40.282555 0.000417
0.802305 40.282555 0.000464
1.117026 40.282555 0.000478
1.431747 40.282555 0.000460
1.746467 40.282555 0.000435
2.061188 40.282555 0.000455
2.375909 40.282555 0.000477
2.690630 40.282555 0.000599
3.005352 40.282555 0.000624
3.320073 40.282555 0.000356
3.634794 40.282555 -0.000074
3.949515 40.282555 -0.000366
4.264236 40.282555 -0.000457
4.578956 40.282555 -0.000494
4.893677 40.282555 -0.000496
5.208398 40.282555 -0.000636
5.523119 40.282555 -0.000873
5.837841 40.282555 -0.001153
6.152562 40.282555 -0.001648
6.467283 40.282555 -0.001898
6.782003 40.282555 -0.002896
7.096724 40.282555 -0.003257
7.411445 40.282555 -0.002985
7.726166 40.282555 -0.002248
8.040888 40.282555 -0.001187
8.355608 40.282555 0.001921
8.670330 40.282555 0.003915
8.985050 40.282555 0.007290
9.299772 40.282555 0.006991
9.614492 40.282555 0.011178
9.929214 40.282555 0.009685
10.243935 40.282555 0.017337
10.558655 40.282555 0.016951
10.873377 40.282555 0.013257
11.188097 40.282555 0.005506
11.502819 40.282555 -0.006937
11.817539 40.282555 0.000401
12.132261 40.282555 0.012942
12.446981 40.282555 -0.003439
12.761703 40.282555 0.002388
13.076424 40.282555 -0.019742
13.391144 40.282555 -0.001505
13.705866 40.282555 0.002399
14.020586 40.282555 0.007650
14.335308 40.282555 0.006463
14.650028 40.282555 -0.001880
14.964750 40.282555 -0.014705
15.279470 40.282555 -0.008392
15.594193 40.282555 -0.012371
15.908913 40.282555 -0.035695
16.223633 40.282555 -0.046340
16.538355 40.282555 -0.133128
16.853075 40.282555 -0.134367
17.167797 40.282555 -0.221826
17.482517 40.282555 -0.212099
17.797239 40.282555 -0.122567
18.111959 40.282555 -0.088165
18.426680 40.282555 -0.023603
18.741402 40.282555 0.000000
-7.065720 39.967834 0.000000
-6.750999 39.967834 0.000000
-6.436278 39.967834 0.000802
-6.121557 39.967834 0.000642
-5.806836 39.967834 0.000771
-5.492115 39.967834 0.000827
-5.177394 39.967834 0.000859
-4.862673 39.967834 0.000946
-4.547952 39.967834 0.001004
-4.233231 39.967834 0.000905
-3.918510 39.967834 0.000831
-3.603789 39.967834 0.000950
-3.289068 39.967834 0.000865
-2.974347 39.967834 0.000655
-2.659626 39.967834 0.000585
-2.344905 39.967834 0.000509
-2.030184 39.967834 0.000420
-1.715463 39.967834 0.000329
-1.400742 39.967834 0.000206
-1.086021 39.967834 0.000208
-0.771300 39.967834 0.000378
-0.456579 39.967834 0.000340
-0.141859 39.967834 0.000334
0.172863 39.967834 0.000446
0.487584 39.967834 0.000458
0.802305 39.967834 0.000443
1.117026 39.967834 0.000429
1.431747 39.967834 0.000402
1.746467 39.967834 0.000323
2.061188 39.967834 0.000363
2.375909 39.967834 0.000441
2.690630 39.967834 0.000614
3.005352 39.967834 0.000657
3.320073 39.967834 0.000337
3.634794 39.967834 -0.000130
3.949515 39.967834 -0.000328
4.264236 39.967834 -0.000348
4.578956 39.967834 -0.000287
4.893677 39.967834 -0.000338
5.208398 39.967834 -0.000616
5.523119 39.967834 -0.001003
5.837841 39.967834 -0.001212
6.152562 39.967834 -0.001603
6.467283 39.967834 -0.001981
6.782003 39.967834 -0.002556
7.096724 39.967834 -0.002980
7.411445 39.967834 -0.002673
7.726166 39.967834 -0.002440
8.040888 39.967834 -0.001844
8.355608 39.967834 0.001133
8.670330 39.967834 0.003304
8.985050 39.967834 0.008709
9.299772 39.967834 0.005221
9.614492 39.967834 0.010892
9.929214 39.967834 0.013273
10.243935 39.967834 0.026638
10.558655 39.967834 0.020393
10.873377 39.967834 0.008808
11.188097 39.967834 -0.009537
11.502819 39.967834 -0.017639
11.817539 39.967834 0.003247
12.132261 39.967834 0.004336
12.446981 39.967834 -0.000784
12.761703 39.967834 0.004722
13.076424 39.967834 0.006471
13.391144 39.967834 0.019004
13.705866 39.967834 0.022778
14.020586 39.967834 0.026638
14.335308 39.967834 0.015925
14.650028 39.967834 0.005072
14.964750 39.967834 -0.000585
15.279470 39.967834 0.000944
15.594193 39.967834 -0.004600
15.908913 39.967834 -0.018509
16.223633 39.967834 -0.062386
16.538355 39.967834 -0.056660
16.853075 39.967834 1.434782
17.167797 39.967834 -2.927089
17.482517 39.967834 1.657353
17.797239 39.967834 -0.094655
18.111959 39.967834 -0.106087
18.426680 39.967834 -0.034135
18.741402 39.967834 0.000000
-7.065720 39.653114 0.000000
-6.750999 39.653114 0.000000
-6.436278 39.653114 0.000654
-6.121557 39.653114 0.000502
-5.806836 39.653114 0.000679
-5.492115 39.653114 0.000783
-5.177394 39.653114 0.000815
-4.862673 39.653114 0.000894
-4.547952 39.653114 0.000960
-4.233231 39.653114 0.000842
-3.918510 39.653114 0.000774
-3.603789 39.653114 0.000964
-3.289068 39.653114 0.000938
-2.974347 39.653114 0.000775
-2.659626 39.653114 0.000645
-2.344905 39.653114 0.000515
-2.030184 39.653114 0.000429
-1.715463 39.653114 0.000322
-1.400742 39.653114 0.000195
-1.086021 39.653114 0.000164
-0.771300 39.653114 0.000305
-0.456579 39.653114 0.000265
-0.141859 39.653114 0.000239
0.172863 39.653114 0.000411
0.487584 39.653114 0.000462
0.802305 39.653114 0.000375
1.117026 39.653114 0.000353
1.431747 39.653114 0.000343
1.746467 39.653114 0.000234
2.061188 39.653114 0.000276
2.375909 39.653114 0.000408
2.690630 39.653114 0.000533
3.005352 39.653114 0.000559
3.320073 39.653114 0.000272
3.634794 39.653114 -0.000132
3.949515 39.653114 -0.000254
4.264236 39.653114 -0.000261
4.578956 39.653114 -0.000217
4.893677 39.653114 -0.000305
5.208398 39.653114 -0.000639
5.523119 39.653114 -0.001022
5.837841 39.653114 -0.001325
6.152562 39.653114 -0.001694
6.467283 39.653114 -0.001867
6.782003 39.653114 -0.002293
7.096724 39.653114 -0.002308
7.411445 39.653114 -0.002430
7.726166 39.653114 -0.001981
8.040888 39.653114 -0.001776
8.355608 39.653114 -0.001159
8.670330 39.653114 0.002156
8.985050 39.653114 0.005019
9.299772 39.653114 0.005975
9.614492 39.653114 0.009259
9.929214 39.653114 0.014496
10.243935 39.653114 0.027392
10.558655 39.653114 0.024769
10.873377 39.653114 0.016801
11.188097 39.653114 -0.015112
11.502819 39.653114 -0.021067
11.817539 39.653114 -0.006281
12.132261 39.653114 -0.003488
12.446981 39.653114 -0.002618
12.761703 39.653114 -0.007290
13.076424 39.653114 0.014786
13.391144 39.653114 0.028793
13.705866 39.653114 0.034996
14.020586 39.653114 0.043963
14.335308 39.653114 0.024111
14.650028 39.653114 0.005801
14.964750 39.653114 0.011869
15.279470 39.653114 0.007573
15.594193 39.653114 0.000636
15.908913 39.653114 -0.011320
16.223633 39.653114 -0.042262
16.538355 39.653114 0.041036
16.853075 39.653114 0.000000
17.167797 39.653114 0.000000
17.482517 39.653114 0.000000
17.797239 39.653114 -0.459601
18.111959 39.653114 -0.156994
18.426680 39.653114 -0.072872
18.741402 39.653114 0.000000
-7.065720 39.338394 0.000000
-6.750999 39.338394 0.000000
-6.436278 39.338394 0.000536
-6.121557 39.338394 0.000370
-5.806836 39.338394 0.000518
-5.492115 39.338394 0.000676
-5.177394 39.338394 0.000739
-4.862673 39.338394 0.000791
-4.547952 39.338394 0.000857
-4.233231 39.338394 0.000771
-3.918510 39.338394 0.000772
-3.603789 39.338394 0.000948
-3.289068 39.338394 0.000952
-2.974347 39.338394 0.000880
-2.659626 39.338394 0.000748
-2.344905 39.338394 0.000517
-2.030184 39.338394 0.000429
-1.715463 39.338394 0.000361
-1.400742 39.338394 0.000249
-1.086021 39.338394 0.000177
-0.771300 39.338394 0.000202
-0.456579 39.338394 0.000152
-0.141859 39.338394 0.000104
0.172863 39.338394 0.000261
0.487584 39.338394 0.000389
0.802305 39.338394 0.000333
1.117026 39.338394 0.000305
1.431747 39.338394 0.000314
1.746467 39.338394 0.000224
2.061188 39.338394 0.000268
2.375909 39.338394 0.000358
2.690630 39.338394 0.000406
3.005352 39.338394 0.000401
3.320073 39.338394 0.000165
3.634794 39.338394 -0.000077
3.949515 39.338394 -0.000170
4.264236 39.338394 -0.000183
4.578956 39.338394 -0.000124
4.893677 39.338394 -0.000267
5.208398 39.338394 -0.000581
5.523119 39.338394 -0.001008
5.837841 39.338394 -0.001416
6.152562 39.338394 -0.001788
6.467283 39.338394 -0.002061
6.782003 39.338394 -0.002173
7.096724 39.338394 -0.002502
7.411445 39.338394 -0.001374
7.726166 39.338394 -0.001305
8.040888 39.338394 -0.001910
8.355608 39.338394 -0.002146
8.670330 39.338394 0.000833
8.985050 39.338394 0.002726
9.299772 39.338394 0.003014
9.614492 39.338394 0.008667
9.929214 39.338394 0.015405
10.243935 39.338394 0.023704
10.558655 39.338394 0.028583
10.873377 39.338394 0.019518
11.188097 39.338394 -0.009815
11.502819 39.338394 -0.025283
11.817539 39.338394 -0.018073
12.132261 39.338394 -0.004881
12.446981 39.338394 0.009013
12.761703 39.338394 0.013879
13.076424 39.338394 0.016919
13.391144 39.338394 0.039348
13.705866 39.338394 0.044345
14.020586 39.338394 0.045074
14.335308 39.338394 0.013510
14.650028 39.338394 0.012519
14.964750 39.338394 0.007948
15.279470 39.338394 -0.002609
15.594193 39.338394 -0.002333
15.908913 39.338394 -0.017134
16.223633 39.338394 -0.027770
16.538355 39.338394 0.002502
16.853075 39.338394 0.000000
17.167797 39.338394 0.000000
17.482517 39.338394 0.000000
17.797239 39.338394 -0.174804
18.111959 39.338394 -0.235107
18.426680 39.338394 -0.144366
18.741402 39.338394 0.000000
-7.065720 39.023674 0.000000
-6.750999 39.023674 -0.000635
-6.436278 39.023674 0.000503
-6.121557 39.023674 0.000290
-5.806836 39.023674 0.000395
-5.492115 39.023674 0.000563
-5.177394 39.023674 0.000667
-4.862673 39.023674 0.000696
-4.547952 39.023674 0.000738
-4.233231 39.023674 0.000700
-3.918510 39.023674 0.000750
-3.603789 39.023674 0.000921
-3.289068 39.023674 0.000945
-2.974347 39.023674 0.000967
-2.659626 39.023674 0.000835
-2.344905 39.023674 0.000522
-2.030184 39.023674 0.000428
-1.715463 39.023674 0.000429
-1.400742 39.023674 0.000316
-1.086021 39.023674 0.000214
-0.771300 39.023674 0.000192
-0.456579 39.023674 0.000124
-0.141859 39.023674 0.000018
0.172863 39.023674 0.000086
0.487584 39.023674 0.000302
0.802305 39.023674 0.000338
1.117026 39.023674 0.000302
1.431747 39.023674 0.000305
1.746467 39.023674 0.000282
2.061188 39.023674 0.000288
2.375909 39.023674 0.000270
2.690630 39.023674 0.000282
3.005352 39.023674 0.000232
3.320073 39.023674 0.000071
3.634794 39.023674 -0.000036
3.949515 39.023674 -0.000119
4.264236 39.023674 -0.000097
4.578956 39.023674 -0.000057
4.893677 39.023674 -0.000235
5.208398 39.023674 -0.000614
5.523119 39.023674 -0.001019
5.837841 39.023674 -0.001491
6.152562 39.023674 -0.001950
6.467283 39.023674 -0.002304
6.782003 39.023674 -0.002064
7.096724 39.023674 -0.002131
7.411445 39.023674 -0.001495
7.726166 39.023674 -0.002319
8.040888 39.023674 -0.001620
8.355608 39.023674 -0.000170
8.670330 39.023674 -0.000690
8.985050 39.023674 0.003201
9.299772 39.023674 0.000399
9.614492 39.023674 0.010332
9.929214 39.023674 0.011227
10.243935 39.023674 0.015309
10.558655 39.023674 0.028548
10.873377 39.023674 0.018869
11.188097 39.023674 -0.004332
11.502819 39.023674 -0.031122
11.817539 39.023674 -0.024247
12.132261 39.023674 -0.011865
12.446981 39.023674 0.008138
12.761703 39.023674 0.011208
13.076424 39.023674 0.021100
13.391144 39.023674 0.040634
13.705866 39.023674 0.047365
14.020586 39.023674 0.035848
14.335308 39.023674 0.016813
14.650028 39.023674 0.010317
14.964750 39.023674 0.004530
15.279470 39.023674 -0.008612
15.594193 39.023674 -0.012018
15.908913 39.023674 -0.009627
16.223633 39.023674 -0.049111
16.538355 39.023674 0.271660
16.853075 39.023674 0.000000
17.167797 39.023674 0.000000
17.482517 39.023674 0.000000
17.797239 39.023674 -0.312001
18.111959 39.023674 -0.345866
18.426680 39.023674 -0.298314
18.741402 39.023674 0.000000
-7.065720 38.708950 0.000000
-6.750999 38.708950 0.002207
-6.436278 38.708950 0.000560
-6.121557 38.708950 0.000331
-5.806836 38.708950 0.000361
-5.492115 38.708950 0.000529
-5.177394 38.708950 0.000590
-4.862673 38.708950 0.000620
-4.547952 38.708950 0.000668
-4.233231 38.708950 0.000640
-3.918510 38.708950 0.000674
-3.603789 38.708950 0.000814
-3.289068 38.708950 0.000860
-2.974347 38.708950 0.000952
-2.659626 38.708950 0.000849
-2.344905 38.708950 0.000517
-2.030184 38.708950 0.000414
-1.715463 38.708950 0.000444
-1.400742 38.708950 0.000319
-1.086021 38.708950 0.000266
-0.771300 38.708950 0.000209
-0.456579 38.708950 0.000150
-0.141859 38.708950 0.000030
0.172863 38.708950 0.000025
0.487584 38.708950 0.000289
0.802305 38.708950 0.000385
1.117026 38.708950 0.000298
1.431747 38.708950 0.000310
1.746467 38.708950 0.000360
2.061188 38.708950 0.000327
2.375909 38.708950 0.000222
2.690630 38.708950 0.000172
3.005352 38.708950 0.000090
3.320073 38.708950 0.000019
3.634794 38.708950 -0.000035
3.949515 38.708950 -0.000069
4.264236 38.708950 -0.000057
4.578956 38.708950 -0.000025
4.893677 38.708950 -0.000187
5.208398 38.708950 -0.000625
5.523119 38.708950 -0.001005
5.837841 38.708950 -0.001451
6.152562 38.708950 -0.001841
6.467283 38.708950 -0.002193
6.782003 38.708950 -0.002121
7.096724 38.708950 -0.002320
7.411445 38.708950 -0.001897
7.726166 38.708950 -0.001008
8.040888 38.708950 -0.000810
8.355608 38.708950 0.000349
8.670330 38.708950 -0.000175
8.985050 38.708950 0.000887
9.299772 38.708950 0.004457
9.614492 38.708950 0.007269
9.929214 38.708950 0.015757
10.243935 38.708950 0.018248
10.558655 38.708950 0.025832
10.873377 38.708950 0.018559
11.188097 38.708950 -0.000041
11.502819 38.708950 -0.017895
11.817539 38.708950 -0.020526
12.132261 38.708950 -0.004224
12.446981 38.708950 -0.002713
12.761703 38.708950 0.012374
13.076424 38.708950 0.008626
13.391144 38.708950 0.028053
13.705866 38.708950 0.038245
14.020586 38.708950 0.033930
14.335308 38.708950 0.029736
14.650028 38.708950 0.007772
14.964750 38.708950 0.001269
15.279470 38.708950 -0.007641
15.594193 38.708950 -0.010241
15.908913 38.708950 -0.017905
16.223633 38.708950 -0.070970
16.538355 38.708950 0.000000
16.853075 38.708950 0.000000
17.167797 38.708950 0.000000
17.482517 38.708950 0.000000
17.797239 38.708950 0.000000
18.111959 38.708950 -0.424522
18.426680 38.708950 -0.468765
18.741402 38.708950 0.000000
-7.065720 38.394230 0.000000
-6.750999 38.394230 0.001122
-6.436278 38.394230 0.000698
-6.121557 38.394230 0.000459
-5.806836 38.394230 0.000450
-5.492115 38.394230 0.000551
-5.177394 38.394230 0.000528
-4.862673 38.394230 0.000566
-4.547952 38.394230 0.000614
-4.233231 38.394230 0.000607
-3.918510 38.394230 0.000604
-3.603789 38.394230 0.000695
-3.289068 38.394230 0.000745
-2.974347 38.394230 0.000825
-2.659626 38.394230 0.000766
-2.344905 38.394230 0.000485
-2.030184 38.394230 0.000374
-1.715463 38.394230 0.000429
-1.400742 38.394230 0.000312
-1.086021 38.394230 0.000285
-0.771300 38.394230 0.000237
-0.456579 38.394230 0.000162
-0.141859 38.394230 0.000101
0.172863 38.394230 0.000058
0.487584 38.394230 0.000284
0.802305 38.394230 0.000401
1.117026 38.394230 0.000292
1.431747 38.394230 0.000319
1.746467 38.394230 0.000422
2.061188 38.394230 0.000374
2.375909 38.394230 0.000199
2.690630 38.394230 0.000036
3.005352 38.394230 -0.000046
3.320073 38.394230 -0.000060
3.634794 38.394230 -0.000063
3.949515 38.394230 -0.000025
4.264236 38.394230 -0.000063
4.578956 38.394230 -0.000023
4.893677 38.394230 -0.000146
5.208398 38.394230 -0.000457
5.523119 38.394230 -0.000789
5.837841 38.394230 -0.001231
6.152562 38.394230 -0.001551
6.467283 38.394230 -0.001964
6.782003 38.394230 -0.002229
7.096724 38.394230 -0.002868
7.411445 38.394230 -0.002771
7.726166 38.394230 -0.001356
8.040888 38.394230 0.001224
8.355608 38.394230 -0.000708
8.670330 38.394230 0.000656
8.985050 38.394230 0.004131
9.299772 38.394230 0.000983
9.614492 38.394230 0.005614
9.929214 38.394230 0.013015
10.243935 38.394230 0.018717
10.558655 38.394230 0.027218
10.873377 38.394230 0.016654
11.188097 38.394230 0.007930
11.502819 38.394230 -0.009756
11.817539 38.394230 -0.010328
12.132261 38.394230 -0.007600
12.446981 38.394230 -0.014484
12.761703 38.394230 0.003214
13.076424 38.394230 -0.007124
13.391144 38.394230 0.003649
13.705866 38.394230 0.020064
14.020586 38.394230 0.031566
14.335308 38.394230 0.032077
14.650028 38.394230 0.016600
14.964750 38.394230 0.004622
15.279470 38.394230 -0.006234
15.594193 38.394230 0.001228
15.908913 38.394230 -0.023457
16.223633 38.394230 -0.090094
16.538355 38.394230 0.000000
16.853075 38.394230 0.000000
17.167797 38.394230 0.000000
17.482517 38.394230 0.000000
17.797239 38.394230 0.000000
18.111959 38.394230 -1.328670
18.426680 38.394230 -2.713272
18.741402 38.394230 0.000000
-7.065720 38.079510 0.000000
-6.750999 38.079510 0.000889
-6.436278 38.079510 0.000747
-6.121557 38.079510 0.000563
-5.806836 38.079510 0.000567
-5.492115 38.079510 0.000571
-5.177394 38.079510 0.000499
-4.862673 38.079510 0.000493
-4.547952 38.079510 0.000536
-4.233231 38.079510 0.000586
-3.918510 38.079510 0.000592
-3.603789 38.079510 0.000627
-3.289068 38.079510 0.000610
-2.974347 38.079510 0.000687
-2.659626 38.079510 0.000641
-2.344905 38.079510 0.000438
-2.030184 38.079510 0.000385
-1.715463 38.079510 0.000394
-1.400742 38.079510 0.000274
-1.086021 38.079510 0.000285
-0.771300 38.079510 0.000270
-0.456579 38.079510 0.000141
-0.141859 38.079510 0.000124
0.172863 38.079510 0.000150
0.487584 38.079510 0.000283
0.802305 38.079510 0.000371
1.117026 38.079510 0.000308
1.431747 38.079510 0.000338
1.746467 38.079510 0.000454
2.061188 38.079510 0.000411
2.375909 38.079510 0.000190
2.690630 38.079510 -0.000041
3.005352 38.079510 -0.000136
3.320073 38.079510 -0.000134
3.634794 38.079510 -0.000099
3.949515 38.079510 -0.000061
4.264236 38.079510 -0.000092
4.578956 38.079510 -0.000116
4.893677 38.079510 -0.000195
5.208398 38.079510 -0.000394
5.523119 38.079510 -0.000566
5.837841 38.079510 -0.000926
6.152562 38.079510 -0.001252
6.467283 38.079510 -0.001717
6.782003 38.079510 -0.002451
7.096724 38.079510 -0.002705
7.411445 38.079510 -0.002371
7.726166 38.079510 -0.001744
8.040888 38.079510 0.001039
8.355608 38.079510 -0.001014
8.670330 38.079510 -0.000437
8.985050 38.079510 0.003842
9.299772 38.079510 0.004850
9.614492 38.079510 0.011539
9.929214 38.079510 0.018752
10.243935 38.079510 0.022518
10.558655 38.079510 0.027405
10.873377 38.079510 0.023097
11.188097 38.079510 0.006342
11.502819 38.079510 0.005251
11.817539 38.079510 -0.006259
12.132261 38.079510 -0.000180
12.446981 38.079510 -0.013954
12.761703 38.079510 -0.014474
13.076424 38.079510 -0.011934
13.391144 38.079510 -0.002931
13.705866 38.079510 0.015855
14.020586 38.079510 0.029068
14.335308 38.079510 0.036760
14.650028 38.079510 0.013139
14.964750 38.079510 0.009229
15.279470 38.079510 -0.009941
15.594193 38.079510 -0.018556
15.908913 38.079510 -0.047002
16.223633 38.079510 -0.120940
16.538355 38.079510 0.000000
16.853075 38.079510 0.000000
17.167797 38.079510 0.000000
17.482517 38.079510 0.000000
17.797239 38.079510 0.000000
18.111959 38.079510 -0.674596
18.426680 38.079510 -0.398704
18.741402 38.079510 0.000000
-7.065720 37.764786 0.000000
-6.750999 37.764786 0.000514
-6.436278 37.764786 0.000724
-6.121557 37.764786 0.000616
-5.806836 37.764786 0.000625
-5.492115 37.764786 0.000576
-5.177394 37.764786 0.000519
-4.862673 37.764786 0.000511
-4.547952 37.764786 0.000552
-4.233231 37.764786 0.000586
-3.918510 37.764786 0.000614
-3.603789 37.764786 0.000610
-3.289068 37.764786 0.000552
-2.974347 37.764786 0.000583
-2.659626 37.764786 0.000530
-2.344905 37.764786 0.000432
-2.030184 37.764786 0.000404
-1.715463 37.764786 0.000322
-1.400742 37.764786 0.000238
-1.086021 37.764786 0.000245
-0.771300 37.764786 0.000285
-0.456579 37.764786 0.000154
-0.141859 37.764786 0.000126
0.172863 37.764786 0.000222
0.487584 37.764786 0.000270
0.802305 37.764786 0.000321
1.117026 37.764786 0.000325
1.431747 37.764786 0.000402
1.746467 37.764786 0.000507
2.061188 37.764786 0.000439
2.375909 37.764786 0.000173
2.690630 37.764786 -0.000055
3.005352 37.764786 -0.000194
3.320073 37.764786 -0.000139
3.634794 37.764786 -0.000090
3.949515 37.764786 -0.000084
4.264236 37.764786 -0.000116
4.578956 37.764786 -0.000197
4.893677 37.764786 -0.000369
5.208398 37.764786 -0.000465
5.523119 37.764786 -0.000502
5.837841 37.764786 -0.000736
6.152562 37.764786 -0.001136
6.467283 37.764786 -0.001655
6.782003 37.764786 -0.002233
7.096724 37.764786 -0.002286
7.411445 37.764786 -0.002702
7.726166 37.764786 -0.001463
8.040888 37.764786 -0.001007
8.355608 37.764786 0.000717
8.670330 37.764786 0.000997
8.985050 37.764786 0.001886
9.299772 37.764786 0.002666
9.614492 37.764786 0.012659
9.929214 37.764786 0.015218
10.243935 37.764786 0.020652
10.558655 37.764786 0.027039
10.873377 37.764786 0.018129
11.188097 37.764786 0.007233
11.502819 37.764786 -0.001064
11.817539 37.764786 0.004141
12.132261 37.764786 0.003112
12.446981 37.764786 -0.013812
12.761703 37.764786 -0.011202
13.076424 37.764786 -0.009275
13.391144 37.764786 -0.006740
13.705866 37.764786 0.011086
14.020586 37.764786 0.017803
14.335308 37.764786 0.029481
14.650028 37.764786 0.031598
14.964750 37.764786 0.011747
15.279470 37.764786 -0.012294
15.594193 37.764786 -0.028202
15.908913 37.764786 -0.067376
16.223633 37.764786 -0.125870
16.538355 37.764786 0.000000
16.853075 37.764786 0.000000
17.167797 37.764786 0.000000
17.482517 37.764786 0.000000
17.797239 37.764786 0.000000
18.111959 37.764786 -1.412914
18.426680 37.764786 -1.130731
18.741402 37.764786 0.000000
-7.065720 37.450066 0.000000
-6.750999 37.450066 0.000785
-6.436278 37.450066 0.000757
-6.121557 37.450066 0.000668
-5.806836 37.450066 0.000686
-5.492115 37.450066 0.000611
-5.177394 37.450066 0.000541
-4.862673 37.450066 0.000553
-4.547952 37.450066 0.000608
-4.233231 37.450066 0.000618
-3.918510 37.450066 0.000644
-3.603789 37.450066 0.000606
-3.289068 37.450066 0.000493
-2.974347 37.450066 0.000507
-2.659626 37.450066 0.000508
-2.344905 37.450066 0.000427
-2.030184 37.450066 0.000390
-1.715463 37.450066 0.000296
-1.400742 37.450066 0.000232
-1.086021 37.450066 0.000223
-0.771300 37.450066 0.000253
-0.456579 37.450066 0.000138
-0.141859 37.450066 0.000149
0.172863 37.450066 0.000247
0.487584 37.450066 0.000239
0.802305 37.450066 0.000279
1.117026 37.450066 0.000337
1.431747 37.450066 0.000437
1.746467 37.450066 0.000523
2.061188 37.450066 0.000389
2.375909 37.450066 0.000172
2.690630 37.450066 -0.000030
3.005352 37.450066 -0.000175
3.320073 37.450066 -0.000114
3.634794 37.450066 -0.000097
3.949515 37.450066 -0.000144
4.264236 37.450066 -0.000159
4.578956 37.450066 -0.000211
4.893677 37.450066 -0.000431
5.208398 37.450066 -0.000448
5.523119 37.450066 -0.000407
5.837841 37.450066 -0.000518
6.152562 37.450066 -0.000821
6.467283 37.450066 -0.001551
6.782003 37.450066 -0.001829
7.096724 37.450066 -0.001698
7.411445 37.450066 -0.001682
7.726166 37.450066 -0.001441
8.040888 37.450066 -0.001983
8.355608 37.450066 0.001165
8.670330 37.450066 0.001992
8.985050 37.450066 -0.000499
9.299772 37.450066 0.009129
9.614492 37.450066 0.015629
9.929214 37.450066 0.015318
10.243935 37.450066 0.021092
10.558655 37.450066 0.022603
10.873377 37.450066 0.014765
11.188097 37.450066 -0.000303
11.502819 37.450066 -0.012439
11.817539 37.450066 0.001042
12.132261 37.450066 0.005860
12.446981 37.450066 0.001768
12.761703 37.450066 -0.007863
13.076424 37.450066 -0.000676
13.391144 37.450066 0.014564
13.705866 37.450066 0.008137
14.020586 37.450066 0.026489
14.335308 37.450066 0.033879
14.650028 37.450066 0.030711
14.964750 37.450066 0.004583
15.279470 37.450066 -0.021823
15.594193 37.450066 -0.031630
15.908913 37.450066 -0.049898
16.223633 37.450066 -0.117683
16.538355 37.450066 0.000000
16.853075 37.450066 0.000000
17.167797 37.450066 0.000000
17.482517 37.450066 0.000000
17.797239 37.450066 0.000000
18.111959 37.450066 0.000000
18.426680 37.450066 0.000000
18.741402 37.450066 0.000000
-7.065720 37.135345 0.000000
-6.750999 37.135345 0.000738
-6.436278 37.135345 0.000862
-6.121557 37.135345 0.000762
-5.806836 37.135345 0.000727
-5.492115 37.135345 0.000615
-5.177394 37.135345 0.000522
-4.862673 37.135345 0.000560
-4.547952 37.135345 0.000647
-4.233231 37.135345 0.000662
-3.918510 37.135345 0.000682
-3.603789 37.135345 0.000609
-3.289068 37.135345 0.000482
-2.974347 37.135345 0.000499
-2.659626 37.135345 0.000542
-2.344905 37.135345 0.000466
-2.030184 37.135345 0.000405
-1.715463 37.135345 0.000331
-1.400742 37.135345 0.000290
-1.086021 37.135345 0.000248
-0.771300 37.135345 0.000214
-0.456579 37.135345 0.000155
-0.141859 37.135345 0.000190
0.172863 37.135345 0.000250
0.487584 37.135345 0.000195
0.802305 37.135345 0.000213
1.117026 37.135345 0.000296
1.431747 37.135345 0.000398
1.746467 37.135345 0.000448
2.061188 37.135345 0.000362
2.375909 37.135345 0.000177
2.690630 37.135345 0.000038
3.005352 37.135345 -0.000121
3.320073 37.135345 -0.000093
3.634794 37.135345 -0.000151
3.949515 37.135345 -0.000214
4.264236 37.135345 -0.000216
4.578956 37.135345 -0.000300
4.893677 37.135345 -0.000549
5.208398 37.135345 -0.000535
5.523119 37.135345 -0.000444
5.837841 37.135345 -0.000430
6.152562 37.135345 -0.001005
6.467283 37.135345 -0.001271
6.782003 37.135345 -0.001593
7.096724 37.135345 -0.001453
7.411445 37.135345 -0.001427
7.726166 37.135345 -0.001904
8.040888 37.135345 -0.003169
8.355608 37.135345 -0.000733
8.670330 37.135345 0.001517
8.985050 37.135345 0.003688
9.299772 37.135345 0.007990
9.614492 37.135345 0.011628
9.929214 37.135345 0.015314
10.243935 37.135345 0.025577
10.558655 37.135345 0.015739
10.873377 37.135345 0.011485
11.188097 37.135345 0.006031
11.502819 37.135345 -0.007275
11.817539 37.135345 0.000019
12.132261 37.135345 0.002283
12.446981 37.135345 0.002595
12.761703 37.135345 -0.008419
13.076424 37.135345 -0.008122
13.391144 37.135345 0.011899
13.705866 37.135345 0.013899
14.020586 37.135345 0.034573
14.335308 37.135345 0.033395
14.650028 37.135345 0.018984
14.964750 37.135345 0.000134
15.279470 37.135345 -0.004816
15.594193 37.135345 -0.025345
15.908913 37.135345 -0.059980
16.223633 37.135345 -0.126995
16.538355 37.135345 0.000000
16.853075 37.135345 0.000000
17.167797 37.135345 0.000000
17.482517 37.135345 0.000000
17.797239 37.135345 0.000000
18.111959 37.135345 0.000000
18.426680 37.135345 0.000000
18.741402 37.135345 0.000000
-7.065720 36.820625 0.000000
-6.750999 36.820625 0.000947
-6.436278 36.820625 0.000942
-6.121557 36.820625 0.000808
-5.806836 36.820625 0.000712
-5.492115 36.820625 0.000586
-5.177394 36.820625 0.000484
-4.862673 36.820625 0.000539
-4.547952 36.820625 0.000619
-4.233231 36.820625 0.000662
-3.918510 36.820625 0.000713
-3.603789 36.820625 0.000639
-3.289068 36.820625 0.000537
-2.974347 36.820625 0.000553
-2.659626 36.820625 0.000598
-2.344905 36.820625 0.000525
-2.030184 36.820625 0.000470
-1.715463 36.820625 0.000378
-1.400742 36.820625 0.000314
-1.086021 36.820625 0.000301
-0.771300 36.820625 0.000224
-0.456579 36.820625 0.000210
-0.141859 36.820625 0.000266
0.172863 36.820625 0.000284
0.487584 36.820625 0.000196
0.802305 36.820625 0.000199
1.117026 36.820625 0.000206
1.431747 36.820625 0.000293
1.746467 36.820625 0.000391
2.061188 36.820625 0.000329
2.375909 36.820625 0.000257
2.690630 36.820625 0.000169
3.005352 36.820625 0.000006
3.320073 36.820625 -0.000097
3.634794 36.820625 -0.000218
3.949515 36.820625 -0.000316
4.264236 36.820625 -0.000329
4.578956 36.820625 -0.000340
4.893677 36.820625 -0.000578
5.208398 36.820625 -0.000550
5.523119 36.820625 -0.000487
5.837841 36.820625 -0.000502
6.152562 36.820625 -0.000717
6.467283 36.820625 -0.001212
6.782003 36.820625 -0.001373
7.096724 36.820625 -0.001901
7.411445 36.820625 -0.001556
7.726166 36.820625 -0.001715
8.040888 36.820625 -0.002434
8.355608 36.820625 -0.000140
8.670330 36.820625 0.002436
8.985050 36.820625 0.004664
9.299772 36.820625 0.008937
9.614492 36.820625 0.011411
9.929214 36.820625 0.018622
10.243935 36.820625 0.022067
10.558655 36.820625 0.009430
10.873377 36.820625 0.009252
11.188097 36.820625 0.000464
11.502819 36.820625 -0.015423
11.817539 36.820625 -0.012653
12.132261 36.820625 -0.000784
12.446981 36.820625 0.001419
12.761703 36.820625 0.000716
13.076424 36.820625 -0.006582
13.391144 36.820625 0.016031
13.705866 36.820625 0.023095
14.020586 36.820625 0.035324
14.335308 36.820625 0.029979
14.650028 36.820625 0.023130
14.964750 36.820625 0.016067
15.279470 36.820625 0.005298
15.594193 36.820625 -0.013554
15.908913 36.820625 -0.048190
16.223633 36.820625 -0.130975
16.538355 36.820625 0.000000
16.853075 36.820625 0.000000
17.167797 36.820625 0.000000
17.482517 36.820625 0.000000
17.797239 36.820625 0.000000
18.111959 36.820625 0.000000
18.426680 36.820625 0.000000
18.741402 36.820625 0.000000
-7.065720 36.505905 0.000000
-6.750999 36.505905 0.001173
-6.436278 36.505905 0.000940
-6.121557 36.505905 0.000767
-5.806836 36.505905 0.000651
-5.492115 36.505905 0.000539
-5.177394 36.505905 0.000474
-4.862673 36.505905 0.000518
-4.547952 36.505905 0.000544
-4.233231 36.505905 0.000651
-3.918510 36.505905 0.000729
-3.603789 36.505905 0.000683
-3.289068 36.505905 0.000651
-2.974347 36.505905 0.000646
-2.659626 36.505905 0.000640
-2.344905 36.505905 0.000560
-2.030184 36.505905 0.000522
-1.715463 36.505905 0.000449
-1.400742 36.505905 0.000334
-1.086021 36.505905 0.000343
-0.771300 36.505905 0.000269
-0.456579 36.505905 0.000265
-0.141859 36.505905 0.000345
0.172863 36.505905 0.000282
0.487584 36.505905 0.000215
0.802305 36.505905 0.000178
1.117026 36.505905 0.000100
1.431747 36.505905 0.000164
1.746467 36.505905 0.000320
2.061188 36.505905 0.000308
2.375909 36.505905 0.000343
2.690630 36.505905 0.000325
3.005352 36.505905 0.000161
3.320073 36.505905 -0.000059
3.634794 36.505905 -0.000269
3.949515 36.505905 -0.000355
4.264236 36.505905 -0.000350
4.578956 36.505905 -0.000426
4.893677 36.505905 -0.000626
5.208398 36.505905 -0.000524
5.523119 36.505905 -0.000481
5.837841 36.505905 -0.000585
6.152562 36.505905 -0.000791
6.467283 36.505905 -0.001207
6.782003 36.505905 -0.001812
7.096724 36.505905 -0.002050
7.411445 36.505905 -0.001484
7.726166 36.505905 -0.003629
8.040888 36.505905 -0.001658
8.355608 36.505905 0.001681
8.670330 36.505905 0.004585
8.985050 36.505905 0.004954
9.299772 36.505905 0.012094
9.614492 36.505905 0.010438
9.929214 36.505905 0.015762
10.243935 36.505905 0.021826
10.558655 36.505905 0.021460
10.873377 36.505905 0.013521
11.188097 36.505905 -0.000718
11.502819 36.505905 -0.010787
11.817539 36.505905 -0.014284
12.132261 36.505905 -0.010718
12.446981 36.505905 -0.006343
12.761703 36.505905 -0.000192
13.076424 36.505905 -0.007947
13.391144 36.505905 0.018119
13.705866 36.505905 0.017897
14.020586 36.505905 0.032397
14.335308 36.505905 0.024784
14.650028 36.505905 0.018536
14.964750 36.505905 0.018475
15.279470 36.505905 0.013587
15.594193 36.505905 -0.006094
15.908913 36.505905 -0.053294
16.223633 36.505905 -0.117181
16.538355 36.505905 0.000000
16.853075 36.505905 0.000000
17.167797 36.505905 0.000000
17.482517 36.505905 0.000000
17.797239 36.505905 0.000000
18.111959 36.505905 0.000000
18.426680 36.505905 0.000000
18.741402 36.505905 0.000000
-7.065720 36.191185 0.000000
-6.750999 36.191185 0.001323
-6.436278 36.191185 0.000821
-6.121557 36.191185 0.000589
-5.806836 36.191185 0.000517
-5.492115 36.191185 0.000525
-5.177394 36.191185 0.000504
-4.862673 36.191185 0.000518
-4.547952 36.191185 0.000501
-4.233231 36.191185 0.000639
-3.918510 36.191185 0.000748
-3.603789 36.191185 0.000721
-3.289068 36.191185 0.000746
-2.974347 36.191185 0.000697
-2.659626 36.191185 0.000621
-2.344905 36.191185 0.000562
-2.030184 36.191185 0.000557
-1.715463 36.191185 0.000466
-1.400742 36.191185 0.000386
-1.086021 36.191185 0.000388
-0.771300 36.191185 0.000326
-0.456579 36.191185 0.000317
-0.141859 36.191185 0.000359
0.172863 36.191185 0.000289
0.487584 36.191185 0.000196
0.802305 36.191185 0.000127
1.117026 36.191185 0.000074
1.431747 36.191185 0.000110
1.746467 36.191185 0.000228
2.061188 36.191185 0.000242
2.375909 36.191185 0.000357
2.690630 36.191185 0.000431
3.005352 36.191185 0.000250
3.320073 36.191185 -0.000026
3.634794 36.191185 -0.000240
3.949515 36.191185 -0.000314
4.264236 36.191185 -0.000323
4.578956 36.191185 -0.000370
4.893677 36.191185 -0.000485
5.208398 36.191185 -0.000464
5.523119 36.191185 -0.000634
5.837841 36.191185 -0.000791
6.152562 36.191185 -0.001026
6.467283 36.191185 -0.001634
6.782003 36.191185 -0.002139
7.096724 36.191185 -0.002346
7.411445 36.191185 -0.001322
7.726166 36.191185 -0.002015
8.040888 36.191185 -0.000329
8.355608 36.191185 0.002311
8.670330 36.191185 0.004105
8.985050 36.191185 0.008072
9.299772 36.191185 0.010237
9.614492 36.191185 0.012312
9.929214 36.191185 0.017830
10.243935 36.191185 0.022610
10.558655 36.191185 0.024835
10.873377 36.191185 0.015374
11.188097 36.191185 0.006041
11.502819 36.191185 -0.005960
11.817539 36.191185 -0.008463
12.132261 36.191185 -0.002136
12.446981 36.191185 -0.003500
12.761703 36.191185 -0.006120
13.076424 36.191185 -0.008734
13.391144 36.191185 0.018537
13.705866 36.191185 0.021261
14.020586 36.191185 0.025858
14.335308 36.191185 0.026746
14.650028 36.191185 0.012359
14.964750 36.191185 0.033989
15.279470 36.191185 0.013145
15.594193 36.191185 -0.005392
15.908913 36.191185 -0.062843
16.223633 36.191185 -0.104900
16.538355 36.191185 0.000000
16.853075 36.191185 0.000000
17.167797 36.191185 0.000000
17.482517 36.191185 0.000000
17.797239 36.191185 0.000000
18.111959 36.191185 0.000000
18.426680 36.191185 0.000000
18.741402 36.191185 0.000000
-7.065720 35.876461 0.000000
-6.750999 35.876461 0.001225
-6.436278 35.876461 0.000605
-6.121557 35.876461 0.000377
-5.806836 35.876461 0.000424
-5.492115 35.876461 0.000550
-5.177394 35.876461 0.000571
-4.862673 35.876461 0.000579
-4.547952 35.876461 0.000524
-4.233231 35.876461 0.000626
-3.918510 35.876461 0.000722
-3.603789 35.876461 0.000756
-3.289068 35.876461 0.000797
-2.974347 35.876461 0.000683
-2.659626 35.876461 0.000603
-2.344905 35.876461 0.000600
-2.030184 35.876461 0.000587
-1.715463 35.876461 0.000462
-1.400742 35.876461 0.000394
-1.086021 35.876461 0.000388
-0.771300 35.876461 0.000352
-0.456579 35.876461 0.000291
-0.141859 35.876461 0.000257
0.172863 35.876461 0.000245
0.487584 35.876461 0.000135
0.802305 35.876461 0.000084
1.117026 35.876461 0.000103
1.431747 35.876461 0.000138
1.746467 35.876461 0.000158
2.061188 35.876461 0.000165
2.375909 35.876461 0.000329
2.690630 35.876461 0.000465
3.005352 35.876461 0.000307
3.320073 35.876461 0.000060
3.634794 35.876461 -0.000127
3.949515 35.876461 -0.000254
4.264236 35.876461 -0.000287
4.578956 35.876461 -0.000219
4.893677 35.876461 -0.000283
5.208398 35.876461 -0.000418
5.523119 35.876461 -0.000766
5.837841 35.876461 -0.001014
6.152562 35.876461 -0.001093
6.467283 35.876461 -0.001699
6.782003 35.876461 -0.002357
7.096724 35.876461 -0.001950
7.411445 35.876461 -0.001793
7.726166 35.876461 -0.001983
8.040888 35.876461 -0.001840
8.355608 35.876461 0.001273
8.670330 35.876461 0.004540
8.985050 35.876461 0.009532
9.299772 35.876461 0.010813
9.614492 35.876461 0.015789
9.929214 35.876461 0.016541
10.243935 35.876461 0.015101
10.558655 35.876461 0.019502
10.873377 35.876461 0.023718
11.188097 35.876461 0.015146
11.502819 35.876461 0.003963
11.817539 35.876461 -0.006897
12.132261 35.876461 -0.001206
12.446981 35.876461 -0.001149
12.761703 35.876461 -0.000411
13.076424 35.876461 0.001651
13.391144 35.876461 0.020182
13.705866 35.876461 0.024207
14.020586 35.876461 0.031307
14.335308 35.876461 0.026873
14.650028 35.876461 0.027600
14.964750 35.876461 0.031461
15.279470 35.876461 0.021386
15.594193 35.876461 -0.008217
15.908913 35.876461 -0.051985
16.223633 35.876461 -0.100379
16.538355 35.876461 0.000000
16.853075 35.876461 0.000000
17.167797 35.876461 0.000000
17.482517 35.876461 0.000000
17.797239 35.876461 0.000000
18.111959 35.876461 0.000000
18.426680 35.876461 0.000000
18.741402 35.876461 0.000000
-7.065720 35.561741 0.000000
-6.750999 35.561741 0.001040
-6.436278 35.561741 0.000361
-6.121557 35.561741 0.000180
-5.806836 35.561741 0.000353
-5.492115 35.561741 0.000586
-5.177394 35.561741 0.000599
-4.862673 35.561741 0.000633
-4.547952 35.561741 0.000586
-4.233231 35.561741 0.000622
-3.918510 35.561741 0.000686
-3.603789 35.561741 0.000749
-3.289068 35.561741 0.000788
-2.974347 35.561741 0.000659
-2.659626 35.561741 0.000593
-2.344905 35.561741 0.000630
-2.030184 35.561741 0.000616
-1.715463 35.561741 0.000444
-1.400742 35.561741 0.000374
-1.086021 35.561741 0.000333
-0.771300 35.561741 0.000290
-0.456579 35.561741 0.000201
-0.141859 35.561741 0.000147
0.172863 35.561741 0.000225
0.487584 35.561741 0.000139
0.802305 35.561741 0.000077
1.117026 35.561741 0.000121
1.431747 35.561741 0.000187
1.746467 35.561741 0.000103
2.061188 35.561741 0.000088
2.375909 35.561741 0.000261
2.690630 35.561741 0.000443
3.005352 35.561741 0.000286
3.320073 35.561741 0.000117
3.634794 35.561741 0.000002
3.949515 35.561741 -0.000127
4.264236 35.561741 -0.000137
4.578956 35.561741 -0.000015
4.893677 35.561741 -0.000021
5.208398 35.561741 -0.000343
5.523119 35.561741 -0.000799
5.837841 35.561741 -0.001190
6.152562 35.561741 -0.001185
6.467283 35.561741 -0.001405
6.782003 35.561741 -0.001960
7.096724 35.561741 -0.001909
7.411445 35.561741 -0.002467
7.726166 35.561741 -0.001131
8.040888 35.561741 -0.000317
8.355608 35.561741 0.000894
8.670330 35.561741 0.007342
8.985050 35.561741 0.009359
9.299772 35.561741 0.010404
9.614492 35.561741 0.015105
9.929214 35.561741 0.009317
10.243935 35.561741 0.012854
10.558655 35.561741 0.008267
10.873377 35.561741 0.017142
11.188097 35.561741 0.010036
11.502819 35.561741 -0.002883
11.817539 35.561741 -0.003006
12.132261 35.561741 0.003732
12.446981 35.561741 -0.001236
12.761703 35.561741 -0.019404
13.076424 35.561741 -0.004718
13.391144 35.561741 0.011384
13.705866 35.561741 0.032801
14.020586 35.561741 0.037804
14.335308 35.561741 0.019777
14.650028 35.561741 0.033555
14.964750 35.561741 0.027867
15.279470 35.561741 0.012629
15.594193 35.561741 -0.006579
15.908913 35.561741 -0.052009
16.223633 35.561741 -0.081181
16.538355 35.561741 0.000000
16.853075 35.561741 0.000000
17.167797 35.561741 0.000000
17.482517 35.561741 0.000000
17.797239 35.561741 0.000000
18.111959 35.561741 0.000000
18.426680 35.561741 0.000000
18.741402 35.561741 0.000000
-7.065720 35.247021 0.000000
-6.750999 35.247021 0.000857
-6.436278 35.247021 0.000245
-6.121557 35.247021 0.000076
-5.806836 35.247021 0.000303
-5.492115 35.247021 0.000590
-5.177394 35.247021 0.000617
-4.862673 35.247021 0.000635
-4.547952 35.247021 0.000642
-4.233231 35.247021 0.000624
-3.918510 35.247021 0.000651
-3.603789 35.247021 0.000735
-3.289068 35.247021 0.000737
-2.974347 35.247021 0.000653
-2.659626 35.247021 0.000592
-2.344905 35.247021 0.000641
-2.030184 35.247021 0.000594
-1.715463 35.247021 0.000424
-1.400742 35.247021 0.000355
-1.086021 35.247021 0.000264
-0.771300 35.247021 0.000194
-0.456579 35.247021 0.000121
-0.141859 35.247021 0.000073
0.172863 35.247021 0.000199
0.487584 35.247021 0.000191
0.802305 35.247021 0.000146
1.117026 35.247021 0.000159
1.431747 35.247021 0.000214
1.746467 35.247021 0.000114
2.061188 35.247021 0.000056
2.375909 35.247021 0.000203
2.690630 35.247021 0.000325
3.005352 35.247021 0.000205
3.320073 35.247021 0.000107
3.634794 35.247021 0.000057
3.949515 35.247021 0.000002
4.264236 35.247021 0.000109
4.578956 35.247021 0.000162
4.893677 35.247021 0.000083
5.208398 35.247021 -0.000254
5.523119 35.247021 -0.000723
5.837841 35.247021 -0.001235
6.152562 35.247021 -0.001403
6.467283 35.247021 -0.001637
6.782003 35.247021 -0.001689
7.096724 35.247021 -0.001625
7.411445 35.247021 -0.000587
7.726166 35.247021 0.000152
8.040888 35.247021 -0.000712
8.355608 35.247021 -0.000335
8.670330 35.247021 0.006865
8.985050 35.247021 0.009752
9.299772 35.247021 0.011584
9.614492 35.247021 0.013464
9.929214 35.247021 0.012536
10.243935 35.247021 0.007811
10.558655 35.247021 0.017888
10.873377 35.247021 0.015276
11.188097 35.247021 0.004496
11.502819 35.247021 -0.009967
11.817539 35.247021 0.006895
12.132261 35.247021 -0.000206
12.446981 35.247021 -0.016898
12.761703 35.247021 -0.028521
13.076424 35.247021 -0.006736
13.391144 35.247021 0.002492
13.705866 35.247021 0.033990
14.020586 35.247021 0.037996
14.335308 35.247021 0.037657
14.650028 35.247021 0.055779
14.964750 35.247021 0.039278
15.279470 35.247021 0.022239
15.594193 35.247021 0.000183
15.908913 35.247021 -0.025383
16.223633 35.247021 -0.072046
16.538355 35.247021 0.000000
16.853075 35.247021 0.000000
17.167797 35.247021 0.000000
17.482517 35.247021 0.000000
17.797239 35.247021 0.000000
18.111959 35.247021 0.000000
18.426680 35.247021 0.000000
18.741402 35.247021 0.000000
-7.065720 34.932297 0.000000
-6.750999 34.932297 0.000895
-6.436278 34.932297 0.000293
-6.121557 34.932297 0.000116
-5.806836 34.932297 0.000306
-5.492115 34.932297 0.000527
-5.177394 34.932297 0.000572
-4.862673 34.932297 0.000590
-4.547952 34.932297 0.000620
-4.233231 34.932297 0.000640
-3.918510 34.932297 0.000655
-3.603789 34.932297 0.000693
-3.289068 34.932297 0.000698
-2.974347 34.932297 0.000647
-2.659626 34.932297 0.000606
-2.344905 34.932297 0.000609
-2.030184 34.932297 0.000548
-1.715463 34.932297 0.000403
-1.400742 34.932297 0.000341
-1.086021 34.932297 0.000250
-0.771300 34.932297 0.000186
-0.456579 34.932297 0.000113
-0.141859 34.932297 0.000096
0.172863 34.932297 0.000232
0.487584 34.932297 0.000284
0.802305 34.932297 0.000217
1.117026 34.932297 0.000194
1.431747 34.932297 0.000240
1.746467 34.932297 0.000188
2.061188 34.932297 0.000103
2.375909 34.932297 0.000196
2.690630 34.932297 0.000221
3.005352 34.932297 0.000067
3.320073 34.932297 -0.000010
3.634794 34.932297 0.000044
3.949515 34.932297 0.000101
4.264236 34.932297 0.000312
4.578956 34.932297 0.000369
4.893677 34.932297 0.000203
5.208398 34.932297 -0.000080
5.523119 34.932297 -0.000504
5.837841 34.932297 -0.001147
6.152562 34.932297 -0.001626
6.467283 34.932297 -0.001993
6.782003 34.932297 -0.002147
7.096724 34.932297 -0.002105
7.411445 34.932297 -0.000976
7.726166 34.932297 0.000884
8.040888 34.932297 0.001669
8.355608 34.932297 0.000996
8.670330 34.932297 0.005532
8.985050 34.932297 0.011838
9.299772 34.932297 0.013437
9.614492 34.932297 0.015384
9.929214 34.932297 0.015889
10.243935 34.932297 0.016466
10.558655 34.932297 0.010129
10.873377 34.932297 0.017857
11.188097 34.932297 0.007165
11.502819 34.932297 -0.010696
11.817539 34.932297 -0.001518
12.132261 34.932297 0.004008
12.446981 34.932297 -0.020397
12.761703 34.932297 -0.030100
13.076424 34.932297 -0.010474
13.391144 34.932297 0.007056
13.705866 34.932297 0.021215
14.020586 34.932297 0.035757
14.335308 34.932297 0.037808
14.650028 34.932297 0.044092
14.964750 34.932297 0.042357
15.279470 34.932297 0.009980
15.594193 34.932297 -0.015137
15.908913 34.932297 -0.044808
16.223633 34.932297 -0.069462
16.538355 34.932297 0.000000
16.853075 34.932297 0.000000
17.167797 34.932297 0.000000
17.482517 34.932297 0.000000
17.797239 34.932297 0.000000
18.111959 34.932297 0.000000
18.426680 34.932297 0.000000
18.741402 34.932297 0.000000
-7.065720 34.617577 0.000000
-6.750999 34.617577 0.001046
-6.436278 34.617577 0.000460
-6.121557 34.617577 0.000230
-5.806836 34.617577 0.000346
-5.492115 34.617577 0.000477
-5.177394 34.617577 0.000497
-4.862673 34.617577 0.000546
-4.547952 34.617577 0.000609
-4.233231 34.617577 0.000666
-3.918510 34.617577 0.000631
-3.603789 34.617577 0.000609
-3.289068 34.617577 0.000658
-2.974347 34.617577 0.000647
-2.659626 34.617577 0.000571
-2.344905 34.617577 0.000532
-2.030184 34.617577 0.000437
-1.715463 34.617577 0.000318
-1.400742 34.617577 0.000291
-1.086021 34.617577 0.000320
-0.771300 34.617577 0.000265
-0.456579 34.617577 0.000196
-0.141859 34.617577 0.000202
0.172863 34.617577 0.000250
0.487584 34.617577 0.000294
0.802305 34.617577 0.000243
1.117026 34.617577 0.000207
1.431747 34.617577 0.000256
1.746467 34.617577 0.000254
2.061188 34.617577 0.000151
2.375909 34.617577 0.000165
2.690630 34.617577 0.000096
3.005352 34.617577 -0.000045
3.320073 34.617577 -0.000074
3.634794 34.617577 0.000046
3.949515 34.617577 0.000169
4.264236 34.617577 0.000434
4.578956 34.617577 0.000498
4.893677 34.617577 0.000308
5.208398 34.617577 0.000047
5.523119 34.617577 -0.000326
5.837841 34.617577 -0.001036
6.152562 34.617577 -0.001596
6.467283 34.617577 -0.001773
6.782003 34.617577 -0.002637
7.096724 34.617577 -0.002731
7.411445 34.617577 -0.000880
7.726166 34.617577 0.001360
8.040888 34.617577 0.000861
8.355608 34.617577 0.002716
8.670330 34.617577 0.007902
8.985050 34.617577 0.011962
9.299772 34.617577 0.012140
9.614492 34.617577 0.018298
9.929214 34.617577 0.023489
10.243935 34.617577 0.020015
10.558655 34.617577 0.015614
10.873377 34.617577 0.018729
11.188097 34.617577 0.011617
11.502819 34.617577 0.003663
11.817539 34.617577 0.007109
12.132261 34.617577 0.004986
12.446981 34.617577 -0.019940
12.761703 34.617577 -0.026770
13.076424 34.617577 -0.010969
13.391144 34.617577 0.012840
13.705866 34.617577 0.024455
14.020586 34.617577 0.035121
14.335308 34.617577 0.037089
14.650028 34.617577 0.035924
14.964750 34.617577 0.044386
15.279470 34.617577 0.018512
15.594193 34.617577 -0.023572
15.908913 34.617577 -0.039536
16.223633 34.617577 -0.071046
16.538355 34.617577 0.000000
16.853075 34.617577 0.000000
17.167797 34.617577 0.000000
17.482517 34.617577 0.000000
17.797239 34.617577 0.000000
18.111959 34.617577 0.000000
18.426680 34.617577 0.000000
18.741402 34.617577 0.000000
-7.065720 34.302856 0.000000
-6.750999 34.302856 0.001126
-6.436278 34.302856 0.000533
-6.121557 34.302856 0.000332
-5.806836 34.302856 0.000410
-5.492115 34.302856 0.000484
-5.177394 34.302856 0.000470
-4.862673 34.302856 0.000562
-4.547952 34.302856 0.000661
-4.233231 34.302856 0.000681
-3.918510 34.302856 0.000561
-3.603789 34.302856 0.000511
-3.289068 34.302856 0.000581
-2.974347 34.302856 0.000576
-2.659626 34.302856 0.000442
-2.344905 34.302856 0.000357
-2.030184 34.302856 0.000298
-1.715463 34.302856 0.000245
-1.400742 34.302856 0.000278
-1.086021 34.302856 0.000397
-0.771300 34.302856 0.000380
-0.456579 34.302856 0.000315
-0.141859 34.302856 0.000306
0.172863 34.302856 0.000261
0.487584 34.302856 0.000256
0.802305 34.302856 0.000252
1.117026 34.302856 0.000204
1.431747 34.302856 0.000265
1.746467 34.302856 0.000270
2.061188 34.302856 0.000156
2.375909 34.302856 0.000100
2.690630 34.302856 -0.000014
3.005352 34.302856 -0.000108
3.320073 34.302856 -0.000017
3.634794 34.302856 0.000131
3.949515 34.302856 0.000254
4.264236 34.302856 0.000399
4.578956 34.302856 0.000443
4.893677 34.302856 0.000301
5.208398 34.302856 0.000107
5.523119 34.302856 -0.000228
5.837841 34.302856 -0.001038
6.152562 34.302856 -0.001552
6.467283 34.302856 -0.001798
6.782003 34.302856 -0.002412
7.096724 34.302856 -0.002542
7.411445 34.302856 -0.000972
7.726166 34.302856 0.000610
8.040888 34.302856 0.000850
8.355608 34.302856 0.003016
8.670330 34.302856 0.008261
8.985050 34.302856 0.010375
9.299772 34.302856 0.016128
9.614492 34.302856 0.019198
9.929214 34.302856 0.019573
10.243935 34.302856 0.023802
10.558655 34.302856 0.014736
10.873377 34.302856 0.013591
11.188097 34.302856 0.009716
11.502819 34.302856 0.011965
11.817539 34.302856 0.008295
12.132261 34.302856 0.014352
12.446981 34.302856 -0.008088
12.761703 34.302856 -0.011991
13.076424 34.302856 -0.003136
13.391144 34.302856 0.019483
13.705866 34.302856 0.037182
14.020586 34.302856 0.039365
14.335308 34.302856 0.034438
14.650028 34.302856 0.047121
14.964750 34.302856 0.032849
15.279470 34.302856 0.012213
15.594193 34.302856 -0.008413
15.908913 34.302856 -0.052702
16.223633 34.302856 -0.059908
16.538355 34.302856 0.000000
16.853075 34.302856 0.000000
17.167797 34.302856 0.000000
17.482517 34.302856 0.000000
17.797239 34.302856 0.000000
18.111959 34.302856 0.000000
18.426680 34.302856 0.000000
18.741402 34.302856 0.000000
-7.065720 33.988136 0.000000
-6.750999 33.988136 0.001068
-6.436278 33.988136 0.000603
-6.121557 33.988136 0.000468
-5.806836 33.988136 0.000526
-5.492115 33.988136 0.000545
-5.177394 33.988136 0.000498
-4.862673 33.988136 0.000615
-4.547952 33.988136 0.000693
-4.233231 33.988136 0.000638
-3.918510 33.988136 0.000491
-3.603789 33.988136 0.000480
-3.289068 33.988136 0.000535
-2.974347 33.988136 0.000434
-2.659626 33.988136 0.000269
-2.344905 33.988136 0.000188
-2.030184 33.988136 0.000188
-1.715463 33.988136 0.000218
-1.400742 33.988136 0.000326
-1.086021 33.988136 0.000468
-0.771300 33.988136 0.000481
-0.456579 33.988136 0.000427
-0.141859 33.988136 0.000399
0.172863 33.988136 0.000262
0.487584 33.988136 0.000187
0.802305 33.988136 0.000246
1.117026 33.988136 0.000229
1.431747 33.988136 0.000238
1.746467 33.988136 0.000236
2.061188 33.988136 0.000142
2.375909 33.988136 0.000035
2.690630 33.988136 -0.000099
3.005352 33.988136 -0.000079
3.320073 33.988136 0.000072
3.634794 33.988136 0.000238
3.949515 33.988136 0.000314
4.264236 33.988136 0.000315
4.578956 33.988136 0.000230
4.893677 33.988136 0.000121
5.208398 33.988136 0.000026
5.523119 33.988136 -0.000204
5.837841 33.988136 -0.000854
6.152562 33.988136 -0.001373
6.467283 33.988136 -0.001456
6.782003 33.988136 -0.001879
7.096724 33.988136 -0.002036
7.411445 33.988136 -0.001366
7.726166 33.988136 -0.000013
8.040888 33.988136 0.001299
8.355608 33.988136 0.001889
8.670330 33.988136 0.003822
8.985050 33.988136 0.010223
9.299772 33.988136 0.011181
9.614492 33.988136 0.017517
9.929214 33.988136 0.017924
10.243935 33.988136 0.013833
10.558655 33.988136 0.005484
10.873377 33.988136 0.000572
11.188097 33.988136 0.003907
11.502819 33.988136 0.003486
11.817539 33.988136 0.008127
12.132261 33.988136 0.011886
12.446981 33.988136 -0.005874
12.761703 33.988136 -0.007842
13.076424 33.988136 0.013343
13.391144 33.988136 0.033856
13.705866 33.988136 0.040500
14.020586 33.988136 0.038675
14.335308 33.988136 0.045969
14.650028 33.988136 0.041212
14.964750 33.988136 0.030880
15.279470 33.988136 0.012245
15.594193 33.988136 -0.010267
15.908913 33.988136 -0.069906
16.223633 33.988136 -0.054804
16.538355 33.988136 0.000000
16.853075 33.988136 0.000000
17.167797 33.988136 0.000000
17.482517 33.988136 0.000000
17.797239 33.988136 0.000000
18.111959 33.988136 0.000000
18.426680 33.988136 0.000000
18.741402 33.988136 0.000000
-7.065720 33.673416 0.000000
-6.750999 33.673416 0.001037
-6.436278 33.673416 0.000708
-6.121557 33.673416 0.000623
-5.806836 33.673416 0.000678
-5.492115 33.673416 0.000616
-5.177394 33.673416 0.000555
-4.862673 33.673416 0.000658
-4.547952 33.673416 0.000661
-4.233231 33.673416 0.000547
-3.918510 33.673416 0.000435
-3.603789 33.673416 0.000496
-3.289068 33.673416 0.000532
-2.974347 33.673416 0.000389
-2.659626 33.673416 0.000197
-2.344905 33.673416 0.000151
-2.030184 33.673416 0.000203
-1.715463 33.673416 0.000253
-1.400742 33.673416 0.000389
-1.086021 33.673416 0.000463
-0.771300 33.673416 0.000499
-0.456579 33.673416 0.000439
-0.141859 33.673416 0.000399
0.172863 33.673416 0.000255
0.487584 33.673416 0.000130
0.802305 33.673416 0.000196
1.117026 33.673416 0.000229
1.431747 33.673416 0.000235
1.746467 33.673416 0.000192
2.061188 33.673416 0.000105
2.375909 33.673416 -0.000017
2.690630 33.673416 -0.000094
3.005352 33.673416 -0.000004
3.320073 33.673416 0.000160
3.634794 33.673416 0.000280
3.949515 33.673416 0.000298
4.264236 33.673416 0.000200
4.578956 33.673416 0.000028
4.893677 33.673416 -0.000115
5.208398 33.673416 -0.000143
5.523119 33.673416 -0.000284
5.837841 33.673416 -0.000684
6.152562 33.673416 -0.001052
6.467283 33.673416 -0.001424
6.782003 33.673416 -0.001301
7.096724 33.673416 -0.001069
7.411445 33.673416 -0.001018
7.726166 33.673416 -0.000693
8.040888 33.673416 0.000531
8.355608 33.673416 0.000808
8.670330 33.673416 0.002055
8.985050 33.673416 0.003272
9.299772 33.673416 0.009840
9.614492 33.673416 0.016053
9.929214 33.673416 0.018085
10.243935 33.673416 0.008120
10.558655 33.673416 -0.003721
10.873377 33.673416 -0.008685
11.188097 33.673416 0.002275
11.502819 33.673416 0.015024
11.817539 33.673416 0.022666
12.132261 33.673416 0.014883
12.446981 33.673416 0.009612
12.761703 33.673416 0.014961
13.076424 33.673416 0.023521
13.391144 33.673416 0.028977
13.705866 33.673416 0.030494
14.020586 33.673416 0.034786
14.335308 33.673416 0.041444
14.650028 33.673416 0.035146
14.964750 33.673416 0.022500
15.279470 33.673416 0.005146
15.594193 33.673416 -0.020037
15.908913 33.673416 -0.060010
16.223633 33.673416 -0.071268
16.538355 33.673416 0.000000
16.853075 33.673416 0.000000
17.167797 33.673416 0.000000
17.482517 33.673416 0.000000
17.797239 33.673416 0.000000
18.111959 33.673416 0.000000
18.426680 33.673416 0.000000
18.741402 33.673416 0.000000
-7.065720 33.358696 0.000000
-6.750999 33.358696 0.001193
-6.436278 33.358696 0.000856
-6.121557 33.358696 0.000737
-5.806836 33.358696 0.000753
-5.492115 33.358696 0.000634
-5.177394 33.358696 0.000592
-4.862673 33.358696 0.000661
-4.547952 33.358696 0.000583
-4.233231 33.358696 0.000412
-3.918510 33.358696 0.000364
-3.603789 33.358696 0.000466
-3.289068 33.358696 0.000512
-2.974347 33.358696 0.000452
-2.659626 33.358696 0.000278
-2.344905 33.358696 0.000245
-2.030184 33.358696 0.000298
-1.715463 33.358696 0.000366
-1.400742 33.358696 0.000433
-1.086021 33.358696 0.000383
-0.771300 33.358696 0.000397
-0.456579 33.358696 0.000394
-0.141859 33.358696 0.000343
0.172863 33.358696 0.000205
0.487584 33.358696 0.000051
0.802305 33.358696 0.000123
1.117026 33.358696 0.000180
1.431747 33.358696 0.000250
1.746467 33.358696 0.000178
2.061188 33.358696 0.000072
2.375909 33.358696 -0.000015
2.690630 33.358696 -0.000082
3.005352 33.358696 0.000066
3.320073 33.358696 0.000252
3.634794 33.358696 0.000267
3.949515 33.358696 0.000231
4.264236 33.358696 0.000091
4.578956 33.358696 -0.000181
4.893677 33.358696 -0.000392
5.208398 33.358696 -0.000368
5.523119 33.358696 -0.000376
5.837841 33.358696 -0.000593
6.152562 33.358696 -0.000919
6.467283 33.358696 -0.000986
6.782003 33.358696 -0.000714
7.096724 33.358696 -0.000502
7.411445 33.358696 -0.000826
7.726166 33.358696 -0.000492
8.040888 33.358696 -0.000382
8.355608 33.358696 0.000416
8.670330 33.358696 0.001752
8.985050 33.358696 0.002777
9.299772 33.358696 0.006718
9.614492 33.358696 0.013862
9.929214 33.358696 0.010569
10.243935 33.358696 0.006437
10.558655 33.358696 -0.006568
10.873377 33.358696 -0.012805
11.188097 33.358696 0.002157
11.502819 33.358696 0.014475
11.817539 33.358696 0.023030
12.132261 33.358696 0.014029
12.446981 33.358696 0.018658
12.761703 33.358696 0.028005
13.076424 33.358696 0.034841
13.391144 33.358696 0.024924
13.705866 33.358696 0.022655
14.020586 33.358696 0.019793
14.335308 33.358696 0.027300
14.650028 33.358696 0.016325
14.964750 33.358696 0.017308
15.279470 33.358696 0.009755
15.594193 33.358696 -0.026118
15.908913 33.358696 -0.061471
16.223633 33.358696 -0.024864
16.538355 33.358696 0.000000
16.853075 33.358696 0.000000
17.167797 33.358696 0.000000
17.482517 33.358696 0.000000
17.797239 33.358696 0.000000
18.111959 33.358696 0.000000
18.426680 33.358696 0.000000
18.741402 33.358696 0.000000
-7.065720 33.043972 0.000000
-6.750999 33.043972 0.001411
-6.436278 33.043972 0.001003
-6.121557 33.043972 0.000776
-5.806836 33.043972 0.000708
-5.492115 33.043972 0.000577
-5.177394 33.043972 0.000570
-4.862673 33.043972 0.000598
-4.547952 33.043972 0.000493
-4.233231 33.043972 0.000307
-3.918510 33.043972 0.000309
-3.603789 33.043972 0.000403
-3.289068 33.043972 0.000461
-2.974347 33.043972 0.000519
-2.659626 33.043972 0.000380
-2.344905 33.043972 0.000380
-2.030184 33.043972 0.000436
-1.715463 33.043972 0.000495
-1.400742 33.043972 0.000476
-1.086021 33.043972 0.000323
-0.771300 33.043972 0.000323
-0.456579 33.043972 0.000396
-0.141859 33.043972 0.000352
0.172863 33.043972 0.000163
0.487584 33.043972 0.000030
0.802305 33.043972 0.000083
1.117026 33.043972 0.000127
1.431747 33.043972 0.000259
1.746467 33.043972 0.000233
2.061188 33.043972 0.000117
2.375909 33.043972 0.000060
2.690630 33.043972 0.000015
3.005352 33.043972 0.000132
3.320073 33.043972 0.000320
3.634794 33.043972 0.000250
3.949515 33.043972 0.000140
4.264236 33.043972 -0.000001
4.578956 33.043972 -0.000337
4.893677 33.043972 -0.000571
5.208398 33.043972 -0.000625
5.523119 33.043972 -0.000577
5.837841 33.043972 -0.000566
6.152562 33.043972 -0.000605
6.467283 33.043972 -0.000621
6.782003 33.043972 -0.000173
7.096724 33.043972 0.000095
7.411445 33.043972 -0.000614
7.726166 33.043972 0.001272
8.040888 33.043972 0.001663
8.355608 33.043972 0.004056
8.670330 33.043972 0.005876
8.985050 33.043972 0.008372
9.299772 33.043972 0.013350
9.614492 33.043972 0.016473
9.929214 33.043972 0.011710
10.243935 33.043972 0.004329
10.558655 33.043972 -0.005411
10.873377 33.043972 -0.005636
11.188097 33.043972 0.002038
11.502819 33.043972 0.009606
11.817539 33.043972 0.019118
12.132261 33.043972 0.012890
12.446981 33.043972 0.024282
12.761703 33.043972 0.037331
13.076424 33.043972 0.044407
13.391144 33.043972 0.036447
13.705866 33.043972 0.023398
14.020586 33.043972 0.020055
14.335308 33.043972 0.022419
14.650028 33.043972 0.010774
14.964750 33.043972 0.005769
15.279470 33.043972 0.008471
15.594193 33.043972 -0.019388
15.908913 33.043972 -0.065040
16.223633 33.043972 -0.018734
16.538355 33.043972 0.000000
16.853075 33.043972 0.000000
17.167797 33.043972 0.000000
17.482517 33.043972 0.000000
17.797239 33.043972 0.000000
18.111959 33.043972 0.000000
18.426680 33.043972 0.000000
18.741402 33.043972 0.000000
-7.065720 32.729252 0.000000
-6.750999 32.729252 0.001458
-6.436278 32.729252 0.001028
-6.121557 32.729252 0.000769
-5.806836 32.729252 0.000664
-5.492115 32.729252 0.000517
-5.177394 32.729252 0.000536
-4.862673 32.729252 0.000534
-4.547952 32.729252 0.000443
-4.233231 32.729252 0.000296
-3.918510 32.729252 0.000336
-3.603789 32.729252 0.000411
-3.289068 32.729252 0.000493
-2.974347 32.729252 0.000570
-2.659626 32.729252 0.000469
-2.344905 32.729252 0.000466
-2.030184 32.729252 0.000535
-1.715463 32.729252 0.000549
-1.400742 32.729252 0.000473
-1.086021 32.729252 0.000337
-0.771300 32.729252 0.000299
-0.456579 32.729252 0.000428
-0.141859 32.729252 0.000400
0.172863 32.729252 0.000179
0.487584 32.729252 0.000094
0.802305 32.729252 0.000085
1.117026 32.729252 0.000075
1.431747 32.729252 0.000254
1.746467 32.729252 0.000299
2.061188 32.729252 0.000197
2.375909 32.729252 0.000182
2.690630 32.729252 0.000152
3.005352 32.729252 0.000211
3.320073 32.729252 0.000351
3.634794 32.729252 0.000229
3.949515 32.729252 0.000129
4.264236 32.729252 -0.000077
4.578956 32.729252 -0.000411
4.893677 32.729252 -0.000640
5.208398 32.729252 -0.000792
5.523119 32.729252 -0.000767
5.837841 32.729252 -0.000639
6.152562 32.729252 -0.000470
6.467283 32.729252 -0.000329
6.782003 32.729252 0.000001
7.096724 32.729252 0.000564
7.411445 32.729252 0.000267
7.726166 32.729252 0.001386
8.040888 32.729252 0.000705
8.355608 32.729252 0.003594
8.670330 32.729252 0.007053
8.985050 32.729252 0.010925
9.299772 32.729252 0.011550
9.614492 32.729252 0.014044
9.929214 32.729252 0.012579
10.243935 32.729252 0.009886
10.558655 32.729252 0.007696
10.873377 32.729252 0.008125
11.188097 32.729252 0.009940
11.502819 32.729252 0.005956
11.817539 32.729252 0.008989
12.132261 32.729252 0.007986
12.446981 32.729252 0.017777
12.761703 32.729252 0.030904
13.076424 32.729252 0.036842
13.391144 32.729252 0.031728
13.705866 32.729252 0.021289
14.020586 32.729252 0.005776
14.335308 32.729252 0.013161
14.650028 32.729252 -0.001554
14.964750 32.729252 0.000554
15.279470 32.729252 0.019787
15.594193 32.729252 -0.010787
15.908913 32.729252 -0.059370
16.223633 32.729252 0.001887
16.538355 32.729252 0.000000
16.853075 32.729252 0.000000
17.167797 32.729252 0.000000
17.482517 32.729252 0.000000
17.797239 32.729252 0.000000
18.111959 32.729252 0.000000
18.426680 32.729252 0.000000
18.741402 32.729252 0.000000
-7.065720 32.414532 0.000000
-6.750999 32.414532 0.001427
-6.436278 32.414532 0.000972
-6.121557 32.414532 0.000731
-5.806836 32.414532 0.000660
-5.492115 32.414532 0.000526
-5.177394 32.414532 0.000542
-4.862673 32.414532 0.000567
-4.547952 32.414532 0.000454
-4.233231 32.414532 0.000350
-3.918510 32.414532 0.000440
-3.603789 32.414532 0.000489
-3.289068 32.414532 0.000574
-2.974347 32.414532 0.000612
-2.659626 32.414532 0.000533
-2.344905 32.414532 0.000544
-2.030184 32.414532 0.000557
-1.715463 32.414532 0.000527
-1.400742 32.414532 0.000468
-1.086021 32.414532 0.000378
-0.771300 32.414532 0.000316
-0.456579 32.414532 0.000431
-0.141859 32.414532 0.000374
0.172863 32.414532 0.000197
0.487584 32.414532 0.000161
0.802305 32.414532 0.000114
1.117026 32.414532 0.000086
1.431747 32.414532 0.000213
1.746467 32.414532 0.000378
2.061188 32.414532 0.000358
2.375909 32.414532 0.000338
2.690630 32.414532 0.000321
3.005352 32.414532 0.000293
3.320073 32.414532 0.000311
3.634794 32.414532 0.000155
3.949515 32.414532 0.000099
4.264236 32.414532 -0.000130
4.578956 32.414532 -0.000457
4.893677 32.414532 -0.000692
5.208398 32.414532 -0.000890
5.523119 32.414532 -0.000842
5.837841 32.414532 -0.000688
6.152562 32.414532 -0.000480
6.467283 32.414532 -0.000365
6.782003 32.414532 0.000158
7.096724 32.414532 0.000702
7.411445 32.414532 0.001311
7.726166 32.414532 0.001024
8.040888 32.414532 0.000429
8.355608 32.414532 0.000706
8.670330 32.414532 0.005465
8.985050 32.414532 0.010512
9.299772 32.414532 0.009807
9.614492 32.414532 0.016384
9.929214 32.414532 0.018918
10.243935 32.414532 0.015121
10.558655 32.414532 0.013416
10.873377 32.414532 0.008886
11.188097 32.414532 0.011519
11.502819 32.414532 0.005881
11.817539 32.414532 -0.005076
12.132261 32.414532 0.009800
12.446981 32.414532 0.007286
12.761703 32.414532 0.011422
13.076424 32.414532 0.019816
13.391144 32.414532 0.039223
13.705866 32.414532 0.023358
14.020586 32.414532 0.022808
14.335308 32.414532 0.013346
14.650028 32.414532 0.001294
14.964750 32.414532 0.006309
15.279470 32.414532 0.018388
15.594193 32.414532 -0.002367
15.908913 32.414532 -0.054902
16.223633 32.414532 0.005651
16.538355 32.414532 0.000000
16.853075 32.414532 0.000000
17.167797 32.414532 0.000000
17.482517 32.414532 0.000000
17.797239 32.414532 0.000000
18.111959 32.414532 0.000000
18.426680 32.414532 0.000000
18.741402 32.414532 0.000000
-7.065720 32.099808 0.000000
-6.750999 32.099808 0.001274
-6.436278 32.099808 0.000848
-6.121557 32.099808 0.000654
-5.806836 32.099808 0.000679
-5.492115 32.099808 0.000583
-5.177394 32.099808 0.000598
-4.862673 32.099808 0.000652
-4.547952 32.099808 0.000539
-4.233231 32.099808 0.000447
-3.918510 32.099808 0.000568
-3.603789 32.099808 0.000609
-3.289068 32.099808 0.000681
-2.974347 32.099808 0.000649
-2.659626 32.099808 0.000548
-2.344905 32.099808 0.000591
-2.030184 32.099808 0.000565
-1.715463 32.099808 0.000523
-1.400742 32.099808 0.000479
-1.086021 32.099808 0.000420
-0.771300 32.099808 0.000366
-0.456579 32.099808 0.000384
-0.141859 32.099808 0.000332
0.172863 32.099808 0.000225
0.487584 32.099808 0.000175
0.802305 32.099808 0.000145
1.117026 32.099808 0.000149
1.431747 32.099808 0.000215
1.746467 32.099808 0.000413
2.061188 32.099808 0.000492
2.375909 32.099808 0.000524
2.690630 32.099808 0.000492
3.005352 32.099808 0.000349
3.320073 32.099808 0.000222
3.634794 32.099808 0.000072
3.949515 32.099808 0.000046
4.264236 32.099808 -0.000207
4.578956 32.099808 -0.000457
4.893677 32.099808 -0.000642
5.208398 32.099808 -0.000858
5.523119 32.099808 -0.000887
5.837841 32.099808 -0.000609
6.152562 32.099808 -0.000389
6.467283 32.099808 -0.000557
6.782003 32.099808 0.000169
7.096724 32.099808 0.000082
7.411445 32.099808 0.000299
7.726166 32.099808 -0.000685
8.040888 32.099808 -0.000660
8.355608 32.099808 0.000399
8.670330 32.099808 0.003597
8.985050 32.099808 0.006272
9.299772 32.099808 0.010766
9.614492 32.099808 0.021352
9.929214 32.099808 0.022185
10.243935 32.099808 0.015380
10.558655 32.099808 0.011984
10.873377 32.099808 0.011785
11.188097 32.099808 0.020702
11.502819 32.099808 0.012451
11.817539 32.099808 0.009146
12.132261 32.099808 0.004244
12.446981 32.099808 0.002428
12.761703 32.099808 0.007808
13.076424 32.099808 0.022786
13.391144 32.099808 0.029556
13.705866 32.099808 0.035061
14.020586 32.099808 0.022146
14.335308 32.099808 0.029515
14.650028 32.099808 0.006380
14.964750 32.099808 0.016238
15.279470 32.099808 0.014219
15.594193 32.099808 -0.005181
15.908913 32.099808 -0.061925
16.223633 32.099808 0.000658
16.538355 32.099808 0.000000
16.853075 32.099808 0.000000
17.167797 32.099808 0.000000
17.482517 32.099808 0.000000
17.797239 32.099808 0.000000
18.111959 32.099808 0.000000
18.426680 32.099808 0.000000
18.741402 32.099808 0.000000
-7.065720 31.785089 0.000000
-6.750999 31.785089 0.001094
-6.436278 31.785089 0.000712
-6.121557 31.785089 0.000587
-5.806836 31.785089 0.000662
-5.492115 31.785089 0.000622
-5.177394 31.785089 0.000651
-4.862673 31.785089 0.000720
-4.547952 31.785089 0.000582
-4.233231 31.785089 0.000532
-3.918510 31.785089 0.000695
-3.603789 31.785089 0.000736
-3.289068 31.785089 0.000776
-2.974347 31.785089 0.000687
-2.659626 31.785089 0.000570
-2.344905 31.785089 0.000596
-2.030184 31.785089 0.000553
-1.715463 31.785089 0.000496
-1.400742 31.785089 0.000469
-1.086021 31.785089 0.000388
-0.771300 31.785089 0.000340
-0.456579 31.785089 0.000299
-0.141859 31.785089 0.000287
0.172863 31.785089 0.000245
0.487584 31.785089 0.000168
0.802305 31.785089 0.000184
1.117026 31.785089 0.000265
1.431747 31.785089 0.000318
1.746467 31.785089 0.000473
2.061188 31.785089 0.000616
2.375909 31.785089 0.000663
2.690630 31.785089 0.000603
3.005352 31.785089 0.000381
3.320073 31.785089 0.000139
3.634794 31.785089 -0.000036
3.949515 31.785089 -0.000066
4.264236 31.785089 -0.000276
4.578956 31.785089 -0.000386
4.893677 31.785089 -0.000496
5.208398 31.785089 -0.000648
5.523119 31.785089 -0.000765
5.837841 31.785089 -0.000595
6.152562 31.785089 -0.000505
6.467283 31.785089 -0.000514
6.782003 31.785089 0.000033
7.096724 31.785089 0.000166
7.411445 31.785089 -0.000731
7.726166 31.785089 -0.001271
8.040888 31.785089 -0.001846
8.355608 31.785089 0.000527
8.670330 31.785089 0.003501
8.985050 31.785089 0.002601
9.299772 31.785089 0.008782
9.614492 31.785089 0.021346
9.929214 31.785089 0.018256
10.243935 31.785089 0.012947
10.558655 31.785089 0.006841
10.873377 31.785089 0.004690
11.188097 31.785089 0.011903
11.502819 31.785089 0.018846
11.817539 31.785089 0.009622
12.132261 31.785089 0.006041
12.446981 31.785089 0.007941
12.761703 31.785089 0.010852
13.076424 31.785089 0.015036
13.391144 31.785089 0.036087
13.705866 31.785089 0.041863
14.020586 31.785089 0.030673
14.335308 31.785089 0.016769
14.650028 31.785089 0.004963
14.964750 31.785089 0.025338
15.279470 31.785089 0.019433
15.594193 31.785089 -0.002915
15.908913 31.785089 -0.060985
16.223633 31.785089 0.002632
16.538355 31.785089 0.000000
16.853075 31.785089 0.000000
17.167797 31.785089 0.000000
17.482517 31.785089 0.000000
17.797239 31.785089 0.000000
18.111959 31.785089 0.000000
18.426680 31.785089 0.000000
18.741402 31.785089 0.000000
-7.065720 31.470367 0.000000
-6.750999 31.470367 0.000956
-6.436278 31.470367 0.000579
-6.121557 31.470367 0.000521
-5.806836 31.470367 0.000615
-5.492115 31.470367 0.000611
-5.177394 31.470367 0.000680
-4.862673 31.470367 0.000735
-4.547952 31.470367 0.000584
-4.233231 31.470367 0.000593
-3.918510 31.470367 0.000786
-3.603789 31.470367 0.000850
-3.289068 31.470367 0.000802
-2.974347 31.470367 0.000703
-2.659626 31.470367 0.000608
-2.344905 31.470367 0.000600
-2.030184 31.470367 0.000536
-1.715463 31.470367 0.000459
-1.400742 31.470367 0.000381
-1.086021 31.470367 0.000260
-0.771300 31.470367 0.000244
-0.456579 31.470367 0.000210
-0.141859 31.470367 0.000245
0.172863 31.470367 0.000247
0.487584 31.470367 0.000193
0.802305 31.470367 0.000247
1.117026 31.470367 0.000402
1.431747 31.470367 0.000473
1.746467 31.470367 0.000535
2.061188 31.470367 0.000635
2.375909 31.470367 0.000674
2.690630 31.470367 0.000617
3.005352 31.470367 0.000368
3.320073 31.470367 0.000059
3.634794 31.470367 -0.000151
3.949515 31.470367 -0.000146
4.264236 31.470367 -0.000257
4.578956 31.470367 -0.000211
4.893677 31.470367 -0.000231
5.208398 31.470367 -0.000401
5.523119 31.470367 -0.000485
5.837841 31.470367 -0.000410
6.152562 31.470367 -0.000426
6.467283 31.470367 -0.000502
6.782003 31.470367 -0.000229
7.096724 31.470367 0.000652
7.411445 31.470367 -0.000313
7.726166 31.470367 -0.000584
8.040888 31.470367 -0.000359
8.355608 31.470367 0.000153
8.670330 31.470367 0.000372
8.985050 31.470367 0.004768
9.299772 31.470367 0.009192
9.614492 31.470367 0.014421
9.929214 31.470367 0.013248
10.243935 31.470367 0.000095
10.558655 31.470367 0.006130
10.873377 31.470367 0.009586
11.188097 31.470367 0.011939
11.502819 31.470367 0.020024
11.817539 31.470367 0.011821
12.132261 31.470367 0.007956
12.446981 31.470367 0.018258
12.761703 31.470367 0.000930
13.076424 31.470367 0.025336
13.391144 31.470367 0.036255
13.705866 31.470367 0.038657
14.020586 31.470367 0.029865
14.335308 31.470367 0.012361
14.650028 31.470367 0.010851
14.964750 31.470367 0.015601
15.279470 31.470367 0.021445
15.594193 31.470367 0.002575
15.908913 31.470367 -0.066799
16.223633 31.470367 0.007433
16.538355 31.470367 0.000000
16.853075 31.470367 0.000000
17.167797 31.470367 0.000000
17.482517 31.470367 0.000000
17.797239 31.470367 0.000000
18.111959 31.470367 0.000000
18.426680 31.470367 0.000000
18.741402 31.470367 0.000000
-7.065720 31.155647 0.000000
-6.750999 31.155647 0.000936
-6.436278 31.155647 0.000518
-6.121557 31.155647 0.000467
-5.806836 31.155647 0.000551
-5.492115 31.155647 0.000587
-5.177394 31.155647 0.000686
-4.862673 31.155647 0.000707
-4.547952 31.155647 0.000568
-4.233231 31.155647 0.000596
-3.918510 31.155647 0.000764
-3.603789 31.155647 0.000842
-3.289068 31.155647 0.000790
-2.974347 31.155647 0.000727
-2.659626 31.155647 0.000637
-2.344905 31.155647 0.000603
-2.030184 31.155647 0.000505
-1.715463 31.155647 0.000388
-1.400742 31.155647 0.000237
-1.086021 31.155647 0.000109
-0.771300 31.155647 0.000126
-0.456579 31.155647 0.000137
-0.141859 31.155647 0.000202
0.172863 31.155647 0.000256
0.487584 31.155647 0.000297
0.802305 31.155647 0.000364
1.117026 31.155647 0.000497
1.431747 31.155647 0.000590
1.746467 31.155647 0.000580
2.061188 31.155647 0.000548
2.375909 31.155647 0.000568
2.690630 31.155647 0.000531
3.005352 31.155647 0.000244
3.320073 31.155647 -0.000054
3.634794 31.155647 -0.000260
3.949515 31.155647 -0.000270
4.264236 31.155647 -0.000189
4.578956 31.155647 -0.000032
4.893677 31.155647 0.000080
5.208398 31.155647 -0.000024
5.523119 31.155647 -0.000176
5.837841 31.155647 -0.000231
6.152562 31.155647 -0.000494
6.467283 31.155647 -0.001021
6.782003 31.155647 -0.001062
7.096724 31.155647 0.000481
7.411445 31.155647 0.000148
7.726166 31.155647 -0.000096
8.040888 31.155647 0.001667
8.355608 31.155647 0.002591
8.670330 31.155647 0.002212
8.985050 31.155647 0.002595
9.299772 31.155647 0.009691
9.614492 31.155647 0.015063
9.929214 31.155647 0.009200
10.243935 31.155647 0.005122
10.558655 31.155647 0.003346
10.873377 31.155647 0.003541
11.188097 31.155647 0.025001
11.502819 31.155647 0.021991
11.817539 31.155647 0.016019
12.132261 31.155647 0.020538
12.446981 31.155647 0.016485
12.761703 31.155647 0.021666
13.076424 31.155647 0.018339
13.391144 31.155647 0.028843
13.705866 31.155647 0.022759
14.020586 31.155647 0.020595
14.335308 31.155647 0.009681
14.650028 31.155647 0.018107
14.964750 31.155647 0.010948
15.279470 31.155647 0.004713
15.594193 31.155647 -0.010092
15.908913 31.155647 -0.052230
16.223633 31.155647 0.033994
16.538355 31.155647 0.000000
16.853075 31.155647 0.000000
17.167797 31.155647 0.000000
17.482517 31.155647 0.000000
17.797239 31.155647 0.000000
18.111959 31.155647 0.000000
18.426680 31.155647 0.000000
18.741402 31.155647 0.000000
-7.065720 30.840927 0.000000
-6.750999 30.840927 0.000952
-6.436278 30.840927 0.000477
-6.121557 30.840927 0.000446
-5.806836 30.840927 0.000513
-5.492115 30.840927 0.000553
-5.177394 30.840927 0.000665
-4.862673 30.840927 0.000669
-4.547952 30.840927 0.000568
-4.233231 30.840927 0.000599
-3.918510 30.840927 0.000726
-3.603789 30.840927 0.000787
-3.289068 30.840927 0.000763
-2.974347 30.840927 0.000687
-2.659626 30.840927 0.000617
-2.344905 30.840927 0.000547
-2.030184 30.840927 0.000427
-1.715463 30.840927 0.000313
-1.400742 30.840927 0.000117
-1.086021 30.840927 0.000061
-0.771300 30.840927 0.000129
-0.456579 30.840927 0.000143
-0.141859 30.840927 0.000200
0.172863 30.840927 0.000330
0.487584 30.840927 0.000470
0.802305 30.840927 0.000512
1.117026 30.840927 0.000576
1.431747 30.840927 0.000655
1.746467 30.840927 0.000595
2.061188 30.840927 0.000479
2.375909 30.840927 0.000448
2.690630 30.840927 0.000355
3.005352 30.840927 0.000069
3.320073 30.840927 -0.000190
3.634794 30.840927 -0.000356
3.949515 30.840927 -0.000332
4.264236 30.840927 -0.000118
4.578956 30.840927 0.000144
4.893677 30.840927 0.000298
5.208398 30.840927 0.000304
5.523119 30.840927 0.000127
5.837841 30.840927 -0.000135
6.152562 30.840927 -0.000431
6.467283 30.840927 -0.000903
6.782003 30.840927 -0.001237
7.096724 30.840927 -0.000533
7.411445 30.840927 0.000500
7.726166 30.840927 0.000595
8.040888 30.840927 0.001744
8.355608 30.840927 0.005193
8.670330 30.840927 0.000398
8.985050 30.840927 0.003364
9.299772 30.840927 0.010290
9.614492 30.840927 0.016942
9.929214 30.840927 0.011382
10.243935 30.840927 0.005293
10.558655 30.840927 0.001664
10.873377 30.840927 0.007279
11.188097 30.840927 0.014567
11.502819 30.840927 0.018208
11.817539 30.840927 0.024289
12.132261 30.840927 0.034731
12.446981 30.840927 0.019165
12.761703 30.840927 0.017836
13.076424 30.840927 0.034458
13.391144 30.840927 0.031765
13.705866 30.840927 0.024782
14.020586 30.840927 0.014084
14.335308 30.840927 0.008684
14.650028 30.840927 0.002944
14.964750 30.840927 0.000873
15.279470 30.840927 0.011055
15.594193 30.840927 -0.010975
15.908913 30.840927 -0.068307
16.223633 30.840927 0.000000
16.538355 30.840927 0.000000
16.853075 30.840927 0.000000
17.167797 30.840927 0.000000
17.482517 30.840927 0.000000
17.797239 30.840927 0.000000
18.111959 30.840927 0.000000
18.426680 30.840927 0.000000
18.741402 30.840927 0.000000
-7.065720 30.526205 0.000000
-6.750999 30.526205 0.000872
-6.436278 30.526205 0.000455
-6.121557 30.526205 0.000473
-5.806836 30.526205 0.000530
-5.492115 30.526205 0.000577
-5.177394 30.526205 0.000675
-4.862673 30.526205 0.000653
-4.547952 30.526205 0.000605
-4.233231 30.526205 0.000631
-3.918510 30.526205 0.000702
-3.603789 30.526205 0.000772
-3.289068 30.526205 0.000725
-2.974347 30.526205 0.000573
-2.659626 30.526205 0.000481
-2.344905 30.526205 0.000429
-2.030184 30.526205 0.000339
-1.715463 30.526205 0.000257
-1.400742 30.526205 0.000114
-1.086021 30.526205 0.000148
-0.771300 30.526205 0.000231
-0.456579 30.526205 0.000218
-0.141859 30.526205 0.000266
0.172863 30.526205 0.000428
0.487584 30.526205 0.000614
0.802305 30.526205 0.000613
1.117026 30.526205 0.000602
1.431747 30.526205 0.000634
1.746467 30.526205 0.000571
2.061188 30.526205 0.000387
2.375909 30.526205 0.000260
2.690630 30.526205 0.000130
3.005352 30.526205 -0.000087
3.320073 30.526205 -0.000253
3.634794 30.526205 -0.000315
3.949515 30.526205 -0.000213
4.264236 30.526205 -0.000026
4.578956 30.526205 0.000238
4.893677 30.526205 0.000423
5.208398 30.526205 0.000516
5.523119 30.526205 0.000332
5.837841 30.526205 0.000009
6.152562 30.526205 -0.000290
6.467283 30.526205 -0.000909
6.782003 30.526205 -0.001200
7.096724 30.526205 -0.000609
7.411445 30.526205 0.000872
7.726166 30.526205 -0.000429
8.040888 30.526205 0.001013
8.355608 30.526205 0.004653
8.670330 30.526205 0.004516
8.985050 30.526205 0.004673
9.299772 30.526205 0.010045
9.614492 30.526205 0.014618
9.929214 30.526205 0.011855
10.243935 30.526205 0.012478
10.558655 30.526205 0.001502
10.873377 30.526205 0.001589
11.188097 30.526205 0.000280
11.502819 30.526205 0.017102
11.817539 30.526205 0.023861
12.132261 30.526205 0.025707
12.446981 30.526205 0.031828
12.761703 30.526205 0.019629
13.076424 30.526205 0.030958
13.391144 30.526205 0.037116
13.705866 30.526205 0.027496
14.020586 30.526205 0.004565
14.335308 30.526205 0.011935
14.650028 30.526205 0.013323
14.964750 30.526205 0.014828
15.279470 30.526205 0.008297
15.594193 30.526205 -0.022244
15.908913 30.526205 -0.084772
16.223633 30.526205 0.000000
16.538355 30.526205 0.000000
16.853075 30.526205 0.000000
17.167797 30.526205 0.000000
17.482517 30.526205 0.000000
17.797239 30.526205 0.000000
18.111959 30.526205 0.000000
18.426680 30.526205 0.000000
18.741402 30.526205 0.000000
-7.065720 30.211485 0.000000
-6.750999 30.211485 0.000825
-6.436278 30.211485 0.000476
-6.121557 30.211485 0.000566
-5.806836 30.211485 0.000614
-5.492115 30.211485 0.000686
-5.177394 30.211485 0.000777
-4.862673 30.211485 0.000731
-4.547952 30.211485 0.000621
-4.233231 30.211485 0.000634
-3.918510 30.211485 0.000651
-3.603789 30.211485 0.000670
-3.289068 30.211485 0.000591
-2.974347 30.211485 0.000375
-2.659626 30.211485 0.000288
-2.344905 30.211485 0.000311
-2.030184 30.211485 0.000307
-1.715463 30.211485 0.000263
-1.400742 30.211485 0.000200
-1.086021 30.211485 0.000297
-0.771300 30.211485 0.000340
-0.456579 30.211485 0.000322
-0.141859 30.211485 0.000355
0.172863 30.211485 0.000474
0.487584 30.211485 0.000675
0.802305 30.211485 0.000699
1.117026 30.211485 0.000618
1.431747 30.211485 0.000530
1.746467 30.211485 0.000454
2.061188 30.211485 0.000246
2.375909 30.211485 0.000039
2.690630 30.211485 -0.000094
3.005352 30.211485 -0.000182
3.320073 30.211485 -0.000203
3.634794 30.211485 -0.000161
3.949515 30.211485 -0.000019
4.264236 30.211485 0.000095
4.578956 30.211485 0.000305
4.893677 30.211485 0.000482
5.208398 30.211485 0.000549
5.523119 30.211485 0.000470
5.837841 30.211485 0.000072
6.152562 30.211485 -0.000224
6.467283 30.211485 -0.000548
6.782003 30.211485 -0.001118
7.096724 30.211485 -0.001021
7.411445 30.211485 -0.000056
7.726166 30.211485 0.000089
8.040888 30.211485 -0.001126
8.355608 30.211485 0.001798
8.670330 30.211485 0.007381
8.985050 30.211485 0.010367
9.299772 30.211485 0.013084
9.614492 30.211485 0.013527
9.929214 30.211485 0.010974
10.243935 30.211485 0.012734
10.558655 30.211485 0.002338
10.873377 30.211485 0.001943
11.188097 30.211485 -0.000748
11.502819 30.211485 0.011035
11.817539 30.211485 0.018346
12.132261 30.211485 0.034714
12.446981 30.211485 0.027445
12.761703 30.211485 0.022362
13.076424 30.211485 0.032737
13.391144 30.211485 0.042798
13.705866 30.211485 0.028818
14.020586 30.211485 0.009621
14.335308 30.211485 0.007985
14.650028 30.211485 0.021613
14.964750 30.211485 0.029429
15.279470 30.211485 0.026143
15.594193 30.211485 -0.026916
15.908913 30.211485 -0.092331
16.223633 30.211485 0.000000
16.538355 30.211485 0.000000
16.853075 30.211485 0.000000
17.167797 30.211485 0.000000
17.482517 30.211485 0.000000
17.797239 30.211485 0.000000
18.111959 30.211485 0.000000
18.426680 30.211485 0.000000
18.741402 30.211485 0.000000
-7.065720 29.896763 0.000000
-6.750999 29.896763 0.000900
-6.436278 29.896763 0.000633
-6.121557 29.896763 0.000702
-5.806836 29.896763 0.000742
-5.492115 29.896763 0.000818
-5.177394 29.896763 0.000905
-4.862673 29.896763 0.000824
-4.547952 29.896763 0.000631
-4.233231 29.896763 0.000572
-3.918510 29.896763 0.000566
-3.603789 29.896763 0.000503
-3.289068 29.896763 0.000391
-2.974347 29.896763 0.000187
-2.659626 29.896763 0.000125
-2.344905 29.896763 0.000216
-2.030184 29.896763 0.000289
-1.715463 29.896763 0.000331
-1.400742 29.896763 0.000347
-1.086021 29.896763 0.000457
-0.771300 29.896763 0.000481
-0.456579 29.896763 0.000424
-0.141859 29.896763 0.000421
0.172863 29.896763 0.000470
0.487584 29.896763 0.000617
0.802305 29.896763 0.000663
1.117026 29.896763 0.000562
1.431747 29.896763 0.000352
1.746467 29.896763 0.000260
2.061188 29.896763 0.000053
2.375909 29.896763 -0.000146
2.690630 29.896763 -0.000261
3.005352 29.896763 -0.000207
3.320073 29.896763 -0.000077
3.634794 29.896763 0.000062
3.949515 29.896763 0.000254
4.264236 29.896763 0.000261
4.578956 29.896763 0.000347
4.893677 29.896763 0.000417
5.208398 29.896763 0.000463
5.523119 29.896763 0.000401
5.837841 29.896763 0.000038
6.152562 29.896763 -0.000217
6.467283 29.896763 -0.000280
6.782003 29.896763 -0.000351
7.096724 29.896763 -0.000136
7.411445 29.896763 -0.000251
7.726166 29.896763 -0.000627
8.040888 29.896763 -0.000994
8.355608 29.896763 -0.000071
8.670330 29.896763 0.005058
8.985050 29.896763 0.007858
9.299772 29.896763 0.008356
9.614492 29.896763 0.014159
9.929214 29.896763 0.011491
10.243935 29.896763 0.014969
10.558655 29.896763 0.003230
10.873377 29.896763 0.011032
11.188097 29.896763 0.006052
11.502819 29.896763 0.009449
11.817539 29.896763 0.024321
12.132261 29.896763 0.031438
12.446981 29.896763 0.031550
12.761703 29.896763 0.020495
13.076424 29.896763 0.019800
13.391144 29.896763 0.022511
13.705866 29.896763 0.029732
14.020586 29.896763 -0.005919
14.335308 29.896763 0.013141
14.650028 29.896763 0.021430
14.964750 29.896763 0.032702
15.279470 29.896763 0.012143
15.594193 29.896763 -0.037380
15.908913 29.896763 -0.102586
16.223633 29.896763 0.000000
16.538355 29.896763 0.000000
16.853075 29.896763 0.000000
17.167797 29.896763 0.000000
17.482517 29.896763 0.000000
17.797239 29.896763 0.000000
18.111959 29.896763 0.000000
18.426680 29.896763 0.000000
18.741402 29.896763 0.000000
-7.065720 29.582043 0.000000
-6.750999 29.582043 0.001117
-6.436278 29.582043 0.000852
-6.121557 29.582043 0.000869
-5.806836 29.582043 0.000849
-5.492115 29.582043 0.000927
-5.177394 29.582043 0.000990
-4.862673 29.582043 0.000863
-4.547952 29.582043 0.000613
-4.233231 29.582043 0.000494
-3.918510 29.582043 0.000462
-3.603789 29.582043 0.000295
-3.289068 29.582043 0.000209
-2.974347 29.582043 0.000115
-2.659626 29.582043 0.000078
-2.344905 29.582043 0.000178
-2.030184 29.582043 0.000307
-1.715463 29.582043 0.000458
-1.400742 29.582043 0.000523
-1.086021 29.582043 0.000586
-0.771300 29.582043 0.000603
-0.456579 29.582043 0.000545
-0.141859 29.582043 0.000493
0.172863 29.582043 0.000432
0.487584 29.582043 0.000532
0.802305 29.582043 0.000545
1.117026 29.582043 0.000446
1.431747 29.582043 0.000213
1.746467 29.582043 0.000068
2.061188 29.582043 -0.000163
2.375909 29.582043 -0.000309
2.690630 29.582043 -0.000331
3.005352 29.582043 -0.000167
3.320073 29.582043 0.000015
3.634794 29.582043 0.000222
3.949515 29.582043 0.000483
4.264236 29.582043 0.000411
4.578956 29.582043 0.000343
4.893677 29.582043 0.000292
5.208398 29.582043 0.000321
5.523119 29.582043 0.000331
5.837841 29.582043 0.000002
6.152562 29.582043 -0.000094
6.467283 29.582043 0.000174
6.782003 29.582043 0.000159
7.096724 29.582043 0.001116
7.411445 29.582043 -0.000060
7.726166 29.582043 0.000514
8.040888 29.582043 -0.000281
8.355608 29.582043 0.001694
8.670330 29.582043 0.003100
8.985050 29.582043 0.007645
9.299772 29.582043 0.007479
9.614492 29.582043 0.008182
9.929214 29.582043 0.010646
10.243935 29.582043 0.017164
10.558655 29.582043 0.011698
10.873377 29.582043 0.018805
11.188097 29.582043 0.012222
11.502819 29.582043 0.016022
11.817539 29.582043 0.026211
12.132261 29.582043 0.044364
12.446981 29.582043 0.044183
12.761703 29.582043 0.027064
13.076424 29.582043 0.021379
13.391144 29.582043 0.018229
13.705866 29.582043 0.019849
14.020586 29.582043 0.014359
14.335308 29.582043 0.010464
14.650028 29.582043 0.040280
14.964750 29.582043 0.043665
15.279470 29.582043 0.014964
15.594193 29.582043 -0.049796
15.908913 29.582043 -0.113361
16.223633 29.582043 0.000000
16.538355 29.582043 0.000000
16.853075 29.582043 0.000000
17.167797 29.582043 0.000000
17.482517 29.582043 0.000000
17.797239 29.582043 0.000000
18.111959 29.582043 0.000000
18.426680 29.582043 0.000000
18.741402 29.582043 0.000000
-7.065720 29.267321 0.000000
-6.750999 29.267321 0.001214
-6.436278 29.267321 0.000994
-6.121557 29.267321 0.000993
-5.806836 29.267321 0.000921
-5.492115 29.267321 0.000943
-5.177394 29.267321 0.000981
-4.862673 29.267321 0.000811
-4.547952 29.267321 0.000525
-4.233231 29.267321 0.000384
-3.918510 29.267321 0.000317
-3.603789 29.267321 0.000124
-3.289068 29.267321 0.000091
-2.974347 29.267321 0.000147
-2.659626 29.267321 0.000188
-2.344905 29.267321 0.000243
-2.030184 29.267321 0.000394
-1.715463 29.267321 0.000625
-1.400742 29.267321 0.000697
-1.086021 29.267321 0.000671
-0.771300 29.267321 0.000714
-0.456579 29.267321 0.000708
-0.141859 29.267321 0.000574
0.172863 29.267321 0.000451
0.487584 29.267321 0.000446
0.802305 29.267321 0.000414
1.117026 29.267321 0.000285
1.431747 29.267321 0.000114
1.746467 29.267321 -0.000057
2.061188 29.267321 -0.000287
2.375909 29.267321 -0.000346
2.690630 29.267321 -0.000256
3.005352 29.267321 -0.000025
3.320073 29.267321 0.000159
3.634794 29.267321 0.000374
3.949515 29.267321 0.000678
4.264236 29.267321 0.000530
4.578956 29.267321 0.000252
4.893677 29.267321 0.000100
5.208398 29.267321 -0.000009
5.523119 29.267321 -0.000006
5.837841 29.267321 -0.000018
6.152562 29.267321 -0.000097
6.467283 29.267321 0.000134
6.782003 29.267321 0.000675
7.096724 29.267321 0.001548
7.411445 29.267321 0.001682
7.726166 29.267321 0.001442
8.040888 29.267321 0.002374
8.355608 29.267321 0.004336
8.670330 29.267321 0.006409
8.985050 29.267321 0.007289
9.299772 29.267321 0.006657
9.614492 29.267321 0.006511
9.929214 29.267321 0.012421
10.243935 29.267321 0.014064
10.558655 29.267321 0.011053
10.873377 29.267321 0.021023
11.188097 29.267321 0.027247
11.502819 29.267321 0.018774
11.817539 29.267321 0.021542
12.132261 29.267321 0.035319
12.446981 29.267321 0.044302
12.761703 29.267321 0.039639
13.076424 29.267321 0.036724
13.391144 29.267321 0.024293
13.705866 29.267321 0.023995
14.020586 29.267321 0.025068
14.335308 29.267321 0.035258
14.650028 29.267321 0.040090
14.964750 29.267321 0.034918
15.279470 29.267321 -0.000083
15.594193 29.267321 -0.037075
15.908913 29.267321 -0.102876
16.223633 29.267321 0.000000
16.538355 29.267321 0.000000
16.853075 29.267321 0.000000
17.167797 29.267321 0.000000
17.482517 29.267321 0.000000
17.797239 29.267321 0.000000
18.111959 29.267321 0.000000
18.426680 29.267321 0.000000
18.741402 29.267321 0.000000
-7.065720 28.952600 0.000000
-6.750999 28.952600 0.001199
-6.436278 28.952600 0.001014
-6.121557 28.952600 0.001045
-5.806836 28.952600 0.000974
-5.492115 28.952600 0.000918
-5.177394 28.952600 0.000851
-4.862673 28.952600 0.000690
-4.547952 28.952600 0.000420
-4.233231 28.952600 0.000311
-3.918510 28.952600 0.000245
-3.603789 28.952600 0.000057
-3.289068 28.952600 0.000056
-2.974347 28.952600 0.000228
-2.659626 28.952600 0.000364
-2.344905 28.952600 0.000409
-2.030184 28.952600 0.000519
-1.715463 28.952600 0.000778
-1.400742 28.952600 0.000816
-1.086021 28.952600 0.000756
-0.771300 28.952600 0.000774
-0.456579 28.952600 0.000746
-0.141859 28.952600 0.000574
0.172863 28.952600 0.000427
0.487584 28.952600 0.000374
0.802305 28.952600 0.000276
1.117026 28.952600 0.000142
1.431747 28.952600 0.000063
1.746467 28.952600 -0.000061
2.061188 28.952600 -0.000242
2.375909 28.952600 -0.000198
2.690630 28.952600 -0.000072
3.005352 28.952600 0.000177
3.320073 28.952600 0.000320
3.634794 28.952600 0.000491
3.949515 28.952600 0.000711
4.264236 28.952600 0.000526
4.578956 28.952600 0.000183
4.893677 28.952600 -0.000122
5.208398 28.952600 -0.000288
5.523119 28.952600 -0.000329
5.837841 28.952600 -0.000308
6.152562 28.952600 -0.000317
6.467283 28.952600 -0.000113
6.782003 28.952600 0.000480
7.096724 28.952600 0.000930
7.411445 28.952600 0.001117
7.726166 28.952600 0.001687
8.040888 28.952600 0.001908
8.355608 28.952600 0.004209
8.670330 28.952600 0.008142
8.985050 28.952600 0.005870
9.299772 28.952600 0.013216
9.614492 28.952600 0.014532
9.929214 28.952600 0.015811
10.243935 28.952600 0.019803
10.558655 28.952600 0.017563
10.873377 28.952600 0.024700
11.188097 28.952600 0.024134
11.502819 28.952600 0.012747
11.817539 28.952600 0.021682
12.132261 28.952600 0.041091
12.446981 28.952600 0.038433
12.761703 28.952600 0.030560
13.076424 28.952600 0.035212
13.391144 28.952600 0.025187
13.705866 28.952600 0.020409
14.020586 28.952600 0.046560
14.335308 28.952600 0.054091
14.650028 28.952600 0.047176
14.964750 28.952600 0.028693
15.279470 28.952600 0.006703
15.594193 28.952600 -0.020035
15.908913 28.952600 -0.071738
16.223633 28.952600 0.000000
16.538355 28.952600 0.000000
16.853075 28.952600 0.000000
17.167797 28.952600 0.000000
17.482517 28.952600 0.000000
17.797239 28.952600 0.000000
18.111959 28.952600 0.000000
18.426680 28.952600 0.000000
18.741402 28.952600 0.000000
-7.065720 28.637878 0.000000
-6.750999 28.637878 0.001188
-6.436278 28.637878 0.000954
-6.121557 28.637878 0.001034
-5.806836 28.637878 0.000974
-5.492115 28.637878 0.000832
-5.177394 28.637878 0.000670
-4.862673 28.637878 0.000506
-4.547952 28.637878 0.000319
-4.233231 28.637878 0.000285
-3.918510 28.637878 0.000276
-3.603789 28.637878 0.000142
-3.289068 28.637878 0.000155
-2.974347 28.637878 0.000347
-2.659626 28.637878 0.000544
-2.344905 28.637878 0.000574
-2.030184 28.637878 0.000654
-1.715463 28.637878 0.000861
-1.400742 28.637878 0.000906
-1.086021 28.637878 0.000816
-0.771300 28.637878 0.000721
-0.456579 28.637878 0.000638
-0.141859 28.637878 0.000461
0.172863 28.637878 0.000348
0.487584 28.637878 0.000290
0.802305 28.637878 0.000168
1.117026 28.637878 0.000086
1.431747 28.637878 0.000089
1.746467 28.637878 0.000061
2.061188 28.637878 0.000036
2.375909 28.637878 0.000094
2.690630 28.637878 0.000202
3.005352 28.637878 0.000380
3.320073 28.637878 0.000442
3.634794 28.637878 0.000531
3.949515 28.637878 0.000628
4.264236 28.637878 0.000383
4.578956 28.637878 -0.000027
4.893677 28.637878 -0.000366
5.208398 28.637878 -0.000494
5.523119 28.637878 -0.000577
5.837841 28.637878 -0.000498
6.152562 28.637878 -0.000556
6.467283 28.637878 -0.000138
6.782003 28.637878 0.000206
7.096724 28.637878 0.000750
7.411445 28.637878 0.001398
7.726166 28.637878 0.001640
8.040888 28.637878 0.001123
8.355608 28.637878 0.005224
8.670330 28.637878 0.008149
8.985050 28.637878 0.011335
9.299772 28.637878 0.011678
9.614492 28.637878 0.020349
9.929214 28.637878 0.021410
10.243935 28.637878 0.020715
10.558655 28.637878 0.015485
10.873377 28.637878 0.024631
11.188097 28.637878 0.021290
11.502819 28.637878 0.013684
11.817539 28.637878 0.020934
12.132261 28.637878 0.038588
12.446981 28.637878 0.045437
12.761703 28.637878 0.044442
13.076424 28.637878 0.045830
13.391144 28.637878 0.040623
13.705866 28.637878 0.048414
14.020586 28.637878 0.067764
14.335308 28.637878 0.068293
14.650028 28.637878 0.046160
14.964750 28.637878 0.021428
15.279470 28.637878 0.007803
15.594193 28.637878 -0.005883
15.908913 28.637878 -0.061460
16.223633 28.637878 0.000000
16.538355 28.637878 0.000000
16.853075 28.637878 0.000000
17.167797 28.637878 0.000000
17.482517 28.637878 0.000000
17.797239 28.637878 0.000000
18.111959 28.637878 0.000000
18.426680 28.637878 0.000000
18.741402 28.637878 0.000000
-7.065720 28.323158 0.000000
-6.750999 28.323158 0.001248
-6.436278 28.323158 0.000916
-6.121557 28.323158 0.000949
-5.806836 28.323158 0.000795
-5.492115 28.323158 0.000665
-5.177394 28.323158 0.000493
-4.862673 28.323158 0.000344
-4.547952 28.323158 0.000283
-4.233231 28.323158 0.000302
-3.918510 28.323158 0.000340
-3.603789 28.323158 0.000278
-3.289068 28.323158 0.000305
-2.974347 28.323158 0.000492
-2.659626 28.323158 0.000741
-2.344905 28.323158 0.000767
-2.030184 28.323158 0.000784
-1.715463 28.323158 0.000876
-1.400742 28.323158 0.000923
-1.086021 28.323158 0.000798
-0.771300 28.323158 0.000598
-0.456579 28.323158 0.000468
-0.141859 28.323158 0.000335
0.172863 28.323158 0.000237
0.487584 28.323158 0.000235
0.802305 28.323158 0.000143
1.117026 28.323158 0.000101
1.431747 28.323158 0.000152
1.746467 28.323158 0.000208
2.061188 28.323158 0.000325
2.375909 28.323158 0.000423
2.690630 28.323158 0.000486
3.005352 28.323158 0.000525
3.320073 28.323158 0.000471
3.634794 28.323158 0.000459
3.949515 28.323158 0.000419
4.264236 28.323158 0.000187
4.578956 28.323158 -0.000174
4.893677 28.323158 -0.000474
5.208398 28.323158 -0.000583
5.523119 28.323158 -0.000694
5.837841 28.323158 -0.000601
6.152562 28.323158 -0.000439
6.467283 28.323158 -0.000235
6.782003 28.323158 0.000400
7.096724 28.323158 0.000742
7.411445 28.323158 0.001629
7.726166 28.323158 0.002165
8.040888 28.323158 0.000566
8.355608 28.323158 0.004821
8.670330 28.323158 0.011691
8.985050 28.323158 0.008208
9.299772 28.323158 0.010162
9.614492 28.323158 0.021480
9.929214 28.323158 0.019815
10.243935 28.323158 0.016009
10.558655 28.323158 0.009848
10.873377 28.323158 0.018713
11.188097 28.323158 0.014765
11.502819 28.323158 0.027122
11.817539 28.323158 0.022978
12.132261 28.323158 0.041114
12.446981 28.323158 0.062614
12.761703 28.323158 0.057264
13.076424 28.323158 0.059921
13.391144 28.323158 0.051251
13.705866 28.323158 0.061556
14.020586 28.323158 0.077161
14.335308 28.323158 0.072599
14.650028 28.323158 0.047582
14.964750 28.323158 0.018459
15.279470 28.323158 0.000490
15.594193 28.323158 -0.016713
15.908913 28.323158 -0.048207
16.223633 28.323158 0.000000
16.538355 28.323158 0.000000
16.853075 28.323158 0.000000
17.167797 28.323158 0.000000
17.482517 28.323158 0.000000
17.797239 28.323158 0.000000
18.111959 28.323158 0.000000
18.426680 28.323158 0.000000
18.741402 28.323158 0.000000
-7.065720 28.008438 0.000000
-6.750999 28.008438 0.001358
-6.436278 28.008438 0.000905
-6.121557 28.008438 0.000786
-5.806836 28.008438 0.000526
-5.492115 28.008438 0.000455
-5.177394 28.008438 0.000397
-4.862673 28.008438 0.000292
-4.547952 28.008438 0.000311
-4.233231 28.008438 0.000309
-3.918510 28.008438 0.000368
-3.603789 28.008438 0.000414
-3.289068 28.008438 0.000534
-2.974347 28.008438 0.000665
-2.659626 28.008438 0.000897
-2.344905 28.008438 0.000966
-2.030184 28.008438 0.000911
-1.715463 28.008438 0.000838
-1.400742 28.008438 0.000817
-1.086021 28.008438 0.000699
-0.771300 28.008438 0.000397
-0.456579 28.008438 0.000305
-0.141859 28.008438 0.000246
0.172863 28.008438 0.000182
0.487584 28.008438 0.000202
0.802305 28.008438 0.000194
1.117026 28.008438 0.000210
1.431747 28.008438 0.000222
1.746467 28.008438 0.000291
2.061188 28.008438 0.000491
2.375909 28.008438 0.000658
2.690630 28.008438 0.000698
3.005352 28.008438 0.000615
3.320073 28.008438 0.000418
3.634794 28.008438 0.000351
3.949515 28.008438 0.000185
4.264236 28.008438 -0.000002
4.578956 28.008438 -0.000225
4.893677 28.008438 -0.000386
5.208398 28.008438 -0.000548
5.523119 28.008438 -0.000662
5.837841 28.008438 -0.000527
6.152562 28.008438 -0.000321
6.467283 28.008438 0.000051
6.782003 28.008438 0.000151
7.096724 28.008438 0.000458
7.411445 28.008438 0.001039
7.726166 28.008438 0.002797
8.040888 28.008438 0.002358
8.355608 28.008438 0.005181
8.670330 28.008438 0.008360
8.985050 28.008438 0.007360
9.299772 28.008438 0.012470
9.614492 28.008438 0.019928
9.929214 28.008438 0.017502
10.243935 28.008438 0.015472
10.558655 28.008438 0.010299
10.873377 28.008438 0.011040
11.188097 28.008438 0.017759
11.502819 28.008438 0.022144
11.817539 28.008438 0.018149
12.132261 28.008438 0.037876
12.446981 28.008438 0.071482
12.761703 28.008438 0.071932
13.076424 28.008438 0.065179
13.391144 28.008438 0.057322
13.705866 28.008438 0.078823
14.020586 28.008438 0.076271
14.335308 28.008438 0.065462
14.650028 28.008438 0.044707
14.964750 28.008438 0.003038
15.279470 28.008438 -0.000138
15.594193 28.008438 -0.014826
15.908913 28.008438 -0.043627
16.223633 28.008438 0.000000
16.538355 28.008438 0.000000
16.853075 28.008438 0.000000
17.167797 28.008438 0.000000
17.482517 28.008438 0.000000
17.797239 28.008438 0.000000
18.111959 28.008438 0.000000
18.426680 28.008438 0.000000
18.741402 28.008438 0.000000
-7.065720 27.693716 0.000000
-6.750999 27.693716 0.001339
-6.436278 27.693716 0.000839
-6.121557 27.693716 0.000615
-5.806836 27.693716 0.000327
-5.492115 27.693716 0.000304
-5.177394 27.693716 0.000380
-4.862673 27.693716 0.000335
-4.547952 27.693716 0.000387
-4.233231 27.693716 0.000370
-3.918510 27.693716 0.000463
-3.603789 27.693716 0.000609
-3.289068 27.693716 0.000750
-2.974347 27.693716 0.000836
-2.659626 27.693716 0.000965
-2.344905 27.693716 0.001015
-2.030184 27.693716 0.000927
-1.715463 27.693716 0.000799
-1.400742 27.693716 0.000689
-1.086021 27.693716 0.000505
-0.771300 27.693716 0.000173
-0.456579 27.693716 0.000154
-0.141859 27.693716 0.000224
0.172863 27.693716 0.000160
0.487584 27.693716 0.000190
0.802305 27.693716 0.000317
1.117026 27.693716 0.000405
1.431747 27.693716 0.000350
1.746467 27.693716 0.000363
2.061188 27.693716 0.000557
2.375909 27.693716 0.000775
2.690630 27.693716 0.000826
3.005352 27.693716 0.000668
3.320073 27.693716 0.000351
3.634794 27.693716 0.000201
3.949515 27.693716 0.000055
4.264236 27.693716 -0.000080
4.578956 27.693716 -0.000160
4.893677 27.693716 -0.000226
5.208398 27.693716 -0.000415
5.523119 27.693716 -0.000544
5.837841 27.693716 -0.000525
6.152562 27.693716 -0.000309
6.467283 27.693716 -0.000029
6.782003 27.693716 -0.000318
7.096724 27.693716 0.000178
7.411445 27.693716 0.001588
7.726166 27.693716 0.002682
8.040888 27.693716 0.002851
8.355608 27.693716 0.004328
8.670330 27.693716 0.008517
8.985050 27.693716 0.010197
9.299772 27.693716 0.010936
9.614492 27.693716 0.012299
9.929214 27.693716 0.015925
10.243935 27.693716 0.020398
10.558655 27.693716 0.013219
10.873377 27.693716 0.003328
11.188097 27.693716 0.016747
11.502819 27.693716 0.016316
11.817539 27.693716 0.020675
12.132261 27.693716 0.041598
12.446981 27.693716 0.059173
12.761703 27.693716 0.075573
13.076424 27.693716 0.068900
13.391144 27.693716 0.058329
13.705866 27.693716 0.070792
14.020586 27.693716 0.062679
14.335308 27.693716 0.054948
14.650028 27.693716 0.043871
14.964750 27.693716 0.014766
15.279470 27.693716 -0.001445
15.594193 27.693716 -0.011343
15.908913 27.693716 -0.066703
16.223633 27.693716 0.000000
16.538355 27.693716 0.000000
16.853075 27.693716 0.000000
17.167797 27.693716 0.000000
17.482517 27.693716 0.000000
17.797239 27.693716 0.000000
18.111959 27.693716 0.000000
18.426680 27.693716 0.000000
18.741402 27.693716 0.000000
-7.065720 27.378996 0.000000
-6.750999 27.378996 0.001154
-6.436278 27.378996 0.000682
-6.121557 27.378996 0.000527
-5.806836 27.378996 0.000258
-5.492115 27.378996 0.000220
-5.177394 27.378996 0.000389
-4.862673 27.378996 0.000424
-4.547952 27.378996 0.000512
-4.233231 27.378996 0.000549
-3.918510 27.378996 0.000644
-3.603789 27.378996 0.000830
-3.289068 27.378996 0.000905
-2.974347 27.378996 0.000927
-2.659626 27.378996 0.000944
-2.344905 27.378996 0.000891
-2.030184 27.378996 0.000802
-1.715463 27.378996 0.000685
-1.400742 27.378996 0.000511
-1.086021 27.378996 0.000294
-0.771300 27.378996 0.000006
-0.456579 27.378996 0.000074
-0.141859 27.378996 0.000258
0.172863 27.378996 0.000229
0.487584 27.378996 0.000287
0.802305 27.378996 0.000496
1.117026 27.378996 0.000603
1.431747 27.378996 0.000494
1.746467 27.378996 0.000438
2.061188 27.378996 0.000572
2.375909 27.378996 0.000780
2.690630 27.378996 0.000789
3.005352 27.378996 0.000580
3.320073 27.378996 0.000253
3.634794 27.378996 0.000124
3.949515 27.378996 0.000064
4.264236 27.378996 -0.000026
4.578956 27.378996 -0.000035
4.893677 27.378996 -0.000083
5.208398 27.378996 -0.000238
5.523119 27.378996 -0.000457
5.837841 27.378996 -0.000334
6.152562 27.378996 -0.000329
6.467283 27.378996 -0.000423
6.782003 27.378996 -0.000708
7.096724 27.378996 -0.000412
7.411445 27.378996 0.001866
7.726166 27.378996 0.003091
8.040888 27.378996 0.003734
8.355608 27.378996 0.005460
8.670330 27.378996 0.010615
8.985050 27.378996 0.012588
9.299772 27.378996 0.014190
9.614492 27.378996 0.013535
9.929214 27.378996 0.017356
10.243935 27.378996 0.018668
10.558655 27.378996 0.017237
10.873377 27.378996 0.009467
11.188097 27.378996 0.011613
11.502819 27.378996 0.014991
11.817539 27.378996 0.020720
12.132261 27.378996 0.034300
12.446981 27.378996 0.052206
12.761703 27.378996 0.061733
13.076424 27.378996 0.062281
13.391144 27.378996 0.042378
13.705866 27.378996 0.056310
14.020586 27.378996 0.050722
14.335308 27.378996 0.057528
14.650028 27.378996 0.056146
14.964750 27.378996 0.032220
15.279470 27.378996 0.002992
15.594193 27.378996 -0.023554
15.908913 27.378996 -0.076418
16.223633 27.378996 0.000000
16.538355 27.378996 0.000000
16.853075 27.378996 0.000000
17.167797 27.378996 0.000000
17.482517 27.378996 0.000000
17.797239 27.378996 0.000000
18.111959 27.378996 0.000000
18.426680 27.378996 0.000000
18.741402 27.378996 0.000000
-7.065720 27.064274 0.000000
-6.750999 27.064274 0.000846
-6.436278 27.064274 0.000508
-6.121557 27.064274 0.000504
-5.806836 27.064274 0.000340
-5.492115 27.064274 0.000273
-5.177394 27.064274 0.000433
-4.862673 27.064274 0.000544
-4.547952 27.064274 0.000695
-4.233231 27.064274 0.000806
-3.918510 27.064274 0.000919
-3.603789 27.064274 0.000977
-3.289068 27.064274 0.000933
-2.974347 27.064274 0.000898
-2.659626 27.064274 0.000765
-2.344905 27.064274 0.000630
-2.030184 27.064274 0.000579
-1.715463 27.064274 0.000546
-1.400742 27.064274 0.000343
-1.086021 27.064274 0.000128
-0.771300 27.064274 -0.000061
-0.456579 27.064274 0.000079
-0.141859 27.064274 0.000349
0.172863 27.064274 0.000393
0.487584 27.064274 0.000477
0.802305 27.064274 0.000645
1.117026 27.064274 0.000692
1.431747 27.064274 0.000573
1.746467 27.064274 0.000496
2.061188 27.064274 0.000577
2.375909 27.064274 0.000670
2.690630 27.064274 0.000612
3.005352 27.064274 0.000400
3.320073 27.064274 0.000150
3.634794 27.064274 0.000112
3.949515 27.064274 0.000143
4.264236 27.064274 0.000077
4.578956 27.064274 0.000083
4.893677 27.064274 0.000104
5.208398 27.064274 -0.000049
5.523119 27.064274 -0.000251
5.837841 27.064274 -0.000342
6.152562 27.064274 -0.000423
6.467283 27.064274 -0.000544
6.782003 27.064274 -0.000863
7.096724 27.064274 -0.000663
7.411445 27.064274 0.001510
7.726166 27.064274 0.003052
8.040888 27.064274 0.004220
8.355608 27.064274 0.006815
8.670330 27.064274 0.014818
8.985050 27.064274 0.013795
9.299772 27.064274 0.016661
9.614492 27.064274 0.011074
9.929214 27.064274 0.011813
10.243935 27.064274 0.014856
10.558655 27.064274 0.022118
10.873377 27.064274 0.022398
11.188097 27.064274 0.021188
11.502819 27.064274 0.008790
11.817539 27.064274 0.007521
12.132261 27.064274 0.028094
12.446981 27.064274 0.036322
12.761703 27.064274 0.050162
13.076424 27.064274 0.050500
13.391144 27.064274 0.037851
13.705866 27.064274 0.038854
14.020586 27.064274 0.046953
14.335308 27.064274 0.060194
14.650028 27.064274 0.056856
14.964750 27.064274 0.032948
15.279470 27.064274 -0.006328
15.594193 27.064274 -0.010122
15.908913 27.064274 -0.076970
16.223633 27.064274 0.000000
16.538355 27.064274 0.000000
16.853075 27.064274 0.000000
17.167797 27.064274 0.000000
17.482517 27.064274 0.000000
17.797239 27.064274 0.000000
18.111959 27.064274 0.000000
18.426680 27.064274 0.000000
18.741402 27.064274 0.000000
-7.065720 26.749554 0.000000
-6.750999 26.749554 0.000622
-6.436278 26.749554 0.000386
-6.121557 26.749554 0.000502
-5.806836 26.749554 0.000483
-5.492115 26.749554 0.000412
-5.177394 26.749554 0.000523
-4.862673 26.749554 0.000666
-4.547952 26.749554 0.000826
-4.233231 26.749554 0.001008
-3.918510 26.749554 0.001079
-3.603789 26.749554 0.000981
-3.289068 26.749554 0.000830
-2.974347 26.749554 0.000717
-2.659626 26.749554 0.000502
-2.344905 26.749554 0.000357
-2.030184 26.749554 0.000385
-1.715463 26.749554 0.000382
-1.400742 26.749554 0.000243
-1.086021 26.749554 0.000097
-0.771300 26.749554 0.000008
-0.456579 26.749554 0.000179
-0.141859 26.749554 0.000450
0.172863 26.749554 0.000571
0.487584 26.749554 0.000634
0.802305 26.749554 0.000713
1.117026 26.749554 0.000663
1.431747 26.749554 0.000515
1.746467 26.749554 0.000479
2.061188 26.749554 0.000513
2.375909 26.749554 0.000525
2.690630 26.749554 0.000404
3.005352 26.749554 0.000197
3.320073 26.749554 0.000073
3.634794 26.749554 0.000115
3.949515 26.749554 0.000236
4.264236 26.749554 0.000193
4.578956 26.749554 0.000198
4.893677 26.749554 0.000265
5.208398 26.749554 0.000177
5.523119 26.749554 -0.000106
5.837841 26.749554 -0.000202
6.152562 26.749554 -0.000325
6.467283 26.749554 -0.000570
6.782003 26.749554 -0.000896
7.096724 26.749554 -0.000828
7.411445 26.749554 0.001454
7.726166 26.749554 0.003239
8.040888 26.749554 0.005242
8.355608 26.749554 0.006599
8.670330 26.749554 0.013777
8.985050 26.749554 0.016187
9.299772 26.749554 0.015883
9.614492 26.749554 0.009732
9.929214 26.749554 0.008900
10.243935 26.749554 0.016794
10.558655 26.749554 0.028173
10.873377 26.749554 0.030695
11.188097 26.749554 0.013789
11.502819 26.749554 -0.001355
11.817539 26.749554 0.007554
12.132261 26.749554 0.022110
12.446981 26.749554 0.026495
12.761703 26.749554 0.045290
13.076424 26.749554 0.041549
13.391144 26.749554 0.045781
13.705866 26.749554 0.034435
14.020586 26.749554 0.042836
14.335308 26.749554 0.038606
14.650028 26.749554 0.044414
14.964750 26.749554 0.019990
15.279470 26.749554 -0.002148
15.594193 26.749554 -0.018588
15.908913 26.749554 -0.067088
16.223633 26.749554 0.000000
16.538355 26.749554 0.000000
16.853075 26.749554 0.000000
17.167797 26.749554 0.000000
17.482517 26.749554 0.000000
17.797239 26.749554 0.000000
18.111959 26.749554 0.000000
18.426680 26.749554 0.000000
18.741402 26.749554 0.000000
-7.065720 26.434832 0.000000
-6.750999 26.434832 0.000674
-6.436278 26.434832 0.000415
-6.121557 26.434832 0.000559
-5.806836 26.434832 0.000669
-5.492115 26.434832 0.000661
-5.177394 26.434832 0.000696
-4.862673 26.434832 0.000783
-4.547952 26.434832 0.000915
-4.233231 26.434832 0.000995
-3.918510 26.434832 0.000986
-3.603789 26.434832 0.000844
-3.289068 26.434832 0.000654
-2.974347 26.434832 0.000441
-2.659626 26.434832 0.000243
-2.344905 26.434832 0.000179
-2.030184 26.434832 0.000286
-1.715463 26.434832 0.000292
-1.400742 26.434832 0.000238
-1.086021 26.434832 0.000219
-0.771300 26.434832 0.000195
-0.456579 26.434832 0.000360
-0.141859 26.434832 0.000574
0.172863 26.434832 0.000704
0.487584 26.434832 0.000718
0.802305 26.434832 0.000698
1.117026 26.434832 0.000600
1.431747 26.434832 0.000414
1.746467 26.434832 0.000393
2.061188 26.434832 0.000394
2.375909 26.434832 0.000365
2.690630 26.434832 0.000249
3.005352 26.434832 0.000102
3.320073 26.434832 0.000071
3.634794 26.434832 0.000212
3.949515 26.434832 0.000367
4.264236 26.434832 0.000348
4.578956 26.434832 0.000345
4.893677 26.434832 0.000445
5.208398 26.434832 0.000336
5.523119 26.434832 0.000063
5.837841 26.434832 -0.000072
6.152562 26.434832 -0.000152
6.467283 26.434832 -0.000401
6.782003 26.434832 -0.000640
7.096724 26.434832 -0.000194
7.411445 26.434832 0.002271
7.726166 26.434832 0.003874
8.040888 26.434832 0.003553
8.355608 26.434832 0.006313
8.670330 26.434832 0.010063
8.985050 26.434832 0.012587
9.299772 26.434832 0.013468
9.614492 26.434832 0.011267
9.929214 26.434832 0.015911
10.243935 26.434832 0.017013
10.558655 26.434832 0.023494
10.873377 26.434832 0.024136
11.188097 26.434832 0.010557
11.502819 26.434832 -0.000948
11.817539 26.434832 -0.001145
12.132261 26.434832 0.019486
12.446981 26.434832 0.018560
12.761703 26.434832 0.046119
13.076424 26.434832 0.056044
13.391144 26.434832 0.047595
13.705866 26.434832 0.051389
14.020586 26.434832 0.044312
14.335308 26.434832 0.039438
14.650028 26.434832 0.030266
14.964750 26.434832 0.035333
15.279470 26.434832 0.006865
15.594193 26.434832 -0.037167
15.908913 26.434832 -0.071255
16.223633 26.434832 0.000000
16.538355 26.434832 0.000000
16.853075 26.434832 0.000000
17.167797 26.434832 0.000000
17.482517 26.434832 0.000000
17.797239 26.434832 0.000000
18.111959 26.434832 0.000000
18.426680 26.434832 0.000000
18.741402 26.434832 0.000000
-7.065720 26.120111 0.000000
-6.750999 26.120111 0.000997
-6.436278 26.120111 0.000705
-6.121557 26.120111 0.000755
-5.806836 26.120111 0.000852
-5.492115 26.120111 0.000902
-5.177394 26.120111 0.000842
-4.862673 26.120111 0.000872
-4.547952 26.120111 0.000919
-4.233231 26.120111 0.000849
-3.918510 26.120111 0.000738
-3.603789 26.120111 0.000597
-3.289068 26.120111 0.000407
-2.974347 26.120111 0.000165
-2.659626 26.120111 0.000084
-2.344905 26.120111 0.000150
-2.030184 26.120111 0.000294
-1.715463 26.120111 0.000304
-1.400742 26.120111 0.000359
-1.086021 26.120111 0.000455
-0.771300 26.120111 0.000465
-0.456579 26.120111 0.000548
-0.141859 26.120111 0.000646
0.172863 26.120111 0.000718
0.487584 26.120111 0.000705
0.802305 26.120111 0.000640
1.117026 26.120111 0.000516
1.431747 26.120111 0.000329
1.746467 26.120111 0.000289
2.061188 26.120111 0.000257
2.375909 26.120111 0.000222
2.690630 26.120111 0.000174
3.005352 26.120111 0.000139
3.320073 26.120111 0.000157
3.634794 26.120111 0.000322
3.949515 26.120111 0.000462
4.264236 26.120111 0.000469
4.578956 26.120111 0.000483
4.893677 26.120111 0.000488
5.208398 26.120111 0.000449
5.523119 26.120111 0.000220
5.837841 26.120111 0.000084
6.152562 26.120111 0.000158
6.467283 26.120111 0.000149
6.782003 26.120111 0.000199
7.096724 26.120111 0.000202
7.411445 26.120111 0.002177
7.726166 26.120111 0.003539
8.040888 26.120111 0.003924
8.355608 26.120111 0.003950
8.670330 26.120111 0.007222
8.985050 26.120111 0.011602
9.299772 26.120111 0.018015
9.614492 26.120111 0.023970
9.929214 26.120111 0.022675
10.243935 26.120111 0.016522
10.558655 26.120111 0.027850
10.873377 26.120111 0.029642
11.188097 26.120111 0.022758
11.502819 26.120111 0.003649
11.817539 26.120111 0.013304
12.132261 26.120111 0.028845
12.446981 26.120111 0.038291
12.761703 26.120111 0.052518
13.076424 26.120111 0.047790
13.391144 26.120111 0.042635
13.705866 26.120111 0.048469
14.020586 26.120111 0.040019
14.335308 26.120111 0.024064
14.650028 26.120111 0.025433
14.964750 26.120111 0.037897
15.279470 26.120111 0.005516
15.594193 26.120111 -0.023656
15.908913 26.120111 -0.057423
16.223633 26.120111 0.000000
16.538355 26.120111 0.000000
16.853075 26.120111 0.000000
17.167797 26.120111 0.000000
17.482517 26.120111 0.000000
17.797239 26.120111 0.000000
18.111959 26.120111 0.000000
18.426680 26.120111 0.000000
18.741402 26.120111 0.000000
-7.065720 25.805389 0.000000
-6.750999 25.805389 0.001463
-6.436278 25.805389 0.001063
-6.121557 25.805389 0.000989
-5.806836 25.805389 0.001001
-5.492115 25.805389 0.001019
-5.177394 25.805389 0.000903
-4.862673 25.805389 0.000816
-4.547952 25.805389 0.000767
-4.233231 25.805389 0.000595
-3.918510 25.805389 0.000492
-3.603789 25.805389 0.000389
-3.289068 25.805389 0.000227
-2.974347 25.805389 0.000038
-2.659626 25.805389 0.000081
-2.344905 25.805389 0.000221
-2.030184 25.805389 0.000381
-1.715463 25.805389 0.000466
-1.400742 25.805389 0.000560
-1.086021 25.805389 0.000711
-0.771300 25.805389 0.000671
-0.456579 25.805389 0.000669
-0.141859 25.805389 0.000628
0.172863 25.805389 0.000592
0.487584 25.805389 0.000599
0.802305 25.805389 0.000527
1.117026 25.805389 0.000414
1.431747 25.805389 0.000261
1.746467 25.805389 0.000175
2.061188 25.805389 0.000164
2.375909 25.805389 0.000154
2.690630 25.805389 0.000192
3.005352 25.805389 0.000253
3.320073 25.805389 0.000311
3.634794 25.805389 0.000425
3.949515 25.805389 0.000532
4.264236 25.805389 0.000549
4.578956 25.805389 0.000538
4.893677 25.805389 0.000482
5.208398 25.805389 0.000444
5.523119 25.805389 0.000324
5.837841 25.805389 0.000138
6.152562 25.805389 0.000335
6.467283 25.805389 0.000483
6.782003 25.805389 0.000562
7.096724 25.805389 0.001441
7.411445 25.805389 0.002419
7.726166 25.805389 0.003975
8.040888 25.805389 0.004043
8.355608 25.805389 0.004634
8.670330 25.805389 0.006932
8.985050 25.805389 0.007996
9.299772 25.805389 0.018176
9.614492 25.805389 0.019598
9.929214 25.805389 0.023453
10.243935 25.805389 0.024412
10.558655 25.805389 0.032789
10.873377 25.805389 0.038108
11.188097 25.805389 0.026913
11.502819 25.805389 0.003790
11.817539 25.805389 0.014833
12.132261 25.805389 0.045467
12.446981 25.805389 0.058161
12.761703 25.805389 0.075916
13.076424 25.805389 0.058245
13.391144 25.805389 0.036019
13.705866 25.805389 0.046851
14.020586 25.805389 0.042710
14.335308 25.805389 0.042170
14.650028 25.805389 0.026245
14.964750 25.805389 0.030561
15.279470 25.805389 0.010131
15.594193 25.805389 -0.034537
15.908913 25.805389 -0.052352
16.223633 25.805389 0.000000
16.538355 25.805389 0.000000
16.853075 25.805389 0.000000
17.167797 25.805389 0.000000
17.482517 25.805389 0.000000
17.797239 25.805389 0.000000
18.111959 25.805389 0.000000
18.426680 25.805389 0.000000
18.741402 25.805389 0.000000
-7.065720 25.490669 0.000000
-6.750999 25.490669 0.001787
-6.436278 25.490669 0.001286
-6.121557 25.490669 0.001103
-5.806836 25.490669 0.001020
-5.492115 25.490669 0.000960
-5.177394 25.490669 0.000809
-4.862673 25.490669 0.000679
-4.547952 25.490669 0.000525
-4.233231 25.490669 0.000339
-3.918510 25.490669 0.000299
-3.603789 25.490669 0.000314
-3.289068 25.490669 0.000236
-2.974347 25.490669 0.000152
-2.659626 25.490669 0.000238
-2.344905 25.490669 0.000362
-2.030184 25.490669 0.000533
-1.715463 25.490669 0.000682
-1.400742 25.490669 0.000733
-1.086021 25.490669 0.000821
-0.771300 25.490669 0.000705
-0.456579 25.490669 0.000661
-0.141859 25.490669 0.000534
0.172863 25.490669 0.000456
0.487584 25.490669 0.000455
0.802305 25.490669 0.000386
1.117026 25.490669 0.000303
1.431747 25.490669 0.000211
1.746467 25.490669 0.000120
2.061188 25.490669 0.000131
2.375909 25.490669 0.000166
2.690630 25.490669 0.000259
3.005352 25.490669 0.000368
3.320073 25.490669 0.000393
3.634794 25.490669 0.000421
3.949515 25.490669 0.000509
4.264236 25.490669 0.000528
4.578956 25.490669 0.000454
4.893677 25.490669 0.000371
5.208398 25.490669 0.000363
5.523119 25.490669 0.000404
5.837841 25.490669 0.000195
6.152562 25.490669 0.000338
6.467283 25.490669 0.000197
6.782003 25.490669 0.000396
7.096724 25.490669 0.001443
7.411445 25.490669 0.002416
7.726166 25.490669 0.003584
8.040888 25.490669 0.002784
8.355608 25.490669 0.006119
8.670330 25.490669 0.009886
8.985050 25.490669 0.011454
9.299772 25.490669 0.015477
9.614492 25.490669 0.018801
9.929214 25.490669 0.020472
10.243935 25.490669 0.029360
10.558655 25.490669 0.035642
10.873377 25.490669 0.042251
11.188097 25.490669 0.021049
11.502819 25.490669 0.011453
11.817539 25.490669 0.023978
12.132261 25.490669 0.052423
12.446981 25.490669 0.062578
12.761703 25.490669 0.062792
13.076424 25.490669 0.065997
13.391144 25.490669 0.039806
13.705866 25.490669 0.047865
14.020586 25.490669 0.040386
14.335308 25.490669 0.038210
14.650028 25.490669 0.033510
14.964750 25.490669 0.016910
15.279470 25.490669 -0.010814
15.594193 25.490669 -0.050719
15.908913 25.490669 -0.054120
16.223633 25.490669 0.000000
16.538355 25.490669 0.000000
16.853075 25.490669 0.000000
17.167797 25.490669 0.000000
17.482517 25.490669 0.000000
17.797239 25.490669 0.000000
18.111959 25.490669 0.000000
18.426680 25.490669 0.000000
18.741402 25.490669 0.000000
-7.065720 25.175949 0.000000
-6.750999 25.175949 0.001866
-6.436278 25.175949 0.001332
-6.121557 25.175949 0.001100
-5.806836 25.175949 0.000878
-5.492115 25.175949 0.000691
-5.177394 25.175949 0.000545
-4.862673 25.175949 0.000443
-4.547952 25.175949 0.000322
-4.233231 25.175949 0.000197
-3.918510 25.175949 0.000211
-3.603789 25.175949 0.000312
-3.289068 25.175949 0.000367
-2.974347 25.175949 0.000406
-2.659626 25.175949 0.000467
-2.344905 25.175949 0.000536
-2.030184 25.175949 0.000709
-1.715463 25.175949 0.000863
-1.400742 25.175949 0.000797
-1.086021 25.175949 0.000759
-0.771300 25.175949 0.000640
-0.456579 25.175949 0.000556
-0.141859 25.175949 0.000410
0.172863 25.175949 0.000349
0.487584 25.175949 0.000367
0.802305 25.175949 0.000315
1.117026 25.175949 0.000241
1.431747 25.175949 0.000214
1.746467 25.175949 0.000163
2.061188 25.175949 0.000194
2.375909 25.175949 0.000247
2.690630 25.175949 0.000330
3.005352 25.175949 0.000438
3.320073 25.175949 0.000414
3.634794 25.175949 0.000370
3.949515 25.175949 0.000398
4.264236 25.175949 0.000383
4.578956 25.175949 0.000284
4.893677 25.175949 0.000318
5.208398 25.175949 0.000343
5.523119 25.175949 0.000382
5.837841 25.175949 0.000273
6.152562 25.175949 0.000096
6.467283 25.175949 0.000130
6.782003 25.175949 0.000349
7.096724 25.175949 0.001197
7.411445 25.175949 0.002171
7.726166 25.175949 0.003600
8.040888 25.175949 0.005364
8.355608 25.175949 0.010034
8.670330 25.175949 0.013733
8.985050 25.175949 0.015343
9.299772 25.175949 0.012210
9.614492 25.175949 0.015987
9.929214 25.175949 0.022787
10.243935 25.175949 0.030331
10.558655 25.175949 0.044512
10.873377 25.175949 0.036467
11.188097 25.175949 0.029279
11.502819 25.175949 0.008867
11.817539 25.175949 0.020253
12.132261 25.175949 0.051700
12.446981 25.175949 0.057548
12.761703 25.175949 0.052411
13.076424 25.175949 0.065620
13.391144 25.175949 0.038713
13.705866 25.175949 0.038630
14.020586 25.175949 0.022370
14.335308 25.175949 0.031437
14.650028 25.175949 0.015453
14.964750 25.175949 0.003110
15.279470 25.175949 -0.013257
15.594193 25.175949 -0.030495
15.908913 25.175949 -0.073375
16.223633 25.175949 0.000000
16.538355 25.175949 0.000000
16.853075 25.175949 0.000000
17.167797 25.175949 0.000000
17.482517 25.175949 0.000000
17.797239 25.175949 0.000000
18.111959 25.175949 0.000000
18.426680 25.175949 0.000000
18.741402 25.175949 0.000000
-7.065720 24.861227 0.000000
-6.750999 24.861227 0.001766
-6.436278 24.861227 0.001242
-6.121557 24.861227 0.000998
-5.806836 24.861227 0.000680
-5.492115 24.861227 0.000391
-5.177394 24.861227 0.000258
-4.862673 24.861227 0.000215
-4.547952 24.861227 0.000251
-4.233231 24.861227 0.000241
-3.918510 24.861227 0.000295
-3.603789 24.861227 0.000410
-3.289068 24.861227 0.000545
-2.974347 24.861227 0.000652
-2.659626 24.861227 0.000621
-2.344905 24.861227 0.000663
-2.030184 24.861227 0.000784
-1.715463 24.861227 0.000880
-1.400742 24.861227 0.000745
-1.086021 24.861227 0.000618
-0.771300 24.861227 0.000526
-0.456579 24.861227 0.000472
-0.141859 24.861227 0.000321
0.172863 24.861227 0.000273
0.487584 24.861227 0.000292
0.802305 24.861227 0.000280
1.117026 24.861227 0.000269
1.431747 24.861227 0.000298
1.746467 24.861227 0.000289
2.061188 24.861227 0.000311
2.375909 24.861227 0.000361
2.690630 24.861227 0.000381
3.005352 24.861227 0.000450
3.320073 24.861227 0.000392
3.634794 24.861227 0.000313
3.949515 24.861227 0.000264
4.264236 24.861227 0.000148
4.578956 24.861227 0.000126
4.893677 24.861227 0.000226
5.208398 24.861227 0.000228
5.523119 24.861227 0.000264
5.837841 24.861227 0.000128
6.152562 24.861227 -0.000039
6.467283 24.861227 0.000075
6.782003 24.861227 0.000297
7.096724 24.861227 0.000616
7.411445 24.861227 0.002189
7.726166 24.861227 0.003766
8.040888 24.861227 0.005537
8.355608 24.861227 0.010648
8.670330 24.861227 0.016059
8.985050 24.861227 0.015164
9.299772 24.861227 0.015214
9.614492 24.861227 0.014598
9.929214 24.861227 0.020689
10.243935 24.861227 0.032158
10.558655 24.861227 0.044701
10.873377 24.861227 0.030647
11.188097 24.861227 0.017852
11.502819 24.861227 0.015801
11.817539 24.861227 0.021603
12.132261 24.861227 0.045290
12.446981 24.861227 0.039996
12.761703 24.861227 0.033143
13.076424 24.861227 0.051629
13.391144 24.861227 0.027643
13.705866 24.861227 0.027427
14.020586 24.861227 0.017066
14.335308 24.861227 0.022967
14.650028 24.861227 0.022586
14.964750 24.861227 0.001793
15.279470 24.861227 -0.010068
15.594193 24.861227 -0.044665
15.908913 24.861227 -0.079215
16.223633 24.861227 0.000000
16.538355 24.861227 0.000000
16.853075 24.861227 0.000000
17.167797 24.861227 0.000000
17.482517 24.861227 0.000000
17.797239 24.861227 0.000000
18.111959 24.861227 0.000000
18.426680 24.861227 0.000000
18.741402 24.861227 0.000000
-7.065720 24.546507 0.000000
-6.750999 24.546507 0.001558
-6.436278 24.546507 0.001013
-6.121557 24.546507 0.000773
-5.806836 24.546507 0.000536
-5.492115 24.546507 0.000322
-5.177394 24.546507 0.000183
-4.862673 24.546507 0.000176
-4.547952 24.546507 0.000288
-4.233231 24.546507 0.000483
-3.918510 24.546507 0.000549
-3.603789 24.546507 0.000660
-3.289068 24.546507 0.000784
-2.974347 24.546507 0.000799
-2.659626 24.546507 0.000706
-2.344905 24.546507 0.000707
-2.030184 24.546507 0.000716
-1.715463 24.546507 0.000704
-1.400742 24.546507 0.000604
-1.086021 24.546507 0.000467
-0.771300 24.546507 0.000428
-0.456579 24.546507 0.000444
-0.141859 24.546507 0.000329
0.172863 24.546507 0.000304
0.487584 24.546507 0.000277
0.802305 24.546507 0.000331
1.117026 24.546507 0.000383
1.431747 24.546507 0.000422
1.746467 24.546507 0.000450
2.061188 24.546507 0.000443
2.375909 24.546507 0.000454
2.690630 24.546507 0.000411
3.005352 24.546507 0.000413
3.320073 24.546507 0.000370
3.634794 24.546507 0.000220
3.949515 24.546507 0.000083
4.264236 24.546507 -0.000057
4.578956 24.546507 -0.000009
4.893677 24.546507 0.000081
5.208398 24.546507 0.000047
5.523119 24.546507 0.000009
5.837841 24.546507 -0.000026
6.152562 24.546507 -0.000251
6.467283 24.546507 -0.000076
6.782003 24.546507 0.000441
7.096724 24.546507 0.000497
7.411445 24.546507 0.002382
7.726166 24.546507 0.003658
8.040888 24.546507 0.005708
8.355608 24.546507 0.011311
8.670330 24.546507 0.014980
8.985050 24.546507 0.017607
9.299772 24.546507 0.020809
9.614492 24.546507 0.017139
9.929214 24.546507 0.018567
10.243935 24.546507 0.031981
10.558655 24.546507 0.040070
10.873377 24.546507 0.026417
11.188097 24.546507 0.018287
11.502819 24.546507 0.002895
11.817539 24.546507 0.026779
12.132261 24.546507 0.035871
12.446981 24.546507 0.042996
12.761703 24.546507 0.027589
13.076424 24.546507 0.051890
13.391144 24.546507 0.030264
13.705866 24.546507 0.022433
14.020586 24.546507 0.025892
14.335308 24.546507 0.033912
14.650028 24.546507 0.024581
14.964750 24.546507 0.018808
15.279470 24.546507 0.016850
15.594193 24.546507 -0.035374
15.908913 24.546507 -0.061992
16.223633 24.546507 0.000000
16.538355 24.546507 0.000000
16.853075 24.546507 0.000000
17.167797 24.546507 0.000000
17.482517 24.546507 0.000000
17.797239 24.546507 0.000000
18.111959 24.546507 0.000000
18.426680 24.546507 0.000000
18.741402 24.546507 0.000000
-7.065720 24.231785 0.000000
-6.750999 24.231785 0.001406
-6.436278 24.231785 0.000780
-6.121557 24.231785 0.000530
-5.806836 24.231785 0.000504
-5.492115 24.231785 0.000468
-5.177394 24.231785 0.000389
-4.862673 24.231785 0.000388
-4.547952 24.231785 0.000480
-4.233231 24.231785 0.000733
-3.918510 24.231785 0.000881
-3.603789 24.231785 0.000919
-3.289068 24.231785 0.000914
-2.974347 24.231785 0.000840
-2.659626 24.231785 0.000753
-2.344905 24.231785 0.000675
-2.030184 24.231785 0.000543
-1.715463 24.231785 0.000450
-1.400742 24.231785 0.000420
-1.086021 24.231785 0.000347
-0.771300 24.231785 0.000354
-0.456579 24.231785 0.000430
-0.141859 24.231785 0.000384
0.172863 24.231785 0.000402
0.487584 24.231785 0.000377
0.802305 24.231785 0.000472
1.117026 24.231785 0.000537
1.431747 24.231785 0.000538
1.746467 24.231785 0.000562
2.061188 24.231785 0.000517
2.375909 24.231785 0.000516
2.690630 24.231785 0.000405
3.005352 24.231785 0.000351
3.320073 24.231785 0.000300
3.634794 24.231785 0.000140
3.949515 24.231785 -0.000046
4.264236 24.231785 -0.000177
4.578956 24.231785 -0.000122
4.893677 24.231785 -0.000138
5.208398 24.231785 -0.000221
5.523119 24.231785 -0.000146
5.837841 24.231785 -0.000094
6.152562 24.231785 -0.000223
6.467283 24.231785 -0.000047
6.782003 24.231785 0.000437
7.096724 24.231785 0.001763
7.411445 24.231785 0.002851
7.726166 24.231785 0.005626
8.040888 24.231785 0.007540
8.355608 24.231785 0.011175
8.670330 24.231785 0.012534
8.985050 24.231785 0.015190
9.299772 24.231785 0.019803
9.614492 24.231785 0.018363
9.929214 24.231785 0.021256
10.243935 24.231785 0.028140
10.558655 24.231785 0.034732
10.873377 24.231785 0.032411
11.188097 24.231785 0.022970
11.502819 24.231785 0.010969
11.817539 24.231785 0.021928
12.132261 24.231785 0.033159
12.446981 24.231785 0.044348
12.761703 24.231785 0.035881
13.076424 24.231785 0.038963
13.391144 24.231785 0.028918
13.705866 24.231785 0.026624
14.020586 24.231785 0.038114
14.335308 24.231785 0.035065
14.650028 24.231785 0.031903
14.964750 24.231785 0.030946
15.279470 24.231785 0.030280
15.594193 24.231785 -0.016912
15.908913 24.231785 -0.059077
16.223633 24.231785 0.000000
16.538355 24.231785 0.000000
16.853075 24.231785 0.000000
17.167797 24.231785 0.000000
17.482517 24.231785 0.000000
17.797239 24.231785 0.000000
18.111959 24.231785 0.000000
18.426680 24.231785 0.000000
18.741402 24.231785 0.000000
-7.065720 23.917065 0.000000
-6.750999 23.917065 0.001257
-6.436278 23.917065 0.000619
-6.121557 23.917065 0.000430
-5.806836 23.917065 0.000552
-5.492115 23.917065 0.000696
-5.177394 23.917065 0.000721
-4.862673 23.917065 0.000713
-4.547952 23.917065 0.000731
-4.233231 23.917065 0.000964
-3.918510 23.917065 0.001085
-3.603789 23.917065 0.001024
-3.289068 23.917065 0.000876
-2.974347 23.917065 0.000757
-2.659626 23.917065 0.000711
-2.344905 23.917065 0.000592
-2.030184 23.917065 0.000395
-1.715463 23.917065 0.000278
-1.400742 23.917065 0.000311
-1.086021 23.917065 0.000276
-0.771300 23.917065 0.000310
-0.456579 23.917065 0.000475
-0.141859 23.917065 0.000468
0.172863 23.917065 0.000500
0.487584 23.917065 0.000488
0.802305 23.917065 0.000614
1.117026 23.917065 0.000659
1.431747 23.917065 0.000621
1.746467 23.917065 0.000629
2.061188 23.917065 0.000536
2.375909 23.917065 0.000522
2.690630 23.917065 0.000384
3.005352 23.917065 0.000305
3.320073 23.917065 0.000276
3.634794 23.917065 0.000143
3.949515 23.917065 -0.000062
4.264236 23.917065 -0.000213
4.578956 23.917065 -0.000210
4.893677 23.917065 -0.000315
5.208398 23.917065 -0.000343
5.523119 23.917065 -0.000200
5.837841 23.917065 -0.000102
6.152562 23.917065 -0.000071
6.467283 23.917065 0.000163
6.782003 23.917065 0.000861
7.096724 23.917065 0.002219
7.411445 23.917065 0.003201
7.726166 23.917065 0.005410
8.040888 23.917065 0.006048
8.355608 23.917065 0.008693
8.670330 23.917065 0.011552
8.985050 23.917065 0.010959
9.299772 23.917065 0.013431
9.614492 23.917065 0.014062
9.929214 23.917065 0.020042
10.243935 23.917065 0.024115
10.558655 23.917065 0.034235
10.873377 23.917065 0.033907
11.188097 23.917065 0.029772
11.502819 23.917065 0.022625
11.817539 23.917065 0.015162
12.132261 23.917065 0.034506
12.446981 23.917065 0.043551
12.761703 23.917065 0.027274
13.076424 23.917065 0.035040
13.391144 23.917065 0.042654
13.705866 23.917065 0.046202
14.020586 23.917065 0.036381
14.335308 23.917065 0.016167
14.650028 23.917065 0.017993
14.964750 23.917065 0.030162
15.279470 23.917065 0.047641
15.594193 23.917065 0.006200
15.908913 23.917065 -0.040140
16.223633 23.917065 0.000000
16.538355 23.917065 0.000000
16.853075 23.917065 0.000000
17.167797 23.917065 0.000000
17.482517 23.917065 0.000000
17.797239 23.917065 0.000000
18.111959 23.917065 0.000000
18.426680 23.917065 0.000000
18.741402 23.917065 0.000000
-7.065720 23.602343 0.000000
-6.750999 23.602343 0.001159
-6.436278 23.602343 0.000551
-6.121557 23.602343 0.000513
-5.806836 23.602343 0.000697
-5.492115 23.602343 0.000891
-5.177394 23.602343 0.000974
-4.862673 23.602343 0.000945
-4.547952 23.602343 0.000881
-4.233231 23.602343 0.001034
-3.918510 23.602343 0.001030
-3.603789 23.602343 0.000887
-3.289068 23.602343 0.000740
-2.974347 23.602343 0.000620
-2.659626 23.602343 0.000569
-2.344905 23.602343 0.000475
-2.030184 23.602343 0.000340
-1.715463 23.602343 0.000262
-1.400742 23.602343 0.000308
-1.086021 23.602343 0.000301
-0.771300 23.602343 0.000348
-0.456579 23.602343 0.000554
-0.141859 23.602343 0.000554
0.172863 23.602343 0.000558
0.487584 23.602343 0.000571
0.802305 23.602343 0.000665
1.117026 23.602343 0.000675
1.431747 23.602343 0.000648
1.746467 23.602343 0.000605
2.061188 23.602343 0.000513
2.375909 23.602343 0.000458
2.690630 23.602343 0.000414
3.005352 23.602343 0.000322
3.320073 23.602343 0.000284
3.634794 23.602343 0.000187
3.949515 23.602343 0.000004
4.264236 23.602343 -0.000143
4.578956 23.602343 -0.000263
4.893677 23.602343 -0.000403
5.208398 23.602343 -0.000403
5.523119 23.602343 -0.000082
5.837841 23.602343 0.000035
6.152562 23.602343 0.000089
6.467283 23.602343 0.000440
6.782003 23.602343 0.000919
7.096724 23.602343 0.001898
7.411445 23.602343 0.003972
7.726166 23.602343 0.004224
8.040888 23.602343 0.004487
8.355608 23.602343 0.006038
8.670330 23.602343 0.010443
8.985050 23.602343 0.010239
9.299772 23.602343 0.011436
9.614492 23.602343 0.010601
9.929214 23.602343 0.009952
10.243935 23.602343 0.023948
10.558655 23.602343 0.031676
10.873377 23.602343 0.038021
11.188097 23.602343 0.039573
11.502819 23.602343 0.028490
11.817539 23.602343 0.015711
12.132261 23.602343 0.035927
12.446981 23.602343 0.034732
12.761703 23.602343 0.037408
13.076424 23.602343 0.043081
13.391144 23.602343 0.056925
13.705866 23.602343 0.043489
14.020586 23.602343 0.034206
14.335308 23.602343 0.011059
14.650028 23.602343 0.009635
14.964750 23.602343 0.038133
15.279470 23.602343 0.039963
15.594193 23.602343 0.003681
15.908913 23.602343 -0.079648
16.223633 23.602343 0.000000
16.538355 23.602343 0.000000
16.853075 23.602343 0.000000
17.167797 23.602343 0.000000
17.482517 23.602343 0.000000
17.797239 23.602343 0.000000
18.111959 23.602343 0.000000
18.426680 23.602343 0.000000
18.741402 23.602343 0.000000
-7.065720 23.287622 0.000000
-6.750999 23.287622 0.001139
-6.436278 23.287622 0.000626
-6.121557 23.287622 0.000691
-5.806836 23.287622 0.000830
-5.492115 23.287622 0.000961
-5.177394 23.287622 0.001028
-4.862673 23.287622 0.000949
-4.547952 23.287622 0.000850
-4.233231 23.287622 0.000900
-3.918510 23.287622 0.000824
-3.603789 23.287622 0.000669
-3.289068 23.287622 0.000571
-2.974347 23.287622 0.000513
-2.659626 23.287622 0.000428
-2.344905 23.287622 0.000396
-2.030184 23.287622 0.000383
-1.715463 23.287622 0.000363
-1.400742 23.287622 0.000400
-1.086021 23.287622 0.000392
-0.771300 23.287622 0.000437
-0.456579 23.287622 0.000617
-0.141859 23.287622 0.000618
0.172863 23.287622 0.000586
0.487584 23.287622 0.000548
0.802305 23.287622 0.000587
1.117026 23.287622 0.000594
1.431747 23.287622 0.000588
1.746467 23.287622 0.000552
2.061188 23.287622 0.000471
2.375909 23.287622 0.000375
2.690630 23.287622 0.000379
3.005352 23.287622 0.000319
3.320073 23.287622 0.000287
3.634794 23.287622 0.000240
3.949515 23.287622 0.000138
4.264236 23.287622 -0.000055
4.578956 23.287622 -0.000212
4.893677 23.287622 -0.000328
5.208398 23.287622 -0.000262
5.523119 23.287622 0.000008
5.837841 23.287622 0.000161
6.152562 23.287622 0.000068
6.467283 23.287622 0.000285
6.782003 23.287622 0.000837
7.096724 23.287622 0.001617
7.411445 23.287622 0.003225
7.726166 23.287622 0.002741
8.040888 23.287622 0.002060
8.355608 23.287622 0.004011
8.670330 23.287622 0.007236
8.985050 23.287622 0.010076
9.299772 23.287622 0.015396
9.614492 23.287622 0.012635
9.929214 23.287622 0.014260
10.243935 23.287622 0.020133
10.558655 23.287622 0.035264
10.873377 23.287622 0.029972
11.188097 23.287622 0.036852
11.502819 23.287622 0.028464
11.817539 23.287622 0.039732
12.132261 23.287622 0.041161
12.446981 23.287622 0.050059
12.761703 23.287622 0.041034
13.076424 23.287622 0.044042
13.391144 23.287622 0.056184
13.705866 23.287622 0.032091
14.020586 23.287622 0.022591
14.335308 23.287622 0.009832
14.650028 23.287622 0.016702
14.964750 23.287622 0.048275
15.279470 23.287622 0.050505
15.594193 23.287622 0.016196
15.908913 23.287622 0.024986
16.223633 23.287622 0.000000
16.538355 23.287622 0.000000
16.853075 23.287622 0.000000
17.167797 23.287622 0.000000
17.482517 23.287622 0.000000
17.797239 23.287622 0.000000
18.111959 23.287622 0.000000
18.426680 23.287622 0.000000
18.741402 23.287622 0.000000
-7.065720 22.972902 0.000000
-6.750999 22.972902 0.001219
-6.436278 22.972902 0.000811
-6.121557 22.972902 0.000888
-5.806836 22.972902 0.000903
-5.492115 22.972902 0.000889
-5.177394 22.972902 0.000906
-4.862673 22.972902 0.000794
-4.547952 22.972902 0.000656
-4.233231 22.972902 0.000659
-3.918510 22.972902 0.000612
-3.603789 22.972902 0.000489
-3.289068 22.972902 0.000486
-2.974347 22.972902 0.000493
-2.659626 22.972902 0.000367
-2.344905 22.972902 0.000387
-2.030184 22.972902 0.000477
-1.715463 22.972902 0.000522
-1.400742 22.972902 0.000526
-1.086021 22.972902 0.000483
-0.771300 22.972902 0.000499
-0.456579 22.972902 0.000607
-0.141859 22.972902 0.000607
0.172863 22.972902 0.000578
0.487584 22.972902 0.000494
0.802305 22.972902 0.000503
1.117026 22.972902 0.000520
1.431747 22.972902 0.000492
1.746467 22.972902 0.000467
2.061188 22.972902 0.000421
2.375909 22.972902 0.000298
2.690630 22.972902 0.000280
3.005352 22.972902 0.000297
3.320073 22.972902 0.000266
3.634794 22.972902 0.000280
3.949515 22.972902 0.000215
4.264236 22.972902 0.000045
4.578956 22.972902 -0.000065
4.893677 22.972902 -0.000133
5.208398 22.972902 -0.000020
5.523119 22.972902 0.000113
5.837841 22.972902 0.000196
6.152562 22.972902 0.000102
6.467283 22.972902 -0.000011
6.782003 22.972902 0.000088
7.096724 22.972902 0.000834
7.411445 22.972902 0.001458
7.726166 22.972902 0.002026
8.040888 22.972902 0.003051
8.355608 22.972902 0.003950
8.670330 22.972902 0.007358
8.985050 22.972902 0.008607
9.299772 22.972902 0.013936
9.614492 22.972902 0.018072
9.929214 22.972902 0.022816
10.243935 22.972902 0.030213
10.558655 22.972902 0.032164
10.873377 22.972902 0.026856
11.188097 22.972902 0.021919
11.502819 22.972902 0.023634
11.817539 22.972902 0.039886
12.132261 22.972902 0.043887
12.446981 22.972902 0.050570
12.761703 22.972902 0.049272
13.076424 22.972902 0.034922
13.391144 22.972902 0.052584
13.705866 22.972902 0.030176
14.020586 22.972902 0.026028
14.335308 22.972902 0.018805
14.650028 22.972902 0.031232
14.964750 22.972902 0.045929
15.279470 22.972902 0.060644
15.594193 22.972902 0.029531
15.908913 22.972902 0.024212
16.223633 22.972902 0.000000
16.538355 22.972902 0.000000
16.853075 22.972902 0.000000
17.167797 22.972902 0.000000
17.482517 22.972902 0.000000
17.797239 22.972902 0.000000
18.111959 22.972902 0.000000
18.426680 22.972902 0.000000
18.741402 22.972902 0.000000
-7.065720 22.658180 0.000000
-6.750999 22.658180 0.001372
-6.436278 22.658180 0.000948
-6.121557 22.658180 0.000981
-5.806836 22.658180 0.000919
-5.492115 22.658180 0.000786
-5.177394 22.658180 0.000724
-4.862673 22.658180 0.000607
-4.547952 22.658180 0.000451
-4.233231 22.658180 0.000475
-3.918510 22.658180 0.000495
-3.603789 22.658180 0.000453
-3.289068 22.658180 0.000495
-2.974347 22.658180 0.000530
-2.659626 22.658180 0.000418
-2.344905 22.658180 0.000473
-2.030184 22.658180 0.000558
-1.715463 22.658180 0.000598
-1.400742 22.658180 0.000593
-1.086021 22.658180 0.000534
-0.771300 22.658180 0.000475
-0.456579 22.658180 0.000529
-0.141859 22.658180 0.000574
0.172863 22.658180 0.000542
0.487584 22.658180 0.000460
0.802305 22.658180 0.000454
1.117026 22.658180 0.000438
1.431747 22.658180 0.000377
1.746467 22.658180 0.000348
2.061188 22.658180 0.000366
2.375909 22.658180 0.000249
2.690630 22.658180 0.000206
3.005352 22.658180 0.000223
3.320073 22.658180 0.000286
3.634794 22.658180 0.000368
3.949515 22.658180 0.000325
4.264236 22.658180 0.000191
4.578956 22.658180 0.000168
4.893677 22.658180 0.000091
5.208398 22.658180 0.000195
5.523119 22.658180 0.000158
5.837841 22.658180 0.000184
6.152562 22.658180 0.000213
6.467283 22.658180 -0.000266
6.782003 22.658180 -0.000100
7.096724 22.658180 0.000929
7.411445 22.658180 0.001848
7.726166 22.658180 0.003641
8.040888 22.658180 0.005194
8.355608 22.658180 0.006637
8.670330 22.658180 0.005558
8.985050 22.658180 0.008543
9.299772 22.658180 0.018474
9.614492 22.658180 0.021539
9.929214 22.658180 0.026764
10.243935 22.658180 0.028347
10.558655 22.658180 0.035314
10.873377 22.658180 0.035521
11.188097 22.658180 0.020680
11.502819 22.658180 0.017960
11.817539 22.658180 0.043786
12.132261 22.658180 0.050487
12.446981 22.658180 0.054216
12.761703 22.658180 0.039590
13.076424 22.658180 0.025022
13.391144 22.658180 0.047343
13.705866 22.658180 0.044530
14.020586 22.658180 0.043485
14.335308 22.658180 0.028459
14.650028 22.658180 0.042794
14.964750 22.658180 0.067722
15.279470 22.658180 0.062504
15.594193 22.658180 0.008878
15.908913 22.658180 0.000181
16.223633 22.658180 0.000000
16.538355 22.658180 0.000000
16.853075 22.658180 0.000000
17.167797 22.658180 0.000000
17.482517 22.658180 0.000000
17.797239 22.658180 0.000000
18.111959 22.658180 0.000000
18.426680 22.658180 0.000000
18.741402 22.658180 0.000000
-7.065720 22.343460 0.000000
-6.750999 22.343460 0.001417
-6.436278 22.343460 0.000975
-6.121557 22.343460 0.000917
-5.806836 22.343460 0.000858
-5.492115 22.343460 0.000664
-5.177394 22.343460 0.000578
-4.862673 22.343460 0.000508
-4.547952 22.343460 0.000398
-4.233231 22.343460 0.000437
-3.918510 22.343460 0.000502
-3.603789 22.343460 0.000533
-3.289068 22.343460 0.000564
-2.974347 22.343460 0.000583
-2.659626 22.343460 0.000554
-2.344905 22.343460 0.000596
-2.030184 22.343460 0.000661
-1.715463 22.343460 0.000656
-1.400742 22.343460 0.000615
-1.086021 22.343460 0.000524
-0.771300 22.343460 0.000407
-0.456579 22.343460 0.000419
-0.141859 22.343460 0.000501
0.172863 22.343460 0.000512
0.487584 22.343460 0.000492
0.802305 22.343460 0.000466
1.117026 22.343460 0.000335
1.431747 22.343460 0.000257
1.746467 22.343460 0.000289
2.061188 22.343460 0.000306
2.375909 22.343460 0.000211
2.690630 22.343460 0.000159
3.005352 22.343460 0.000215
3.320073 22.343460 0.000343
3.634794 22.343460 0.000456
3.949515 22.343460 0.000408
4.264236 22.343460 0.000357
4.578956 22.343460 0.000370
4.893677 22.343460 0.000275
5.208398 22.343460 0.000294
5.523119 22.343460 0.000186
5.837841 22.343460 0.000273
6.152562 22.343460 0.000204
6.467283 22.343460 -0.000189
6.782003 22.343460 -0.000019
7.096724 22.343460 0.001034
7.411445 22.343460 0.002615
7.726166 22.343460 0.004888
8.040888 22.343460 0.006240
8.355608 22.343460 0.006715
8.670330 22.343460 0.006128
8.985050 22.343460 0.009807
9.299772 22.343460 0.019485
9.614492 22.343460 0.028243
9.929214 22.343460 0.030602
10.243935 22.343460 0.031246
10.558655 22.343460 0.042780
10.873377 22.343460 0.034617
11.188097 22.343460 0.027918
11.502819 22.343460 0.037766
11.817539 22.343460 0.042753
12.132261 22.343460 0.042344
12.446981 22.343460 0.037346
12.761703 22.343460 0.041004
13.076424 22.343460 0.021470
13.391144 22.343460 0.043814
13.705866 22.343460 0.046977
14.020586 22.343460 0.049314
14.335308 22.343460 0.043674
14.650028 22.343460 0.047669
14.964750 22.343460 0.065634
15.279470 22.343460 0.053209
15.594193 22.343460 0.016368
15.908913 22.343460 -0.009465
16.223633 22.343460 0.000000
16.538355 22.343460 0.000000
16.853075 22.343460 0.000000
17.167797 22.343460 0.000000
17.482517 22.343460 0.000000
17.797239 22.343460 0.000000
18.111959 22.343460 0.000000
18.426680 22.343460 0.000000
18.741402 22.343460 0.000000
-7.065720 22.028738 0.000000
-6.750999 22.028738 0.001309
-6.436278 22.028738 0.000885
-6.121557 22.028738 0.000765
-5.806836 22.028738 0.000711
-5.492115 22.028738 0.000564
-5.177394 22.028738 0.000542
-4.862673 22.028738 0.000504
-4.547952 22.028738 0.000432
-4.233231 22.028738 0.000501
-3.918510 22.028738 0.000569
-3.603789 22.028738 0.000655
-3.289068 22.028738 0.000663
-2.974347 22.028738 0.000645
-2.659626 22.028738 0.000687
-2.344905 22.028738 0.000717
-2.030184 22.028738 0.000753
-1.715463 22.028738 0.000707
-1.400742 22.028738 0.000625
-1.086021 22.028738 0.000489
-0.771300 22.028738 0.000372
-0.456579 22.028738 0.000333
-0.141859 22.028738 0.000376
0.172863 22.028738 0.000458
0.487584 22.028738 0.000501
0.802305 22.028738 0.000462
1.117026 22.028738 0.000249
1.431747 22.028738 0.000198
1.746467 22.028738 0.000286
2.061188 22.028738 0.000332
2.375909 22.028738 0.000227
2.690630 22.028738 0.000181
3.005352 22.028738 0.000273
3.320073 22.028738 0.000447
3.634794 22.028738 0.000515
3.949515 22.028738 0.000430
4.264236 22.028738 0.000439
4.578956 22.028738 0.000453
4.893677 22.028738 0.000279
5.208398 22.028738 0.000244
5.523119 22.028738 0.000297
5.837841 22.028738 0.000251
6.152562 22.028738 0.000258
6.467283 22.028738 0.000099
6.782003 22.028738 0.000441
7.096724 22.028738 0.001602
7.411445 22.028738 0.003864
7.726166 22.028738 0.005306
8.040888 22.028738 0.008234
8.355608 22.028738 0.005967
8.670330 22.028738 0.007672
8.985050 22.028738 0.012328
9.299772 22.028738 0.021169
9.614492 22.028738 0.028867
9.929214 22.028738 0.031433
10.243935 22.028738 0.031515
10.558655 22.028738 0.036979
10.873377 22.028738 0.039255
11.188097 22.028738 0.038132
11.502819 22.028738 0.040832
11.817539 22.028738 0.043058
12.132261 22.028738 0.036815
12.446981 22.028738 0.045448
12.761703 22.028738 0.039474
13.076424 22.028738 0.042742
13.391144 22.028738 0.040640
13.705866 22.028738 0.049459
14.020586 22.028738 0.048297
14.335308 22.028738 0.036937
14.650028 22.028738 0.040013
14.964750 22.028738 0.055325
15.279470 22.028738 0.063430
15.594193 22.028738 0.028240
15.908913 22.028738 0.046989
16.223633 22.028738 0.000000
16.538355 22.028738 0.000000
16.853075 22.028738 0.000000
17.167797 22.028738 0.000000
17.482517 22.028738 0.000000
17.797239 22.028738 0.000000
18.111959 22.028738 0.000000
18.426680 22.028738 0.000000
18.741402 22.028738 0.000000
-7.065720 21.714018 0.000000
-6.750999 21.714018 0.001182
-6.436278 21.714018 0.000763
-6.121557 21.714018 0.000644
-5.806836 21.714018 0.000601
-5.492115 21.714018 0.000556
-5.177394 21.714018 0.000613
-4.862673 21.714018 0.000646
-4.547952 21.714018 0.000560
-4.233231 21.714018 0.000616
-3.918510 21.714018 0.000623
-3.603789 21.714018 0.000725
-3.289068 21.714018 0.000750
-2.974347 21.714018 0.000688
-2.659626 21.714018 0.000706
-2.344905 21.714018 0.000723
-2.030184 21.714018 0.000772
-1.715463 21.714018 0.000715
-1.400742 21.714018 0.000595
-1.086021 21.714018 0.000417
-0.771300 21.714018 0.000364
-0.456579 21.714018 0.000288
-0.141859 21.714018 0.000255
0.172863 21.714018 0.000393
0.487584 21.714018 0.000478
0.802305 21.714018 0.000419
1.117026 21.714018 0.000243
1.431747 21.714018 0.000219
1.746467 21.714018 0.000323
2.061188 21.714018 0.000369
2.375909 21.714018 0.000284
2.690630 21.714018 0.000281
3.005352 21.714018 0.000351
3.320073 21.714018 0.000508
3.634794 21.714018 0.000508
3.949515 21.714018 0.000404
4.264236 21.714018 0.000403
4.578956 21.714018 0.000376
4.893677 21.714018 0.000239
5.208398 21.714018 0.000235
5.523119 21.714018 0.000234
5.837841 21.714018 0.000383
6.152562 21.714018 0.000753
6.467283 21.714018 0.000636
6.782003 21.714018 0.000995
7.096724 21.714018 0.002438
7.411445 21.714018 0.003929
7.726166 21.714018 0.005778
8.040888 21.714018 0.006530
8.355608 21.714018 0.007009
8.670330 21.714018 0.010002
8.985050 21.714018 0.012335
9.299772 21.714018 0.024627
9.614492 21.714018 0.030019
9.929214 21.714018 0.029896
10.243935 21.714018 0.032937
10.558655 21.714018 0.033973
10.873377 21.714018 0.044733
11.188097 21.714018 0.043525
11.502819 21.714018 0.039967
11.817539 21.714018 0.037548
12.132261 21.714018 0.039723
12.446981 21.714018 0.045273
12.761703 21.714018 0.048539
13.076424 21.714018 0.046067
13.391144 21.714018 0.031333
13.705866 21.714018 0.045096
14.020586 21.714018 0.064814
14.335308 21.714018 0.036886
14.650028 21.714018 0.028934
14.964750 21.714018 0.049774
15.279470 21.714018 0.055940
15.594193 21.714018 0.034850
15.908913 21.714018 0.086578
16.223633 21.714018 0.000000
16.538355 21.714018 0.000000
16.853075 21.714018 0.000000
17.167797 21.714018 0.000000
17.482517 21.714018 0.000000
17.797239 21.714018 0.000000
18.111959 21.714018 0.000000
18.426680 21.714018 0.000000
18.741402 21.714018 0.000000
-7.065720 21.399296 0.000000
-6.750999 21.399296 0.001152
-6.436278 21.399296 0.000747
-6.121557 21.399296 0.000671
-5.806836 21.399296 0.000640
-5.492115 21.399296 0.000693
-5.177394 21.399296 0.000783
-4.862673 21.399296 0.000788
-4.547952 21.399296 0.000694
-4.233231 21.399296 0.000702
-3.918510 21.399296 0.000654
-3.603789 21.399296 0.000727
-3.289068 21.399296 0.000771
-2.974347 21.399296 0.000676
-2.659626 21.399296 0.000629
-2.344905 21.399296 0.000625
-2.030184 21.399296 0.000685
-1.715463 21.399296 0.000682
-1.400742 21.399296 0.000564
-1.086021 21.399296 0.000374
-0.771300 21.399296 0.000372
-0.456579 21.399296 0.000276
-0.141859 21.399296 0.000221
0.172863 21.399296 0.000364
0.487584 21.399296 0.000452
0.802305 21.399296 0.000415
1.117026 21.399296 0.000285
1.431747 21.399296 0.000280
1.746467 21.399296 0.000367
2.061188 21.399296 0.000384
2.375909 21.399296 0.000340
2.690630 21.399296 0.000354
3.005352 21.399296 0.000396
3.320073 21.399296 0.000445
3.634794 21.399296 0.000367
3.949515 21.399296 0.000277
4.264236 21.399296 0.000294
4.578956 21.399296 0.000280
4.893677 21.399296 0.000233
5.208398 21.399296 0.000307
5.523119 21.399296 0.000310
5.837841 21.399296 0.000538
6.152562 21.399296 0.000859
6.467283 21.399296 0.001088
6.782003 21.399296 0.001455
7.096724 21.399296 0.002441
7.411445 21.399296 0.005287
7.726166 21.399296 0.005543
8.040888 21.399296 0.006779
8.355608 21.399296 0.006953
8.670330 21.399296 0.008565
8.985050 21.399296 0.017138
9.299772 21.399296 0.022332
9.614492 21.399296 0.028914
9.929214 21.399296 0.032136
10.243935 21.399296 0.025221
10.558655 21.399296 0.036910
10.873377 21.399296 0.040560
11.188097 21.399296 0.044403
11.502819 21.399296 0.040770
11.817539 21.399296 0.039666
12.132261 21.399296 0.029334
12.446981 21.399296 0.044452
12.761703 21.399296 0.057748
13.076424 21.399296 0.053278
13.391144 21.399296 0.039581
13.705866 21.399296 0.056977
14.020586 21.399296 0.060476
14.335308 21.399296 0.043669
14.650028 21.399296 0.028001
14.964750 21.399296 0.041182
15.279470 21.399296 0.047220
15.594193 21.399296 0.051425
15.908913 21.399296 0.058923
16.223633 21.399296 0.000000
16.538355 21.399296 0.000000
16.853075 21.399296 0.000000
17.167797 21.399296 0.000000
17.482517 21.399296 0.000000
17.797239 21.399296 0.000000
18.111959 21.399296 0.000000
18.426680 21.399296 0.000000
18.741402 21.399296 0.000000
-7.065720 21.084576 0.000000
-6.750999 21.084576 0.001229
-6.436278 21.084576 0.000827
-6.121557 21.084576 0.000788
-5.806836 21.084576 0.000787
-5.492115 21.084576 0.000875
-5.177394 21.084576 0.000914
-4.862673 21.084576 0.000848
-4.547952 21.084576 0.000783
-4.233231 21.084576 0.000746
-3.918510 21.084576 0.000680
-3.603789 21.084576 0.000676
-3.289068 21.084576 0.000727
-2.974347 21.084576 0.000634
-2.659626 21.084576 0.000517
-2.344905 21.084576 0.000499
-2.030184 21.084576 0.000588
-1.715463 21.084576 0.000668
-1.400742 21.084576 0.000546
-1.086021 21.084576 0.000361
-0.771300 21.084576 0.000387
-0.456579 21.084576 0.000311
-0.141859 21.084576 0.000286
0.172863 21.084576 0.000428
0.487584 21.084576 0.000453
0.802305 21.084576 0.000430
1.117026 21.084576 0.000379
1.431747 21.084576 0.000366
1.746467 21.084576 0.000383
2.061188 21.084576 0.000353
2.375909 21.084576 0.000325
2.690630 21.084576 0.000339
3.005352 21.084576 0.000318
3.320073 21.084576 0.000271
3.634794 21.084576 0.000158
3.949515 21.084576 0.000089
4.264236 21.084576 0.000161
4.578956 21.084576 0.000216
4.893677 21.084576 0.000246
5.208398 21.084576 0.000340
5.523119 21.084576 0.000321
5.837841 21.084576 0.000442
6.152562 21.084576 0.000784
6.467283 21.084576 0.001013
6.782003 21.084576 0.000791
7.096724 21.084576 0.002136
7.411445 21.084576 0.004416
7.726166 21.084576 0.005257
8.040888 21.084576 0.005790
8.355608 21.084576 0.007371
8.670330 21.084576 0.008542
8.985050 21.084576 0.018403
9.299772 21.084576 0.025574
9.614492 21.084576 0.024063
9.929214 21.084576 0.025803
10.243935 21.084576 0.024149
10.558655 21.084576 0.025950
10.873377 21.084576 0.037406
11.188097 21.084576 0.037185
11.502819 21.084576 0.033176
11.817539 21.084576 0.026254
12.132261 21.084576 0.018623
12.446981 21.084576 0.031384
12.761703 21.084576 0.058680
13.076424 21.084576 0.046756
13.391144 21.084576 0.031435
13.705866 21.084576 0.052939
14.020586 21.084576 0.055908
14.335308 21.084576 0.039592
14.650028 21.084576 0.035712
14.964750 21.084576 0.050818
15.279470 21.084576 0.073282
15.594193 21.084576 0.043463
15.908913 21.084576 0.042034
16.223633 21.084576 0.000000
16.538355 21.084576 0.000000
16.853075 21.084576 0.000000
17.167797 21.084576 0.000000
17.482517 21.084576 0.000000
17.797239 21.084576 0.000000
18.111959 21.084576 0.000000
18.426680 21.084576 0.000000
18.741402 21.084576 0.000000
-7.065720 20.769855 0.000000
-6.750999 20.769855 0.001349
-6.436278 20.769855 0.000956
-6.121557 20.769855 0.000929
-5.806836 20.769855 0.000893
-5.492115 20.769855 0.000914
-5.177394 20.769855 0.000884
-4.862673 20.769855 0.000836
-4.547952 20.769855 0.000768
-4.233231 20.769855 0.000707
-3.918510 20.769855 0.000644
-3.603789 20.769855 0.000608
-3.289068 20.769855 0.000675
-2.974347 20.769855 0.000628
-2.659626 20.769855 0.000459
-2.344905 20.769855 0.000418
-2.030184 20.769855 0.000510
-1.715463 20.769855 0.000608
-1.400742 20.769855 0.000529
-1.086021 20.769855 0.000403
-0.771300 20.769855 0.000430
-0.456579 20.769855 0.000347
-0.141859 20.769855 0.000375
0.172863 20.769855 0.000477
0.487584 20.769855 0.000461
0.802305 20.769855 0.000482
1.117026 20.769855 0.000476
1.431747 20.769855 0.000431
1.746467 20.769855 0.000359
2.061188 20.769855 0.000282
2.375909 20.769855 0.000262
2.690630 20.769855 0.000248
3.005352 20.769855 0.000196
3.320073 20.769855 0.000125
3.634794 20.769855 0.000007
3.949515 20.769855 0.000023
4.264236 20.769855 0.000142
4.578956 20.769855 0.000232
4.893677 20.769855 0.000322
5.208398 20.769855 0.000330
5.523119 20.769855 0.000308
5.837841 20.769855 0.000330
6.152562 20.769855 0.000423
6.467283 20.769855 0.000554
6.782003 20.769855 0.000537
7.096724 20.769855 0.001206
7.411445 20.769855 0.003513
7.726166 20.769855 0.004017
8.040888 20.769855 0.006892
8.355608 20.769855 0.009237
8.670330 20.769855 0.009693
8.985050 20.769855 0.019341
9.299772 20.769855 0.022824
9.614492 20.769855 0.024622
9.929214 20.769855 0.023709
10.243935 20.769855 0.018273
10.558655 20.769855 0.024079
10.873377 20.769855 0.039387
11.188097 20.769855 0.041243
11.502819 20.769855 0.037256
11.817539 20.769855 0.027237
12.132261 20.769855 0.024745
12.446981 20.769855 0.028610
12.761703 20.769855 0.058580
13.076424 20.769855 0.041406
13.391144 20.769855 0.037238
13.705866 20.769855 0.048977
14.020586 20.769855 0.035997
14.335308 20.769855 0.045011
14.650028 20.769855 0.038450
14.964750 20.769855 0.059314
15.279470 20.769855 0.066825
15.594193 20.769855 0.061745
15.908913 20.769855 0.000000
16.223633 20.769855 0.000000
16.538355 20.769855 0.000000
16.853075 20.769855 0.000000
17.167797 20.769855 0.000000
17.482517 20.769855 0.000000
17.797239 20.769855 0.000000
18.111959 20.769855 0.000000
18.426680 20.769855 0.000000
18.741402 20.769855 0.000000
-7.065720 20.455133 0.000000
-6.750999 20.455133 0.001466
-6.436278 20.455133 0.001051
-6.121557 20.455133 0.000974
-5.806836 20.455133 0.000915
-5.492115 20.455133 0.000874
-5.177394 20.455133 0.000804
-4.862673 20.455133 0.000773
-4.547952 20.455133 0.000722
-4.233231 20.455133 0.000629
-3.918510 20.455133 0.000577
-3.603789 20.455133 0.000554
-3.289068 20.455133 0.000652
-2.974347 20.455133 0.000660
-2.659626 20.455133 0.000485
-2.344905 20.455133 0.000390
-2.030184 20.455133 0.000452
-1.715463 20.455133 0.000526
-1.400742 20.455133 0.000503
-1.086021 20.455133 0.000451
-0.771300 20.455133 0.000486
-0.456579 20.455133 0.000431
-0.141859 20.455133 0.000463
0.172863 20.455133 0.000480
0.487584 20.455133 0.000478
0.802305 20.455133 0.000541
1.117026 20.455133 0.000531
1.431747 20.455133 0.000429
1.746467 20.455133 0.000289
2.061188 20.455133 0.000192
2.375909 20.455133 0.000174
2.690630 20.455133 0.000105
3.005352 20.455133 0.000076
3.320073 20.455133 0.000072
3.634794 20.455133 0.000031
3.949515 20.455133 0.000096
4.264236 20.455133 0.000218
4.578956 20.455133 0.000266
4.893677 20.455133 0.000322
5.208398 20.455133 0.000290
5.523119 20.455133 0.000213
5.837841 20.455133 0.000165
6.152562 20.455133 0.000245
6.467283 20.455133 0.000488
6.782003 20.455133 0.001047
7.096724 20.455133 0.001646
7.411445 20.455133 0.002254
7.726166 20.455133 0.003789
8.040888 20.455133 0.005865
8.355608 20.455133 0.008740
8.670330 20.455133 0.012245
8.985050 20.455133 0.015991
9.299772 20.455133 0.023060
9.614492 20.455133 0.021812
9.929214 20.455133 0.024842
10.243935 20.455133 0.023579
10.558655 20.455133 0.028388
10.873377 20.455133 0.041896
11.188097 20.455133 0.055040
11.502819 20.455133 0.040759
11.817539 20.455133 0.035956
12.132261 20.455133 0.039566
12.446981 20.455133 0.030367
12.761703 20.455133 0.042829
13.076424 20.455133 0.043256
13.391144 20.455133 0.048377
13.705866 20.455133 0.045682
14.020586 20.455133 0.039049
14.335308 20.455133 0.043504
14.650028 20.455133 0.044077
14.964750 20.455133 0.056887
15.279470 20.455133 0.071286
15.594193 20.455133 0.053330
15.908913 20.455133 0.000000
16.223633 20.455133 0.000000
16.538355 20.455133 0.000000
16.853075 20.455133 0.000000
17.167797 20.455133 0.000000
17.482517 20.455133 0.000000
17.797239 20.455133 0.000000
18.111959 20.455133 0.000000
18.426680 20.455133 0.000000
18.741402 20.455133 0.000000
-7.065720 20.140413 0.000000
-6.750999 20.140413 0.001422
-6.436278 20.140413 0.000998
-6.121557 20.140413 0.000874
-5.806836 20.140413 0.000828
-5.492115 20.140413 0.000821
-5.177394 20.140413 0.000765
-4.862673 20.140413 0.000736
-4.547952 20.140413 0.000672
-4.233231 20.140413 0.000562
-3.918510 20.140413 0.000550
-3.603789 20.140413 0.000555
-3.289068 20.140413 0.000651
-2.974347 20.140413 0.000706
-2.659626 20.140413 0.000581
-2.344905 20.140413 0.000454
-2.030184 20.140413 0.000461
-1.715463 20.140413 0.000473
-1.400742 20.140413 0.000496
-1.086021 20.140413 0.000524
-0.771300 20.140413 0.000581
-0.456579 20.140413 0.000524
-0.141859 20.140413 0.000478
0.172863 20.140413 0.000452
0.487584 20.140413 0.000508
0.802305 20.140413 0.000560
1.117026 20.140413 0.000479
1.431747 20.140413 0.000370
1.746467 20.140413 0.000235
2.061188 20.140413 0.000181
2.375909 20.140413 0.000175
2.690630 20.140413 0.000087
3.005352 20.140413 0.000096
3.320073 20.140413 0.000171
3.634794 20.140413 0.000178
3.949515 20.140413 0.000174
4.264236 20.140413 0.000241
4.578956 20.140413 0.000245
4.893677 20.140413 0.000271
5.208398 20.140413 0.000203
5.523119 20.140413 -0.000058
5.837841 20.140413 -0.000238
6.152562 20.140413 0.000061
6.467283 20.140413 0.000725
6.782003 20.140413 0.001059
7.096724 20.140413 0.001151
7.411445 20.140413 0.002855
7.726166 20.140413 0.003859
8.040888 20.140413 0.007593
8.355608 20.140413 0.011648
8.670330 20.140413 0.014252
8.985050 20.140413 0.015424
9.299772 20.140413 0.020233
9.614492 20.140413 0.025882
9.929214 20.140413 0.030147
10.243935 20.140413 0.031454
10.558655 20.140413 0.037636
10.873377 20.140413 0.043871
11.188097 20.140413 0.051441
11.502819 20.140413 0.049159
11.817539 20.140413 0.036356
12.132261 20.140413 0.042321
12.446981 20.140413 0.046205
12.761703 20.140413 0.037558
13.076424 20.140413 0.036213
13.391144 20.140413 0.051713
13.705866 20.140413 0.056762
14.020586 20.140413 0.049852
14.335308 20.140413 0.048060
14.650028 20.140413 0.052582
14.964750 20.140413 0.072048
15.279470 20.140413 0.091641
15.594193 20.140413 0.050916
15.908913 20.140413 0.000000
16.223633 20.140413 0.000000
16.538355 20.140413 0.000000
16.853075 20.140413 0.000000
17.167797 20.140413 0.000000
17.482517 20.140413 0.000000
17.797239 20.140413 0.000000
18.111959 20.140413 0.000000
18.426680 20.140413 0.000000
18.741402 20.140413 0.000000
-7.065720 19.825691 0.000000
-6.750999 19.825691 0.001219
-6.436278 19.825691 0.000853
-6.121557 19.825691 0.000671
-5.806836 19.825691 0.000673
-5.492115 19.825691 0.000749
-5.177394 19.825691 0.000777
-4.862673 19.825691 0.000732
-4.547952 19.825691 0.000666
-4.233231 19.825691 0.000607
-3.918510 19.825691 0.000562
-3.603789 19.825691 0.000589
-3.289068 19.825691 0.000663
-2.974347 19.825691 0.000741
-2.659626 19.825691 0.000706
-2.344905 19.825691 0.000608
-2.030184 19.825691 0.000545
-1.715463 19.825691 0.000463
-1.400742 19.825691 0.000478
-1.086021 19.825691 0.000521
-0.771300 19.825691 0.000628
-0.456579 19.825691 0.000568
-0.141859 19.825691 0.000470
0.172863 19.825691 0.000403
0.487584 19.825691 0.000479
0.802305 19.825691 0.000534
1.117026 19.825691 0.000407
1.431747 19.825691 0.000308
1.746467 19.825691 0.000243
2.061188 19.825691 0.000285
2.375909 19.825691 0.000309
2.690630 19.825691 0.000244
3.005352 19.825691 0.000230
3.320073 19.825691 0.000312
3.634794 19.825691 0.000292
3.949515 19.825691 0.000203
4.264236 19.825691 0.000166
4.578956 19.825691 0.000164
4.893677 19.825691 0.000150
5.208398 19.825691 0.000052
5.523119 19.825691 -0.000163
5.837841 19.825691 -0.000315
6.152562 19.825691 0.000226
6.467283 19.825691 0.000941
6.782003 19.825691 0.001643
7.096724 19.825691 0.002232
7.411445 19.825691 0.003511
7.726166 19.825691 0.004715
8.040888 19.825691 0.006247
8.355608 19.825691 0.010071
8.670330 19.825691 0.015319
8.985050 19.825691 0.017964
9.299772 19.825691 0.022523
9.614492 19.825691 0.023566
9.929214 19.825691 0.033071
10.243935 19.825691 0.035224
10.558655 19.825691 0.034647
10.873377 19.825691 0.043666
11.188097 19.825691 0.053748
11.502819 19.825691 0.051924
11.817539 19.825691 0.048999
12.132261 19.825691 0.038059
12.446981 19.825691 0.035835
12.761703 19.825691 0.045008
13.076424 19.825691 0.050399
13.391144 19.825691 0.056509
13.705866 19.825691 0.056684
14.020586 19.825691 0.064186
14.335308 19.825691 0.055920
14.650028 19.825691 0.070140
14.964750 19.825691 0.080868
15.279470 19.825691 0.079765
15.594193 19.825691 0.023001
15.908913 19.825691 0.000000
16.223633 19.825691 0.000000
16.538355 19.825691 0.000000
16.853075 19.825691 0.000000
17.167797 19.825691 0.000000
17.482517 19.825691 0.000000
17.797239 19.825691 0.000000
18.111959 19.825691 0.000000
18.426680 19.825691 0.000000
18.741402 19.825691 0.000000
-7.065720 19.510971 0.000000
-6.750999 19.510971 0.001009
-6.436278 19.510971 0.000681
-6.121557 19.510971 0.000506
-5.806836 19.510971 0.000529
-5.492115 19.510971 0.000672
-5.177394 19.510971 0.000795
-4.862673 19.510971 0.000769
-4.547952 19.510971 0.000699
-4.233231 19.510971 0.000640
-3.918510 19.510971 0.000552
-3.603789 19.510971 0.000571
-3.289068 19.510971 0.000660
-2.974347 19.510971 0.000746
-2.659626 19.510971 0.000808
-2.344905 19.510971 0.000749
-2.030184 19.510971 0.000623
-1.715463 19.510971 0.000477
-1.400742 19.510971 0.000402
-1.086021 19.510971 0.000439
-0.771300 19.510971 0.000572
-0.456579 19.510971 0.000541
-0.141859 19.510971 0.000408
0.172863 19.510971 0.000351
0.487584 19.510971 0.000448
0.802305 19.510971 0.000497
1.117026 19.510971 0.000413
1.431747 19.510971 0.000322
1.746467 19.510971 0.000308
2.061188 19.510971 0.000442
2.375909 19.510971 0.000516
2.690630 19.510971 0.000423
3.005352 19.510971 0.000360
3.320073 19.510971 0.000399
3.634794 19.510971 0.000344
3.949515 19.510971 0.000155
4.264236 19.510971 0.000035
4.578956 19.510971 0.000091
4.893677 19.510971 0.000092
5.208398 19.510971 0.000050
5.523119 19.510971 -0.000033
5.837841 19.510971 -0.000105
6.152562 19.510971 0.000397
6.467283 19.510971 0.001293
6.782003 19.510971 0.001775
7.096724 19.510971 0.002312
7.411445 19.510971 0.003351
7.726166 19.510971 0.005320
8.040888 19.510971 0.007163
8.355608 19.510971 0.010992
8.670330 19.510971 0.014901
8.985050 19.510971 0.017760
9.299772 19.510971 0.020091
9.614492 19.510971 0.029871
9.929214 19.510971 0.029755
10.243935 19.510971 0.027237
10.558655 19.510971 0.038501
10.873377 19.510971 0.045034
11.188097 19.510971 0.050926
11.502819 19.510971 0.042592
11.817539 19.510971 0.041505
12.132261 19.510971 0.040246
12.446981 19.510971 0.042095
12.761703 19.510971 0.053839
13.076424 19.510971 0.054804
13.391144 19.510971 0.061318
13.705866 19.510971 0.072758
14.020586 19.510971 0.057457
14.335308 19.510971 0.063492
14.650028 19.510971 0.066459
14.964750 19.510971 0.068842
15.279470 19.510971 0.074995
15.594193 19.510971 0.032516
15.908913 19.510971 0.000000
16.223633 19.510971 0.000000
16.538355 19.510971 0.000000
16.853075 19.510971 0.000000
17.167797 19.510971 0.000000
17.482517 19.510971 0.000000
17.797239 19.510971 0.000000
18.111959 19.510971 0.000000
18.426680 19.510971 0.000000
18.741402 19.510971 0.000000
-7.065720 19.196249 0.000000
-6.750999 19.196249 0.000904
-6.436278 19.196249 0.000598
-6.121557 19.196249 0.000486
-5.806836 19.196249 0.000514
-5.492115 19.196249 0.000653
-5.177394 19.196249 0.000813
-4.862673 19.196249 0.000780
-4.547952 19.196249 0.000737
-4.233231 19.196249 0.000674
-3.918510 19.196249 0.000572
-3.603789 19.196249 0.000549
-3.289068 19.196249 0.000619
-2.974347 19.196249 0.000690
-2.659626 19.196249 0.000828
-2.344905 19.196249 0.000789
-2.030184 19.196249 0.000622
-1.715463 19.196249 0.000468
-1.400742 19.196249 0.000338
-1.086021 19.196249 0.000333
-0.771300 19.196249 0.000479
-0.456579 19.196249 0.000486
-0.141859 19.196249 0.000431
0.172863 19.196249 0.000383
0.487584 19.196249 0.000452
0.802305 19.196249 0.000493
1.117026 19.196249 0.000477
1.431747 19.196249 0.000402
1.746467 19.196249 0.000404
2.061188 19.196249 0.000561
2.375909 19.196249 0.000614
2.690630 19.196249 0.000498
3.005352 19.196249 0.000394
3.320073 19.196249 0.000399
3.634794 19.196249 0.000316
3.949515 19.196249 0.000105
4.264236 19.196249 0.000007
4.578956 19.196249 0.000085
4.893677 19.196249 0.000052
5.208398 19.196249 0.000131
5.523119 19.196249 0.000166
5.837841 19.196249 0.000123
6.152562 19.196249 0.000244
6.467283 19.196249 0.000400
6.782003 19.196249 0.000728
7.096724 19.196249 0.001396
7.411445 19.196249 0.002409
7.726166 19.196249 0.004485
8.040888 19.196249 0.006487
8.355608 19.196249 0.010172
8.670330 19.196249 0.014307
8.985050 19.196249 0.018950
9.299772 19.196249 0.026107
9.614492 19.196249 0.035261
9.929214 19.196249 0.037866
10.243935 19.196249 0.036620
10.558655 19.196249 0.041719
10.873377 19.196249 0.052653
11.188097 19.196249 0.051268
11.502819 19.196249 0.045007
11.817539 19.196249 0.047985
12.132261 19.196249 0.042761
12.446981 19.196249 0.045439
12.761703 19.196249 0.052220
13.076424 19.196249 0.070938
13.391144 19.196249 0.058245
13.705866 19.196249 0.062615
14.020586 19.196249 0.055023
14.335308 19.196249 0.047775
14.650028 19.196249 0.058586
14.964750 19.196249 0.074086
15.279470 19.196249 0.079232
15.594193 19.196249 0.039552
15.908913 19.196249 0.000000
16.223633 19.196249 0.000000
16.538355 19.196249 0.000000
16.853075 19.196249 0.000000
17.167797 19.196249 0.000000
17.482517 19.196249 0.000000
17.797239 19.196249 0.000000
18.111959 19.196249 0.000000
18.426680 19.196249 0.000000
18.741402 19.196249 0.000000
-7.065720 18.881529 0.000000
-6.750999 18.881529 0.000912
-6.436278 18.881529 0.000646
-6.121557 18.881529 0.000621
-5.806836 18.881529 0.000611
-5.492115 18.881529 0.000682
-5.177394 18.881529 0.000795
-4.862673 18.881529 0.000793
-4.547952 18.881529 0.000806
-4.233231 18.881529 0.000708
-3.918510 18.881529 0.000566
-3.603789 18.881529 0.000544
-3.289068 18.881529 0.000574
-2.974347 18.881529 0.000590
-2.659626 18.881529 0.000684
-2.344905 18.881529 0.000689
-2.030184 18.881529 0.000568
-1.715463 18.881529 0.000435
-1.400742 18.881529 0.000303
-1.086021 18.881529 0.000284
-0.771300 18.881529 0.000395
-0.456579 18.881529 0.000443
-0.141859 18.881529 0.000460
0.172863 18.881529 0.000473
0.487584 18.881529 0.000470
0.802305 18.881529 0.000509
1.117026 18.881529 0.000506
1.431747 18.881529 0.000439
1.746467 18.881529 0.000415
2.061188 18.881529 0.000489
2.375909 18.881529 0.000537
2.690630 18.881529 0.000407
3.005352 18.881529 0.000305
3.320073 18.881529 0.000334
3.634794 18.881529 0.000300
3.949515 18.881529 0.000122
4.264236 18.881529 0.000097
4.578956 18.881529 0.000171
4.893677 18.881529 0.000055
5.208398 18.881529 0.000187
5.523119 18.881529 0.000287
5.837841 18.881529 0.000180
6.152562 18.881529 0.000048
6.467283 18.881529 -0.000425
6.782003 18.881529 0.000096
7.096724 18.881529 0.000246
7.411445 18.881529 0.001144
7.726166 18.881529 0.004073
8.040888 18.881529 0.007255
8.355608 18.881529 0.009317
8.670330 18.881529 0.008562
8.985050 18.881529 0.016506
9.299772 18.881529 0.026697
9.614492 18.881529 0.038145
9.929214 18.881529 0.041565
10.243935 18.881529 0.040611
10.558655 18.881529 0.038316
10.873377 18.881529 0.049958
11.188097 18.881529 0.059742
11.502819 18.881529 0.045288
11.817539 18.881529 0.028680
12.132261 18.881529 0.036267
12.446981 18.881529 0.038279
12.761703 18.881529 0.062724
13.076424 18.881529 0.084516
13.391144 18.881529 0.074861
13.705866 18.881529 0.076899
14.020586 18.881529 0.060956
14.335308 18.881529 0.034987
14.650028 18.881529 0.058327
14.964750 18.881529 0.062561
15.279470 18.881529 0.064707
15.594193 18.881529 0.043998
15.908913 18.881529 0.000000
16.223633 18.881529 0.000000
16.538355 18.881529 0.000000
16.853075 18.881529 0.000000
17.167797 18.881529 0.000000
17.482517 18.881529 0.000000
17.797239 18.881529 0.000000
18.111959 18.881529 0.000000
18.426680 18.881529 0.000000
18.741402 18.881529 0.000000
-7.065720 18.566807 0.000000
-6.750999 18.566807 0.000968
-6.436278 18.566807 0.000778
-6.121557 18.566807 0.000742
-5.806836 18.566807 0.000709
-5.492115 18.566807 0.000698
-5.177394 18.566807 0.000733
-4.862673 18.566807 0.000783
-4.547952 18.566807 0.000851
-4.233231 18.566807 0.000734
-3.918510 18.566807 0.000570
-3.603789 18.566807 0.000549
-3.289068 18.566807 0.000567
-2.974347 18.566807 0.000500
-2.659626 18.566807 0.000501
-2.344905 18.566807 0.000559
-2.030184 18.566807 0.000520
-1.715463 18.566807 0.000418
-1.400742 18.566807 0.000325
-1.086021 18.566807 0.000326
-0.771300 18.566807 0.000409
-0.456579 18.566807 0.000444
-0.141859 18.566807 0.000469
0.172863 18.566807 0.000483
0.487584 18.566807 0.000510
0.802305 18.566807 0.000479
1.117026 18.566807 0.000414
1.431747 18.566807 0.000370
1.746467 18.566807 0.000276
2.061188 18.566807 0.000265
2.375909 18.566807 0.000331
2.690630 18.566807 0.000260
3.005352 18.566807 0.000232
3.320073 18.566807 0.000339
3.634794 18.566807 0.000333
3.949515 18.566807 0.000224
4.264236 18.566807 0.000233
4.578956 18.566807 0.000230
4.893677 18.566807 0.000091
5.208398 18.566807 0.000120
5.523119 18.566807 0.000177
5.837841 18.566807 -0.000022
6.152562 18.566807 -0.000293
6.467283 18.566807 -0.000520
6.782003 18.566807 0.000245
7.096724 18.566807 0.000962
7.411445 18.566807 0.001650
7.726166 18.566807 0.002791
8.040888 18.566807 0.008487
8.355608 18.566807 0.011841
8.670330 18.566807 0.009817
8.985050 18.566807 0.014656
9.299772 18.566807 0.028460
9.614492 18.566807 0.041295
9.929214 18.566807 0.044564
10.243935 18.566807 0.040688
10.558655 18.566807 0.039874
10.873377 18.566807 0.051834
11.188097 18.566807 0.056975
11.502819 18.566807 0.044321
11.817539 18.566807 0.040184
12.132261 18.566807 0.024593
12.446981 18.566807 0.033358
12.761703 18.566807 0.069170
13.076424 18.566807 0.088999
13.391144 18.566807 0.076794
13.705866 18.566807 0.071827
14.020586 18.566807 0.048460
14.335308 18.566807 0.027009
14.650028 18.566807 0.047752
14.964750 18.566807 0.064351
15.279470 18.566807 0.059237
15.594193 18.566807 0.014213
15.908913 18.566807 0.000000
16.223633 18.566807 0.000000
16.538355 18.566807 0.000000
16.853075 18.566807 0.000000
17.167797 18.566807 0.000000
17.482517 18.566807 0.000000
17.797239 18.566807 0.000000
18.111959 18.566807 0.000000
18.426680 18.566807 0.000000
18.741402 18.566807 0.000000
-7.065720 18.252087 0.000000
-6.750999 18.252087 0.001123
-6.436278 18.252087 0.000904
-6.121557 18.252087 0.000838
-5.806836 18.252087 0.000762
-5.492115 18.252087 0.000683
-5.177394 18.252087 0.000683
-4.862673 18.252087 0.000766
-4.547952 18.252087 0.000829
-4.233231 18.252087 0.000723
-3.918510 18.252087 0.000582
-3.603789 18.252087 0.000534
-3.289068 18.252087 0.000559
-2.974347 18.252087 0.000476
-2.659626 18.252087 0.000421
-2.344905 18.252087 0.000498
-2.030184 18.252087 0.000509
-1.715463 18.252087 0.000466
-1.400742 18.252087 0.000410
-1.086021 18.252087 0.000423
-0.771300 18.252087 0.000467
-0.456579 18.252087 0.000427
-0.141859 18.252087 0.000423
0.172863 18.252087 0.000413
0.487584 18.252087 0.000461
0.802305 18.252087 0.000353
1.117026 18.252087 0.000204
1.431747 18.252087 0.000205
1.746467 18.252087 0.000121
2.061188 18.252087 0.000104
2.375909 18.252087 0.000202
2.690630 18.252087 0.000222
3.005352 18.252087 0.000245
3.320073 18.252087 0.000388
3.634794 18.252087 0.000369
3.949515 18.252087 0.000294
4.264236 18.252087 0.000274
4.578956 18.252087 0.000208
4.893677 18.252087 0.000035
5.208398 18.252087 -0.000108
5.523119 18.252087 -0.000079
5.837841 18.252087 -0.000045
6.152562 18.252087 -0.000357
6.467283 18.252087 -0.000073
6.782003 18.252087 0.001050
7.096724 18.252087 0.001726
7.411445 18.252087 0.002419
7.726166 18.252087 0.005774
8.040888 18.252087 0.010739
8.355608 18.252087 0.013970
8.670330 18.252087 0.011578
8.985050 18.252087 0.015263
9.299772 18.252087 0.029159
9.614492 18.252087 0.041392
9.929214 18.252087 0.043644
10.243935 18.252087 0.043388
10.558655 18.252087 0.043226
10.873377 18.252087 0.047277
11.188097 18.252087 0.052031
11.502819 18.252087 0.050033
11.817539 18.252087 0.038294
12.132261 18.252087 0.034459
12.446981 18.252087 0.038358
12.761703 18.252087 0.057367
13.076424 18.252087 0.080388
13.391144 18.252087 0.081543
13.705866 18.252087 0.062956
14.020586 18.252087 0.047300
14.335308 18.252087 0.017069
14.650028 18.252087 0.037799
14.964750 18.252087 0.062360
15.279470 18.252087 0.051080
15.594193 18.252087 0.021741
15.908913 18.252087 0.000000
16.223633 18.252087 0.000000
16.538355 18.252087 0.000000
16.853075 18.252087 0.000000
17.167797 18.252087 0.000000
17.482517 18.252087 0.000000
17.797239 18.252087 0.000000
18.111959 18.252087 0.000000
18.426680 18.252087 0.000000
18.741402 18.252087 0.000000
-7.065720 17.937366 0.000000
-6.750999 17.937366 0.001261
-6.436278 17.937366 0.000988
-6.121557 17.937366 0.000838
-5.806836 17.937366 0.000676
-5.492115 17.937366 0.000616
-5.177394 17.937366 0.000610
-4.862673 17.937366 0.000658
-4.547952 17.937366 0.000741
-4.233231 17.937366 0.000699
-3.918510 17.937366 0.000617
-3.603789 17.937366 0.000546
-3.289068 17.937366 0.000542
-2.974347 17.937366 0.000495
-2.659626 17.937366 0.000478
-2.344905 17.937366 0.000577
-2.030184 17.937366 0.000590
-1.715463 17.937366 0.000523
-1.400742 17.937366 0.000467
-1.086021 17.937366 0.000477
-0.771300 17.937366 0.000504
-0.456579 17.937366 0.000381
-0.141859 17.937366 0.000323
0.172863 17.937366 0.000317
0.487584 17.937366 0.000334
0.802305 17.937366 0.000222
1.117026 17.937366 0.000048
1.431747 17.937366 0.000091
1.746467 17.937366 0.000107
2.061188 17.937366 0.000093
2.375909 17.937366 0.000211
2.690630 17.937366 0.000299
3.005352 17.937366 0.000350
3.320073 17.937366 0.000428
3.634794 17.937366 0.000359
3.949515 17.937366 0.000235
4.264236 17.937366 0.000210
4.578956 17.937366 0.000169
4.893677 17.937366 -0.000008
5.208398 17.937366 -0.000217
5.523119 17.937366 -0.000213
5.837841 17.937366 0.000073
6.152562 17.937366 0.000180
6.467283 17.937366 0.000334
6.782003 17.937366 0.001956
7.096724 17.937366 0.002506
7.411445 17.937366 0.003343
7.726166 17.937366 0.005813
8.040888 17.937366 0.011213
8.355608 17.937366 0.012886
8.670330 17.937366 0.011870
8.985050 17.937366 0.017582
9.299772 17.937366 0.024929
9.614492 17.937366 0.035983
9.929214 17.937366 0.040309
10.243935 17.937366 0.045073
10.558655 17.937366 0.049042
10.873377 17.937366 0.045571
11.188097 17.937366 0.051241
11.502819 17.937366 0.046519
11.817539 17.937366 0.037876
12.132261 17.937366 0.040002
12.446981 17.937366 0.055346
12.761703 17.937366 0.051467
13.076424 17.937366 0.066508
13.391144 17.937366 0.076335
13.705866 17.937366 0.060957
14.020586 17.937366 0.045269
14.335308 17.937366 0.026273
14.650028 17.937366 0.045770
14.964750 17.937366 0.055982
15.279470 17.937366 0.029380
15.594193 17.937366 0.008200
15.908913 17.937366 0.000000
16.223633 17.937366 0.000000
16.538355 17.937366 0.000000
16.853075 17.937366 0.000000
17.167797 17.937366 0.000000
17.482517 17.937366 0.000000
17.797239 17.937366 0.000000
18.111959 17.937366 0.000000
18.426680 17.937366 0.000000
18.741402 17.937366 0.000000
-7.065720 17.622644 0.000000
-6.750999 17.622644 0.001423
-6.436278 17.622644 0.001016
-6.121557 17.622644 0.000753
-5.806836 17.622644 0.000559
-5.492115 17.622644 0.000545
-5.177394 17.622644 0.000541
-4.862673 17.622644 0.000554
-4.547952 17.622644 0.000658
-4.233231 17.622644 0.000653
-3.918510 17.622644 0.000633
-3.603789 17.622644 0.000631
-3.289068 17.622644 0.000560
-2.974347 17.622644 0.000548
-2.659626 17.622644 0.000564
-2.344905 17.622644 0.000646
-2.030184 17.622644 0.000661
-1.715463 17.622644 0.000572
-1.400742 17.622644 0.000476
-1.086021 17.622644 0.000458
-0.771300 17.622644 0.000441
-0.456579 17.622644 0.000288
-0.141859 17.622644 0.000243
0.172863 17.622644 0.000220
0.487584 17.622644 0.000225
0.802305 17.622644 0.000147
1.117026 17.622644 0.000010
1.431747 17.622644 0.000073
1.746467 17.622644 0.000185
2.061188 17.622644 0.000182
2.375909 17.622644 0.000277
2.690630 17.622644 0.000358
3.005352 17.622644 0.000383
3.320073 17.622644 0.000387
3.634794 17.622644 0.000304
3.949515 17.622644 0.000162
4.264236 17.622644 0.000119
4.578956 17.622644 0.000187
4.893677 17.622644 0.000048
5.208398 17.622644 -0.000197
5.523119 17.622644 -0.000089
5.837841 17.622644 0.000275
6.152562 17.622644 0.000354
6.467283 17.622644 0.000429
6.782003 17.622644 0.001524
7.096724 17.622644 0.002889
7.411445 17.622644 0.004156
7.726166 17.622644 0.006795
8.040888 17.622644 0.008765
8.355608 17.622644 0.011144
8.670330 17.622644 0.010613
8.985050 17.622644 0.014344
9.299772 17.622644 0.022718
9.614492 17.622644 0.028579
9.929214 17.622644 0.031808
10.243935 17.622644 0.038920
10.558655 17.622644 0.046448
10.873377 17.622644 0.053804
11.188097 17.622644 0.057028
11.502819 17.622644 0.049569
11.817539 17.622644 0.051823
12.132261 17.622644 0.058490
12.446981 17.622644 0.057044
12.761703 17.622644 0.048932
13.076424 17.622644 0.052839
13.391144 17.622644 0.063953
13.705866 17.622644 0.053981
14.020586 17.622644 0.053175
14.335308 17.622644 0.055702
14.650028 17.622644 0.060997
14.964750 17.622644 0.064706
15.279470 17.622644 0.027838
15.594193 17.622644 -0.001010
15.908913 17.622644 0.000000
16.223633 17.622644 0.000000
16.538355 17.622644 0.000000
16.853075 17.622644 0.000000
17.167797 17.622644 0.000000
17.482517 17.622644 0.000000
17.797239 17.622644 0.000000
18.111959 17.622644 0.000000
18.426680 17.622644 0.000000
18.741402 17.622644 0.000000
-7.065720 17.307924 0.000000
-6.750999 17.307924 0.001454
-6.436278 17.307924 0.001012
-6.121557 17.307924 0.000728
-5.806836 17.307924 0.000501
-5.492115 17.307924 0.000519
-5.177394 17.307924 0.000494
-4.862673 17.307924 0.000537
-4.547952 17.307924 0.000666
-4.233231 17.307924 0.000611
-3.918510 17.307924 0.000614
-3.603789 17.307924 0.000674
-3.289068 17.307924 0.000575
-2.974347 17.307924 0.000566
-2.659626 17.307924 0.000616
-2.344905 17.307924 0.000667
-2.030184 17.307924 0.000671
-1.715463 17.307924 0.000582
-1.400742 17.307924 0.000438
-1.086021 17.307924 0.000366
-0.771300 17.307924 0.000338
-0.456579 17.307924 0.000247
-0.141859 17.307924 0.000256
0.172863 17.307924 0.000208
0.487584 17.307924 0.000229
0.802305 17.307924 0.000240
1.117026 17.307924 0.000117
1.431747 17.307924 0.000127
1.746467 17.307924 0.000269
2.061188 17.307924 0.000273
2.375909 17.307924 0.000290
2.690630 17.307924 0.000344
3.005352 17.307924 0.000322
3.320073 17.307924 0.000284
3.634794 17.307924 0.000240
3.949515 17.307924 0.000109
4.264236 17.307924 0.000063
4.578956 17.307924 0.000181
4.893677 17.307924 0.000151
5.208398 17.307924 0.000036
5.523119 17.307924 0.000182
5.837841 17.307924 0.000315
6.152562 17.307924 0.000309
6.467283 17.307924 0.000357
6.782003 17.307924 0.000732
7.096724 17.307924 0.001005
7.411445 17.307924 0.002920
7.726166 17.307924 0.005420
8.040888 17.307924 0.009044
8.355608 17.307924 0.009034
8.670330 17.307924 0.008621
8.985050 17.307924 0.012152
9.299772 17.307924 0.020141
9.614492 17.307924 0.024808
9.929214 17.307924 0.034002
10.243935 17.307924 0.041168
10.558655 17.307924 0.053514
10.873377 17.307924 0.065007
11.188097 17.307924 0.054606
11.502819 17.307924 0.047343
11.817539 17.307924 0.054572
12.132261 17.307924 0.066884
12.446981 17.307924 0.050761
12.761703 17.307924 0.035947
13.076424 17.307924 0.043019
13.391144 17.307924 0.053395
13.705866 17.307924 0.062573
14.020586 17.307924 0.063256
14.335308 17.307924 0.063150
14.650028 17.307924 0.069835
14.964750 17.307924 0.062233
15.279470 17.307924 0.044986
15.594193 17.307924 -0.007605
15.908913 17.307924 0.000000
16.223633 17.307924 0.000000
16.538355 17.307924 0.000000
16.853075 17.307924 0.000000
17.167797 17.307924 0.000000
17.482517 17.307924 0.000000
17.797239 17.307924 0.000000
18.111959 17.307924 0.000000
18.426680 17.307924 0.000000
18.741402 17.307924 0.000000
-7.065720 16.993202 0.000000
-6.750999 16.993202 0.001346
-6.436278 16.993202 0.000967
-6.121557 16.993202 0.000789
-5.806836 16.993202 0.000562
-5.492115 16.993202 0.000526
-5.177394 16.993202 0.000504
-4.862673 16.993202 0.000555
-4.547952 16.993202 0.000673
-4.233231 16.993202 0.000589
-3.918510 16.993202 0.000600
-3.603789 16.993202 0.000658
-3.289068 16.993202 0.000548
-2.974347 16.993202 0.000519
-2.659626 16.993202 0.000558
-2.344905 16.993202 0.000582
-2.030184 16.993202 0.000615
-1.715463 16.993202 0.000574
-1.400742 16.993202 0.000399
-1.086021 16.993202 0.000306
-0.771300 16.993202 0.000307
-0.456579 16.993202 0.000333
-0.141859 16.993202 0.000387
0.172863 16.993202 0.000311
0.487584 16.993202 0.000323
0.802305 16.993202 0.000363
1.117026 16.993202 0.000252
1.431747 16.993202 0.000194
1.746467 16.993202 0.000290
2.061188 16.993202 0.000251
2.375909 16.993202 0.000219
2.690630 16.993202 0.000241
3.005352 16.993202 0.000176
3.320073 16.993202 0.000149
3.634794 16.993202 0.000164
3.949515 16.993202 0.000103
4.264236 16.993202 0.000095
4.578956 16.993202 0.000243
4.893677 16.993202 0.000183
5.208398 16.993202 0.000085
5.523119 16.993202 0.000272
5.837841 16.993202 0.000374
6.152562 16.993202 0.000356
6.467283 16.993202 0.000469
6.782003 16.993202 0.000486
7.096724 16.993202 0.000885
7.411445 16.993202 0.002674
7.726166 16.993202 0.004731
8.040888 16.993202 0.006627
8.355608 16.993202 0.007383
8.670330 16.993202 0.007481
8.985050 16.993202 0.013469
9.299772 16.993202 0.022983
9.614492 16.993202 0.026661
9.929214 16.993202 0.037765
10.243935 16.993202 0.046271
10.558655 16.993202 0.053461
10.873377 16.993202 0.054352
11.188097 16.993202 0.049988
11.502819 16.993202 0.042666
11.817539 16.993202 0.044486
12.132261 16.993202 0.050961
12.446981 16.993202 0.045099
12.761703 16.993202 0.020118
13.076424 16.993202 0.038002
13.391144 16.993202 0.034212
13.705866 16.993202 0.061911
14.020586 16.993202 0.058742
14.335308 16.993202 0.079933
14.650028 16.993202 0.090211
14.964750 16.993202 0.066189
15.279470 16.993202 0.052269
15.594193 16.993202 0.019367
15.908913 16.993202 0.000000
16.223633 16.993202 0.000000
16.538355 16.993202 0.000000
16.853075 16.993202 0.000000
17.167797 16.993202 0.000000
17.482517 16.993202 0.000000
17.797239 16.993202 0.000000
18.111959 16.993202 0.000000
18.426680 16.993202 0.000000
18.741402 16.993202 0.000000
-7.065720 16.678482 0.000000
-6.750999 16.678482 0.001335
-6.436278 16.678482 0.000945
-6.121557 16.678482 0.000858
-5.806836 16.678482 0.000651
-5.492115 16.678482 0.000545
-5.177394 16.678482 0.000505
-4.862673 16.678482 0.000580
-4.547952 16.678482 0.000675
-4.233231 16.678482 0.000602
-3.918510 16.678482 0.000583
-3.603789 16.678482 0.000599
-3.289068 16.678482 0.000477
-2.974347 16.678482 0.000433
-2.659626 16.678482 0.000445
-2.344905 16.678482 0.000467
-2.030184 16.678482 0.000520
-1.715463 16.678482 0.000532
-1.400742 16.678482 0.000418
-1.086021 16.678482 0.000371
-0.771300 16.678482 0.000407
-0.456579 16.678482 0.000470
-0.141859 16.678482 0.000515
0.172863 16.678482 0.000431
0.487584 16.678482 0.000425
0.802305 16.678482 0.000418
1.117026 16.678482 0.000313
1.431747 16.678482 0.000238
1.746467 16.678482 0.000262
2.061188 16.678482 0.000202
2.375909 16.678482 0.000119
2.690630 16.678482 0.000120
3.005352 16.678482 0.000064
3.320073 16.678482 0.000087
3.634794 16.678482 0.000159
3.949515 16.678482 0.000155
4.264236 16.678482 0.000125
4.578956 16.678482 0.000232
4.893677 16.678482 0.000126
5.208398 16.678482 0.000010
5.523119 16.678482 0.000227
5.837841 16.678482 0.000297
6.152562 16.678482 0.000543
6.467283 16.678482 0.000845
6.782003 16.678482 0.000855
7.096724 16.678482 0.001920
7.411445 16.678482 0.002858
7.726166 16.678482 0.004779
8.040888 16.678482 0.007181
8.355608 16.678482 0.008962
8.670330 16.678482 0.010659
8.985050 16.678482 0.016129
9.299772 16.678482 0.026937
9.614492 16.678482 0.033941
9.929214 16.678482 0.036377
10.243935 16.678482 0.051027
10.558655 16.678482 0.056234
10.873377 16.678482 0.053396
11.188097 16.678482 0.041420
11.502819 16.678482 0.025063
11.817539 16.678482 0.032656
12.132261 16.678482 0.053520
12.446981 16.678482 0.037865
12.761703 16.678482 0.028600
13.076424 16.678482 0.040290
13.391144 16.678482 0.045476
13.705866 16.678482 0.054438
14.020586 16.678482 0.076382
14.335308 16.678482 0.083777
14.650028 16.678482 0.102397
14.964750 16.678482 0.087847
15.279470 16.678482 0.043322
15.594193 16.678482 -0.008909
15.908913 16.678482 0.000000
16.223633 16.678482 0.000000
16.538355 16.678482 0.000000
16.853075 16.678482 0.000000
17.167797 16.678482 0.000000
17.482517 16.678482 0.000000
17.797239 16.678482 0.000000
18.111959 16.678482 0.000000
18.426680 16.678482 0.000000
18.741402 16.678482 0.000000
-7.065720 16.363762 0.000000
-6.750999 16.363762 0.001385
-6.436278 16.363762 0.000933
-6.121557 16.363762 0.000860
-5.806836 16.363762 0.000663
-5.492115 16.363762 0.000581
-5.177394 16.363762 0.000564
-4.862673 16.363762 0.000623
-4.547952 16.363762 0.000688
-4.233231 16.363762 0.000624
-3.918510 16.363762 0.000594
-3.603789 16.363762 0.000600
-3.289068 16.363762 0.000493
-2.974347 16.363762 0.000423
-2.659626 16.363762 0.000373
-2.344905 16.363762 0.000392
-2.030184 16.363762 0.000479
-1.715463 16.363762 0.000519
-1.400742 16.363762 0.000455
-1.086021 16.363762 0.000457
-0.771300 16.363762 0.000490
-0.456579 16.363762 0.000526
-0.141859 16.363762 0.000536
0.172863 16.363762 0.000470
0.487584 16.363762 0.000454
0.802305 16.363762 0.000385
1.117026 16.363762 0.000295
1.431747 16.363762 0.000268
1.746467 16.363762 0.000269
2.061188 16.363762 0.000195
2.375909 16.363762 0.000086
2.690630 16.363762 0.000075
3.005352 16.363762 0.000068
3.320073 16.363762 0.000147
3.634794 16.363762 0.000177
3.949515 16.363762 0.000167
4.264236 16.363762 0.000086
4.578956 16.363762 0.000085
4.893677 16.363762 -0.000033
5.208398 16.363762 -0.000056
5.523119 16.363762 0.000123
5.837841 16.363762 0.000413
6.152562 16.363762 0.000686
6.467283 16.363762 0.001245
6.782003 16.363762 0.001324
7.096724 16.363762 0.002553
7.411445 16.363762 0.004574
7.726166 16.363762 0.006004
8.040888 16.363762 0.007507
8.355608 16.363762 0.007827
8.670330 16.363762 0.011126
8.985050 16.363762 0.015714
9.299772 16.363762 0.021564
9.614492 16.363762 0.029335
9.929214 16.363762 0.037041
10.243935 16.363762 0.044312
10.558655 16.363762 0.052873
10.873377 16.363762 0.056483
11.188097 16.363762 0.039638
11.502819 16.363762 0.015476
11.817539 16.363762 0.025981
12.132261 16.363762 0.046291
12.446981 16.363762 0.049968
12.761703 16.363762 0.037123
13.076424 16.363762 0.044488
13.391144 16.363762 0.068028
13.705866 16.363762 0.054448
14.020586 16.363762 0.072044
14.335308 16.363762 0.082532
14.650028 16.363762 0.087070
14.964750 16.363762 0.100038
15.279470 16.363762 0.055638
15.594193 16.363762 0.022998
15.908913 16.363762 0.000000
16.223633 16.363762 0.000000
16.538355 16.363762 0.000000
16.853075 16.363762 0.000000
17.167797 16.363762 0.000000
17.482517 16.363762 0.000000
17.797239 16.363762 0.000000
18.111959 16.363762 0.000000
18.426680 16.363762 0.000000
18.741402 16.363762 0.000000
-7.065720 16.049038 0.000000
-6.750999 16.049038 0.001365
-6.436278 16.049038 0.000912
-6.121557 16.049038 0.000785
-5.806836 16.049038 0.000635
-5.492115 16.049038 0.000663
-5.177394 16.049038 0.000636
-4.862673 16.049038 0.000627
-4.547952 16.049038 0.000677
-4.233231 16.049038 0.000614
-3.918510 16.049038 0.000590
-3.603789 16.049038 0.000625
-3.289068 16.049038 0.000572
-2.974347 16.049038 0.000481
-2.659626 16.049038 0.000413
-2.344905 16.049038 0.000424
-2.030184 16.049038 0.000483
-1.715463 16.049038 0.000483
-1.400742 16.049038 0.000447
-1.086021 16.049038 0.000506
-0.771300 16.049038 0.000514
-0.456579 16.049038 0.000478
-0.141859 16.049038 0.000484
0.172863 16.049038 0.000434
0.487584 16.049038 0.000392
0.802305 16.049038 0.000309
1.117026 16.049038 0.000273
1.431747 16.049038 0.000305
1.746467 16.049038 0.000334
2.061188 16.049038 0.000279
2.375909 16.049038 0.000145
2.690630 16.049038 0.000084
3.005352 16.049038 0.000142
3.320073 16.049038 0.000216
3.634794 16.049038 0.000167
3.949515 16.049038 0.000132
4.264236 16.049038 0.000068
4.578956 16.049038 -0.000103
4.893677 16.049038 -0.000235
5.208398 16.049038 -0.000096
5.523119 16.049038 0.000064
5.837841 16.049038 0.000496
6.152562 16.049038 0.001059
6.467283 16.049038 0.001427
6.782003 16.049038 0.001665
7.096724 16.049038 0.002541
7.411445 16.049038 0.003320
7.726166 16.049038 0.004751
8.040888 16.049038 0.007687
8.355608 16.049038 0.008541
8.670330 16.049038 0.011566
8.985050 16.049038 0.018937
9.299772 16.049038 0.017491
9.614492 16.049038 0.020046
9.929214 16.049038 0.029218
10.243935 16.049038 0.032393
10.558655 16.049038 0.046973
10.873377 16.049038 0.056638
11.188097 16.049038 0.044084
11.502819 16.049038 0.026475
11.817539 16.049038 0.028124
12.132261 16.049038 0.042183
12.446981 16.049038 0.055256
12.761703 16.049038 0.056753
13.076424 16.049038 0.061514
13.391144 16.049038 0.073653
13.705866 16.049038 0.070178
14.020586 16.049038 0.059224
14.335308 16.049038 0.058991
14.650028 16.049038 0.065769
14.964750 16.049038 0.082139
15.279470 16.049038 0.068483
15.594193 16.049038 0.062883
15.908913 16.049038 0.000000
16.223633 16.049038 0.000000
16.538355 16.049038 0.000000
16.853075 16.049038 0.000000
17.167797 16.049038 0.000000
17.482517 16.049038 0.000000
17.797239 16.049038 0.000000
18.111959 16.049038 0.000000
18.426680 16.049038 0.000000
18.741402 16.049038 0.000000
-7.065720 15.734318 0.000000
-6.750999 15.734318 0.001259
-6.436278 15.734318 0.000833
-6.121557 15.734318 0.000679
-5.806836 15.734318 0.000623
-5.492115 15.734318 0.000744
-5.177394 15.734318 0.000683
-4.862673 15.734318 0.000631
-4.547952 15.734318 0.000653
-4.233231 15.734318 0.000568
-3.918510 15.734318 0.000567
-3.603789 15.734318 0.000654
-3.289068 15.734318 0.000648
-2.974347 15.734318 0.000549
-2.659626 15.734318 0.000489
-2.344905 15.734318 0.000487
-2.030184 15.734318 0.000468
-1.715463 15.734318 0.000426
-1.400742 15.734318 0.000372
-1.086021 15.734318 0.000447
-0.771300 15.734318 0.000456
-0.456579 15.734318 0.000405
-0.141859 15.734318 0.000427
0.172863 15.734318 0.000348
0.487584 15.734318 0.000330
0.802305 15.734318 0.000264
1.117026 15.734318 0.000255
1.431747 15.734318 0.000385
1.746467 15.734318 0.000423
2.061188 15.734318 0.000361
2.375909 15.734318 0.000245
2.690630 15.734318 0.000161
3.005352 15.734318 0.000234
3.320073 15.734318 0.000239
3.634794 15.734318 0.000153
3.949515 15.734318 0.000096
4.264236 15.734318 0.000026
4.578956 15.734318 -0.000187
4.893677 15.734318 -0.000299
5.208398 15.734318 -0.000213
5.523119 15.734318 -0.000007
5.837841 15.734318 0.000546
6.152562 15.734318 0.001206
6.467283 15.734318 0.000925
6.782003 15.734318 0.001075
7.096724 15.734318 0.001491
7.411445 15.734318 0.002817
7.726166 15.734318 0.005167
8.040888 15.734318 0.009598
8.355608 15.734318 0.009861
8.670330 15.734318 0.012292
8.985050 15.734318 0.016497
9.299772 15.734318 0.019598
9.614492 15.734318 0.023956
9.929214 15.734318 0.023200
10.243935 15.734318 0.029273
10.558655 15.734318 0.043327
10.873377 15.734318 0.050071
11.188097 15.734318 0.051869
11.502819 15.734318 0.036118
11.817539 15.734318 0.045767
12.132261 15.734318 0.049229
12.446981 15.734318 0.067209
12.761703 15.734318 0.079261
13.076424 15.734318 0.078702
13.391144 15.734318 0.080924
13.705866 15.734318 0.065572
14.020586 15.734318 0.045119
14.335308 15.734318 0.045384
14.650028 15.734318 0.055555
14.964750 15.734318 0.072797
15.279470 15.734318 0.053093
15.594193 15.734318 0.033489
15.908913 15.734318 0.000000
16.223633 15.734318 0.000000
16.538355 15.734318 0.000000
16.853075 15.734318 0.000000
17.167797 15.734318 0.000000
17.482517 15.734318 0.000000
17.797239 15.734318 0.000000
18.111959 15.734318 0.000000
18.426680 15.734318 0.000000
18.741402 15.734318 0.000000
-7.065720 15.419598 0.000000
-6.750999 15.419598 0.001178
-6.436278 15.419598 0.000776
-6.121557 15.419598 0.000615
-5.806836 15.419598 0.000618
-5.492115 15.419598 0.000769
-5.177394 15.419598 0.000727
-4.862673 15.419598 0.000683
-4.547952 15.419598 0.000661
-4.233231 15.419598 0.000525
-3.918510 15.419598 0.000518
-3.603789 15.419598 0.000647
-3.289068 15.419598 0.000655
-2.974347 15.419598 0.000608
-2.659626 15.419598 0.000513
-2.344905 15.419598 0.000482
-2.030184 15.419598 0.000448
-1.715463 15.419598 0.000357
-1.400742 15.419598 0.000253
-1.086021 15.419598 0.000315
-0.771300 15.419598 0.000384
-0.456579 15.419598 0.000397
-0.141859 15.419598 0.000445
0.172863 15.419598 0.000346
0.487584 15.419598 0.000328
0.802305 15.419598 0.000272
1.117026 15.419598 0.000249
1.431747 15.419598 0.000419
1.746467 15.419598 0.000470
2.061188 15.419598 0.000410
2.375909 15.419598 0.000265
2.690630 15.419598 0.000195
3.005352 15.419598 0.000259
3.320073 15.419598 0.000222
3.634794 15.419598 0.000118
3.949515 15.419598 0.000088
4.264236 15.419598 0.000003
4.578956 15.419598 -0.000157
4.893677 15.419598 -0.000238
5.208398 15.419598 -0.000274
5.523119 15.419598 -0.000227
5.837841 15.419598 0.000191
6.152562 15.419598 0.000545
6.467283 15.419598 0.000314
6.782003 15.419598 0.000395
7.096724 15.419598 0.000360
7.411445 15.419598 0.002198
7.726166 15.419598 0.005079
8.040888 15.419598 0.009864
8.355608 15.419598 0.009381
8.670330 15.419598 0.013434
8.985050 15.419598 0.014274
9.299772 15.419598 0.017421
9.614492 15.419598 0.028743
9.929214 15.419598 0.029070
10.243935 15.419598 0.037256
10.558655 15.419598 0.043927
10.873377 15.419598 0.049447
11.188097 15.419598 0.042687
11.502819 15.419598 0.040166
11.817539 15.419598 0.045723
12.132261 15.419598 0.050078
12.446981 15.419598 0.066728
12.761703 15.419598 0.070246
13.076424 15.419598 0.072819
13.391144 15.419598 0.068092
13.705866 15.419598 0.060138
14.020586 15.419598 0.048096
14.335308 15.419598 0.060797
14.650028 15.419598 0.068700
14.964750 15.419598 0.066050
15.279470 15.419598 0.080342
15.594193 15.419598 -0.010647
15.908913 15.419598 0.000000
16.223633 15.419598 0.000000
16.538355 15.419598 0.000000
16.853075 15.419598 0.000000
17.167797 15.419598 0.000000
17.482517 15.419598 0.000000
17.797239 15.419598 0.000000
18.111959 15.419598 0.000000
18.426680 15.419598 0.000000
18.741402 15.419598 0.000000
-7.065720 15.104877 0.000000
-6.750999 15.104877 0.001170
-6.436278 15.104877 0.000796
-6.121557 15.104877 0.000645
-5.806836 15.104877 0.000658
-5.492115 15.104877 0.000724
-5.177394 15.104877 0.000734
-4.862673 15.104877 0.000737
-4.547952 15.104877 0.000652
-4.233231 15.104877 0.000496
-3.918510 15.104877 0.000439
-3.603789 15.104877 0.000559
-3.289068 15.104877 0.000593
-2.974347 15.104877 0.000598
-2.659626 15.104877 0.000518
-2.344905 15.104877 0.000458
-2.030184 15.104877 0.000431
-1.715463 15.104877 0.000341
-1.400742 15.104877 0.000167
-1.086021 15.104877 0.000214
-0.771300 15.104877 0.000361
-0.456579 15.104877 0.000451
-0.141859 15.104877 0.000501
0.172863 15.104877 0.000382
0.487584 15.104877 0.000351
0.802305 15.104877 0.000300
1.117026 15.104877 0.000242
1.431747 15.104877 0.000379
1.746467 15.104877 0.000453
2.061188 15.104877 0.000405
2.375909 15.104877 0.000241
2.690630 15.104877 0.000214
3.005352 15.104877 0.000276
3.320073 15.104877 0.000208
3.634794 15.104877 0.000149
3.949515 15.104877 0.000142
4.264236 15.104877 0.000036
4.578956 15.104877 -0.000064
4.893677 15.104877 -0.000144
5.208398 15.104877 -0.000274
5.523119 15.104877 -0.000462
5.837841 15.104877 -0.000211
6.152562 15.104877 -0.000036
6.467283 15.104877 0.000420
6.782003 15.104877 0.000465
7.096724 15.104877 0.000296
7.411445 15.104877 0.002046
7.726166 15.104877 0.006124
8.040888 15.104877 0.010328
8.355608 15.104877 0.011669
8.670330 15.104877 0.011705
8.985050 15.104877 0.015123
9.299772 15.104877 0.023039
9.614492 15.104877 0.035981
9.929214 15.104877 0.036083
10.243935 15.104877 0.041606
10.558655 15.104877 0.050528
10.873377 15.104877 0.060184
11.188097 15.104877 0.046784
11.502819 15.104877 0.051948
11.817539 15.104877 0.049383
12.132261 15.104877 0.056345
12.446981 15.104877 0.069211
12.761703 15.104877 0.061689
13.076424 15.104877 0.061309
13.391144 15.104877 0.063250
13.705866 15.104877 0.057195
14.020586 15.104877 0.056646
14.335308 15.104877 0.071518
14.650028 15.104877 0.081735
14.964750 15.104877 0.104000
15.279470 15.104877 0.063512
15.594193 15.104877 -0.035912
15.908913 15.104877 0.000000
16.223633 15.104877 0.000000
16.538355 15.104877 0.000000
16.853075 15.104877 0.000000
17.167797 15.104877 0.000000
17.482517 15.104877 0.000000
17.797239 15.104877 0.000000
18.111959 15.104877 0.000000
18.426680 15.104877 0.000000
18.741402 15.104877 0.000000
-7.065720 14.790157 0.000000
-6.750999 14.790157 0.001212
-6.436278 14.790157 0.000873
-6.121557 14.790157 0.000733
-5.806836 14.790157 0.000677
-5.492115 14.790157 0.000665
-5.177394 14.790157 0.000688
-4.862673 14.790157 0.000707
-4.547952 14.790157 0.000628
-4.233231 14.790157 0.000471
-3.918510 14.790157 0.000395
-3.603789 14.790157 0.000447
-3.289068 14.790157 0.000497
-2.974347 14.790157 0.000580
-2.659626 14.790157 0.000560
-2.344905 14.790157 0.000449
-2.030184 14.790157 0.000426
-1.715463 14.790157 0.000360
-1.400742 14.790157 0.000200
-1.086021 14.790157 0.000214
-0.771300 14.790157 0.000399
-0.456579 14.790157 0.000504
-0.141859 14.790157 0.000493
0.172863 14.790157 0.000358
0.487584 14.790157 0.000317
0.802305 14.790157 0.000273
1.117026 14.790157 0.000202
1.431747 14.790157 0.000294
1.746467 14.790157 0.000397
2.061188 14.790157 0.000403
2.375909 14.790157 0.000256
2.690630 14.790157 0.000258
3.005352 14.790157 0.000282
3.320073 14.790157 0.000221
3.634794 14.790157 0.000184
3.949515 14.790157 0.000144
4.264236 14.790157 0.000016
4.578956 14.790157 -0.000027
4.893677 14.790157 -0.000063
5.208398 14.790157 -0.000212
5.523119 14.790157 -0.000406
5.837841 14.790157 -0.000325
6.152562 14.790157 -0.000126
6.467283 14.790157 0.000301
6.782003 14.790157 0.001203
7.096724 14.790157 0.001642
7.411445 14.790157 0.002786
7.726166 14.790157 0.007825
8.040888 14.790157 0.009699
8.355608 14.790157 0.010099
8.670330 14.790157 0.012330
8.985050 14.790157 0.016574
9.299772 14.790157 0.024531
9.614492 14.790157 0.037631
9.929214 14.790157 0.037426
10.243935 14.790157 0.049657
10.558655 14.790157 0.058706
10.873377 14.790157 0.054397
11.188097 14.790157 0.040574
11.502819 14.790157 0.029752
11.817539 14.790157 0.052270
12.132261 14.790157 0.064109
12.446981 14.790157 0.063105
12.761703 14.790157 0.049891
13.076424 14.790157 0.055241
13.391144 14.790157 0.048995
13.705866 14.790157 0.055377
14.020586 14.790157 0.059183
14.335308 14.790157 0.080967
14.650028 14.790157 0.080334
14.964750 14.790157 0.079695
15.279470 14.790157 0.028674
15.594193 14.790157 0.050733
15.908913 14.790157 0.000000
16.223633 14.790157 0.000000
16.538355 14.790157 0.000000
16.853075 14.790157 0.000000
17.167797 14.790157 0.000000
17.482517 14.790157 0.000000
17.797239 14.790157 0.000000
18.111959 14.790157 0.000000
18.426680 14.790157 0.000000
18.741402 14.790157 0.000000
-7.065720 14.475433 0.000000
-6.750999 14.475433 0.001228
-6.436278 14.475433 0.000925
-6.121557 14.475433 0.000772
-5.806836 14.475433 0.000644
-5.492115 14.475433 0.000587
-5.177394 14.475433 0.000641
-4.862673 14.475433 0.000680
-4.547952 14.475433 0.000617
-4.233231 14.475433 0.000463
-3.918510 14.475433 0.000416
-3.603789 14.475433 0.000420
-3.289068 14.475433 0.000467
-2.974347 14.475433 0.000631
-2.659626 14.475433 0.000632
-2.344905 14.475433 0.000486
-2.030184 14.475433 0.000441
-1.715463 14.475433 0.000415
-1.400742 14.475433 0.000280
-1.086021 14.475433 0.000295
-0.771300 14.475433 0.000424
-0.456579 14.475433 0.000471
-0.141859 14.475433 0.000403
0.172863 14.475433 0.000302
0.487584 14.475433 0.000244
0.802305 14.475433 0.000204
1.117026 14.475433 0.000161
1.431747 14.475433 0.000229
1.746467 14.475433 0.000357
2.061188 14.475433 0.000386
2.375909 14.475433 0.000274
2.690630 14.475433 0.000285
3.005352 14.475433 0.000289
3.320073 14.475433 0.000242
3.634794 14.475433 0.000201
3.949515 14.475433 0.000071
4.264236 14.475433 -0.000027
4.578956 14.475433 0.000064
4.893677 14.475433 0.000032
5.208398 14.475433 -0.000064
5.523119 14.475433 -0.000078
5.837841 14.475433 -0.000223
6.152562 14.475433 -0.000280
6.467283 14.475433 0.000650
6.782003 14.475433 0.001395
7.096724 14.475433 0.001490
7.411445 14.475433 0.003195
7.726166 14.475433 0.005864
8.040888 14.475433 0.007061
8.355608 14.475433 0.011076
8.670330 14.475433 0.015160
8.985050 14.475433 0.020124
9.299772 14.475433 0.022541
9.614492 14.475433 0.030300
9.929214 14.475433 0.038978
10.243935 14.475433 0.059693
10.558655 14.475433 0.065908
10.873377 14.475433 0.049917
11.188097 14.475433 0.033235
11.502819 14.475433 0.026131
11.817539 14.475433 0.038888
12.132261 14.475433 0.060244
12.446981 14.475433 0.052588
12.761703 14.475433 0.053687
13.076424 14.475433 0.056867
13.391144 14.475433 0.046766
13.705866 14.475433 0.060402
14.020586 14.475433 0.051083
14.335308 14.475433 0.053346
14.650028 14.475433 0.063466
14.964750 14.475433 0.074512
15.279470 14.475433 0.058988
15.594193 14.475433 0.049833
15.908913 14.475433 0.000000
16.223633 14.475433 0.000000
16.538355 14.475433 0.000000
16.853075 14.475433 0.000000
17.167797 14.475433 0.000000
17.482517 14.475433 0.000000
17.797239 14.475433 0.000000
18.111959 14.475433 0.000000
18.426680 14.475433 0.000000
18.741402 14.475433 0.000000
-7.065720 14.160713 0.000000
-6.750999 14.160713 0.001206
-6.436278 14.160713 0.000889
-6.121557 14.160713 0.000751
-5.806836 14.160713 0.000565
-5.492115 14.160713 0.000527
-5.177394 14.160713 0.000596
-4.862673 14.160713 0.000674
-4.547952 14.160713 0.000629
-4.233231 14.160713 0.000507
-3.918510 14.160713 0.000504
-3.603789 14.160713 0.000492
-3.289068 14.160713 0.000524
-2.974347 14.160713 0.000697
-2.659626 14.160713 0.000690
-2.344905 14.160713 0.000549
-2.030184 14.160713 0.000489
-1.715463 14.160713 0.000483
-1.400742 14.160713 0.000386
-1.086021 14.160713 0.000387
-0.771300 14.160713 0.000406
-0.456579 14.160713 0.000388
-0.141859 14.160713 0.000320
0.172863 14.160713 0.000237
0.487584 14.160713 0.000196
0.802305 14.160713 0.000156
1.117026 14.160713 0.000144
1.431747 14.160713 0.000202
1.746467 14.160713 0.000337
2.061188 14.160713 0.000364
2.375909 14.160713 0.000268
2.690630 14.160713 0.000277
3.005352 14.160713 0.000269
3.320073 14.160713 0.000233
3.634794 14.160713 0.000195
3.949515 14.160713 -0.000005
4.264236 14.160713 -0.000040
4.578956 14.160713 0.000161
4.893677 14.160713 0.000181
5.208398 14.160713 0.000009
5.523119 14.160713 0.000078
5.837841 14.160713 -0.000114
6.152562 14.160713 -0.000214
6.467283 14.160713 0.000754
6.782003 14.160713 0.001744
7.096724 14.160713 0.002092
7.411445 14.160713 0.004516
7.726166 14.160713 0.004835
8.040888 14.160713 0.004826
8.355608 14.160713 0.008197
8.670330 14.160713 0.016212
8.985050 14.160713 0.022597
9.299772 14.160713 0.020680
9.614492 14.160713 0.025424
9.929214 14.160713 0.030663
10.243935 14.160713 0.051436
10.558655 14.160713 0.067209
10.873377 14.160713 0.056091
11.188097 14.160713 0.040395
11.502819 14.160713 0.031290
11.817539 14.160713 0.041625
12.132261 14.160713 0.043547
12.446981 14.160713 0.045276
12.761703 14.160713 0.058344
13.076424 14.160713 0.047727
13.391144 14.160713 0.054613
13.705866 14.160713 0.051855
14.020586 14.160713 0.052324
14.335308 14.160713 0.046631
14.650028 14.160713 0.038407
14.964750 14.160713 0.062191
15.279470 14.160713 0.039877
15.594193 14.160713 0.040718
15.908913 14.160713 0.000000
16.223633 14.160713 0.000000
16.538355 14.160713 0.000000
16.853075 14.160713 0.000000
17.167797 14.160713 0.000000
17.482517 14.160713 0.000000
17.797239 14.160713 0.000000
18.111959 14.160713 0.000000
18.426680 14.160713 0.000000
18.741402 14.160713 0.000000
-7.065720 13.845993 0.000000
-6.750999 13.845993 0.001141
-6.436278 13.845993 0.000802
-6.121557 13.845993 0.000716
-5.806836 13.845993 0.000514
-5.492115 13.845993 0.000511
-5.177394 13.845993 0.000579
-4.862673 13.845993 0.000671
-4.547952 13.845993 0.000653
-4.233231 13.845993 0.000569
-3.918510 13.845993 0.000587
-3.603789 13.845993 0.000553
-3.289068 13.845993 0.000562
-2.974347 13.845993 0.000709
-2.659626 13.845993 0.000702
-2.344905 13.845993 0.000595
-2.030184 13.845993 0.000542
-1.715463 13.845993 0.000487
-1.400742 13.845993 0.000424
-1.086021 13.845993 0.000443
-0.771300 13.845993 0.000393
-0.456579 13.845993 0.000361
-0.141859 13.845993 0.000293
0.172863 13.845993 0.000212
0.487584 13.845993 0.000179
0.802305 13.845993 0.000179
1.117026 13.845993 0.000183
1.431747 13.845993 0.000230
1.746467 13.845993 0.000302
2.061188 13.845993 0.000314
2.375909 13.845993 0.000249
2.690630 13.845993 0.000246
3.005352 13.845993 0.000235
3.320073 13.845993 0.000222
3.634794 13.845993 0.000164
3.949515 13.845993 -0.000040
4.264236 13.845993 0.000021
4.578956 13.845993 0.000196
4.893677 13.845993 0.000237
5.208398 13.845993 0.000117
5.523119 13.845993 0.000092
5.837841 13.845993 -0.000123
6.152562 13.845993 -0.000012
6.467283 13.845993 0.000834
6.782003 13.845993 0.001411
7.096724 13.845993 0.002618
7.411445 13.845993 0.004341
7.726166 13.845993 0.005315
8.040888 13.845993 0.005176
8.355608 13.845993 0.006271
8.670330 13.845993 0.015671
8.985050 13.845993 0.021439
9.299772 13.845993 0.026950
9.614492 13.845993 0.023794
9.929214 13.845993 0.027051
10.243935 13.845993 0.047950
10.558655 13.845993 0.062143
10.873377 13.845993 0.043199
11.188097 13.845993 0.048427
11.502819 13.845993 0.041339
11.817539 13.845993 0.043765
12.132261 13.845993 0.033607
12.446981 13.845993 0.042643
12.761703 13.845993 0.068240
13.076424 13.845993 0.054330
13.391144 13.845993 0.062961
13.705866 13.845993 0.064704
14.020586 13.845993 0.059042
14.335308 13.845993 0.044901
14.650028 13.845993 0.040388
14.964750 13.845993 0.055308
15.279470 13.845993 0.041224
15.594193 13.845993 0.071109
15.908913 13.845993 0.000000
16.223633 13.845993 0.000000
16.538355 13.845993 0.000000
16.853075 13.845993 0.000000
17.167797 13.845993 0.000000
17.482517 13.845993 0.000000
17.797239 13.845993 0.000000
18.111959 13.845993 0.000000
18.426680 13.845993 0.000000
18.741402 13.845993 0.000000
-7.065720 13.531273 0.000000
-6.750999 13.531273 0.001076
-6.436278 13.531273 0.000757
-6.121557 13.531273 0.000672
-5.806836 13.531273 0.000518
-5.492115 13.531273 0.000556
-5.177394 13.531273 0.000597
-4.862673 13.531273 0.000677
-4.547952 13.531273 0.000607
-4.233231 13.531273 0.000577
-3.918510 13.531273 0.000600
-3.603789 13.531273 0.000547
-3.289068 13.531273 0.000550
-2.974347 13.531273 0.000611
-2.659626 13.531273 0.000612
-2.344905 13.531273 0.000568
-2.030184 13.531273 0.000531
-1.715463 13.531273 0.000461
-1.400742 13.531273 0.000413
-1.086021 13.531273 0.000439
-0.771300 13.531273 0.000365
-0.456579 13.531273 0.000345
-0.141859 13.531273 0.000284
0.172863 13.531273 0.000225
0.487584 13.531273 0.000224
0.802305 13.531273 0.000237
1.117026 13.531273 0.000245
1.431747 13.531273 0.000244
1.746467 13.531273 0.000246
2.061188 13.531273 0.000279
2.375909 13.531273 0.000247
2.690630 13.531273 0.000190
3.005352 13.531273 0.000171
3.320073 13.531273 0.000186
3.634794 13.531273 0.000100
3.949515 13.531273 -0.000021
4.264236 13.531273 0.000078
4.578956 13.531273 0.000168
4.893677 13.531273 0.000210
5.208398 13.531273 0.000114
5.523119 13.531273 -0.000003
5.837841 13.531273 -0.000286
6.152562 13.531273 -0.000037
6.467283 13.531273 0.000598
6.782003 13.531273 0.001098
7.096724 13.531273 0.002075
7.411445 13.531273 0.004468
7.726166 13.531273 0.007034
8.040888 13.531273 0.004663
8.355608 13.531273 0.004988
8.670330 13.531273 0.013903
8.985050 13.531273 0.023701
9.299772 13.531273 0.028109
9.614492 13.531273 0.032571
9.929214 13.531273 0.038134
10.243935 13.531273 0.050307
10.558655 13.531273 0.052145
10.873377 13.531273 0.044499
11.188097 13.531273 0.048007
11.502819 13.531273 0.043116
11.817539 13.531273 0.040686
12.132261 13.531273 0.038403
12.446981 13.531273 0.045551
12.761703 13.531273 0.084019
13.076424 13.531273 0.069290
13.391144 13.531273 0.074422
13.705866 13.531273 0.059059
14.020586 13.531273 0.055052
14.335308 13.531273 0.054430
14.650028 13.531273 0.057548
14.964750 13.531273 0.071418
15.279470 13.531273 0.030630
15.594193 13.531273 0.062597
15.908913 13.531273 0.000000
16.223633 13.531273 0.000000
16.538355 13.531273 0.000000
16.853075 13.531273 0.000000
17.167797 13.531273 0.000000
17.482517 13.531273 0.000000
17.797239 13.531273 0.000000
18.111959 13.531273 0.000000
18.426680 13.531273 0.000000
18.741402 13.531273 0.000000
-7.065720 13.216553 0.000000
-6.750999 13.216553 0.001070
-6.436278 13.216553 0.000751
-6.121557 13.216553 0.000624
-5.806836 13.216553 0.000535
-5.492115 13.216553 0.000584
-5.177394 13.216553 0.000629
-4.862673 13.216553 0.000666
-4.547952 13.216553 0.000575
-4.233231 13.216553 0.000545
-3.918510 13.216553 0.000583
-3.603789 13.216553 0.000548
-3.289068 13.216553 0.000489
-2.974347 13.216553 0.000498
-2.659626 13.216553 0.000477
-2.344905 13.216553 0.000493
-2.030184 13.216553 0.000511
-1.715463 13.216553 0.000458
-1.400742 13.216553 0.000414
-1.086021 13.216553 0.000397
-0.771300 13.216553 0.000342
-0.456579 13.216553 0.000328
-0.141859 13.216553 0.000285
0.172863 13.216553 0.000294
0.487584 13.216553 0.000315
0.802305 13.216553 0.000267
1.117026 13.216553 0.000273
1.431747 13.216553 0.000228
1.746467 13.216553 0.000185
2.061188 13.216553 0.000259
2.375909 13.216553 0.000262
2.690630 13.216553 0.000169
3.005352 13.216553 0.000140
3.320073 13.216553 0.000133
3.634794 13.216553 0.000047
3.949515 13.216553 0.000000
4.264236 13.216553 0.000098
4.578956 13.216553 0.000085
4.893677 13.216553 0.000132
5.208398 13.216553 0.000099
5.523119 13.216553 -0.000064
5.837841 13.216553 -0.000313
6.152562 13.216553 0.000257
6.467283 13.216553 0.000347
6.782003 13.216553 0.001068
7.096724 13.216553 0.001433
7.411445 13.216553 0.003495
7.726166 13.216553 0.007172
8.040888 13.216553 0.008058
8.355608 13.216553 0.005589
8.670330 13.216553 0.016364
8.985050 13.216553 0.022420
9.299772 13.216553 0.029159
9.614492 13.216553 0.041681
9.929214 13.216553 0.052775
10.243935 13.216553 0.057305
10.558655 13.216553 0.057713
10.873377 13.216553 0.041651
11.188097 13.216553 0.050774
11.502819 13.216553 0.049959
11.817539 13.216553 0.050336
12.132261 13.216553 0.055180
12.446981 13.216553 0.048523
12.761703 13.216553 0.063738
13.076424 13.216553 0.067177
13.391144 13.216553 0.064292
13.705866 13.216553 0.049892
14.020586 13.216553 0.068681
14.335308 13.216553 0.049061
14.650028 13.216553 0.064148
14.964750 13.216553 0.065478
15.279470 13.216553 0.065185
15.594193 13.216553 0.083604
15.908913 13.216553 0.000000
16.223633 13.216553 0.000000
16.538355 13.216553 0.000000
16.853075 13.216553 0.000000
17.167797 13.216553 0.000000
17.482517 13.216553 0.000000
17.797239 13.216553 0.000000
18.111959 13.216553 0.000000
18.426680 13.216553 0.000000
18.741402 13.216553 0.000000
-7.065720 12.901829 0.000000
-6.750999 12.901829 0.001032
-6.436278 12.901829 0.000742
-6.121557 12.901829 0.000626
-5.806836 12.901829 0.000561
-5.492115 12.901829 0.000564
-5.177394 12.901829 0.000630
-4.862673 12.901829 0.000642
-4.547952 12.901829 0.000559
-4.233231 12.901829 0.000527
-3.918510 12.901829 0.000538
-3.603789 12.901829 0.000519
-3.289068 12.901829 0.000442
-2.974347 12.901829 0.000412
-2.659626 12.901829 0.000401
-2.344905 12.901829 0.000433
-2.030184 12.901829 0.000513
-1.715463 12.901829 0.000480
-1.400742 12.901829 0.000380
-1.086021 12.901829 0.000360
-0.771300 12.901829 0.000347
-0.456579 12.901829 0.000287
-0.141859 12.901829 0.000303
0.172863 12.901829 0.000366
0.487584 12.901829 0.000362
0.802305 12.901829 0.000246
1.117026 12.901829 0.000236
1.431747 12.901829 0.000185
1.746467 12.901829 0.000129
2.061188 12.901829 0.000247
2.375909 12.901829 0.000261
2.690630 12.901829 0.000131
3.005352 12.901829 0.000083
3.320073 12.901829 0.000066
3.634794 12.901829 -0.000009
3.949515 12.901829 -0.000011
4.264236 12.901829 0.000065
4.578956 12.901829 0.000033
4.893677 12.901829 -0.000009
5.208398 12.901829 0.000044
5.523119 12.901829 -0.000085
5.837841 12.901829 -0.000148
6.152562 12.901829 0.000394
6.467283 12.901829 0.000630
6.782003 12.901829 0.001329
7.096724 12.901829 0.002215
7.411445 12.901829 0.003916
7.726166 12.901829 0.006833
8.040888 12.901829 0.009924
8.355608 12.901829 0.009913
8.670330 12.901829 0.020492
8.985050 12.901829 0.027242
9.299772 12.901829 0.028992
9.614492 12.901829 0.037673
9.929214 12.901829 0.056643
10.243935 12.901829 0.060439
10.558655 12.901829 0.059489
10.873377 12.901829 0.048843
11.188097 12.901829 0.052881
11.502819 12.901829 0.050163
11.817539 12.901829 0.047498
12.132261 12.901829 0.057429
12.446981 12.901829 0.065318
12.761703 12.901829 0.057287
13.076424 12.901829 0.064126
13.391144 12.901829 0.039777
13.705866 12.901829 0.052332
14.020586 12.901829 0.061347
14.335308 12.901829 0.063476
14.650028 12.901829 0.047583
14.964750 12.901829 0.055866
15.279470 12.901829 0.018024
15.594193 12.901829 0.078932
15.908913 12.901829 0.000000
16.223633 12.901829 0.000000
16.538355 12.901829 0.000000
16.853075 12.901829 0.000000
17.167797 12.901829 0.000000
17.482517 12.901829 0.000000
17.797239 12.901829 0.000000
18.111959 12.901829 0.000000
18.426680 12.901829 0.000000
18.741402 12.901829 0.000000
-7.065720 12.587109 0.000000
-6.750999 12.587109 0.000975
-6.436278 12.587109 0.000705
-6.121557 12.587109 0.000640
-5.806836 12.587109 0.000564
-5.492115 12.587109 0.000541
-5.177394 12.587109 0.000636
-4.862673 12.587109 0.000638
-4.547952 12.587109 0.000548
-4.233231 12.587109 0.000556
-3.918510 12.587109 0.000513
-3.603789 12.587109 0.000502
-3.289068 12.587109 0.000435
-2.974347 12.587109 0.000405
-2.659626 12.587109 0.000400
-2.344905 12.587109 0.000454
-2.030184 12.587109 0.000538
-1.715463 12.587109 0.000474
-1.400742 12.587109 0.000355
-1.086021 12.587109 0.000363
-0.771300 12.587109 0.000310
-0.456579 12.587109 0.000200
-0.141859 12.587109 0.000301
0.172863 12.587109 0.000398
0.487584 12.587109 0.000381
0.802305 12.587109 0.000239
1.117026 12.587109 0.000236
1.431747 12.587109 0.000172
1.746467 12.587109 0.000153
2.061188 12.587109 0.000222
2.375909 12.587109 0.000173
2.690630 12.587109 0.000052
3.005352 12.587109 0.000026
3.320073 12.587109 0.000042
3.634794 12.587109 -0.000043
3.949515 12.587109 -0.000024
4.264236 12.587109 -0.000037
4.578956 12.587109 -0.000156
4.893677 12.587109 -0.000167
5.208398 12.587109 -0.000054
5.523119 12.587109 -0.000192
5.837841 12.587109 0.000043
6.152562 12.587109 0.000654
6.467283 12.587109 0.000723
6.782003 12.587109 0.001149
7.096724 12.587109 0.002065
7.411445 12.587109 0.004115
7.726166 12.587109 0.006158
8.040888 12.587109 0.009995
8.355608 12.587109 0.012951
8.670330 12.587109 0.024299
8.985050 12.587109 0.027200
9.299772 12.587109 0.030125
9.614492 12.587109 0.040810
9.929214 12.587109 0.047708
10.243935 12.587109 0.055675
10.558655 12.587109 0.057160
10.873377 12.587109 0.066360
11.188097 12.587109 0.058929
11.502819 12.587109 0.054339
11.817539 12.587109 0.060876
12.132261 12.587109 0.047947
12.446981 12.587109 0.053917
12.761703 12.587109 0.054250
13.076424 12.587109 0.057314
13.391144 12.587109 0.028226
13.705866 12.587109 0.038093
14.020586 12.587109 0.048009
14.335308 12.587109 0.048068
14.650028 12.587109 0.026425
14.964750 12.587109 0.031101
15.279470 12.587109 0.013500
15.594193 12.587109 0.032069
15.908913 12.587109 0.000000
16.223633 12.587109 0.000000
16.538355 12.587109 0.000000
16.853075 12.587109 0.000000
17.167797 12.587109 0.000000
17.482517 12.587109 0.000000
17.797239 12.587109 0.000000
18.111959 12.587109 0.000000
18.426680 12.587109 0.000000
18.741402 12.587109 0.000000
-7.065720 12.272388 0.000000
-6.750999 12.272388 0.000892
-6.436278 12.272388 0.000649
-6.121557 12.272388 0.000618
-5.806836 12.272388 0.000550
-5.492115 12.272388 0.000536
-5.177394 12.272388 0.000633
-4.862673 12.272388 0.000634
-4.547952 12.272388 0.000578
-4.233231 12.272388 0.000618
-3.918510 12.272388 0.000556
-3.603789 12.272388 0.000541
-3.289068 12.272388 0.000505
-2.974347 12.272388 0.000432
-2.659626 12.272388 0.000410
-2.344905 12.272388 0.000472
-2.030184 12.272388 0.000551
-1.715463 12.272388 0.000452
-1.400742 12.272388 0.000360
-1.086021 12.272388 0.000383
-0.771300 12.272388 0.000279
-0.456579 12.272388 0.000172
-0.141859 12.272388 0.000338
0.172863 12.272388 0.000423
0.487584 12.272388 0.000386
0.802305 12.272388 0.000303
1.117026 12.272388 0.000313
1.431747 12.272388 0.000264
1.746467 12.272388 0.000257
2.061188 12.272388 0.000265
2.375909 12.272388 0.000107
2.690630 12.272388 0.000010
3.005352 12.272388 0.000014
3.320073 12.272388 0.000005
3.634794 12.272388 -0.000048
3.949515 12.272388 -0.000038
4.264236 12.272388 -0.000100
4.578956 12.272388 -0.000225
4.893677 12.272388 -0.000190
5.208398 12.272388 -0.000171
5.523119 12.272388 -0.000060
5.837841 12.272388 0.000383
6.152562 12.272388 0.000761
6.467283 12.272388 0.000723
6.782003 12.272388 0.001189
7.096724 12.272388 0.002063
7.411445 12.272388 0.003775
7.726166 12.272388 0.005924
8.040888 12.272388 0.009271
8.355608 12.272388 0.015207
8.670330 12.272388 0.024807
8.985050 12.272388 0.027398
9.299772 12.272388 0.030916
9.614492 12.272388 0.038359
9.929214 12.272388 0.048254
10.243935 12.272388 0.051314
10.558655 12.272388 0.056076
10.873377 12.272388 0.062971
11.188097 12.272388 0.055728
11.502819 12.272388 0.056052
11.817539 12.272388 0.050580
12.132261 12.272388 0.036920
12.446981 12.272388 0.045354
12.761703 12.272388 0.049706
13.076424 12.272388 0.050332
13.391144 12.272388 0.024406
13.705866 12.272388 0.041826
14.020586 12.272388 0.044717
14.335308 12.272388 0.025809
14.650028 12.272388 0.030014
14.964750 12.272388 0.044309
15.279470 12.272388 0.025202
15.594193 12.272388 -0.121357
15.908913 12.272388 0.000000
16.223633 12.272388 0.000000
16.538355 12.272388 0.000000
16.853075 12.272388 0.000000
17.167797 12.272388 0.000000
17.482517 12.272388 0.000000
17.797239 12.272388 0.000000
18.111959 12.272388 0.000000
18.426680 12.272388 0.000000
18.741402 12.272388 0.000000
-7.065720 11.957668 0.000000
-6.750999 11.957668 0.000804
-6.436278 11.957668 0.000558
-6.121557 11.957668 0.000573
-5.806836 11.957668 0.000581
-5.492115 11.957668 0.000572
-5.177394 11.957668 0.000627
-4.862673 11.957668 0.000659
-4.547952 11.957668 0.000631
-4.233231 11.957668 0.000703
-3.918510 11.957668 0.000640
-3.603789 11.957668 0.000603
-3.289068 11.957668 0.000526
-2.974347 11.957668 0.000403
-2.659626 11.957668 0.000405
-2.344905 11.957668 0.000479
-2.030184 11.957668 0.000525
-1.715463 11.957668 0.000420
-1.400742 11.957668 0.000376
-1.086021 11.957668 0.000423
-0.771300 11.957668 0.000293
-0.456579 11.957668 0.000230
-0.141859 11.957668 0.000407
0.172863 11.957668 0.000445
0.487584 11.957668 0.000401
0.802305 11.957668 0.000401
1.117026 11.957668 0.000378
1.431747 11.957668 0.000300
1.746467 11.957668 0.000326
2.061188 11.957668 0.000274
2.375909 11.957668 0.000097
2.690630 11.957668 0.000057
3.005352 11.957668 0.000056
3.320073 11.957668 -0.000006
3.634794 11.957668 -0.000063
3.949515 11.957668 -0.000082
4.264236 11.957668 -0.000171
4.578956 11.957668 -0.000276
4.893677 11.957668 -0.000218
5.208398 11.957668 -0.000186
5.523119 11.957668 0.000007
5.837841 11.957668 0.000476
6.152562 11.957668 0.000538
6.467283 11.957668 0.000514
6.782003 11.957668 0.000968
7.096724 11.957668 0.001250
7.411445 11.957668 0.003719
7.726166 11.957668 0.007302
8.040888 11.957668 0.009892
8.355608 11.957668 0.015631
8.670330 11.957668 0.023045
8.985050 11.957668 0.023365
9.299772 11.957668 0.030875
9.614492 11.957668 0.043504
9.929214 11.957668 0.048102
10.243935 11.957668 0.052401
10.558655 11.957668 0.052301
10.873377 11.957668 0.049986
11.188097 11.957668 0.054820
11.502819 11.957668 0.057322
11.817539 11.957668 0.047262
12.132261 11.957668 0.052679
12.446981 11.957668 0.039679
12.761703 11.957668 0.060184
13.076424 11.957668 0.039860
13.391144 11.957668 0.028178
13.705866 11.957668 0.045875
14.020586 11.957668 0.035407
14.335308 11.957668 0.041542
14.650028 11.957668 0.036074
14.964750 11.957668 0.030593
15.279470 11.957668 0.011090
15.594193 11.957668 0.117077
15.908913 11.957668 0.000000
16.223633 11.957668 0.000000
16.538355 11.957668 0.000000
16.853075 11.957668 0.000000
17.167797 11.957668 0.000000
17.482517 11.957668 0.000000
17.797239 11.957668 0.000000
18.111959 11.957668 0.000000
18.426680 11.957668 0.000000
18.741402 11.957668 0.000000
-7.065720 11.642944 0.000000
-6.750999 11.642944 0.000838
-6.436278 11.642944 0.000532
-6.121557 11.642944 0.000526
-5.806836 11.642944 0.000634
-5.492115 11.642944 0.000637
-5.177394 11.642944 0.000626
-4.862673 11.642944 0.000654
-4.547952 11.642944 0.000655
-4.233231 11.642944 0.000734
-3.918510 11.642944 0.000695
-3.603789 11.642944 0.000654
-3.289068 11.642944 0.000513
-2.974347 11.642944 0.000326
-2.659626 11.642944 0.000400
-2.344905 11.642944 0.000477
-2.030184 11.642944 0.000467
-1.715463 11.642944 0.000352
-1.400742 11.642944 0.000354
-1.086021 11.642944 0.000437
-0.771300 11.642944 0.000346
-0.456579 11.642944 0.000334
-0.141859 11.642944 0.000464
0.172863 11.642944 0.000428
0.487584 11.642944 0.000394
0.802305 11.642944 0.000434
1.117026 11.642944 0.000375
1.431747 11.642944 0.000319
1.746467 11.642944 0.000330
2.061188 11.642944 0.000276
2.375909 11.642944 0.000136
2.690630 11.642944 0.000160
3.005352 11.642944 0.000132
3.320073 11.642944 0.000030
3.634794 11.642944 -0.000030
3.949515 11.642944 -0.000079
4.264236 11.642944 -0.000140
4.578956 11.642944 -0.000243
4.893677 11.642944 -0.000191
5.208398 11.642944 -0.000192
5.523119 11.642944 -0.000060
5.837841 11.642944 0.000257
6.152562 11.642944 0.000500
6.467283 11.642944 0.000361
6.782003 11.642944 -0.000105
7.096724 11.642944 0.000459
7.411445 11.642944 0.003192
7.726166 11.642944 0.007545
8.040888 11.642944 0.012193
8.355608 11.642944 0.013580
8.670330 11.642944 0.022080
8.985050 11.642944 0.023393
9.299772 11.642944 0.030470
9.614492 11.642944 0.046175
9.929214 11.642944 0.050893
10.243935 11.642944 0.055314
10.558655 11.642944 0.054961
10.873377 11.642944 0.043625
11.188097 11.642944 0.037555
11.502819 11.642944 0.052459
11.817539 11.642944 0.060012
12.132261 11.642944 0.048869
12.446981 11.642944 0.049585
12.761703 11.642944 0.063731
13.076424 11.642944 0.041226
13.391144 11.642944 0.025495
13.705866 11.642944 0.040295
14.020586 11.642944 0.033815
14.335308 11.642944 0.046580
14.650028 11.642944 0.041446
14.964750 11.642944 0.037653
15.279470 11.642944 -0.001239
15.594193 11.642944 0.143490
15.908913 11.642944 0.000000
16.223633 11.642944 0.000000
16.538355 11.642944 0.000000
16.853075 11.642944 0.000000
17.167797 11.642944 0.000000
17.482517 11.642944 0.000000
17.797239 11.642944 0.000000
18.111959 11.642944 0.000000
18.426680 11.642944 0.000000
18.741402 11.642944 0.000000
-7.065720 11.328224 0.000000
-6.750999 11.328224 0.000946
-6.436278 11.328224 0.000564
-6.121557 11.328224 0.000494
-5.806836 11.328224 0.000648
-5.492115 11.328224 0.000664
-5.177394 11.328224 0.000619
-4.862673 11.328224 0.000619
-4.547952 11.328224 0.000615
-4.233231 11.328224 0.000668
-3.918510 11.328224 0.000664
-3.603789 11.328224 0.000616
-3.289068 11.328224 0.000437
-2.974347 11.328224 0.000274
-2.659626 11.328224 0.000401
-2.344905 11.328224 0.000468
-2.030184 11.328224 0.000429
-1.715463 11.328224 0.000336
-1.400742 11.328224 0.000360
-1.086021 11.328224 0.000410
-0.771300 11.328224 0.000403
-0.456579 11.328224 0.000437
-0.141859 11.328224 0.000494
0.172863 11.328224 0.000394
0.487584 11.328224 0.000357
0.802305 11.328224 0.000410
1.117026 11.328224 0.000369
1.431747 11.328224 0.000329
1.746467 11.328224 0.000331
2.061188 11.328224 0.000275
2.375909 11.328224 0.000203
2.690630 11.328224 0.000234
3.005352 11.328224 0.000210
3.320073 11.328224 0.000072
3.634794 11.328224 0.000022
3.949515 11.328224 0.000008
4.264236 11.328224 -0.000026
4.578956 11.328224 -0.000134
4.893677 11.328224 -0.000228
5.208398 11.328224 -0.000186
5.523119 11.328224 -0.000037
5.837841 11.328224 0.000213
6.152562 11.328224 0.000264
6.467283 11.328224 -0.000010
6.782003 11.328224 0.000195
7.096724 11.328224 0.000289
7.411445 11.328224 0.002696
7.726166 11.328224 0.006001
8.040888 11.328224 0.010123
8.355608 11.328224 0.014283
8.670330 11.328224 0.022926
8.985050 11.328224 0.022907
9.299772 11.328224 0.031401
9.614492 11.328224 0.042458
9.929214 11.328224 0.057225
10.243935 11.328224 0.055780
10.558655 11.328224 0.054591
10.873377 11.328224 0.056751
11.188097 11.328224 0.045449
11.502819 11.328224 0.053800
11.817539 11.328224 0.048318
12.132261 11.328224 0.048639
12.446981 11.328224 0.056098
12.761703 11.328224 0.046664
13.076424 11.328224 0.033996
13.391144 11.328224 0.011835
13.705866 11.328224 0.006243
14.020586 11.328224 0.052027
14.335308 11.328224 0.060317
14.650028 11.328224 0.044106
14.964750 11.328224 0.000262
15.279470 11.328224 -0.054648
15.594193 11.328224 0.301662
15.908913 11.328224 0.000000
16.223633 11.328224 0.000000
16.538355 11.328224 0.000000
16.853075 11.328224 0.000000
17.167797 11.328224 0.000000
17.482517 11.328224 0.000000
17.797239 11.328224 0.000000
18.111959 11.328224 0.000000
18.426680 11.328224 0.000000
18.741402 11.328224 0.000000
-7.065720 11.013504 0.000000
-6.750999 11.013504 0.001025
-6.436278 11.013504 0.000652
-6.121557 11.013504 0.000511
-5.806836 11.013504 0.000609
-5.492115 11.013504 0.000611
-5.177394 11.013504 0.000570
-4.862673 11.013504 0.000582
-4.547952 11.013504 0.000565
-4.233231 11.013504 0.000547
-3.918510 11.013504 0.000597
-3.603789 11.013504 0.000570
-3.289068 11.013504 0.000393
-2.974347 11.013504 0.000282
-2.659626 11.013504 0.000413
-2.344905 11.013504 0.000471
-2.030184 11.013504 0.000461
-1.715463 11.013504 0.000379
-1.400742 11.013504 0.000345
-1.086021 11.013504 0.000386
-0.771300 11.013504 0.000441
-0.456579 11.013504 0.000528
-0.141859 11.013504 0.000528
0.172863 11.013504 0.000377
0.487584 11.013504 0.000320
0.802305 11.013504 0.000378
1.117026 11.013504 0.000366
1.431747 11.013504 0.000358
1.746467 11.013504 0.000338
2.061188 11.013504 0.000244
2.375909 11.013504 0.000244
2.690630 11.013504 0.000287
3.005352 11.013504 0.000273
3.320073 11.013504 0.000140
3.634794 11.013504 0.000082
3.949515 11.013504 0.000105
4.264236 11.013504 0.000096
4.578956 11.013504 0.000003
4.893677 11.013504 -0.000185
5.208398 11.013504 -0.000165
5.523119 11.013504 -0.000006
5.837841 11.013504 -0.000114
6.152562 11.013504 0.000138
6.467283 11.013504 0.000297
6.782003 11.013504 0.000410
7.096724 11.013504 0.000965
7.411445 11.013504 0.003032
7.726166 11.013504 0.004954
8.040888 11.013504 0.009869
8.355608 11.013504 0.013363
8.670330 11.013504 0.018970
8.985050 11.013504 0.026201
9.299772 11.013504 0.032289
9.614492 11.013504 0.044843
9.929214 11.013504 0.062304
10.243935 11.013504 0.063895
10.558655 11.013504 0.067674
10.873377 11.013504 0.061377
11.188097 11.013504 0.065779
11.502819 11.013504 0.054133
11.817539 11.013504 0.043853
12.132261 11.013504 0.044986
12.446981 11.013504 0.074103
12.761703 11.013504 0.051595
13.076424 11.013504 0.026590
13.391144 11.013504 0.015409
13.705866 11.013504 0.009967
14.020586 11.013504 0.029948
14.335308 11.013504 0.050179
14.650028 11.013504 0.041709
14.964750 11.013504 -0.003442
15.279470 11.013504 -0.065985
15.594193 11.013504 14.448641
15.908913 11.013504 0.000000
16.223633 11.013504 0.000000
16.538355 11.013504 0.000000
16.853075 11.013504 0.000000
17.167797 11.013504 0.000000
17.482517 11.013504 0.000000
17.797239 11.013504 0.000000
18.111959 11.013504 0.000000
18.426680 11.013504 0.000000
18.741402 11.013504 0.000000
-7.065720 10.698784 0.000000
-6.750999 10.698784 0.000975
-6.436278 10.698784 0.000684
-6.121557 10.698784 0.000542
-5.806836 10.698784 0.000530
-5.492115 10.698784 0.000504
-5.177394 10.698784 0.000518
-4.862673 10.698784 0.000597
-4.547952 10.698784 0.000552
-4.233231 10.698784 0.000477
-3.918510 10.698784 0.000533
-3.603789 10.698784 0.000555
-3.289068 10.698784 0.000408
-2.974347 10.698784 0.000369
-2.659626 10.698784 0.000441
-2.344905 10.698784 0.000492
-2.030184 10.698784 0.000525
-1.715463 10.698784 0.000419
-1.400742 10.698784 0.000324
-1.086021 10.698784 0.000356
-0.771300 10.698784 0.000414
-0.456579 10.698784 0.000529
-0.141859 10.698784 0.000557
0.172863 10.698784 0.000416
0.487584 10.698784 0.000323
0.802305 10.698784 0.000361
1.117026 10.698784 0.000360
1.431747 10.698784 0.000353
1.746467 10.698784 0.000314
2.061188 10.698784 0.000205
2.375909 10.698784 0.000252
2.690630 10.698784 0.000332
3.005352 10.698784 0.000376
3.320073 10.698784 0.000245
3.634794 10.698784 0.000149
3.949515 10.698784 0.000189
4.264236 10.698784 0.000214
4.578956 10.698784 0.000108
4.893677 10.698784 -0.000082
5.208398 10.698784 -0.000083
5.523119 10.698784 0.000107
5.837841 10.698784 -0.000194
6.152562 10.698784 -0.000164
6.467283 10.698784 0.000389
6.782003 10.698784 0.000732
7.096724 10.698784 0.000978
7.411445 10.698784 0.001964
7.726166 10.698784 0.003303
8.040888 10.698784 0.009424
8.355608 10.698784 0.014916
8.670330 10.698784 0.022524
8.985050 10.698784 0.030088
9.299772 10.698784 0.031628
9.614492 10.698784 0.047270
9.929214 10.698784 0.056861
10.243935 10.698784 0.076089
10.558655 10.698784 0.080304
10.873377 10.698784 0.076633
11.188097 10.698784 0.069529
11.502819 10.698784 0.054472
11.817539 10.698784 0.035242
12.132261 10.698784 0.053138
12.446981 10.698784 0.071227
12.761703 10.698784 0.051773
13.076424 10.698784 0.038522
13.391144 10.698784 0.028091
13.705866 10.698784 0.023368
14.020586 10.698784 0.020762
14.335308 10.698784 0.045688
14.650028 10.698784 0.041392
14.964750 10.698784 0.019474
15.279470 10.698784 -0.039834
15.594193 10.698784 0.000000
15.908913 10.698784 0.000000
16.223633 10.698784 0.000000
16.538355 10.698784 0.000000
16.853075 10.698784 0.000000
17.167797 10.698784 0.000000
17.482517 10.698784 0.000000
17.797239 10.698784 0.000000
18.111959 10.698784 0.000000
18.426680 10.698784 0.000000
18.741402 10.698784 0.000000
-7.065720 10.384064 0.000000
-6.750999 10.384064 0.000913
-6.436278 10.384064 0.000705
-6.121557 10.384064 0.000575
-5.806836 10.384064 0.000453
-5.492115 10.384064 0.000430
-5.177394 10.384064 0.000519
-4.862673 10.384064 0.000652
-4.547952 10.384064 0.000574
-4.233231 10.384064 0.000459
-3.918510 10.384064 0.000485
-3.603789 10.384064 0.000543
-3.289068 10.384064 0.000442
-2.974347 10.384064 0.000478
-2.659626 10.384064 0.000483
-2.344905 10.384064 0.000516
-2.030184 10.384064 0.000562
-1.715463 10.384064 0.000428
-1.400742 10.384064 0.000343
-1.086021 10.384064 0.000369
-0.771300 10.384064 0.000380
-0.456579 10.384064 0.000466
-0.141859 10.384064 0.000526
0.172863 10.384064 0.000429
0.487584 10.384064 0.000304
0.802305 10.384064 0.000331
1.117026 10.384064 0.000341
1.431747 10.384064 0.000302
1.746467 10.384064 0.000294
2.061188 10.384064 0.000210
2.375909 10.384064 0.000271
2.690630 10.384064 0.000383
3.005352 10.384064 0.000478
3.320073 10.384064 0.000325
3.634794 10.384064 0.000206
3.949515 10.384064 0.000212
4.264236 10.384064 0.000224
4.578956 10.384064 0.000169
4.893677 10.384064 -0.000079
5.208398 10.384064 -0.000037
5.523119 10.384064 0.000058
5.837841 10.384064 0.000141
6.152562 10.384064 -0.000028
6.467283 10.384064 -0.000126
6.782003 10.384064 0.000518
7.096724 10.384064 0.000945
7.411445 10.384064 0.003624
7.726166 10.384064 0.005611
8.040888 10.384064 0.010653
8.355608 10.384064 0.018648
8.670330 10.384064 0.024911
8.985050 10.384064 0.031642
9.299772 10.384064 0.037146
9.614492 10.384064 0.048150
9.929214 10.384064 0.065133
10.243935 10.384064 0.080340
10.558655 10.384064 0.078469
10.873377 10.384064 0.078428
11.188097 10.384064 0.074987
11.502819 10.384064 0.054603
11.817539 10.384064 0.034030
12.132261 10.384064 0.036762
12.446981 10.384064 0.053756
12.761703 10.384064 0.030879
13.076424 10.384064 0.020179
13.391144 10.384064 0.025013
13.705866 10.384064 0.036949
14.020586 10.384064 0.019493
14.335308 10.384064 0.030612
14.650028 10.384064 0.040285
14.964750 10.384064 0.018096
15.279470 10.384064 -0.015722
15.594193 10.384064 0.000000
15.908913 10.384064 0.000000
16.223633 10.384064 0.000000
16.538355 10.384064 0.000000
16.853075 10.384064 0.000000
17.167797 10.384064 0.000000
17.482517 10.384064 0.000000
17.797239 10.384064 0.000000
18.111959 10.384064 0.000000
18.426680 10.384064 0.000000
18.741402 10.384064 0.000000
-7.065720 10.069340 0.000000
-6.750999 10.069340 0.000800
-6.436278 10.069340 0.000670
-6.121557 10.069340 0.000542
-5.806836 10.069340 0.000419
-5.492115 10.069340 0.000414
-5.177394 10.069340 0.000542
-4.862673 10.069340 0.000647
-4.547952 10.069340 0.000561
-4.233231 10.069340 0.000477
-3.918510 10.069340 0.000475
-3.603789 10.069340 0.000525
-3.289068 10.069340 0.000465
-2.974347 10.069340 0.000522
-2.659626 10.069340 0.000521
-2.344905 10.069340 0.000553
-2.030184 10.069340 0.000563
-1.715463 10.069340 0.000413
-1.400742 10.069340 0.000402
-1.086021 10.069340 0.000411
-0.771300 10.069340 0.000337
-0.456579 10.069340 0.000357
-0.141859 10.069340 0.000424
0.172863 10.069340 0.000361
0.487584 10.069340 0.000270
0.802305 10.069340 0.000294
1.117026 10.069340 0.000305
1.431747 10.069340 0.000275
1.746467 10.069340 0.000323
2.061188 10.069340 0.000292
2.375909 10.069340 0.000320
2.690630 10.069340 0.000427
3.005352 10.069340 0.000514
3.320073 10.069340 0.000357
3.634794 10.069340 0.000226
3.949515 10.069340 0.000201
4.264236 10.069340 0.000133
4.578956 10.069340 0.000020
4.893677 10.069340 -0.000078
5.208398 10.069340 -0.000005
5.523119 10.069340 0.000108
5.837841 10.069340 -0.000049
6.152562 10.069340 -0.000238
6.467283 10.069340 -0.000365
6.782003 10.069340 0.000188
7.096724 10.069340 0.001828
7.411445 10.069340 0.004720
7.726166 10.069340 0.008244
8.040888 10.069340 0.009062
8.355608 10.069340 0.018074
8.670330 10.069340 0.021928
8.985050 10.069340 0.031891
9.299772 10.069340 0.038042
9.614492 10.069340 0.048662
9.929214 10.069340 0.067814
10.243935 10.069340 0.072258
10.558655 10.069340 0.078104
10.873377 10.069340 0.075000
11.188097 10.069340 0.070458
11.502819 10.069340 0.055723
11.817539 10.069340 0.027611
12.132261 10.069340 0.027945
12.446981 10.069340 0.033474
12.761703 10.069340 0.035189
13.076424 10.069340 0.030060
13.391144 10.069340 0.018463
13.705866 10.069340 0.037324
14.020586 10.069340 0.009720
14.335308 10.069340 0.034458
14.650028 10.069340 0.054047
14.964750 10.069340 0.039893
15.279470 10.069340 -0.004526
15.594193 10.069340 0.000000
15.908913 10.069340 0.000000
16.223633 10.069340 0.000000
16.538355 10.069340 0.000000
16.853075 10.069340 0.000000
17.167797 10.069340 0.000000
17.482517 10.069340 0.000000
17.797239 10.069340 0.000000
18.111959 10.069340 0.000000
18.426680 10.069340 0.000000
18.741402 10.069340 0.000000
-7.065720 9.754620 0.000000
-6.750999 9.754620 0.000733
-6.436278 9.754620 0.000585
-6.121557 9.754620 0.000504
-5.806836 9.754620 0.000446
-5.492115 9.754620 0.000422
-5.177394 9.754620 0.000501
-4.862673 9.754620 0.000554
-4.547952 9.754620 0.000516
-4.233231 9.754620 0.000470
-3.918510 9.754620 0.000462
-3.603789 9.754620 0.000511
-3.289068 9.754620 0.000494
-2.974347 9.754620 0.000528
-2.659626 9.754620 0.000557
-2.344905 9.754620 0.000562
-2.030184 9.754620 0.000513
-1.715463 9.754620 0.000370
-1.400742 9.754620 0.000458
-1.086021 9.754620 0.000462
-0.771300 9.754620 0.000324
-0.456579 9.754620 0.000300
-0.141859 9.754620 0.000339
0.172863 9.754620 0.000320
0.487584 9.754620 0.000231
0.802305 9.754620 0.000260
1.117026 9.754620 0.000284
1.431747 9.754620 0.000276
1.746467 9.754620 0.000343
2.061188 9.754620 0.000368
2.375909 9.754620 0.000336
2.690630 9.754620 0.000393
3.005352 9.754620 0.000450
3.320073 9.754620 0.000329
3.634794 9.754620 0.000182
3.949515 9.754620 0.000156
4.264236 9.754620 0.000063
4.578956 9.754620 -0.000009
4.893677 9.754620 -0.000055
5.208398 9.754620 -0.000009
5.523119 9.754620 -0.000040
5.837841 9.754620 -0.000229
6.152562 9.754620 0.000040
6.467283 9.754620 0.000022
6.782003 9.754620 0.000358
7.096724 9.754620 0.002138
7.411445 9.754620 0.004732
7.726166 9.754620 0.009827
8.040888 9.754620 0.009502
8.355608 9.754620 0.015355
8.670330 9.754620 0.019502
8.985050 9.754620 0.023584
9.299772 9.754620 0.037156
9.614492 9.754620 0.049452
9.929214 9.754620 0.061741
10.243935 9.754620 0.066823
10.558655 9.754620 0.067106
10.873377 9.754620 0.070573
11.188097 9.754620 0.063552
11.502819 9.754620 0.048430
11.817539 9.754620 0.032197
12.132261 9.754620 0.021140
12.446981 9.754620 0.022834
12.761703 9.754620 0.031129
13.076424 9.754620 0.009303
13.391144 9.754620 0.000615
13.705866 9.754620 0.016366
14.020586 9.754620 0.021704
14.335308 9.754620 0.038691
14.650028 9.754620 0.066828
14.964750 9.754620 0.019353
15.279470 9.754620 -0.020850
15.594193 9.754620 0.000000
15.908913 9.754620 0.000000
16.223633 9.754620 0.000000
16.538355 9.754620 0.000000
16.853075 9.754620 0.000000
17.167797 9.754620 0.000000
17.482517 9.754620 0.000000
17.797239 9.754620 0.000000
18.111959 9.754620 0.000000
18.426680 9.754620 0.000000
18.741402 9.754620 0.000000
-7.065720 9.439899 0.000000
-6.750999 9.439899 0.000716
-6.436278 9.439899 0.000518
-6.121557 9.439899 0.000490
-5.806836 9.439899 0.000519
-5.492115 9.439899 0.000483
-5.177394 9.439899 0.000459
-4.862673 9.439899 0.000460
-4.547952 9.439899 0.000473
-4.233231 9.439899 0.000475
-3.918510 9.439899 0.000455
-3.603789 9.439899 0.000503
-3.289068 9.439899 0.000511
-2.974347 9.439899 0.000541
-2.659626 9.439899 0.000550
-2.344905 9.439899 0.000532
-2.030184 9.439899 0.000457
-1.715463 9.439899 0.000353
-1.400742 9.439899 0.000452
-1.086021 9.439899 0.000427
-0.771300 9.439899 0.000317
-0.456579 9.439899 0.000281
-0.141859 9.439899 0.000305
0.172863 9.439899 0.000335
0.487584 9.439899 0.000296
0.802305 9.439899 0.000295
1.117026 9.439899 0.000316
1.431747 9.439899 0.000307
1.746467 9.439899 0.000363
2.061188 9.439899 0.000404
2.375909 9.439899 0.000330
2.690630 9.439899 0.000286
3.005352 9.439899 0.000304
3.320073 9.439899 0.000257
3.634794 9.439899 0.000161
3.949515 9.439899 0.000129
4.264236 9.439899 0.000074
4.578956 9.439899 0.000063
4.893677 9.439899 0.000064
5.208398 9.439899 -0.000022
5.523119 9.439899 -0.000146
5.837841 9.439899 -0.000159
6.152562 9.439899 -0.000139
6.467283 9.439899 0.000129
6.782003 9.439899 0.000990
7.096724 9.439899 0.002932
7.411445 9.439899 0.005739
7.726166 9.439899 0.009210
8.040888 9.439899 0.011030
8.355608 9.439899 0.015210
8.670330 9.439899 0.018163
8.985050 9.439899 0.019449
9.299772 9.439899 0.032956
9.614492 9.439899 0.044479
9.929214 9.439899 0.051452
10.243935 9.439899 0.059676
10.558655 9.439899 0.068954
10.873377 9.439899 0.066709
11.188097 9.439899 0.046692
11.502819 9.439899 0.033994
11.817539 9.439899 0.032979
12.132261 9.439899 0.029066
12.446981 9.439899 0.033110
12.761703 9.439899 0.030056
13.076424 9.439899 0.010020
13.391144 9.439899 0.002440
13.705866 9.439899 0.020594
14.020586 9.439899 0.043485
14.335308 9.439899 0.060901
14.650028 9.439899 0.060657
14.964750 9.439899 0.011080
15.279470 9.439899 -0.006932
15.594193 9.439899 0.000000
15.908913 9.439899 0.000000
16.223633 9.439899 0.000000
16.538355 9.439899 0.000000
16.853075 9.439899 0.000000
17.167797 9.439899 0.000000
17.482517 9.439899 0.000000
17.797239 9.439899 0.000000
18.111959 9.439899 0.000000
18.426680 9.439899 0.000000
18.741402 9.439899 0.000000
-7.065720 9.125179 0.000000
-6.750999 9.125179 0.000703
-6.436278 9.125179 0.000471
-6.121557 9.125179 0.000507
-5.806836 9.125179 0.000609
-5.492115 9.125179 0.000546
-5.177394 9.125179 0.000442
-4.862673 9.125179 0.000402
-4.547952 9.125179 0.000452
-4.233231 9.125179 0.000477
-3.918510 9.125179 0.000474
-3.603789 9.125179 0.000498
-3.289068 9.125179 0.000496
-2.974347 9.125179 0.000516
-2.659626 9.125179 0.000504
-2.344905 9.125179 0.000470
-2.030184 9.125179 0.000434
-1.715463 9.125179 0.000378
-1.400742 9.125179 0.000414
-1.086021 9.125179 0.000389
-0.771300 9.125179 0.000342
-0.456579 9.125179 0.000339
-0.141859 9.125179 0.000352
0.172863 9.125179 0.000428
0.487584 9.125179 0.000418
0.802305 9.125179 0.000359
1.117026 9.125179 0.000357
1.431747 9.125179 0.000363
1.746467 9.125179 0.000367
2.061188 9.125179 0.000391
2.375909 9.125179 0.000327
2.690630 9.125179 0.000179
3.005352 9.125179 0.000144
3.320073 9.125179 0.000156
3.634794 9.125179 0.000151
3.949515 9.125179 0.000099
4.264236 9.125179 0.000061
4.578956 9.125179 0.000158
4.893677 9.125179 0.000227
5.208398 9.125179 0.000115
5.523119 9.125179 -0.000139
5.837841 9.125179 -0.000182
6.152562 9.125179 -0.000236
6.467283 9.125179 0.000326
6.782003 9.125179 0.001578
7.096724 9.125179 0.003835
7.411445 9.125179 0.006316
7.726166 9.125179 0.009325
8.040888 9.125179 0.010755
8.355608 9.125179 0.017245
8.670330 9.125179 0.021100
8.985050 9.125179 0.022605
9.299772 9.125179 0.033190
9.614492 9.125179 0.038499
9.929214 9.125179 0.049551
10.243935 9.125179 0.056485
10.558655 9.125179 0.064798
10.873377 9.125179 0.061158
11.188097 9.125179 0.053426
11.502819 9.125179 0.043845
11.817539 9.125179 0.050691
12.132261 9.125179 0.042318
12.446981 9.125179 0.038628
12.761703 9.125179 0.031089
13.076424 9.125179 0.021834
13.391144 9.125179 0.043962
13.705866 9.125179 0.043466
14.020586 9.125179 0.055397
14.335308 9.125179 0.053591
14.650028 9.125179 0.073135
14.964750 9.125179 0.016224
15.279470 9.125179 -0.033827
15.594193 9.125179 0.000000
15.908913 9.125179 0.000000
16.223633 9.125179 0.000000
16.538355 9.125179 0.000000
16.853075 9.125179 0.000000
17.167797 9.125179 0.000000
17.482517 9.125179 0.000000
17.797239 9.125179 0.000000
18.111959 9.125179 0.000000
18.426680 9.125179 0.000000
18.741402 9.125179 0.000000
-7.065720 8.810455 0.000000
-6.750999 8.810455 0.000699
-6.436278 8.810455 0.000497
-6.121557 8.810455 0.000572
-5.806836 8.810455 0.000640
-5.492115 8.810455 0.000561
-5.177394 8.810455 0.000466
-4.862673 8.810455 0.000393
-4.547952 8.810455 0.000429
-4.233231 8.810455 0.000484
-3.918510 8.810455 0.000523
-3.603789 8.810455 0.000478
-3.289068 8.810455 0.000436
-2.974347 8.810455 0.000448
-2.659626 8.810455 0.000424
-2.344905 8.810455 0.000400
-2.030184 8.810455 0.000438
-1.715463 8.810455 0.000445
-1.400742 8.810455 0.000435
-1.086021 8.810455 0.000412
-0.771300 8.810455 0.000424
-0.456579 8.810455 0.000441
-0.141859 8.810455 0.000447
0.172863 8.810455 0.000521
0.487584 8.810455 0.000486
0.802305 8.810455 0.000378
1.117026 8.810455 0.000328
1.431747 8.810455 0.000374
1.746467 8.810455 0.000361
2.061188 8.810455 0.000353
2.375909 8.810455 0.000304
2.690630 8.810455 0.000135
3.005352 8.810455 0.000052
3.320073 8.810455 0.000097
3.634794 8.810455 0.000156
3.949515 8.810455 0.000084
4.264236 8.810455 0.000104
4.578956 8.810455 0.000219
4.893677 8.810455 0.000224
5.208398 8.810455 0.000070
5.523119 8.810455 -0.000159
5.837841 8.810455 -0.000296
6.152562 8.810455 -0.000382
6.467283 8.810455 0.000194
6.782003 8.810455 0.001403
7.096724 8.810455 0.003196
7.411445 8.810455 0.005700
7.726166 8.810455 0.008075
8.040888 8.810455 0.013217
8.355608 8.810455 0.017535
8.670330 8.810455 0.021309
8.985050 8.810455 0.030488
9.299772 8.810455 0.030119
9.614492 8.810455 0.035708
9.929214 8.810455 0.051621
10.243935 8.810455 0.059559
10.558655 8.810455 0.071111
10.873377 8.810455 0.056172
11.188097 8.810455 0.057533
11.502819 8.810455 0.061882
11.817539 8.810455 0.056674
12.132261 8.810455 0.054873
12.446981 8.810455 0.046973
12.761703 8.810455 0.034059
13.076424 8.810455 0.042299
13.391144 8.810455 0.067730
13.705866 8.810455 0.058780
14.020586 8.810455 0.073660
14.335308 8.810455 0.051912
14.650028 8.810455 0.062602
14.964750 8.810455 0.018454
15.279470 8.810455 -0.034906
15.594193 8.810455 0.000000
15.908913 8.810455 0.000000
16.223633 8.810455 0.000000
16.538355 8.810455 0.000000
16.853075 8.810455 0.000000
17.167797 8.810455 0.000000
17.482517 8.810455 0.000000
17.797239 8.810455 0.000000
18.111959 8.810455 0.000000
18.426680 8.810455 0.000000
18.741402 8.810455 0.000000
-7.065720 8.495735 0.000000
-6.750999 8.495735 0.000684
-6.436278 8.495735 0.000567
-6.121557 8.495735 0.000634
-5.806836 8.495735 0.000599
-5.492115 8.495735 0.000531
-5.177394 8.495735 0.000508
-4.862673 8.495735 0.000431
-4.547952 8.495735 0.000428
-4.233231 8.495735 0.000512
-3.918510 8.495735 0.000568
-3.603789 8.495735 0.000455
-3.289068 8.495735 0.000387
-2.974347 8.495735 0.000399
-2.659626 8.495735 0.000372
-2.344905 8.495735 0.000380
-2.030184 8.495735 0.000460
-1.715463 8.495735 0.000512
-1.400742 8.495735 0.000508
-1.086021 8.495735 0.000495
-0.771300 8.495735 0.000486
-0.456579 8.495735 0.000468
-0.141859 8.495735 0.000486
0.172863 8.495735 0.000546
0.487584 8.495735 0.000483
0.802305 8.495735 0.000356
1.117026 8.495735 0.000271
1.431747 8.495735 0.000372
1.746467 8.495735 0.000384
2.061188 8.495735 0.000330
2.375909 8.495735 0.000296
2.690630 8.495735 0.000149
3.005352 8.495735 0.000079
3.320073 8.495735 0.000120
3.634794 8.495735 0.000177
3.949515 8.495735 0.000117
4.264236 8.495735 0.000144
4.578956 8.495735 0.000233
4.893677 8.495735 0.000218
5.208398 8.495735 0.000132
5.523119 8.495735 -0.000020
5.837841 8.495735 -0.000099
6.152562 8.495735 -0.000281
6.467283 8.495735 0.000344
6.782003 8.495735 0.000618
7.096724 8.495735 0.003097
7.411445 8.495735 0.005706
7.726166 8.495735 0.006527
8.040888 8.495735 0.012420
8.355608 8.495735 0.016985
8.670330 8.495735 0.025096
8.985050 8.495735 0.032700
9.299772 8.495735 0.034933
9.614492 8.495735 0.036505
9.929214 8.495735 0.048872
10.243935 8.495735 0.061686
10.558655 8.495735 0.064765
10.873377 8.495735 0.054735
11.188097 8.495735 0.059253
11.502819 8.495735 0.061457
11.817539 8.495735 0.063236
12.132261 8.495735 0.066458
12.446981 8.495735 0.050663
12.761703 8.495735 0.045963
13.076424 8.495735 0.050897
13.391144 8.495735 0.080360
13.705866 8.495735 0.084629
14.020586 8.495735 0.070460
14.335308 8.495735 0.058136
14.650028 8.495735 0.053617
14.964750 8.495735 0.015871
15.279470 8.495735 -0.044266
15.594193 8.495735 0.000000
15.908913 8.495735 0.000000
16.223633 8.495735 0.000000
16.538355 8.495735 0.000000
16.853075 8.495735 0.000000
17.167797 8.495735 0.000000
17.482517 8.495735 0.000000
17.797239 8.495735 0.000000
18.111959 8.495735 0.000000
18.426680 8.495735 0.000000
18.741402 8.495735 0.000000
-7.065720 8.181015 0.000000
-6.750999 8.181015 0.000642
-6.436278 8.181015 0.000605
-6.121557 8.181015 0.000628
-5.806836 8.181015 0.000525
-5.492115 8.181015 0.000540
-5.177394 8.181015 0.000589
-4.862673 8.181015 0.000500
-4.547952 8.181015 0.000464
-4.233231 8.181015 0.000560
-3.918510 8.181015 0.000617
-3.603789 8.181015 0.000469
-3.289068 8.181015 0.000392
-2.974347 8.181015 0.000385
-2.659626 8.181015 0.000327
-2.344905 8.181015 0.000333
-2.030184 8.181015 0.000452
-1.715463 8.181015 0.000524
-1.400742 8.181015 0.000528
-1.086021 8.181015 0.000512
-0.771300 8.181015 0.000459
-0.456579 8.181015 0.000414
-0.141859 8.181015 0.000497
0.172863 8.181015 0.000506
0.487584 8.181015 0.000453
0.802305 8.181015 0.000351
1.117026 8.181015 0.000254
1.431747 8.181015 0.000381
1.746467 8.181015 0.000435
2.061188 8.181015 0.000358
2.375909 8.181015 0.000300
2.690630 8.181015 0.000207
3.005352 8.181015 0.000194
3.320073 8.181015 0.000205
3.634794 8.181015 0.000196
3.949515 8.181015 0.000103
4.264236 8.181015 0.000087
4.578956 8.181015 0.000094
4.893677 8.181015 0.000088
5.208398 8.181015 0.000046
5.523119 8.181015 -0.000010
5.837841 8.181015 -0.000216
6.152562 8.181015 -0.000209
6.467283 8.181015 -0.000281
6.782003 8.181015 0.000610
7.096724 8.181015 0.002068
7.411445 8.181015 0.005196
7.726166 8.181015 0.006672
8.040888 8.181015 0.010799
8.355608 8.181015 0.014679
8.670330 8.181015 0.024114
8.985050 8.181015 0.037198
9.299772 8.181015 0.035850
9.614492 8.181015 0.042561
9.929214 8.181015 0.047175
10.243935 8.181015 0.059506
10.558655 8.181015 0.067099
10.873377 8.181015 0.057601
11.188097 8.181015 0.057475
11.502819 8.181015 0.068762
11.817539 8.181015 0.075707
12.132261 8.181015 0.068955
12.446981 8.181015 0.056034
12.761703 8.181015 0.053366
13.076424 8.181015 0.056462
13.391144 8.181015 0.076150
13.705866 8.181015 0.063959
14.020586 8.181015 0.043997
14.335308 8.181015 0.038820
14.650028 8.181015 0.024575
14.964750 8.181015 0.005032
15.279470 8.181015 -0.030989
15.594193 8.181015 0.000000
15.908913 8.181015 0.000000
16.223633 8.181015 0.000000
16.538355 8.181015 0.000000
16.853075 8.181015 0.000000
17.167797 8.181015 0.000000
17.482517 8.181015 0.000000
17.797239 8.181015 0.000000
18.111959 8.181015 0.000000
18.426680 8.181015 0.000000
18.741402 8.181015 0.000000
-7.065720 7.866295 0.000000
-6.750999 7.866295 0.000595
-6.436278 7.866295 0.000534
-6.121557 7.866295 0.000579
-5.806836 7.866295 0.000516
-5.492115 7.866295 0.000551
-5.177394 7.866295 0.000622
-4.862673 7.866295 0.000559
-4.547952 7.866295 0.000535
-4.233231 7.866295 0.000582
-3.918510 7.866295 0.000606
-3.603789 7.866295 0.000492
-3.289068 7.866295 0.000428
-2.974347 7.866295 0.000392
-2.659626 7.866295 0.000329
-2.344905 7.866295 0.000317
-2.030184 7.866295 0.000378
-1.715463 7.866295 0.000433
-1.400742 7.866295 0.000462
-1.086021 7.866295 0.000431
-0.771300 7.866295 0.000379
-0.456579 7.866295 0.000368
-0.141859 7.866295 0.000486
0.172863 7.866295 0.000474
0.487584 7.866295 0.000422
0.802305 7.866295 0.000349
1.117026 7.866295 0.000274
1.431747 7.866295 0.000382
1.746467 7.866295 0.000471
2.061188 7.866295 0.000409
2.375909 7.866295 0.000344
2.690630 7.866295 0.000283
3.005352 7.866295 0.000273
3.320073 7.866295 0.000250
3.634794 7.866295 0.000178
3.949515 7.866295 0.000080
4.264236 7.866295 -0.000029
4.578956 7.866295 -0.000074
4.893677 7.866295 -0.000097
5.208398 7.866295 -0.000144
5.523119 7.866295 -0.000006
5.837841 7.866295 -0.000201
6.152562 7.866295 -0.000675
6.467283 7.866295 -0.000510
6.782003 7.866295 0.000078
7.096724 7.866295 0.001675
7.411445 7.866295 0.004140
7.726166 7.866295 0.005856
8.040888 7.866295 0.009962
8.355608 7.866295 0.016681
8.670330 7.866295 0.026053
8.985050 7.866295 0.033607
9.299772 7.866295 0.041837
9.614492 7.866295 0.041399
9.929214 7.866295 0.045622
10.243935 7.866295 0.057624
10.558655 7.866295 0.059351
10.873377 7.866295 0.053518
11.188097 7.866295 0.052853
11.502819 7.866295 0.061843
11.817539 7.866295 0.074722
12.132261 7.866295 0.066705
12.446981 7.866295 0.067164
12.761703 7.866295 0.056306
13.076424 7.866295 0.049808
13.391144 7.866295 0.065667
13.705866 7.866295 0.052422
14.020586 7.866295 0.050867
14.335308 7.866295 0.034772
14.650028 7.866295 0.034378
14.964750 7.866295 -0.000186
15.279470 7.866295 -0.046408
15.594193 7.866295 0.000000
15.908913 7.866295 0.000000
16.223633 7.866295 0.000000
16.538355 7.866295 0.000000
16.853075 7.866295 0.000000
17.167797 7.866295 0.000000
17.482517 7.866295 0.000000
17.797239 7.866295 0.000000
18.111959 7.866295 0.000000
18.426680 7.866295 0.000000
18.741402 7.866295 0.000000
-7.065720 7.551575 0.000000
-6.750999 7.551575 0.000625
-6.436278 7.551575 0.000464
-6.121557 7.551575 0.000536
-5.806836 7.551575 0.000545
-5.492115 7.551575 0.000544
-5.177394 7.551575 0.000600
-4.862673 7.551575 0.000575
-4.547952 7.551575 0.000560
-4.233231 7.551575 0.000553
-3.918510 7.551575 0.000577
-3.603789 7.551575 0.000509
-3.289068 7.551575 0.000449
-2.974347 7.551575 0.000422
-2.659626 7.551575 0.000358
-2.344905 7.551575 0.000312
-2.030184 7.551575 0.000273
-1.715463 7.551575 0.000341
-1.400742 7.551575 0.000394
-1.086021 7.551575 0.000355
-0.771300 7.551575 0.000341
-0.456579 7.551575 0.000362
-0.141859 7.551575 0.000467
0.172863 7.551575 0.000433
0.487584 7.551575 0.000360
0.802305 7.551575 0.000334
1.117026 7.551575 0.000277
1.431747 7.551575 0.000326
1.746467 7.551575 0.000428
2.061188 7.551575 0.000416
2.375909 7.551575 0.000390
2.690630 7.551575 0.000353
3.005352 7.551575 0.000311
3.320073 7.551575 0.000259
3.634794 7.551575 0.000167
3.949515 7.551575 0.000089
4.264236 7.551575 -0.000026
4.578956 7.551575 -0.000113
4.893677 7.551575 -0.000216
5.208398 7.551575 -0.000366
5.523119 7.551575 -0.000166
5.837841 7.551575 -0.000280
6.152562 7.551575 -0.000819
6.467283 7.551575 -0.000713
6.782003 7.551575 0.000130
7.096724 7.551575 0.001032
7.411445 7.551575 0.004235
7.726166 7.551575 0.006403
8.040888 7.551575 0.010223
8.355608 7.551575 0.016402
8.670330 7.551575 0.024402
8.985050 7.551575 0.034946
9.299772 7.551575 0.045119
9.614492 7.551575 0.044396
9.929214 7.551575 0.051205
10.243935 7.551575 0.057447
10.558655 7.551575 0.055133
10.873377 7.551575 0.048801
11.188097 7.551575 0.051512
11.502819 7.551575 0.057440
11.817539 7.551575 0.071078
12.132261 7.551575 0.065344
12.446981 7.551575 0.068981
12.761703 7.551575 0.075787
13.076424 7.551575 0.055388
13.391144 7.551575 0.047018
13.705866 7.551575 0.047234
14.020586 7.551575 0.031891
14.335308 7.551575 0.031131
14.650028 7.551575 0.004799
14.964750 7.551575 0.008425
15.279470 7.551575 -0.040295
15.594193 7.551575 0.000000
15.908913 7.551575 0.000000
16.223633 7.551575 0.000000
16.538355 7.551575 0.000000
16.853075 7.551575 0.000000
17.167797 7.551575 0.000000
17.482517 7.551575 0.000000
17.797239 7.551575 0.000000
18.111959 7.551575 0.000000
18.426680 7.551575 0.000000
18.741402 7.551575 0.000000
-7.065720 7.236851 0.001598
-6.750999 7.236851 0.000716
-6.436278 7.236851 0.000437
-6.121557 7.236851 0.000539
-5.806836 7.236851 0.000594
-5.492115 7.236851 0.000530
-5.177394 7.236851 0.000544
-4.862673 7.236851 0.000542
-4.547952 7.236851 0.000512
-4.233231 7.236851 0.000509
-3.918510 7.236851 0.000555
-3.603789 7.236851 0.000513
-3.289068 7.236851 0.000464
-2.974347 7.236851 0.000455
-2.659626 7.236851 0.000430
-2.344905 7.236851 0.000359
-2.030184 7.236851 0.000225
-1.715463 7.236851 0.000279
-1.400742 7.236851 0.000351
-1.086021 7.236851 0.000352
-0.771300 7.236851 0.000343
-0.456579 7.236851 0.000384
-0.141859 7.236851 0.000451
0.172863 7.236851 0.000382
0.487584 7.236851 0.000302
0.802305 7.236851 0.000330
1.117026 7.236851 0.000270
1.431747 7.236851 0.000240
1.746467 7.236851 0.000321
2.061188 7.236851 0.000398
2.375909 7.236851 0.000414
2.690630 7.236851 0.000378
3.005352 7.236851 0.000295
3.320073 7.236851 0.000242
3.634794 7.236851 0.000179
3.949515 7.236851 0.000164
4.264236 7.236851 0.000036
4.578956 7.236851 -0.000042
4.893677 7.236851 -0.000226
5.208398 7.236851 -0.000402
5.523119 7.236851 -0.000264
5.837841 7.236851 -0.000374
6.152562 7.236851 -0.000719
6.467283 7.236851 0.000134
6.782003 7.236851 0.001025
7.096724 7.236851 0.001037
7.411445 7.236851 0.003625
7.726166 7.236851 0.006596
8.040888 7.236851 0.011066
8.355608 7.236851 0.013284
8.670330 7.236851 0.022310
8.985050 7.236851 0.034433
9.299772 7.236851 0.042930
9.614492 7.236851 0.049472
9.929214 7.236851 0.056800
10.243935 7.236851 0.061126
10.558655 7.236851 0.053788
10.873377 7.236851 0.053497
11.188097 7.236851 0.051170
11.502819 7.236851 0.061552
11.817539 7.236851 0.062867
12.132261 7.236851 0.065639
12.446981 7.236851 0.062544
12.761703 7.236851 0.053129
13.076424 7.236851 0.043649
13.391144 7.236851 0.046518
13.705866 7.236851 0.050057
14.020586 7.236851 0.049059
14.335308 7.236851 0.004180
14.650028 7.236851 0.017861
14.964750 7.236851 -0.003384
15.279470 7.236851 -0.044373
15.594193 7.236851 0.000000
15.908913 7.236851 0.000000
16.223633 7.236851 0.000000
16.538355 7.236851 0.000000
16.853075 7.236851 0.000000
17.167797 7.236851 0.000000
17.482517 7.236851 0.000000
17.797239 7.236851 0.000000
18.111959 7.236851 0.000000
18.426680 7.236851 0.000000
18.741402 7.236851 0.000000
-7.065720 6.922131 0.000808
-6.750999 6.922131 0.000763
-6.436278 6.922131 0.000441
-6.121557 6.922131 0.000533
-5.806836 6.922131 0.000606
-5.492115 6.922131 0.000504
-5.177394 6.922131 0.000481
-4.862673 6.922131 0.000459
-4.547952 6.922131 0.000392
-4.233231 6.922131 0.000460
-3.918510 6.922131 0.000555
-3.603789 6.922131 0.000504
-3.289068 6.922131 0.000462
-2.974347 6.922131 0.000506
-2.659626 6.922131 0.000526
-2.344905 6.922131 0.000424
-2.030184 6.922131 0.000276
-1.715463 6.922131 0.000281
-1.400742 6.922131 0.000332
-1.086021 6.922131 0.000353
-0.771300 6.922131 0.000370
-0.456579 6.922131 0.000400
-0.141859 6.922131 0.000428
0.172863 6.922131 0.000330
0.487584 6.922131 0.000288
0.802305 6.922131 0.000334
1.117026 6.922131 0.000270
1.431747 6.922131 0.000175
1.746467 6.922131 0.000227
2.061188 6.922131 0.000368
2.375909 6.922131 0.000404
2.690630 6.922131 0.000349
3.005352 6.922131 0.000249
3.320073 6.922131 0.000211
3.634794 6.922131 0.000191
3.949515 6.922131 0.000216
4.264236 6.922131 0.000136
4.578956 6.922131 -0.000016
4.893677 6.922131 -0.000250
5.208398 6.922131 -0.000370
5.523119 6.922131 -0.000231
5.837841 6.922131 -0.000128
6.152562 6.922131 -0.000243
6.467283 6.922131 -0.000065
6.782003 6.922131 0.000817
7.096724 6.922131 0.001357
7.411445 6.922131 0.005418
7.726166 6.922131 0.007200
8.040888 6.922131 0.010094
8.355608 6.922131 0.016657
8.670330 6.922131 0.024030
8.985050 6.922131 0.033985
9.299772 6.922131 0.043384
9.614492 6.922131 0.048963
9.929214 6.922131 0.056620
10.243935 6.922131 0.059895
10.558655 6.922131 0.057018
10.873377 6.922131 0.057704
11.188097 6.922131 0.063168
11.502819 6.922131 0.061314
11.817539 6.922131 0.057311
12.132261 6.922131 0.049252
12.446981 6.922131 0.054421
12.761703 6.922131 0.047462
13.076424 6.922131 0.035067
13.391144 6.922131 0.042262
13.705866 6.922131 0.057138
14.020586 6.922131 0.053515
14.335308 6.922131 0.024712
14.650028 6.922131 -0.013961
14.964750 6.922131 -0.020593
15.279470 6.922131 -0.042710
15.594193 6.922131 0.000000
15.908913 6.922131 0.000000
16.223633 6.922131 0.000000
16.538355 6.922131 0.000000
16.853075 6.922131 0.000000
17.167797 6.922131 0.000000
17.482517 6.922131 0.000000
17.797239 6.922131 0.000000
18.111959 6.922131 0.000000
18.426680 6.922131 0.000000
18.741402 6.922131 0.000000
-7.065720 6.607410 0.000378
-6.750999 6.607410 0.000793
-6.436278 6.607410 0.000495
-6.121557 6.607410 0.000513
-5.806836 6.607410 0.000553
-5.492115 6.607410 0.000506
-5.177394 6.607410 0.000461
-4.862673 6.607410 0.000390
-4.547952 6.607410 0.000335
-4.233231 6.607410 0.000469
-3.918510 6.607410 0.000557
-3.603789 6.607410 0.000504
-3.289068 6.607410 0.000510
-2.974347 6.607410 0.000560
-2.659626 6.607410 0.000585
-2.344905 6.607410 0.000472
-2.030184 6.607410 0.000354
-1.715463 6.607410 0.000292
-1.400742 6.607410 0.000301
-1.086021 6.607410 0.000338
-0.771300 6.607410 0.000359
-0.456579 6.607410 0.000375
-0.141859 6.607410 0.000367
0.172863 6.607410 0.000261
0.487584 6.607410 0.000279
0.802305 6.607410 0.000319
1.117026 6.607410 0.000255
1.431747 6.607410 0.000166
1.746467 6.607410 0.000207
2.061188 6.607410 0.000325
2.375909 6.607410 0.000365
2.690630 6.607410 0.000328
3.005352 6.607410 0.000230
3.320073 6.607410 0.000178
3.634794 6.607410 0.000172
3.949515 6.607410 0.000240
4.264236 6.607410 0.000188
4.578956 6.607410 0.000004
4.893677 6.607410 -0.000238
5.208398 6.607410 -0.000324
5.523119 6.607410 -0.000258
5.837841 6.607410 -0.000152
6.152562 6.607410 -0.000096
6.467283 6.607410 0.000106
6.782003 6.607410 0.001257
7.096724 6.607410 0.001794
7.411445 6.607410 0.004425
7.726166 6.607410 0.006620
8.040888 6.607410 0.011572
8.355608 6.607410 0.017497
8.670330 6.607410 0.024523
8.985050 6.607410 0.033895
9.299772 6.607410 0.043437
9.614492 6.607410 0.048204
9.929214 6.607410 0.050852
10.243935 6.607410 0.053392
10.558655 6.607410 0.055688
10.873377 6.607410 0.051157
11.188097 6.607410 0.061673
11.502819 6.607410 0.068100
11.817539 6.607410 0.070162
12.132261 6.607410 0.054625
12.446981 6.607410 0.066888
12.761703 6.607410 0.044090
13.076424 6.607410 0.042237
13.391144 6.607410 0.058178
13.705866 6.607410 0.066930
14.020586 6.607410 0.039858
14.335308 6.607410 0.036156
14.650028 6.607410 0.005139
14.964750 6.607410 -0.036045
15.279470 6.607410 -0.041890
15.594193 6.607410 0.000000
15.908913 6.607410 0.000000
16.223633 6.607410 0.000000
16.538355 6.607410 0.000000
16.853075 6.607410 0.000000
17.167797 6.607410 0.000000
17.482517 6.607410 0.000000
17.797239 6.607410 0.000000
18.111959 6.607410 0.000000
18.426680 6.607410 0.000000
18.741402 6.607410 0.000000
-7.065720 6.292690 0.000308
-6.750999 6.292690 0.000777
-6.436278 6.292690 0.000564
-6.121557 6.292690 0.000479
-5.806836 6.292690 0.000462
-5.492115 6.292690 0.000514
-5.177394 6.292690 0.000523
-4.862673 6.292690 0.000421
-4.547952 6.292690 0.000389
-4.233231 6.292690 0.000507
-3.918510 6.292690 0.000526
-3.603789 6.292690 0.000495
-3.289068 6.292690 0.000586
-2.974347 6.292690 0.000600
-2.659626 6.292690 0.000553
-2.344905 6.292690 0.000492
-2.030184 6.292690 0.000433
-1.715463 6.292690 0.000352
-1.400742 6.292690 0.000295
-1.086021 6.292690 0.000320
-0.771300 6.292690 0.000351
-0.456579 6.292690 0.000366
-0.141859 6.292690 0.000309
0.172863 6.292690 0.000221
0.487584 6.292690 0.000303
0.802305 6.292690 0.000331
1.117026 6.292690 0.000257
1.431747 6.292690 0.000231
1.746467 6.292690 0.000248
2.061188 6.292690 0.000289
2.375909 6.292690 0.000323
2.690630 6.292690 0.000297
3.005352 6.292690 0.000246
3.320073 6.292690 0.000175
3.634794 6.292690 0.000119
3.949515 6.292690 0.000196
4.264236 6.292690 0.000148
4.578956 6.292690 -0.000017
4.893677 6.292690 -0.000262
5.208398 6.292690 -0.000372
5.523119 6.292690 -0.000471
5.837841 6.292690 -0.000166
6.152562 6.292690 -0.000587
6.467283 6.292690 -0.000420
6.782003 6.292690 0.000283
7.096724 6.292690 0.001962
7.411445 6.292690 0.004443
7.726166 6.292690 0.008473
8.040888 6.292690 0.010001
8.355608 6.292690 0.021472
8.670330 6.292690 0.029764
8.985050 6.292690 0.039329
9.299772 6.292690 0.044354
9.614492 6.292690 0.046065
9.929214 6.292690 0.046538
10.243935 6.292690 0.042978
10.558655 6.292690 0.038494
10.873377 6.292690 0.042341
11.188097 6.292690 0.058997
11.502819 6.292690 0.075738
11.817539 6.292690 0.089077
12.132261 6.292690 0.070347
12.446981 6.292690 0.041953
12.761703 6.292690 0.037663
13.076424 6.292690 0.054512
13.391144 6.292690 0.092343
13.705866 6.292690 0.081542
14.020586 6.292690 0.061115
14.335308 6.292690 0.046739
14.650028 6.292690 0.034319
14.964750 6.292690 0.000243
15.279470 6.292690 -0.068271
15.594193 6.292690 0.000000
15.908913 6.292690 0.000000
16.223633 6.292690 0.000000
16.538355 6.292690 0.000000
16.853075 6.292690 0.000000
17.167797 6.292690 0.000000
17.482517 6.292690 0.000000
17.797239 6.292690 0.000000
18.111959 6.292690 0.000000
18.426680 6.292690 0.000000
18.741402 6.292690 0.000000
-7.065720 5.977966 0.000472
-6.750999 5.977966 0.000712
-6.436278 5.977966 0.000554
-6.121557 5.977966 0.000493
-5.806836 5.977966 0.000426
-5.492115 5.977966 0.000535
-5.177394 5.977966 0.000593
-4.862673 5.977966 0.000490
-4.547952 5.977966 0.000460
-4.233231 5.977966 0.000523
-3.918510 5.977966 0.000511
-3.603789 5.977966 0.000509
-3.289068 5.977966 0.000615
-2.974347 5.977966 0.000579
-2.659626 5.977966 0.000471
-2.344905 5.977966 0.000470
-2.030184 5.977966 0.000491
-1.715463 5.977966 0.000421
-1.400742 5.977966 0.000300
-1.086021 5.977966 0.000290
-0.771300 5.977966 0.000334
-0.456579 5.977966 0.000339
-0.141859 5.977966 0.000288
0.172863 5.977966 0.000262
0.487584 5.977966 0.000364
0.802305 5.977966 0.000384
1.117026 5.977966 0.000312
1.431747 5.977966 0.000323
1.746467 5.977966 0.000309
2.061188 5.977966 0.000274
2.375909 5.977966 0.000288
2.690630 5.977966 0.000296
3.005352 5.977966 0.000281
3.320073 5.977966 0.000149
3.634794 5.977966 0.000040
3.949515 5.977966 0.000144
4.264236 5.977966 0.000062
4.578956 5.977966 -0.000152
4.893677 5.977966 -0.000305
5.208398 5.977966 -0.000503
5.523119 5.977966 -0.000543
5.837841 5.977966 -0.000442
6.152562 5.977966 -0.000552
6.467283 5.977966 -0.000641
6.782003 5.977966 -0.000338
7.096724 5.977966 0.001088
7.411445 5.977966 0.005458
7.726166 5.977966 0.007006
8.040888 5.977966 0.011780
8.355608 5.977966 0.019151
8.670330 5.977966 0.030719
8.985050 5.977966 0.039706
9.299772 5.977966 0.042670
9.614492 5.977966 0.045689
9.929214 5.977966 0.045375
10.243935 5.977966 0.036195
10.558655 5.977966 0.026719
10.873377 5.977966 0.033685
11.188097 5.977966 0.059373
11.502819 5.977966 0.078238
11.817539 5.977966 0.089008
12.132261 5.977966 0.080484
12.446981 5.977966 0.050418
12.761703 5.977966 0.049006
13.076424 5.977966 0.067087
13.391144 5.977966 0.093827
13.705866 5.977966 0.092207
14.020586 5.977966 0.067621
14.335308 5.977966 0.045947
14.650028 5.977966 0.047973
14.964750 5.977966 0.012178
15.279470 5.977966 -0.014130
15.594193 5.977966 0.000000
15.908913 5.977966 0.000000
16.223633 5.977966 0.000000
16.538355 5.977966 0.000000
16.853075 5.977966 0.000000
17.167797 5.977966 0.000000
17.482517 5.977966 0.000000
17.797239 5.977966 0.000000
18.111959 5.977966 0.000000
18.426680 5.977966 0.000000
18.741402 5.977966 0.000000
-7.065720 5.663246 0.000469
-6.750999 5.663246 0.000665
-6.436278 5.663246 0.000490
-6.121557 5.663246 0.000560
-5.806836 5.663246 0.000496
-5.492115 5.663246 0.000531
-5.177394 5.663246 0.000627
-4.862673 5.663246 0.000540
-4.547952 5.663246 0.000490
-4.233231 5.663246 0.000474
-3.918510 5.663246 0.000483
-3.603789 5.663246 0.000523
-3.289068 5.663246 0.000577
-2.974347 5.663246 0.000514
-2.659626 5.663246 0.000382
-2.344905 5.663246 0.000414
-2.030184 5.663246 0.000478
-1.715463 5.663246 0.000447
-1.400742 5.663246 0.000323
-1.086021 5.663246 0.000276
-0.771300 5.663246 0.000281
-0.456579 5.663246 0.000290
-0.141859 5.663246 0.000325
0.172863 5.663246 0.000349
0.487584 5.663246 0.000415
0.802305 5.663246 0.000444
1.117026 5.663246 0.000371
1.431747 5.663246 0.000350
1.746467 5.663246 0.000307
2.061188 5.663246 0.000228
2.375909 5.663246 0.000243
2.690630 5.663246 0.000258
3.005352 5.663246 0.000279
3.320073 5.663246 0.000119
3.634794 5.663246 -0.000033
3.949515 5.663246 0.000079
4.264236 5.663246 0.000003
4.578956 5.663246 -0.000182
4.893677 5.663246 -0.000359
5.208398 5.663246 -0.000543
5.523119 5.663246 -0.000589
5.837841 5.663246 -0.000544
6.152562 5.663246 -0.000435
6.467283 5.663246 -0.000846
6.782003 5.663246 0.000081
7.096724 5.663246 0.002179
7.411445 5.663246 0.006877
7.726166 5.663246 0.010831
8.040888 5.663246 0.011927
8.355608 5.663246 0.017667
8.670330 5.663246 0.027900
8.985050 5.663246 0.042977
9.299772 5.663246 0.051448
9.614492 5.663246 0.051151
9.929214 5.663246 0.047284
10.243935 5.663246 0.034050
10.558655 5.663246 0.026631
10.873377 5.663246 0.037007
11.188097 5.663246 0.060150
11.502819 5.663246 0.067808
11.817539 5.663246 0.077660
12.132261 5.663246 0.086906
12.446981 5.663246 0.060312
12.761703 5.663246 0.070887
13.076424 5.663246 0.079346
13.391144 5.663246 0.095020
13.705866 5.663246 0.098572
14.020586 5.663246 0.048762
14.335308 5.663246 0.037666
14.650028 5.663246 0.047878
14.964750 5.663246 0.012187
15.279470 5.663246 -0.009472
15.594193 5.663246 0.000000
15.908913 5.663246 0.000000
16.223633 5.663246 0.000000
16.538355 5.663246 0.000000
16.853075 5.663246 0.000000
17.167797 5.663246 0.000000
17.482517 5.663246 0.000000
17.797239 5.663246 0.000000
18.111959 5.663246 0.000000
18.426680 5.663246 0.000000
18.741402 5.663246 0.000000
-7.065720 5.348526 0.000715
-6.750999 5.348526 0.000647
-6.436278 5.348526 0.000481
-6.121557 5.348526 0.000632
-5.806836 5.348526 0.000572
-5.492115 5.348526 0.000524
-5.177394 5.348526 0.000632
-4.862673 5.348526 0.000584
-4.547952 5.348526 0.000501
-4.233231 5.348526 0.000432
-3.918510 5.348526 0.000464
-3.603789 5.348526 0.000500
-3.289068 5.348526 0.000492
-2.974347 5.348526 0.000429
-2.659626 5.348526 0.000363
-2.344905 5.348526 0.000401
-2.030184 5.348526 0.000411
-1.715463 5.348526 0.000408
-1.400742 5.348526 0.000371
-1.086021 5.348526 0.000338
-0.771300 5.348526 0.000298
-0.456579 5.348526 0.000299
-0.141859 5.348526 0.000408
0.172863 5.348526 0.000438
0.487584 5.348526 0.000453
0.802305 5.348526 0.000466
1.117026 5.348526 0.000395
1.431747 5.348526 0.000332
1.746467 5.348526 0.000282
2.061188 5.348526 0.000199
2.375909 5.348526 0.000215
2.690630 5.348526 0.000225
3.005352 5.348526 0.000230
3.320073 5.348526 0.000137
3.634794 5.348526 -0.000054
3.949515 5.348526 -0.000040
4.264236 5.348526 -0.000084
4.578956 5.348526 -0.000180
4.893677 5.348526 -0.000285
5.208398 5.348526 -0.000500
5.523119 5.348526 -0.000691
5.837841 5.348526 -0.000698
6.152562 5.348526 -0.000840
6.467283 5.348526 -0.000472
6.782003 5.348526 -0.000404
7.096724 5.348526 0.002149
7.411445 5.348526 0.007136
7.726166 5.348526 0.010184
8.040888 5.348526 0.012385
8.355608 5.348526 0.019113
8.670330 5.348526 0.026228
8.985050 5.348526 0.034549
9.299772 5.348526 0.048802
9.614492 5.348526 0.053509
9.929214 5.348526 0.051996
10.243935 5.348526 0.041817
10.558655 5.348526 0.033911
10.873377 5.348526 0.028036
11.188097 5.348526 0.055544
11.502819 5.348526 0.064592
11.817539 5.348526 0.064097
12.132261 5.348526 0.072592
12.446981 5.348526 0.072996
12.761703 5.348526 0.074736
13.076424 5.348526 0.079846
13.391144 5.348526 0.103222
13.705866 5.348526 0.097356
14.020586 5.348526 0.067673
14.335308 5.348526 0.056328
14.650028 5.348526 0.050102
14.964750 5.348526 0.021975
15.279470 5.348526 0.004498
15.594193 5.348526 0.000000
15.908913 5.348526 0.000000
16.223633 5.348526 0.000000
16.538355 5.348526 0.000000
16.853075 5.348526 0.000000
17.167797 5.348526 0.000000
17.482517 5.348526 0.000000
17.797239 5.348526 0.000000
18.111959 5.348526 0.000000
18.426680 5.348526 0.000000
18.741402 5.348526 0.000000
-7.065720 5.033806 0.000817
-6.750999 5.033806 0.000618
-6.436278 5.033806 0.000485
-6.121557 5.033806 0.000676
-5.806836 5.033806 0.000638
-5.492115 5.033806 0.000514
-5.177394 5.033806 0.000601
-4.862673 5.033806 0.000599
-4.547952 5.033806 0.000500
-4.233231 5.033806 0.000426
-3.918510 5.033806 0.000465
-3.603789 5.033806 0.000464
-3.289068 5.033806 0.000397
-2.974347 5.033806 0.000376
-2.659626 5.033806 0.000415
-2.344905 5.033806 0.000449
-2.030184 5.033806 0.000336
-1.715463 5.033806 0.000365
-1.400742 5.033806 0.000455
-1.086021 5.033806 0.000468
-0.771300 5.033806 0.000398
-0.456579 5.033806 0.000386
-0.141859 5.033806 0.000493
0.172863 5.033806 0.000468
0.487584 5.033806 0.000413
0.802305 5.033806 0.000434
1.117026 5.033806 0.000412
1.431747 5.033806 0.000335
1.746467 5.033806 0.000289
2.061188 5.033806 0.000169
2.375909 5.033806 0.000195
2.690630 5.033806 0.000206
3.005352 5.033806 0.000214
3.320073 5.033806 0.000139
3.634794 5.033806 -0.000026
3.949515 5.033806 -0.000063
4.264236 5.033806 -0.000125
4.578956 5.033806 -0.000167
4.893677 5.033806 -0.000279
5.208398 5.033806 -0.000453
5.523119 5.033806 -0.000547
5.837841 5.033806 -0.000742
6.152562 5.033806 -0.001114
6.467283 5.033806 -0.000208
6.782003 5.033806 0.000353
7.096724 5.033806 0.002555
7.411445 5.033806 0.006642
7.726166 5.033806 0.010486
8.040888 5.033806 0.015239
8.355608 5.033806 0.019255
8.670330 5.033806 0.025599
8.985050 5.033806 0.032968
9.299772 5.033806 0.042417
9.614492 5.033806 0.045373
9.929214 5.033806 0.045301
10.243935 5.033806 0.038026
10.558655 5.033806 0.023810
10.873377 5.033806 0.020680
11.188097 5.033806 0.039080
11.502819 5.033806 0.055357
11.817539 5.033806 0.060544
12.132261 5.033806 0.084936
12.446981 5.033806 0.066670
12.761703 5.033806 0.069543
13.076424 5.033806 0.083054
13.391144 5.033806 0.097432
13.705866 5.033806 0.089828
14.020586 5.033806 0.065147
14.335308 5.033806 0.063232
14.650028 5.033806 0.034326
14.964750 5.033806 0.010075
15.279470 5.033806 0.005376
15.594193 5.033806 0.000000
15.908913 5.033806 0.000000
16.223633 5.033806 0.000000
16.538355 5.033806 0.000000
16.853075 5.033806 0.000000
17.167797 5.033806 0.000000
17.482517 5.033806 0.000000
17.797239 5.033806 0.000000
18.111959 5.033806 0.000000
18.426680 5.033806 0.000000
18.741402 5.033806 0.000000
-7.065720 4.719086 0.000887
-6.750999 4.719086 0.000613
-6.436278 4.719086 0.000513
-6.121557 4.719086 0.000651
-5.806836 4.719086 0.000627
-5.492115 4.719086 0.000499
-5.177394 4.719086 0.000543
-4.862673 4.719086 0.000557
-4.547952 4.719086 0.000485
-4.233231 4.719086 0.000465
-3.918510 4.719086 0.000496
-3.603789 4.719086 0.000443
-3.289068 4.719086 0.000377
-2.974347 4.719086 0.000381
-2.659626 4.719086 0.000490
-2.344905 4.719086 0.000516
-2.030184 4.719086 0.000339
-1.715463 4.719086 0.000362
-1.400742 4.719086 0.000506
-1.086021 4.719086 0.000547
-0.771300 4.719086 0.000494
-0.456579 4.719086 0.000490
-0.141859 4.719086 0.000515
0.172863 4.719086 0.000421
0.487584 4.719086 0.000358
0.802305 4.719086 0.000369
1.117026 4.719086 0.000405
1.431747 4.719086 0.000369
1.746467 4.719086 0.000307
2.061188 4.719086 0.000146
2.375909 4.719086 0.000175
2.690630 4.719086 0.000204
3.005352 4.719086 0.000162
3.320073 4.719086 0.000111
3.634794 4.719086 -0.000034
3.949515 4.719086 -0.000089
4.264236 4.719086 -0.000178
4.578956 4.719086 -0.000075
4.893677 4.719086 -0.000134
5.208398 4.719086 -0.000185
5.523119 4.719086 -0.000341
5.837841 4.719086 -0.000529
6.152562 4.719086 -0.000915
6.467283 4.719086 -0.000925
6.782003 4.719086 0.000616
7.096724 4.719086 0.002023
7.411445 4.719086 0.006798
7.726166 4.719086 0.011545
8.040888 4.719086 0.017691
8.355608 4.719086 0.020354
8.670330 4.719086 0.024446
8.985050 4.719086 0.027778
9.299772 4.719086 0.035445
9.614492 4.719086 0.042368
9.929214 4.719086 0.046904
10.243935 4.719086 0.038943
10.558655 4.719086 0.019791
10.873377 4.719086 0.014234
11.188097 4.719086 0.034669
11.502819 4.719086 0.054134
11.817539 4.719086 0.057094
12.132261 4.719086 0.070453
12.446981 4.719086 0.080157
12.761703 4.719086 0.074860
13.076424 4.719086 0.096972
13.391144 4.719086 0.109920
13.705866 4.719086 0.089323
14.020586 4.719086 0.031553
14.335308 4.719086 0.025599
14.650028 4.719086 0.020870
14.964750 4.719086 0.046866
15.279470 4.719086 0.060715
15.594193 4.719086 0.000000
15.908913 4.719086 0.000000
16.223633 4.719086 0.000000
16.538355 4.719086 0.000000
16.853075 4.719086 0.000000
17.167797 4.719086 0.000000
17.482517 4.719086 0.000000
17.797239 4.719086 0.000000
18.111959 4.719086 0.000000
18.426680 4.719086 0.000000
18.741402 4.719086 0.000000
-7.065720 4.404362 0.000886
-6.750999 4.404362 0.000630
-6.436278 4.404362 0.000524
-6.121557 4.404362 0.000584
-5.806836 4.404362 0.000601
-5.492115 4.404362 0.000521
-5.177394 4.404362 0.000524
-4.862673 4.404362 0.000551
-4.547952 4.404362 0.000529
-4.233231 4.404362 0.000535
-3.918510 4.404362 0.000528
-3.603789 4.404362 0.000462
-3.289068 4.404362 0.000432
-2.974347 4.404362 0.000415
-2.659626 4.404362 0.000490
-2.344905 4.404362 0.000518
-2.030184 4.404362 0.000384
-1.715463 4.404362 0.000405
-1.400742 4.404362 0.000478
-1.086021 4.404362 0.000500
-0.771300 4.404362 0.000506
-0.456579 4.404362 0.000525
-0.141859 4.404362 0.000485
0.172863 4.404362 0.000371
0.487584 4.404362 0.000310
0.802305 4.404362 0.000304
1.117026 4.404362 0.000352
1.431747 4.404362 0.000384
1.746467 4.404362 0.000304
2.061188 4.404362 0.000157
2.375909 4.404362 0.000158
2.690630 4.404362 0.000161
3.005352 4.404362 0.000120
3.320073 4.404362 0.000089
3.634794 4.404362 0.000009
3.949515 4.404362 -0.000101
4.264236 4.404362 -0.000121
4.578956 4.404362 0.000022
4.893677 4.404362 0.000010
5.208398 4.404362 -0.000056
5.523119 4.404362 -0.000325
5.837841 4.404362 -0.000678
6.152562 4.404362 -0.001043
6.467283 4.404362 -0.001129
6.782003 4.404362 0.000196
7.096724 4.404362 0.002476
7.411445 4.404362 0.005516
7.726166 4.404362 0.012765
8.040888 4.404362 0.021244
8.355608 4.404362 0.023234
8.670330 4.404362 0.025579
8.985050 4.404362 0.033845
9.299772 4.404362 0.042464
9.614492 4.404362 0.048049
9.929214 4.404362 0.043225
10.243935 4.404362 0.040050
10.558655 4.404362 0.026343
10.873377 4.404362 0.020683
11.188097 4.404362 0.044829
11.502819 4.404362 0.067250
11.817539 4.404362 0.065574
12.132261 4.404362 0.081754
12.446981 4.404362 0.075398
12.761703 4.404362 0.085223
13.076424 4.404362 0.101782
13.391144 4.404362 0.095613
13.705866 4.404362 0.067164
14.020586 4.404362 0.028939
14.335308 4.404362 -0.010604
14.650028 4.404362 0.032779
14.964750 4.404362 0.031833
15.279470 4.404362 0.065018
15.594193 4.404362 0.000000
15.908913 4.404362 0.000000
16.223633 4.404362 0.000000
16.538355 4.404362 0.000000
16.853075 4.404362 0.000000
17.167797 4.404362 0.000000
17.482517 4.404362 0.000000
17.797239 4.404362 0.000000
18.111959 4.404362 0.000000
18.426680 4.404362 0.000000
18.741402 4.404362 0.000000
-7.065720 4.089642 0.000904
-6.750999 4.089642 0.000611
-6.436278 4.089642 0.000546
-6.121557 4.089642 0.000578
-5.806836 4.089642 0.000599
-5.492115 4.089642 0.000623
-5.177394 4.089642 0.000593
-4.862673 4.089642 0.000616
-4.547952 4.089642 0.000657
-4.233231 4.089642 0.000606
-3.918510 4.089642 0.000526
-3.603789 4.089642 0.000451
-3.289068 4.089642 0.000428
-2.974347 4.089642 0.000405
-2.659626 4.089642 0.000434
-2.344905 4.089642 0.000459
-2.030184 4.089642 0.000436
-1.715463 4.089642 0.000453
-1.400742 4.089642 0.000415
-1.086021 4.089642 0.000421
-0.771300 4.089642 0.000511
-0.456579 4.089642 0.000512
-0.141859 4.089642 0.000463
0.172863 4.089642 0.000367
0.487584 4.089642 0.000284
0.802305 4.089642 0.000239
1.117026 4.089642 0.000323
1.431747 4.089642 0.000369
1.746467 4.089642 0.000335
2.061188 4.089642 0.000215
2.375909 4.089642 0.000178
2.690630 4.089642 0.000167
3.005352 4.089642 0.000113
3.320073 4.089642 0.000087
3.634794 4.089642 -0.000008
3.949515 4.089642 -0.000135
4.264236 4.089642 -0.000161
4.578956 4.089642 -0.000001
4.893677 4.089642 -0.000032
5.208398 4.089642 -0.000226
5.523119 4.089642 -0.000528
5.837841 4.089642 -0.000886
6.152562 4.089642 -0.001366
6.467283 4.089642 -0.000632
6.782003 4.089642 0.000575
7.096724 4.089642 0.001667
7.411445 4.089642 0.003747
7.726166 4.089642 0.010945
8.040888 4.089642 0.021685
8.355608 4.089642 0.026663
8.670330 4.089642 0.030973
8.985050 4.089642 0.036272
9.299772 4.089642 0.043224
9.614492 4.089642 0.043169
9.929214 4.089642 0.042790
10.243935 4.089642 0.038247
10.558655 4.089642 0.033806
10.873377 4.089642 0.026688
11.188097 4.089642 0.039492
11.502819 4.089642 0.061876
11.817539 4.089642 0.085425
12.132261 4.089642 0.084625
12.446981 4.089642 0.081208
12.761703 4.089642 0.073695
13.076424 4.089642 0.076359
13.391144 4.089642 0.100069
13.705866 4.089642 0.064241
14.020586 4.089642 0.048350
14.335308 4.089642 0.022744
14.650028 4.089642 0.027356
14.964750 4.089642 0.051876
15.279470 4.089642 0.097924
15.594193 4.089642 0.000000
15.908913 4.089642 0.000000
16.223633 4.089642 0.000000
16.538355 4.089642 0.000000
16.853075 4.089642 0.000000
17.167797 4.089642 0.000000
17.482517 4.089642 0.000000
17.797239 4.089642 0.000000
18.111959 4.089642 0.000000
18.426680 4.089642 0.000000
18.741402 4.089642 0.000000
-7.065720 3.774921 0.000881
-6.750999 3.774921 0.000600
-6.436278 3.774921 0.000586
-6.121557 3.774921 0.000645
-5.806836 3.774921 0.000631
-5.492115 3.774921 0.000714
-5.177394 3.774921 0.000672
-4.862673 3.774921 0.000681
-4.547952 3.774921 0.000723
-4.233231 3.774921 0.000657
-3.918510 3.774921 0.000510
-3.603789 3.774921 0.000408
-3.289068 3.774921 0.000408
-2.974347 3.774921 0.000406
-2.659626 3.774921 0.000409
-2.344905 3.774921 0.000418
-2.030184 3.774921 0.000463
-1.715463 3.774921 0.000465
-1.400742 3.774921 0.000390
-1.086021 3.774921 0.000395
-0.771300 3.774921 0.000483
-0.456579 3.774921 0.000483
-0.141859 3.774921 0.000461
0.172863 3.774921 0.000390
0.487584 3.774921 0.000279
0.802305 3.774921 0.000215
1.117026 3.774921 0.000286
1.431747 3.774921 0.000354
1.746467 3.774921 0.000357
2.061188 3.774921 0.000266
2.375909 3.774921 0.000166
2.690630 3.774921 0.000138
3.005352 3.774921 0.000142
3.320073 3.774921 0.000087
3.634794 3.774921 -0.000045
3.949515 3.774921 -0.000140
4.264236 3.774921 -0.000171
4.578956 3.774921 -0.000173
4.893677 3.774921 -0.000346
5.208398 3.774921 -0.000429
5.523119 3.774921 -0.000766
5.837841 3.774921 -0.001242
6.152562 3.774921 -0.001221
6.467283 3.774921 -0.000204
6.782003 3.774921 0.001297
7.096724 3.774921 0.002596
7.411445 3.774921 0.004013
7.726166 3.774921 0.011030
8.040888 3.774921 0.024648
8.355608 3.774921 0.028309
8.670330 3.774921 0.035128
8.985050 3.774921 0.042081
9.299772 3.774921 0.052282
9.614492 3.774921 0.049872
9.929214 3.774921 0.049151
10.243935 3.774921 0.042509
10.558655 3.774921 0.040087
10.873377 3.774921 0.032548
11.188097 3.774921 0.044326
11.502819 3.774921 0.063055
11.817539 3.774921 0.072071
12.132261 3.774921 0.065391
12.446981 3.774921 0.064509
12.761703 3.774921 0.056796
13.076424 3.774921 0.072688
13.391144 3.774921 0.096833
13.705866 3.774921 0.063468
14.020586 3.774921 0.066913
14.335308 3.774921 0.023658
14.650028 3.774921 0.032146
14.964750 3.774921 0.038896
15.279470 3.774921 -0.060056
15.594193 3.774921 0.000000
15.908913 3.774921 0.000000
16.223633 3.774921 0.000000
16.538355 3.774921 0.000000
16.853075 3.774921 0.000000
17.167797 3.774921 0.000000
17.482517 3.774921 0.000000
17.797239 3.774921 0.000000
18.111959 3.774921 0.000000
18.426680 3.774921 0.000000
18.741402 3.774921 0.000000
-7.065720 3.460201 0.000884
-6.750999 3.460201 0.000595
-6.436278 3.460201 0.000653
-6.121557 3.460201 0.000674
-5.806836 3.460201 0.000611
-5.492115 3.460201 0.000704
-5.177394 3.460201 0.000672
-4.862673 3.460201 0.000635
-4.547952 3.460201 0.000656
-4.233231 3.460201 0.000660
-3.918510 3.460201 0.000546
-3.603789 3.460201 0.000425
-3.289068 3.460201 0.000460
-2.974347 3.460201 0.000475
-2.659626 3.460201 0.000462
-2.344905 3.460201 0.000422
-2.030184 3.460201 0.000426
-1.715463 3.460201 0.000454
-1.400742 3.460201 0.000423
-1.086021 3.460201 0.000430
-0.771300 3.460201 0.000453
-0.456579 3.460201 0.000457
-0.141859 3.460201 0.000447
0.172863 3.460201 0.000385
0.487584 3.460201 0.000309
0.802305 3.460201 0.000270
1.117026 3.460201 0.000302
1.431747 3.460201 0.000341
1.746467 3.460201 0.000367
2.061188 3.460201 0.000271
2.375909 3.460201 0.000089
2.690630 3.460201 0.000082
3.005352 3.460201 0.000154
3.320073 3.460201 0.000121
3.634794 3.460201 0.000030
3.949515 3.460201 -0.000035
4.264236 3.460201 -0.000159
4.578956 3.460201 -0.000257
4.893677 3.460201 -0.000388
5.208398 3.460201 -0.000484
5.523119 3.460201 -0.001070
5.837841 3.460201 -0.001634
6.152562 3.460201 -0.001068
6.467283 3.460201 -0.000004
6.782003 3.460201 0.000353
7.096724 3.460201 0.000499
7.411445 3.460201 0.004212
7.726166 3.460201 0.012167
8.040888 3.460201 0.022599
8.355608 3.460201 0.029303
8.670330 3.460201 0.039805
8.985050 3.460201 0.048526
9.299772 3.460201 0.054827
9.614492 3.460201 0.054528
9.929214 3.460201 0.053524
10.243935 3.460201 0.047268
10.558655 3.460201 0.038198
10.873377 3.460201 0.038387
11.188097 3.460201 0.052447
11.502819 3.460201 0.048097
11.817539 3.460201 0.055992
12.132261 3.460201 0.055701
12.446981 3.460201 0.058685
12.761703 3.460201 0.057768
13.076424 3.460201 0.065364
13.391144 3.460201 0.074501
13.705866 3.460201 0.076756
14.020586 3.460201 0.070477
14.335308 3.460201 0.031477
14.650028 3.460201 0.062745
14.964750 3.460201 0.069083
15.279470 3.460201 0.136844
15.594193 3.460201 0.000000
15.908913 3.460201 0.000000
16.223633 3.460201 0.000000
16.538355 3.460201 0.000000
16.853075 3.460201 0.000000
17.167797 3.460201 0.000000
17.482517 3.460201 0.000000
17.797239 3.460201 0.000000
18.111959 3.460201 0.000000
18.426680 3.460201 0.000000
18.741402 3.460201 0.000000
-7.065720 3.145477 0.000913
-6.750999 3.145477 0.000594
-6.436278 3.145477 0.000650
-6.121557 3.145477 0.000643
-5.806836 3.145477 0.000566
-5.492115 3.145477 0.000640
-5.177394 3.145477 0.000628
-4.862673 3.145477 0.000542
-4.547952 3.145477 0.000567
-4.233231 3.145477 0.000652
-3.918510 3.145477 0.000613
-3.603789 3.145477 0.000518
-3.289068 3.145477 0.000540
-2.974347 3.145477 0.000543
-2.659626 3.145477 0.000564
-2.344905 3.145477 0.000466
-2.030184 3.145477 0.000366
-1.715463 3.145477 0.000430
-1.400742 3.145477 0.000503
-1.086021 3.145477 0.000526
-0.771300 3.145477 0.000464
-0.456579 3.145477 0.000448
-0.141859 3.145477 0.000392
0.172863 3.145477 0.000330
0.487584 3.145477 0.000367
0.802305 3.145477 0.000366
1.117026 3.145477 0.000325
1.431747 3.145477 0.000342
1.746467 3.145477 0.000352
2.061188 3.145477 0.000230
2.375909 3.145477 0.000077
2.690630 3.145477 0.000116
3.005352 3.145477 0.000227
3.320073 3.145477 0.000172
3.634794 3.145477 0.000115
3.949515 3.145477 0.000021
4.264236 3.145477 -0.000188
4.578956 3.145477 -0.000400
4.893677 3.145477 -0.000595
5.208398 3.145477 -0.000701
5.523119 3.145477 -0.001369
5.837841 3.145477 -0.001930
6.152562 3.145477 -0.001369
6.467283 3.145477 -0.001072
6.782003 3.145477 0.000065
7.096724 3.145477 0.000741
7.411445 3.145477 0.004520
7.726166 3.145477 0.014613
8.040888 3.145477 0.020912
8.355608 3.145477 0.023423
8.670330 3.145477 0.041329
8.985050 3.145477 0.050886
9.299772 3.145477 0.053335
9.614492 3.145477 0.052044
9.929214 3.145477 0.051996
10.243935 3.145477 0.043863
10.558655 3.145477 0.041776
10.873377 3.145477 0.041291
11.188097 3.145477 0.044136
11.502819 3.145477 0.042460
11.817539 3.145477 0.041891
12.132261 3.145477 0.053832
12.446981 3.145477 0.060079
12.761703 3.145477 0.067694
13.076424 3.145477 0.064401
13.391144 3.145477 0.086067
13.705866 3.145477 0.079000
14.020586 3.145477 0.080323
14.335308 3.145477 0.067081
14.650028 3.145477 0.115509
14.964750 3.145477 0.082808
15.279470 3.145477 0.132596
15.594193 3.145477 0.000000
15.908913 3.145477 0.000000
16.223633 3.145477 0.000000
16.538355 3.145477 0.000000
16.853075 3.145477 0.000000
17.167797 3.145477 0.000000
17.482517 3.145477 0.000000
17.797239 3.145477 0.000000
18.111959 3.145477 0.000000
18.426680 3.145477 0.000000
18.741402 3.145477 0.000000
-7.065720 2.830757 0.000938
-6.750999 2.830757 0.000615
-6.436278 2.830757 0.000622
-6.121557 2.830757 0.000605
-5.806836 2.830757 0.000556
-5.492115 2.830757 0.000582
-5.177394 2.830757 0.000585
-4.862673 2.830757 0.000487
-4.547952 2.830757 0.000509
-4.233231 2.830757 0.000652
-3.918510 2.830757 0.000646
-3.603789 2.830757 0.000630
-3.289068 2.830757 0.000592
-2.974347 2.830757 0.000591
-2.659626 2.830757 0.000644
-2.344905 2.830757 0.000518
-2.030184 2.830757 0.000353
-1.715463 2.830757 0.000408
-1.400742 2.830757 0.000527
-1.086021 2.830757 0.000570
-0.771300 2.830757 0.000444
-0.456579 2.830757 0.000393
-0.141859 2.830757 0.000310
0.172863 2.830757 0.000311
0.487584 2.830757 0.000434
0.802305 2.830757 0.000456
1.117026 2.830757 0.000364
1.431747 2.830757 0.000337
1.746467 2.830757 0.000317
2.061188 2.830757 0.000213
2.375909 2.830757 0.000142
2.690630 2.830757 0.000218
3.005352 2.830757 0.000251
3.320073 2.830757 0.000116
3.634794 2.830757 0.000084
3.949515 2.830757 -0.000076
4.264236 2.830757 -0.000443
4.578956 2.830757 -0.000701
4.893677 2.830757 -0.000813
5.208398 2.830757 -0.000940
5.523119 2.830757 -0.001581
5.837841 2.830757 -0.001667
6.152562 2.830757 -0.000693
6.467283 2.830757 -0.000901
6.782003 2.830757 -0.000346
7.096724 2.830757 0.000792
7.411445 2.830757 0.007337
7.726166 2.830757 0.013729
8.040888 2.830757 0.020710
8.355608 2.830757 0.025906
8.670330 2.830757 0.036200
8.985050 2.830757 0.045930
9.299772 2.830757 0.046076
9.614492 2.830757 0.040156
9.929214 2.830757 0.046144
10.243935 2.830757 0.039880
10.558655 2.830757 0.041694
10.873377 2.830757 0.044282
11.188097 2.830757 0.046727
11.502819 2.830757 0.040847
11.817539 2.830757 0.049938
12.132261 2.830757 0.060340
12.446981 2.830757 0.062658
12.761703 2.830757 0.075220
13.076424 2.830757 0.084991
13.391144 2.830757 0.081423
13.705866 2.830757 0.074443
14.020586 2.830757 0.074079
14.335308 2.830757 0.058340
14.650028 2.830757 0.088419
14.964750 2.830757 0.111078
15.279470 2.830757 0.148454
15.594193 2.830757 0.000000
15.908913 2.830757 0.000000
16.223633 2.830757 0.000000
16.538355 2.830757 0.000000
16.853075 2.830757 0.000000
17.167797 2.830757 0.000000
17.482517 2.830757 0.000000
17.797239 2.830757 0.000000
18.111959 2.830757 0.000000
18.426680 2.830757 0.000000
18.741402 2.830757 0.000000
-7.065720 2.516037 0.000958
-6.750999 2.516037 0.000646
-6.436278 2.516037 0.000533
-6.121557 2.516037 0.000507
-5.806836 2.516037 0.000566
-5.492115 2.516037 0.000587
-5.177394 2.516037 0.000588
-4.862673 2.516037 0.000498
-4.547952 2.516037 0.000505
-4.233231 2.516037 0.000636
-3.918510 2.516037 0.000657
-3.603789 2.516037 0.000695
-3.289068 2.516037 0.000619
-2.974347 2.516037 0.000591
-2.659626 2.516037 0.000663
-2.344905 2.516037 0.000540
-2.030184 2.516037 0.000416
-1.715463 2.516037 0.000418
-1.400742 2.516037 0.000491
-1.086021 2.516037 0.000517
-0.771300 2.516037 0.000434
-0.456579 2.516037 0.000369
-0.141859 2.516037 0.000292
0.172863 2.516037 0.000356
0.487584 2.516037 0.000504
0.802305 2.516037 0.000504
1.117026 2.516037 0.000390
1.431747 2.516037 0.000283
1.746467 2.516037 0.000231
2.061188 2.516037 0.000186
2.375909 2.516037 0.000202
2.690630 2.516037 0.000242
3.005352 2.516037 0.000137
3.320073 2.516037 -0.000022
3.634794 2.516037 -0.000020
3.949515 2.516037 -0.000256
4.264236 2.516037 -0.000686
4.578956 2.516037 -0.000851
4.893677 2.516037 -0.000926
5.208398 2.516037 -0.001132
5.523119 2.516037 -0.001888
5.837841 2.516037 -0.001666
6.152562 2.516037 -0.001028
6.467283 2.516037 -0.001042
6.782003 2.516037 -0.000172
7.096724 2.516037 0.002307
7.411445 2.516037 0.006175
7.726166 2.516037 0.009938
8.040888 2.516037 0.018865
8.355608 2.516037 0.028117
8.670330 2.516037 0.035794
8.985050 2.516037 0.044177
9.299772 2.516037 0.043255
9.614492 2.516037 0.041222
9.929214 2.516037 0.043431
10.243935 2.516037 0.032867
10.558655 2.516037 0.042505
10.873377 2.516037 0.035324
11.188097 2.516037 0.040405
11.502819 2.516037 0.055470
11.817539 2.516037 0.058305
12.132261 2.516037 0.067172
12.446981 2.516037 0.071347
12.761703 2.516037 0.081719
13.076424 2.516037 0.096249
13.391144 2.516037 0.082462
13.705866 2.516037 0.070644
14.020586 2.516037 0.073172
14.335308 2.516037 0.061979
14.650028 2.516037 0.083262
14.964750 2.516037 0.079800
15.279470 2.516037 0.113001
15.594193 2.516037 0.000000
15.908913 2.516037 0.000000
16.223633 2.516037 0.000000
16.538355 2.516037 0.000000
16.853075 2.516037 0.000000
17.167797 2.516037 0.000000
17.482517 2.516037 0.000000
17.797239 2.516037 0.000000
18.111959 2.516037 0.000000
18.426680 2.516037 0.000000
18.741402 2.516037 0.000000
-7.065720 2.201317 0.000948
-6.750999 2.201317 0.000596
-6.436278 2.201317 0.000396
-6.121557 2.201317 0.000407
-5.806836 2.201317 0.000572
-5.492115 2.201317 0.000650
-5.177394 2.201317 0.000619
-4.862673 2.201317 0.000571
-4.547952 2.201317 0.000549
-4.233231 2.201317 0.000605
-3.918510 2.201317 0.000648
-3.603789 2.201317 0.000675
-3.289068 2.201317 0.000559
-2.974347 2.201317 0.000530
-2.659626 2.201317 0.000616
-2.344905 2.201317 0.000530
-2.030184 2.201317 0.000466
-1.715463 2.201317 0.000432
-1.400742 2.201317 0.000435
-1.086021 2.201317 0.000435
-0.771300 2.201317 0.000427
-0.456579 2.201317 0.000388
-0.141859 2.201317 0.000344
0.172863 2.201317 0.000403
0.487584 2.201317 0.000505
0.802305 2.201317 0.000476
1.117026 2.201317 0.000362
1.431747 2.201317 0.000198
1.746467 2.201317 0.000126
2.061188 2.201317 0.000207
2.375909 2.201317 0.000261
2.690630 2.201317 0.000203
3.005352 2.201317 0.000005
3.320073 2.201317 -0.000096
3.634794 2.201317 -0.000063
3.949515 2.201317 -0.000418
4.264236 2.201317 -0.000788
4.578956 2.201317 -0.000839
4.893677 2.201317 -0.000915
5.208398 2.201317 -0.001480
5.523119 2.201317 -0.001991
5.837841 2.201317 -0.001475
6.152562 2.201317 -0.001114
6.467283 2.201317 -0.001252
6.782003 2.201317 0.000303
7.096724 2.201317 0.003710
7.411445 2.201317 0.004851
7.726166 2.201317 0.009024
8.040888 2.201317 0.018454
8.355608 2.201317 0.029510
8.670330 2.201317 0.037607
8.985050 2.201317 0.044182
9.299772 2.201317 0.048052
9.614492 2.201317 0.048389
9.929214 2.201317 0.032472
10.243935 2.201317 0.031456
10.558655 2.201317 0.037387
10.873377 2.201317 0.033787
11.188097 2.201317 0.042366
11.502819 2.201317 0.050692
11.817539 2.201317 0.059043
12.132261 2.201317 0.063476
12.446981 2.201317 0.063790
12.761703 2.201317 0.084794
13.076424 2.201317 0.088933
13.391144 2.201317 0.074238
13.705866 2.201317 0.047278
14.020586 2.201317 0.060305
14.335308 2.201317 0.042344
14.650028 2.201317 0.002668
14.964750 2.201317 0.016740
15.279470 2.201317 0.048151
15.594193 2.201317 0.000000
15.908913 2.201317 0.000000
16.223633 2.201317 0.000000
16.538355 2.201317 0.000000
16.853075 2.201317 0.000000
17.167797 2.201317 0.000000
17.482517 2.201317 0.000000
17.797239 2.201317 0.000000
18.111959 2.201317 0.000000
18.426680 2.201317 0.000000
18.741402 2.201317 0.000000
-7.065720 1.886597 0.000917
-6.750999 1.886597 0.000593
-6.436278 1.886597 0.000411
-6.121557 1.886597 0.000417
-5.806836 1.886597 0.000606
-5.492115 1.886597 0.000681
-5.177394 1.886597 0.000621
-4.862673 1.886597 0.000651
-4.547952 1.886597 0.000608
-4.233231 1.886597 0.000573
-3.918510 1.886597 0.000561
-3.603789 1.886597 0.000562
-3.289068 1.886597 0.000465
-2.974347 1.886597 0.000444
-2.659626 1.886597 0.000526
-2.344905 1.886597 0.000496
-2.030184 1.886597 0.000485
-1.715463 1.886597 0.000433
-1.400742 1.886597 0.000403
-1.086021 1.886597 0.000390
-0.771300 1.886597 0.000403
-0.456579 1.886597 0.000416
-0.141859 1.886597 0.000412
0.172863 1.886597 0.000416
0.487584 1.886597 0.000462
0.802305 1.886597 0.000420
1.117026 1.886597 0.000342
1.431747 1.886597 0.000169
1.746467 1.886597 0.000103
2.061188 1.886597 0.000281
2.375909 1.886597 0.000320
2.690630 1.886597 0.000163
3.005352 1.886597 -0.000069
3.320073 1.886597 -0.000136
3.634794 1.886597 -0.000204
3.949515 1.886597 -0.000475
4.264236 1.886597 -0.000758
4.578956 1.886597 -0.000783
4.893677 1.886597 -0.001069
5.208398 1.886597 -0.001660
5.523119 1.886597 -0.001821
5.837841 1.886597 -0.001206
6.152562 1.886597 -0.001226
6.467283 1.886597 -0.001103
6.782003 1.886597 0.001470
7.096724 1.886597 0.004662
7.411445 1.886597 0.005743
7.726166 1.886597 0.009946
8.040888 1.886597 0.019979
8.355608 1.886597 0.029076
8.670330 1.886597 0.039293
8.985050 1.886597 0.039404
9.299772 1.886597 0.045872
9.614492 1.886597 0.040488
9.929214 1.886597 0.031429
10.243935 1.886597 0.030784
10.558655 1.886597 0.030875
10.873377 1.886597 0.031882
11.188097 1.886597 0.045564
11.502819 1.886597 0.051788
11.817539 1.886597 0.057805
12.132261 1.886597 0.058738
12.446981 1.886597 0.083710
12.761703 1.886597 0.083675
13.076424 1.886597 0.080752
13.391144 1.886597 0.066486
13.705866 1.886597 0.033387
14.020586 1.886597 0.029944
14.335308 1.886597 0.024234
14.650028 1.886597 -0.011388
14.964750 1.886597 -0.025925
15.279470 1.886597 0.310495
15.594193 1.886597 0.000000
15.908913 1.886597 0.000000
16.223633 1.886597 0.000000
16.538355 1.886597 0.000000
16.853075 1.886597 0.000000
17.167797 1.886597 0.000000
17.482517 1.886597 0.000000
17.797239 1.886597 0.000000
18.111959 1.886597 0.000000
18.426680 1.886597 0.000000
18.741402 1.886597 0.000000
-7.065720 1.571873 0.000925
-6.750999 1.571873 0.000644
-6.436278 1.571873 0.000504
-6.121557 1.571873 0.000486
-5.806836 1.571873 0.000568
-5.492115 1.571873 0.000607
-5.177394 1.571873 0.000596
-4.862673 1.571873 0.000677
-4.547952 1.571873 0.000633
-4.233231 1.571873 0.000554
-3.918510 1.571873 0.000482
-3.603789 1.571873 0.000473
-3.289068 1.571873 0.000434
-2.974347 1.571873 0.000410
-2.659626 1.571873 0.000472
-2.344905 1.571873 0.000477
-2.030184 1.571873 0.000504
-1.715463 1.571873 0.000461
-1.400742 1.571873 0.000436
-1.086021 1.571873 0.000386
-0.771300 1.571873 0.000376
-0.456579 1.571873 0.000388
-0.141859 1.571873 0.000426
0.172863 1.571873 0.000426
0.487584 1.571873 0.000403
0.802305 1.571873 0.000345
1.117026 1.571873 0.000280
1.431747 1.571873 0.000166
1.746467 1.571873 0.000131
2.061188 1.571873 0.000284
2.375909 1.571873 0.000251
2.690630 1.571873 0.000081
3.005352 1.571873 -0.000054
3.320073 1.571873 -0.000126
3.634794 1.571873 -0.000252
3.949515 1.571873 -0.000442
4.264236 1.571873 -0.000592
4.578956 1.571873 -0.000687
4.893677 1.571873 -0.001036
5.208398 1.571873 -0.001633
5.523119 1.571873 -0.001640
5.837841 1.571873 -0.001291
6.152562 1.571873 -0.001146
6.467283 1.571873 -0.001301
6.782003 1.571873 0.000554
7.096724 1.571873 0.004060
7.411445 1.571873 0.009168
7.726166 1.571873 0.014422
8.040888 1.571873 0.020736
8.355608 1.571873 0.031999
8.670330 1.571873 0.034946
8.985050 1.571873 0.039111
9.299772 1.571873 0.036267
9.614492 1.571873 0.038344
9.929214 1.571873 0.029244
10.243935 1.571873 0.028769
10.558655 1.571873 0.036184
10.873377 1.571873 0.035430
11.188097 1.571873 0.045532
11.502819 1.571873 0.061074
11.817539 1.571873 0.054431
12.132261 1.571873 0.068282
12.446981 1.571873 0.074570
12.761703 1.571873 0.085485
13.076424 1.571873 0.073327
13.391144 1.571873 0.064278
13.705866 1.571873 0.044741
14.020586 1.571873 0.021968
14.335308 1.571873 0.011173
14.650028 1.571873 0.003451
14.964750 1.571873 -0.028587
15.279470 1.571873 0.000000
15.594193 1.571873 0.000000
15.908913 1.571873 0.000000
16.223633 1.571873 0.000000
16.538355 1.571873 0.000000
16.853075 1.571873 0.000000
17.167797 1.571873 0.000000
17.482517 1.571873 0.000000
17.797239 1.571873 0.000000
18.111959 1.571873 0.000000
18.426680 1.571873 0.000000
18.741402 1.571873 0.000000
-7.065720 1.257153 0.000936
-6.750999 1.257153 0.000675
-6.436278 1.257153 0.000564
-6.121557 1.257153 0.000560
-5.806836 1.257153 0.000566
-5.492115 1.257153 0.000516
-5.177394 1.257153 0.000552
-4.862673 1.257153 0.000624
-4.547952 1.257153 0.000600
-4.233231 1.257153 0.000533
-3.918510 1.257153 0.000460
-3.603789 1.257153 0.000448
-3.289068 1.257153 0.000442
-2.974347 1.257153 0.000427
-2.659626 1.257153 0.000474
-2.344905 1.257153 0.000507
-2.030184 1.257153 0.000529
-1.715463 1.257153 0.000524
-1.400742 1.257153 0.000532
-1.086021 1.257153 0.000479
-0.771300 1.257153 0.000395
-0.456579 1.257153 0.000357
-0.141859 1.257153 0.000375
0.172863 1.257153 0.000378
0.487584 1.257153 0.000316
0.802305 1.257153 0.000175
1.117026 1.257153 0.000163
1.431747 1.257153 0.000142
1.746467 1.257153 0.000154
2.061188 1.257153 0.000215
2.375909 1.257153 0.000131
2.690630 1.257153 0.000010
3.005352 1.257153 0.000001
3.320073 1.257153 -0.000041
3.634794 1.257153 -0.000218
3.949515 1.257153 -0.000347
4.264236 1.257153 -0.000438
4.578956 1.257153 -0.000601
4.893677 1.257153 -0.001013
5.208398 1.257153 -0.001590
5.523119 1.257153 -0.001467
5.837841 1.257153 -0.001371
6.152562 1.257153 -0.001305
6.467283 1.257153 -0.001551
6.782003 1.257153 0.001028
7.096724 1.257153 0.002905
7.411445 1.257153 0.009423
7.726166 1.257153 0.013986
8.040888 1.257153 0.021546
8.355608 1.257153 0.032912
8.670330 1.257153 0.039247
8.985050 1.257153 0.038318
9.299772 1.257153 0.039677
9.614492 1.257153 0.032444
9.929214 1.257153 0.024588
10.243935 1.257153 0.028628
10.558655 1.257153 0.032283
10.873377 1.257153 0.039927
11.188097 1.257153 0.047011
11.502819 1.257153 0.060832
11.817539 1.257153 0.067284
12.132261 1.257153 0.058701
12.446981 1.257153 0.074524
12.761703 1.257153 0.093399
13.076424 1.257153 0.093254
13.391144 1.257153 0.083268
13.705866 1.257153 0.052830
14.020586 1.257153 0.031264
14.335308 1.257153 0.005118
14.650028 1.257153 -0.006619
14.964750 1.257153 -0.045364
15.279470 1.257153 0.000000
15.594193 1.257153 0.000000
15.908913 1.257153 0.000000
16.223633 1.257153 0.000000
16.538355 1.257153 0.000000
16.853075 1.257153 0.000000
17.167797 1.257153 0.000000
17.482517 1.257153 0.000000
17.797239 1.257153 0.000000
18.111959 1.257153 0.000000
18.426680 1.257153 0.000000
18.741402 1.257153 0.000000
-7.065720 0.942432 0.001028
-6.750999 0.942432 0.000768
-6.436278 0.942432 0.000661
-6.121557 0.942432 0.000631
-5.806836 0.942432 0.000565
-5.492115 0.942432 0.000485
-5.177394 0.942432 0.000530
-4.862673 0.942432 0.000553
-4.547952 0.942432 0.000567
-4.233231 0.942432 0.000542
-3.918510 0.942432 0.000494
-3.603789 0.942432 0.000440
-3.289068 0.942432 0.000421
-2.974347 0.942432 0.000454
-2.659626 0.942432 0.000504
-2.344905 0.942432 0.000548
-2.030184 0.942432 0.000515
-1.715463 0.942432 0.000559
-1.400742 0.942432 0.000613
-1.086021 0.942432 0.000571
-0.771300 0.942432 0.000450
-0.456579 0.942432 0.000359
-0.141859 0.942432 0.000310
0.172863 0.942432 0.000305
0.487584 0.942432 0.000187
0.802305 0.942432 0.000068
1.117026 0.942432 0.000104
1.431747 0.942432 0.000177
1.746467 0.942432 0.000196
2.061188 0.942432 0.000145
2.375909 0.942432 0.000050
2.690630 0.942432 -0.000005
3.005352 0.942432 0.000034
3.320073 0.942432 0.000002
3.634794 0.942432 -0.000243
3.949515 0.942432 -0.000258
4.264236 0.942432 -0.000240
4.578956 0.942432 -0.000488
4.893677 0.942432 -0.000949
5.208398 0.942432 -0.001381
5.523119 0.942432 -0.001281
5.837841 0.942432 -0.001633
6.152562 0.942432 -0.001855
6.467283 0.942432 -0.002526
6.782003 0.942432 0.000822
7.096724 0.942432 0.002591
7.411445 0.942432 0.006954
7.726166 0.942432 0.015243
8.040888 0.942432 0.020486
8.355608 0.942432 0.032854
8.670330 0.942432 0.038949
8.985050 0.942432 0.043769
9.299772 0.942432 0.043252
9.614492 0.942432 0.033718
9.929214 0.942432 0.022286
10.243935 0.942432 0.034936
10.558655 0.942432 0.046271
10.873377 0.942432 0.039209
11.188097 0.942432 0.049702
11.502819 0.942432 0.056424
11.817539 0.942432 0.064492
12.132261 0.942432 0.060570
12.446981 0.942432 0.050637
12.761703 0.942432 0.081779
13.076424 0.942432 0.108685
13.391144 0.942432 0.083202
13.705866 0.942432 0.056411
14.020586 0.942432 0.035123
14.335308 0.942432 0.006920
14.650028 0.942432 -0.029791
14.964750 0.942432 -0.042241
15.279470 0.942432 0.000000
15.594193 0.942432 0.000000
15.908913 0.942432 0.000000
16.223633 0.942432 0.000000
16.538355 0.942432 0.000000
16.853075 0.942432 0.000000
17.167797 0.942432 0.000000
17.482517 0.942432 0.000000
17.797239 0.942432 0.000000
18.111959 0.942432 0.000000
18.426680 0.942432 0.000000
18.741402 0.942432 0.000000
-7.065720 0.627712 0.001212
-6.750999 0.627712 0.000880
-6.436278 0.627712 0.000712
-6.121557 0.627712 0.000633
-5.806836 0.627712 0.000542
-5.492115 0.627712 0.000493
-5.177394 0.627712 0.000543
-4.862673 0.627712 0.000557
-4.547952 0.627712 0.000563
-4.233231 0.627712 0.000560
-3.918510 0.627712 0.000545
-3.603789 0.627712 0.000459
-3.289068 0.627712 0.000379
-2.974347 0.627712 0.000432
-2.659626 0.627712 0.000512
-2.344905 0.627712 0.000538
-2.030184 0.627712 0.000479
-1.715463 0.627712 0.000499
-1.400742 0.627712 0.000574
-1.086021 0.627712 0.000571
-0.771300 0.627712 0.000506
-0.456579 0.627712 0.000427
-0.141859 0.627712 0.000356
0.172863 0.627712 0.000317
0.487584 0.627712 0.000141
0.802305 0.627712 0.000055
1.117026 0.627712 0.000140
1.431747 0.627712 0.000220
1.746467 0.627712 0.000162
2.061188 0.627712 0.000032
2.375909 0.627712 -0.000051
2.690630 0.627712 -0.000048
3.005352 0.627712 0.000007
3.320073 0.627712 -0.000014
3.634794 0.627712 -0.000184
3.949515 0.627712 -0.000064
4.264236 0.627712 -0.000052
4.578956 0.627712 -0.000448
4.893677 0.627712 -0.000926
5.208398 0.627712 -0.001236
5.523119 0.627712 -0.001442
5.837841 0.627712 -0.002181
6.152562 0.627712 -0.002321
6.467283 0.627712 -0.002349
6.782003 0.627712 0.000442
7.096724 0.627712 0.002418
7.411445 0.627712 0.005244
7.726166 0.627712 0.015746
8.040888 0.627712 0.023616
8.355608 0.627712 0.034729
8.670330 0.627712 0.043149
8.985050 0.627712 0.048450
9.299772 0.627712 0.045021
9.614492 0.627712 0.032423
9.929214 0.627712 0.031631
10.243935 0.627712 0.048982
10.558655 0.627712 0.045494
10.873377 0.627712 0.045186
11.188097 0.627712 0.047339
11.502819 0.627712 0.052325
11.817539 0.627712 0.049017
12.132261 0.627712 0.044955
12.446981 0.627712 0.037737
12.761703 0.627712 0.070488
13.076424 0.627712 0.096444
13.391144 0.627712 0.082403
13.705866 0.627712 0.066973
14.020586 0.627712 0.057105
14.335308 0.627712 0.008825
14.650028 0.627712 0.000486
14.964750 0.627712 0.021208
15.279470 0.627712 0.000000
15.594193 0.627712 0.000000
15.908913 0.627712 0.000000
16.223633 0.627712 0.000000
16.538355 0.627712 0.000000
16.853075 0.627712 0.000000
17.167797 0.627712 0.000000
17.482517 0.627712 0.000000
17.797239 0.627712 0.000000
18.111959 0.627712 0.000000
18.426680 0.627712 0.000000
18.741402 0.627712 0.000000
-7.065720 0.312992 0.001205
-6.750999 0.312992 0.000850
-6.436278 0.312992 0.000616
-6.121557 0.312992 0.000564
-5.806836 0.312992 0.000538
-5.492115 0.312992 0.000525
-5.177394 0.312992 0.000604
-4.862673 0.312992 0.000605
-4.547952 0.312992 0.000606
-4.233231 0.312992 0.000574
-3.918510 0.312992 0.000559
-3.603789 0.312992 0.000479
-3.289068 0.312992 0.000359
-2.974347 0.312992 0.000406
-2.659626 0.312992 0.000477
-2.344905 0.312992 0.000508
-2.030184 0.312992 0.000418
-1.715463 0.312992 0.000408
-1.400742 0.312992 0.000461
-1.086021 0.312992 0.000500
-0.771300 0.312992 0.000540
-0.456579 0.312992 0.000508
-0.141859 0.312992 0.000443
0.172863 0.312992 0.000351
0.487584 0.312992 0.000159
0.802305 0.312992 0.000117
1.117026 0.312992 0.000150
1.431747 0.312992 0.000149
1.746467 0.312992 0.000018
2.061188 0.312992 -0.000090
2.375909 0.312992 -0.000120
2.690630 0.312992 -0.000091
3.005352 0.312992 -0.000018
3.320073 0.312992 0.000020
3.634794 0.312992 0.000014
3.949515 0.312992 0.000130
4.264236 0.312992 -0.000025
4.578956 0.312992 -0.000436
4.893677 0.312992 -0.000760
5.208398 0.312992 -0.001217
5.523119 0.312992 -0.001778
5.837841 0.312992 -0.002551
6.152562 0.312992 -0.002719
6.467283 0.312992 -0.002133
6.782003 0.312992 0.000634
7.096724 0.312992 0.003572
7.411445 0.312992 0.008349
7.726166 0.312992 0.014375
8.040888 0.312992 0.023195
8.355608 0.312992 0.036461
8.670330 0.312992 0.043323
8.985050 0.312992 0.042179
9.299772 0.312992 0.037443
9.614492 0.312992 0.032803
9.929214 0.312992 0.037763
10.243935 0.312992 0.045611
10.558655 0.312992 0.044054
10.873377 0.312992 0.053757
11.188097 0.312992 0.059736
11.502819 0.312992 0.060420
11.817539 0.312992 0.049006
12.132261 0.312992 0.034489
12.446981 0.312992 0.042935
12.761703 0.312992 0.074659
13.076424 0.312992 0.081425
13.391144 0.312992 0.062077
13.705866 0.312992 0.062530
14.020586 0.312992 0.050937
14.335308 0.312992 0.021132
14.650028 0.312992 -0.015615
14.964750 0.312992 0.000000
15.279470 0.312992 0.000000
15.594193 0.312992 0.000000
15.908913 0.312992 0.000000
16.223633 0.312992 0.000000
16.538355 0.312992 0.000000
16.853075 0.312992 0.000000
17.167797 0.312992 0.000000
17.482517 0.312992 0.000000
17.797239 0.312992 0.000000
18.111959 0.312992 0.000000
18.426680 0.312992 0.000000
18.741402 0.312992 0.000000
-7.065720 -0.001732 0.001158
-6.750999 -0.001732 0.000812
-6.436278 -0.001732 0.000541
-6.121557 -0.001732 0.000525
-5.806836 -0.001732 0.000583
-5.492115 -0.001732 0.000589
-5.177394 -0.001732 0.000645
-4.862673 -0.001732 0.000646
-4.547952 -0.001732 0.000630
-4.233231 -0.001732 0.000579
-3.918510 -0.001732 0.000508
-3.603789 -0.001732 0.000459
-3.289068 -0.001732 0.000390
-2.974347 -0.001732 0.000439
-2.659626 -0.001732 0.000463
-2.344905 -0.001732 0.000468
-2.030184 -0.001732 0.000377
-1.715463 -0.001732 0.000329
-1.400742 -0.001732 0.000346
-1.086021 -0.001732 0.000405
-0.771300 -0.001732 0.000480
-0.456579 -0.001732 0.000470
-0.141859 -0.001732 0.000440
0.172863 -0.001732 0.000351
0.487584 -0.001732 0.000220
0.802305 -0.001732 0.000231
1.117026 -0.001732 0.000183
1.431747 -0.001732 0.000093
1.746467 -0.001732 -0.000031
2.061188 -0.001732 -0.000091
2.375909 -0.001732 -0.000088
2.690630 -0.001732 -0.000071
3.005352 -0.001732 -0.000023
3.320073 -0.001732 0.000023
3.634794 -0.001732 0.000163
3.949515 -0.001732 0.000127
4.264236 -0.001732 -0.000295
4.578956 -0.001732 -0.000623
4.893677 -0.001732 -0.000697
5.208398 -0.001732 -0.001201
5.523119 -0.001732 -0.001851
5.837841 -0.001732 -0.002228
6.152562 -0.001732 -0.002175
6.467283 -0.001732 -0.002416
6.782003 -0.001732 0.000204
7.096724 -0.001732 0.004131
7.411445 -0.001732 0.009910
7.726166 -0.001732 0.015869
8.040888 -0.001732 0.024561
8.355608 -0.001732 0.033160
8.670330 -0.001732 0.041566
8.985050 -0.001732 0.041196
9.299772 -0.001732 0.041299
9.614492 -0.001732 0.029389
9.929214 -0.001732 0.034028
10.243935 -0.001732 0.042092
10.558655 -0.001732 0.033935
10.873377 -0.001732 0.046670
11.188097 -0.001732 0.063264
11.502819 -0.001732 0.064453
11.817539 -0.001732 0.068603
12.132261 -0.001732 0.061189
12.446981 -0.001732 0.054996
12.761703 -0.001732 0.065973
13.076424 -0.001732 0.077193
13.391144 -0.001732 0.050478
13.705866 -0.001732 0.051821
14.020586 -0.001732 0.049798
14.335308 -0.001732 0.027964
14.650028 -0.001732 0.001358
14.964750 -0.001732 0.000000
15.279470 -0.001732 0.000000
15.594193 -0.001732 0.000000
15.908913 -0.001732 0.000000
16.223633 -0.001732 0.000000
16.538355 -0.001732 0.000000
16.853075 -0.001732 0.000000
17.167797 -0.001732 0.000000
17.482517 -0.001732 0.000000
17.797239 -0.001732 0.000000
18.111959 -0.001732 0.000000
18.426680 -0.001732 0.000000
18.741402 -0.001732 0.000000
-7.065720 -0.316452 0.000825
-6.750999 -0.316452 0.000834
-6.436278 -0.316452 0.000580
-6.121557 -0.316452 0.000603
-5.806836 -0.316452 0.000689
-5.492115 -0.316452 0.000687
-5.177394 -0.316452 0.000699
-4.862673 -0.316452 0.000696
-4.547952 -0.316452 0.000652
-4.233231 -0.316452 0.000576
-3.918510 -0.316452 0.000476
-3.603789 -0.316452 0.000456
-3.289068 -0.316452 0.000473
-2.974347 -0.316452 0.000507
-2.659626 -0.316452 0.000461
-2.344905 -0.316452 0.000431
-2.030184 -0.316452 0.000386
-1.715463 -0.316452 0.000307
-1.400742 -0.316452 0.000278
-1.086021 -0.316452 0.000338
-0.771300 -0.316452 0.000380
-0.456579 -0.316452 0.000398
-0.141859 -0.316452 0.000395
0.172863 -0.316452 0.000321
0.487584 -0.316452 0.000304
0.802305 -0.316452 0.000385
1.117026 -0.316452 0.000281
1.431747 -0.316452 0.000101
1.746467 -0.316452 0.000007
2.061188 -0.316452 0.000005
2.375909 -0.316452 0.000004
2.690630 -0.316452 -0.000009
3.005352 -0.316452 0.000002
3.320073 -0.316452 0.000047
3.634794 -0.316452 0.000137
3.949515 -0.316452 -0.000163
4.264236 -0.316452 -0.000723
4.578956 -0.316452 -0.000810
4.893677 -0.316452 -0.000890
5.208398 -0.316452 -0.001490
5.523119 -0.316452 -0.002218
5.837841 -0.316452 -0.002498
6.152562 -0.316452 -0.002082
6.467283 -0.316452 -0.001368
6.782003 -0.316452 0.000178
7.096724 -0.316452 0.004489
7.411445 -0.316452 0.014228
7.726166 -0.316452 0.023575
8.040888 -0.316452 0.031348
8.355608 -0.316452 0.039938
8.670330 -0.316452 0.046584
8.985050 -0.316452 0.046185
9.299772 -0.316452 0.042899
9.614492 -0.316452 0.033597
9.929214 -0.316452 0.034649
10.243935 -0.316452 0.036942
10.558655 -0.316452 0.040564
10.873377 -0.316452 0.044919
11.188097 -0.316452 0.064291
11.502819 -0.316452 0.068522
11.817539 -0.316452 0.066930
12.132261 -0.316452 0.059990
12.446981 -0.316452 0.063902
12.761703 -0.316452 0.076125
13.076424 -0.316452 0.089739
13.391144 -0.316452 0.065390
13.705866 -0.316452 0.051853
14.020586 -0.316452 0.046007
14.335308 -0.316452 0.010624
14.650028 -0.316452 -0.040160
14.964750 -0.316452 0.000000
15.279470 -0.316452 0.000000
15.594193 -0.316452 0.000000
15.908913 -0.316452 0.000000
16.223633 -0.316452 0.000000
16.538355 -0.316452 0.000000
16.853075 -0.316452 0.000000
17.167797 -0.316452 0.000000
17.482517 -0.316452 0.000000
17.797239 -0.316452 0.000000
18.111959 -0.316452 0.000000
18.426680 -0.316452 0.000000
18.741402 -0.316452 0.000000
-7.065720 -0.631172 0.000844
-6.750999 -0.631172 0.000881
-6.436278 -0.631172 0.000707
-6.121557 -0.631172 0.000793
-5.806836 -0.631172 0.000878
-5.492115 -0.631172 0.000854
-5.177394 -0.631172 0.000803
-4.862673 -0.631172 0.000802
-4.547952 -0.631172 0.000761
-4.233231 -0.631172 0.000649
-3.918510 -0.631172 0.000548
-3.603789 -0.631172 0.000578
-3.289068 -0.631172 0.000667
-2.974347 -0.631172 0.000709
-2.659626 -0.631172 0.000576
-2.344905 -0.631172 0.000507
-2.030184 -0.631172 0.000499
-1.715463 -0.631172 0.000387
-1.400742 -0.631172 0.000312
-1.086021 -0.631172 0.000376
-0.771300 -0.631172 0.000371
-0.456579 -0.631172 0.000365
-0.141859 -0.631172 0.000337
0.172863 -0.631172 0.000305
0.487584 -0.631172 0.000381
0.802305 -0.631172 0.000546
1.117026 -0.631172 0.000405
1.431747 -0.631172 0.000186
1.746467 -0.631172 0.000209
2.061188 -0.631172 0.000261
2.375909 -0.631172 0.000165
2.690630 -0.631172 0.000083
3.005352 -0.631172 0.000084
3.320073 -0.631172 0.000072
3.634794 -0.631172 -0.000068
3.949515 -0.631172 -0.000693
4.264236 -0.631172 -0.001228
4.578956 -0.631172 -0.001244
4.893677 -0.631172 -0.001365
5.208398 -0.631172 -0.002056
5.523119 -0.631172 -0.002479
5.837841 -0.631172 -0.002631
6.152562 -0.631172 -0.001970
6.467283 -0.631172 -0.000585
6.782003 -0.631172 0.000083
7.096724 -0.631172 0.008129
7.411445 -0.631172 0.016247
7.726166 -0.631172 0.027060
8.040888 -0.631172 0.037092
8.355608 -0.631172 0.048045
8.670330 -0.631172 0.058776
8.985050 -0.631172 0.056597
9.299772 -0.631172 0.052470
9.614492 -0.631172 0.038355
9.929214 -0.631172 0.037886
10.243935 -0.631172 0.041310
10.558655 -0.631172 0.047906
10.873377 -0.631172 0.044429
11.188097 -0.631172 0.058849
11.502819 -0.631172 0.064207
11.817539 -0.631172 0.081255
12.132261 -0.631172 0.061578
12.446981 -0.631172 0.069333
12.761703 -0.631172 0.083250
13.076424 -0.631172 0.098732
13.391144 -0.631172 0.068609
13.705866 -0.631172 0.063385
14.020586 -0.631172 0.068564
14.335308 -0.631172 0.006292
14.650028 -0.631172 -0.037820
14.964750 -0.631172 0.000000
15.279470 -0.631172 0.000000
15.594193 -0.631172 0.000000
15.908913 -0.631172 0.000000
16.223633 -0.631172 0.000000
16.538355 -0.631172 0.000000
16.853075 -0.631172 0.000000
17.167797 -0.631172 0.000000
17.482517 -0.631172 0.000000
17.797239 -0.631172 0.000000
18.111959 -0.631172 0.000000
18.426680 -0.631172 0.000000
18.741402 -0.631172 0.000000
-7.065720 -0.945892 0.000755
-6.750999 -0.945892 0.000676
-6.436278 -0.945892 0.000645
-6.121557 -0.945892 0.000962
-5.806836 -0.945892 0.001037
-5.492115 -0.945892 0.000882
-5.177394 -0.945892 0.000838
-4.862673 -0.945892 0.000922
-4.547952 -0.945892 0.000940
-4.233231 -0.945892 0.000843
-3.918510 -0.945892 0.000763
-3.603789 -0.945892 0.000837
-3.289068 -0.945892 0.000919
-2.974347 -0.945892 0.001030
-2.659626 -0.945892 0.000877
-2.344905 -0.945892 0.000746
-2.030184 -0.945892 0.000770
-1.715463 -0.945892 0.000609
-1.400742 -0.945892 0.000475
-1.086021 -0.945892 0.000493
-0.771300 -0.945892 0.000475
-0.456579 -0.945892 0.000461
-0.141859 -0.945892 0.000401
0.172863 -0.945892 0.000370
0.487584 -0.945892 0.000538
0.802305 -0.945892 0.000750
1.117026 -0.945892 0.000584
1.431747 -0.945892 0.000409
1.746467 -0.945892 0.000530
2.061188 -0.945892 0.000618
2.375909 -0.945892 0.000299
2.690630 -0.945892 0.000088
3.005352 -0.945892 0.000031
3.320073 -0.945892 -0.000045
3.634794 -0.945892 -0.000491
3.949515 -0.945892 -0.001319
4.264236 -0.945892 -0.001637
4.578956 -0.945892 -0.001525
4.893677 -0.945892 -0.001909
5.208398 -0.945892 -0.002746
5.523119 -0.945892 -0.003327
5.837841 -0.945892 -0.003268
6.152562 -0.945892 -0.002564
6.467283 -0.945892 -0.001769
6.782003 -0.945892 0.000652
7.096724 -0.945892 0.008386
7.411445 -0.945892 0.018969
7.726166 -0.945892 0.027803
8.040888 -0.945892 0.043295
8.355608 -0.945892 0.059838
8.670330 -0.945892 0.067414
8.985050 -0.945892 0.060600
9.299772 -0.945892 0.052553
9.614492 -0.945892 0.048449
9.929214 -0.945892 0.041678
10.243935 -0.945892 0.050031
10.558655 -0.945892 0.045449
10.873377 -0.945892 0.044249
11.188097 -0.945892 0.060285
11.502819 -0.945892 0.067983
11.817539 -0.945892 0.086876
12.132261 -0.945892 0.072033
12.446981 -0.945892 0.065422
12.761703 -0.945892 0.071560
13.076424 -0.945892 0.081797
13.391144 -0.945892 0.059034
13.705866 -0.945892 0.045666
14.020586 -0.945892 0.027860
14.335308 -0.945892 0.029092
14.650028 -0.945892 -0.012598
14.964750 -0.945892 0.000000
15.279470 -0.945892 0.000000
15.594193 -0.945892 0.000000
15.908913 -0.945892 0.000000
16.223633 -0.945892 0.000000
16.538355 -0.945892 0.000000
16.853075 -0.945892 0.000000
17.167797 -0.945892 0.000000
17.482517 -0.945892 0.000000
17.797239 -0.945892 0.000000
18.111959 -0.945892 0.000000
18.426680 -0.945892 0.000000
18.741402 -0.945892 0.000000
-7.065720 -1.260616 0.000000
-6.750999 -1.260616 0.000000
-6.436278 -1.260616 0.000000
-6.121557 -1.260616 0.000000
-5.806836 -1.260616 0.000000
-5.492115 -1.260616 0.000000
-5.177394 -1.260616 0.000000
-4.862673 -1.260616 0.000000
-4.547952 -1.260616 0.000000
-4.233231 -1.260616 0.000000
-3.918510 -1.260616 0.000000
-3.603789 -1.260616 0.000000
-3.289068 -1.260616 0.000000
-2.974347 -1.260616 0.000000
-2.659626 -1.260616 0.000000
-2.344905 -1.260616 0.000000
-2.030184 -1.260616 0.000000
-1.715463 -1.260616 0.000000
-1.400742 -1.260616 0.000000
-1.086021 -1.260616 0.000000
-0.771300 -1.260616 0.000000
-0.456579 -1.260616 0.000000
-0.141859 -1.260616 0.000000
0.172863 -1.260616 0.000000
0.487584 -1.260616 0.000000
0.802305 -1.260616 0.000000
1.117026 -1.260616 0.000000
1.431747 -1.260616 0.000000
1.746467 -1.260616 0.000000
2.061188 -1.260616 0.000000
2.375909 -1.260616 0.000000
2.690630 -1.260616 0.000000
3.005352 -1.260616 0.000000
3.320073 -1.260616 0.000000
3.634794 -1.260616 0.000000
3.949515 -1.260616 0.000000
4.264236 -1.260616 0.000000
4.578956 -1.260616 0.000000
4.893677 -1.260616 0.000000
5.208398 -1.260616 0.000000
5.523119 -1.260616 0.000000
5.837841 -1.260616 -0.147667
6.152562 -1.260616 0.546641
6.467283 -1.260616 -0.367334
6.782003 -1.260616 -0.248959
7.096724 -1.260616 -0.053296
7.411445 -1.260616 0.010613
7.726166 -1.260616 0.013024
8.040888 -1.260616 0.004915
8.355608 -1.260616 0.014994
8.670330 -1.260616 0.025273
8.985050 -1.260616 0.019632
9.299772 -1.260616 0.004985
9.614492 -1.260616 -0.003069
9.929214 -1.260616 0.001734
10.243935 -1.260616 0.032500
10.558655 -1.260616 0.026304
10.873377 -1.260616 0.032934
11.188097 -1.260616 0.035863
11.502819 -1.260616 0.053059
11.817539 -1.260616 0.084515
12.132261 -1.260616 0.083987
12.446981 -1.260616 0.075251
12.761703 -1.260616 0.071521
13.076424 -1.260616 0.071164
13.391144 -1.260616 0.042083
13.705866 -1.260616 0.016335
14.020586 -1.260616 0.013529
14.335308 -1.260616 0.021239
14.650028 -1.260616 0.000000
14.964750 -1.260616 0.000000
15.279470 -1.260616 0.000000
15.594193 -1.260616 0.000000
15.908913 -1.260616 0.000000
16.223633 -1.260616 0.000000
16.538355 -1.260616 0.000000
16.853075 -1.260616 0.000000
17.167797 -1.260616 0.000000
17.482517 -1.260616 0.000000
17.797239 -1.260616 0.000000
18.111959 -1.260616 0.000000
18.426680 -1.260616 0.000000
18.741402 -1.260616 0.000000
-7.065720 -1.575336 0.000000
-6.750999 -1.575336 0.000000
-6.436278 -1.575336 0.000000
-6.121557 -1.575336 0.000000
-5.806836 -1.575336 0.000000
-5.492115 -1.575336 0.000000
-5.177394 -1.575336 0.000000
-4.862673 -1.575336 0.000000
-4.547952 -1.575336 0.000000
-4.233231 -1.575336 0.000000
-3.918510 -1.575336 0.000000
-3.603789 -1.575336 0.000000
-3.289068 -1.575336 0.000000
-2.974347 -1.575336 0.000000
-2.659626 -1.575336 0.000000
-2.344905 -1.575336 0.000000
-2.030184 -1.575336 0.000000
-1.715463 -1.575336 0.000000
-1.400742 -1.575336 0.000000
-1.086021 -1.575336 0.000000
-0.771300 -1.575336 0.000000
-0.456579 -1.575336 0.000000
-0.141859 -1.575336 0.000000
0.172863 -1.575336 0.000000
0.487584 -1.575336 0.000000
0.802305 -1.575336 0.000000
1.117026 -1.575336 0.000000
1.431747 -1.575336 0.000000
1.746467 -1.575336 0.000000
2.061188 -1.575336 0.000000
2.375909 -1.575336 0.000000
2.690630 -1.575336 0.000000
3.005352 -1.575336 0.000000
3.320073 -1.575336 0.000000
3.634794 -1.575336 0.000000
3.949515 -1.575336 0.000000
4.264236 -1.575336 0.000000
4.578956 -1.575336 0.000000
4.893677 -1.575336 0.000000
5.208398 -1.575336 0.000000
5.523119 -1.575336 0.000000
5.837841 -1.575336 0.000000
6.152562 -1.575336 0.000000
6.467283 -1.575336 0.000000
6.782003 -1.575336 0.000000
7.096724 -1.575336 0.000000
7.411445 -1.575336 0.000000
7.726166 -1.575336 0.000000
8.040888 -1.575336 0.000000
8.355608 -1.575336 0.000000
8.670330 -1.575336 0.000000
8.985050 -1.575336 3.892557
9.299772 -1.575336 0.417908
9.614492 -1.575336 -0.741402
9.929214 -1.575336 -0.208003
10.243935 -1.575336 0.068989
10.558655 -1.575336 -0.263151
10.873377 -1.575336 -0.434786
11.188097 -1.575336 -0.261378
11.502819 -1.575336 -0.213528
11.817539 -1.575336 -0.135216
12.132261 -1.575336 -0.094206
12.446981 -1.575336 -0.087832
12.761703 -1.575336 -0.074809
13.076424 -1.575336 -0.084719
13.391144 -1.575336 -0.077312
13.705866 -1.575336 -0.053994
14.020586 -1.575336 -0.024715
14.335308 -1.575336 0.026609
14.650028 -1.575336 0.000000
14.964750 -1.575336 0.000000
15.279470 -1.575336 0.000000
15.594193 -1.575336 0.000000
15.908913 -1.575336 0.000000
16.223633 -1.575336 0.000000
16.538355 -1.575336 0.000000
16.853075 -1.575336 0.000000
17.167797 -1.575336 0.000000
17.482517 -1.575336 0.000000
17.797239 -1.575336 0.000000
18.111959 -1.575336 0.000000
18.426680 -1.575336 0.000000
18.741402 -1.575336 0.000000
-7.065720 -1.890057 0.000000
-6.750999 -1.890057 0.000000
-6.436278 -1.890057 0.000000
-6.121557 -1.890057 0.000000
-5.806836 -1.890057 0.000000
-5.492115 -1.890057 0.000000
-5.177394 -1.890057 0.000000
-4.862673 -1.890057 0.000000
-4.547952 -1.890057 0.000000
-4.233231 -1.890057 0.000000
-3.918510 -1.890057 0.000000
-3.603789 -1.890057 0.000000
-3.289068 -1.890057 0.000000
-2.974347 -1.890057 0.000000
-2.659626 -1.890057 0.000000
-2.344905 -1.890057 0.000000
-2.030184 -1.890057 0.000000
-1.715463 -1.890057 0.000000
-1.400742 -1.890057 0.000000
-1.086021 -1.890057 0.000000
-0.771300 -1.890057 0.000000
-0.456579 -1.890057 0.000000
-0.141859 -1.890057 0.000000
0.172863 -1.890057 0.000000
0.487584 -1.890057 0.000000
0.802305 -1.890057 0.000000
1.117026 -1.890057 0.000000
1.431747 -1.890057 0.000000
1.746467 -1.890057 0.000000
2.061188 -1.890057 0.000000
2.375909 -1.890057 0.000000
2.690630 -1.890057 0.000000
3.005352 -1.890057 0.000000
3.320073 -1.890057 0.000000
3.634794 -1.890057 0.000000
3.949515 -1.890057 0.000000
4.264236 -1.890057 0.000000
4.578956 -1.890057 0.000000
4.893677 -1.890057 0.000000
5.208398 -1.890057 0.000000
5.523119 -1.890057 0.000000
5.837841 -1.890057 0.000000
6.152562 -1.890057 0.000000
6.467283 -1.890057 0.000000
6.782003 -1.890057 0.000000
7.096724 -1.890057 0.000000
7.411445 -1.890057 0.000000
7.726166 -1.890057 0.000000
8.040888 -1.890057 0.000000
8.355608 -1.890057 0.000000
8.670330 -1.890057 0.000000
8.985050 -1.890057 0.000000
9.299772 -1.890057 0.000000
9.614492 -1.890057 0.000000
9.929214 -1.890057 0.000000
10.243935 -1.890057 0.000000
10.558655 -1.890057 0.000000
10.873377 -1.890057 0.000000
11.188097 -1.890057 0.000000
11.502819 -1.890057 0.681587
11.817539 -1.890057 -0.076731
12.132261 -1.890057 -1.813151
12.446981 -1.890057 0.001306
12.761703 -1.890057 -0.350560
13.076424 -1.890057 -0.520287
13.391144 -1.890057 -0.427605
13.705866 -1.890057 -0.158715
14.020586 -1.890057 -0.164664
14.335308 -1.890057 -0.149312
14.650028 -1.890057 0.000000
14.964750 -1.890057 0.000000
15.279470 -1.890057 0.000000
15.594193 -1.890057 0.000000
15.908913 -1.890057 0.000000
16.223633 -1.890057 0.000000
16.538355 -1.890057 0.000000
16.853075 -1.890057 0.000000
17.167797 -1.890057 0.000000
17.482517 -1.890057 0.000000
17.797239 -1.890057 0.000000
18.111959 -1.890057 0.000000
18.426680 -1.890057 0.000000
18.741402 -1.890057 0.000000
-7.065720 -2.204777 0.000000
-6.750999 -2.204777 0.000000
-6.436278 -2.204777 0.000000
-6.121557 -2.204777 0.000000
-5.806836 -2.204777 0.000000
-5.492115 -2.204777 0.000000
-5.177394 -2.204777 0.000000
-4.862673 -2.204777 0.000000
-4.547952 -2.204777 0.000000
-4.233231 -2.204777 0.000000
-3.918510 -2.204777 0.000000
-3.603789 -2.204777 0.000000
-3.289068 -2.204777 0.000000
-2.974347 -2.204777 0.000000
-2.659626 -2.204777 0.000000
-2.344905 -2.204777 0.000000
-2.030184 -2.204777 0.000000
-1.715463 -2.204777 0.000000
-1.400742 -2.204777 0.000000
-1.086021 -2.204777 0.000000
-0.771300 -2.204777 0.000000
-0.456579 -2.204777 0.000000
-0.141859 -2.204777 0.000000
0.172863 -2.204777 0.000000
0.487584 -2.204777 0.000000
0.802305 -2.204777 0.000000
1.117026 -2.204777 0.000000
1.431747 -2.204777 0.000000
1.746467 -2.204777 0.000000
2.061188 -2.204777 0.000000
2.375909 -2.204777 0.000000
2.690630 -2.204777 0.000000
3.005352 -2.204777 0.000000
3.320073 -2.204777 0.000000
3.634794 -2.204777 0.000000
3.949515 -2.204777 0.000000
4.264236 -2.204777 0.000000
4.578956 -2.204777 0.000000
4.893677 -2.204777 0.000000
5.208398 -2.204777 0.000000
5.523119 -2.204777 0.000000
5.837841 -2.204777 0.000000
6.152562 -2.204777 0.000000
6.467283 -2.204777 0.000000
6.782003 -2.204777 0.000000
7.096724 -2.204777 0.000000
7.411445 -2.204777 0.000000
7.726166 -2.204777 0.000000
8.040888 -2.204777 0.000000
8.355608 -2.204777 0.000000
8.670330 -2.204777 0.000000
8.985050 -2.204777 0.000000
9.299772 -2.204777 0.000000
9.614492 -2.204777 0.000000
9.929214 -2.204777 0.000000
10.243935 -2.204777 0.000000
10.558655 -2.204777 0.000000
10.873377 -2.204777 0.000000
11.188097 -2.204777 0.000000
11.502819 -2.204777 0.000000
11.817539 -2.204777 0.000000
12.132261 -2.204777 0.000000
12.446981 -2.204777 0.000000
12.761703 -2.204777 0.000000
13.076424 -2.204777 0.000000
13.391144 -2.204777 0.000000
13.705866 -2.204777 0.000000
14.020586 -2.204777 0.000000
14.335308 -2.204777 0.000000
14.650028 -2.204777 0.000000
14.964750 -2.204777 0.000000
15.279470 -2.204777 0.000000
15.594193 -2.204777 0.000000
15.908913 -2.204777 0.000000
16.223633 -2.204777 0.000000
16.538355 -2.204777 0.000000
16.853075 -2.204777 0.000000
17.167797 -2.204777 0.000000
17.482517 -2.204777 0.000000
17.797239 -2.204777 0.000000
18.111959 -2.204777 0.000000
18.426680 -2.204777 0.000000
18.741402 -2.204777 0.000000
