TITLE = "B00011"
VARIABLES = "x", "y", "Reynold stress YZ"
ZONE T="Frame 1" I=83, J=162, F=POINT
-7.065720 48.465302 0.000000
-6.750999 48.465302 0.000000
-6.436278 48.465302 0.000000
-6.121557 48.465302 0.000000
-5.806836 48.465302 0.000000
-5.492115 48.465302 0.000000
-5.177394 48.465302 0.000000
-4.862673 48.465302 0.000000
-4.547952 48.465302 0.000000
-4.233231 48.465302 0.000000
-3.918510 48.465302 0.000000
-3.603789 48.465302 0.000000
-3.289068 48.465302 0.000000
-2.974347 48.465302 0.000000
-2.659626 48.465302 0.000000
-2.344905 48.465302 0.000000
-2.030184 48.465302 0.000000
-1.715463 48.465302 0.000000
-1.400742 48.465302 0.000000
-1.086021 48.465302 0.000000
-0.771300 48.465302 0.000000
-0.456579 48.465302 0.000000
-0.141859 48.465302 0.000000
0.172863 48.465302 0.000000
0.487584 48.465302 0.000000
0.802305 48.465302 0.000000
1.117026 48.465302 0.000000
1.431747 48.465302 0.000000
1.746467 48.465302 0.000000
2.061188 48.465302 0.000000
2.375909 48.465302 0.000000
2.690630 48.465302 0.000000
3.005352 48.465302 0.000000
3.320073 48.465302 0.000000
3.634794 48.465302 0.000000
3.949515 48.465302 0.000000
4.264236 48.465302 0.000000
4.578956 48.465302 0.000000
4.893677 48.465302 0.000000
5.208398 48.465302 0.000000
5.523119 48.465302 0.000000
5.837841 48.465302 0.000000
6.152562 48.465302 0.000000
6.467283 48.465302 0.000000
6.782003 48.465302 0.000000
7.096724 48.465302 0.000000
7.411445 48.465302 0.000000
7.726166 48.465302 0.000000
8.040888 48.465302 0.000000
8.355608 48.465302 0.000000
8.670330 48.465302 0.000000
8.985050 48.465302 0.000000
9.299772 48.465302 0.000000
9.614492 48.465302 0.000000
9.929214 48.465302 0.000000
10.243935 48.465302 0.000000
10.558655 48.465302 0.000000
10.873377 48.465302 0.000000
11.188097 48.465302 0.000000
11.502819 48.465302 0.000000
11.817539 48.465302 0.000000
12.132261 48.465302 0.000000
12.446981 48.465302 0.000000
12.761703 48.465302 0.000000
13.076424 48.465302 0.000000
13.391144 48.465302 0.000000
13.705866 48.465302 0.000000
14.020586 48.465302 0.000000
14.335308 48.465302 0.000000
14.650028 48.465302 0.000000
14.964750 48.465302 0.000000
15.279470 48.465302 0.000000
15.594193 48.465302 0.000000
15.908913 48.465302 0.000000
16.223633 48.465302 0.000000
16.538355 48.465302 0.000000
16.853075 48.465302 0.000000
17.167797 48.465302 0.000000
17.482517 48.465302 0.000000
17.797239 48.465302 0.000000
18.111959 48.465302 0.000000
18.426680 48.465302 0.000000
18.741402 48.465302 0.000000
-7.065720 48.150581 0.000000
-6.750999 48.150581 0.000000
-6.436278 48.150581 0.000000
-6.121557 48.150581 0.000000
-5.806836 48.150581 0.000000
-5.492115 48.150581 0.000000
-5.177394 48.150581 0.000000
-4.862673 48.150581 0.000000
-4.547952 48.150581 0.000000
-4.233231 48.150581 0.000000
-3.918510 48.150581 0.000000
-3.603789 48.150581 0.000000
-3.289068 48.150581 0.000000
-2.974347 48.150581 0.000000
-2.659626 48.150581 0.000000
-2.344905 48.150581 0.000000
-2.030184 48.150581 0.000000
-1.715463 48.150581 0.000000
-1.400742 48.150581 0.000000
-1.086021 48.150581 0.000000
-0.771300 48.150581 0.000000
-0.456579 48.150581 0.000000
-0.141859 48.150581 0.000000
0.172863 48.150581 0.000000
0.487584 48.150581 0.000000
0.802305 48.150581 0.000000
1.117026 48.150581 0.000000
1.431747 48.150581 0.000000
1.746467 48.150581 0.000000
2.061188 48.150581 0.000000
2.375909 48.150581 0.000000
2.690630 48.150581 0.000000
3.005352 48.150581 0.000000
3.320073 48.150581 0.000000
3.634794 48.150581 0.000000
3.949515 48.150581 0.000000
4.264236 48.150581 0.000000
4.578956 48.150581 0.000000
4.893677 48.150581 0.000000
5.208398 48.150581 0.000000
5.523119 48.150581 0.000000
5.837841 48.150581 0.000000
6.152562 48.150581 0.000000
6.467283 48.150581 0.000000
6.782003 48.150581 0.000000
7.096724 48.150581 0.000000
7.411445 48.150581 0.000000
7.726166 48.150581 0.000000
8.040888 48.150581 0.000000
8.355608 48.150581 0.000000
8.670330 48.150581 0.000000
8.985050 48.150581 0.000000
9.299772 48.150581 0.000000
9.614492 48.150581 0.000000
9.929214 48.150581 0.000000
10.243935 48.150581 0.000000
10.558655 48.150581 0.000000
10.873377 48.150581 0.000000
11.188097 48.150581 0.000000
11.502819 48.150581 0.000000
11.817539 48.150581 0.000000
12.132261 48.150581 0.000000
12.446981 48.150581 0.000000
12.761703 48.150581 0.000000
13.076424 48.150581 0.000000
13.391144 48.150581 0.000000
13.705866 48.150581 0.000000
14.020586 48.150581 0.000000
14.335308 48.150581 0.000000
14.650028 48.150581 0.000000
14.964750 48.150581 0.000000
15.279470 48.150581 0.000000
15.594193 48.150581 0.000000
15.908913 48.150581 0.000000
16.223633 48.150581 0.000000
16.538355 48.150581 0.000000
16.853075 48.150581 0.000000
17.167797 48.150581 0.000000
17.482517 48.150581 0.000000
17.797239 48.150581 0.000000
18.111959 48.150581 0.000000
18.426680 48.150581 0.000000
18.741402 48.150581 0.000000
-7.065720 47.835861 0.000000
-6.750999 47.835861 0.000000
-6.436278 47.835861 0.000000
-6.121557 47.835861 0.000000
-5.806836 47.835861 0.000000
-5.492115 47.835861 0.000000
-5.177394 47.835861 0.000000
-4.862673 47.835861 0.000000
-4.547952 47.835861 0.000000
-4.233231 47.835861 0.000000
-3.918510 47.835861 0.000000
-3.603789 47.835861 0.000000
-3.289068 47.835861 0.000000
-2.974347 47.835861 0.000000
-2.659626 47.835861 0.000000
-2.344905 47.835861 0.000000
-2.030184 47.835861 0.000000
-1.715463 47.835861 0.000000
-1.400742 47.835861 0.000000
-1.086021 47.835861 0.000000
-0.771300 47.835861 0.000000
-0.456579 47.835861 0.000000
-0.141859 47.835861 0.000000
0.172863 47.835861 0.000000
0.487584 47.835861 0.000000
0.802305 47.835861 0.000000
1.117026 47.835861 0.000000
1.431747 47.835861 0.000000
1.746467 47.835861 0.000000
2.061188 47.835861 0.000000
2.375909 47.835861 0.000000
2.690630 47.835861 0.000000
3.005352 47.835861 0.000000
3.320073 47.835861 0.000000
3.634794 47.835861 0.000000
3.949515 47.835861 0.000000
4.264236 47.835861 0.000000
4.578956 47.835861 0.000000
4.893677 47.835861 0.000000
5.208398 47.835861 0.000000
5.523119 47.835861 0.000000
5.837841 47.835861 0.000000
6.152562 47.835861 0.000000
6.467283 47.835861 0.000000
6.782003 47.835861 0.000000
7.096724 47.835861 0.000000
7.411445 47.835861 0.000000
7.726166 47.835861 0.000000
8.040888 47.835861 0.000000
8.355608 47.835861 0.000000
8.670330 47.835861 0.000000
8.985050 47.835861 0.000000
9.299772 47.835861 0.000000
9.614492 47.835861 0.000000
9.929214 47.835861 0.000000
10.243935 47.835861 0.000000
10.558655 47.835861 0.752130
10.873377 47.835861 2.892677
11.188097 47.835861 -2.558923
11.502819 47.835861 2.753885
11.817539 47.835861 1.446227
12.132261 47.835861 4.111236
12.446981 47.835861 0.951168
12.761703 47.835861 2.172436
13.076424 47.835861 3.054830
13.391144 47.835861 3.776546
13.705866 47.835861 3.705937
14.020586 47.835861 2.300909
14.335308 47.835861 3.238931
14.650028 47.835861 1.823573
14.964750 47.835861 2.151338
15.279470 47.835861 2.209819
15.594193 47.835861 4.251223
15.908913 47.835861 5.699439
16.223633 47.835861 7.341985
16.538355 47.835861 5.324030
16.853075 47.835861 4.813919
17.167797 47.835861 6.629542
17.482517 47.835861 7.074230
17.797239 47.835861 6.097435
18.111959 47.835861 7.618132
18.426680 47.835861 9.312695
18.741402 47.835861 13.218986
-7.065720 47.521137 0.000000
-6.750999 47.521137 0.000000
-6.436278 47.521137 -0.001655
-6.121557 47.521137 -0.001735
-5.806836 47.521137 -0.002365
-5.492115 47.521137 -0.004005
-5.177394 47.521137 -0.004916
-4.862673 47.521137 -0.004905
-4.547952 47.521137 -0.003578
-4.233231 47.521137 -0.003009
-3.918510 47.521137 -0.001878
-3.603789 47.521137 -0.003822
-3.289068 47.521137 -0.004653
-2.974347 47.521137 -0.001716
-2.659626 47.521137 -0.003147
-2.344905 47.521137 -0.001862
-2.030184 47.521137 0.000000
-1.715463 47.521137 0.000000
-1.400742 47.521137 0.000000
-1.086021 47.521137 0.000000
-0.771300 47.521137 0.000000
-0.456579 47.521137 0.000000
-0.141859 47.521137 0.000000
0.172863 47.521137 0.000000
0.487584 47.521137 0.000000
0.802305 47.521137 0.000000
1.117026 47.521137 0.000000
1.431747 47.521137 0.000000
1.746467 47.521137 0.000000
2.061188 47.521137 0.000000
2.375909 47.521137 0.000000
2.690630 47.521137 0.000000
3.005352 47.521137 0.000000
3.320073 47.521137 0.000000
3.634794 47.521137 0.000000
3.949515 47.521137 0.000000
4.264236 47.521137 0.000000
4.578956 47.521137 0.000000
4.893677 47.521137 0.000000
5.208398 47.521137 0.000000
5.523119 47.521137 0.000000
5.837841 47.521137 0.000000
6.152562 47.521137 0.000000
6.467283 47.521137 0.000000
6.782003 47.521137 0.000000
7.096724 47.521137 -0.572427
7.411445 47.521137 -1.326611
7.726166 47.521137 0.418889
8.040888 47.521137 -0.208125
8.355608 47.521137 -0.300791
8.670330 47.521137 -0.249998
8.985050 47.521137 -0.304478
9.299772 47.521137 -0.269846
9.614492 47.521137 -0.314688
9.929214 47.521137 -0.234696
10.243935 47.521137 -0.182907
10.558655 47.521137 -0.265504
10.873377 47.521137 -0.259210
11.188097 47.521137 -0.297833
11.502819 47.521137 -0.229202
11.817539 47.521137 -0.200527
12.132261 47.521137 -0.158336
12.446981 47.521137 -0.170143
12.761703 47.521137 -0.107185
13.076424 47.521137 -0.105729
13.391144 47.521137 -0.068419
13.705866 47.521137 -0.016360
14.020586 47.521137 0.010655
14.335308 47.521137 0.060521
14.650028 47.521137 0.090449
14.964750 47.521137 0.142472
15.279470 47.521137 0.169888
15.594193 47.521137 0.203070
15.908913 47.521137 0.286470
16.223633 47.521137 0.323473
16.538355 47.521137 0.376616
16.853075 47.521137 0.408329
17.167797 47.521137 0.558311
17.482517 47.521137 0.753618
17.797239 47.521137 1.108178
18.111959 47.521137 1.512238
18.426680 47.521137 1.989126
18.741402 47.521137 1.876507
-7.065720 47.206417 0.000000
-6.750999 47.206417 0.000000
-6.436278 47.206417 -0.001702
-6.121557 47.206417 -0.001470
-5.806836 47.206417 -0.001088
-5.492115 47.206417 -0.000113
-5.177394 47.206417 0.000968
-4.862673 47.206417 0.001870
-4.547952 47.206417 0.002127
-4.233231 47.206417 0.002562
-3.918510 47.206417 0.002974
-3.603789 47.206417 0.002906
-3.289068 47.206417 0.002221
-2.974347 47.206417 0.001751
-2.659626 47.206417 0.001693
-2.344905 47.206417 0.001576
-2.030184 47.206417 0.001088
-1.715463 47.206417 0.000605
-1.400742 47.206417 0.000423
-1.086021 47.206417 -0.000408
-0.771300 47.206417 -0.001164
-0.456579 47.206417 -0.001419
-0.141859 47.206417 -0.000759
0.172863 47.206417 0.000200
0.487584 47.206417 0.001142
0.802305 47.206417 0.001529
1.117026 47.206417 0.002048
1.431747 47.206417 0.002726
1.746467 47.206417 0.002911
2.061188 47.206417 0.002559
2.375909 47.206417 0.002511
2.690630 47.206417 0.002937
3.005352 47.206417 0.002906
3.320073 47.206417 0.002351
3.634794 47.206417 0.001778
3.949515 47.206417 0.001263
4.264236 47.206417 0.000732
4.578956 47.206417 0.000035
4.893677 47.206417 -0.000344
5.208398 47.206417 -0.000566
5.523119 47.206417 -0.001063
5.837841 47.206417 -0.000848
6.152562 47.206417 -0.000774
6.467283 47.206417 -0.001607
6.782003 47.206417 -0.002210
7.096724 47.206417 -0.002633
7.411445 47.206417 -0.000257
7.726166 47.206417 -0.000060
8.040888 47.206417 0.002372
8.355608 47.206417 0.008628
8.670330 47.206417 0.013753
8.985050 47.206417 0.024457
9.299772 47.206417 0.026071
9.614492 47.206417 0.040370
9.929214 47.206417 0.057507
10.243935 47.206417 0.052322
10.558655 47.206417 0.046843
10.873377 47.206417 0.068726
11.188097 47.206417 0.088551
11.502819 47.206417 0.085668
11.817539 47.206417 0.134929
12.132261 47.206417 0.167545
12.446981 47.206417 0.194032
12.761703 47.206417 0.220031
13.076424 47.206417 0.220378
13.391144 47.206417 0.228376
13.705866 47.206417 0.251439
14.020586 47.206417 0.289190
14.335308 47.206417 0.304287
14.650028 47.206417 0.302563
14.964750 47.206417 0.302020
15.279470 47.206417 0.294076
15.594193 47.206417 0.314756
15.908913 47.206417 0.373074
16.223633 47.206417 0.416842
16.538355 47.206417 0.474359
16.853075 47.206417 0.561877
17.167797 47.206417 0.758263
17.482517 47.206417 1.209678
17.797239 47.206417 1.713642
18.111959 47.206417 2.589508
18.426680 47.206417 3.896798
18.741402 47.206417 3.442869
-7.065720 46.891697 0.000000
-6.750999 46.891697 0.000000
-6.436278 46.891697 0.000328
-6.121557 46.891697 -0.002315
-5.806836 46.891697 -0.002797
-5.492115 46.891697 -0.002319
-5.177394 46.891697 -0.001554
-4.862673 46.891697 -0.000597
-4.547952 46.891697 -0.000291
-4.233231 46.891697 0.000322
-3.918510 46.891697 0.000883
-3.603789 46.891697 0.001096
-3.289068 46.891697 0.000974
-2.974347 46.891697 0.000763
-2.659626 46.891697 0.000829
-2.344905 46.891697 0.000822
-2.030184 46.891697 0.000431
-1.715463 46.891697 0.000048
-1.400742 46.891697 -0.000284
-1.086021 46.891697 -0.001033
-0.771300 46.891697 -0.001719
-0.456579 46.891697 -0.001945
-0.141859 46.891697 -0.001741
0.172863 46.891697 -0.001339
0.487584 46.891697 -0.000853
0.802305 46.891697 -0.000656
1.117026 46.891697 -0.000190
1.431747 46.891697 0.000457
1.746467 46.891697 0.000449
2.061188 46.891697 0.000038
2.375909 46.891697 0.000118
2.690630 46.891697 0.000639
3.005352 46.891697 0.000717
3.320073 46.891697 0.000392
3.634794 46.891697 -0.000017
3.949515 46.891697 -0.000402
4.264236 46.891697 -0.000839
4.578956 46.891697 -0.001330
4.893677 46.891697 -0.001611
5.208398 46.891697 -0.001891
5.523119 46.891697 -0.002494
5.837841 46.891697 -0.002647
6.152562 46.891697 -0.002544
6.467283 46.891697 -0.003006
6.782003 46.891697 -0.003377
7.096724 46.891697 -0.003351
7.411445 46.891697 -0.002757
7.726166 46.891697 -0.001854
8.040888 46.891697 -0.000770
8.355608 46.891697 0.000228
8.670330 46.891697 0.003763
8.985050 46.891697 0.010904
9.299772 46.891697 0.017038
9.614492 46.891697 0.021997
9.929214 46.891697 0.024053
10.243935 46.891697 0.018804
10.558655 46.891697 0.028900
10.873377 46.891697 0.048655
11.188097 46.891697 0.032327
11.502819 46.891697 0.036971
11.817539 46.891697 0.051950
12.132261 46.891697 0.084815
12.446981 46.891697 0.096014
12.761703 46.891697 0.127146
13.076424 46.891697 0.129432
13.391144 46.891697 0.130943
13.705866 46.891697 0.150211
14.020586 46.891697 0.188866
14.335308 46.891697 0.185820
14.650028 46.891697 0.197725
14.964750 46.891697 0.196657
15.279470 46.891697 0.222416
15.594193 46.891697 0.238769
15.908913 46.891697 0.279270
16.223633 46.891697 0.331568
16.538355 46.891697 0.376426
16.853075 46.891697 0.491900
17.167797 46.891697 0.692514
17.482517 46.891697 1.196382
17.797239 46.891697 1.980517
18.111959 46.891697 3.156100
18.426680 46.891697 4.982729
18.741402 46.891697 4.359091
-7.065720 46.576977 0.000000
-6.750999 46.576977 0.000000
-6.436278 46.576977 0.000409
-6.121557 46.576977 -0.002549
-5.806836 46.576977 -0.003456
-5.492115 46.576977 -0.003509
-5.177394 46.576977 -0.003070
-4.862673 46.576977 -0.002280
-4.547952 46.576977 -0.001952
-4.233231 46.576977 -0.001378
-3.918510 46.576977 -0.000722
-3.603789 46.576977 -0.000277
-3.289068 46.576977 0.000132
-2.974347 46.576977 0.000375
-2.659626 46.576977 0.000378
-2.344905 46.576977 0.000519
-2.030184 46.576977 0.000405
-1.715463 46.576977 0.000027
-1.400742 46.576977 -0.000430
-1.086021 46.576977 -0.001022
-0.771300 46.576977 -0.001483
-0.456579 46.576977 -0.001733
-0.141859 46.576977 -0.001830
0.172863 46.576977 -0.001878
0.487584 46.576977 -0.001858
0.802305 46.576977 -0.001847
1.117026 46.576977 -0.001608
1.431747 46.576977 -0.001070
1.746467 46.576977 -0.001113
2.061188 46.576977 -0.001482
2.375909 46.576977 -0.001348
2.690630 46.576977 -0.000827
3.005352 46.576977 -0.000673
3.320073 46.576977 -0.000777
3.634794 46.576977 -0.001030
3.949515 46.576977 -0.001364
4.264236 46.576977 -0.001801
4.578956 46.576977 -0.002326
4.893677 46.576977 -0.002604
5.208398 46.576977 -0.002959
5.523119 46.576977 -0.003668
5.837841 46.576977 -0.004096
6.152562 46.576977 -0.004145
6.467283 46.576977 -0.004010
6.782003 46.576977 -0.004019
7.096724 46.576977 -0.004229
7.411445 46.576977 -0.004143
7.726166 46.576977 -0.002898
8.040888 46.576977 -0.001609
8.355608 46.576977 -0.005360
8.670330 46.576977 -0.001683
8.985050 46.576977 -0.000671
9.299772 46.576977 0.001982
9.614492 46.576977 0.005909
9.929214 46.576977 0.007444
10.243935 46.576977 0.002052
10.558655 46.576977 -0.008331
10.873377 46.576977 0.004350
11.188097 46.576977 0.011675
11.502819 46.576977 -0.009961
11.817539 46.576977 -0.018462
12.132261 46.576977 0.005731
12.446981 46.576977 0.033819
12.761703 46.576977 0.039632
13.076424 46.576977 0.030507
13.391144 46.576977 0.046742
13.705866 46.576977 0.065429
14.020586 46.576977 0.080979
14.335308 46.576977 0.094952
14.650028 46.576977 0.128253
14.964750 46.576977 0.123087
15.279470 46.576977 0.147098
15.594193 46.576977 0.158204
15.908913 46.576977 0.191019
16.223633 46.576977 0.249033
16.538355 46.576977 0.305019
16.853075 46.576977 0.456035
17.167797 46.576977 0.744906
17.482517 46.576977 1.257868
17.797239 46.576977 2.292729
18.111959 46.576977 3.813069
18.426680 46.576977 5.963448
18.741402 46.576977 5.394679
-7.065720 46.262253 0.000000
-6.750999 46.262253 0.000000
-6.436278 46.262253 0.001149
-6.121557 46.262253 -0.001834
-5.806836 46.262253 -0.003034
-5.492115 46.262253 -0.003601
-5.177394 46.262253 -0.003481
-4.862673 46.262253 -0.003013
-4.547952 46.262253 -0.002791
-4.233231 46.262253 -0.002414
-3.918510 46.262253 -0.001902
-3.603789 46.262253 -0.001233
-3.289068 46.262253 -0.000413
-2.974347 46.262253 0.000125
-2.659626 46.262253 0.000195
-2.344905 46.262253 0.000364
-2.030184 46.262253 0.000601
-1.715463 46.262253 0.000207
-1.400742 46.262253 -0.000351
-1.086021 46.262253 -0.000854
-0.771300 46.262253 -0.001079
-0.456579 46.262253 -0.001269
-0.141859 46.262253 -0.001522
0.172863 46.262253 -0.001688
0.487584 46.262253 -0.002033
0.802305 46.262253 -0.002274
1.117026 46.262253 -0.002202
1.431747 46.262253 -0.001906
1.746467 46.262253 -0.001887
2.061188 46.262253 -0.002067
2.375909 46.262253 -0.001965
2.690630 46.262253 -0.001531
3.005352 46.262253 -0.001276
3.320073 46.262253 -0.001254
3.634794 46.262253 -0.001487
3.949515 46.262253 -0.001908
4.264236 46.262253 -0.002360
4.578956 46.262253 -0.002894
4.893677 46.262253 -0.003220
5.208398 46.262253 -0.003651
5.523119 46.262253 -0.004590
5.837841 46.262253 -0.005091
6.152562 46.262253 -0.005118
6.467283 46.262253 -0.005060
6.782003 46.262253 -0.004368
7.096724 46.262253 -0.005139
7.411445 46.262253 -0.004772
7.726166 46.262253 -0.003871
8.040888 46.262253 -0.003875
8.355608 46.262253 -0.006236
8.670330 46.262253 -0.005923
8.985050 46.262253 -0.004756
9.299772 46.262253 -0.008108
9.614492 46.262253 -0.005732
9.929214 46.262253 -0.004197
10.243935 46.262253 -0.021057
10.558655 46.262253 -0.029024
10.873377 46.262253 -0.025595
11.188097 46.262253 -0.025797
11.502819 46.262253 -0.035549
11.817539 46.262253 -0.056000
12.132261 46.262253 -0.037249
12.446981 46.262253 -0.018833
12.761703 46.262253 -0.000983
13.076424 46.262253 0.002641
13.391144 46.262253 0.022543
13.705866 46.262253 0.028341
14.020586 46.262253 0.021676
14.335308 46.262253 0.039385
14.650028 46.262253 0.070310
14.964750 46.262253 0.078299
15.279470 46.262253 0.094285
15.594193 46.262253 0.116374
15.908913 46.262253 0.169763
16.223633 46.262253 0.234842
16.538355 46.262253 0.322158
16.853075 46.262253 0.520766
17.167797 46.262253 0.823756
17.482517 46.262253 1.508805
17.797239 46.262253 2.582052
18.111959 46.262253 4.599202
18.426680 46.262253 6.779396
18.741402 46.262253 5.942996
-7.065720 45.947533 0.000000
-6.750999 45.947533 0.000000
-6.436278 45.947533 0.002408
-6.121557 45.947533 -0.000650
-5.806836 45.947533 -0.002035
-5.492115 45.947533 -0.002925
-5.177394 45.947533 -0.003138
-4.862673 45.947533 -0.002902
-4.547952 45.947533 -0.002910
-4.233231 45.947533 -0.002860
-3.918510 45.947533 -0.002632
-3.603789 45.947533 -0.002037
-3.289068 45.947533 -0.000854
-2.974347 45.947533 -0.000185
-2.659626 45.947533 -0.000069
-2.344905 45.947533 0.000083
-2.030184 45.947533 0.000436
-1.715463 45.947533 0.000100
-1.400742 45.947533 -0.000404
-1.086021 45.947533 -0.000737
-0.771300 45.947533 -0.000955
-0.456579 45.947533 -0.001082
-0.141859 45.947533 -0.001223
0.172863 45.947533 -0.001287
0.487584 45.947533 -0.001747
0.802305 45.947533 -0.002208
1.117026 45.947533 -0.002344
1.431747 45.947533 -0.002117
1.746467 45.947533 -0.002016
2.061188 45.947533 -0.002000
2.375909 45.947533 -0.001867
2.690630 45.947533 -0.001544
3.005352 45.947533 -0.001298
3.320073 45.947533 -0.001263
3.634794 45.947533 -0.001657
3.949515 45.947533 -0.002155
4.264236 45.947533 -0.002659
4.578956 45.947533 -0.003146
4.893677 45.947533 -0.003597
5.208398 45.947533 -0.004164
5.523119 45.947533 -0.004987
5.837841 45.947533 -0.005802
6.152562 45.947533 -0.006084
6.467283 45.947533 -0.005675
6.782003 45.947533 -0.004585
7.096724 45.947533 -0.005082
7.411445 45.947533 -0.005268
7.726166 45.947533 -0.006214
8.040888 45.947533 -0.005640
8.355608 45.947533 -0.005670
8.670330 45.947533 -0.006537
8.985050 45.947533 -0.007587
9.299772 45.947533 -0.008111
9.614492 45.947533 -0.004981
9.929214 45.947533 -0.016242
10.243935 45.947533 -0.022314
10.558655 45.947533 -0.036724
10.873377 45.947533 -0.036614
11.188097 45.947533 -0.030817
11.502819 45.947533 -0.035534
11.817539 45.947533 -0.044993
12.132261 45.947533 -0.045489
12.446981 45.947533 -0.026093
12.761703 45.947533 -0.027819
13.076424 45.947533 -0.007848
13.391144 45.947533 0.017740
13.705866 45.947533 0.007083
14.020586 45.947533 0.021510
14.335308 45.947533 0.035783
14.650028 45.947533 0.036813
14.964750 45.947533 0.066226
15.279470 45.947533 0.079617
15.594193 45.947533 0.095008
15.908913 45.947533 0.150063
16.223633 45.947533 0.216728
16.538355 45.947533 0.366339
16.853075 45.947533 0.604216
17.167797 45.947533 1.151846
17.482517 45.947533 1.810040
17.797239 45.947533 3.178224
18.111959 45.947533 5.388575
18.426680 45.947533 7.671251
18.741402 45.947533 6.738059
-7.065720 45.632813 0.000000
-6.750999 45.632813 0.000000
-6.436278 45.632813 0.003170
-6.121557 45.632813 0.000185
-5.806836 45.632813 -0.001105
-5.492115 45.632813 -0.002001
-5.177394 45.632813 -0.002352
-4.862673 45.632813 -0.002255
-4.547952 45.632813 -0.002469
-4.233231 45.632813 -0.002740
-3.918510 45.632813 -0.002885
-3.603789 45.632813 -0.002464
-3.289068 45.632813 -0.001302
-2.974347 45.632813 -0.000663
-2.659626 45.632813 -0.000533
-2.344905 45.632813 -0.000394
-2.030184 45.632813 -0.000051
-1.715463 45.632813 -0.000227
-1.400742 45.632813 -0.000590
-1.086021 45.632813 -0.000893
-0.771300 45.632813 -0.001189
-0.456579 45.632813 -0.001288
-0.141859 45.632813 -0.001295
0.172863 45.632813 -0.001187
0.487584 45.632813 -0.001515
0.802305 45.632813 -0.002032
1.117026 45.632813 -0.002351
1.431747 45.632813 -0.002243
1.746467 45.632813 -0.001960
2.061188 45.632813 -0.001565
2.375909 45.632813 -0.001342
2.690630 45.632813 -0.001167
3.005352 45.632813 -0.001020
3.320073 45.632813 -0.001035
3.634794 45.632813 -0.001515
3.949515 45.632813 -0.002183
4.264236 45.632813 -0.002722
4.578956 45.632813 -0.003122
4.893677 45.632813 -0.003728
5.208398 45.632813 -0.004334
5.523119 45.632813 -0.005193
5.837841 45.632813 -0.006135
6.152562 45.632813 -0.006628
6.467283 45.632813 -0.005978
6.782003 45.632813 -0.005228
7.096724 45.632813 -0.005734
7.411445 45.632813 -0.006505
7.726166 45.632813 -0.007751
8.040888 45.632813 -0.007366
8.355608 45.632813 -0.007850
8.670330 45.632813 -0.010336
8.985050 45.632813 -0.012119
9.299772 45.632813 -0.000683
9.614492 45.632813 -0.003578
9.929214 45.632813 -0.003410
10.243935 45.632813 -0.024156
10.558655 45.632813 -0.034184
10.873377 45.632813 -0.024374
11.188097 45.632813 -0.018178
11.502819 45.632813 -0.023431
11.817539 45.632813 -0.039857
12.132261 45.632813 -0.051596
12.446981 45.632813 -0.042692
12.761703 45.632813 -0.018449
13.076424 45.632813 -0.000288
13.391144 45.632813 0.008359
13.705866 45.632813 0.011040
14.020586 45.632813 0.040297
14.335308 45.632813 0.043832
14.650028 45.632813 0.041245
14.964750 45.632813 0.056074
15.279470 45.632813 0.053740
15.594193 45.632813 0.073263
15.908913 45.632813 0.123514
16.223633 45.632813 0.209239
16.538355 45.632813 0.442764
16.853075 45.632813 0.821347
17.167797 45.632813 1.528383
17.482517 45.632813 2.478603
17.797239 45.632813 3.978261
18.111959 45.632813 6.240440
18.426680 45.632813 8.385105
18.741402 45.632813 7.149402
-7.065720 45.318092 0.000000
-6.750999 45.318092 0.000000
-6.436278 45.318092 0.003113
-6.121557 45.318092 0.000438
-5.806836 45.318092 -0.000513
-5.492115 45.318092 -0.001228
-5.177394 45.318092 -0.001534
-4.862673 45.318092 -0.001534
-4.547952 45.318092 -0.001793
-4.233231 45.318092 -0.002302
-3.918510 45.318092 -0.002619
-3.603789 45.318092 -0.002354
-3.289068 45.318092 -0.001492
-2.974347 45.318092 -0.001022
-2.659626 45.318092 -0.000964
-2.344905 45.318092 -0.000918
-2.030184 45.318092 -0.000668
-1.715463 45.318092 -0.000605
-1.400742 45.318092 -0.000805
-1.086021 45.318092 -0.001133
-0.771300 45.318092 -0.001497
-0.456579 45.318092 -0.001675
-0.141859 45.318092 -0.001652
0.172863 45.318092 -0.001480
0.487584 45.318092 -0.001742
0.802305 45.318092 -0.002153
1.117026 45.318092 -0.002516
1.431747 45.318092 -0.002489
1.746467 45.318092 -0.001990
2.061188 45.318092 -0.001280
2.375909 45.318092 -0.000936
2.690630 45.318092 -0.000868
3.005352 45.318092 -0.000742
3.320073 45.318092 -0.000705
3.634794 45.318092 -0.001159
3.949515 45.318092 -0.001908
4.264236 45.318092 -0.002434
4.578956 45.318092 -0.002791
4.893677 45.318092 -0.003432
5.208398 45.318092 -0.004145
5.523119 45.318092 -0.005084
5.837841 45.318092 -0.006199
6.152562 45.318092 -0.006946
6.467283 45.318092 -0.006565
6.782003 45.318092 -0.006260
7.096724 45.318092 -0.006827
7.411445 45.318092 -0.007499
7.726166 45.318092 -0.009884
8.040888 45.318092 -0.007817
8.355608 45.318092 -0.008980
8.670330 45.318092 -0.011851
8.985050 45.318092 -0.011945
9.299772 45.318092 -0.009361
9.614492 45.318092 -0.000639
9.929214 45.318092 -0.002761
10.243935 45.318092 -0.025779
10.558655 45.318092 -0.018173
10.873377 45.318092 -0.016293
11.188097 45.318092 -0.019856
11.502819 45.318092 -0.016748
11.817539 45.318092 -0.045868
12.132261 45.318092 -0.046793
12.446981 45.318092 -0.047058
12.761703 45.318092 -0.041434
13.076424 45.318092 -0.009220
13.391144 45.318092 0.015316
13.705866 45.318092 0.020144
14.020586 45.318092 0.046654
14.335308 45.318092 0.053057
14.650028 45.318092 0.042675
14.964750 45.318092 0.031934
15.279470 45.318092 0.040750
15.594193 45.318092 0.068463
15.908913 45.318092 0.115934
16.223633 45.318092 0.248307
16.538355 45.318092 0.645460
16.853075 45.318092 1.349263
17.167797 45.318092 2.314285
17.482517 45.318092 3.547351
17.797239 45.318092 5.403133
18.111959 45.318092 7.497386
18.426680 45.318092 9.254108
18.741402 45.318092 7.827843
-7.065720 45.003372 0.000000
-6.750999 45.003372 0.000000
-6.436278 45.003372 0.002573
-6.121557 45.003372 0.000272
-5.806836 45.003372 -0.000387
-5.492115 45.003372 -0.000863
-5.177394 45.003372 -0.001087
-4.862673 45.003372 -0.001072
-4.547952 45.003372 -0.001366
-4.233231 45.003372 -0.001812
-3.918510 45.003372 -0.002024
-3.603789 45.003372 -0.001811
-3.289068 45.003372 -0.001329
-2.974347 45.003372 -0.001041
-2.659626 45.003372 -0.001191
-2.344905 45.003372 -0.001379
-2.030184 45.003372 -0.001179
-1.715463 45.003372 -0.000845
-1.400742 45.003372 -0.000894
-1.086021 45.003372 -0.001341
-0.771300 45.003372 -0.001703
-0.456579 45.003372 -0.002013
-0.141859 45.003372 -0.002084
0.172863 45.003372 -0.002131
0.487584 45.003372 -0.002339
0.802305 45.003372 -0.002589
1.117026 45.003372 -0.002835
1.431747 45.003372 -0.002799
1.746467 45.003372 -0.002218
2.061188 45.003372 -0.001370
2.375909 45.003372 -0.000941
2.690630 45.003372 -0.000849
3.005352 45.003372 -0.000524
3.320073 45.003372 -0.000406
3.634794 45.003372 -0.000733
3.949515 45.003372 -0.001418
4.264236 45.003372 -0.001907
4.578956 45.003372 -0.002108
4.893677 45.003372 -0.002674
5.208398 45.003372 -0.003493
5.523119 45.003372 -0.004590
5.837841 45.003372 -0.005922
6.152562 45.003372 -0.007085
6.467283 45.003372 -0.007518
6.782003 45.003372 -0.007502
7.096724 45.003372 -0.008579
7.411445 45.003372 -0.008746
7.726166 45.003372 -0.011084
8.040888 45.003372 -0.007492
8.355608 45.003372 -0.007855
8.670330 45.003372 -0.011964
8.985050 45.003372 -0.011726
9.299772 45.003372 -0.011759
9.614492 45.003372 -0.005439
9.929214 45.003372 -0.017020
10.243935 45.003372 -0.019303
10.558655 45.003372 -0.018011
10.873377 45.003372 -0.007536
11.188097 45.003372 -0.018561
11.502819 45.003372 -0.020918
11.817539 45.003372 -0.036523
12.132261 45.003372 -0.024948
12.446981 45.003372 -0.041234
12.761703 45.003372 -0.030770
13.076424 45.003372 0.006455
13.391144 45.003372 0.030949
13.705866 45.003372 0.018717
14.020586 45.003372 0.025967
14.335308 45.003372 0.043921
14.650028 45.003372 0.014346
14.964750 45.003372 0.005051
15.279470 45.003372 0.019740
15.594193 45.003372 0.058114
15.908913 45.003372 0.108712
16.223633 45.003372 0.329191
16.538355 45.003372 0.912986
16.853075 45.003372 2.340608
17.167797 45.003372 3.836138
17.482517 45.003372 5.252814
17.797239 45.003372 6.877936
18.111959 45.003372 8.490802
18.426680 45.003372 10.121965
18.741402 45.003372 8.097960
-7.065720 44.688648 0.000000
-6.750999 44.688648 0.000000
-6.436278 44.688648 0.001792
-6.121557 44.688648 -0.000108
-5.806836 44.688648 -0.000465
-5.492115 44.688648 -0.000829
-5.177394 44.688648 -0.001016
-4.862673 44.688648 -0.001007
-4.547952 44.688648 -0.001211
-4.233231 44.688648 -0.001500
-3.918510 44.688648 -0.001444
-3.603789 44.688648 -0.001297
-3.289068 44.688648 -0.001100
-2.974347 44.688648 -0.000959
-2.659626 44.688648 -0.001269
-2.344905 44.688648 -0.001666
-2.030184 44.688648 -0.001442
-1.715463 44.688648 -0.000922
-1.400742 44.688648 -0.000791
-1.086021 44.688648 -0.001194
-0.771300 44.688648 -0.001558
-0.456579 44.688648 -0.001942
-0.141859 44.688648 -0.002242
0.172863 44.688648 -0.002610
0.487584 44.688648 -0.002954
0.802305 44.688648 -0.003071
1.117026 44.688648 -0.003211
1.431747 44.688648 -0.003222
1.746467 44.688648 -0.002644
2.061188 44.688648 -0.001850
2.375909 44.688648 -0.001492
2.690630 44.688648 -0.001210
3.005352 44.688648 -0.000676
3.320073 44.688648 -0.000243
3.634794 44.688648 -0.000191
3.949515 44.688648 -0.000688
4.264236 44.688648 -0.001162
4.578956 44.688648 -0.001223
4.893677 44.688648 -0.001619
5.208398 44.688648 -0.002589
5.523119 44.688648 -0.003842
5.837841 44.688648 -0.005109
6.152562 44.688648 -0.006485
6.467283 44.688648 -0.007806
6.782003 44.688648 -0.008121
7.096724 44.688648 -0.009160
7.411445 44.688648 -0.010477
7.726166 44.688648 -0.011111
8.040888 44.688648 -0.008849
8.355608 44.688648 -0.008157
8.670330 44.688648 -0.011756
8.985050 44.688648 -0.008451
9.299772 44.688648 -0.014214
9.614492 44.688648 -0.019887
9.929214 44.688648 -0.019480
10.243935 44.688648 -0.031131
10.558655 44.688648 -0.017464
10.873377 44.688648 -0.012680
11.188097 44.688648 -0.026004
11.502819 44.688648 -0.023890
11.817539 44.688648 -0.040329
12.132261 44.688648 -0.028551
12.446981 44.688648 -0.038241
12.761703 44.688648 -0.037362
13.076424 44.688648 0.008603
13.391144 44.688648 0.026304
13.705866 44.688648 0.025670
14.020586 44.688648 0.026815
14.335308 44.688648 0.026981
14.650028 44.688648 0.009928
14.964750 44.688648 0.008595
15.279470 44.688648 0.017536
15.594193 44.688648 0.052329
15.908913 44.688648 0.137378
16.223633 44.688648 0.416082
16.538355 44.688648 1.374424
16.853075 44.688648 3.570365
17.167797 44.688648 6.263912
17.482517 44.688648 7.356149
17.797239 44.688648 8.195043
18.111959 44.688648 9.755310
18.426680 44.688648 10.778525
18.741402 44.688648 7.872240
-7.065720 44.373928 0.000000
-6.750999 44.373928 0.000000
-6.436278 44.373928 0.001202
-6.121557 44.373928 -0.000557
-5.806836 44.373928 -0.000679
-5.492115 44.373928 -0.000942
-5.177394 44.373928 -0.001166
-4.862673 44.373928 -0.001205
-4.547952 44.373928 -0.001176
-4.233231 44.373928 -0.001362
-3.918510 44.373928 -0.001113
-3.603789 44.373928 -0.001119
-3.289068 44.373928 -0.001161
-2.974347 44.373928 -0.000989
-2.659626 44.373928 -0.001244
-2.344905 44.373928 -0.001666
-2.030184 44.373928 -0.001491
-1.715463 44.373928 -0.000717
-1.400742 44.373928 -0.000459
-1.086021 44.373928 -0.000774
-0.771300 44.373928 -0.001077
-0.456579 44.373928 -0.001415
-0.141859 44.373928 -0.001927
0.172863 44.373928 -0.002576
0.487584 44.373928 -0.003083
0.802305 44.373928 -0.003312
1.117026 44.373928 -0.003532
1.431747 44.373928 -0.003577
1.746467 44.373928 -0.003247
2.061188 44.373928 -0.002815
2.375909 44.373928 -0.002457
2.690630 44.373928 -0.001970
3.005352 44.373928 -0.001246
3.320073 44.373928 -0.000499
3.634794 44.373928 -0.000047
3.949515 44.373928 -0.000191
4.264236 44.373928 -0.000452
4.578956 44.373928 -0.000401
4.893677 44.373928 -0.000542
5.208398 44.373928 -0.001572
5.523119 44.373928 -0.002872
5.837841 44.373928 -0.004067
6.152562 44.373928 -0.005645
6.467283 44.373928 -0.007474
6.782003 44.373928 -0.008493
7.096724 44.373928 -0.009923
7.411445 44.373928 -0.011578
7.726166 44.373928 -0.010941
8.040888 44.373928 -0.010777
8.355608 44.373928 -0.009868
8.670330 44.373928 -0.006669
8.985050 44.373928 -0.003877
9.299772 44.373928 -0.007262
9.614492 44.373928 -0.027895
9.929214 44.373928 -0.034515
10.243935 44.373928 -0.031428
10.558655 44.373928 -0.016805
10.873377 44.373928 -0.014712
11.188097 44.373928 -0.035488
11.502819 44.373928 -0.044491
11.817539 44.373928 -0.048601
12.132261 44.373928 -0.028170
12.446981 44.373928 -0.031876
12.761703 44.373928 -0.032884
13.076424 44.373928 0.005691
13.391144 44.373928 0.027721
13.705866 44.373928 0.033599
14.020586 44.373928 0.026479
14.335308 44.373928 0.031136
14.650028 44.373928 0.028707
14.964750 44.373928 0.006206
15.279470 44.373928 0.021506
15.594193 44.373928 0.062965
15.908913 44.373928 0.159941
16.223633 44.373928 0.469514
16.538355 44.373928 1.846793
16.853075 44.373928 5.065831
17.167797 44.373928 8.368759
17.482517 44.373928 9.285693
17.797239 44.373928 9.525250
18.111959 44.373928 10.121791
18.426680 44.373928 11.089981
18.741402 44.373928 8.318326
-7.065720 44.059208 0.000000
-6.750999 44.059208 0.000000
-6.436278 44.059208 0.000844
-6.121557 44.059208 -0.000850
-5.806836 44.059208 -0.000748
-5.492115 44.059208 -0.000923
-5.177394 44.059208 -0.001304
-4.862673 44.059208 -0.001488
-4.547952 44.059208 -0.001490
-4.233231 44.059208 -0.001467
-3.918510 44.059208 -0.001257
-3.603789 44.059208 -0.001424
-3.289068 44.059208 -0.001614
-2.974347 44.059208 -0.001319
-2.659626 44.059208 -0.001311
-2.344905 44.059208 -0.001537
-2.030184 44.059208 -0.001294
-1.715463 44.059208 -0.000435
-1.400742 44.059208 0.000040
-1.086021 44.059208 -0.000148
-0.771300 44.059208 -0.000374
-0.456579 44.059208 -0.000649
-0.141859 44.059208 -0.001157
0.172863 44.059208 -0.001962
0.487584 44.059208 -0.002681
0.802305 44.059208 -0.003154
1.117026 44.059208 -0.003553
1.431747 44.059208 -0.003763
1.746467 44.059208 -0.003944
2.061188 44.059208 -0.003875
2.375909 44.059208 -0.003605
2.690630 44.059208 -0.003064
3.005352 44.059208 -0.002152
3.320073 44.059208 -0.001184
3.634794 44.059208 -0.000393
3.949515 44.059208 -0.000026
4.264236 44.059208 0.000131
4.578956 44.059208 0.000387
4.893677 44.059208 0.000432
5.208398 44.059208 -0.000359
5.523119 44.059208 -0.001621
5.837841 44.059208 -0.002673
6.152562 44.059208 -0.004257
6.467283 44.059208 -0.006351
6.782003 44.059208 -0.007740
7.096724 44.059208 -0.009580
7.411445 44.059208 -0.011121
7.726166 44.059208 -0.011731
8.040888 44.059208 -0.012177
8.355608 44.059208 -0.010383
8.670330 44.059208 -0.006494
8.985050 44.059208 -0.004545
9.299772 44.059208 -0.005992
9.614492 44.059208 -0.024951
9.929214 44.059208 -0.024383
10.243935 44.059208 -0.020249
10.558655 44.059208 -0.029096
10.873377 44.059208 -0.034734
11.188097 44.059208 -0.044490
11.502819 44.059208 -0.061235
11.817539 44.059208 -0.054719
12.132261 44.059208 -0.028834
12.446981 44.059208 -0.031236
12.761703 44.059208 -0.016134
13.076424 44.059208 0.013967
13.391144 44.059208 0.035522
13.705866 44.059208 0.033308
14.020586 44.059208 0.034272
14.335308 44.059208 0.031945
14.650028 44.059208 0.007885
14.964750 44.059208 0.019863
15.279470 44.059208 0.025261
15.594193 44.059208 0.060821
15.908913 44.059208 0.170227
16.223633 44.059208 0.558125
16.538355 44.059208 1.985327
16.853075 44.059208 5.161671
17.167797 44.059208 8.535356
17.482517 44.059208 9.842330
17.797239 44.059208 9.747088
18.111959 44.059208 10.234328
18.426680 44.059208 11.192257
18.741402 44.059208 8.493649
-7.065720 43.744488 0.000000
-6.750999 43.744488 0.000000
-6.436278 43.744488 0.000900
-6.121557 43.744488 -0.000667
-5.806836 43.744488 -0.000477
-5.492115 43.744488 -0.000555
-5.177394 43.744488 -0.001040
-4.862673 43.744488 -0.001567
-4.547952 43.744488 -0.001682
-4.233231 43.744488 -0.001732
-3.918510 43.744488 -0.001836
-3.603789 43.744488 -0.002187
-3.289068 43.744488 -0.002432
-2.974347 43.744488 -0.002045
-2.659626 43.744488 -0.001727
-2.344905 43.744488 -0.001533
-2.030184 43.744488 -0.001099
-1.715463 43.744488 -0.000018
-1.400742 43.744488 0.000490
-1.086021 43.744488 0.000430
-0.771300 43.744488 0.000463
-0.456579 43.744488 0.000329
-0.141859 43.744488 -0.000116
0.172863 43.744488 -0.000952
0.487584 43.744488 -0.001932
0.802305 43.744488 -0.002671
1.117026 43.744488 -0.003221
1.431747 43.744488 -0.003725
1.746467 43.744488 -0.004459
2.061188 43.744488 -0.004929
2.375909 43.744488 -0.004697
2.690630 43.744488 -0.004189
3.005352 43.744488 -0.003310
3.320073 43.744488 -0.002173
3.634794 43.744488 -0.001193
3.949515 43.744488 -0.000351
4.264236 43.744488 0.000410
4.578956 43.744488 0.000848
4.893677 43.744488 0.001239
5.208398 43.744488 0.000757
5.523119 43.744488 -0.000320
5.837841 43.744488 -0.001279
6.152562 43.744488 -0.002594
6.467283 43.744488 -0.004956
6.782003 43.744488 -0.006673
7.096724 43.744488 -0.008023
7.411445 43.744488 -0.009768
7.726166 43.744488 -0.012778
8.040888 43.744488 -0.013124
8.355608 43.744488 -0.012633
8.670330 43.744488 -0.009952
8.985050 43.744488 -0.008591
9.299772 43.744488 -0.013992
9.614492 43.744488 -0.021938
9.929214 43.744488 -0.018783
10.243935 43.744488 -0.017028
10.558655 43.744488 -0.032214
10.873377 43.744488 -0.037115
11.188097 43.744488 -0.044886
11.502819 43.744488 -0.055329
11.817539 43.744488 -0.062131
12.132261 43.744488 -0.027322
12.446981 43.744488 -0.035695
12.761703 43.744488 -0.030853
13.076424 43.744488 0.011119
13.391144 43.744488 0.027043
13.705866 43.744488 0.034124
14.020586 43.744488 0.048777
14.335308 43.744488 0.026534
14.650028 43.744488 0.016275
14.964750 43.744488 0.006253
15.279470 43.744488 0.030652
15.594193 43.744488 0.046683
15.908913 43.744488 0.171025
16.223633 43.744488 0.553255
16.538355 43.744488 1.703868
16.853075 43.744488 4.313664
17.167797 43.744488 7.576614
17.482517 43.744488 9.031757
17.797239 43.744488 9.087173
18.111959 43.744488 9.742052
18.426680 43.744488 11.010246
18.741402 43.744488 7.620525
-7.065720 43.429764 0.000000
-6.750999 43.429764 0.000000
-6.436278 43.429764 0.001396
-6.121557 43.429764 -0.000109
-5.806836 43.429764 0.000131
-5.492115 43.429764 0.000033
-5.177394 43.429764 -0.000591
-4.862673 43.429764 -0.001443
-4.547952 43.429764 -0.001802
-4.233231 43.429764 -0.002051
-3.918510 43.429764 -0.002432
-3.603789 43.429764 -0.003005
-3.289068 43.429764 -0.003286
-2.974347 43.429764 -0.002916
-2.659626 43.429764 -0.002260
-2.344905 43.429764 -0.001643
-2.030184 43.429764 -0.000959
-1.715463 43.429764 0.000164
-1.400742 43.429764 0.000835
-1.086021 43.429764 0.000974
-0.771300 43.429764 0.001221
-0.456579 43.429764 0.001278
-0.141859 43.429764 0.000883
0.172863 43.429764 0.000084
0.487584 43.429764 -0.000965
0.802305 43.429764 -0.001971
1.117026 43.429764 -0.002663
1.431747 43.429764 -0.003412
1.746467 43.429764 -0.004657
2.061188 43.429764 -0.005570
2.375909 43.429764 -0.005563
2.690630 43.429764 -0.005213
3.005352 43.429764 -0.004544
3.320073 43.429764 -0.003557
3.634794 43.429764 -0.002360
3.949515 43.429764 -0.001221
4.264236 43.429764 0.000014
4.578956 43.429764 0.000876
4.893677 43.429764 0.001435
5.208398 43.429764 0.001326
5.523119 43.429764 0.000640
5.837841 43.429764 -0.000014
6.152562 43.429764 -0.001055
6.467283 43.429764 -0.002923
6.782003 43.429764 -0.005098
7.096724 43.429764 -0.006697
7.411445 43.429764 -0.009128
7.726166 43.429764 -0.013015
8.040888 43.429764 -0.014575
8.355608 43.429764 -0.013519
8.670330 43.429764 -0.010767
8.985050 43.429764 -0.008665
9.299772 43.429764 -0.016312
9.614492 43.429764 -0.015834
9.929214 43.429764 -0.021677
10.243935 43.429764 -0.019944
10.558655 43.429764 -0.031059
10.873377 43.429764 -0.049136
11.188097 43.429764 -0.047084
11.502819 43.429764 -0.074987
11.817539 43.429764 -0.045098
12.132261 43.429764 -0.023488
12.446981 43.429764 -0.019835
12.761703 43.429764 -0.022250
13.076424 43.429764 0.009386
13.391144 43.429764 0.017546
13.705866 43.429764 0.035669
14.020586 43.429764 0.034094
14.335308 43.429764 0.024702
14.650028 43.429764 0.006202
14.964750 43.429764 0.012330
15.279470 43.429764 0.034215
15.594193 43.429764 0.058015
15.908913 43.429764 0.156009
16.223633 43.429764 0.512714
16.538355 43.429764 1.351338
16.853075 43.429764 3.114697
17.167797 43.429764 5.901494
17.482517 43.429764 7.827776
17.797239 43.429764 8.320088
18.111959 43.429764 9.266454
18.426680 43.429764 10.199471
18.741402 43.429764 7.175533
-7.065720 43.115044 0.000000
-6.750999 43.115044 0.000000
-6.436278 43.115044 0.002105
-6.121557 43.115044 0.000622
-5.806836 43.115044 0.000818
-5.492115 43.115044 0.000763
-5.177394 43.115044 0.000007
-4.862673 43.115044 -0.001015
-4.547952 43.115044 -0.001666
-4.233231 43.115044 -0.002142
-3.918510 43.115044 -0.002871
-3.603789 43.115044 -0.003575
-3.289068 43.115044 -0.003963
-2.974347 43.115044 -0.003631
-2.659626 43.115044 -0.002800
-2.344905 43.115044 -0.001927
-2.030184 43.115044 -0.001193
-1.715463 43.115044 -0.000163
-1.400742 43.115044 0.000664
-1.086021 43.115044 0.001217
-0.771300 43.115044 0.001790
-0.456579 43.115044 0.002037
-0.141859 43.115044 0.001736
0.172863 43.115044 0.001123
0.487584 43.115044 0.000079
0.802305 43.115044 -0.001024
1.117026 43.115044 -0.001821
1.431747 43.115044 -0.002818
1.746467 43.115044 -0.004472
2.061188 43.115044 -0.005777
2.375909 43.115044 -0.006035
2.690630 43.115044 -0.005950
3.005352 43.115044 -0.005649
3.320073 43.115044 -0.004896
3.634794 43.115044 -0.003723
3.949515 43.115044 -0.002433
4.264236 43.115044 -0.000952
4.578956 43.115044 0.000311
4.893677 43.115044 0.001281
5.208398 43.115044 0.001500
5.523119 43.115044 0.001181
5.837841 43.115044 0.000824
6.152562 43.115044 0.000305
6.467283 43.115044 -0.001086
6.782003 43.115044 -0.003559
7.096724 43.115044 -0.005592
7.411445 43.115044 -0.007832
7.726166 43.115044 -0.011018
8.040888 43.115044 -0.012694
8.355608 43.115044 -0.014125
8.670330 43.115044 -0.014675
8.985050 43.115044 -0.014491
9.299772 43.115044 -0.017001
9.614492 43.115044 -0.020399
9.929214 43.115044 -0.030396
10.243935 43.115044 -0.026117
10.558655 43.115044 -0.040146
10.873377 43.115044 -0.046542
11.188097 43.115044 -0.049239
11.502819 43.115044 -0.066431
11.817539 43.115044 -0.047668
12.132261 43.115044 -0.012969
12.446981 43.115044 -0.018550
12.761703 43.115044 -0.009586
13.076424 43.115044 0.017431
13.391144 43.115044 0.023127
13.705866 43.115044 0.039589
14.020586 43.115044 0.060757
14.335308 43.115044 0.026930
14.650028 43.115044 -0.001460
14.964750 43.115044 0.013581
15.279470 43.115044 0.032748
15.594193 43.115044 0.060945
15.908913 43.115044 0.154208
16.223633 43.115044 0.457580
16.538355 43.115044 1.176242
16.853075 43.115044 2.357662
17.167797 43.115044 4.640014
17.482517 43.115044 6.768282
17.797239 43.115044 7.666688
18.111959 43.115044 8.575275
18.426680 43.115044 9.932353
18.741402 43.115044 6.579345
-7.065720 42.800323 0.000000
-6.750999 42.800323 0.000000
-6.436278 42.800323 0.002779
-6.121557 42.800323 0.001375
-5.806836 42.800323 0.001593
-5.492115 42.800323 0.001513
-5.177394 42.800323 0.000753
-4.862673 42.800323 -0.000205
-4.547952 42.800323 -0.001089
-4.233231 42.800323 -0.001922
-3.918510 42.800323 -0.002921
-3.603789 42.800323 -0.003785
-3.289068 42.800323 -0.004214
-2.974347 42.800323 -0.004068
-2.659626 42.800323 -0.003320
-2.344905 42.800323 -0.002458
-2.030184 42.800323 -0.001856
-1.715463 42.800323 -0.001017
-1.400742 42.800323 -0.000011
-1.086021 42.800323 0.000968
-0.771300 42.800323 0.001855
-0.456579 42.800323 0.002260
-0.141859 42.800323 0.002307
0.172863 42.800323 0.002107
0.487584 42.800323 0.001236
0.802305 42.800323 0.000090
1.117026 42.800323 -0.000788
1.431747 42.800323 -0.001963
1.746467 42.800323 -0.003703
2.061188 42.800323 -0.005337
2.375909 42.800323 -0.006047
2.690630 42.800323 -0.006259
3.005352 42.800323 -0.006368
3.320073 42.800323 -0.006001
3.634794 42.800323 -0.005035
3.949515 42.800323 -0.003854
4.264236 42.800323 -0.002354
4.578956 42.800323 -0.000738
4.893677 42.800323 0.000632
5.208398 42.800323 0.001139
5.523119 42.800323 0.001029
5.837841 42.800323 0.001023
6.152562 42.800323 0.001012
6.467283 42.800323 0.000167
6.782003 42.800323 -0.001934
7.096724 42.800323 -0.003715
7.411445 42.800323 -0.005890
7.726166 42.800323 -0.008921
8.040888 42.800323 -0.011300
8.355608 42.800323 -0.014579
8.670330 42.800323 -0.012917
8.985050 42.800323 -0.011067
9.299772 42.800323 -0.012186
9.614492 42.800323 -0.026028
9.929214 42.800323 -0.026050
10.243935 42.800323 -0.034849
10.558655 42.800323 -0.038311
10.873377 42.800323 -0.036138
11.188097 42.800323 -0.041967
11.502819 42.800323 -0.045767
11.817539 42.800323 -0.042890
12.132261 42.800323 -0.012420
12.446981 42.800323 -0.007842
12.761703 42.800323 -0.007258
13.076424 42.800323 0.007908
13.391144 42.800323 0.028605
13.705866 42.800323 0.033208
14.020586 42.800323 0.067777
14.335308 42.800323 0.032594
14.650028 42.800323 0.019280
14.964750 42.800323 0.031902
15.279470 42.800323 0.035434
15.594193 42.800323 0.059239
15.908913 42.800323 0.165844
16.223633 42.800323 0.434592
16.538355 42.800323 0.973341
16.853075 42.800323 2.171080
17.167797 42.800323 4.153979
17.482517 42.800323 6.046304
17.797239 42.800323 7.435390
18.111959 42.800323 8.107607
18.426680 42.800323 9.677833
18.741402 42.800323 6.350650
-7.065720 42.485603 0.000000
-6.750999 42.485603 0.000000
-6.436278 42.485603 0.003160
-6.121557 42.485603 0.001971
-5.806836 42.485603 0.002164
-5.492115 42.485603 0.002090
-5.177394 42.485603 0.001552
-4.862673 42.485603 0.000759
-4.547952 42.485603 -0.000222
-4.233231 42.485603 -0.001316
-3.918510 42.485603 -0.002492
-3.603789 42.485603 -0.003542
-3.289068 42.485603 -0.004052
-2.974347 42.485603 -0.004036
-2.659626 42.485603 -0.003764
-2.344905 42.485603 -0.003049
-2.030184 42.485603 -0.002755
-1.715463 42.485603 -0.002155
-1.400742 42.485603 -0.001014
-1.086021 42.485603 0.000249
-0.771300 42.485603 0.001331
-0.456579 42.485603 0.001995
-0.141859 42.485603 0.002530
0.172863 42.485603 0.002820
0.487584 42.485603 0.002333
0.802305 42.485603 0.001318
1.117026 42.485603 0.000437
1.431747 42.485603 -0.000613
1.746467 42.485603 -0.002380
2.061188 42.485603 -0.004245
2.375909 42.485603 -0.005389
2.690630 42.485603 -0.006147
3.005352 42.485603 -0.006724
3.320073 42.485603 -0.006709
3.634794 42.485603 -0.006179
3.949515 42.485603 -0.005226
4.264236 42.485603 -0.003812
4.578956 42.485603 -0.002179
4.893677 42.485603 -0.000560
5.208398 42.485603 0.000214
5.523119 42.485603 0.000360
5.837841 42.485603 0.000765
6.152562 42.485603 0.001221
6.467283 42.485603 0.000785
6.782003 42.485603 -0.000486
7.096724 42.485603 -0.002967
7.411445 42.485603 -0.005215
7.726166 42.485603 -0.007314
8.040888 42.485603 -0.009515
8.355608 42.485603 -0.011137
8.670330 42.485603 -0.015571
8.985050 42.485603 -0.013401
9.299772 42.485603 -0.017097
9.614492 42.485603 -0.020815
9.929214 42.485603 -0.021205
10.243935 42.485603 -0.029455
10.558655 42.485603 -0.033885
10.873377 42.485603 -0.040609
11.188097 42.485603 -0.042130
11.502819 42.485603 -0.037196
11.817539 42.485603 -0.027184
12.132261 42.485603 -0.015272
12.446981 42.485603 -0.014778
12.761703 42.485603 -0.009113
13.076424 42.485603 0.000719
13.391144 42.485603 0.015152
13.705866 42.485603 0.019303
14.020586 42.485603 0.059230
14.335308 42.485603 0.050468
14.650028 42.485603 0.035374
14.964750 42.485603 0.045330
15.279470 42.485603 0.053769
15.594193 42.485603 0.081183
15.908913 42.485603 0.178018
16.223633 42.485603 0.448138
16.538355 42.485603 0.964913
16.853075 42.485603 2.072882
17.167797 42.485603 4.144652
17.482517 42.485603 6.024424
17.797239 42.485603 7.302846
18.111959 42.485603 8.301353
18.426680 42.485603 9.612591
18.741402 42.485603 7.320461
-7.065720 42.170883 0.000000
-6.750999 42.170883 0.000000
-6.436278 42.170883 0.003314
-6.121557 42.170883 0.002222
-5.806836 42.170883 0.002445
-5.492115 42.170883 0.002477
-5.177394 42.170883 0.002169
-4.862673 42.170883 0.001747
-4.547952 42.170883 0.000760
-4.233231 42.170883 -0.000304
-3.918510 42.170883 -0.001640
-3.603789 42.170883 -0.002823
-3.289068 42.170883 -0.003463
-2.974347 42.170883 -0.003882
-2.659626 42.170883 -0.004146
-2.344905 42.170883 -0.003868
-2.030184 42.170883 -0.003806
-1.715463 42.170883 -0.003439
-1.400742 42.170883 -0.002263
-1.086021 42.170883 -0.000840
-0.771300 42.170883 0.000366
-0.456579 42.170883 0.001338
-0.141859 42.170883 0.002353
0.172863 42.170883 0.003212
0.487584 42.170883 0.003142
0.802305 42.170883 0.002406
1.117026 42.170883 0.001665
1.431747 42.170883 0.000802
1.746467 42.170883 -0.000798
2.061188 42.170883 -0.002717
2.375909 42.170883 -0.004252
2.690630 42.170883 -0.005588
3.005352 42.170883 -0.006714
3.320073 42.170883 -0.007216
3.634794 42.170883 -0.007096
3.949515 42.170883 -0.006421
4.264236 42.170883 -0.005308
4.578956 42.170883 -0.003813
4.893677 42.170883 -0.002163
5.208398 42.170883 -0.001130
5.523119 42.170883 -0.000555
5.837841 42.170883 0.000281
6.152562 42.170883 0.000831
6.467283 42.170883 0.000809
6.782003 42.170883 -0.000459
7.096724 42.170883 -0.002302
7.411445 42.170883 -0.003893
7.726166 42.170883 -0.006394
8.040888 42.170883 -0.009644
8.355608 42.170883 -0.014177
8.670330 42.170883 -0.015122
8.985050 42.170883 -0.016601
9.299772 42.170883 -0.013825
9.614492 42.170883 -0.011635
9.929214 42.170883 -0.007767
10.243935 42.170883 -0.012502
10.558655 42.170883 -0.022044
10.873377 42.170883 -0.036469
11.188097 42.170883 -0.014333
11.502819 42.170883 -0.018171
11.817539 42.170883 -0.029542
12.132261 42.170883 -0.019706
12.446981 42.170883 -0.007304
12.761703 42.170883 -0.015999
13.076424 42.170883 -0.017910
13.391144 42.170883 -0.010610
13.705866 42.170883 0.014376
14.020586 42.170883 0.047842
14.335308 42.170883 0.046487
14.650028 42.170883 0.044402
14.964750 42.170883 0.050869
15.279470 42.170883 0.053062
15.594193 42.170883 0.083301
15.908913 42.170883 0.165282
16.223633 42.170883 0.437760
16.538355 42.170883 1.032051
16.853075 42.170883 2.195324
17.167797 42.170883 4.232565
17.482517 42.170883 6.226750
17.797239 42.170883 7.555208
18.111959 42.170883 8.720926
18.426680 42.170883 10.229164
18.741402 42.170883 6.844097
-7.065720 41.856159 0.000000
-6.750999 41.856159 0.000000
-6.436278 41.856159 0.003035
-6.121557 41.856159 0.002143
-5.806836 41.856159 0.002484
-5.492115 41.856159 0.002648
-5.177394 41.856159 0.002723
-4.862673 41.856159 0.002566
-4.547952 41.856159 0.001864
-4.233231 41.856159 0.000710
-3.918510 41.856159 -0.000615
-3.603789 41.856159 -0.001886
-3.289068 41.856159 -0.002746
-2.974347 41.856159 -0.003602
-2.659626 41.856159 -0.004363
-2.344905 41.856159 -0.004652
-2.030184 41.856159 -0.004917
-1.715463 41.856159 -0.004733
-1.400742 41.856159 -0.003591
-1.086021 41.856159 -0.002197
-0.771300 41.856159 -0.000898
-0.456579 41.856159 0.000418
-0.141859 41.856159 0.001875
0.172863 41.856159 0.003153
0.487584 41.856159 0.003594
0.802305 41.856159 0.003180
1.117026 41.856159 0.002647
1.431747 41.856159 0.002021
1.746467 41.856159 0.000707
2.061188 41.856159 -0.001118
2.375909 41.856159 -0.002944
2.690630 41.856159 -0.004661
3.005352 41.856159 -0.006274
3.320073 41.856159 -0.007369
3.634794 41.856159 -0.007767
3.949515 41.856159 -0.007388
4.264236 41.856159 -0.006631
4.578956 41.856159 -0.005328
4.893677 41.856159 -0.003806
5.208398 41.856159 -0.002495
5.523119 41.856159 -0.001373
5.837841 41.856159 -0.000341
6.152562 41.856159 0.000153
6.467283 41.856159 0.000371
6.782003 41.856159 -0.000290
7.096724 41.856159 -0.001644
7.411445 41.856159 -0.003863
7.726166 41.856159 -0.007195
8.040888 41.856159 -0.010238
8.355608 41.856159 -0.011006
8.670330 41.856159 -0.017164
8.985050 41.856159 -0.013611
9.299772 41.856159 -0.013934
9.614492 41.856159 -0.005968
9.929214 41.856159 0.001027
10.243935 41.856159 -0.006476
10.558655 41.856159 -0.010480
10.873377 41.856159 -0.009710
11.188097 41.856159 -0.014122
11.502819 41.856159 -0.010484
11.817539 41.856159 -0.028083
12.132261 41.856159 -0.013734
12.446981 41.856159 -0.014423
12.761703 41.856159 -0.014495
13.076424 41.856159 -0.030812
13.391144 41.856159 -0.018761
13.705866 41.856159 0.007633
14.020586 41.856159 0.026115
14.335308 41.856159 0.020689
14.650028 41.856159 0.030872
14.964750 41.856159 0.045117
15.279470 41.856159 0.043179
15.594193 41.856159 0.063708
15.908913 41.856159 0.171129
16.223633 41.856159 0.459823
16.538355 41.856159 1.047854
16.853075 41.856159 2.367025
17.167797 41.856159 4.489522
17.482517 41.856159 6.727977
17.797239 41.856159 7.932149
18.111959 41.856159 9.444330
18.426680 41.856159 11.147626
18.741402 41.856159 8.373031
-7.065720 41.541439 0.000000
-6.750999 41.541439 0.000000
-6.436278 41.541439 0.002392
-6.121557 41.541439 0.001759
-5.806836 41.541439 0.002341
-5.492115 41.541439 0.002676
-5.177394 41.541439 0.003241
-4.862673 41.541439 0.003503
-4.547952 41.541439 0.003039
-4.233231 41.541439 0.002078
-3.918510 41.541439 0.000692
-3.603789 41.541439 -0.000696
-3.289068 41.541439 -0.001855
-2.974347 41.541439 -0.003147
-2.659626 41.541439 -0.004326
-2.344905 41.541439 -0.005301
-2.030184 41.541439 -0.005831
-1.715463 41.541439 -0.005709
-1.400742 41.541439 -0.004864
-1.086021 41.541439 -0.003598
-0.771300 41.541439 -0.002199
-0.456579 41.541439 -0.000685
-0.141859 41.541439 0.001111
0.172863 41.541439 0.002733
0.487584 41.541439 0.003624
0.802305 41.541439 0.003615
1.117026 41.541439 0.003268
1.431747 41.541439 0.002891
1.746467 41.541439 0.002006
2.061188 41.541439 0.000438
2.375909 41.541439 -0.001558
2.690630 41.541439 -0.003609
3.005352 41.541439 -0.005450
3.320073 41.541439 -0.007025
3.634794 41.541439 -0.007941
3.949515 41.541439 -0.008042
4.264236 41.541439 -0.007657
4.578956 41.541439 -0.006695
4.893677 41.541439 -0.005237
5.208398 41.541439 -0.003605
5.523119 41.541439 -0.002148
5.837841 41.541439 -0.001171
6.152562 41.541439 -0.000692
6.467283 41.541439 -0.000498
6.782003 41.541439 -0.000482
7.096724 41.541439 -0.001111
7.411445 41.541439 -0.003384
7.726166 41.541439 -0.006800
8.040888 41.541439 -0.009529
8.355608 41.541439 -0.009499
8.670330 41.541439 -0.012707
8.985050 41.541439 -0.013292
9.299772 41.541439 -0.012332
9.614492 41.541439 -0.003945
9.929214 41.541439 -0.004693
10.243935 41.541439 -0.004173
10.558655 41.541439 -0.004836
10.873377 41.541439 0.002974
11.188097 41.541439 -0.002396
11.502819 41.541439 -0.016958
11.817539 41.541439 -0.011959
12.132261 41.541439 -0.014546
12.446981 41.541439 -0.009643
12.761703 41.541439 -0.012569
13.076424 41.541439 -0.007368
13.391144 41.541439 -0.010364
13.705866 41.541439 0.007146
14.020586 41.541439 0.012252
14.335308 41.541439 0.016947
14.650028 41.541439 0.050687
14.964750 41.541439 0.036330
15.279470 41.541439 0.032163
15.594193 41.541439 0.046837
15.908913 41.541439 0.148947
16.223633 41.541439 0.470845
16.538355 41.541439 1.136683
16.853075 41.541439 2.519171
17.167797 41.541439 4.788922
17.482517 41.541439 6.804035
17.797239 41.541439 8.807623
18.111959 41.541439 10.051603
18.426680 41.541439 12.295854
18.741402 41.541439 12.034262
-7.065720 41.226719 0.000000
-6.750999 41.226719 0.000000
-6.436278 41.226719 0.001273
-6.121557 41.226719 0.001000
-5.806836 41.226719 0.001841
-5.492115 41.226719 0.002512
-5.177394 41.226719 0.003378
-4.862673 41.226719 0.004181
-4.547952 41.226719 0.004242
-4.233231 41.226719 0.003542
-3.918510 41.226719 0.002216
-3.603789 41.226719 0.000612
-3.289068 41.226719 -0.000825
-2.974347 41.226719 -0.002549
-2.659626 41.226719 -0.004107
-2.344905 41.226719 -0.005610
-2.030184 41.226719 -0.006427
-1.715463 41.226719 -0.006374
-1.400742 41.226719 -0.005866
-1.086021 41.226719 -0.004917
-0.771300 41.226719 -0.003465
-0.456579 41.226719 -0.001848
-0.141859 41.226719 0.000122
0.172863 41.226719 0.002042
0.487584 41.226719 0.003199
0.802305 41.226719 0.003605
1.117026 41.226719 0.003650
1.431747 41.226719 0.003531
1.746467 41.226719 0.003019
2.061188 41.226719 0.001600
2.375909 41.226719 -0.000303
2.690630 41.226719 -0.002438
3.005352 41.226719 -0.004425
3.320073 41.226719 -0.006163
3.634794 41.226719 -0.007584
3.949515 41.226719 -0.008351
4.264236 41.226719 -0.008417
4.578956 41.226719 -0.007741
4.893677 41.226719 -0.006439
5.208398 41.226719 -0.004659
5.523119 41.226719 -0.003151
5.837841 41.226719 -0.002127
6.152562 41.226719 -0.001735
6.467283 41.226719 -0.001099
6.782003 41.226719 -0.000556
7.096724 41.226719 -0.001261
7.411445 41.226719 -0.003031
7.726166 41.226719 -0.005236
8.040888 41.226719 -0.009795
8.355608 41.226719 -0.009139
8.670330 41.226719 -0.010669
8.985050 41.226719 -0.015875
9.299772 41.226719 -0.015813
9.614492 41.226719 -0.010510
9.929214 41.226719 -0.003784
10.243935 41.226719 -0.005067
10.558655 41.226719 -0.012555
10.873377 41.226719 -0.006664
11.188097 41.226719 -0.002484
11.502819 41.226719 -0.022809
11.817539 41.226719 -0.016735
12.132261 41.226719 -0.000717
12.446981 41.226719 0.006795
12.761703 41.226719 -0.017290
13.076424 41.226719 -0.018527
13.391144 41.226719 0.001249
13.705866 41.226719 0.013124
14.020586 41.226719 0.029152
14.335308 41.226719 0.022016
14.650028 41.226719 0.037286
14.964750 41.226719 0.030282
15.279470 41.226719 0.024678
15.594193 41.226719 0.053790
15.908913 41.226719 0.150878
16.223633 41.226719 0.422337
16.538355 41.226719 1.159475
16.853075 41.226719 2.595541
17.167797 41.226719 5.100512
17.482517 41.226719 7.392899
17.797239 41.226719 9.680207
18.111959 41.226719 11.141422
18.426680 41.226719 13.140922
18.741402 41.226719 12.553922
-7.065720 40.911999 0.000000
-6.750999 40.911999 0.000000
-6.436278 40.911999 0.000119
-6.121557 40.911999 -0.000100
-5.806836 40.911999 0.001028
-5.492115 40.911999 0.002001
-5.177394 40.911999 0.003118
-4.862673 40.911999 0.004437
-4.547952 40.911999 0.005004
-4.233231 40.911999 0.004651
-3.918510 40.911999 0.003674
-3.603789 40.911999 0.002108
-3.289068 40.911999 0.000360
-2.974347 40.911999 -0.001738
-2.659626 40.911999 -0.003701
-2.344905 40.911999 -0.005601
-2.030184 40.911999 -0.006680
-1.715463 40.911999 -0.006763
-1.400742 40.911999 -0.006664
-1.086021 40.911999 -0.005987
-0.771300 40.911999 -0.004671
-0.456579 40.911999 -0.002938
-0.141859 40.911999 -0.000973
0.172863 40.911999 0.001007
0.487584 40.911999 0.002526
0.802305 40.911999 0.003356
1.117026 40.911999 0.003868
1.431747 40.911999 0.003998
1.746467 40.911999 0.003669
2.061188 40.911999 0.002573
2.375909 40.911999 0.000802
2.690630 40.911999 -0.001291
3.005352 40.911999 -0.003260
3.320073 40.911999 -0.005092
3.634794 40.911999 -0.006880
3.949515 40.911999 -0.008214
4.264236 40.911999 -0.008696
4.578956 40.911999 -0.008316
4.893677 40.911999 -0.007187
5.208398 40.911999 -0.005577
5.523119 40.911999 -0.004208
5.837841 40.911999 -0.003278
6.152562 40.911999 -0.002725
6.467283 40.911999 -0.001728
6.782003 40.911999 -0.000830
7.096724 40.911999 -0.001664
7.411445 40.911999 -0.002098
7.726166 40.911999 -0.004344
8.040888 40.911999 -0.006041
8.355608 40.911999 -0.007766
8.670330 40.911999 -0.006365
8.985050 40.911999 -0.009722
9.299772 40.911999 -0.014771
9.614492 40.911999 -0.006292
9.929214 40.911999 -0.003109
10.243935 40.911999 -0.003931
10.558655 40.911999 -0.003225
10.873377 40.911999 -0.007179
11.188097 40.911999 -0.020308
11.502819 40.911999 -0.018187
11.817539 40.911999 -0.025663
12.132261 40.911999 -0.012400
12.446981 40.911999 0.005996
12.761703 40.911999 -0.007807
13.076424 40.911999 -0.004684
13.391144 40.911999 0.001249
13.705866 40.911999 0.019054
14.020586 40.911999 0.042775
14.335308 40.911999 0.026236
14.650028 40.911999 0.030355
14.964750 40.911999 0.034363
15.279470 40.911999 0.033167
15.594193 40.911999 0.056111
15.908913 40.911999 0.169315
16.223633 40.911999 0.465532
16.538355 40.911999 1.152195
16.853075 40.911999 2.684535
17.167797 40.911999 5.428409
17.482517 40.911999 7.818541
17.797239 40.911999 10.257721
18.111959 40.911999 12.415156
18.426680 40.911999 14.433989
18.741402 40.911999 0.000000
-7.065720 40.597275 0.000000
-6.750999 40.597275 0.000000
-6.436278 40.597275 -0.001308
-6.121557 40.597275 -0.001450
-5.806836 40.597275 -0.000211
-5.492115 40.597275 0.001106
-5.177394 40.597275 0.002692
-4.862673 40.597275 0.004325
-4.547952 40.597275 0.005212
-4.233231 40.597275 0.005327
-3.918510 40.597275 0.004807
-3.603789 40.597275 0.003422
-3.289068 40.597275 0.001540
-2.974347 40.597275 -0.000649
-2.659626 40.597275 -0.002966
-2.344905 40.597275 -0.005157
-2.030184 40.597275 -0.006489
-1.715463 40.597275 -0.006903
-1.400742 40.597275 -0.007164
-1.086021 40.597275 -0.006740
-0.771300 40.597275 -0.005615
-0.456579 40.597275 -0.004003
-0.141859 40.597275 -0.002107
0.172863 40.597275 -0.000111
0.487584 40.597275 0.001727
0.802305 40.597275 0.003038
1.117026 40.597275 0.003952
1.431747 40.597275 0.004358
1.746467 40.597275 0.004254
2.061188 40.597275 0.003410
2.375909 40.597275 0.001772
2.690630 40.597275 -0.000198
3.005352 40.597275 -0.002007
3.320073 40.597275 -0.003920
3.634794 40.597275 -0.005938
3.949515 40.597275 -0.007677
4.264236 40.597275 -0.008540
4.578956 40.597275 -0.008499
4.893677 40.597275 -0.007658
5.208398 40.597275 -0.006474
5.523119 40.597275 -0.005219
5.837841 40.597275 -0.004238
6.152562 40.597275 -0.003356
6.467283 40.597275 -0.002136
6.782003 40.597275 -0.001243
7.096724 40.597275 -0.001837
7.411445 40.597275 -0.003228
7.726166 40.597275 -0.003767
8.040888 40.597275 -0.005371
8.355608 40.597275 -0.006735
8.670330 40.597275 -0.006656
8.985050 40.597275 -0.000993
9.299772 40.597275 -0.006113
9.614492 40.597275 -0.011344
9.929214 40.597275 -0.001272
10.243935 40.597275 -0.013526
10.558655 40.597275 -0.007324
10.873377 40.597275 -0.007281
11.188097 40.597275 -0.013994
11.502819 40.597275 -0.029098
11.817539 40.597275 -0.029121
12.132261 40.597275 0.003441
12.446981 40.597275 -0.006366
12.761703 40.597275 -0.035961
13.076424 40.597275 -0.034959
13.391144 40.597275 -0.003128
13.705866 40.597275 0.026761
14.020586 40.597275 0.045943
14.335308 40.597275 0.042325
14.650028 40.597275 0.031504
14.964750 40.597275 0.030423
15.279470 40.597275 0.045413
15.594193 40.597275 0.069983
15.908913 40.597275 0.165076
16.223633 40.597275 0.511938
16.538355 40.597275 1.232717
16.853075 40.597275 2.865367
17.167797 40.597275 5.702983
17.482517 40.597275 8.490110
17.797239 40.597275 10.726738
18.111959 40.597275 13.181109
18.426680 40.597275 16.158051
18.741402 40.597275 0.000000
-7.065720 40.282555 0.000000
-6.750999 40.282555 0.000000
-6.436278 40.282555 -0.002646
-6.121557 40.282555 -0.002942
-5.806836 40.282555 -0.001658
-5.492115 40.282555 -0.000170
-5.177394 40.282555 0.001781
-4.862673 40.282555 0.003737
-4.547952 40.282555 0.004965
-4.233231 40.282555 0.005640
-3.918510 40.282555 0.005562
-3.603789 40.282555 0.004388
-3.289068 40.282555 0.002675
-2.974347 40.282555 0.000569
-2.659626 40.282555 -0.001797
-2.344905 40.282555 -0.004273
-2.030184 40.282555 -0.005944
-1.715463 40.282555 -0.006692
-1.400742 40.282555 -0.007315
-1.086021 40.282555 -0.007130
-0.771300 40.282555 -0.006295
-0.456579 40.282555 -0.004930
-0.141859 40.282555 -0.003267
0.172863 40.282555 -0.001201
0.487584 40.282555 0.000827
0.802305 40.282555 0.002495
1.117026 40.282555 0.003743
1.431747 40.282555 0.004526
1.746467 40.282555 0.004651
2.061188 40.282555 0.004004
2.375909 40.282555 0.002445
2.690630 40.282555 0.000681
3.005352 40.282555 -0.000965
3.320073 40.282555 -0.002816
3.634794 40.282555 -0.004907
3.949515 40.282555 -0.006900
4.264236 40.282555 -0.008073
4.578956 40.282555 -0.008281
4.893677 40.282555 -0.007892
5.208398 40.282555 -0.007129
5.523119 40.282555 -0.005992
5.837841 40.282555 -0.005039
6.152562 40.282555 -0.003905
6.467283 40.282555 -0.002592
6.782003 40.282555 -0.001416
7.096724 40.282555 -0.001713
7.411445 40.282555 -0.002704
7.726166 40.282555 -0.004704
8.040888 40.282555 -0.005716
8.355608 40.282555 -0.006276
8.670330 40.282555 -0.006237
8.985050 40.282555 -0.010077
9.299772 40.282555 -0.015079
9.614492 40.282555 -0.014273
9.929214 40.282555 -0.015658
10.243935 40.282555 -0.008250
10.558655 40.282555 -0.006604
10.873377 40.282555 -0.021964
11.188097 40.282555 -0.024183
11.502819 40.282555 -0.033755
11.817539 40.282555 -0.023657
12.132261 40.282555 0.004269
12.446981 40.282555 -0.023124
12.761703 40.282555 -0.027575
13.076424 40.282555 -0.030469
13.391144 40.282555 0.014490
13.705866 40.282555 0.025595
14.020586 40.282555 0.038342
14.335308 40.282555 0.050479
14.650028 40.282555 0.029723
14.964750 40.282555 0.009294
15.279470 40.282555 0.033904
15.594193 40.282555 0.084552
15.908913 40.282555 0.177554
16.223633 40.282555 0.527589
16.538355 40.282555 1.337709
16.853075 40.282555 3.057240
17.167797 40.282555 5.893434
17.482517 40.282555 8.531982
17.797239 40.282555 10.894053
18.111959 40.282555 14.600492
18.426680 40.282555 17.565592
18.741402 40.282555 0.000000
-7.065720 39.967834 0.000000
-6.750999 39.967834 0.000000
-6.436278 39.967834 -0.003701
-6.121557 39.967834 -0.004295
-5.806836 39.967834 -0.002937
-5.492115 39.967834 -0.001417
-5.177394 39.967834 0.000691
-4.862673 39.967834 0.002816
-4.547952 39.967834 0.004417
-4.233231 39.967834 0.005585
-3.918510 39.967834 0.005970
-3.603789 39.967834 0.005019
-3.289068 39.967834 0.003623
-2.974347 39.967834 0.001855
-2.659626 39.967834 -0.000425
-2.344905 39.967834 -0.003032
-2.030184 39.967834 -0.004968
-1.715463 39.967834 -0.006146
-1.400742 39.967834 -0.007177
-1.086021 39.967834 -0.007228
-0.771300 39.967834 -0.006699
-0.456579 39.967834 -0.005704
-0.141859 39.967834 -0.004241
0.172863 39.967834 -0.002201
0.487584 39.967834 0.000012
0.802305 39.967834 0.001925
1.117026 39.967834 0.003454
1.431747 39.967834 0.004453
1.746467 39.967834 0.004753
2.061188 39.967834 0.004204
2.375909 39.967834 0.002904
2.690630 39.967834 0.001378
3.005352 39.967834 -0.000095
3.320073 39.967834 -0.001894
3.634794 39.967834 -0.003995
3.949515 39.967834 -0.005991
4.264236 39.967834 -0.007407
4.578956 39.967834 -0.008024
4.893677 39.967834 -0.008096
5.208398 39.967834 -0.007566
5.523119 39.967834 -0.006494
5.837841 39.967834 -0.005450
6.152562 39.967834 -0.004250
6.467283 39.967834 -0.002675
6.782003 39.967834 -0.001635
7.096724 39.967834 -0.001770
7.411445 39.967834 -0.003324
7.726166 39.967834 -0.006742
8.040888 39.967834 -0.006818
8.355608 39.967834 -0.007637
8.670330 39.967834 -0.010804
8.985050 39.967834 -0.013334
9.299772 39.967834 -0.015352
9.614492 39.967834 -0.021483
9.929214 39.967834 -0.021444
10.243935 39.967834 -0.008573
10.558655 39.967834 -0.007149
10.873377 39.967834 -0.027059
11.188097 39.967834 -0.040094
11.502819 39.967834 -0.037425
11.817539 39.967834 -0.009240
12.132261 39.967834 0.027909
12.446981 39.967834 0.013640
12.761703 39.967834 -0.004193
13.076424 39.967834 0.006547
13.391144 39.967834 0.019897
13.705866 39.967834 0.033158
14.020586 39.967834 0.057519
14.335308 39.967834 0.050500
14.650028 39.967834 0.045794
14.964750 39.967834 0.041643
15.279470 39.967834 0.054443
15.594193 39.967834 0.091387
15.908913 39.967834 0.200472
16.223633 39.967834 0.554143
16.538355 39.967834 2.558560
16.853075 39.967834 11.534949
17.167797 39.967834 22.484108
17.482517 39.967834 9.724800
17.797239 39.967834 16.918528
18.111959 39.967834 16.878035
18.426680 39.967834 19.829124
18.741402 39.967834 0.000000
-7.065720 39.653114 0.000000
-6.750999 39.653114 0.000000
-6.436278 39.653114 -0.004429
-6.121557 39.653114 -0.005372
-5.806836 39.653114 -0.003894
-5.492115 39.653114 -0.002445
-5.177394 39.653114 -0.000386
-4.862673 39.653114 0.001903
-4.547952 39.653114 0.003892
-4.233231 39.653114 0.005311
-3.918510 39.653114 0.006031
-3.603789 39.653114 0.005446
-3.289068 39.653114 0.004437
-2.974347 39.653114 0.003015
-2.659626 39.653114 0.000978
-2.344905 39.653114 -0.001639
-2.030184 39.653114 -0.003865
-1.715463 39.653114 -0.005433
-1.400742 39.653114 -0.006814
-1.086021 39.653114 -0.007198
-0.771300 39.653114 -0.006902
-0.456579 39.653114 -0.006311
-0.141859 39.653114 -0.004947
0.172863 39.653114 -0.002961
0.487584 39.653114 -0.000733
0.802305 39.653114 0.001342
1.117026 39.653114 0.003118
1.431747 39.653114 0.004239
1.746467 39.653114 0.004643
2.061188 39.653114 0.004287
2.375909 39.653114 0.003221
2.690630 39.653114 0.001982
3.005352 39.653114 0.000617
3.320073 39.653114 -0.001146
3.634794 39.653114 -0.003203
3.949515 39.653114 -0.005348
4.264236 39.653114 -0.006767
4.578956 39.653114 -0.007803
4.893677 39.653114 -0.008277
5.208398 39.653114 -0.008053
5.523119 39.653114 -0.007080
5.837841 39.653114 -0.005776
6.152562 39.653114 -0.004458
6.467283 39.653114 -0.003087
6.782003 39.653114 -0.002260
7.096724 39.653114 -0.002138
7.411445 39.653114 -0.004558
7.726166 39.653114 -0.006312
8.040888 39.653114 -0.008365
8.355608 39.653114 -0.010671
8.670330 39.653114 -0.015132
8.985050 39.653114 -0.017965
9.299772 39.653114 -0.020445
9.614492 39.653114 -0.026306
9.929214 39.653114 -0.029125
10.243935 39.653114 -0.011448
10.558655 39.653114 -0.016808
10.873377 39.653114 -0.024240
11.188097 39.653114 -0.052176
11.502819 39.653114 -0.040249
11.817539 39.653114 -0.010838
12.132261 39.653114 0.028648
12.446981 39.653114 0.045211
12.761703 39.653114 0.024521
13.076424 39.653114 0.024257
13.391144 39.653114 0.039182
13.705866 39.653114 0.051979
14.020586 39.653114 0.057142
14.335308 39.653114 0.046259
14.650028 39.653114 0.034523
14.964750 39.653114 0.043395
15.279470 39.653114 0.069073
15.594193 39.653114 0.105932
15.908913 39.653114 0.206031
16.223633 39.653114 0.604085
16.538355 39.653114 2.643317
16.853075 39.653114 0.000000
17.167797 39.653114 0.000000
17.482517 39.653114 0.000000
17.797239 39.653114 19.187843
18.111959 39.653114 19.095104
18.426680 39.653114 22.433386
18.741402 39.653114 0.000000
-7.065720 39.338394 0.000000
-6.750999 39.338394 0.000000
-6.436278 39.338394 -0.004825
-6.121557 39.338394 -0.006129
-5.806836 39.338394 -0.004608
-5.492115 39.338394 -0.003123
-5.177394 39.338394 -0.001247
-4.862673 39.338394 0.001019
-4.547952 39.338394 0.003201
-4.233231 39.338394 0.004834
-3.918510 39.338394 0.005891
-3.603789 39.338394 0.005812
-3.289068 39.338394 0.005180
-2.974347 39.338394 0.004028
-2.659626 39.338394 0.002187
-2.344905 39.338394 -0.000243
-2.030184 39.338394 -0.002584
-1.715463 39.338394 -0.004408
-1.400742 39.338394 -0.006206
-1.086021 39.338394 -0.006995
-0.771300 39.338394 -0.007007
-0.456579 39.338394 -0.006638
-0.141859 39.338394 -0.005453
0.172863 39.338394 -0.003555
0.487584 39.338394 -0.001486
0.802305 39.338394 0.000628
1.117026 39.338394 0.002529
1.431747 39.338394 0.003832
1.746467 39.338394 0.004406
2.061188 39.338394 0.004318
2.375909 39.338394 0.003534
2.690630 39.338394 0.002428
3.005352 39.338394 0.001036
3.320073 39.338394 -0.000693
3.634794 39.338394 -0.002749
3.949515 39.338394 -0.004703
4.264236 39.338394 -0.006324
4.578956 39.338394 -0.007559
4.893677 39.338394 -0.008258
5.208398 39.338394 -0.008280
5.523119 39.338394 -0.007375
5.837841 39.338394 -0.005902
6.152562 39.338394 -0.004380
6.467283 39.338394 -0.003294
6.782003 39.338394 -0.002581
7.096724 39.338394 -0.002934
7.411445 39.338394 -0.003225
7.726166 39.338394 -0.006431
8.040888 39.338394 -0.008259
8.355608 39.338394 -0.011412
8.670330 39.338394 -0.016398
8.985050 39.338394 -0.019314
9.299772 39.338394 -0.029844
9.614492 39.338394 -0.028715
9.929214 39.338394 -0.021969
10.243935 39.338394 -0.017419
10.558655 39.338394 -0.017391
10.873377 39.338394 -0.034316
11.188097 39.338394 -0.053430
11.502819 39.338394 -0.043107
11.817539 39.338394 -0.015970
12.132261 39.338394 0.017632
12.446981 39.338394 0.025249
12.761703 39.338394 0.033876
13.076424 39.338394 0.033722
13.391144 39.338394 0.040805
13.705866 39.338394 0.075205
14.020586 39.338394 0.085386
14.335308 39.338394 0.054234
14.650028 39.338394 0.036789
14.964750 39.338394 0.055681
15.279470 39.338394 0.073963
15.594193 39.338394 0.099333
15.908913 39.338394 0.252317
16.223633 39.338394 0.636233
16.538355 39.338394 2.451432
16.853075 39.338394 0.000000
17.167797 39.338394 0.000000
17.482517 39.338394 0.000000
17.797239 39.338394 23.640097
18.111959 39.338394 21.454901
18.426680 39.338394 24.367840
18.741402 39.338394 0.000000
-7.065720 39.023674 0.000000
-6.750999 39.023674 -0.003531
-6.436278 39.023674 -0.004778
-6.121557 39.023674 -0.006549
-5.806836 39.023674 -0.005043
-5.492115 39.023674 -0.003498
-5.177394 39.023674 -0.001758
-4.862673 39.023674 0.000433
-4.547952 39.023674 0.002536
-4.233231 39.023674 0.004286
-3.918510 39.023674 0.005547
-3.603789 39.023674 0.006068
-3.289068 39.023674 0.005879
-2.974347 39.023674 0.004919
-2.659626 39.023674 0.003258
-2.344905 39.023674 0.000939
-2.030184 39.023674 -0.001467
-1.715463 39.023674 -0.003424
-1.400742 39.023674 -0.005556
-1.086021 39.023674 -0.006884
-0.771300 39.023674 -0.007014
-0.456579 39.023674 -0.006768
-0.141859 39.023674 -0.005749
0.172863 39.023674 -0.004061
0.487584 39.023674 -0.002221
0.802305 39.023674 -0.000126
1.117026 39.023674 0.001882
1.431747 39.023674 0.003312
1.746467 39.023674 0.004154
2.061188 39.023674 0.004328
2.375909 39.023674 0.003813
2.690630 39.023674 0.002691
3.005352 39.023674 0.001221
3.320073 39.023674 -0.000424
3.634794 39.023674 -0.002401
3.949515 39.023674 -0.004288
4.264236 39.023674 -0.005936
4.578956 39.023674 -0.007149
4.893677 39.023674 -0.008073
5.208398 39.023674 -0.008376
5.523119 39.023674 -0.007498
5.837841 39.023674 -0.005866
6.152562 39.023674 -0.004459
6.467283 39.023674 -0.003258
6.782003 39.023674 -0.002518
7.096724 39.023674 -0.003031
7.411445 39.023674 -0.003550
7.726166 39.023674 -0.005587
8.040888 39.023674 -0.007115
8.355608 39.023674 -0.010234
8.670330 39.023674 -0.014973
8.985050 39.023674 -0.021952
9.299772 39.023674 -0.032529
9.614492 39.023674 -0.025956
9.929214 39.023674 -0.021989
10.243935 39.023674 -0.027375
10.558655 39.023674 -0.030197
10.873377 39.023674 -0.032300
11.188097 39.023674 -0.061052
11.502819 39.023674 -0.064653
11.817539 39.023674 -0.040817
12.132261 39.023674 -0.011358
12.446981 39.023674 0.016703
12.761703 39.023674 0.014807
13.076424 39.023674 0.021972
13.391144 39.023674 0.056782
13.705866 39.023674 0.081212
14.020586 39.023674 0.079086
14.335308 39.023674 0.038558
14.650028 39.023674 0.046170
14.964750 39.023674 0.049375
15.279470 39.023674 0.063252
15.594193 39.023674 0.108152
15.908913 39.023674 0.231814
16.223633 39.023674 0.578520
16.538355 39.023674 4.059932
16.853075 39.023674 0.000000
17.167797 39.023674 0.000000
17.482517 39.023674 0.000000
17.797239 39.023674 21.482283
18.111959 39.023674 21.821011
18.426680 39.023674 26.344782
18.741402 39.023674 0.000000
-7.065720 38.708950 0.000000
-6.750999 38.708950 0.002058
-6.436278 38.708950 -0.004377
-6.121557 38.708950 -0.006607
-5.806836 38.708950 -0.005334
-5.492115 38.708950 -0.003780
-5.177394 38.708950 -0.002012
-4.862673 38.708950 -0.000062
-4.547952 38.708950 0.001908
-4.233231 38.708950 0.003590
-3.918510 38.708950 0.004964
-3.603789 38.708950 0.005994
-3.289068 38.708950 0.006412
-2.974347 38.708950 0.005610
-2.659626 38.708950 0.003867
-2.344905 38.708950 0.001695
-2.030184 38.708950 -0.000579
-1.715463 38.708950 -0.002647
-1.400742 38.708950 -0.005033
-1.086021 38.708950 -0.006839
-0.771300 38.708950 -0.007120
-0.456579 38.708950 -0.006840
-0.141859 38.708950 -0.005878
0.172863 38.708950 -0.004337
0.487584 38.708950 -0.002814
0.802305 38.708950 -0.000914
1.117026 38.708950 0.001164
1.431747 38.708950 0.002852
1.746467 38.708950 0.003944
2.061188 38.708950 0.004335
2.375909 38.708950 0.003926
2.690630 38.708950 0.002698
3.005352 38.708950 0.001176
3.320073 38.708950 -0.000293
3.634794 38.708950 -0.002117
3.949515 38.708950 -0.003920
4.264236 38.708950 -0.005645
4.578956 38.708950 -0.006873
4.893677 38.708950 -0.007846
5.208398 38.708950 -0.008254
5.523119 38.708950 -0.007523
5.837841 38.708950 -0.005985
6.152562 38.708950 -0.004579
6.467283 38.708950 -0.003295
6.782003 38.708950 -0.002486
7.096724 38.708950 -0.002329
7.411445 38.708950 -0.003026
7.726166 38.708950 -0.004750
8.040888 38.708950 -0.007624
8.355608 38.708950 -0.009012
8.670330 38.708950 -0.013360
8.985050 38.708950 -0.018115
9.299772 38.708950 -0.023794
9.614492 38.708950 -0.029947
9.929214 38.708950 -0.023772
10.243935 38.708950 -0.026319
10.558655 38.708950 -0.028299
10.873377 38.708950 -0.032128
11.188097 38.708950 -0.061439
11.502819 38.708950 -0.063042
11.817539 38.708950 -0.036799
12.132261 38.708950 -0.027895
12.446981 38.708950 -0.016018
12.761703 38.708950 0.010363
13.076424 38.708950 0.028857
13.391144 38.708950 0.060968
13.705866 38.708950 0.077452
14.020586 38.708950 0.058949
14.335308 38.708950 0.039460
14.650028 38.708950 0.027108
14.964750 38.708950 0.045728
15.279470 38.708950 0.066184
15.594193 38.708950 0.106858
15.908913 38.708950 0.224402
16.223633 38.708950 0.624850
16.538355 38.708950 0.000000
16.853075 38.708950 0.000000
17.167797 38.708950 0.000000
17.482517 38.708950 0.000000
17.797239 38.708950 0.000000
18.111959 38.708950 22.637888
18.426680 38.708950 26.451015
18.741402 38.708950 0.000000
-7.065720 38.394230 0.000000
-6.750999 38.394230 0.002292
-6.436278 38.394230 -0.003814
-6.121557 38.394230 -0.006431
-5.806836 38.394230 -0.005466
-5.492115 38.394230 -0.003922
-5.177394 38.394230 -0.002171
-4.862673 38.394230 -0.000303
-4.547952 38.394230 0.001417
-4.233231 38.394230 0.002977
-3.918510 38.394230 0.004347
-3.603789 38.394230 0.005814
-3.289068 38.394230 0.006663
-2.974347 38.394230 0.005944
-2.659626 38.394230 0.004077
-2.344905 38.394230 0.002046
-2.030184 38.394230 -0.000110
-1.715463 38.394230 -0.002215
-1.400742 38.394230 -0.004623
-1.086021 38.394230 -0.006744
-0.771300 38.394230 -0.007245
-0.456579 38.394230 -0.006901
-0.141859 38.394230 -0.005947
0.172863 38.394230 -0.004620
0.487584 38.394230 -0.003191
0.802305 38.394230 -0.001521
1.117026 38.394230 0.000453
1.431747 38.394230 0.002337
1.746467 38.394230 0.003575
2.061188 38.394230 0.004101
2.375909 38.394230 0.003791
2.690630 38.394230 0.002524
3.005352 38.394230 0.001057
3.320073 38.394230 -0.000240
3.634794 38.394230 -0.001869
3.949515 38.394230 -0.003646
4.264236 38.394230 -0.005522
4.578956 38.394230 -0.006802
4.893677 38.394230 -0.007621
5.208398 38.394230 -0.008038
5.523119 38.394230 -0.007374
5.837841 38.394230 -0.006021
6.152562 38.394230 -0.004546
6.467283 38.394230 -0.003553
6.782003 38.394230 -0.002984
7.096724 38.394230 -0.003379
7.411445 38.394230 -0.003745
7.726166 38.394230 -0.004533
8.040888 38.394230 -0.006220
8.355608 38.394230 -0.012331
8.670330 38.394230 -0.012060
8.985050 38.394230 -0.009256
9.299772 38.394230 -0.028619
9.614492 38.394230 -0.031443
9.929214 38.394230 -0.019744
10.243935 38.394230 -0.026062
10.558655 38.394230 -0.027885
10.873377 38.394230 -0.033806
11.188097 38.394230 -0.048945
11.502819 38.394230 -0.050145
11.817539 38.394230 -0.042430
12.132261 38.394230 -0.031729
12.446981 38.394230 -0.026448
12.761703 38.394230 0.000527
13.076424 38.394230 -0.001809
13.391144 38.394230 0.043738
13.705866 38.394230 0.054696
14.020586 38.394230 0.051570
14.335308 38.394230 0.032476
14.650028 38.394230 0.026705
14.964750 38.394230 0.057908
15.279470 38.394230 0.076902
15.594193 38.394230 0.126051
15.908913 38.394230 0.233142
16.223633 38.394230 0.717347
16.538355 38.394230 0.000000
16.853075 38.394230 0.000000
17.167797 38.394230 0.000000
17.482517 38.394230 0.000000
17.797239 38.394230 0.000000
18.111959 38.394230 30.696695
18.426680 38.394230 44.504311
18.741402 38.394230 0.000000
-7.065720 38.079510 0.000000
-6.750999 38.079510 0.007023
-6.436278 38.079510 -0.003232
-6.121557 38.079510 -0.005917
-5.806836 38.079510 -0.005408
-5.492115 38.079510 -0.004024
-5.177394 38.079510 -0.002306
-4.862673 38.079510 -0.000553
-4.547952 38.079510 0.001077
-4.233231 38.079510 0.002566
-3.918510 38.079510 0.003940
-3.603789 38.079510 0.005725
-3.289068 38.079510 0.006682
-2.974347 38.079510 0.005978
-2.659626 38.079510 0.004043
-2.344905 38.079510 0.002085
-2.030184 38.079510 0.000130
-1.715463 38.079510 -0.001893
-1.400742 38.079510 -0.004273
-1.086021 38.079510 -0.006421
-0.771300 38.079510 -0.007145
-0.456579 38.079510 -0.006855
-0.141859 38.079510 -0.006024
0.172863 38.079510 -0.004860
0.487584 38.079510 -0.003434
0.802305 38.079510 -0.001906
1.117026 38.079510 -0.000148
1.431747 38.079510 0.001775
1.746467 38.079510 0.003121
2.061188 38.079510 0.003766
2.375909 38.079510 0.003430
2.690630 38.079510 0.002329
3.005352 38.079510 0.000990
3.320073 38.079510 -0.000328
3.634794 38.079510 -0.001877
3.949515 38.079510 -0.003620
4.264236 38.079510 -0.005498
4.578956 38.079510 -0.006729
4.893677 38.079510 -0.007280
5.208398 38.079510 -0.007512
5.523119 38.079510 -0.006970
5.837841 38.079510 -0.005943
6.152562 38.079510 -0.004836
6.467283 38.079510 -0.003971
6.782003 38.079510 -0.003772
7.096724 38.079510 -0.003841
7.411445 38.079510 -0.004299
7.726166 38.079510 -0.005831
8.040888 38.079510 -0.007532
8.355608 38.079510 -0.016146
8.670330 38.079510 -0.016623
8.985050 38.079510 -0.011455
9.299772 38.079510 -0.020774
9.614492 38.079510 -0.026277
9.929214 38.079510 -0.022850
10.243935 38.079510 -0.019764
10.558655 38.079510 -0.018889
10.873377 38.079510 -0.027481
11.188097 38.079510 -0.039993
11.502819 38.079510 -0.039561
11.817539 38.079510 -0.057445
12.132261 38.079510 -0.034495
12.446981 38.079510 -0.026080
12.761703 38.079510 -0.014498
13.076424 38.079510 0.019126
13.391144 38.079510 0.029673
13.705866 38.079510 0.053249
14.020586 38.079510 0.042749
14.335308 38.079510 0.040596
14.650028 38.079510 0.039455
14.964750 38.079510 0.055801
15.279470 38.079510 0.092485
15.594193 38.079510 0.134535
15.908913 38.079510 0.261847
16.223633 38.079510 0.768564
16.538355 38.079510 0.000000
16.853075 38.079510 0.000000
17.167797 38.079510 0.000000
17.482517 38.079510 0.000000
17.797239 38.079510 0.000000
18.111959 38.079510 27.168543
18.426680 38.079510 34.682503
18.741402 38.079510 0.000000
-7.065720 37.764786 0.000000
-6.750999 37.764786 0.003925
-6.436278 37.764786 -0.002811
-6.121557 37.764786 -0.005490
-5.806836 37.764786 -0.005262
-5.492115 37.764786 -0.004144
-5.177394 37.764786 -0.002484
-4.862673 37.764786 -0.000729
-4.547952 37.764786 0.000997
-4.233231 37.764786 0.002430
-3.918510 37.764786 0.003739
-3.603789 37.764786 0.005551
-3.289068 37.764786 0.006353
-2.974347 37.764786 0.005479
-2.659626 37.764786 0.003626
-2.344905 37.764786 0.001809
-2.030184 37.764786 0.000046
-1.715463 37.764786 -0.001831
-1.400742 37.764786 -0.004010
-1.086021 37.764786 -0.006123
-0.771300 37.764786 -0.006896
-0.456579 37.764786 -0.006728
-0.141859 37.764786 -0.006098
0.172863 37.764786 -0.005022
0.487584 37.764786 -0.003640
0.802305 37.764786 -0.002201
1.117026 37.764786 -0.000586
1.431747 37.764786 0.001238
1.746467 37.764786 0.002564
2.061188 37.764786 0.003291
2.375909 37.764786 0.003088
2.690630 37.764786 0.002209
3.005352 37.764786 0.000920
3.320073 37.764786 -0.000586
3.634794 37.764786 -0.002213
3.949515 37.764786 -0.003858
4.264236 37.764786 -0.005520
4.578956 37.764786 -0.006517
4.893677 37.764786 -0.006722
5.208398 37.764786 -0.006701
5.523119 37.764786 -0.006322
5.837841 37.764786 -0.005864
6.152562 37.764786 -0.005055
6.467283 37.764786 -0.004457
6.782003 37.764786 -0.004252
7.096724 37.764786 -0.004617
7.411445 37.764786 -0.005339
7.726166 37.764786 -0.005804
8.040888 37.764786 -0.010989
8.355608 37.764786 -0.014688
8.670330 37.764786 -0.018988
8.985050 37.764786 -0.014931
9.299772 37.764786 -0.019520
9.614492 37.764786 -0.024636
9.929214 37.764786 -0.020672
10.243935 37.764786 -0.020402
10.558655 37.764786 -0.016198
10.873377 37.764786 -0.023917
11.188097 37.764786 -0.033200
11.502819 37.764786 -0.037353
11.817539 37.764786 -0.050188
12.132261 37.764786 -0.048724
12.446981 37.764786 -0.037497
12.761703 37.764786 -0.002152
13.076424 37.764786 -0.001142
13.391144 37.764786 0.022463
13.705866 37.764786 0.042525
14.020586 37.764786 0.034074
14.335308 37.764786 0.045919
14.650028 37.764786 0.048905
14.964750 37.764786 0.043977
15.279470 37.764786 0.062828
15.594193 37.764786 0.112481
15.908913 37.764786 0.255891
16.223633 37.764786 0.816073
16.538355 37.764786 0.000000
16.853075 37.764786 0.000000
17.167797 37.764786 0.000000
17.482517 37.764786 0.000000
17.797239 37.764786 0.000000
18.111959 37.764786 27.271154
18.426680 37.764786 30.989452
18.741402 37.764786 0.000000
-7.065720 37.450066 0.000000
-6.750999 37.450066 0.002734
-6.436278 37.450066 -0.002717
-6.121557 37.450066 -0.005143
-5.806836 37.450066 -0.005063
-5.492115 37.450066 -0.004140
-5.177394 37.450066 -0.002483
-4.862673 37.450066 -0.000626
-4.547952 37.450066 0.001193
-4.233231 37.450066 0.002541
-3.918510 37.450066 0.003714
-3.603789 37.450066 0.005289
-3.289068 37.450066 0.005850
-2.974347 37.450066 0.004857
-2.659626 37.450066 0.003095
-2.344905 37.450066 0.001435
-2.030184 37.450066 -0.000219
-1.715463 37.450066 -0.001874
-1.400742 37.450066 -0.003864
-1.086021 37.450066 -0.005796
-0.771300 37.450066 -0.006540
-0.456579 37.450066 -0.006469
-0.141859 37.450066 -0.005949
0.172863 37.450066 -0.005037
0.487584 37.450066 -0.003715
0.802305 37.450066 -0.002252
1.117026 37.450066 -0.000689
1.431747 37.450066 0.000887
1.746467 37.450066 0.002075
2.061188 37.450066 0.002697
2.375909 37.450066 0.002604
2.690630 37.450066 0.001955
3.005352 37.450066 0.000778
3.320073 37.450066 -0.000853
3.634794 37.450066 -0.002674
3.949515 37.450066 -0.004101
4.264236 37.450066 -0.005376
4.578956 37.450066 -0.006215
4.893677 37.450066 -0.006119
5.208398 37.450066 -0.005946
5.523119 37.450066 -0.005723
5.837841 37.450066 -0.005659
6.152562 37.450066 -0.005115
6.467283 37.450066 -0.004700
6.782003 37.450066 -0.005096
7.096724 37.450066 -0.005009
7.411445 37.450066 -0.005805
7.726166 37.450066 -0.005572
8.040888 37.450066 -0.011499
8.355608 37.450066 -0.016243
8.670330 37.450066 -0.019386
8.985050 37.450066 -0.018462
9.299772 37.450066 -0.018634
9.614492 37.450066 -0.014256
9.929214 37.450066 -0.019122
10.243935 37.450066 -0.012507
10.558655 37.450066 -0.017602
10.873377 37.450066 -0.016389
11.188097 37.450066 -0.028103
11.502819 37.450066 -0.053440
11.817539 37.450066 -0.048439
12.132261 37.450066 -0.048330
12.446981 37.450066 -0.012362
12.761703 37.450066 -0.013715
13.076424 37.450066 -0.001654
13.391144 37.450066 0.012118
13.705866 37.450066 0.028121
14.020586 37.450066 0.052244
14.335308 37.450066 0.046631
14.650028 37.450066 0.053383
14.964750 37.450066 0.051969
15.279470 37.450066 0.060779
15.594193 37.450066 0.132012
15.908913 37.450066 0.293307
16.223633 37.450066 0.784188
16.538355 37.450066 0.000000
16.853075 37.450066 0.000000
17.167797 37.450066 0.000000
17.482517 37.450066 0.000000
17.797239 37.450066 0.000000
18.111959 37.450066 0.000000
18.426680 37.450066 0.000000
18.741402 37.450066 0.000000
-7.065720 37.135345 0.000000
-6.750999 37.135345 0.002440
-6.436278 37.135345 -0.003067
-6.121557 37.135345 -0.005274
-5.806836 37.135345 -0.005103
-5.492115 37.135345 -0.004186
-5.177394 37.135345 -0.002427
-4.862673 37.135345 -0.000316
-4.547952 37.135345 0.001502
-4.233231 37.135345 0.002816
-3.918510 37.135345 0.003833
-3.603789 37.135345 0.005012
-3.289068 37.135345 0.005289
-2.974347 37.135345 0.004275
-2.659626 37.135345 0.002674
-2.344905 37.135345 0.001003
-2.030184 37.135345 -0.000535
-1.715463 37.135345 -0.002001
-1.400742 37.135345 -0.003832
-1.086021 37.135345 -0.005477
-0.771300 37.135345 -0.006123
-0.456579 37.135345 -0.006001
-0.141859 37.135345 -0.005574
0.172863 37.135345 -0.004862
0.487584 37.135345 -0.003657
0.802305 37.135345 -0.002063
1.117026 37.135345 -0.000530
1.431747 37.135345 0.000728
1.746467 37.135345 0.001655
2.061188 37.135345 0.002091
2.375909 37.135345 0.002126
2.690630 37.135345 0.001723
3.005352 37.135345 0.000725
3.320073 37.135345 -0.001026
3.634794 37.135345 -0.002980
3.949515 37.135345 -0.004313
4.264236 37.135345 -0.005123
4.578956 37.135345 -0.005610
4.893677 37.135345 -0.005446
5.208398 37.135345 -0.005148
5.523119 37.135345 -0.005059
5.837841 37.135345 -0.005240
6.152562 37.135345 -0.005154
6.467283 37.135345 -0.004944
6.782003 37.135345 -0.004974
7.096724 37.135345 -0.005047
7.411445 37.135345 -0.006099
7.726166 37.135345 -0.007305
8.040888 37.135345 -0.013550
8.355608 37.135345 -0.015975
8.670330 37.135345 -0.015617
8.985050 37.135345 -0.011994
9.299772 37.135345 -0.015130
9.614492 37.135345 -0.019204
9.929214 37.135345 -0.016337
10.243935 37.135345 -0.010674
10.558655 37.135345 -0.033370
10.873377 37.135345 -0.018180
11.188097 37.135345 -0.026864
11.502819 37.135345 -0.035812
11.817539 37.135345 -0.038438
12.132261 37.135345 -0.033102
12.446981 37.135345 -0.017594
12.761703 37.135345 -0.001980
13.076424 37.135345 -0.006648
13.391144 37.135345 0.012437
13.705866 37.135345 0.023581
14.020586 37.135345 0.044990
14.335308 37.135345 0.071841
14.650028 37.135345 0.054669
14.964750 37.135345 0.049959
15.279470 37.135345 0.069283
15.594193 37.135345 0.133914
15.908913 37.135345 0.276191
16.223633 37.135345 0.683241
16.538355 37.135345 0.000000
16.853075 37.135345 0.000000
17.167797 37.135345 0.000000
17.482517 37.135345 0.000000
17.797239 37.135345 0.000000
18.111959 37.135345 0.000000
18.426680 37.135345 0.000000
18.741402 37.135345 0.000000
-7.065720 36.820625 0.000000
-6.750999 36.820625 0.001564
-6.436278 36.820625 -0.003583
-6.121557 36.820625 -0.005617
-5.806836 36.820625 -0.005365
-5.492115 36.820625 -0.004365
-5.177394 36.820625 -0.002461
-4.862673 36.820625 -0.000229
-4.547952 36.820625 0.001550
-4.233231 36.820625 0.002972
-3.918510 36.820625 0.003918
-3.603789 36.820625 0.004723
-3.289068 36.820625 0.004755
-2.974347 36.820625 0.003755
-2.659626 36.820625 0.002274
-2.344905 36.820625 0.000636
-2.030184 36.820625 -0.000841
-1.715463 36.820625 -0.002217
-1.400742 36.820625 -0.003849
-1.086021 36.820625 -0.005094
-0.771300 36.820625 -0.005669
-0.456579 36.820625 -0.005462
-0.141859 36.820625 -0.005141
0.172863 36.820625 -0.004525
0.487584 36.820625 -0.003354
0.802305 36.820625 -0.001763
1.117026 36.820625 -0.000340
1.431747 36.820625 0.000642
1.746467 36.820625 0.001383
2.061188 36.820625 0.001642
2.375909 36.820625 0.001697
2.690630 36.820625 0.001455
3.005352 36.820625 0.000668
3.320073 36.820625 -0.001094
3.634794 36.820625 -0.003137
3.949515 36.820625 -0.004358
4.264236 36.820625 -0.004778
4.578956 36.820625 -0.004963
4.893677 36.820625 -0.004784
5.208398 36.820625 -0.004498
5.523119 36.820625 -0.004564
5.837841 36.820625 -0.004791
6.152562 36.820625 -0.004885
6.467283 36.820625 -0.004725
6.782003 36.820625 -0.004714
7.096724 36.820625 -0.005916
7.411445 36.820625 -0.006409
7.726166 36.820625 -0.007926
8.040888 36.820625 -0.011092
8.355608 36.820625 -0.012049
8.670330 36.820625 -0.014542
8.985050 36.820625 -0.011212
9.299772 36.820625 -0.010397
9.614492 36.820625 -0.010841
9.929214 36.820625 -0.012907
10.243935 36.820625 -0.003741
10.558655 36.820625 -0.029617
10.873377 36.820625 -0.029823
11.188097 36.820625 -0.031653
11.502819 36.820625 -0.039257
11.817539 36.820625 -0.028799
12.132261 36.820625 -0.028819
12.446981 36.820625 0.007414
12.761703 36.820625 0.013386
13.076424 36.820625 0.008685
13.391144 36.820625 0.016441
13.705866 36.820625 0.055644
14.020586 36.820625 0.075977
14.335308 36.820625 0.088556
14.650028 36.820625 0.058188
14.964750 36.820625 0.063323
15.279470 36.820625 0.080179
15.594193 36.820625 0.130209
15.908913 36.820625 0.252287
16.223633 36.820625 0.586702
16.538355 36.820625 0.000000
16.853075 36.820625 0.000000
17.167797 36.820625 0.000000
17.482517 36.820625 0.000000
17.797239 36.820625 0.000000
18.111959 36.820625 0.000000
18.426680 36.820625 0.000000
18.741402 36.820625 0.000000
-7.065720 36.505905 0.000000
-6.750999 36.505905 0.000905
-6.436278 36.505905 -0.004185
-6.121557 36.505905 -0.005857
-5.806836 36.505905 -0.005492
-5.492115 36.505905 -0.004417
-5.177394 36.505905 -0.002573
-4.862673 36.505905 -0.000388
-4.547952 36.505905 0.001413
-4.233231 36.505905 0.003033
-3.918510 36.505905 0.004102
-3.603789 36.505905 0.004523
-3.289068 36.505905 0.004298
-2.974347 36.505905 0.003301
-2.659626 36.505905 0.001883
-2.344905 36.505905 0.000342
-2.030184 36.505905 -0.001054
-1.715463 36.505905 -0.002400
-1.400742 36.505905 -0.003876
-1.086021 36.505905 -0.004900
-0.771300 36.505905 -0.005295
-0.456579 36.505905 -0.005076
-0.141859 36.505905 -0.004593
0.172863 36.505905 -0.004005
0.487584 36.505905 -0.002770
0.802305 36.505905 -0.001232
1.117026 36.505905 0.000059
1.431747 36.505905 0.000748
1.746467 36.505905 0.001315
2.061188 36.505905 0.001350
2.375909 36.505905 0.001280
2.690630 36.505905 0.001280
3.005352 36.505905 0.000563
3.320073 36.505905 -0.001105
3.634794 36.505905 -0.003020
3.949515 36.505905 -0.004102
4.264236 36.505905 -0.004382
4.578956 36.505905 -0.004510
4.893677 36.505905 -0.004453
5.208398 36.505905 -0.004084
5.523119 36.505905 -0.004006
5.837841 36.505905 -0.004201
6.152562 36.505905 -0.004187
6.467283 36.505905 -0.004221
6.782003 36.505905 -0.004909
7.096724 36.505905 -0.006635
7.411445 36.505905 -0.007368
7.726166 36.505905 -0.009943
8.040888 36.505905 -0.010552
8.355608 36.505905 -0.010844
8.670330 36.505905 -0.010482
8.985050 36.505905 -0.010621
9.299772 36.505905 -0.003646
9.614492 36.505905 -0.007851
9.929214 36.505905 -0.008284
10.243935 36.505905 -0.001019
10.558655 36.505905 -0.025288
10.873377 36.505905 -0.035356
11.188097 36.505905 -0.038773
11.502819 36.505905 -0.038462
11.817539 36.505905 -0.032962
12.132261 36.505905 -0.017580
12.446981 36.505905 0.011760
12.761703 36.505905 0.003581
13.076424 36.505905 0.010209
13.391144 36.505905 0.018260
13.705866 36.505905 0.048420
14.020586 36.505905 0.101473
14.335308 36.505905 0.098527
14.650028 36.505905 0.066317
14.964750 36.505905 0.057856
15.279470 36.505905 0.093410
15.594193 36.505905 0.123698
15.908913 36.505905 0.265420
16.223633 36.505905 0.518445
16.538355 36.505905 0.000000
16.853075 36.505905 0.000000
17.167797 36.505905 0.000000
17.482517 36.505905 0.000000
17.797239 36.505905 0.000000
18.111959 36.505905 0.000000
18.426680 36.505905 0.000000
18.741402 36.505905 0.000000
-7.065720 36.191185 0.000000
-6.750999 36.191185 -0.000094
-6.436278 36.191185 -0.004711
-6.121557 36.191185 -0.005952
-5.806836 36.191185 -0.005507
-5.492115 36.191185 -0.004350
-5.177394 36.191185 -0.002569
-4.862673 36.191185 -0.000542
-4.547952 36.191185 0.001365
-4.233231 36.191185 0.003044
-3.918510 36.191185 0.004178
-3.603789 36.191185 0.004411
-3.289068 36.191185 0.003999
-2.974347 36.191185 0.002883
-2.659626 36.191185 0.001552
-2.344905 36.191185 0.000089
-2.030184 36.191185 -0.001212
-1.715463 36.191185 -0.002524
-1.400742 36.191185 -0.003836
-1.086021 36.191185 -0.004561
-0.771300 36.191185 -0.004892
-0.456579 36.191185 -0.004720
-0.141859 36.191185 -0.004081
0.172863 36.191185 -0.003285
0.487584 36.191185 -0.002090
0.802305 36.191185 -0.000618
1.117026 36.191185 0.000441
1.431747 36.191185 0.000959
1.746467 36.191185 0.001250
2.061188 36.191185 0.001106
2.375909 36.191185 0.000875
2.690630 36.191185 0.000865
3.005352 36.191185 0.000161
3.320073 36.191185 -0.001197
3.634794 36.191185 -0.002724
3.949515 36.191185 -0.003653
4.264236 36.191185 -0.003956
4.578956 36.191185 -0.004225
4.893677 36.191185 -0.004214
5.208398 36.191185 -0.003805
5.523119 36.191185 -0.003510
5.837841 36.191185 -0.003574
6.152562 36.191185 -0.003714
6.467283 36.191185 -0.003964
6.782003 36.191185 -0.005298
7.096724 36.191185 -0.007682
7.411445 36.191185 -0.008821
7.726166 36.191185 -0.011609
8.040888 36.191185 -0.010356
8.355608 36.191185 -0.011854
8.670330 36.191185 -0.011554
8.985050 36.191185 -0.007791
9.299772 36.191185 -0.004562
9.614492 36.191185 -0.003792
9.929214 36.191185 -0.003412
10.243935 36.191185 0.001716
10.558655 36.191185 -0.022106
10.873377 36.191185 -0.034588
11.188097 36.191185 -0.039753
11.502819 36.191185 -0.032986
11.817539 36.191185 -0.038325
12.132261 36.191185 -0.019439
12.446981 36.191185 0.000661
12.761703 36.191185 0.008740
13.076424 36.191185 0.001900
13.391144 36.191185 0.015586
13.705866 36.191185 0.061227
14.020586 36.191185 0.085656
14.335308 36.191185 0.092886
14.650028 36.191185 0.072128
14.964750 36.191185 0.082881
15.279470 36.191185 0.084151
15.594193 36.191185 0.124060
15.908913 36.191185 0.253078
16.223633 36.191185 0.520239
16.538355 36.191185 0.000000
16.853075 36.191185 0.000000
17.167797 36.191185 0.000000
17.482517 36.191185 0.000000
17.797239 36.191185 0.000000
18.111959 36.191185 0.000000
18.426680 36.191185 0.000000
18.741402 36.191185 0.000000
-7.065720 35.876461 0.000000
-6.750999 35.876461 -0.000928
-6.436278 35.876461 -0.005113
-6.121557 35.876461 -0.005843
-5.806836 35.876461 -0.005099
-5.492115 35.876461 -0.003881
-5.177394 35.876461 -0.002298
-4.862673 35.876461 -0.000397
-4.547952 35.876461 0.001571
-4.233231 35.876461 0.003111
-3.918510 35.876461 0.004221
-3.603789 35.876461 0.004297
-3.289068 35.876461 0.003834
-2.974347 35.876461 0.002760
-2.659626 35.876461 0.001329
-2.344905 35.876461 -0.000047
-2.030184 35.876461 -0.001309
-1.715463 35.876461 -0.002577
-1.400742 35.876461 -0.003736
-1.086021 35.876461 -0.004295
-0.771300 35.876461 -0.004573
-0.456579 35.876461 -0.004345
-0.141859 35.876461 -0.003470
0.172863 35.876461 -0.002492
0.487584 35.876461 -0.001241
0.802305 35.876461 -0.000029
1.117026 35.876461 0.000841
1.431747 35.876461 0.001123
1.746467 35.876461 0.001168
2.061188 35.876461 0.000884
2.375909 35.876461 0.000471
2.690630 35.876461 0.000287
3.005352 35.876461 -0.000235
3.320073 35.876461 -0.001208
3.634794 35.876461 -0.002365
3.949515 35.876461 -0.003066
4.264236 35.876461 -0.003526
4.578956 35.876461 -0.003955
4.893677 35.876461 -0.003924
5.208398 35.876461 -0.003515
5.523119 35.876461 -0.003094
5.837841 35.876461 -0.002999
6.152562 35.876461 -0.003298
6.467283 35.876461 -0.003736
6.782003 35.876461 -0.005353
7.096724 35.876461 -0.007730
7.411445 35.876461 -0.009551
7.726166 35.876461 -0.012170
8.040888 35.876461 -0.012128
8.355608 35.876461 -0.012460
8.670330 35.876461 -0.013551
8.985050 35.876461 -0.011243
9.299772 35.876461 -0.006985
9.614492 35.876461 0.000514
9.929214 35.876461 0.003859
10.243935 35.876461 0.000503
10.558655 35.876461 -0.014611
10.873377 35.876461 -0.031116
11.188097 35.876461 -0.035479
11.502819 35.876461 -0.025255
11.817539 35.876461 -0.040683
12.132261 35.876461 -0.020250
12.446981 35.876461 -0.006695
12.761703 35.876461 -0.000102
13.076424 35.876461 -0.003371
13.391144 35.876461 0.008512
13.705866 35.876461 0.062817
14.020586 35.876461 0.084777
14.335308 35.876461 0.069165
14.650028 35.876461 0.084299
14.964750 35.876461 0.090615
15.279470 35.876461 0.089325
15.594193 35.876461 0.116419
15.908913 35.876461 0.199123
16.223633 35.876461 0.396051
16.538355 35.876461 0.000000
16.853075 35.876461 0.000000
17.167797 35.876461 0.000000
17.482517 35.876461 0.000000
17.797239 35.876461 0.000000
18.111959 35.876461 0.000000
18.426680 35.876461 0.000000
18.741402 35.876461 0.000000
-7.065720 35.561741 0.000000
-6.750999 35.561741 -0.001387
-6.436278 35.561741 -0.005247
-6.121557 35.561741 -0.005611
-5.806836 35.561741 -0.004518
-5.492115 35.561741 -0.003251
-5.177394 35.561741 -0.001744
-4.862673 35.561741 0.000044
-4.547952 35.561741 0.001955
-4.233231 35.561741 0.003317
-3.918510 35.561741 0.004214
-3.603789 35.561741 0.004129
-3.289068 35.561741 0.003718
-2.974347 35.561741 0.002734
-2.659626 35.561741 0.001362
-2.344905 35.561741 -0.000049
-2.030184 35.561741 -0.001307
-1.715463 35.561741 -0.002616
-1.400742 35.561741 -0.003660
-1.086021 35.561741 -0.004225
-0.771300 35.561741 -0.004388
-0.456579 35.561741 -0.004007
-0.141859 35.561741 -0.002861
0.172863 35.561741 -0.001638
0.487584 35.561741 -0.000589
0.802305 35.561741 0.000496
1.117026 35.561741 0.001176
1.431747 35.561741 0.001325
1.746467 35.561741 0.001051
2.061188 35.561741 0.000612
2.375909 35.561741 0.000035
2.690630 35.561741 -0.000333
3.005352 35.561741 -0.000716
3.320073 35.561741 -0.001243
3.634794 35.561741 -0.001978
3.949515 35.561741 -0.002427
4.264236 35.561741 -0.003016
4.578956 35.561741 -0.003566
4.893677 35.561741 -0.003556
5.208398 35.561741 -0.003270
5.523119 35.561741 -0.002844
5.837841 35.561741 -0.002624
6.152562 35.561741 -0.002794
6.467283 35.561741 -0.003620
6.782003 35.561741 -0.005349
7.096724 35.561741 -0.007133
7.411445 35.561741 -0.008830
7.726166 35.561741 -0.010145
8.040888 35.561741 -0.009664
8.355608 35.561741 -0.010014
8.670330 35.561741 -0.005759
8.985050 35.561741 -0.005057
9.299772 35.561741 -0.008055
9.614492 35.561741 -0.008686
9.929214 35.561741 -0.002882
10.243935 35.561741 0.003431
10.558655 35.561741 -0.014603
10.873377 35.561741 -0.021259
11.188097 35.561741 -0.043819
11.502819 35.561741 -0.038531
11.817539 35.561741 -0.026800
12.132261 35.561741 -0.008035
12.446981 35.561741 -0.004182
12.761703 35.561741 -0.007593
13.076424 35.561741 -0.009338
13.391144 35.561741 -0.000215
13.705866 35.561741 0.060258
14.020586 35.561741 0.074171
14.335308 35.561741 0.063656
14.650028 35.561741 0.071555
14.964750 35.561741 0.080311
15.279470 35.561741 0.091133
15.594193 35.561741 0.121057
15.908913 35.561741 0.191974
16.223633 35.561741 0.357064
16.538355 35.561741 0.000000
16.853075 35.561741 0.000000
17.167797 35.561741 0.000000
17.482517 35.561741 0.000000
17.797239 35.561741 0.000000
18.111959 35.561741 0.000000
18.426680 35.561741 0.000000
18.741402 35.561741 0.000000
-7.065720 35.247021 0.000000
-6.750999 35.247021 -0.001283
-6.436278 35.247021 -0.004890
-6.121557 35.247021 -0.005191
-5.806836 35.247021 -0.003871
-5.492115 35.247021 -0.002537
-5.177394 35.247021 -0.000975
-4.862673 35.247021 0.000682
-4.547952 35.247021 0.002364
-4.233231 35.247021 0.003472
-3.918510 35.247021 0.004064
-3.603789 35.247021 0.003836
-3.289068 35.247021 0.003433
-2.974347 35.247021 0.002584
-2.659626 35.247021 0.001374
-2.344905 35.247021 -0.000002
-2.030184 35.247021 -0.001325
-1.715463 35.247021 -0.002541
-1.400742 35.247021 -0.003422
-1.086021 35.247021 -0.004016
-0.771300 35.247021 -0.004139
-0.456579 35.247021 -0.003622
-0.141859 35.247021 -0.002344
0.172863 35.247021 -0.001067
0.487584 35.247021 -0.000205
0.802305 35.247021 0.000683
1.117026 35.247021 0.001195
1.431747 35.247021 0.001332
1.746467 35.247021 0.000770
2.061188 35.247021 0.000157
2.375909 35.247021 -0.000518
2.690630 35.247021 -0.001060
3.005352 35.247021 -0.001323
3.320073 35.247021 -0.001318
3.634794 35.247021 -0.001603
3.949515 35.247021 -0.001912
4.264236 35.247021 -0.002476
4.578956 35.247021 -0.002853
4.893677 35.247021 -0.002972
5.208398 35.247021 -0.002984
5.523119 35.247021 -0.002731
5.837841 35.247021 -0.002503
6.152562 35.247021 -0.002838
6.467283 35.247021 -0.003924
6.782003 35.247021 -0.005667
7.096724 35.247021 -0.007059
7.411445 35.247021 -0.008415
7.726166 35.247021 -0.009010
8.040888 35.247021 -0.009981
8.355608 35.247021 -0.009683
8.670330 35.247021 -0.003553
8.985050 35.247021 -0.009222
9.299772 35.247021 -0.009789
9.614492 35.247021 -0.013453
9.929214 35.247021 -0.004555
10.243935 35.247021 -0.006612
10.558655 35.247021 -0.009741
10.873377 35.247021 -0.024966
11.188097 35.247021 -0.043724
11.502819 35.247021 -0.030155
11.817539 35.247021 -0.023810
12.132261 35.247021 -0.006206
12.446981 35.247021 -0.026855
12.761703 35.247021 -0.030852
13.076424 35.247021 -0.016255
13.391144 35.247021 0.013842
13.705866 35.247021 0.043614
14.020586 35.247021 0.081708
14.335308 35.247021 0.070088
14.650028 35.247021 0.074573
14.964750 35.247021 0.090367
15.279470 35.247021 0.115984
15.594193 35.247021 0.137345
15.908913 35.247021 0.220311
16.223633 35.247021 0.373195
16.538355 35.247021 0.000000
16.853075 35.247021 0.000000
17.167797 35.247021 0.000000
17.482517 35.247021 0.000000
17.797239 35.247021 0.000000
18.111959 35.247021 0.000000
18.426680 35.247021 0.000000
18.741402 35.247021 0.000000
-7.065720 34.932297 0.000000
-6.750999 34.932297 -0.000595
-6.436278 34.932297 -0.004186
-6.121557 34.932297 -0.004612
-5.806836 34.932297 -0.003235
-5.492115 34.932297 -0.001809
-5.177394 34.932297 -0.000272
-4.862673 34.932297 0.001264
-4.547952 34.932297 0.002665
-4.233231 34.932297 0.003415
-3.918510 34.932297 0.003584
-3.603789 34.932297 0.003363
-3.289068 34.932297 0.003011
-2.974347 34.932297 0.002244
-2.659626 34.932297 0.001201
-2.344905 34.932297 -0.000074
-2.030184 34.932297 -0.001397
-1.715463 34.932297 -0.002446
-1.400742 34.932297 -0.003216
-1.086021 34.932297 -0.003679
-0.771300 34.932297 -0.003700
-0.456579 34.932297 -0.003169
-0.141859 34.932297 -0.001900
0.172863 34.932297 -0.000882
0.487584 34.932297 -0.000110
0.802305 34.932297 0.000526
1.117026 34.932297 0.000917
1.431747 34.932297 0.001030
1.746467 34.932297 0.000357
2.061188 34.932297 -0.000356
2.375909 34.932297 -0.001123
2.690630 34.932297 -0.001725
3.005352 34.932297 -0.001778
3.320073 34.932297 -0.001298
3.634794 34.932297 -0.001212
3.949515 34.932297 -0.001496
4.264236 34.932297 -0.001877
4.578956 34.932297 -0.001987
4.893677 34.932297 -0.002266
5.208398 34.932297 -0.002669
5.523119 34.932297 -0.002711
5.837841 34.932297 -0.002707
6.152562 34.932297 -0.003094
6.467283 34.932297 -0.004219
6.782003 34.932297 -0.005902
7.096724 34.932297 -0.007102
7.411445 34.932297 -0.007899
7.726166 34.932297 -0.007887
8.040888 34.932297 -0.008896
8.355608 34.932297 -0.007229
8.670330 34.932297 -0.006670
8.985050 34.932297 -0.005997
9.299772 34.932297 -0.010089
9.614492 34.932297 -0.016362
9.929214 34.932297 -0.009332
10.243935 34.932297 -0.004459
10.558655 34.932297 -0.018104
10.873377 34.932297 -0.015129
11.188097 34.932297 -0.037646
11.502819 34.932297 -0.033118
11.817539 34.932297 -0.029047
12.132261 34.932297 -0.020799
12.446981 34.932297 -0.019251
12.761703 34.932297 -0.026580
13.076424 34.932297 -0.026623
13.391144 34.932297 -0.000231
13.705866 34.932297 0.035474
14.020586 34.932297 0.082686
14.335308 34.932297 0.076211
14.650028 34.932297 0.066389
14.964750 34.932297 0.088694
15.279470 34.932297 0.108125
15.594193 34.932297 0.140925
15.908913 34.932297 0.241067
16.223633 34.932297 0.403210
16.538355 34.932297 0.000000
16.853075 34.932297 0.000000
17.167797 34.932297 0.000000
17.482517 34.932297 0.000000
17.797239 34.932297 0.000000
18.111959 34.932297 0.000000
18.426680 34.932297 0.000000
18.741402 34.932297 0.000000
-7.065720 34.617577 0.000000
-6.750999 34.617577 0.000181
-6.436278 34.617577 -0.003351
-6.121557 34.617577 -0.003895
-5.806836 34.617577 -0.002518
-5.492115 34.617577 -0.001038
-5.177394 34.617577 0.000468
-4.862673 34.617577 0.001743
-4.547952 34.617577 0.002844
-4.233231 34.617577 0.003108
-3.918510 34.617577 0.002902
-3.603789 34.617577 0.002787
-3.289068 34.617577 0.002604
-2.974347 34.617577 0.001801
-2.659626 34.617577 0.000841
-2.344905 34.617577 -0.000312
-2.030184 34.617577 -0.001481
-1.715463 34.617577 -0.002324
-1.400742 34.617577 -0.002919
-1.086021 34.617577 -0.003127
-0.771300 34.617577 -0.003065
-0.456579 34.617577 -0.002631
-0.141859 34.617577 -0.001614
0.172863 34.617577 -0.000829
0.487584 34.617577 -0.000284
0.802305 34.617577 0.000091
1.117026 34.617577 0.000350
1.431747 34.617577 0.000335
1.746467 34.617577 -0.000253
2.061188 34.617577 -0.000943
2.375909 34.617577 -0.001652
2.690630 34.617577 -0.002154
3.005352 34.617577 -0.001882
3.320073 34.617577 -0.001191
3.634794 34.617577 -0.000847
3.949515 34.617577 -0.001024
4.264236 34.617577 -0.001232
4.578956 34.617577 -0.001058
4.893677 34.617577 -0.001565
5.208398 34.617577 -0.002379
5.523119 34.617577 -0.002852
5.837841 34.617577 -0.003211
6.152562 34.617577 -0.003839
6.467283 34.617577 -0.005006
6.782003 34.617577 -0.006285
7.096724 34.617577 -0.007120
7.411445 34.617577 -0.007094
7.726166 34.617577 -0.006757
8.040888 34.617577 -0.007535
8.355608 34.617577 -0.007096
8.670330 34.617577 -0.005228
8.985050 34.617577 -0.003796
9.299772 34.617577 -0.010920
9.614492 34.617577 -0.011788
9.929214 34.617577 -0.007162
10.243935 34.617577 -0.006512
10.558655 34.617577 -0.013605
10.873377 34.617577 -0.013384
11.188097 34.617577 -0.027591
11.502819 34.617577 -0.029343
11.817539 34.617577 -0.024757
12.132261 34.617577 -0.018958
12.446981 34.617577 -0.027858
12.761703 34.617577 -0.029063
13.076424 34.617577 -0.015210
13.391144 34.617577 0.009674
13.705866 34.617577 0.048082
14.020586 34.617577 0.084974
14.335308 34.617577 0.080427
14.650028 34.617577 0.084915
14.964750 34.617577 0.092609
15.279470 34.617577 0.111361
15.594193 34.617577 0.143217
15.908913 34.617577 0.225924
16.223633 34.617577 0.316905
16.538355 34.617577 0.000000
16.853075 34.617577 0.000000
17.167797 34.617577 0.000000
17.482517 34.617577 0.000000
17.797239 34.617577 0.000000
18.111959 34.617577 0.000000
18.426680 34.617577 0.000000
18.741402 34.617577 0.000000
-7.065720 34.302856 0.000000
-6.750999 34.302856 0.001178
-6.436278 34.302856 -0.002294
-6.121557 34.302856 -0.002914
-5.806836 34.302856 -0.001627
-5.492115 34.302856 -0.000211
-5.177394 34.302856 0.001196
-4.862673 34.302856 0.002226
-4.547952 34.302856 0.002895
-4.233231 34.302856 0.002696
-3.918510 34.302856 0.002201
-3.603789 34.302856 0.002160
-3.289068 34.302856 0.002012
-2.974347 34.302856 0.001187
-2.659626 34.302856 0.000280
-2.344905 34.302856 -0.000723
-2.030184 34.302856 -0.001594
-1.715463 34.302856 -0.002209
-1.400742 34.302856 -0.002548
-1.086021 34.302856 -0.002489
-0.771300 34.302856 -0.002327
-0.456579 34.302856 -0.002040
-0.141859 34.302856 -0.001362
0.172863 34.302856 -0.000796
0.487584 34.302856 -0.000604
0.802305 34.302856 -0.000443
1.117026 34.302856 -0.000435
1.431747 34.302856 -0.000507
1.746467 34.302856 -0.000950
2.061188 34.302856 -0.001548
2.375909 34.302856 -0.002077
2.690630 34.302856 -0.002333
3.005352 34.302856 -0.001716
3.320073 34.302856 -0.000981
3.634794 34.302856 -0.000621
3.949515 34.302856 -0.000595
4.264236 34.302856 -0.000553
4.578956 34.302856 -0.000370
4.893677 34.302856 -0.001115
5.208398 34.302856 -0.002320
5.523119 34.302856 -0.003285
5.837841 34.302856 -0.004066
6.152562 34.302856 -0.004740
6.467283 34.302856 -0.006194
6.782003 34.302856 -0.007396
7.096724 34.302856 -0.007659
7.411445 34.302856 -0.006980
7.726166 34.302856 -0.007187
8.040888 34.302856 -0.007497
8.355608 34.302856 -0.006565
8.670330 34.302856 -0.003017
8.985050 34.302856 -0.003390
9.299772 34.302856 -0.008024
9.614492 34.302856 -0.003744
9.929214 34.302856 -0.005887
10.243935 34.302856 -0.000155
10.558655 34.302856 -0.019374
10.873377 34.302856 -0.018118
11.188097 34.302856 -0.018388
11.502819 34.302856 -0.014662
11.817539 34.302856 -0.023855
12.132261 34.302856 -0.004694
12.446981 34.302856 -0.011551
12.761703 34.302856 -0.004055
13.076424 34.302856 -0.005177
13.391144 34.302856 0.014005
13.705866 34.302856 0.062918
14.020586 34.302856 0.082787
14.335308 34.302856 0.067632
14.650028 34.302856 0.082292
14.964750 34.302856 0.082956
15.279470 34.302856 0.105081
15.594193 34.302856 0.142413
15.908913 34.302856 0.222170
16.223633 34.302856 0.386900
16.538355 34.302856 0.000000
16.853075 34.302856 0.000000
17.167797 34.302856 0.000000
17.482517 34.302856 0.000000
17.797239 34.302856 0.000000
18.111959 34.302856 0.000000
18.426680 34.302856 0.000000
18.741402 34.302856 0.000000
-7.065720 33.988136 0.000000
-6.750999 33.988136 0.002187
-6.436278 33.988136 -0.001259
-6.121557 33.988136 -0.001850
-5.806836 33.988136 -0.000755
-5.492115 33.988136 0.000516
-5.177394 33.988136 0.001752
-4.862673 33.988136 0.002503
-4.547952 33.988136 0.002794
-4.233231 33.988136 0.002253
-3.918510 33.988136 0.001578
-3.603789 33.988136 0.001468
-3.289068 33.988136 0.001273
-2.974347 33.988136 0.000477
-2.659626 33.988136 -0.000403
-2.344905 33.988136 -0.001125
-2.030184 33.988136 -0.001634
-1.715463 33.988136 -0.001972
-1.400742 33.988136 -0.002048
-1.086021 33.988136 -0.001822
-0.771300 33.988136 -0.001590
-0.456579 33.988136 -0.001486
-0.141859 33.988136 -0.001182
0.172863 33.988136 -0.000948
0.487584 33.988136 -0.001073
0.802305 33.988136 -0.001163
1.117026 33.988136 -0.001306
1.431747 33.988136 -0.001356
1.746467 33.988136 -0.001667
2.061188 33.988136 -0.002002
2.375909 33.988136 -0.002228
2.690630 33.988136 -0.002146
3.005352 33.988136 -0.001327
3.320073 33.988136 -0.000635
3.634794 33.988136 -0.000315
3.949515 33.988136 -0.000133
4.264236 33.988136 -0.000125
4.578956 33.988136 -0.000123
4.893677 33.988136 -0.001064
5.208398 33.988136 -0.002546
5.523119 33.988136 -0.004005
5.837841 33.988136 -0.005153
6.152562 33.988136 -0.005959
6.467283 33.988136 -0.007048
6.782003 33.988136 -0.008585
7.096724 33.988136 -0.008114
7.411445 33.988136 -0.007483
7.726166 33.988136 -0.006752
8.040888 33.988136 -0.006955
8.355608 33.988136 -0.007611
8.670330 33.988136 -0.007920
8.985050 33.988136 -0.006537
9.299772 33.988136 -0.011450
9.614492 33.988136 -0.001444
9.929214 33.988136 -0.003210
10.243935 33.988136 -0.004271
10.558655 33.988136 -0.021585
10.873377 33.988136 -0.021873
11.188097 33.988136 -0.024626
11.502819 33.988136 -0.020164
11.817539 33.988136 -0.026365
12.132261 33.988136 -0.001460
12.446981 33.988136 -0.014073
12.761703 33.988136 -0.018278
13.076424 33.988136 0.018068
13.391144 33.988136 0.045080
13.705866 33.988136 0.068139
14.020586 33.988136 0.088682
14.335308 33.988136 0.054761
14.650028 33.988136 0.094497
14.964750 33.988136 0.086290
15.279470 33.988136 0.115088
15.594193 33.988136 0.163023
15.908913 33.988136 0.217088
16.223633 33.988136 0.378871
16.538355 33.988136 0.000000
16.853075 33.988136 0.000000
17.167797 33.988136 0.000000
17.482517 33.988136 0.000000
17.797239 33.988136 0.000000
18.111959 33.988136 0.000000
18.426680 33.988136 0.000000
18.741402 33.988136 0.000000
-7.065720 33.673416 0.000000
-6.750999 33.673416 0.002966
-6.436278 33.673416 -0.000465
-6.121557 33.673416 -0.001036
-5.806836 33.673416 -0.000033
-5.492115 33.673416 0.000948
-5.177394 33.673416 0.001951
-4.862673 33.673416 0.002477
-4.547952 33.673416 0.002416
-4.233231 33.673416 0.001719
-3.918510 33.673416 0.001052
-3.603789 33.673416 0.000835
-3.289068 33.673416 0.000446
-2.974347 33.673416 -0.000367
-2.659626 33.673416 -0.001107
-2.344905 33.673416 -0.001439
-2.030184 33.673416 -0.001531
-1.715463 33.673416 -0.001632
-1.400742 33.673416 -0.001502
-1.086021 33.673416 -0.001179
-0.771300 33.673416 -0.000980
-0.456579 33.673416 -0.001119
-0.141859 33.673416 -0.001119
0.172863 33.673416 -0.001307
0.487584 33.673416 -0.001724
0.802305 33.673416 -0.002071
1.117026 33.673416 -0.002205
1.431747 33.673416 -0.002167
1.746467 33.673416 -0.002226
2.061188 33.673416 -0.002212
2.375909 33.673416 -0.002007
2.690630 33.673416 -0.001573
3.005352 33.673416 -0.000718
3.320073 33.673416 -0.000145
3.634794 33.673416 0.000114
3.949515 33.673416 0.000181
4.264236 33.673416 0.000033
4.578956 33.673416 -0.000318
4.893677 33.673416 -0.001441
5.208398 33.673416 -0.003117
5.523119 33.673416 -0.004871
5.837841 33.673416 -0.006208
6.152562 33.673416 -0.006910
6.467283 33.673416 -0.007700
6.782003 33.673416 -0.008174
7.096724 33.673416 -0.007837
7.411445 33.673416 -0.007276
7.726166 33.673416 -0.006310
8.040888 33.673416 -0.007132
8.355608 33.673416 -0.008252
8.670330 33.673416 -0.008368
8.985050 33.673416 -0.009968
9.299772 33.673416 -0.010219
9.614492 33.673416 -0.004953
9.929214 33.673416 0.003007
10.243935 33.673416 -0.001811
10.558655 33.673416 -0.015072
10.873377 33.673416 -0.018537
11.188097 33.673416 -0.018757
11.502819 33.673416 -0.020470
11.817539 33.673416 -0.015136
12.132261 33.673416 0.011834
12.446981 33.673416 0.005101
12.761703 33.673416 -0.007498
13.076424 33.673416 0.012495
13.391144 33.673416 0.049539
13.705866 33.673416 0.064448
14.020586 33.673416 0.088307
14.335308 33.673416 0.075434
14.650028 33.673416 0.076715
14.964750 33.673416 0.080450
15.279470 33.673416 0.110377
15.594193 33.673416 0.166157
15.908913 33.673416 0.220708
16.223633 33.673416 0.318988
16.538355 33.673416 0.000000
16.853075 33.673416 0.000000
17.167797 33.673416 0.000000
17.482517 33.673416 0.000000
17.797239 33.673416 0.000000
18.111959 33.673416 0.000000
18.426680 33.673416 0.000000
18.741402 33.673416 0.000000
-7.065720 33.358696 0.000000
-6.750999 33.358696 0.003377
-6.436278 33.358696 0.000139
-6.121557 33.358696 -0.000433
-5.806836 33.358696 0.000500
-5.492115 33.358696 0.001180
-5.177394 33.358696 0.001839
-4.862673 33.358696 0.002139
-4.547952 33.358696 0.001879
-4.233231 33.358696 0.001211
-3.918510 33.358696 0.000569
-3.603789 33.358696 0.000227
-3.289068 33.358696 -0.000251
-2.974347 33.358696 -0.001056
-2.659626 33.358696 -0.001622
-2.344905 33.358696 -0.001566
-2.030184 33.358696 -0.001230
-1.715463 33.358696 -0.001092
-1.400742 33.358696 -0.000903
-1.086021 33.358696 -0.000745
-0.771300 33.358696 -0.000614
-0.456579 33.358696 -0.000962
-0.141859 33.358696 -0.001355
0.172863 33.358696 -0.001793
0.487584 33.358696 -0.002498
0.802305 33.358696 -0.002960
1.117026 33.358696 -0.003062
1.431747 33.358696 -0.002698
1.746467 33.358696 -0.002342
2.061188 33.358696 -0.001940
2.375909 33.358696 -0.001360
2.690630 33.358696 -0.000688
3.005352 33.358696 0.000066
3.320073 33.358696 0.000475
3.634794 33.358696 0.000477
3.949515 33.358696 0.000280
4.264236 33.358696 -0.000166
4.578956 33.358696 -0.000934
4.893677 33.358696 -0.002229
5.208398 33.358696 -0.003858
5.523119 33.358696 -0.005727
5.837841 33.358696 -0.007096
6.152562 33.358696 -0.007619
6.467283 33.358696 -0.007767
6.782003 33.358696 -0.007441
7.096724 33.358696 -0.006855
7.411445 33.358696 -0.007242
7.726166 33.358696 -0.006220
8.040888 33.358696 -0.007149
8.355608 33.358696 -0.008964
8.670330 33.358696 -0.009818
8.985050 33.358696 -0.011331
9.299772 33.358696 -0.015270
9.614492 33.358696 -0.008497
9.929214 33.358696 -0.013322
10.243935 33.358696 -0.004886
10.558655 33.358696 -0.002191
10.873377 33.358696 -0.005132
11.188097 33.358696 -0.017773
11.502819 33.358696 -0.007275
11.817539 33.358696 -0.016437
12.132261 33.358696 0.003992
12.446981 33.358696 0.021597
12.761703 33.358696 0.022564
13.076424 33.358696 0.026991
13.391144 33.358696 0.043251
13.705866 33.358696 0.055344
14.020586 33.358696 0.092160
14.335308 33.358696 0.078225
14.650028 33.358696 0.085349
14.964750 33.358696 0.087593
15.279470 33.358696 0.096957
15.594193 33.358696 0.149212
15.908913 33.358696 0.205727
16.223633 33.358696 0.206800
16.538355 33.358696 0.000000
16.853075 33.358696 0.000000
17.167797 33.358696 0.000000
17.482517 33.358696 0.000000
17.797239 33.358696 0.000000
18.111959 33.358696 0.000000
18.426680 33.358696 0.000000
18.741402 33.358696 0.000000
-7.065720 33.043972 0.000000
-6.750999 33.043972 0.003516
-6.436278 33.043972 0.000409
-6.121557 33.043972 -0.000058
-5.806836 33.043972 0.000756
-5.492115 33.043972 0.001150
-5.177394 33.043972 0.001501
-4.862673 33.043972 0.001587
-4.547952 33.043972 0.001221
-4.233231 33.043972 0.000610
-3.918510 33.043972 0.000136
-3.603789 33.043972 -0.000203
-3.289068 33.043972 -0.000705
-2.974347 33.043972 -0.001381
-2.659626 33.043972 -0.001834
-2.344905 33.043972 -0.001387
-2.030184 33.043972 -0.000788
-1.715463 33.043972 -0.000412
-1.400742 33.043972 -0.000387
-1.086021 33.043972 -0.000397
-0.771300 33.043972 -0.000486
-0.456579 33.043972 -0.001059
-0.141859 33.043972 -0.001756
0.172863 33.043972 -0.002522
0.487584 33.043972 -0.003313
0.802305 33.043972 -0.003677
1.117026 33.043972 -0.003515
1.431747 33.043972 -0.002817
1.746467 33.043972 -0.002084
2.061188 33.043972 -0.001275
2.375909 33.043972 -0.000333
2.690630 33.043972 0.000500
3.005352 33.043972 0.000910
3.320073 33.043972 0.000928
3.634794 33.043972 0.000692
3.949515 33.043972 0.000099
4.264236 33.043972 -0.000796
4.578956 33.043972 -0.001981
4.893677 33.043972 -0.003296
5.208398 33.043972 -0.004787
5.523119 33.043972 -0.006521
5.837841 33.043972 -0.007620
6.152562 33.043972 -0.007870
6.467283 33.043972 -0.007426
6.782003 33.043972 -0.006334
7.096724 33.043972 -0.005329
7.411445 33.043972 -0.005314
7.726166 33.043972 -0.004322
8.040888 33.043972 -0.004034
8.355608 33.043972 -0.005382
8.670330 33.043972 -0.006163
8.985050 33.043972 -0.007236
9.299772 33.043972 -0.014635
9.614492 33.043972 -0.009480
9.929214 33.043972 -0.014357
10.243935 33.043972 -0.012697
10.558655 33.043972 -0.000066
10.873377 33.043972 0.000835
11.188097 33.043972 -0.005056
11.502819 33.043972 -0.005794
11.817539 33.043972 -0.006176
12.132261 33.043972 0.013002
12.446981 33.043972 0.044213
12.761703 33.043972 0.055686
13.076424 33.043972 0.047644
13.391144 33.043972 0.049469
13.705866 33.043972 0.059741
14.020586 33.043972 0.071908
14.335308 33.043972 0.092182
14.650028 33.043972 0.074979
14.964750 33.043972 0.070381
15.279470 33.043972 0.084009
15.594193 33.043972 0.139258
15.908913 33.043972 0.193002
16.223633 33.043972 0.240037
16.538355 33.043972 0.000000
16.853075 33.043972 0.000000
17.167797 33.043972 0.000000
17.482517 33.043972 0.000000
17.797239 33.043972 0.000000
18.111959 33.043972 0.000000
18.426680 33.043972 0.000000
18.741402 33.043972 0.000000
-7.065720 32.729252 0.000000
-6.750999 32.729252 0.003582
-6.436278 32.729252 0.000670
-6.121557 32.729252 0.000162
-5.806836 32.729252 0.000754
-5.492115 32.729252 0.000896
-5.177394 32.729252 0.001062
-4.862673 32.729252 0.000902
-4.547952 32.729252 0.000420
-4.233231 32.729252 -0.000049
-3.918510 32.729252 -0.000208
-3.603789 32.729252 -0.000338
-3.289068 32.729252 -0.000758
-2.974347 32.729252 -0.001315
-2.659626 32.729252 -0.001589
-2.344905 32.729252 -0.001021
-2.030184 32.729252 -0.000240
-1.715463 32.729252 0.000102
-1.400742 32.729252 -0.000072
-1.086021 32.729252 -0.000355
-0.771300 32.729252 -0.000693
-0.456579 32.729252 -0.001459
-0.141859 32.729252 -0.002316
0.172863 32.729252 -0.003279
0.487584 32.729252 -0.004004
0.802305 32.729252 -0.004160
1.117026 32.729252 -0.003606
1.431747 32.729252 -0.002541
1.746467 32.729252 -0.001469
2.061188 32.729252 -0.000381
2.375909 32.729252 0.000899
2.690630 32.729252 0.001802
3.005352 32.729252 0.001706
3.320073 32.729252 0.001292
3.634794 32.729252 0.000646
3.949515 32.729252 -0.000419
4.264236 32.729252 -0.001765
4.578956 32.729252 -0.003196
4.893677 32.729252 -0.004549
5.208398 32.729252 -0.005957
5.523119 32.729252 -0.007187
5.837841 32.729252 -0.007787
6.152562 32.729252 -0.007417
6.467283 32.729252 -0.006184
6.782003 32.729252 -0.004839
7.096724 32.729252 -0.003798
7.411445 32.729252 -0.002744
7.726166 32.729252 -0.003125
8.040888 32.729252 -0.004578
8.355608 32.729252 -0.006956
8.670330 32.729252 -0.009724
8.985050 32.729252 -0.009135
9.299772 32.729252 -0.009164
9.614492 32.729252 -0.006730
9.929214 32.729252 -0.019169
10.243935 32.729252 -0.015161
10.558655 32.729252 -0.014707
10.873377 32.729252 -0.000040
11.188097 32.729252 0.000637
11.502819 32.729252 -0.006641
11.817539 32.729252 -0.018955
12.132261 32.729252 0.009591
12.446981 32.729252 0.039896
12.761703 32.729252 0.057142
13.076424 32.729252 0.049484
13.391144 32.729252 0.063556
13.705866 32.729252 0.068588
14.020586 32.729252 0.075583
14.335308 32.729252 0.091066
14.650028 32.729252 0.089590
14.964750 32.729252 0.066602
15.279470 32.729252 0.099790
15.594193 32.729252 0.146703
15.908913 32.729252 0.180163
16.223633 32.729252 0.166540
16.538355 32.729252 0.000000
16.853075 32.729252 0.000000
17.167797 32.729252 0.000000
17.482517 32.729252 0.000000
17.797239 32.729252 0.000000
18.111959 32.729252 0.000000
18.426680 32.729252 0.000000
18.741402 32.729252 0.000000
-7.065720 32.414532 0.000000
-6.750999 32.414532 0.003638
-6.436278 32.414532 0.000826
-6.121557 32.414532 0.000211
-5.806836 32.414532 0.000499
-5.492115 32.414532 0.000461
-5.177394 32.414532 0.000529
-4.862673 32.414532 0.000255
-4.547952 32.414532 -0.000368
-4.233231 32.414532 -0.000476
-3.918510 32.414532 -0.000183
-3.603789 32.414532 -0.000122
-3.289068 32.414532 -0.000409
-2.974347 32.414532 -0.000906
-2.659626 32.414532 -0.001018
-2.344905 32.414532 -0.000424
-2.030184 32.414532 0.000267
-1.715463 32.414532 0.000418
-1.400742 32.414532 -0.000036
-1.086021 32.414532 -0.000648
-0.771300 32.414532 -0.001340
-0.456579 32.414532 -0.002151
-0.141859 32.414532 -0.003007
0.172863 32.414532 -0.003812
0.487584 32.414532 -0.004211
0.802305 32.414532 -0.004027
1.117026 32.414532 -0.003097
1.431747 32.414532 -0.001716
1.746467 32.414532 -0.000479
2.061188 32.414532 0.000756
2.375909 32.414532 0.002097
2.690630 32.414532 0.002763
3.005352 32.414532 0.002204
3.320073 32.414532 0.001338
3.634794 32.414532 0.000339
3.949515 32.414532 -0.001218
4.264236 32.414532 -0.002978
4.578956 32.414532 -0.004528
4.893677 32.414532 -0.005760
5.208398 32.414532 -0.006823
5.523119 32.414532 -0.007435
5.837841 32.414532 -0.007262
6.152562 32.414532 -0.006276
6.467283 32.414532 -0.004284
6.782003 32.414532 -0.002923
7.096724 32.414532 -0.001917
7.411445 32.414532 -0.000382
7.726166 32.414532 -0.001838
8.040888 32.414532 -0.003146
8.355608 32.414532 -0.008570
8.670330 32.414532 -0.012165
8.985050 32.414532 -0.012362
9.299772 32.414532 -0.008948
9.614492 32.414532 -0.011881
9.929214 32.414532 -0.010091
10.243935 32.414532 -0.010471
10.558655 32.414532 -0.009628
10.873377 32.414532 -0.011607
11.188097 32.414532 -0.000248
11.502819 32.414532 -0.028743
11.817539 32.414532 -0.034160
12.132261 32.414532 0.021496
12.446981 32.414532 0.052144
12.761703 32.414532 0.072418
13.076424 32.414532 0.052816
13.391144 32.414532 0.061384
13.705866 32.414532 0.078207
14.020586 32.414532 0.109043
14.335308 32.414532 0.119530
14.650028 32.414532 0.096704
14.964750 32.414532 0.072908
15.279470 32.414532 0.104388
15.594193 32.414532 0.128856
15.908913 32.414532 0.184239
16.223633 32.414532 0.153092
16.538355 32.414532 0.000000
16.853075 32.414532 0.000000
17.167797 32.414532 0.000000
17.482517 32.414532 0.000000
17.797239 32.414532 0.000000
18.111959 32.414532 0.000000
18.426680 32.414532 0.000000
18.741402 32.414532 0.000000
-7.065720 32.099808 0.000000
-6.750999 32.099808 0.003535
-6.436278 32.099808 0.000834
-6.121557 32.099808 0.000028
-5.806836 32.099808 0.000046
-5.492115 32.099808 -0.000115
-5.177394 32.099808 -0.000040
-4.862673 32.099808 -0.000209
-4.547952 32.099808 -0.000683
-4.233231 32.099808 -0.000452
-3.918510 32.099808 0.000126
-3.603789 32.099808 0.000296
-3.289068 32.099808 0.000263
-2.974347 32.099808 -0.000072
-2.659626 32.099808 -0.000128
-2.344905 32.099808 0.000317
-2.030184 32.099808 0.000586
-1.715463 32.099808 0.000312
-1.400742 32.099808 -0.000491
-1.086021 32.099808 -0.001339
-0.771300 32.099808 -0.002273
-0.456579 32.099808 -0.003025
-0.141859 32.099808 -0.003660
0.172863 32.099808 -0.004000
0.487584 32.099808 -0.003906
0.802305 32.099808 -0.003254
1.117026 32.099808 -0.001952
1.431747 32.099808 -0.000432
1.746467 32.099808 0.000735
2.061188 32.099808 0.001844
2.375909 32.099808 0.002897
2.690630 32.099808 0.003173
3.005352 32.099808 0.002163
3.320073 32.099808 0.000848
3.634794 32.099808 -0.000548
3.949515 32.099808 -0.002312
4.264236 32.099808 -0.004349
4.578956 32.099808 -0.005786
4.893677 32.099808 -0.006665
5.208398 32.099808 -0.007196
5.523119 32.099808 -0.006925
5.837841 32.099808 -0.005981
6.152562 32.099808 -0.004303
6.467283 32.099808 -0.002340
6.782003 32.099808 -0.000496
7.096724 32.099808 -0.000151
7.411445 32.099808 0.000441
7.726166 32.099808 -0.001926
8.040888 32.099808 -0.005116
8.355608 32.099808 -0.010029
8.670330 32.099808 -0.017635
8.985050 32.099808 -0.019599
9.299772 32.099808 -0.014132
9.614492 32.099808 -0.006115
9.929214 32.099808 -0.006346
10.243935 32.099808 -0.006555
10.558655 32.099808 -0.010787
10.873377 32.099808 -0.005599
11.188097 32.099808 0.000061
11.502819 32.099808 -0.010886
11.817539 32.099808 -0.024203
12.132261 32.099808 0.004852
12.446981 32.099808 0.050841
12.761703 32.099808 0.053423
13.076424 32.099808 0.052148
13.391144 32.099808 0.061377
13.705866 32.099808 0.100208
14.020586 32.099808 0.106626
14.335308 32.099808 0.127565
14.650028 32.099808 0.102660
14.964750 32.099808 0.097693
15.279470 32.099808 0.100096
15.594193 32.099808 0.148438
15.908913 32.099808 0.150510
16.223633 32.099808 0.163241
16.538355 32.099808 0.000000
16.853075 32.099808 0.000000
17.167797 32.099808 0.000000
17.482517 32.099808 0.000000
17.797239 32.099808 0.000000
18.111959 32.099808 0.000000
18.426680 32.099808 0.000000
18.741402 32.099808 0.000000
-7.065720 31.785089 0.000000
-6.750999 31.785089 0.003502
-6.436278 31.785089 0.000651
-6.121557 31.785089 -0.000309
-5.806836 31.785089 -0.000374
-5.492115 31.785089 -0.000566
-5.177394 31.785089 -0.000526
-4.862673 31.785089 -0.000541
-4.547952 31.785089 -0.000639
-4.233231 31.785089 -0.000083
-3.918510 31.785089 0.000498
-3.603789 31.785089 0.000835
-3.289068 31.785089 0.001056
-2.974347 31.785089 0.000958
-2.659626 31.785089 0.000869
-2.344905 31.785089 0.000889
-2.030184 31.785089 0.000594
-1.715463 31.785089 -0.000263
-1.400742 31.785089 -0.001380
-1.086021 31.785089 -0.002415
-0.771300 31.785089 -0.003366
-0.456579 31.785089 -0.003866
-0.141859 31.785089 -0.004049
0.172863 31.785089 -0.003692
0.487584 31.785089 -0.002951
0.802305 31.785089 -0.001859
1.117026 31.785089 -0.000422
1.431747 31.785089 0.000982
1.746467 31.785089 0.001876
2.061188 31.785089 0.002646
2.375909 31.785089 0.003154
2.690630 31.785089 0.002829
3.005352 31.785089 0.001400
3.320073 31.785089 -0.000255
3.634794 31.785089 -0.001990
3.949515 31.785089 -0.003882
4.264236 31.785089 -0.005726
4.578956 31.785089 -0.006728
4.893677 31.785089 -0.007091
5.208398 31.785089 -0.006914
5.523119 31.785089 -0.005846
5.837841 31.785089 -0.004071
6.152562 31.785089 -0.002046
6.467283 31.785089 0.000081
6.782003 31.785089 0.001054
7.096724 31.785089 0.001466
7.411445 31.785089 0.000086
7.726166 31.785089 -0.001529
8.040888 31.785089 -0.007694
8.355608 31.785089 -0.013072
8.670330 31.785089 -0.021266
8.985050 31.785089 -0.026114
9.299772 31.785089 -0.022904
9.614492 31.785089 -0.007889
9.929214 31.785089 -0.005054
10.243935 31.785089 -0.008378
10.558655 31.785089 -0.023634
10.873377 31.785089 -0.018295
11.188097 31.785089 -0.019186
11.502819 31.785089 -0.006970
11.817539 31.785089 -0.018999
12.132261 31.785089 -0.014365
12.446981 31.785089 0.022155
12.761703 31.785089 0.037845
13.076424 31.785089 0.032208
13.391144 31.785089 0.054077
13.705866 31.785089 0.091692
14.020586 31.785089 0.100434
14.335308 31.785089 0.111744
14.650028 31.785089 0.105389
14.964750 31.785089 0.119248
15.279470 31.785089 0.128769
15.594193 31.785089 0.175398
15.908913 31.785089 0.186419
16.223633 31.785089 0.198194
16.538355 31.785089 0.000000
16.853075 31.785089 0.000000
17.167797 31.785089 0.000000
17.482517 31.785089 0.000000
17.797239 31.785089 0.000000
18.111959 31.785089 0.000000
18.426680 31.785089 0.000000
18.741402 31.785089 0.000000
-7.065720 31.470367 0.000000
-6.750999 31.470367 0.003435
-6.436278 31.470367 0.000197
-6.121557 31.470367 -0.000803
-5.806836 31.470367 -0.000756
-5.492115 31.470367 -0.000959
-5.177394 31.470367 -0.000842
-4.862673 31.470367 -0.000629
-4.547952 31.470367 -0.000191
-4.233231 31.470367 0.000734
-3.918510 31.470367 0.001264
-3.603789 31.470367 0.001539
-3.289068 31.470367 0.001892
-2.974347 31.470367 0.001871
-2.659626 31.470367 0.001580
-2.344905 31.470367 0.001120
-2.030184 31.470367 0.000200
-1.715463 31.470367 -0.001181
-1.400742 31.470367 -0.002561
-1.086021 31.470367 -0.003647
-0.771300 31.470367 -0.004464
-0.456579 31.470367 -0.004404
-0.141859 31.470367 -0.003864
0.172863 31.470367 -0.002822
0.487584 31.470367 -0.001440
0.802305 31.470367 -0.000019
1.117026 31.470367 0.001477
1.431747 31.470367 0.002526
1.746467 31.470367 0.002959
2.061188 31.470367 0.003107
2.375909 31.470367 0.002765
2.690630 31.470367 0.001692
3.005352 31.470367 -0.000052
3.320073 31.470367 -0.001975
3.634794 31.470367 -0.003787
3.949515 31.470367 -0.005523
4.264236 31.470367 -0.006844
4.578956 31.470367 -0.007183
4.893677 31.470367 -0.006788
5.208398 31.470367 -0.005776
5.523119 31.470367 -0.003917
5.837841 31.470367 -0.001814
6.152562 31.470367 0.000294
6.467283 31.470367 0.002009
6.782003 31.470367 0.002804
7.096724 31.470367 0.001218
7.411445 31.470367 -0.001186
7.726166 31.470367 -0.003277
8.040888 31.470367 -0.007629
8.355608 31.470367 -0.016693
8.670330 31.470367 -0.024032
8.985050 31.470367 -0.022400
9.299772 31.470367 -0.018547
9.614492 31.470367 -0.014746
9.929214 31.470367 -0.013376
10.243935 31.470367 -0.020452
10.558655 31.470367 -0.022437
10.873377 31.470367 -0.018454
11.188097 31.470367 -0.028840
11.502819 31.470367 -0.019753
11.817539 31.470367 -0.020458
12.132261 31.470367 -0.026193
12.446981 31.470367 0.009659
12.761703 31.470367 0.014945
13.076424 31.470367 0.031347
13.391144 31.470367 0.069597
13.705866 31.470367 0.076969
14.020586 31.470367 0.099448
14.335308 31.470367 0.101860
14.650028 31.470367 0.107016
14.964750 31.470367 0.117829
15.279470 31.470367 0.147177
15.594193 31.470367 0.178282
15.908913 31.470367 0.198037
16.223633 31.470367 0.222344
16.538355 31.470367 0.000000
16.853075 31.470367 0.000000
17.167797 31.470367 0.000000
17.482517 31.470367 0.000000
17.797239 31.470367 0.000000
18.111959 31.470367 0.000000
18.426680 31.470367 0.000000
18.741402 31.470367 0.000000
-7.065720 31.155647 0.000000
-6.750999 31.155647 0.003362
-6.436278 31.155647 -0.000222
-6.121557 31.155647 -0.001244
-5.806836 31.155647 -0.000974
-5.492115 31.155647 -0.000986
-5.177394 31.155647 -0.000742
-4.862673 31.155647 -0.000250
-4.547952 31.155647 0.000679
-4.233231 31.155647 0.001679
-3.918510 31.155647 0.001946
-3.603789 31.155647 0.002133
-3.289068 31.155647 0.002612
-2.974347 31.155647 0.002540
-2.659626 31.155647 0.001850
-2.344905 31.155647 0.000688
-2.030184 31.155647 -0.000701
-1.715463 31.155647 -0.002423
-1.400742 31.155647 -0.003863
-1.086021 31.155647 -0.004763
-0.771300 31.155647 -0.005068
-0.456579 31.155647 -0.004306
-0.141859 31.155647 -0.003060
0.172863 31.155647 -0.001465
0.487584 31.155647 0.000374
0.802305 31.155647 0.001964
1.117026 31.155647 0.003252
1.431747 31.155647 0.003867
1.746467 31.155647 0.003692
2.061188 31.155647 0.002980
2.375909 31.155647 0.001621
2.690630 31.155647 -0.000203
3.005352 31.155647 -0.002104
3.320073 31.155647 -0.004035
3.634794 31.155647 -0.005615
3.949515 31.155647 -0.006881
4.264236 31.155647 -0.007277
4.578956 31.155647 -0.006772
4.893677 31.155647 -0.005636
5.208398 31.155647 -0.003914
5.523119 31.155647 -0.001534
5.837841 31.155647 0.000636
6.152562 31.155647 0.002223
6.467283 31.155647 0.003319
6.782003 31.155647 0.002780
7.096724 31.155647 0.000794
7.411445 31.155647 -0.002934
7.726166 31.155647 -0.005255
8.040888 31.155647 -0.008366
8.355608 31.155647 -0.014470
8.670330 31.155647 -0.020312
8.985050 31.155647 -0.021546
9.299772 31.155647 -0.010211
9.614492 31.155647 -0.009243
9.929214 31.155647 -0.019470
10.243935 31.155647 -0.022132
10.558655 31.155647 -0.018777
10.873377 31.155647 -0.024310
11.188097 31.155647 -0.017206
11.502819 31.155647 -0.022478
11.817539 31.155647 -0.034793
12.132261 31.155647 -0.016574
12.446981 31.155647 0.013836
12.761703 31.155647 0.025764
13.076424 31.155647 0.061047
13.391144 31.155647 0.050953
13.705866 31.155647 0.091612
14.020586 31.155647 0.095251
14.335308 31.155647 0.101469
14.650028 31.155647 0.119230
14.964750 31.155647 0.100157
15.279470 31.155647 0.158597
15.594193 31.155647 0.194184
15.908913 31.155647 0.211316
16.223633 31.155647 0.528721
16.538355 31.155647 0.000000
16.853075 31.155647 0.000000
17.167797 31.155647 0.000000
17.482517 31.155647 0.000000
17.797239 31.155647 0.000000
18.111959 31.155647 0.000000
18.426680 31.155647 0.000000
18.741402 31.155647 0.000000
-7.065720 30.840927 0.000000
-6.750999 30.840927 0.003466
-6.436278 30.840927 -0.000513
-6.121557 30.840927 -0.001510
-5.806836 30.840927 -0.000925
-5.492115 30.840927 -0.000556
-5.177394 30.840927 -0.000186
-4.862673 30.840927 0.000512
-4.547952 30.840927 0.001626
-4.233231 30.840927 0.002450
-3.918510 30.840927 0.002507
-3.603789 30.840927 0.002607
-3.289068 30.840927 0.002882
-2.974347 30.840927 0.002545
-2.659626 30.840927 0.001410
-2.344905 30.840927 -0.000200
-2.030184 30.840927 -0.001893
-1.715463 30.840927 -0.003717
-1.400742 30.840927 -0.005035
-1.086021 30.840927 -0.005358
-0.771300 30.840927 -0.004889
-0.456579 30.840927 -0.003438
-0.141859 30.840927 -0.001622
0.172863 30.840927 0.000282
0.487584 30.840927 0.002236
0.802305 30.840927 0.003705
1.117026 30.840927 0.004541
1.431747 30.840927 0.004535
1.746467 30.840927 0.003626
2.061188 30.840927 0.002101
2.375909 30.840927 -0.000160
2.690630 30.840927 -0.002538
3.005352 30.840927 -0.004394
3.320073 30.840927 -0.005971
3.634794 30.840927 -0.006997
3.949515 30.840927 -0.007496
4.264236 30.840927 -0.006890
4.578956 30.840927 -0.005460
4.893677 30.840927 -0.003611
5.208398 30.840927 -0.001410
5.523119 30.840927 0.000942
5.837841 30.840927 0.002624
6.152562 30.840927 0.003347
6.467283 30.840927 0.003340
6.782003 30.840927 0.001634
7.096724 30.840927 -0.001256
7.411445 30.840927 -0.004395
7.726166 30.840927 -0.006780
8.040888 30.840927 -0.009504
8.355608 30.840927 -0.011857
8.670330 30.840927 -0.021569
8.985050 30.840927 -0.013716
9.299772 30.840927 -0.006789
9.614492 30.840927 -0.006895
9.929214 30.840927 -0.006641
10.243935 30.840927 -0.017900
10.558655 30.840927 -0.027931
10.873377 30.840927 -0.020578
11.188097 30.840927 -0.018057
11.502819 30.840927 -0.016497
11.817539 30.840927 -0.016896
12.132261 30.840927 -0.003724
12.446981 30.840927 0.019783
12.761703 30.840927 0.045011
13.076424 30.840927 0.061036
13.391144 30.840927 0.078100
13.705866 30.840927 0.076577
14.020586 30.840927 0.096771
14.335308 30.840927 0.086342
14.650028 30.840927 0.103865
14.964750 30.840927 0.102469
15.279470 30.840927 0.152787
15.594193 30.840927 0.228205
15.908913 30.840927 0.253049
16.223633 30.840927 0.000000
16.538355 30.840927 0.000000
16.853075 30.840927 0.000000
17.167797 30.840927 0.000000
17.482517 30.840927 0.000000
17.797239 30.840927 0.000000
18.111959 30.840927 0.000000
18.426680 30.840927 0.000000
18.741402 30.840927 0.000000
-7.065720 30.526205 0.000000
-6.750999 30.526205 0.003254
-6.436278 30.526205 -0.000519
-6.121557 30.526205 -0.001393
-5.806836 30.526205 -0.000395
-5.492115 30.526205 0.000373
-5.177394 30.526205 0.000900
-4.862673 30.526205 0.001583
-4.547952 30.526205 0.002433
-4.233231 30.526205 0.002844
-3.918510 30.526205 0.002699
-3.603789 30.526205 0.002698
-3.289068 30.526205 0.002433
-2.974347 30.526205 0.001705
-2.659626 30.526205 0.000230
-2.344905 30.526205 -0.001529
-2.030184 30.526205 -0.003192
-1.715463 30.526205 -0.004750
-1.400742 30.526205 -0.005627
-1.086021 30.526205 -0.005052
-0.771300 30.526205 -0.003696
-0.456579 30.526205 -0.001791
-0.141859 30.526205 0.000215
0.172863 30.526205 0.002075
0.487584 30.526205 0.003798
0.802305 30.526205 0.004738
1.117026 30.526205 0.004913
1.431747 30.526205 0.004318
1.746467 30.526205 0.002647
2.061188 30.526205 0.000377
2.375909 30.526205 -0.002477
2.690630 30.526205 -0.004970
3.005352 30.526205 -0.006347
3.320073 30.526205 -0.007258
3.634794 30.526205 -0.007525
3.949515 30.526205 -0.007054
4.264236 30.526205 -0.005463
4.578956 30.526205 -0.003236
4.893677 30.526205 -0.000931
5.208398 30.526205 0.001394
5.523119 30.526205 0.003234
5.837841 30.526205 0.003899
6.152562 30.526205 0.003527
6.467283 30.526205 0.002046
6.782003 30.526205 -0.000775
7.096724 30.526205 -0.004499
7.411445 30.526205 -0.007455
7.726166 30.526205 -0.010716
8.040888 30.526205 -0.010956
8.355608 30.526205 -0.014227
8.670330 30.526205 -0.018672
8.985050 30.526205 -0.012356
9.299772 30.526205 -0.005245
9.614492 30.526205 -0.003182
9.929214 30.526205 -0.006512
10.243935 30.526205 -0.012035
10.558655 30.526205 -0.027799
10.873377 30.526205 -0.033345
11.188097 30.526205 -0.035183
11.502819 30.526205 -0.011164
11.817539 30.526205 -0.016857
12.132261 30.526205 0.011924
12.446981 30.526205 0.035342
12.761703 30.526205 0.044776
13.076424 30.526205 0.066358
13.391144 30.526205 0.082603
13.705866 30.526205 0.086739
14.020586 30.526205 0.086817
14.335308 30.526205 0.089492
14.650028 30.526205 0.091236
14.964750 30.526205 0.113993
15.279470 30.526205 0.144323
15.594193 30.526205 0.211884
15.908913 30.526205 0.333807
16.223633 30.526205 0.000000
16.538355 30.526205 0.000000
16.853075 30.526205 0.000000
17.167797 30.526205 0.000000
17.482517 30.526205 0.000000
17.797239 30.526205 0.000000
18.111959 30.526205 0.000000
18.426680 30.526205 0.000000
18.741402 30.526205 0.000000
-7.065720 30.211485 0.000000
-6.750999 30.211485 0.003116
-6.436278 30.211485 -0.000242
-6.121557 30.211485 -0.000691
-5.806836 30.211485 0.000660
-5.492115 30.211485 0.001808
-5.177394 30.211485 0.002473
-4.862673 30.211485 0.002871
-4.547952 30.211485 0.003083
-4.233231 30.211485 0.002957
-3.918510 30.211485 0.002494
-3.603789 30.211485 0.002020
-3.289068 30.211485 0.001142
-2.974347 30.211485 -0.000087
-2.659626 30.211485 -0.001636
-2.344905 30.211485 -0.003091
-2.030184 30.211485 -0.004269
-1.715463 30.211485 -0.005139
-1.400742 30.211485 -0.005153
-1.086021 30.211485 -0.003692
-0.771300 30.211485 -0.001687
-0.456579 30.211485 0.000376
-0.141859 30.211485 0.002254
0.172863 30.211485 0.003598
0.487584 30.211485 0.004634
0.802305 30.211485 0.004904
1.117026 30.211485 0.004272
1.431747 30.211485 0.003009
1.746467 30.211485 0.000779
2.061188 30.211485 -0.001930
2.375909 30.211485 -0.004869
2.690630 30.211485 -0.006945
3.005352 30.211485 -0.007547
3.320073 30.211485 -0.007552
3.634794 30.211485 -0.006906
3.949515 30.211485 -0.005410
4.264236 30.211485 -0.003015
4.578956 30.211485 -0.000442
4.893677 30.211485 0.001915
5.208398 30.211485 0.003885
5.523119 30.211485 0.004801
5.837841 30.211485 0.004096
6.152562 30.211485 0.002198
6.467283 30.211485 -0.000668
6.782003 30.211485 -0.003736
7.096724 30.211485 -0.007388
7.411445 30.211485 -0.009329
7.726166 30.211485 -0.010183
8.040888 30.211485 -0.013331
8.355608 30.211485 -0.014775
8.670330 30.211485 -0.013310
8.985050 30.211485 -0.012105
9.299772 30.211485 -0.005092
9.614492 30.211485 -0.002935
9.929214 30.211485 -0.010895
10.243935 30.211485 -0.010294
10.558655 30.211485 -0.023914
10.873377 30.211485 -0.046068
11.188097 30.211485 -0.019957
11.502819 30.211485 -0.019835
11.817539 30.211485 -0.032634
12.132261 30.211485 0.009764
12.446981 30.211485 0.035882
12.761703 30.211485 0.048358
13.076424 30.211485 0.055976
13.391144 30.211485 0.074210
13.705866 30.211485 0.093152
14.020586 30.211485 0.089077
14.335308 30.211485 0.080613
14.650028 30.211485 0.106229
14.964750 30.211485 0.127945
15.279470 30.211485 0.176316
15.594193 30.211485 0.282118
15.908913 30.211485 0.419381
16.223633 30.211485 0.000000
16.538355 30.211485 0.000000
16.853075 30.211485 0.000000
17.167797 30.211485 0.000000
17.482517 30.211485 0.000000
17.797239 30.211485 0.000000
18.111959 30.211485 0.000000
18.426680 30.211485 0.000000
18.741402 30.211485 0.000000
-7.065720 29.896763 0.000000
-6.750999 29.896763 0.003393
-6.436278 29.896763 0.000410
-6.121557 29.896763 0.000470
-5.806836 29.896763 0.002060
-5.492115 29.896763 0.003322
-5.177394 29.896763 0.003918
-4.862673 29.896763 0.003920
-4.547952 29.896763 0.003504
-4.233231 29.896763 0.002791
-3.918510 29.896763 0.001838
-3.603789 29.896763 0.000618
-3.289068 29.896763 -0.000850
-2.974347 29.896763 -0.002269
-2.659626 29.896763 -0.003488
-2.344905 29.896763 -0.004344
-2.030184 29.896763 -0.004618
-1.715463 29.896763 -0.004514
-1.400742 29.896763 -0.003649
-1.086021 29.896763 -0.001524
-0.771300 29.896763 0.000741
-0.456579 29.896763 0.002649
-0.141859 29.896763 0.003997
0.172863 29.896763 0.004562
0.487584 29.896763 0.004603
0.802305 29.896763 0.003915
1.117026 29.896763 0.002539
1.431747 29.896763 0.000791
1.746467 29.896763 -0.001761
2.061188 29.896763 -0.004458
2.375909 29.896763 -0.006821
2.690630 29.896763 -0.007925
3.005352 29.896763 -0.007464
3.320073 29.896763 -0.006612
3.634794 29.896763 -0.005018
3.949515 29.896763 -0.002642
4.264236 29.896763 0.000043
4.578956 29.896763 0.002490
4.893677 29.896763 0.004345
5.208398 29.896763 0.005397
5.523119 29.896763 0.004969
5.837841 29.896763 0.002810
6.152562 29.896763 -0.000220
6.467283 29.896763 -0.003747
6.782003 29.896763 -0.007055
7.096724 29.896763 -0.009949
7.411445 29.896763 -0.011516
7.726166 29.896763 -0.011598
8.040888 29.896763 -0.011701
8.355608 29.896763 -0.013266
8.670330 29.896763 -0.016691
8.985050 29.896763 -0.017223
9.299772 29.896763 -0.010982
9.614492 29.896763 -0.006597
9.929214 29.896763 -0.004934
10.243935 29.896763 -0.011070
10.558655 29.896763 -0.029680
10.873377 29.896763 -0.035662
11.188097 29.896763 -0.022181
11.502819 29.896763 -0.023989
11.817539 29.896763 -0.015914
12.132261 29.896763 -0.000834
12.446981 29.896763 0.029359
12.761703 29.896763 0.032552
13.076424 29.896763 0.038979
13.391144 29.896763 0.062836
13.705866 29.896763 0.089149
14.020586 29.896763 0.093466
14.335308 29.896763 0.092677
14.650028 29.896763 0.114721
14.964750 29.896763 0.126842
15.279470 29.896763 0.179086
15.594193 29.896763 0.336450
15.908913 29.896763 0.558327
16.223633 29.896763 0.000000
16.538355 29.896763 0.000000
16.853075 29.896763 0.000000
17.167797 29.896763 0.000000
17.482517 29.896763 0.000000
17.797239 29.896763 0.000000
18.111959 29.896763 0.000000
18.426680 29.896763 0.000000
18.741402 29.896763 0.000000
-7.065720 29.582043 0.000000
-6.750999 29.582043 0.004225
-6.436278 29.582043 0.001722
-6.121557 29.582043 0.002070
-5.806836 29.582043 0.003507
-5.492115 29.582043 0.004619
-5.177394 29.582043 0.004928
-4.862673 29.582043 0.004372
-4.547952 29.582043 0.003355
-4.233231 29.582043 0.002123
-3.918510 29.582043 0.000596
-3.603789 29.582043 -0.001343
-3.289068 29.582043 -0.003197
-2.974347 29.582043 -0.004304
-2.659626 29.582043 -0.004807
-2.344905 29.582043 -0.004873
-2.030184 29.582043 -0.004104
-1.715463 29.582043 -0.002885
-1.400742 29.582043 -0.001299
-1.086021 29.582043 0.001036
-0.771300 29.582043 0.003070
-0.456579 29.582043 0.004466
-0.141859 29.582043 0.004977
0.172863 29.582043 0.004449
0.487584 29.582043 0.003422
0.802305 29.582043 0.001848
1.117026 29.582043 -0.000016
1.431747 29.582043 -0.002065
1.746467 29.582043 -0.004518
2.061188 29.582043 -0.006624
2.375909 29.582043 -0.007770
2.690630 29.582043 -0.007443
3.005352 29.582043 -0.005994
3.320073 29.582043 -0.004355
3.634794 29.582043 -0.002138
3.949515 29.582043 0.000600
4.264236 29.582043 0.002978
4.578956 29.582043 0.004782
4.893677 29.582043 0.005611
5.208398 29.582043 0.005400
5.523119 29.582043 0.003569
5.837841 29.582043 0.000359
6.152562 29.582043 -0.003289
6.467283 29.582043 -0.006895
6.782003 29.582043 -0.009352
7.096724 29.582043 -0.010965
7.411445 29.582043 -0.010990
7.726166 29.582043 -0.009873
8.040888 29.582043 -0.010951
8.355608 29.582043 -0.010894
8.670330 29.582043 -0.015735
8.985050 29.582043 -0.019489
9.299772 29.582043 -0.014438
9.614492 29.582043 -0.012785
9.929214 29.582043 -0.004071
10.243935 29.582043 -0.003590
10.558655 29.582043 -0.026416
10.873377 29.582043 -0.027764
11.188097 29.582043 -0.032700
11.502819 29.582043 -0.014424
11.817539 29.582043 -0.003014
12.132261 29.582043 0.026243
12.446981 29.582043 0.027364
12.761703 29.582043 0.020227
13.076424 29.582043 0.025383
13.391144 29.582043 0.061481
13.705866 29.582043 0.073194
14.020586 29.582043 0.092743
14.335308 29.582043 0.115457
14.650028 29.582043 0.117398
14.964750 29.582043 0.136565
15.279470 29.582043 0.192647
15.594193 29.582043 0.336942
15.908913 29.582043 0.713622
16.223633 29.582043 0.000000
16.538355 29.582043 0.000000
16.853075 29.582043 0.000000
17.167797 29.582043 0.000000
17.482517 29.582043 0.000000
17.797239 29.582043 0.000000
18.111959 29.582043 0.000000
18.426680 29.582043 0.000000
18.741402 29.582043 0.000000
-7.065720 29.267321 0.000000
-6.750999 29.267321 0.005671
-6.436278 29.267321 0.003385
-6.121557 29.267321 0.003754
-5.806836 29.267321 0.004807
-5.492115 29.267321 0.005294
-5.177394 29.267321 0.005086
-4.862673 29.267321 0.003968
-4.547952 29.267321 0.002278
-4.233231 29.267321 0.000531
-3.918510 29.267321 -0.001255
-3.603789 29.267321 -0.003482
-3.289068 29.267321 -0.005076
-2.974347 29.267321 -0.005564
-2.659626 29.267321 -0.005165
-2.344905 29.267321 -0.004328
-2.030184 29.267321 -0.002578
-1.715463 29.267321 -0.000460
-1.400742 29.267321 0.001430
-1.086021 29.267321 0.003483
-0.771300 29.267321 0.004931
-0.456579 29.267321 0.005370
-0.141859 29.267321 0.004827
0.172863 29.267321 0.003188
0.487584 29.267321 0.001168
0.802305 29.267321 -0.000965
1.117026 29.267321 -0.003051
1.431747 29.267321 -0.004878
1.746467 29.267321 -0.006624
2.061188 29.267321 -0.007592
2.375909 29.267321 -0.007263
2.690630 29.267321 -0.005628
3.005352 29.267321 -0.003364
3.320073 29.267321 -0.001333
3.634794 29.267321 0.001021
3.949515 29.267321 0.003504
4.264236 29.267321 0.005002
4.578956 29.267321 0.005640
4.893677 29.267321 0.005163
5.208398 29.267321 0.003524
5.523119 29.267321 0.000613
5.837841 29.267321 -0.003031
6.152562 29.267321 -0.006334
6.467283 29.267321 -0.009020
6.782003 29.267321 -0.010274
7.096724 29.267321 -0.010433
7.411445 29.267321 -0.009603
7.726166 29.267321 -0.008867
8.040888 29.267321 -0.006974
8.355608 29.267321 -0.008034
8.670330 29.267321 -0.015232
8.985050 29.267321 -0.018046
9.299772 29.267321 -0.014329
9.614492 29.267321 -0.012690
9.929214 29.267321 -0.000936
10.243935 29.267321 -0.008182
10.558655 29.267321 -0.020839
10.873377 29.267321 -0.028637
11.188097 29.267321 -0.025426
11.502819 29.267321 -0.012087
11.817539 29.267321 0.010827
12.132261 29.267321 0.035617
12.446981 29.267321 0.046612
12.761703 29.267321 0.052379
13.076424 29.267321 0.060098
13.391144 29.267321 0.061814
13.705866 29.267321 0.092069
14.020586 29.267321 0.113422
14.335308 29.267321 0.127151
14.650028 29.267321 0.114660
14.964750 29.267321 0.110807
15.279470 29.267321 0.167566
15.594193 29.267321 0.434585
15.908913 29.267321 0.949135
16.223633 29.267321 0.000000
16.538355 29.267321 0.000000
16.853075 29.267321 0.000000
17.167797 29.267321 0.000000
17.482517 29.267321 0.000000
17.797239 29.267321 0.000000
18.111959 29.267321 0.000000
18.426680 29.267321 0.000000
18.741402 29.267321 0.000000
-7.065720 28.952600 0.000000
-6.750999 28.952600 0.007407
-6.436278 28.952600 0.004745
-6.121557 28.952600 0.004930
-5.806836 28.952600 0.005375
-5.492115 28.952600 0.005097
-5.177394 28.952600 0.004188
-4.862673 28.952600 0.002504
-4.547952 28.952600 0.000322
-4.233231 28.952600 -0.001627
-3.918510 28.952600 -0.003257
-3.603789 28.952600 -0.005070
-3.289068 28.952600 -0.005983
-2.974347 28.952600 -0.005462
-2.659626 28.952600 -0.004238
-2.344905 28.952600 -0.002622
-2.030184 28.952600 -0.000310
-1.715463 28.952600 0.002243
-1.400742 28.952600 0.003946
-1.086021 28.952600 0.005161
-0.771300 28.952600 0.005731
-0.456579 28.952600 0.004984
-0.141859 28.952600 0.003338
0.172863 28.952600 0.000894
0.487584 28.952600 -0.001651
0.802305 28.952600 -0.003879
1.117026 28.952600 -0.005713
1.431747 28.952600 -0.006857
1.746467 28.952600 -0.007423
2.061188 28.952600 -0.006931
2.375909 28.952600 -0.005184
2.690630 28.952600 -0.002606
3.005352 28.952600 -0.000158
3.320073 28.952600 0.001788
3.634794 28.952600 0.003638
3.949515 28.952600 0.005232
4.264236 28.952600 0.005496
4.578956 28.952600 0.004623
4.893677 28.952600 0.002934
5.208398 28.952600 0.000220
5.523119 28.952600 -0.003146
5.837841 28.952600 -0.006310
6.152562 28.952600 -0.008610
6.467283 28.952600 -0.009930
6.782003 28.952600 -0.009673
7.096724 28.952600 -0.008838
7.411445 28.952600 -0.007481
7.726166 28.952600 -0.006286
8.040888 28.952600 -0.006800
8.355608 28.952600 -0.010745
8.670330 28.952600 -0.012020
8.985050 28.952600 -0.017292
9.299772 28.952600 -0.006278
9.614492 28.952600 -0.004799
9.929214 28.952600 0.001244
10.243935 28.952600 -0.004873
10.558655 28.952600 -0.009792
10.873377 28.952600 -0.018392
11.188097 28.952600 -0.020973
11.502819 28.952600 -0.002441
11.817539 28.952600 0.017069
12.132261 28.952600 0.054648
12.446981 28.952600 0.037955
12.761703 28.952600 0.049700
13.076424 28.952600 0.057809
13.391144 28.952600 0.062205
13.705866 28.952600 0.101901
14.020586 28.952600 0.122151
14.335308 28.952600 0.125690
14.650028 28.952600 0.136582
14.964750 28.952600 0.124701
15.279470 28.952600 0.185612
15.594193 28.952600 0.512102
15.908913 28.952600 1.084716
16.223633 28.952600 0.000000
16.538355 28.952600 0.000000
16.853075 28.952600 0.000000
17.167797 28.952600 0.000000
17.482517 28.952600 0.000000
17.797239 28.952600 0.000000
18.111959 28.952600 0.000000
18.426680 28.952600 0.000000
18.741402 28.952600 0.000000
-7.065720 28.637878 0.000000
-6.750999 28.637878 0.008995
-6.436278 28.637878 0.005529
-6.121557 28.637878 0.005073
-5.806836 28.637878 0.004768
-5.492115 28.637878 0.003731
-5.177394 28.637878 0.002178
-4.862673 28.637878 0.000081
-4.547952 28.637878 -0.002233
-4.233231 28.637878 -0.003813
-3.918510 28.637878 -0.004737
-3.603789 28.637878 -0.005590
-3.289068 28.637878 -0.005487
-2.974347 28.637878 -0.004051
-2.659626 28.637878 -0.002194
-2.344905 28.637878 -0.000079
-2.030184 28.637878 0.002254
-1.715463 28.637878 0.004499
-1.400742 28.637878 0.005544
-1.086021 28.637878 0.005631
-0.771300 28.637878 0.004983
-0.456579 28.637878 0.003203
-0.141859 28.637878 0.000749
0.172863 28.637878 -0.002027
0.487584 28.637878 -0.004494
0.802305 28.637878 -0.006310
1.117026 28.637878 -0.007376
1.431747 28.637878 -0.007391
1.746467 28.637878 -0.006605
2.061188 28.637878 -0.004679
2.375909 28.637878 -0.001852
2.690630 28.637878 0.001005
3.005352 28.637878 0.003070
3.320073 28.637878 0.004282
3.634794 28.637878 0.005101
3.949515 28.637878 0.005336
4.264236 28.637878 0.004197
4.578956 28.637878 0.002108
4.893677 28.637878 -0.000574
5.208398 28.637878 -0.003674
5.523119 28.637878 -0.006573
5.837841 28.637878 -0.008560
6.152562 28.637878 -0.009365
6.467283 28.637878 -0.008842
6.782003 28.637878 -0.007723
7.096724 28.637878 -0.006842
7.411445 28.637878 -0.005638
7.726166 28.637878 -0.004905
8.040888 28.637878 -0.007095
8.355608 28.637878 -0.007359
8.670330 28.637878 -0.010307
8.985050 28.637878 -0.010575
9.299772 28.637878 -0.009401
9.614492 28.637878 -0.001025
9.929214 28.637878 0.001587
10.243935 28.637878 -0.000205
10.558655 28.637878 -0.009710
10.873377 28.637878 -0.004897
11.188097 28.637878 -0.011752
11.502819 28.637878 0.003644
11.817539 28.637878 0.025528
12.132261 28.637878 0.052715
12.446981 28.637878 0.050029
12.761703 28.637878 0.061133
13.076424 28.637878 0.077324
13.391144 28.637878 0.085767
13.705866 28.637878 0.117488
14.020586 28.637878 0.136463
14.335308 28.637878 0.139642
14.650028 28.637878 0.131943
14.964750 28.637878 0.133706
15.279470 28.637878 0.168566
15.594193 28.637878 0.493719
15.908913 28.637878 1.127112
16.223633 28.637878 0.000000
16.538355 28.637878 0.000000
16.853075 28.637878 0.000000
17.167797 28.637878 0.000000
17.482517 28.637878 0.000000
17.797239 28.637878 0.000000
18.111959 28.637878 0.000000
18.426680 28.637878 0.000000
18.741402 28.637878 0.000000
-7.065720 28.323158 0.000000
-6.750999 28.323158 0.009917
-6.436278 28.323158 0.005465
-6.121557 28.323158 0.004029
-5.806836 28.323158 0.002843
-5.492115 28.323158 0.001258
-5.177394 28.323158 -0.000605
-4.862673 28.323158 -0.002575
-4.547952 28.323158 -0.004376
-4.233231 28.323158 -0.005144
-3.918510 28.323158 -0.004991
-3.603789 28.323158 -0.004559
-3.289068 28.323158 -0.003345
-2.974347 28.323158 -0.001332
-2.659626 28.323158 0.000737
-2.344905 28.323158 0.002747
-2.030184 28.323158 0.004515
-1.715463 28.323158 0.005700
-1.400742 28.323158 0.005665
-1.086021 28.323158 0.004570
-0.771300 28.323158 0.002837
-0.456579 28.323158 0.000379
-0.141859 28.323158 -0.002251
0.172863 28.323158 -0.004706
0.487584 28.323158 -0.006534
0.802305 28.323158 -0.007454
1.117026 28.323158 -0.007304
1.431747 28.323158 -0.006076
1.746467 28.323158 -0.004095
2.061188 28.323158 -0.001304
2.375909 28.323158 0.001863
2.690630 28.323158 0.004219
3.005352 28.323158 0.005281
3.320073 28.323158 0.005313
3.634794 28.323158 0.004928
3.949515 28.323158 0.003751
4.264236 28.323158 0.001392
4.578956 28.323158 -0.001434
4.893677 28.323158 -0.004307
5.208398 28.323158 -0.006900
5.523119 28.323158 -0.008568
5.837841 28.323158 -0.008925
6.152562 28.323158 -0.008032
6.467283 28.323158 -0.006507
6.782003 28.323158 -0.004925
7.096724 28.323158 -0.004312
7.411445 28.323158 -0.003438
7.726166 28.323158 -0.005066
8.040888 28.323158 -0.006239
8.355608 28.323158 -0.007651
8.670330 28.323158 -0.006908
8.985050 28.323158 -0.010940
9.299772 28.323158 -0.014353
9.614492 28.323158 -0.006074
9.929214 28.323158 0.000631
10.243935 28.323158 0.000475
10.558655 28.323158 -0.013526
10.873377 28.323158 -0.010461
11.188097 28.323158 -0.009269
11.502819 28.323158 0.004969
11.817539 28.323158 0.037449
12.132261 28.323158 0.053215
12.446981 28.323158 0.078161
12.761703 28.323158 0.081049
13.076424 28.323158 0.093103
13.391144 28.323158 0.107014
13.705866 28.323158 0.120015
14.020586 28.323158 0.139651
14.335308 28.323158 0.145751
14.650028 28.323158 0.142880
14.964750 28.323158 0.144866
15.279470 28.323158 0.207179
15.594193 28.323158 0.461866
15.908913 28.323158 1.031865
16.223633 28.323158 0.000000
16.538355 28.323158 0.000000
16.853075 28.323158 0.000000
17.167797 28.323158 0.000000
17.482517 28.323158 0.000000
17.797239 28.323158 0.000000
18.111959 28.323158 0.000000
18.426680 28.323158 0.000000
18.741402 28.323158 0.000000
-7.065720 28.008438 0.000000
-6.750999 28.008438 0.009651
-6.436278 28.008438 0.004288
-6.121557 28.008438 0.001811
-5.806836 28.008438 -0.000049
-5.492115 28.008438 -0.001874
-5.177394 28.008438 -0.003360
-4.862673 28.008438 -0.004531
-4.547952 28.008438 -0.005184
-4.233231 28.008438 -0.004930
-3.918510 28.008438 -0.003700
-3.603789 28.008438 -0.002016
-3.289068 28.008438 -0.000036
-2.974347 28.008438 0.002058
-2.659626 28.008438 0.003806
-2.344905 28.008438 0.005083
-2.030184 28.008438 0.005745
-1.715463 28.008438 0.005500
-1.400742 28.008438 0.004236
-1.086021 28.008438 0.002122
-0.771300 28.008438 -0.000374
-0.456579 28.008438 -0.002894
-0.141859 28.008438 -0.004978
0.172863 28.008438 -0.006439
0.487584 28.008438 -0.007069
0.802305 28.008438 -0.006771
1.117026 28.008438 -0.005379
1.431747 28.008438 -0.003245
1.746467 28.008438 -0.000712
2.061188 28.008438 0.002042
2.375909 28.008438 0.004586
2.690630 28.008438 0.005931
3.005352 28.008438 0.005684
3.320073 28.008438 0.004470
3.634794 28.008438 0.002908
3.949515 28.008438 0.000751
4.264236 28.008438 -0.002164
4.578956 28.008438 -0.004910
4.893677 28.008438 -0.007108
5.208398 28.008438 -0.008579
5.523119 28.008438 -0.008512
5.837841 28.008438 -0.007220
6.152562 28.008438 -0.005040
6.467283 28.008438 -0.003074
6.782003 28.008438 -0.001326
7.096724 28.008438 -0.002224
7.411445 28.008438 -0.003271
7.726166 28.008438 -0.004167
8.040888 28.008438 -0.006446
8.355608 28.008438 -0.007703
8.670330 28.008438 -0.007660
8.985050 28.008438 -0.012624
9.299772 28.008438 -0.008218
9.614492 28.008438 -0.002675
9.929214 28.008438 -0.001237
10.243935 28.008438 0.000432
10.558655 28.008438 0.000487
10.873377 28.008438 -0.002118
11.188097 28.008438 0.011346
11.502819 28.008438 0.012328
11.817539 28.008438 0.028504
12.132261 28.008438 0.071136
12.446981 28.008438 0.086823
12.761703 28.008438 0.087338
13.076424 28.008438 0.102635
13.391144 28.008438 0.099675
13.705866 28.008438 0.140936
14.020586 28.008438 0.163870
14.335308 28.008438 0.154412
14.650028 28.008438 0.143015
14.964750 28.008438 0.160265
15.279470 28.008438 0.228832
15.594193 28.008438 0.431466
15.908913 28.008438 0.855599
16.223633 28.008438 0.000000
16.538355 28.008438 0.000000
16.853075 28.008438 0.000000
17.167797 28.008438 0.000000
17.482517 28.008438 0.000000
17.797239 28.008438 0.000000
18.111959 28.008438 0.000000
18.426680 28.008438 0.000000
18.741402 28.008438 0.000000
-7.065720 27.693716 0.000000
-6.750999 27.693716 0.007776
-6.436278 27.693716 0.001971
-6.121557 27.693716 -0.001042
-5.806836 27.693716 -0.003118
-5.492115 27.693716 -0.004687
-5.177394 27.693716 -0.005333
-4.862673 27.693716 -0.005009
-4.547952 27.693716 -0.004276
-4.233231 27.693716 -0.002930
-3.918510 27.693716 -0.001018
-3.603789 27.693716 0.001334
-3.289068 27.693716 0.003476
-2.974347 27.693716 0.005139
-2.659626 27.693716 0.006024
-2.344905 27.693716 0.006019
-2.030184 27.693716 0.005261
-1.715463 27.693716 0.003539
-1.400742 27.693716 0.001288
-1.086021 27.693716 -0.001387
-0.771300 27.693716 -0.003914
-0.456579 27.693716 -0.005667
-0.141859 27.693716 -0.006508
0.172863 27.693716 -0.006418
0.487584 27.693716 -0.005648
0.802305 27.693716 -0.004218
1.117026 27.693716 -0.002155
1.431747 27.693716 0.000263
1.746467 27.693716 0.002565
2.061188 27.693716 0.004408
2.375909 27.693716 0.005698
2.690630 27.693716 0.005687
3.005352 27.693716 0.004220
3.320073 27.693716 0.002020
3.634794 27.693716 -0.000300
3.949515 27.693716 -0.002803
4.264236 27.693716 -0.005365
4.578956 27.693716 -0.007116
4.893677 27.693716 -0.008010
5.208398 27.693716 -0.007973
5.523119 27.693716 -0.006482
5.837841 27.693716 -0.004199
6.152562 27.693716 -0.001395
6.467283 27.693716 0.000645
6.782003 27.693716 0.001398
7.096724 27.693716 -0.000192
7.411445 27.693716 -0.002338
7.726166 27.693716 -0.003863
8.040888 27.693716 -0.006760
8.355608 27.693716 -0.006998
8.670330 27.693716 -0.006229
8.985050 27.693716 -0.006987
9.299772 27.693716 -0.006651
9.614492 27.693716 -0.012166
9.929214 27.693716 -0.013271
10.243935 27.693716 0.001835
10.558655 27.693716 0.001510
10.873377 27.693716 0.004240
11.188097 27.693716 0.019440
11.502819 27.693716 0.005989
11.817539 27.693716 0.012106
12.132261 27.693716 0.069613
12.446981 27.693716 0.092264
12.761703 27.693716 0.124313
13.076424 27.693716 0.115681
13.391144 27.693716 0.113903
13.705866 27.693716 0.140074
14.020586 27.693716 0.163540
14.335308 27.693716 0.152906
14.650028 27.693716 0.160313
14.964750 27.693716 0.191484
15.279470 27.693716 0.259607
15.594193 27.693716 0.474772
15.908913 27.693716 0.719046
16.223633 27.693716 0.000000
16.538355 27.693716 0.000000
16.853075 27.693716 0.000000
17.167797 27.693716 0.000000
17.482517 27.693716 0.000000
17.797239 27.693716 0.000000
18.111959 27.693716 0.000000
18.426680 27.693716 0.000000
18.741402 27.693716 0.000000
-7.065720 27.378996 0.000000
-6.750999 27.378996 0.004896
-6.436278 27.378996 -0.000934
-6.121557 27.378996 -0.003729
-5.806836 27.378996 -0.005353
-5.492115 27.378996 -0.006062
-5.177394 27.378996 -0.005459
-4.862673 27.378996 -0.003768
-4.547952 27.378996 -0.001697
-4.233231 27.378996 0.000269
-3.918510 27.378996 0.002331
-3.603789 27.378996 0.004589
-3.289068 27.378996 0.006158
-2.974347 27.378996 0.006839
-2.659626 27.378996 0.006402
-2.344905 27.378996 0.005002
-2.030184 27.378996 0.002992
-1.715463 27.378996 0.000276
-1.400742 27.378996 -0.002474
-1.086021 27.378996 -0.004838
-0.771300 27.378996 -0.006501
-0.456579 27.378996 -0.006877
-0.141859 27.378996 -0.006124
0.172863 27.378996 -0.004442
0.487584 27.378996 -0.002500
0.802305 27.378996 -0.000457
1.117026 27.378996 0.001535
1.431747 27.378996 0.003388
1.746467 27.378996 0.004621
2.061188 27.378996 0.004979
2.375909 27.378996 0.004707
2.690630 27.378996 0.003427
3.005352 27.378996 0.001195
3.320073 27.378996 -0.001229
3.634794 27.378996 -0.003551
3.949515 27.378996 -0.005551
4.264236 27.378996 -0.006989
4.578956 27.378996 -0.007264
4.893677 27.378996 -0.006638
5.208398 27.378996 -0.005384
5.523119 27.378996 -0.003051
5.837841 27.378996 -0.000727
6.152562 27.378996 0.001656
6.467283 27.378996 0.002856
6.782003 27.378996 0.002153
7.096724 27.378996 -0.000381
7.411445 27.378996 -0.001825
7.726166 27.378996 -0.003338
8.040888 27.378996 -0.005047
8.355608 27.378996 -0.006088
8.670330 27.378996 -0.002680
8.985050 27.378996 0.000908
9.299772 27.378996 -0.001198
9.614492 27.378996 -0.010114
9.929214 27.378996 -0.006949
10.243935 27.378996 -0.006750
10.558655 27.378996 0.007643
10.873377 27.378996 0.005075
11.188097 27.378996 0.015741
11.502819 27.378996 0.000913
11.817539 27.378996 0.013858
12.132261 27.378996 0.048501
12.446981 27.378996 0.084320
12.761703 27.378996 0.114427
13.076424 27.378996 0.120973
13.391144 27.378996 0.094984
13.705866 27.378996 0.129243
14.020586 27.378996 0.160995
14.335308 27.378996 0.171850
14.650028 27.378996 0.171808
14.964750 27.378996 0.206386
15.279470 27.378996 0.290140
15.594193 27.378996 0.422896
15.908913 27.378996 0.617548
16.223633 27.378996 0.000000
16.538355 27.378996 0.000000
16.853075 27.378996 0.000000
17.167797 27.378996 0.000000
17.482517 27.378996 0.000000
17.797239 27.378996 0.000000
18.111959 27.378996 0.000000
18.426680 27.378996 0.000000
18.741402 27.378996 0.000000
-7.065720 27.064274 0.000000
-6.750999 27.064274 0.001677
-6.436278 27.064274 -0.003540
-6.121557 27.064274 -0.005213
-5.806836 27.064274 -0.005602
-5.492115 27.064274 -0.005183
-5.177394 27.064274 -0.003506
-4.862673 27.064274 -0.000886
-4.547952 27.064274 0.001730
-4.233231 27.064274 0.003648
-3.918510 27.064274 0.005171
-3.603789 27.064274 0.006568
-3.289068 27.064274 0.007086
-2.974347 27.064274 0.006473
-2.659626 27.064274 0.004702
-2.344905 27.064274 0.002190
-2.030184 27.064274 -0.000524
-1.715463 27.064274 -0.003386
-1.400742 27.064274 -0.005687
-1.086021 27.064274 -0.006896
-0.771300 27.064274 -0.007036
-0.456579 27.064274 -0.005952
-0.141859 27.064274 -0.003761
0.172863 27.064274 -0.001056
0.487584 27.064274 0.001338
0.802305 27.064274 0.003143
1.117026 27.064274 0.004380
1.431747 27.064274 0.005026
1.746467 27.064274 0.004711
2.061188 27.064274 0.003551
2.375909 27.064274 0.001885
2.690630 27.064274 -0.000148
3.005352 27.064274 -0.002337
3.320073 27.064274 -0.004154
3.634794 27.064274 -0.005780
3.949515 27.064274 -0.006644
4.264236 27.064274 -0.006365
4.578956 27.064274 -0.005267
4.893677 27.064274 -0.003564
5.208398 27.064274 -0.001775
5.523119 27.064274 0.000321
5.837841 27.064274 0.002055
6.152562 27.064274 0.003107
6.467283 27.064274 0.002733
6.782003 27.064274 0.000818
7.096724 27.064274 -0.002240
7.411445 27.064274 -0.003442
7.726166 27.064274 -0.002979
8.040888 27.064274 -0.005501
8.355608 27.064274 -0.005014
8.670330 27.064274 -0.001914
8.985050 27.064274 -0.000214
9.299772 27.064274 0.003671
9.614492 27.064274 -0.007772
9.929214 27.064274 -0.005404
10.243935 27.064274 -0.001168
10.558655 27.064274 0.010410
10.873377 27.064274 0.008215
11.188097 27.064274 0.013490
11.502819 27.064274 0.006932
11.817539 27.064274 0.007270
12.132261 27.064274 0.033234
12.446981 27.064274 0.075225
12.761703 27.064274 0.089916
13.076424 27.064274 0.106727
13.391144 27.064274 0.102356
13.705866 27.064274 0.124427
14.020586 27.064274 0.153383
14.335308 27.064274 0.175135
14.650028 27.064274 0.188873
14.964750 27.064274 0.206707
15.279470 27.064274 0.262864
15.594193 27.064274 0.364926
15.908913 27.064274 0.528137
16.223633 27.064274 0.000000
16.538355 27.064274 0.000000
16.853075 27.064274 0.000000
17.167797 27.064274 0.000000
17.482517 27.064274 0.000000
17.797239 27.064274 0.000000
18.111959 27.064274 0.000000
18.426680 27.064274 0.000000
18.741402 27.064274 0.000000
-7.065720 26.749554 0.000000
-6.750999 26.749554 -0.000583
-6.436278 26.749554 -0.004717
-6.121557 26.749554 -0.004831
-5.806836 26.749554 -0.003743
-5.492115 26.749554 -0.002259
-5.177394 26.749554 -0.000082
-4.862673 26.749554 0.002599
-4.547952 26.749554 0.004868
-4.233231 26.749554 0.005970
-3.918510 26.749554 0.006462
-3.603789 26.749554 0.006535
-3.289068 26.749554 0.005764
-2.974347 26.749554 0.003894
-2.659626 26.749554 0.001372
-2.344905 26.749554 -0.001529
-2.030184 26.749554 -0.004087
-1.715463 26.749554 -0.006078
-1.400742 26.749554 -0.007026
-1.086021 26.749554 -0.006573
-0.771300 26.749554 -0.005238
-0.456579 26.749554 -0.003114
-0.141859 26.749554 -0.000311
0.172863 26.749554 0.002407
0.487584 26.749554 0.004357
0.802305 26.749554 0.005280
1.117026 26.749554 0.005384
1.431747 26.749554 0.004506
1.746467 26.749554 0.002832
2.061188 26.749554 0.000455
2.375909 26.749554 -0.001887
2.690630 26.749554 -0.003847
3.005352 26.749554 -0.005135
3.320073 26.749554 -0.005678
3.634794 26.749554 -0.006017
3.949515 26.749554 -0.005457
4.264236 26.749554 -0.003864
4.578956 26.749554 -0.002017
4.893677 26.749554 -0.000171
5.208398 26.749554 0.001290
5.523119 26.749554 0.002489
5.837841 26.749554 0.003091
6.152562 26.749554 0.002502
6.467283 26.749554 0.000895
6.782003 26.749554 -0.001544
7.096724 26.749554 -0.004543
7.411445 26.749554 -0.005439
7.726166 26.749554 -0.004552
8.040888 26.749554 -0.005173
8.355608 26.749554 -0.007055
8.670330 26.749554 -0.003949
8.985050 26.749554 0.001690
9.299772 26.749554 0.005131
9.614492 26.749554 0.002926
9.929214 26.749554 -0.004482
10.243935 26.749554 -0.003021
10.558655 26.749554 0.009242
10.873377 26.749554 -0.000078
11.188097 26.749554 0.003318
11.502819 26.749554 -0.001555
11.817539 26.749554 0.009940
12.132261 26.749554 0.049988
12.446981 26.749554 0.069752
12.761703 26.749554 0.088004
13.076424 26.749554 0.088246
13.391144 26.749554 0.134797
13.705866 26.749554 0.142307
14.020586 26.749554 0.166710
14.335308 26.749554 0.173401
14.650028 26.749554 0.184828
14.964750 26.749554 0.196198
15.279470 26.749554 0.239507
15.594193 26.749554 0.337005
15.908913 26.749554 0.486350
16.223633 26.749554 0.000000
16.538355 26.749554 0.000000
16.853075 26.749554 0.000000
17.167797 26.749554 0.000000
17.482517 26.749554 0.000000
17.797239 26.749554 0.000000
18.111959 26.749554 0.000000
18.426680 26.749554 0.000000
18.741402 26.749554 0.000000
-7.065720 26.434832 0.000000
-6.750999 26.434832 -0.000685
-6.436278 26.434832 -0.003503
-6.121557 26.434832 -0.002295
-5.806836 26.434832 -0.000171
-5.492115 26.434832 0.001684
-5.177394 26.434832 0.003561
-4.862673 26.434832 0.005360
-4.547952 26.434832 0.006429
-4.233231 26.434832 0.006336
-3.918510 26.434832 0.005622
-3.603789 26.434832 0.004395
-3.289068 26.434832 0.002548
-2.974347 26.434832 0.000110
-2.659626 26.434832 -0.002384
-2.344905 26.434832 -0.004701
-2.030184 26.434832 -0.006121
-1.715463 26.434832 -0.006460
-1.400742 26.434832 -0.005762
-1.086021 26.434832 -0.003906
-0.771300 26.434832 -0.001754
-0.456579 26.434832 0.000618
-0.141859 26.434832 0.003015
0.172863 26.434832 0.004797
0.487584 26.434832 0.005524
0.802305 26.434832 0.005294
1.117026 26.434832 0.004296
1.431747 26.434832 0.002167
1.746467 26.434832 -0.000469
2.061188 26.434832 -0.003159
2.375909 26.434832 -0.005223
2.690630 26.434832 -0.006188
3.005352 26.434832 -0.006082
3.320073 26.434832 -0.005253
3.634794 26.434832 -0.004223
3.949515 26.434832 -0.002587
4.264236 26.434832 -0.000504
4.578956 26.434832 0.001150
4.893677 26.434832 0.002401
5.208398 26.434832 0.002907
5.523119 26.434832 0.002831
5.837841 26.434832 0.002078
6.152562 26.434832 0.000421
6.467283 26.434832 -0.001773
6.782003 26.434832 -0.004243
7.096724 26.434832 -0.005469
7.411445 26.434832 -0.004758
7.726166 26.434832 -0.004784
8.040888 26.434832 -0.005725
8.355608 26.434832 -0.009400
8.670330 26.434832 -0.006795
8.985050 26.434832 -0.003702
9.299772 26.434832 0.003768
9.614492 26.434832 0.008046
9.929214 26.434832 0.009528
10.243935 26.434832 -0.002952
10.558655 26.434832 0.011231
10.873377 26.434832 0.004967
11.188097 26.434832 -0.006156
11.502819 26.434832 -0.007615
11.817539 26.434832 0.003073
12.132261 26.434832 0.048347
12.446981 26.434832 0.079226
12.761703 26.434832 0.092218
13.076424 26.434832 0.109752
13.391144 26.434832 0.119610
13.705866 26.434832 0.160784
14.020586 26.434832 0.158890
14.335308 26.434832 0.156060
14.650028 26.434832 0.159942
14.964750 26.434832 0.187708
15.279470 26.434832 0.211831
15.594193 26.434832 0.309186
15.908913 26.434832 0.436670
16.223633 26.434832 0.000000
16.538355 26.434832 0.000000
16.853075 26.434832 0.000000
17.167797 26.434832 0.000000
17.482517 26.434832 0.000000
17.797239 26.434832 0.000000
18.111959 26.434832 0.000000
18.426680 26.434832 0.000000
18.741402 26.434832 0.000000
-7.065720 26.120111 0.000000
-6.750999 26.120111 0.001306
-6.436278 26.120111 -0.000303
-6.121557 26.120111 0.001598
-5.806836 26.120111 0.003833
-5.492115 26.120111 0.005225
-5.177394 26.120111 0.005964
-4.862673 26.120111 0.006357
-4.547952 26.120111 0.005845
-4.233231 26.120111 0.004466
-3.918510 26.120111 0.002792
-3.603789 26.120111 0.000688
-3.289068 26.120111 -0.001563
-2.974347 26.120111 -0.003620
-2.659626 26.120111 -0.005137
-2.344905 26.120111 -0.006023
-2.030184 26.120111 -0.005737
-1.715463 26.120111 -0.004311
-1.400742 26.120111 -0.002266
-1.086021 26.120111 0.000077
-0.771300 26.120111 0.002116
-0.456579 26.120111 0.003772
-0.141859 26.120111 0.005030
0.172863 26.120111 0.005176
0.487584 26.120111 0.004405
0.802305 26.120111 0.003086
1.117026 26.120111 0.001351
1.431747 26.120111 -0.001163
1.746467 26.120111 -0.003762
2.061188 26.120111 -0.005852
2.375909 26.120111 -0.006815
2.690630 26.120111 -0.006290
3.005352 26.120111 -0.004842
3.320073 26.120111 -0.003042
3.634794 26.120111 -0.001288
3.949515 26.120111 0.000580
4.264236 26.120111 0.002302
4.578956 26.120111 0.003198
4.893677 26.120111 0.003399
5.208398 26.120111 0.002808
5.523119 26.120111 0.001518
5.837841 26.120111 -0.000094
6.152562 26.120111 -0.002047
6.467283 26.120111 -0.004099
6.782003 26.120111 -0.005820
7.096724 26.120111 -0.005708
7.411445 26.120111 -0.004643
7.726166 26.120111 -0.004917
8.040888 26.120111 -0.006308
8.355608 26.120111 -0.008533
8.670330 26.120111 -0.013953
8.985050 26.120111 -0.007865
9.299772 26.120111 0.000683
9.614492 26.120111 0.013885
9.929214 26.120111 0.015136
10.243935 26.120111 -0.005551
10.558655 26.120111 0.013395
10.873377 26.120111 0.016111
11.188097 26.120111 0.012343
11.502819 26.120111 -0.002805
11.817539 26.120111 0.012805
12.132261 26.120111 0.076858
12.446981 26.120111 0.079897
12.761703 26.120111 0.116549
13.076424 26.120111 0.147513
13.391144 26.120111 0.139701
13.705866 26.120111 0.125155
14.020586 26.120111 0.138769
14.335308 26.120111 0.133405
14.650028 26.120111 0.134036
14.964750 26.120111 0.192785
15.279470 26.120111 0.207086
15.594193 26.120111 0.264577
15.908913 26.120111 0.330028
16.223633 26.120111 0.000000
16.538355 26.120111 0.000000
16.853075 26.120111 0.000000
17.167797 26.120111 0.000000
17.482517 26.120111 0.000000
17.797239 26.120111 0.000000
18.111959 26.120111 0.000000
18.426680 26.120111 0.000000
18.741402 26.120111 0.000000
-7.065720 25.805389 0.000000
-6.750999 25.805389 0.005104
-6.436278 25.805389 0.003682
-6.121557 25.805389 0.005254
-5.806836 25.805389 0.006675
-5.492115 25.805389 0.006954
-5.177394 25.805389 0.006257
-4.862673 25.805389 0.005114
-4.547952 25.805389 0.003238
-4.233231 25.805389 0.001102
-3.918510 25.805389 -0.001036
-3.603789 25.805389 -0.003289
-3.289068 25.805389 -0.004970
-2.974347 25.805389 -0.005807
-2.659626 25.805389 -0.005681
-2.344905 25.805389 -0.004807
-2.030184 25.805389 -0.002958
-1.715463 25.805389 -0.000507
-1.400742 25.805389 0.001862
-1.086021 25.805389 0.003850
-0.771300 25.805389 0.004888
-0.456579 25.805389 0.005215
-0.141859 25.805389 0.004770
0.172863 25.805389 0.003356
0.487584 25.805389 0.001476
0.802305 25.805389 -0.000372
1.117026 25.805389 -0.002105
1.431747 25.805389 -0.004149
1.746467 25.805389 -0.005764
2.061188 25.805389 -0.006507
2.375909 25.805389 -0.005968
2.690630 25.805389 -0.004240
3.005352 25.805389 -0.002201
3.320073 25.805389 -0.000177
3.634794 25.805389 0.001433
3.949515 25.805389 0.002702
4.264236 25.805389 0.003495
4.578956 25.805389 0.003337
4.893677 25.805389 0.002555
5.208398 25.805389 0.001144
5.523119 25.805389 -0.000677
5.837841 25.805389 -0.002469
6.152562 25.805389 -0.004223
6.467283 25.805389 -0.005597
6.782003 25.805389 -0.006213
7.096724 25.805389 -0.005390
7.411445 25.805389 -0.004386
7.726166 25.805389 -0.003000
8.040888 25.805389 -0.006539
8.355608 25.805389 -0.008390
8.670330 25.805389 -0.011607
8.985050 25.805389 -0.012715
9.299772 25.805389 0.000736
9.614492 25.805389 0.010847
9.929214 25.805389 0.009848
10.243935 25.805389 0.007027
10.558655 25.805389 0.009554
10.873377 25.805389 0.019127
11.188097 25.805389 0.002958
11.502819 25.805389 -0.009347
11.817539 25.805389 0.010339
12.132261 25.805389 0.048634
12.446981 25.805389 0.083903
12.761703 25.805389 0.129430
13.076424 25.805389 0.147613
13.391144 25.805389 0.131625
13.705866 25.805389 0.136936
14.020586 25.805389 0.137526
14.335308 25.805389 0.134359
14.650028 25.805389 0.132645
14.964750 25.805389 0.173899
15.279470 25.805389 0.209389
15.594193 25.805389 0.212849
15.908913 25.805389 0.357577
16.223633 25.805389 0.000000
16.538355 25.805389 0.000000
16.853075 25.805389 0.000000
17.167797 25.805389 0.000000
17.482517 25.805389 0.000000
17.797239 25.805389 0.000000
18.111959 25.805389 0.000000
18.426680 25.805389 0.000000
18.741402 25.805389 0.000000
-7.065720 25.490669 0.000000
-6.750999 25.490669 0.009026
-6.436278 25.490669 0.006828
-6.121557 25.490669 0.007245
-5.806836 25.490669 0.007236
-5.492115 25.490669 0.006116
-5.177394 25.490669 0.004151
-4.862673 25.490669 0.001994
-4.547952 25.490669 -0.000555
-4.233231 25.490669 -0.002682
-3.918510 25.490669 -0.004368
-3.603789 25.490669 -0.005768
-3.289068 25.490669 -0.006169
-2.974347 25.490669 -0.005454
-2.659626 25.490669 -0.003825
-2.344905 25.490669 -0.001632
-2.030184 25.490669 0.000917
-1.715463 25.490669 0.003278
-1.400742 25.490669 0.004921
-1.086021 25.490669 0.005739
-0.771300 25.490669 0.005417
-0.456579 25.490669 0.004229
-0.141859 25.490669 0.002401
0.172863 25.490669 0.000060
0.487584 25.490669 -0.002226
0.802305 25.490669 -0.003834
1.117026 25.490669 -0.004690
1.431747 25.490669 -0.005330
1.746467 25.490669 -0.005494
2.061188 25.490669 -0.004800
2.375909 25.490669 -0.003163
2.690630 25.490669 -0.001058
3.005352 25.490669 0.000688
3.320073 25.490669 0.002097
3.634794 25.490669 0.002821
3.949515 25.490669 0.003059
4.264236 25.490669 0.002732
4.578956 25.490669 0.001865
4.893677 25.490669 0.000615
5.208398 25.490669 -0.001020
5.523119 25.490669 -0.002734
5.837841 25.490669 -0.004074
6.152562 25.490669 -0.004794
6.467283 25.490669 -0.005452
6.782003 25.490669 -0.005346
7.096724 25.490669 -0.004555
7.411445 25.490669 -0.003921
7.726166 25.490669 -0.003456
8.040888 25.490669 -0.007774
8.355608 25.490669 -0.006772
8.670330 25.490669 -0.011305
8.985050 25.490669 -0.014067
9.299772 25.490669 -0.002024
9.614492 25.490669 0.013977
9.929214 25.490669 0.011108
10.243935 25.490669 0.017464
10.558655 25.490669 0.017922
10.873377 25.490669 0.022031
11.188097 25.490669 -0.001511
11.502819 25.490669 -0.003603
11.817539 25.490669 0.010529
12.132261 25.490669 0.048532
12.446981 25.490669 0.087483
12.761703 25.490669 0.107201
13.076424 25.490669 0.163147
13.391144 25.490669 0.156040
13.705866 25.490669 0.143224
14.020586 25.490669 0.143842
14.335308 25.490669 0.145810
14.650028 25.490669 0.141423
14.964750 25.490669 0.172388
15.279470 25.490669 0.179687
15.594193 25.490669 0.249654
15.908913 25.490669 0.306871
16.223633 25.490669 0.000000
16.538355 25.490669 0.000000
16.853075 25.490669 0.000000
17.167797 25.490669 0.000000
17.482517 25.490669 0.000000
17.797239 25.490669 0.000000
18.111959 25.490669 0.000000
18.426680 25.490669 0.000000
18.741402 25.490669 0.000000
-7.065720 25.175949 0.000000
-6.750999 25.175949 0.011419
-6.436278 25.175949 0.007775
-6.121557 25.175949 0.006632
-5.806836 25.175949 0.005116
-5.492115 25.175949 0.003005
-5.177394 25.175949 0.000515
-4.862673 25.175949 -0.001850
-4.547952 25.175949 -0.003896
-4.233231 25.175949 -0.005009
-3.918510 25.175949 -0.005611
-3.603789 25.175949 -0.005666
-3.289068 25.175949 -0.004679
-2.974347 25.175949 -0.002838
-2.659626 25.175949 -0.000448
-2.344905 25.175949 0.002106
-2.030184 25.175949 0.004289
-1.715463 25.175949 0.005622
-1.400742 25.175949 0.005797
-1.086021 25.175949 0.005172
-0.771300 25.175949 0.003540
-0.456579 25.175949 0.001304
-0.141859 25.175949 -0.001189
0.172863 25.175949 -0.003504
0.487584 25.175949 -0.005032
0.802305 25.175949 -0.005642
1.117026 25.175949 -0.005113
1.431747 25.175949 -0.004214
1.746467 25.175949 -0.003093
2.061188 25.175949 -0.001581
2.375909 25.175949 0.000255
2.690630 25.175949 0.001750
3.005352 25.175949 0.002551
3.320073 25.175949 0.002710
3.634794 25.175949 0.002444
3.949515 25.175949 0.001754
4.264236 25.175949 0.000777
4.578956 25.175949 -0.000306
4.893677 25.175949 -0.001402
5.208398 25.175949 -0.002579
5.523119 25.175949 -0.003542
5.837841 25.175949 -0.004070
6.152562 25.175949 -0.004110
6.467283 25.175949 -0.004217
6.782003 25.175949 -0.004286
7.096724 25.175949 -0.004391
7.411445 25.175949 -0.005381
7.726166 25.175949 -0.005939
8.040888 25.175949 -0.006977
8.355608 25.175949 -0.005605
8.670330 25.175949 -0.009928
8.985050 25.175949 -0.004711
9.299772 25.175949 0.001173
9.614492 25.175949 0.005804
9.929214 25.175949 0.015594
10.243935 25.175949 0.014539
10.558655 25.175949 0.023098
10.873377 25.175949 0.020259
11.188097 25.175949 0.014777
11.502819 25.175949 -0.008473
11.817539 25.175949 -0.000108
12.132261 25.175949 0.043920
12.446981 25.175949 0.090363
12.761703 25.175949 0.124103
13.076424 25.175949 0.169415
13.391144 25.175949 0.162624
13.705866 25.175949 0.141929
14.020586 25.175949 0.152250
14.335308 25.175949 0.162599
14.650028 25.175949 0.161697
14.964750 25.175949 0.160624
15.279470 25.175949 0.196891
15.594193 25.175949 0.278168
15.908913 25.175949 0.319603
16.223633 25.175949 0.000000
16.538355 25.175949 0.000000
16.853075 25.175949 0.000000
17.167797 25.175949 0.000000
17.482517 25.175949 0.000000
17.797239 25.175949 0.000000
18.111959 25.175949 0.000000
18.426680 25.175949 0.000000
18.741402 25.175949 0.000000
-7.065720 24.861227 0.000000
-6.750999 24.861227 0.010938
-6.436278 24.861227 0.006045
-6.121557 24.861227 0.003555
-5.806836 24.861227 0.001166
-5.492115 24.861227 -0.001105
-5.177394 24.861227 -0.003050
-4.862673 24.861227 -0.004595
-4.547952 24.861227 -0.005301
-4.233231 24.861227 -0.005024
-3.918510 24.861227 -0.004135
-3.603789 24.861227 -0.003013
-3.289068 24.861227 -0.001191
-2.974347 24.861227 0.000750
-2.659626 24.861227 0.002788
-2.344905 24.861227 0.004568
-2.030184 24.861227 0.005581
-1.715463 24.861227 0.005455
-1.400742 24.861227 0.004214
-1.086021 24.861227 0.002495
-0.771300 24.861227 0.000310
-0.456579 24.861227 -0.002066
-0.141859 24.861227 -0.004260
0.172863 24.861227 -0.005602
0.487584 24.861227 -0.005702
0.802305 24.861227 -0.004956
1.117026 24.861227 -0.003391
1.431747 24.861227 -0.001481
1.746467 24.861227 0.000113
2.061188 24.861227 0.001562
2.375909 24.861227 0.002666
2.690630 24.861227 0.003080
3.005352 24.861227 0.002652
3.320073 24.861227 0.001592
3.634794 24.861227 0.000647
3.949515 24.861227 -0.000381
4.264236 24.861227 -0.001433
4.578956 24.861227 -0.002117
4.893677 24.861227 -0.002606
5.208398 24.861227 -0.002997
5.523119 24.861227 -0.003232
5.837841 24.861227 -0.003229
6.152562 24.861227 -0.002926
6.467283 24.861227 -0.002924
6.782003 24.861227 -0.003247
7.096724 24.861227 -0.004416
7.411445 24.861227 -0.005346
7.726166 24.861227 -0.005986
8.040888 24.861227 -0.007199
8.355608 24.861227 -0.005326
8.670330 24.861227 -0.005962
8.985050 24.861227 -0.003874
9.299772 24.861227 0.001136
9.614492 24.861227 0.001492
9.929214 24.861227 0.012217
10.243935 24.861227 0.021499
10.558655 24.861227 0.036111
10.873377 24.861227 0.020324
11.188097 24.861227 -0.002704
11.502819 24.861227 -0.003466
11.817539 24.861227 0.011855
12.132261 24.861227 0.045464
12.446981 24.861227 0.092010
12.761703 24.861227 0.114971
13.076424 24.861227 0.169400
13.391144 24.861227 0.159389
13.705866 24.861227 0.144761
14.020586 24.861227 0.162508
14.335308 24.861227 0.150318
14.650028 24.861227 0.155202
14.964750 24.861227 0.168188
15.279470 24.861227 0.233229
15.594193 24.861227 0.256663
15.908913 24.861227 0.300240
16.223633 24.861227 0.000000
16.538355 24.861227 0.000000
16.853075 24.861227 0.000000
17.167797 24.861227 0.000000
17.482517 24.861227 0.000000
17.797239 24.861227 0.000000
18.111959 24.861227 0.000000
18.426680 24.861227 0.000000
18.741402 24.861227 0.000000
-7.065720 24.546507 0.000000
-6.750999 24.546507 0.008019
-6.436278 24.546507 0.002209
-6.121557 24.546507 -0.000798
-5.806836 24.546507 -0.002952
-5.492115 24.546507 -0.004150
-5.177394 24.546507 -0.004689
-4.862673 24.546507 -0.004751
-4.547952 24.546507 -0.003910
-4.233231 24.546507 -0.002246
-3.918510 24.546507 -0.000620
-3.603789 24.546507 0.000782
-3.289068 24.546507 0.002352
-2.974347 24.546507 0.003445
-2.659626 24.546507 0.004278
-2.344905 24.546507 0.004740
-2.030184 24.546507 0.004409
-1.715463 24.546507 0.003027
-1.400742 24.546507 0.001018
-1.086021 24.546507 -0.000871
-0.771300 24.546507 -0.002675
-0.456579 24.546507 -0.004237
-0.141859 24.546507 -0.005282
0.172863 24.546507 -0.005317
0.487584 24.546507 -0.004169
0.802305 24.546507 -0.002462
1.117026 24.546507 -0.000540
1.431747 24.546507 0.001342
1.746467 24.546507 0.002693
2.061188 24.546507 0.003344
2.375909 24.546507 0.003363
2.690630 24.546507 0.002560
3.005352 24.546507 0.001195
3.320073 24.546507 -0.000480
3.634794 24.546507 -0.001576
3.949515 24.546507 -0.002390
4.264236 24.546507 -0.002811
4.578956 24.546507 -0.002759
4.893677 24.546507 -0.002547
5.208398 24.546507 -0.002278
5.523119 24.546507 -0.002283
5.837841 24.546507 -0.002130
6.152562 24.546507 -0.001798
6.467283 24.546507 -0.002129
6.782003 24.546507 -0.002814
7.096724 24.546507 -0.004147
7.411445 24.546507 -0.004777
7.726166 24.546507 -0.004594
8.040888 24.546507 -0.005550
8.355608 24.546507 -0.005175
8.670330 24.546507 -0.002121
8.985050 24.546507 -0.002497
9.299772 24.546507 0.004870
9.614492 24.546507 -0.002087
9.929214 24.546507 0.001844
10.243935 24.546507 0.020306
10.558655 24.546507 0.030978
10.873377 24.546507 0.026201
11.188097 24.546507 -0.004485
11.502819 24.546507 -0.011033
11.817539 24.546507 0.012457
12.132261 24.546507 0.032252
12.446981 24.546507 0.089744
12.761703 24.546507 0.132741
13.076424 24.546507 0.177445
13.391144 24.546507 0.166103
13.705866 24.546507 0.141807
14.020586 24.546507 0.154091
14.335308 24.546507 0.142461
14.650028 24.546507 0.146534
14.964750 24.546507 0.180352
15.279470 24.546507 0.201323
15.594193 24.546507 0.245355
15.908913 24.546507 0.252816
16.223633 24.546507 0.000000
16.538355 24.546507 0.000000
16.853075 24.546507 0.000000
17.167797 24.546507 0.000000
17.482517 24.546507 0.000000
17.797239 24.546507 0.000000
18.111959 24.546507 0.000000
18.426680 24.546507 0.000000
18.741402 24.546507 0.000000
-7.065720 24.231785 0.000000
-6.750999 24.231785 0.004127
-6.436278 24.231785 -0.001822
-6.121557 24.231785 -0.004288
-5.806836 24.231785 -0.005089
-5.492115 24.231785 -0.004598
-5.177394 24.231785 -0.003407
-4.862673 24.231785 -0.002074
-4.547952 24.231785 -0.000304
-4.233231 24.231785 0.001705
-3.918510 24.231785 0.003220
-3.603789 24.231785 0.003956
-3.289068 24.231785 0.004333
-2.974347 24.231785 0.004121
-2.659626 24.231785 0.003551
-2.344905 24.231785 0.002695
-2.030184 24.231785 0.001374
-1.715463 24.231785 -0.000408
-1.400742 24.231785 -0.002276
-1.086021 24.231785 -0.003378
-0.771300 24.231785 -0.003982
-0.456579 24.231785 -0.004128
-0.141859 24.231785 -0.003727
0.172863 24.231785 -0.002782
0.487584 24.231785 -0.001165
0.802305 24.231785 0.000540
1.117026 24.231785 0.002017
1.431747 24.231785 0.003178
1.746467 24.231785 0.003694
2.061188 24.231785 0.003339
2.375909 24.231785 0.002337
2.690630 24.231785 0.000753
3.005352 24.231785 -0.000855
3.320073 24.231785 -0.002241
3.634794 24.231785 -0.002938
3.949515 24.231785 -0.003209
4.264236 24.231785 -0.002880
4.578956 24.231785 -0.002091
4.893677 24.231785 -0.001634
5.208398 24.231785 -0.001272
5.523119 24.231785 -0.001334
5.837841 24.231785 -0.001347
6.152562 24.231785 -0.001169
6.467283 24.231785 -0.001339
6.782003 24.231785 -0.002133
7.096724 24.231785 -0.003377
7.411445 24.231785 -0.004158
7.726166 24.231785 -0.002362
8.040888 24.231785 -0.001150
8.355608 24.231785 -0.001096
8.670330 24.231785 -0.003754
8.985050 24.231785 -0.005207
9.299772 24.231785 -0.000224
9.614492 24.231785 -0.003687
9.929214 24.231785 0.003135
10.243935 24.231785 0.017011
10.558655 24.231785 0.023157
10.873377 24.231785 0.035743
11.188097 24.231785 0.025937
11.502819 24.231785 0.006175
11.817539 24.231785 0.011773
12.132261 24.231785 0.044745
12.446981 24.231785 0.102026
12.761703 24.231785 0.173202
13.076424 24.231785 0.184651
13.391144 24.231785 0.175232
13.705866 24.231785 0.145082
14.020586 24.231785 0.154682
14.335308 24.231785 0.172180
14.650028 24.231785 0.149160
14.964750 24.231785 0.186863
15.279470 24.231785 0.218942
15.594193 24.231785 0.221997
15.908913 24.231785 0.263853
16.223633 24.231785 0.000000
16.538355 24.231785 0.000000
16.853075 24.231785 0.000000
17.167797 24.231785 0.000000
17.482517 24.231785 0.000000
17.797239 24.231785 0.000000
18.111959 24.231785 0.000000
18.426680 24.231785 0.000000
18.741402 24.231785 0.000000
-7.065720 23.917065 0.000000
-6.750999 23.917065 0.001223
-6.436278 23.917065 -0.003954
-6.121557 23.917065 -0.005014
-5.806836 23.917065 -0.004213
-5.492115 23.917065 -0.002181
-5.177394 23.917065 0.000157
-4.862673 23.917065 0.001995
-4.547952 23.917065 0.003533
-4.233231 23.917065 0.004804
-3.918510 23.917065 0.005364
-3.603789 23.917065 0.005016
-3.289068 23.917065 0.004104
-2.974347 23.917065 0.002696
-2.659626 23.917065 0.001108
-2.344905 23.917065 -0.000382
-2.030184 23.917065 -0.001837
-1.715463 23.917065 -0.003112
-1.400742 23.917065 -0.003908
-1.086021 23.917065 -0.003787
-0.771300 23.917065 -0.003036
-0.456579 23.917065 -0.001964
-0.141859 23.917065 -0.000638
0.172863 23.917065 0.000560
0.487584 23.917065 0.001689
0.802305 23.917065 0.002712
1.117026 23.917065 0.003136
1.431747 23.917065 0.003294
1.746467 23.917065 0.002933
2.061188 23.917065 0.001810
2.375909 23.917065 0.000331
2.690630 23.917065 -0.001266
3.005352 23.917065 -0.002430
3.320073 23.917065 -0.002993
3.634794 23.917065 -0.003001
3.949515 23.917065 -0.002658
4.264236 23.917065 -0.001932
4.578956 23.917065 -0.000965
4.893677 23.917065 -0.000734
5.208398 23.917065 -0.000661
5.523119 23.917065 -0.000883
5.837841 23.917065 -0.000999
6.152562 23.917065 -0.000734
6.467283 23.917065 -0.000601
6.782003 23.917065 -0.001784
7.096724 23.917065 -0.002687
7.411445 23.917065 -0.002802
7.726166 23.917065 -0.000292
8.040888 23.917065 -0.001431
8.355608 23.917065 -0.002302
8.670330 23.917065 -0.001207
8.985050 23.917065 -0.008910
9.299772 23.917065 -0.007606
9.614492 23.917065 -0.006136
9.929214 23.917065 0.006648
10.243935 23.917065 0.017657
10.558655 23.917065 0.031635
10.873377 23.917065 0.031674
11.188097 23.917065 0.025700
11.502819 23.917065 0.021364
11.817539 23.917065 0.015629
12.132261 23.917065 0.059214
12.446981 23.917065 0.107103
12.761703 23.917065 0.160688
13.076424 23.917065 0.165269
13.391144 23.917065 0.178102
13.705866 23.917065 0.162531
14.020586 23.917065 0.135767
14.335308 23.917065 0.169351
14.650028 23.917065 0.158435
14.964750 23.917065 0.209632
15.279470 23.917065 0.235919
15.594193 23.917065 0.222138
15.908913 23.917065 0.305854
16.223633 23.917065 0.000000
16.538355 23.917065 0.000000
16.853075 23.917065 0.000000
17.167797 23.917065 0.000000
17.482517 23.917065 0.000000
17.797239 23.917065 0.000000
18.111959 23.917065 0.000000
18.426680 23.917065 0.000000
18.741402 23.917065 0.000000
-7.065720 23.602343 0.000000
-6.750999 23.602343 0.000924
-6.436278 23.602343 -0.002954
-6.121557 23.602343 -0.002738
-5.806836 23.602343 -0.000835
-5.492115 23.602343 0.001573
-5.177394 23.602343 0.003787
-4.862673 23.602343 0.005047
-4.547952 23.602343 0.005563
-4.233231 23.602343 0.005563
-3.918510 23.602343 0.004930
-3.603789 23.602343 0.003690
-3.289068 23.602343 0.002012
-2.974347 23.602343 0.000147
-2.659626 23.602343 -0.001601
-2.344905 23.602343 -0.002905
-2.030184 23.602343 -0.003643
-1.715463 23.602343 -0.003734
-1.400742 23.602343 -0.003252
-1.086021 23.602343 -0.002060
-0.771300 23.602343 -0.000548
-0.456579 23.602343 0.000976
-0.141859 23.602343 0.002348
0.172863 23.602343 0.003019
0.487584 23.602343 0.003303
0.802305 23.602343 0.003221
1.117026 23.602343 0.002694
1.431747 23.602343 0.002008
1.746467 23.602343 0.001054
2.061188 23.602343 -0.000269
2.375909 23.602343 -0.001447
2.690630 23.602343 -0.002501
3.005352 23.602343 -0.002728
3.320073 23.602343 -0.002505
3.634794 23.602343 -0.002041
3.949515 23.602343 -0.001398
4.264236 23.602343 -0.000707
4.578956 23.602343 -0.000061
4.893677 23.602343 -0.000207
5.208398 23.602343 -0.000395
5.523119 23.602343 -0.000671
5.837841 23.602343 -0.000693
6.152562 23.602343 -0.000061
6.467283 23.602343 -0.000124
6.782003 23.602343 -0.001053
7.096724 23.602343 -0.001702
7.411445 23.602343 -0.001054
7.726166 23.602343 -0.001235
8.040888 23.602343 -0.003826
8.355608 23.602343 -0.005421
8.670330 23.602343 -0.002029
8.985050 23.602343 -0.013057
9.299772 23.602343 -0.007159
9.614492 23.602343 -0.011455
9.929214 23.602343 -0.002781
10.243935 23.602343 0.019889
10.558655 23.602343 0.031824
10.873377 23.602343 0.037901
11.188097 23.602343 0.035575
11.502819 23.602343 0.032791
11.817539 23.602343 0.020287
12.132261 23.602343 0.072548
12.446981 23.602343 0.097760
12.761703 23.602343 0.160320
13.076424 23.602343 0.213074
13.391144 23.602343 0.182900
13.705866 23.602343 0.173193
14.020586 23.602343 0.174232
14.335308 23.602343 0.174143
14.650028 23.602343 0.171607
14.964750 23.602343 0.198892
15.279470 23.602343 0.232581
15.594193 23.602343 0.259723
15.908913 23.602343 0.184657
16.223633 23.602343 0.000000
16.538355 23.602343 0.000000
16.853075 23.602343 0.000000
17.167797 23.602343 0.000000
17.482517 23.602343 0.000000
17.797239 23.602343 0.000000
18.111959 23.602343 0.000000
18.426680 23.602343 0.000000
18.741402 23.602343 0.000000
-7.065720 23.287622 0.000000
-6.750999 23.287622 0.003244
-6.436278 23.287622 0.000423
-6.121557 23.287622 0.001227
-5.806836 23.287622 0.002867
-5.492115 23.287622 0.004388
-5.177394 23.287622 0.005502
-4.862673 23.287622 0.005759
-4.547952 23.287622 0.004963
-4.233231 23.287622 0.003625
-3.918510 23.287622 0.002330
-3.603789 23.287622 0.000934
-3.289068 23.287622 -0.000638
-2.974347 23.287622 -0.001971
-2.659626 23.287622 -0.002981
-2.344905 23.287622 -0.003346
-2.030184 23.287622 -0.003084
-1.715463 23.287622 -0.002128
-1.400742 23.287622 -0.000846
-1.086021 23.287622 0.000623
-0.771300 23.287622 0.002039
-0.456579 23.287622 0.003103
-0.141859 23.287622 0.003843
0.172863 23.287622 0.003796
0.487584 23.287622 0.003148
0.802305 23.287622 0.002313
1.117026 23.287622 0.001191
1.431747 23.287622 0.000190
1.746467 23.287622 -0.000789
2.061188 23.287622 -0.001653
2.375909 23.287622 -0.002250
2.690630 23.287622 -0.002435
3.005352 23.287622 -0.001925
3.320073 23.287622 -0.001285
3.634794 23.287622 -0.000796
3.949515 23.287622 -0.000299
4.264236 23.287622 0.000066
4.578956 23.287622 0.000172
4.893677 23.287622 -0.000072
5.208398 23.287622 -0.000357
5.523119 23.287622 -0.000462
5.837841 23.287622 -0.000376
6.152562 23.287622 0.000330
6.467283 23.287622 0.000144
6.782003 23.287622 -0.001174
7.096724 23.287622 -0.001809
7.411445 23.287622 -0.002442
7.726166 23.287622 -0.004211
8.040888 23.287622 -0.007602
8.355608 23.287622 -0.007931
8.670330 23.287622 -0.005755
8.985050 23.287622 -0.009802
9.299772 23.287622 -0.006486
9.614492 23.287622 -0.009576
9.929214 23.287622 0.002397
10.243935 23.287622 0.010083
10.558655 23.287622 0.033825
10.873377 23.287622 0.019788
11.188097 23.287622 0.021121
11.502819 23.287622 0.014834
11.817539 23.287622 0.034963
12.132261 23.287622 0.064876
12.446981 23.287622 0.112069
12.761703 23.287622 0.153983
13.076424 23.287622 0.180001
13.391144 23.287622 0.203329
13.705866 23.287622 0.163720
14.020586 23.287622 0.168855
14.335308 23.287622 0.163950
14.650028 23.287622 0.165052
14.964750 23.287622 0.214466
15.279470 23.287622 0.242824
15.594193 23.287622 0.219368
15.908913 23.287622 0.276778
16.223633 23.287622 0.000000
16.538355 23.287622 0.000000
16.853075 23.287622 0.000000
17.167797 23.287622 0.000000
17.482517 23.287622 0.000000
17.797239 23.287622 0.000000
18.111959 23.287622 0.000000
18.426680 23.287622 0.000000
18.741402 23.287622 0.000000
-7.065720 22.972902 0.000000
-6.750999 22.972902 0.006702
-6.436278 22.972902 0.004028
-6.121557 22.972902 0.004560
-5.806836 22.972902 0.005048
-5.492115 22.972902 0.004854
-5.177394 22.972902 0.004536
-4.862673 22.972902 0.003764
-4.547952 22.972902 0.002115
-4.233231 22.972902 0.000335
-3.918510 22.972902 -0.000845
-3.603789 22.972902 -0.001559
-3.289068 22.972902 -0.002112
-2.974347 22.972902 -0.002372
-2.659626 22.972902 -0.002268
-2.344905 22.972902 -0.001765
-2.030184 22.972902 -0.000788
-1.715463 22.972902 0.000462
-1.400742 22.972902 0.001644
-1.086021 22.972902 0.002640
-0.771300 22.972902 0.003292
-0.456579 22.972902 0.003522
-0.141859 22.972902 0.003529
0.172863 22.972902 0.002898
0.487584 22.972902 0.001740
0.802305 22.972902 0.000659
1.117026 22.972902 -0.000410
1.431747 22.972902 -0.001278
1.746467 22.972902 -0.001736
2.061188 22.972902 -0.001891
2.375909 22.972902 -0.001882
2.690630 22.972902 -0.001509
3.005352 22.972902 -0.000679
3.320073 22.972902 -0.000079
3.634794 22.972902 0.000166
3.949515 22.972902 0.000390
4.264236 22.972902 0.000384
4.578956 22.972902 0.000173
4.893677 22.972902 -0.000157
5.208398 22.972902 -0.000320
5.523119 22.972902 -0.000287
5.837841 22.972902 -0.000177
6.152562 22.972902 0.000255
6.467283 22.972902 -0.000270
6.782003 22.972902 -0.001993
7.096724 22.972902 -0.003588
7.411445 22.972902 -0.005022
7.726166 22.972902 -0.008139
8.040888 22.972902 -0.011627
8.355608 22.972902 -0.009212
8.670330 22.972902 -0.007787
8.985050 22.972902 -0.009452
9.299772 22.972902 -0.005599
9.614492 22.972902 0.001324
9.929214 22.972902 0.007352
10.243935 22.972902 0.020093
10.558655 22.972902 0.017581
10.873377 22.972902 0.020419
11.188097 22.972902 0.006774
11.502819 22.972902 -0.000199
11.817539 22.972902 0.032458
12.132261 22.972902 0.072435
12.446981 22.972902 0.098888
12.761703 22.972902 0.155859
13.076424 22.972902 0.168489
13.391144 22.972902 0.194040
13.705866 22.972902 0.177773
14.020586 22.972902 0.170104
14.335308 22.972902 0.170775
14.650028 22.972902 0.173482
14.964750 22.972902 0.230903
15.279470 22.972902 0.269209
15.594193 22.972902 0.295699
15.908913 22.972902 0.262205
16.223633 22.972902 0.000000
16.538355 22.972902 0.000000
16.853075 22.972902 0.000000
17.167797 22.972902 0.000000
17.482517 22.972902 0.000000
17.797239 22.972902 0.000000
18.111959 22.972902 0.000000
18.426680 22.972902 0.000000
18.741402 22.972902 0.000000
-7.065720 22.658180 0.000000
-6.750999 22.658180 0.009025
-6.436278 22.658180 0.005857
-6.121557 22.658180 0.005436
-5.806836 22.658180 0.004581
-5.492115 22.658180 0.003049
-5.177394 22.658180 0.001508
-4.862673 22.658180 0.000314
-4.547952 22.658180 -0.001368
-4.233231 22.658180 -0.002523
-3.918510 22.658180 -0.002735
-3.603789 22.658180 -0.002224
-3.289068 22.658180 -0.001565
-2.974347 22.658180 -0.000842
-2.659626 22.658180 -0.000013
-2.344905 22.658180 0.000923
-2.030184 22.658180 0.001745
-1.715463 22.658180 0.002555
-1.400742 22.658180 0.002999
-1.086021 22.658180 0.003143
-0.771300 22.658180 0.002766
-0.456579 22.658180 0.002300
-0.141859 22.658180 0.001805
0.172863 22.658180 0.001034
0.487584 22.658180 0.000070
0.802305 22.658180 -0.000726
1.117026 22.658180 -0.001308
1.431747 22.658180 -0.001622
1.746467 22.658180 -0.001623
2.061188 22.658180 -0.001320
2.375909 22.658180 -0.000974
2.690630 22.658180 -0.000354
3.005352 22.658180 0.000427
3.320073 22.658180 0.000734
3.634794 22.658180 0.000801
3.949515 22.658180 0.000863
4.264236 22.658180 0.000552
4.578956 22.658180 0.000079
4.893677 22.658180 -0.000137
5.208398 22.658180 -0.000124
5.523119 22.658180 -0.000249
5.837841 22.658180 -0.000259
6.152562 22.658180 -0.000490
6.467283 22.658180 -0.001457
6.782003 22.658180 -0.003223
7.096724 22.658180 -0.004651
7.411445 22.658180 -0.006702
7.726166 22.658180 -0.008637
8.040888 22.658180 -0.009332
8.355608 22.658180 -0.007384
8.670330 22.658180 -0.010428
8.985050 22.658180 -0.009597
9.299772 22.658180 0.001583
9.614492 22.658180 -0.001965
9.929214 22.658180 0.004407
10.243935 22.658180 0.008955
10.558655 22.658180 0.028872
10.873377 22.658180 0.027225
11.188097 22.658180 0.017767
11.502819 22.658180 0.012118
11.817539 22.658180 0.054916
12.132261 22.658180 0.080323
12.446981 22.658180 0.126200
12.761703 22.658180 0.143012
13.076424 22.658180 0.142799
13.391144 22.658180 0.176910
13.705866 22.658180 0.182272
14.020586 22.658180 0.180951
14.335308 22.658180 0.167347
14.650028 22.658180 0.175209
14.964750 22.658180 0.249774
15.279470 22.658180 0.261704
15.594193 22.658180 0.247039
15.908913 22.658180 0.282372
16.223633 22.658180 0.000000
16.538355 22.658180 0.000000
16.853075 22.658180 0.000000
17.167797 22.658180 0.000000
17.482517 22.658180 0.000000
17.797239 22.658180 0.000000
18.111959 22.658180 0.000000
18.426680 22.658180 0.000000
18.741402 22.658180 0.000000
-7.065720 22.343460 0.000000
-6.750999 22.343460 0.008780
-6.436278 22.343460 0.005215
-6.121557 22.343460 0.003887
-5.806836 22.343460 0.002181
-5.492115 22.343460 -0.000048
-5.177394 22.343460 -0.001598
-4.862673 22.343460 -0.002484
-4.547952 22.343460 -0.003281
-4.233231 22.343460 -0.003326
-3.918510 22.343460 -0.002456
-3.603789 22.343460 -0.000996
-3.289068 22.343460 0.000394
-2.974347 22.343460 0.001518
-2.659626 22.343460 0.002467
-2.344905 22.343460 0.003033
-2.030184 22.343460 0.003168
-1.715463 22.343460 0.003126
-1.400742 22.343460 0.002839
-1.086021 22.343460 0.002226
-0.771300 22.343460 0.001182
-0.456579 22.343460 0.000343
-0.141859 22.343460 -0.000166
0.172863 22.343460 -0.000600
0.487584 22.343460 -0.000967
0.802305 22.343460 -0.001168
1.117026 22.343460 -0.001239
1.431747 22.343460 -0.001103
1.746467 22.343460 -0.000902
2.061188 22.343460 -0.000550
2.375909 22.343460 -0.000061
2.690630 22.343460 0.000539
3.005352 22.343460 0.001102
3.320073 22.343460 0.001219
3.634794 22.343460 0.001194
3.949515 22.343460 0.001154
4.264236 22.343460 0.000585
4.578956 22.343460 0.000115
4.893677 22.343460 -0.000121
5.208398 22.343460 -0.000272
5.523119 22.343460 -0.000637
5.837841 22.343460 -0.001074
6.152562 22.343460 -0.001679
6.467283 22.343460 -0.002552
6.782003 22.343460 -0.004055
7.096724 22.343460 -0.004926
7.411445 22.343460 -0.005800
7.726166 22.343460 -0.006855
8.040888 22.343460 -0.006816
8.355608 22.343460 -0.005017
8.670330 22.343460 -0.007592
8.985050 22.343460 -0.007793
9.299772 22.343460 0.000137
9.614492 22.343460 0.001675
9.929214 22.343460 0.005304
10.243935 22.343460 0.019187
10.558655 22.343460 0.041969
10.873377 22.343460 0.032330
11.188097 22.343460 0.023860
11.502819 22.343460 0.044117
11.817539 22.343460 0.076120
12.132261 22.343460 0.102728
12.446981 22.343460 0.116363
12.761703 22.343460 0.158627
13.076424 22.343460 0.154069
13.391144 22.343460 0.184658
13.705866 22.343460 0.169866
14.020586 22.343460 0.169394
14.335308 22.343460 0.176103
14.650028 22.343460 0.189479
14.964750 22.343460 0.237402
15.279470 22.343460 0.274409
15.594193 22.343460 0.317541
15.908913 22.343460 0.234695
16.223633 22.343460 0.000000
16.538355 22.343460 0.000000
16.853075 22.343460 0.000000
17.167797 22.343460 0.000000
17.482517 22.343460 0.000000
17.797239 22.343460 0.000000
18.111959 22.343460 0.000000
18.426680 22.343460 0.000000
18.741402 22.343460 0.000000
-7.065720 22.028738 0.000000
-6.750999 22.028738 0.006495
-6.436278 22.028738 0.002698
-6.121557 22.028738 0.001207
-5.806836 22.028738 -0.000376
-5.492115 22.028738 -0.002130
-5.177394 22.028738 -0.002989
-4.862673 22.028738 -0.002937
-4.547952 22.028738 -0.002705
-4.233231 22.028738 -0.001969
-3.918510 22.028738 -0.000579
-3.603789 22.028738 0.001153
-3.289068 22.028738 0.002436
-2.974347 22.028738 0.003276
-2.659626 22.028738 0.003706
-2.344905 22.028738 0.003564
-2.030184 22.028738 0.002973
-1.715463 22.028738 0.002184
-1.400742 22.028738 0.001380
-1.086021 22.028738 0.000598
-0.771300 22.028738 -0.000499
-0.456579 22.028738 -0.001214
-0.141859 22.028738 -0.001373
0.172863 22.028738 -0.001246
0.487584 22.028738 -0.001151
0.802305 22.028738 -0.000894
1.117026 22.028738 -0.000699
1.431747 22.028738 -0.000365
1.746467 22.028738 -0.000170
2.061188 22.028738 0.000018
2.375909 22.028738 0.000531
2.690630 22.028738 0.001025
3.005352 22.028738 0.001460
3.320073 22.028738 0.001546
3.634794 22.028738 0.001440
3.949515 22.028738 0.001138
4.264236 22.028738 0.000498
4.578956 22.028738 0.000005
4.893677 22.028738 -0.000302
5.208398 22.028738 -0.000692
5.523119 22.028738 -0.001241
5.837841 22.028738 -0.001914
6.152562 22.028738 -0.002590
6.467283 22.028738 -0.003044
6.782003 22.028738 -0.003681
7.096724 22.028738 -0.003714
7.411445 22.028738 -0.002892
7.726166 22.028738 -0.003642
8.040888 22.028738 -0.002064
8.355608 22.028738 -0.002158
8.670330 22.028738 -0.002634
8.985050 22.028738 -0.004244
9.299772 22.028738 0.003629
9.614492 22.028738 0.002270
9.929214 22.028738 0.008587
10.243935 22.028738 0.022197
10.558655 22.028738 0.031044
10.873377 22.028738 0.035644
11.188097 22.028738 0.022702
11.502819 22.028738 0.054393
11.817539 22.028738 0.078820
12.132261 22.028738 0.087708
12.446981 22.028738 0.123257
12.761703 22.028738 0.159080
13.076424 22.028738 0.179357
13.391144 22.028738 0.148569
13.705866 22.028738 0.147580
14.020586 22.028738 0.169827
14.335308 22.028738 0.177335
14.650028 22.028738 0.182587
14.964750 22.028738 0.219675
15.279470 22.028738 0.325573
15.594193 22.028738 0.352043
15.908913 22.028738 0.340234
16.223633 22.028738 0.000000
16.538355 22.028738 0.000000
16.853075 22.028738 0.000000
17.167797 22.028738 0.000000
17.482517 22.028738 0.000000
17.797239 22.028738 0.000000
18.111959 22.028738 0.000000
18.426680 22.028738 0.000000
18.741402 22.028738 0.000000
-7.065720 21.714018 0.000000
-6.750999 21.714018 0.003565
-6.436278 21.714018 0.000156
-6.121557 21.714018 -0.000647
-5.806836 21.714018 -0.001342
-5.492115 21.714018 -0.002032
-5.177394 21.714018 -0.001849
-4.862673 21.714018 -0.000980
-4.547952 21.714018 -0.000316
-4.233231 21.714018 0.000432
-3.918510 21.714018 0.001437
-3.603789 21.714018 0.002692
-3.289068 21.714018 0.003391
-2.974347 21.714018 0.003554
-2.659626 21.714018 0.003285
-2.344905 21.714018 0.002586
-2.030184 21.714018 0.001649
-1.715463 21.714018 0.000542
-1.400742 21.714018 -0.000242
-1.086021 21.714018 -0.000707
-0.771300 21.714018 -0.001378
-0.456579 21.714018 -0.001744
-0.141859 21.714018 -0.001542
0.172863 21.714018 -0.001106
0.487584 21.714018 -0.000644
0.802305 21.714018 -0.000274
1.117026 21.714018 -0.000032
1.431747 21.714018 0.000166
1.746467 21.714018 0.000448
2.061188 21.714018 0.000603
2.375909 21.714018 0.000910
2.690630 21.714018 0.001234
3.005352 21.714018 0.001457
3.320073 21.714018 0.001430
3.634794 21.714018 0.001197
3.949515 21.714018 0.000644
4.264236 21.714018 -0.000049
4.578956 21.714018 -0.000486
4.893677 21.714018 -0.000758
5.208398 21.714018 -0.001141
5.523119 21.714018 -0.001557
5.837841 21.714018 -0.002136
6.152562 21.714018 -0.002447
6.467283 21.714018 -0.002208
6.782003 21.714018 -0.001980
7.096724 21.714018 -0.001304
7.411445 21.714018 -0.000888
7.726166 21.714018 -0.001795
8.040888 21.714018 -0.001506
8.355608 21.714018 -0.002923
8.670330 21.714018 -0.003812
8.985050 21.714018 -0.005965
9.299772 21.714018 0.002886
9.614492 21.714018 0.009703
9.929214 21.714018 0.009374
10.243935 21.714018 0.021180
10.558655 21.714018 0.036152
10.873377 21.714018 0.052440
11.188097 21.714018 0.035450
11.502819 21.714018 0.052350
11.817539 21.714018 0.097596
12.132261 21.714018 0.090842
12.446981 21.714018 0.128769
12.761703 21.714018 0.161729
13.076424 21.714018 0.174528
13.391144 21.714018 0.146940
13.705866 21.714018 0.142005
14.020586 21.714018 0.168319
14.335308 21.714018 0.176476
14.650028 21.714018 0.189328
14.964750 21.714018 0.238403
15.279470 21.714018 0.358121
15.594193 21.714018 0.385853
15.908913 21.714018 0.345905
16.223633 21.714018 0.000000
16.538355 21.714018 0.000000
16.853075 21.714018 0.000000
17.167797 21.714018 0.000000
17.482517 21.714018 0.000000
17.797239 21.714018 0.000000
18.111959 21.714018 0.000000
18.426680 21.714018 0.000000
18.741402 21.714018 0.000000
-7.065720 21.399296 0.000000
-6.750999 21.399296 0.001993
-6.436278 21.399296 -0.000773
-6.121557 21.399296 -0.000569
-5.806836 21.399296 -0.000227
-5.492115 21.399296 0.000035
-5.177394 21.399296 0.000705
-4.862673 21.399296 0.001634
-4.547952 21.399296 0.002122
-4.233231 21.399296 0.002253
-3.918510 21.399296 0.002391
-3.603789 21.399296 0.002762
-3.289068 21.399296 0.002687
-2.974347 21.399296 0.002246
-2.659626 21.399296 0.001594
-2.344905 21.399296 0.000859
-2.030184 21.399296 0.000104
-1.715463 21.399296 -0.000737
-1.400742 21.399296 -0.001140
-1.086021 21.399296 -0.001136
-0.771300 21.399296 -0.001419
-0.456579 21.399296 -0.001509
-0.141859 21.399296 -0.001116
0.172863 21.399296 -0.000542
0.487584 21.399296 -0.000017
0.802305 21.399296 0.000389
1.117026 21.399296 0.000644
1.431747 21.399296 0.000765
1.746467 21.399296 0.000872
2.061188 21.399296 0.000935
2.375909 21.399296 0.000930
2.690630 21.399296 0.000941
3.005352 21.399296 0.000908
3.320073 21.399296 0.000626
3.634794 21.399296 0.000266
3.949515 21.399296 -0.000343
4.264236 21.399296 -0.000868
4.578956 21.399296 -0.001032
4.893677 21.399296 -0.001018
5.208398 21.399296 -0.001116
5.523119 21.399296 -0.001096
5.837841 21.399296 -0.001091
6.152562 21.399296 -0.000911
6.467283 21.399296 -0.000478
6.782003 21.399296 -0.000230
7.096724 21.399296 -0.000576
7.411445 21.399296 0.000441
7.726166 21.399296 -0.001035
8.040888 21.399296 -0.002190
8.355608 21.399296 -0.007111
8.670330 21.399296 -0.006219
8.985050 21.399296 0.000672
9.299772 21.399296 0.001772
9.614492 21.399296 0.006213
9.929214 21.399296 0.017065
10.243935 21.399296 0.015286
10.558655 21.399296 0.032765
10.873377 21.399296 0.037671
11.188097 21.399296 0.043769
11.502819 21.399296 0.055841
11.817539 21.399296 0.091947
12.132261 21.399296 0.080882
12.446981 21.399296 0.116314
12.761703 21.399296 0.166668
13.076424 21.399296 0.166975
13.391144 21.399296 0.154953
13.705866 21.399296 0.140798
14.020586 21.399296 0.141169
14.335308 21.399296 0.166401
14.650028 21.399296 0.188443
14.964750 21.399296 0.231146
15.279470 21.399296 0.345633
15.594193 21.399296 0.456490
15.908913 21.399296 0.561011
16.223633 21.399296 0.000000
16.538355 21.399296 0.000000
16.853075 21.399296 0.000000
17.167797 21.399296 0.000000
17.482517 21.399296 0.000000
17.797239 21.399296 0.000000
18.111959 21.399296 0.000000
18.426680 21.399296 0.000000
18.741402 21.399296 0.000000
-7.065720 21.084576 0.000000
-6.750999 21.084576 0.002698
-6.436278 21.084576 0.000291
-6.121557 21.084576 0.001020
-5.806836 21.084576 0.001868
-5.492115 21.084576 0.002479
-5.177394 21.084576 0.002932
-4.862673 21.084576 0.003254
-4.547952 21.084576 0.003173
-4.233231 21.084576 0.002623
-3.918510 21.084576 0.001979
-3.603789 21.084576 0.001605
-3.289068 21.084576 0.001084
-2.974347 21.084576 0.000466
-2.659626 21.084576 -0.000144
-2.344905 21.084576 -0.000479
-2.030184 21.084576 -0.000623
-1.715463 21.084576 -0.000991
-1.400742 21.084576 -0.001058
-1.086021 21.084576 -0.000905
-0.771300 21.084576 -0.000934
-0.456579 21.084576 -0.000861
-0.141859 21.084576 -0.000452
0.172863 21.084576 0.000051
0.487584 21.084576 0.000485
0.802305 21.084576 0.000892
1.117026 21.084576 0.001110
1.431747 21.084576 0.001153
1.746467 21.084576 0.001102
2.061188 21.084576 0.000911
2.375909 21.084576 0.000567
2.690630 21.084576 0.000173
3.005352 21.084576 -0.000225
3.320073 21.084576 -0.000665
3.634794 21.084576 -0.000979
3.949515 21.084576 -0.001207
4.264236 21.084576 -0.001201
4.578956 21.084576 -0.000884
4.893677 21.084576 -0.000401
5.208398 21.084576 -0.000137
5.523119 21.084576 0.000187
5.837841 21.084576 0.000555
6.152562 21.084576 0.000975
6.467283 21.084576 0.000827
6.782003 21.084576 0.000174
7.096724 21.084576 -0.001075
7.411445 21.084576 -0.000333
7.726166 21.084576 -0.003606
8.040888 21.084576 -0.008105
8.355608 21.084576 -0.006914
8.670330 21.084576 -0.007319
8.985050 21.084576 0.000781
9.299772 21.084576 0.005862
9.614492 21.084576 0.004168
9.929214 21.084576 0.013412
10.243935 21.084576 0.014138
10.558655 21.084576 0.021692
10.873377 21.084576 0.036771
11.188097 21.084576 0.043354
11.502819 21.084576 0.062275
11.817539 21.084576 0.082137
12.132261 21.084576 0.106042
12.446981 21.084576 0.117474
12.761703 21.084576 0.154337
13.076424 21.084576 0.158336
13.391144 21.084576 0.146576
13.705866 21.084576 0.136809
14.020586 21.084576 0.155341
14.335308 21.084576 0.168296
14.650028 21.084576 0.209091
14.964750 21.084576 0.241615
15.279470 21.084576 0.333564
15.594193 21.084576 0.536061
15.908913 21.084576 0.674952
16.223633 21.084576 0.000000
16.538355 21.084576 0.000000
16.853075 21.084576 0.000000
17.167797 21.084576 0.000000
17.482517 21.084576 0.000000
17.797239 21.084576 0.000000
18.111959 21.084576 0.000000
18.426680 21.084576 0.000000
18.741402 21.084576 0.000000
-7.065720 20.769855 0.000000
-6.750999 20.769855 0.004745
-6.436278 20.769855 0.002100
-6.121557 20.769855 0.002631
-5.806836 20.769855 0.003361
-5.492115 20.769855 0.003697
-5.177394 20.769855 0.003587
-4.862673 20.769855 0.003168
-4.547952 20.769855 0.002593
-4.233231 20.769855 0.001725
-3.918510 20.769855 0.000781
-3.603789 20.769855 0.000217
-3.289068 20.769855 -0.000225
-2.974347 20.769855 -0.000693
-2.659626 20.769855 -0.000948
-2.344905 20.769855 -0.000865
-2.030184 20.769855 -0.000483
-1.715463 20.769855 -0.000473
-1.400742 20.769855 -0.000479
-1.086021 20.769855 -0.000330
-0.771300 20.769855 -0.000272
-0.456579 20.769855 -0.000125
-0.141859 20.769855 0.000238
0.172863 20.769855 0.000518
0.487584 20.769855 0.000729
0.802305 20.769855 0.001121
1.117026 20.769855 0.001257
1.431747 20.769855 0.001186
1.746467 20.769855 0.000874
2.061188 20.769855 0.000496
2.375909 20.769855 -0.000114
2.690630 20.769855 -0.000803
3.005352 20.769855 -0.001348
3.320073 20.769855 -0.001743
3.634794 20.769855 -0.001724
3.949515 20.769855 -0.001242
4.264236 20.769855 -0.000507
4.578956 20.769855 0.000264
4.893677 20.769855 0.000886
5.208398 20.769855 0.001059
5.523119 20.769855 0.001333
5.837841 20.769855 0.001508
6.152562 20.769855 0.001338
6.467283 20.769855 0.000250
6.782003 20.769855 -0.001454
7.096724 20.769855 -0.003596
7.411445 20.769855 -0.004342
7.726166 20.769855 -0.005389
8.040888 20.769855 -0.009032
8.355608 20.769855 -0.004568
8.670330 20.769855 -0.003352
8.985050 20.769855 0.008183
9.299772 20.769855 0.011090
9.614492 20.769855 0.009599
9.929214 20.769855 0.013170
10.243935 20.769855 0.011932
10.558655 20.769855 0.022296
10.873377 20.769855 0.033826
11.188097 20.769855 0.052775
11.502819 20.769855 0.068808
11.817539 20.769855 0.080076
12.132261 20.769855 0.114962
12.446981 20.769855 0.116742
12.761703 20.769855 0.157552
13.076424 20.769855 0.149122
13.391144 20.769855 0.138613
13.705866 20.769855 0.147752
14.020586 20.769855 0.138062
14.335308 20.769855 0.166910
14.650028 20.769855 0.198775
14.964750 20.769855 0.253589
15.279470 20.769855 0.385095
15.594193 20.769855 0.575464
15.908913 20.769855 0.000000
16.223633 20.769855 0.000000
16.538355 20.769855 0.000000
16.853075 20.769855 0.000000
17.167797 20.769855 0.000000
17.482517 20.769855 0.000000
17.797239 20.769855 0.000000
18.111959 20.769855 0.000000
18.426680 20.769855 0.000000
18.741402 20.769855 0.000000
-7.065720 20.455133 0.000000
-6.750999 20.455133 0.006247
-6.436278 20.455133 0.003199
-6.121557 20.455133 0.003122
-5.806836 20.455133 0.003463
-5.492115 20.455133 0.003438
-5.177394 20.455133 0.002783
-4.862673 20.455133 0.001856
-4.547952 20.455133 0.001155
-4.233231 20.455133 0.000565
-3.918510 20.455133 -0.000131
-3.603789 20.455133 -0.000440
-3.289068 20.455133 -0.000557
-2.974347 20.455133 -0.000832
-2.659626 20.455133 -0.000947
-2.344905 20.455133 -0.000603
-2.030184 20.455133 0.000028
-1.715463 20.455133 0.000187
-1.400742 20.455133 0.000169
-1.086021 20.455133 0.000255
-0.771300 20.455133 0.000424
-0.456579 20.455133 0.000646
-0.141859 20.455133 0.000811
0.172863 20.455133 0.000740
0.487584 20.455133 0.000655
0.802305 20.455133 0.000791
1.117026 20.455133 0.000876
1.431747 20.455133 0.000720
1.746467 20.455133 0.000212
2.061188 20.455133 -0.000239
2.375909 20.455133 -0.000897
2.690630 20.455133 -0.001489
3.005352 20.455133 -0.001760
3.320073 20.455133 -0.001701
3.634794 20.455133 -0.001270
3.949515 20.455133 -0.000167
4.264236 20.455133 0.001048
4.578956 20.455133 0.001657
4.893677 20.455133 0.001764
5.208398 20.455133 0.001471
5.523119 20.455133 0.001274
5.837841 20.455133 0.000975
6.152562 20.455133 0.000153
6.467283 20.455133 -0.001408
6.782003 20.455133 -0.003737
7.096724 20.455133 -0.005583
7.411445 20.455133 -0.005871
7.726166 20.455133 -0.006357
8.040888 20.455133 -0.009287
8.355608 20.455133 -0.006758
8.670330 20.455133 -0.000835
8.985050 20.455133 -0.000490
9.299772 20.455133 0.005071
9.614492 20.455133 0.009427
9.929214 20.455133 0.009796
10.243935 20.455133 0.015794
10.558655 20.455133 0.019522
10.873377 20.455133 0.029594
11.188097 20.455133 0.048151
11.502819 20.455133 0.060754
11.817539 20.455133 0.091591
12.132261 20.455133 0.095049
12.446981 20.455133 0.111911
12.761703 20.455133 0.137666
13.076424 20.455133 0.146932
13.391144 20.455133 0.154684
13.705866 20.455133 0.133436
14.020586 20.455133 0.165417
14.335308 20.455133 0.185338
14.650028 20.455133 0.198342
14.964750 20.455133 0.263594
15.279470 20.455133 0.408948
15.594193 20.455133 0.638639
15.908913 20.455133 0.000000
16.223633 20.455133 0.000000
16.538355 20.455133 0.000000
16.853075 20.455133 0.000000
17.167797 20.455133 0.000000
17.482517 20.455133 0.000000
17.797239 20.455133 0.000000
18.111959 20.455133 0.000000
18.426680 20.455133 0.000000
18.741402 20.455133 0.000000
-7.065720 20.140413 0.000000
-6.750999 20.140413 0.006328
-6.436278 20.140413 0.002789
-6.121557 20.140413 0.002177
-5.806836 20.140413 0.002182
-5.492115 20.140413 0.002032
-5.177394 20.140413 0.001366
-4.862673 20.140413 0.000596
-4.547952 20.140413 0.000070
-4.233231 20.140413 -0.000012
-3.918510 20.140413 -0.000150
-3.603789 20.140413 -0.000119
-3.289068 20.140413 0.000010
-2.974347 20.140413 -0.000269
-2.659626 20.140413 -0.000296
-2.344905 20.140413 -0.000048
-2.030184 20.140413 0.000498
-1.715463 20.140413 0.000735
-1.400742 20.140413 0.000710
-1.086021 20.140413 0.000813
-0.771300 20.140413 0.001106
-0.456579 20.140413 0.001292
-0.141859 20.140413 0.001156
0.172863 20.140413 0.000690
0.487584 20.140413 0.000259
0.802305 20.140413 0.000066
1.117026 20.140413 0.000090
1.431747 20.140413 -0.000019
1.746467 20.140413 -0.000465
2.061188 20.140413 -0.000654
2.375909 20.140413 -0.000976
2.690630 20.140413 -0.001107
3.005352 20.140413 -0.000908
3.320073 20.140413 -0.000361
3.634794 20.140413 0.000247
3.949515 20.140413 0.001281
4.264236 20.140413 0.002234
4.578956 20.140413 0.002149
4.893677 20.140413 0.001318
5.208398 20.140413 0.000416
5.523119 20.140413 -0.000243
5.837841 20.140413 -0.000682
6.152562 20.140413 -0.001485
6.467283 20.140413 -0.003093
6.782003 20.140413 -0.004712
7.096724 20.140413 -0.005609
7.411445 20.140413 -0.004410
7.726166 20.140413 -0.004496
8.040888 20.140413 -0.003732
8.355608 20.140413 -0.004175
8.670330 20.140413 0.000624
8.985050 20.140413 -0.001565
9.299772 20.140413 0.000785
9.614492 20.140413 0.008012
9.929214 20.140413 0.008968
10.243935 20.140413 0.013082
10.558655 20.140413 0.020541
10.873377 20.140413 0.025347
11.188097 20.140413 0.039420
11.502819 20.140413 0.063904
11.817539 20.140413 0.075805
12.132261 20.140413 0.080520
12.446981 20.140413 0.112714
12.761703 20.140413 0.117998
13.076424 20.140413 0.137101
13.391144 20.140413 0.138658
13.705866 20.140413 0.163679
14.020586 20.140413 0.162740
14.335308 20.140413 0.182299
14.650028 20.140413 0.209325
14.964750 20.140413 0.287694
15.279470 20.140413 0.464854
15.594193 20.140413 0.702212
15.908913 20.140413 0.000000
16.223633 20.140413 0.000000
16.538355 20.140413 0.000000
16.853075 20.140413 0.000000
17.167797 20.140413 0.000000
17.482517 20.140413 0.000000
17.797239 20.140413 0.000000
18.111959 20.140413 0.000000
18.426680 20.140413 0.000000
18.741402 20.140413 0.000000
-7.065720 19.825691 0.000000
-6.750999 19.825691 0.004963
-6.436278 19.825691 0.001431
-6.121557 19.825691 0.000651
-5.806836 19.825691 0.000593
-5.492115 19.825691 0.000671
-5.177394 19.825691 0.000549
-4.862673 19.825691 0.000288
-4.547952 19.825691 0.000096
-4.233231 19.825691 0.000216
-3.918510 19.825691 0.000512
-3.603789 19.825691 0.000817
-3.289068 19.825691 0.000833
-2.974347 19.825691 0.000584
-2.659626 19.825691 0.000467
-2.344905 19.825691 0.000494
-2.030184 19.825691 0.000761
-1.715463 19.825691 0.001022
-1.400742 19.825691 0.000978
-1.086021 19.825691 0.001069
-0.771300 19.825691 0.001388
-0.456579 19.825691 0.001471
-0.141859 19.825691 0.001132
0.172863 19.825691 0.000376
0.487584 19.825691 -0.000312
0.802305 19.825691 -0.000636
1.117026 19.825691 -0.000592
1.431747 19.825691 -0.000511
1.746467 19.825691 -0.000562
2.061188 19.825691 -0.000260
2.375909 19.825691 0.000014
2.690630 19.825691 0.000306
3.005352 19.825691 0.000793
3.320073 19.825691 0.001365
3.634794 19.825691 0.001531
3.949515 19.825691 0.001818
4.264236 19.825691 0.001964
4.578956 19.825691 0.001108
4.893677 19.825691 -0.000429
5.208398 19.825691 -0.001525
5.523119 19.825691 -0.001917
5.837841 19.825691 -0.001715
6.152562 19.825691 -0.001770
6.467283 19.825691 -0.002405
6.782003 19.825691 -0.003131
7.096724 19.825691 -0.003404
7.411445 19.825691 -0.002029
7.726166 19.825691 -0.002457
8.040888 19.825691 -0.002406
8.355608 19.825691 -0.002437
8.670330 19.825691 0.001374
8.985050 19.825691 0.002855
9.299772 19.825691 0.013696
9.614492 19.825691 0.007080
9.929214 19.825691 0.008840
10.243935 19.825691 0.016240
10.558655 19.825691 0.011321
10.873377 19.825691 0.017632
11.188097 19.825691 0.034067
11.502819 19.825691 0.040029
11.817539 19.825691 0.058695
12.132261 19.825691 0.068240
12.446981 19.825691 0.094379
12.761703 19.825691 0.137164
13.076424 19.825691 0.153674
13.391144 19.825691 0.166703
13.705866 19.825691 0.167140
14.020586 19.825691 0.187507
14.335308 19.825691 0.198030
14.650028 19.825691 0.208401
14.964750 19.825691 0.296952
15.279470 19.825691 0.493990
15.594193 19.825691 0.730453
15.908913 19.825691 0.000000
16.223633 19.825691 0.000000
16.538355 19.825691 0.000000
16.853075 19.825691 0.000000
17.167797 19.825691 0.000000
17.482517 19.825691 0.000000
17.797239 19.825691 0.000000
18.111959 19.825691 0.000000
18.426680 19.825691 0.000000
18.741402 19.825691 0.000000
-7.065720 19.510971 0.000000
-6.750999 19.510971 0.003411
-6.436278 19.510971 0.000240
-6.121557 19.510971 -0.000345
-5.806836 19.510971 -0.000237
-5.492115 19.510971 0.000119
-5.177394 19.510971 0.000631
-4.862673 19.510971 0.001045
-4.547952 19.510971 0.000886
-4.233231 19.510971 0.000991
-3.918510 19.510971 0.001344
-3.603789 19.510971 0.001555
-3.289068 19.510971 0.001502
-2.974347 19.510971 0.001269
-2.659626 19.510971 0.000985
-2.344905 19.510971 0.000855
-2.030184 19.510971 0.000885
-1.715463 19.510971 0.001102
-1.400742 19.510971 0.000932
-1.086021 19.510971 0.000955
-0.771300 19.510971 0.001232
-0.456579 19.510971 0.001217
-0.141859 19.510971 0.000845
0.172863 19.510971 0.000098
0.487584 19.510971 -0.000549
0.802305 19.510971 -0.000742
1.117026 19.510971 -0.000522
1.431747 19.510971 -0.000221
1.746467 19.510971 0.000210
2.061188 19.510971 0.000874
2.375909 19.510971 0.001406
2.690630 19.510971 0.001757
3.005352 19.510971 0.002074
3.320073 19.510971 0.002151
3.634794 19.510971 0.001676
3.949515 19.510971 0.000983
4.264236 19.510971 0.000375
4.578956 19.510971 -0.000685
4.893677 19.510971 -0.002111
5.208398 19.510971 -0.002618
5.523119 19.510971 -0.002083
5.837841 19.510971 -0.001053
6.152562 19.510971 -0.000179
6.467283 19.510971 -0.000094
6.782003 19.510971 -0.000372
7.096724 19.510971 -0.000559
7.411445 19.510971 -0.000735
7.726166 19.510971 -0.000401
8.040888 19.510971 -0.002103
8.355608 19.510971 -0.001020
8.670330 19.510971 -0.003220
8.985050 19.510971 0.001069
9.299772 19.510971 0.006679
9.614492 19.510971 0.016650
9.929214 19.510971 0.005290
10.243935 19.510971 0.006395
10.558655 19.510971 0.016251
10.873377 19.510971 0.014099
11.188097 19.510971 0.036943
11.502819 19.510971 0.033191
11.817539 19.510971 0.044147
12.132261 19.510971 0.082441
12.446981 19.510971 0.100309
12.761703 19.510971 0.134876
13.076424 19.510971 0.163050
13.391144 19.510971 0.169065
13.705866 19.510971 0.188963
14.020586 19.510971 0.196397
14.335308 19.510971 0.217575
14.650028 19.510971 0.229018
14.964750 19.510971 0.375021
15.279470 19.510971 0.557733
15.594193 19.510971 0.849070
15.908913 19.510971 0.000000
16.223633 19.510971 0.000000
16.538355 19.510971 0.000000
16.853075 19.510971 0.000000
17.167797 19.510971 0.000000
17.482517 19.510971 0.000000
17.797239 19.510971 0.000000
18.111959 19.510971 0.000000
18.426680 19.510971 0.000000
18.741402 19.510971 0.000000
-7.065720 19.196249 0.000000
-6.750999 19.196249 0.002750
-6.436278 19.196249 0.000078
-6.121557 19.196249 -0.000187
-5.806836 19.196249 -0.000005
-5.492115 19.196249 0.000516
-5.177394 19.196249 0.001422
-4.862673 19.196249 0.002087
-4.547952 19.196249 0.001953
-4.233231 19.196249 0.001763
-3.918510 19.196249 0.001831
-3.603789 19.196249 0.001865
-3.289068 19.196249 0.001716
-2.974347 19.196249 0.001596
-2.659626 19.196249 0.001161
-2.344905 19.196249 0.000821
-2.030184 19.196249 0.000724
-1.715463 19.196249 0.000942
-1.400742 19.196249 0.000741
-1.086021 19.196249 0.000560
-0.771300 19.196249 0.000852
-0.456579 19.196249 0.000943
-0.141859 19.196249 0.000755
0.172863 19.196249 0.000276
0.487584 19.196249 0.000049
0.802305 19.196249 0.000118
1.117026 19.196249 0.000336
1.431747 19.196249 0.000745
1.746467 19.196249 0.001254
2.061188 19.196249 0.001795
2.375909 19.196249 0.002144
2.690630 19.196249 0.002121
3.005352 19.196249 0.002020
3.320073 19.196249 0.001601
3.634794 19.196249 0.000731
3.949515 19.196249 -0.000398
4.264236 19.196249 -0.001111
4.578956 19.196249 -0.001639
4.893677 19.196249 -0.002220
5.208398 19.196249 -0.001777
5.523119 19.196249 -0.000519
5.837841 19.196249 0.000952
6.152562 19.196249 0.002066
6.467283 19.196249 0.001972
6.782003 19.196249 0.001202
7.096724 19.196249 0.000844
7.411445 19.196249 -0.000278
7.726166 19.196249 -0.000558
8.040888 19.196249 -0.000810
8.355608 19.196249 -0.000830
8.670330 19.196249 -0.002436
8.985050 19.196249 0.001793
9.299772 19.196249 0.013956
9.614492 19.196249 0.024662
9.929214 19.196249 0.011308
10.243935 19.196249 0.021029
10.558655 19.196249 0.015010
10.873377 19.196249 0.014018
11.188097 19.196249 0.026941
11.502819 19.196249 0.047439
11.817539 19.196249 0.068381
12.132261 19.196249 0.087632
12.446981 19.196249 0.094726
12.761703 19.196249 0.136595
13.076424 19.196249 0.163504
13.391144 19.196249 0.173783
13.705866 19.196249 0.195340
14.020586 19.196249 0.217242
14.335308 19.196249 0.217075
14.650028 19.196249 0.286352
14.964750 19.196249 0.398012
15.279470 19.196249 0.602125
15.594193 19.196249 0.973668
15.908913 19.196249 0.000000
16.223633 19.196249 0.000000
16.538355 19.196249 0.000000
16.853075 19.196249 0.000000
17.167797 19.196249 0.000000
17.482517 19.196249 0.000000
17.797239 19.196249 0.000000
18.111959 19.196249 0.000000
18.426680 19.196249 0.000000
18.741402 19.196249 0.000000
-7.065720 18.881529 0.000000
-6.750999 18.881529 0.003124
-6.436278 18.881529 0.000896
-6.121557 18.881529 0.000785
-5.806836 18.881529 0.000794
-5.492115 18.881529 0.001268
-5.177394 18.881529 0.002075
-4.862673 18.881529 0.002648
-4.547952 18.881529 0.002399
-4.233231 18.881529 0.001871
-3.918510 18.881529 0.001670
-3.603789 18.881529 0.001586
-3.289068 18.881529 0.001499
-2.974347 18.881529 0.001342
-2.659626 18.881529 0.000854
-2.344905 18.881529 0.000399
-2.030184 18.881529 0.000366
-1.715463 18.881529 0.000593
-1.400742 18.881529 0.000431
-1.086021 18.881529 0.000328
-0.771300 18.881529 0.000688
-0.456579 18.881529 0.001030
-0.141859 18.881529 0.001215
0.172863 18.881529 0.001193
0.487584 18.881529 0.001189
0.802305 18.881529 0.001325
1.117026 18.881529 0.001251
1.431747 18.881529 0.001319
1.746467 18.881529 0.001458
2.061188 18.881529 0.001546
2.375909 18.881529 0.001436
2.690630 18.881529 0.001161
3.005352 18.881529 0.000913
3.320073 18.881529 0.000605
3.634794 18.881529 -0.000018
3.949515 18.881529 -0.000935
4.264236 18.881529 -0.001137
4.578956 18.881529 -0.000797
4.893677 18.881529 -0.000478
5.208398 18.881529 0.000353
5.523119 18.881529 0.001452
5.837841 18.881529 0.002342
6.152562 18.881529 0.002629
6.467283 18.881529 0.001882
6.782003 18.881529 0.000373
7.096724 18.881529 -0.000663
7.411445 18.881529 -0.002378
7.726166 18.881529 -0.002579
8.040888 18.881529 -0.002420
8.355608 18.881529 -0.001976
8.670330 18.881529 -0.007000
8.985050 18.881529 -0.000267
9.299772 18.881529 0.009779
9.614492 18.881529 0.027137
9.929214 18.881529 0.017291
10.243935 18.881529 0.022541
10.558655 18.881529 0.020349
10.873377 18.881529 0.015478
11.188097 18.881529 0.037398
11.502819 18.881529 0.047861
11.817539 18.881529 0.062618
12.132261 18.881529 0.087667
12.446981 18.881529 0.096267
12.761703 18.881529 0.132355
13.076424 18.881529 0.175987
13.391144 18.881529 0.179330
13.705866 18.881529 0.203769
14.020586 18.881529 0.239966
14.335308 18.881529 0.268752
14.650028 18.881529 0.301684
14.964750 18.881529 0.397504
15.279470 18.881529 0.638268
15.594193 18.881529 1.014923
15.908913 18.881529 0.000000
16.223633 18.881529 0.000000
16.538355 18.881529 0.000000
16.853075 18.881529 0.000000
17.167797 18.881529 0.000000
17.482517 18.881529 0.000000
17.797239 18.881529 0.000000
18.111959 18.881529 0.000000
18.426680 18.881529 0.000000
18.741402 18.881529 0.000000
-7.065720 18.566807 0.000000
-6.750999 18.566807 0.004015
-6.436278 18.566807 0.002054
-6.121557 18.566807 0.001901
-5.806836 18.566807 0.001538
-5.492115 18.566807 0.001664
-5.177394 18.566807 0.002091
-4.862673 18.566807 0.002431
-4.547952 18.566807 0.002105
-4.233231 18.566807 0.001424
-3.918510 18.566807 0.001069
-3.603789 18.566807 0.000999
-3.289068 18.566807 0.001043
-2.974347 18.566807 0.001005
-2.659626 18.566807 0.000535
-2.344905 18.566807 0.000068
-2.030184 18.566807 0.000149
-1.715463 18.566807 0.000511
-1.400742 18.566807 0.000596
-1.086021 18.566807 0.000611
-0.771300 18.566807 0.000968
-0.456579 18.566807 0.001527
-0.141859 18.566807 0.001934
0.172863 18.566807 0.002072
0.487584 18.566807 0.002160
0.802305 18.566807 0.001965
1.117026 18.566807 0.001381
1.431747 18.566807 0.000876
1.746467 18.566807 0.000497
2.061188 18.566807 0.000241
2.375909 18.566807 0.000101
2.690630 18.566807 -0.000031
3.005352 18.566807 0.000152
3.320073 18.566807 0.000517
3.634794 18.566807 0.000406
3.949515 18.566807 0.000002
4.264236 18.566807 0.000362
4.578956 18.566807 0.001050
4.893677 18.566807 0.001574
5.208398 18.566807 0.002020
5.523119 18.566807 0.002255
5.837841 18.566807 0.002132
6.152562 18.566807 0.001320
6.467283 18.566807 -0.000092
6.782003 18.566807 -0.001542
7.096724 18.566807 -0.002374
7.411445 18.566807 -0.003430
7.726166 18.566807 -0.004343
8.040888 18.566807 -0.002909
8.355608 18.566807 -0.002534
8.670330 18.566807 -0.001440
8.985050 18.566807 0.001861
9.299772 18.566807 0.018079
9.614492 18.566807 0.024119
9.929214 18.566807 0.022547
10.243935 18.566807 0.021245
10.558655 18.566807 0.032215
10.873377 18.566807 0.021890
11.188097 18.566807 0.038396
11.502819 18.566807 0.054215
11.817539 18.566807 0.072700
12.132261 18.566807 0.078219
12.446981 18.566807 0.108609
12.761703 18.566807 0.132225
13.076424 18.566807 0.178028
13.391144 18.566807 0.182978
13.705866 18.566807 0.219818
14.020586 18.566807 0.220300
14.335308 18.566807 0.262077
14.650028 18.566807 0.317494
14.964750 18.566807 0.427285
15.279470 18.566807 0.668036
15.594193 18.566807 0.980096
15.908913 18.566807 0.000000
16.223633 18.566807 0.000000
16.538355 18.566807 0.000000
16.853075 18.566807 0.000000
17.167797 18.566807 0.000000
17.482517 18.566807 0.000000
17.797239 18.566807 0.000000
18.111959 18.566807 0.000000
18.426680 18.566807 0.000000
18.741402 18.566807 0.000000
-7.065720 18.252087 0.000000
-6.750999 18.252087 0.004721
-6.436278 18.252087 0.002741
-6.121557 18.252087 0.002474
-5.806836 18.252087 0.001918
-5.492115 18.252087 0.001552
-5.177394 18.252087 0.001611
-4.862673 18.252087 0.001795
-4.547952 18.252087 0.001431
-4.233231 18.252087 0.000849
-3.918510 18.252087 0.000409
-3.603789 18.252087 0.000350
-3.289068 18.252087 0.000537
-2.974347 18.252087 0.000803
-2.659626 18.252087 0.000528
-2.344905 18.252087 0.000275
-2.030184 18.252087 0.000503
-1.715463 18.252087 0.001130
-1.400742 18.252087 0.001411
-1.086021 18.252087 0.001334
-0.771300 18.252087 0.001518
-0.456579 18.252087 0.001894
-0.141859 18.252087 0.002159
0.172863 18.252087 0.002072
0.487584 18.252087 0.001921
0.802305 18.252087 0.001353
1.117026 18.252087 0.000493
1.431747 18.252087 -0.000253
1.746467 18.252087 -0.000798
2.061188 18.252087 -0.000830
2.375909 18.252087 -0.000655
2.690630 18.252087 -0.000230
3.005352 18.252087 0.000699
3.320073 18.252087 0.001622
3.634794 18.252087 0.001799
3.949515 18.252087 0.001421
4.264236 18.252087 0.001728
4.578956 18.252087 0.002225
4.893677 18.252087 0.002174
5.208398 18.252087 0.001846
5.523119 18.252087 0.001189
5.837841 18.252087 0.000347
6.152562 18.252087 -0.000634
6.467283 18.252087 -0.001891
6.782003 18.252087 -0.002912
7.096724 18.252087 -0.003542
7.411445 18.252087 -0.003567
7.726166 18.252087 -0.001978
8.040888 18.252087 -0.000233
8.355608 18.252087 0.000069
8.670330 18.252087 -0.006756
8.985050 18.252087 0.003003
9.299772 18.252087 0.021856
9.614492 18.252087 0.025625
9.929214 18.252087 0.018832
10.243935 18.252087 0.020894
10.558655 18.252087 0.021410
10.873377 18.252087 0.022977
11.188097 18.252087 0.041290
11.502819 18.252087 0.064046
11.817539 18.252087 0.075547
12.132261 18.252087 0.088269
12.446981 18.252087 0.083710
12.761703 18.252087 0.120247
13.076424 18.252087 0.170766
13.391144 18.252087 0.197272
13.705866 18.252087 0.211988
14.020586 18.252087 0.218484
14.335308 18.252087 0.252900
14.650028 18.252087 0.322629
14.964750 18.252087 0.432362
15.279470 18.252087 0.631763
15.594193 18.252087 1.072458
15.908913 18.252087 0.000000
16.223633 18.252087 0.000000
16.538355 18.252087 0.000000
16.853075 18.252087 0.000000
17.167797 18.252087 0.000000
17.482517 18.252087 0.000000
17.797239 18.252087 0.000000
18.111959 18.252087 0.000000
18.426680 18.252087 0.000000
18.741402 18.252087 0.000000
-7.065720 17.937366 0.000000
-6.750999 17.937366 0.004859
-6.436278 17.937366 0.002775
-6.121557 17.937366 0.002469
-5.806836 17.937366 0.001710
-5.492115 17.937366 0.001010
-5.177394 17.937366 0.000948
-4.862673 17.937366 0.000995
-4.547952 17.937366 0.000712
-4.233231 17.937366 0.000385
-3.918510 17.937366 0.000100
-3.603789 17.937366 0.000129
-3.289068 17.937366 0.000515
-2.974347 17.937366 0.001021
-2.659626 17.937366 0.001175
-2.344905 17.937366 0.001153
-2.030184 17.937366 0.001412
-1.715463 17.937366 0.002023
-1.400742 17.937366 0.002154
-1.086021 17.937366 0.001812
-0.771300 17.937366 0.001573
-0.456579 17.937366 0.001514
-0.141859 17.937366 0.001448
0.172863 17.937366 0.001110
0.487584 17.937366 0.000714
0.802305 17.937366 0.000190
1.117026 17.937366 -0.000443
1.431747 17.937366 -0.000905
1.746467 17.937366 -0.001095
2.061188 17.937366 -0.000599
2.375909 17.937366 0.000041
2.690630 17.937366 0.000913
3.005352 17.937366 0.002051
3.320073 17.937366 0.002858
3.634794 17.937366 0.002702
3.949515 17.937366 0.002008
4.264236 17.937366 0.001795
4.578956 17.937366 0.001664
4.893677 17.937366 0.001111
5.208398 17.937366 0.000361
5.523119 17.937366 -0.000347
5.837841 17.937366 -0.000952
6.152562 17.937366 -0.001428
6.467283 17.937366 -0.001796
6.782003 17.937366 -0.001489
7.096724 17.937366 -0.001380
7.411445 17.937366 -0.002649
7.726166 17.937366 -0.001746
8.040888 17.937366 0.002321
8.355608 17.937366 -0.005682
8.670330 17.937366 -0.005168
8.985050 17.937366 0.003462
9.299772 17.937366 0.017074
9.614492 17.937366 0.027783
9.929214 17.937366 0.021731
10.243935 17.937366 0.021395
10.558655 17.937366 0.024767
10.873377 17.937366 0.023276
11.188097 17.937366 0.041001
11.502819 17.937366 0.054900
11.817539 17.937366 0.078438
12.132261 17.937366 0.080617
12.446981 17.937366 0.100639
12.761703 17.937366 0.114315
13.076424 17.937366 0.163521
13.391144 17.937366 0.176265
13.705866 17.937366 0.205580
14.020586 17.937366 0.241436
14.335308 17.937366 0.256150
14.650028 17.937366 0.349449
14.964750 17.937366 0.465580
15.279470 17.937366 0.722288
15.594193 17.937366 1.061529
15.908913 17.937366 0.000000
16.223633 17.937366 0.000000
16.538355 17.937366 0.000000
16.853075 17.937366 0.000000
17.167797 17.937366 0.000000
17.482517 17.937366 0.000000
17.797239 17.937366 0.000000
18.111959 17.937366 0.000000
18.426680 17.937366 0.000000
18.741402 17.937366 0.000000
-7.065720 17.622644 0.000000
-6.750999 17.622644 0.004658
-6.436278 17.622644 0.002242
-6.121557 17.622644 0.001915
-5.806836 17.622644 0.001330
-5.492115 17.622644 0.000619
-5.177394 17.622644 0.000592
-4.862673 17.622644 0.000604
-4.547952 17.622644 0.000461
-4.233231 17.622644 0.000440
-3.918510 17.622644 0.000381
-3.603789 17.622644 0.000588
-3.289068 17.622644 0.001001
-2.974347 17.622644 0.001603
-2.659626 17.622644 0.001944
-2.344905 17.622644 0.002046
-2.030184 17.622644 0.002116
-1.715463 17.622644 0.002372
-1.400742 17.622644 0.002154
-1.086021 17.622644 0.001403
-0.771300 17.622644 0.000775
-0.456579 17.622644 0.000418
-0.141859 17.622644 0.000255
0.172863 17.622644 -0.000046
0.487584 17.622644 -0.000266
0.802305 17.622644 -0.000338
1.117026 17.622644 -0.000308
1.431747 17.622644 -0.000240
1.746467 17.622644 -0.000025
2.061188 17.622644 0.000664
2.375909 17.622644 0.001299
2.690630 17.622644 0.002022
3.005352 17.622644 0.002746
3.320073 17.622644 0.002844
3.634794 17.622644 0.002215
3.949515 17.622644 0.001132
4.264236 17.622644 0.000446
4.578956 17.622644 0.000175
4.893677 17.622644 -0.000283
5.208398 17.622644 -0.000605
5.523119 17.622644 -0.000726
5.837841 17.622644 -0.000691
6.152562 17.622644 -0.000511
6.467283 17.622644 -0.000467
6.782003 17.622644 0.000055
7.096724 17.622644 0.000092
7.411445 17.622644 -0.000491
7.726166 17.622644 -0.001294
8.040888 17.622644 -0.001510
8.355608 17.622644 -0.002057
8.670330 17.622644 -0.005788
8.985050 17.622644 0.001260
9.299772 17.622644 0.020543
9.614492 17.622644 0.013181
9.929214 17.622644 0.008734
10.243935 17.622644 0.013620
10.558655 17.622644 0.014026
10.873377 17.622644 0.021369
11.188097 17.622644 0.040412
11.502819 17.622644 0.052722
11.817539 17.622644 0.080835
12.132261 17.622644 0.097105
12.446981 17.622644 0.117979
12.761703 17.622644 0.125761
13.076424 17.622644 0.153070
13.391144 17.622644 0.161434
13.705866 17.622644 0.199439
14.020586 17.622644 0.242837
14.335308 17.622644 0.273080
14.650028 17.622644 0.362482
14.964750 17.622644 0.501094
15.279470 17.622644 0.768503
15.594193 17.622644 1.099849
15.908913 17.622644 0.000000
16.223633 17.622644 0.000000
16.538355 17.622644 0.000000
16.853075 17.622644 0.000000
17.167797 17.622644 0.000000
17.482517 17.622644 0.000000
17.797239 17.622644 0.000000
18.111959 17.622644 0.000000
18.426680 17.622644 0.000000
18.741402 17.622644 0.000000
-7.065720 17.307924 0.000000
-6.750999 17.307924 0.004152
-6.436278 17.307924 0.001622
-6.121557 17.307924 0.001380
-5.806836 17.307924 0.001038
-5.492115 17.307924 0.000691
-5.177394 17.307924 0.000724
-4.862673 17.307924 0.000848
-4.547952 17.307924 0.000881
-4.233231 17.307924 0.001075
-3.918510 17.307924 0.001153
-3.603789 17.307924 0.001241
-3.289068 17.307924 0.001604
-2.974347 17.307924 0.002016
-2.659626 17.307924 0.002195
-2.344905 17.307924 0.002166
-2.030184 17.307924 0.001912
-1.715463 17.307924 0.001786
-1.400742 17.307924 0.001374
-1.086021 17.307924 0.000427
-0.771300 17.307924 -0.000206
-0.456579 17.307924 -0.000499
-0.141859 17.307924 -0.000419
0.172863 17.307924 -0.000268
0.487584 17.307924 -0.000015
0.802305 17.307924 0.000441
1.117026 17.307924 0.001057
1.431747 17.307924 0.001382
1.746467 17.307924 0.001482
2.061188 17.307924 0.001691
2.375909 17.307924 0.001770
2.690630 17.307924 0.001964
3.005352 17.307924 0.001964
3.320073 17.307924 0.001472
3.634794 17.307924 0.000762
3.949515 17.307924 -0.000110
4.264236 17.307924 -0.000645
4.578956 17.307924 -0.000599
4.893677 17.307924 -0.000490
5.208398 17.307924 -0.000176
5.523119 17.307924 0.000200
5.837841 17.307924 0.000699
6.152562 17.307924 0.000956
6.467283 17.307924 0.000957
6.782003 17.307924 0.000332
7.096724 17.307924 -0.000305
7.411445 17.307924 -0.000239
7.726166 17.307924 -0.002048
8.040888 17.307924 -0.000983
8.355608 17.307924 -0.005582
8.670330 17.307924 -0.005999
8.985050 17.307924 0.001928
9.299772 17.307924 0.010857
9.614492 17.307924 0.012010
9.929214 17.307924 0.009781
10.243935 17.307924 0.008998
10.558655 17.307924 0.021619
10.873377 17.307924 0.017131
11.188097 17.307924 0.034099
11.502819 17.307924 0.040081
11.817539 17.307924 0.070002
12.132261 17.307924 0.098935
12.446981 17.307924 0.101321
12.761703 17.307924 0.114056
13.076424 17.307924 0.146712
13.391144 17.307924 0.164664
13.705866 17.307924 0.211113
14.020586 17.307924 0.261488
14.335308 17.307924 0.337046
14.650028 17.307924 0.376167
14.964750 17.307924 0.511285
15.279470 17.307924 0.758932
15.594193 17.307924 1.296021
15.908913 17.307924 0.000000
16.223633 17.307924 0.000000
16.538355 17.307924 0.000000
16.853075 17.307924 0.000000
17.167797 17.307924 0.000000
17.482517 17.307924 0.000000
17.797239 17.307924 0.000000
18.111959 17.307924 0.000000
18.426680 17.307924 0.000000
18.741402 17.307924 0.000000
-7.065720 16.993202 0.000000
-6.750999 16.993202 0.003765
-6.436278 16.993202 0.001273
-6.121557 16.993202 0.001146
-5.806836 16.993202 0.001188
-5.492115 16.993202 0.001084
-5.177394 16.993202 0.001333
-4.862673 16.993202 0.001431
-4.547952 16.993202 0.001479
-4.233231 16.993202 0.001817
-3.918510 16.993202 0.001900
-3.603789 16.993202 0.001760
-3.289068 16.993202 0.001704
-2.974347 16.993202 0.001666
-2.659626 16.993202 0.001534
-2.344905 16.993202 0.001341
-2.030184 16.993202 0.000999
-1.715463 16.993202 0.000839
-1.400742 16.993202 0.000580
-1.086021 16.993202 -0.000058
-0.771300 16.993202 -0.000400
-0.456579 16.993202 -0.000310
-0.141859 16.993202 0.000106
0.172863 16.993202 0.000554
0.487584 16.993202 0.001032
0.802305 16.993202 0.001615
1.117026 16.993202 0.002354
1.431747 16.993202 0.002522
1.746467 16.993202 0.002117
2.061188 16.993202 0.001503
2.375909 16.993202 0.000978
2.690630 16.993202 0.000697
3.005352 16.993202 0.000304
3.320073 16.993202 -0.000046
3.634794 16.993202 -0.000156
3.949515 16.993202 -0.000215
4.264236 16.993202 -0.000206
4.578956 16.993202 0.000203
4.893677 16.993202 0.000537
5.208398 16.993202 0.000985
5.523119 16.993202 0.001374
5.837841 16.993202 0.001530
6.152562 16.993202 0.001176
6.467283 16.993202 0.000705
6.782003 16.993202 -0.000449
7.096724 16.993202 -0.001539
7.411445 16.993202 -0.001518
7.726166 16.993202 -0.003415
8.040888 16.993202 -0.002419
8.355608 16.993202 -0.004216
8.670330 16.993202 -0.008576
8.985050 16.993202 0.003599
9.299772 16.993202 0.009074
9.614492 16.993202 0.002241
9.929214 16.993202 0.011294
10.243935 16.993202 0.007734
10.558655 16.993202 0.020007
10.873377 16.993202 0.016719
11.188097 16.993202 0.021280
11.502819 16.993202 0.031830
11.817539 16.993202 0.050055
12.132261 16.993202 0.074169
12.446981 16.993202 0.080196
12.761703 16.993202 0.106199
13.076424 16.993202 0.157462
13.391144 16.993202 0.200332
13.705866 16.993202 0.234288
14.020586 16.993202 0.280645
14.335308 16.993202 0.343172
14.650028 16.993202 0.407933
14.964750 16.993202 0.533425
15.279470 16.993202 0.845056
15.594193 16.993202 1.289621
15.908913 16.993202 0.000000
16.223633 16.993202 0.000000
16.538355 16.993202 0.000000
16.853075 16.993202 0.000000
17.167797 16.993202 0.000000
17.482517 16.993202 0.000000
17.797239 16.993202 0.000000
18.111959 16.993202 0.000000
18.426680 16.993202 0.000000
18.741402 16.993202 0.000000
-7.065720 16.678482 0.000000
-6.750999 16.678482 0.003758
-6.436278 16.678482 0.001264
-6.121557 16.678482 0.001227
-5.806836 16.678482 0.001617
-5.492115 16.678482 0.001752
-5.177394 16.678482 0.001866
-4.862673 16.678482 0.001836
-4.547952 16.678482 0.001722
-4.233231 16.678482 0.001966
-3.918510 16.678482 0.001973
-3.603789 16.678482 0.001551
-3.289068 16.678482 0.001052
-2.974347 16.678482 0.000764
-2.659626 16.678482 0.000481
-2.344905 16.678482 0.000368
-2.030184 16.678482 0.000252
-1.715463 16.678482 0.000354
-1.400742 16.678482 0.000599
-1.086021 16.678482 0.000525
-0.771300 16.678482 0.000561
-0.456579 16.678482 0.000745
-0.141859 16.678482 0.001074
0.172863 16.678482 0.001475
0.487584 16.678482 0.001667
0.802305 16.678482 0.001880
1.117026 16.678482 0.002438
1.431747 16.678482 0.002403
1.746467 16.678482 0.001588
2.061188 16.678482 0.000509
2.375909 16.678482 -0.000224
2.690630 16.678482 -0.000477
3.005352 16.678482 -0.000657
3.320073 16.678482 -0.000536
3.634794 16.678482 0.000124
3.949515 16.678482 0.000855
4.264236 16.678482 0.001246
4.578956 16.678482 0.001523
4.893677 16.678482 0.001499
5.208398 16.678482 0.001452
5.523119 16.678482 0.001295
5.837841 16.678482 0.001035
6.152562 16.678482 0.000285
6.467283 16.678482 -0.000933
6.782003 16.678482 -0.001997
7.096724 16.678482 -0.003379
7.411445 16.678482 -0.002559
7.726166 16.678482 -0.002116
8.040888 16.678482 -0.001835
8.355608 16.678482 -0.002299
8.670330 16.678482 -0.005883
8.985050 16.678482 -0.000312
9.299772 16.678482 0.010911
9.614492 16.678482 0.014330
9.929214 16.678482 0.011787
10.243935 16.678482 0.026234
10.558655 16.678482 0.029252
10.873377 16.678482 0.015508
11.188097 16.678482 0.029824
11.502819 16.678482 0.026384
11.817539 16.678482 0.043814
12.132261 16.678482 0.068547
12.446981 16.678482 0.064380
12.761703 16.678482 0.109619
13.076424 16.678482 0.158076
13.391144 16.678482 0.217737
13.705866 16.678482 0.248376
14.020586 16.678482 0.299305
14.335308 16.678482 0.325701
14.650028 16.678482 0.461160
14.964750 16.678482 0.553427
15.279470 16.678482 0.919319
15.594193 16.678482 1.420820
15.908913 16.678482 0.000000
16.223633 16.678482 0.000000
16.538355 16.678482 0.000000
16.853075 16.678482 0.000000
17.167797 16.678482 0.000000
17.482517 16.678482 0.000000
17.797239 16.678482 0.000000
18.111959 16.678482 0.000000
18.426680 16.678482 0.000000
18.741402 16.678482 0.000000
-7.065720 16.363762 0.000000
-6.750999 16.363762 0.003993
-6.436278 16.363762 0.001544
-6.121557 16.363762 0.001478
-5.806836 16.363762 0.001856
-5.492115 16.363762 0.002021
-5.177394 16.363762 0.001906
-4.862673 16.363762 0.001694
-4.547952 16.363762 0.001355
-4.233231 16.363762 0.001400
-3.918510 16.363762 0.001382
-3.603789 16.363762 0.000903
-3.289068 16.363762 0.000345
-2.974347 16.363762 0.000104
-2.659626 16.363762 0.000009
-2.344905 16.363762 0.000113
-2.030184 16.363762 0.000363
-1.715463 16.363762 0.000773
-1.400742 16.363762 0.001219
-1.086021 16.363762 0.001629
-0.771300 16.363762 0.001920
-0.456579 16.363762 0.001798
-0.141859 16.363762 0.001575
0.172863 16.363762 0.001466
0.487584 16.363762 0.001204
0.802305 16.363762 0.001126
1.117026 16.363762 0.001567
1.431747 16.363762 0.001734
1.746467 16.363762 0.000997
2.061188 16.363762 0.000039
2.375909 16.363762 -0.000521
2.690630 16.363762 -0.000504
3.005352 16.363762 -0.000223
3.320073 16.363762 0.000257
3.634794 16.363762 0.001152
3.949515 16.363762 0.002031
4.264236 16.363762 0.002305
4.578956 16.363762 0.001957
4.893677 16.363762 0.001383
5.208398 16.363762 0.000780
5.523119 16.363762 0.000308
5.837841 16.363762 -0.000243
6.152562 16.363762 -0.000742
6.467283 16.363762 -0.001507
6.782003 16.363762 -0.002850
7.096724 16.363762 -0.002507
7.411445 16.363762 -0.001316
7.726166 16.363762 0.000117
8.040888 16.363762 -0.001411
8.355608 16.363762 -0.004685
8.670330 16.363762 -0.010001
8.985050 16.363762 -0.001673
9.299772 16.363762 0.003989
9.614492 16.363762 0.008173
9.929214 16.363762 0.012967
10.243935 16.363762 0.026757
10.558655 16.363762 0.029850
10.873377 16.363762 0.023016
11.188097 16.363762 0.026374
11.502819 16.363762 0.014819
11.817539 16.363762 0.034025
12.132261 16.363762 0.046754
12.446981 16.363762 0.067632
12.761703 16.363762 0.108816
13.076424 16.363762 0.150704
13.391144 16.363762 0.240712
13.705866 16.363762 0.278310
14.020586 16.363762 0.297483
14.335308 16.363762 0.346372
14.650028 16.363762 0.445352
14.964750 16.363762 0.612089
15.279470 16.363762 0.923937
15.594193 16.363762 1.330390
15.908913 16.363762 0.000000
16.223633 16.363762 0.000000
16.538355 16.363762 0.000000
16.853075 16.363762 0.000000
17.167797 16.363762 0.000000
17.482517 16.363762 0.000000
17.797239 16.363762 0.000000
18.111959 16.363762 0.000000
18.426680 16.363762 0.000000
18.741402 16.363762 0.000000
-7.065720 16.049038 0.000000
-6.750999 16.049038 0.004287
-6.436278 16.049038 0.001749
-6.121557 16.049038 0.001512
-5.806836 16.049038 0.001647
-5.492115 16.049038 0.001690
-5.177394 16.049038 0.001517
-4.862673 16.049038 0.001167
-4.547952 16.049038 0.000707
-4.233231 16.049038 0.000795
-3.918510 16.049038 0.000908
-3.603789 16.049038 0.000620
-3.289068 16.049038 0.000287
-2.974347 16.049038 0.000334
-2.659626 16.049038 0.000454
-2.344905 16.049038 0.000700
-2.030184 16.049038 0.001055
-1.715463 16.049038 0.001375
-1.400742 16.049038 0.001662
-1.086021 16.049038 0.002181
-0.771300 16.049038 0.002366
-0.456579 16.049038 0.001936
-0.141859 16.049038 0.001255
0.172863 16.049038 0.000782
0.487584 16.049038 0.000348
0.802305 16.049038 0.000266
1.117026 16.049038 0.000908
1.431747 16.049038 0.001453
1.746467 16.049038 0.001193
2.061188 16.049038 0.000633
2.375909 16.049038 0.000290
2.690630 16.049038 0.000390
3.005352 16.049038 0.000777
3.320073 16.049038 0.001221
3.634794 16.049038 0.001766
3.949515 16.049038 0.002214
4.264236 16.049038 0.002027
4.578956 16.049038 0.001175
4.893677 16.049038 0.000308
5.208398 16.049038 -0.000277
5.523119 16.049038 -0.000548
5.837841 16.049038 -0.000776
6.152562 16.049038 -0.000904
6.467283 16.049038 -0.001157
6.782003 16.049038 -0.001846
7.096724 16.049038 -0.001514
7.411445 16.049038 -0.001736
7.726166 16.049038 -0.000919
8.040888 16.049038 -0.002118
8.355608 16.049038 -0.010481
8.670330 16.049038 -0.011850
8.985050 16.049038 -0.002473
9.299772 16.049038 -0.002549
9.614492 16.049038 -0.004184
9.929214 16.049038 0.015008
10.243935 16.049038 0.022815
10.558655 16.049038 0.027990
10.873377 16.049038 0.015579
11.188097 16.049038 0.013990
11.502819 16.049038 0.014020
11.817539 16.049038 0.024678
12.132261 16.049038 0.048876
12.446981 16.049038 0.096215
12.761703 16.049038 0.150383
13.076424 16.049038 0.184529
13.391144 16.049038 0.241721
13.705866 16.049038 0.283532
14.020586 16.049038 0.306873
14.335308 16.049038 0.351062
14.650028 16.049038 0.419747
14.964750 16.049038 0.622005
15.279470 16.049038 0.952543
15.594193 16.049038 1.402389
15.908913 16.049038 0.000000
16.223633 16.049038 0.000000
16.538355 16.049038 0.000000
16.853075 16.049038 0.000000
17.167797 16.049038 0.000000
17.482517 16.049038 0.000000
17.797239 16.049038 0.000000
18.111959 16.049038 0.000000
18.426680 16.049038 0.000000
18.741402 16.049038 0.000000
-7.065720 15.734318 0.000000
-6.750999 15.734318 0.004215
-6.436278 15.734318 0.001617
-6.121557 15.734318 0.001232
-5.806836 15.734318 0.001170
-5.492115 15.734318 0.001065
-5.177394 15.734318 0.001085
-4.862673 15.734318 0.000854
-4.547952 15.734318 0.000526
-4.233231 15.734318 0.000721
-3.918510 15.734318 0.001018
-3.603789 15.734318 0.000907
-3.289068 15.734318 0.000863
-2.974347 15.734318 0.001048
-2.659626 15.734318 0.001227
-2.344905 15.734318 0.001321
-2.030184 15.734318 0.001445
-1.715463 15.734318 0.001465
-1.400742 15.734318 0.001341
-1.086021 15.734318 0.001729
-0.771300 15.734318 0.001827
-0.456579 15.734318 0.001316
-0.141859 15.734318 0.000680
0.172863 15.734318 0.000289
0.487584 15.734318 0.000150
0.802305 15.734318 0.000258
1.117026 15.734318 0.001030
1.431747 15.734318 0.001833
1.746467 15.734318 0.001914
2.061188 15.734318 0.001537
2.375909 15.734318 0.001137
2.690630 15.734318 0.001082
3.005352 15.734318 0.001321
3.320073 15.734318 0.001412
3.634794 15.734318 0.001478
3.949515 15.734318 0.001478
4.264236 15.734318 0.001065
4.578956 15.734318 0.000265
4.893677 15.734318 -0.000335
5.208398 15.734318 -0.000535
5.523119 15.734318 -0.000425
5.837841 15.734318 -0.000102
6.152562 15.734318 0.000034
6.467283 15.734318 -0.000040
6.782003 15.734318 -0.000596
7.096724 15.734318 -0.001414
7.411445 15.734318 -0.001376
7.726166 15.734318 -0.001640
8.040888 15.734318 -0.000522
8.355608 15.734318 -0.008010
8.670330 15.734318 -0.009902
8.985050 15.734318 -0.004042
9.299772 15.734318 -0.002591
9.614492 15.734318 0.003271
9.929214 15.734318 0.005580
10.243935 15.734318 0.022417
10.558655 15.734318 0.036234
10.873377 15.734318 0.015333
11.188097 15.734318 0.011962
11.502819 15.734318 0.018679
11.817539 15.734318 0.028251
12.132261 15.734318 0.042219
12.446981 15.734318 0.097171
12.761703 15.734318 0.147932
13.076424 15.734318 0.207187
13.391144 15.734318 0.246748
13.705866 15.734318 0.289568
14.020586 15.734318 0.340783
14.335308 15.734318 0.408945
14.650028 15.734318 0.456696
14.964750 15.734318 0.624226
15.279470 15.734318 0.925855
15.594193 15.734318 1.387646
15.908913 15.734318 0.000000
16.223633 15.734318 0.000000
16.538355 15.734318 0.000000
16.853075 15.734318 0.000000
17.167797 15.734318 0.000000
17.482517 15.734318 0.000000
17.797239 15.734318 0.000000
18.111959 15.734318 0.000000
18.426680 15.734318 0.000000
18.741402 15.734318 0.000000
-7.065720 15.419598 0.000000
-6.750999 15.419598 0.004201
-6.436278 15.419598 0.001484
-6.121557 15.419598 0.001058
-5.806836 15.419598 0.000874
-5.492115 15.419598 0.000916
-5.177394 15.419598 0.001115
-4.862673 15.419598 0.000987
-4.547952 15.419598 0.000890
-4.233231 15.419598 0.001268
-3.918510 15.419598 0.001557
-3.603789 15.419598 0.001478
-3.289068 15.419598 0.001387
-2.974347 15.419598 0.001470
-2.659626 15.419598 0.001444
-2.344905 15.419598 0.001228
-2.030184 15.419598 0.001115
-1.715463 15.419598 0.000903
-1.400742 15.419598 0.000626
-1.086021 15.419598 0.000964
-0.771300 15.419598 0.001176
-0.456579 15.419598 0.000922
-0.141859 15.419598 0.000695
0.172863 15.419598 0.000731
0.487584 15.419598 0.000789
0.802305 15.419598 0.000858
1.117026 15.419598 0.001395
1.431747 15.419598 0.002107
1.746467 15.419598 0.002175
2.061188 15.419598 0.001735
2.375909 15.419598 0.001148
2.690630 15.419598 0.000945
3.005352 15.419598 0.001087
3.320073 15.419598 0.001129
3.634794 15.419598 0.001035
3.949515 15.419598 0.000843
4.264236 15.419598 0.000558
4.578956 15.419598 0.000166
4.893677 15.419598 0.000028
5.208398 15.419598 0.000087
5.523119 15.419598 0.000327
5.837841 15.419598 0.000912
6.152562 15.419598 0.001037
6.467283 15.419598 0.000445
6.782003 15.419598 -0.000308
7.096724 15.419598 -0.001336
7.411445 15.419598 -0.001855
7.726166 15.419598 -0.002926
8.040888 15.419598 -0.002750
8.355608 15.419598 -0.004646
8.670330 15.419598 -0.003995
8.985050 15.419598 -0.007306
9.299772 15.419598 -0.005692
9.614492 15.419598 0.003556
9.929214 15.419598 0.012880
10.243935 15.419598 0.028078
10.558655 15.419598 0.035698
10.873377 15.419598 0.031057
11.188097 15.419598 0.020440
11.502819 15.419598 0.033603
11.817539 15.419598 0.033302
12.132261 15.419598 0.043280
12.446981 15.419598 0.111380
12.761703 15.419598 0.161944
13.076424 15.419598 0.197782
13.391144 15.419598 0.264491
13.705866 15.419598 0.299378
14.020586 15.419598 0.344432
14.335308 15.419598 0.441047
14.650028 15.419598 0.512929
14.964750 15.419598 0.673368
15.279470 15.419598 0.971513
15.594193 15.419598 1.315193
15.908913 15.419598 0.000000
16.223633 15.419598 0.000000
16.538355 15.419598 0.000000
16.853075 15.419598 0.000000
17.167797 15.419598 0.000000
17.482517 15.419598 0.000000
17.797239 15.419598 0.000000
18.111959 15.419598 0.000000
18.426680 15.419598 0.000000
18.741402 15.419598 0.000000
-7.065720 15.104877 0.000000
-6.750999 15.104877 0.004304
-6.436278 15.104877 0.001723
-6.121557 15.104877 0.001439
-5.806836 15.104877 0.001335
-5.492115 15.104877 0.001373
-5.177394 15.104877 0.001538
-4.862673 15.104877 0.001423
-4.547952 15.104877 0.001264
-4.233231 15.104877 0.001586
-3.918510 15.104877 0.001753
-3.603789 15.104877 0.001572
-3.289068 15.104877 0.001462
-2.974347 15.104877 0.001332
-2.659626 15.104877 0.001022
-2.344905 15.104877 0.000765
-2.030184 15.104877 0.000682
-1.715463 15.104877 0.000476
-1.400742 15.104877 0.000309
-1.086021 15.104877 0.000633
-0.771300 15.104877 0.001092
-0.456579 15.104877 0.001220
-0.141859 15.104877 0.001369
0.172863 15.104877 0.001604
0.487584 15.104877 0.001575
0.802305 15.104877 0.001241
1.117026 15.104877 0.001213
1.431747 15.104877 0.001523
1.746467 15.104877 0.001530
2.061188 15.104877 0.001153
2.375909 15.104877 0.000634
2.690630 15.104877 0.000484
3.005352 15.104877 0.000818
3.320073 15.104877 0.001135
3.634794 15.104877 0.001134
3.949515 15.104877 0.000901
4.264236 15.104877 0.000791
4.578956 15.104877 0.000758
4.893677 15.104877 0.000930
5.208398 15.104877 0.000872
5.523119 15.104877 0.000800
5.837841 15.104877 0.001049
6.152562 15.104877 0.000933
6.467283 15.104877 0.000133
6.782003 15.104877 -0.000609
7.096724 15.104877 -0.001650
7.411445 15.104877 -0.002233
7.726166 15.104877 -0.002012
8.040888 15.104877 -0.001522
8.355608 15.104877 -0.001485
8.670330 15.104877 -0.000738
8.985050 15.104877 0.000730
9.299772 15.104877 -0.000291
9.614492 15.104877 0.006064
9.929214 15.104877 0.015504
10.243935 15.104877 0.026061
10.558655 15.104877 0.040723
10.873377 15.104877 0.046801
11.188097 15.104877 0.055785
11.502819 15.104877 0.061540
11.817539 15.104877 0.056200
12.132261 15.104877 0.064866
12.446981 15.104877 0.113884
12.761703 15.104877 0.170906
13.076424 15.104877 0.232256
13.391144 15.104877 0.251613
13.705866 15.104877 0.297765
14.020586 15.104877 0.332190
14.335308 15.104877 0.435703
14.650028 15.104877 0.561635
14.964750 15.104877 0.729601
15.279470 15.104877 1.002127
15.594193 15.104877 1.448045
15.908913 15.104877 0.000000
16.223633 15.104877 0.000000
16.538355 15.104877 0.000000
16.853075 15.104877 0.000000
17.167797 15.104877 0.000000
17.482517 15.104877 0.000000
17.797239 15.104877 0.000000
18.111959 15.104877 0.000000
18.426680 15.104877 0.000000
18.741402 15.104877 0.000000
-7.065720 14.790157 0.000000
-6.750999 14.790157 0.004622
-6.436278 14.790157 0.002257
-6.121557 14.790157 0.001990
-5.806836 14.790157 0.001886
-5.492115 14.790157 0.001757
-5.177394 14.790157 0.001747
-4.862673 14.790157 0.001456
-4.547952 14.790157 0.001212
-4.233231 14.790157 0.001418
-3.918510 14.790157 0.001447
-3.603789 14.790157 0.001299
-3.289068 14.790157 0.001163
-2.974347 14.790157 0.000958
-2.659626 14.790157 0.000706
-2.344905 14.790157 0.000614
-2.030184 14.790157 0.000789
-1.715463 14.790157 0.000825
-1.400742 14.790157 0.000791
-1.086021 14.790157 0.001029
-0.771300 14.790157 0.001407
-0.456579 14.790157 0.001691
-0.141859 14.790157 0.001881
0.172863 14.790157 0.001946
0.487584 14.790157 0.001590
0.802305 14.790157 0.000897
1.117026 14.790157 0.000398
1.431747 14.790157 0.000429
1.746467 14.790157 0.000598
2.061188 14.790157 0.000593
2.375909 14.790157 0.000509
2.690630 14.790157 0.000614
3.005352 14.790157 0.001125
3.320073 14.790157 0.001672
3.634794 14.790157 0.001687
3.949515 14.790157 0.001364
4.264236 14.790157 0.001225
4.578956 14.790157 0.001234
4.893677 14.790157 0.001290
5.208398 14.790157 0.000957
5.523119 14.790157 0.000516
5.837841 14.790157 0.000447
6.152562 14.790157 0.000276
6.467283 14.790157 -0.000476
6.782003 14.790157 -0.000582
7.096724 14.790157 -0.001468
7.411445 14.790157 -0.000933
7.726166 14.790157 -0.000298
8.040888 14.790157 -0.001086
8.355608 14.790157 -0.003138
8.670330 14.790157 0.002679
8.985050 14.790157 0.004562
9.299772 14.790157 0.000097
9.614492 14.790157 0.008364
9.929214 14.790157 0.017120
10.243935 14.790157 0.028596
10.558655 14.790157 0.041325
10.873377 14.790157 0.059421
11.188097 14.790157 0.066521
11.502819 14.790157 0.052851
11.817539 14.790157 0.083194
12.132261 14.790157 0.096075
12.446981 14.790157 0.139263
12.761703 14.790157 0.191256
13.076424 14.790157 0.239629
13.391144 14.790157 0.271528
13.705866 14.790157 0.316426
14.020586 14.790157 0.387544
14.335308 14.790157 0.492327
14.650028 14.790157 0.581051
14.964750 14.790157 0.742427
15.279470 14.790157 0.994943
15.594193 14.790157 1.566740
15.908913 14.790157 0.000000
16.223633 14.790157 0.000000
16.538355 14.790157 0.000000
16.853075 14.790157 0.000000
17.167797 14.790157 0.000000
17.482517 14.790157 0.000000
17.797239 14.790157 0.000000
18.111959 14.790157 0.000000
18.426680 14.790157 0.000000
18.741402 14.790157 0.000000
-7.065720 14.475433 0.000000
-6.750999 14.475433 0.004908
-6.436278 14.475433 0.002750
-6.121557 14.475433 0.002357
-5.806836 14.475433 0.002053
-5.492115 14.475433 0.001736
-5.177394 14.475433 0.001554
-4.862673 14.475433 0.001164
-4.547952 14.475433 0.000878
-4.233231 14.475433 0.001000
-3.918510 14.475433 0.001058
-3.603789 14.475433 0.001061
-3.289068 14.475433 0.001141
-2.974347 14.475433 0.001093
-2.659626 14.475433 0.000945
-2.344905 14.475433 0.001024
-2.030184 14.475433 0.001353
-1.715463 14.475433 0.001591
-1.400742 14.475433 0.001442
-1.086021 14.475433 0.001332
-0.771300 14.475433 0.001391
-0.456579 14.475433 0.001595
-0.141859 14.475433 0.001691
0.172863 14.475433 0.001525
0.487584 14.475433 0.001102
0.802305 14.475433 0.000384
1.117026 14.475433 -0.000298
1.431747 14.475433 -0.000236
1.746467 14.475433 0.000328
2.061188 14.475433 0.000813
2.375909 14.475433 0.001098
2.690630 14.475433 0.001362
3.005352 14.475433 0.001823
3.320073 14.475433 0.002150
3.634794 14.475433 0.001985
3.949515 14.475433 0.001451
4.264236 14.475433 0.001127
4.578956 14.475433 0.001095
4.893677 14.475433 0.001038
5.208398 14.475433 0.000507
5.523119 14.475433 0.000056
5.837841 14.475433 -0.000173
6.152562 14.475433 -0.000237
6.467283 14.475433 -0.000257
6.782003 14.475433 -0.000426
7.096724 14.475433 -0.001426
7.411445 14.475433 -0.002151
7.726166 14.475433 -0.001686
8.040888 14.475433 -0.003724
8.355608 14.475433 -0.002951
8.670330 14.475433 0.001135
8.985050 14.475433 0.004679
9.299772 14.475433 -0.000926
9.614492 14.475433 0.009635
9.929214 14.475433 0.021675
10.243935 14.475433 0.037934
10.558655 14.475433 0.050497
10.873377 14.475433 0.051106
11.188097 14.475433 0.042264
11.502819 14.475433 0.041362
11.817539 14.475433 0.076729
12.132261 14.475433 0.112509
12.446981 14.475433 0.144606
12.761703 14.475433 0.182315
13.076424 14.475433 0.237006
13.391144 14.475433 0.267104
13.705866 14.475433 0.348903
14.020586 14.475433 0.430523
14.335308 14.475433 0.515036
14.650028 14.475433 0.613923
14.964750 14.475433 0.685032
15.279470 14.475433 1.143940
15.594193 14.475433 1.590735
15.908913 14.475433 0.000000
16.223633 14.475433 0.000000
16.538355 14.475433 0.000000
16.853075 14.475433 0.000000
17.167797 14.475433 0.000000
17.482517 14.475433 0.000000
17.797239 14.475433 0.000000
18.111959 14.475433 0.000000
18.426680 14.475433 0.000000
18.741402 14.475433 0.000000
-7.065720 14.160713 0.000000
-6.750999 14.160713 0.004896
-6.436278 14.160713 0.002794
-6.121557 14.160713 0.002254
-5.806836 14.160713 0.001773
-5.492115 14.160713 0.001383
-5.177394 14.160713 0.001264
-4.862673 14.160713 0.001023
-4.547952 14.160713 0.000811
-4.233231 14.160713 0.000842
-3.918510 14.160713 0.001030
-3.603789 14.160713 0.001197
-3.289068 14.160713 0.001527
-2.974347 14.160713 0.001607
-2.659626 14.160713 0.001524
-2.344905 14.160713 0.001558
-2.030184 14.160713 0.001874
-1.715463 14.160713 0.002052
-1.400742 14.160713 0.001713
-1.086021 14.160713 0.001246
-0.771300 14.160713 0.000926
-0.456579 14.160713 0.001010
-0.141859 14.160713 0.001133
0.172863 14.160713 0.000976
0.487584 14.160713 0.000764
0.802305 14.160713 0.000291
1.117026 14.160713 -0.000232
1.431747 14.160713 -0.000034
1.746467 14.160713 0.000851
2.061188 14.160713 0.001620
2.375909 14.160713 0.001963
2.690630 14.160713 0.002128
3.005352 14.160713 0.002118
3.320073 14.160713 0.002021
3.634794 14.160713 0.001615
3.949515 14.160713 0.001048
4.264236 14.160713 0.000791
4.578956 14.160713 0.000811
4.893677 14.160713 0.000758
5.208398 14.160713 0.000428
5.523119 14.160713 0.000184
5.837841 14.160713 0.000030
6.152562 14.160713 0.000004
6.467283 14.160713 0.000085
6.782003 14.160713 -0.000012
7.096724 14.160713 -0.001397
7.411445 14.160713 -0.002064
7.726166 14.160713 -0.003204
8.040888 14.160713 -0.005541
8.355608 14.160713 -0.004355
8.670330 14.160713 0.004483
8.985050 14.160713 0.011737
9.299772 14.160713 0.005090
9.614492 14.160713 0.010986
9.929214 14.160713 0.022613
10.243935 14.160713 0.039326
10.558655 14.160713 0.048925
10.873377 14.160713 0.038784
11.188097 14.160713 0.033163
11.502819 14.160713 0.035612
11.817539 14.160713 0.073614
12.132261 14.160713 0.112144
12.446981 14.160713 0.162559
12.761703 14.160713 0.226453
13.076424 14.160713 0.265935
13.391144 14.160713 0.313628
13.705866 14.160713 0.343855
14.020586 14.160713 0.429955
14.335308 14.160713 0.513075
14.650028 14.160713 0.559032
14.964750 14.160713 0.763676
15.279470 14.160713 1.080823
15.594193 14.160713 1.525129
15.908913 14.160713 0.000000
16.223633 14.160713 0.000000
16.538355 14.160713 0.000000
16.853075 14.160713 0.000000
17.167797 14.160713 0.000000
17.482517 14.160713 0.000000
17.797239 14.160713 0.000000
18.111959 14.160713 0.000000
18.426680 14.160713 0.000000
18.741402 14.160713 0.000000
-7.065720 13.845993 0.000000
-6.750999 13.845993 0.004524
-6.436278 13.845993 0.002442
-6.121557 13.845993 0.002064
-5.806836 13.845993 0.001356
-5.492115 13.845993 0.001148
-5.177394 13.845993 0.001352
-4.862673 13.845993 0.001328
-4.547952 13.845993 0.001190
-4.233231 13.845993 0.001221
-3.918510 13.845993 0.001379
-3.603789 13.845993 0.001615
-3.289068 13.845993 0.001936
-2.974347 13.845993 0.002011
-2.659626 13.845993 0.001852
-2.344905 13.845993 0.001713
-2.030184 13.845993 0.001877
-1.715463 13.845993 0.001950
-1.400742 13.845993 0.001529
-1.086021 13.845993 0.000841
-0.771300 13.845993 0.000413
-0.456579 13.845993 0.000648
-0.141859 13.845993 0.000871
0.172863 13.845993 0.000838
0.487584 13.845993 0.000921
0.802305 13.845993 0.000781
1.117026 13.845993 0.000507
1.431747 13.845993 0.000773
1.746467 13.845993 0.001518
2.061188 13.845993 0.002049
2.375909 13.845993 0.002213
2.690630 13.845993 0.002171
3.005352 13.845993 0.001768
3.320073 13.845993 0.001320
3.634794 13.845993 0.000923
3.949515 13.845993 0.000616
4.264236 13.845993 0.000715
4.578956 13.845993 0.000962
4.893677 13.845993 0.001012
5.208398 13.845993 0.000956
5.523119 13.845993 0.000865
5.837841 13.845993 0.000667
6.152562 13.845993 0.000457
6.467283 13.845993 0.000474
6.782003 13.845993 -0.000497
7.096724 13.845993 -0.001627
7.411445 13.845993 -0.002345
7.726166 13.845993 -0.002842
8.040888 13.845993 -0.006210
8.355608 13.845993 -0.007158
8.670330 13.845993 0.000448
8.985050 13.845993 0.011615
9.299772 13.845993 0.011435
9.614492 13.845993 0.011263
9.929214 13.845993 0.006899
10.243935 13.845993 0.037693
10.558655 13.845993 0.050469
10.873377 13.845993 0.030422
11.188097 13.845993 0.042697
11.502819 13.845993 0.039101
11.817539 13.845993 0.067436
12.132261 13.845993 0.101343
12.446981 13.845993 0.172289
12.761703 13.845993 0.242505
13.076424 13.845993 0.264059
13.391144 13.845993 0.299807
13.705866 13.845993 0.372506
14.020586 13.845993 0.441091
14.335308 13.845993 0.502435
14.650028 13.845993 0.579786
14.964750 13.845993 0.723898
15.279470 13.845993 1.099463
15.594193 13.845993 1.519292
15.908913 13.845993 0.000000
16.223633 13.845993 0.000000
16.538355 13.845993 0.000000
16.853075 13.845993 0.000000
17.167797 13.845993 0.000000
17.482517 13.845993 0.000000
17.797239 13.845993 0.000000
18.111959 13.845993 0.000000
18.426680 13.845993 0.000000
18.741402 13.845993 0.000000
-7.065720 13.531273 0.000000
-6.750999 13.531273 0.004064
-6.436278 13.531273 0.002154
-6.121557 13.531273 0.001877
-5.806836 13.531273 0.001328
-5.492115 13.531273 0.001316
-5.177394 13.531273 0.001801
-4.862673 13.531273 0.002000
-4.547952 13.531273 0.001771
-4.233231 13.531273 0.001560
-3.918510 13.531273 0.001548
-3.603789 13.531273 0.001730
-3.289068 13.531273 0.001908
-2.974347 13.531273 0.001794
-2.659626 13.531273 0.001650
-2.344905 13.531273 0.001465
-2.030184 13.531273 0.001454
-1.715463 13.531273 0.001584
-1.400742 13.531273 0.001262
-1.086021 13.531273 0.000646
-0.771300 13.531273 0.000328
-0.456579 13.531273 0.000700
-0.141859 13.531273 0.001054
0.172863 13.531273 0.001158
0.487584 13.531273 0.001384
0.802305 13.531273 0.001343
1.117026 13.531273 0.001206
1.431747 13.531273 0.001395
1.746467 13.531273 0.001715
2.061188 13.531273 0.001816
2.375909 13.531273 0.001818
2.690630 13.531273 0.001564
3.005352 13.531273 0.001010
3.320073 13.531273 0.000618
3.634794 13.531273 0.000526
3.949515 13.531273 0.000634
4.264236 13.531273 0.001067
4.578956 13.531273 0.001458
4.893677 13.531273 0.001559
5.208398 13.531273 0.001599
5.523119 13.531273 0.001381
5.837841 13.531273 0.000866
6.152562 13.531273 0.000399
6.467283 13.531273 0.000134
6.782003 13.531273 -0.000728
7.096724 13.531273 -0.001971
7.411445 13.531273 -0.001458
7.726166 13.531273 -0.001368
8.040888 13.531273 -0.006579
8.355608 13.531273 -0.010048
8.670330 13.531273 -0.002473
8.985050 13.531273 0.008592
9.299772 13.531273 0.011791
9.614492 13.531273 0.010985
9.929214 13.531273 0.006521
10.243935 13.531273 0.024409
10.558655 13.531273 0.039246
10.873377 13.531273 0.029640
11.188097 13.531273 0.039182
11.502819 13.531273 0.026356
11.817539 13.531273 0.040570
12.132261 13.531273 0.099443
12.446981 13.531273 0.139299
12.761703 13.531273 0.246823
13.076424 13.531273 0.281559
13.391144 13.531273 0.331885
13.705866 13.531273 0.367401
14.020586 13.531273 0.418505
14.335308 13.531273 0.465047
14.650028 13.531273 0.535861
14.964750 13.531273 0.738683
15.279470 13.531273 1.063476
15.594193 13.531273 1.442808
15.908913 13.531273 0.000000
16.223633 13.531273 0.000000
16.538355 13.531273 0.000000
16.853075 13.531273 0.000000
17.167797 13.531273 0.000000
17.482517 13.531273 0.000000
17.797239 13.531273 0.000000
18.111959 13.531273 0.000000
18.426680 13.531273 0.000000
18.741402 13.531273 0.000000
-7.065720 13.216553 0.000000
-6.750999 13.216553 0.003738
-6.436278 13.216553 0.002030
-6.121557 13.216553 0.001791
-5.806836 13.216553 0.001482
-5.492115 13.216553 0.001581
-5.177394 13.216553 0.002156
-4.862673 13.216553 0.002489
-4.547952 13.216553 0.002129
-4.233231 13.216553 0.001608
-3.918510 13.216553 0.001404
-3.603789 13.216553 0.001483
-3.289068 13.216553 0.001528
-2.974347 13.216553 0.001350
-2.659626 13.216553 0.001273
-2.344905 13.216553 0.001191
-2.030184 13.216553 0.001210
-1.715463 13.216553 0.001417
-1.400742 13.216553 0.001297
-1.086021 13.216553 0.000847
-0.771300 13.216553 0.000640
-0.456579 13.216553 0.000910
-0.141859 13.216553 0.001253
0.172863 13.216553 0.001415
0.487584 13.216553 0.001615
0.802305 13.216553 0.001599
1.117026 13.216553 0.001463
1.431747 13.216553 0.001524
1.746467 13.216553 0.001438
2.061188 13.216553 0.001237
2.375909 13.216553 0.001249
2.690630 13.216553 0.001085
3.005352 13.216553 0.000600
3.320073 13.216553 0.000407
3.634794 13.216553 0.000664
3.949515 13.216553 0.001024
4.264236 13.216553 0.001438
4.578956 13.216553 0.001803
4.893677 13.216553 0.001859
5.208398 13.216553 0.001720
5.523119 13.216553 0.001236
5.837841 13.216553 0.000642
6.152562 13.216553 -0.000023
6.467283 13.216553 -0.000273
6.782003 13.216553 -0.001189
7.096724 13.216553 -0.001943
7.411445 13.216553 -0.001443
7.726166 13.216553 -0.001096
8.040888 13.216553 -0.002951
8.355608 13.216553 -0.009521
8.670330 13.216553 -0.000493
8.985050 13.216553 0.008012
9.299772 13.216553 0.010408
9.614492 13.216553 0.017388
9.929214 13.216553 0.020041
10.243935 13.216553 0.036406
10.558655 13.216553 0.043523
10.873377 13.216553 0.031026
11.188097 13.216553 0.038257
11.502819 13.216553 0.039327
11.817539 13.216553 0.046801
12.132261 13.216553 0.095574
12.446981 13.216553 0.164664
12.761703 13.216553 0.197045
13.076424 13.216553 0.270060
13.391144 13.216553 0.310345
13.705866 13.216553 0.350698
14.020586 13.216553 0.433476
14.335308 13.216553 0.467895
14.650028 13.216553 0.531809
14.964750 13.216553 0.768819
15.279470 13.216553 1.060152
15.594193 13.216553 1.472287
15.908913 13.216553 0.000000
16.223633 13.216553 0.000000
16.538355 13.216553 0.000000
16.853075 13.216553 0.000000
17.167797 13.216553 0.000000
17.482517 13.216553 0.000000
17.797239 13.216553 0.000000
18.111959 13.216553 0.000000
18.426680 13.216553 0.000000
18.741402 13.216553 0.000000
-7.065720 12.901829 0.000000
-6.750999 12.901829 0.003289
-6.436278 12.901829 0.001719
-6.121557 12.901829 0.001652
-5.806836 12.901829 0.001575
-5.492115 12.901829 0.001607
-5.177394 12.901829 0.002187
-4.862673 12.901829 0.002604
-4.547952 12.901829 0.002154
-4.233231 12.901829 0.001408
-3.918510 12.901829 0.001117
-3.603789 12.901829 0.001096
-3.289068 12.901829 0.001129
-2.974347 12.901829 0.001097
-2.659626 12.901829 0.001224
-2.344905 12.901829 0.001229
-2.030184 12.901829 0.001350
-1.715463 12.901829 0.001596
-1.400742 12.901829 0.001499
-1.086021 12.901829 0.001230
-0.771300 12.901829 0.000990
-0.456579 12.901829 0.000953
-0.141859 12.901829 0.001094
0.172863 12.901829 0.001319
0.487584 12.901829 0.001488
0.802305 12.901829 0.001536
1.117026 12.901829 0.001537
1.431747 12.901829 0.001562
1.746467 12.901829 0.001235
2.061188 12.901829 0.000932
2.375909 12.901829 0.001006
2.690630 12.901829 0.000902
3.005352 12.901829 0.000606
3.320073 12.901829 0.000510
3.634794 12.901829 0.000968
3.949515 12.901829 0.001363
4.264236 12.901829 0.001569
4.578956 12.901829 0.001730
4.893677 12.901829 0.001503
5.208398 12.901829 0.001271
5.523119 12.901829 0.000740
5.837841 12.901829 0.000188
6.152562 12.901829 -0.000039
6.467283 12.901829 -0.000332
6.782003 12.901829 -0.001146
7.096724 12.901829 -0.001294
7.411445 12.901829 -0.000810
7.726166 12.901829 -0.001223
8.040888 12.901829 -0.001631
8.355608 12.901829 -0.005662
8.670330 12.901829 0.002717
8.985050 12.901829 0.011787
9.299772 12.901829 0.014029
9.614492 12.901829 0.020580
9.929214 12.901829 0.031598
10.243935 12.901829 0.028440
10.558655 12.901829 0.034696
10.873377 12.901829 0.030244
11.188097 12.901829 0.034884
11.502819 12.901829 0.049723
11.817539 12.901829 0.063850
12.132261 12.901829 0.111166
12.446981 12.901829 0.143717
12.761703 12.901829 0.212555
13.076424 12.901829 0.246160
13.391144 12.901829 0.282311
13.705866 12.901829 0.352219
14.020586 12.901829 0.435765
14.335308 12.901829 0.541349
14.650028 12.901829 0.599787
14.964750 12.901829 0.750401
15.279470 12.901829 1.172328
15.594193 12.901829 1.459352
15.908913 12.901829 0.000000
16.223633 12.901829 0.000000
16.538355 12.901829 0.000000
16.853075 12.901829 0.000000
17.167797 12.901829 0.000000
17.482517 12.901829 0.000000
17.797239 12.901829 0.000000
18.111959 12.901829 0.000000
18.426680 12.901829 0.000000
18.741402 12.901829 0.000000
-7.065720 12.587109 0.000000
-6.750999 12.587109 0.002882
-6.436278 12.587109 0.001298
-6.121557 12.587109 0.001439
-5.806836 12.587109 0.001494
-5.492115 12.587109 0.001375
-5.177394 12.587109 0.001876
-4.862673 12.587109 0.002276
-4.547952 12.587109 0.001910
-4.233231 12.587109 0.001274
-3.918510 12.587109 0.000967
-3.603789 12.587109 0.000967
-3.289068 12.587109 0.001027
-2.974347 12.587109 0.001181
-2.659626 12.587109 0.001326
-2.344905 12.587109 0.001510
-2.030184 12.587109 0.001626
-1.715463 12.587109 0.001681
-1.400742 12.587109 0.001529
-1.086021 12.587109 0.001455
-0.771300 12.587109 0.001076
-0.456579 12.587109 0.000792
-0.141859 12.587109 0.000773
0.172863 12.587109 0.001042
0.487584 12.587109 0.001355
0.802305 12.587109 0.001575
1.117026 12.587109 0.001803
1.431747 12.587109 0.001856
1.746467 12.587109 0.001455
2.061188 12.587109 0.001156
2.375909 12.587109 0.001052
2.690630 12.587109 0.000829
3.005352 12.587109 0.000590
3.320073 12.587109 0.000578
3.634794 12.587109 0.001101
3.949515 12.587109 0.001434
4.264236 12.587109 0.001391
4.578956 12.587109 0.001375
4.893677 12.587109 0.001098
5.208398 12.587109 0.000954
5.523119 12.587109 0.000707
5.837841 12.587109 0.000276
6.152562 12.587109 0.000108
6.467283 12.587109 -0.000435
6.782003 12.587109 -0.001229
7.096724 12.587109 -0.001642
7.411445 12.587109 -0.000729
7.726166 12.587109 -0.003361
8.040888 12.587109 -0.003788
8.355608 12.587109 -0.003366
8.670330 12.587109 0.007691
8.985050 12.587109 0.015796
9.299772 12.587109 0.016885
9.614492 12.587109 0.022338
9.929214 12.587109 0.018074
10.243935 12.587109 0.034306
10.558655 12.587109 0.028429
10.873377 12.587109 0.047302
11.188097 12.587109 0.048430
11.502819 12.587109 0.075906
11.817539 12.587109 0.091572
12.132261 12.587109 0.093652
12.446981 12.587109 0.130241
12.761703 12.587109 0.197078
13.076424 12.587109 0.268770
13.391144 12.587109 0.294032
13.705866 12.587109 0.386650
14.020586 12.587109 0.449806
14.335308 12.587109 0.531382
14.650028 12.587109 0.578546
14.964750 12.587109 0.806010
15.279470 12.587109 1.146766
15.594193 12.587109 1.477947
15.908913 12.587109 0.000000
16.223633 12.587109 0.000000
16.538355 12.587109 0.000000
16.853075 12.587109 0.000000
17.167797 12.587109 0.000000
17.482517 12.587109 0.000000
17.797239 12.587109 0.000000
18.111959 12.587109 0.000000
18.426680 12.587109 0.000000
18.741402 12.587109 0.000000
-7.065720 12.272388 0.000000
-6.750999 12.272388 0.002575
-6.436278 12.272388 0.001082
-6.121557 12.272388 0.001171
-5.806836 12.272388 0.001234
-5.492115 12.272388 0.001119
-5.177394 12.272388 0.001528
-4.862673 12.272388 0.001963
-4.547952 12.272388 0.001810
-4.233231 12.272388 0.001322
-3.918510 12.272388 0.001141
-3.603789 12.272388 0.001164
-3.289068 12.272388 0.001150
-2.974347 12.272388 0.001290
-2.659626 12.272388 0.001399
-2.344905 12.272388 0.001538
-2.030184 12.272388 0.001621
-1.715463 12.272388 0.001495
-1.400742 12.272388 0.001362
-1.086021 12.272388 0.001378
-0.771300 12.272388 0.001078
-0.456579 12.272388 0.000738
-0.141859 12.272388 0.000820
0.172863 12.272388 0.001069
0.487584 12.272388 0.001395
0.802305 12.272388 0.001806
1.117026 12.272388 0.002192
1.431747 12.272388 0.002145
1.746467 12.272388 0.001641
2.061188 12.272388 0.001325
2.375909 12.272388 0.000973
2.690630 12.272388 0.000596
3.005352 12.272388 0.000387
3.320073 12.272388 0.000498
3.634794 12.272388 0.001130
3.949515 12.272388 0.001448
4.264236 12.272388 0.001353
4.578956 12.272388 0.001302
4.893677 12.272388 0.001065
5.208398 12.272388 0.001014
5.523119 12.272388 0.000890
5.837841 12.272388 0.000550
6.152562 12.272388 0.000407
6.467283 12.272388 -0.000473
6.782003 12.272388 -0.001792
7.096724 12.272388 -0.002356
7.411445 12.272388 -0.001560
7.726166 12.272388 -0.003538
8.040888 12.272388 -0.004352
8.355608 12.272388 -0.001837
8.670330 12.272388 0.006872
8.985050 12.272388 0.012593
9.299772 12.272388 0.016907
9.614492 12.272388 0.021631
9.929214 12.272388 0.020644
10.243935 12.272388 0.028060
10.558655 12.272388 0.026725
10.873377 12.272388 0.047967
11.188097 12.272388 0.060618
11.502819 12.272388 0.079126
11.817539 12.272388 0.099274
12.132261 12.272388 0.091469
12.446981 12.272388 0.135337
12.761703 12.272388 0.212822
13.076424 12.272388 0.260753
13.391144 12.272388 0.313327
13.705866 12.272388 0.379947
14.020586 12.272388 0.461257
14.335308 12.272388 0.571034
14.650028 12.272388 0.681236
14.964750 12.272388 0.817594
15.279470 12.272388 1.183184
15.594193 12.272388 1.400178
15.908913 12.272388 0.000000
16.223633 12.272388 0.000000
16.538355 12.272388 0.000000
16.853075 12.272388 0.000000
17.167797 12.272388 0.000000
17.482517 12.272388 0.000000
17.797239 12.272388 0.000000
18.111959 12.272388 0.000000
18.426680 12.272388 0.000000
18.741402 12.272388 0.000000
-7.065720 11.957668 0.000000
-6.750999 11.957668 0.002503
-6.436278 11.957668 0.000979
-6.121557 11.957668 0.001143
-5.806836 11.957668 0.001136
-5.492115 11.957668 0.001052
-5.177394 11.957668 0.001348
-4.862673 11.957668 0.001758
-4.547952 11.957668 0.001887
-4.233231 11.957668 0.001605
-3.918510 11.957668 0.001473
-3.603789 11.957668 0.001415
-3.289068 11.957668 0.001184
-2.974347 11.957668 0.001142
-2.659626 11.957668 0.001196
-2.344905 11.957668 0.001294
-2.030184 11.957668 0.001323
-1.715463 11.957668 0.001293
-1.400742 11.957668 0.001253
-1.086021 11.957668 0.001478
-0.771300 11.957668 0.001347
-0.456579 11.957668 0.001100
-0.141859 11.957668 0.001252
0.172863 11.957668 0.001415
0.487584 11.957668 0.001602
0.802305 11.957668 0.001973
1.117026 11.957668 0.002216
1.431747 11.957668 0.002056
1.746467 11.957668 0.001552
2.061188 11.957668 0.001221
2.375909 11.957668 0.000739
2.690630 11.957668 0.000377
3.005352 11.957668 0.000354
3.320073 11.957668 0.000535
3.634794 11.957668 0.001160
3.949515 11.957668 0.001505
4.264236 11.957668 0.001500
4.578956 11.957668 0.001540
4.893677 11.957668 0.001347
5.208398 11.957668 0.001190
5.523119 11.957668 0.001075
5.837841 11.957668 0.000754
6.152562 11.957668 0.000398
6.467283 11.957668 -0.000721
6.782003 11.957668 -0.002595
7.096724 11.957668 -0.002667
7.411445 11.957668 -0.002293
7.726166 11.957668 -0.002691
8.040888 11.957668 -0.006152
8.355608 11.957668 -0.002237
8.670330 11.957668 0.008271
8.985050 11.957668 0.005749
9.299772 11.957668 0.014678
9.614492 11.957668 0.023313
9.929214 11.957668 0.021651
10.243935 11.957668 0.036235
10.558655 11.957668 0.034765
10.873377 11.957668 0.052255
11.188097 11.957668 0.078665
11.502819 11.957668 0.101211
11.817539 11.957668 0.109619
12.132261 11.957668 0.115736
12.446981 11.957668 0.141504
12.761703 11.957668 0.198291
13.076424 11.957668 0.286238
13.391144 11.957668 0.320052
13.705866 11.957668 0.401991
14.020586 11.957668 0.475321
14.335308 11.957668 0.599062
14.650028 11.957668 0.686601
14.964750 11.957668 0.785763
15.279470 11.957668 1.224588
15.594193 11.957668 1.447381
15.908913 11.957668 0.000000
16.223633 11.957668 0.000000
16.538355 11.957668 0.000000
16.853075 11.957668 0.000000
17.167797 11.957668 0.000000
17.482517 11.957668 0.000000
17.797239 11.957668 0.000000
18.111959 11.957668 0.000000
18.426680 11.957668 0.000000
18.741402 11.957668 0.000000
-7.065720 11.642944 0.000000
-6.750999 11.642944 0.002785
-6.436278 11.642944 0.001228
-6.121557 11.642944 0.001248
-5.806836 11.642944 0.001247
-5.492115 11.642944 0.001231
-5.177394 11.642944 0.001290
-4.862673 11.642944 0.001602
-4.547952 11.642944 0.001990
-4.233231 11.642944 0.001851
-3.918510 11.642944 0.001645
-3.603789 11.642944 0.001509
-3.289068 11.642944 0.001150
-2.974347 11.642944 0.000941
-2.659626 11.642944 0.001012
-2.344905 11.642944 0.001197
-2.030184 11.642944 0.001303
-1.715463 11.642944 0.001360
-1.400742 11.642944 0.001443
-1.086021 11.642944 0.001793
-0.771300 11.642944 0.001836
-0.456579 11.642944 0.001780
-0.141859 11.642944 0.001820
0.172863 11.642944 0.001680
0.487584 11.642944 0.001635
0.802305 11.642944 0.001721
1.117026 11.642944 0.001753
1.431747 11.642944 0.001619
1.746467 11.642944 0.001330
2.061188 11.642944 0.001163
2.375909 11.642944 0.000784
2.690630 11.642944 0.000584
3.005352 11.642944 0.000726
3.320073 11.642944 0.000939
3.634794 11.642944 0.001354
3.949515 11.642944 0.001702
4.264236 11.642944 0.001669
4.578956 11.642944 0.001653
4.893677 11.642944 0.001433
5.208398 11.642944 0.001124
5.523119 11.642944 0.001127
5.837841 11.642944 0.000901
6.152562 11.642944 0.000355
6.467283 11.642944 -0.001113
6.782003 11.642944 -0.002525
7.096724 11.642944 -0.002681
7.411445 11.642944 -0.001664
7.726166 11.642944 -0.003204
8.040888 11.642944 -0.005814
8.355608 11.642944 -0.006574
8.670330 11.642944 0.001374
8.985050 11.642944 0.004826
9.299772 11.642944 0.009006
9.614492 11.642944 0.020017
9.929214 11.642944 0.029211
10.243935 11.642944 0.038543
10.558655 11.642944 0.046571
10.873377 11.642944 0.051593
11.188097 11.642944 0.063659
11.502819 11.642944 0.101958
11.817539 11.642944 0.129810
12.132261 11.642944 0.124555
12.446981 11.642944 0.165106
12.761703 11.642944 0.222256
13.076424 11.642944 0.282503
13.391144 11.642944 0.328453
13.705866 11.642944 0.384783
14.020586 11.642944 0.460816
14.335308 11.642944 0.552175
14.650028 11.642944 0.672525
14.964750 11.642944 0.825104
15.279470 11.642944 1.203129
15.594193 11.642944 1.415648
15.908913 11.642944 0.000000
16.223633 11.642944 0.000000
16.538355 11.642944 0.000000
16.853075 11.642944 0.000000
17.167797 11.642944 0.000000
17.482517 11.642944 0.000000
17.797239 11.642944 0.000000
18.111959 11.642944 0.000000
18.426680 11.642944 0.000000
18.741402 11.642944 0.000000
-7.065720 11.328224 0.000000
-6.750999 11.328224 0.003327
-6.436278 11.328224 0.001560
-6.121557 11.328224 0.001421
-5.806836 11.328224 0.001412
-5.492115 11.328224 0.001281
-5.177394 11.328224 0.001122
-4.862673 11.328224 0.001327
-4.547952 11.328224 0.001837
-4.233231 11.328224 0.001858
-3.918510 11.328224 0.001588
-3.603789 11.328224 0.001516
-3.289068 11.328224 0.001237
-2.974347 11.328224 0.000965
-2.659626 11.328224 0.001103
-2.344905 11.328224 0.001387
-2.030184 11.328224 0.001714
-1.715463 11.328224 0.001826
-1.400742 11.328224 0.001854
-1.086021 11.328224 0.002062
-0.771300 11.328224 0.002109
-0.456579 11.328224 0.002078
-0.141859 11.328224 0.001971
0.172863 11.328224 0.001543
0.487584 11.328224 0.001364
0.802305 11.328224 0.001173
1.117026 11.328224 0.001201
1.431747 11.328224 0.001320
1.746467 11.328224 0.001365
2.061188 11.328224 0.001394
2.375909 11.328224 0.001157
2.690630 11.328224 0.001161
3.005352 11.328224 0.001377
3.320073 11.328224 0.001365
3.634794 11.328224 0.001368
3.949515 11.328224 0.001539
4.264236 11.328224 0.001512
4.578956 11.328224 0.001414
4.893677 11.328224 0.001146
5.208398 11.328224 0.000989
5.523119 11.328224 0.001058
5.837841 11.328224 0.000988
6.152562 11.328224 0.000284
6.467283 11.328224 -0.000930
6.782003 11.328224 -0.002530
7.096724 11.328224 -0.002579
7.411445 11.328224 -0.003207
7.726166 11.328224 -0.005782
8.040888 11.328224 -0.007760
8.355608 11.328224 -0.005389
8.670330 11.328224 0.001492
8.985050 11.328224 0.004319
9.299772 11.328224 0.014258
9.614492 11.328224 0.021093
9.929214 11.328224 0.041373
10.243935 11.328224 0.044010
10.558655 11.328224 0.048614
10.873377 11.328224 0.058478
11.188097 11.328224 0.051819
11.502819 11.328224 0.091727
11.817539 11.328224 0.096052
12.132261 11.328224 0.113040
12.446981 11.328224 0.151831
12.761703 11.328224 0.203527
13.076424 11.328224 0.282505
13.391144 11.328224 0.307473
13.705866 11.328224 0.391394
14.020586 11.328224 0.496251
14.335308 11.328224 0.547205
14.650028 11.328224 0.665211
14.964750 11.328224 0.857814
15.279470 11.328224 1.218623
15.594193 11.328224 6.185631
15.908913 11.328224 0.000000
16.223633 11.328224 0.000000
16.538355 11.328224 0.000000
16.853075 11.328224 0.000000
17.167797 11.328224 0.000000
17.482517 11.328224 0.000000
17.797239 11.328224 0.000000
18.111959 11.328224 0.000000
18.426680 11.328224 0.000000
18.741402 11.328224 0.000000
-7.065720 11.013504 0.000000
-6.750999 11.013504 0.003713
-6.436278 11.013504 0.001829
-6.121557 11.013504 0.001567
-5.806836 11.013504 0.001361
-5.492115 11.013504 0.001034
-5.177394 11.013504 0.000847
-4.862673 11.013504 0.000990
-4.547952 11.013504 0.001499
-4.233231 11.013504 0.001693
-3.918510 11.013504 0.001581
-3.603789 11.013504 0.001602
-3.289068 11.013504 0.001456
-2.974347 11.013504 0.001255
-2.659626 11.013504 0.001434
-2.344905 11.013504 0.001847
-2.030184 11.013504 0.002127
-1.715463 11.013504 0.002123
-1.400742 11.013504 0.002022
-1.086021 11.013504 0.001956
-0.771300 11.013504 0.001939
-0.456579 11.013504 0.001968
-0.141859 11.013504 0.001781
0.172863 11.013504 0.001323
0.487584 11.013504 0.001076
0.802305 11.013504 0.000757
1.117026 11.013504 0.000874
1.431747 11.013504 0.001302
1.746467 11.013504 0.001629
2.061188 11.013504 0.001819
2.375909 11.013504 0.001681
2.690630 11.013504 0.001704
3.005352 11.013504 0.001874
3.320073 11.013504 0.001595
3.634794 11.013504 0.001151
3.949515 11.013504 0.001195
4.264236 11.013504 0.001219
4.578956 11.013504 0.001098
4.893677 11.013504 0.000943
5.208398 11.013504 0.000869
5.523119 11.013504 0.001080
5.837841 11.013504 0.001070
6.152562 11.013504 0.000245
6.467283 11.013504 -0.000410
6.782003 11.013504 -0.001764
7.096724 11.013504 -0.002443
7.411445 11.013504 -0.003636
7.726166 11.013504 -0.007054
8.040888 11.013504 -0.010679
8.355608 11.013504 -0.006489
8.670330 11.013504 -0.000519
8.985050 11.013504 0.009355
9.299772 11.013504 0.016659
9.614492 11.013504 0.023481
9.929214 11.013504 0.048009
10.243935 11.013504 0.058000
10.558655 11.013504 0.054792
10.873377 11.013504 0.044485
11.188097 11.013504 0.058357
11.502819 11.013504 0.074177
11.817539 11.013504 0.055800
12.132261 11.013504 0.084599
12.446981 11.013504 0.140781
12.761703 11.013504 0.177629
13.076424 11.013504 0.250378
13.391144 11.013504 0.324184
13.705866 11.013504 0.327615
14.020586 11.013504 0.471731
14.335308 11.013504 0.551622
14.650028 11.013504 0.673694
14.964750 11.013504 0.928034
15.279470 11.013504 1.192169
15.594193 11.013504 152.604584
15.908913 11.013504 0.000000
16.223633 11.013504 0.000000
16.538355 11.013504 0.000000
16.853075 11.013504 0.000000
17.167797 11.013504 0.000000
17.482517 11.013504 0.000000
17.797239 11.013504 0.000000
18.111959 11.013504 0.000000
18.426680 11.013504 0.000000
18.741402 11.013504 0.000000
-7.065720 10.698784 0.000000
-6.750999 10.698784 0.003515
-6.436278 10.698784 0.001660
-6.121557 10.698784 0.001399
-5.806836 10.698784 0.001144
-5.492115 10.698784 0.000946
-5.177394 10.698784 0.000842
-4.862673 10.698784 0.000942
-4.547952 10.698784 0.001366
-4.233231 10.698784 0.001699
-3.918510 10.698784 0.001793
-3.603789 10.698784 0.001865
-3.289068 10.698784 0.001693
-2.974347 10.698784 0.001501
-2.659626 10.698784 0.001630
-2.344905 10.698784 0.001979
-2.030184 10.698784 0.002120
-1.715463 10.698784 0.001923
-1.400742 10.698784 0.001724
-1.086021 10.698784 0.001597
-0.771300 10.698784 0.001595
-0.456579 10.698784 0.001674
-0.141859 10.698784 0.001713
0.172863 10.698784 0.001390
0.487584 10.698784 0.001147
0.802305 10.698784 0.000733
1.117026 10.698784 0.000817
1.431747 10.698784 0.001342
1.746467 10.698784 0.001809
2.061188 10.698784 0.001898
2.375909 10.698784 0.001818
2.690630 10.698784 0.001903
3.005352 10.698784 0.002005
3.320073 10.698784 0.001546
3.634794 10.698784 0.000893
3.949515 10.698784 0.000909
4.264236 10.698784 0.001118
4.578956 10.698784 0.001096
4.893677 10.698784 0.000832
5.208398 10.698784 0.000871
5.523119 10.698784 0.000999
5.837841 10.698784 0.000979
6.152562 10.698784 0.000116
6.467283 10.698784 -0.000173
6.782003 10.698784 -0.001545
7.096724 10.698784 -0.002883
7.411445 10.698784 -0.003879
7.726166 10.698784 -0.008220
8.040888 10.698784 -0.010328
8.355608 10.698784 -0.004574
8.670330 10.698784 0.004902
8.985050 10.698784 0.012997
9.299772 10.698784 0.018048
9.614492 10.698784 0.023158
9.929214 10.698784 0.045655
10.243935 10.698784 0.072464
10.558655 10.698784 0.070643
10.873377 10.698784 0.057123
11.188097 10.698784 0.048541
11.502819 10.698784 0.048519
11.817539 10.698784 0.049081
12.132261 10.698784 0.076134
12.446981 10.698784 0.134986
12.761703 10.698784 0.200940
13.076424 10.698784 0.237423
13.391144 10.698784 0.310847
13.705866 10.698784 0.355657
14.020586 10.698784 0.436394
14.335308 10.698784 0.564923
14.650028 10.698784 0.695501
14.964750 10.698784 0.978443
15.279470 10.698784 1.227263
15.594193 10.698784 0.000000
15.908913 10.698784 0.000000
16.223633 10.698784 0.000000
16.538355 10.698784 0.000000
16.853075 10.698784 0.000000
17.167797 10.698784 0.000000
17.482517 10.698784 0.000000
17.797239 10.698784 0.000000
18.111959 10.698784 0.000000
18.426680 10.698784 0.000000
18.741402 10.698784 0.000000
-7.065720 10.384064 0.000000
-6.750999 10.384064 0.003288
-6.436278 10.384064 0.001618
-6.121557 10.384064 0.001460
-5.806836 10.384064 0.001255
-5.492115 10.384064 0.001278
-5.177394 10.384064 0.001250
-4.862673 10.384064 0.001171
-4.547952 10.384064 0.001394
-4.233231 10.384064 0.001727
-3.918510 10.384064 0.001788
-3.603789 10.384064 0.001816
-3.289068 10.384064 0.001706
-2.974347 10.384064 0.001498
-2.659626 10.384064 0.001562
-2.344905 10.384064 0.001821
-2.030184 10.384064 0.001812
-1.715463 10.384064 0.001516
-1.400742 10.384064 0.001346
-1.086021 10.384064 0.001308
-0.771300 10.384064 0.001380
-0.456579 10.384064 0.001557
-0.141859 10.384064 0.001708
0.172863 10.384064 0.001486
0.487584 10.384064 0.001226
0.802305 10.384064 0.000742
1.117026 10.384064 0.000696
1.431747 10.384064 0.001104
1.746467 10.384064 0.001525
2.061188 10.384064 0.001614
2.375909 10.384064 0.001674
2.690630 10.384064 0.001986
3.005352 10.384064 0.002083
3.320073 10.384064 0.001477
3.634794 10.384064 0.000747
3.949515 10.384064 0.000854
4.264236 10.384064 0.001344
4.578956 10.384064 0.001272
4.893677 10.384064 0.000938
5.208398 10.384064 0.000856
5.523119 10.384064 0.000996
5.837841 10.384064 0.000849
6.152562 10.384064 0.000350
6.467283 10.384064 -0.000444
6.782003 10.384064 -0.001914
7.096724 10.384064 -0.003714
7.411445 10.384064 -0.003036
7.726166 10.384064 -0.006171
8.040888 10.384064 -0.007905
8.355608 10.384064 -0.001536
8.670330 10.384064 0.001842
8.985050 10.384064 0.017221
9.299772 10.384064 0.019410
9.614492 10.384064 0.027691
9.929214 10.384064 0.052432
10.243935 10.384064 0.065514
10.558655 10.384064 0.068864
10.873377 10.384064 0.066193
11.188097 10.384064 0.062714
11.502819 10.384064 0.039189
11.817539 10.384064 0.054046
12.132261 10.384064 0.061646
12.446981 10.384064 0.129104
12.761703 10.384064 0.204831
13.076424 10.384064 0.239363
13.391144 10.384064 0.278526
13.705866 10.384064 0.361682
14.020586 10.384064 0.429413
14.335308 10.384064 0.560245
14.650028 10.384064 0.715407
14.964750 10.384064 1.016014
15.279470 10.384064 1.239815
15.594193 10.384064 0.000000
15.908913 10.384064 0.000000
16.223633 10.384064 0.000000
16.538355 10.384064 0.000000
16.853075 10.384064 0.000000
17.167797 10.384064 0.000000
17.482517 10.384064 0.000000
17.797239 10.384064 0.000000
18.111959 10.384064 0.000000
18.426680 10.384064 0.000000
18.741402 10.384064 0.000000
-7.065720 10.069340 0.000000
-6.750999 10.069340 0.003249
-6.436278 10.069340 0.001845
-6.121557 10.069340 0.001634
-5.806836 10.069340 0.001544
-5.492115 10.069340 0.001727
-5.177394 10.069340 0.001773
-4.862673 10.069340 0.001376
-4.547952 10.069340 0.001292
-4.233231 10.069340 0.001458
-3.918510 10.069340 0.001486
-3.603789 10.069340 0.001596
-3.289068 10.069340 0.001498
-2.974347 10.069340 0.001305
-2.659626 10.069340 0.001409
-2.344905 10.069340 0.001685
-2.030184 10.069340 0.001676
-1.715463 10.069340 0.001314
-1.400742 10.069340 0.001076
-1.086021 10.069340 0.001161
-0.771300 10.069340 0.001248
-0.456579 10.069340 0.001467
-0.141859 10.069340 0.001600
0.172863 10.069340 0.001448
0.487584 10.069340 0.001183
0.802305 10.069340 0.000647
1.117026 10.069340 0.000553
1.431747 10.069340 0.000879
1.746467 10.069340 0.001158
2.061188 10.069340 0.001329
2.375909 10.069340 0.001676
2.690630 10.069340 0.002196
3.005352 10.069340 0.002151
3.320073 10.069340 0.001480
3.634794 10.069340 0.000862
3.949515 10.069340 0.001009
4.264236 10.069340 0.001570
4.578956 10.069340 0.001491
4.893677 10.069340 0.001010
5.208398 10.069340 0.000860
5.523119 10.069340 0.000818
5.837841 10.069340 0.000679
6.152562 10.069340 0.000241
6.467283 10.069340 -0.000599
6.782003 10.069340 -0.001877
7.096724 10.069340 -0.002796
7.411445 10.069340 -0.003447
7.726166 10.069340 -0.002596
8.040888 10.069340 -0.008288
8.355608 10.069340 -0.004551
8.670330 10.069340 -0.006169
8.985050 10.069340 0.005164
9.299772 10.069340 0.018930
9.614492 10.069340 0.025990
9.929214 10.069340 0.044817
10.243935 10.069340 0.046768
10.558655 10.069340 0.070778
10.873377 10.069340 0.076716
11.188097 10.069340 0.065472
11.502819 10.069340 0.040764
11.817539 10.069340 0.045022
12.132261 10.069340 0.070361
12.446981 10.069340 0.123420
12.761703 10.069340 0.176871
13.076424 10.069340 0.248951
13.391144 10.069340 0.280808
13.705866 10.069340 0.349974
14.020586 10.069340 0.440499
14.335308 10.069340 0.591388
14.650028 10.069340 0.724578
14.964750 10.069340 0.989458
15.279470 10.069340 1.251268
15.594193 10.069340 0.000000
15.908913 10.069340 0.000000
16.223633 10.069340 0.000000
16.538355 10.069340 0.000000
16.853075 10.069340 0.000000
17.167797 10.069340 0.000000
17.482517 10.069340 0.000000
17.797239 10.069340 0.000000
18.111959 10.069340 0.000000
18.426680 10.069340 0.000000
18.741402 10.069340 0.000000
-7.065720 9.754620 0.000000
-6.750999 9.754620 0.003291
-6.436278 9.754620 0.001894
-6.121557 9.754620 0.001599
-5.806836 9.754620 0.001620
-5.492115 9.754620 0.001888
-5.177394 9.754620 0.001885
-4.862673 9.754620 0.001357
-4.547952 9.754620 0.001033
-4.233231 9.754620 0.001066
-3.918510 9.754620 0.001213
-3.603789 9.754620 0.001495
-3.289068 9.754620 0.001537
-2.974347 9.754620 0.001299
-2.659626 9.754620 0.001491
-2.344905 9.754620 0.001729
-2.030184 9.754620 0.001830
-1.715463 9.754620 0.001334
-1.400742 9.754620 0.001013
-1.086021 9.754620 0.001048
-0.771300 9.754620 0.001182
-0.456579 9.754620 0.001349
-0.141859 9.754620 0.001309
0.172863 9.754620 0.001263
0.487584 9.754620 0.001115
0.802305 9.754620 0.000746
1.117026 9.754620 0.000663
1.431747 9.754620 0.000861
1.746467 9.754620 0.001036
2.061188 9.754620 0.001293
2.375909 9.754620 0.001804
2.690630 9.754620 0.002342
3.005352 9.754620 0.002173
3.320073 9.754620 0.001510
3.634794 9.754620 0.000979
3.949515 9.754620 0.001105
4.264236 9.754620 0.001647
4.578956 9.754620 0.001647
4.893677 9.754620 0.001078
5.208398 9.754620 0.000778
5.523119 9.754620 0.000763
5.837841 9.754620 0.000348
6.152562 9.754620 -0.000045
6.467283 9.754620 -0.000565
6.782003 9.754620 -0.001684
7.096724 9.754620 -0.002020
7.411445 9.754620 -0.002487
7.726166 9.754620 -0.001194
8.040888 9.754620 -0.007037
8.355608 9.754620 -0.009514
8.670330 9.754620 -0.011089
8.985050 9.754620 -0.006140
9.299772 9.754620 0.013864
9.614492 9.754620 0.029860
9.929214 9.754620 0.046658
10.243935 9.754620 0.050162
10.558655 9.754620 0.069922
10.873377 9.754620 0.084064
11.188097 9.754620 0.057466
11.502819 9.754620 0.037161
11.817539 9.754620 0.068881
12.132261 9.754620 0.087451
12.446981 9.754620 0.125574
12.761703 9.754620 0.184054
13.076424 9.754620 0.239599
13.391144 9.754620 0.277357
13.705866 9.754620 0.366406
14.020586 9.754620 0.434441
14.335308 9.754620 0.569875
14.650028 9.754620 0.758633
14.964750 9.754620 1.076905
15.279470 9.754620 1.400100
15.594193 9.754620 0.000000
15.908913 9.754620 0.000000
16.223633 9.754620 0.000000
16.538355 9.754620 0.000000
16.853075 9.754620 0.000000
17.167797 9.754620 0.000000
17.482517 9.754620 0.000000
17.797239 9.754620 0.000000
18.111959 9.754620 0.000000
18.426680 9.754620 0.000000
18.741402 9.754620 0.000000
-7.065720 9.439899 0.000000
-6.750999 9.439899 0.003196
-6.436278 9.439899 0.001729
-6.121557 9.439899 0.001458
-5.806836 9.439899 0.001521
-5.492115 9.439899 0.001872
-5.177394 9.439899 0.001958
-4.862673 9.439899 0.001468
-4.547952 9.439899 0.000929
-4.233231 9.439899 0.000889
-3.918510 9.439899 0.001179
-3.603789 9.439899 0.001599
-3.289068 9.439899 0.001682
-2.974347 9.439899 0.001424
-2.659626 9.439899 0.001506
-2.344905 9.439899 0.001682
-2.030184 9.439899 0.001771
-1.715463 9.439899 0.001202
-1.400742 9.439899 0.000723
-1.086021 9.439899 0.000958
-0.771300 9.439899 0.001169
-0.456579 9.439899 0.001250
-0.141859 9.439899 0.001123
0.172863 9.439899 0.001205
0.487584 9.439899 0.001353
0.802305 9.439899 0.001122
1.117026 9.439899 0.001038
1.431747 9.439899 0.001045
1.746467 9.439899 0.001131
2.061188 9.439899 0.001400
2.375909 9.439899 0.001895
2.690630 9.439899 0.002197
3.005352 9.439899 0.002006
3.320073 9.439899 0.001599
3.634794 9.439899 0.001180
3.949515 9.439899 0.001144
4.264236 9.439899 0.001608
4.578956 9.439899 0.001554
4.893677 9.439899 0.001030
5.208398 9.439899 0.000704
5.523119 9.439899 0.000679
5.837841 9.439899 0.000517
6.152562 9.439899 0.000187
6.467283 9.439899 -0.000826
6.782003 9.439899 -0.001718
7.096724 9.439899 -0.001857
7.411445 9.439899 -0.001083
7.726166 9.439899 -0.001514
8.040888 9.439899 -0.004377
8.355608 9.439899 -0.006837
8.670330 9.439899 -0.007370
8.985050 9.439899 -0.003674
9.299772 9.439899 0.011490
9.614492 9.439899 0.029998
9.929214 9.439899 0.051319
10.243935 9.439899 0.069125
10.558655 9.439899 0.078045
10.873377 9.439899 0.082183
11.188097 9.439899 0.047067
11.502819 9.439899 0.059127
11.817539 9.439899 0.095298
12.132261 9.439899 0.123468
12.446981 9.439899 0.156240
12.761703 9.439899 0.206990
13.076424 9.439899 0.268949
13.391144 9.439899 0.295863
13.705866 9.439899 0.362498
14.020586 9.439899 0.479484
14.335308 9.439899 0.623770
14.650028 9.439899 0.788682
14.964750 9.439899 1.026403
15.279470 9.439899 1.439373
15.594193 9.439899 0.000000
15.908913 9.439899 0.000000
16.223633 9.439899 0.000000
16.538355 9.439899 0.000000
16.853075 9.439899 0.000000
17.167797 9.439899 0.000000
17.482517 9.439899 0.000000
17.797239 9.439899 0.000000
18.111959 9.439899 0.000000
18.426680 9.439899 0.000000
18.741402 9.439899 0.000000
-7.065720 9.125179 0.000000
-6.750999 9.125179 0.003011
-6.436278 9.125179 0.001534
-6.121557 9.125179 0.001500
-5.806836 9.125179 0.001634
-5.492115 9.125179 0.001950
-5.177394 9.125179 0.002104
-4.862673 9.125179 0.001698
-4.547952 9.125179 0.001117
-4.233231 9.125179 0.000939
-3.918510 9.125179 0.001236
-3.603789 9.125179 0.001613
-3.289068 9.125179 0.001681
-2.974347 9.125179 0.001411
-2.659626 9.125179 0.001312
-2.344905 9.125179 0.001411
-2.030184 9.125179 0.001571
-1.715463 9.125179 0.001076
-1.400742 9.125179 0.000718
-1.086021 9.125179 0.001008
-0.771300 9.125179 0.001292
-0.456579 9.125179 0.001429
-0.141859 9.125179 0.001278
0.172863 9.125179 0.001419
0.487584 9.125179 0.001643
0.802305 9.125179 0.001565
1.117026 9.125179 0.001440
1.431747 9.125179 0.001278
1.746467 9.125179 0.001190
2.061188 9.125179 0.001366
2.375909 9.125179 0.001722
2.690630 9.125179 0.001829
3.005352 9.125179 0.001810
3.320073 9.125179 0.001731
3.634794 9.125179 0.001461
3.949515 9.125179 0.001245
4.264236 9.125179 0.001549
4.578956 9.125179 0.001451
4.893677 9.125179 0.001003
5.208398 9.125179 0.000723
5.523119 9.125179 0.000893
5.837841 9.125179 0.000730
6.152562 9.125179 0.000181
6.467283 9.125179 -0.000840
6.782003 9.125179 -0.001319
7.096724 9.125179 -0.001005
7.411445 9.125179 -0.000760
7.726166 9.125179 -0.001406
8.040888 9.125179 -0.003979
8.355608 9.125179 -0.006834
8.670330 9.125179 -0.006373
8.985050 9.125179 -0.005594
9.299772 9.125179 0.011514
9.614492 9.125179 0.033975
9.929214 9.125179 0.053400
10.243935 9.125179 0.076120
10.558655 9.125179 0.083653
10.873377 9.125179 0.080380
11.188097 9.125179 0.074781
11.502819 9.125179 0.107872
11.817539 9.125179 0.133019
12.132261 9.125179 0.144925
12.446981 9.125179 0.207788
12.761703 9.125179 0.259224
13.076424 9.125179 0.277394
13.391144 9.125179 0.324684
13.705866 9.125179 0.406191
14.020586 9.125179 0.523436
14.335308 9.125179 0.649058
14.650028 9.125179 0.837049
14.964750 9.125179 1.090576
15.279470 9.125179 1.454391
15.594193 9.125179 0.000000
15.908913 9.125179 0.000000
16.223633 9.125179 0.000000
16.538355 9.125179 0.000000
16.853075 9.125179 0.000000
17.167797 9.125179 0.000000
17.482517 9.125179 0.000000
17.797239 9.125179 0.000000
18.111959 9.125179 0.000000
18.426680 9.125179 0.000000
18.741402 9.125179 0.000000
-7.065720 8.810455 0.000000
-6.750999 8.810455 0.002953
-6.436278 8.810455 0.001685
-6.121557 8.810455 0.001769
-5.806836 8.810455 0.001823
-5.492115 8.810455 0.002058
-5.177394 8.810455 0.002222
-4.862673 8.810455 0.001765
-4.547952 8.810455 0.001190
-4.233231 8.810455 0.000994
-3.918510 8.810455 0.001138
-3.603789 8.810455 0.001310
-3.289068 8.810455 0.001347
-2.974347 8.810455 0.001145
-2.659626 8.810455 0.001045
-2.344905 8.810455 0.001158
-2.030184 8.810455 0.001502
-1.715463 8.810455 0.001279
-1.400742 8.810455 0.000952
-1.086021 8.810455 0.001241
-0.771300 8.810455 0.001518
-0.456579 8.810455 0.001651
-0.141859 8.810455 0.001510
0.172863 8.810455 0.001522
0.487584 8.810455 0.001710
0.802305 8.810455 0.001724
1.117026 8.810455 0.001670
1.431747 8.810455 0.001417
1.746467 8.810455 0.001152
2.061188 8.810455 0.001254
2.375909 8.810455 0.001383
2.690630 8.810455 0.001431
3.005352 8.810455 0.001591
3.320073 8.810455 0.001849
3.634794 8.810455 0.001685
3.949515 8.810455 0.001429
4.264236 8.810455 0.001574
4.578956 8.810455 0.001562
4.893677 8.810455 0.001214
5.208398 8.810455 0.000873
5.523119 8.810455 0.001027
5.837841 8.810455 0.000799
6.152562 8.810455 0.000320
6.467283 8.810455 -0.000975
6.782003 8.810455 -0.001005
7.096724 8.810455 -0.000883
7.411445 8.810455 -0.000263
7.726166 8.810455 -0.002556
8.040888 8.810455 -0.001713
8.355608 8.810455 -0.002051
8.670330 8.810455 -0.003981
8.985050 8.810455 0.005997
9.299772 8.810455 0.010055
9.614492 8.810455 0.028321
9.929214 8.810455 0.054529
10.243935 8.810455 0.070333
10.558655 8.810455 0.089484
10.873377 8.810455 0.076412
11.188097 8.810455 0.088666
11.502819 8.810455 0.113614
11.817539 8.810455 0.133949
12.132261 8.810455 0.178311
12.446981 8.810455 0.213976
12.761703 8.810455 0.252489
13.076424 8.810455 0.286398
13.391144 8.810455 0.334795
13.705866 8.810455 0.434595
14.020586 8.810455 0.544441
14.335308 8.810455 0.634677
14.650028 8.810455 0.841158
14.964750 8.810455 1.122992
15.279470 8.810455 1.489190
15.594193 8.810455 0.000000
15.908913 8.810455 0.000000
16.223633 8.810455 0.000000
16.538355 8.810455 0.000000
16.853075 8.810455 0.000000
17.167797 8.810455 0.000000
17.482517 8.810455 0.000000
17.797239 8.810455 0.000000
18.111959 8.810455 0.000000
18.426680 8.810455 0.000000
18.741402 8.810455 0.000000
-7.065720 8.495735 0.000000
-6.750999 8.495735 0.002871
-6.436278 8.495735 0.001769
-6.121557 8.495735 0.001935
-5.806836 8.495735 0.001867
-5.492115 8.495735 0.001951
-5.177394 8.495735 0.002064
-4.862673 8.495735 0.001656
-4.547952 8.495735 0.001180
-4.233231 8.495735 0.001024
-3.918510 8.495735 0.001069
-3.603789 8.495735 0.001146
-3.289068 8.495735 0.001144
-2.974347 8.495735 0.000981
-2.659626 8.495735 0.000950
-2.344905 8.495735 0.001134
-2.030184 8.495735 0.001544
-1.715463 8.495735 0.001528
-1.400742 8.495735 0.001335
-1.086021 8.495735 0.001500
-0.771300 8.495735 0.001694
-0.456579 8.495735 0.001756
-0.141859 8.495735 0.001624
0.172863 8.495735 0.001459
0.487584 8.495735 0.001574
0.802305 8.495735 0.001670
1.117026 8.495735 0.001735
1.431747 8.495735 0.001518
1.746467 8.495735 0.001254
2.061188 8.495735 0.001176
2.375909 8.495735 0.001150
2.690630 8.495735 0.001191
3.005352 8.495735 0.001501
3.320073 8.495735 0.001944
3.634794 8.495735 0.001886
3.949515 8.495735 0.001623
4.264236 8.495735 0.001629
4.578956 8.495735 0.001680
4.893677 8.495735 0.001476
5.208398 8.495735 0.001143
5.523119 8.495735 0.001030
5.837841 8.495735 0.000909
6.152562 8.495735 0.000267
6.467283 8.495735 -0.000937
6.782003 8.495735 -0.001189
7.096724 8.495735 -0.001478
7.411445 8.495735 -0.000883
7.726166 8.495735 -0.004558
8.040888 8.495735 -0.005270
8.355608 8.495735 -0.000901
8.670330 8.495735 0.006000
8.985050 8.495735 0.014444
9.299772 8.495735 0.021918
9.614492 8.495735 0.029973
9.929214 8.495735 0.057940
10.243935 8.495735 0.075734
10.558655 8.495735 0.082951
10.873377 8.495735 0.079162
11.188097 8.495735 0.072715
11.502819 8.495735 0.095582
11.817539 8.495735 0.138578
12.132261 8.495735 0.154986
12.446981 8.495735 0.205567
12.761703 8.495735 0.245117
13.076424 8.495735 0.291805
13.391144 8.495735 0.348882
13.705866 8.495735 0.417364
14.020586 8.495735 0.534834
14.335308 8.495735 0.631660
14.650028 8.495735 0.859329
14.964750 8.495735 1.058297
15.279470 8.495735 1.437595
15.594193 8.495735 0.000000
15.908913 8.495735 0.000000
16.223633 8.495735 0.000000
16.538355 8.495735 0.000000
16.853075 8.495735 0.000000
17.167797 8.495735 0.000000
17.482517 8.495735 0.000000
17.797239 8.495735 0.000000
18.111959 8.495735 0.000000
18.426680 8.495735 0.000000
18.741402 8.495735 0.000000
-7.065720 8.181015 0.000000
-6.750999 8.181015 0.002736
-6.436278 8.181015 0.001681
-6.121557 8.181015 0.001739
-5.806836 8.181015 0.001669
-5.492115 8.181015 0.001737
-5.177394 8.181015 0.001834
-4.862673 8.181015 0.001628
-4.547952 8.181015 0.001339
-4.233231 8.181015 0.001228
-3.918510 8.181015 0.001268
-3.603789 8.181015 0.001268
-3.289068 8.181015 0.001122
-2.974347 8.181015 0.000914
-2.659626 8.181015 0.000831
-2.344905 8.181015 0.001052
-2.030184 8.181015 0.001523
-1.715463 8.181015 0.001624
-1.400742 8.181015 0.001549
-1.086021 8.181015 0.001651
-0.771300 8.181015 0.001659
-0.456579 8.181015 0.001674
-0.141859 8.181015 0.001640
0.172863 8.181015 0.001391
0.487584 8.181015 0.001382
0.802305 8.181015 0.001533
1.117026 8.181015 0.001742
1.431747 8.181015 0.001665
1.746467 8.181015 0.001408
2.061188 8.181015 0.001138
2.375909 8.181015 0.001071
2.690630 8.181015 0.001201
3.005352 8.181015 0.001583
3.320073 8.181015 0.002078
3.634794 8.181015 0.001926
3.949515 8.181015 0.001516
4.264236 8.181015 0.001436
4.578956 8.181015 0.001467
4.893677 8.181015 0.001420
5.208398 8.181015 0.001259
5.523119 8.181015 0.001367
5.837841 8.181015 0.001187
6.152562 8.181015 0.000366
6.467283 8.181015 -0.000577
6.782003 8.181015 -0.000968
7.096724 8.181015 -0.001838
7.411445 8.181015 -0.002542
7.726166 8.181015 -0.005001
8.040888 8.181015 -0.008219
8.355608 8.181015 -0.005152
8.670330 8.181015 0.007414
8.985050 8.181015 0.025487
9.299772 8.181015 0.031099
9.614492 8.181015 0.034293
9.929214 8.181015 0.050798
10.243935 8.181015 0.075255
10.558655 8.181015 0.072421
10.873377 8.181015 0.067762
11.188097 8.181015 0.077121
11.502819 8.181015 0.092770
11.817539 8.181015 0.104753
12.132261 8.181015 0.164453
12.446981 8.181015 0.191495
12.761703 8.181015 0.221036
13.076424 8.181015 0.283591
13.391144 8.181015 0.342061
13.705866 8.181015 0.426926
14.020586 8.181015 0.496802
14.335308 8.181015 0.637409
14.650028 8.181015 0.797132
14.964750 8.181015 1.038611
15.279470 8.181015 1.405222
15.594193 8.181015 0.000000
15.908913 8.181015 0.000000
16.223633 8.181015 0.000000
16.538355 8.181015 0.000000
16.853075 8.181015 0.000000
17.167797 8.181015 0.000000
17.482517 8.181015 0.000000
17.797239 8.181015 0.000000
18.111959 8.181015 0.000000
18.426680 8.181015 0.000000
18.741402 8.181015 0.000000
-7.065720 7.866295 0.000000
-6.750999 7.866295 0.002616
-6.436278 7.866295 0.001405
-6.121557 7.866295 0.001385
-5.806836 7.866295 0.001422
-5.492115 7.866295 0.001514
-5.177394 7.866295 0.001718
-4.862673 7.866295 0.001674
-4.547952 7.866295 0.001602
-4.233231 7.866295 0.001519
-3.918510 7.866295 0.001487
-3.603789 7.866295 0.001429
-3.289068 7.866295 0.001187
-2.974347 7.866295 0.000876
-2.659626 7.866295 0.000779
-2.344905 7.866295 0.000935
-2.030184 7.866295 0.001412
-1.715463 7.866295 0.001610
-1.400742 7.866295 0.001663
-1.086021 7.866295 0.001639
-0.771300 7.866295 0.001545
-0.456579 7.866295 0.001675
-0.141859 7.866295 0.001747
0.172863 7.866295 0.001397
0.487584 7.866295 0.001218
0.802305 7.866295 0.001409
1.117026 7.866295 0.001800
1.431747 7.866295 0.001775
1.746467 7.866295 0.001488
2.061188 7.866295 0.001151
2.375909 7.866295 0.001092
2.690630 7.866295 0.001323
3.005352 7.866295 0.001689
3.320073 7.866295 0.002057
3.634794 7.866295 0.001805
3.949515 7.866295 0.001340
4.264236 7.866295 0.001202
4.578956 7.866295 0.001313
4.893677 7.866295 0.001382
5.208398 7.866295 0.001525
5.523119 7.866295 0.001659
5.837841 7.866295 0.001281
6.152562 7.866295 0.000247
6.467283 7.866295 -0.000240
6.782003 7.866295 -0.000504
7.096724 7.866295 -0.001738
7.411445 7.866295 -0.003353
7.726166 7.866295 -0.006770
8.040888 7.866295 -0.008374
8.355608 7.866295 -0.007601
8.670330 7.866295 0.006304
8.985050 7.866295 0.023897
9.299772 7.866295 0.037977
9.614492 7.866295 0.035912
9.929214 7.866295 0.050980
10.243935 7.866295 0.069441
10.558655 7.866295 0.076135
10.873377 7.866295 0.066362
11.188097 7.866295 0.071105
11.502819 7.866295 0.082369
11.817539 7.866295 0.102068
12.132261 7.866295 0.151952
12.446981 7.866295 0.212202
12.761703 7.866295 0.216147
13.076424 7.866295 0.258228
13.391144 7.866295 0.340009
13.705866 7.866295 0.416526
14.020586 7.866295 0.521212
14.335308 7.866295 0.590391
14.650028 7.866295 0.733227
14.964750 7.866295 0.967768
15.279470 7.866295 1.402275
15.594193 7.866295 0.000000
15.908913 7.866295 0.000000
16.223633 7.866295 0.000000
16.538355 7.866295 0.000000
16.853075 7.866295 0.000000
17.167797 7.866295 0.000000
17.482517 7.866295 0.000000
17.797239 7.866295 0.000000
18.111959 7.866295 0.000000
18.426680 7.866295 0.000000
18.741402 7.866295 0.000000
-7.065720 7.551575 0.000000
-6.750999 7.551575 0.002721
-6.436278 7.551575 0.001275
-6.121557 7.551575 0.001107
-5.806836 7.551575 0.001133
-5.492115 7.551575 0.001301
-5.177394 7.551575 0.001534
-4.862673 7.551575 0.001646
-4.547952 7.551575 0.001726
-4.233231 7.551575 0.001715
-3.918510 7.551575 0.001692
-3.603789 7.551575 0.001537
-3.289068 7.551575 0.001226
-2.974347 7.551575 0.000912
-2.659626 7.551575 0.000861
-2.344905 7.551575 0.001047
-2.030184 7.551575 0.001432
-1.715463 7.551575 0.001632
-1.400742 7.551575 0.001749
-1.086021 7.551575 0.001653
-0.771300 7.551575 0.001575
-0.456579 7.551575 0.001841
-0.141859 7.551575 0.001920
0.172863 7.551575 0.001380
0.487584 7.551575 0.000984
0.802305 7.551575 0.001215
1.117026 7.551575 0.001627
1.431747 7.551575 0.001770
1.746467 7.551575 0.001420
2.061188 7.551575 0.001065
2.375909 7.551575 0.001138
2.690630 7.551575 0.001461
3.005352 7.551575 0.001797
3.320073 7.551575 0.002023
3.634794 7.551575 0.001742
3.949515 7.551575 0.001287
4.264236 7.551575 0.001241
4.578956 7.551575 0.001436
4.893677 7.551575 0.001401
5.208398 7.551575 0.001542
5.523119 7.551575 0.001833
5.837841 7.551575 0.001482
6.152562 7.551575 0.000314
6.467283 7.551575 -0.000968
6.782003 7.551575 -0.000728
7.096724 7.551575 -0.001964
7.411445 7.551575 -0.001252
7.726166 7.551575 -0.005775
8.040888 7.551575 -0.008297
8.355608 7.551575 -0.009624
8.670330 7.551575 0.000865
8.985050 7.551575 0.019943
9.299772 7.551575 0.038623
9.614492 7.551575 0.041493
9.929214 7.551575 0.062070
10.243935 7.551575 0.064353
10.558655 7.551575 0.074091
10.873377 7.551575 0.068853
11.188097 7.551575 0.065016
11.502819 7.551575 0.090469
11.817539 7.551575 0.115415
12.132261 7.551575 0.140372
12.446981 7.551575 0.216184
12.761703 7.551575 0.218723
13.076424 7.551575 0.235086
13.391144 7.551575 0.328862
13.705866 7.551575 0.379346
14.020586 7.551575 0.493771
14.335308 7.551575 0.559237
14.650028 7.551575 0.736402
14.964750 7.551575 0.988386
15.279470 7.551575 1.359512
15.594193 7.551575 0.000000
15.908913 7.551575 0.000000
16.223633 7.551575 0.000000
16.538355 7.551575 0.000000
16.853075 7.551575 0.000000
17.167797 7.551575 0.000000
17.482517 7.551575 0.000000
17.797239 7.551575 0.000000
18.111959 7.551575 0.000000
18.426680 7.551575 0.000000
18.741402 7.551575 0.000000
-7.065720 7.236851 0.031013
-6.750999 7.236851 0.002968
-6.436278 7.236851 0.001412
-6.121557 7.236851 0.001056
-5.806836 7.236851 0.001019
-5.492115 7.236851 0.001067
-5.177394 7.236851 0.001300
-4.862673 7.236851 0.001421
-4.547952 7.236851 0.001727
-4.233231 7.236851 0.001817
-3.918510 7.236851 0.001875
-3.603789 7.236851 0.001755
-3.289068 7.236851 0.001394
-2.974347 7.236851 0.001183
-2.659626 7.236851 0.001214
-2.344905 7.236851 0.001451
-2.030184 7.236851 0.001627
-1.715463 7.236851 0.001743
-1.400742 7.236851 0.001816
-1.086021 7.236851 0.001618
-0.771300 7.236851 0.001521
-0.456579 7.236851 0.001889
-0.141859 7.236851 0.001921
0.172863 7.236851 0.001309
0.487584 7.236851 0.000796
0.802305 7.236851 0.000974
1.117026 7.236851 0.001508
1.431747 7.236851 0.001745
1.746467 7.236851 0.001425
2.061188 7.236851 0.001174
2.375909 7.236851 0.001314
2.690630 7.236851 0.001668
3.005352 7.236851 0.001913
3.320073 7.236851 0.002018
3.634794 7.236851 0.001795
3.949515 7.236851 0.001501
4.264236 7.236851 0.001561
4.578956 7.236851 0.001710
4.893677 7.236851 0.001489
5.208398 7.236851 0.001225
5.523119 7.236851 0.001433
5.837841 7.236851 0.001199
6.152562 7.236851 0.000163
6.467283 7.236851 -0.000210
6.782003 7.236851 -0.000896
7.096724 7.236851 -0.001026
7.411445 7.236851 -0.000180
7.726166 7.236851 -0.004783
8.040888 7.236851 -0.009530
8.355608 7.236851 -0.009390
8.670330 7.236851 0.003076
8.985050 7.236851 0.015900
9.299772 7.236851 0.032883
9.614492 7.236851 0.041256
9.929214 7.236851 0.065782
10.243935 7.236851 0.071832
10.558655 7.236851 0.061579
10.873377 7.236851 0.065660
11.188097 7.236851 0.072331
11.502819 7.236851 0.093146
11.817539 7.236851 0.133144
12.132261 7.236851 0.183730
12.446981 7.236851 0.197693
12.761703 7.236851 0.236943
13.076424 7.236851 0.220847
13.391144 7.236851 0.322732
13.705866 7.236851 0.380576
14.020586 7.236851 0.460272
14.335308 7.236851 0.577348
14.650028 7.236851 0.716538
14.964750 7.236851 0.985112
15.279470 7.236851 1.453668
15.594193 7.236851 0.000000
15.908913 7.236851 0.000000
16.223633 7.236851 0.000000
16.538355 7.236851 0.000000
16.853075 7.236851 0.000000
17.167797 7.236851 0.000000
17.482517 7.236851 0.000000
17.797239 7.236851 0.000000
18.111959 7.236851 0.000000
18.426680 7.236851 0.000000
18.741402 7.236851 0.000000
-7.065720 6.922131 0.024247
-6.750999 6.922131 0.003168
-6.436278 6.922131 0.001631
-6.121557 6.922131 0.001228
-5.806836 6.922131 0.000938
-5.492115 6.922131 0.000840
-5.177394 6.922131 0.001002
-4.862673 6.922131 0.001214
-4.547952 6.922131 0.001638
-4.233231 6.922131 0.001907
-3.918510 6.922131 0.002092
-3.603789 6.922131 0.001946
-3.289068 6.922131 0.001628
-2.974347 6.922131 0.001544
-2.659626 6.922131 0.001764
-2.344905 6.922131 0.001917
-2.030184 6.922131 0.001901
-1.715463 6.922131 0.001837
-1.400742 6.922131 0.001718
-1.086021 6.922131 0.001431
-0.771300 6.922131 0.001493
-0.456579 6.922131 0.001839
-0.141859 6.922131 0.001764
0.172863 6.922131 0.001261
0.487584 6.922131 0.000809
0.802305 6.922131 0.000975
1.117026 6.922131 0.001539
1.431747 6.922131 0.001881
1.746467 6.922131 0.001712
2.061188 6.922131 0.001513
2.375909 6.922131 0.001580
2.690630 6.922131 0.001860
3.005352 6.922131 0.001982
3.320073 6.922131 0.001985
3.634794 6.922131 0.001925
3.949515 6.922131 0.001815
4.264236 6.922131 0.001915
4.578956 6.922131 0.002137
4.893677 6.922131 0.001556
5.208398 6.922131 0.000982
5.523119 6.922131 0.000938
5.837841 6.922131 0.001056
6.152562 6.922131 0.000544
6.467283 6.922131 -0.000301
6.782003 6.922131 -0.001675
7.096724 6.922131 -0.002246
7.411445 6.922131 0.001631
7.726166 6.922131 -0.003026
8.040888 6.922131 -0.008548
8.355608 6.922131 -0.007648
8.670330 6.922131 0.004960
8.985050 6.922131 0.022634
9.299772 6.922131 0.035962
9.614492 6.922131 0.038581
9.929214 6.922131 0.060412
10.243935 6.922131 0.076965
10.558655 6.922131 0.065416
10.873377 6.922131 0.063826
11.188097 6.922131 0.081113
11.502819 6.922131 0.103022
11.817539 6.922131 0.124413
12.132261 6.922131 0.172343
12.446981 6.922131 0.217342
12.761703 6.922131 0.224307
13.076424 6.922131 0.237314
13.391144 6.922131 0.329356
13.705866 6.922131 0.401014
14.020586 6.922131 0.466364
14.335308 6.922131 0.571649
14.650028 6.922131 0.696974
14.964750 6.922131 0.951517
15.279470 6.922131 1.329728
15.594193 6.922131 0.000000
15.908913 6.922131 0.000000
16.223633 6.922131 0.000000
16.538355 6.922131 0.000000
16.853075 6.922131 0.000000
17.167797 6.922131 0.000000
17.482517 6.922131 0.000000
17.797239 6.922131 0.000000
18.111959 6.922131 0.000000
18.426680 6.922131 0.000000
18.741402 6.922131 0.000000
-7.065720 6.607410 0.007479
-6.750999 6.607410 0.003195
-6.436278 6.607410 0.001737
-6.121557 6.607410 0.001438
-5.806836 6.607410 0.001035
-5.492115 6.607410 0.000759
-5.177394 6.607410 0.000844
-4.862673 6.607410 0.001119
-4.547952 6.607410 0.001619
-4.233231 6.607410 0.001988
-3.918510 6.607410 0.002214
-3.603789 6.607410 0.002102
-3.289068 6.607410 0.001753
-2.974347 6.607410 0.001752
-2.659626 6.607410 0.002047
-2.344905 6.607410 0.002182
-2.030184 6.607410 0.002068
-1.715463 6.607410 0.001741
-1.400742 6.607410 0.001470
-1.086021 6.607410 0.001213
-0.771300 6.607410 0.001388
-0.456579 6.607410 0.001771
-0.141859 6.607410 0.001723
0.172863 6.607410 0.001367
0.487584 6.607410 0.001134
0.802305 6.607410 0.001169
1.117026 6.607410 0.001658
1.431747 6.607410 0.002016
1.746467 6.607410 0.002002
2.061188 6.607410 0.001800
2.375909 6.607410 0.001783
2.690630 6.607410 0.001930
3.005352 6.607410 0.001890
3.320073 6.607410 0.001917
3.634794 6.607410 0.002053
3.949515 6.607410 0.002170
4.264236 6.607410 0.002327
4.578956 6.607410 0.002415
4.893677 6.607410 0.001607
5.208398 6.607410 0.000728
5.523119 6.607410 0.000608
5.837841 6.607410 0.000829
6.152562 6.607410 0.000560
6.467283 6.607410 -0.000383
6.782003 6.607410 -0.001528
7.096724 6.607410 -0.002147
7.411445 6.607410 0.000514
7.726166 6.607410 -0.006940
8.040888 6.607410 -0.009137
8.355608 6.607410 -0.010516
8.670330 6.607410 0.001877
8.985050 6.607410 0.022309
9.299772 6.607410 0.043298
9.614492 6.607410 0.043736
9.929214 6.607410 0.056917
10.243935 6.607410 0.069694
10.558655 6.607410 0.056292
10.873377 6.607410 0.066150
11.188097 6.607410 0.088289
11.502819 6.607410 0.115318
11.817539 6.607410 0.134576
12.132261 6.607410 0.184579
12.446981 6.607410 0.234911
12.761703 6.607410 0.243628
13.076424 6.607410 0.280365
13.391144 6.607410 0.382180
13.705866 6.607410 0.456658
14.020586 6.607410 0.473286
14.335308 6.607410 0.625054
14.650028 6.607410 0.735561
14.964750 6.607410 0.994427
15.279470 6.607410 1.194613
15.594193 6.607410 0.000000
15.908913 6.607410 0.000000
16.223633 6.607410 0.000000
16.538355 6.607410 0.000000
16.853075 6.607410 0.000000
17.167797 6.607410 0.000000
17.482517 6.607410 0.000000
17.797239 6.607410 0.000000
18.111959 6.607410 0.000000
18.426680 6.607410 0.000000
18.741402 6.607410 0.000000
-7.065720 6.292690 0.003594
-6.750999 6.292690 0.003037
-6.436278 6.292690 0.001782
-6.121557 6.292690 0.001651
-5.806836 6.292690 0.001276
-5.492115 6.292690 0.000931
-5.177394 6.292690 0.001027
-4.862673 6.292690 0.001262
-4.547952 6.292690 0.001653
-4.233231 6.292690 0.001947
-3.918510 6.292690 0.002102
-3.603789 6.292690 0.002012
-3.289068 6.292690 0.001771
-2.974347 6.292690 0.001805
-2.659626 6.292690 0.002034
-2.344905 6.292690 0.002195
-2.030184 6.292690 0.002078
-1.715463 6.292690 0.001625
-1.400742 6.292690 0.001312
-1.086021 6.292690 0.001186
-0.771300 6.292690 0.001455
-0.456579 6.292690 0.001788
-0.141859 6.292690 0.001788
0.172863 6.292690 0.001595
0.487584 6.292690 0.001454
0.802305 6.292690 0.001385
1.117026 6.292690 0.001783
1.431747 6.292690 0.002048
1.746467 6.292690 0.002191
2.061188 6.292690 0.001969
2.375909 6.292690 0.001928
2.690630 6.292690 0.001973
3.005352 6.292690 0.001824
3.320073 6.292690 0.001889
3.634794 6.292690 0.002196
3.949515 6.292690 0.002502
4.264236 6.292690 0.002587
4.578956 6.292690 0.002532
4.893677 6.292690 0.001605
5.208398 6.292690 0.000619
5.523119 6.292690 0.000519
5.837841 6.292690 0.000982
6.152562 6.292690 0.000524
6.467283 6.292690 0.000359
6.782003 6.292690 -0.001359
7.096724 6.292690 -0.001754
7.411445 6.292690 -0.003229
7.726166 6.292690 -0.007567
8.040888 6.292690 -0.011957
8.355608 6.292690 -0.008575
8.670330 6.292690 0.005316
8.985050 6.292690 0.034676
9.299772 6.292690 0.047094
9.614492 6.292690 0.037823
9.929214 6.292690 0.047346
10.243935 6.292690 0.061995
10.558655 6.292690 0.058499
10.873377 6.292690 0.063122
11.188097 6.292690 0.087070
11.502819 6.292690 0.115593
11.817539 6.292690 0.158247
12.132261 6.292690 0.207253
12.446981 6.292690 0.263040
12.761703 6.292690 0.271464
13.076424 6.292690 0.318458
13.391144 6.292690 0.415730
13.705866 6.292690 0.521199
14.020586 6.292690 0.552250
14.335308 6.292690 0.665450
14.650028 6.292690 0.835242
14.964750 6.292690 0.949517
15.279470 6.292690 1.173790
15.594193 6.292690 0.000000
15.908913 6.292690 0.000000
16.223633 6.292690 0.000000
16.538355 6.292690 0.000000
16.853075 6.292690 0.000000
17.167797 6.292690 0.000000
17.482517 6.292690 0.000000
17.797239 6.292690 0.000000
18.111959 6.292690 0.000000
18.426680 6.292690 0.000000
18.741402 6.292690 0.000000
-7.065720 5.977966 0.005339
-6.750999 5.977966 0.002845
-6.436278 5.977966 0.001797
-6.121557 5.977966 0.001878
-5.806836 5.977966 0.001651
-5.492115 5.977966 0.001335
-5.177394 5.977966 0.001378
-4.862673 5.977966 0.001506
-4.547952 5.977966 0.001684
-4.233231 5.977966 0.001753
-3.918510 5.977966 0.001872
-3.603789 5.977966 0.001835
-3.289068 5.977966 0.001778
-2.974347 5.977966 0.001853
-2.659626 5.977966 0.002018
-2.344905 5.977966 0.002246
-2.030184 5.977966 0.002161
-1.715463 5.977966 0.001648
-1.400742 5.977966 0.001288
-1.086021 5.977966 0.001326
-0.771300 5.977966 0.001572
-0.456579 5.977966 0.001817
-0.141859 5.977966 0.001799
0.172863 5.977966 0.001741
0.487584 5.977966 0.001633
0.802305 5.977966 0.001514
1.117026 5.977966 0.001878
1.431747 5.977966 0.002171
1.746467 5.977966 0.002296
2.061188 5.977966 0.002243
2.375909 5.977966 0.002126
2.690630 5.977966 0.001973
3.005352 5.977966 0.001738
3.320073 5.977966 0.001675
3.634794 5.977966 0.002109
3.949515 5.977966 0.002441
4.264236 5.977966 0.002439
4.578956 5.977966 0.002297
4.893677 5.977966 0.001471
5.208398 5.977966 0.000665
5.523119 5.977966 0.000777
5.837841 5.977966 0.001188
6.152562 5.977966 0.001033
6.467283 5.977966 0.000393
6.782003 5.977966 -0.001161
7.096724 5.977966 -0.003533
7.411445 5.977966 -0.004310
7.726166 5.977966 -0.011051
8.040888 5.977966 -0.014502
8.355608 5.977966 -0.011463
8.670330 5.977966 0.003421
8.985050 5.977966 0.026315
9.299772 5.977966 0.040122
9.614492 5.977966 0.042051
9.929214 5.977966 0.045911
10.243935 5.977966 0.065145
10.558655 5.977966 0.057312
10.873377 5.977966 0.060207
11.188097 5.977966 0.092449
11.502819 5.977966 0.112543
11.817539 5.977966 0.169065
12.132261 5.977966 0.189763
12.446981 5.977966 0.230887
12.761703 5.977966 0.268767
13.076424 5.977966 0.334950
13.391144 5.977966 0.409304
13.705866 5.977966 0.473957
14.020586 5.977966 0.611303
14.335308 5.977966 0.697474
14.650028 5.977966 0.925230
14.964750 5.977966 1.083923
15.279470 5.977966 1.335871
15.594193 5.977966 0.000000
15.908913 5.977966 0.000000
16.223633 5.977966 0.000000
16.538355 5.977966 0.000000
16.853075 5.977966 0.000000
17.167797 5.977966 0.000000
17.482517 5.977966 0.000000
17.797239 5.977966 0.000000
18.111959 5.977966 0.000000
18.426680 5.977966 0.000000
18.741402 5.977966 0.000000
-7.065720 5.663246 0.004552
-6.750999 5.663246 0.002757
-6.436278 5.663246 0.001834
-6.121557 5.663246 0.002091
-5.806836 5.663246 0.001949
-5.492115 5.663246 0.001643
-5.177394 5.663246 0.001602
-4.862673 5.663246 0.001618
-4.547952 5.663246 0.001610
-4.233231 5.663246 0.001556
-3.918510 5.663246 0.001729
-3.603789 5.663246 0.001825
-3.289068 5.663246 0.001842
-2.974347 5.663246 0.001951
-2.659626 5.663246 0.002027
-2.344905 5.663246 0.002270
-2.030184 5.663246 0.002231
-1.715463 5.663246 0.001713
-1.400742 5.663246 0.001386
-1.086021 5.663246 0.001516
-0.771300 5.663246 0.001640
-0.456579 5.663246 0.001757
-0.141859 5.663246 0.001785
0.172863 5.663246 0.001873
0.487584 5.663246 0.001848
0.802305 5.663246 0.001768
1.117026 5.663246 0.002073
1.431747 5.663246 0.002274
1.746467 5.663246 0.002380
2.061188 5.663246 0.002389
2.375909 5.663246 0.002123
2.690630 5.663246 0.001782
3.005352 5.663246 0.001431
3.320073 5.663246 0.001288
3.634794 5.663246 0.001875
3.949515 5.663246 0.002196
4.264236 5.663246 0.002128
4.578956 5.663246 0.002104
4.893677 5.663246 0.001544
5.208398 5.663246 0.000901
5.523119 5.663246 0.000824
5.837841 5.663246 0.001351
6.152562 5.663246 0.001132
6.467283 5.663246 -0.000181
6.782003 5.663246 -0.001236
7.096724 5.663246 -0.003143
7.411445 5.663246 -0.004897
7.726166 5.663246 -0.008752
8.040888 5.663246 -0.011553
8.355608 5.663246 -0.009287
8.670330 5.663246 0.005444
8.985050 5.663246 0.031883
9.299772 5.663246 0.044543
9.614492 5.663246 0.046471
9.929214 5.663246 0.047377
10.243935 5.663246 0.056464
10.558655 5.663246 0.056972
10.873377 5.663246 0.068795
11.188097 5.663246 0.084642
11.502819 5.663246 0.105760
11.817539 5.663246 0.146316
12.132261 5.663246 0.202080
12.446981 5.663246 0.219432
12.761703 5.663246 0.277995
13.076424 5.663246 0.331812
13.391144 5.663246 0.409432
13.705866 5.663246 0.475141
14.020586 5.663246 0.582001
14.335308 5.663246 0.700198
14.650028 5.663246 0.884728
14.964750 5.663246 1.144067
15.279470 5.663246 1.502679
15.594193 5.663246 0.000000
15.908913 5.663246 0.000000
16.223633 5.663246 0.000000
16.538355 5.663246 0.000000
16.853075 5.663246 0.000000
17.167797 5.663246 0.000000
17.482517 5.663246 0.000000
17.797239 5.663246 0.000000
18.111959 5.663246 0.000000
18.426680 5.663246 0.000000
18.741402 5.663246 0.000000
-7.065720 5.348526 0.004562
-6.750999 5.348526 0.002414
-6.436278 5.348526 0.001715
-6.121557 5.348526 0.002124
-5.806836 5.348526 0.002076
-5.492115 5.348526 0.001849
-5.177394 5.348526 0.001825
-4.862673 5.348526 0.001732
-4.547952 5.348526 0.001621
-4.233231 5.348526 0.001575
-3.918510 5.348526 0.001768
-3.603789 5.348526 0.001941
-3.289068 5.348526 0.001926
-2.974347 5.348526 0.001968
-2.659626 5.348526 0.001946
-2.344905 5.348526 0.002196
-2.030184 5.348526 0.002137
-1.715463 5.348526 0.001718
-1.400742 5.348526 0.001555
-1.086021 5.348526 0.001725
-0.771300 5.348526 0.001799
-0.456579 5.348526 0.001845
-0.141859 5.348526 0.001941
0.172863 5.348526 0.002067
0.487584 5.348526 0.002093
0.802305 5.348526 0.002010
1.117026 5.348526 0.002203
1.431747 5.348526 0.002252
1.746467 5.348526 0.002185
2.061188 5.348526 0.002204
2.375909 5.348526 0.001924
2.690630 5.348526 0.001629
3.005352 5.348526 0.001364
3.320073 5.348526 0.001314
3.634794 5.348526 0.001837
3.949515 5.348526 0.002004
4.264236 5.348526 0.001874
4.578956 5.348526 0.001997
4.893677 5.348526 0.001666
5.208398 5.348526 0.001024
5.523119 5.348526 0.001063
5.837841 5.348526 0.001678
6.152562 5.348526 0.001051
6.467283 5.348526 -0.000410
6.782003 5.348526 -0.002592
7.096724 5.348526 -0.004248
7.411445 5.348526 -0.004005
7.726166 5.348526 -0.008326
8.040888 5.348526 -0.010989
8.355608 5.348526 -0.002363
8.670330 5.348526 0.008550
8.985050 5.348526 0.021495
9.299772 5.348526 0.038833
9.614492 5.348526 0.053245
9.929214 5.348526 0.054125
10.243935 5.348526 0.058857
10.558655 5.348526 0.054696
10.873377 5.348526 0.058465
11.188097 5.348526 0.080994
11.502819 5.348526 0.103973
11.817539 5.348526 0.152528
12.132261 5.348526 0.191337
12.446981 5.348526 0.249463
12.761703 5.348526 0.246083
13.076424 5.348526 0.311383
13.391144 5.348526 0.415922
13.705866 5.348526 0.515196
14.020586 5.348526 0.607471
14.335308 5.348526 0.700855
14.650028 5.348526 0.982267
14.964750 5.348526 1.222970
15.279470 5.348526 1.556420
15.594193 5.348526 0.000000
15.908913 5.348526 0.000000
16.223633 5.348526 0.000000
16.538355 5.348526 0.000000
16.853075 5.348526 0.000000
17.167797 5.348526 0.000000
17.482517 5.348526 0.000000
17.797239 5.348526 0.000000
18.111959 5.348526 0.000000
18.426680 5.348526 0.000000
18.741402 5.348526 0.000000
-7.065720 5.033806 0.003633
-6.750999 5.033806 0.001980
-6.436278 5.033806 0.001651
-6.121557 5.033806 0.002232
-5.806836 5.033806 0.002326
-5.492115 5.033806 0.002155
-5.177394 5.033806 0.002092
-4.862673 5.033806 0.001905
-4.547952 5.033806 0.001572
-4.233231 5.033806 0.001511
-3.918510 5.033806 0.001746
-3.603789 5.033806 0.001926
-3.289068 5.033806 0.001813
-2.974347 5.033806 0.001848
-2.659626 5.033806 0.001836
-2.344905 5.033806 0.002051
-2.030184 5.033806 0.002010
-1.715463 5.033806 0.001765
-1.400742 5.033806 0.001810
-1.086021 5.033806 0.001951
-0.771300 5.033806 0.001960
-0.456579 5.033806 0.001933
-0.141859 5.033806 0.002015
0.172863 5.033806 0.002091
0.487584 5.033806 0.002129
0.802305 5.033806 0.002087
1.117026 5.033806 0.002119
1.431747 5.033806 0.002066
1.746467 5.033806 0.002040
2.061188 5.033806 0.001968
2.375909 5.033806 0.001856
2.690630 5.033806 0.001790
3.005352 5.033806 0.001709
3.320073 5.033806 0.001689
3.634794 5.033806 0.001965
3.949515 5.033806 0.001913
4.264236 5.033806 0.001665
4.578956 5.033806 0.001833
4.893677 5.033806 0.001637
5.208398 5.033806 0.001150
5.523119 5.033806 0.001263
5.837841 5.033806 0.001983
6.152562 5.033806 0.001239
6.467283 5.033806 -0.000478
6.782003 5.033806 -0.003010
7.096724 5.033806 -0.004377
7.411445 5.033806 -0.004544
7.726166 5.033806 -0.008948
8.040888 5.033806 -0.006144
8.355608 5.033806 -0.004549
8.670330 5.033806 0.011433
8.985050 5.033806 0.021471
9.299772 5.033806 0.043003
9.614492 5.033806 0.054327
9.929214 5.033806 0.047961
10.243935 5.033806 0.049827
10.558655 5.033806 0.042835
10.873377 5.033806 0.049016
11.188097 5.033806 0.051000
11.502819 5.033806 0.087667
11.817539 5.033806 0.156506
12.132261 5.033806 0.249695
12.446981 5.033806 0.248207
12.761703 5.033806 0.254202
13.076424 5.033806 0.347976
13.391144 5.033806 0.414869
13.705866 5.033806 0.549235
14.020586 5.033806 0.652746
14.335308 5.033806 0.724571
14.650028 5.033806 0.960590
14.964750 5.033806 1.381961
15.279470 5.033806 1.739880
15.594193 5.033806 0.000000
15.908913 5.033806 0.000000
16.223633 5.033806 0.000000
16.538355 5.033806 0.000000
16.853075 5.033806 0.000000
17.167797 5.033806 0.000000
17.482517 5.033806 0.000000
17.797239 5.033806 0.000000
18.111959 5.033806 0.000000
18.426680 5.033806 0.000000
18.741402 5.033806 0.000000
-7.065720 4.719086 0.003613
-6.750999 4.719086 0.001987
-6.436278 4.719086 0.001853
-6.121557 4.719086 0.002344
-5.806836 4.719086 0.002480
-5.492115 4.719086 0.002351
-5.177394 4.719086 0.002237
-4.862673 4.719086 0.001928
-4.547952 4.719086 0.001397
-4.233231 4.719086 0.001370
-3.918510 4.719086 0.001654
-3.603789 4.719086 0.001867
-3.289068 4.719086 0.001717
-2.974347 4.719086 0.001803
-2.659626 4.719086 0.001907
-2.344905 4.719086 0.002100
-2.030184 4.719086 0.002026
-1.715463 4.719086 0.001858
-1.400742 4.719086 0.001979
-1.086021 4.719086 0.002019
-0.771300 4.719086 0.001957
-0.456579 4.719086 0.001907
-0.141859 4.719086 0.001926
0.172863 4.719086 0.002012
0.487584 4.719086 0.002101
0.802305 4.719086 0.002036
1.117026 4.719086 0.002003
1.431747 4.719086 0.002065
1.746467 4.719086 0.002078
2.061188 4.719086 0.001810
2.375909 4.719086 0.001721
2.690630 4.719086 0.001857
3.005352 4.719086 0.002047
3.320073 4.719086 0.001972
3.634794 4.719086 0.002023
3.949515 4.719086 0.001895
4.264236 4.719086 0.001685
4.578956 4.719086 0.001823
4.893677 4.719086 0.001720
5.208398 4.719086 0.001367
5.523119 4.719086 0.001478
5.837841 4.719086 0.001966
6.152562 4.719086 0.000638
6.467283 4.719086 -0.000756
6.782003 4.719086 -0.002926
7.096724 4.719086 -0.004988
7.411445 4.719086 -0.006933
7.726166 4.719086 -0.009352
8.040888 4.719086 -0.007225
8.355608 4.719086 -0.006641
8.670330 4.719086 0.010000
8.985050 4.719086 0.023299
9.299772 4.719086 0.037812
9.614492 4.719086 0.050912
9.929214 4.719086 0.060699
10.243935 4.719086 0.059414
10.558655 4.719086 0.032993
10.873377 4.719086 0.042308
11.188097 4.719086 0.060561
11.502819 4.719086 0.105315
11.817539 4.719086 0.185073
12.132261 4.719086 0.225913
12.446981 4.719086 0.265527
12.761703 4.719086 0.270894
13.076424 4.719086 0.382562
13.391144 4.719086 0.459856
13.705866 4.719086 0.558132
14.020586 4.719086 0.634655
14.335308 4.719086 0.779093
14.650028 4.719086 1.020221
14.964750 4.719086 1.515558
15.279470 4.719086 1.885417
15.594193 4.719086 0.000000
15.908913 4.719086 0.000000
16.223633 4.719086 0.000000
16.538355 4.719086 0.000000
16.853075 4.719086 0.000000
17.167797 4.719086 0.000000
17.482517 4.719086 0.000000
17.797239 4.719086 0.000000
18.111959 4.719086 0.000000
18.426680 4.719086 0.000000
18.741402 4.719086 0.000000
-7.065720 4.404362 0.003915
-6.750999 4.404362 0.002080
-6.436278 4.404362 0.001726
-6.121557 4.404362 0.002080
-5.806836 4.404362 0.002246
-5.492115 4.404362 0.002264
-5.177394 4.404362 0.002197
-4.862673 4.404362 0.001826
-4.547952 4.404362 0.001369
-4.233231 4.404362 0.001394
-3.918510 4.404362 0.001735
-3.603789 4.404362 0.001888
-3.289068 4.404362 0.001762
-2.974347 4.404362 0.001837
-2.659626 4.404362 0.002054
-2.344905 4.404362 0.002173
-2.030184 4.404362 0.002062
-1.715463 4.404362 0.001861
-1.400742 4.404362 0.001899
-1.086021 4.404362 0.001856
-0.771300 4.404362 0.001816
-0.456579 4.404362 0.001900
-0.141859 4.404362 0.001897
0.172863 4.404362 0.001968
0.487584 4.404362 0.002070
0.802305 4.404362 0.001954
1.117026 4.404362 0.001856
1.431747 4.404362 0.002068
1.746467 4.404362 0.002043
2.061188 4.404362 0.001698
2.375909 4.404362 0.001618
2.690630 4.404362 0.001911
3.005352 4.404362 0.002257
3.320073 4.404362 0.002208
3.634794 4.404362 0.002168
3.949515 4.404362 0.002120
4.264236 4.404362 0.001939
4.578956 4.404362 0.001954
4.893677 4.404362 0.001751
5.208398 4.404362 0.001413
5.523119 4.404362 0.001512
5.837841 4.404362 0.001844
6.152562 4.404362 0.000647
6.467283 4.404362 -0.000841
6.782003 4.404362 -0.003087
7.096724 4.404362 -0.005306
7.411445 4.404362 -0.009046
7.726166 4.404362 -0.009612
8.040888 4.404362 -0.006421
8.355608 4.404362 -0.000568
8.670330 4.404362 0.016114
8.985050 4.404362 0.031789
9.299772 4.404362 0.038466
9.614492 4.404362 0.054920
9.929214 4.404362 0.048938
10.243935 4.404362 0.053107
10.558655 4.404362 0.050626
10.873377 4.404362 0.063326
11.188097 4.404362 0.066219
11.502819 4.404362 0.100448
11.817539 4.404362 0.182413
12.132261 4.404362 0.260448
12.446981 4.404362 0.298739
12.761703 4.404362 0.316378
13.076424 4.404362 0.406655
13.391144 4.404362 0.489951
13.705866 4.404362 0.572051
14.020586 4.404362 0.645555
14.335308 4.404362 0.788044
14.650028 4.404362 1.095938
14.964750 4.404362 1.470596
15.279470 4.404362 2.088840
15.594193 4.404362 0.000000
15.908913 4.404362 0.000000
16.223633 4.404362 0.000000
16.538355 4.404362 0.000000
16.853075 4.404362 0.000000
17.167797 4.404362 0.000000
17.482517 4.404362 0.000000
17.797239 4.404362 0.000000
18.111959 4.404362 0.000000
18.426680 4.404362 0.000000
18.741402 4.404362 0.000000
-7.065720 4.089642 0.004255
-6.750999 4.089642 0.002164
-6.436278 4.089642 0.001626
-6.121557 4.089642 0.001839
-5.806836 4.089642 0.002108
-5.492115 4.089642 0.002318
-5.177394 4.089642 0.002356
-4.862673 4.089642 0.002068
-4.547952 4.089642 0.001629
-4.233231 4.089642 0.001607
-3.918510 4.089642 0.001875
-3.603789 4.089642 0.001915
-3.289068 4.089642 0.001749
-2.974347 4.089642 0.001791
-2.659626 4.089642 0.002039
-2.344905 4.089642 0.002126
-2.030184 4.089642 0.002092
-1.715463 4.089642 0.001890
-1.400742 4.089642 0.001907
-1.086021 4.089642 0.001780
-0.771300 4.089642 0.001806
-0.456579 4.089642 0.001942
-0.141859 4.089642 0.001872
0.172863 4.089642 0.001840
0.487584 4.089642 0.001948
0.802305 4.089642 0.001808
1.117026 4.089642 0.001774
1.431747 4.089642 0.002054
1.746467 4.089642 0.002150
2.061188 4.089642 0.001879
2.375909 4.089642 0.001769
2.690630 4.089642 0.002123
3.005352 4.089642 0.002503
3.320073 4.089642 0.002398
3.634794 4.089642 0.002171
3.949515 4.089642 0.002157
4.264236 4.089642 0.001982
4.578956 4.089642 0.001889
4.893677 4.089642 0.001647
5.208398 4.089642 0.001386
5.523119 4.089642 0.001305
5.837841 4.089642 0.001540
6.152562 4.089642 0.000951
6.467283 4.089642 -0.000684
6.782003 4.089642 -0.001375
7.096724 4.089642 -0.003720
7.411445 4.089642 -0.011158
7.726166 4.089642 -0.013171
8.040888 4.089642 -0.007168
8.355608 4.089642 -0.000841
8.670330 4.089642 0.014346
8.985050 4.089642 0.035606
9.299772 4.089642 0.041469
9.614492 4.089642 0.044279
9.929214 4.089642 0.046807
10.243935 4.089642 0.062191
10.558655 4.089642 0.075814
10.873377 4.089642 0.067883
11.188097 4.089642 0.074666
11.502819 4.089642 0.116514
11.817539 4.089642 0.199754
12.132261 4.089642 0.260205
12.446981 4.089642 0.282199
12.761703 4.089642 0.339801
13.076424 4.089642 0.418532
13.391144 4.089642 0.481242
13.705866 4.089642 0.568756
14.020586 4.089642 0.729912
14.335308 4.089642 0.838010
14.650028 4.089642 1.086545
14.964750 4.089642 1.496229
15.279470 4.089642 2.130138
15.594193 4.089642 0.000000
15.908913 4.089642 0.000000
16.223633 4.089642 0.000000
16.538355 4.089642 0.000000
16.853075 4.089642 0.000000
17.167797 4.089642 0.000000
17.482517 4.089642 0.000000
17.797239 4.089642 0.000000
18.111959 4.089642 0.000000
18.426680 4.089642 0.000000
18.741402 4.089642 0.000000
-7.065720 3.774921 0.004937
-6.750999 3.774921 0.002658
-6.436278 3.774921 0.001875
-6.121557 3.774921 0.001982
-5.806836 3.774921 0.002179
-5.492115 3.774921 0.002383
-5.177394 3.774921 0.002499
-4.862673 3.774921 0.002307
-4.547952 3.774921 0.001812
-4.233231 3.774921 0.001652
-3.918510 3.774921 0.001854
-3.603789 3.774921 0.001874
-3.289068 3.774921 0.001694
-2.974347 3.774921 0.001804
-2.659626 3.774921 0.002142
-2.344905 3.774921 0.002194
-2.030184 3.774921 0.002170
-1.715463 3.774921 0.002032
-1.400742 3.774921 0.001981
-1.086021 3.774921 0.001745
-0.771300 3.774921 0.001825
-0.456579 3.774921 0.001981
-0.141859 3.774921 0.001837
0.172863 3.774921 0.001683
0.487584 3.774921 0.001802
0.802305 3.774921 0.001773
1.117026 3.774921 0.001916
1.431747 3.774921 0.002218
1.746467 3.774921 0.002315
2.061188 3.774921 0.002185
2.375909 3.774921 0.001980
2.690630 3.774921 0.002179
3.005352 3.774921 0.002460
3.320073 3.774921 0.002226
3.634794 3.774921 0.001876
3.949515 3.774921 0.001949
4.264236 3.774921 0.001898
4.578956 3.774921 0.001855
4.893677 3.774921 0.001953
5.208398 3.774921 0.001607
5.523119 3.774921 0.001191
5.837841 3.774921 0.000896
6.152562 3.774921 0.000039
6.467283 3.774921 -0.000727
6.782003 3.774921 -0.001562
7.096724 3.774921 -0.003793
7.411445 3.774921 -0.010866
7.726166 3.774921 -0.012927
8.040888 3.774921 -0.004801
8.355608 3.774921 -0.001336
8.670330 3.774921 0.009357
8.985050 3.774921 0.035271
9.299772 3.774921 0.043885
9.614492 3.774921 0.042124
9.929214 3.774921 0.043882
10.243935 3.774921 0.056475
10.558655 3.774921 0.085688
10.873377 3.774921 0.090057
11.188097 3.774921 0.102896
11.502819 3.774921 0.129316
11.817539 3.774921 0.182778
12.132261 3.774921 0.230080
12.446981 3.774921 0.268147
12.761703 3.774921 0.326854
13.076424 3.774921 0.395481
13.391144 3.774921 0.477994
13.705866 3.774921 0.566740
14.020586 3.774921 0.706731
14.335308 3.774921 0.857650
14.650028 3.774921 1.068029
14.964750 3.774921 1.617678
15.279470 3.774921 1.892894
15.594193 3.774921 0.000000
15.908913 3.774921 0.000000
16.223633 3.774921 0.000000
16.538355 3.774921 0.000000
16.853075 3.774921 0.000000
17.167797 3.774921 0.000000
17.482517 3.774921 0.000000
17.797239 3.774921 0.000000
18.111959 3.774921 0.000000
18.426680 3.774921 0.000000
18.741402 3.774921 0.000000
-7.065720 3.460201 0.005330
-6.750999 3.460201 0.002988
-6.436278 3.460201 0.002022
-6.121557 3.460201 0.001886
-5.806836 3.460201 0.001924
-5.492115 3.460201 0.002047
-5.177394 3.460201 0.002271
-4.862673 3.460201 0.002255
-4.547952 3.460201 0.001901
-4.233231 3.460201 0.001741
-3.918510 3.460201 0.001980
-3.603789 3.460201 0.002086
-3.289068 3.460201 0.001915
-2.974347 3.460201 0.002041
-2.659626 3.460201 0.002386
-2.344905 3.460201 0.002331
-2.030184 3.460201 0.002195
-1.715463 3.460201 0.002044
-1.400742 3.460201 0.001917
-1.086021 3.460201 0.001775
-0.771300 3.460201 0.001966
-0.456579 3.460201 0.002208
-0.141859 3.460201 0.002000
0.172863 3.460201 0.001711
0.487584 3.460201 0.001819
0.802305 3.460201 0.001922
1.117026 3.460201 0.002183
1.431747 3.460201 0.002405
1.746467 3.460201 0.002285
2.061188 3.460201 0.002214
2.375909 3.460201 0.002093
2.690630 3.460201 0.002164
3.005352 3.460201 0.002508
3.320073 3.460201 0.002246
3.634794 3.460201 0.002031
3.949515 3.460201 0.002067
4.264236 3.460201 0.001965
4.578956 3.460201 0.001840
4.893677 3.460201 0.002146
5.208398 3.460201 0.001739
5.523119 3.460201 0.000795
5.837841 3.460201 0.000213
6.152562 3.460201 -0.000658
6.467283 3.460201 -0.001840
6.782003 3.460201 -0.002648
7.096724 3.460201 -0.005076
7.411445 3.460201 -0.009253
7.726166 3.460201 -0.013990
8.040888 3.460201 -0.007058
8.355608 3.460201 -0.000573
8.670330 3.460201 0.011764
8.985050 3.460201 0.035627
9.299772 3.460201 0.037887
9.614492 3.460201 0.034489
9.929214 3.460201 0.041456
10.243935 3.460201 0.054962
10.558655 3.460201 0.071988
10.873377 3.460201 0.103377
11.188097 3.460201 0.115054
11.502819 3.460201 0.151876
11.817539 3.460201 0.181516
12.132261 3.460201 0.224934
12.446981 3.460201 0.279450
12.761703 3.460201 0.311707
13.076424 3.460201 0.384163
13.391144 3.460201 0.445443
13.705866 3.460201 0.543571
14.020586 3.460201 0.745018
14.335308 3.460201 0.837368
14.650028 3.460201 1.127359
14.964750 3.460201 1.595937
15.279470 3.460201 1.982827
15.594193 3.460201 0.000000
15.908913 3.460201 0.000000
16.223633 3.460201 0.000000
16.538355 3.460201 0.000000
16.853075 3.460201 0.000000
17.167797 3.460201 0.000000
17.482517 3.460201 0.000000
17.797239 3.460201 0.000000
18.111959 3.460201 0.000000
18.426680 3.460201 0.000000
18.741402 3.460201 0.000000
-7.065720 3.145477 0.005365
-6.750999 3.145477 0.002937
-6.436278 3.145477 0.001947
-6.121557 3.145477 0.001734
-5.806836 3.145477 0.001687
-5.492115 3.145477 0.001788
-5.177394 3.145477 0.002134
-4.862673 3.145477 0.002371
-4.547952 3.145477 0.002223
-4.233231 3.145477 0.002029
-3.918510 3.145477 0.002262
-3.603789 3.145477 0.002316
-3.289068 3.145477 0.002156
-2.974347 3.145477 0.002246
-2.659626 3.145477 0.002479
-2.344905 3.145477 0.002363
-2.030184 3.145477 0.002221
-1.715463 3.145477 0.002116
-1.400742 3.145477 0.001997
-1.086021 3.145477 0.001952
-0.771300 3.145477 0.002410
-0.456579 3.145477 0.002555
-0.141859 3.145477 0.002204
0.172863 3.145477 0.001756
0.487584 3.145477 0.001807
0.802305 3.145477 0.001989
1.117026 3.145477 0.002311
1.431747 3.145477 0.002442
1.746467 3.145477 0.002214
2.061188 3.145477 0.002200
2.375909 3.145477 0.002280
2.690630 3.145477 0.002501
3.005352 3.145477 0.002783
3.320073 3.145477 0.002600
3.634794 3.145477 0.002316
3.949515 3.145477 0.002171
4.264236 3.145477 0.001883
4.578956 3.145477 0.001723
4.893677 3.145477 0.001964
5.208398 3.145477 0.001542
5.523119 3.145477 0.000399
5.837841 3.145477 -0.000522
6.152562 3.145477 -0.001137
6.467283 3.145477 -0.002564
6.782003 3.145477 -0.003778
7.096724 3.145477 -0.006672
7.411445 3.145477 -0.010384
7.726166 3.145477 -0.007125
8.040888 3.145477 -0.007860
8.355608 3.145477 -0.001007
8.670330 3.145477 0.016770
8.985050 3.145477 0.030692
9.299772 3.145477 0.036026
9.614492 3.145477 0.039503
9.929214 3.145477 0.044238
10.243935 3.145477 0.062012
10.558655 3.145477 0.064074
10.873377 3.145477 0.106647
11.188097 3.145477 0.134119
11.502819 3.145477 0.143417
11.817539 3.145477 0.178527
12.132261 3.145477 0.254030
12.446981 3.145477 0.299809
12.761703 3.145477 0.354394
13.076424 3.145477 0.380384
13.391144 3.145477 0.433400
13.705866 3.145477 0.542091
14.020586 3.145477 0.687355
14.335308 3.145477 0.847655
14.650028 3.145477 1.106697
14.964750 3.145477 1.545160
15.279470 3.145477 1.816286
15.594193 3.145477 0.000000
15.908913 3.145477 0.000000
16.223633 3.145477 0.000000
16.538355 3.145477 0.000000
16.853075 3.145477 0.000000
17.167797 3.145477 0.000000
17.482517 3.145477 0.000000
17.797239 3.145477 0.000000
18.111959 3.145477 0.000000
18.426680 3.145477 0.000000
18.741402 3.145477 0.000000
-7.065720 2.830757 0.005545
-6.750999 2.830757 0.003142
-6.436278 2.830757 0.002124
-6.121557 2.830757 0.001936
-5.806836 2.830757 0.001846
-5.492115 2.830757 0.001850
-5.177394 2.830757 0.002156
-4.862673 2.830757 0.002499
-4.547952 2.830757 0.002519
-4.233231 2.830757 0.002333
-3.918510 2.830757 0.002323
-3.603789 2.830757 0.002247
-3.289068 2.830757 0.002178
-2.974347 2.830757 0.002377
-2.659626 2.830757 0.002517
-2.344905 2.830757 0.002321
-2.030184 2.830757 0.002164
-1.715463 2.830757 0.002139
-1.400742 2.830757 0.002070
-1.086021 2.830757 0.002160
-0.771300 2.830757 0.002604
-0.456579 2.830757 0.002772
-0.141859 2.830757 0.002351
0.172863 2.830757 0.001819
0.487584 2.830757 0.001941
0.802305 2.830757 0.002264
1.117026 2.830757 0.002640
1.431747 2.830757 0.002668
1.746467 2.830757 0.002303
2.061188 2.830757 0.002274
2.375909 2.830757 0.002533
2.690630 2.830757 0.002764
3.005352 2.830757 0.002864
3.320073 2.830757 0.002587
3.634794 2.830757 0.002206
3.949515 2.830757 0.001937
4.264236 2.830757 0.001742
4.578956 2.830757 0.001699
4.893677 2.830757 0.001927
5.208398 2.830757 0.001553
5.523119 2.830757 0.000409
5.837841 2.830757 -0.000461
6.152562 2.830757 -0.000985
6.467283 2.830757 -0.002491
6.782003 2.830757 -0.005547
7.096724 2.830757 -0.010156
7.411445 2.830757 -0.009979
7.726166 2.830757 -0.008456
8.040888 2.830757 -0.007399
8.355608 2.830757 0.003546
8.670330 2.830757 0.016152
8.985050 2.830757 0.021811
9.299772 2.830757 0.028826
9.614492 2.830757 0.030984
9.929214 2.830757 0.054397
10.243935 2.830757 0.060593
10.558655 2.830757 0.073920
10.873377 2.830757 0.092875
11.188097 2.830757 0.123443
11.502819 2.830757 0.138985
11.817539 2.830757 0.176774
12.132261 2.830757 0.263503
12.446981 2.830757 0.320746
12.761703 2.830757 0.390347
13.076424 2.830757 0.433738
13.391144 2.830757 0.460905
13.705866 2.830757 0.550282
14.020586 2.830757 0.683572
14.335308 2.830757 0.829950
14.650028 2.830757 1.047515
14.964750 2.830757 1.467163
15.279470 2.830757 1.619385
15.594193 2.830757 0.000000
15.908913 2.830757 0.000000
16.223633 2.830757 0.000000
16.538355 2.830757 0.000000
16.853075 2.830757 0.000000
17.167797 2.830757 0.000000
17.482517 2.830757 0.000000
17.797239 2.830757 0.000000
18.111959 2.830757 0.000000
18.426680 2.830757 0.000000
18.741402 2.830757 0.000000
-7.065720 2.516037 0.005875
-6.750999 2.516037 0.003445
-6.436278 2.516037 0.002354
-6.121557 2.516037 0.001982
-5.806836 2.516037 0.001838
-5.492115 2.516037 0.001784
-5.177394 2.516037 0.002070
-4.862673 2.516037 0.002441
-4.547952 2.516037 0.002629
-4.233231 2.516037 0.002487
-3.918510 2.516037 0.002275
-3.603789 2.516037 0.002252
-3.289068 2.516037 0.002295
-2.974347 2.516037 0.002513
-2.659626 2.516037 0.002471
-2.344905 2.516037 0.002205
-2.030184 2.516037 0.002115
-1.715463 2.516037 0.002183
-1.400742 2.516037 0.002140
-1.086021 2.516037 0.002226
-0.771300 2.516037 0.002679
-0.456579 2.516037 0.002960
-0.141859 2.516037 0.002616
0.172863 2.516037 0.002136
0.487584 2.516037 0.002305
0.802305 2.516037 0.002659
1.117026 2.516037 0.002958
1.431747 2.516037 0.002689
1.746467 2.516037 0.002109
2.061188 2.516037 0.002035
2.375909 2.516037 0.002334
2.690630 2.516037 0.002538
3.005352 2.516037 0.002613
3.320073 2.516037 0.002476
3.634794 2.516037 0.002250
3.949515 2.516037 0.002004
4.264236 2.516037 0.001933
4.578956 2.516037 0.002039
4.893677 2.516037 0.002061
5.208398 2.516037 0.001588
5.523119 2.516037 0.000616
5.837841 2.516037 -0.000516
6.152562 2.516037 -0.001677
6.467283 2.516037 -0.003963
6.782003 2.516037 -0.006300
7.096724 2.516037 -0.011144
7.411445 2.516037 -0.013078
7.726166 2.516037 -0.012093
8.040888 2.516037 -0.007778
8.355608 2.516037 0.006069
8.670330 2.516037 0.017161
8.985050 2.516037 0.024458
9.299772 2.516037 0.028232
9.614492 2.516037 0.037800
9.929214 2.516037 0.041201
10.243935 2.516037 0.053565
10.558655 2.516037 0.074491
10.873377 2.516037 0.088619
11.188097 2.516037 0.104514
11.502819 2.516037 0.149367
11.817539 2.516037 0.161277
12.132261 2.516037 0.238765
12.446981 2.516037 0.341160
12.761703 2.516037 0.382959
13.076424 2.516037 0.452400
13.391144 2.516037 0.518757
13.705866 2.516037 0.546250
14.020586 2.516037 0.658038
14.335308 2.516037 0.766941
14.650028 2.516037 1.007920
14.964750 2.516037 1.267144
15.279470 2.516037 1.448649
15.594193 2.516037 0.000000
15.908913 2.516037 0.000000
16.223633 2.516037 0.000000
16.538355 2.516037 0.000000
16.853075 2.516037 0.000000
17.167797 2.516037 0.000000
17.482517 2.516037 0.000000
17.797239 2.516037 0.000000
18.111959 2.516037 0.000000
18.426680 2.516037 0.000000
18.741402 2.516037 0.000000
-7.065720 2.201317 0.005727
-6.750999 2.201317 0.003229
-6.436278 2.201317 0.002140
-6.121557 2.201317 0.001806
-5.806836 2.201317 0.001629
-5.492115 2.201317 0.001757
-5.177394 2.201317 0.002043
-4.862673 2.201317 0.002453
-4.547952 2.201317 0.002744
-4.233231 2.201317 0.002684
-3.918510 2.201317 0.002362
-3.603789 2.201317 0.002255
-3.289068 2.201317 0.002358
-2.974347 2.201317 0.002479
-2.659626 2.201317 0.002265
-2.344905 2.201317 0.002073
-2.030184 2.201317 0.002013
-1.715463 2.201317 0.002218
-1.400742 2.201317 0.002296
-1.086021 2.201317 0.002348
-0.771300 2.201317 0.002712
-0.456579 2.201317 0.003079
-0.141859 2.201317 0.002891
0.172863 2.201317 0.002405
0.487584 2.201317 0.002389
0.802305 2.201317 0.002662
1.117026 2.201317 0.002753
1.431747 2.201317 0.002282
1.746467 2.201317 0.001789
2.061188 2.201317 0.001846
2.375909 2.201317 0.002253
2.690630 2.201317 0.002506
3.005352 2.201317 0.002692
3.320073 2.201317 0.002717
3.634794 2.201317 0.002495
3.949515 2.201317 0.002034
4.264236 2.201317 0.001878
4.578956 2.201317 0.001922
4.893677 2.201317 0.001803
5.208398 2.201317 0.001130
5.523119 2.201317 0.000180
5.837841 2.201317 -0.000811
6.152562 2.201317 -0.002160
6.467283 2.201317 -0.004504
6.782003 2.201317 -0.007188
7.096724 2.201317 -0.011681
7.411445 2.201317 -0.016668
7.726166 2.201317 -0.014710
8.040888 2.201317 -0.008209
8.355608 2.201317 0.002048
8.670330 2.201317 0.016299
8.985050 2.201317 0.026894
9.299772 2.201317 0.037895
9.614492 2.201317 0.043856
9.929214 2.201317 0.042086
10.243935 2.201317 0.051527
10.558655 2.201317 0.078607
10.873377 2.201317 0.090451
11.188097 2.201317 0.105138
11.502819 2.201317 0.135164
11.817539 2.201317 0.177662
12.132261 2.201317 0.237183
12.446981 2.201317 0.330943
12.761703 2.201317 0.403877
13.076424 2.201317 0.424977
13.391144 2.201317 0.493306
13.705866 2.201317 0.540508
14.020586 2.201317 0.605270
14.335308 2.201317 0.699337
14.650028 2.201317 0.932486
14.964750 2.201317 1.202247
15.279470 2.201317 1.088204
15.594193 2.201317 0.000000
15.908913 2.201317 0.000000
16.223633 2.201317 0.000000
16.538355 2.201317 0.000000
16.853075 2.201317 0.000000
17.167797 2.201317 0.000000
17.482517 2.201317 0.000000
17.797239 2.201317 0.000000
18.111959 2.201317 0.000000
18.426680 2.201317 0.000000
18.741402 2.201317 0.000000
-7.065720 1.886597 0.005572
-6.750999 1.886597 0.003096
-6.436278 1.886597 0.002107
-6.121557 1.886597 0.001983
-5.806836 1.886597 0.001856
-5.492115 1.886597 0.002035
-5.177394 1.886597 0.002325
-4.862673 1.886597 0.002566
-4.547952 1.886597 0.002764
-4.233231 1.886597 0.002668
-3.918510 1.886597 0.002279
-3.603789 1.886597 0.002023
-3.289068 1.886597 0.002212
-2.974347 1.886597 0.002346
-2.659626 1.886597 0.002156
-2.344905 1.886597 0.002014
-2.030184 1.886597 0.002034
-1.715463 1.886597 0.002222
-1.400742 1.886597 0.002328
-1.086021 1.886597 0.002275
-0.771300 1.886597 0.002596
-0.456579 1.886597 0.002991
-0.141859 1.886597 0.002908
0.172863 1.886597 0.002412
0.487584 1.886597 0.002275
0.802305 1.886597 0.002445
1.117026 1.886597 0.002536
1.431747 1.886597 0.002306
1.746467 1.886597 0.002045
2.061188 1.886597 0.002122
2.375909 1.886597 0.002424
2.690630 1.886597 0.002654
3.005352 1.886597 0.002738
3.320073 1.886597 0.002628
3.634794 1.886597 0.002281
3.949515 1.886597 0.001607
4.264236 1.886597 0.001349
4.578956 1.886597 0.001468
4.893677 1.886597 0.001280
5.208398 1.886597 0.000709
5.523119 1.886597 0.000053
5.837841 1.886597 -0.000678
6.152562 1.886597 -0.001831
6.467283 1.886597 -0.003418
6.782003 1.886597 -0.005786
7.096724 1.886597 -0.010825
7.411445 1.886597 -0.016987
7.726166 1.886597 -0.012921
8.040888 1.886597 -0.005352
8.355608 1.886597 0.002663
8.670330 1.886597 0.011847
8.985050 1.886597 0.017177
9.299772 1.886597 0.032275
9.614492 1.886597 0.032775
9.929214 1.886597 0.029800
10.243935 1.886597 0.048858
10.558655 1.886597 0.060172
10.873377 1.886597 0.087805
11.188097 1.886597 0.113095
11.502819 1.886597 0.123700
11.817539 1.886597 0.197581
12.132261 1.886597 0.235398
12.446981 1.886597 0.311154
12.761703 1.886597 0.415894
13.076424 1.886597 0.449816
13.391144 1.886597 0.490610
13.705866 1.886597 0.486452
14.020586 1.886597 0.567715
14.335308 1.886597 0.673457
14.650028 1.886597 0.838948
14.964750 1.886597 1.035445
15.279470 1.886597 2.449116
15.594193 1.886597 0.000000
15.908913 1.886597 0.000000
16.223633 1.886597 0.000000
16.538355 1.886597 0.000000
16.853075 1.886597 0.000000
17.167797 1.886597 0.000000
17.482517 1.886597 0.000000
17.797239 1.886597 0.000000
18.111959 1.886597 0.000000
18.426680 1.886597 0.000000
18.741402 1.886597 0.000000
-7.065720 1.571873 0.005693
-6.750999 1.571873 0.003151
-6.436278 1.571873 0.002340
-6.121557 1.571873 0.002301
-5.806836 1.571873 0.002037
-5.492115 1.571873 0.002142
-5.177394 1.571873 0.002332
-4.862673 1.571873 0.002511
-4.547952 1.571873 0.002610
-4.233231 1.571873 0.002476
-3.918510 1.571873 0.002111
-3.603789 1.571873 0.001844
-3.289068 1.571873 0.002071
-2.974347 1.571873 0.002196
-2.659626 1.571873 0.002056
-2.344905 1.571873 0.001997
-2.030184 1.571873 0.002078
-1.715463 1.571873 0.002236
-1.400742 1.571873 0.002305
-1.086021 1.571873 0.002205
-0.771300 1.571873 0.002471
-0.456579 1.571873 0.002955
-0.141859 1.571873 0.003121
0.172863 1.571873 0.002760
0.487584 1.571873 0.002402
0.802305 1.571873 0.002375
1.117026 1.571873 0.002406
1.431747 1.571873 0.002454
1.746467 1.571873 0.002320
2.061188 1.571873 0.002082
2.375909 1.571873 0.002219
2.690630 1.571873 0.002467
3.005352 1.571873 0.002565
3.320073 1.571873 0.002445
3.634794 1.571873 0.002124
3.949515 1.571873 0.001622
4.264236 1.571873 0.001341
4.578956 1.571873 0.001417
4.893677 1.571873 0.001281
5.208398 1.571873 0.000727
5.523119 1.571873 0.000333
5.837841 1.571873 -0.000722
6.152562 1.571873 -0.001992
6.467283 1.571873 -0.004280
6.782003 1.571873 -0.007730
7.096724 1.571873 -0.012557
7.411445 1.571873 -0.012535
7.726166 1.571873 -0.009353
8.040888 1.571873 -0.003303
8.355608 1.571873 0.008124
8.670330 1.571873 0.005389
8.985050 1.571873 0.019062
9.299772 1.571873 0.022946
9.614492 1.571873 0.032072
9.929214 1.571873 0.029144
10.243935 1.571873 0.044012
10.558655 1.571873 0.066662
10.873377 1.571873 0.078443
11.188097 1.571873 0.105844
11.502819 1.571873 0.147639
11.817539 1.571873 0.190129
12.132261 1.571873 0.289799
12.446981 1.571873 0.317122
12.761703 1.571873 0.383549
13.076424 1.571873 0.447653
13.391144 1.571873 0.476352
13.705866 1.571873 0.531197
14.020586 1.571873 0.546798
14.335308 1.571873 0.613546
14.650028 1.571873 0.801883
14.964750 1.571873 1.016114
15.279470 1.571873 0.000000
15.594193 1.571873 0.000000
15.908913 1.571873 0.000000
16.223633 1.571873 0.000000
16.538355 1.571873 0.000000
16.853075 1.571873 0.000000
17.167797 1.571873 0.000000
17.482517 1.571873 0.000000
17.797239 1.571873 0.000000
18.111959 1.571873 0.000000
18.426680 1.571873 0.000000
18.741402 1.571873 0.000000
-7.065720 1.257153 0.005350
-6.750999 1.257153 0.002856
-6.436278 1.257153 0.002262
-6.121557 1.257153 0.002369
-5.806836 1.257153 0.002148
-5.492115 1.257153 0.002142
-5.177394 1.257153 0.002220
-4.862673 1.257153 0.002336
-4.547952 1.257153 0.002488
-4.233231 1.257153 0.002305
-3.918510 1.257153 0.002052
-3.603789 1.257153 0.001771
-3.289068 1.257153 0.001893
-2.974347 1.257153 0.001988
-2.659626 1.257153 0.001929
-2.344905 1.257153 0.002000
-2.030184 1.257153 0.002198
-1.715463 1.257153 0.002334
-1.400742 1.257153 0.002396
-1.086021 1.257153 0.002331
-0.771300 1.257153 0.002480
-0.456579 1.257153 0.002973
-0.141859 1.257153 0.003267
0.172863 1.257153 0.002937
0.487584 1.257153 0.002314
0.802305 1.257153 0.001958
1.117026 1.257153 0.002099
1.431747 1.257153 0.002426
1.746467 1.257153 0.002310
2.061188 1.257153 0.001955
2.375909 1.257153 0.002095
2.690630 1.257153 0.002517
3.005352 1.257153 0.002752
3.320073 1.257153 0.002656
3.634794 1.257153 0.002346
3.949515 1.257153 0.002025
4.264236 1.257153 0.001692
4.578956 1.257153 0.001365
4.893677 1.257153 0.000998
5.208398 1.257153 0.000173
5.523119 1.257153 -0.000308
5.837841 1.257153 -0.000953
6.152562 1.257153 -0.002366
6.467283 1.257153 -0.004366
6.782003 1.257153 -0.007124
7.096724 1.257153 -0.012789
7.411445 1.257153 -0.013702
7.726166 1.257153 -0.013301
8.040888 1.257153 -0.006268
8.355608 1.257153 0.008179
8.670330 1.257153 0.009616
8.985050 1.257153 0.016176
9.299772 1.257153 0.033158
9.614492 1.257153 0.026569
9.929214 1.257153 0.019753
10.243935 1.257153 0.055150
10.558655 1.257153 0.056489
10.873377 1.257153 0.066656
11.188097 1.257153 0.104375
11.502819 1.257153 0.126933
11.817539 1.257153 0.189528
12.132261 1.257153 0.241312
12.446981 1.257153 0.314935
12.761703 1.257153 0.398398
13.076424 1.257153 0.457193
13.391144 1.257153 0.483528
13.705866 1.257153 0.556326
14.020586 1.257153 0.532456
14.335308 1.257153 0.616931
14.650028 1.257153 0.829477
14.964750 1.257153 0.896604
15.279470 1.257153 0.000000
15.594193 1.257153 0.000000
15.908913 1.257153 0.000000
16.223633 1.257153 0.000000
16.538355 1.257153 0.000000
16.853075 1.257153 0.000000
17.167797 1.257153 0.000000
17.482517 1.257153 0.000000
17.797239 1.257153 0.000000
18.111959 1.257153 0.000000
18.426680 1.257153 0.000000
18.741402 1.257153 0.000000
-7.065720 0.942432 0.005200
-6.750999 0.942432 0.002798
-6.436278 0.942432 0.002288
-6.121557 0.942432 0.002539
-5.806836 0.942432 0.002494
-5.492115 0.942432 0.002424
-5.177394 0.942432 0.002406
-4.862673 0.942432 0.002388
-4.547952 0.942432 0.002372
-4.233231 0.942432 0.002238
-3.918510 0.942432 0.002025
-3.603789 0.942432 0.001788
-3.289068 0.942432 0.001817
-2.974347 0.942432 0.001805
-2.659626 0.942432 0.001856
-2.344905 0.942432 0.002094
-2.030184 0.942432 0.002345
-1.715463 0.942432 0.002375
-1.400742 0.942432 0.002258
-1.086021 0.942432 0.002178
-0.771300 0.942432 0.002216
-0.456579 0.942432 0.002674
-0.141859 0.942432 0.003044
0.172863 0.942432 0.002833
0.487584 0.942432 0.002154
0.802305 0.942432 0.001735
1.117026 0.942432 0.002149
1.431747 0.942432 0.002739
1.746467 0.942432 0.002619
2.061188 0.942432 0.002164
2.375909 0.942432 0.002303
2.690630 0.942432 0.002646
3.005352 0.942432 0.002777
3.320073 0.942432 0.002560
3.634794 0.942432 0.002102
3.949515 0.942432 0.002032
4.264236 0.942432 0.001750
4.578956 0.942432 0.001010
4.893677 0.942432 0.000647
5.208398 0.942432 0.000132
5.523119 0.942432 -0.000418
5.837841 0.942432 -0.000512
6.152562 0.942432 -0.001319
6.467283 0.942432 -0.004674
6.782003 0.942432 -0.008072
7.096724 0.942432 -0.013370
7.411445 0.942432 -0.016824
7.726166 0.942432 -0.014941
8.040888 0.942432 -0.008253
8.355608 0.942432 0.009531
8.670330 0.942432 0.007545
8.985050 0.942432 0.016059
9.299772 0.942432 0.032241
9.614492 0.942432 0.022867
9.929214 0.942432 0.020914
10.243935 0.942432 0.058368
10.558655 0.942432 0.070770
10.873377 0.942432 0.072396
11.188097 0.942432 0.094288
11.502819 0.942432 0.118922
11.817539 0.942432 0.172126
12.132261 0.942432 0.229302
12.446981 0.942432 0.308048
12.761703 0.942432 0.366532
13.076424 0.942432 0.469612
13.391144 0.942432 0.488884
13.705866 0.942432 0.522877
14.020586 0.942432 0.546456
14.335308 0.942432 0.628987
14.650028 0.942432 0.784951
14.964750 0.942432 0.976287
15.279470 0.942432 0.000000
15.594193 0.942432 0.000000
15.908913 0.942432 0.000000
16.223633 0.942432 0.000000
16.538355 0.942432 0.000000
16.853075 0.942432 0.000000
17.167797 0.942432 0.000000
17.482517 0.942432 0.000000
17.797239 0.942432 0.000000
18.111959 0.942432 0.000000
18.426680 0.942432 0.000000
18.741402 0.942432 0.000000
-7.065720 0.627712 0.005291
-6.750999 0.627712 0.002945
-6.436278 0.627712 0.002346
-6.121557 0.627712 0.002592
-5.806836 0.627712 0.002684
-5.492115 0.627712 0.002625
-5.177394 0.627712 0.002553
-4.862673 0.627712 0.002397
-4.547952 0.627712 0.002227
-4.233231 0.627712 0.002096
-3.918510 0.627712 0.001989
-3.603789 0.627712 0.001869
-3.289068 0.627712 0.001769
-2.974347 0.627712 0.001709
-2.659626 0.627712 0.001799
-2.344905 0.627712 0.002134
-2.030184 0.627712 0.002325
-1.715463 0.627712 0.002163
-1.400742 0.627712 0.001932
-1.086021 0.627712 0.001807
-0.771300 0.627712 0.001901
-0.456579 0.627712 0.002537
-0.141859 0.627712 0.002972
0.172863 0.627712 0.002857
0.487584 0.627712 0.002327
0.802305 0.627712 0.001912
1.117026 0.627712 0.002338
1.431747 0.627712 0.002928
1.746467 0.627712 0.002635
2.061188 0.627712 0.002065
2.375909 0.627712 0.002068
2.690630 0.627712 0.002273
3.005352 0.627712 0.002309
3.320073 0.627712 0.002238
3.634794 0.627712 0.002029
3.949515 0.627712 0.002258
4.264236 0.627712 0.002147
4.578956 0.627712 0.001538
4.893677 0.627712 0.001095
5.208398 0.627712 0.000618
5.523119 0.627712 -0.000036
5.837841 0.627712 -0.000435
6.152562 0.627712 -0.000795
6.467283 0.627712 -0.004631
6.782003 0.627712 -0.009070
7.096724 0.627712 -0.015533
7.411445 0.627712 -0.017136
7.726166 0.627712 -0.015414
8.040888 0.627712 -0.008255
8.355608 0.627712 0.001756
8.670330 0.627712 0.014089
8.985050 0.627712 0.019922
9.299772 0.627712 0.032061
9.614492 0.627712 0.025064
9.929214 0.627712 0.034313
10.243935 0.627712 0.071694
10.558655 0.627712 0.079752
10.873377 0.627712 0.077951
11.188097 0.627712 0.083190
11.502819 0.627712 0.123114
11.817539 0.627712 0.150497
12.132261 0.627712 0.204406
12.446981 0.627712 0.298479
12.761703 0.627712 0.361391
13.076424 0.627712 0.455123
13.391144 0.627712 0.500695
13.705866 0.627712 0.551426
14.020586 0.627712 0.607426
14.335308 0.627712 0.697037
14.650028 0.627712 0.798418
14.964750 0.627712 1.065323
15.279470 0.627712 0.000000
15.594193 0.627712 0.000000
15.908913 0.627712 0.000000
16.223633 0.627712 0.000000
16.538355 0.627712 0.000000
16.853075 0.627712 0.000000
17.167797 0.627712 0.000000
17.482517 0.627712 0.000000
17.797239 0.627712 0.000000
18.111959 0.627712 0.000000
18.426680 0.627712 0.000000
18.741402 0.627712 0.000000
-7.065720 0.312992 0.005130
-6.750999 0.312992 0.002667
-6.436278 0.312992 0.002030
-6.121557 0.312992 0.002354
-5.806836 0.312992 0.002637
-5.492115 0.312992 0.002703
-5.177394 0.312992 0.002648
-4.862673 0.312992 0.002475
-4.547952 0.312992 0.002356
-4.233231 0.312992 0.002110
-3.918510 0.312992 0.002044
-3.603789 0.312992 0.001915
-3.289068 0.312992 0.001781
-2.974347 0.312992 0.001752
-2.659626 0.312992 0.001860
-2.344905 0.312992 0.002174
-2.030184 0.312992 0.002286
-1.715463 0.312992 0.002090
-1.400742 0.312992 0.001824
-1.086021 0.312992 0.001703
-0.771300 0.312992 0.001900
-0.456579 0.312992 0.002638
-0.141859 0.312992 0.002953
0.172863 0.312992 0.002716
0.487584 0.312992 0.002295
0.802305 0.312992 0.001845
1.117026 0.312992 0.002013
1.431747 0.312992 0.002408
1.746467 0.312992 0.002234
2.061188 0.312992 0.001891
2.375909 0.312992 0.001994
2.690630 0.312992 0.002187
3.005352 0.312992 0.002298
3.320073 0.312992 0.002503
3.634794 0.312992 0.002584
3.949515 0.312992 0.002730
4.264236 0.312992 0.002587
4.578956 0.312992 0.002010
4.893677 0.312992 0.001505
5.208398 0.312992 0.000542
5.523119 0.312992 -0.000700
5.837841 0.312992 -0.001352
6.152562 0.312992 -0.001723
6.467283 0.312992 -0.004946
6.782003 0.312992 -0.009705
7.096724 0.312992 -0.014807
7.411445 0.312992 -0.017013
7.726166 0.312992 -0.020018
8.040888 0.312992 -0.010519
8.355608 0.312992 0.002768
8.670330 0.312992 0.018534
8.985050 0.312992 0.017319
9.299772 0.312992 0.010068
9.614492 0.312992 0.018936
9.929214 0.312992 0.038980
10.243935 0.312992 0.062157
10.558655 0.312992 0.068950
10.873377 0.312992 0.092319
11.188097 0.312992 0.119947
11.502819 0.312992 0.145019
11.817539 0.312992 0.168330
12.132261 0.312992 0.230038
12.446981 0.312992 0.292681
12.761703 0.312992 0.386150
13.076424 0.312992 0.471666
13.391144 0.312992 0.478824
13.705866 0.312992 0.523948
14.020586 0.312992 0.597566
14.335308 0.312992 0.700418
14.650028 0.312992 0.859711
14.964750 0.312992 0.000000
15.279470 0.312992 0.000000
15.594193 0.312992 0.000000
15.908913 0.312992 0.000000
16.223633 0.312992 0.000000
16.538355 0.312992 0.000000
16.853075 0.312992 0.000000
17.167797 0.312992 0.000000
17.482517 0.312992 0.000000
17.797239 0.312992 0.000000
18.111959 0.312992 0.000000
18.426680 0.312992 0.000000
18.741402 0.312992 0.000000
-7.065720 -0.001732 0.004640
-6.750999 -0.001732 0.002478
-6.436278 -0.001732 0.001849
-6.121557 -0.001732 0.002227
-5.806836 -0.001732 0.002704
-5.492115 -0.001732 0.002890
-5.177394 -0.001732 0.002811
-4.862673 -0.001732 0.002649
-4.547952 -0.001732 0.002563
-4.233231 -0.001732 0.002248
-3.918510 -0.001732 0.002076
-3.603789 -0.001732 0.001978
-3.289068 -0.001732 0.001885
-2.974347 -0.001732 0.002016
-2.659626 -0.001732 0.002145
-2.344905 -0.001732 0.002302
-2.030184 -0.001732 0.002321
-1.715463 -0.001732 0.002112
-1.400742 -0.001732 0.001763
-1.086021 -0.001732 0.001594
-0.771300 -0.001732 0.001854
-0.456579 -0.001732 0.002502
-0.141859 -0.001732 0.002685
0.172863 -0.001732 0.002438
0.487584 -0.001732 0.002182
0.802305 -0.001732 0.001896
1.117026 -0.001732 0.001872
1.431747 -0.001732 0.002114
1.746467 -0.001732 0.002185
2.061188 -0.001732 0.002183
2.375909 -0.001732 0.002323
2.690630 -0.001732 0.002401
3.005352 -0.001732 0.002305
3.320073 -0.001732 0.002460
3.634794 -0.001732 0.002589
3.949515 -0.001732 0.002561
4.264236 -0.001732 0.002294
4.578956 -0.001732 0.002222
4.893677 -0.001732 0.002035
5.208398 -0.001732 0.000720
5.523119 -0.001732 -0.000705
5.837841 -0.001732 -0.001449
6.152562 -0.001732 -0.002517
6.467283 -0.001732 -0.005703
6.782003 -0.001732 -0.010879
7.096724 -0.001732 -0.016960
7.411445 -0.001732 -0.018006
7.726166 -0.001732 -0.018277
8.040888 -0.001732 -0.013812
8.355608 -0.001732 -0.001112
8.670330 -0.001732 0.017354
8.985050 -0.001732 0.022116
9.299772 -0.001732 0.014851
9.614492 -0.001732 0.021308
9.929214 -0.001732 0.033448
10.243935 -0.001732 0.048901
10.558655 -0.001732 0.056107
10.873377 -0.001732 0.100069
11.188097 -0.001732 0.129237
11.502819 -0.001732 0.147491
11.817539 -0.001732 0.204017
12.132261 -0.001732 0.209756
12.446981 -0.001732 0.285903
12.761703 -0.001732 0.373287
13.076424 -0.001732 0.472215
13.391144 -0.001732 0.468078
13.705866 -0.001732 0.520360
14.020586 -0.001732 0.580312
14.335308 -0.001732 0.773126
14.650028 -0.001732 0.957141
14.964750 -0.001732 0.000000
15.279470 -0.001732 0.000000
15.594193 -0.001732 0.000000
15.908913 -0.001732 0.000000
16.223633 -0.001732 0.000000
16.538355 -0.001732 0.000000
16.853075 -0.001732 0.000000
17.167797 -0.001732 0.000000
17.482517 -0.001732 0.000000
17.797239 -0.001732 0.000000
18.111959 -0.001732 0.000000
18.426680 -0.001732 0.000000
18.741402 -0.001732 0.000000
-7.065720 -0.316452 0.002583
-6.750999 -0.316452 0.002892
-6.436278 -0.316452 0.002241
-6.121557 -0.316452 0.002631
-5.806836 -0.316452 0.003196
-5.492115 -0.316452 0.003391
-5.177394 -0.316452 0.003219
-4.862673 -0.316452 0.003068
-4.547952 -0.316452 0.002939
-4.233231 -0.316452 0.002673
-3.918510 -0.316452 0.002463
-3.603789 -0.316452 0.002423
-3.289068 -0.316452 0.002470
-2.974347 -0.316452 0.002725
-2.659626 -0.316452 0.002745
-2.344905 -0.316452 0.002687
-2.030184 -0.316452 0.002614
-1.715463 -0.316452 0.002290
-1.400742 -0.316452 0.001897
-1.086021 -0.316452 0.001777
-0.771300 -0.316452 0.002159
-0.456579 -0.316452 0.002621
-0.141859 -0.316452 0.002708
0.172863 -0.316452 0.002515
0.487584 -0.316452 0.002522
0.802305 -0.316452 0.002428
1.117026 -0.316452 0.002227
1.431747 -0.316452 0.002154
1.746467 -0.316452 0.002291
2.061188 -0.316452 0.002530
2.375909 -0.316452 0.002661
2.690630 -0.316452 0.002566
3.005352 -0.316452 0.002391
3.320073 -0.316452 0.002464
3.634794 -0.316452 0.002589
3.949515 -0.316452 0.002537
4.264236 -0.316452 0.002387
4.578956 -0.316452 0.002810
4.893677 -0.316452 0.002822
5.208398 -0.316452 0.001837
5.523119 -0.316452 0.000365
5.837841 -0.316452 -0.001763
6.152562 -0.316452 -0.003207
6.467283 -0.316452 -0.005682
6.782003 -0.316452 -0.010039
7.096724 -0.316452 -0.015319
7.411445 -0.316452 -0.013218
7.726166 -0.316452 -0.011138
8.040888 -0.316452 -0.003732
8.355608 -0.316452 0.012547
8.670330 -0.316452 0.022615
8.985050 -0.316452 0.025568
9.299772 -0.316452 0.026894
9.614492 -0.316452 0.032606
9.929214 -0.316452 0.046479
10.243935 -0.316452 0.064335
10.558655 -0.316452 0.076805
10.873377 -0.316452 0.106669
11.188097 -0.316452 0.151550
11.502819 -0.316452 0.165193
11.817539 -0.316452 0.201697
12.132261 -0.316452 0.230475
12.446981 -0.316452 0.333278
12.761703 -0.316452 0.408385
13.076424 -0.316452 0.451826
13.391144 -0.316452 0.499320
13.705866 -0.316452 0.569573
14.020586 -0.316452 0.623693
14.335308 -0.316452 0.768255
14.650028 -0.316452 0.982368
14.964750 -0.316452 0.000000
15.279470 -0.316452 0.000000
15.594193 -0.316452 0.000000
15.908913 -0.316452 0.000000
16.223633 -0.316452 0.000000
16.538355 -0.316452 0.000000
16.853075 -0.316452 0.000000
17.167797 -0.316452 0.000000
17.482517 -0.316452 0.000000
17.797239 -0.316452 0.000000
18.111959 -0.316452 0.000000
18.426680 -0.316452 0.000000
18.741402 -0.316452 0.000000
-7.065720 -0.631172 0.003002
-6.750999 -0.631172 0.003597
-6.436278 -0.631172 0.003264
-6.121557 -0.631172 0.003860
-5.806836 -0.631172 0.004481
-5.492115 -0.631172 0.004720
-5.177394 -0.631172 0.004392
-4.862673 -0.631172 0.004254
-4.547952 -0.631172 0.004169
-4.233231 -0.631172 0.004036
-3.918510 -0.631172 0.003880
-3.603789 -0.631172 0.003911
-3.289068 -0.631172 0.004203
-2.974347 -0.631172 0.004332
-2.659626 -0.631172 0.004176
-2.344905 -0.631172 0.003922
-2.030184 -0.631172 0.003793
-1.715463 -0.631172 0.003419
-1.400742 -0.631172 0.002938
-1.086021 -0.631172 0.002809
-0.771300 -0.631172 0.003116
-0.456579 -0.631172 0.003312
-0.141859 -0.631172 0.003124
0.172863 -0.631172 0.002968
0.487584 -0.631172 0.003174
0.802305 -0.631172 0.003442
1.117026 -0.631172 0.003144
1.431747 -0.631172 0.002985
1.746467 -0.631172 0.003315
2.061188 -0.631172 0.003778
2.375909 -0.631172 0.004047
2.690630 -0.631172 0.003907
3.005352 -0.631172 0.003575
3.320073 -0.631172 0.003332
3.634794 -0.631172 0.003161
3.949515 -0.631172 0.002980
4.264236 -0.631172 0.003060
4.578956 -0.631172 0.003544
4.893677 -0.631172 0.003523
5.208398 -0.631172 0.002801
5.523119 -0.631172 0.001499
5.837841 -0.631172 -0.000480
6.152562 -0.631172 -0.002508
6.467283 -0.631172 -0.003668
6.782003 -0.631172 -0.007697
7.096724 -0.631172 -0.008292
7.411445 -0.631172 -0.007811
7.726166 -0.631172 -0.005180
8.040888 -0.631172 0.013294
8.355608 -0.631172 0.034573
8.670330 -0.631172 0.052622
8.985050 -0.631172 0.056987
9.299772 -0.631172 0.053589
9.614492 -0.631172 0.064590
9.929214 -0.631172 0.080879
10.243935 -0.631172 0.099182
10.558655 -0.631172 0.123735
10.873377 -0.631172 0.118913
11.188097 -0.631172 0.177506
11.502819 -0.631172 0.189925
11.817539 -0.631172 0.243243
12.132261 -0.631172 0.303939
12.446981 -0.631172 0.365355
12.761703 -0.631172 0.460797
13.076424 -0.631172 0.485703
13.391144 -0.631172 0.524180
13.705866 -0.631172 0.628522
14.020586 -0.631172 0.775308
14.335308 -0.631172 0.905821
14.650028 -0.631172 0.992133
14.964750 -0.631172 0.000000
15.279470 -0.631172 0.000000
15.594193 -0.631172 0.000000
15.908913 -0.631172 0.000000
16.223633 -0.631172 0.000000
16.538355 -0.631172 0.000000
16.853075 -0.631172 0.000000
17.167797 -0.631172 0.000000
17.482517 -0.631172 0.000000
17.797239 -0.631172 0.000000
18.111959 -0.631172 0.000000
18.426680 -0.631172 0.000000
18.741402 -0.631172 0.000000
-7.065720 -0.945892 0.001510
-6.750999 -0.945892 0.001690
-6.436278 -0.945892 0.001567
-6.121557 -0.945892 0.003748
-5.806836 -0.945892 0.004458
-5.492115 -0.945892 0.004200
-5.177394 -0.945892 0.004357
-4.862673 -0.945892 0.005113
-4.547952 -0.945892 0.005918
-4.233231 -0.945892 0.006258
-3.918510 -0.945892 0.006356
-3.603789 -0.945892 0.006607
-3.289068 -0.945892 0.006983
-2.974347 -0.945892 0.007092
-2.659626 -0.945892 0.006760
-2.344905 -0.945892 0.006288
-2.030184 -0.945892 0.006134
-1.715463 -0.945892 0.005506
-1.400742 -0.945892 0.004765
-1.086021 -0.945892 0.004416
-0.771300 -0.945892 0.004624
-0.456579 -0.945892 0.004635
-0.141859 -0.945892 0.004193
0.172863 -0.945892 0.004124
0.487584 -0.945892 0.004720
0.802305 -0.945892 0.005481
1.117026 -0.945892 0.005504
1.431747 -0.945892 0.005619
1.746467 -0.945892 0.006053
2.061188 -0.945892 0.006601
2.375909 -0.945892 0.006662
2.690630 -0.945892 0.006244
3.005352 -0.945892 0.005446
3.320073 -0.945892 0.004439
3.634794 -0.945892 0.003595
3.949515 -0.945892 0.003314
4.264236 -0.945892 0.003684
4.578956 -0.945892 0.004448
4.893677 -0.945892 0.004564
5.208398 -0.945892 0.004801
5.523119 -0.945892 0.004511
5.837841 -0.945892 0.003250
6.152562 -0.945892 0.001657
6.467283 -0.945892 -0.000529
6.782003 -0.945892 -0.001062
7.096724 -0.945892 -0.001991
7.411445 -0.945892 0.004813
7.726166 -0.945892 0.009326
8.040888 -0.945892 0.035853
8.355608 -0.945892 0.067880
8.670330 -0.945892 0.083094
8.985050 -0.945892 0.090876
9.299772 -0.945892 0.093802
9.614492 -0.945892 0.101772
9.929214 -0.945892 0.113014
10.243935 -0.945892 0.149008
10.558655 -0.945892 0.189317
10.873377 -0.945892 0.171236
11.188097 -0.945892 0.227350
11.502819 -0.945892 0.264937
11.817539 -0.945892 0.316177
12.132261 -0.945892 0.392827
12.446981 -0.945892 0.434546
12.761703 -0.945892 0.507879
13.076424 -0.945892 0.607776
13.391144 -0.945892 0.644590
13.705866 -0.945892 0.742464
14.020586 -0.945892 0.820176
14.335308 -0.945892 0.906082
14.650028 -0.945892 1.104191
14.964750 -0.945892 0.000000
15.279470 -0.945892 0.000000
15.594193 -0.945892 0.000000
15.908913 -0.945892 0.000000
16.223633 -0.945892 0.000000
16.538355 -0.945892 0.000000
16.853075 -0.945892 0.000000
17.167797 -0.945892 0.000000
17.482517 -0.945892 0.000000
17.797239 -0.945892 0.000000
18.111959 -0.945892 0.000000
18.426680 -0.945892 0.000000
18.741402 -0.945892 0.000000
-7.065720 -1.260616 0.000000
-6.750999 -1.260616 0.000000
-6.436278 -1.260616 0.000000
-6.121557 -1.260616 0.000000
-5.806836 -1.260616 0.000000
-5.492115 -1.260616 0.000000
-5.177394 -1.260616 0.000000
-4.862673 -1.260616 0.000000
-4.547952 -1.260616 0.000000
-4.233231 -1.260616 0.000000
-3.918510 -1.260616 0.000000
-3.603789 -1.260616 0.000000
-3.289068 -1.260616 0.000000
-2.974347 -1.260616 0.000000
-2.659626 -1.260616 0.000000
-2.344905 -1.260616 0.000000
-2.030184 -1.260616 0.000000
-1.715463 -1.260616 0.000000
-1.400742 -1.260616 0.000000
-1.086021 -1.260616 0.000000
-0.771300 -1.260616 0.000000
-0.456579 -1.260616 0.000000
-0.141859 -1.260616 0.000000
0.172863 -1.260616 0.000000
0.487584 -1.260616 0.000000
0.802305 -1.260616 0.000000
1.117026 -1.260616 0.000000
1.431747 -1.260616 0.000000
1.746467 -1.260616 0.000000
2.061188 -1.260616 0.000000
2.375909 -1.260616 0.000000
2.690630 -1.260616 0.000000
3.005352 -1.260616 0.000000
3.320073 -1.260616 0.000000
3.634794 -1.260616 0.000000
3.949515 -1.260616 0.000000
4.264236 -1.260616 0.000000
4.578956 -1.260616 0.000000
4.893677 -1.260616 0.000000
5.208398 -1.260616 0.000000
5.523119 -1.260616 0.000000
5.837841 -1.260616 0.067156
6.152562 -1.260616 -0.036321
6.467283 -1.260616 -0.201066
6.782003 -1.260616 -0.218978
7.096724 -1.260616 -0.143421
7.411445 -1.260616 -0.121513
7.726166 -1.260616 -0.092455
8.040888 -1.260616 -0.085878
8.355608 -1.260616 -0.068246
8.670330 -1.260616 -0.043079
8.985050 -1.260616 -0.031210
9.299772 -1.260616 -0.014818
9.614492 -1.260616 0.003866
9.929214 -1.260616 0.051187
10.243935 -1.260616 0.118370
10.558655 -1.260616 0.200300
10.873377 -1.260616 0.241429
11.188097 -1.260616 0.284722
11.502819 -1.260616 0.323351
11.817539 -1.260616 0.406349
12.132261 -1.260616 0.489452
12.446981 -1.260616 0.548654
12.761703 -1.260616 0.623976
13.076424 -1.260616 0.672784
13.391144 -1.260616 0.738823
13.705866 -1.260616 0.814687
14.020586 -1.260616 0.875145
14.335308 -1.260616 0.909132
14.650028 -1.260616 0.000000
14.964750 -1.260616 0.000000
15.279470 -1.260616 0.000000
15.594193 -1.260616 0.000000
15.908913 -1.260616 0.000000
16.223633 -1.260616 0.000000
16.538355 -1.260616 0.000000
16.853075 -1.260616 0.000000
17.167797 -1.260616 0.000000
17.482517 -1.260616 0.000000
17.797239 -1.260616 0.000000
18.111959 -1.260616 0.000000
18.426680 -1.260616 0.000000
18.741402 -1.260616 0.000000
-7.065720 -1.575336 0.000000
-6.750999 -1.575336 0.000000
-6.436278 -1.575336 0.000000
-6.121557 -1.575336 0.000000
-5.806836 -1.575336 0.000000
-5.492115 -1.575336 0.000000
-5.177394 -1.575336 0.000000
-4.862673 -1.575336 0.000000
-4.547952 -1.575336 0.000000
-4.233231 -1.575336 0.000000
-3.918510 -1.575336 0.000000
-3.603789 -1.575336 0.000000
-3.289068 -1.575336 0.000000
-2.974347 -1.575336 0.000000
-2.659626 -1.575336 0.000000
-2.344905 -1.575336 0.000000
-2.030184 -1.575336 0.000000
-1.715463 -1.575336 0.000000
-1.400742 -1.575336 0.000000
-1.086021 -1.575336 0.000000
-0.771300 -1.575336 0.000000
-0.456579 -1.575336 0.000000
-0.141859 -1.575336 0.000000
0.172863 -1.575336 0.000000
0.487584 -1.575336 0.000000
0.802305 -1.575336 0.000000
1.117026 -1.575336 0.000000
1.431747 -1.575336 0.000000
1.746467 -1.575336 0.000000
2.061188 -1.575336 0.000000
2.375909 -1.575336 0.000000
2.690630 -1.575336 0.000000
3.005352 -1.575336 0.000000
3.320073 -1.575336 0.000000
3.634794 -1.575336 0.000000
3.949515 -1.575336 0.000000
4.264236 -1.575336 0.000000
4.578956 -1.575336 0.000000
4.893677 -1.575336 0.000000
5.208398 -1.575336 0.000000
5.523119 -1.575336 0.000000
5.837841 -1.575336 0.000000
6.152562 -1.575336 0.000000
6.467283 -1.575336 0.000000
6.782003 -1.575336 0.000000
7.096724 -1.575336 0.000000
7.411445 -1.575336 0.000000
7.726166 -1.575336 0.000000
8.040888 -1.575336 0.000000
8.355608 -1.575336 0.000000
8.670330 -1.575336 0.000000
8.985050 -1.575336 7.314762
9.299772 -1.575336 0.975882
9.614492 -1.575336 1.143786
9.929214 -1.575336 0.642756
10.243935 -1.575336 0.262213
10.558655 -1.575336 0.108814
10.873377 -1.575336 0.086087
11.188097 -1.575336 -0.019066
11.502819 -1.575336 0.010961
11.817539 -1.575336 0.020571
12.132261 -1.575336 0.081083
12.446981 -1.575336 0.153580
12.761703 -1.575336 0.234254
13.076424 -1.575336 0.266986
13.391144 -1.575336 0.368305
13.705866 -1.575336 0.448621
14.020586 -1.575336 0.505080
14.335308 -1.575336 0.537244
14.650028 -1.575336 0.000000
14.964750 -1.575336 0.000000
15.279470 -1.575336 0.000000
15.594193 -1.575336 0.000000
15.908913 -1.575336 0.000000
16.223633 -1.575336 0.000000
16.538355 -1.575336 0.000000
16.853075 -1.575336 0.000000
17.167797 -1.575336 0.000000
17.482517 -1.575336 0.000000
17.797239 -1.575336 0.000000
18.111959 -1.575336 0.000000
18.426680 -1.575336 0.000000
18.741402 -1.575336 0.000000
-7.065720 -1.890057 0.000000
-6.750999 -1.890057 0.000000
-6.436278 -1.890057 0.000000
-6.121557 -1.890057 0.000000
-5.806836 -1.890057 0.000000
-5.492115 -1.890057 0.000000
-5.177394 -1.890057 0.000000
-4.862673 -1.890057 0.000000
-4.547952 -1.890057 0.000000
-4.233231 -1.890057 0.000000
-3.918510 -1.890057 0.000000
-3.603789 -1.890057 0.000000
-3.289068 -1.890057 0.000000
-2.974347 -1.890057 0.000000
-2.659626 -1.890057 0.000000
-2.344905 -1.890057 0.000000
-2.030184 -1.890057 0.000000
-1.715463 -1.890057 0.000000
-1.400742 -1.890057 0.000000
-1.086021 -1.890057 0.000000
-0.771300 -1.890057 0.000000
-0.456579 -1.890057 0.000000
-0.141859 -1.890057 0.000000
0.172863 -1.890057 0.000000
0.487584 -1.890057 0.000000
0.802305 -1.890057 0.000000
1.117026 -1.890057 0.000000
1.431747 -1.890057 0.000000
1.746467 -1.890057 0.000000
2.061188 -1.890057 0.000000
2.375909 -1.890057 0.000000
2.690630 -1.890057 0.000000
3.005352 -1.890057 0.000000
3.320073 -1.890057 0.000000
3.634794 -1.890057 0.000000
3.949515 -1.890057 0.000000
4.264236 -1.890057 0.000000
4.578956 -1.890057 0.000000
4.893677 -1.890057 0.000000
5.208398 -1.890057 0.000000
5.523119 -1.890057 0.000000
5.837841 -1.890057 0.000000
6.152562 -1.890057 0.000000
6.467283 -1.890057 0.000000
6.782003 -1.890057 0.000000
7.096724 -1.890057 0.000000
7.411445 -1.890057 0.000000
7.726166 -1.890057 0.000000
8.040888 -1.890057 0.000000
8.355608 -1.890057 0.000000
8.670330 -1.890057 0.000000
8.985050 -1.890057 0.000000
9.299772 -1.890057 0.000000
9.614492 -1.890057 0.000000
9.929214 -1.890057 0.000000
10.243935 -1.890057 0.000000
10.558655 -1.890057 0.000000
10.873377 -1.890057 0.000000
11.188097 -1.890057 0.000000
11.502819 -1.890057 1.960247
11.817539 -1.890057 0.582040
12.132261 -1.890057 3.922875
12.446981 -1.890057 1.684126
12.761703 -1.890057 1.233697
13.076424 -1.890057 1.361435
13.391144 -1.890057 0.675061
13.705866 -1.890057 0.633160
14.020586 -1.890057 0.385301
14.335308 -1.890057 0.243416
14.650028 -1.890057 0.000000
14.964750 -1.890057 0.000000
15.279470 -1.890057 0.000000
15.594193 -1.890057 0.000000
15.908913 -1.890057 0.000000
16.223633 -1.890057 0.000000
16.538355 -1.890057 0.000000
16.853075 -1.890057 0.000000
17.167797 -1.890057 0.000000
17.482517 -1.890057 0.000000
17.797239 -1.890057 0.000000
18.111959 -1.890057 0.000000
18.426680 -1.890057 0.000000
18.741402 -1.890057 0.000000
-7.065720 -2.204777 0.000000
-6.750999 -2.204777 0.000000
-6.436278 -2.204777 0.000000
-6.121557 -2.204777 0.000000
-5.806836 -2.204777 0.000000
-5.492115 -2.204777 0.000000
-5.177394 -2.204777 0.000000
-4.862673 -2.204777 0.000000
-4.547952 -2.204777 0.000000
-4.233231 -2.204777 0.000000
-3.918510 -2.204777 0.000000
-3.603789 -2.204777 0.000000
-3.289068 -2.204777 0.000000
-2.974347 -2.204777 0.000000
-2.659626 -2.204777 0.000000
-2.344905 -2.204777 0.000000
-2.030184 -2.204777 0.000000
-1.715463 -2.204777 0.000000
-1.400742 -2.204777 0.000000
-1.086021 -2.204777 0.000000
-0.771300 -2.204777 0.000000
-0.456579 -2.204777 0.000000
-0.141859 -2.204777 0.000000
0.172863 -2.204777 0.000000
0.487584 -2.204777 0.000000
0.802305 -2.204777 0.000000
1.117026 -2.204777 0.000000
1.431747 -2.204777 0.000000
1.746467 -2.204777 0.000000
2.061188 -2.204777 0.000000
2.375909 -2.204777 0.000000
2.690630 -2.204777 0.000000
3.005352 -2.204777 0.000000
3.320073 -2.204777 0.000000
3.634794 -2.204777 0.000000
3.949515 -2.204777 0.000000
4.264236 -2.204777 0.000000
4.578956 -2.204777 0.000000
4.893677 -2.204777 0.000000
5.208398 -2.204777 0.000000
5.523119 -2.204777 0.000000
5.837841 -2.204777 0.000000
6.152562 -2.204777 0.000000
6.467283 -2.204777 0.000000
6.782003 -2.204777 0.000000
7.096724 -2.204777 0.000000
7.411445 -2.204777 0.000000
7.726166 -2.204777 0.000000
8.040888 -2.204777 0.000000
8.355608 -2.204777 0.000000
8.670330 -2.204777 0.000000
8.985050 -2.204777 0.000000
9.299772 -2.204777 0.000000
9.614492 -2.204777 0.000000
9.929214 -2.204777 0.000000
10.243935 -2.204777 0.000000
10.558655 -2.204777 0.000000
10.873377 -2.204777 0.000000
11.188097 -2.204777 0.000000
11.502819 -2.204777 0.000000
11.817539 -2.204777 0.000000
12.132261 -2.204777 0.000000
12.446981 -2.204777 0.000000
12.761703 -2.204777 0.000000
13.076424 -2.204777 0.000000
13.391144 -2.204777 0.000000
13.705866 -2.204777 0.000000
14.020586 -2.204777 0.000000
14.335308 -2.204777 0.000000
14.650028 -2.204777 0.000000
14.964750 -2.204777 0.000000
15.279470 -2.204777 0.000000
15.594193 -2.204777 0.000000
15.908913 -2.204777 0.000000
16.223633 -2.204777 0.000000
16.538355 -2.204777 0.000000
16.853075 -2.204777 0.000000
17.167797 -2.204777 0.000000
17.482517 -2.204777 0.000000
17.797239 -2.204777 0.000000
18.111959 -2.204777 0.000000
18.426680 -2.204777 0.000000
18.741402 -2.204777 0.000000
