TITLE = "B00009"
VARIABLES = "x", "y", "Reynold stress XY"
ZONE T="Frame 1" I=83, J=162, F=POINT
-7.065720 48.465302 0.000000
-6.750999 48.465302 0.000000
-6.436278 48.465302 0.000000
-6.121557 48.465302 0.000000
-5.806836 48.465302 0.000000
-5.492115 48.465302 0.000000
-5.177394 48.465302 0.000000
-4.862673 48.465302 0.000000
-4.547952 48.465302 0.000000
-4.233231 48.465302 0.000000
-3.918510 48.465302 0.000000
-3.603789 48.465302 0.000000
-3.289068 48.465302 0.000000
-2.974347 48.465302 0.000000
-2.659626 48.465302 0.000000
-2.344905 48.465302 0.000000
-2.030184 48.465302 0.000000
-1.715463 48.465302 0.000000
-1.400742 48.465302 0.000000
-1.086021 48.465302 0.000000
-0.771300 48.465302 0.000000
-0.456579 48.465302 0.000000
-0.141859 48.465302 0.000000
0.172863 48.465302 0.000000
0.487584 48.465302 0.000000
0.802305 48.465302 0.000000
1.117026 48.465302 0.000000
1.431747 48.465302 0.000000
1.746467 48.465302 0.000000
2.061188 48.465302 0.000000
2.375909 48.465302 0.000000
2.690630 48.465302 0.000000
3.005352 48.465302 0.000000
3.320073 48.465302 0.000000
3.634794 48.465302 0.000000
3.949515 48.465302 0.000000
4.264236 48.465302 0.000000
4.578956 48.465302 0.000000
4.893677 48.465302 0.000000
5.208398 48.465302 0.000000
5.523119 48.465302 0.000000
5.837841 48.465302 0.000000
6.152562 48.465302 0.000000
6.467283 48.465302 0.000000
6.782003 48.465302 0.000000
7.096724 48.465302 0.000000
7.411445 48.465302 0.000000
7.726166 48.465302 0.000000
8.040888 48.465302 0.000000
8.355608 48.465302 0.000000
8.670330 48.465302 0.000000
8.985050 48.465302 0.000000
9.299772 48.465302 0.000000
9.614492 48.465302 0.000000
9.929214 48.465302 0.000000
10.243935 48.465302 0.000000
10.558655 48.465302 0.000000
10.873377 48.465302 0.000000
11.188097 48.465302 0.000000
11.502819 48.465302 0.000000
11.817539 48.465302 0.000000
12.132261 48.465302 0.000000
12.446981 48.465302 0.000000
12.761703 48.465302 0.000000
13.076424 48.465302 0.000000
13.391144 48.465302 0.000000
13.705866 48.465302 0.000000
14.020586 48.465302 0.000000
14.335308 48.465302 0.000000
14.650028 48.465302 0.000000
14.964750 48.465302 0.000000
15.279470 48.465302 0.000000
15.594193 48.465302 0.000000
15.908913 48.465302 0.000000
16.223633 48.465302 0.000000
16.538355 48.465302 0.000000
16.853075 48.465302 0.000000
17.167797 48.465302 0.000000
17.482517 48.465302 0.000000
17.797239 48.465302 0.000000
18.111959 48.465302 0.000000
18.426680 48.465302 0.000000
18.741402 48.465302 0.000000
-7.065720 48.150581 0.000000
-6.750999 48.150581 0.000000
-6.436278 48.150581 0.000000
-6.121557 48.150581 0.000000
-5.806836 48.150581 0.000000
-5.492115 48.150581 0.000000
-5.177394 48.150581 0.000000
-4.862673 48.150581 0.000000
-4.547952 48.150581 0.000000
-4.233231 48.150581 0.000000
-3.918510 48.150581 0.000000
-3.603789 48.150581 0.000000
-3.289068 48.150581 0.000000
-2.974347 48.150581 0.000000
-2.659626 48.150581 0.000000
-2.344905 48.150581 0.000000
-2.030184 48.150581 0.000000
-1.715463 48.150581 0.000000
-1.400742 48.150581 0.000000
-1.086021 48.150581 0.000000
-0.771300 48.150581 0.000000
-0.456579 48.150581 0.000000
-0.141859 48.150581 0.000000
0.172863 48.150581 0.000000
0.487584 48.150581 0.000000
0.802305 48.150581 0.000000
1.117026 48.150581 0.000000
1.431747 48.150581 0.000000
1.746467 48.150581 0.000000
2.061188 48.150581 0.000000
2.375909 48.150581 0.000000
2.690630 48.150581 0.000000
3.005352 48.150581 0.000000
3.320073 48.150581 0.000000
3.634794 48.150581 0.000000
3.949515 48.150581 0.000000
4.264236 48.150581 0.000000
4.578956 48.150581 0.000000
4.893677 48.150581 0.000000
5.208398 48.150581 0.000000
5.523119 48.150581 0.000000
5.837841 48.150581 0.000000
6.152562 48.150581 0.000000
6.467283 48.150581 0.000000
6.782003 48.150581 0.000000
7.096724 48.150581 0.000000
7.411445 48.150581 0.000000
7.726166 48.150581 0.000000
8.040888 48.150581 0.000000
8.355608 48.150581 0.000000
8.670330 48.150581 0.000000
8.985050 48.150581 0.000000
9.299772 48.150581 0.000000
9.614492 48.150581 0.000000
9.929214 48.150581 0.000000
10.243935 48.150581 0.000000
10.558655 48.150581 0.000000
10.873377 48.150581 0.000000
11.188097 48.150581 0.000000
11.502819 48.150581 0.000000
11.817539 48.150581 0.000000
12.132261 48.150581 0.000000
12.446981 48.150581 0.000000
12.761703 48.150581 0.000000
13.076424 48.150581 0.000000
13.391144 48.150581 0.000000
13.705866 48.150581 0.000000
14.020586 48.150581 0.000000
14.335308 48.150581 0.000000
14.650028 48.150581 0.000000
14.964750 48.150581 0.000000
15.279470 48.150581 0.000000
15.594193 48.150581 0.000000
15.908913 48.150581 0.000000
16.223633 48.150581 0.000000
16.538355 48.150581 0.000000
16.853075 48.150581 0.000000
17.167797 48.150581 0.000000
17.482517 48.150581 0.000000
17.797239 48.150581 0.000000
18.111959 48.150581 0.000000
18.426680 48.150581 0.000000
18.741402 48.150581 0.000000
-7.065720 47.835861 0.000000
-6.750999 47.835861 0.000000
-6.436278 47.835861 0.000000
-6.121557 47.835861 0.000000
-5.806836 47.835861 0.000000
-5.492115 47.835861 0.000000
-5.177394 47.835861 0.000000
-4.862673 47.835861 0.000000
-4.547952 47.835861 0.000000
-4.233231 47.835861 0.000000
-3.918510 47.835861 0.000000
-3.603789 47.835861 0.000000
-3.289068 47.835861 0.000000
-2.974347 47.835861 0.000000
-2.659626 47.835861 0.000000
-2.344905 47.835861 0.000000
-2.030184 47.835861 0.000000
-1.715463 47.835861 0.000000
-1.400742 47.835861 0.000000
-1.086021 47.835861 0.000000
-0.771300 47.835861 0.000000
-0.456579 47.835861 0.000000
-0.141859 47.835861 0.000000
0.172863 47.835861 0.000000
0.487584 47.835861 0.000000
0.802305 47.835861 0.000000
1.117026 47.835861 0.000000
1.431747 47.835861 0.000000
1.746467 47.835861 0.000000
2.061188 47.835861 0.000000
2.375909 47.835861 0.000000
2.690630 47.835861 0.000000
3.005352 47.835861 0.000000
3.320073 47.835861 0.000000
3.634794 47.835861 0.000000
3.949515 47.835861 0.000000
4.264236 47.835861 0.000000
4.578956 47.835861 0.000000
4.893677 47.835861 0.000000
5.208398 47.835861 0.000000
5.523119 47.835861 0.000000
5.837841 47.835861 0.000000
6.152562 47.835861 0.000000
6.467283 47.835861 0.000000
6.782003 47.835861 0.000000
7.096724 47.835861 0.000000
7.411445 47.835861 0.000000
7.726166 47.835861 0.000000
8.040888 47.835861 0.000000
8.355608 47.835861 0.000000
8.670330 47.835861 0.000000
8.985050 47.835861 0.000000
9.299772 47.835861 0.000000
9.614492 47.835861 0.000000
9.929214 47.835861 0.000000
10.243935 47.835861 0.000000
10.558655 47.835861 -0.682806
10.873377 47.835861 -0.162422
11.188097 47.835861 -1.126906
11.502819 47.835861 1.014474
11.817539 47.835861 1.579774
12.132261 47.835861 0.573597
12.446981 47.835861 0.963880
12.761703 47.835861 0.888896
13.076424 47.835861 0.733656
13.391144 47.835861 -0.021911
13.705866 47.835861 -0.075563
14.020586 47.835861 -0.402912
14.335308 47.835861 0.075170
14.650028 47.835861 0.235814
14.964750 47.835861 -0.001955
15.279470 47.835861 0.018606
15.594193 47.835861 -0.191734
15.908913 47.835861 -0.633128
16.223633 47.835861 -0.611793
16.538355 47.835861 0.035074
16.853075 47.835861 -0.070051
17.167797 47.835861 -0.073410
17.482517 47.835861 0.118144
17.797239 47.835861 -0.148159
18.111959 47.835861 -0.339270
18.426680 47.835861 -0.398131
18.741402 47.835861 -0.727327
-7.065720 47.521137 0.000000
-6.750999 47.521137 0.000000
-6.436278 47.521137 0.000322
-6.121557 47.521137 -0.000052
-5.806836 47.521137 -0.000206
-5.492115 47.521137 -0.000541
-5.177394 47.521137 -0.000868
-4.862673 47.521137 -0.000605
-4.547952 47.521137 -0.000565
-4.233231 47.521137 -0.001440
-3.918510 47.521137 -0.001823
-3.603789 47.521137 -0.000982
-3.289068 47.521137 -0.001054
-2.974347 47.521137 -0.001076
-2.659626 47.521137 -0.000659
-2.344905 47.521137 -0.000413
-2.030184 47.521137 0.000000
-1.715463 47.521137 0.000000
-1.400742 47.521137 0.000000
-1.086021 47.521137 0.000000
-0.771300 47.521137 0.000000
-0.456579 47.521137 0.000000
-0.141859 47.521137 0.000000
0.172863 47.521137 0.000000
0.487584 47.521137 0.000000
0.802305 47.521137 0.000000
1.117026 47.521137 0.000000
1.431747 47.521137 0.000000
1.746467 47.521137 0.000000
2.061188 47.521137 0.000000
2.375909 47.521137 0.000000
2.690630 47.521137 0.000000
3.005352 47.521137 0.000000
3.320073 47.521137 0.000000
3.634794 47.521137 0.000000
3.949515 47.521137 0.000000
4.264236 47.521137 0.000000
4.578956 47.521137 0.000000
4.893677 47.521137 0.000000
5.208398 47.521137 0.000000
5.523119 47.521137 0.000000
5.837841 47.521137 0.000000
6.152562 47.521137 0.000000
6.467283 47.521137 0.000000
6.782003 47.521137 0.000000
7.096724 47.521137 0.186572
7.411445 47.521137 0.544922
7.726166 47.521137 0.299758
8.040888 47.521137 0.192554
8.355608 47.521137 0.206165
8.670330 47.521137 0.256149
8.985050 47.521137 0.298526
9.299772 47.521137 0.270906
9.614492 47.521137 0.332428
9.929214 47.521137 0.352353
10.243935 47.521137 0.425855
10.558655 47.521137 0.399501
10.873377 47.521137 0.357433
11.188097 47.521137 0.440331
11.502819 47.521137 0.463562
11.817539 47.521137 0.495377
12.132261 47.521137 0.541909
12.446981 47.521137 0.603839
12.761703 47.521137 0.639790
13.076424 47.521137 0.679944
13.391144 47.521137 0.679693
13.705866 47.521137 0.710632
14.020586 47.521137 0.724464
14.335308 47.521137 0.717274
14.650028 47.521137 0.676476
14.964750 47.521137 0.615045
15.279470 47.521137 0.539745
15.594193 47.521137 0.458113
15.908913 47.521137 0.348110
16.223633 47.521137 0.234113
16.538355 47.521137 0.120873
16.853075 47.521137 0.013760
17.167797 47.521137 -0.068068
17.482517 47.521137 -0.144914
17.797239 47.521137 -0.199460
18.111959 47.521137 -0.220209
18.426680 47.521137 -0.239026
18.741402 47.521137 -0.154018
-7.065720 47.206417 0.000000
-6.750999 47.206417 0.000000
-6.436278 47.206417 0.002763
-6.121557 47.206417 0.002755
-5.806836 47.206417 0.002711
-5.492115 47.206417 0.002798
-5.177394 47.206417 0.002845
-4.862673 47.206417 0.002677
-4.547952 47.206417 0.002596
-4.233231 47.206417 0.002745
-3.918510 47.206417 0.002880
-3.603789 47.206417 0.003034
-3.289068 47.206417 0.003001
-2.974347 47.206417 0.002883
-2.659626 47.206417 0.002618
-2.344905 47.206417 0.002476
-2.030184 47.206417 0.002537
-1.715463 47.206417 0.002719
-1.400742 47.206417 0.002789
-1.086021 47.206417 0.002782
-0.771300 47.206417 0.002897
-0.456579 47.206417 0.002886
-0.141859 47.206417 0.002654
0.172863 47.206417 0.002411
0.487584 47.206417 0.002314
0.802305 47.206417 0.002467
1.117026 47.206417 0.002629
1.431747 47.206417 0.002849
1.746467 47.206417 0.002965
2.061188 47.206417 0.002879
2.375909 47.206417 0.002911
2.690630 47.206417 0.003173
3.005352 47.206417 0.003424
3.320073 47.206417 0.003323
3.634794 47.206417 0.003140
3.949515 47.206417 0.002990
4.264236 47.206417 0.002890
4.578956 47.206417 0.002899
4.893677 47.206417 0.002933
5.208398 47.206417 0.003004
5.523119 47.206417 0.003267
5.837841 47.206417 0.003887
6.152562 47.206417 0.004984
6.467283 47.206417 0.006607
6.782003 47.206417 0.009319
7.096724 47.206417 0.013291
7.411445 47.206417 0.021259
7.726166 47.206417 0.032985
8.040888 47.206417 0.058375
8.355608 47.206417 0.097970
8.670330 47.206417 0.159965
8.985050 47.206417 0.233869
9.299772 47.206417 0.312307
9.614492 47.206417 0.414660
9.929214 47.206417 0.515311
10.243935 47.206417 0.625190
10.558655 47.206417 0.745599
10.873377 47.206417 0.853751
11.188097 47.206417 0.942181
11.502819 47.206417 1.030107
11.817539 47.206417 1.098894
12.132261 47.206417 1.151632
12.446981 47.206417 1.194469
12.761703 47.206417 1.218684
13.076424 47.206417 1.226647
13.391144 47.206417 1.211711
13.705866 47.206417 1.193426
14.020586 47.206417 1.138990
14.335308 47.206417 1.070719
14.650028 47.206417 0.988366
14.964750 47.206417 0.875381
15.279470 47.206417 0.753491
15.594193 47.206417 0.629958
15.908913 47.206417 0.484166
16.223633 47.206417 0.324086
16.538355 47.206417 0.186720
16.853075 47.206417 0.041183
17.167797 47.206417 -0.084471
17.482517 47.206417 -0.198468
17.797239 47.206417 -0.300151
18.111959 47.206417 -0.407295
18.426680 47.206417 -0.482833
18.741402 47.206417 -0.218686
-7.065720 46.891697 0.000000
-6.750999 46.891697 0.000000
-6.436278 46.891697 0.002834
-6.121557 46.891697 0.002772
-5.806836 46.891697 0.002752
-5.492115 46.891697 0.002831
-5.177394 46.891697 0.002878
-4.862673 46.891697 0.002738
-4.547952 46.891697 0.002682
-4.233231 46.891697 0.002774
-3.918510 46.891697 0.002851
-3.603789 46.891697 0.002871
-3.289068 46.891697 0.002915
-2.974347 46.891697 0.002827
-2.659626 46.891697 0.002632
-2.344905 46.891697 0.002529
-2.030184 46.891697 0.002555
-1.715463 46.891697 0.002695
-1.400742 46.891697 0.002758
-1.086021 46.891697 0.002782
-0.771300 46.891697 0.002898
-0.456579 46.891697 0.002836
-0.141859 46.891697 0.002667
0.172863 46.891697 0.002461
0.487584 46.891697 0.002375
0.802305 46.891697 0.002464
1.117026 46.891697 0.002566
1.431747 46.891697 0.002689
1.746467 46.891697 0.002722
2.061188 46.891697 0.002673
2.375909 46.891697 0.002803
2.690630 46.891697 0.003066
3.005352 46.891697 0.003210
3.320073 46.891697 0.003140
3.634794 46.891697 0.003060
3.949515 46.891697 0.002910
4.264236 46.891697 0.002793
4.578956 46.891697 0.002748
4.893677 46.891697 0.002797
5.208398 46.891697 0.002975
5.523119 46.891697 0.003238
5.837841 46.891697 0.003676
6.152562 46.891697 0.004722
6.467283 46.891697 0.006096
6.782003 46.891697 0.008883
7.096724 46.891697 0.011249
7.411445 46.891697 0.019670
7.726166 46.891697 0.031416
8.040888 46.891697 0.056636
8.355608 46.891697 0.094980
8.670330 46.891697 0.153347
8.985050 46.891697 0.229205
9.299772 46.891697 0.311186
9.614492 46.891697 0.404063
9.929214 46.891697 0.504800
10.243935 46.891697 0.613011
10.558655 46.891697 0.740691
10.873377 46.891697 0.839965
11.188097 46.891697 0.938034
11.502819 46.891697 1.026077
11.817539 46.891697 1.100368
12.132261 46.891697 1.154394
12.446981 46.891697 1.194560
12.761703 46.891697 1.207215
13.076424 46.891697 1.212396
13.391144 46.891697 1.192557
13.705866 46.891697 1.181959
14.020586 46.891697 1.132130
14.335308 46.891697 1.061779
14.650028 46.891697 0.976195
14.964750 46.891697 0.864093
15.279470 46.891697 0.741189
15.594193 46.891697 0.614007
15.908913 46.891697 0.473222
16.223633 46.891697 0.324141
16.538355 46.891697 0.171358
16.853075 46.891697 0.035345
17.167797 46.891697 -0.097841
17.482517 46.891697 -0.211586
17.797239 46.891697 -0.328491
18.111959 46.891697 -0.427143
18.426680 46.891697 -0.509520
18.741402 46.891697 -0.193180
-7.065720 46.576977 0.000000
-6.750999 46.576977 0.000000
-6.436278 46.576977 0.002864
-6.121557 46.576977 0.002846
-5.806836 46.576977 0.002856
-5.492115 46.576977 0.002908
-5.177394 46.576977 0.002921
-4.862673 46.576977 0.002818
-4.547952 46.576977 0.002750
-4.233231 46.576977 0.002761
-3.918510 46.576977 0.002816
-3.603789 46.576977 0.002809
-3.289068 46.576977 0.002860
-2.974347 46.576977 0.002794
-2.659626 46.576977 0.002668
-2.344905 46.576977 0.002622
-2.030184 46.576977 0.002627
-1.715463 46.576977 0.002728
-1.400742 46.576977 0.002751
-1.086021 46.576977 0.002811
-0.771300 46.576977 0.002926
-0.456579 46.576977 0.002877
-0.141859 46.576977 0.002706
0.172863 46.576977 0.002530
0.487584 46.576977 0.002471
0.802305 46.576977 0.002552
1.117026 46.576977 0.002575
1.431747 46.576977 0.002624
1.746467 46.576977 0.002568
2.061188 46.576977 0.002564
2.375909 46.576977 0.002757
2.690630 46.576977 0.002978
3.005352 46.576977 0.003042
3.320073 46.576977 0.003002
3.634794 46.576977 0.002933
3.949515 46.576977 0.002901
4.264236 46.576977 0.002802
4.578956 46.576977 0.002688
4.893677 46.576977 0.002779
5.208398 46.576977 0.002966
5.523119 46.576977 0.003327
5.837841 46.576977 0.003676
6.152562 46.576977 0.004506
6.467283 46.576977 0.005595
6.782003 46.576977 0.007787
7.096724 46.576977 0.011075
7.411445 46.576977 0.017069
7.726166 46.576977 0.030158
8.040888 46.576977 0.055351
8.355608 46.576977 0.092979
8.670330 46.576977 0.151415
8.985050 46.576977 0.224523
9.299772 46.576977 0.304540
9.614492 46.576977 0.395610
9.929214 46.576977 0.500081
10.243935 46.576977 0.610975
10.558655 46.576977 0.729138
10.873377 46.576977 0.834109
11.188097 46.576977 0.939252
11.502819 46.576977 1.021021
11.817539 46.576977 1.097906
12.132261 46.576977 1.145446
12.446981 46.576977 1.189632
12.761703 46.576977 1.209924
13.076424 46.576977 1.197820
13.391144 46.576977 1.179664
13.705866 46.576977 1.164046
14.020586 46.576977 1.111145
14.335308 46.576977 1.049754
14.650028 46.576977 0.966524
14.964750 46.576977 0.845038
15.279470 46.576977 0.725716
15.594193 46.576977 0.603956
15.908913 46.576977 0.459963
16.223633 46.576977 0.309917
16.538355 46.576977 0.166888
16.853075 46.576977 0.027747
17.167797 46.576977 -0.097441
17.482517 46.576977 -0.226310
17.797239 46.576977 -0.358546
18.111959 46.576977 -0.465871
18.426680 46.576977 -0.547618
18.741402 46.576977 -0.209911
-7.065720 46.262253 0.000000
-6.750999 46.262253 0.000000
-6.436278 46.262253 0.002908
-6.121557 46.262253 0.002935
-5.806836 46.262253 0.002957
-5.492115 46.262253 0.002973
-5.177394 46.262253 0.002974
-4.862673 46.262253 0.002888
-4.547952 46.262253 0.002761
-4.233231 46.262253 0.002724
-3.918510 46.262253 0.002770
-3.603789 46.262253 0.002799
-3.289068 46.262253 0.002848
-2.974347 46.262253 0.002815
-2.659626 46.262253 0.002734
-2.344905 46.262253 0.002708
-2.030184 46.262253 0.002711
-1.715463 46.262253 0.002802
-1.400742 46.262253 0.002797
-1.086021 46.262253 0.002835
-0.771300 46.262253 0.002978
-0.456579 46.262253 0.002895
-0.141859 46.262253 0.002728
0.172863 46.262253 0.002596
0.487584 46.262253 0.002567
0.802305 46.262253 0.002668
1.117026 46.262253 0.002705
1.431747 46.262253 0.002667
1.746467 46.262253 0.002532
2.061188 46.262253 0.002535
2.375909 46.262253 0.002752
2.690630 46.262253 0.002892
3.005352 46.262253 0.002882
3.320073 46.262253 0.002851
3.634794 46.262253 0.002883
3.949515 46.262253 0.002957
4.264236 46.262253 0.002910
4.578956 46.262253 0.002784
4.893677 46.262253 0.002804
5.208398 46.262253 0.003006
5.523119 46.262253 0.003374
5.837841 46.262253 0.003880
6.152562 46.262253 0.004915
6.467283 46.262253 0.006292
6.782003 46.262253 0.008344
7.096724 46.262253 0.010738
7.411445 46.262253 0.016534
7.726166 46.262253 0.029856
8.040888 46.262253 0.051723
8.355608 46.262253 0.090107
8.670330 46.262253 0.143223
8.985050 46.262253 0.215830
9.299772 46.262253 0.299712
9.614492 46.262253 0.396832
9.929214 46.262253 0.504147
10.243935 46.262253 0.613647
10.558655 46.262253 0.725070
10.873377 46.262253 0.832322
11.188097 46.262253 0.935349
11.502819 46.262253 1.017956
11.817539 46.262253 1.095749
12.132261 46.262253 1.142322
12.446981 46.262253 1.190367
12.761703 46.262253 1.206347
13.076424 46.262253 1.203383
13.391144 46.262253 1.180654
13.705866 46.262253 1.157658
14.020586 46.262253 1.112558
14.335308 46.262253 1.045092
14.650028 46.262253 0.957213
14.964750 46.262253 0.851266
15.279470 46.262253 0.729359
15.594193 46.262253 0.603278
15.908913 46.262253 0.452307
16.223633 46.262253 0.306265
16.538355 46.262253 0.162142
16.853075 46.262253 0.032811
17.167797 46.262253 -0.102976
17.482517 46.262253 -0.251414
17.797239 46.262253 -0.367344
18.111959 46.262253 -0.455999
18.426680 46.262253 -0.544076
18.741402 46.262253 -0.219344
-7.065720 45.947533 0.000000
-6.750999 45.947533 0.000000
-6.436278 45.947533 0.002988
-6.121557 45.947533 0.002992
-5.806836 45.947533 0.002985
-5.492115 45.947533 0.002995
-5.177394 45.947533 0.003014
-4.862673 45.947533 0.002939
-4.547952 45.947533 0.002783
-4.233231 45.947533 0.002707
-3.918510 45.947533 0.002725
-3.603789 45.947533 0.002757
-3.289068 45.947533 0.002794
-2.974347 45.947533 0.002768
-2.659626 45.947533 0.002753
-2.344905 45.947533 0.002754
-2.030184 45.947533 0.002748
-1.715463 45.947533 0.002800
-1.400742 45.947533 0.002792
-1.086021 45.947533 0.002851
-0.771300 45.947533 0.002993
-0.456579 45.947533 0.002890
-0.141859 45.947533 0.002713
0.172863 45.947533 0.002643
0.487584 45.947533 0.002650
0.802305 45.947533 0.002802
1.117026 45.947533 0.002859
1.431747 45.947533 0.002794
1.746467 45.947533 0.002543
2.061188 45.947533 0.002571
2.375909 45.947533 0.002748
2.690630 45.947533 0.002791
3.005352 45.947533 0.002733
3.320073 45.947533 0.002748
3.634794 45.947533 0.002855
3.949515 45.947533 0.003011
4.264236 45.947533 0.003049
4.578956 45.947533 0.002940
4.893677 45.947533 0.002921
5.208398 45.947533 0.003099
5.523119 45.947533 0.003385
5.837841 45.947533 0.004136
6.152562 45.947533 0.005307
6.467283 45.947533 0.006521
6.782003 45.947533 0.008139
7.096724 45.947533 0.010875
7.411445 45.947533 0.017800
7.726166 45.947533 0.028028
8.040888 45.947533 0.049283
8.355608 45.947533 0.090194
8.670330 45.947533 0.145007
8.985050 45.947533 0.216849
9.299772 45.947533 0.303039
9.614492 45.947533 0.402950
9.929214 45.947533 0.507293
10.243935 45.947533 0.618479
10.558655 45.947533 0.728684
10.873377 45.947533 0.846669
11.188097 45.947533 0.940833
11.502819 45.947533 1.021270
11.817539 45.947533 1.088087
12.132261 45.947533 1.142999
12.446981 45.947533 1.188705
12.761703 45.947533 1.212481
13.076424 45.947533 1.212209
13.391144 45.947533 1.198462
13.705866 45.947533 1.163762
14.020586 45.947533 1.111607
14.335308 45.947533 1.049657
14.650028 45.947533 0.959087
14.964750 45.947533 0.848947
15.279470 45.947533 0.726345
15.594193 45.947533 0.599378
15.908913 45.947533 0.454565
16.223633 45.947533 0.310476
16.538355 45.947533 0.172294
16.853075 45.947533 0.036754
17.167797 45.947533 -0.093513
17.482517 45.947533 -0.253055
17.797239 45.947533 -0.375916
18.111959 45.947533 -0.469932
18.426680 45.947533 -0.486517
18.741402 45.947533 -0.179194
-7.065720 45.632813 0.000000
-6.750999 45.632813 0.000000
-6.436278 45.632813 0.003078
-6.121557 45.632813 0.003024
-5.806836 45.632813 0.002979
-5.492115 45.632813 0.002984
-5.177394 45.632813 0.003058
-4.862673 45.632813 0.002988
-4.547952 45.632813 0.002821
-4.233231 45.632813 0.002718
-3.918510 45.632813 0.002702
-3.603789 45.632813 0.002721
-3.289068 45.632813 0.002698
-2.974347 45.632813 0.002662
-2.659626 45.632813 0.002727
-2.344905 45.632813 0.002762
-2.030184 45.632813 0.002737
-1.715463 45.632813 0.002754
-1.400742 45.632813 0.002745
-1.086021 45.632813 0.002848
-0.771300 45.632813 0.002948
-0.456579 45.632813 0.002806
-0.141859 45.632813 0.002667
0.172863 45.632813 0.002690
0.487584 45.632813 0.002695
0.802305 45.632813 0.002854
1.117026 45.632813 0.002956
1.431747 45.632813 0.002872
1.746467 45.632813 0.002615
2.061188 45.632813 0.002613
2.375909 45.632813 0.002700
2.690630 45.632813 0.002681
3.005352 45.632813 0.002630
3.320073 45.632813 0.002673
3.634794 45.632813 0.002829
3.949515 45.632813 0.003064
4.264236 45.632813 0.003161
4.578956 45.632813 0.003054
4.893677 45.632813 0.003052
5.208398 45.632813 0.003177
5.523119 45.632813 0.003504
5.837841 45.632813 0.004117
6.152562 45.632813 0.005612
6.467283 45.632813 0.006698
6.782003 45.632813 0.008778
7.096724 45.632813 0.011855
7.411445 45.632813 0.017884
7.726166 45.632813 0.029306
8.040888 45.632813 0.050748
8.355608 45.632813 0.088255
8.670330 45.632813 0.143613
8.985050 45.632813 0.217289
9.299772 45.632813 0.303112
9.614492 45.632813 0.400056
9.929214 45.632813 0.505355
10.243935 45.632813 0.623180
10.558655 45.632813 0.740184
10.873377 45.632813 0.851023
11.188097 45.632813 0.950429
11.502819 45.632813 1.035028
11.817539 45.632813 1.092401
12.132261 45.632813 1.140093
12.446981 45.632813 1.182709
12.761703 45.632813 1.218192
13.076424 45.632813 1.224847
13.391144 45.632813 1.206506
13.705866 45.632813 1.162731
14.020586 45.632813 1.118823
14.335308 45.632813 1.054196
14.650028 45.632813 0.958754
14.964750 45.632813 0.849993
15.279470 45.632813 0.725846
15.594193 45.632813 0.592834
15.908913 45.632813 0.462849
16.223633 45.632813 0.321494
16.538355 45.632813 0.196720
16.853075 45.632813 0.059603
17.167797 45.632813 -0.077404
17.482517 45.632813 -0.249238
17.797239 45.632813 -0.393767
18.111959 45.632813 -0.468797
18.426680 45.632813 -0.511999
18.741402 45.632813 -0.146480
-7.065720 45.318092 0.000000
-6.750999 45.318092 0.000000
-6.436278 45.318092 0.003184
-6.121557 45.318092 0.003077
-5.806836 45.318092 0.002963
-5.492115 45.318092 0.002945
-5.177394 45.318092 0.003064
-4.862673 45.318092 0.003026
-4.547952 45.318092 0.002876
-4.233231 45.318092 0.002797
-3.918510 45.318092 0.002725
-3.603789 45.318092 0.002712
-3.289068 45.318092 0.002617
-2.974347 45.318092 0.002592
-2.659626 45.318092 0.002714
-2.344905 45.318092 0.002778
-2.030184 45.318092 0.002734
-1.715463 45.318092 0.002697
-1.400742 45.318092 0.002713
-1.086021 45.318092 0.002838
-0.771300 45.318092 0.002843
-0.456579 45.318092 0.002660
-0.141859 45.318092 0.002598
0.172863 45.318092 0.002701
0.487584 45.318092 0.002669
0.802305 45.318092 0.002845
1.117026 45.318092 0.002934
1.431747 45.318092 0.002834
1.746467 45.318092 0.002647
2.061188 45.318092 0.002643
2.375909 45.318092 0.002655
2.690630 45.318092 0.002569
3.005352 45.318092 0.002553
3.320073 45.318092 0.002641
3.634794 45.318092 0.002801
3.949515 45.318092 0.003063
4.264236 45.318092 0.003209
4.578956 45.318092 0.003222
4.893677 45.318092 0.003125
5.208398 45.318092 0.003186
5.523119 45.318092 0.003271
5.837841 45.318092 0.004075
6.152562 45.318092 0.005299
6.467283 45.318092 0.006622
6.782003 45.318092 0.008812
7.096724 45.318092 0.012120
7.411445 45.318092 0.018559
7.726166 45.318092 0.030191
8.040888 45.318092 0.049631
8.355608 45.318092 0.084470
8.670330 45.318092 0.140381
8.985050 45.318092 0.216078
9.299772 45.318092 0.296740
9.614492 45.318092 0.394295
9.929214 45.318092 0.507766
10.243935 45.318092 0.629687
10.558655 45.318092 0.744254
10.873377 45.318092 0.852496
11.188097 45.318092 0.953291
11.502819 45.318092 1.032842
11.817539 45.318092 1.093547
12.132261 45.318092 1.142647
12.446981 45.318092 1.185632
12.761703 45.318092 1.216972
13.076424 45.318092 1.228962
13.391144 45.318092 1.207831
13.705866 45.318092 1.170503
14.020586 45.318092 1.110210
14.335308 45.318092 1.049308
14.650028 45.318092 0.964082
14.964750 45.318092 0.847918
15.279470 45.318092 0.726130
15.594193 45.318092 0.599639
15.908913 45.318092 0.463039
16.223633 45.318092 0.339124
16.538355 45.318092 0.225658
16.853075 45.318092 0.098214
17.167797 45.318092 -0.050151
17.482517 45.318092 -0.235977
17.797239 45.318092 -0.379348
18.111959 45.318092 -0.443511
18.426680 45.318092 -0.520458
18.741402 45.318092 -0.180316
-7.065720 45.003372 0.000000
-6.750999 45.003372 0.000000
-6.436278 45.003372 0.003272
-6.121557 45.003372 0.003169
-5.806836 45.003372 0.002974
-5.492115 45.003372 0.002893
-5.177394 45.003372 0.003015
-4.862673 45.003372 0.003026
-4.547952 45.003372 0.002933
-4.233231 45.003372 0.002906
-3.918510 45.003372 0.002827
-3.603789 45.003372 0.002741
-3.289068 45.003372 0.002591
-2.974347 45.003372 0.002578
-2.659626 45.003372 0.002710
-2.344905 45.003372 0.002788
-2.030184 45.003372 0.002748
-1.715463 45.003372 0.002690
-1.400742 45.003372 0.002758
-1.086021 45.003372 0.002861
-0.771300 45.003372 0.002748
-0.456579 45.003372 0.002568
-0.141859 45.003372 0.002564
0.172863 45.003372 0.002689
0.487584 45.003372 0.002636
0.802305 45.003372 0.002711
1.117026 45.003372 0.002822
1.431747 45.003372 0.002763
1.746467 45.003372 0.002631
2.061188 45.003372 0.002666
2.375909 45.003372 0.002631
2.690630 45.003372 0.002506
3.005352 45.003372 0.002495
3.320073 45.003372 0.002591
3.634794 45.003372 0.002727
3.949515 45.003372 0.002952
4.264236 45.003372 0.003131
4.578956 45.003372 0.003242
4.893677 45.003372 0.003242
5.208398 45.003372 0.003101
5.523119 45.003372 0.003171
5.837841 45.003372 0.003795
6.152562 45.003372 0.004873
6.467283 45.003372 0.006642
6.782003 45.003372 0.008581
7.096724 45.003372 0.011356
7.411445 45.003372 0.018820
7.726166 45.003372 0.030727
8.040888 45.003372 0.049132
8.355608 45.003372 0.084224
8.670330 45.003372 0.142385
8.985050 45.003372 0.218492
9.299772 45.003372 0.299158
9.614492 45.003372 0.390930
9.929214 45.003372 0.502091
10.243935 45.003372 0.625306
10.558655 45.003372 0.736865
10.873377 45.003372 0.858519
11.188097 45.003372 0.958170
11.502819 45.003372 1.033644
11.817539 45.003372 1.098731
12.132261 45.003372 1.148703
12.446981 45.003372 1.194238
12.761703 45.003372 1.225375
13.076424 45.003372 1.228993
13.391144 45.003372 1.211505
13.705866 45.003372 1.172782
14.020586 45.003372 1.125505
14.335308 45.003372 1.053826
14.650028 45.003372 0.963073
14.964750 45.003372 0.848326
15.279470 45.003372 0.733717
15.594193 45.003372 0.604511
15.908913 45.003372 0.474541
16.223633 45.003372 0.358605
16.538355 45.003372 0.257032
16.853075 45.003372 0.145575
17.167797 45.003372 -0.027380
17.482517 45.003372 -0.230345
17.797239 45.003372 -0.377639
18.111959 45.003372 -0.418185
18.426680 45.003372 -0.465814
18.741402 45.003372 -0.171622
-7.065720 44.688648 0.000000
-6.750999 44.688648 0.000000
-6.436278 44.688648 0.003337
-6.121557 44.688648 0.003246
-5.806836 44.688648 0.003038
-5.492115 44.688648 0.002870
-5.177394 44.688648 0.002943
-4.862673 44.688648 0.002993
-4.547952 44.688648 0.002980
-4.233231 44.688648 0.003001
-3.918510 44.688648 0.002956
-3.603789 44.688648 0.002829
-3.289068 44.688648 0.002667
-2.974347 44.688648 0.002647
-2.659626 44.688648 0.002748
-2.344905 44.688648 0.002790
-2.030184 44.688648 0.002747
-1.715463 44.688648 0.002699
-1.400742 44.688648 0.002793
-1.086021 44.688648 0.002836
-0.771300 44.688648 0.002666
-0.456579 44.688648 0.002534
-0.141859 44.688648 0.002631
0.172863 44.688648 0.002744
0.487584 44.688648 0.002622
0.802305 44.688648 0.002568
1.117026 44.688648 0.002626
1.431747 44.688648 0.002625
1.746467 44.688648 0.002599
2.061188 44.688648 0.002683
2.375909 44.688648 0.002652
2.690630 44.688648 0.002532
3.005352 44.688648 0.002511
3.320073 44.688648 0.002569
3.634794 44.688648 0.002705
3.949515 44.688648 0.002839
4.264236 44.688648 0.003060
4.578956 44.688648 0.003343
4.893677 44.688648 0.003342
5.208398 44.688648 0.003243
5.523119 44.688648 0.003288
5.837841 44.688648 0.003590
6.152562 44.688648 0.004604
6.467283 44.688648 0.006062
6.782003 44.688648 0.008145
7.096724 44.688648 0.011743
7.411445 44.688648 0.017976
7.726166 44.688648 0.029073
8.040888 44.688648 0.048335
8.355608 44.688648 0.085734
8.670330 44.688648 0.144889
8.985050 44.688648 0.215526
9.299772 44.688648 0.297054
9.614492 44.688648 0.395084
9.929214 44.688648 0.504049
10.243935 44.688648 0.620557
10.558655 44.688648 0.737856
10.873377 44.688648 0.865225
11.188097 44.688648 0.956076
11.502819 44.688648 1.033520
11.817539 44.688648 1.096303
12.132261 44.688648 1.158455
12.446981 44.688648 1.200428
12.761703 44.688648 1.221972
13.076424 44.688648 1.232222
13.391144 44.688648 1.210575
13.705866 44.688648 1.176814
14.020586 44.688648 1.130389
14.335308 44.688648 1.057327
14.650028 44.688648 0.962022
14.964750 44.688648 0.853197
15.279470 44.688648 0.736413
15.594193 44.688648 0.608686
15.908913 44.688648 0.477661
16.223633 44.688648 0.372503
16.538355 44.688648 0.282905
16.853075 44.688648 0.198436
17.167797 44.688648 0.006647
17.482517 44.688648 -0.207866
17.797239 44.688648 -0.355438
18.111959 44.688648 -0.431523
18.426680 44.688648 -0.495221
18.741402 44.688648 -0.148972
-7.065720 44.373928 0.000000
-6.750999 44.373928 0.000000
-6.436278 44.373928 0.003415
-6.121557 44.373928 0.003362
-5.806836 44.373928 0.003114
-5.492115 44.373928 0.002871
-5.177394 44.373928 0.002886
-4.862673 44.373928 0.002980
-4.547952 44.373928 0.003031
-4.233231 44.373928 0.003060
-3.918510 44.373928 0.003055
-3.603789 44.373928 0.002935
-3.289068 44.373928 0.002767
-2.974347 44.373928 0.002756
-2.659626 44.373928 0.002810
-2.344905 44.373928 0.002829
-2.030184 44.373928 0.002799
-1.715463 44.373928 0.002753
-1.400742 44.373928 0.002804
-1.086021 44.373928 0.002814
-0.771300 44.373928 0.002621
-0.456579 44.373928 0.002605
-0.141859 44.373928 0.002742
0.172863 44.373928 0.002822
0.487584 44.373928 0.002654
0.802305 44.373928 0.002462
1.117026 44.373928 0.002453
1.431747 44.373928 0.002511
1.746467 44.373928 0.002586
2.061188 44.373928 0.002708
2.375909 44.373928 0.002747
2.690630 44.373928 0.002659
3.005352 44.373928 0.002616
3.320073 44.373928 0.002620
3.634794 44.373928 0.002659
3.949515 44.373928 0.002740
4.264236 44.373928 0.003013
4.578956 44.373928 0.003310
4.893677 44.373928 0.003380
5.208398 44.373928 0.003268
5.523119 44.373928 0.003291
5.837841 44.373928 0.003855
6.152562 44.373928 0.004590
6.467283 44.373928 0.005466
6.782003 44.373928 0.008385
7.096724 44.373928 0.012683
7.411445 44.373928 0.017678
7.726166 44.373928 0.028943
8.040888 44.373928 0.048135
8.355608 44.373928 0.083856
8.670330 44.373928 0.144632
8.985050 44.373928 0.215171
9.299772 44.373928 0.302810
9.614492 44.373928 0.396828
9.929214 44.373928 0.505158
10.243935 44.373928 0.624008
10.558655 44.373928 0.745006
10.873377 44.373928 0.865787
11.188097 44.373928 0.960198
11.502819 44.373928 1.039110
11.817539 44.373928 1.100999
12.132261 44.373928 1.150815
12.446981 44.373928 1.198719
12.761703 44.373928 1.217624
13.076424 44.373928 1.234411
13.391144 44.373928 1.217226
13.705866 44.373928 1.180383
14.020586 44.373928 1.126685
14.335308 44.373928 1.057299
14.650028 44.373928 0.976947
14.964750 44.373928 0.869284
15.279470 44.373928 0.742736
15.594193 44.373928 0.613323
15.908913 44.373928 0.491496
16.223633 44.373928 0.380354
16.538355 44.373928 0.318009
16.853075 44.373928 0.251194
17.167797 44.373928 0.060195
17.482517 44.373928 -0.159130
17.797239 44.373928 -0.330228
18.111959 44.373928 -0.439737
18.426680 44.373928 -0.494415
18.741402 44.373928 -0.156803
-7.065720 44.059208 0.000000
-6.750999 44.059208 0.000000
-6.436278 44.059208 0.003427
-6.121557 44.059208 0.003418
-5.806836 44.059208 0.003173
-5.492115 44.059208 0.002832
-5.177394 44.059208 0.002812
-4.862673 44.059208 0.002982
-4.547952 44.059208 0.003073
-4.233231 44.059208 0.003095
-3.918510 44.059208 0.003087
-3.603789 44.059208 0.003011
-3.289068 44.059208 0.002898
-2.974347 44.059208 0.002843
-2.659626 44.059208 0.002828
-2.344905 44.059208 0.002833
-2.030184 44.059208 0.002817
-1.715463 44.059208 0.002759
-1.400742 44.059208 0.002808
-1.086021 44.059208 0.002768
-0.771300 44.059208 0.002647
-0.456579 44.059208 0.002716
-0.141859 44.059208 0.002870
0.172863 44.059208 0.002890
0.487584 44.059208 0.002709
0.802305 44.059208 0.002452
1.117026 44.059208 0.002398
1.431747 44.059208 0.002472
1.746467 44.059208 0.002575
2.061188 44.059208 0.002787
2.375909 44.059208 0.002903
2.690630 44.059208 0.002837
3.005352 44.059208 0.002756
3.320073 44.059208 0.002683
3.634794 44.059208 0.002619
3.949515 44.059208 0.002636
4.264236 44.059208 0.002875
4.578956 44.059208 0.003220
4.893677 44.059208 0.003371
5.208398 44.059208 0.003341
5.523119 44.059208 0.003435
5.837841 44.059208 0.004007
6.152562 44.059208 0.004621
6.467283 44.059208 0.005490
6.782003 44.059208 0.007998
7.096724 44.059208 0.011889
7.411445 44.059208 0.017494
7.726166 44.059208 0.027821
8.040888 44.059208 0.047633
8.355608 44.059208 0.088595
8.670330 44.059208 0.141031
8.985050 44.059208 0.212390
9.299772 44.059208 0.295295
9.614492 44.059208 0.396533
9.929214 44.059208 0.500129
10.243935 44.059208 0.623881
10.558655 44.059208 0.759330
10.873377 44.059208 0.872037
11.188097 44.059208 0.967940
11.502819 44.059208 1.032461
11.817539 44.059208 1.102983
12.132261 44.059208 1.148215
12.446981 44.059208 1.189465
12.761703 44.059208 1.218446
13.076424 44.059208 1.246721
13.391144 44.059208 1.236661
13.705866 44.059208 1.195198
14.020586 44.059208 1.131644
14.335308 44.059208 1.061587
14.650028 44.059208 0.979699
14.964750 44.059208 0.875471
15.279470 44.059208 0.748776
15.594193 44.059208 0.613477
15.908913 44.059208 0.490260
16.223633 44.059208 0.392332
16.538355 44.059208 0.335586
16.853075 44.059208 0.298372
17.167797 44.059208 0.126922
17.482517 44.059208 -0.133267
17.797239 44.059208 -0.361028
18.111959 44.059208 -0.448771
18.426680 44.059208 -0.525962
18.741402 44.059208 -0.155164
-7.065720 43.744488 0.000000
-6.750999 43.744488 0.000000
-6.436278 43.744488 0.003372
-6.121557 43.744488 0.003417
-5.806836 43.744488 0.003175
-5.492115 43.744488 0.002800
-5.177394 43.744488 0.002760
-4.862673 43.744488 0.002986
-4.547952 43.744488 0.003156
-4.233231 43.744488 0.003151
-3.918510 43.744488 0.003090
-3.603789 43.744488 0.002999
-3.289068 43.744488 0.002953
-2.974347 43.744488 0.002905
-2.659626 43.744488 0.002822
-2.344905 43.744488 0.002832
-2.030184 43.744488 0.002824
-1.715463 43.744488 0.002764
-1.400742 43.744488 0.002782
-1.086021 43.744488 0.002749
-0.771300 43.744488 0.002688
-0.456579 43.744488 0.002805
-0.141859 43.744488 0.002945
0.172863 43.744488 0.002930
0.487584 43.744488 0.002725
0.802305 43.744488 0.002486
1.117026 43.744488 0.002438
1.431747 43.744488 0.002484
1.746467 43.744488 0.002618
2.061188 43.744488 0.002859
2.375909 43.744488 0.003027
2.690630 43.744488 0.003010
3.005352 43.744488 0.002914
3.320073 43.744488 0.002734
3.634794 43.744488 0.002585
3.949515 43.744488 0.002564
4.264236 43.744488 0.002738
4.578956 43.744488 0.003027
4.893677 43.744488 0.003281
5.208398 43.744488 0.003378
5.523119 43.744488 0.003599
5.837841 43.744488 0.004031
6.152562 43.744488 0.004469
6.467283 43.744488 0.005710
6.782003 43.744488 0.007952
7.096724 43.744488 0.011230
7.411445 43.744488 0.017524
7.726166 43.744488 0.029478
8.040888 43.744488 0.050565
8.355608 43.744488 0.087472
8.670330 43.744488 0.138498
8.985050 43.744488 0.206364
9.299772 43.744488 0.296366
9.614492 43.744488 0.397898
9.929214 43.744488 0.502125
10.243935 43.744488 0.624008
10.558655 43.744488 0.765387
10.873377 43.744488 0.878259
11.188097 43.744488 0.970390
11.502819 43.744488 1.046381
11.817539 43.744488 1.108110
12.132261 43.744488 1.148220
12.446981 43.744488 1.193621
12.761703 43.744488 1.228725
13.076424 43.744488 1.255305
13.391144 43.744488 1.245048
13.705866 43.744488 1.197305
14.020586 43.744488 1.131272
14.335308 43.744488 1.054872
14.650028 43.744488 0.982835
14.964750 43.744488 0.879656
15.279470 43.744488 0.748486
15.594193 43.744488 0.614703
15.908913 43.744488 0.486668
16.223633 43.744488 0.385886
16.538355 43.744488 0.340513
16.853075 43.744488 0.302189
17.167797 43.744488 0.156320
17.482517 43.744488 -0.081034
17.797239 43.744488 -0.299500
18.111959 43.744488 -0.436729
18.426680 43.744488 -0.540147
18.741402 43.744488 -0.159769
-7.065720 43.429764 0.000000
-6.750999 43.429764 0.000000
-6.436278 43.429764 0.003296
-6.121557 43.429764 0.003382
-5.806836 43.429764 0.003172
-5.492115 43.429764 0.002791
-5.177394 43.429764 0.002753
-4.862673 43.429764 0.003036
-4.547952 43.429764 0.003203
-4.233231 43.429764 0.003161
-3.918510 43.429764 0.003033
-3.603789 43.429764 0.002968
-3.289068 43.429764 0.002968
-2.974347 43.429764 0.002949
-2.659626 43.429764 0.002834
-2.344905 43.429764 0.002850
-2.030184 43.429764 0.002891
-1.715463 43.429764 0.002829
-1.400742 43.429764 0.002806
-1.086021 43.429764 0.002766
-0.771300 43.429764 0.002747
-0.456579 43.429764 0.002858
-0.141859 43.429764 0.002949
0.172863 43.429764 0.002904
0.487584 43.429764 0.002748
0.802305 43.429764 0.002560
1.117026 43.429764 0.002508
1.431747 43.429764 0.002537
1.746467 43.429764 0.002664
2.061188 43.429764 0.002931
2.375909 43.429764 0.003097
2.690630 43.429764 0.003108
3.005352 43.429764 0.003048
3.320073 43.429764 0.002820
3.634794 43.429764 0.002626
3.949515 43.429764 0.002591
4.264236 43.429764 0.002700
4.578956 43.429764 0.002858
4.893677 43.429764 0.003141
5.208398 43.429764 0.003289
5.523119 43.429764 0.003637
5.837841 43.429764 0.003990
6.152562 43.429764 0.004575
6.467283 43.429764 0.005671
6.782003 43.429764 0.007848
7.096724 43.429764 0.011361
7.411445 43.429764 0.017524
7.726166 43.429764 0.028882
8.040888 43.429764 0.049785
8.355608 43.429764 0.085216
8.670330 43.429764 0.137212
8.985050 43.429764 0.211450
9.299772 43.429764 0.299265
9.614492 43.429764 0.398473
9.929214 43.429764 0.504578
10.243935 43.429764 0.623545
10.558655 43.429764 0.755965
10.873377 43.429764 0.883919
11.188097 43.429764 0.972733
11.502819 43.429764 1.053767
11.817539 43.429764 1.115419
12.132261 43.429764 1.156171
12.446981 43.429764 1.199127
12.761703 43.429764 1.233171
13.076424 43.429764 1.255944
13.391144 43.429764 1.245901
13.705866 43.429764 1.189161
14.020586 43.429764 1.122531
14.335308 43.429764 1.057144
14.650028 43.429764 0.990950
14.964750 43.429764 0.886379
15.279470 43.429764 0.750557
15.594193 43.429764 0.614464
15.908913 43.429764 0.476394
16.223633 43.429764 0.367266
16.538355 43.429764 0.306765
16.853075 43.429764 0.262253
17.167797 43.429764 0.170103
17.482517 43.429764 -0.052459
17.797239 43.429764 -0.247825
18.111959 43.429764 -0.429414
18.426680 43.429764 -0.520883
18.741402 43.429764 -0.132737
-7.065720 43.115044 0.000000
-6.750999 43.115044 0.000000
-6.436278 43.115044 0.003179
-6.121557 43.115044 0.003336
-5.806836 43.115044 0.003158
-5.492115 43.115044 0.002839
-5.177394 43.115044 0.002814
-4.862673 43.115044 0.003053
-4.547952 43.115044 0.003212
-4.233231 43.115044 0.003087
-3.918510 43.115044 0.002927
-3.603789 43.115044 0.002939
-3.289068 43.115044 0.002995
-2.974347 43.115044 0.002986
-2.659626 43.115044 0.002872
-2.344905 43.115044 0.002914
-2.030184 43.115044 0.002992
-1.715463 43.115044 0.002915
-1.400742 43.115044 0.002866
-1.086021 43.115044 0.002851
-0.771300 43.115044 0.002853
-0.456579 43.115044 0.002925
-0.141859 43.115044 0.002959
0.172863 43.115044 0.002918
0.487584 43.115044 0.002803
0.802305 43.115044 0.002649
1.117026 43.115044 0.002561
1.431747 43.115044 0.002580
1.746467 43.115044 0.002726
2.061188 43.115044 0.002923
2.375909 43.115044 0.003071
2.690630 43.115044 0.003093
3.005352 43.115044 0.003052
3.320073 43.115044 0.002897
3.634794 43.115044 0.002718
3.949515 43.115044 0.002751
4.264236 43.115044 0.002778
4.578956 43.115044 0.002730
4.893677 43.115044 0.002878
5.208398 43.115044 0.003303
5.523119 43.115044 0.003728
5.837841 43.115044 0.004062
6.152562 43.115044 0.004410
6.467283 43.115044 0.005732
6.782003 43.115044 0.007325
7.096724 43.115044 0.011565
7.411445 43.115044 0.018181
7.726166 43.115044 0.029681
8.040888 43.115044 0.047926
8.355608 43.115044 0.082623
8.670330 43.115044 0.135156
8.985050 43.115044 0.209806
9.299772 43.115044 0.295588
9.614492 43.115044 0.395829
9.929214 43.115044 0.501297
10.243935 43.115044 0.627498
10.558655 43.115044 0.758956
10.873377 43.115044 0.884181
11.188097 43.115044 0.982264
11.502819 43.115044 1.065057
11.817539 43.115044 1.123307
12.132261 43.115044 1.166002
12.446981 43.115044 1.212654
12.761703 43.115044 1.238978
13.076424 43.115044 1.262749
13.391144 43.115044 1.239013
13.705866 43.115044 1.182390
14.020586 43.115044 1.120149
14.335308 43.115044 1.061916
14.650028 43.115044 0.993144
14.964750 43.115044 0.890974
15.279470 43.115044 0.751462
15.594193 43.115044 0.615477
15.908913 43.115044 0.471110
16.223633 43.115044 0.340325
16.538355 43.115044 0.245676
16.853075 43.115044 0.170407
17.167797 43.115044 0.092891
17.482517 43.115044 -0.064879
17.797239 43.115044 -0.263257
18.111959 43.115044 -0.422861
18.426680 43.115044 -0.504761
18.741402 43.115044 -0.127012
-7.065720 42.800323 0.000000
-6.750999 42.800323 0.000000
-6.436278 42.800323 0.003065
-6.121557 42.800323 0.003249
-5.806836 42.800323 0.003115
-5.492115 42.800323 0.002946
-5.177394 42.800323 0.002986
-4.862673 42.800323 0.003136
-4.547952 42.800323 0.003199
-4.233231 42.800323 0.003016
-3.918510 42.800323 0.002888
-3.603789 42.800323 0.002932
-3.289068 42.800323 0.003016
-2.974347 42.800323 0.003006
-2.659626 42.800323 0.002914
-2.344905 42.800323 0.003030
-2.030184 42.800323 0.003114
-1.715463 42.800323 0.003000
-1.400742 42.800323 0.002922
-1.086021 42.800323 0.002962
-0.771300 42.800323 0.002970
-0.456579 42.800323 0.002958
-0.141859 42.800323 0.002930
0.172863 42.800323 0.002914
0.487584 42.800323 0.002880
0.802305 42.800323 0.002748
1.117026 42.800323 0.002638
1.431747 42.800323 0.002657
1.746467 42.800323 0.002739
2.061188 42.800323 0.002860
2.375909 42.800323 0.002961
2.690630 42.800323 0.002986
3.005352 42.800323 0.002992
3.320073 42.800323 0.002931
3.634794 42.800323 0.002840
3.949515 42.800323 0.002919
4.264236 42.800323 0.002915
4.578956 42.800323 0.002747
4.893677 42.800323 0.002823
5.208398 42.800323 0.003193
5.523119 42.800323 0.003784
5.837841 42.800323 0.004127
6.152562 42.800323 0.004494
6.467283 42.800323 0.005497
6.782003 42.800323 0.006745
7.096724 42.800323 0.010970
7.411445 42.800323 0.017981
7.726166 42.800323 0.029731
8.040888 42.800323 0.049606
8.355608 42.800323 0.083838
8.670330 42.800323 0.140138
8.985050 42.800323 0.211683
9.299772 42.800323 0.302949
9.614492 42.800323 0.392552
9.929214 42.800323 0.501196
10.243935 42.800323 0.631484
10.558655 42.800323 0.764702
10.873377 42.800323 0.882159
11.188097 42.800323 0.979454
11.502819 42.800323 1.064554
11.817539 42.800323 1.124301
12.132261 42.800323 1.169419
12.446981 42.800323 1.208657
12.761703 42.800323 1.249131
13.076424 42.800323 1.258009
13.391144 42.800323 1.236312
13.705866 42.800323 1.180971
14.020586 42.800323 1.129959
14.335308 42.800323 1.066850
14.650028 42.800323 0.999983
14.964750 42.800323 0.886945
15.279470 42.800323 0.750457
15.594193 42.800323 0.610437
15.908913 42.800323 0.453462
16.223633 42.800323 0.309837
16.538355 42.800323 0.186116
16.853075 42.800323 0.090710
17.167797 42.800323 0.023605
17.482517 42.800323 -0.106294
17.797239 42.800323 -0.274587
18.111959 42.800323 -0.401311
18.426680 42.800323 -0.496306
18.741402 42.800323 -0.081409
-7.065720 42.485603 0.000000
-6.750999 42.485603 0.000000
-6.436278 42.485603 0.002974
-6.121557 42.485603 0.003164
-5.806836 42.485603 0.003107
-5.492115 42.485603 0.003129
-5.177394 42.485603 0.003215
-4.862673 42.485603 0.003258
-4.547952 42.485603 0.003211
-4.233231 42.485603 0.003009
-3.918510 42.485603 0.002938
-3.603789 42.485603 0.003002
-3.289068 42.485603 0.003055
-2.974347 42.485603 0.003021
-2.659626 42.485603 0.003008
-2.344905 42.485603 0.003125
-2.030184 42.485603 0.003189
-1.715463 42.485603 0.003071
-1.400742 42.485603 0.002953
-1.086021 42.485603 0.003030
-0.771300 42.485603 0.003055
-0.456579 42.485603 0.002948
-0.141859 42.485603 0.002862
0.172863 42.485603 0.002890
0.487584 42.485603 0.002955
0.802305 42.485603 0.002873
1.117026 42.485603 0.002749
1.431747 42.485603 0.002746
1.746467 42.485603 0.002767
2.061188 42.485603 0.002809
2.375909 42.485603 0.002824
2.690630 42.485603 0.002846
3.005352 42.485603 0.002918
3.320073 42.485603 0.002951
3.634794 42.485603 0.002935
3.949515 42.485603 0.003044
4.264236 42.485603 0.002946
4.578956 42.485603 0.002698
4.893677 42.485603 0.002752
5.208398 42.485603 0.003261
5.523119 42.485603 0.003767
5.837841 42.485603 0.004251
6.152562 42.485603 0.004584
6.467283 42.485603 0.005200
6.782003 42.485603 0.007681
7.096724 42.485603 0.012049
7.411445 42.485603 0.018019
7.726166 42.485603 0.030580
8.040888 42.485603 0.049845
8.355608 42.485603 0.087039
8.670330 42.485603 0.144815
8.985050 42.485603 0.213303
9.299772 42.485603 0.304827
9.614492 42.485603 0.402085
9.929214 42.485603 0.507930
10.243935 42.485603 0.634436
10.558655 42.485603 0.756934
10.873377 42.485603 0.885903
11.188097 42.485603 0.983276
11.502819 42.485603 1.060928
11.817539 42.485603 1.119447
12.132261 42.485603 1.163714
12.446981 42.485603 1.215021
12.761703 42.485603 1.245899
13.076424 42.485603 1.251377
13.391144 42.485603 1.229174
13.705866 42.485603 1.182770
14.020586 42.485603 1.136076
14.335308 42.485603 1.072071
14.650028 42.485603 0.989858
14.964750 42.485603 0.878853
15.279470 42.485603 0.741286
15.594193 42.485603 0.594877
15.908913 42.485603 0.441655
16.223633 42.485603 0.291149
16.538355 42.485603 0.155173
16.853075 42.485603 0.053269
17.167797 42.485603 -0.018699
17.482517 42.485603 -0.146808
17.797239 42.485603 -0.311078
18.111959 42.485603 -0.480673
18.426680 42.485603 -0.527388
18.741402 42.485603 -0.121229
-7.065720 42.170883 0.000000
-6.750999 42.170883 0.000000
-6.436278 42.170883 0.002938
-6.121557 42.170883 0.003103
-5.806836 42.170883 0.003122
-5.492115 42.170883 0.003304
-5.177394 42.170883 0.003433
-4.862673 42.170883 0.003388
-4.547952 42.170883 0.003209
-4.233231 42.170883 0.003057
-3.918510 42.170883 0.003042
-3.603789 42.170883 0.003129
-3.289068 42.170883 0.003120
-2.974347 42.170883 0.003077
-2.659626 42.170883 0.003077
-2.344905 42.170883 0.003194
-2.030184 42.170883 0.003173
-1.715463 42.170883 0.003057
-1.400742 42.170883 0.002965
-1.086021 42.170883 0.003048
-0.771300 42.170883 0.003098
-0.456579 42.170883 0.002938
-0.141859 42.170883 0.002826
0.172863 42.170883 0.002897
0.487584 42.170883 0.003048
0.802305 42.170883 0.003003
1.117026 42.170883 0.002874
1.431747 42.170883 0.002862
1.746467 42.170883 0.002848
2.061188 42.170883 0.002801
2.375909 42.170883 0.002719
2.690630 42.170883 0.002707
3.005352 42.170883 0.002832
3.320073 42.170883 0.002908
3.634794 42.170883 0.003009
3.949515 42.170883 0.003086
4.264236 42.170883 0.002917
4.578956 42.170883 0.002651
4.893677 42.170883 0.002776
5.208398 42.170883 0.003242
5.523119 42.170883 0.003834
5.837841 42.170883 0.004216
6.152562 42.170883 0.004719
6.467283 42.170883 0.005506
6.782003 42.170883 0.007220
7.096724 42.170883 0.011516
7.411445 42.170883 0.017639
7.726166 42.170883 0.030698
8.040888 42.170883 0.049946
8.355608 42.170883 0.088109
8.670330 42.170883 0.143044
8.985050 42.170883 0.215957
9.299772 42.170883 0.305674
9.614492 42.170883 0.407771
9.929214 42.170883 0.506404
10.243935 42.170883 0.614495
10.558655 42.170883 0.748992
10.873377 42.170883 0.887541
11.188097 42.170883 0.983510
11.502819 42.170883 1.059544
11.817539 42.170883 1.115925
12.132261 42.170883 1.161779
12.446981 42.170883 1.213745
12.761703 42.170883 1.242450
13.076424 42.170883 1.245956
13.391144 42.170883 1.223743
13.705866 42.170883 1.186709
14.020586 42.170883 1.129714
14.335308 42.170883 1.073112
14.650028 42.170883 0.989175
14.964750 42.170883 0.876616
15.279470 42.170883 0.740443
15.594193 42.170883 0.591253
15.908913 42.170883 0.435988
16.223633 42.170883 0.275848
16.538355 42.170883 0.122274
16.853075 42.170883 0.025302
17.167797 42.170883 -0.050502
17.482517 42.170883 -0.165373
17.797239 42.170883 -0.311963
18.111959 42.170883 -0.445418
18.426680 42.170883 -0.522004
18.741402 42.170883 -0.094968
-7.065720 41.856159 0.000000
-6.750999 41.856159 0.000000
-6.436278 41.856159 0.002921
-6.121557 41.856159 0.003087
-5.806836 41.856159 0.003187
-5.492115 41.856159 0.003415
-5.177394 41.856159 0.003555
-4.862673 41.856159 0.003434
-4.547952 41.856159 0.003276
-4.233231 41.856159 0.003163
-3.918510 41.856159 0.003173
-3.603789 41.856159 0.003234
-3.289068 41.856159 0.003201
-2.974347 41.856159 0.003115
-2.659626 41.856159 0.003126
-2.344905 41.856159 0.003176
-2.030184 41.856159 0.003115
-1.715463 41.856159 0.002997
-1.400742 41.856159 0.002936
-1.086021 41.856159 0.003038
-0.771300 41.856159 0.003107
-0.456579 41.856159 0.002941
-0.141859 41.856159 0.002874
0.172863 41.856159 0.002956
0.487584 41.856159 0.003102
0.802305 41.856159 0.003115
1.117026 41.856159 0.003030
1.431747 41.856159 0.003019
1.746467 41.856159 0.002921
2.061188 41.856159 0.002819
2.375909 41.856159 0.002656
2.690630 41.856159 0.002616
3.005352 41.856159 0.002713
3.320073 41.856159 0.002873
3.634794 41.856159 0.003029
3.949515 41.856159 0.003099
4.264236 41.856159 0.002891
4.578956 41.856159 0.002739
4.893677 41.856159 0.002831
5.208398 41.856159 0.003309
5.523119 41.856159 0.003841
5.837841 41.856159 0.004240
6.152562 41.856159 0.004845
6.467283 41.856159 0.005842
6.782003 41.856159 0.007630
7.096724 41.856159 0.011587
7.411445 41.856159 0.018109
7.726166 41.856159 0.029990
8.040888 41.856159 0.050906
8.355608 41.856159 0.086238
8.670330 41.856159 0.139951
8.985050 41.856159 0.215973
9.299772 41.856159 0.305905
9.614492 41.856159 0.413193
9.929214 41.856159 0.515171
10.243935 41.856159 0.615277
10.558655 41.856159 0.755568
10.873377 41.856159 0.887680
11.188097 41.856159 0.977666
11.502819 41.856159 1.058439
11.817539 41.856159 1.119602
12.132261 41.856159 1.162724
12.446981 41.856159 1.202706
12.761703 41.856159 1.243360
13.076424 41.856159 1.249300
13.391144 41.856159 1.229805
13.705866 41.856159 1.185524
14.020586 41.856159 1.132099
14.335308 41.856159 1.073767
14.650028 41.856159 0.993945
14.964750 41.856159 0.875500
15.279470 41.856159 0.735110
15.594193 41.856159 0.587574
15.908913 41.856159 0.422860
16.223633 41.856159 0.260268
16.538355 41.856159 0.104956
16.853075 41.856159 -0.001762
17.167797 41.856159 -0.072589
17.482517 41.856159 -0.176725
17.797239 41.856159 -0.312320
18.111959 41.856159 -0.411634
18.426680 41.856159 -0.554794
18.741402 41.856159 -0.080337
-7.065720 41.541439 0.000000
-6.750999 41.541439 0.000000
-6.436278 41.541439 0.002992
-6.121557 41.541439 0.003121
-5.806836 41.541439 0.003258
-5.492115 41.541439 0.003484
-5.177394 41.541439 0.003574
-4.862673 41.541439 0.003428
-4.547952 41.541439 0.003323
-4.233231 41.541439 0.003275
-3.918510 41.541439 0.003279
-3.603789 41.541439 0.003279
-3.289068 41.541439 0.003220
-2.974347 41.541439 0.003160
-2.659626 41.541439 0.003148
-2.344905 41.541439 0.003123
-2.030184 41.541439 0.003023
-1.715463 41.541439 0.002916
-1.400742 41.541439 0.002909
-1.086021 41.541439 0.003046
-0.771300 41.541439 0.003079
-0.456579 41.541439 0.002946
-0.141859 41.541439 0.002943
0.172863 41.541439 0.003018
0.487584 41.541439 0.003160
0.802305 41.541439 0.003208
1.117026 41.541439 0.003198
1.431747 41.541439 0.003159
1.746467 41.541439 0.003064
2.061188 41.541439 0.002888
2.375909 41.541439 0.002680
2.690630 41.541439 0.002626
3.005352 41.541439 0.002682
3.320073 41.541439 0.002828
3.634794 41.541439 0.002989
3.949515 41.541439 0.003062
4.264236 41.541439 0.002936
4.578956 41.541439 0.002881
4.893677 41.541439 0.002940
5.208398 41.541439 0.003288
5.523119 41.541439 0.003829
5.837841 41.541439 0.004338
6.152562 41.541439 0.004847
6.467283 41.541439 0.005648
6.782003 41.541439 0.008312
7.096724 41.541439 0.011689
7.411445 41.541439 0.017718
7.726166 41.541439 0.030223
8.040888 41.541439 0.050181
8.355608 41.541439 0.084565
8.670330 41.541439 0.135901
8.985050 41.541439 0.216489
9.299772 41.541439 0.309443
9.614492 41.541439 0.410596
9.929214 41.541439 0.519051
10.243935 41.541439 0.627569
10.558655 41.541439 0.764470
10.873377 41.541439 0.881221
11.188097 41.541439 0.973422
11.502819 41.541439 1.051411
11.817539 41.541439 1.120934
12.132261 41.541439 1.163925
12.446981 41.541439 1.212946
12.761703 41.541439 1.242366
13.076424 41.541439 1.253015
13.391144 41.541439 1.225949
13.705866 41.541439 1.182668
14.020586 41.541439 1.130484
14.335308 41.541439 1.072772
14.650028 41.541439 0.993985
14.964750 41.541439 0.876912
15.279470 41.541439 0.740619
15.594193 41.541439 0.588912
15.908913 41.541439 0.420572
16.223633 41.541439 0.250789
16.538355 41.541439 0.092687
16.853075 41.541439 -0.022029
17.167797 41.541439 -0.098751
17.482517 41.541439 -0.202922
17.797239 41.541439 -0.318112
18.111959 41.541439 -0.426409
18.426680 41.541439 -0.535935
18.741402 41.541439 -0.173090
-7.065720 41.226719 0.000000
-6.750999 41.226719 0.000000
-6.436278 41.226719 0.003099
-6.121557 41.226719 0.003198
-5.806836 41.226719 0.003313
-5.492115 41.226719 0.003478
-5.177394 41.226719 0.003512
-4.862673 41.226719 0.003375
-4.547952 41.226719 0.003342
-4.233231 41.226719 0.003366
-3.918510 41.226719 0.003315
-3.603789 41.226719 0.003249
-3.289068 41.226719 0.003206
-2.974347 41.226719 0.003188
-2.659626 41.226719 0.003197
-2.344905 41.226719 0.003093
-2.030184 41.226719 0.002938
-1.715463 41.226719 0.002861
-1.400742 41.226719 0.002861
-1.086021 41.226719 0.002999
-0.771300 41.226719 0.003003
-0.456579 41.226719 0.002939
-0.141859 41.226719 0.002991
0.172863 41.226719 0.003020
0.487584 41.226719 0.003119
0.802305 41.226719 0.003237
1.117026 41.226719 0.003273
1.431747 41.226719 0.003202
1.746467 41.226719 0.003112
2.061188 41.226719 0.002979
2.375909 41.226719 0.002798
2.690630 41.226719 0.002721
3.005352 41.226719 0.002755
3.320073 41.226719 0.002809
3.634794 41.226719 0.002957
3.949515 41.226719 0.003042
4.264236 41.226719 0.003024
4.578956 41.226719 0.003099
4.893677 41.226719 0.003156
5.208398 41.226719 0.003395
5.523119 41.226719 0.003748
5.837841 41.226719 0.004198
6.152562 41.226719 0.004684
6.467283 41.226719 0.005938
6.782003 41.226719 0.007949
7.096724 41.226719 0.010848
7.411445 41.226719 0.017792
7.726166 41.226719 0.030171
8.040888 41.226719 0.048204
8.355608 41.226719 0.083801
8.670330 41.226719 0.137037
8.985050 41.226719 0.215967
9.299772 41.226719 0.310320
9.614492 41.226719 0.411293
9.929214 41.226719 0.521237
10.243935 41.226719 0.631907
10.558655 41.226719 0.764924
10.873377 41.226719 0.888767
11.188097 41.226719 0.973708
11.502819 41.226719 1.042423
11.817539 41.226719 1.119911
12.132261 41.226719 1.163788
12.446981 41.226719 1.205170
12.761703 41.226719 1.237487
13.076424 41.226719 1.240310
13.391144 41.226719 1.218574
13.705866 41.226719 1.180077
14.020586 41.226719 1.126564
14.335308 41.226719 1.072998
14.650028 41.226719 0.997302
14.964750 41.226719 0.883417
15.279470 41.226719 0.743380
15.594193 41.226719 0.585879
15.908913 41.226719 0.419501
16.223633 41.226719 0.244501
16.538355 41.226719 0.086875
16.853075 41.226719 -0.038320
17.167797 41.226719 -0.132623
17.482517 41.226719 -0.226811
17.797239 41.226719 -0.336655
18.111959 41.226719 -0.456010
18.426680 41.226719 -0.534774
18.741402 41.226719 -0.150492
-7.065720 40.911999 0.000000
-6.750999 40.911999 0.000000
-6.436278 40.911999 0.003261
-6.121557 40.911999 0.003293
-5.806836 40.911999 0.003332
-5.492115 40.911999 0.003389
-5.177394 40.911999 0.003387
-4.862673 40.911999 0.003289
-4.547952 40.911999 0.003340
-4.233231 40.911999 0.003436
-3.918510 40.911999 0.003342
-3.603789 40.911999 0.003204
-3.289068 40.911999 0.003154
-2.974347 40.911999 0.003213
-2.659626 40.911999 0.003215
-2.344905 40.911999 0.003091
-2.030184 40.911999 0.002930
-1.715463 40.911999 0.002823
-1.400742 40.911999 0.002861
-1.086021 40.911999 0.002945
-0.771300 40.911999 0.002907
-0.456579 40.911999 0.002887
-0.141859 40.911999 0.002987
0.172863 40.911999 0.002974
0.487584 40.911999 0.003048
0.802305 40.911999 0.003212
1.117026 40.911999 0.003302
1.431747 40.911999 0.003197
1.746467 40.911999 0.003150
2.061188 40.911999 0.003075
2.375909 40.911999 0.002961
2.690630 40.911999 0.002836
3.005352 40.911999 0.002826
3.320073 40.911999 0.002848
3.634794 40.911999 0.002926
3.949515 40.911999 0.002978
4.264236 40.911999 0.003132
4.578956 40.911999 0.003332
4.893677 40.911999 0.003370
5.208398 40.911999 0.003268
5.523119 40.911999 0.003412
5.837841 40.911999 0.003862
6.152562 40.911999 0.004460
6.467283 40.911999 0.005345
6.782003 40.911999 0.007202
7.096724 40.911999 0.011356
7.411445 40.911999 0.018271
7.726166 40.911999 0.029815
8.040888 40.911999 0.049998
8.355608 40.911999 0.083829
8.670330 40.911999 0.132698
8.985050 40.911999 0.209656
9.299772 40.911999 0.307516
9.614492 40.911999 0.412319
9.929214 40.911999 0.531597
10.243935 40.911999 0.644042
10.558655 40.911999 0.766473
10.873377 40.911999 0.882189
11.188097 40.911999 0.972050
11.502819 40.911999 1.044436
11.817539 40.911999 1.114352
12.132261 40.911999 1.165337
12.446981 40.911999 1.213818
12.761703 40.911999 1.237115
13.076424 40.911999 1.240911
13.391144 40.911999 1.214146
13.705866 40.911999 1.178606
14.020586 40.911999 1.124611
14.335308 40.911999 1.071623
14.650028 40.911999 0.998671
14.964750 40.911999 0.883015
15.279470 40.911999 0.742453
15.594193 40.911999 0.580497
15.908913 40.911999 0.419748
16.223633 40.911999 0.239848
16.538355 40.911999 0.078449
16.853075 40.911999 -0.056752
17.167797 40.911999 -0.161317
17.482517 40.911999 -0.255534
17.797239 40.911999 -0.346256
18.111959 40.911999 -0.480113
18.426680 40.911999 -0.609255
18.741402 40.911999 0.000000
-7.065720 40.597275 0.000000
-6.750999 40.597275 0.000000
-6.436278 40.597275 0.003344
-6.121557 40.597275 0.003362
-5.806836 40.597275 0.003338
-5.492115 40.597275 0.003291
-5.177394 40.597275 0.003251
-4.862673 40.597275 0.003199
-4.547952 40.597275 0.003337
-4.233231 40.597275 0.003478
-3.918510 40.597275 0.003349
-3.603789 40.597275 0.003161
-3.289068 40.597275 0.003099
-2.974347 40.597275 0.003178
-2.659626 40.597275 0.003193
-2.344905 40.597275 0.003046
-2.030184 40.597275 0.002928
-1.715463 40.597275 0.002914
-1.400742 40.597275 0.002910
-1.086021 40.597275 0.002897
-0.771300 40.597275 0.002815
-0.456579 40.597275 0.002868
-0.141859 40.597275 0.002964
0.172863 40.597275 0.002901
0.487584 40.597275 0.002929
0.802305 40.597275 0.003102
1.117026 40.597275 0.003225
1.431747 40.597275 0.003129
1.746467 40.597275 0.003119
2.061188 40.597275 0.003159
2.375909 40.597275 0.003121
2.690630 40.597275 0.002970
3.005352 40.597275 0.002907
3.320073 40.597275 0.002872
3.634794 40.597275 0.002910
3.949515 40.597275 0.002993
4.264236 40.597275 0.003250
4.578956 40.597275 0.003512
4.893677 40.597275 0.003522
5.208398 40.597275 0.003228
5.523119 40.597275 0.003425
5.837841 40.597275 0.003944
6.152562 40.597275 0.004557
6.467283 40.597275 0.004967
6.782003 40.597275 0.006910
7.096724 40.597275 0.011801
7.411445 40.597275 0.019370
7.726166 40.597275 0.030195
8.040888 40.597275 0.050341
8.355608 40.597275 0.082556
8.670330 40.597275 0.139148
8.985050 40.597275 0.211742
9.299772 40.597275 0.311781
9.614492 40.597275 0.413976
9.929214 40.597275 0.534587
10.243935 40.597275 0.652605
10.558655 40.597275 0.757682
10.873377 40.597275 0.878941
11.188097 40.597275 0.971107
11.502819 40.597275 1.054531
11.817539 40.597275 1.111323
12.132261 40.597275 1.165284
12.446981 40.597275 1.211218
12.761703 40.597275 1.239567
13.076424 40.597275 1.246670
13.391144 40.597275 1.224624
13.705866 40.597275 1.186851
14.020586 40.597275 1.126307
14.335308 40.597275 1.065994
14.650028 40.597275 1.001541
14.964750 40.597275 0.883311
15.279470 40.597275 0.738809
15.594193 40.597275 0.589826
15.908913 40.597275 0.414321
16.223633 40.597275 0.229479
16.538355 40.597275 0.062185
16.853075 40.597275 -0.072210
17.167797 40.597275 -0.196842
17.482517 40.597275 -0.270593
17.797239 40.597275 -0.372786
18.111959 40.597275 -0.477928
18.426680 40.597275 -0.570416
18.741402 40.597275 0.000000
-7.065720 40.282555 0.000000
-6.750999 40.282555 0.000000
-6.436278 40.282555 0.003379
-6.121557 40.282555 0.003403
-5.806836 40.282555 0.003356
-5.492115 40.282555 0.003241
-5.177394 40.282555 0.003175
-4.862673 40.282555 0.003176
-4.547952 40.282555 0.003326
-4.233231 40.282555 0.003465
-3.918510 40.282555 0.003359
-3.603789 40.282555 0.003133
-3.289068 40.282555 0.003072
-2.974347 40.282555 0.003133
-2.659626 40.282555 0.003188
-2.344905 40.282555 0.003065
-2.030184 40.282555 0.002976
-1.715463 40.282555 0.002973
-1.400742 40.282555 0.002941
-1.086021 40.282555 0.002865
-0.771300 40.282555 0.002763
-0.456579 40.282555 0.002839
-0.141859 40.282555 0.002899
0.172863 40.282555 0.002778
0.487584 40.282555 0.002805
0.802305 40.282555 0.002984
1.117026 40.282555 0.003112
1.431747 40.282555 0.003051
1.746467 40.282555 0.003034
2.061188 40.282555 0.003156
2.375909 40.282555 0.003186
2.690630 40.282555 0.003075
3.005352 40.282555 0.002985
3.320073 40.282555 0.002924
3.634794 40.282555 0.002931
3.949515 40.282555 0.003016
4.264236 40.282555 0.003347
4.578956 40.282555 0.003638
4.893677 40.282555 0.003599
5.208398 40.282555 0.003308
5.523119 40.282555 0.003460
5.837841 40.282555 0.003785
6.152562 40.282555 0.004381
6.467283 40.282555 0.004984
6.782003 40.282555 0.007025
7.096724 40.282555 0.011728
7.411445 40.282555 0.018814
7.726166 40.282555 0.031301
8.040888 40.282555 0.050522
8.355608 40.282555 0.087350
8.670330 40.282555 0.138458
8.985050 40.282555 0.213315
9.299772 40.282555 0.310710
9.614492 40.282555 0.419411
9.929214 40.282555 0.539394
10.243935 40.282555 0.646196
10.558655 40.282555 0.760118
10.873377 40.282555 0.881654
11.188097 40.282555 0.979457
11.502819 40.282555 1.065450
11.817539 40.282555 1.115278
12.132261 40.282555 1.164461
12.446981 40.282555 1.210815
12.761703 40.282555 1.251823
13.076424 40.282555 1.249207
13.391144 40.282555 1.228281
13.705866 40.282555 1.185403
14.020586 40.282555 1.136244
14.335308 40.282555 1.070307
14.650028 40.282555 0.994883
14.964750 40.282555 0.877656
15.279470 40.282555 0.738424
15.594193 40.282555 0.594562
15.908913 40.282555 0.423004
16.223633 40.282555 0.239117
16.538355 40.282555 0.168595
16.853075 40.282555 -0.057346
17.167797 40.282555 -0.135315
17.482517 40.282555 -0.168174
17.797239 40.282555 -0.296744
18.111959 40.282555 -0.500962
18.426680 40.282555 -0.571406
18.741402 40.282555 0.000000
-7.065720 39.967834 0.000000
-6.750999 39.967834 0.000000
-6.436278 39.967834 0.003338
-6.121557 39.967834 0.003400
-5.806836 39.967834 0.003400
-5.492115 39.967834 0.003244
-5.177394 39.967834 0.003155
-4.862673 39.967834 0.003153
-4.547952 39.967834 0.003287
-4.233231 39.967834 0.003411
-3.918510 39.967834 0.003324
-3.603789 39.967834 0.003152
-3.289068 39.967834 0.003112
-2.974347 39.967834 0.003119
-2.659626 39.967834 0.003138
-2.344905 39.967834 0.003064
-2.030184 39.967834 0.003018
-1.715463 39.967834 0.003028
-1.400742 39.967834 0.002975
-1.086021 39.967834 0.002842
-0.771300 39.967834 0.002732
-0.456579 39.967834 0.002827
-0.141859 39.967834 0.002819
0.172863 39.967834 0.002688
0.487584 39.967834 0.002678
0.802305 39.967834 0.002889
1.117026 39.967834 0.003019
1.431747 39.967834 0.003013
1.746467 39.967834 0.003044
2.061188 39.967834 0.003160
2.375909 39.967834 0.003175
2.690630 39.967834 0.003111
3.005352 39.967834 0.003050
3.320073 39.967834 0.002978
3.634794 39.967834 0.002949
3.949515 39.967834 0.003048
4.264236 39.967834 0.003350
4.578956 39.967834 0.003597
4.893677 39.967834 0.003588
5.208398 39.967834 0.003390
5.523119 39.967834 0.003455
5.837841 39.967834 0.003837
6.152562 39.967834 0.004521
6.467283 39.967834 0.005656
6.782003 39.967834 0.007753
7.096724 39.967834 0.010864
7.411445 39.967834 0.018312
7.726166 39.967834 0.030783
8.040888 39.967834 0.049446
8.355608 39.967834 0.085904
8.670330 39.967834 0.140574
8.985050 39.967834 0.213235
9.299772 39.967834 0.313493
9.614492 39.967834 0.423433
9.929214 39.967834 0.536746
10.243935 39.967834 0.640334
10.558655 39.967834 0.761773
10.873377 39.967834 0.879065
11.188097 39.967834 0.986181
11.502819 39.967834 1.068205
11.817539 39.967834 1.123406
12.132261 39.967834 1.168752
12.446981 39.967834 1.213218
12.761703 39.967834 1.249428
13.076424 39.967834 1.250769
13.391144 39.967834 1.229981
13.705866 39.967834 1.190556
14.020586 39.967834 1.137543
14.335308 39.967834 1.075067
14.650028 39.967834 0.995918
14.964750 39.967834 0.873658
15.279470 39.967834 0.745122
15.594193 39.967834 0.596085
15.908913 39.967834 0.429614
16.223633 39.967834 0.247770
16.538355 39.967834 0.124570
16.853075 39.967834 0.780184
17.167797 39.967834 -1.053762
17.482517 39.967834 0.988750
17.797239 39.967834 -0.556000
18.111959 39.967834 -0.525024
18.426680 39.967834 -0.597956
18.741402 39.967834 0.000000
-7.065720 39.653114 0.000000
-6.750999 39.653114 0.000000
-6.436278 39.653114 0.003279
-6.121557 39.653114 0.003349
-5.806836 39.653114 0.003414
-5.492115 39.653114 0.003258
-5.177394 39.653114 0.003123
-4.862673 39.653114 0.003164
-4.547952 39.653114 0.003267
-4.233231 39.653114 0.003356
-3.918510 39.653114 0.003335
-3.603789 39.653114 0.003231
-3.289068 39.653114 0.003228
-2.974347 39.653114 0.003130
-2.659626 39.653114 0.003114
-2.344905 39.653114 0.003079
-2.030184 39.653114 0.003053
-1.715463 39.653114 0.003085
-1.400742 39.653114 0.002990
-1.086021 39.653114 0.002850
-0.771300 39.653114 0.002733
-0.456579 39.653114 0.002800
-0.141859 39.653114 0.002794
0.172863 39.653114 0.002648
0.487584 39.653114 0.002623
0.802305 39.653114 0.002792
1.117026 39.653114 0.002959
1.431747 39.653114 0.003017
1.746467 39.653114 0.003110
2.061188 39.653114 0.003199
2.375909 39.653114 0.003125
2.690630 39.653114 0.003109
3.005352 39.653114 0.003086
3.320073 39.653114 0.002934
3.634794 39.653114 0.002850
3.949515 39.653114 0.002965
4.264236 39.653114 0.003239
4.578956 39.653114 0.003435
4.893677 39.653114 0.003431
5.208398 39.653114 0.003358
5.523119 39.653114 0.003631
5.837841 39.653114 0.004073
6.152562 39.653114 0.004631
6.467283 39.653114 0.005674
6.782003 39.653114 0.008015
7.096724 39.653114 0.011790
7.411445 39.653114 0.018292
7.726166 39.653114 0.030571
8.040888 39.653114 0.051758
8.355608 39.653114 0.085891
8.670330 39.653114 0.142289
8.985050 39.653114 0.214599
9.299772 39.653114 0.314589
9.614492 39.653114 0.430681
9.929214 39.653114 0.531690
10.243935 39.653114 0.641563
10.558655 39.653114 0.769117
10.873377 39.653114 0.888292
11.188097 39.653114 0.990100
11.502819 39.653114 1.067440
11.817539 39.653114 1.124824
12.132261 39.653114 1.166095
12.446981 39.653114 1.207572
12.761703 39.653114 1.240427
13.076424 39.653114 1.244203
13.391144 39.653114 1.227852
13.705866 39.653114 1.191392
14.020586 39.653114 1.141471
14.335308 39.653114 1.080023
14.650028 39.653114 0.992734
14.964750 39.653114 0.877529
15.279470 39.653114 0.743378
15.594193 39.653114 0.597246
15.908913 39.653114 0.436037
16.223633 39.653114 0.262586
16.538355 39.653114 0.182053
16.853075 39.653114 0.000000
17.167797 39.653114 0.000000
17.482517 39.653114 0.000000
17.797239 39.653114 -0.344915
18.111959 39.653114 -0.510521
18.426680 39.653114 -0.579286
18.741402 39.653114 0.000000
-7.065720 39.338394 0.000000
-6.750999 39.338394 0.000000
-6.436278 39.338394 0.003223
-6.121557 39.338394 0.003323
-5.806836 39.338394 0.003402
-5.492115 39.338394 0.003266
-5.177394 39.338394 0.003130
-4.862673 39.338394 0.003185
-4.547952 39.338394 0.003270
-4.233231 39.338394 0.003349
-3.918510 39.338394 0.003399
-3.603789 39.338394 0.003354
-3.289068 39.338394 0.003362
-2.974347 39.338394 0.003197
-2.659626 39.338394 0.003103
-2.344905 39.338394 0.003083
-2.030184 39.338394 0.003079
-1.715463 39.338394 0.003052
-1.400742 39.338394 0.003002
-1.086021 39.338394 0.002867
-0.771300 39.338394 0.002786
-0.456579 39.338394 0.002846
-0.141859 39.338394 0.002847
0.172863 39.338394 0.002697
0.487584 39.338394 0.002697
0.802305 39.338394 0.002798
1.117026 39.338394 0.002966
1.431747 39.338394 0.003128
1.746467 39.338394 0.003226
2.061188 39.338394 0.003189
2.375909 39.338394 0.003075
2.690630 39.338394 0.003093
3.005352 39.338394 0.003133
3.320073 39.338394 0.002919
3.634794 39.338394 0.002828
3.949515 39.338394 0.003000
4.264236 39.338394 0.003132
4.578956 39.338394 0.003238
4.893677 39.338394 0.003174
5.208398 39.338394 0.003268
5.523119 39.338394 0.003692
5.837841 39.338394 0.004177
6.152562 39.338394 0.004818
6.467283 39.338394 0.005827
6.782003 39.338394 0.007599
7.096724 39.338394 0.011691
7.411445 39.338394 0.018400
7.726166 39.338394 0.030139
8.040888 39.338394 0.049421
8.355608 39.338394 0.085543
8.670330 39.338394 0.144208
8.985050 39.338394 0.220731
9.299772 39.338394 0.315587
9.614492 39.338394 0.428057
9.929214 39.338394 0.541288
10.243935 39.338394 0.647616
10.558655 39.338394 0.773489
10.873377 39.338394 0.892353
11.188097 39.338394 0.989033
11.502819 39.338394 1.061196
11.817539 39.338394 1.128852
12.132261 39.338394 1.175519
12.446981 39.338394 1.215101
12.761703 39.338394 1.235654
13.076424 39.338394 1.233434
13.391144 39.338394 1.225616
13.705866 39.338394 1.191169
14.020586 39.338394 1.149354
14.335308 39.338394 1.080741
14.650028 39.338394 0.992976
14.964750 39.338394 0.881784
15.279470 39.338394 0.736473
15.594193 39.338394 0.595406
15.908913 39.338394 0.437349
16.223633 39.338394 0.277916
16.538355 39.338394 0.202054
16.853075 39.338394 0.000000
17.167797 39.338394 0.000000
17.482517 39.338394 0.000000
17.797239 39.338394 -0.352798
18.111959 39.338394 -0.530557
18.426680 39.338394 -0.584496
18.741402 39.338394 0.000000
-7.065720 39.023674 0.000000
-6.750999 39.023674 0.003936
-6.436278 39.023674 0.003192
-6.121557 39.023674 0.003284
-5.806836 39.023674 0.003358
-5.492115 39.023674 0.003281
-5.177394 39.023674 0.003179
-4.862673 39.023674 0.003225
-4.547952 39.023674 0.003300
-4.233231 39.023674 0.003363
-3.918510 39.023674 0.003472
-3.603789 39.023674 0.003505
-3.289068 39.023674 0.003445
-2.974347 39.023674 0.003267
-2.659626 39.023674 0.003180
-2.344905 39.023674 0.003128
-2.030184 39.023674 0.003079
-1.715463 39.023674 0.002983
-1.400742 39.023674 0.002968
-1.086021 39.023674 0.002940
-0.771300 39.023674 0.002860
-0.456579 39.023674 0.002893
-0.141859 39.023674 0.002899
0.172863 39.023674 0.002837
0.487584 39.023674 0.002832
0.802305 39.023674 0.002848
1.117026 39.023674 0.002936
1.431747 39.023674 0.003175
1.746467 39.023674 0.003259
2.061188 39.023674 0.003176
2.375909 39.023674 0.003027
2.690630 39.023674 0.003044
3.005352 39.023674 0.003124
3.320073 39.023674 0.003008
3.634794 39.023674 0.002912
3.949515 39.023674 0.003032
4.264236 39.023674 0.003116
4.578956 39.023674 0.003140
4.893677 39.023674 0.003098
5.208398 39.023674 0.003200
5.523119 39.023674 0.003653
5.837841 39.023674 0.004199
6.152562 39.023674 0.004982
6.467283 39.023674 0.006001
6.782003 39.023674 0.007806
7.096724 39.023674 0.012410
7.411445 39.023674 0.018985
7.726166 39.023674 0.028957
8.040888 39.023674 0.049321
8.355608 39.023674 0.085840
8.670330 39.023674 0.139449
8.985050 39.023674 0.219285
9.299772 39.023674 0.318640
9.614492 39.023674 0.434602
9.929214 39.023674 0.535726
10.243935 39.023674 0.658400
10.558655 39.023674 0.769066
10.873377 39.023674 0.893137
11.188097 39.023674 0.986002
11.502819 39.023674 1.067027
11.817539 39.023674 1.143377
12.132261 39.023674 1.185306
12.446981 39.023674 1.218238
12.761703 39.023674 1.227943
13.076424 39.023674 1.233215
13.391144 39.023674 1.235651
13.705866 39.023674 1.206099
14.020586 39.023674 1.155710
14.335308 39.023674 1.087053
14.650028 39.023674 1.001027
14.964750 39.023674 0.881666
15.279470 39.023674 0.733712
15.594193 39.023674 0.595771
15.908913 39.023674 0.443827
16.223633 39.023674 0.277162
16.538355 39.023674 0.196320
16.853075 39.023674 0.000000
17.167797 39.023674 0.000000
17.482517 39.023674 0.000000
17.797239 39.023674 -0.375427
18.111959 39.023674 -0.549722
18.426680 39.023674 -0.582893
18.741402 39.023674 0.000000
-7.065720 38.708950 0.000000
-6.750999 38.708950 0.003006
-6.436278 38.708950 0.003187
-6.121557 38.708950 0.003249
-5.806836 38.708950 0.003305
-5.492115 38.708950 0.003304
-5.177394 38.708950 0.003252
-4.862673 38.708950 0.003299
-4.547952 38.708950 0.003364
-4.233231 38.708950 0.003416
-3.918510 38.708950 0.003521
-3.603789 38.708950 0.003575
-3.289068 38.708950 0.003454
-2.974347 38.708950 0.003311
-2.659626 38.708950 0.003260
-2.344905 38.708950 0.003206
-2.030184 38.708950 0.003088
-1.715463 38.708950 0.002963
-1.400742 38.708950 0.002951
-1.086021 38.708950 0.003016
-0.771300 38.708950 0.002972
-0.456579 38.708950 0.002937
-0.141859 38.708950 0.002982
0.172863 38.708950 0.002951
0.487584 38.708950 0.002974
0.802305 38.708950 0.002939
1.117026 38.708950 0.003018
1.431747 38.708950 0.003233
1.746467 38.708950 0.003239
2.061188 38.708950 0.003125
2.375909 38.708950 0.003006
2.690630 38.708950 0.003005
3.005352 38.708950 0.003059
3.320073 38.708950 0.003050
3.634794 38.708950 0.003034
3.949515 38.708950 0.003095
4.264236 38.708950 0.003061
4.578956 38.708950 0.002977
4.893677 38.708950 0.003034
5.208398 38.708950 0.003405
5.523119 38.708950 0.003764
5.837841 38.708950 0.004370
6.152562 38.708950 0.005119
6.467283 38.708950 0.005924
6.782003 38.708950 0.007802
7.096724 38.708950 0.012009
7.411445 38.708950 0.018780
7.726166 38.708950 0.029657
8.040888 38.708950 0.049302
8.355608 38.708950 0.086209
8.670330 38.708950 0.142080
8.985050 38.708950 0.215805
9.299772 38.708950 0.321850
9.614492 38.708950 0.425922
9.929214 38.708950 0.535582
10.243935 38.708950 0.653774
10.558655 38.708950 0.775319
10.873377 38.708950 0.883044
11.188097 38.708950 0.983189
11.502819 38.708950 1.063268
11.817539 38.708950 1.136466
12.132261 38.708950 1.195093
12.446981 38.708950 1.217458
12.761703 38.708950 1.235453
13.076424 38.708950 1.240673
13.391144 38.708950 1.237810
13.705866 38.708950 1.210225
14.020586 38.708950 1.159797
14.335308 38.708950 1.091507
14.650028 38.708950 1.006211
14.964750 38.708950 0.886659
15.279470 38.708950 0.746934
15.594193 38.708950 0.603172
15.908913 38.708950 0.441000
16.223633 38.708950 0.280661
16.538355 38.708950 0.000000
16.853075 38.708950 0.000000
17.167797 38.708950 0.000000
17.482517 38.708950 0.000000
17.797239 38.708950 0.000000
18.111959 38.708950 -0.395743
18.426680 38.708950 -0.380019
18.741402 38.708950 0.000000
-7.065720 38.394230 0.000000
-6.750999 38.394230 0.002000
-6.436278 38.394230 0.003270
-6.121557 38.394230 0.003236
-5.806836 38.394230 0.003267
-5.492115 38.394230 0.003360
-5.177394 38.394230 0.003329
-4.862673 38.394230 0.003349
-4.547952 38.394230 0.003385
-4.233231 38.394230 0.003434
-3.918510 38.394230 0.003549
-3.603789 38.394230 0.003586
-3.289068 38.394230 0.003419
-2.974347 38.394230 0.003310
-2.659626 38.394230 0.003346
-2.344905 38.394230 0.003277
-2.030184 38.394230 0.003086
-1.715463 38.394230 0.002935
-1.400742 38.394230 0.002914
-1.086021 38.394230 0.003060
-0.771300 38.394230 0.003083
-0.456579 38.394230 0.003024
-0.141859 38.394230 0.003061
0.172863 38.394230 0.003092
0.487584 38.394230 0.003137
0.802305 38.394230 0.003097
1.117026 38.394230 0.003098
1.431747 38.394230 0.003211
1.746467 38.394230 0.003171
2.061188 38.394230 0.003070
2.375909 38.394230 0.003031
2.690630 38.394230 0.003041
3.005352 38.394230 0.003089
3.320073 38.394230 0.003126
3.634794 38.394230 0.003135
3.949515 38.394230 0.003152
4.264236 38.394230 0.003023
4.578956 38.394230 0.002906
4.893677 38.394230 0.003046
5.208398 38.394230 0.003444
5.523119 38.394230 0.003832
5.837841 38.394230 0.004300
6.152562 38.394230 0.004957
6.467283 38.394230 0.005613
6.782003 38.394230 0.007242
7.096724 38.394230 0.011573
7.411445 38.394230 0.017461
7.726166 38.394230 0.029533
8.040888 38.394230 0.053397
8.355608 38.394230 0.089406
8.670330 38.394230 0.141097
8.985050 38.394230 0.212322
9.299772 38.394230 0.317042
9.614492 38.394230 0.433950
9.929214 38.394230 0.533566
10.243935 38.394230 0.646795
10.558655 38.394230 0.766635
10.873377 38.394230 0.874640
11.188097 38.394230 0.971812
11.502819 38.394230 1.060206
11.817539 38.394230 1.138114
12.132261 38.394230 1.194656
12.446981 38.394230 1.221506
12.761703 38.394230 1.230532
13.076424 38.394230 1.231297
13.391144 38.394230 1.234273
13.705866 38.394230 1.207396
14.020586 38.394230 1.159971
14.335308 38.394230 1.097973
14.650028 38.394230 1.008459
14.964750 38.394230 0.891237
15.279470 38.394230 0.758720
15.594193 38.394230 0.613390
15.908913 38.394230 0.445399
16.223633 38.394230 0.280285
16.538355 38.394230 0.000000
16.853075 38.394230 0.000000
17.167797 38.394230 0.000000
17.482517 38.394230 0.000000
17.797239 38.394230 0.000000
18.111959 38.394230 -0.731692
18.426680 38.394230 -0.848804
18.741402 38.394230 0.000000
-7.065720 38.079510 0.000000
-6.750999 38.079510 0.002567
-6.436278 38.079510 0.003369
-6.121557 38.079510 0.003254
-5.806836 38.079510 0.003261
-5.492115 38.079510 0.003383
-5.177394 38.079510 0.003374
-4.862673 38.079510 0.003365
-4.547952 38.079510 0.003371
-4.233231 38.079510 0.003385
-3.918510 38.079510 0.003504
-3.603789 38.079510 0.003527
-3.289068 38.079510 0.003335
-2.974347 38.079510 0.003321
-2.659626 38.079510 0.003432
-2.344905 38.079510 0.003332
-2.030184 38.079510 0.003128
-1.715463 38.079510 0.002933
-1.400742 38.079510 0.002916
-1.086021 38.079510 0.003092
-0.771300 38.079510 0.003183
-0.456579 38.079510 0.003098
-0.141859 38.079510 0.003113
0.172863 38.079510 0.003184
0.487584 38.079510 0.003277
0.802305 38.079510 0.003246
1.117026 38.079510 0.003179
1.431747 38.079510 0.003170
1.746467 38.079510 0.003125
2.061188 38.079510 0.003093
2.375909 38.079510 0.003105
2.690630 38.079510 0.003098
3.005352 38.079510 0.003145
3.320073 38.079510 0.003207
3.634794 38.079510 0.003250
3.949515 38.079510 0.003132
4.264236 38.079510 0.002988
4.578956 38.079510 0.002828
4.893677 38.079510 0.002962
5.208398 38.079510 0.003495
5.523119 38.079510 0.003967
5.837841 38.079510 0.004485
6.152562 38.079510 0.004840
6.467283 38.079510 0.005741
6.782003 38.079510 0.007754
7.096724 38.079510 0.011785
7.411445 38.079510 0.016996
7.726166 38.079510 0.029592
8.040888 38.079510 0.052525
8.355608 38.079510 0.087504
8.670330 38.079510 0.137713
8.985050 38.079510 0.210554
9.299772 38.079510 0.315700
9.614492 38.079510 0.427644
9.929214 38.079510 0.534069
10.243935 38.079510 0.649278
10.558655 38.079510 0.774830
10.873377 38.079510 0.881868
11.188097 38.079510 0.976982
11.502819 38.079510 1.065862
11.817539 38.079510 1.136663
12.132261 38.079510 1.187422
12.446981 38.079510 1.223909
12.761703 38.079510 1.232655
13.076424 38.079510 1.231223
13.391144 38.079510 1.223773
13.705866 38.079510 1.202307
14.020586 38.079510 1.159599
14.335308 38.079510 1.100575
14.650028 38.079510 1.003567
14.964750 38.079510 0.892735
15.279470 38.079510 0.746173
15.594193 38.079510 0.600483
15.908913 38.079510 0.444647
16.223633 38.079510 0.257924
16.538355 38.079510 0.000000
16.853075 38.079510 0.000000
17.167797 38.079510 0.000000
17.482517 38.079510 0.000000
17.797239 38.079510 0.000000
18.111959 38.079510 -0.246938
18.426680 38.079510 -0.311426
18.741402 38.079510 0.000000
-7.065720 37.764786 0.000000
-6.750999 37.764786 0.001508
-6.436278 37.764786 0.003478
-6.121557 37.764786 0.003298
-5.806836 37.764786 0.003328
-5.492115 37.764786 0.003446
-5.177394 37.764786 0.003433
-4.862673 37.764786 0.003408
-4.547952 37.764786 0.003371
-4.233231 37.764786 0.003359
-3.918510 37.764786 0.003447
-3.603789 37.764786 0.003431
-3.289068 37.764786 0.003296
-2.974347 37.764786 0.003343
-2.659626 37.764786 0.003476
-2.344905 37.764786 0.003407
-2.030184 37.764786 0.003169
-1.715463 37.764786 0.002961
-1.400742 37.764786 0.002937
-1.086021 37.764786 0.003144
-0.771300 37.764786 0.003259
-0.456579 37.764786 0.003122
-0.141859 37.764786 0.003119
0.172863 37.764786 0.003227
0.487584 37.764786 0.003360
0.802305 37.764786 0.003337
1.117026 37.764786 0.003257
1.431747 37.764786 0.003149
1.746467 37.764786 0.003103
2.061188 37.764786 0.003094
2.375909 37.764786 0.003122
2.690630 37.764786 0.003133
3.005352 37.764786 0.003152
3.320073 37.764786 0.003212
3.634794 37.764786 0.003295
3.949515 37.764786 0.003131
4.264236 37.764786 0.002896
4.578956 37.764786 0.002751
4.893677 37.764786 0.002979
5.208398 37.764786 0.003484
5.523119 37.764786 0.003973
5.837841 37.764786 0.004311
6.152562 37.764786 0.004609
6.467283 37.764786 0.005569
6.782003 37.764786 0.007441
7.096724 37.764786 0.011651
7.411445 37.764786 0.018065
7.726166 37.764786 0.028997
8.040888 37.764786 0.052726
8.355608 37.764786 0.088335
8.670330 37.764786 0.143849
8.985050 37.764786 0.216651
9.299772 37.764786 0.316937
9.614492 37.764786 0.429405
9.929214 37.764786 0.532005
10.243935 37.764786 0.654845
10.558655 37.764786 0.772001
10.873377 37.764786 0.881077
11.188097 37.764786 0.982037
11.502819 37.764786 1.067198
11.817539 37.764786 1.139914
12.132261 37.764786 1.197613
12.446981 37.764786 1.219515
12.761703 37.764786 1.228913
13.076424 37.764786 1.226005
13.391144 37.764786 1.217988
13.705866 37.764786 1.199704
14.020586 37.764786 1.151599
14.335308 37.764786 1.097533
14.650028 37.764786 1.008781
14.964750 37.764786 0.887471
15.279470 37.764786 0.745872
15.594193 37.764786 0.591790
15.908913 37.764786 0.423778
16.223633 37.764786 0.247173
16.538355 37.764786 0.000000
16.853075 37.764786 0.000000
17.167797 37.764786 0.000000
17.482517 37.764786 0.000000
17.797239 37.764786 0.000000
18.111959 37.764786 -0.557069
18.426680 37.764786 -0.893493
18.741402 37.764786 0.000000
-7.065720 37.450066 0.000000
-6.750999 37.450066 0.002294
-6.436278 37.450066 0.003546
-6.121557 37.450066 0.003356
-5.806836 37.450066 0.003430
-5.492115 37.450066 0.003573
-5.177394 37.450066 0.003535
-4.862673 37.450066 0.003459
-4.547952 37.450066 0.003425
-4.233231 37.450066 0.003378
-3.918510 37.450066 0.003384
-3.603789 37.450066 0.003330
-3.289068 37.450066 0.003249
-2.974347 37.450066 0.003345
-2.659626 37.450066 0.003499
-2.344905 37.450066 0.003458
-2.030184 37.450066 0.003210
-1.715463 37.450066 0.002994
-1.400742 37.450066 0.002973
-1.086021 37.450066 0.003126
-0.771300 37.450066 0.003219
-0.456579 37.450066 0.003101
-0.141859 37.450066 0.003097
0.172863 37.450066 0.003231
0.487584 37.450066 0.003328
0.802305 37.450066 0.003323
1.117026 37.450066 0.003229
1.431747 37.450066 0.003169
1.746467 37.450066 0.003152
2.061188 37.450066 0.003106
2.375909 37.450066 0.003126
2.690630 37.450066 0.003137
3.005352 37.450066 0.003193
3.320073 37.450066 0.003220
3.634794 37.450066 0.003250
3.949515 37.450066 0.003088
4.264236 37.450066 0.002886
4.578956 37.450066 0.002800
4.893677 37.450066 0.003079
5.208398 37.450066 0.003571
5.523119 37.450066 0.003911
5.837841 37.450066 0.004123
6.152562 37.450066 0.004671
6.467283 37.450066 0.005538
6.782003 37.450066 0.007511
7.096724 37.450066 0.011894
7.411445 37.450066 0.018658
7.726166 37.450066 0.029701
8.040888 37.450066 0.053263
8.355608 37.450066 0.088324
8.670330 37.450066 0.146633
8.985050 37.450066 0.224422
9.299772 37.450066 0.317225
9.614492 37.450066 0.436453
9.929214 37.450066 0.546316
10.243935 37.450066 0.665000
10.558655 37.450066 0.771233
10.873377 37.450066 0.881493
11.188097 37.450066 0.981416
11.502819 37.450066 1.070084
11.817539 37.450066 1.150826
12.132261 37.450066 1.205650
12.446981 37.450066 1.225196
12.761703 37.450066 1.232829
13.076424 37.450066 1.230587
13.391144 37.450066 1.219110
13.705866 37.450066 1.199222
14.020586 37.450066 1.147273
14.335308 37.450066 1.089269
14.650028 37.450066 1.002575
14.964750 37.450066 0.884964
15.279470 37.450066 0.740835
15.594193 37.450066 0.578535
15.908913 37.450066 0.422106
16.223633 37.450066 0.245678
16.538355 37.450066 0.000000
16.853075 37.450066 0.000000
17.167797 37.450066 0.000000
17.482517 37.450066 0.000000
17.797239 37.450066 0.000000
18.111959 37.450066 0.000000
18.426680 37.450066 0.000000
18.741402 37.450066 0.000000
-7.065720 37.135345 0.000000
-6.750999 37.135345 0.002759
-6.436278 37.135345 0.003615
-6.121557 37.135345 0.003397
-5.806836 37.135345 0.003501
-5.492115 37.135345 0.003671
-5.177394 37.135345 0.003612
-4.862673 37.135345 0.003484
-4.547952 37.135345 0.003476
-4.233231 37.135345 0.003413
-3.918510 37.135345 0.003337
-3.603789 37.135345 0.003230
-3.289068 37.135345 0.003191
-2.974347 37.135345 0.003329
-2.659626 37.135345 0.003486
-2.344905 37.135345 0.003480
-2.030184 37.135345 0.003275
-1.715463 37.135345 0.003061
-1.400742 37.135345 0.002983
-1.086021 37.135345 0.003055
-0.771300 37.135345 0.003125
-0.456579 37.135345 0.003057
-0.141859 37.135345 0.003071
0.172863 37.135345 0.003202
0.487584 37.135345 0.003237
0.802305 37.135345 0.003242
1.117026 37.135345 0.003161
1.431747 37.135345 0.003124
1.746467 37.135345 0.003104
2.061188 37.135345 0.003121
2.375909 37.135345 0.003139
2.690630 37.135345 0.003131
3.005352 37.135345 0.003200
3.320073 37.135345 0.003203
3.634794 37.135345 0.003145
3.949515 37.135345 0.002978
4.264236 37.135345 0.002874
4.578956 37.135345 0.002861
4.893677 37.135345 0.003034
5.208398 37.135345 0.003415
5.523119 37.135345 0.003705
5.837841 37.135345 0.003914
6.152562 37.135345 0.004589
6.467283 37.135345 0.005468
6.782003 37.135345 0.007101
7.096724 37.135345 0.011992
7.411445 37.135345 0.018685
7.726166 37.135345 0.029299
8.040888 37.135345 0.051254
8.355608 37.135345 0.089564
8.670330 37.135345 0.145902
8.985050 37.135345 0.219006
9.299772 37.135345 0.314921
9.614492 37.135345 0.433309
9.929214 37.135345 0.550868
10.243935 37.135345 0.669793
10.558655 37.135345 0.774144
10.873377 37.135345 0.884937
11.188097 37.135345 0.978087
11.502819 37.135345 1.067910
11.817539 37.135345 1.150005
12.132261 37.135345 1.207619
12.446981 37.135345 1.227780
12.761703 37.135345 1.234896
13.076424 37.135345 1.237822
13.391144 37.135345 1.216352
13.705866 37.135345 1.192134
14.020586 37.135345 1.144755
14.335308 37.135345 1.085917
14.650028 37.135345 0.999744
14.964750 37.135345 0.893739
15.279470 37.135345 0.748311
15.594193 37.135345 0.596115
15.908913 37.135345 0.419510
16.223633 37.135345 0.253017
16.538355 37.135345 0.000000
16.853075 37.135345 0.000000
17.167797 37.135345 0.000000
17.482517 37.135345 0.000000
17.797239 37.135345 0.000000
18.111959 37.135345 0.000000
18.426680 37.135345 0.000000
18.741402 37.135345 0.000000
-7.065720 36.820625 0.000000
-6.750999 36.820625 0.003120
-6.436278 36.820625 0.003698
-6.121557 36.820625 0.003459
-5.806836 36.820625 0.003516
-5.492115 36.820625 0.003695
-5.177394 36.820625 0.003658
-4.862673 36.820625 0.003527
-4.547952 36.820625 0.003522
-4.233231 36.820625 0.003459
-3.918510 36.820625 0.003311
-3.603789 36.820625 0.003165
-3.289068 36.820625 0.003167
-2.974347 36.820625 0.003337
-2.659626 36.820625 0.003451
-2.344905 36.820625 0.003425
-2.030184 36.820625 0.003365
-1.715463 36.820625 0.003172
-1.400742 36.820625 0.003011
-1.086021 36.820625 0.002973
-0.771300 36.820625 0.003015
-0.456579 36.820625 0.003005
-0.141859 36.820625 0.003101
0.172863 36.820625 0.003131
0.487584 36.820625 0.003156
0.802305 36.820625 0.003128
1.117026 36.820625 0.003061
1.431747 36.820625 0.003024
1.746467 36.820625 0.003126
2.061188 36.820625 0.003162
2.375909 36.820625 0.003158
2.690630 36.820625 0.003128
3.005352 36.820625 0.003167
3.320073 36.820625 0.003158
3.634794 36.820625 0.003075
3.949515 36.820625 0.002959
4.264236 36.820625 0.002951
4.578956 36.820625 0.003144
4.893677 36.820625 0.003214
5.208398 36.820625 0.003350
5.523119 36.820625 0.003456
5.837841 36.820625 0.003659
6.152562 36.820625 0.004300
6.467283 36.820625 0.005314
6.782003 36.820625 0.007409
7.096724 36.820625 0.011804
7.411445 36.820625 0.018137
7.726166 36.820625 0.029364
8.040888 36.820625 0.051814
8.355608 36.820625 0.088623
8.670330 36.820625 0.147401
8.985050 36.820625 0.217656
9.299772 36.820625 0.315623
9.614492 36.820625 0.432724
9.929214 36.820625 0.544109
10.243935 36.820625 0.664099
10.558655 36.820625 0.764948
10.873377 36.820625 0.873965
11.188097 36.820625 0.978370
11.502819 36.820625 1.058161
11.817539 36.820625 1.134645
12.132261 36.820625 1.207551
12.446981 36.820625 1.233266
12.761703 36.820625 1.252224
13.076424 36.820625 1.238498
13.391144 36.820625 1.219566
13.705866 36.820625 1.197151
14.020586 36.820625 1.158489
14.335308 36.820625 1.090758
14.650028 36.820625 1.002008
14.964750 36.820625 0.889344
15.279470 36.820625 0.763179
15.594193 36.820625 0.604778
15.908913 36.820625 0.427349
16.223633 36.820625 0.257323
16.538355 36.820625 0.000000
16.853075 36.820625 0.000000
17.167797 36.820625 0.000000
17.482517 36.820625 0.000000
17.797239 36.820625 0.000000
18.111959 36.820625 0.000000
18.426680 36.820625 0.000000
18.741402 36.820625 0.000000
-7.065720 36.505905 0.000000
-6.750999 36.505905 0.003901
-6.436278 36.505905 0.003786
-6.121557 36.505905 0.003497
-5.806836 36.505905 0.003485
-5.492115 36.505905 0.003651
-5.177394 36.505905 0.003642
-4.862673 36.505905 0.003525
-4.547952 36.505905 0.003564
-4.233231 36.505905 0.003531
-3.918510 36.505905 0.003370
-3.603789 36.505905 0.003201
-3.289068 36.505905 0.003212
-2.974347 36.505905 0.003310
-2.659626 36.505905 0.003366
-2.344905 36.505905 0.003368
-2.030184 36.505905 0.003389
-1.715463 36.505905 0.003246
-1.400742 36.505905 0.003053
-1.086021 36.505905 0.002929
-0.771300 36.505905 0.002921
-0.456579 36.505905 0.003006
-0.141859 36.505905 0.003163
0.172863 36.505905 0.003126
0.487584 36.505905 0.003097
0.802305 36.505905 0.003035
1.117026 36.505905 0.002989
1.431747 36.505905 0.003024
1.746467 36.505905 0.003159
2.061188 36.505905 0.003230
2.375909 36.505905 0.003224
2.690630 36.505905 0.003156
3.005352 36.505905 0.003143
3.320073 36.505905 0.003095
3.634794 36.505905 0.003026
3.949515 36.505905 0.002979
4.264236 36.505905 0.003127
4.578956 36.505905 0.003342
4.893677 36.505905 0.003399
5.208398 36.505905 0.003369
5.523119 36.505905 0.003427
5.837841 36.505905 0.003743
6.152562 36.505905 0.004298
6.467283 36.505905 0.004993
6.782003 36.505905 0.007130
7.096724 36.505905 0.011815
7.411445 36.505905 0.019465
7.726166 36.505905 0.029357
8.040888 36.505905 0.052944
8.355608 36.505905 0.088676
8.670330 36.505905 0.147741
8.985050 36.505905 0.218945
9.299772 36.505905 0.313609
9.614492 36.505905 0.420474
9.929214 36.505905 0.543970
10.243935 36.505905 0.661118
10.558655 36.505905 0.770329
10.873377 36.505905 0.871073
11.188097 36.505905 0.979320
11.502819 36.505905 1.059647
11.817539 36.505905 1.128263
12.132261 36.505905 1.201256
12.446981 36.505905 1.239208
12.761703 36.505905 1.255496
13.076424 36.505905 1.245696
13.391144 36.505905 1.224628
13.705866 36.505905 1.200014
14.020586 36.505905 1.160268
14.335308 36.505905 1.095492
14.650028 36.505905 1.003830
14.964750 36.505905 0.894774
15.279470 36.505905 0.770981
15.594193 36.505905 0.613940
15.908913 36.505905 0.426504
16.223633 36.505905 0.259347
16.538355 36.505905 0.000000
16.853075 36.505905 0.000000
17.167797 36.505905 0.000000
17.482517 36.505905 0.000000
17.797239 36.505905 0.000000
18.111959 36.505905 0.000000
18.426680 36.505905 0.000000
18.741402 36.505905 0.000000
-7.065720 36.191185 0.000000
-6.750999 36.191185 0.004070
-6.436278 36.191185 0.003772
-6.121557 36.191185 0.003485
-5.806836 36.191185 0.003415
-5.492115 36.191185 0.003555
-5.177394 36.191185 0.003580
-4.862673 36.191185 0.003540
-4.547952 36.191185 0.003584
-4.233231 36.191185 0.003621
-3.918510 36.191185 0.003468
-3.603789 36.191185 0.003326
-3.289068 36.191185 0.003333
-2.974347 36.191185 0.003336
-2.659626 36.191185 0.003309
-2.344905 36.191185 0.003337
-2.030184 36.191185 0.003399
-1.715463 36.191185 0.003327
-1.400742 36.191185 0.003132
-1.086021 36.191185 0.002953
-0.771300 36.191185 0.002926
-0.456579 36.191185 0.003040
-0.141859 36.191185 0.003188
0.172863 36.191185 0.003196
0.487584 36.191185 0.003124
0.802305 36.191185 0.003000
1.117026 36.191185 0.002986
1.431747 36.191185 0.003072
1.746467 36.191185 0.003215
2.061188 36.191185 0.003310
2.375909 36.191185 0.003312
2.690630 36.191185 0.003189
3.005352 36.191185 0.003086
3.320073 36.191185 0.003013
3.634794 36.191185 0.003022
3.949515 36.191185 0.003086
4.264236 36.191185 0.003290
4.578956 36.191185 0.003572
4.893677 36.191185 0.003539
5.208398 36.191185 0.003469
5.523119 36.191185 0.003515
5.837841 36.191185 0.003870
6.152562 36.191185 0.004462
6.467283 36.191185 0.005296
6.782003 36.191185 0.007404
7.096724 36.191185 0.012174
7.411445 36.191185 0.018446
7.726166 36.191185 0.030130
8.040888 36.191185 0.051031
8.355608 36.191185 0.088278
8.670330 36.191185 0.146010
8.985050 36.191185 0.219848
9.299772 36.191185 0.311065
9.614492 36.191185 0.424244
9.929214 36.191185 0.547068
10.243935 36.191185 0.660176
10.558655 36.191185 0.772635
10.873377 36.191185 0.883326
11.188097 36.191185 0.972357
11.502819 36.191185 1.059439
11.817539 36.191185 1.130961
12.132261 36.191185 1.191126
12.446981 36.191185 1.244921
12.761703 36.191185 1.260641
13.076424 36.191185 1.252220
13.391144 36.191185 1.230368
13.705866 36.191185 1.203576
14.020586 36.191185 1.160536
14.335308 36.191185 1.098158
14.650028 36.191185 1.008544
14.964750 36.191185 0.902239
15.279470 36.191185 0.771701
15.594193 36.191185 0.609973
15.908913 36.191185 0.432223
16.223633 36.191185 0.264320
16.538355 36.191185 0.000000
16.853075 36.191185 0.000000
17.167797 36.191185 0.000000
17.482517 36.191185 0.000000
17.797239 36.191185 0.000000
18.111959 36.191185 0.000000
18.426680 36.191185 0.000000
18.741402 36.191185 0.000000
-7.065720 35.876461 0.000000
-6.750999 35.876461 0.003989
-6.436278 35.876461 0.003672
-6.121557 35.876461 0.003420
-5.806836 35.876461 0.003350
-5.492115 35.876461 0.003487
-5.177394 35.876461 0.003568
-4.862673 35.876461 0.003579
-4.547952 35.876461 0.003618
-4.233231 35.876461 0.003668
-3.918510 35.876461 0.003589
-3.603789 35.876461 0.003509
-3.289068 35.876461 0.003500
-2.974347 35.876461 0.003381
-2.659626 35.876461 0.003293
-2.344905 35.876461 0.003340
-2.030184 35.876461 0.003408
-1.715463 35.876461 0.003387
-1.400742 35.876461 0.003218
-1.086021 35.876461 0.003002
-0.771300 35.876461 0.003003
-0.456579 35.876461 0.003084
-0.141859 35.876461 0.003206
0.172863 35.876461 0.003217
0.487584 35.876461 0.003158
0.802305 35.876461 0.003051
1.117026 35.876461 0.003066
1.431747 35.876461 0.003158
1.746467 35.876461 0.003300
2.061188 35.876461 0.003379
2.375909 35.876461 0.003360
2.690630 35.876461 0.003237
3.005352 35.876461 0.003054
3.320073 35.876461 0.002966
3.634794 35.876461 0.003048
3.949515 35.876461 0.003176
4.264236 35.876461 0.003460
4.578956 35.876461 0.003667
4.893677 35.876461 0.003631
5.208398 35.876461 0.003559
5.523119 35.876461 0.003601
5.837841 35.876461 0.004068
6.152562 35.876461 0.004666
6.467283 35.876461 0.005881
6.782003 35.876461 0.008024
7.096724 35.876461 0.011123
7.411445 35.876461 0.017557
7.726166 35.876461 0.029599
8.040888 35.876461 0.052095
8.355608 35.876461 0.091955
8.670330 35.876461 0.149890
8.985050 35.876461 0.225561
9.299772 35.876461 0.317957
9.614492 35.876461 0.430081
9.929214 35.876461 0.543614
10.243935 35.876461 0.659570
10.558655 35.876461 0.770780
10.873377 35.876461 0.879108
11.188097 35.876461 0.979734
11.502819 35.876461 1.069051
11.817539 35.876461 1.135757
12.132261 35.876461 1.201928
12.446981 35.876461 1.238940
12.761703 35.876461 1.267752
13.076424 35.876461 1.267386
13.391144 35.876461 1.242583
13.705866 35.876461 1.217210
14.020586 35.876461 1.162364
14.335308 35.876461 1.102068
14.650028 35.876461 1.019046
14.964750 35.876461 0.911021
15.279470 35.876461 0.778175
15.594193 35.876461 0.619202
15.908913 35.876461 0.450781
16.223633 35.876461 0.287609
16.538355 35.876461 0.000000
16.853075 35.876461 0.000000
17.167797 35.876461 0.000000
17.482517 35.876461 0.000000
17.797239 35.876461 0.000000
18.111959 35.876461 0.000000
18.426680 35.876461 0.000000
18.741402 35.876461 0.000000
-7.065720 35.561741 0.000000
-6.750999 35.561741 0.003785
-6.436278 35.561741 0.003520
-6.121557 35.561741 0.003360
-5.806836 35.561741 0.003364
-5.492115 35.561741 0.003461
-5.177394 35.561741 0.003544
-4.862673 35.561741 0.003628
-4.547952 35.561741 0.003662
-4.233231 35.561741 0.003752
-3.918510 35.561741 0.003757
-3.603789 35.561741 0.003703
-3.289068 35.561741 0.003657
-2.974347 35.561741 0.003461
-2.659626 35.561741 0.003326
-2.344905 35.561741 0.003334
-2.030184 35.561741 0.003398
-1.715463 35.561741 0.003410
-1.400742 35.561741 0.003278
-1.086021 35.561741 0.003108
-0.771300 35.561741 0.003129
-0.456579 35.561741 0.003174
-0.141859 35.561741 0.003227
0.172863 35.561741 0.003270
0.487584 35.561741 0.003200
0.802305 35.561741 0.003118
1.117026 35.561741 0.003175
1.431747 35.561741 0.003301
1.746467 35.561741 0.003367
2.061188 35.561741 0.003400
2.375909 35.561741 0.003348
2.690630 35.561741 0.003241
3.005352 35.561741 0.003039
3.320073 35.561741 0.002960
3.634794 35.561741 0.003101
3.949515 35.561741 0.003298
4.264236 35.561741 0.003455
4.578956 35.561741 0.003673
4.893677 35.561741 0.003686
5.208398 35.561741 0.003727
5.523119 35.561741 0.003815
5.837841 35.561741 0.003988
6.152562 35.561741 0.004802
6.467283 35.561741 0.005951
6.782003 35.561741 0.007386
7.096724 35.561741 0.011647
7.411445 35.561741 0.017563
7.726166 35.561741 0.030650
8.040888 35.561741 0.052001
8.355608 35.561741 0.089187
8.670330 35.561741 0.151388
8.985050 35.561741 0.230540
9.299772 35.561741 0.321803
9.614492 35.561741 0.428160
9.929214 35.561741 0.544444
10.243935 35.561741 0.656756
10.558655 35.561741 0.763820
10.873377 35.561741 0.871323
11.188097 35.561741 0.975831
11.502819 35.561741 1.066509
11.817539 35.561741 1.142182
12.132261 35.561741 1.202021
12.446981 35.561741 1.249577
12.761703 35.561741 1.275643
13.076424 35.561741 1.282744
13.391144 35.561741 1.256296
13.705866 35.561741 1.226483
14.020586 35.561741 1.174145
14.335308 35.561741 1.103058
14.650028 35.561741 1.023710
14.964750 35.561741 0.909930
15.279470 35.561741 0.785271
15.594193 35.561741 0.631905
15.908913 35.561741 0.456742
16.223633 35.561741 0.292670
16.538355 35.561741 0.000000
16.853075 35.561741 0.000000
17.167797 35.561741 0.000000
17.482517 35.561741 0.000000
17.797239 35.561741 0.000000
18.111959 35.561741 0.000000
18.426680 35.561741 0.000000
18.741402 35.561741 0.000000
-7.065720 35.247021 0.000000
-6.750999 35.247021 0.003534
-6.436278 35.247021 0.003393
-6.121557 35.247021 0.003336
-5.806836 35.247021 0.003404
-5.492115 35.247021 0.003477
-5.177394 35.247021 0.003572
-4.862673 35.247021 0.003647
-4.547952 35.247021 0.003706
-4.233231 35.247021 0.003837
-3.918510 35.247021 0.003907
-3.603789 35.247021 0.003853
-3.289068 35.247021 0.003766
-2.974347 35.247021 0.003529
-2.659626 35.247021 0.003364
-2.344905 35.247021 0.003346
-2.030184 35.247021 0.003357
-1.715463 35.247021 0.003385
-1.400742 35.247021 0.003378
-1.086021 35.247021 0.003280
-0.771300 35.247021 0.003283
-0.456579 35.247021 0.003282
-0.141859 35.247021 0.003271
0.172863 35.247021 0.003283
0.487584 35.247021 0.003216
0.802305 35.247021 0.003164
1.117026 35.247021 0.003274
1.431747 35.247021 0.003421
1.746467 35.247021 0.003445
2.061188 35.247021 0.003383
2.375909 35.247021 0.003291
2.690630 35.247021 0.003221
3.005352 35.247021 0.003120
3.320073 35.247021 0.003067
3.634794 35.247021 0.003179
3.949515 35.247021 0.003405
4.264236 35.247021 0.003521
4.578956 35.247021 0.003560
4.893677 35.247021 0.003616
5.208398 35.247021 0.003620
5.523119 35.247021 0.003804
5.837841 35.247021 0.004230
6.152562 35.247021 0.004820
6.467283 35.247021 0.005778
6.782003 35.247021 0.007724
7.096724 35.247021 0.011623
7.411445 35.247021 0.018336
7.726166 35.247021 0.031188
8.040888 35.247021 0.051138
8.355608 35.247021 0.086823
8.670330 35.247021 0.150566
8.985050 35.247021 0.225000
9.299772 35.247021 0.321162
9.614492 35.247021 0.429836
9.929214 35.247021 0.548618
10.243935 35.247021 0.657628
10.558655 35.247021 0.768611
10.873377 35.247021 0.877140
11.188097 35.247021 0.970402
11.502819 35.247021 1.060516
11.817539 35.247021 1.141361
12.132261 35.247021 1.198435
12.446981 35.247021 1.246285
12.761703 35.247021 1.282911
13.076424 35.247021 1.285807
13.391144 35.247021 1.272729
13.705866 35.247021 1.236871
14.020586 35.247021 1.181048
14.335308 35.247021 1.104029
14.650028 35.247021 1.025178
14.964750 35.247021 0.907160
15.279470 35.247021 0.782608
15.594193 35.247021 0.638146
15.908913 35.247021 0.475357
16.223633 35.247021 0.303762
16.538355 35.247021 0.000000
16.853075 35.247021 0.000000
17.167797 35.247021 0.000000
17.482517 35.247021 0.000000
17.797239 35.247021 0.000000
18.111959 35.247021 0.000000
18.426680 35.247021 0.000000
18.741402 35.247021 0.000000
-7.065720 34.932297 0.000000
-6.750999 34.932297 0.003413
-6.436278 34.932297 0.003332
-6.121557 34.932297 0.003331
-5.806836 34.932297 0.003473
-5.492115 34.932297 0.003510
-5.177394 34.932297 0.003555
-4.862673 34.932297 0.003644
-4.547952 34.932297 0.003730
-4.233231 34.932297 0.003892
-3.918510 34.932297 0.004006
-3.603789 34.932297 0.003932
-3.289068 34.932297 0.003782
-2.974347 34.932297 0.003560
-2.659626 34.932297 0.003417
-2.344905 34.932297 0.003342
-2.030184 34.932297 0.003311
-1.715463 34.932297 0.003344
-1.400742 34.932297 0.003451
-1.086021 34.932297 0.003413
-0.771300 34.932297 0.003407
-0.456579 34.932297 0.003370
-0.141859 34.932297 0.003299
0.172863 34.932297 0.003274
0.487584 34.932297 0.003214
0.802305 34.932297 0.003201
1.117026 34.932297 0.003318
1.431747 34.932297 0.003454
1.746467 34.932297 0.003450
2.061188 34.932297 0.003354
2.375909 34.932297 0.003175
2.690630 34.932297 0.003173
3.005352 34.932297 0.003176
3.320073 34.932297 0.003151
3.634794 34.932297 0.003260
3.949515 34.932297 0.003455
4.264236 34.932297 0.003480
4.578956 34.932297 0.003517
4.893677 34.932297 0.003655
5.208398 34.932297 0.003710
5.523119 34.932297 0.003762
5.837841 34.932297 0.004125
6.152562 34.932297 0.004786
6.467283 34.932297 0.005519
6.782003 34.932297 0.007405
7.096724 34.932297 0.011559
7.411445 34.932297 0.018601
7.726166 34.932297 0.030325
8.040888 34.932297 0.049490
8.355608 34.932297 0.087195
8.670330 34.932297 0.143449
8.985050 34.932297 0.219925
9.299772 34.932297 0.319678
9.614492 34.932297 0.431359
9.929214 34.932297 0.553709
10.243935 34.932297 0.660386
10.558655 34.932297 0.771658
10.873377 34.932297 0.880625
11.188097 34.932297 0.980649
11.502819 34.932297 1.063339
11.817539 34.932297 1.143980
12.132261 34.932297 1.206267
12.446981 34.932297 1.252675
12.761703 34.932297 1.279593
13.076424 34.932297 1.294094
13.391144 34.932297 1.270994
13.705866 34.932297 1.247864
14.020586 34.932297 1.190640
14.335308 34.932297 1.120592
14.650028 34.932297 1.026193
14.964750 34.932297 0.916042
15.279470 34.932297 0.787744
15.594193 34.932297 0.643349
15.908913 34.932297 0.481209
16.223633 34.932297 0.315550
16.538355 34.932297 0.000000
16.853075 34.932297 0.000000
17.167797 34.932297 0.000000
17.482517 34.932297 0.000000
17.797239 34.932297 0.000000
18.111959 34.932297 0.000000
18.426680 34.932297 0.000000
18.741402 34.932297 0.000000
-7.065720 34.617577 0.000000
-6.750999 34.617577 0.003480
-6.436278 34.617577 0.003348
-6.121557 34.617577 0.003405
-5.806836 34.617577 0.003562
-5.492115 34.617577 0.003572
-5.177394 34.617577 0.003567
-4.862673 34.617577 0.003637
-4.547952 34.617577 0.003771
-4.233231 34.617577 0.003997
-3.918510 34.617577 0.004083
-3.603789 34.617577 0.003945
-3.289068 34.617577 0.003752
-2.974347 34.617577 0.003598
-2.659626 34.617577 0.003504
-2.344905 34.617577 0.003409
-2.030184 34.617577 0.003294
-1.715463 34.617577 0.003290
-1.400742 34.617577 0.003499
-1.086021 34.617577 0.003555
-0.771300 34.617577 0.003447
-0.456579 34.617577 0.003361
-0.141859 34.617577 0.003309
0.172863 34.617577 0.003288
0.487584 34.617577 0.003271
0.802305 34.617577 0.003216
1.117026 34.617577 0.003344
1.431747 34.617577 0.003432
1.746467 34.617577 0.003421
2.061188 34.617577 0.003263
2.375909 34.617577 0.003095
2.690630 34.617577 0.003151
3.005352 34.617577 0.003189
3.320073 34.617577 0.003253
3.634794 34.617577 0.003303
3.949515 34.617577 0.003448
4.264236 34.617577 0.003416
4.578956 34.617577 0.003458
4.893677 34.617577 0.003619
5.208398 34.617577 0.003843
5.523119 34.617577 0.003934
5.837841 34.617577 0.004138
6.152562 34.617577 0.004650
6.467283 34.617577 0.005253
6.782003 34.617577 0.007522
7.096724 34.617577 0.012375
7.411445 34.617577 0.018692
7.726166 34.617577 0.030433
8.040888 34.617577 0.052163
8.355608 34.617577 0.085359
8.670330 34.617577 0.145888
8.985050 34.617577 0.219874
9.299772 34.617577 0.319265
9.614492 34.617577 0.430298
9.929214 34.617577 0.549983
10.243935 34.617577 0.660675
10.558655 34.617577 0.779409
10.873377 34.617577 0.893214
11.188097 34.617577 0.978889
11.502819 34.617577 1.069608
11.817539 34.617577 1.146389
12.132261 34.617577 1.213271
12.446981 34.617577 1.250463
12.761703 34.617577 1.283761
13.076424 34.617577 1.286810
13.391144 34.617577 1.268988
13.705866 34.617577 1.234036
14.020586 34.617577 1.193901
14.335308 34.617577 1.127061
14.650028 34.617577 1.032417
14.964750 34.617577 0.921718
15.279470 34.617577 0.801678
15.594193 34.617577 0.648760
15.908913 34.617577 0.483412
16.223633 34.617577 0.314960
16.538355 34.617577 0.000000
16.853075 34.617577 0.000000
17.167797 34.617577 0.000000
17.482517 34.617577 0.000000
17.797239 34.617577 0.000000
18.111959 34.617577 0.000000
18.426680 34.617577 0.000000
18.741402 34.617577 0.000000
-7.065720 34.302856 0.000000
-6.750999 34.302856 0.003574
-6.436278 34.302856 0.003415
-6.121557 34.302856 0.003475
-5.806836 34.302856 0.003655
-5.492115 34.302856 0.003674
-5.177394 34.302856 0.003593
-4.862673 34.302856 0.003628
-4.547952 34.302856 0.003810
-4.233231 34.302856 0.004055
-3.918510 34.302856 0.004091
-3.603789 34.302856 0.003909
-3.289068 34.302856 0.003728
-2.974347 34.302856 0.003657
-2.659626 34.302856 0.003639
-2.344905 34.302856 0.003499
-2.030184 34.302856 0.003324
-1.715463 34.302856 0.003289
-1.400742 34.302856 0.003538
-1.086021 34.302856 0.003653
-0.771300 34.302856 0.003475
-0.456579 34.302856 0.003304
-0.141859 34.302856 0.003301
0.172863 34.302856 0.003318
0.487584 34.302856 0.003321
0.802305 34.302856 0.003291
1.117026 34.302856 0.003311
1.431747 34.302856 0.003391
1.746467 34.302856 0.003326
2.061188 34.302856 0.003173
2.375909 34.302856 0.003050
2.690630 34.302856 0.003149
3.005352 34.302856 0.003270
3.320073 34.302856 0.003315
3.634794 34.302856 0.003293
3.949515 34.302856 0.003318
4.264236 34.302856 0.003292
4.578956 34.302856 0.003365
4.893677 34.302856 0.003602
5.208398 34.302856 0.003968
5.523119 34.302856 0.004321
5.837841 34.302856 0.004435
6.152562 34.302856 0.004961
6.467283 34.302856 0.005594
6.782003 34.302856 0.007694
7.096724 34.302856 0.011972
7.411445 34.302856 0.018857
7.726166 34.302856 0.030379
8.040888 34.302856 0.051616
8.355608 34.302856 0.088116
8.670330 34.302856 0.148645
8.985050 34.302856 0.224088
9.299772 34.302856 0.327512
9.614492 34.302856 0.437773
9.929214 34.302856 0.544722
10.243935 34.302856 0.661807
10.558655 34.302856 0.777636
10.873377 34.302856 0.890184
11.188097 34.302856 0.981905
11.502819 34.302856 1.068376
11.817539 34.302856 1.144534
12.132261 34.302856 1.209705
12.446981 34.302856 1.251021
12.761703 34.302856 1.285322
13.076424 34.302856 1.296070
13.391144 34.302856 1.269578
13.705866 34.302856 1.233110
14.020586 34.302856 1.191083
14.335308 34.302856 1.115986
14.650028 34.302856 1.029475
14.964750 34.302856 0.929992
15.279470 34.302856 0.801959
15.594193 34.302856 0.653887
15.908913 34.302856 0.480423
16.223633 34.302856 0.297924
16.538355 34.302856 0.000000
16.853075 34.302856 0.000000
17.167797 34.302856 0.000000
17.482517 34.302856 0.000000
17.797239 34.302856 0.000000
18.111959 34.302856 0.000000
18.426680 34.302856 0.000000
18.741402 34.302856 0.000000
-7.065720 33.988136 0.000000
-6.750999 33.988136 0.003619
-6.436278 33.988136 0.003485
-6.121557 33.988136 0.003547
-5.806836 33.988136 0.003740
-5.492115 33.988136 0.003785
-5.177394 33.988136 0.003667
-4.862673 33.988136 0.003678
-4.547952 33.988136 0.003846
-4.233231 33.988136 0.004049
-3.918510 33.988136 0.004035
-3.603789 33.988136 0.003888
-3.289068 33.988136 0.003756
-2.974347 33.988136 0.003762
-2.659626 33.988136 0.003770
-2.344905 33.988136 0.003604
-2.030184 33.988136 0.003401
-1.715463 33.988136 0.003288
-1.400742 33.988136 0.003566
-1.086021 33.988136 0.003662
-0.771300 33.988136 0.003448
-0.456579 33.988136 0.003269
-0.141859 33.988136 0.003311
0.172863 33.988136 0.003379
0.487584 33.988136 0.003363
0.802305 33.988136 0.003315
1.117026 33.988136 0.003319
1.431747 33.988136 0.003280
1.746467 33.988136 0.003213
2.061188 33.988136 0.003095
2.375909 33.988136 0.003034
2.690630 33.988136 0.003155
3.005352 33.988136 0.003284
3.320073 33.988136 0.003349
3.634794 33.988136 0.003261
3.949515 33.988136 0.003236
4.264236 33.988136 0.003163
4.578956 33.988136 0.003298
4.893677 33.988136 0.003605
5.208398 33.988136 0.004014
5.523119 33.988136 0.004347
5.837841 33.988136 0.004746
6.152562 33.988136 0.004994
6.467283 33.988136 0.005707
6.782003 33.988136 0.007901
7.096724 33.988136 0.011068
7.411445 33.988136 0.017819
7.726166 33.988136 0.029102
8.040888 33.988136 0.052491
8.355608 33.988136 0.089391
8.670330 33.988136 0.148553
8.985050 33.988136 0.232337
9.299772 33.988136 0.320938
9.614492 33.988136 0.429190
9.929214 33.988136 0.540413
10.243935 33.988136 0.659878
10.558655 33.988136 0.779886
10.873377 33.988136 0.890293
11.188097 33.988136 0.982810
11.502819 33.988136 1.070009
11.817539 33.988136 1.142154
12.132261 33.988136 1.206032
12.446981 33.988136 1.258027
12.761703 33.988136 1.290855
13.076424 33.988136 1.300044
13.391144 33.988136 1.279462
13.705866 33.988136 1.242655
14.020586 33.988136 1.190040
14.335308 33.988136 1.115092
14.650028 33.988136 1.030835
14.964750 33.988136 0.929171
15.279470 33.988136 0.809588
15.594193 33.988136 0.655739
15.908913 33.988136 0.479032
16.223633 33.988136 0.287938
16.538355 33.988136 0.000000
16.853075 33.988136 0.000000
17.167797 33.988136 0.000000
17.482517 33.988136 0.000000
17.797239 33.988136 0.000000
18.111959 33.988136 0.000000
18.426680 33.988136 0.000000
18.741402 33.988136 0.000000
-7.065720 33.673416 0.000000
-6.750999 33.673416 0.003652
-6.436278 33.673416 0.003551
-6.121557 33.673416 0.003631
-5.806836 33.673416 0.003844
-5.492115 33.673416 0.003910
-5.177394 33.673416 0.003805
-4.862673 33.673416 0.003781
-4.547952 33.673416 0.003901
-4.233231 33.673416 0.003971
-3.918510 33.673416 0.003911
-3.603789 33.673416 0.003848
-3.289068 33.673416 0.003844
-2.974347 33.673416 0.003856
-2.659626 33.673416 0.003867
-2.344905 33.673416 0.003690
-2.030184 33.673416 0.003490
-1.715463 33.673416 0.003423
-1.400742 33.673416 0.003606
-1.086021 33.673416 0.003653
-0.771300 33.673416 0.003405
-0.456579 33.673416 0.003262
-0.141859 33.673416 0.003318
0.172863 33.673416 0.003419
0.487584 33.673416 0.003427
0.802305 33.673416 0.003443
1.117026 33.673416 0.003328
1.431747 33.673416 0.003202
1.746467 33.673416 0.003119
2.061188 33.673416 0.003104
2.375909 33.673416 0.003055
2.690630 33.673416 0.003097
3.005352 33.673416 0.003249
3.320073 33.673416 0.003343
3.634794 33.673416 0.003290
3.949515 33.673416 0.003178
4.264236 33.673416 0.003140
4.578956 33.673416 0.003159
4.893677 33.673416 0.003465
5.208398 33.673416 0.003837
5.523119 33.673416 0.004314
5.837841 33.673416 0.004637
6.152562 33.673416 0.004859
6.467283 33.673416 0.005767
6.782003 33.673416 0.007165
7.096724 33.673416 0.011007
7.411445 33.673416 0.017358
7.726166 33.673416 0.028495
8.040888 33.673416 0.051484
8.355608 33.673416 0.090751
8.670330 33.673416 0.153892
8.985050 33.673416 0.232984
9.299772 33.673416 0.324099
9.614492 33.673416 0.429854
9.929214 33.673416 0.540993
10.243935 33.673416 0.663773
10.558655 33.673416 0.783437
10.873377 33.673416 0.891263
11.188097 33.673416 0.987066
11.502819 33.673416 1.067910
11.817539 33.673416 1.142585
12.132261 33.673416 1.204999
12.446981 33.673416 1.254646
12.761703 33.673416 1.292491
13.076424 33.673416 1.304871
13.391144 33.673416 1.274976
13.705866 33.673416 1.235369
14.020586 33.673416 1.188813
14.335308 33.673416 1.120895
14.650028 33.673416 1.041022
14.964750 33.673416 0.930232
15.279470 33.673416 0.804773
15.594193 33.673416 0.654285
15.908913 33.673416 0.484293
16.223633 33.673416 0.316488
16.538355 33.673416 0.000000
16.853075 33.673416 0.000000
17.167797 33.673416 0.000000
17.482517 33.673416 0.000000
17.797239 33.673416 0.000000
18.111959 33.673416 0.000000
18.426680 33.673416 0.000000
18.741402 33.673416 0.000000
-7.065720 33.358696 0.000000
-6.750999 33.358696 0.003706
-6.436278 33.358696 0.003627
-6.121557 33.358696 0.003722
-5.806836 33.358696 0.003978
-5.492115 33.358696 0.004030
-5.177394 33.358696 0.003934
-4.862673 33.358696 0.003930
-4.547952 33.358696 0.003945
-4.233231 33.358696 0.003825
-3.918510 33.358696 0.003707
-3.603789 33.358696 0.003766
-3.289068 33.358696 0.003889
-2.974347 33.358696 0.003945
-2.659626 33.358696 0.003902
-2.344905 33.358696 0.003725
-2.030184 33.358696 0.003552
-1.715463 33.358696 0.003521
-1.400742 33.358696 0.003619
-1.086021 33.358696 0.003591
-0.771300 33.358696 0.003371
-0.456579 33.358696 0.003316
-0.141859 33.358696 0.003389
0.172863 33.358696 0.003479
0.487584 33.358696 0.003482
0.802305 33.358696 0.003511
1.117026 33.358696 0.003376
1.431747 33.358696 0.003167
1.746467 33.358696 0.003115
2.061188 33.358696 0.003191
2.375909 33.358696 0.003117
2.690630 33.358696 0.003065
3.005352 33.358696 0.003196
3.320073 33.358696 0.003341
3.634794 33.358696 0.003325
3.949515 33.358696 0.003207
4.264236 33.358696 0.003113
4.578956 33.358696 0.003160
4.893677 33.358696 0.003336
5.208398 33.358696 0.003702
5.523119 33.358696 0.004083
5.837841 33.358696 0.004281
6.152562 33.358696 0.004653
6.467283 33.358696 0.005732
6.782003 33.358696 0.007048
7.096724 33.358696 0.010479
7.411445 33.358696 0.017266
7.726166 33.358696 0.029807
8.040888 33.358696 0.053407
8.355608 33.358696 0.092059
8.670330 33.358696 0.151510
8.985050 33.358696 0.227092
9.299772 33.358696 0.324512
9.614492 33.358696 0.428348
9.929214 33.358696 0.543941
10.243935 33.358696 0.661694
10.558655 33.358696 0.782697
10.873377 33.358696 0.895973
11.188097 33.358696 0.999695
11.502819 33.358696 1.079989
11.817539 33.358696 1.152946
12.132261 33.358696 1.205528
12.446981 33.358696 1.253638
12.761703 33.358696 1.292764
13.076424 33.358696 1.299196
13.391144 33.358696 1.268182
13.705866 33.358696 1.233081
14.020586 33.358696 1.186662
14.335308 33.358696 1.129667
14.650028 33.358696 1.049430
14.964750 33.358696 0.934052
15.279470 33.358696 0.815467
15.594193 33.358696 0.659198
15.908913 33.358696 0.485772
16.223633 33.358696 0.086063
16.538355 33.358696 0.000000
16.853075 33.358696 0.000000
17.167797 33.358696 0.000000
17.482517 33.358696 0.000000
17.797239 33.358696 0.000000
18.111959 33.358696 0.000000
18.426680 33.358696 0.000000
18.741402 33.358696 0.000000
-7.065720 33.043972 0.000000
-6.750999 33.043972 0.003894
-6.436278 33.043972 0.003760
-6.121557 33.043972 0.003776
-5.806836 33.043972 0.004026
-5.492115 33.043972 0.004075
-5.177394 33.043972 0.003991
-4.862673 33.043972 0.003990
-4.547952 33.043972 0.003965
-4.233231 33.043972 0.003707
-3.918510 33.043972 0.003498
-3.603789 33.043972 0.003640
-3.289068 33.043972 0.003899
-2.974347 33.043972 0.003977
-2.659626 33.043972 0.003881
-2.344905 33.043972 0.003764
-2.030184 33.043972 0.003631
-1.715463 33.043972 0.003600
-1.400742 33.043972 0.003638
-1.086021 33.043972 0.003503
-0.771300 33.043972 0.003389
-0.456579 33.043972 0.003417
-0.141859 33.043972 0.003470
0.172863 33.043972 0.003541
0.487584 33.043972 0.003579
0.802305 33.043972 0.003570
1.117026 33.043972 0.003411
1.431747 33.043972 0.003201
1.746467 33.043972 0.003194
2.061188 33.043972 0.003321
2.375909 33.043972 0.003219
2.690630 33.043972 0.003065
3.005352 33.043972 0.003153
3.320073 33.043972 0.003353
3.634794 33.043972 0.003373
3.949515 33.043972 0.003298
4.264236 33.043972 0.003279
4.578956 33.043972 0.003286
4.893677 33.043972 0.003299
5.208398 33.043972 0.003504
5.523119 33.043972 0.003763
5.837841 33.043972 0.003922
6.152562 33.043972 0.004488
6.467283 33.043972 0.005460
6.782003 33.043972 0.007018
7.096724 33.043972 0.010827
7.411445 33.043972 0.017561
7.726166 33.043972 0.029596
8.040888 33.043972 0.051675
8.355608 33.043972 0.088640
8.670330 33.043972 0.150105
8.985050 33.043972 0.230338
9.299772 33.043972 0.332310
9.614492 33.043972 0.434039
9.929214 33.043972 0.541458
10.243935 33.043972 0.661707
10.558655 33.043972 0.778859
10.873377 33.043972 0.900957
11.188097 33.043972 1.009463
11.502819 33.043972 1.089577
11.817539 33.043972 1.145988
12.132261 33.043972 1.205786
12.446981 33.043972 1.254899
12.761703 33.043972 1.294555
13.076424 33.043972 1.300753
13.391144 33.043972 1.273674
13.705866 33.043972 1.238500
14.020586 33.043972 1.201865
14.335308 33.043972 1.135368
14.650028 33.043972 1.056168
14.964750 33.043972 0.936631
15.279470 33.043972 0.818302
15.594193 33.043972 0.645034
15.908913 33.043972 0.491044
16.223633 33.043972 0.082728
16.538355 33.043972 0.000000
16.853075 33.043972 0.000000
17.167797 33.043972 0.000000
17.482517 33.043972 0.000000
17.797239 33.043972 0.000000
18.111959 33.043972 0.000000
18.426680 33.043972 0.000000
18.741402 33.043972 0.000000
-7.065720 32.729252 0.000000
-6.750999 32.729252 0.004105
-6.436278 32.729252 0.003937
-6.121557 32.729252 0.003847
-5.806836 32.729252 0.004009
-5.492115 32.729252 0.004038
-5.177394 32.729252 0.003965
-4.862673 32.729252 0.004015
-4.547952 32.729252 0.003960
-4.233231 32.729252 0.003662
-3.918510 32.729252 0.003399
-3.603789 32.729252 0.003568
-3.289068 32.729252 0.003859
-2.974347 32.729252 0.003905
-2.659626 32.729252 0.003823
-2.344905 32.729252 0.003746
-2.030184 32.729252 0.003659
-1.715463 32.729252 0.003661
-1.400742 32.729252 0.003616
-1.086021 32.729252 0.003505
-0.771300 32.729252 0.003493
-0.456579 32.729252 0.003550
-0.141859 32.729252 0.003578
0.172863 32.729252 0.003622
0.487584 32.729252 0.003662
0.802305 32.729252 0.003586
1.117026 32.729252 0.003434
1.431747 32.729252 0.003256
1.746467 32.729252 0.003274
2.061188 32.729252 0.003409
2.375909 32.729252 0.003323
2.690630 32.729252 0.003116
3.005352 32.729252 0.003135
3.320073 32.729252 0.003334
3.634794 32.729252 0.003406
3.949515 32.729252 0.003400
4.264236 32.729252 0.003487
4.578956 32.729252 0.003382
4.893677 32.729252 0.003252
5.208398 32.729252 0.003426
5.523119 32.729252 0.003791
5.837841 32.729252 0.003988
6.152562 32.729252 0.004214
6.467283 32.729252 0.005138
6.782003 32.729252 0.006730
7.096724 32.729252 0.011361
7.411445 32.729252 0.017532
7.726166 32.729252 0.029963
8.040888 32.729252 0.052657
8.355608 32.729252 0.091983
8.670330 32.729252 0.151620
8.985050 32.729252 0.228794
9.299772 32.729252 0.317776
9.614492 32.729252 0.431783
9.929214 32.729252 0.556857
10.243935 32.729252 0.664284
10.558655 32.729252 0.783580
10.873377 32.729252 0.909179
11.188097 32.729252 1.012338
11.502819 32.729252 1.091484
11.817539 32.729252 1.148429
12.132261 32.729252 1.202153
12.446981 32.729252 1.250519
12.761703 32.729252 1.290209
13.076424 32.729252 1.301854
13.391144 32.729252 1.280251
13.705866 32.729252 1.243952
14.020586 32.729252 1.198426
14.335308 32.729252 1.135009
14.650028 32.729252 1.054341
14.964750 32.729252 0.940419
15.279470 32.729252 0.816719
15.594193 32.729252 0.646679
15.908913 32.729252 0.488891
16.223633 32.729252 0.078668
16.538355 32.729252 0.000000
16.853075 32.729252 0.000000
17.167797 32.729252 0.000000
17.482517 32.729252 0.000000
17.797239 32.729252 0.000000
18.111959 32.729252 0.000000
18.426680 32.729252 0.000000
18.741402 32.729252 0.000000
-7.065720 32.414532 0.000000
-6.750999 32.414532 0.004260
-6.436278 32.414532 0.004086
-6.121557 32.414532 0.003974
-5.806836 32.414532 0.004006
-5.492115 32.414532 0.003962
-5.177394 32.414532 0.003906
-4.862673 32.414532 0.003992
-4.547952 32.414532 0.003980
-4.233231 32.414532 0.003716
-3.918510 32.414532 0.003473
-3.603789 32.414532 0.003606
-3.289068 32.414532 0.003823
-2.974347 32.414532 0.003798
-2.659626 32.414532 0.003733
-2.344905 32.414532 0.003731
-2.030184 32.414532 0.003660
-1.715463 32.414532 0.003675
-1.400742 32.414532 0.003586
-1.086021 32.414532 0.003504
-0.771300 32.414532 0.003576
-0.456579 32.414532 0.003619
-0.141859 32.414532 0.003593
0.172863 32.414532 0.003626
0.487584 32.414532 0.003673
0.802305 32.414532 0.003589
1.117026 32.414532 0.003418
1.431747 32.414532 0.003320
1.746467 32.414532 0.003363
2.061188 32.414532 0.003497
2.375909 32.414532 0.003424
2.690630 32.414532 0.003234
3.005352 32.414532 0.003174
3.320073 32.414532 0.003310
3.634794 32.414532 0.003441
3.949515 32.414532 0.003552
4.264236 32.414532 0.003662
4.578956 32.414532 0.003491
4.893677 32.414532 0.003316
5.208398 32.414532 0.003457
5.523119 32.414532 0.003757
5.837841 32.414532 0.003936
6.152562 32.414532 0.004338
6.467283 32.414532 0.004971
6.782003 32.414532 0.006899
7.096724 32.414532 0.010651
7.411445 32.414532 0.017805
7.726166 32.414532 0.029608
8.040888 32.414532 0.053627
8.355608 32.414532 0.093064
8.670330 32.414532 0.157055
8.985050 32.414532 0.234625
9.299772 32.414532 0.318205
9.614492 32.414532 0.433456
9.929214 32.414532 0.544857
10.243935 32.414532 0.664373
10.558655 32.414532 0.789210
10.873377 32.414532 0.910792
11.188097 32.414532 1.012494
11.502819 32.414532 1.091865
11.817539 32.414532 1.151846
12.132261 32.414532 1.202370
12.446981 32.414532 1.243807
12.761703 32.414532 1.284617
13.076424 32.414532 1.299640
13.391144 32.414532 1.285601
13.705866 32.414532 1.247564
14.020586 32.414532 1.206778
14.335308 32.414532 1.142282
14.650028 32.414532 1.053777
14.964750 32.414532 0.947335
15.279470 32.414532 0.815943
15.594193 32.414532 0.651765
15.908913 32.414532 0.485748
16.223633 32.414532 0.096430
16.538355 32.414532 0.000000
16.853075 32.414532 0.000000
17.167797 32.414532 0.000000
17.482517 32.414532 0.000000
17.797239 32.414532 0.000000
18.111959 32.414532 0.000000
18.426680 32.414532 0.000000
18.741402 32.414532 0.000000
-7.065720 32.099808 0.000000
-6.750999 32.099808 0.004275
-6.436278 32.099808 0.004172
-6.121557 32.099808 0.004088
-5.806836 32.099808 0.004064
-5.492115 32.099808 0.003929
-5.177394 32.099808 0.003839
-4.862673 32.099808 0.003944
-4.547952 32.099808 0.003966
-4.233231 32.099808 0.003837
-3.918510 32.099808 0.003676
-3.603789 32.099808 0.003671
-3.289068 32.099808 0.003758
-2.974347 32.099808 0.003702
-2.659626 32.099808 0.003658
-2.344905 32.099808 0.003726
-2.030184 32.099808 0.003744
-1.715463 32.099808 0.003680
-1.400742 32.099808 0.003570
-1.086021 32.099808 0.003530
-0.771300 32.099808 0.003630
-0.456579 32.099808 0.003641
-0.141859 32.099808 0.003552
0.172863 32.099808 0.003529
0.487584 32.099808 0.003580
0.802305 32.099808 0.003540
1.117026 32.099808 0.003440
1.431747 32.099808 0.003387
1.746467 32.099808 0.003405
2.061188 32.099808 0.003524
2.375909 32.099808 0.003522
2.690630 32.099808 0.003356
3.005352 32.099808 0.003234
3.320073 32.099808 0.003248
3.634794 32.099808 0.003423
3.949515 32.099808 0.003644
4.264236 32.099808 0.003808
4.578956 32.099808 0.003575
4.893677 32.099808 0.003324
5.208398 32.099808 0.003519
5.523119 32.099808 0.003860
5.837841 32.099808 0.004062
6.152562 32.099808 0.004379
6.467283 32.099808 0.005491
6.782003 32.099808 0.007287
7.096724 32.099808 0.010728
7.411445 32.099808 0.017325
7.726166 32.099808 0.029439
8.040888 32.099808 0.053199
8.355608 32.099808 0.092976
8.670330 32.099808 0.155848
8.985050 32.099808 0.233446
9.299772 32.099808 0.326462
9.614492 32.099808 0.435895
9.929214 32.099808 0.545201
10.243935 32.099808 0.668143
10.558655 32.099808 0.781174
10.873377 32.099808 0.899777
11.188097 32.099808 1.002635
11.502819 32.099808 1.083042
11.817539 32.099808 1.148656
12.132261 32.099808 1.199359
12.446981 32.099808 1.245113
12.761703 32.099808 1.291354
13.076424 32.099808 1.302717
13.391144 32.099808 1.285041
13.705866 32.099808 1.257496
14.020586 32.099808 1.216677
14.335308 32.099808 1.149886
14.650028 32.099808 1.055961
14.964750 32.099808 0.950139
15.279470 32.099808 0.810974
15.594193 32.099808 0.641032
15.908913 32.099808 0.489457
16.223633 32.099808 0.064512
16.538355 32.099808 0.000000
16.853075 32.099808 0.000000
17.167797 32.099808 0.000000
17.482517 32.099808 0.000000
17.797239 32.099808 0.000000
18.111959 32.099808 0.000000
18.426680 32.099808 0.000000
18.741402 32.099808 0.000000
-7.065720 31.785089 0.000000
-6.750999 31.785089 0.004237
-6.436278 31.785089 0.004194
-6.121557 31.785089 0.004182
-5.806836 31.785089 0.004122
-5.492115 31.785089 0.003960
-5.177394 31.785089 0.003865
-4.862673 31.785089 0.003912
-4.547952 31.785089 0.003972
-4.233231 31.785089 0.004000
-3.918510 31.785089 0.003861
-3.603789 31.785089 0.003728
-3.289068 31.785089 0.003714
-2.974347 31.785089 0.003641
-2.659626 31.785089 0.003631
-2.344905 31.785089 0.003712
-2.030184 31.785089 0.003737
-1.715463 31.785089 0.003650
-1.400742 31.785089 0.003538
-1.086021 31.785089 0.003570
-0.771300 31.785089 0.003650
-0.456579 31.785089 0.003639
-0.141859 31.785089 0.003499
0.172863 31.785089 0.003466
0.487584 31.785089 0.003458
0.802305 31.785089 0.003488
1.117026 31.785089 0.003464
1.431747 31.785089 0.003433
1.746467 31.785089 0.003438
2.061188 31.785089 0.003502
2.375909 31.785089 0.003566
2.690630 31.785089 0.003453
3.005352 31.785089 0.003322
3.320073 31.785089 0.003232
3.634794 31.785089 0.003409
3.949515 31.785089 0.003712
4.264236 31.785089 0.003837
4.578956 31.785089 0.003598
4.893677 31.785089 0.003458
5.208398 31.785089 0.003670
5.523119 31.785089 0.004042
5.837841 31.785089 0.004175
6.152562 31.785089 0.004579
6.467283 31.785089 0.005617
6.782003 31.785089 0.007229
7.096724 31.785089 0.011065
7.411445 31.785089 0.017198
7.726166 31.785089 0.030348
8.040888 31.785089 0.053238
8.355608 31.785089 0.092051
8.670330 31.785089 0.152701
8.985050 31.785089 0.234348
9.299772 31.785089 0.325744
9.614492 31.785089 0.440908
9.929214 31.785089 0.546828
10.243935 31.785089 0.666089
10.558655 31.785089 0.779862
10.873377 31.785089 0.898067
11.188097 31.785089 0.991812
11.502819 31.785089 1.074716
11.817539 31.785089 1.146487
12.132261 31.785089 1.201302
12.446981 31.785089 1.263582
12.761703 31.785089 1.296101
13.076424 31.785089 1.306161
13.391144 31.785089 1.286577
13.705866 31.785089 1.253678
14.020586 31.785089 1.222775
14.335308 31.785089 1.154731
14.650028 31.785089 1.057834
14.964750 31.785089 0.952973
15.279470 31.785089 0.807208
15.594193 31.785089 0.642679
15.908913 31.785089 0.489140
16.223633 31.785089 0.074095
16.538355 31.785089 0.000000
16.853075 31.785089 0.000000
17.167797 31.785089 0.000000
17.482517 31.785089 0.000000
17.797239 31.785089 0.000000
18.111959 31.785089 0.000000
18.426680 31.785089 0.000000
18.741402 31.785089 0.000000
-7.065720 31.470367 0.000000
-6.750999 31.470367 0.004142
-6.436278 31.470367 0.004159
-6.121557 31.470367 0.004235
-5.806836 31.470367 0.004171
-5.492115 31.470367 0.003984
-5.177394 31.470367 0.003932
-4.862673 31.470367 0.003949
-4.547952 31.470367 0.004024
-4.233231 31.470367 0.004131
-3.918510 31.470367 0.003984
-3.603789 31.470367 0.003785
-3.289068 31.470367 0.003707
-2.974347 31.470367 0.003599
-2.659626 31.470367 0.003610
-2.344905 31.470367 0.003731
-2.030184 31.470367 0.003728
-1.715463 31.470367 0.003630
-1.400742 31.470367 0.003570
-1.086021 31.470367 0.003612
-0.771300 31.470367 0.003678
-0.456579 31.470367 0.003619
-0.141859 31.470367 0.003489
0.172863 31.470367 0.003418
0.487584 31.470367 0.003369
0.802305 31.470367 0.003425
1.117026 31.470367 0.003473
1.431747 31.470367 0.003491
1.746467 31.470367 0.003458
2.061188 31.470367 0.003522
2.375909 31.470367 0.003565
2.690630 31.470367 0.003549
3.005352 31.470367 0.003380
3.320073 31.470367 0.003246
3.634794 31.470367 0.003391
3.949515 31.470367 0.003669
4.264236 31.470367 0.003800
4.578956 31.470367 0.003734
4.893677 31.470367 0.003645
5.208398 31.470367 0.003723
5.523119 31.470367 0.003831
5.837841 31.470367 0.004033
6.152562 31.470367 0.004273
6.467283 31.470367 0.005574
6.782003 31.470367 0.007356
7.096724 31.470367 0.011437
7.411445 31.470367 0.018921
7.726166 31.470367 0.032192
8.040888 31.470367 0.054682
8.355608 31.470367 0.095398
8.670330 31.470367 0.153759
8.985050 31.470367 0.230199
9.299772 31.470367 0.320787
9.614492 31.470367 0.433787
9.929214 31.470367 0.548719
10.243935 31.470367 0.660452
10.558655 31.470367 0.771757
10.873377 31.470367 0.895273
11.188097 31.470367 0.994961
11.502819 31.470367 1.085379
11.817539 31.470367 1.153329
12.132261 31.470367 1.210460
12.446981 31.470367 1.267967
12.761703 31.470367 1.300793
13.076424 31.470367 1.316088
13.391144 31.470367 1.291237
13.705866 31.470367 1.260240
14.020586 31.470367 1.230639
14.335308 31.470367 1.158827
14.650028 31.470367 1.060178
14.964750 31.470367 0.948506
15.279470 31.470367 0.807333
15.594193 31.470367 0.653607
15.908913 31.470367 0.498903
16.223633 31.470367 0.071901
16.538355 31.470367 0.000000
16.853075 31.470367 0.000000
17.167797 31.470367 0.000000
17.482517 31.470367 0.000000
17.797239 31.470367 0.000000
18.111959 31.470367 0.000000
18.426680 31.470367 0.000000
18.741402 31.470367 0.000000
-7.065720 31.155647 0.000000
-6.750999 31.155647 0.004084
-6.436278 31.155647 0.004169
-6.121557 31.155647 0.004268
-5.806836 31.155647 0.004223
-5.492115 31.155647 0.004083
-5.177394 31.155647 0.004075
-4.862673 31.155647 0.004039
-4.547952 31.155647 0.004065
-4.233231 31.155647 0.004168
-3.918510 31.155647 0.004022
-3.603789 31.155647 0.003829
-3.289068 31.155647 0.003763
-2.974347 31.155647 0.003685
-2.659626 31.155647 0.003689
-2.344905 31.155647 0.003756
-2.030184 31.155647 0.003720
-1.715463 31.155647 0.003618
-1.400742 31.155647 0.003622
-1.086021 31.155647 0.003654
-0.771300 31.155647 0.003665
-0.456579 31.155647 0.003625
-0.141859 31.155647 0.003539
0.172863 31.155647 0.003453
0.487584 31.155647 0.003355
0.802305 31.155647 0.003394
1.117026 31.155647 0.003479
1.431747 31.155647 0.003517
1.746467 31.155647 0.003490
2.061188 31.155647 0.003588
2.375909 31.155647 0.003612
2.690630 31.155647 0.003608
3.005352 31.155647 0.003490
3.320073 31.155647 0.003305
3.634794 31.155647 0.003309
3.949515 31.155647 0.003571
4.264236 31.155647 0.003687
4.578956 31.155647 0.003724
4.893677 31.155647 0.003877
5.208398 31.155647 0.003942
5.523119 31.155647 0.004038
5.837841 31.155647 0.004066
6.152562 31.155647 0.004546
6.467283 31.155647 0.005652
6.782003 31.155647 0.007344
7.096724 31.155647 0.011720
7.411445 31.155647 0.018224
7.726166 31.155647 0.031767
8.040888 31.155647 0.056197
8.355608 31.155647 0.092795
8.670330 31.155647 0.152457
8.985050 31.155647 0.234147
9.299772 31.155647 0.320450
9.614492 31.155647 0.433746
9.929214 31.155647 0.544292
10.243935 31.155647 0.659977
10.558655 31.155647 0.775949
10.873377 31.155647 0.900494
11.188097 31.155647 1.007698
11.502819 31.155647 1.095186
11.817539 31.155647 1.166561
12.132261 31.155647 1.218399
12.446981 31.155647 1.272909
12.761703 31.155647 1.303669
13.076424 31.155647 1.311488
13.391144 31.155647 1.301498
13.705866 31.155647 1.258961
14.020586 31.155647 1.223367
14.335308 31.155647 1.154016
14.650028 31.155647 1.060021
14.964750 31.155647 0.950377
15.279470 31.155647 0.808251
15.594193 31.155647 0.652038
15.908913 31.155647 0.507404
16.223633 31.155647 0.031471
16.538355 31.155647 0.000000
16.853075 31.155647 0.000000
17.167797 31.155647 0.000000
17.482517 31.155647 0.000000
17.797239 31.155647 0.000000
18.111959 31.155647 0.000000
18.426680 31.155647 0.000000
18.741402 31.155647 0.000000
-7.065720 30.840927 0.000000
-6.750999 30.840927 0.004093
-6.436278 30.840927 0.004127
-6.121557 30.840927 0.004241
-5.806836 30.840927 0.004215
-5.492115 30.840927 0.004152
-5.177394 30.840927 0.004131
-4.862673 30.840927 0.004100
-4.547952 30.840927 0.004099
-4.233231 30.840927 0.004155
-3.918510 30.840927 0.004033
-3.603789 30.840927 0.003860
-3.289068 30.840927 0.003814
-2.974347 30.840927 0.003800
-2.659626 30.840927 0.003821
-2.344905 30.840927 0.003802
-2.030184 30.840927 0.003734
-1.715463 30.840927 0.003625
-1.400742 30.840927 0.003640
-1.086021 30.840927 0.003677
-0.771300 30.840927 0.003663
-0.456579 30.840927 0.003647
-0.141859 30.840927 0.003662
0.172863 30.840927 0.003560
0.487584 30.840927 0.003433
0.802305 30.840927 0.003418
1.117026 30.840927 0.003502
1.431747 30.840927 0.003525
1.746467 30.840927 0.003550
2.061188 30.840927 0.003591
2.375909 30.840927 0.003603
2.690630 30.840927 0.003654
3.005352 30.840927 0.003538
3.320073 30.840927 0.003330
3.634794 30.840927 0.003272
3.949515 30.840927 0.003391
4.264236 30.840927 0.003581
4.578956 30.840927 0.003803
4.893677 30.840927 0.004023
5.208398 30.840927 0.004152
5.523119 30.840927 0.004311
5.837841 30.840927 0.004435
6.152562 30.840927 0.004578
6.467283 30.840927 0.005399
6.782003 30.840927 0.007527
7.096724 30.840927 0.011311
7.411445 30.840927 0.019331
7.726166 30.840927 0.032930
8.040888 30.840927 0.056573
8.355608 30.840927 0.094105
8.670330 30.840927 0.157992
8.985050 30.840927 0.233568
9.299772 30.840927 0.323873
9.614492 30.840927 0.436776
9.929214 30.840927 0.542702
10.243935 30.840927 0.662161
10.558655 30.840927 0.780092
10.873377 30.840927 0.911202
11.188097 30.840927 1.015393
11.502819 30.840927 1.110046
11.817539 30.840927 1.174929
12.132261 30.840927 1.228508
12.446981 30.840927 1.268427
12.761703 30.840927 1.297941
13.076424 30.840927 1.315715
13.391144 30.840927 1.301080
13.705866 30.840927 1.262185
14.020586 30.840927 1.219466
14.335308 30.840927 1.149278
14.650028 30.840927 1.066697
14.964750 30.840927 0.958592
15.279470 30.840927 0.826989
15.594193 30.840927 0.654413
15.908913 30.840927 0.501418
16.223633 30.840927 0.000000
16.538355 30.840927 0.000000
16.853075 30.840927 0.000000
17.167797 30.840927 0.000000
17.482517 30.840927 0.000000
17.797239 30.840927 0.000000
18.111959 30.840927 0.000000
18.426680 30.840927 0.000000
18.741402 30.840927 0.000000
-7.065720 30.526205 0.000000
-6.750999 30.526205 0.004107
-6.436278 30.526205 0.004123
-6.121557 30.526205 0.004197
-5.806836 30.526205 0.004194
-5.492115 30.526205 0.004196
-5.177394 30.526205 0.004185
-4.862673 30.526205 0.004157
-4.547952 30.526205 0.004129
-4.233231 30.526205 0.004141
-3.918510 30.526205 0.004062
-3.603789 30.526205 0.003940
-3.289068 30.526205 0.003925
-2.974347 30.526205 0.003927
-2.659626 30.526205 0.003920
-2.344905 30.526205 0.003882
-2.030184 30.526205 0.003756
-1.715463 30.526205 0.003651
-1.400742 30.526205 0.003683
-1.086021 30.526205 0.003722
-0.771300 30.526205 0.003666
-0.456579 30.526205 0.003699
-0.141859 30.526205 0.003806
0.172863 30.526205 0.003741
0.487584 30.526205 0.003574
0.802305 30.526205 0.003487
1.117026 30.526205 0.003526
1.431747 30.526205 0.003591
1.746467 30.526205 0.003583
2.061188 30.526205 0.003573
2.375909 30.526205 0.003600
2.690630 30.526205 0.003625
3.005352 30.526205 0.003545
3.320073 30.526205 0.003371
3.634794 30.526205 0.003205
3.949515 30.526205 0.003249
4.264236 30.526205 0.003407
4.578956 30.526205 0.003755
4.893677 30.526205 0.004080
5.208398 30.526205 0.004257
5.523119 30.526205 0.004394
5.837841 30.526205 0.004363
6.152562 30.526205 0.004498
6.467283 30.526205 0.005133
6.782003 30.526205 0.006829
7.096724 30.526205 0.010539
7.411445 30.526205 0.018693
7.726166 30.526205 0.031854
8.040888 30.526205 0.055044
8.355608 30.526205 0.091720
8.670330 30.526205 0.154854
8.985050 30.526205 0.232387
9.299772 30.526205 0.331127
9.614492 30.526205 0.437181
9.929214 30.526205 0.554000
10.243935 30.526205 0.662999
10.558655 30.526205 0.781718
10.873377 30.526205 0.901878
11.188097 30.526205 1.020353
11.502819 30.526205 1.114967
11.817539 30.526205 1.177735
12.132261 30.526205 1.230775
12.446981 30.526205 1.275849
12.761703 30.526205 1.300232
13.076424 30.526205 1.309323
13.391144 30.526205 1.304712
13.705866 30.526205 1.270981
14.020586 30.526205 1.225914
14.335308 30.526205 1.163040
14.650028 30.526205 1.070893
14.964750 30.526205 0.959729
15.279470 30.526205 0.823942
15.594193 30.526205 0.646496
15.908913 30.526205 0.490172
16.223633 30.526205 0.000000
16.538355 30.526205 0.000000
16.853075 30.526205 0.000000
17.167797 30.526205 0.000000
17.482517 30.526205 0.000000
17.797239 30.526205 0.000000
18.111959 30.526205 0.000000
18.426680 30.526205 0.000000
18.741402 30.526205 0.000000
-7.065720 30.211485 0.000000
-6.750999 30.211485 0.004134
-6.436278 30.211485 0.004136
-6.121557 30.211485 0.004161
-5.806836 30.211485 0.004198
-5.492115 30.211485 0.004225
-5.177394 30.211485 0.004246
-4.862673 30.211485 0.004164
-4.547952 30.211485 0.004108
-4.233231 30.211485 0.004158
-3.918510 30.211485 0.004128
-3.603789 30.211485 0.004002
-3.289068 30.211485 0.004002
-2.974347 30.211485 0.004062
-2.659626 30.211485 0.004015
-2.344905 30.211485 0.003915
-2.030184 30.211485 0.003755
-1.715463 30.211485 0.003676
-1.400742 30.211485 0.003741
-1.086021 30.211485 0.003768
-0.771300 30.211485 0.003686
-0.456579 30.211485 0.003748
-0.141859 30.211485 0.003915
0.172863 30.211485 0.003858
0.487584 30.211485 0.003708
0.802305 30.211485 0.003559
1.117026 30.211485 0.003554
1.431747 30.211485 0.003646
1.746467 30.211485 0.003631
2.061188 30.211485 0.003550
2.375909 30.211485 0.003508
2.690630 30.211485 0.003545
3.005352 30.211485 0.003510
3.320073 30.211485 0.003444
3.634794 30.211485 0.003245
3.949515 30.211485 0.003110
4.264236 30.211485 0.003271
4.578956 30.211485 0.003644
4.893677 30.211485 0.003936
5.208398 30.211485 0.004196
5.523119 30.211485 0.004395
5.837841 30.211485 0.004492
6.152562 30.211485 0.004659
6.467283 30.211485 0.005273
6.782003 30.211485 0.006701
7.096724 30.211485 0.010540
7.411445 30.211485 0.017900
7.726166 30.211485 0.031259
8.040888 30.211485 0.053492
8.355608 30.211485 0.092362
8.670330 30.211485 0.156378
8.985050 30.211485 0.237050
9.299772 30.211485 0.329937
9.614492 30.211485 0.440679
9.929214 30.211485 0.555258
10.243935 30.211485 0.660674
10.558655 30.211485 0.786028
10.873377 30.211485 0.904777
11.188097 30.211485 1.019439
11.502819 30.211485 1.106294
11.817539 30.211485 1.170065
12.132261 30.211485 1.229232
12.446981 30.211485 1.279437
12.761703 30.211485 1.300324
13.076424 30.211485 1.307782
13.391144 30.211485 1.313428
13.705866 30.211485 1.287648
14.020586 30.211485 1.240644
14.335308 30.211485 1.165768
14.650028 30.211485 1.075413
14.964750 30.211485 0.963245
15.279470 30.211485 0.821694
15.594193 30.211485 0.641617
15.908913 30.211485 0.474197
16.223633 30.211485 0.000000
16.538355 30.211485 0.000000
16.853075 30.211485 0.000000
17.167797 30.211485 0.000000
17.482517 30.211485 0.000000
17.797239 30.211485 0.000000
18.111959 30.211485 0.000000
18.426680 30.211485 0.000000
18.741402 30.211485 0.000000
-7.065720 29.896763 0.000000
-6.750999 29.896763 0.004188
-6.436278 29.896763 0.004186
-6.121557 29.896763 0.004202
-5.806836 29.896763 0.004248
-5.492115 29.896763 0.004289
-5.177394 29.896763 0.004297
-4.862673 29.896763 0.004201
-4.547952 29.896763 0.004084
-4.233231 29.896763 0.004159
-3.918510 29.896763 0.004176
-3.603789 29.896763 0.004044
-3.289068 29.896763 0.004051
-2.974347 29.896763 0.004101
-2.659626 29.896763 0.004087
-2.344905 29.896763 0.003961
-2.030184 29.896763 0.003807
-1.715463 29.896763 0.003736
-1.400742 29.896763 0.003805
-1.086021 29.896763 0.003828
-0.771300 29.896763 0.003729
-0.456579 29.896763 0.003799
-0.141859 29.896763 0.003950
0.172863 29.896763 0.003928
0.487584 29.896763 0.003788
0.802305 29.896763 0.003659
1.117026 29.896763 0.003607
1.431747 29.896763 0.003678
1.746467 29.896763 0.003665
2.061188 29.896763 0.003536
2.375909 29.896763 0.003413
2.690630 29.896763 0.003470
3.005352 29.896763 0.003485
3.320073 29.896763 0.003514
3.634794 29.896763 0.003285
3.949515 29.896763 0.003130
4.264236 29.896763 0.003236
4.578956 29.896763 0.003535
4.893677 29.896763 0.003825
5.208398 29.896763 0.003922
5.523119 29.896763 0.004332
5.837841 29.896763 0.004577
6.152562 29.896763 0.004726
6.467283 29.896763 0.005350
6.782003 29.896763 0.007321
7.096724 29.896763 0.011036
7.411445 29.896763 0.018071
7.726166 29.896763 0.032209
8.040888 29.896763 0.055675
8.355608 29.896763 0.096524
8.670330 29.896763 0.154037
8.985050 29.896763 0.236576
9.299772 29.896763 0.330919
9.614492 29.896763 0.438837
9.929214 29.896763 0.550649
10.243935 29.896763 0.667120
10.558655 29.896763 0.784823
10.873377 29.896763 0.910717
11.188097 29.896763 1.019908
11.502819 29.896763 1.110085
11.817539 29.896763 1.183565
12.132261 29.896763 1.229306
12.446981 29.896763 1.277916
12.761703 29.896763 1.289759
13.076424 29.896763 1.311126
13.391144 29.896763 1.315922
13.705866 29.896763 1.296010
14.020586 29.896763 1.247272
14.335308 29.896763 1.172395
14.650028 29.896763 1.078399
14.964750 29.896763 0.965712
15.279470 29.896763 0.823219
15.594193 29.896763 0.637108
15.908913 29.896763 0.467005
16.223633 29.896763 0.000000
16.538355 29.896763 0.000000
16.853075 29.896763 0.000000
17.167797 29.896763 0.000000
17.482517 29.896763 0.000000
17.797239 29.896763 0.000000
18.111959 29.896763 0.000000
18.426680 29.896763 0.000000
18.741402 29.896763 0.000000
-7.065720 29.582043 0.000000
-6.750999 29.582043 0.004352
-6.436278 29.582043 0.004261
-6.121557 29.582043 0.004237
-5.806836 29.582043 0.004252
-5.492115 29.582043 0.004328
-5.177394 29.582043 0.004369
-4.862673 29.582043 0.004235
-4.547952 29.582043 0.004075
-4.233231 29.582043 0.004155
-3.918510 29.582043 0.004214
-3.603789 29.582043 0.004103
-3.289068 29.582043 0.004028
-2.974347 29.582043 0.004113
-2.659626 29.582043 0.004141
-2.344905 29.582043 0.004005
-2.030184 29.582043 0.003884
-1.715463 29.582043 0.003831
-1.400742 29.582043 0.003863
-1.086021 29.582043 0.003879
-0.771300 29.582043 0.003849
-0.456579 29.582043 0.003834
-0.141859 29.582043 0.003930
0.172863 29.582043 0.003911
0.487584 29.582043 0.003868
0.802305 29.582043 0.003726
1.117026 29.582043 0.003629
1.431747 29.582043 0.003690
1.746467 29.582043 0.003681
2.061188 29.582043 0.003547
2.375909 29.582043 0.003377
2.690630 29.582043 0.003373
3.005352 29.582043 0.003485
3.320073 29.582043 0.003619
3.634794 29.582043 0.003451
3.949515 29.582043 0.003292
4.264236 29.582043 0.003343
4.578956 29.582043 0.003603
4.893677 29.582043 0.003759
5.208398 29.582043 0.003769
5.523119 29.582043 0.004049
5.837841 29.582043 0.004314
6.152562 29.582043 0.004703
6.467283 29.582043 0.005225
6.782003 29.582043 0.007133
7.096724 29.582043 0.010670
7.411445 29.582043 0.018024
7.726166 29.582043 0.032237
8.040888 29.582043 0.054899
8.355608 29.582043 0.097217
8.670330 29.582043 0.156182
8.985050 29.582043 0.239038
9.299772 29.582043 0.324170
9.614492 29.582043 0.433187
9.929214 29.582043 0.547115
10.243935 29.582043 0.664338
10.558655 29.582043 0.794245
10.873377 29.582043 0.914847
11.188097 29.582043 1.024552
11.502819 29.582043 1.124199
11.817539 29.582043 1.194298
12.132261 29.582043 1.241396
12.446981 29.582043 1.282131
12.761703 29.582043 1.287946
13.076424 29.582043 1.302492
13.391144 29.582043 1.314431
13.705866 29.582043 1.304772
14.020586 29.582043 1.257811
14.335308 29.582043 1.176771
14.650028 29.582043 1.078047
14.964750 29.582043 0.969410
15.279470 29.582043 0.821541
15.594193 29.582043 0.631746
15.908913 29.582043 0.457471
16.223633 29.582043 0.000000
16.538355 29.582043 0.000000
16.853075 29.582043 0.000000
17.167797 29.582043 0.000000
17.482517 29.582043 0.000000
17.797239 29.582043 0.000000
18.111959 29.582043 0.000000
18.426680 29.582043 0.000000
18.741402 29.582043 0.000000
-7.065720 29.267321 0.000000
-6.750999 29.267321 0.004474
-6.436278 29.267321 0.004323
-6.121557 29.267321 0.004243
-5.806836 29.267321 0.004263
-5.492115 29.267321 0.004357
-5.177394 29.267321 0.004414
-4.862673 29.267321 0.004267
-4.547952 29.267321 0.004123
-4.233231 29.267321 0.004159
-3.918510 29.267321 0.004183
-3.603789 29.267321 0.004088
-3.289068 29.267321 0.004012
-2.974347 29.267321 0.004110
-2.659626 29.267321 0.004155
-2.344905 29.267321 0.004085
-2.030184 29.267321 0.003999
-1.715463 29.267321 0.003934
-1.400742 29.267321 0.003914
-1.086021 29.267321 0.003934
-0.771300 29.267321 0.003944
-0.456579 29.267321 0.003873
-0.141859 29.267321 0.003876
0.172863 29.267321 0.003899
0.487584 29.267321 0.003878
0.802305 29.267321 0.003742
1.117026 29.267321 0.003601
1.431747 29.267321 0.003678
1.746467 29.267321 0.003711
2.061188 29.267321 0.003552
2.375909 29.267321 0.003384
2.690630 29.267321 0.003378
3.005352 29.267321 0.003518
3.320073 29.267321 0.003693
3.634794 29.267321 0.003634
3.949515 29.267321 0.003496
4.264236 29.267321 0.003553
4.578956 29.267321 0.003612
4.893677 29.267321 0.003640
5.208398 29.267321 0.003709
5.523119 29.267321 0.003897
5.837841 29.267321 0.004446
6.152562 29.267321 0.004783
6.467283 29.267321 0.005468
6.782003 29.267321 0.007219
7.096724 29.267321 0.011906
7.411445 29.267321 0.019220
7.726166 29.267321 0.032100
8.040888 29.267321 0.056862
8.355608 29.267321 0.095059
8.670330 29.267321 0.161024
8.985050 29.267321 0.239775
9.299772 29.267321 0.325363
9.614492 29.267321 0.428739
9.929214 29.267321 0.543738
10.243935 29.267321 0.667867
10.558655 29.267321 0.800708
10.873377 29.267321 0.920386
11.188097 29.267321 1.032719
11.502819 29.267321 1.125414
11.817539 29.267321 1.191482
12.132261 29.267321 1.247645
12.446981 29.267321 1.288584
12.761703 29.267321 1.295399
13.076424 29.267321 1.301784
13.391144 29.267321 1.306500
13.705866 29.267321 1.299415
14.020586 29.267321 1.255474
14.335308 29.267321 1.190583
14.650028 29.267321 1.079158
14.964750 29.267321 0.969648
15.279470 29.267321 0.823192
15.594193 29.267321 0.624735
15.908913 29.267321 0.457373
16.223633 29.267321 0.000000
16.538355 29.267321 0.000000
16.853075 29.267321 0.000000
17.167797 29.267321 0.000000
17.482517 29.267321 0.000000
17.797239 29.267321 0.000000
18.111959 29.267321 0.000000
18.426680 29.267321 0.000000
18.741402 29.267321 0.000000
-7.065720 28.952600 0.000000
-6.750999 28.952600 0.004563
-6.436278 28.952600 0.004376
-6.121557 28.952600 0.004263
-5.806836 28.952600 0.004292
-5.492115 28.952600 0.004380
-5.177394 28.952600 0.004391
-4.862673 28.952600 0.004314
-4.547952 28.952600 0.004201
-4.233231 28.952600 0.004148
-3.918510 28.952600 0.004139
-3.603789 28.952600 0.004083
-3.289068 28.952600 0.004036
-2.974347 28.952600 0.004108
-2.659626 28.952600 0.004179
-2.344905 28.952600 0.004117
-2.030184 28.952600 0.004078
-1.715463 28.952600 0.004025
-1.400742 28.952600 0.003942
-1.086021 28.952600 0.004013
-0.771300 28.952600 0.004036
-0.456579 28.952600 0.003895
-0.141859 28.952600 0.003811
0.172863 28.952600 0.003812
0.487584 28.952600 0.003856
0.802305 28.952600 0.003739
1.117026 28.952600 0.003594
1.431747 28.952600 0.003658
1.746467 28.952600 0.003739
2.061188 28.952600 0.003684
2.375909 28.952600 0.003480
2.690630 28.952600 0.003441
3.005352 28.952600 0.003567
3.320073 28.952600 0.003761
3.634794 28.952600 0.003843
3.949515 28.952600 0.003725
4.264236 28.952600 0.003717
4.578956 28.952600 0.003646
4.893677 28.952600 0.003555
5.208398 28.952600 0.003635
5.523119 28.952600 0.004032
5.837841 28.952600 0.004563
6.152562 28.952600 0.004679
6.467283 28.952600 0.005442
6.782003 28.952600 0.007244
7.096724 28.952600 0.011442
7.411445 28.952600 0.020440
7.726166 28.952600 0.032413
8.040888 28.952600 0.056333
8.355608 28.952600 0.095106
8.670330 28.952600 0.161954
8.985050 28.952600 0.238334
9.299772 28.952600 0.333509
9.614492 28.952600 0.434726
9.929214 28.952600 0.549217
10.243935 28.952600 0.680492
10.558655 28.952600 0.809599
10.873377 28.952600 0.925324
11.188097 28.952600 1.031251
11.502819 28.952600 1.116183
11.817539 28.952600 1.189065
12.132261 28.952600 1.249881
12.446981 28.952600 1.283135
12.761703 28.952600 1.300625
13.076424 28.952600 1.305034
13.391144 28.952600 1.301531
13.705866 28.952600 1.286869
14.020586 28.952600 1.251469
14.335308 28.952600 1.187851
14.650028 28.952600 1.088890
14.964750 28.952600 0.978067
15.279470 28.952600 0.824716
15.594193 28.952600 0.636959
15.908913 28.952600 0.472001
16.223633 28.952600 0.000000
16.538355 28.952600 0.000000
16.853075 28.952600 0.000000
17.167797 28.952600 0.000000
17.482517 28.952600 0.000000
17.797239 28.952600 0.000000
18.111959 28.952600 0.000000
18.426680 28.952600 0.000000
18.741402 28.952600 0.000000
-7.065720 28.637878 0.000000
-6.750999 28.637878 0.004619
-6.436278 28.637878 0.004397
-6.121557 28.637878 0.004299
-5.806836 28.637878 0.004381
-5.492115 28.637878 0.004412
-5.177394 28.637878 0.004358
-4.862673 28.637878 0.004349
-4.547952 28.637878 0.004287
-4.233231 28.637878 0.004137
-3.918510 28.637878 0.004128
-3.603789 28.637878 0.004135
-3.289068 28.637878 0.004092
-2.974347 28.637878 0.004136
-2.659626 28.637878 0.004184
-2.344905 28.637878 0.004133
-2.030184 28.637878 0.004121
-1.715463 28.637878 0.004092
-1.400742 28.637878 0.003993
-1.086021 28.637878 0.004086
-0.771300 28.637878 0.004078
-0.456579 28.637878 0.003903
-0.141859 28.637878 0.003732
0.172863 28.637878 0.003774
0.487584 28.637878 0.003789
0.802305 28.637878 0.003712
1.117026 28.637878 0.003594
1.431747 28.637878 0.003664
1.746467 28.637878 0.003769
2.061188 28.637878 0.003820
2.375909 28.637878 0.003701
2.690630 28.637878 0.003561
3.005352 28.637878 0.003619
3.320073 28.637878 0.003815
3.634794 28.637878 0.003969
3.949515 28.637878 0.003944
4.264236 28.637878 0.003891
4.578956 28.637878 0.003632
4.893677 28.637878 0.003480
5.208398 28.637878 0.003655
5.523119 28.637878 0.004085
5.837841 28.637878 0.004357
6.152562 28.637878 0.004696
6.467283 28.637878 0.005447
6.782003 28.637878 0.007041
7.096724 28.637878 0.011572
7.411445 28.637878 0.019906
7.726166 28.637878 0.031883
8.040888 28.637878 0.057613
8.355608 28.637878 0.095995
8.670330 28.637878 0.157593
8.985050 28.637878 0.243127
9.299772 28.637878 0.339802
9.614492 28.637878 0.442144
9.929214 28.637878 0.558025
10.243935 28.637878 0.681104
10.558655 28.637878 0.811333
10.873377 28.637878 0.928344
11.188097 28.637878 1.032602
11.502819 28.637878 1.112181
11.817539 28.637878 1.185565
12.132261 28.637878 1.242312
12.446981 28.637878 1.291200
12.761703 28.637878 1.301637
13.076424 28.637878 1.313544
13.391144 28.637878 1.308923
13.705866 28.637878 1.291918
14.020586 28.637878 1.255658
14.335308 28.637878 1.192839
14.650028 28.637878 1.103868
14.964750 28.637878 0.993075
15.279470 28.637878 0.845619
15.594193 28.637878 0.659771
15.908913 28.637878 0.493184
16.223633 28.637878 0.000000
16.538355 28.637878 0.000000
16.853075 28.637878 0.000000
17.167797 28.637878 0.000000
17.482517 28.637878 0.000000
17.797239 28.637878 0.000000
18.111959 28.637878 0.000000
18.426680 28.637878 0.000000
18.741402 28.637878 0.000000
-7.065720 28.323158 0.000000
-6.750999 28.323158 0.004715
-6.436278 28.323158 0.004423
-6.121557 28.323158 0.004383
-5.806836 28.323158 0.004464
-5.492115 28.323158 0.004432
-5.177394 28.323158 0.004374
-4.862673 28.323158 0.004404
-4.547952 28.323158 0.004371
-4.233231 28.323158 0.004206
-3.918510 28.323158 0.004156
-3.603789 28.323158 0.004224
-3.289068 28.323158 0.004201
-2.974347 28.323158 0.004157
-2.659626 28.323158 0.004186
-2.344905 28.323158 0.004165
-2.030184 28.323158 0.004166
-1.715463 28.323158 0.004132
-1.400742 28.323158 0.004019
-1.086021 28.323158 0.004116
-0.771300 28.323158 0.004094
-0.456579 28.323158 0.003906
-0.141859 28.323158 0.003720
0.172863 28.323158 0.003692
0.487584 28.323158 0.003763
0.802305 28.323158 0.003734
1.117026 28.323158 0.003682
1.431747 28.323158 0.003725
1.746467 28.323158 0.003807
2.061188 28.323158 0.003951
2.375909 28.323158 0.003926
2.690630 28.323158 0.003698
3.005352 28.323158 0.003673
3.320073 28.323158 0.003852
3.634794 28.323158 0.004058
3.949515 28.323158 0.004108
4.264236 28.323158 0.003939
4.578956 28.323158 0.003650
4.893677 28.323158 0.003496
5.208398 28.323158 0.003804
5.523119 28.323158 0.004182
5.837841 28.323158 0.004301
6.152562 28.323158 0.004504
6.467283 28.323158 0.005537
6.782003 28.323158 0.007677
7.096724 28.323158 0.011339
7.411445 28.323158 0.019821
7.726166 28.323158 0.032248
8.040888 28.323158 0.058444
8.355608 28.323158 0.099042
8.670330 28.323158 0.162693
8.985050 28.323158 0.242679
9.299772 28.323158 0.341942
9.614492 28.323158 0.444338
9.929214 28.323158 0.563066
10.243935 28.323158 0.687125
10.558655 28.323158 0.816617
10.873377 28.323158 0.936409
11.188097 28.323158 1.036126
11.502819 28.323158 1.127394
11.817539 28.323158 1.192576
12.132261 28.323158 1.248236
12.446981 28.323158 1.299614
12.761703 28.323158 1.309513
13.076424 28.323158 1.322997
13.391144 28.323158 1.318301
13.705866 28.323158 1.297972
14.020586 28.323158 1.254030
14.335308 28.323158 1.198133
14.650028 28.323158 1.112699
14.964750 28.323158 0.997503
15.279470 28.323158 0.843039
15.594193 28.323158 0.675766
15.908913 28.323158 0.502433
16.223633 28.323158 0.000000
16.538355 28.323158 0.000000
16.853075 28.323158 0.000000
17.167797 28.323158 0.000000
17.482517 28.323158 0.000000
17.797239 28.323158 0.000000
18.111959 28.323158 0.000000
18.426680 28.323158 0.000000
18.741402 28.323158 0.000000
-7.065720 28.008438 0.000000
-6.750999 28.008438 0.004808
-6.436278 28.008438 0.004492
-6.121557 28.008438 0.004467
-5.806836 28.008438 0.004482
-5.492115 28.008438 0.004444
-5.177394 28.008438 0.004427
-4.862673 28.008438 0.004451
-4.547952 28.008438 0.004430
-4.233231 28.008438 0.004267
-3.918510 28.008438 0.004200
-3.603789 28.008438 0.004284
-3.289068 28.008438 0.004316
-2.974347 28.008438 0.004229
-2.659626 28.008438 0.004234
-2.344905 28.008438 0.004226
-2.030184 28.008438 0.004195
-1.715463 28.008438 0.004127
-1.400742 28.008438 0.004058
-1.086021 28.008438 0.004105
-0.771300 28.008438 0.004077
-0.456579 28.008438 0.003901
-0.141859 28.008438 0.003721
0.172863 28.008438 0.003676
0.487584 28.008438 0.003743
0.802305 28.008438 0.003784
1.117026 28.008438 0.003831
1.431747 28.008438 0.003824
1.746467 28.008438 0.003848
2.061188 28.008438 0.004030
2.375909 28.008438 0.004024
2.690630 28.008438 0.003828
3.005352 28.008438 0.003715
3.320073 28.008438 0.003825
3.634794 28.008438 0.004071
3.949515 28.008438 0.004148
4.264236 28.008438 0.003927
4.578956 28.008438 0.003682
4.893677 28.008438 0.003585
5.208398 28.008438 0.003921
5.523119 28.008438 0.004168
5.837841 28.008438 0.004278
6.152562 28.008438 0.004684
6.467283 28.008438 0.005927
6.782003 28.008438 0.007488
7.096724 28.008438 0.010986
7.411445 28.008438 0.018400
7.726166 28.008438 0.034326
8.040888 28.008438 0.058035
8.355608 28.008438 0.103095
8.670330 28.008438 0.163782
8.985050 28.008438 0.247003
9.299772 28.008438 0.339074
9.614492 28.008438 0.449438
9.929214 28.008438 0.556476
10.243935 28.008438 0.681182
10.558655 28.008438 0.806760
10.873377 28.008438 0.937195
11.188097 28.008438 1.044487
11.502819 28.008438 1.135294
11.817539 28.008438 1.200782
12.132261 28.008438 1.256326
12.446981 28.008438 1.305233
12.761703 28.008438 1.321293
13.076424 28.008438 1.318062
13.391144 28.008438 1.321841
13.705866 28.008438 1.300835
14.020586 28.008438 1.260720
14.335308 28.008438 1.203184
14.650028 28.008438 1.121248
14.964750 28.008438 1.000261
15.279470 28.008438 0.853965
15.594193 28.008438 0.691513
15.908913 28.008438 0.530730
16.223633 28.008438 0.000000
16.538355 28.008438 0.000000
16.853075 28.008438 0.000000
17.167797 28.008438 0.000000
17.482517 28.008438 0.000000
17.797239 28.008438 0.000000
18.111959 28.008438 0.000000
18.426680 28.008438 0.000000
18.741402 28.008438 0.000000
-7.065720 27.693716 0.000000
-6.750999 27.693716 0.004824
-6.436278 27.693716 0.004511
-6.121557 27.693716 0.004514
-5.806836 27.693716 0.004505
-5.492115 27.693716 0.004453
-5.177394 27.693716 0.004435
-4.862673 27.693716 0.004460
-4.547952 27.693716 0.004460
-4.233231 27.693716 0.004316
-3.918510 27.693716 0.004241
-3.603789 27.693716 0.004349
-3.289068 27.693716 0.004441
-2.974347 27.693716 0.004329
-2.659626 27.693716 0.004275
-2.344905 27.693716 0.004234
-2.030184 27.693716 0.004182
-1.715463 27.693716 0.004154
-1.400742 27.693716 0.004067
-1.086021 27.693716 0.004062
-0.771300 27.693716 0.004041
-0.456579 27.693716 0.003945
-0.141859 27.693716 0.003784
0.172863 27.693716 0.003712
0.487584 27.693716 0.003789
0.802305 27.693716 0.003919
1.117026 27.693716 0.004006
1.431747 27.693716 0.003936
1.746467 27.693716 0.003886
2.061188 27.693716 0.003993
2.375909 27.693716 0.004019
2.690630 27.693716 0.003882
3.005352 27.693716 0.003731
3.320073 27.693716 0.003771
3.634794 27.693716 0.004028
3.949515 27.693716 0.004093
4.264236 27.693716 0.003900
4.578956 27.693716 0.003840
4.893677 27.693716 0.003765
5.208398 27.693716 0.004003
5.523119 27.693716 0.004193
5.837841 27.693716 0.004321
6.152562 27.693716 0.004781
6.467283 27.693716 0.005654
6.782003 27.693716 0.007654
7.096724 27.693716 0.011775
7.411445 27.693716 0.019697
7.726166 27.693716 0.032071
8.040888 27.693716 0.059442
8.355608 27.693716 0.103294
8.670330 27.693716 0.164238
8.985050 27.693716 0.247460
9.299772 27.693716 0.339752
9.614492 27.693716 0.439634
9.929214 27.693716 0.552168
10.243935 27.693716 0.672050
10.558655 27.693716 0.811286
10.873377 27.693716 0.924740
11.188097 27.693716 1.032674
11.502819 27.693716 1.128261
11.817539 27.693716 1.205982
12.132261 27.693716 1.257941
12.446981 27.693716 1.303224
12.761703 27.693716 1.319907
13.076424 27.693716 1.333132
13.391144 27.693716 1.318896
13.705866 27.693716 1.303298
14.020586 27.693716 1.261998
14.335308 27.693716 1.197917
14.650028 27.693716 1.118466
14.964750 27.693716 1.013072
15.279470 27.693716 0.865063
15.594193 27.693716 0.693389
15.908913 27.693716 0.535406
16.223633 27.693716 0.000000
16.538355 27.693716 0.000000
16.853075 27.693716 0.000000
17.167797 27.693716 0.000000
17.482517 27.693716 0.000000
17.797239 27.693716 0.000000
18.111959 27.693716 0.000000
18.426680 27.693716 0.000000
18.741402 27.693716 0.000000
-7.065720 27.378996 0.000000
-6.750999 27.378996 0.004757
-6.436278 27.378996 0.004499
-6.121557 27.378996 0.004502
-5.806836 27.378996 0.004487
-5.492115 27.378996 0.004473
-5.177394 27.378996 0.004443
-4.862673 27.378996 0.004456
-4.547952 27.378996 0.004506
-4.233231 27.378996 0.004394
-3.918510 27.378996 0.004304
-3.603789 27.378996 0.004411
-3.289068 27.378996 0.004521
-2.974347 27.378996 0.004389
-2.659626 27.378996 0.004297
-2.344905 27.378996 0.004176
-2.030184 27.378996 0.004143
-1.715463 27.378996 0.004145
-1.400742 27.378996 0.004034
-1.086021 27.378996 0.003955
-0.771300 27.378996 0.003965
-0.456579 27.378996 0.003983
-0.141859 27.378996 0.003903
0.172863 27.378996 0.003807
0.487584 27.378996 0.003860
0.802305 27.378996 0.004029
1.117026 27.378996 0.004141
1.431747 27.378996 0.004052
1.746467 27.378996 0.003914
2.061188 27.378996 0.003948
2.375909 27.378996 0.003994
2.690630 27.378996 0.003931
3.005352 27.378996 0.003756
3.320073 27.378996 0.003699
3.634794 27.378996 0.003884
3.949515 27.378996 0.003909
4.264236 27.378996 0.003910
4.578956 27.378996 0.003972
4.893677 27.378996 0.004019
5.208398 27.378996 0.004198
5.523119 27.378996 0.004241
5.837841 27.378996 0.004411
6.152562 27.378996 0.004863
6.467283 27.378996 0.006129
6.782003 27.378996 0.007413
7.096724 27.378996 0.011942
7.411445 27.378996 0.020703
7.726166 27.378996 0.034905
8.040888 27.378996 0.058988
8.355608 27.378996 0.098539
8.670330 27.378996 0.158372
8.985050 27.378996 0.247265
9.299772 27.378996 0.341318
9.614492 27.378996 0.439196
9.929214 27.378996 0.552191
10.243935 27.378996 0.673638
10.558655 27.378996 0.811827
10.873377 27.378996 0.916531
11.188097 27.378996 1.029370
11.502819 27.378996 1.128852
11.817539 27.378996 1.204458
12.132261 27.378996 1.242695
12.446981 27.378996 1.294033
12.761703 27.378996 1.321102
13.076424 27.378996 1.327917
13.391144 27.378996 1.313909
13.705866 27.378996 1.299610
14.020586 27.378996 1.263204
14.335308 27.378996 1.200205
14.650028 27.378996 1.109647
14.964750 27.378996 1.002648
15.279470 27.378996 0.870121
15.594193 27.378996 0.691250
15.908913 27.378996 0.536114
16.223633 27.378996 0.000000
16.538355 27.378996 0.000000
16.853075 27.378996 0.000000
17.167797 27.378996 0.000000
17.482517 27.378996 0.000000
17.797239 27.378996 0.000000
18.111959 27.378996 0.000000
18.426680 27.378996 0.000000
18.741402 27.378996 0.000000
-7.065720 27.064274 0.000000
-6.750999 27.064274 0.004585
-6.436278 27.064274 0.004442
-6.121557 27.064274 0.004433
-5.806836 27.064274 0.004437
-5.492115 27.064274 0.004428
-5.177394 27.064274 0.004440
-4.862673 27.064274 0.004440
-4.547952 27.064274 0.004544
-4.233231 27.064274 0.004464
-3.918510 27.064274 0.004373
-3.603789 27.064274 0.004462
-3.289068 27.064274 0.004548
-2.974347 27.064274 0.004409
-2.659626 27.064274 0.004251
-2.344905 27.064274 0.004073
-2.030184 27.064274 0.004072
-1.715463 27.064274 0.004138
-1.400742 27.064274 0.004000
-1.086021 27.064274 0.003871
-0.771300 27.064274 0.003913
-0.456579 27.064274 0.004033
-0.141859 27.064274 0.004027
0.172863 27.064274 0.003903
0.487584 27.064274 0.003920
0.802305 27.064274 0.004075
1.117026 27.064274 0.004200
1.431747 27.064274 0.004131
1.746467 27.064274 0.003928
2.061188 27.064274 0.003849
2.375909 27.064274 0.003905
2.690630 27.064274 0.003894
3.005352 27.064274 0.003778
3.320073 27.064274 0.003664
3.634794 27.064274 0.003762
3.949515 27.064274 0.003787
4.264236 27.064274 0.003836
4.578956 27.064274 0.004087
4.893677 27.064274 0.004286
5.208398 27.064274 0.004383
5.523119 27.064274 0.004544
5.837841 27.064274 0.004698
6.152562 27.064274 0.004826
6.467283 27.064274 0.005780
6.782003 27.064274 0.007118
7.096724 27.064274 0.011523
7.411445 27.064274 0.020629
7.726166 27.064274 0.035392
8.040888 27.064274 0.057235
8.355608 27.064274 0.097810
8.670330 27.064274 0.161509
8.985050 27.064274 0.247245
9.299772 27.064274 0.347477
9.614492 27.064274 0.449377
9.929214 27.064274 0.565232
10.243935 27.064274 0.690160
10.558655 27.064274 0.821307
10.873377 27.064274 0.920902
11.188097 27.064274 1.031194
11.502819 27.064274 1.117673
11.817539 27.064274 1.182887
12.132261 27.064274 1.247344
12.446981 27.064274 1.287085
12.761703 27.064274 1.317151
13.076424 27.064274 1.326456
13.391144 27.064274 1.304456
13.705866 27.064274 1.293829
14.020586 27.064274 1.263344
14.335308 27.064274 1.208637
14.650028 27.064274 1.117306
14.964750 27.064274 1.006886
15.279470 27.064274 0.870234
15.594193 27.064274 0.719479
15.908913 27.064274 0.562829
16.223633 27.064274 0.000000
16.538355 27.064274 0.000000
16.853075 27.064274 0.000000
17.167797 27.064274 0.000000
17.482517 27.064274 0.000000
17.797239 27.064274 0.000000
18.111959 27.064274 0.000000
18.426680 27.064274 0.000000
18.741402 27.064274 0.000000
-7.065720 26.749554 0.000000
-6.750999 26.749554 0.004472
-6.436278 26.749554 0.004391
-6.121557 26.749554 0.004402
-5.806836 26.749554 0.004410
-5.492115 26.749554 0.004395
-5.177394 26.749554 0.004459
-4.862673 26.749554 0.004478
-4.547952 26.749554 0.004578
-4.233231 26.749554 0.004516
-3.918510 26.749554 0.004460
-3.603789 26.749554 0.004478
-3.289068 26.749554 0.004496
-2.974347 26.749554 0.004356
-2.659626 26.749554 0.004166
-2.344905 26.749554 0.004021
-2.030184 26.749554 0.003986
-1.715463 26.749554 0.004127
-1.400742 26.749554 0.004030
-1.086021 26.749554 0.003868
-0.771300 26.749554 0.003904
-0.456579 26.749554 0.004070
-0.141859 26.749554 0.004155
0.172863 26.749554 0.004013
0.487584 26.749554 0.003979
0.802305 26.749554 0.004100
1.117026 26.749554 0.004213
1.431747 26.749554 0.004134
1.746467 26.749554 0.003907
2.061188 26.749554 0.003786
2.375909 26.749554 0.003832
2.690630 26.749554 0.003890
3.005352 26.749554 0.003799
3.320073 26.749554 0.003656
3.634794 26.749554 0.003630
3.949515 26.749554 0.003652
4.264236 26.749554 0.003900
4.578956 26.749554 0.004236
4.893677 26.749554 0.004499
5.208398 26.749554 0.004587
5.523119 26.749554 0.004688
5.837841 26.749554 0.004643
6.152562 26.749554 0.004864
6.467283 26.749554 0.005577
6.782003 26.749554 0.007189
7.096724 26.749554 0.011066
7.411445 26.749554 0.020143
7.726166 26.749554 0.034658
8.040888 26.749554 0.058201
8.355608 26.749554 0.101244
8.670330 26.749554 0.163811
8.985050 26.749554 0.246962
9.299772 26.749554 0.354205
9.614492 26.749554 0.459596
9.929214 26.749554 0.575674
10.243935 26.749554 0.701101
10.558655 26.749554 0.825527
10.873377 26.749554 0.934698
11.188097 26.749554 1.023803
11.502819 26.749554 1.108132
11.817539 26.749554 1.181837
12.132261 26.749554 1.254498
12.446981 26.749554 1.286955
12.761703 26.749554 1.319344
13.076424 26.749554 1.327929
13.391144 26.749554 1.312438
13.705866 26.749554 1.291394
14.020586 26.749554 1.258263
14.335308 26.749554 1.201235
14.650028 26.749554 1.118348
14.964750 26.749554 1.003642
15.279470 26.749554 0.880084
15.594193 26.749554 0.725840
15.908913 26.749554 0.563275
16.223633 26.749554 0.000000
16.538355 26.749554 0.000000
16.853075 26.749554 0.000000
17.167797 26.749554 0.000000
17.482517 26.749554 0.000000
17.797239 26.749554 0.000000
18.111959 26.749554 0.000000
18.426680 26.749554 0.000000
18.741402 26.749554 0.000000
-7.065720 26.434832 0.000000
-6.750999 26.434832 0.004506
-6.436278 26.434832 0.004407
-6.121557 26.434832 0.004452
-5.806836 26.434832 0.004477
-5.492115 26.434832 0.004445
-5.177394 26.434832 0.004483
-4.862673 26.434832 0.004547
-4.547952 26.434832 0.004602
-4.233231 26.434832 0.004557
-3.918510 26.434832 0.004493
-3.603789 26.434832 0.004430
-3.289068 26.434832 0.004419
-2.974347 26.434832 0.004312
-2.659626 26.434832 0.004127
-2.344905 26.434832 0.003970
-2.030184 26.434832 0.003964
-1.715463 26.434832 0.004119
-1.400742 26.434832 0.004083
-1.086021 26.434832 0.003937
-0.771300 26.434832 0.003966
-0.456579 26.434832 0.004148
-0.141859 26.434832 0.004243
0.172863 26.434832 0.004117
0.487584 26.434832 0.004058
0.802305 26.434832 0.004113
1.117026 26.434832 0.004179
1.431747 26.434832 0.004078
1.746467 26.434832 0.003853
2.061188 26.434832 0.003726
2.375909 26.434832 0.003810
2.690630 26.434832 0.003921
3.005352 26.434832 0.003878
3.320073 26.434832 0.003726
3.634794 26.434832 0.003596
3.949515 26.434832 0.003626
4.264236 26.434832 0.003912
4.578956 26.434832 0.004331
4.893677 26.434832 0.004559
5.208398 26.434832 0.004663
5.523119 26.434832 0.004674
5.837841 26.434832 0.004659
6.152562 26.434832 0.004980
6.467283 26.434832 0.005477
6.782003 26.434832 0.006819
7.096724 26.434832 0.010837
7.411445 26.434832 0.018661
7.726166 26.434832 0.034790
8.040888 26.434832 0.060993
8.355608 26.434832 0.108422
8.670330 26.434832 0.174039
8.985050 26.434832 0.252194
9.299772 26.434832 0.350172
9.614492 26.434832 0.466462
9.929214 26.434832 0.579344
10.243935 26.434832 0.713790
10.558655 26.434832 0.836586
10.873377 26.434832 0.954560
11.188097 26.434832 1.043652
11.502819 26.434832 1.126079
11.817539 26.434832 1.199335
12.132261 26.434832 1.255512
12.446981 26.434832 1.285299
12.761703 26.434832 1.314040
13.076424 26.434832 1.339089
13.391144 26.434832 1.315155
13.705866 26.434832 1.296381
14.020586 26.434832 1.258776
14.335308 26.434832 1.204888
14.650028 26.434832 1.115559
14.964750 26.434832 1.012780
15.279470 26.434832 0.888606
15.594193 26.434832 0.719435
15.908913 26.434832 0.566941
16.223633 26.434832 0.000000
16.538355 26.434832 0.000000
16.853075 26.434832 0.000000
17.167797 26.434832 0.000000
17.482517 26.434832 0.000000
17.797239 26.434832 0.000000
18.111959 26.434832 0.000000
18.426680 26.434832 0.000000
18.741402 26.434832 0.000000
-7.065720 26.120111 0.000000
-6.750999 26.120111 0.004647
-6.436278 26.120111 0.004561
-6.121557 26.120111 0.004595
-5.806836 26.120111 0.004602
-5.492115 26.120111 0.004552
-5.177394 26.120111 0.004588
-4.862673 26.120111 0.004612
-4.547952 26.120111 0.004628
-4.233231 26.120111 0.004588
-3.918510 26.120111 0.004479
-3.603789 26.120111 0.004369
-3.289068 26.120111 0.004361
-2.974347 26.120111 0.004310
-2.659626 26.120111 0.004139
-2.344905 26.120111 0.003955
-2.030184 26.120111 0.003999
-1.715463 26.120111 0.004169
-1.400742 26.120111 0.004222
-1.086021 26.120111 0.004129
-0.771300 26.120111 0.004085
-0.456579 26.120111 0.004230
-0.141859 26.120111 0.004268
0.172863 26.120111 0.004187
0.487584 26.120111 0.004142
0.802305 26.120111 0.004155
1.117026 26.120111 0.004114
1.431747 26.120111 0.003945
1.746467 26.120111 0.003777
2.061188 26.120111 0.003698
2.375909 26.120111 0.003820
2.690630 26.120111 0.003955
3.005352 26.120111 0.003959
3.320073 26.120111 0.003834
3.634794 26.120111 0.003639
3.949515 26.120111 0.003664
4.264236 26.120111 0.003965
4.578956 26.120111 0.004332
4.893677 26.120111 0.004446
5.208398 26.120111 0.004521
5.523119 26.120111 0.004584
5.837841 26.120111 0.004778
6.152562 26.120111 0.004947
6.467283 26.120111 0.005704
6.782003 26.120111 0.007512
7.096724 26.120111 0.011289
7.411445 26.120111 0.019033
7.726166 26.120111 0.035674
8.040888 26.120111 0.064256
8.355608 26.120111 0.112491
8.670330 26.120111 0.176877
8.985050 26.120111 0.252001
9.299772 26.120111 0.354753
9.614492 26.120111 0.469180
9.929214 26.120111 0.580619
10.243935 26.120111 0.704686
10.558655 26.120111 0.838523
10.873377 26.120111 0.959600
11.188097 26.120111 1.059012
11.502819 26.120111 1.148896
11.817539 26.120111 1.223703
12.132261 26.120111 1.265767
12.446981 26.120111 1.292114
12.761703 26.120111 1.320453
13.076424 26.120111 1.327711
13.391144 26.120111 1.318598
13.705866 26.120111 1.289337
14.020586 26.120111 1.259497
14.335308 26.120111 1.203294
14.650028 26.120111 1.125049
14.964750 26.120111 1.018499
15.279470 26.120111 0.889407
15.594193 26.120111 0.723607
15.908913 26.120111 0.519748
16.223633 26.120111 0.000000
16.538355 26.120111 0.000000
16.853075 26.120111 0.000000
17.167797 26.120111 0.000000
17.482517 26.120111 0.000000
17.797239 26.120111 0.000000
18.111959 26.120111 0.000000
18.426680 26.120111 0.000000
18.741402 26.120111 0.000000
-7.065720 25.805389 0.000000
-6.750999 25.805389 0.004901
-6.436278 25.805389 0.004763
-6.121557 25.805389 0.004810
-5.806836 25.805389 0.004770
-5.492115 25.805389 0.004676
-5.177394 25.805389 0.004655
-4.862673 25.805389 0.004645
-4.547952 25.805389 0.004630
-4.233231 25.805389 0.004578
-3.918510 25.805389 0.004443
-3.603789 25.805389 0.004338
-3.289068 25.805389 0.004372
-2.974347 25.805389 0.004376
-2.659626 25.805389 0.004234
-2.344905 25.805389 0.004086
-2.030184 25.805389 0.004130
-1.715463 25.805389 0.004278
-1.400742 25.805389 0.004393
-1.086021 25.805389 0.004323
-0.771300 25.805389 0.004253
-0.456579 25.805389 0.004265
-0.141859 25.805389 0.004233
0.172863 25.805389 0.004212
0.487584 25.805389 0.004218
0.802305 25.805389 0.004199
1.117026 25.805389 0.004042
1.431747 25.805389 0.003862
1.746467 25.805389 0.003772
2.061188 25.805389 0.003745
2.375909 25.805389 0.003880
2.690630 25.805389 0.004009
3.005352 25.805389 0.004046
3.320073 25.805389 0.003926
3.634794 25.805389 0.003730
3.949515 25.805389 0.003744
4.264236 25.805389 0.004020
4.578956 25.805389 0.004298
4.893677 25.805389 0.004373
5.208398 25.805389 0.004452
5.523119 25.805389 0.004560
5.837841 25.805389 0.004741
6.152562 25.805389 0.004846
6.467283 25.805389 0.005640
6.782003 25.805389 0.007193
7.096724 25.805389 0.011897
7.411445 25.805389 0.019431
7.726166 25.805389 0.036188
8.040888 25.805389 0.064311
8.355608 25.805389 0.107137
8.670330 25.805389 0.174600
8.985050 25.805389 0.255199
9.299772 25.805389 0.354740
9.614492 25.805389 0.459500
9.929214 25.805389 0.582119
10.243935 25.805389 0.704330
10.558655 25.805389 0.842105
10.873377 25.805389 0.955141
11.188097 25.805389 1.059204
11.502819 25.805389 1.159258
11.817539 25.805389 1.229936
12.132261 25.805389 1.275467
12.446981 25.805389 1.299114
12.761703 25.805389 1.324875
13.076424 25.805389 1.336666
13.391144 25.805389 1.317947
13.705866 25.805389 1.290815
14.020586 25.805389 1.266858
14.335308 25.805389 1.216490
14.650028 25.805389 1.127065
14.964750 25.805389 1.015331
15.279470 25.805389 0.880013
15.594193 25.805389 0.713368
15.908913 25.805389 0.485860
16.223633 25.805389 0.000000
16.538355 25.805389 0.000000
16.853075 25.805389 0.000000
17.167797 25.805389 0.000000
17.482517 25.805389 0.000000
17.797239 25.805389 0.000000
18.111959 25.805389 0.000000
18.426680 25.805389 0.000000
18.741402 25.805389 0.000000
-7.065720 25.490669 0.000000
-6.750999 25.490669 0.005134
-6.436278 25.490669 0.005023
-6.121557 25.490669 0.004983
-5.806836 25.490669 0.004895
-5.492115 25.490669 0.004729
-5.177394 25.490669 0.004677
-4.862673 25.490669 0.004658
-4.547952 25.490669 0.004646
-4.233231 25.490669 0.004575
-3.918510 25.490669 0.004457
-3.603789 25.490669 0.004408
-3.289068 25.490669 0.004452
-2.974347 25.490669 0.004479
-2.659626 25.490669 0.004405
-2.344905 25.490669 0.004274
-2.030184 25.490669 0.004264
-1.715463 25.490669 0.004441
-1.400742 25.490669 0.004525
-1.086021 25.490669 0.004481
-0.771300 25.490669 0.004370
-0.456579 25.490669 0.004299
-0.141859 25.490669 0.004207
0.172863 25.490669 0.004212
0.487584 25.490669 0.004296
0.802305 25.490669 0.004190
1.117026 25.490669 0.003996
1.431747 25.490669 0.003870
1.746467 25.490669 0.003866
2.061188 25.490669 0.003857
2.375909 25.490669 0.003941
2.690630 25.490669 0.004050
3.005352 25.490669 0.004088
3.320073 25.490669 0.003978
3.634794 25.490669 0.003816
3.949515 25.490669 0.003823
4.264236 25.490669 0.004043
4.578956 25.490669 0.004170
4.893677 25.490669 0.004132
5.208398 25.490669 0.004131
5.523119 25.490669 0.004393
5.837841 25.490669 0.004697
6.152562 25.490669 0.004990
6.467283 25.490669 0.006036
6.782003 25.490669 0.007842
7.096724 25.490669 0.012225
7.411445 25.490669 0.020924
7.726166 25.490669 0.036276
8.040888 25.490669 0.064393
8.355608 25.490669 0.108058
8.670330 25.490669 0.169341
8.985050 25.490669 0.257299
9.299772 25.490669 0.358242
9.614492 25.490669 0.462329
9.929214 25.490669 0.585358
10.243935 25.490669 0.710198
10.558655 25.490669 0.840671
10.873377 25.490669 0.954536
11.188097 25.490669 1.051888
11.502819 25.490669 1.150850
11.817539 25.490669 1.228119
12.132261 25.490669 1.286647
12.446981 25.490669 1.307477
12.761703 25.490669 1.321003
13.076424 25.490669 1.325359
13.391144 25.490669 1.318164
13.705866 25.490669 1.301163
14.020586 25.490669 1.270687
14.335308 25.490669 1.215915
14.650028 25.490669 1.128854
14.964750 25.490669 1.014401
15.279470 25.490669 0.871087
15.594193 25.490669 0.709997
15.908913 25.490669 0.470122
16.223633 25.490669 0.000000
16.538355 25.490669 0.000000
16.853075 25.490669 0.000000
17.167797 25.490669 0.000000
17.482517 25.490669 0.000000
17.797239 25.490669 0.000000
18.111959 25.490669 0.000000
18.426680 25.490669 0.000000
18.741402 25.490669 0.000000
-7.065720 25.175949 0.000000
-6.750999 25.175949 0.005380
-6.436278 25.175949 0.005266
-6.121557 25.175949 0.005168
-5.806836 25.175949 0.004959
-5.492115 25.175949 0.004695
-5.177394 25.175949 0.004601
-4.862673 25.175949 0.004652
-4.547952 25.175949 0.004677
-4.233231 25.175949 0.004618
-3.918510 25.175949 0.004533
-3.603789 25.175949 0.004510
-3.289068 25.175949 0.004547
-2.974347 25.175949 0.004608
-2.659626 25.175949 0.004593
-2.344905 25.175949 0.004435
-2.030184 25.175949 0.004411
-1.715463 25.175949 0.004546
-1.400742 25.175949 0.004603
-1.086021 25.175949 0.004552
-0.771300 25.175949 0.004435
-0.456579 25.175949 0.004318
-0.141859 25.175949 0.004227
0.172863 25.175949 0.004227
0.487584 25.175949 0.004320
0.802305 25.175949 0.004170
1.117026 25.175949 0.004009
1.431747 25.175949 0.003992
1.746467 25.175949 0.004011
2.061188 25.175949 0.004002
2.375909 25.175949 0.004031
2.690630 25.175949 0.004080
3.005352 25.175949 0.004076
3.320073 25.175949 0.004033
3.634794 25.175949 0.003949
3.949515 25.175949 0.003933
4.264236 25.175949 0.004008
4.578956 25.175949 0.003973
4.893677 25.175949 0.003954
5.208398 25.175949 0.004102
5.523119 25.175949 0.004339
5.837841 25.175949 0.004712
6.152562 25.175949 0.005251
6.467283 25.175949 0.005726
6.782003 25.175949 0.007520
7.096724 25.175949 0.012424
7.411445 25.175949 0.020610
7.726166 25.175949 0.034961
8.040888 25.175949 0.061813
8.355608 25.175949 0.109215
8.670330 25.175949 0.173251
8.985050 25.175949 0.258697
9.299772 25.175949 0.365885
9.614492 25.175949 0.474838
9.929214 25.175949 0.593132
10.243935 25.175949 0.711862
10.558655 25.175949 0.838917
10.873377 25.175949 0.945405
11.188097 25.175949 1.046556
11.502819 25.175949 1.148675
11.817539 25.175949 1.231123
12.132261 25.175949 1.281817
12.446981 25.175949 1.305624
12.761703 25.175949 1.316873
13.076424 25.175949 1.322493
13.391144 25.175949 1.311613
13.705866 25.175949 1.302946
14.020586 25.175949 1.264083
14.335308 25.175949 1.220198
14.650028 25.175949 1.132276
14.964750 25.175949 1.011786
15.279470 25.175949 0.868915
15.594193 25.175949 0.705241
15.908913 25.175949 0.453772
16.223633 25.175949 0.000000
16.538355 25.175949 0.000000
16.853075 25.175949 0.000000
17.167797 25.175949 0.000000
17.482517 25.175949 0.000000
17.797239 25.175949 0.000000
18.111959 25.175949 0.000000
18.426680 25.175949 0.000000
18.741402 25.175949 0.000000
-7.065720 24.861227 0.000000
-6.750999 24.861227 0.005597
-6.436278 24.861227 0.005386
-6.121557 24.861227 0.005234
-5.806836 24.861227 0.004949
-5.492115 24.861227 0.004596
-5.177394 24.861227 0.004490
-4.862673 24.861227 0.004624
-4.547952 24.861227 0.004676
-4.233231 24.861227 0.004641
-3.918510 24.861227 0.004622
-3.603789 24.861227 0.004607
-3.289068 24.861227 0.004632
-2.974347 24.861227 0.004723
-2.659626 24.861227 0.004692
-2.344905 24.861227 0.004576
-2.030184 24.861227 0.004534
-1.715463 24.861227 0.004602
-1.400742 24.861227 0.004618
-1.086021 24.861227 0.004564
-0.771300 24.861227 0.004442
-0.456579 24.861227 0.004340
-0.141859 24.861227 0.004241
0.172863 24.861227 0.004248
0.487584 24.861227 0.004287
0.802305 24.861227 0.004153
1.117026 24.861227 0.004062
1.431747 24.861227 0.004119
1.746467 24.861227 0.004185
2.061188 24.861227 0.004149
2.375909 24.861227 0.004094
2.690630 24.861227 0.004044
3.005352 24.861227 0.004056
3.320073 24.861227 0.004089
3.634794 24.861227 0.004102
3.949515 24.861227 0.004071
4.264236 24.861227 0.003929
4.578956 24.861227 0.003813
4.893677 24.861227 0.003808
5.208398 24.861227 0.004004
5.523119 24.861227 0.004327
5.837841 24.861227 0.004425
6.152562 24.861227 0.004858
6.467283 24.861227 0.005714
6.782003 24.861227 0.007046
7.096724 24.861227 0.012597
7.411445 24.861227 0.020526
7.726166 24.861227 0.035344
8.040888 24.861227 0.062347
8.355608 24.861227 0.111724
8.670330 24.861227 0.178094
8.985050 24.861227 0.267427
9.299772 24.861227 0.374390
9.614492 24.861227 0.478555
9.929214 24.861227 0.597376
10.243935 24.861227 0.719142
10.558655 24.861227 0.839453
10.873377 24.861227 0.945146
11.188097 24.861227 1.060761
11.502819 24.861227 1.160744
11.817539 24.861227 1.236647
12.132261 24.861227 1.281457
12.446981 24.861227 1.308032
12.761703 24.861227 1.313289
13.076424 24.861227 1.313559
13.391144 24.861227 1.310794
13.705866 24.861227 1.304717
14.020586 24.861227 1.269147
14.335308 24.861227 1.229365
14.650028 24.861227 1.148253
14.964750 24.861227 1.025130
15.279470 24.861227 0.869212
15.594193 24.861227 0.711717
15.908913 24.861227 0.461236
16.223633 24.861227 0.000000
16.538355 24.861227 0.000000
16.853075 24.861227 0.000000
17.167797 24.861227 0.000000
17.482517 24.861227 0.000000
17.797239 24.861227 0.000000
18.111959 24.861227 0.000000
18.426680 24.861227 0.000000
18.741402 24.861227 0.000000
-7.065720 24.546507 0.000000
-6.750999 24.546507 0.005646
-6.436278 24.546507 0.005390
-6.121557 24.546507 0.005169
-5.806836 24.546507 0.004881
-5.492115 24.546507 0.004563
-5.177394 24.546507 0.004484
-4.862673 24.546507 0.004620
-4.547952 24.546507 0.004683
-4.233231 24.546507 0.004728
-3.918510 24.546507 0.004735
-3.603789 24.546507 0.004695
-3.289068 24.546507 0.004684
-2.974347 24.546507 0.004763
-2.659626 24.546507 0.004756
-2.344905 24.546507 0.004677
-2.030184 24.546507 0.004594
-1.715463 24.546507 0.004538
-1.400742 24.546507 0.004537
-1.086021 24.546507 0.004543
-0.771300 24.546507 0.004434
-0.456579 24.546507 0.004361
-0.141859 24.546507 0.004263
0.172863 24.546507 0.004245
0.487584 24.546507 0.004262
0.802305 24.546507 0.004210
1.117026 24.546507 0.004175
1.431747 24.546507 0.004238
1.746467 24.546507 0.004342
2.061188 24.546507 0.004317
2.375909 24.546507 0.004153
2.690630 24.546507 0.003991
3.005352 24.546507 0.004002
3.320073 24.546507 0.004142
3.634794 24.546507 0.004262
3.949515 24.546507 0.004188
4.264236 24.546507 0.003999
4.578956 24.546507 0.003802
4.893677 24.546507 0.003786
5.208398 24.546507 0.004054
5.523119 24.546507 0.004273
5.837841 24.546507 0.004701
6.152562 24.546507 0.005141
6.467283 24.546507 0.005436
6.782003 24.546507 0.007858
7.096724 24.546507 0.012070
7.411445 24.546507 0.020812
7.726166 24.546507 0.036274
8.040888 24.546507 0.064334
8.355608 24.546507 0.114066
8.670330 24.546507 0.181916
8.985050 24.546507 0.271562
9.299772 24.546507 0.371391
9.614492 24.546507 0.481779
9.929214 24.546507 0.594005
10.243935 24.546507 0.715155
10.558655 24.546507 0.845945
10.873377 24.546507 0.962036
11.188097 24.546507 1.080192
11.502819 24.546507 1.167757
11.817539 24.546507 1.249153
12.132261 24.546507 1.287453
12.446981 24.546507 1.305589
12.761703 24.546507 1.308478
13.076424 24.546507 1.311765
13.391144 24.546507 1.310218
13.705866 24.546507 1.305518
14.020586 24.546507 1.270300
14.335308 24.546507 1.229056
14.650028 24.546507 1.150410
14.964750 24.546507 1.036958
15.279470 24.546507 0.885931
15.594193 24.546507 0.726167
15.908913 24.546507 0.462734
16.223633 24.546507 0.000000
16.538355 24.546507 0.000000
16.853075 24.546507 0.000000
17.167797 24.546507 0.000000
17.482517 24.546507 0.000000
17.797239 24.546507 0.000000
18.111959 24.546507 0.000000
18.426680 24.546507 0.000000
18.741402 24.546507 0.000000
-7.065720 24.231785 0.000000
-6.750999 24.231785 0.005537
-6.436278 24.231785 0.005243
-6.121557 24.231785 0.005033
-5.806836 24.231785 0.004855
-5.492115 24.231785 0.004641
-5.177394 24.231785 0.004595
-4.862673 24.231785 0.004684
-4.547952 24.231785 0.004697
-4.233231 24.231785 0.004787
-3.918510 24.231785 0.004835
-3.603789 24.231785 0.004788
-3.289068 24.231785 0.004725
-2.974347 24.231785 0.004765
-2.659626 24.231785 0.004795
-2.344905 24.231785 0.004725
-2.030184 24.231785 0.004586
-1.715463 24.231785 0.004420
-1.400742 24.231785 0.004393
-1.086021 24.231785 0.004472
-0.771300 24.231785 0.004405
-0.456579 24.231785 0.004342
-0.141859 24.231785 0.004288
0.172863 24.231785 0.004268
0.487584 24.231785 0.004291
0.802305 24.231785 0.004299
1.117026 24.231785 0.004273
1.431747 24.231785 0.004353
1.746467 24.231785 0.004463
2.061188 24.231785 0.004476
2.375909 24.231785 0.004189
2.690630 24.231785 0.003923
3.005352 24.231785 0.003949
3.320073 24.231785 0.004204
3.634794 24.231785 0.004386
3.949515 24.231785 0.004331
4.264236 24.231785 0.004058
4.578956 24.231785 0.003832
4.893677 24.231785 0.003943
5.208398 24.231785 0.004197
5.523119 24.231785 0.004475
5.837841 24.231785 0.004591
6.152562 24.231785 0.005329
6.467283 24.231785 0.006139
6.782003 24.231785 0.008055
7.096724 24.231785 0.012260
7.411445 24.231785 0.020756
7.726166 24.231785 0.034775
8.040888 24.231785 0.063986
8.355608 24.231785 0.109795
8.670330 24.231785 0.179155
8.985050 24.231785 0.269679
9.299772 24.231785 0.373660
9.614492 24.231785 0.477440
9.929214 24.231785 0.602546
10.243935 24.231785 0.713828
10.558655 24.231785 0.837662
10.873377 24.231785 0.962862
11.188097 24.231785 1.072385
11.502819 24.231785 1.179917
11.817539 24.231785 1.247239
12.132261 24.231785 1.285679
12.446981 24.231785 1.300755
12.761703 24.231785 1.313718
13.076424 24.231785 1.320353
13.391144 24.231785 1.322294
13.705866 24.231785 1.304896
14.020586 24.231785 1.276405
14.335308 24.231785 1.221369
14.650028 24.231785 1.147869
14.964750 24.231785 1.048288
15.279470 24.231785 0.910601
15.594193 24.231785 0.752895
15.908913 24.231785 0.456553
16.223633 24.231785 0.000000
16.538355 24.231785 0.000000
16.853075 24.231785 0.000000
17.167797 24.231785 0.000000
17.482517 24.231785 0.000000
17.797239 24.231785 0.000000
18.111959 24.231785 0.000000
18.426680 24.231785 0.000000
18.741402 24.231785 0.000000
-7.065720 23.917065 0.000000
-6.750999 23.917065 0.005221
-6.436278 23.917065 0.005008
-6.121557 23.917065 0.004903
-5.806836 23.917065 0.004858
-5.492115 23.917065 0.004775
-5.177394 23.917065 0.004796
-4.862673 23.917065 0.004834
-4.547952 23.917065 0.004814
-4.233231 23.917065 0.004843
-3.918510 23.917065 0.004865
-3.603789 23.917065 0.004819
-3.289068 23.917065 0.004691
-2.974347 23.917065 0.004711
-2.659626 23.917065 0.004754
-2.344905 23.917065 0.004703
-2.030184 23.917065 0.004534
-1.715463 23.917065 0.004331
-1.400742 23.917065 0.004303
-1.086021 23.917065 0.004404
-0.771300 23.917065 0.004399
-0.456579 23.917065 0.004371
-0.141859 23.917065 0.004309
0.172863 23.917065 0.004292
0.487584 23.917065 0.004352
0.802305 23.917065 0.004378
1.117026 23.917065 0.004348
1.431747 23.917065 0.004397
1.746467 23.917065 0.004542
2.061188 23.917065 0.004552
2.375909 23.917065 0.004222
2.690630 23.917065 0.003892
3.005352 23.917065 0.003928
3.320073 23.917065 0.004237
3.634794 23.917065 0.004457
3.949515 23.917065 0.004401
4.264236 23.917065 0.004119
4.578956 23.917065 0.003900
4.893677 23.917065 0.004080
5.208398 23.917065 0.004299
5.523119 23.917065 0.004632
5.837841 23.917065 0.004850
6.152562 23.917065 0.005545
6.467283 23.917065 0.006467
6.782003 23.917065 0.008469
7.096724 23.917065 0.012866
7.411445 23.917065 0.020683
7.726166 23.917065 0.035786
8.040888 23.917065 0.064959
8.355608 23.917065 0.109843
8.670330 23.917065 0.179919
8.985050 23.917065 0.269730
9.299772 23.917065 0.371645
9.614492 23.917065 0.481597
9.929214 23.917065 0.602517
10.243935 23.917065 0.717759
10.558655 23.917065 0.839616
10.873377 23.917065 0.958969
11.188097 23.917065 1.071192
11.502819 23.917065 1.173134
11.817539 23.917065 1.243811
12.132261 23.917065 1.290101
12.446981 23.917065 1.302956
12.761703 23.917065 1.322044
13.076424 23.917065 1.345666
13.391144 23.917065 1.334350
13.705866 23.917065 1.317869
14.020586 23.917065 1.281306
14.335308 23.917065 1.224201
14.650028 23.917065 1.154362
14.964750 23.917065 1.049915
15.279470 23.917065 0.922140
15.594193 23.917065 0.774126
15.908913 23.917065 0.465855
16.223633 23.917065 0.000000
16.538355 23.917065 0.000000
16.853075 23.917065 0.000000
17.167797 23.917065 0.000000
17.482517 23.917065 0.000000
17.797239 23.917065 0.000000
18.111959 23.917065 0.000000
18.426680 23.917065 0.000000
18.741402 23.917065 0.000000
-7.065720 23.602343 0.000000
-6.750999 23.602343 0.004940
-6.436278 23.602343 0.004798
-6.121557 23.602343 0.004846
-5.806836 23.602343 0.004896
-5.492115 23.602343 0.004944
-5.177394 23.602343 0.004961
-4.862673 23.602343 0.005017
-4.547952 23.602343 0.004917
-4.233231 23.602343 0.004824
-3.918510 23.602343 0.004808
-3.603789 23.602343 0.004759
-3.289068 23.602343 0.004650
-2.974347 23.602343 0.004657
-2.659626 23.602343 0.004674
-2.344905 23.602343 0.004639
-2.030184 23.602343 0.004549
-1.715463 23.602343 0.004375
-1.400742 23.602343 0.004335
-1.086021 23.602343 0.004405
-0.771300 23.602343 0.004444
-0.456579 23.602343 0.004414
-0.141859 23.602343 0.004350
0.172863 23.602343 0.004369
0.487584 23.602343 0.004442
0.802305 23.602343 0.004466
1.117026 23.602343 0.004389
1.431747 23.602343 0.004403
1.746467 23.602343 0.004549
2.061188 23.602343 0.004543
2.375909 23.602343 0.004257
2.690630 23.602343 0.003936
3.005352 23.602343 0.003955
3.320073 23.602343 0.004243
3.634794 23.602343 0.004469
3.949515 23.602343 0.004421
4.264236 23.602343 0.004220
4.578956 23.602343 0.004099
4.893677 23.602343 0.004184
5.208398 23.602343 0.004470
5.523119 23.602343 0.004724
5.837841 23.602343 0.004884
6.152562 23.602343 0.005580
6.467283 23.602343 0.006654
6.782003 23.602343 0.008304
7.096724 23.602343 0.011912
7.411445 23.602343 0.021257
7.726166 23.602343 0.036839
8.040888 23.602343 0.064956
8.355608 23.602343 0.109333
8.670330 23.602343 0.176544
8.985050 23.602343 0.266519
9.299772 23.602343 0.377462
9.614492 23.602343 0.478722
9.929214 23.602343 0.602826
10.243935 23.602343 0.718834
10.558655 23.602343 0.834446
10.873377 23.602343 0.963691
11.188097 23.602343 1.065581
11.502819 23.602343 1.165682
11.817539 23.602343 1.246115
12.132261 23.602343 1.290009
12.446981 23.602343 1.311827
12.761703 23.602343 1.335553
13.076424 23.602343 1.348775
13.391144 23.602343 1.349198
13.705866 23.602343 1.334922
14.020586 23.602343 1.309164
14.335308 23.602343 1.235005
14.650028 23.602343 1.167230
14.964750 23.602343 1.059348
15.279470 23.602343 0.930174
15.594193 23.602343 0.788771
15.908913 23.602343 0.537988
16.223633 23.602343 0.000000
16.538355 23.602343 0.000000
16.853075 23.602343 0.000000
17.167797 23.602343 0.000000
17.482517 23.602343 0.000000
17.797239 23.602343 0.000000
18.111959 23.602343 0.000000
18.426680 23.602343 0.000000
18.741402 23.602343 0.000000
-7.065720 23.287622 0.000000
-6.750999 23.287622 0.004732
-6.436278 23.287622 0.004708
-6.121557 23.287622 0.004858
-5.806836 23.287622 0.004976
-5.492115 23.287622 0.005034
-5.177394 23.287622 0.005051
-4.862673 23.287622 0.005052
-4.547952 23.287622 0.004941
-4.233231 23.287622 0.004765
-3.918510 23.287622 0.004711
-3.603789 23.287622 0.004722
-3.289068 23.287622 0.004639
-2.974347 23.287622 0.004621
-2.659626 23.287622 0.004598
-2.344905 23.287622 0.004550
-2.030184 23.287622 0.004603
-1.715463 23.287622 0.004540
-1.400742 23.287622 0.004463
-1.086021 23.287622 0.004465
-0.771300 23.287622 0.004481
-0.456579 23.287622 0.004478
-0.141859 23.287622 0.004428
0.172863 23.287622 0.004449
0.487584 23.287622 0.004517
0.802305 23.287622 0.004519
1.117026 23.287622 0.004455
1.431747 23.287622 0.004417
1.746467 23.287622 0.004493
2.061188 23.287622 0.004466
2.375909 23.287622 0.004258
2.690630 23.287622 0.004037
3.005352 23.287622 0.004024
3.320073 23.287622 0.004236
3.634794 23.287622 0.004408
3.949515 23.287622 0.004355
4.264236 23.287622 0.004303
4.578956 23.287622 0.004284
4.893677 23.287622 0.004285
5.208398 23.287622 0.004513
5.523119 23.287622 0.004703
5.837841 23.287622 0.004924
6.152562 23.287622 0.005448
6.467283 23.287622 0.006451
6.782003 23.287622 0.008004
7.096724 23.287622 0.011845
7.411445 23.287622 0.021906
7.726166 23.287622 0.038137
8.040888 23.287622 0.067694
8.355608 23.287622 0.112389
8.670330 23.287622 0.177054
8.985050 23.287622 0.263291
9.299772 23.287622 0.367298
9.614492 23.287622 0.473659
9.929214 23.287622 0.603206
10.243935 23.287622 0.722897
10.558655 23.287622 0.834430
10.873377 23.287622 0.946104
11.188097 23.287622 1.062844
11.502819 23.287622 1.160695
11.817539 23.287622 1.242999
12.132261 23.287622 1.290388
12.446981 23.287622 1.313348
12.761703 23.287622 1.343101
13.076424 23.287622 1.347847
13.391144 23.287622 1.361937
13.705866 23.287622 1.352059
14.020586 23.287622 1.322527
14.335308 23.287622 1.255622
14.650028 23.287622 1.167731
14.964750 23.287622 1.061880
15.279470 23.287622 0.936555
15.594193 23.287622 0.807468
15.908913 23.287622 0.371569
16.223633 23.287622 0.000000
16.538355 23.287622 0.000000
16.853075 23.287622 0.000000
17.167797 23.287622 0.000000
17.482517 23.287622 0.000000
17.797239 23.287622 0.000000
18.111959 23.287622 0.000000
18.426680 23.287622 0.000000
18.741402 23.287622 0.000000
-7.065720 22.972902 0.000000
-6.750999 22.972902 0.004762
-6.436278 22.972902 0.004784
-6.121557 22.972902 0.004959
-5.806836 22.972902 0.005053
-5.492115 22.972902 0.005039
-5.177394 22.972902 0.005029
-4.862673 22.972902 0.005005
-4.547952 22.972902 0.004890
-4.233231 22.972902 0.004708
-3.918510 22.972902 0.004675
-3.603789 22.972902 0.004750
-3.289068 22.972902 0.004701
-2.974347 22.972902 0.004643
-2.659626 22.972902 0.004584
-2.344905 22.972902 0.004543
-2.030184 22.972902 0.004660
-1.715463 22.972902 0.004704
-1.400742 22.972902 0.004610
-1.086021 22.972902 0.004523
-0.771300 22.972902 0.004501
-0.456579 22.972902 0.004526
-0.141859 22.972902 0.004510
0.172863 22.972902 0.004523
0.487584 22.972902 0.004553
0.802305 22.972902 0.004548
1.117026 22.972902 0.004496
1.431747 22.972902 0.004409
1.746467 22.972902 0.004398
2.061188 22.972902 0.004382
2.375909 22.972902 0.004253
2.690630 22.972902 0.004112
3.005352 22.972902 0.004109
3.320073 22.972902 0.004212
3.634794 22.972902 0.004292
3.949515 22.972902 0.004257
4.264236 22.972902 0.004336
4.578956 22.972902 0.004395
4.893677 22.972902 0.004447
5.208398 22.972902 0.004655
5.523119 22.972902 0.004648
5.837841 22.972902 0.004805
6.152562 22.972902 0.005281
6.467283 22.972902 0.006000
6.782003 22.972902 0.007782
7.096724 22.972902 0.012599
7.411445 22.972902 0.022054
7.726166 22.972902 0.039020
8.040888 22.972902 0.069892
8.355608 22.972902 0.120021
8.670330 22.972902 0.181235
8.985050 22.972902 0.266258
9.299772 22.972902 0.369170
9.614492 22.972902 0.480307
9.929214 22.972902 0.601828
10.243935 22.972902 0.722066
10.558655 22.972902 0.835169
10.873377 22.972902 0.944787
11.188097 22.972902 1.054481
11.502819 22.972902 1.151093
11.817539 22.972902 1.238109
12.132261 22.972902 1.286118
12.446981 22.972902 1.313045
12.761703 22.972902 1.333874
13.076424 22.972902 1.350359
13.391144 22.972902 1.362594
13.705866 22.972902 1.359289
14.020586 22.972902 1.337699
14.335308 22.972902 1.271801
14.650028 22.972902 1.186613
14.964750 22.972902 1.075474
15.279470 22.972902 0.967128
15.594193 22.972902 0.834506
15.908913 22.972902 0.366264
16.223633 22.972902 0.000000
16.538355 22.972902 0.000000
16.853075 22.972902 0.000000
17.167797 22.972902 0.000000
17.482517 22.972902 0.000000
17.797239 22.972902 0.000000
18.111959 22.972902 0.000000
18.426680 22.972902 0.000000
18.741402 22.972902 0.000000
-7.065720 22.658180 0.000000
-6.750999 22.658180 0.004966
-6.436278 22.658180 0.004957
-6.121557 22.658180 0.005069
-5.806836 22.658180 0.005108
-5.492115 22.658180 0.005040
-5.177394 22.658180 0.004966
-4.862673 22.658180 0.004927
-4.547952 22.658180 0.004847
-4.233231 22.658180 0.004715
-3.918510 22.658180 0.004719
-3.603789 22.658180 0.004835
-3.289068 22.658180 0.004790
-2.974347 22.658180 0.004734
-2.659626 22.658180 0.004620
-2.344905 22.658180 0.004548
-2.030184 22.658180 0.004693
-1.715463 22.658180 0.004820
-1.400742 22.658180 0.004764
-1.086021 22.658180 0.004613
-0.771300 22.658180 0.004529
-0.456579 22.658180 0.004557
-0.141859 22.658180 0.004532
0.172863 22.658180 0.004556
0.487584 22.658180 0.004561
0.802305 22.658180 0.004549
1.117026 22.658180 0.004506
1.431747 22.658180 0.004427
1.746467 22.658180 0.004315
2.061188 22.658180 0.004299
2.375909 22.658180 0.004239
2.690630 22.658180 0.004136
3.005352 22.658180 0.004121
3.320073 22.658180 0.004180
3.634794 22.658180 0.004146
3.949515 22.658180 0.004180
4.264236 22.658180 0.004364
4.578956 22.658180 0.004512
4.893677 22.658180 0.004573
5.208398 22.658180 0.004681
5.523119 22.658180 0.004889
5.837841 22.658180 0.005002
6.152562 22.658180 0.005367
6.467283 22.658180 0.005797
6.782003 22.658180 0.007999
7.096724 22.658180 0.012681
7.411445 22.658180 0.021390
7.726166 22.658180 0.039108
8.040888 22.658180 0.070923
8.355608 22.658180 0.121892
8.670330 22.658180 0.185603
8.985050 22.658180 0.269311
9.299772 22.658180 0.374290
9.614492 22.658180 0.485943
9.929214 22.658180 0.599137
10.243935 22.658180 0.724214
10.558655 22.658180 0.846040
10.873377 22.658180 0.961800
11.188097 22.658180 1.054741
11.502819 22.658180 1.149303
11.817539 22.658180 1.235898
12.132261 22.658180 1.293199
12.446981 22.658180 1.309808
12.761703 22.658180 1.326270
13.076424 22.658180 1.344543
13.391144 22.658180 1.360935
13.705866 22.658180 1.362725
14.020586 22.658180 1.348881
14.335308 22.658180 1.290481
14.650028 22.658180 1.209602
14.964750 22.658180 1.101954
15.279470 22.658180 0.965551
15.594193 22.658180 0.840801
15.908913 22.658180 0.455000
16.223633 22.658180 0.000000
16.538355 22.658180 0.000000
16.853075 22.658180 0.000000
17.167797 22.658180 0.000000
17.482517 22.658180 0.000000
17.797239 22.658180 0.000000
18.111959 22.658180 0.000000
18.426680 22.658180 0.000000
18.741402 22.658180 0.000000
-7.065720 22.343460 0.000000
-6.750999 22.343460 0.005236
-6.436278 22.343460 0.005130
-6.121557 22.343460 0.005154
-5.806836 22.343460 0.005134
-5.492115 22.343460 0.005030
-5.177394 22.343460 0.004952
-4.862673 22.343460 0.004891
-4.547952 22.343460 0.004881
-4.233231 22.343460 0.004807
-3.918510 22.343460 0.004807
-3.603789 22.343460 0.004902
-3.289068 22.343460 0.004892
-2.974347 22.343460 0.004816
-2.659626 22.343460 0.004703
-2.344905 22.343460 0.004593
-2.030184 22.343460 0.004735
-1.715463 22.343460 0.004895
-1.400742 22.343460 0.004857
-1.086021 22.343460 0.004696
-0.771300 22.343460 0.004588
-0.456579 22.343460 0.004579
-0.141859 22.343460 0.004549
0.172863 22.343460 0.004572
0.487584 22.343460 0.004574
0.802305 22.343460 0.004530
1.117026 22.343460 0.004482
1.431747 22.343460 0.004413
1.746467 22.343460 0.004289
2.061188 22.343460 0.004294
2.375909 22.343460 0.004242
2.690630 22.343460 0.004119
3.005352 22.343460 0.004083
3.320073 22.343460 0.004149
3.634794 22.343460 0.004104
3.949515 22.343460 0.004085
4.264236 22.343460 0.004326
4.578956 22.343460 0.004500
4.893677 22.343460 0.004603
5.208398 22.343460 0.004648
5.523119 22.343460 0.004761
5.837841 22.343460 0.005084
6.152562 22.343460 0.005490
6.467283 22.343460 0.006242
6.782003 22.343460 0.008092
7.096724 22.343460 0.012773
7.411445 22.343460 0.021242
7.726166 22.343460 0.039202
8.040888 22.343460 0.072985
8.355608 22.343460 0.121407
8.670330 22.343460 0.188113
8.985050 22.343460 0.277356
9.299772 22.343460 0.379702
9.614492 22.343460 0.490950
9.929214 22.343460 0.603241
10.243935 22.343460 0.737285
10.558655 22.343460 0.851476
10.873377 22.343460 0.969540
11.188097 22.343460 1.067052
11.502819 22.343460 1.152477
11.817539 22.343460 1.232300
12.132261 22.343460 1.287293
12.446981 22.343460 1.313112
12.761703 22.343460 1.328512
13.076424 22.343460 1.344078
13.391144 22.343460 1.352693
13.705866 22.343460 1.367811
14.020586 22.343460 1.352637
14.335308 22.343460 1.302072
14.650028 22.343460 1.222846
14.964750 22.343460 1.102928
15.279470 22.343460 0.968131
15.594193 22.343460 0.860731
15.908913 22.343460 0.196805
16.223633 22.343460 0.000000
16.538355 22.343460 0.000000
16.853075 22.343460 0.000000
17.167797 22.343460 0.000000
17.482517 22.343460 0.000000
17.797239 22.343460 0.000000
18.111959 22.343460 0.000000
18.426680 22.343460 0.000000
18.741402 22.343460 0.000000
-7.065720 22.028738 0.000000
-6.750999 22.028738 0.005460
-6.436278 22.028738 0.005249
-6.121557 22.028738 0.005117
-5.806836 22.028738 0.005087
-5.492115 22.028738 0.005015
-5.177394 22.028738 0.004947
-4.862673 22.028738 0.004921
-4.547952 22.028738 0.004941
-4.233231 22.028738 0.004909
-3.918510 22.028738 0.004890
-3.603789 22.028738 0.004983
-3.289068 22.028738 0.004974
-2.974347 22.028738 0.004885
-2.659626 22.028738 0.004796
-2.344905 22.028738 0.004675
-2.030184 22.028738 0.004738
-1.715463 22.028738 0.004877
-1.400742 22.028738 0.004889
-1.086021 22.028738 0.004755
-0.771300 22.028738 0.004636
-0.456579 22.028738 0.004590
-0.141859 22.028738 0.004549
0.172863 22.028738 0.004591
0.487584 22.028738 0.004584
0.802305 22.028738 0.004489
1.117026 22.028738 0.004431
1.431747 22.028738 0.004410
1.746467 22.028738 0.004324
2.061188 22.028738 0.004302
2.375909 22.028738 0.004260
2.690630 22.028738 0.004128
3.005352 22.028738 0.004077
3.320073 22.028738 0.004145
3.634794 22.028738 0.004096
3.949515 22.028738 0.004061
4.264236 22.028738 0.004280
4.578956 22.028738 0.004457
4.893677 22.028738 0.004506
5.208398 22.028738 0.004610
5.523119 22.028738 0.004822
5.837841 22.028738 0.005013
6.152562 22.028738 0.005409
6.467283 22.028738 0.006555
6.782003 22.028738 0.008380
7.096724 22.028738 0.013083
7.411445 22.028738 0.021421
7.726166 22.028738 0.040095
8.040888 22.028738 0.071412
8.355608 22.028738 0.117956
8.670330 22.028738 0.188900
8.985050 22.028738 0.282491
9.299772 22.028738 0.385009
9.614492 22.028738 0.495713
9.929214 22.028738 0.608681
10.243935 22.028738 0.731260
10.558655 22.028738 0.854309
10.873377 22.028738 0.976123
11.188097 22.028738 1.066093
11.502819 22.028738 1.154518
11.817539 22.028738 1.226423
12.132261 22.028738 1.281999
12.446981 22.028738 1.309688
12.761703 22.028738 1.326275
13.076424 22.028738 1.342942
13.391144 22.028738 1.353374
13.705866 22.028738 1.368232
14.020586 22.028738 1.358129
14.335308 22.028738 1.298349
14.650028 22.028738 1.215907
14.964750 22.028738 1.087046
15.279470 22.028738 0.966809
15.594193 22.028738 0.869757
15.908913 22.028738 0.162792
16.223633 22.028738 0.000000
16.538355 22.028738 0.000000
16.853075 22.028738 0.000000
17.167797 22.028738 0.000000
17.482517 22.028738 0.000000
17.797239 22.028738 0.000000
18.111959 22.028738 0.000000
18.426680 22.028738 0.000000
18.741402 22.028738 0.000000
-7.065720 21.714018 0.000000
-6.750999 21.714018 0.005568
-6.436278 21.714018 0.005259
-6.121557 21.714018 0.005071
-5.806836 21.714018 0.005008
-5.492115 21.714018 0.005017
-5.177394 21.714018 0.004998
-4.862673 21.714018 0.004961
-4.547952 21.714018 0.004981
-4.233231 21.714018 0.004954
-3.918510 21.714018 0.004925
-3.603789 21.714018 0.005008
-3.289068 21.714018 0.005031
-2.974347 21.714018 0.004936
-2.659626 21.714018 0.004848
-2.344905 21.714018 0.004750
-2.030184 21.714018 0.004733
-1.715463 21.714018 0.004805
-1.400742 21.714018 0.004848
-1.086021 21.714018 0.004788
-0.771300 21.714018 0.004680
-0.456579 21.714018 0.004596
-0.141859 21.714018 0.004573
0.172863 21.714018 0.004616
0.487584 21.714018 0.004567
0.802305 21.714018 0.004429
1.117026 21.714018 0.004424
1.431747 21.714018 0.004464
1.746467 21.714018 0.004401
2.061188 21.714018 0.004366
2.375909 21.714018 0.004324
2.690630 21.714018 0.004226
3.005352 21.714018 0.004139
3.320073 21.714018 0.004167
3.634794 21.714018 0.004139
3.949515 21.714018 0.004114
4.264236 21.714018 0.004268
4.578956 21.714018 0.004408
4.893677 21.714018 0.004443
5.208398 21.714018 0.004656
5.523119 21.714018 0.004863
5.837841 21.714018 0.004820
6.152562 21.714018 0.005364
6.467283 21.714018 0.006220
6.782003 21.714018 0.008483
7.096724 21.714018 0.013230
7.411445 21.714018 0.022311
7.726166 21.714018 0.040576
8.040888 21.714018 0.072379
8.355608 21.714018 0.119817
8.670330 21.714018 0.192444
8.985050 21.714018 0.278864
9.299772 21.714018 0.389031
9.614492 21.714018 0.493150
9.929214 21.714018 0.614760
10.243935 21.714018 0.734735
10.558655 21.714018 0.854430
10.873377 21.714018 0.969977
11.188097 21.714018 1.060984
11.502819 21.714018 1.146496
11.817539 21.714018 1.220650
12.132261 21.714018 1.276087
12.446981 21.714018 1.309720
12.761703 21.714018 1.316931
13.076424 21.714018 1.339954
13.391144 21.714018 1.362380
13.705866 21.714018 1.372230
14.020586 21.714018 1.354458
14.335308 21.714018 1.298278
14.650028 21.714018 1.203460
14.964750 21.714018 1.070873
15.279470 21.714018 0.966740
15.594193 21.714018 0.861084
15.908913 21.714018 0.145140
16.223633 21.714018 0.000000
16.538355 21.714018 0.000000
16.853075 21.714018 0.000000
17.167797 21.714018 0.000000
17.482517 21.714018 0.000000
17.797239 21.714018 0.000000
18.111959 21.714018 0.000000
18.426680 21.714018 0.000000
18.741402 21.714018 0.000000
-7.065720 21.399296 0.000000
-6.750999 21.399296 0.005625
-6.436278 21.399296 0.005321
-6.121557 21.399296 0.005055
-5.806836 21.399296 0.004966
-5.492115 21.399296 0.005056
-5.177394 21.399296 0.005073
-4.862673 21.399296 0.004983
-4.547952 21.399296 0.004970
-4.233231 21.399296 0.004963
-3.918510 21.399296 0.004958
-3.603789 21.399296 0.005016
-3.289068 21.399296 0.005030
-2.974347 21.399296 0.004948
-2.659626 21.399296 0.004885
-2.344905 21.399296 0.004833
-2.030184 21.399296 0.004726
-1.715463 21.399296 0.004675
-1.400742 21.399296 0.004747
-1.086021 21.399296 0.004747
-0.771300 21.399296 0.004728
-0.456579 21.399296 0.004667
-0.141859 21.399296 0.004631
0.172863 21.399296 0.004644
0.487584 21.399296 0.004544
0.802305 21.399296 0.004376
1.117026 21.399296 0.004451
1.431747 21.399296 0.004538
1.746467 21.399296 0.004484
2.061188 21.399296 0.004411
2.375909 21.399296 0.004403
2.690630 21.399296 0.004346
3.005352 21.399296 0.004248
3.320073 21.399296 0.004198
3.634794 21.399296 0.004245
3.949515 21.399296 0.004252
4.264236 21.399296 0.004313
4.578956 21.399296 0.004294
4.893677 21.399296 0.004375
5.208398 21.399296 0.004550
5.523119 21.399296 0.004678
5.837841 21.399296 0.004533
6.152562 21.399296 0.005455
6.467283 21.399296 0.006104
6.782003 21.399296 0.007691
7.096724 21.399296 0.013420
7.411445 21.399296 0.023458
7.726166 21.399296 0.041368
8.040888 21.399296 0.071696
8.355608 21.399296 0.121456
8.670330 21.399296 0.189082
8.985050 21.399296 0.279703
9.299772 21.399296 0.388744
9.614492 21.399296 0.497328
9.929214 21.399296 0.621568
10.243935 21.399296 0.748454
10.558655 21.399296 0.853945
10.873377 21.399296 0.958030
11.188097 21.399296 1.047289
11.502819 21.399296 1.143406
11.817539 21.399296 1.221046
12.132261 21.399296 1.275514
12.446981 21.399296 1.300303
12.761703 21.399296 1.316238
13.076424 21.399296 1.337025
13.391144 21.399296 1.363887
13.705866 21.399296 1.389705
14.020586 21.399296 1.356626
14.335308 21.399296 1.291102
14.650028 21.399296 1.195726
14.964750 21.399296 1.075412
15.279470 21.399296 0.967486
15.594193 21.399296 0.861377
15.908913 21.399296 0.118021
16.223633 21.399296 0.000000
16.538355 21.399296 0.000000
16.853075 21.399296 0.000000
17.167797 21.399296 0.000000
17.482517 21.399296 0.000000
17.797239 21.399296 0.000000
18.111959 21.399296 0.000000
18.426680 21.399296 0.000000
18.741402 21.399296 0.000000
-7.065720 21.084576 0.000000
-6.750999 21.084576 0.005616
-6.436278 21.084576 0.005357
-6.121557 21.084576 0.005081
-5.806836 21.084576 0.004947
-5.492115 21.084576 0.005092
-5.177394 21.084576 0.005138
-4.862673 21.084576 0.005007
-4.547952 21.084576 0.004952
-4.233231 21.084576 0.004957
-3.918510 21.084576 0.005004
-3.603789 21.084576 0.005054
-3.289068 21.084576 0.005033
-2.974347 21.084576 0.004957
-2.659626 21.084576 0.004939
-2.344905 21.084576 0.004929
-2.030184 21.084576 0.004770
-1.715463 21.084576 0.004609
-1.400742 21.084576 0.004656
-1.086021 21.084576 0.004716
-0.771300 21.084576 0.004760
-0.456579 21.084576 0.004775
-0.141859 21.084576 0.004747
0.172863 21.084576 0.004673
0.487584 21.084576 0.004523
0.802305 21.084576 0.004390
1.117026 21.084576 0.004507
1.431747 21.084576 0.004629
1.746467 21.084576 0.004548
2.061188 21.084576 0.004439
2.375909 21.084576 0.004468
2.690630 21.084576 0.004457
3.005352 21.084576 0.004340
3.320073 21.084576 0.004239
3.634794 21.084576 0.004355
3.949515 21.084576 0.004424
4.264236 21.084576 0.004338
4.578956 21.084576 0.004331
4.893677 21.084576 0.004426
5.208398 21.084576 0.004494
5.523119 21.084576 0.004540
5.837841 21.084576 0.004799
6.152562 21.084576 0.005498
6.467283 21.084576 0.006128
6.782003 21.084576 0.008171
7.096724 21.084576 0.013309
7.411445 21.084576 0.023506
7.726166 21.084576 0.041967
8.040888 21.084576 0.072585
8.355608 21.084576 0.122642
8.670330 21.084576 0.194774
8.985050 21.084576 0.285895
9.299772 21.084576 0.393330
9.614492 21.084576 0.503680
9.929214 21.084576 0.624408
10.243935 21.084576 0.758473
10.558655 21.084576 0.864910
10.873377 21.084576 0.961126
11.188097 21.084576 1.053808
11.502819 21.084576 1.146394
11.817539 21.084576 1.210833
12.132261 21.084576 1.262751
12.446981 21.084576 1.295032
12.761703 21.084576 1.312825
13.076424 21.084576 1.330482
13.391144 21.084576 1.354150
13.705866 21.084576 1.377349
14.020586 21.084576 1.353822
14.335308 21.084576 1.296359
14.650028 21.084576 1.189310
14.964750 21.084576 1.077708
15.279470 21.084576 0.962556
15.594193 21.084576 0.855787
15.908913 21.084576 0.063026
16.223633 21.084576 0.000000
16.538355 21.084576 0.000000
16.853075 21.084576 0.000000
17.167797 21.084576 0.000000
17.482517 21.084576 0.000000
17.797239 21.084576 0.000000
18.111959 21.084576 0.000000
18.426680 21.084576 0.000000
18.741402 21.084576 0.000000
-7.065720 20.769855 0.000000
-6.750999 20.769855 0.005586
-6.436278 20.769855 0.005371
-6.121557 20.769855 0.005137
-5.806836 20.769855 0.005032
-5.492115 20.769855 0.005136
-5.177394 20.769855 0.005213
-4.862673 20.769855 0.005069
-4.547952 20.769855 0.004928
-4.233231 20.769855 0.004962
-3.918510 20.769855 0.005056
-3.603789 20.769855 0.005082
-3.289068 20.769855 0.005052
-2.974347 20.769855 0.005043
-2.659626 20.769855 0.005064
-2.344905 20.769855 0.005078
-2.030184 20.769855 0.004850
-1.715463 20.769855 0.004571
-1.400742 20.769855 0.004571
-1.086021 20.769855 0.004670
-0.771300 20.769855 0.004753
-0.456579 20.769855 0.004801
-0.141859 20.769855 0.004786
0.172863 20.769855 0.004681
0.487584 20.769855 0.004540
0.802305 20.769855 0.004456
1.117026 20.769855 0.004562
1.431747 20.769855 0.004671
1.746467 20.769855 0.004590
2.061188 20.769855 0.004476
2.375909 20.769855 0.004514
2.690630 20.769855 0.004540
3.005352 20.769855 0.004421
3.320073 20.769855 0.004325
3.634794 20.769855 0.004482
3.949515 20.769855 0.004593
4.264236 20.769855 0.004489
4.578956 20.769855 0.004459
4.893677 20.769855 0.004464
5.208398 20.769855 0.004503
5.523119 20.769855 0.004749
5.837841 20.769855 0.005026
6.152562 20.769855 0.005658
6.467283 20.769855 0.006883
6.782003 20.769855 0.008628
7.096724 20.769855 0.014103
7.411445 20.769855 0.023699
7.726166 20.769855 0.041628
8.040888 20.769855 0.072520
8.355608 20.769855 0.123246
8.670330 20.769855 0.197231
8.985050 20.769855 0.288665
9.299772 20.769855 0.394245
9.614492 20.769855 0.512027
9.929214 20.769855 0.638849
10.243935 20.769855 0.753778
10.558655 20.769855 0.861763
10.873377 20.769855 0.968503
11.188097 20.769855 1.049873
11.502819 20.769855 1.134462
11.817539 20.769855 1.203057
12.132261 20.769855 1.257520
12.446981 20.769855 1.286466
12.761703 20.769855 1.309377
13.076424 20.769855 1.322762
13.391144 20.769855 1.346254
13.705866 20.769855 1.375659
14.020586 20.769855 1.354409
14.335308 20.769855 1.292117
14.650028 20.769855 1.197806
14.964750 20.769855 1.082919
15.279470 20.769855 0.956902
15.594193 20.769855 0.858817
15.908913 20.769855 0.000000
16.223633 20.769855 0.000000
16.538355 20.769855 0.000000
16.853075 20.769855 0.000000
17.167797 20.769855 0.000000
17.482517 20.769855 0.000000
17.797239 20.769855 0.000000
18.111959 20.769855 0.000000
18.426680 20.769855 0.000000
18.741402 20.769855 0.000000
-7.065720 20.455133 0.000000
-6.750999 20.455133 0.005554
-6.436278 20.455133 0.005393
-6.121557 20.455133 0.005218
-5.806836 20.455133 0.005122
-5.492115 20.455133 0.005219
-5.177394 20.455133 0.005343
-4.862673 20.455133 0.005186
-4.547952 20.455133 0.004959
-4.233231 20.455133 0.004985
-3.918510 20.455133 0.005110
-3.603789 20.455133 0.005107
-3.289068 20.455133 0.005098
-2.974347 20.455133 0.005164
-2.659626 20.455133 0.005218
-2.344905 20.455133 0.005166
-2.030184 20.455133 0.004913
-1.715463 20.455133 0.004587
-1.400742 20.455133 0.004544
-1.086021 20.455133 0.004627
-0.771300 20.455133 0.004741
-0.456579 20.455133 0.004778
-0.141859 20.455133 0.004782
0.172863 20.455133 0.004671
0.487584 20.455133 0.004602
0.802305 20.455133 0.004568
1.117026 20.455133 0.004584
1.431747 20.455133 0.004658
1.746467 20.455133 0.004613
2.061188 20.455133 0.004510
2.375909 20.455133 0.004534
2.690630 20.455133 0.004568
3.005352 20.455133 0.004485
3.320073 20.455133 0.004450
3.634794 20.455133 0.004616
3.949515 20.455133 0.004714
4.264236 20.455133 0.004576
4.578956 20.455133 0.004515
4.893677 20.455133 0.004583
5.208398 20.455133 0.004626
5.523119 20.455133 0.004703
5.837841 20.455133 0.004952
6.152562 20.455133 0.005601
6.467283 20.455133 0.006881
6.782003 20.455133 0.008972
7.096724 20.455133 0.014948
7.411445 20.455133 0.023444
7.726166 20.455133 0.041508
8.040888 20.455133 0.076297
8.355608 20.455133 0.125263
8.670330 20.455133 0.201286
8.985050 20.455133 0.283588
9.299772 20.455133 0.391584
9.614492 20.455133 0.508592
9.929214 20.455133 0.636212
10.243935 20.455133 0.762130
10.558655 20.455133 0.863193
10.873377 20.455133 0.968549
11.188097 20.455133 1.049331
11.502819 20.455133 1.128631
11.817539 20.455133 1.194948
12.132261 20.455133 1.245849
12.446981 20.455133 1.289129
12.761703 20.455133 1.300817
13.076424 20.455133 1.324714
13.391144 20.455133 1.352210
13.705866 20.455133 1.371044
14.020586 20.455133 1.365226
14.335308 20.455133 1.308637
14.650028 20.455133 1.209023
14.964750 20.455133 1.079156
15.279470 20.455133 0.966812
15.594193 20.455133 0.861601
15.908913 20.455133 0.000000
16.223633 20.455133 0.000000
16.538355 20.455133 0.000000
16.853075 20.455133 0.000000
17.167797 20.455133 0.000000
17.482517 20.455133 0.000000
17.797239 20.455133 0.000000
18.111959 20.455133 0.000000
18.426680 20.455133 0.000000
18.741402 20.455133 0.000000
-7.065720 20.140413 0.000000
-6.750999 20.140413 0.005481
-6.436278 20.140413 0.005407
-6.121557 20.140413 0.005299
-5.806836 20.140413 0.005223
-5.492115 20.140413 0.005328
-5.177394 20.140413 0.005468
-4.862673 20.140413 0.005343
-4.547952 20.140413 0.005077
-4.233231 20.140413 0.005021
-3.918510 20.140413 0.005154
-3.603789 20.140413 0.005126
-3.289068 20.140413 0.005148
-2.974347 20.140413 0.005284
-2.659626 20.140413 0.005316
-2.344905 20.140413 0.005181
-2.030184 20.140413 0.004920
-1.715463 20.140413 0.004639
-1.400742 20.140413 0.004585
-1.086021 20.140413 0.004671
-0.771300 20.140413 0.004741
-0.456579 20.140413 0.004757
-0.141859 20.140413 0.004717
0.172863 20.140413 0.004683
0.487584 20.140413 0.004720
0.802305 20.140413 0.004686
1.117026 20.140413 0.004593
1.431747 20.140413 0.004611
1.746467 20.140413 0.004599
2.061188 20.140413 0.004519
2.375909 20.140413 0.004542
2.690630 20.140413 0.004604
3.005352 20.140413 0.004553
3.320073 20.140413 0.004573
3.634794 20.140413 0.004780
3.949515 20.140413 0.004815
4.264236 20.140413 0.004612
4.578956 20.140413 0.004568
4.893677 20.140413 0.004586
5.208398 20.140413 0.004593
5.523119 20.140413 0.004860
5.837841 20.140413 0.005059
6.152562 20.140413 0.005844
6.467283 20.140413 0.007269
6.782003 20.140413 0.009853
7.096724 20.140413 0.014467
7.411445 20.140413 0.023921
7.726166 20.140413 0.043140
8.040888 20.140413 0.075490
8.355608 20.140413 0.128713
8.670330 20.140413 0.200897
8.985050 20.140413 0.287979
9.299772 20.140413 0.384806
9.614492 20.140413 0.514517
9.929214 20.140413 0.632640
10.243935 20.140413 0.763171
10.558655 20.140413 0.867078
10.873377 20.140413 0.977008
11.188097 20.140413 1.052371
11.502819 20.140413 1.120731
11.817539 20.140413 1.186332
12.132261 20.140413 1.248722
12.446981 20.140413 1.281043
12.761703 20.140413 1.300920
13.076424 20.140413 1.324876
13.391144 20.140413 1.347633
13.705866 20.140413 1.383539
14.020586 20.140413 1.387843
14.335308 20.140413 1.325884
14.650028 20.140413 1.227983
14.964750 20.140413 1.103614
15.279470 20.140413 0.970771
15.594193 20.140413 0.864050
15.908913 20.140413 0.000000
16.223633 20.140413 0.000000
16.538355 20.140413 0.000000
16.853075 20.140413 0.000000
17.167797 20.140413 0.000000
17.482517 20.140413 0.000000
17.797239 20.140413 0.000000
18.111959 20.140413 0.000000
18.426680 20.140413 0.000000
18.741402 20.140413 0.000000
-7.065720 19.825691 0.000000
-6.750999 19.825691 0.005441
-6.436278 19.825691 0.005416
-6.121557 19.825691 0.005378
-5.806836 19.825691 0.005322
-5.492115 19.825691 0.005383
-5.177394 19.825691 0.005540
-4.862673 19.825691 0.005514
-4.547952 19.825691 0.005246
-4.233231 19.825691 0.005130
-3.918510 19.825691 0.005192
-3.603789 19.825691 0.005123
-3.289068 19.825691 0.005163
-2.974347 19.825691 0.005305
-2.659626 19.825691 0.005299
-2.344905 19.825691 0.005095
-2.030184 19.825691 0.004896
-1.715463 19.825691 0.004731
-1.400742 19.825691 0.004711
-1.086021 19.825691 0.004788
-0.771300 19.825691 0.004808
-0.456579 19.825691 0.004758
-0.141859 19.825691 0.004681
0.172863 19.825691 0.004692
0.487584 19.825691 0.004822
0.802305 19.825691 0.004810
1.117026 19.825691 0.004613
1.431747 19.825691 0.004554
1.746467 19.825691 0.004556
2.061188 19.825691 0.004531
2.375909 19.825691 0.004572
2.690630 19.825691 0.004660
3.005352 19.825691 0.004660
3.320073 19.825691 0.004720
3.634794 19.825691 0.004852
3.949515 19.825691 0.004850
4.264236 19.825691 0.004689
4.578956 19.825691 0.004561
4.893677 19.825691 0.004645
5.208398 19.825691 0.004720
5.523119 19.825691 0.004773
5.837841 19.825691 0.005004
6.152562 19.825691 0.005866
6.467283 19.825691 0.006997
6.782003 19.825691 0.009557
7.096724 19.825691 0.013831
7.411445 19.825691 0.023361
7.726166 19.825691 0.044053
8.040888 19.825691 0.078301
8.355608 19.825691 0.131349
8.670330 19.825691 0.202463
8.985050 19.825691 0.295220
9.299772 19.825691 0.388489
9.614492 19.825691 0.511006
9.929214 19.825691 0.637369
10.243935 19.825691 0.761777
10.558655 19.825691 0.876197
10.873377 19.825691 0.982522
11.188097 19.825691 1.062835
11.502819 19.825691 1.134583
11.817539 19.825691 1.204360
12.132261 19.825691 1.267392
12.446981 19.825691 1.295907
12.761703 19.825691 1.302322
13.076424 19.825691 1.321640
13.391144 19.825691 1.359290
13.705866 19.825691 1.385011
14.020586 19.825691 1.390717
14.335308 19.825691 1.325463
14.650028 19.825691 1.246682
14.964750 19.825691 1.121764
15.279470 19.825691 0.989016
15.594193 19.825691 0.868135
15.908913 19.825691 0.000000
16.223633 19.825691 0.000000
16.538355 19.825691 0.000000
16.853075 19.825691 0.000000
17.167797 19.825691 0.000000
17.482517 19.825691 0.000000
17.797239 19.825691 0.000000
18.111959 19.825691 0.000000
18.426680 19.825691 0.000000
18.741402 19.825691 0.000000
-7.065720 19.510971 0.000000
-6.750999 19.510971 0.005394
-6.436278 19.510971 0.005470
-6.121557 19.510971 0.005485
-5.806836 19.510971 0.005470
-5.492115 19.510971 0.005510
-5.177394 19.510971 0.005618
-4.862673 19.510971 0.005621
-4.547952 19.510971 0.005381
-4.233231 19.510971 0.005193
-3.918510 19.510971 0.005152
-3.603789 19.510971 0.005111
-3.289068 19.510971 0.005165
-2.974347 19.510971 0.005291
-2.659626 19.510971 0.005210
-2.344905 19.510971 0.005006
-2.030184 19.510971 0.004901
-1.715463 19.510971 0.004864
-1.400742 19.510971 0.004873
-1.086021 19.510971 0.004911
-0.771300 19.510971 0.004905
-0.456579 19.510971 0.004773
-0.141859 19.510971 0.004679
0.172863 19.510971 0.004708
0.487584 19.510971 0.004877
0.802305 19.510971 0.004880
1.117026 19.510971 0.004625
1.431747 19.510971 0.004520
1.746467 19.510971 0.004550
2.061188 19.510971 0.004574
2.375909 19.510971 0.004634
2.690630 19.510971 0.004744
3.005352 19.510971 0.004776
3.320073 19.510971 0.004833
3.634794 19.510971 0.004902
3.949515 19.510971 0.004840
4.264236 19.510971 0.004686
4.578956 19.510971 0.004564
4.893677 19.510971 0.004608
5.208398 19.510971 0.004795
5.523119 19.510971 0.004807
5.837841 19.510971 0.005193
6.152562 19.510971 0.005743
6.467283 19.510971 0.006671
6.782003 19.510971 0.009194
7.096724 19.510971 0.013978
7.411445 19.510971 0.024821
7.726166 19.510971 0.045697
8.040888 19.510971 0.080065
8.355608 19.510971 0.131591
8.670330 19.510971 0.203427
8.985050 19.510971 0.291245
9.299772 19.510971 0.388341
9.614492 19.510971 0.512317
9.929214 19.510971 0.634107
10.243935 19.510971 0.752835
10.558655 19.510971 0.879451
10.873377 19.510971 0.980928
11.188097 19.510971 1.064246
11.502819 19.510971 1.142234
11.817539 19.510971 1.221674
12.132261 19.510971 1.267837
12.446981 19.510971 1.293367
12.761703 19.510971 1.309589
13.076424 19.510971 1.326036
13.391144 19.510971 1.371665
13.705866 19.510971 1.400860
14.020586 19.510971 1.387054
14.335308 19.510971 1.332173
14.650028 19.510971 1.255944
14.964750 19.510971 1.127080
15.279470 19.510971 1.000890
15.594193 19.510971 0.893209
15.908913 19.510971 0.000000
16.223633 19.510971 0.000000
16.538355 19.510971 0.000000
16.853075 19.510971 0.000000
17.167797 19.510971 0.000000
17.482517 19.510971 0.000000
17.797239 19.510971 0.000000
18.111959 19.510971 0.000000
18.426680 19.510971 0.000000
18.741402 19.510971 0.000000
-7.065720 19.196249 0.000000
-6.750999 19.196249 0.005420
-6.436278 19.196249 0.005537
-6.121557 19.196249 0.005611
-5.806836 19.196249 0.005609
-5.492115 19.196249 0.005605
-5.177394 19.196249 0.005642
-4.862673 19.196249 0.005652
-4.547952 19.196249 0.005421
-4.233231 19.196249 0.005157
-3.918510 19.196249 0.005086
-3.603789 19.196249 0.005108
-3.289068 19.196249 0.005177
-2.974347 19.196249 0.005242
-2.659626 19.196249 0.005115
-2.344905 19.196249 0.004918
-2.030184 19.196249 0.004958
-1.715463 19.196249 0.005064
-1.400742 19.196249 0.005044
-1.086021 19.196249 0.005017
-0.771300 19.196249 0.005002
-0.456579 19.196249 0.004820
-0.141859 19.196249 0.004712
0.172863 19.196249 0.004764
0.487584 19.196249 0.004913
0.802305 19.196249 0.004902
1.117026 19.196249 0.004620
1.431747 19.196249 0.004508
1.746467 19.196249 0.004577
2.061188 19.196249 0.004636
2.375909 19.196249 0.004718
2.690630 19.196249 0.004788
3.005352 19.196249 0.004835
3.320073 19.196249 0.004860
3.634794 19.196249 0.004840
3.949515 19.196249 0.004774
4.264236 19.196249 0.004691
4.578956 19.196249 0.004604
4.893677 19.196249 0.004647
5.208398 19.196249 0.004778
5.523119 19.196249 0.005038
5.837841 19.196249 0.005306
6.152562 19.196249 0.005892
6.467283 19.196249 0.006560
6.782003 19.196249 0.008394
7.096724 19.196249 0.014342
7.411445 19.196249 0.024819
7.726166 19.196249 0.044824
8.040888 19.196249 0.081640
8.355608 19.196249 0.133368
8.670330 19.196249 0.207044
8.985050 19.196249 0.290988
9.299772 19.196249 0.395038
9.614492 19.196249 0.517130
9.929214 19.196249 0.637859
10.243935 19.196249 0.754404
10.558655 19.196249 0.881264
10.873377 19.196249 0.980689
11.188097 19.196249 1.067120
11.502819 19.196249 1.147737
11.817539 19.196249 1.214249
12.132261 19.196249 1.275149
12.446981 19.196249 1.300910
12.761703 19.196249 1.319031
13.076424 19.196249 1.334298
13.391144 19.196249 1.378296
13.705866 19.196249 1.413569
14.020586 19.196249 1.389260
14.335308 19.196249 1.337229
14.650028 19.196249 1.242710
14.964750 19.196249 1.127820
15.279470 19.196249 0.991650
15.594193 19.196249 0.877844
15.908913 19.196249 0.000000
16.223633 19.196249 0.000000
16.538355 19.196249 0.000000
16.853075 19.196249 0.000000
17.167797 19.196249 0.000000
17.482517 19.196249 0.000000
17.797239 19.196249 0.000000
18.111959 19.196249 0.000000
18.426680 19.196249 0.000000
18.741402 19.196249 0.000000
-7.065720 18.881529 0.000000
-6.750999 18.881529 0.005397
-6.436278 18.881529 0.005528
-6.121557 18.881529 0.005672
-5.806836 18.881529 0.005662
-5.492115 18.881529 0.005587
-5.177394 18.881529 0.005612
-4.862673 18.881529 0.005660
-4.547952 18.881529 0.005429
-4.233231 18.881529 0.005121
-3.918510 18.881529 0.005055
-3.603789 18.881529 0.005130
-3.289068 18.881529 0.005167
-2.974347 18.881529 0.005189
-2.659626 18.881529 0.005048
-2.344905 18.881529 0.004910
-2.030184 18.881529 0.005075
-1.715463 18.881529 0.005230
-1.400742 18.881529 0.005177
-1.086021 18.881529 0.005103
-0.771300 18.881529 0.005055
-0.456579 18.881529 0.004868
-0.141859 18.881529 0.004778
0.172863 18.881529 0.004825
0.487584 18.881529 0.004925
0.802305 18.881529 0.004943
1.117026 18.881529 0.004720
1.431747 18.881529 0.004581
1.746467 18.881529 0.004643
2.061188 18.881529 0.004706
2.375909 18.881529 0.004769
2.690630 18.881529 0.004807
3.005352 18.881529 0.004841
3.320073 18.881529 0.004821
3.634794 18.881529 0.004727
3.949515 18.881529 0.004677
4.264236 18.881529 0.004753
4.578956 18.881529 0.004764
4.893677 18.881529 0.004761
5.208398 18.881529 0.005065
5.523119 18.881529 0.005176
5.837841 18.881529 0.005519
6.152562 18.881529 0.005857
6.467283 18.881529 0.006872
6.782003 18.881529 0.008337
7.096724 18.881529 0.014426
7.411445 18.881529 0.024513
7.726166 18.881529 0.046327
8.040888 18.881529 0.083425
8.355608 18.881529 0.139600
8.670330 18.881529 0.212873
8.985050 18.881529 0.295932
9.299772 18.881529 0.401522
9.614492 18.881529 0.526227
9.929214 18.881529 0.638927
10.243935 18.881529 0.758365
10.558655 18.881529 0.873615
10.873377 18.881529 0.980864
11.188097 18.881529 1.072714
11.502819 18.881529 1.147633
11.817539 18.881529 1.207176
12.132261 18.881529 1.263054
12.446981 18.881529 1.299738
12.761703 18.881529 1.326269
13.076424 18.881529 1.348498
13.391144 18.881529 1.386424
13.705866 18.881529 1.397097
14.020586 18.881529 1.383496
14.335308 18.881529 1.319839
14.650028 18.881529 1.228168
14.964750 18.881529 1.115659
15.279470 18.881529 0.986728
15.594193 18.881529 0.878142
15.908913 18.881529 0.000000
16.223633 18.881529 0.000000
16.538355 18.881529 0.000000
16.853075 18.881529 0.000000
17.167797 18.881529 0.000000
17.482517 18.881529 0.000000
17.797239 18.881529 0.000000
18.111959 18.881529 0.000000
18.426680 18.881529 0.000000
18.741402 18.881529 0.000000
-7.065720 18.566807 0.000000
-6.750999 18.566807 0.005360
-6.436278 18.566807 0.005491
-6.121557 18.566807 0.005662
-5.806836 18.566807 0.005659
-5.492115 18.566807 0.005528
-5.177394 18.566807 0.005579
-4.862673 18.566807 0.005635
-4.547952 18.566807 0.005423
-4.233231 18.566807 0.005109
-3.918510 18.566807 0.005066
-3.603789 18.566807 0.005165
-3.289068 18.566807 0.005171
-2.974347 18.566807 0.005142
-2.659626 18.566807 0.005017
-2.344905 18.566807 0.004973
-2.030184 18.566807 0.005204
-1.715463 18.566807 0.005359
-1.400742 18.566807 0.005256
-1.086021 18.566807 0.005150
-0.771300 18.566807 0.005065
-0.456579 18.566807 0.004888
-0.141859 18.566807 0.004823
0.172863 18.566807 0.004877
0.487584 18.566807 0.004933
0.802305 18.566807 0.004955
1.117026 18.566807 0.004807
1.431747 18.566807 0.004705
1.746467 18.566807 0.004746
2.061188 18.566807 0.004782
2.375909 18.566807 0.004784
2.690630 18.566807 0.004807
3.005352 18.566807 0.004811
3.320073 18.566807 0.004737
3.634794 18.566807 0.004610
3.949515 18.566807 0.004658
4.264236 18.566807 0.004834
4.578956 18.566807 0.004846
4.893677 18.566807 0.004808
5.208398 18.566807 0.005023
5.523119 18.566807 0.005377
5.837841 18.566807 0.005470
6.152562 18.566807 0.005949
6.467283 18.566807 0.006872
6.782003 18.566807 0.008992
7.096724 18.566807 0.015170
7.411445 18.566807 0.023928
7.726166 18.566807 0.047070
8.040888 18.566807 0.084947
8.355608 18.566807 0.137943
8.670330 18.566807 0.215783
8.985050 18.566807 0.306154
9.299772 18.566807 0.407753
9.614492 18.566807 0.528432
9.929214 18.566807 0.649136
10.243935 18.566807 0.764298
10.558655 18.566807 0.873660
10.873377 18.566807 0.978108
11.188097 18.566807 1.069957
11.502819 18.566807 1.140071
11.817539 18.566807 1.208253
12.132261 18.566807 1.260865
12.446981 18.566807 1.294996
12.761703 18.566807 1.323800
13.076424 18.566807 1.341788
13.391144 18.566807 1.372053
13.705866 18.566807 1.393262
14.020586 18.566807 1.369498
14.335308 18.566807 1.328688
14.650028 18.566807 1.224971
14.964750 18.566807 1.101454
15.279470 18.566807 0.964981
15.594193 18.566807 0.858757
15.908913 18.566807 0.000000
16.223633 18.566807 0.000000
16.538355 18.566807 0.000000
16.853075 18.566807 0.000000
17.167797 18.566807 0.000000
17.482517 18.566807 0.000000
17.797239 18.566807 0.000000
18.111959 18.566807 0.000000
18.426680 18.566807 0.000000
18.741402 18.566807 0.000000
-7.065720 18.252087 0.000000
-6.750999 18.252087 0.005324
-6.436278 18.252087 0.005443
-6.121557 18.252087 0.005612
-5.806836 18.252087 0.005590
-5.492115 18.252087 0.005472
-5.177394 18.252087 0.005490
-4.862673 18.252087 0.005590
-4.547952 18.252087 0.005433
-4.233231 18.252087 0.005163
-3.918510 18.252087 0.005120
-3.603789 18.252087 0.005198
-3.289068 18.252087 0.005198
-2.974347 18.252087 0.005128
-2.659626 18.252087 0.005018
-2.344905 18.252087 0.005108
-2.030184 18.252087 0.005313
-1.715463 18.252087 0.005443
-1.400742 18.252087 0.005320
-1.086021 18.252087 0.005176
-0.771300 18.252087 0.005070
-0.456579 18.252087 0.004879
-0.141859 18.252087 0.004867
0.172863 18.252087 0.004918
0.487584 18.252087 0.004905
0.802305 18.252087 0.004910
1.117026 18.252087 0.004857
1.431747 18.252087 0.004831
1.746467 18.252087 0.004895
2.061188 18.252087 0.004889
2.375909 18.252087 0.004824
2.690630 18.252087 0.004816
3.005352 18.252087 0.004759
3.320073 18.252087 0.004592
3.634794 18.252087 0.004477
3.949515 18.252087 0.004612
4.264236 18.252087 0.004913
4.578956 18.252087 0.004964
4.893677 18.252087 0.004933
5.208398 18.252087 0.005051
5.523119 18.252087 0.005362
5.837841 18.252087 0.005408
6.152562 18.252087 0.005671
6.467283 18.252087 0.006353
6.782003 18.252087 0.009192
7.096724 18.252087 0.015982
7.411445 18.252087 0.024777
7.726166 18.252087 0.048127
8.040888 18.252087 0.083944
8.355608 18.252087 0.140010
8.670330 18.252087 0.215342
8.985050 18.252087 0.308389
9.299772 18.252087 0.413817
9.614492 18.252087 0.533793
9.929214 18.252087 0.651308
10.243935 18.252087 0.772354
10.558655 18.252087 0.869391
10.873377 18.252087 0.968254
11.188097 18.252087 1.058787
11.502819 18.252087 1.131400
11.817539 18.252087 1.198602
12.132261 18.252087 1.255007
12.446981 18.252087 1.288101
12.761703 18.252087 1.323783
13.076424 18.252087 1.354069
13.391144 18.252087 1.374146
13.705866 18.252087 1.389115
14.020586 18.252087 1.370552
14.335308 18.252087 1.310645
14.650028 18.252087 1.212218
14.964750 18.252087 1.102291
15.279470 18.252087 0.964972
15.594193 18.252087 0.859019
15.908913 18.252087 0.000000
16.223633 18.252087 0.000000
16.538355 18.252087 0.000000
16.853075 18.252087 0.000000
17.167797 18.252087 0.000000
17.482517 18.252087 0.000000
17.797239 18.252087 0.000000
18.111959 18.252087 0.000000
18.426680 18.252087 0.000000
18.741402 18.252087 0.000000
-7.065720 17.937366 0.000000
-6.750999 17.937366 0.005337
-6.436278 17.937366 0.005437
-6.121557 17.937366 0.005556
-5.806836 17.937366 0.005504
-5.492115 17.937366 0.005400
-5.177394 17.937366 0.005441
-4.862673 17.937366 0.005548
-4.547952 17.937366 0.005448
-4.233231 17.937366 0.005256
-3.918510 17.937366 0.005223
-3.603789 17.937366 0.005243
-3.289068 17.937366 0.005232
-2.974347 17.937366 0.005197
-2.659626 17.937366 0.005124
-2.344905 17.937366 0.005195
-2.030184 17.937366 0.005341
-1.715463 17.937366 0.005454
-1.400742 17.937366 0.005336
-1.086021 17.937366 0.005158
-0.771300 17.937366 0.005045
-0.456579 17.937366 0.004923
-0.141859 17.937366 0.004916
0.172863 17.937366 0.004937
0.487584 17.937366 0.004856
0.802305 17.937366 0.004886
1.117026 17.937366 0.004924
1.431747 17.937366 0.004964
1.746467 17.937366 0.005014
2.061188 17.937366 0.004978
2.375909 17.937366 0.004865
2.690630 17.937366 0.004829
3.005352 17.937366 0.004693
3.320073 17.937366 0.004475
3.634794 17.937366 0.004428
3.949515 17.937366 0.004608
4.264236 17.937366 0.004974
4.578956 17.937366 0.005111
4.893677 17.937366 0.005013
5.208398 17.937366 0.005139
5.523119 17.937366 0.005225
5.837841 17.937366 0.005346
6.152562 17.937366 0.005675
6.467283 17.937366 0.006275
6.782003 17.937366 0.009265
7.096724 17.937366 0.015079
7.411445 17.937366 0.025481
7.726166 17.937366 0.046859
8.040888 17.937366 0.082967
8.355608 17.937366 0.142827
8.670330 17.937366 0.218415
8.985050 17.937366 0.310114
9.299772 17.937366 0.413425
9.614492 17.937366 0.531674
9.929214 17.937366 0.656097
10.243935 17.937366 0.772574
10.558655 17.937366 0.874914
10.873377 17.937366 0.963340
11.188097 17.937366 1.058271
11.502819 17.937366 1.131609
11.817539 17.937366 1.194308
12.132261 17.937366 1.251016
12.446981 17.937366 1.295729
12.761703 17.937366 1.341567
13.076424 17.937366 1.366969
13.391144 17.937366 1.382009
13.705866 17.937366 1.387721
14.020586 17.937366 1.367834
14.335308 17.937366 1.297827
14.650028 17.937366 1.212328
14.964750 17.937366 1.098724
15.279470 17.937366 0.970694
15.594193 17.937366 0.862399
15.908913 17.937366 0.000000
16.223633 17.937366 0.000000
16.538355 17.937366 0.000000
16.853075 17.937366 0.000000
17.167797 17.937366 0.000000
17.482517 17.937366 0.000000
17.797239 17.937366 0.000000
18.111959 17.937366 0.000000
18.426680 17.937366 0.000000
18.741402 17.937366 0.000000
-7.065720 17.622644 0.000000
-6.750999 17.622644 0.005472
-6.436278 17.622644 0.005474
-6.121557 17.622644 0.005495
-5.806836 17.622644 0.005432
-5.492115 17.622644 0.005363
-5.177394 17.622644 0.005399
-4.862673 17.622644 0.005503
-4.547952 17.622644 0.005456
-4.233231 17.622644 0.005355
-3.918510 17.622644 0.005320
-3.603789 17.622644 0.005302
-3.289068 17.622644 0.005292
-2.974347 17.622644 0.005286
-2.659626 17.622644 0.005266
-2.344905 17.622644 0.005292
-2.030184 17.622644 0.005341
-1.715463 17.622644 0.005396
-1.400742 17.622644 0.005299
-1.086021 17.622644 0.005129
-0.771300 17.622644 0.005038
-0.456579 17.622644 0.004999
-0.141859 17.622644 0.004999
0.172863 17.622644 0.004925
0.487584 17.622644 0.004796
0.802305 17.622644 0.004854
1.117026 17.622644 0.004976
1.431747 17.622644 0.005027
1.746467 17.622644 0.005072
2.061188 17.622644 0.005048
2.375909 17.622644 0.004915
2.690630 17.622644 0.004841
3.005352 17.622644 0.004644
3.320073 17.622644 0.004445
3.634794 17.622644 0.004450
3.949515 17.622644 0.004649
4.264236 17.622644 0.005025
4.578956 17.622644 0.005108
4.893677 17.622644 0.005036
5.208398 17.622644 0.005151
5.523119 17.622644 0.005245
5.837841 17.622644 0.005216
6.152562 17.622644 0.005536
6.467283 17.622644 0.006375
6.782003 17.622644 0.009461
7.096724 17.622644 0.015184
7.411445 17.622644 0.027161
7.726166 17.622644 0.046015
8.040888 17.622644 0.084081
8.355608 17.622644 0.144054
8.670330 17.622644 0.220906
8.985050 17.622644 0.310565
9.299772 17.622644 0.410639
9.614492 17.622644 0.526316
9.929214 17.622644 0.654485
10.243935 17.622644 0.766210
10.558655 17.622644 0.873838
10.873377 17.622644 0.965525
11.188097 17.622644 1.054623
11.502819 17.622644 1.134389
11.817539 17.622644 1.206204
12.132261 17.622644 1.261497
12.446981 17.622644 1.302780
12.761703 17.622644 1.344859
13.076424 17.622644 1.377175
13.391144 17.622644 1.381336
13.705866 17.622644 1.383448
14.020586 17.622644 1.360848
14.335308 17.622644 1.304075
14.650028 17.622644 1.211408
14.964750 17.622644 1.110197
15.279470 17.622644 0.984070
15.594193 17.622644 0.880918
15.908913 17.622644 0.000000
16.223633 17.622644 0.000000
16.538355 17.622644 0.000000
16.853075 17.622644 0.000000
17.167797 17.622644 0.000000
17.482517 17.622644 0.000000
17.797239 17.622644 0.000000
18.111959 17.622644 0.000000
18.426680 17.622644 0.000000
18.741402 17.622644 0.000000
-7.065720 17.307924 0.000000
-6.750999 17.307924 0.005606
-6.436278 17.307924 0.005533
-6.121557 17.307924 0.005466
-5.806836 17.307924 0.005406
-5.492115 17.307924 0.005379
-5.177394 17.307924 0.005394
-4.862673 17.307924 0.005470
-4.547952 17.307924 0.005489
-4.233231 17.307924 0.005458
-3.918510 17.307924 0.005408
-3.603789 17.307924 0.005336
-3.289068 17.307924 0.005290
-2.974347 17.307924 0.005384
-2.659626 17.307924 0.005441
-2.344905 17.307924 0.005399
-2.030184 17.307924 0.005303
-1.715463 17.307924 0.005295
-1.400742 17.307924 0.005241
-1.086021 17.307924 0.005106
-0.771300 17.307924 0.005084
-0.456579 17.307924 0.005070
-0.141859 17.307924 0.005047
0.172863 17.307924 0.004942
0.487584 17.307924 0.004830
0.802305 17.307924 0.004912
1.117026 17.307924 0.005062
1.431747 17.307924 0.005083
1.746467 17.307924 0.005086
2.061188 17.307924 0.005065
2.375909 17.307924 0.004966
2.690630 17.307924 0.004851
3.005352 17.307924 0.004641
3.320073 17.307924 0.004488
3.634794 17.307924 0.004558
3.949515 17.307924 0.004737
4.264236 17.307924 0.005005
4.578956 17.307924 0.005137
4.893677 17.307924 0.005009
5.208398 17.307924 0.005235
5.523119 17.307924 0.005443
5.837841 17.307924 0.005515
6.152562 17.307924 0.005721
6.467283 17.307924 0.006659
6.782003 17.307924 0.009278
7.096724 17.307924 0.015112
7.411445 17.307924 0.027251
7.726166 17.307924 0.047385
8.040888 17.307924 0.084387
8.355608 17.307924 0.148806
8.670330 17.307924 0.229398
8.985050 17.307924 0.316487
9.299772 17.307924 0.417127
9.614492 17.307924 0.532495
9.929214 17.307924 0.655560
10.243935 17.307924 0.771065
10.558655 17.307924 0.881389
10.873377 17.307924 0.969918
11.188097 17.307924 1.058558
11.502819 17.307924 1.132124
11.817539 17.307924 1.215072
12.132261 17.307924 1.271868
12.446981 17.307924 1.304896
12.761703 17.307924 1.345874
13.076424 17.307924 1.366408
13.391144 17.307924 1.395566
13.705866 17.307924 1.388633
14.020586 17.307924 1.358577
14.335308 17.307924 1.298474
14.650028 17.307924 1.213113
14.964750 17.307924 1.118560
15.279470 17.307924 0.996239
15.594193 17.307924 0.894920
15.908913 17.307924 0.000000
16.223633 17.307924 0.000000
16.538355 17.307924 0.000000
16.853075 17.307924 0.000000
17.167797 17.307924 0.000000
17.482517 17.307924 0.000000
17.797239 17.307924 0.000000
18.111959 17.307924 0.000000
18.426680 17.307924 0.000000
18.741402 17.307924 0.000000
-7.065720 16.993202 0.000000
-6.750999 16.993202 0.005717
-6.436278 16.993202 0.005612
-6.121557 16.993202 0.005489
-5.806836 16.993202 0.005452
-5.492115 16.993202 0.005442
-5.177394 16.993202 0.005446
-4.862673 16.993202 0.005462
-4.547952 16.993202 0.005527
-4.233231 16.993202 0.005541
-3.918510 16.993202 0.005495
-3.603789 16.993202 0.005402
-3.289068 16.993202 0.005372
-2.974347 16.993202 0.005475
-2.659626 16.993202 0.005569
-2.344905 16.993202 0.005465
-2.030184 16.993202 0.005289
-1.715463 16.993202 0.005255
-1.400742 16.993202 0.005216
-1.086021 16.993202 0.005137
-0.771300 16.993202 0.005131
-0.456579 16.993202 0.005156
-0.141859 16.993202 0.005107
0.172863 16.993202 0.004981
0.487584 16.993202 0.004906
0.802305 16.993202 0.005007
1.117026 16.993202 0.005153
1.431747 16.993202 0.005142
1.746467 16.993202 0.005079
2.061188 16.993202 0.005067
2.375909 16.993202 0.004987
2.690630 16.993202 0.004839
3.005352 16.993202 0.004698
3.320073 16.993202 0.004626
3.634794 16.993202 0.004777
3.949515 16.993202 0.004848
4.264236 16.993202 0.005036
4.578956 16.993202 0.005176
4.893677 16.993202 0.005242
5.208398 16.993202 0.005454
5.523119 16.993202 0.005661
5.837841 16.993202 0.005784
6.152562 16.993202 0.006280
6.467283 16.993202 0.006823
6.782003 16.993202 0.009503
7.096724 16.993202 0.015549
7.411445 16.993202 0.026762
7.726166 16.993202 0.048631
8.040888 16.993202 0.086460
8.355608 16.993202 0.143151
8.670330 16.993202 0.228888
8.985050 16.993202 0.319827
9.299772 16.993202 0.424244
9.614492 16.993202 0.540155
9.929214 16.993202 0.653044
10.243935 16.993202 0.777300
10.558655 16.993202 0.890097
10.873377 16.993202 0.974918
11.188097 16.993202 1.048652
11.502819 16.993202 1.132789
11.817539 16.993202 1.205291
12.132261 16.993202 1.267738
12.446981 16.993202 1.308574
12.761703 16.993202 1.349538
13.076424 16.993202 1.361205
13.391144 16.993202 1.370520
13.705866 16.993202 1.387331
14.020586 16.993202 1.353844
14.335308 16.993202 1.286660
14.650028 16.993202 1.216109
14.964750 16.993202 1.112420
15.279470 16.993202 0.998440
15.594193 16.993202 0.883997
15.908913 16.993202 0.000000
16.223633 16.993202 0.000000
16.538355 16.993202 0.000000
16.853075 16.993202 0.000000
17.167797 16.993202 0.000000
17.482517 16.993202 0.000000
17.797239 16.993202 0.000000
18.111959 16.993202 0.000000
18.426680 16.993202 0.000000
18.741402 16.993202 0.000000
-7.065720 16.678482 0.000000
-6.750999 16.678482 0.005885
-6.436278 16.678482 0.005738
-6.121557 16.678482 0.005594
-5.806836 16.678482 0.005526
-5.492115 16.678482 0.005516
-5.177394 16.678482 0.005503
-4.862673 16.678482 0.005477
-4.547952 16.678482 0.005593
-4.233231 16.678482 0.005654
-3.918510 16.678482 0.005598
-3.603789 16.678482 0.005496
-3.289068 16.678482 0.005423
-2.974347 16.678482 0.005582
-2.659626 16.678482 0.005626
-2.344905 16.678482 0.005483
-2.030184 16.678482 0.005308
-1.715463 16.678482 0.005250
-1.400742 16.678482 0.005261
-1.086021 16.678482 0.005208
-0.771300 16.678482 0.005196
-0.456579 16.678482 0.005180
-0.141859 16.678482 0.005120
0.172863 16.678482 0.005073
0.487584 16.678482 0.005063
0.802305 16.678482 0.005121
1.117026 16.678482 0.005220
1.431747 16.678482 0.005203
1.746467 16.678482 0.005073
2.061188 16.678482 0.005032
2.375909 16.678482 0.004950
2.690630 16.678482 0.004847
3.005352 16.678482 0.004820
3.320073 16.678482 0.004893
3.634794 16.678482 0.004978
3.949515 16.678482 0.004937
4.264236 16.678482 0.005062
4.578956 16.678482 0.005223
4.893677 16.678482 0.005265
5.208398 16.678482 0.005373
5.523119 16.678482 0.005662
5.837841 16.678482 0.005991
6.152562 16.678482 0.006646
6.467283 16.678482 0.007697
6.782003 16.678482 0.010932
7.096724 16.678482 0.016381
7.411445 16.678482 0.027734
7.726166 16.678482 0.048444
8.040888 16.678482 0.086152
8.355608 16.678482 0.143000
8.670330 16.678482 0.229360
8.985050 16.678482 0.321976
9.299772 16.678482 0.424510
9.614492 16.678482 0.535450
9.929214 16.678482 0.660086
10.243935 16.678482 0.785747
10.558655 16.678482 0.895693
10.873377 16.678482 0.976423
11.188097 16.678482 1.053379
11.502819 16.678482 1.126931
11.817539 16.678482 1.207441
12.132261 16.678482 1.268448
12.446981 16.678482 1.302589
12.761703 16.678482 1.337776
13.076424 16.678482 1.364552
13.391144 16.678482 1.375214
13.705866 16.678482 1.381152
14.020586 16.678482 1.353864
14.335308 16.678482 1.295898
14.650028 16.678482 1.214962
14.964750 16.678482 1.115854
15.279470 16.678482 0.996208
15.594193 16.678482 0.891203
15.908913 16.678482 0.000000
16.223633 16.678482 0.000000
16.538355 16.678482 0.000000
16.853075 16.678482 0.000000
17.167797 16.678482 0.000000
17.482517 16.678482 0.000000
17.797239 16.678482 0.000000
18.111959 16.678482 0.000000
18.426680 16.678482 0.000000
18.741402 16.678482 0.000000
-7.065720 16.363762 0.000000
-6.750999 16.363762 0.006065
-6.436278 16.363762 0.005878
-6.121557 16.363762 0.005738
-5.806836 16.363762 0.005662
-5.492115 16.363762 0.005616
-5.177394 16.363762 0.005569
-4.862673 16.363762 0.005489
-4.547952 16.363762 0.005637
-4.233231 16.363762 0.005752
-3.918510 16.363762 0.005681
-3.603789 16.363762 0.005546
-3.289068 16.363762 0.005517
-2.974347 16.363762 0.005674
-2.659626 16.363762 0.005618
-2.344905 16.363762 0.005429
-2.030184 16.363762 0.005293
-1.715463 16.363762 0.005298
-1.400742 16.363762 0.005316
-1.086021 16.363762 0.005302
-0.771300 16.363762 0.005274
-0.456579 16.363762 0.005165
-0.141859 16.363762 0.005121
0.172863 16.363762 0.005208
0.487584 16.363762 0.005248
0.802305 16.363762 0.005213
1.117026 16.363762 0.005234
1.431747 16.363762 0.005219
1.746467 16.363762 0.005097
2.061188 16.363762 0.005011
2.375909 16.363762 0.004942
2.690630 16.363762 0.004924
3.005352 16.363762 0.005029
3.320073 16.363762 0.005198
3.634794 16.363762 0.005215
3.949515 16.363762 0.005140
4.264236 16.363762 0.005034
4.578956 16.363762 0.005138
4.893677 16.363762 0.005319
5.208398 16.363762 0.005322
5.523119 16.363762 0.005684
5.837841 16.363762 0.006103
6.152562 16.363762 0.006856
6.467283 16.363762 0.008367
6.782003 16.363762 0.010578
7.096724 16.363762 0.016924
7.411445 16.363762 0.028455
7.726166 16.363762 0.049518
8.040888 16.363762 0.087993
8.355608 16.363762 0.149416
8.670330 16.363762 0.234869
8.985050 16.363762 0.327817
9.299772 16.363762 0.429059
9.614492 16.363762 0.540950
9.929214 16.363762 0.656115
10.243935 16.363762 0.783674
10.558655 16.363762 0.889982
10.873377 16.363762 0.973146
11.188097 16.363762 1.052451
11.502819 16.363762 1.129415
11.817539 16.363762 1.211292
12.132261 16.363762 1.268762
12.446981 16.363762 1.298531
12.761703 16.363762 1.337358
13.076424 16.363762 1.356364
13.391144 16.363762 1.385009
13.705866 16.363762 1.386124
14.020586 16.363762 1.368269
14.335308 16.363762 1.303159
14.650028 16.363762 1.225432
14.964750 16.363762 1.128695
15.279470 16.363762 1.021527
15.594193 16.363762 0.926247
15.908913 16.363762 0.000000
16.223633 16.363762 0.000000
16.538355 16.363762 0.000000
16.853075 16.363762 0.000000
17.167797 16.363762 0.000000
17.482517 16.363762 0.000000
17.797239 16.363762 0.000000
18.111959 16.363762 0.000000
18.426680 16.363762 0.000000
18.741402 16.363762 0.000000
-7.065720 16.049038 0.000000
-6.750999 16.049038 0.006206
-6.436278 16.049038 0.006007
-6.121557 16.049038 0.005885
-5.806836 16.049038 0.005804
-5.492115 16.049038 0.005780
-5.177394 16.049038 0.005696
-4.862673 16.049038 0.005581
-4.547952 16.049038 0.005710
-4.233231 16.049038 0.005836
-3.918510 16.049038 0.005768
-3.603789 16.049038 0.005617
-3.289068 16.049038 0.005613
-2.974347 16.049038 0.005728
-2.659626 16.049038 0.005609
-2.344905 16.049038 0.005413
-2.030184 16.049038 0.005288
-1.715463 16.049038 0.005340
-1.400742 16.049038 0.005410
-1.086021 16.049038 0.005416
-0.771300 16.049038 0.005343
-0.456579 16.049038 0.005151
-0.141859 16.049038 0.005156
0.172863 16.049038 0.005357
0.487584 16.049038 0.005430
0.802305 16.049038 0.005292
1.117026 16.049038 0.005234
1.431747 16.049038 0.005203
1.746467 16.049038 0.005109
2.061188 16.049038 0.005023
2.375909 16.049038 0.004948
2.690630 16.049038 0.005079
3.005352 16.049038 0.005325
3.320073 16.049038 0.005474
3.634794 16.049038 0.005464
3.949515 16.049038 0.005276
4.264236 16.049038 0.005090
4.578956 16.049038 0.005177
4.893677 16.049038 0.005316
5.208398 16.049038 0.005344
5.523119 16.049038 0.005677
5.837841 16.049038 0.006024
6.152562 16.049038 0.006814
6.467283 16.049038 0.008137
6.782003 16.049038 0.010585
7.096724 16.049038 0.015624
7.411445 16.049038 0.027378
7.726166 16.049038 0.050003
8.040888 16.049038 0.090076
8.355608 16.049038 0.155848
8.670330 16.049038 0.236929
8.985050 16.049038 0.329319
9.299772 16.049038 0.431184
9.614492 16.049038 0.545130
9.929214 16.049038 0.660027
10.243935 16.049038 0.780183
10.558655 16.049038 0.888428
10.873377 16.049038 0.978750
11.188097 16.049038 1.055980
11.502819 16.049038 1.142234
11.817539 16.049038 1.204907
12.132261 16.049038 1.268224
12.446981 16.049038 1.302542
12.761703 16.049038 1.335674
13.076424 16.049038 1.344739
13.391144 16.049038 1.370450
13.705866 16.049038 1.386264
14.020586 16.049038 1.364184
14.335308 16.049038 1.305149
14.650028 16.049038 1.216023
14.964750 16.049038 1.125028
15.279470 16.049038 1.022249
15.594193 16.049038 0.939435
15.908913 16.049038 0.000000
16.223633 16.049038 0.000000
16.538355 16.049038 0.000000
16.853075 16.049038 0.000000
17.167797 16.049038 0.000000
17.482517 16.049038 0.000000
17.797239 16.049038 0.000000
18.111959 16.049038 0.000000
18.426680 16.049038 0.000000
18.741402 16.049038 0.000000
-7.065720 15.734318 0.000000
-6.750999 15.734318 0.006286
-6.436278 15.734318 0.006065
-6.121557 15.734318 0.005933
-5.806836 15.734318 0.005870
-5.492115 15.734318 0.005871
-5.177394 15.734318 0.005820
-4.862673 15.734318 0.005728
-4.547952 15.734318 0.005818
-4.233231 15.734318 0.005894
-3.918510 15.734318 0.005839
-3.603789 15.734318 0.005709
-3.289068 15.734318 0.005702
-2.974347 15.734318 0.005720
-2.659626 15.734318 0.005602
-2.344905 15.734318 0.005411
-2.030184 15.734318 0.005336
-1.715463 15.734318 0.005413
-1.400742 15.734318 0.005525
-1.086021 15.734318 0.005512
-0.771300 15.734318 0.005390
-0.456579 15.734318 0.005185
-0.141859 15.734318 0.005219
0.172863 15.734318 0.005480
0.487584 15.734318 0.005559
0.802305 15.734318 0.005360
1.117026 15.734318 0.005191
1.431747 15.734318 0.005168
1.746467 15.734318 0.005103
2.061188 15.734318 0.004997
2.375909 15.734318 0.005012
2.690630 15.734318 0.005228
3.005352 15.734318 0.005506
3.320073 15.734318 0.005633
3.634794 15.734318 0.005567
3.949515 15.734318 0.005363
4.264236 15.734318 0.005124
4.578956 15.734318 0.005137
4.893677 15.734318 0.005198
5.208398 15.734318 0.005298
5.523119 15.734318 0.005537
5.837841 15.734318 0.005917
6.152562 15.734318 0.006553
6.467283 15.734318 0.008320
6.782003 15.734318 0.010608
7.096724 15.734318 0.015417
7.411445 15.734318 0.027953
7.726166 15.734318 0.053498
8.040888 15.734318 0.092548
8.355608 15.734318 0.160093
8.670330 15.734318 0.244962
8.985050 15.734318 0.338684
9.299772 15.734318 0.441187
9.614492 15.734318 0.541655
9.929214 15.734318 0.656342
10.243935 15.734318 0.786282
10.558655 15.734318 0.889518
10.873377 15.734318 0.979833
11.188097 15.734318 1.059656
11.502819 15.734318 1.141334
11.817539 15.734318 1.220663
12.132261 15.734318 1.276778
12.446981 15.734318 1.313573
12.761703 15.734318 1.324305
13.076424 15.734318 1.349593
13.391144 15.734318 1.364821
13.705866 15.734318 1.386629
14.020586 15.734318 1.370946
14.335308 15.734318 1.302667
14.650028 15.734318 1.231150
14.964750 15.734318 1.123531
15.279470 15.734318 1.025355
15.594193 15.734318 0.922385
15.908913 15.734318 0.000000
16.223633 15.734318 0.000000
16.538355 15.734318 0.000000
16.853075 15.734318 0.000000
17.167797 15.734318 0.000000
17.482517 15.734318 0.000000
17.797239 15.734318 0.000000
18.111959 15.734318 0.000000
18.426680 15.734318 0.000000
18.741402 15.734318 0.000000
-7.065720 15.419598 0.000000
-6.750999 15.419598 0.006429
-6.436278 15.419598 0.006104
-6.121557 15.419598 0.005913
-5.806836 15.419598 0.005894
-5.492115 15.419598 0.005929
-5.177394 15.419598 0.005934
-4.862673 15.419598 0.005909
-4.547952 15.419598 0.005912
-4.233231 15.419598 0.005933
-3.918510 15.419598 0.005898
-3.603789 15.419598 0.005833
-3.289068 15.419598 0.005725
-2.974347 15.419598 0.005673
-2.659626 15.419598 0.005562
-2.344905 15.419598 0.005452
-2.030184 15.419598 0.005412
-1.715463 15.419598 0.005492
-1.400742 15.419598 0.005594
-1.086021 15.419598 0.005615
-0.771300 15.419598 0.005441
-0.456579 15.419598 0.005228
-0.141859 15.419598 0.005304
0.172863 15.419598 0.005560
0.487584 15.419598 0.005630
0.802305 15.419598 0.005404
1.117026 15.419598 0.005165
1.431747 15.419598 0.005118
1.746467 15.419598 0.005095
2.061188 15.419598 0.005021
2.375909 15.419598 0.005082
2.690630 15.419598 0.005299
3.005352 15.419598 0.005574
3.320073 15.419598 0.005635
3.634794 15.419598 0.005561
3.949515 15.419598 0.005394
4.264236 15.419598 0.005204
4.578956 15.419598 0.005211
4.893677 15.419598 0.005224
5.208398 15.419598 0.005318
5.523119 15.419598 0.005567
5.837841 15.419598 0.005966
6.152562 15.419598 0.006766
6.467283 15.419598 0.008107
6.782003 15.419598 0.010404
7.096724 15.419598 0.016077
7.411445 15.419598 0.030047
7.726166 15.419598 0.054093
8.040888 15.419598 0.093583
8.355608 15.419598 0.161255
8.670330 15.419598 0.248325
8.985050 15.419598 0.341836
9.299772 15.419598 0.446210
9.614492 15.419598 0.544803
9.929214 15.419598 0.661787
10.243935 15.419598 0.785895
10.558655 15.419598 0.888658
10.873377 15.419598 0.984633
11.188097 15.419598 1.067766
11.502819 15.419598 1.157565
11.817539 15.419598 1.230491
12.132261 15.419598 1.275837
12.446981 15.419598 1.315575
12.761703 15.419598 1.321419
13.076424 15.419598 1.345527
13.391144 15.419598 1.373375
13.705866 15.419598 1.391418
14.020586 15.419598 1.371355
14.335308 15.419598 1.330768
14.650028 15.419598 1.247777
14.964750 15.419598 1.139279
15.279470 15.419598 1.055810
15.594193 15.419598 0.902266
15.908913 15.419598 0.000000
16.223633 15.419598 0.000000
16.538355 15.419598 0.000000
16.853075 15.419598 0.000000
17.167797 15.419598 0.000000
17.482517 15.419598 0.000000
17.797239 15.419598 0.000000
18.111959 15.419598 0.000000
18.426680 15.419598 0.000000
18.741402 15.419598 0.000000
-7.065720 15.104877 0.000000
-6.750999 15.104877 0.006469
-6.436278 15.104877 0.006126
-6.121557 15.104877 0.005917
-5.806836 15.104877 0.005886
-5.492115 15.104877 0.005959
-5.177394 15.104877 0.006020
-4.862673 15.104877 0.006029
-4.547952 15.104877 0.006000
-4.233231 15.104877 0.005985
-3.918510 15.104877 0.005948
-3.603789 15.104877 0.005891
-3.289068 15.104877 0.005773
-2.974347 15.104877 0.005597
-2.659626 15.104877 0.005508
-2.344905 15.104877 0.005518
-2.030184 15.104877 0.005500
-1.715463 15.104877 0.005559
-1.400742 15.104877 0.005620
-1.086021 15.104877 0.005631
-0.771300 15.104877 0.005482
-0.456579 15.104877 0.005292
-0.141859 15.104877 0.005352
0.172863 15.104877 0.005572
0.487584 15.104877 0.005627
0.802305 15.104877 0.005418
1.117026 15.104877 0.005181
1.431747 15.104877 0.005141
1.746467 15.104877 0.005112
2.061188 15.104877 0.005071
2.375909 15.104877 0.005168
2.690630 15.104877 0.005342
3.005352 15.104877 0.005479
3.320073 15.104877 0.005491
3.634794 15.104877 0.005468
3.949515 15.104877 0.005440
4.264236 15.104877 0.005337
4.578956 15.104877 0.005356
4.893677 15.104877 0.005404
5.208398 15.104877 0.005397
5.523119 15.104877 0.005465
5.837841 15.104877 0.005928
6.152562 15.104877 0.006651
6.467283 15.104877 0.007696
6.782003 15.104877 0.010241
7.096724 15.104877 0.016959
7.411445 15.104877 0.030135
7.726166 15.104877 0.056260
8.040888 15.104877 0.098670
8.355608 15.104877 0.160943
8.670330 15.104877 0.246609
8.985050 15.104877 0.347303
9.299772 15.104877 0.449092
9.614492 15.104877 0.560746
9.929214 15.104877 0.679529
10.243935 15.104877 0.787689
10.558655 15.104877 0.890657
10.873377 15.104877 0.983352
11.188097 15.104877 1.059877
11.502819 15.104877 1.159235
11.817539 15.104877 1.226133
12.132261 15.104877 1.287617
12.446981 15.104877 1.316766
12.761703 15.104877 1.325678
13.076424 15.104877 1.346418
13.391144 15.104877 1.384772
13.705866 15.104877 1.393242
14.020586 15.104877 1.381783
14.335308 15.104877 1.345928
14.650028 15.104877 1.262961
14.964750 15.104877 1.167561
15.279470 15.104877 1.041029
15.594193 15.104877 0.872254
15.908913 15.104877 0.000000
16.223633 15.104877 0.000000
16.538355 15.104877 0.000000
16.853075 15.104877 0.000000
17.167797 15.104877 0.000000
17.482517 15.104877 0.000000
17.797239 15.104877 0.000000
18.111959 15.104877 0.000000
18.426680 15.104877 0.000000
18.741402 15.104877 0.000000
-7.065720 14.790157 0.000000
-6.750999 14.790157 0.006440
-6.436278 14.790157 0.006122
-6.121557 14.790157 0.005949
-5.806836 14.790157 0.005902
-5.492115 14.790157 0.005976
-5.177394 14.790157 0.006089
-4.862673 14.790157 0.006078
-4.547952 14.790157 0.006009
-4.233231 14.790157 0.006002
-3.918510 14.790157 0.005987
-3.603789 14.790157 0.005919
-3.289068 14.790157 0.005814
-2.974347 14.790157 0.005633
-2.659626 14.790157 0.005542
-2.344905 14.790157 0.005610
-2.030184 14.790157 0.005615
-1.715463 14.790157 0.005645
-1.400742 14.790157 0.005634
-1.086021 14.790157 0.005594
-0.771300 14.790157 0.005512
-0.456579 14.790157 0.005391
-0.141859 14.790157 0.005369
0.172863 14.790157 0.005484
0.487584 14.790157 0.005543
0.802305 14.790157 0.005409
1.117026 14.790157 0.005241
1.431747 14.790157 0.005218
1.746467 14.790157 0.005180
2.061188 14.790157 0.005168
2.375909 14.790157 0.005259
2.690630 14.790157 0.005337
3.005352 14.790157 0.005338
3.320073 14.790157 0.005280
3.634794 14.790157 0.005331
3.949515 14.790157 0.005483
4.264236 14.790157 0.005527
4.578956 14.790157 0.005457
4.893677 14.790157 0.005450
5.208398 14.790157 0.005347
5.523119 14.790157 0.005325
5.837841 14.790157 0.005566
6.152562 14.790157 0.006592
6.467283 14.790157 0.007963
6.782003 14.790157 0.011242
7.096724 14.790157 0.017217
7.411445 14.790157 0.032117
7.726166 14.790157 0.056442
8.040888 14.790157 0.097983
8.355608 14.790157 0.157386
8.670330 14.790157 0.247987
8.985050 14.790157 0.354465
9.299772 14.790157 0.451055
9.614492 14.790157 0.567065
9.929214 14.790157 0.687096
10.243935 14.790157 0.794137
10.558655 14.790157 0.890730
10.873377 14.790157 0.986972
11.188097 14.790157 1.073957
11.502819 14.790157 1.159433
11.817539 14.790157 1.233379
12.132261 14.790157 1.294630
12.446981 14.790157 1.324197
12.761703 14.790157 1.333055
13.076424 14.790157 1.353055
13.391144 14.790157 1.378452
13.705866 14.790157 1.410056
14.020586 14.790157 1.386870
14.335308 14.790157 1.352610
14.650028 14.790157 1.268810
14.964750 14.790157 1.167108
15.279470 14.790157 1.047567
15.594193 14.790157 0.657066
15.908913 14.790157 0.000000
16.223633 14.790157 0.000000
16.538355 14.790157 0.000000
16.853075 14.790157 0.000000
17.167797 14.790157 0.000000
17.482517 14.790157 0.000000
17.797239 14.790157 0.000000
18.111959 14.790157 0.000000
18.426680 14.790157 0.000000
18.741402 14.790157 0.000000
-7.065720 14.475433 0.000000
-6.750999 14.475433 0.006391
-6.436278 14.475433 0.006115
-6.121557 14.475433 0.005969
-5.806836 14.475433 0.005926
-5.492115 14.475433 0.006015
-5.177394 14.475433 0.006136
-4.862673 14.475433 0.006086
-4.547952 14.475433 0.005986
-4.233231 14.475433 0.005959
-3.918510 14.475433 0.005945
-3.603789 14.475433 0.005925
-3.289068 14.475433 0.005859
-2.974347 14.475433 0.005694
-2.659626 14.475433 0.005605
-2.344905 14.475433 0.005705
-2.030184 14.475433 0.005760
-1.715463 14.475433 0.005735
-1.400742 14.475433 0.005642
-1.086021 14.475433 0.005551
-0.771300 14.475433 0.005526
-0.456579 14.475433 0.005477
-0.141859 14.475433 0.005420
0.172863 14.475433 0.005424
0.487584 14.475433 0.005465
0.802305 14.475433 0.005457
1.117026 14.475433 0.005359
1.431747 14.475433 0.005322
1.746467 14.475433 0.005274
2.061188 14.475433 0.005293
2.375909 14.475433 0.005312
2.690630 14.475433 0.005310
3.005352 14.475433 0.005238
3.320073 14.475433 0.005147
3.634794 14.475433 0.005274
3.949515 14.475433 0.005442
4.264236 14.475433 0.005517
4.578956 14.475433 0.005527
4.893677 14.475433 0.005474
5.208398 14.475433 0.005490
5.523119 14.475433 0.005627
5.837841 14.475433 0.005538
6.152562 14.475433 0.006205
6.467283 14.475433 0.007777
6.782003 14.475433 0.010523
7.096724 14.475433 0.017504
7.411445 14.475433 0.030753
7.726166 14.475433 0.055567
8.040888 14.475433 0.101149
8.355608 14.475433 0.161650
8.670330 14.475433 0.251669
8.985050 14.475433 0.356247
9.299772 14.475433 0.453142
9.614492 14.475433 0.563489
9.929214 14.475433 0.685666
10.243935 14.475433 0.799482
10.558655 14.475433 0.904237
10.873377 14.475433 1.003414
11.188097 14.475433 1.083940
11.502819 14.475433 1.164158
11.817539 14.475433 1.239074
12.132261 14.475433 1.302485
12.446981 14.475433 1.324692
12.761703 14.475433 1.339033
13.076424 14.475433 1.355686
13.391144 14.475433 1.387502
13.705866 14.475433 1.398250
14.020586 14.475433 1.382571
14.335308 14.475433 1.335912
14.650028 14.475433 1.269743
14.964750 14.475433 1.162824
15.279470 14.475433 1.048986
15.594193 14.475433 0.638906
15.908913 14.475433 0.000000
16.223633 14.475433 0.000000
16.538355 14.475433 0.000000
16.853075 14.475433 0.000000
17.167797 14.475433 0.000000
17.482517 14.475433 0.000000
17.797239 14.475433 0.000000
18.111959 14.475433 0.000000
18.426680 14.475433 0.000000
18.741402 14.475433 0.000000
-7.065720 14.160713 0.000000
-6.750999 14.160713 0.006363
-6.436278 14.160713 0.006129
-6.121557 14.160713 0.005995
-5.806836 14.160713 0.005967
-5.492115 14.160713 0.006050
-5.177394 14.160713 0.006141
-4.862673 14.160713 0.006102
-4.547952 14.160713 0.006003
-4.233231 14.160713 0.005917
-3.918510 14.160713 0.005909
-3.603789 14.160713 0.005902
-3.289068 14.160713 0.005941
-2.974347 14.160713 0.005807
-2.659626 14.160713 0.005707
-2.344905 14.160713 0.005779
-2.030184 14.160713 0.005880
-1.715463 14.160713 0.005823
-1.400742 14.160713 0.005611
-1.086021 14.160713 0.005489
-0.771300 14.160713 0.005544
-0.456579 14.160713 0.005531
-0.141859 14.160713 0.005483
0.172863 14.160713 0.005389
0.487584 14.160713 0.005460
0.802305 14.160713 0.005546
1.117026 14.160713 0.005506
1.431747 14.160713 0.005426
1.746467 14.160713 0.005362
2.061188 14.160713 0.005383
2.375909 14.160713 0.005332
2.690630 14.160713 0.005294
3.005352 14.160713 0.005177
3.320073 14.160713 0.005129
3.634794 14.160713 0.005233
3.949515 14.160713 0.005450
4.264236 14.160713 0.005531
4.578956 14.160713 0.005553
4.893677 14.160713 0.005498
5.208398 14.160713 0.005674
5.523119 14.160713 0.005681
5.837841 14.160713 0.005719
6.152562 14.160713 0.005902
6.467283 14.160713 0.007744
6.782003 14.160713 0.010458
7.096724 14.160713 0.016418
7.411445 14.160713 0.030974
7.726166 14.160713 0.056391
8.040888 14.160713 0.101920
8.355608 14.160713 0.171178
8.670330 14.160713 0.258438
8.985050 14.160713 0.356477
9.299772 14.160713 0.457808
9.614492 14.160713 0.564470
9.929214 14.160713 0.681461
10.243935 14.160713 0.808906
10.558655 14.160713 0.914264
10.873377 14.160713 1.014513
11.188097 14.160713 1.089130
11.502819 14.160713 1.165423
11.817539 14.160713 1.251536
12.132261 14.160713 1.309311
12.446981 14.160713 1.331792
12.761703 14.160713 1.346259
13.076424 14.160713 1.364846
13.391144 14.160713 1.392468
13.705866 14.160713 1.385966
14.020586 14.160713 1.383992
14.335308 14.160713 1.338851
14.650028 14.160713 1.253166
14.964750 14.160713 1.147093
15.279470 14.160713 1.037795
15.594193 14.160713 0.619280
15.908913 14.160713 0.000000
16.223633 14.160713 0.000000
16.538355 14.160713 0.000000
16.853075 14.160713 0.000000
17.167797 14.160713 0.000000
17.482517 14.160713 0.000000
17.797239 14.160713 0.000000
18.111959 14.160713 0.000000
18.426680 14.160713 0.000000
18.741402 14.160713 0.000000
-7.065720 13.845993 0.000000
-6.750999 13.845993 0.006312
-6.436278 13.845993 0.006092
-6.121557 13.845993 0.006022
-5.806836 13.845993 0.005960
-5.492115 13.845993 0.006039
-5.177394 13.845993 0.006118
-4.862673 13.845993 0.006112
-4.547952 13.845993 0.006030
-4.233231 13.845993 0.005938
-3.918510 13.845993 0.005874
-3.603789 13.845993 0.005912
-3.289068 13.845993 0.006004
-2.974347 13.845993 0.005934
-2.659626 13.845993 0.005840
-2.344905 13.845993 0.005893
-2.030184 13.845993 0.006005
-1.715463 13.845993 0.005928
-1.400742 13.845993 0.005665
-1.086021 13.845993 0.005466
-0.771300 13.845993 0.005572
-0.456579 13.845993 0.005648
-0.141859 13.845993 0.005584
0.172863 13.845993 0.005425
0.487584 13.845993 0.005480
0.802305 13.845993 0.005631
1.117026 13.845993 0.005654
1.431747 13.845993 0.005527
1.746467 13.845993 0.005460
2.061188 13.845993 0.005456
2.375909 13.845993 0.005347
2.690630 13.845993 0.005297
3.005352 13.845993 0.005217
3.320073 13.845993 0.005172
3.634794 13.845993 0.005265
3.949515 13.845993 0.005455
4.264236 13.845993 0.005513
4.578956 13.845993 0.005485
4.893677 13.845993 0.005593
5.208398 13.845993 0.005751
5.523119 13.845993 0.005697
5.837841 13.845993 0.005631
6.152562 13.845993 0.006114
6.467283 13.845993 0.007813
6.782003 13.845993 0.010451
7.096724 13.845993 0.017834
7.411445 13.845993 0.032759
7.726166 13.845993 0.058152
8.040888 13.845993 0.103373
8.355608 13.845993 0.179214
8.670330 13.845993 0.264685
8.985050 13.845993 0.358175
9.299772 13.845993 0.458415
9.614492 13.845993 0.569497
9.929214 13.845993 0.681325
10.243935 13.845993 0.810675
10.558655 13.845993 0.916813
10.873377 13.845993 1.016473
11.188097 13.845993 1.102506
11.502819 13.845993 1.174263
11.817539 13.845993 1.265297
12.132261 13.845993 1.312199
12.446981 13.845993 1.334240
12.761703 13.845993 1.350379
13.076424 13.845993 1.381693
13.391144 13.845993 1.392236
13.705866 13.845993 1.388277
14.020586 13.845993 1.377686
14.335308 13.845993 1.329899
14.650028 13.845993 1.251481
14.964750 13.845993 1.144585
15.279470 13.845993 1.042757
15.594193 13.845993 0.608918
15.908913 13.845993 0.000000
16.223633 13.845993 0.000000
16.538355 13.845993 0.000000
16.853075 13.845993 0.000000
17.167797 13.845993 0.000000
17.482517 13.845993 0.000000
17.797239 13.845993 0.000000
18.111959 13.845993 0.000000
18.426680 13.845993 0.000000
18.741402 13.845993 0.000000
-7.065720 13.531273 0.000000
-6.750999 13.531273 0.006249
-6.436278 13.531273 0.006079
-6.121557 13.531273 0.006042
-5.806836 13.531273 0.005986
-5.492115 13.531273 0.005990
-5.177394 13.531273 0.006084
-4.862673 13.531273 0.006128
-4.547952 13.531273 0.006048
-4.233231 13.531273 0.005955
-3.918510 13.531273 0.005878
-3.603789 13.531273 0.005947
-3.289068 13.531273 0.006044
-2.974347 13.531273 0.006029
-2.659626 13.531273 0.005954
-2.344905 13.531273 0.005981
-2.030184 13.531273 0.006105
-1.715463 13.531273 0.006020
-1.400742 13.531273 0.005725
-1.086021 13.531273 0.005517
-0.771300 13.531273 0.005664
-0.456579 13.531273 0.005820
-0.141859 13.531273 0.005716
0.172863 13.531273 0.005510
0.487584 13.531273 0.005523
0.802305 13.531273 0.005703
1.117026 13.531273 0.005758
1.431747 13.531273 0.005625
1.746467 13.531273 0.005581
2.061188 13.531273 0.005542
2.375909 13.531273 0.005403
2.690630 13.531273 0.005348
3.005352 13.531273 0.005342
3.320073 13.531273 0.005274
3.634794 13.531273 0.005349
3.949515 13.531273 0.005475
4.264236 13.531273 0.005470
4.578956 13.531273 0.005469
4.893677 13.531273 0.005713
5.208398 13.531273 0.005887
5.523119 13.531273 0.006018
5.837841 13.531273 0.005697
6.152562 13.531273 0.006323
6.467283 13.531273 0.007899
6.782003 13.531273 0.010257
7.096724 13.531273 0.017886
7.411445 13.531273 0.035122
7.726166 13.531273 0.063111
8.040888 13.531273 0.106479
8.355608 13.531273 0.180890
8.670330 13.531273 0.268071
8.985050 13.531273 0.365021
9.299772 13.531273 0.467816
9.614492 13.531273 0.573163
9.929214 13.531273 0.695806
10.243935 13.531273 0.813629
10.558655 13.531273 0.925240
10.873377 13.531273 1.024505
11.188097 13.531273 1.102318
11.502819 13.531273 1.176310
11.817539 13.531273 1.274662
12.132261 13.531273 1.324789
12.446981 13.531273 1.336876
12.761703 13.531273 1.361705
13.076424 13.531273 1.384232
13.391144 13.531273 1.393690
13.705866 13.531273 1.374024
14.020586 13.531273 1.367449
14.335308 13.531273 1.322349
14.650028 13.531273 1.260773
14.964750 13.531273 1.154395
15.279470 13.531273 1.037456
15.594193 13.531273 0.599975
15.908913 13.531273 0.000000
16.223633 13.531273 0.000000
16.538355 13.531273 0.000000
16.853075 13.531273 0.000000
17.167797 13.531273 0.000000
17.482517 13.531273 0.000000
17.797239 13.531273 0.000000
18.111959 13.531273 0.000000
18.426680 13.531273 0.000000
18.741402 13.531273 0.000000
-7.065720 13.216553 0.000000
-6.750999 13.216553 0.006249
-6.436278 13.216553 0.006102
-6.121557 13.216553 0.006066
-5.806836 13.216553 0.005976
-5.492115 13.216553 0.005938
-5.177394 13.216553 0.006075
-4.862673 13.216553 0.006156
-4.547952 13.216553 0.006108
-4.233231 13.216553 0.005982
-3.918510 13.216553 0.005930
-3.603789 13.216553 0.005977
-3.289068 13.216553 0.006071
-2.974347 13.216553 0.006119
-2.659626 13.216553 0.006022
-2.344905 13.216553 0.006035
-2.030184 13.216553 0.006129
-1.715463 13.216553 0.006064
-1.400742 13.216553 0.005820
-1.086021 13.216553 0.005662
-0.771300 13.216553 0.005819
-0.456579 13.216553 0.005958
-0.141859 13.216553 0.005845
0.172863 13.216553 0.005645
0.487584 13.216553 0.005613
0.802305 13.216553 0.005768
1.117026 13.216553 0.005833
1.431747 13.216553 0.005744
1.746467 13.216553 0.005706
2.061188 13.216553 0.005652
2.375909 13.216553 0.005497
2.690630 13.216553 0.005463
3.005352 13.216553 0.005508
3.320073 13.216553 0.005457
3.634794 13.216553 0.005452
3.949515 13.216553 0.005473
4.264236 13.216553 0.005472
4.578956 13.216553 0.005480
4.893677 13.216553 0.005681
5.208398 13.216553 0.005956
5.523119 13.216553 0.005959
5.837841 13.216553 0.006091
6.152562 13.216553 0.006780
6.467283 13.216553 0.007717
6.782003 13.216553 0.011177
7.096724 13.216553 0.018816
7.411445 13.216553 0.034631
7.726166 13.216553 0.063132
8.040888 13.216553 0.109356
8.355608 13.216553 0.180151
8.670330 13.216553 0.276617
8.985050 13.216553 0.377534
9.299772 13.216553 0.476289
9.614492 13.216553 0.585918
9.929214 13.216553 0.708709
10.243935 13.216553 0.819588
10.558655 13.216553 0.933189
10.873377 13.216553 1.027317
11.188097 13.216553 1.098902
11.502819 13.216553 1.181262
11.817539 13.216553 1.267722
12.132261 13.216553 1.331877
12.446981 13.216553 1.343093
12.761703 13.216553 1.355102
13.076424 13.216553 1.380709
13.391144 13.216553 1.386476
13.705866 13.216553 1.384508
14.020586 13.216553 1.372085
14.335308 13.216553 1.330170
14.650028 13.216553 1.260421
14.964750 13.216553 1.166867
15.279470 13.216553 1.069255
15.594193 13.216553 0.586151
15.908913 13.216553 0.000000
16.223633 13.216553 0.000000
16.538355 13.216553 0.000000
16.853075 13.216553 0.000000
17.167797 13.216553 0.000000
17.482517 13.216553 0.000000
17.797239 13.216553 0.000000
18.111959 13.216553 0.000000
18.426680 13.216553 0.000000
18.741402 13.216553 0.000000
-7.065720 12.901829 0.000000
-6.750999 12.901829 0.006254
-6.436278 12.901829 0.006123
-6.121557 12.901829 0.006098
-5.806836 12.901829 0.006014
-5.492115 12.901829 0.005958
-5.177394 12.901829 0.006082
-4.862673 12.901829 0.006215
-4.547952 12.901829 0.006145
-4.233231 12.901829 0.006042
-3.918510 12.901829 0.005998
-3.603789 12.901829 0.006066
-3.289068 12.901829 0.006168
-2.974347 12.901829 0.006214
-2.659626 12.901829 0.006095
-2.344905 12.901829 0.006050
-2.030184 12.901829 0.006089
-1.715463 12.901829 0.006046
-1.400742 12.901829 0.005916
-1.086021 12.901829 0.005833
-0.771300 12.901829 0.005939
-0.456579 12.901829 0.006053
-0.141859 12.901829 0.005980
0.172863 12.901829 0.005803
0.487584 12.901829 0.005729
0.802305 12.901829 0.005806
1.117026 12.901829 0.005874
1.431747 12.901829 0.005854
1.746467 12.901829 0.005790
2.061188 12.901829 0.005758
2.375909 12.901829 0.005627
2.690630 12.901829 0.005594
3.005352 12.901829 0.005639
3.320073 12.901829 0.005613
3.634794 12.901829 0.005557
3.949515 12.901829 0.005443
4.264236 12.901829 0.005385
4.578956 12.901829 0.005443
4.893677 12.901829 0.005727
5.208398 12.901829 0.005860
5.523119 12.901829 0.005883
5.837841 12.901829 0.006248
6.152562 12.901829 0.007178
6.467283 12.901829 0.008349
6.782003 12.901829 0.011109
7.096724 12.901829 0.019401
7.411445 12.901829 0.033816
7.726166 12.901829 0.062425
8.040888 12.901829 0.111547
8.355608 12.901829 0.183499
8.670330 12.901829 0.278288
8.985050 12.901829 0.382246
9.299772 12.901829 0.481748
9.614492 12.901829 0.592482
9.929214 12.901829 0.715654
10.243935 12.901829 0.821775
10.558655 12.901829 0.938438
10.873377 12.901829 1.025855
11.188097 12.901829 1.107905
11.502819 12.901829 1.186686
11.817539 12.901829 1.273696
12.132261 12.901829 1.325734
12.446981 12.901829 1.334642
12.761703 12.901829 1.356376
13.076424 12.901829 1.378213
13.391144 12.901829 1.392617
13.705866 12.901829 1.405780
14.020586 12.901829 1.386177
14.335308 12.901829 1.343309
14.650028 12.901829 1.262910
14.964750 12.901829 1.177602
15.279470 12.901829 1.072372
15.594193 12.901829 0.565994
15.908913 12.901829 0.000000
16.223633 12.901829 0.000000
16.538355 12.901829 0.000000
16.853075 12.901829 0.000000
17.167797 12.901829 0.000000
17.482517 12.901829 0.000000
17.797239 12.901829 0.000000
18.111959 12.901829 0.000000
18.426680 12.901829 0.000000
18.741402 12.901829 0.000000
-7.065720 12.587109 0.000000
-6.750999 12.587109 0.006258
-6.436278 12.587109 0.006179
-6.121557 12.587109 0.006154
-5.806836 12.587109 0.006088
-5.492115 12.587109 0.006050
-5.177394 12.587109 0.006149
-4.862673 12.587109 0.006267
-4.547952 12.587109 0.006207
-4.233231 12.587109 0.006128
-3.918510 12.587109 0.006073
-3.603789 12.587109 0.006142
-3.289068 12.587109 0.006276
-2.974347 12.587109 0.006313
-2.659626 12.587109 0.006182
-2.344905 12.587109 0.006060
-2.030184 12.587109 0.006011
-1.715463 12.587109 0.005995
-1.400742 12.587109 0.006018
-1.086021 12.587109 0.006003
-0.771300 12.587109 0.006033
-0.456579 12.587109 0.006104
-0.141859 12.587109 0.006091
0.172863 12.587109 0.005965
0.487584 12.587109 0.005869
0.802305 12.587109 0.005832
1.117026 12.587109 0.005926
1.431747 12.587109 0.005947
1.746467 12.587109 0.005878
2.061188 12.587109 0.005818
2.375909 12.587109 0.005736
2.690630 12.587109 0.005738
3.005352 12.587109 0.005789
3.320073 12.587109 0.005755
3.634794 12.587109 0.005629
3.949515 12.587109 0.005498
4.264236 12.587109 0.005451
4.578956 12.587109 0.005477
4.893677 12.587109 0.005703
5.208398 12.587109 0.005985
5.523119 12.587109 0.006080
5.837841 12.587109 0.006407
6.152562 12.587109 0.007370
6.467283 12.587109 0.008636
6.782003 12.587109 0.011641
7.096724 12.587109 0.018684
7.411445 12.587109 0.034308
7.726166 12.587109 0.063853
8.040888 12.587109 0.112692
8.355608 12.587109 0.187279
8.670330 12.587109 0.283303
8.985050 12.587109 0.386644
9.299772 12.587109 0.482532
9.614492 12.587109 0.591896
9.929214 12.587109 0.709761
10.243935 12.587109 0.827003
10.558655 12.587109 0.925427
10.873377 12.587109 1.024751
11.188097 12.587109 1.112174
11.502819 12.587109 1.193768
11.817539 12.587109 1.276643
12.132261 12.587109 1.322697
12.446981 12.587109 1.324311
12.761703 12.587109 1.352285
13.076424 12.587109 1.367514
13.391144 12.587109 1.392709
13.705866 12.587109 1.403636
14.020586 12.587109 1.398950
14.335308 12.587109 1.353763
14.650028 12.587109 1.248129
14.964750 12.587109 1.160399
15.279470 12.587109 1.082622
15.594193 12.587109 0.526668
15.908913 12.587109 0.000000
16.223633 12.587109 0.000000
16.538355 12.587109 0.000000
16.853075 12.587109 0.000000
17.167797 12.587109 0.000000
17.482517 12.587109 0.000000
17.797239 12.587109 0.000000
18.111959 12.587109 0.000000
18.426680 12.587109 0.000000
18.741402 12.587109 0.000000
-7.065720 12.272388 0.000000
-6.750999 12.272388 0.006336
-6.436278 12.272388 0.006288
-6.121557 12.272388 0.006267
-5.806836 12.272388 0.006257
-5.492115 12.272388 0.006265
-5.177394 12.272388 0.006301
-4.862673 12.272388 0.006363
-4.547952 12.272388 0.006324
-4.233231 12.272388 0.006208
-3.918510 12.272388 0.006157
-3.603789 12.272388 0.006234
-3.289068 12.272388 0.006334
-2.974347 12.272388 0.006362
-2.659626 12.272388 0.006266
-2.344905 12.272388 0.006099
-2.030184 12.272388 0.005982
-1.715463 12.272388 0.005992
-1.400742 12.272388 0.006088
-1.086021 12.272388 0.006103
-0.771300 12.272388 0.006034
-0.456579 12.272388 0.006086
-0.141859 12.272388 0.006181
0.172863 12.272388 0.006108
0.487584 12.272388 0.005959
0.802305 12.272388 0.005870
1.117026 12.272388 0.005979
1.431747 12.272388 0.006035
1.746467 12.272388 0.005924
2.061188 12.272388 0.005826
2.375909 12.272388 0.005781
2.690630 12.272388 0.005825
3.005352 12.272388 0.005898
3.320073 12.272388 0.005873
3.634794 12.272388 0.005688
3.949515 12.272388 0.005542
4.264236 12.272388 0.005487
4.578956 12.272388 0.005575
4.893677 12.272388 0.005790
5.208398 12.272388 0.006076
5.523119 12.272388 0.006321
5.837841 12.272388 0.006545
6.152562 12.272388 0.007544
6.467283 12.272388 0.008762
6.782003 12.272388 0.011966
7.096724 12.272388 0.018769
7.411445 12.272388 0.035755
7.726166 12.272388 0.067297
8.040888 12.272388 0.116815
8.355608 12.272388 0.194619
8.670330 12.272388 0.289291
8.985050 12.272388 0.395870
9.299772 12.272388 0.492290
9.614492 12.272388 0.604246
9.929214 12.272388 0.714056
10.243935 12.272388 0.824507
10.558655 12.272388 0.924699
10.873377 12.272388 1.022365
11.188097 12.272388 1.106331
11.502819 12.272388 1.200316
11.817539 12.272388 1.266509
12.132261 12.272388 1.325101
12.446981 12.272388 1.316125
12.761703 12.272388 1.333486
13.076424 12.272388 1.362421
13.391144 12.272388 1.393043
13.705866 12.272388 1.415610
14.020586 12.272388 1.395951
14.335308 12.272388 1.337339
14.650028 12.272388 1.247519
14.964750 12.272388 1.157780
15.279470 12.272388 1.098080
15.594193 12.272388 0.663553
15.908913 12.272388 0.000000
16.223633 12.272388 0.000000
16.538355 12.272388 0.000000
16.853075 12.272388 0.000000
17.167797 12.272388 0.000000
17.482517 12.272388 0.000000
17.797239 12.272388 0.000000
18.111959 12.272388 0.000000
18.426680 12.272388 0.000000
18.741402 12.272388 0.000000
-7.065720 11.957668 0.000000
-6.750999 11.957668 0.006466
-6.436278 11.957668 0.006412
-6.121557 11.957668 0.006431
-5.806836 11.957668 0.006507
-5.492115 11.957668 0.006551
-5.177394 11.957668 0.006514
-4.862673 11.957668 0.006532
-4.547952 11.957668 0.006471
-4.233231 11.957668 0.006286
-3.918510 11.957668 0.006246
-3.603789 11.957668 0.006311
-3.289068 11.957668 0.006356
-2.974347 11.957668 0.006367
-2.659626 11.957668 0.006332
-2.344905 11.957668 0.006174
-2.030184 11.957668 0.006017
-1.715463 11.957668 0.006042
-1.400742 11.957668 0.006153
-1.086021 11.957668 0.006154
-0.771300 11.957668 0.006034
-0.456579 11.957668 0.006059
-0.141859 11.957668 0.006238
0.172863 11.957668 0.006201
0.487584 11.957668 0.006049
0.802305 11.957668 0.005921
1.117026 11.957668 0.006001
1.431747 11.957668 0.006098
1.746467 11.957668 0.005949
2.061188 11.957668 0.005812
2.375909 11.957668 0.005794
2.690630 11.957668 0.005893
3.005352 11.957668 0.006005
3.320073 11.957668 0.005923
3.634794 11.957668 0.005755
3.949515 11.957668 0.005622
4.264236 11.957668 0.005662
4.578956 11.957668 0.005721
4.893677 11.957668 0.006034
5.208398 11.957668 0.006259
5.523119 11.957668 0.006431
5.837841 11.957668 0.006728
6.152562 11.957668 0.007834
6.467283 11.957668 0.009380
6.782003 11.957668 0.012417
7.096724 11.957668 0.021539
7.411445 11.957668 0.040118
7.726166 11.957668 0.069585
8.040888 11.957668 0.118792
8.355608 11.957668 0.201205
8.670330 11.957668 0.297338
8.985050 11.957668 0.402100
9.299772 11.957668 0.497800
9.614492 11.957668 0.604742
9.929214 11.957668 0.717196
10.243935 11.957668 0.833875
10.558655 11.957668 0.928074
10.873377 11.957668 1.017692
11.188097 11.957668 1.105115
11.502819 11.957668 1.192223
11.817539 11.957668 1.267049
12.132261 11.957668 1.313651
12.446981 11.957668 1.330320
12.761703 11.957668 1.339704
13.076424 11.957668 1.354482
13.391144 11.957668 1.395377
13.705866 11.957668 1.416971
14.020586 11.957668 1.401085
14.335308 11.957668 1.347183
14.650028 11.957668 1.263912
14.964750 11.957668 1.179113
15.279470 11.957668 1.106076
15.594193 11.957668 0.347806
15.908913 11.957668 0.000000
16.223633 11.957668 0.000000
16.538355 11.957668 0.000000
16.853075 11.957668 0.000000
17.167797 11.957668 0.000000
17.482517 11.957668 0.000000
17.797239 11.957668 0.000000
18.111959 11.957668 0.000000
18.426680 11.957668 0.000000
18.741402 11.957668 0.000000
-7.065720 11.642944 0.000000
-6.750999 11.642944 0.006649
-6.436278 11.642944 0.006539
-6.121557 11.642944 0.006571
-5.806836 11.642944 0.006725
-5.492115 11.642944 0.006779
-5.177394 11.642944 0.006707
-4.862673 11.642944 0.006683
-4.547952 11.642944 0.006590
-4.233231 11.642944 0.006417
-3.918510 11.642944 0.006365
-3.603789 11.642944 0.006412
-3.289068 11.642944 0.006362
-2.974347 11.642944 0.006310
-2.659626 11.642944 0.006337
-2.344905 11.642944 0.006232
-2.030184 11.642944 0.006111
-1.715463 11.642944 0.006117
-1.400742 11.642944 0.006212
-1.086021 11.642944 0.006209
-0.771300 11.642944 0.006072
-0.456579 11.642944 0.006058
-0.141859 11.642944 0.006247
0.172863 11.642944 0.006271
0.487584 11.642944 0.006138
0.802305 11.642944 0.005976
1.117026 11.642944 0.006022
1.431747 11.642944 0.006145
1.746467 11.642944 0.005996
2.061188 11.642944 0.005821
2.375909 11.642944 0.005785
2.690630 11.642944 0.005912
3.005352 11.642944 0.006026
3.320073 11.642944 0.005904
3.634794 11.642944 0.005805
3.949515 11.642944 0.005764
4.264236 11.642944 0.005835
4.578956 11.642944 0.005937
4.893677 11.642944 0.006185
5.208398 11.642944 0.006436
5.523119 11.642944 0.006501
5.837841 11.642944 0.006791
6.152562 11.642944 0.008083
6.467283 11.642944 0.009419
6.782003 11.642944 0.012676
7.096724 11.642944 0.022294
7.411445 11.642944 0.042376
7.726166 11.642944 0.072673
8.040888 11.642944 0.127346
8.355608 11.642944 0.210724
8.670330 11.642944 0.305114
8.985050 11.642944 0.406076
9.299772 11.642944 0.504531
9.614492 11.642944 0.610151
9.929214 11.642944 0.722708
10.243935 11.642944 0.833272
10.558655 11.642944 0.926280
10.873377 11.642944 1.020978
11.188097 11.642944 1.097261
11.502819 11.642944 1.176572
11.817539 11.642944 1.259958
12.132261 11.642944 1.300216
12.446981 11.642944 1.324765
12.761703 11.642944 1.349535
13.076424 11.642944 1.372673
13.391144 11.642944 1.395757
13.705866 11.642944 1.427208
14.020586 11.642944 1.395667
14.335308 11.642944 1.345632
14.650028 11.642944 1.254401
14.964750 11.642944 1.181879
15.279470 11.642944 1.104514
15.594193 11.642944 0.310614
15.908913 11.642944 0.000000
16.223633 11.642944 0.000000
16.538355 11.642944 0.000000
16.853075 11.642944 0.000000
17.167797 11.642944 0.000000
17.482517 11.642944 0.000000
17.797239 11.642944 0.000000
18.111959 11.642944 0.000000
18.426680 11.642944 0.000000
18.741402 11.642944 0.000000
-7.065720 11.328224 0.000000
-6.750999 11.328224 0.006860
-6.436278 11.328224 0.006682
-6.121557 11.328224 0.006684
-5.806836 11.328224 0.006841
-5.492115 11.328224 0.006865
-5.177394 11.328224 0.006807
-4.862673 11.328224 0.006765
-4.547952 11.328224 0.006684
-4.233231 11.328224 0.006539
-3.918510 11.328224 0.006489
-3.603789 11.328224 0.006489
-3.289068 11.328224 0.006393
-2.974347 11.328224 0.006271
-2.659626 11.328224 0.006319
-2.344905 11.328224 0.006308
-2.030184 11.328224 0.006247
-1.715463 11.328224 0.006205
-1.400742 11.328224 0.006241
-1.086021 11.328224 0.006262
-0.771300 11.328224 0.006131
-0.456579 11.328224 0.006122
-0.141859 11.328224 0.006284
0.172863 11.328224 0.006334
0.487584 11.328224 0.006204
0.802305 11.328224 0.006023
1.117026 11.328224 0.006047
1.431747 11.328224 0.006172
1.746467 11.328224 0.006063
2.061188 11.328224 0.005869
2.375909 11.328224 0.005788
2.690630 11.328224 0.005884
3.005352 11.328224 0.005986
3.320073 11.328224 0.005890
3.634794 11.328224 0.005832
3.949515 11.328224 0.005897
4.264236 11.328224 0.006056
4.578956 11.328224 0.006142
4.893677 11.328224 0.006234
5.208398 11.328224 0.006293
5.523119 11.328224 0.006370
5.837841 11.328224 0.006792
6.152562 11.328224 0.007878
6.467283 11.328224 0.009105
6.782003 11.328224 0.012203
7.096724 11.328224 0.021590
7.411445 11.328224 0.042452
7.726166 11.328224 0.074874
8.040888 11.328224 0.130884
8.355608 11.328224 0.213981
8.670330 11.328224 0.311681
8.985050 11.328224 0.408091
9.299772 11.328224 0.511158
9.614492 11.328224 0.611038
9.929214 11.328224 0.717893
10.243935 11.328224 0.824525
10.558655 11.328224 0.924617
10.873377 11.328224 1.022516
11.188097 11.328224 1.100513
11.502819 11.328224 1.177595
11.817539 11.328224 1.244553
12.132261 11.328224 1.292390
12.446981 11.328224 1.317444
12.761703 11.328224 1.344573
13.076424 11.328224 1.381773
13.391144 11.328224 1.405888
13.705866 11.328224 1.400267
14.020586 11.328224 1.387590
14.335308 11.328224 1.340854
14.650028 11.328224 1.266905
14.964750 11.328224 1.171422
15.279470 11.328224 1.087451
15.594193 11.328224 0.307228
15.908913 11.328224 0.000000
16.223633 11.328224 0.000000
16.538355 11.328224 0.000000
16.853075 11.328224 0.000000
17.167797 11.328224 0.000000
17.482517 11.328224 0.000000
17.797239 11.328224 0.000000
18.111959 11.328224 0.000000
18.426680 11.328224 0.000000
18.741402 11.328224 0.000000
-7.065720 11.013504 0.000000
-6.750999 11.013504 0.007048
-6.436278 11.013504 0.006817
-6.121557 11.013504 0.006744
-5.806836 11.013504 0.006849
-5.492115 11.013504 0.006843
-5.177394 11.013504 0.006784
-4.862673 11.013504 0.006733
-4.547952 11.013504 0.006704
-4.233231 11.013504 0.006659
-3.918510 11.013504 0.006610
-3.603789 11.013504 0.006555
-3.289068 11.013504 0.006434
-2.974347 11.013504 0.006295
-2.659626 11.013504 0.006333
-2.344905 11.013504 0.006403
-2.030184 11.013504 0.006356
-1.715463 11.013504 0.006264
-1.400742 11.013504 0.006271
-1.086021 11.013504 0.006298
-0.771300 11.013504 0.006217
-0.456579 11.013504 0.006239
-0.141859 11.013504 0.006356
0.172863 11.013504 0.006353
0.487584 11.013504 0.006248
0.802305 11.013504 0.006069
1.117026 11.013504 0.006076
1.431747 11.013504 0.006188
1.746467 11.013504 0.006086
2.061188 11.013504 0.005900
2.375909 11.013504 0.005822
2.690630 11.013504 0.005893
3.005352 11.013504 0.005986
3.320073 11.013504 0.005867
3.634794 11.013504 0.005833
3.949515 11.013504 0.006015
4.264236 11.013504 0.006174
4.578956 11.013504 0.006323
4.893677 11.013504 0.006300
5.208398 11.013504 0.006228
5.523119 11.013504 0.006281
5.837841 11.013504 0.006758
6.152562 11.013504 0.007875
6.467283 11.013504 0.009965
6.782003 11.013504 0.012760
7.096724 11.013504 0.022124
7.411445 11.013504 0.041612
7.726166 11.013504 0.076975
8.040888 11.013504 0.132813
8.355608 11.013504 0.221156
8.670330 11.013504 0.310424
8.985050 11.013504 0.408702
9.299772 11.013504 0.512326
9.614492 11.013504 0.607603
9.929214 11.013504 0.720389
10.243935 11.013504 0.825789
10.558655 11.013504 0.928510
10.873377 11.013504 1.022534
11.188097 11.013504 1.101368
11.502819 11.013504 1.177938
11.817539 11.013504 1.248136
12.132261 11.013504 1.281762
12.446981 11.013504 1.318641
12.761703 11.013504 1.342279
13.076424 11.013504 1.380201
13.391144 11.013504 1.397054
13.705866 11.013504 1.393185
14.020586 11.013504 1.394666
14.335308 11.013504 1.346684
14.650028 11.013504 1.262745
14.964750 11.013504 1.166126
15.279470 11.013504 1.082341
15.594193 11.013504 11.343759
15.908913 11.013504 0.000000
16.223633 11.013504 0.000000
16.538355 11.013504 0.000000
16.853075 11.013504 0.000000
17.167797 11.013504 0.000000
17.482517 11.013504 0.000000
17.797239 11.013504 0.000000
18.111959 11.013504 0.000000
18.426680 11.013504 0.000000
18.741402 11.013504 0.000000
-7.065720 10.698784 0.000000
-6.750999 10.698784 0.007130
-6.436278 10.698784 0.006859
-6.121557 10.698784 0.006719
-5.806836 10.698784 0.006800
-5.492115 10.698784 0.006773
-5.177394 10.698784 0.006691
-4.862673 10.698784 0.006632
-4.547952 10.698784 0.006687
-4.233231 10.698784 0.006699
-3.918510 10.698784 0.006673
-3.603789 10.698784 0.006614
-3.289068 10.698784 0.006486
-2.974347 10.698784 0.006366
-2.659626 10.698784 0.006376
-2.344905 10.698784 0.006490
-2.030184 10.698784 0.006491
-1.715463 10.698784 0.006380
-1.400742 10.698784 0.006328
-1.086021 10.698784 0.006368
-0.771300 10.698784 0.006318
-0.456579 10.698784 0.006377
-0.141859 10.698784 0.006436
0.172863 10.698784 0.006377
0.487584 10.698784 0.006274
0.802305 10.698784 0.006117
1.117026 10.698784 0.006086
1.431747 10.698784 0.006136
1.746467 10.698784 0.006079
2.061188 10.698784 0.005968
2.375909 10.698784 0.005905
2.690630 10.698784 0.005948
3.005352 10.698784 0.006016
3.320073 10.698784 0.005921
3.634794 10.698784 0.005950
3.949515 10.698784 0.006068
4.264236 10.698784 0.006258
4.578956 10.698784 0.006342
4.893677 10.698784 0.006274
5.208398 10.698784 0.006140
5.523119 10.698784 0.006089
5.837841 10.698784 0.006479
6.152562 10.698784 0.007737
6.467283 10.698784 0.008986
6.782003 10.698784 0.012641
7.096724 10.698784 0.021941
7.411445 10.698784 0.040755
7.726166 10.698784 0.075202
8.040888 10.698784 0.136576
8.355608 10.698784 0.218230
8.670330 10.698784 0.313419
8.985050 10.698784 0.412035
9.299772 10.698784 0.510109
9.614492 10.698784 0.614067
9.929214 10.698784 0.724422
10.243935 10.698784 0.835269
10.558655 10.698784 0.939915
10.873377 10.698784 1.028530
11.188097 10.698784 1.114177
11.502819 10.698784 1.187271
11.817539 10.698784 1.242165
12.132261 10.698784 1.293870
12.446981 10.698784 1.315900
12.761703 10.698784 1.348130
13.076424 10.698784 1.379314
13.391144 10.698784 1.398347
13.705866 10.698784 1.411470
14.020586 10.698784 1.386546
14.335308 10.698784 1.333692
14.650028 10.698784 1.252322
14.964750 10.698784 1.172706
15.279470 10.698784 1.088313
15.594193 10.698784 0.000000
15.908913 10.698784 0.000000
16.223633 10.698784 0.000000
16.538355 10.698784 0.000000
16.853075 10.698784 0.000000
17.167797 10.698784 0.000000
17.482517 10.698784 0.000000
17.797239 10.698784 0.000000
18.111959 10.698784 0.000000
18.426680 10.698784 0.000000
18.741402 10.698784 0.000000
-7.065720 10.384064 0.000000
-6.750999 10.384064 0.007180
-6.436278 10.384064 0.006889
-6.121557 10.384064 0.006705
-5.806836 10.384064 0.006721
-5.492115 10.384064 0.006726
-5.177394 10.384064 0.006615
-4.862673 10.384064 0.006518
-4.547952 10.384064 0.006597
-4.233231 10.384064 0.006689
-3.918510 10.384064 0.006691
-3.603789 10.384064 0.006627
-3.289068 10.384064 0.006550
-2.974347 10.384064 0.006469
-2.659626 10.384064 0.006458
-2.344905 10.384064 0.006584
-2.030184 10.384064 0.006624
-1.715463 10.384064 0.006518
-1.400742 10.384064 0.006435
-1.086021 10.384064 0.006422
-0.771300 10.384064 0.006408
-0.456579 10.384064 0.006496
-0.141859 10.384064 0.006475
0.172863 10.384064 0.006350
0.487584 10.384064 0.006307
0.802305 10.384064 0.006180
1.117026 10.384064 0.006097
1.431747 10.384064 0.006088
1.746467 10.384064 0.006091
2.061188 10.384064 0.006069
2.375909 10.384064 0.006038
2.690630 10.384064 0.006067
3.005352 10.384064 0.006106
3.320073 10.384064 0.006041
3.634794 10.384064 0.006082
3.949515 10.384064 0.006187
4.264236 10.384064 0.006281
4.578956 10.384064 0.006358
4.893677 10.384064 0.006359
5.208398 10.384064 0.006087
5.523119 10.384064 0.006080
5.837841 10.384064 0.006323
6.152562 10.384064 0.006922
6.467283 10.384064 0.009055
6.782003 10.384064 0.013155
7.096724 10.384064 0.021797
7.411445 10.384064 0.041179
7.726166 10.384064 0.077164
8.040888 10.384064 0.136488
8.355608 10.384064 0.225173
8.670330 10.384064 0.319776
8.985050 10.384064 0.415629
9.299772 10.384064 0.511765
9.614492 10.384064 0.623361
9.929214 10.384064 0.733925
10.243935 10.384064 0.840950
10.558655 10.384064 0.943277
10.873377 10.384064 1.041417
11.188097 10.384064 1.126423
11.502819 10.384064 1.197468
11.817539 10.384064 1.246619
12.132261 10.384064 1.284546
12.446981 10.384064 1.311397
12.761703 10.384064 1.345022
13.076424 10.384064 1.370360
13.391144 10.384064 1.401173
13.705866 10.384064 1.412171
14.020586 10.384064 1.383800
14.335308 10.384064 1.311442
14.650028 10.384064 1.251499
14.964750 10.384064 1.163036
15.279470 10.384064 1.075529
15.594193 10.384064 0.000000
15.908913 10.384064 0.000000
16.223633 10.384064 0.000000
16.538355 10.384064 0.000000
16.853075 10.384064 0.000000
17.167797 10.384064 0.000000
17.482517 10.384064 0.000000
17.797239 10.384064 0.000000
18.111959 10.384064 0.000000
18.426680 10.384064 0.000000
18.741402 10.384064 0.000000
-7.065720 10.069340 0.000000
-6.750999 10.069340 0.007133
-6.436278 10.069340 0.006944
-6.121557 10.069340 0.006756
-5.806836 10.069340 0.006726
-5.492115 10.069340 0.006706
-5.177394 10.069340 0.006592
-4.862673 10.069340 0.006436
-4.547952 10.069340 0.006509
-4.233231 10.069340 0.006664
-3.918510 10.069340 0.006689
-3.603789 10.069340 0.006612
-3.289068 10.069340 0.006582
-2.974347 10.069340 0.006578
-2.659626 10.069340 0.006562
-2.344905 10.069340 0.006672
-2.030184 10.069340 0.006735
-1.715463 10.069340 0.006640
-1.400742 10.069340 0.006514
-1.086021 10.069340 0.006522
-0.771300 10.069340 0.006494
-0.456579 10.069340 0.006541
-0.141859 10.069340 0.006469
0.172863 10.069340 0.006345
0.487584 10.069340 0.006348
0.802305 10.069340 0.006257
1.117026 10.069340 0.006122
1.431747 10.069340 0.006089
1.746467 10.069340 0.006176
2.061188 10.069340 0.006229
2.375909 10.069340 0.006221
2.690630 10.069340 0.006180
3.005352 10.069340 0.006177
3.320073 10.069340 0.006151
3.634794 10.069340 0.006225
3.949515 10.069340 0.006270
4.264236 10.069340 0.006272
4.578956 10.069340 0.006322
4.893677 10.069340 0.006294
5.208398 10.069340 0.006182
5.523119 10.069340 0.006212
5.837841 10.069340 0.006549
6.152562 10.069340 0.007382
6.467283 10.069340 0.009019
6.782003 10.069340 0.014650
7.096724 10.069340 0.026000
7.411445 10.069340 0.044862
7.726166 10.069340 0.080439
8.040888 10.069340 0.142181
8.355608 10.069340 0.231613
8.670330 10.069340 0.318653
8.985050 10.069340 0.423239
9.299772 10.069340 0.527869
9.614492 10.069340 0.635909
9.929214 10.069340 0.744597
10.243935 10.069340 0.845639
10.558655 10.069340 0.951607
10.873377 10.069340 1.051287
11.188097 10.069340 1.137176
11.502819 10.069340 1.213861
11.817539 10.069340 1.259592
12.132261 10.069340 1.273934
12.446981 10.069340 1.293152
12.761703 10.069340 1.337925
13.076424 10.069340 1.381851
13.391144 10.069340 1.418016
13.705866 10.069340 1.414641
14.020586 10.069340 1.375843
14.335308 10.069340 1.303862
14.650028 10.069340 1.244344
14.964750 10.069340 1.171177
15.279470 10.069340 1.108690
15.594193 10.069340 0.000000
15.908913 10.069340 0.000000
16.223633 10.069340 0.000000
16.538355 10.069340 0.000000
16.853075 10.069340 0.000000
17.167797 10.069340 0.000000
17.482517 10.069340 0.000000
17.797239 10.069340 0.000000
18.111959 10.069340 0.000000
18.426680 10.069340 0.000000
18.741402 10.069340 0.000000
-7.065720 9.754620 0.000000
-6.750999 9.754620 0.007067
-6.436278 9.754620 0.006979
-6.121557 9.754620 0.006826
-5.806836 9.754620 0.006766
-5.492115 9.754620 0.006727
-5.177394 9.754620 0.006615
-4.862673 9.754620 0.006461
-4.547952 9.754620 0.006539
-4.233231 9.754620 0.006657
-3.918510 9.754620 0.006687
-3.603789 9.754620 0.006579
-3.289068 9.754620 0.006606
-2.974347 9.754620 0.006668
-2.659626 9.754620 0.006660
-2.344905 9.754620 0.006717
-2.030184 9.754620 0.006770
-1.715463 9.754620 0.006663
-1.400742 9.754620 0.006605
-1.086021 9.754620 0.006630
-0.771300 9.754620 0.006585
-0.456579 9.754620 0.006569
-0.141859 9.754620 0.006434
0.172863 9.754620 0.006387
0.487584 9.754620 0.006386
0.802305 9.754620 0.006301
1.117026 9.754620 0.006199
1.431747 9.754620 0.006195
1.746467 9.754620 0.006304
2.061188 9.754620 0.006415
2.375909 9.754620 0.006391
2.690630 9.754620 0.006284
3.005352 9.754620 0.006246
3.320073 9.754620 0.006230
3.634794 9.754620 0.006347
3.949515 9.754620 0.006328
4.264236 9.754620 0.006206
4.578956 9.754620 0.006266
4.893677 9.754620 0.006246
5.208398 9.754620 0.006240
5.523119 9.754620 0.006420
5.837841 9.754620 0.006861
6.152562 9.754620 0.007401
6.467283 9.754620 0.009854
6.782003 9.754620 0.015373
7.096724 9.754620 0.026545
7.411445 9.754620 0.048172
7.726166 9.754620 0.083253
8.040888 9.754620 0.144810
8.355608 9.754620 0.234271
8.670330 9.754620 0.330391
8.985050 9.754620 0.429307
9.299772 9.754620 0.538516
9.614492 9.754620 0.647525
9.929214 9.754620 0.751098
10.243935 9.754620 0.851750
10.558655 9.754620 0.948946
10.873377 9.754620 1.059473
11.188097 9.754620 1.144773
11.502819 9.754620 1.212293
11.817539 9.754620 1.268527
12.132261 9.754620 1.277715
12.446981 9.754620 1.281834
12.761703 9.754620 1.332122
13.076424 9.754620 1.373931
13.391144 9.754620 1.416660
13.705866 9.754620 1.396639
14.020586 9.754620 1.359048
14.335308 9.754620 1.302436
14.650028 9.754620 1.231868
14.964750 9.754620 1.158377
15.279470 9.754620 1.110635
15.594193 9.754620 0.000000
15.908913 9.754620 0.000000
16.223633 9.754620 0.000000
16.538355 9.754620 0.000000
16.853075 9.754620 0.000000
17.167797 9.754620 0.000000
17.482517 9.754620 0.000000
17.797239 9.754620 0.000000
18.111959 9.754620 0.000000
18.426680 9.754620 0.000000
18.741402 9.754620 0.000000
-7.065720 9.439899 0.000000
-6.750999 9.439899 0.007021
-6.436278 9.439899 0.007017
-6.121557 9.439899 0.006934
-5.806836 9.439899 0.006813
-5.492115 9.439899 0.006748
-5.177394 9.439899 0.006677
-4.862673 9.439899 0.006580
-4.547952 9.439899 0.006604
-4.233231 9.439899 0.006701
-3.918510 9.439899 0.006691
-3.603789 9.439899 0.006563
-3.289068 9.439899 0.006650
-2.974347 9.439899 0.006827
-2.659626 9.439899 0.006825
-2.344905 9.439899 0.006809
-2.030184 9.439899 0.006749
-1.715463 9.439899 0.006629
-1.400742 9.439899 0.006634
-1.086021 9.439899 0.006690
-0.771300 9.439899 0.006649
-0.456579 9.439899 0.006557
-0.141859 9.439899 0.006442
0.172863 9.439899 0.006433
0.487584 9.439899 0.006433
0.802305 9.439899 0.006388
1.117026 9.439899 0.006328
1.431747 9.439899 0.006341
1.746467 9.439899 0.006454
2.061188 9.439899 0.006569
2.375909 9.439899 0.006506
2.690630 9.439899 0.006335
3.005352 9.439899 0.006306
3.320073 9.439899 0.006348
3.634794 9.439899 0.006396
3.949515 9.439899 0.006305
4.264236 9.439899 0.006061
4.578956 9.439899 0.006077
4.893677 9.439899 0.006144
5.208398 9.439899 0.006318
5.523119 9.439899 0.006653
5.837841 9.439899 0.007131
6.152562 9.439899 0.007507
6.467283 9.439899 0.009741
6.782003 9.439899 0.015099
7.096724 9.439899 0.026284
7.411445 9.439899 0.048741
7.726166 9.439899 0.084486
8.040888 9.439899 0.145627
8.355608 9.439899 0.238644
8.670330 9.439899 0.342242
8.985050 9.439899 0.434326
9.299772 9.439899 0.545020
9.614492 9.439899 0.656096
9.929214 9.439899 0.756763
10.243935 9.439899 0.856504
10.558655 9.439899 0.953211
10.873377 9.439899 1.060984
11.188097 9.439899 1.147309
11.502819 9.439899 1.213896
11.817539 9.439899 1.264120
12.132261 9.439899 1.285036
12.446981 9.439899 1.300044
12.761703 9.439899 1.330343
13.076424 9.439899 1.371933
13.391144 9.439899 1.396262
13.705866 9.439899 1.384787
14.020586 9.439899 1.343432
14.335308 9.439899 1.294372
14.650028 9.439899 1.227183
14.964750 9.439899 1.158189
15.279470 9.439899 1.121134
15.594193 9.439899 0.000000
15.908913 9.439899 0.000000
16.223633 9.439899 0.000000
16.538355 9.439899 0.000000
16.853075 9.439899 0.000000
17.167797 9.439899 0.000000
17.482517 9.439899 0.000000
17.797239 9.439899 0.000000
18.111959 9.439899 0.000000
18.426680 9.439899 0.000000
18.741402 9.439899 0.000000
-7.065720 9.125179 0.000000
-6.750999 9.125179 0.006931
-6.436278 9.125179 0.007037
-6.121557 9.125179 0.007017
-5.806836 9.125179 0.006840
-5.492115 9.125179 0.006794
-5.177394 9.125179 0.006786
-4.862673 9.125179 0.006721
-4.547952 9.125179 0.006706
-4.233231 9.125179 0.006730
-3.918510 9.125179 0.006694
-3.603789 9.125179 0.006582
-3.289068 9.125179 0.006730
-2.974347 9.125179 0.006987
-2.659626 9.125179 0.006983
-2.344905 9.125179 0.006848
-2.030184 9.125179 0.006702
-1.715463 9.125179 0.006606
-1.400742 9.125179 0.006642
-1.086021 9.125179 0.006701
-0.771300 9.125179 0.006647
-0.456579 9.125179 0.006553
-0.141859 9.125179 0.006499
0.172863 9.125179 0.006505
0.487584 9.125179 0.006512
0.802305 9.125179 0.006501
1.117026 9.125179 0.006441
1.431747 9.125179 0.006468
1.746467 9.125179 0.006554
2.061188 9.125179 0.006621
2.375909 9.125179 0.006544
2.690630 9.125179 0.006419
3.005352 9.125179 0.006429
3.320073 9.125179 0.006445
3.634794 9.125179 0.006371
3.949515 9.125179 0.006243
4.264236 9.125179 0.006035
4.578956 9.125179 0.005967
4.893677 9.125179 0.006116
5.208398 9.125179 0.006265
5.523119 9.125179 0.006733
5.837841 9.125179 0.006909
6.152562 9.125179 0.007954
6.467283 9.125179 0.010255
6.782003 9.125179 0.015183
7.096724 9.125179 0.026525
7.411445 9.125179 0.048118
7.726166 9.125179 0.086597
8.040888 9.125179 0.148941
8.355608 9.125179 0.234477
8.670330 9.125179 0.344067
8.985050 9.125179 0.440714
9.299772 9.125179 0.545327
9.614492 9.125179 0.648676
9.929214 9.125179 0.751502
10.243935 9.125179 0.859427
10.558655 9.125179 0.960912
10.873377 9.125179 1.057309
11.188097 9.125179 1.148210
11.502819 9.125179 1.212534
11.817539 9.125179 1.258473
12.132261 9.125179 1.280689
12.446981 9.125179 1.296915
12.761703 9.125179 1.323679
13.076424 9.125179 1.348680
13.391144 9.125179 1.396315
13.705866 9.125179 1.379956
14.020586 9.125179 1.340282
14.335308 9.125179 1.288108
14.650028 9.125179 1.248694
14.964750 9.125179 1.180605
15.279470 9.125179 1.111829
15.594193 9.125179 0.000000
15.908913 9.125179 0.000000
16.223633 9.125179 0.000000
16.538355 9.125179 0.000000
16.853075 9.125179 0.000000
17.167797 9.125179 0.000000
17.482517 9.125179 0.000000
17.797239 9.125179 0.000000
18.111959 9.125179 0.000000
18.426680 9.125179 0.000000
18.741402 9.125179 0.000000
-7.065720 8.810455 0.000000
-6.750999 8.810455 0.006843
-6.436278 8.810455 0.007002
-6.121557 8.810455 0.007050
-5.806836 8.810455 0.006895
-5.492115 8.810455 0.006867
-5.177394 8.810455 0.006913
-4.862673 8.810455 0.006855
-4.547952 8.810455 0.006767
-4.233231 8.810455 0.006739
-3.918510 8.810455 0.006725
-3.603789 8.810455 0.006673
-3.289068 8.810455 0.006840
-2.974347 8.810455 0.007096
-2.659626 8.810455 0.007064
-2.344905 8.810455 0.006828
-2.030184 8.810455 0.006610
-1.715463 8.810455 0.006569
-1.400742 8.810455 0.006648
-1.086021 8.810455 0.006694
-0.771300 8.810455 0.006622
-0.456579 8.810455 0.006584
-0.141859 8.810455 0.006591
0.172863 8.810455 0.006584
0.487584 8.810455 0.006620
0.802305 8.810455 0.006638
1.117026 8.810455 0.006548
1.431747 8.810455 0.006546
1.746467 8.810455 0.006614
2.061188 8.810455 0.006606
2.375909 8.810455 0.006556
2.690630 8.810455 0.006545
3.005352 8.810455 0.006603
3.320073 8.810455 0.006545
3.634794 8.810455 0.006389
3.949515 8.810455 0.006211
4.264236 8.810455 0.006071
4.578956 8.810455 0.006127
4.893677 8.810455 0.006195
5.208398 8.810455 0.006305
5.523119 8.810455 0.006370
5.837841 8.810455 0.006781
6.152562 8.810455 0.007843
6.467283 8.810455 0.009428
6.782003 8.810455 0.014643
7.096724 8.810455 0.027188
7.411445 8.810455 0.049884
7.726166 8.810455 0.090287
8.040888 8.810455 0.153888
8.355608 8.810455 0.242298
8.670330 8.810455 0.349664
8.985050 8.810455 0.450344
9.299772 8.810455 0.544196
9.614492 8.810455 0.651659
9.929214 8.810455 0.755179
10.243935 8.810455 0.858510
10.558655 8.810455 0.970235
10.873377 8.810455 1.058316
11.188097 8.810455 1.139909
11.502819 8.810455 1.204834
11.817539 8.810455 1.250367
12.132261 8.810455 1.280248
12.446981 8.810455 1.297513
12.761703 8.810455 1.321184
13.076424 8.810455 1.361786
13.391144 8.810455 1.386245
13.705866 8.810455 1.383417
14.020586 8.810455 1.350245
14.335308 8.810455 1.297194
14.650028 8.810455 1.258472
14.964750 8.810455 1.166307
15.279470 8.810455 1.094816
15.594193 8.810455 0.000000
15.908913 8.810455 0.000000
16.223633 8.810455 0.000000
16.538355 8.810455 0.000000
16.853075 8.810455 0.000000
17.167797 8.810455 0.000000
17.482517 8.810455 0.000000
17.797239 8.810455 0.000000
18.111959 8.810455 0.000000
18.426680 8.810455 0.000000
18.741402 8.810455 0.000000
-7.065720 8.495735 0.000000
-6.750999 8.495735 0.006797
-6.436278 8.495735 0.006977
-6.121557 8.495735 0.007084
-5.806836 8.495735 0.006997
-5.492115 8.495735 0.006974
-5.177394 8.495735 0.007021
-4.862673 8.495735 0.006941
-4.547952 8.495735 0.006787
-4.233231 8.495735 0.006750
-3.918510 8.495735 0.006797
-3.603789 8.495735 0.006812
-3.289068 8.495735 0.006946
-2.974347 8.495735 0.007130
-2.659626 8.495735 0.007048
-2.344905 8.495735 0.006749
-2.030184 8.495735 0.006513
-1.715463 8.495735 0.006542
-1.400742 8.495735 0.006652
-1.086021 8.495735 0.006725
-0.771300 8.495735 0.006641
-0.456579 8.495735 0.006613
-0.141859 8.495735 0.006698
0.172863 8.495735 0.006670
0.487584 8.495735 0.006722
0.802305 8.495735 0.006757
1.117026 8.495735 0.006638
1.431747 8.495735 0.006593
1.746467 8.495735 0.006612
2.061188 8.495735 0.006540
2.375909 8.495735 0.006536
2.690630 8.495735 0.006688
3.005352 8.495735 0.006792
3.320073 8.495735 0.006677
3.634794 8.495735 0.006443
3.949515 8.495735 0.006213
4.264236 8.495735 0.006118
4.578956 8.495735 0.006181
4.893677 8.495735 0.006385
5.208398 8.495735 0.006288
5.523119 8.495735 0.006087
5.837841 8.495735 0.006409
6.152562 8.495735 0.007886
6.467283 8.495735 0.010408
6.782003 8.495735 0.015005
7.096724 8.495735 0.028559
7.411445 8.495735 0.054255
7.726166 8.495735 0.092768
8.040888 8.495735 0.156778
8.355608 8.495735 0.247108
8.670330 8.495735 0.350261
8.985050 8.495735 0.452213
9.299772 8.495735 0.554728
9.614492 8.495735 0.659570
9.929214 8.495735 0.767981
10.243935 8.495735 0.867928
10.558655 8.495735 0.975643
10.873377 8.495735 1.065930
11.188097 8.495735 1.149925
11.502819 8.495735 1.210819
11.817539 8.495735 1.253445
12.132261 8.495735 1.298415
12.446981 8.495735 1.310004
12.761703 8.495735 1.339356
13.076424 8.495735 1.370945
13.391144 8.495735 1.397122
13.705866 8.495735 1.384242
14.020586 8.495735 1.339168
14.335308 8.495735 1.284672
14.650028 8.495735 1.238556
14.964750 8.495735 1.180181
15.279470 8.495735 1.109207
15.594193 8.495735 0.000000
15.908913 8.495735 0.000000
16.223633 8.495735 0.000000
16.538355 8.495735 0.000000
16.853075 8.495735 0.000000
17.167797 8.495735 0.000000
17.482517 8.495735 0.000000
17.797239 8.495735 0.000000
18.111959 8.495735 0.000000
18.426680 8.495735 0.000000
18.741402 8.495735 0.000000
-7.065720 8.181015 0.000000
-6.750999 8.181015 0.006851
-6.436278 8.181015 0.007012
-6.121557 8.181015 0.007115
-5.806836 8.181015 0.007103
-5.492115 8.181015 0.007093
-5.177394 8.181015 0.007065
-4.862673 8.181015 0.006951
-4.547952 8.181015 0.006774
-4.233231 8.181015 0.006767
-3.918510 8.181015 0.006888
-3.603789 8.181015 0.006967
-3.289068 8.181015 0.007020
-2.974347 8.181015 0.007099
-2.659626 8.181015 0.006983
-2.344905 8.181015 0.006653
-2.030184 8.181015 0.006457
-1.715463 8.181015 0.006538
-1.400742 8.181015 0.006666
-1.086021 8.181015 0.006722
-0.771300 8.181015 0.006648
-0.456579 8.181015 0.006651
-0.141859 8.181015 0.006764
0.172863 8.181015 0.006766
0.487584 8.181015 0.006778
0.802305 8.181015 0.006822
1.117026 8.181015 0.006691
1.431747 8.181015 0.006629
1.746467 8.181015 0.006626
2.061188 8.181015 0.006526
2.375909 8.181015 0.006534
2.690630 8.181015 0.006804
3.005352 8.181015 0.006938
3.320073 8.181015 0.006802
3.634794 8.181015 0.006477
3.949515 8.181015 0.006265
4.264236 8.181015 0.006250
4.578956 8.181015 0.006448
4.893677 8.181015 0.006532
5.208398 8.181015 0.006438
5.523119 8.181015 0.006540
5.837841 8.181015 0.007072
6.152562 8.181015 0.008076
6.467283 8.181015 0.010821
6.782003 8.181015 0.016232
7.096724 8.181015 0.030559
7.411445 8.181015 0.057822
7.726166 8.181015 0.099544
8.040888 8.181015 0.163507
8.355608 8.181015 0.255627
8.670330 8.181015 0.354103
8.985050 8.181015 0.455108
9.299772 8.181015 0.558426
9.614492 8.181015 0.665801
9.929214 8.181015 0.771596
10.243935 8.181015 0.871422
10.558655 8.181015 0.971486
10.873377 8.181015 1.065596
11.188097 8.181015 1.151627
11.502819 8.181015 1.210874
11.817539 8.181015 1.265483
12.132261 8.181015 1.311911
12.446981 8.181015 1.336306
12.761703 8.181015 1.349679
13.076424 8.181015 1.384609
13.391144 8.181015 1.391906
13.705866 8.181015 1.353519
14.020586 8.181015 1.314340
14.335308 8.181015 1.262315
14.650028 8.181015 1.200241
14.964750 8.181015 1.175508
15.279470 8.181015 1.111207
15.594193 8.181015 0.000000
15.908913 8.181015 0.000000
16.223633 8.181015 0.000000
16.538355 8.181015 0.000000
16.853075 8.181015 0.000000
17.167797 8.181015 0.000000
17.482517 8.181015 0.000000
17.797239 8.181015 0.000000
18.111959 8.181015 0.000000
18.426680 8.181015 0.000000
18.741402 8.181015 0.000000
-7.065720 7.866295 0.000000
-6.750999 7.866295 0.006992
-6.436278 7.866295 0.007059
-6.121557 7.866295 0.007199
-5.806836 7.866295 0.007242
-5.492115 7.866295 0.007217
-5.177394 7.866295 0.007106
-4.862673 7.866295 0.006931
-4.547952 7.866295 0.006773
-4.233231 7.866295 0.006805
-3.918510 7.866295 0.006985
-3.603789 7.866295 0.007124
-3.289068 7.866295 0.007068
-2.974347 7.866295 0.007036
-2.659626 7.866295 0.006929
-2.344905 7.866295 0.006632
-2.030184 7.866295 0.006468
-1.715463 7.866295 0.006571
-1.400742 7.866295 0.006675
-1.086021 7.866295 0.006652
-0.771300 7.866295 0.006614
-0.456579 7.866295 0.006679
-0.141859 7.866295 0.006795
0.172863 7.866295 0.006804
0.487584 7.866295 0.006803
0.802305 7.866295 0.006826
1.117026 7.866295 0.006715
1.431747 7.866295 0.006657
1.746467 7.866295 0.006667
2.061188 7.866295 0.006592
2.375909 7.866295 0.006608
2.690630 7.866295 0.006867
3.005352 7.866295 0.007024
3.320073 7.866295 0.006839
3.634794 7.866295 0.006549
3.949515 7.866295 0.006398
4.264236 7.866295 0.006430
4.578956 7.866295 0.006619
4.893677 7.866295 0.006713
5.208398 7.866295 0.006614
5.523119 7.866295 0.006941
5.837841 7.866295 0.007758
6.152562 7.866295 0.008662
6.467283 7.866295 0.010987
6.782003 7.866295 0.016344
7.096724 7.866295 0.031560
7.411445 7.866295 0.058347
7.726166 7.866295 0.101506
8.040888 7.866295 0.166660
8.355608 7.866295 0.258523
8.670330 7.866295 0.365611
8.985050 7.866295 0.465484
9.299772 7.866295 0.566146
9.614492 7.866295 0.661853
9.929214 7.866295 0.776980
10.243935 7.866295 0.878705
10.558655 7.866295 0.967363
10.873377 7.866295 1.066470
11.188097 7.866295 1.142058
11.502819 7.866295 1.214625
11.817539 7.866295 1.274316
12.132261 7.866295 1.318476
12.446981 7.866295 1.351343
12.761703 7.866295 1.377319
13.076424 7.866295 1.388973
13.391144 7.866295 1.382421
13.705866 7.866295 1.337988
14.020586 7.866295 1.299520
14.335308 7.866295 1.253821
14.650028 7.866295 1.215866
14.964750 7.866295 1.165991
15.279470 7.866295 1.108084
15.594193 7.866295 0.000000
15.908913 7.866295 0.000000
16.223633 7.866295 0.000000
16.538355 7.866295 0.000000
16.853075 7.866295 0.000000
17.167797 7.866295 0.000000
17.482517 7.866295 0.000000
17.797239 7.866295 0.000000
18.111959 7.866295 0.000000
18.426680 7.866295 0.000000
18.741402 7.866295 0.000000
-7.065720 7.551575 0.000000
-6.750999 7.551575 0.007118
-6.436278 7.551575 0.007107
-6.121557 7.551575 0.007245
-5.806836 7.551575 0.007325
-5.492115 7.551575 0.007286
-5.177394 7.551575 0.007132
-4.862673 7.551575 0.006920
-4.547952 7.551575 0.006842
-4.233231 7.551575 0.006913
-3.918510 7.551575 0.007099
-3.603789 7.551575 0.007181
-3.289068 7.551575 0.007057
-2.974347 7.551575 0.006961
-2.659626 7.551575 0.006893
-2.344905 7.551575 0.006678
-2.030184 7.551575 0.006563
-1.715463 7.551575 0.006649
-1.400742 7.551575 0.006692
-1.086021 7.551575 0.006584
-0.771300 7.551575 0.006626
-0.456579 7.551575 0.006758
-0.141859 7.551575 0.006853
0.172863 7.551575 0.006823
0.487584 7.551575 0.006788
0.802305 7.551575 0.006784
1.117026 7.551575 0.006707
1.431747 7.551575 0.006663
1.746467 7.551575 0.006709
2.061188 7.551575 0.006695
2.375909 7.551575 0.006688
2.690630 7.551575 0.006836
3.005352 7.551575 0.006989
3.320073 7.551575 0.006848
3.634794 7.551575 0.006650
3.949515 7.551575 0.006533
4.264236 7.551575 0.006503
4.578956 7.551575 0.006714
4.893677 7.551575 0.006653
5.208398 7.551575 0.006729
5.523119 7.551575 0.007281
5.837841 7.551575 0.007931
6.152562 7.551575 0.008982
6.467283 7.551575 0.011614
6.782003 7.551575 0.017481
7.096724 7.551575 0.031165
7.411445 7.551575 0.057329
7.726166 7.551575 0.100976
8.040888 7.551575 0.170559
8.355608 7.551575 0.266167
8.670330 7.551575 0.377447
8.985050 7.551575 0.472349
9.299772 7.551575 0.567653
9.614492 7.551575 0.668546
9.929214 7.551575 0.779966
10.243935 7.551575 0.880124
10.558655 7.551575 0.966089
10.873377 7.551575 1.063608
11.188097 7.551575 1.148881
11.502819 7.551575 1.212770
11.817539 7.551575 1.275843
12.132261 7.551575 1.313946
12.446981 7.551575 1.355233
12.761703 7.551575 1.390603
13.076424 7.551575 1.395059
13.391144 7.551575 1.351323
13.705866 7.551575 1.317582
14.020586 7.551575 1.279024
14.335308 7.551575 1.244725
14.650028 7.551575 1.194970
14.964750 7.551575 1.152080
15.279470 7.551575 1.096447
15.594193 7.551575 0.000000
15.908913 7.551575 0.000000
16.223633 7.551575 0.000000
16.538355 7.551575 0.000000
16.853075 7.551575 0.000000
17.167797 7.551575 0.000000
17.482517 7.551575 0.000000
17.797239 7.551575 0.000000
18.111959 7.551575 0.000000
18.426680 7.551575 0.000000
18.741402 7.551575 0.000000
-7.065720 7.236851 0.013609
-6.750999 7.236851 0.007222
-6.436278 7.236851 0.007146
-6.121557 7.236851 0.007272
-5.806836 7.236851 0.007367
-5.492115 7.236851 0.007289
-5.177394 7.236851 0.007084
-4.862673 7.236851 0.006947
-4.547952 7.236851 0.006979
-4.233231 7.236851 0.007112
-3.918510 7.236851 0.007227
-3.603789 7.236851 0.007167
-3.289068 7.236851 0.006951
-2.974347 7.236851 0.006874
-2.659626 7.236851 0.006869
-2.344905 7.236851 0.006770
-2.030184 7.236851 0.006697
-1.715463 7.236851 0.006751
-1.400742 7.236851 0.006750
-1.086021 7.236851 0.006663
-0.771300 7.236851 0.006722
-0.456579 7.236851 0.006892
-0.141859 7.236851 0.006942
0.172863 7.236851 0.006826
0.487584 7.236851 0.006726
0.802305 7.236851 0.006699
1.117026 7.236851 0.006665
1.431747 7.236851 0.006650
1.746467 7.236851 0.006745
2.061188 7.236851 0.006808
2.375909 7.236851 0.006750
2.690630 7.236851 0.006757
3.005352 7.236851 0.006870
3.320073 7.236851 0.006851
3.634794 7.236851 0.006745
3.949515 7.236851 0.006712
4.264236 7.236851 0.006699
4.578956 7.236851 0.006737
4.893677 7.236851 0.006654
5.208398 7.236851 0.006864
5.523119 7.236851 0.007226
5.837841 7.236851 0.007979
6.152562 7.236851 0.009128
6.467283 7.236851 0.012229
6.782003 7.236851 0.019343
7.096724 7.236851 0.031466
7.411445 7.236851 0.057336
7.726166 7.236851 0.104092
8.040888 7.236851 0.175143
8.355608 7.236851 0.271453
8.670330 7.236851 0.380707
8.985050 7.236851 0.481728
9.299772 7.236851 0.577514
9.614492 7.236851 0.675456
9.929214 7.236851 0.792382
10.243935 7.236851 0.885004
10.558655 7.236851 0.976718
10.873377 7.236851 1.070843
11.188097 7.236851 1.148343
11.502819 7.236851 1.217184
11.817539 7.236851 1.274403
12.132261 7.236851 1.315193
12.446981 7.236851 1.354939
12.761703 7.236851 1.387042
13.076424 7.236851 1.380433
13.391144 7.236851 1.356362
13.705866 7.236851 1.305742
14.020586 7.236851 1.273161
14.335308 7.236851 1.230107
14.650028 7.236851 1.198203
14.964750 7.236851 1.154049
15.279470 7.236851 1.062384
15.594193 7.236851 0.000000
15.908913 7.236851 0.000000
16.223633 7.236851 0.000000
16.538355 7.236851 0.000000
16.853075 7.236851 0.000000
17.167797 7.236851 0.000000
17.482517 7.236851 0.000000
17.797239 7.236851 0.000000
18.111959 7.236851 0.000000
18.426680 7.236851 0.000000
18.741402 7.236851 0.000000
-7.065720 6.922131 0.008376
-6.750999 6.922131 0.007262
-6.436278 6.922131 0.007167
-6.121557 6.922131 0.007280
-5.806836 6.922131 0.007375
-5.492115 6.922131 0.007246
-5.177394 6.922131 0.007017
-4.862673 6.922131 0.006984
-4.547952 6.922131 0.007134
-4.233231 6.922131 0.007299
-3.918510 6.922131 0.007311
-3.603789 6.922131 0.007124
-3.289068 6.922131 0.006824
-2.974347 6.922131 0.006781
-2.659626 6.922131 0.006892
-2.344905 6.922131 0.006912
-2.030184 6.922131 0.006884
-1.715463 6.922131 0.006856
-1.400742 6.922131 0.006796
-1.086021 6.922131 0.006749
-0.771300 6.922131 0.006843
-0.456579 6.922131 0.007013
-0.141859 6.922131 0.007005
0.172863 6.922131 0.006844
0.487584 6.922131 0.006677
0.802305 6.922131 0.006645
1.117026 6.922131 0.006622
1.431747 6.922131 0.006651
1.746467 6.922131 0.006783
2.061188 6.922131 0.006885
2.375909 6.922131 0.006801
2.690630 6.922131 0.006685
3.005352 6.922131 0.006766
3.320073 6.922131 0.006864
3.634794 6.922131 0.006869
3.949515 6.922131 0.006877
4.264236 6.922131 0.006869
4.578956 6.922131 0.006970
4.893677 6.922131 0.006934
5.208398 6.922131 0.006911
5.523119 6.922131 0.007253
5.837841 6.922131 0.007665
6.152562 6.922131 0.008475
6.467283 6.922131 0.011379
6.782003 6.922131 0.018952
7.096724 6.922131 0.032958
7.411445 6.922131 0.063513
7.726166 6.922131 0.112360
8.040888 6.922131 0.181643
8.355608 6.922131 0.276431
8.670330 6.922131 0.383315
8.985050 6.922131 0.481716
9.299772 6.922131 0.589105
9.614492 6.922131 0.688661
9.929214 6.922131 0.796234
10.243935 6.922131 0.898262
10.558655 6.922131 0.988628
10.873377 6.922131 1.085152
11.188097 6.922131 1.152552
11.502819 6.922131 1.208613
11.817539 6.922131 1.275308
12.132261 6.922131 1.308079
12.446981 6.922131 1.334764
12.761703 6.922131 1.380599
13.076424 6.922131 1.370188
13.391144 6.922131 1.339767
13.705866 6.922131 1.303524
14.020586 6.922131 1.280002
14.335308 6.922131 1.245739
14.650028 6.922131 1.201520
14.964750 6.922131 1.136652
15.279470 6.922131 1.034112
15.594193 6.922131 0.000000
15.908913 6.922131 0.000000
16.223633 6.922131 0.000000
16.538355 6.922131 0.000000
16.853075 6.922131 0.000000
17.167797 6.922131 0.000000
17.482517 6.922131 0.000000
17.797239 6.922131 0.000000
18.111959 6.922131 0.000000
18.426680 6.922131 0.000000
18.741402 6.922131 0.000000
-7.065720 6.607410 0.003542
-6.750999 6.607410 0.007333
-6.436278 6.607410 0.007215
-6.121557 6.607410 0.007321
-5.806836 6.607410 0.007363
-5.492115 6.607410 0.007186
-5.177394 6.607410 0.006979
-4.862673 6.607410 0.007049
-4.547952 6.607410 0.007318
-4.233231 6.607410 0.007464
-3.918510 6.607410 0.007357
-3.603789 6.607410 0.007088
-3.289068 6.607410 0.006773
-2.974347 6.607410 0.006768
-2.659626 6.607410 0.006982
-2.344905 6.607410 0.007115
-2.030184 6.607410 0.007100
-1.715463 6.607410 0.006946
-1.400742 6.607410 0.006839
-1.086021 6.607410 0.006839
-0.771300 6.607410 0.006978
-0.456579 6.607410 0.007099
-0.141859 6.607410 0.007047
0.172863 6.607410 0.006866
0.487584 6.607410 0.006676
0.802305 6.607410 0.006620
1.117026 6.607410 0.006621
1.431747 6.607410 0.006705
1.746467 6.607410 0.006840
2.061188 6.607410 0.006911
2.375909 6.607410 0.006814
2.690630 6.607410 0.006654
3.005352 6.607410 0.006705
3.320073 6.607410 0.006846
3.634794 6.607410 0.006944
3.949515 6.607410 0.007058
4.264236 6.607410 0.007059
4.578956 6.607410 0.007167
4.893677 6.607410 0.007056
5.208398 6.607410 0.006960
5.523119 6.607410 0.007327
5.837841 6.607410 0.007742
6.152562 6.607410 0.008573
6.467283 6.607410 0.012527
6.782003 6.607410 0.019354
7.096724 6.607410 0.035555
7.411445 6.607410 0.068203
7.726166 6.607410 0.117041
8.040888 6.607410 0.183251
8.355608 6.607410 0.284137
8.670330 6.607410 0.383394
8.985050 6.607410 0.482892
9.299772 6.607410 0.593328
9.614492 6.607410 0.694660
9.929214 6.607410 0.804457
10.243935 6.607410 0.909230
10.558655 6.607410 1.003943
10.873377 6.607410 1.087165
11.188097 6.607410 1.152804
11.502819 6.607410 1.209564
11.817539 6.607410 1.272053
12.132261 6.607410 1.304355
12.446981 6.607410 1.331239
12.761703 6.607410 1.340424
13.076424 6.607410 1.369411
13.391144 6.607410 1.353685
13.705866 6.607410 1.319739
14.020586 6.607410 1.305908
14.335308 6.607410 1.273233
14.650028 6.607410 1.217325
14.964750 6.607410 1.142002
15.279470 6.607410 1.041851
15.594193 6.607410 0.000000
15.908913 6.607410 0.000000
16.223633 6.607410 0.000000
16.538355 6.607410 0.000000
16.853075 6.607410 0.000000
17.167797 6.607410 0.000000
17.482517 6.607410 0.000000
17.797239 6.607410 0.000000
18.111959 6.607410 0.000000
18.426680 6.607410 0.000000
18.741402 6.607410 0.000000
-7.065720 6.292690 0.003150
-6.750999 6.292690 0.007374
-6.436278 6.292690 0.007298
-6.121557 6.292690 0.007397
-5.806836 6.292690 0.007408
-5.492115 6.292690 0.007194
-5.177394 6.292690 0.007077
-4.862673 6.292690 0.007220
-4.547952 6.292690 0.007487
-4.233231 6.292690 0.007573
-3.918510 6.292690 0.007408
-3.603789 6.292690 0.007107
-3.289068 6.292690 0.006828
-2.974347 6.292690 0.006848
-2.659626 6.292690 0.007131
-2.344905 6.292690 0.007335
-2.030184 6.292690 0.007291
-1.715463 6.292690 0.007046
-1.400742 6.292690 0.006911
-1.086021 6.292690 0.006944
-0.771300 6.292690 0.007067
-0.456579 6.292690 0.007133
-0.141859 6.292690 0.007057
0.172863 6.292690 0.006910
0.487584 6.292690 0.006746
0.802305 6.292690 0.006685
1.117026 6.292690 0.006683
1.431747 6.292690 0.006778
1.746467 6.292690 0.006865
2.061188 6.292690 0.006899
2.375909 6.292690 0.006807
2.690630 6.292690 0.006663
3.005352 6.292690 0.006766
3.320073 6.292690 0.006942
3.634794 6.292690 0.007040
3.949515 6.292690 0.007088
4.264236 6.292690 0.007134
4.578956 6.292690 0.007286
4.893677 6.292690 0.007211
5.208398 6.292690 0.007138
5.523119 6.292690 0.007267
5.837841 6.292690 0.007793
6.152562 6.292690 0.009460
6.467283 6.292690 0.013141
6.782003 6.292690 0.020362
7.096724 6.292690 0.036998
7.411445 6.292690 0.069290
7.726166 6.292690 0.121935
8.040888 6.292690 0.190698
8.355608 6.292690 0.290741
8.670330 6.292690 0.391235
8.985050 6.292690 0.492844
9.299772 6.292690 0.602445
9.614492 6.292690 0.707686
9.929214 6.292690 0.808218
10.243935 6.292690 0.910009
10.558655 6.292690 1.003931
10.873377 6.292690 1.089980
11.188097 6.292690 1.155889
11.502819 6.292690 1.217823
11.817539 6.292690 1.281521
12.132261 6.292690 1.313811
12.446981 6.292690 1.324619
12.761703 6.292690 1.346738
13.076424 6.292690 1.373747
13.391144 6.292690 1.364700
13.705866 6.292690 1.337152
14.020586 6.292690 1.309597
14.335308 6.292690 1.286038
14.650028 6.292690 1.231694
14.964750 6.292690 1.155624
15.279470 6.292690 1.022365
15.594193 6.292690 0.000000
15.908913 6.292690 0.000000
16.223633 6.292690 0.000000
16.538355 6.292690 0.000000
16.853075 6.292690 0.000000
17.167797 6.292690 0.000000
17.482517 6.292690 0.000000
17.797239 6.292690 0.000000
18.111959 6.292690 0.000000
18.426680 6.292690 0.000000
18.741402 6.292690 0.000000
-7.065720 5.977966 0.002981
-6.750999 5.977966 0.007438
-6.436278 5.977966 0.007395
-6.121557 5.977966 0.007503
-5.806836 5.977966 0.007497
-5.492115 5.977966 0.007301
-5.177394 5.977966 0.007273
-4.862673 5.977966 0.007427
-4.547952 5.977966 0.007586
-4.233231 5.977966 0.007608
-3.918510 5.977966 0.007449
-3.603789 5.977966 0.007211
-3.289068 5.977966 0.006981
-2.974347 5.977966 0.007008
-2.659626 5.977966 0.007298
-2.344905 5.977966 0.007520
-2.030184 5.977966 0.007475
-1.715463 5.977966 0.007229
-1.400742 5.977966 0.007032
-1.086021 5.977966 0.007058
-0.771300 5.977966 0.007136
-0.456579 5.977966 0.007133
-0.141859 5.977966 0.007083
0.172863 5.977966 0.006998
0.487584 5.977966 0.006872
0.802305 5.977966 0.006830
1.117026 5.977966 0.006840
1.431747 5.977966 0.006880
1.746467 5.977966 0.006938
2.061188 5.977966 0.006954
2.375909 5.977966 0.006856
2.690630 5.977966 0.006775
3.005352 5.977966 0.006878
3.320073 5.977966 0.007021
3.634794 5.977966 0.007069
3.949515 5.977966 0.007144
4.264236 5.977966 0.007133
4.578956 5.977966 0.007090
4.893677 5.977966 0.007199
5.208398 5.977966 0.007244
5.523119 5.977966 0.007703
5.837841 5.977966 0.008232
6.152562 5.977966 0.008996
6.467283 5.977966 0.012689
6.782003 5.977966 0.020079
7.096724 5.977966 0.037465
7.411445 5.977966 0.069776
7.726166 5.977966 0.124238
8.040888 5.977966 0.198109
8.355608 5.977966 0.297389
8.670330 5.977966 0.401179
8.985050 5.977966 0.501270
9.299772 5.977966 0.604585
9.614492 5.977966 0.713454
9.929214 5.977966 0.824405
10.243935 5.977966 0.914120
10.558655 5.977966 1.004066
10.873377 5.977966 1.089893
11.188097 5.977966 1.156861
11.502819 5.977966 1.217675
11.817539 5.977966 1.282164
12.132261 5.977966 1.314561
12.446981 5.977966 1.319306
12.761703 5.977966 1.355691
13.076424 5.977966 1.368160
13.391144 5.977966 1.367650
13.705866 5.977966 1.335085
14.020586 5.977966 1.301224
14.335308 5.977966 1.283708
14.650028 5.977966 1.251182
14.964750 5.977966 1.168339
15.279470 5.977966 1.035785
15.594193 5.977966 0.000000
15.908913 5.977966 0.000000
16.223633 5.977966 0.000000
16.538355 5.977966 0.000000
16.853075 5.977966 0.000000
17.167797 5.977966 0.000000
17.482517 5.977966 0.000000
17.797239 5.977966 0.000000
18.111959 5.977966 0.000000
18.426680 5.977966 0.000000
18.741402 5.977966 0.000000
-7.065720 5.663246 0.003206
-6.750999 5.663246 0.007523
-6.436278 5.663246 0.007487
-6.121557 5.663246 0.007624
-5.806836 5.663246 0.007600
-5.492115 5.663246 0.007442
-5.177394 5.663246 0.007462
-4.862673 5.663246 0.007618
-4.547952 5.663246 0.007645
-4.233231 5.663246 0.007595
-3.918510 5.663246 0.007518
-3.603789 5.663246 0.007349
-3.289068 5.663246 0.007188
-2.974347 5.663246 0.007209
-2.659626 5.663246 0.007425
-2.344905 5.663246 0.007629
-2.030184 5.663246 0.007584
-1.715463 5.663246 0.007396
-1.400742 5.663246 0.007242
-1.086021 5.663246 0.007181
-0.771300 5.663246 0.007181
-0.456579 5.663246 0.007122
-0.141859 5.663246 0.007138
0.172863 5.663246 0.007130
0.487584 5.663246 0.007057
0.802305 5.663246 0.007042
1.117026 5.663246 0.007053
1.431747 5.663246 0.007047
1.746467 5.663246 0.007034
2.061188 5.663246 0.007041
2.375909 5.663246 0.006960
2.690630 5.663246 0.006923
3.005352 5.663246 0.007026
3.320073 5.663246 0.007095
3.634794 5.663246 0.007048
3.949515 5.663246 0.007061
4.264236 5.663246 0.007059
4.578956 5.663246 0.007050
4.893677 5.663246 0.007044
5.208398 5.663246 0.007390
5.523119 5.663246 0.008080
5.837841 5.663246 0.009071
6.152562 5.663246 0.009388
6.467283 5.663246 0.012822
6.782003 5.663246 0.021897
7.096724 5.663246 0.037278
7.411445 5.663246 0.072433
7.726166 5.663246 0.129023
8.040888 5.663246 0.205579
8.355608 5.663246 0.305900
8.670330 5.663246 0.415051
8.985050 5.663246 0.515524
9.299772 5.663246 0.609708
9.614492 5.663246 0.715033
9.929214 5.663246 0.824120
10.243935 5.663246 0.915362
10.558655 5.663246 1.001201
10.873377 5.663246 1.091836
11.188097 5.663246 1.155353
11.502819 5.663246 1.211550
11.817539 5.663246 1.278517
12.132261 5.663246 1.318938
12.446981 5.663246 1.332183
12.761703 5.663246 1.353273
13.076424 5.663246 1.374827
13.391144 5.663246 1.370640
13.705866 5.663246 1.334149
14.020586 5.663246 1.301602
14.335308 5.663246 1.257519
14.650028 5.663246 1.228007
14.964750 5.663246 1.181942
15.279470 5.663246 1.040696
15.594193 5.663246 0.000000
15.908913 5.663246 0.000000
16.223633 5.663246 0.000000
16.538355 5.663246 0.000000
16.853075 5.663246 0.000000
17.167797 5.663246 0.000000
17.482517 5.663246 0.000000
17.797239 5.663246 0.000000
18.111959 5.663246 0.000000
18.426680 5.663246 0.000000
18.741402 5.663246 0.000000
-7.065720 5.348526 0.003988
-6.750999 5.348526 0.007540
-6.436278 5.348526 0.007590
-6.121557 5.348526 0.007702
-5.806836 5.348526 0.007680
-5.492115 5.348526 0.007556
-5.177394 5.348526 0.007620
-4.862673 5.348526 0.007713
-4.547952 5.348526 0.007634
-4.233231 5.348526 0.007561
-3.918510 5.348526 0.007551
-3.603789 5.348526 0.007483
-3.289068 5.348526 0.007423
-2.974347 5.348526 0.007400
-2.659626 5.348526 0.007502
-2.344905 5.348526 0.007640
-2.030184 5.348526 0.007625
-1.715463 5.348526 0.007523
-1.400742 5.348526 0.007398
-1.086021 5.348526 0.007326
-0.771300 5.348526 0.007251
-0.456579 5.348526 0.007166
-0.141859 5.348526 0.007217
0.172863 5.348526 0.007283
0.487584 5.348526 0.007263
0.802305 5.348526 0.007280
1.117026 5.348526 0.007284
1.431747 5.348526 0.007231
1.746467 5.348526 0.007172
2.061188 5.348526 0.007135
2.375909 5.348526 0.007109
2.690630 5.348526 0.007095
3.005352 5.348526 0.007176
3.320073 5.348526 0.007209
3.634794 5.348526 0.007082
3.949515 5.348526 0.006981
4.264236 5.348526 0.007006
4.578956 5.348526 0.007133
4.893677 5.348526 0.007221
5.208398 5.348526 0.007360
5.523119 5.348526 0.008161
5.837841 5.348526 0.008841
6.152562 5.348526 0.009594
6.467283 5.348526 0.012948
6.782003 5.348526 0.020477
7.096724 5.348526 0.040057
7.411445 5.348526 0.076434
7.726166 5.348526 0.132877
8.040888 5.348526 0.213276
8.355608 5.348526 0.310083
8.670330 5.348526 0.418849
8.985050 5.348526 0.520054
9.299772 5.348526 0.621376
9.614492 5.348526 0.721214
9.929214 5.348526 0.821660
10.243935 5.348526 0.915916
10.558655 5.348526 1.004684
10.873377 5.348526 1.086410
11.188097 5.348526 1.153790
11.502819 5.348526 1.205607
11.817539 5.348526 1.287288
12.132261 5.348526 1.314131
12.446981 5.348526 1.350136
12.761703 5.348526 1.366011
13.076424 5.348526 1.361936
13.391144 5.348526 1.345017
13.705866 5.348526 1.326059
14.020586 5.348526 1.292681
14.335308 5.348526 1.262963
14.650028 5.348526 1.218632
14.964750 5.348526 1.162898
15.279470 5.348526 1.030340
15.594193 5.348526 0.000000
15.908913 5.348526 0.000000
16.223633 5.348526 0.000000
16.538355 5.348526 0.000000
16.853075 5.348526 0.000000
17.167797 5.348526 0.000000
17.482517 5.348526 0.000000
17.797239 5.348526 0.000000
18.111959 5.348526 0.000000
18.426680 5.348526 0.000000
18.741402 5.348526 0.000000
-7.065720 5.033806 0.005206
-6.750999 5.033806 0.007531
-6.436278 5.033806 0.007598
-6.121557 5.033806 0.007738
-5.806836 5.033806 0.007755
-5.492115 5.033806 0.007674
-5.177394 5.033806 0.007717
-4.862673 5.033806 0.007712
-4.547952 5.033806 0.007604
-4.233231 5.033806 0.007538
-3.918510 5.033806 0.007571
-3.603789 5.033806 0.007580
-3.289068 5.033806 0.007597
-2.974347 5.033806 0.007546
-2.659626 5.033806 0.007526
-2.344905 5.033806 0.007607
-2.030184 5.033806 0.007608
-1.715463 5.033806 0.007566
-1.400742 5.033806 0.007502
-1.086021 5.033806 0.007436
-0.771300 5.033806 0.007331
-0.456579 5.033806 0.007236
-0.141859 5.033806 0.007307
0.172863 5.033806 0.007409
0.487584 5.033806 0.007440
0.802305 5.033806 0.007485
1.117026 5.033806 0.007460
1.431747 5.033806 0.007392
1.746467 5.033806 0.007318
2.061188 5.033806 0.007229
2.375909 5.033806 0.007234
2.690630 5.033806 0.007261
3.005352 5.033806 0.007302
3.320073 5.033806 0.007238
3.634794 5.033806 0.007104
3.949515 5.033806 0.007014
4.264236 5.033806 0.007101
4.578956 5.033806 0.007271
4.893677 5.033806 0.007271
5.208398 5.033806 0.007557
5.523119 5.033806 0.007880
5.837841 5.033806 0.008679
6.152562 5.033806 0.009780
6.467283 5.033806 0.013603
6.782003 5.033806 0.021894
7.096724 5.033806 0.042541
7.411445 5.033806 0.080255
7.726166 5.033806 0.141400
8.040888 5.033806 0.221787
8.355608 5.033806 0.318024
8.670330 5.033806 0.418261
8.985050 5.033806 0.520051
9.299772 5.033806 0.625063
9.614492 5.033806 0.733234
9.929214 5.033806 0.825702
10.243935 5.033806 0.913757
10.558655 5.033806 1.001539
10.873377 5.033806 1.084824
11.188097 5.033806 1.152557
11.502819 5.033806 1.213201
11.817539 5.033806 1.286024
12.132261 5.033806 1.326722
12.446981 5.033806 1.337952
12.761703 5.033806 1.378454
13.076424 5.033806 1.375154
13.391144 5.033806 1.348930
13.705866 5.033806 1.315630
14.020586 5.033806 1.295268
14.335308 5.033806 1.273061
14.650028 5.033806 1.213464
14.964750 5.033806 1.178759
15.279470 5.033806 1.020922
15.594193 5.033806 0.000000
15.908913 5.033806 0.000000
16.223633 5.033806 0.000000
16.538355 5.033806 0.000000
16.853075 5.033806 0.000000
17.167797 5.033806 0.000000
17.482517 5.033806 0.000000
17.797239 5.033806 0.000000
18.111959 5.033806 0.000000
18.426680 5.033806 0.000000
18.741402 5.033806 0.000000
-7.065720 4.719086 0.006206
-6.750999 4.719086 0.007479
-6.436278 4.719086 0.007587
-6.121557 4.719086 0.007753
-5.806836 4.719086 0.007779
-5.492115 4.719086 0.007733
-5.177394 4.719086 0.007770
-4.862673 4.719086 0.007723
-4.547952 4.719086 0.007593
-4.233231 4.719086 0.007539
-3.918510 4.719086 0.007607
-3.603789 4.719086 0.007638
-3.289068 4.719086 0.007669
-2.974347 4.719086 0.007599
-2.659626 4.719086 0.007506
-2.344905 4.719086 0.007561
-2.030184 4.719086 0.007589
-1.715463 4.719086 0.007589
-1.400742 4.719086 0.007585
-1.086021 4.719086 0.007497
-0.771300 4.719086 0.007359
-0.456579 4.719086 0.007283
-0.141859 4.719086 0.007330
0.172863 4.719086 0.007449
0.487584 4.719086 0.007552
0.802305 4.719086 0.007589
1.117026 4.719086 0.007540
1.431747 4.719086 0.007478
1.746467 4.719086 0.007393
2.061188 4.719086 0.007296
2.375909 4.719086 0.007321
2.690630 4.719086 0.007346
3.005352 4.719086 0.007359
3.320073 4.719086 0.007269
3.634794 4.719086 0.007149
3.949515 4.719086 0.007145
4.264236 4.719086 0.007308
4.578956 4.719086 0.007599
4.893677 4.719086 0.007532
5.208398 4.719086 0.007549
5.523119 4.719086 0.007671
5.837841 4.719086 0.008505
6.152562 4.719086 0.010455
6.467283 4.719086 0.015212
6.782003 4.719086 0.025140
7.096724 4.719086 0.045676
7.411445 4.719086 0.083527
7.726166 4.719086 0.146355
8.040888 4.719086 0.227342
8.355608 4.719086 0.328630
8.670330 4.719086 0.423797
8.985050 4.719086 0.523557
9.299772 4.719086 0.630613
9.614492 4.719086 0.739350
9.929214 4.719086 0.834103
10.243935 4.719086 0.919225
10.558655 4.719086 1.002753
10.873377 4.719086 1.078356
11.188097 4.719086 1.151606
11.502819 4.719086 1.214898
11.817539 4.719086 1.274369
12.132261 4.719086 1.321524
12.446981 4.719086 1.354195
12.761703 4.719086 1.384298
13.076424 4.719086 1.380846
13.391144 4.719086 1.349579
13.705866 4.719086 1.306507
14.020586 4.719086 1.259947
14.335308 4.719086 1.253830
14.650028 4.719086 1.204719
14.964750 4.719086 1.198126
15.279470 4.719086 1.030280
15.594193 4.719086 0.000000
15.908913 4.719086 0.000000
16.223633 4.719086 0.000000
16.538355 4.719086 0.000000
16.853075 4.719086 0.000000
17.167797 4.719086 0.000000
17.482517 4.719086 0.000000
17.797239 4.719086 0.000000
18.111959 4.719086 0.000000
18.426680 4.719086 0.000000
18.741402 4.719086 0.000000
-7.065720 4.404362 0.007209
-6.750999 4.404362 0.007475
-6.436278 4.404362 0.007569
-6.121557 4.404362 0.007740
-5.806836 4.404362 0.007800
-5.492115 4.404362 0.007778
-5.177394 4.404362 0.007750
-4.862673 4.404362 0.007729
-4.547952 4.404362 0.007619
-4.233231 4.404362 0.007559
-3.918510 4.404362 0.007626
-3.603789 4.404362 0.007681
-3.289068 4.404362 0.007689
-2.974347 4.404362 0.007588
-2.659626 4.404362 0.007461
-2.344905 4.404362 0.007517
-2.030184 4.404362 0.007569
-1.715463 4.404362 0.007606
-1.400742 4.404362 0.007607
-1.086021 4.404362 0.007476
-0.771300 4.404362 0.007371
-0.456579 4.404362 0.007315
-0.141859 4.404362 0.007328
0.172863 4.404362 0.007458
0.487584 4.404362 0.007592
0.802305 4.404362 0.007597
1.117026 4.404362 0.007502
1.431747 4.404362 0.007466
1.746467 4.404362 0.007411
2.061188 4.404362 0.007319
2.375909 4.404362 0.007322
2.690630 4.404362 0.007341
3.005352 4.404362 0.007342
3.320073 4.404362 0.007249
3.634794 4.404362 0.007219
3.949515 4.404362 0.007329
4.264236 4.404362 0.007531
4.578956 4.404362 0.007734
4.893677 4.404362 0.007791
5.208398 4.404362 0.007741
5.523119 4.404362 0.007352
5.837841 4.404362 0.008467
6.152562 4.404362 0.010587
6.467283 4.404362 0.014950
6.782003 4.404362 0.026718
7.096724 4.404362 0.045799
7.411445 4.404362 0.084080
7.726166 4.404362 0.148614
8.040888 4.404362 0.234983
8.355608 4.404362 0.339675
8.670330 4.404362 0.439703
8.985050 4.404362 0.539868
9.299772 4.404362 0.638204
9.614492 4.404362 0.740080
9.929214 4.404362 0.837063
10.243935 4.404362 0.914723
10.558655 4.404362 0.999387
10.873377 4.404362 1.077454
11.188097 4.404362 1.149136
11.502819 4.404362 1.210073
11.817539 4.404362 1.280489
12.132261 4.404362 1.330077
12.446981 4.404362 1.343174
12.761703 4.404362 1.373149
13.076424 4.404362 1.395086
13.391144 4.404362 1.340753
13.705866 4.404362 1.307091
14.020586 4.404362 1.270998
14.335308 4.404362 1.238244
14.650028 4.404362 1.220558
14.964750 4.404362 1.191508
15.279470 4.404362 0.997217
15.594193 4.404362 0.000000
15.908913 4.404362 0.000000
16.223633 4.404362 0.000000
16.538355 4.404362 0.000000
16.853075 4.404362 0.000000
17.167797 4.404362 0.000000
17.482517 4.404362 0.000000
17.797239 4.404362 0.000000
18.111959 4.404362 0.000000
18.426680 4.404362 0.000000
18.741402 4.404362 0.000000
-7.065720 4.089642 0.007575
-6.750999 4.089642 0.007535
-6.436278 4.089642 0.007566
-6.121557 4.089642 0.007709
-5.806836 4.089642 0.007788
-5.492115 4.089642 0.007806
-5.177394 4.089642 0.007777
-4.862673 4.089642 0.007739
-4.547952 4.089642 0.007641
-4.233231 4.089642 0.007573
-3.918510 4.089642 0.007622
-3.603789 4.089642 0.007681
-3.289068 4.089642 0.007678
-2.974347 4.089642 0.007557
-2.659626 4.089642 0.007431
-2.344905 4.089642 0.007491
-2.030184 4.089642 0.007587
-1.715463 4.089642 0.007629
-1.400742 4.089642 0.007573
-1.086021 4.089642 0.007421
-0.771300 4.089642 0.007375
-0.456579 4.089642 0.007369
-0.141859 4.089642 0.007362
0.172863 4.089642 0.007463
0.487584 4.089642 0.007584
0.802305 4.089642 0.007548
1.117026 4.089642 0.007399
1.431747 4.089642 0.007379
1.746467 4.089642 0.007398
2.061188 4.089642 0.007318
2.375909 4.089642 0.007268
2.690630 4.089642 0.007260
3.005352 4.089642 0.007271
3.320073 4.089642 0.007274
3.634794 4.089642 0.007250
3.949515 4.089642 0.007446
4.264236 4.089642 0.007707
4.578956 4.089642 0.007854
4.893677 4.089642 0.007974
5.208398 4.089642 0.007790
5.523119 4.089642 0.007892
5.837841 4.089642 0.009057
6.152562 4.089642 0.010819
6.467283 4.089642 0.015463
6.782003 4.089642 0.026073
7.096724 4.089642 0.046183
7.411445 4.089642 0.085010
7.726166 4.089642 0.147553
8.040888 4.089642 0.235557
8.355608 4.089642 0.343485
8.670330 4.089642 0.452226
8.985050 4.089642 0.548751
9.299772 4.089642 0.637724
9.614492 4.089642 0.738088
9.929214 4.089642 0.834500
10.243935 4.089642 0.918264
10.558655 4.089642 1.010337
10.873377 4.089642 1.075824
11.188097 4.089642 1.149069
11.502819 4.089642 1.218622
11.817539 4.089642 1.277772
12.132261 4.089642 1.329583
12.446981 4.089642 1.340775
12.761703 4.089642 1.359482
13.076424 4.089642 1.362216
13.391144 4.089642 1.336360
13.705866 4.089642 1.295832
14.020586 4.089642 1.268109
14.335308 4.089642 1.240041
14.650028 4.089642 1.206962
14.964750 4.089642 1.205604
15.279470 4.089642 1.025810
15.594193 4.089642 0.000000
15.908913 4.089642 0.000000
16.223633 4.089642 0.000000
16.538355 4.089642 0.000000
16.853075 4.089642 0.000000
17.167797 4.089642 0.000000
17.482517 4.089642 0.000000
17.797239 4.089642 0.000000
18.111959 4.089642 0.000000
18.426680 4.089642 0.000000
18.741402 4.089642 0.000000
-7.065720 3.774921 0.007777
-6.750999 3.774921 0.007636
-6.436278 3.774921 0.007573
-6.121557 3.774921 0.007694
-5.806836 3.774921 0.007789
-5.492115 3.774921 0.007850
-5.177394 3.774921 0.007822
-4.862673 3.774921 0.007754
-4.547952 3.774921 0.007670
-4.233231 3.774921 0.007590
-3.918510 3.774921 0.007635
-3.603789 3.774921 0.007629
-3.289068 3.774921 0.007624
-2.974347 3.774921 0.007513
-2.659626 3.774921 0.007453
-2.344905 3.774921 0.007533
-2.030184 3.774921 0.007650
-1.715463 3.774921 0.007688
-1.400742 3.774921 0.007567
-1.086021 3.774921 0.007431
-0.771300 3.774921 0.007470
-0.456579 3.774921 0.007476
-0.141859 3.774921 0.007408
0.172863 3.774921 0.007444
0.487584 3.774921 0.007519
0.802305 3.774921 0.007472
1.117026 3.774921 0.007303
1.431747 3.774921 0.007266
1.746467 3.774921 0.007367
2.061188 3.774921 0.007359
2.375909 3.774921 0.007270
2.690630 3.774921 0.007204
3.005352 3.774921 0.007230
3.320073 3.774921 0.007286
3.634794 3.774921 0.007311
3.949515 3.774921 0.007430
4.264236 3.774921 0.007732
4.578956 3.774921 0.007837
4.893677 3.774921 0.007844
5.208398 3.774921 0.008150
5.523119 3.774921 0.008305
5.837841 3.774921 0.008978
6.152562 3.774921 0.011188
6.467283 3.774921 0.016397
6.782003 3.774921 0.026758
7.096724 3.774921 0.047016
7.411445 3.774921 0.088582
7.726166 3.774921 0.152690
8.040888 3.774921 0.240274
8.355608 3.774921 0.354302
8.670330 3.774921 0.457447
8.985050 3.774921 0.558035
9.299772 3.774921 0.653681
9.614492 3.774921 0.748204
9.929214 3.774921 0.841105
10.243935 3.774921 0.919637
10.558655 3.774921 1.016262
10.873377 3.774921 1.080189
11.188097 3.774921 1.147943
11.502819 3.774921 1.222988
11.817539 3.774921 1.265161
12.132261 3.774921 1.306200
12.446981 3.774921 1.323048
12.761703 3.774921 1.336254
13.076424 3.774921 1.336835
13.391144 3.774921 1.326612
13.705866 3.774921 1.282273
14.020586 3.774921 1.259827
14.335308 3.774921 1.216436
14.650028 3.774921 1.203400
14.964750 3.774921 1.204092
15.279470 3.774921 1.062575
15.594193 3.774921 0.000000
15.908913 3.774921 0.000000
16.223633 3.774921 0.000000
16.538355 3.774921 0.000000
16.853075 3.774921 0.000000
17.167797 3.774921 0.000000
17.482517 3.774921 0.000000
17.797239 3.774921 0.000000
18.111959 3.774921 0.000000
18.426680 3.774921 0.000000
18.741402 3.774921 0.000000
-7.065720 3.460201 0.007939
-6.750999 3.460201 0.007777
-6.436278 3.460201 0.007651
-6.121557 3.460201 0.007729
-5.806836 3.460201 0.007799
-5.492115 3.460201 0.007849
-5.177394 3.460201 0.007816
-4.862673 3.460201 0.007725
-4.547952 3.460201 0.007675
-4.233231 3.460201 0.007671
-3.918510 3.460201 0.007673
-3.603789 3.460201 0.007602
-3.289068 3.460201 0.007584
-2.974347 3.460201 0.007532
-2.659626 3.460201 0.007543
-2.344905 3.460201 0.007613
-2.030184 3.460201 0.007692
-1.715463 3.460201 0.007745
-1.400742 3.460201 0.007640
-1.086021 3.460201 0.007529
-0.771300 3.460201 0.007619
-0.456579 3.460201 0.007646
-0.141859 3.460201 0.007504
0.172863 3.460201 0.007395
0.487584 3.460201 0.007432
0.802305 3.460201 0.007422
1.117026 3.460201 0.007269
1.431747 3.460201 0.007249
1.746467 3.460201 0.007373
2.061188 3.460201 0.007414
2.375909 3.460201 0.007302
2.690630 3.460201 0.007232
3.005352 3.460201 0.007248
3.320073 3.460201 0.007321
3.634794 3.460201 0.007483
3.949515 3.460201 0.007645
4.264236 3.460201 0.007788
4.578956 3.460201 0.007764
4.893677 3.460201 0.007937
5.208398 3.460201 0.008041
5.523119 3.460201 0.008001
5.837841 3.460201 0.008862
6.152562 3.460201 0.011469
6.467283 3.460201 0.016542
6.782003 3.460201 0.027967
7.096724 3.460201 0.051338
7.411445 3.460201 0.095889
7.726166 3.460201 0.162493
8.040888 3.460201 0.254770
8.355608 3.460201 0.359769
8.670330 3.460201 0.465317
8.985050 3.460201 0.567777
9.299772 3.460201 0.671465
9.614492 3.460201 0.758862
9.929214 3.460201 0.856053
10.243935 3.460201 0.938531
10.558655 3.460201 1.007455
10.873377 3.460201 1.087258
11.188097 3.460201 1.154481
11.502819 3.460201 1.214347
11.817539 3.460201 1.262281
12.132261 3.460201 1.287444
12.446981 3.460201 1.303211
12.761703 3.460201 1.313309
13.076424 3.460201 1.319624
13.391144 3.460201 1.307281
13.705866 3.460201 1.269194
14.020586 3.460201 1.249584
14.335308 3.460201 1.215663
14.650028 3.460201 1.190296
14.964750 3.460201 1.170967
15.279470 3.460201 0.535323
15.594193 3.460201 0.000000
15.908913 3.460201 0.000000
16.223633 3.460201 0.000000
16.538355 3.460201 0.000000
16.853075 3.460201 0.000000
17.167797 3.460201 0.000000
17.482517 3.460201 0.000000
17.797239 3.460201 0.000000
18.111959 3.460201 0.000000
18.426680 3.460201 0.000000
18.741402 3.460201 0.000000
-7.065720 3.145477 0.008121
-6.750999 3.145477 0.007913
-6.436278 3.145477 0.007760
-6.121557 3.145477 0.007770
-5.806836 3.145477 0.007795
-5.492115 3.145477 0.007803
-5.177394 3.145477 0.007757
-4.862673 3.145477 0.007710
-4.547952 3.145477 0.007715
-4.233231 3.145477 0.007741
-3.918510 3.145477 0.007733
-3.603789 3.145477 0.007608
-3.289068 3.145477 0.007570
-2.974347 3.145477 0.007558
-2.659626 3.145477 0.007618
-2.344905 3.145477 0.007665
-2.030184 3.145477 0.007713
-1.715463 3.145477 0.007781
-1.400742 3.145477 0.007739
-1.086021 3.145477 0.007692
-0.771300 3.145477 0.007801
-0.456579 3.145477 0.007827
-0.141859 3.145477 0.007606
0.172863 3.145477 0.007374
0.487584 3.145477 0.007381
0.802305 3.145477 0.007421
1.117026 3.145477 0.007309
1.431747 3.145477 0.007294
1.746467 3.145477 0.007441
2.061188 3.145477 0.007490
2.375909 3.145477 0.007448
2.690630 3.145477 0.007355
3.005352 3.145477 0.007331
3.320073 3.145477 0.007401
3.634794 3.145477 0.007596
3.949515 3.145477 0.007701
4.264236 3.145477 0.007800
4.578956 3.145477 0.007844
4.893677 3.145477 0.007908
5.208398 3.145477 0.007909
5.523119 3.145477 0.008298
5.837841 3.145477 0.008970
6.152562 3.145477 0.011528
6.467283 3.145477 0.016945
6.782003 3.145477 0.030732
7.096724 3.145477 0.055521
7.411445 3.145477 0.102717
7.726166 3.145477 0.174263
8.040888 3.145477 0.263120
8.355608 3.145477 0.368498
8.670330 3.145477 0.471203
8.985050 3.145477 0.574806
9.299772 3.145477 0.681789
9.614492 3.145477 0.769020
9.929214 3.145477 0.866022
10.243935 3.145477 0.938113
10.558655 3.145477 1.019286
10.873377 3.145477 1.090760
11.188097 3.145477 1.155629
11.502819 3.145477 1.206160
11.817539 3.145477 1.249940
12.132261 3.145477 1.284924
12.446981 3.145477 1.292945
12.761703 3.145477 1.310130
13.076424 3.145477 1.306185
13.391144 3.145477 1.314266
13.705866 3.145477 1.264682
14.020586 3.145477 1.242731
14.335308 3.145477 1.223688
14.650028 3.145477 1.191695
14.964750 3.145477 1.176363
15.279470 3.145477 0.484357
15.594193 3.145477 0.000000
15.908913 3.145477 0.000000
16.223633 3.145477 0.000000
16.538355 3.145477 0.000000
16.853075 3.145477 0.000000
17.167797 3.145477 0.000000
17.482517 3.145477 0.000000
17.797239 3.145477 0.000000
18.111959 3.145477 0.000000
18.426680 3.145477 0.000000
18.741402 3.145477 0.000000
-7.065720 2.830757 0.008228
-6.750999 2.830757 0.008035
-6.436278 2.830757 0.007881
-6.121557 2.830757 0.007837
-5.806836 2.830757 0.007816
-5.492115 2.830757 0.007771
-5.177394 2.830757 0.007719
-4.862673 2.830757 0.007728
-4.547952 2.830757 0.007763
-4.233231 2.830757 0.007852
-3.918510 2.830757 0.007802
-3.603789 2.830757 0.007671
-3.289068 2.830757 0.007596
-2.974347 2.830757 0.007610
-2.659626 2.830757 0.007715
-2.344905 2.830757 0.007751
-2.030184 2.830757 0.007729
-1.715463 2.830757 0.007770
-1.400742 2.830757 0.007811
-1.086021 2.830757 0.007845
-0.771300 2.830757 0.007921
-0.456579 2.830757 0.007919
-0.141859 2.830757 0.007667
0.172863 2.830757 0.007407
0.487584 2.830757 0.007393
0.802305 2.830757 0.007464
1.117026 2.830757 0.007423
1.431747 2.830757 0.007436
1.746467 2.830757 0.007546
2.061188 2.830757 0.007583
2.375909 2.830757 0.007584
2.690630 2.830757 0.007536
3.005352 2.830757 0.007527
3.320073 2.830757 0.007549
3.634794 2.830757 0.007688
3.949515 2.830757 0.007729
4.264236 2.830757 0.007860
4.578956 2.830757 0.007944
4.893677 2.830757 0.007868
5.208398 2.830757 0.007857
5.523119 2.830757 0.007790
5.837841 2.830757 0.008920
6.152562 2.830757 0.012238
6.467283 2.830757 0.018532
6.782003 2.830757 0.032606
7.096724 2.830757 0.060630
7.411445 2.830757 0.108837
7.726166 2.830757 0.176267
8.040888 2.830757 0.267716
8.355608 2.830757 0.376409
8.670330 2.830757 0.481349
8.985050 2.830757 0.589725
9.299772 2.830757 0.694010
9.614492 2.830757 0.783001
9.929214 2.830757 0.872731
10.243935 2.830757 0.948352
10.558655 2.830757 1.026513
10.873377 2.830757 1.100410
11.188097 2.830757 1.155815
11.502819 2.830757 1.206509
11.817539 2.830757 1.260061
12.132261 2.830757 1.285700
12.446981 2.830757 1.289828
12.761703 2.830757 1.292901
13.076424 2.830757 1.305315
13.391144 2.830757 1.298164
13.705866 2.830757 1.271086
14.020586 2.830757 1.231850
14.335308 2.830757 1.205634
14.650028 2.830757 1.178765
14.964750 2.830757 1.180371
15.279470 2.830757 0.469464
15.594193 2.830757 0.000000
15.908913 2.830757 0.000000
16.223633 2.830757 0.000000
16.538355 2.830757 0.000000
16.853075 2.830757 0.000000
17.167797 2.830757 0.000000
17.482517 2.830757 0.000000
17.797239 2.830757 0.000000
18.111959 2.830757 0.000000
18.426680 2.830757 0.000000
18.741402 2.830757 0.000000
-7.065720 2.516037 0.008250
-6.750999 2.516037 0.008122
-6.436278 2.516037 0.007972
-6.121557 2.516037 0.007895
-5.806836 2.516037 0.007864
-5.492115 2.516037 0.007771
-5.177394 2.516037 0.007741
-4.862673 2.516037 0.007796
-4.547952 2.516037 0.007820
-4.233231 2.516037 0.007901
-3.918510 2.516037 0.007858
-3.603789 2.516037 0.007741
-3.289068 2.516037 0.007659
-2.974347 2.516037 0.007696
-2.659626 2.516037 0.007856
-2.344905 2.516037 0.007825
-2.030184 2.516037 0.007731
-1.715463 2.516037 0.007745
-1.400742 2.516037 0.007834
-1.086021 2.516037 0.007907
-0.771300 2.516037 0.007958
-0.456579 2.516037 0.007904
-0.141859 2.516037 0.007685
0.172863 2.516037 0.007503
0.487584 2.516037 0.007487
0.802305 2.516037 0.007572
1.117026 2.516037 0.007626
1.431747 2.516037 0.007617
1.746467 2.516037 0.007639
2.061188 2.516037 0.007673
2.375909 2.516037 0.007716
2.690630 2.516037 0.007722
3.005352 2.516037 0.007764
3.320073 2.516037 0.007739
3.634794 2.516037 0.007758
3.949515 2.516037 0.007665
4.264236 2.516037 0.007790
4.578956 2.516037 0.007852
4.893677 2.516037 0.007917
5.208398 2.516037 0.007765
5.523119 2.516037 0.007695
5.837841 2.516037 0.009083
6.152562 2.516037 0.013297
6.467283 2.516037 0.018844
6.782003 2.516037 0.032319
7.096724 2.516037 0.061397
7.411445 2.516037 0.108791
7.726166 2.516037 0.180876
8.040888 2.516037 0.272238
8.355608 2.516037 0.378914
8.670330 2.516037 0.483181
8.985050 2.516037 0.592564
9.299772 2.516037 0.693063
9.614492 2.516037 0.778473
9.929214 2.516037 0.870579
10.243935 2.516037 0.956418
10.558655 2.516037 1.032322
10.873377 2.516037 1.099193
11.188097 2.516037 1.157213
11.502819 2.516037 1.219403
11.817539 2.516037 1.266626
12.132261 2.516037 1.279362
12.446981 2.516037 1.276535
12.761703 2.516037 1.277357
13.076424 2.516037 1.294279
13.391144 2.516037 1.292922
13.705866 2.516037 1.274312
14.020586 2.516037 1.230922
14.335308 2.516037 1.197876
14.650028 2.516037 1.162445
14.964750 2.516037 1.174929
15.279470 2.516037 0.473701
15.594193 2.516037 0.000000
15.908913 2.516037 0.000000
16.223633 2.516037 0.000000
16.538355 2.516037 0.000000
16.853075 2.516037 0.000000
17.167797 2.516037 0.000000
17.482517 2.516037 0.000000
17.797239 2.516037 0.000000
18.111959 2.516037 0.000000
18.426680 2.516037 0.000000
18.741402 2.516037 0.000000
-7.065720 2.201317 0.008289
-6.750999 2.201317 0.008196
-6.436278 2.201317 0.008049
-6.121557 2.201317 0.007956
-5.806836 2.201317 0.007912
-5.492115 2.201317 0.007832
-5.177394 2.201317 0.007796
-4.862673 2.201317 0.007815
-4.547952 2.201317 0.007846
-4.233231 2.201317 0.007922
-3.918510 2.201317 0.007906
-3.603789 2.201317 0.007827
-3.289068 2.201317 0.007740
-2.974347 2.201317 0.007835
-2.659626 2.201317 0.008012
-2.344905 2.201317 0.007914
-2.030184 2.201317 0.007698
-1.715463 2.201317 0.007727
-1.400742 2.201317 0.007835
-1.086021 2.201317 0.007881
-0.771300 2.201317 0.007874
-0.456579 2.201317 0.007830
-0.141859 2.201317 0.007716
0.172863 2.201317 0.007599
0.487584 2.201317 0.007626
0.802305 2.201317 0.007769
1.117026 2.201317 0.007847
1.431747 2.201317 0.007810
1.746467 2.201317 0.007736
2.061188 2.201317 0.007799
2.375909 2.201317 0.007882
2.690630 2.201317 0.007864
3.005352 2.201317 0.007998
3.320073 2.201317 0.007970
3.634794 2.201317 0.007841
3.949515 2.201317 0.007689
4.264236 2.201317 0.007603
4.578956 2.201317 0.007810
4.893677 2.201317 0.007916
5.208398 2.201317 0.008214
5.523119 2.201317 0.008387
5.837841 2.201317 0.010004
6.152562 2.201317 0.013605
6.467283 2.201317 0.020377
6.782003 2.201317 0.035132
7.096724 2.201317 0.063416
7.411445 2.201317 0.112705
7.726166 2.201317 0.188261
8.040888 2.201317 0.282291
8.355608 2.201317 0.380619
8.670330 2.201317 0.490978
8.985050 2.201317 0.595146
9.299772 2.201317 0.695020
9.614492 2.201317 0.794354
9.929214 2.201317 0.877335
10.243935 2.201317 0.961512
10.558655 2.201317 1.035173
10.873377 2.201317 1.112606
11.188097 2.201317 1.163877
11.502819 2.201317 1.217433
11.817539 2.201317 1.261034
12.132261 2.201317 1.286732
12.446981 2.201317 1.262720
12.761703 2.201317 1.266022
13.076424 2.201317 1.288480
13.391144 2.201317 1.286852
13.705866 2.201317 1.267026
14.020586 2.201317 1.225505
14.335308 2.201317 1.175204
14.650028 2.201317 1.119378
14.964750 2.201317 1.141984
15.279470 2.201317 0.484824
15.594193 2.201317 0.000000
15.908913 2.201317 0.000000
16.223633 2.201317 0.000000
16.538355 2.201317 0.000000
16.853075 2.201317 0.000000
17.167797 2.201317 0.000000
17.482517 2.201317 0.000000
17.797239 2.201317 0.000000
18.111959 2.201317 0.000000
18.426680 2.201317 0.000000
18.741402 2.201317 0.000000
-7.065720 1.886597 0.008374
-6.750999 1.886597 0.008329
-6.436278 1.886597 0.008155
-6.121557 1.886597 0.008021
-5.806836 1.886597 0.007992
-5.492115 1.886597 0.007915
-5.177394 1.886597 0.007894
-4.862673 1.886597 0.007873
-4.547952 1.886597 0.007883
-4.233231 1.886597 0.007929
-3.918510 1.886597 0.007937
-3.603789 1.886597 0.007894
-3.289068 1.886597 0.007834
-2.974347 1.886597 0.008005
-2.659626 1.886597 0.008139
-2.344905 1.886597 0.007975
-2.030184 1.886597 0.007724
-1.715463 1.886597 0.007728
-1.400742 1.886597 0.007851
-1.086021 1.886597 0.007882
-0.771300 1.886597 0.007802
-0.456579 1.886597 0.007777
-0.141859 1.886597 0.007764
0.172863 1.886597 0.007710
0.487584 1.886597 0.007805
0.802305 1.886597 0.007992
1.117026 1.886597 0.008116
1.431747 1.886597 0.008044
1.746467 1.886597 0.007887
2.061188 1.886597 0.007934
2.375909 1.886597 0.007997
2.690630 1.886597 0.008004
3.005352 1.886597 0.008114
3.320073 1.886597 0.008075
3.634794 1.886597 0.007915
3.949515 1.886597 0.007749
4.264236 1.886597 0.007659
4.578956 1.886597 0.007647
4.893677 1.886597 0.008020
5.208398 1.886597 0.008577
5.523119 1.886597 0.009409
5.837841 1.886597 0.010340
6.152562 1.886597 0.014107
6.467283 1.886597 0.021599
6.782003 1.886597 0.036019
7.096724 1.886597 0.066493
7.411445 1.886597 0.116116
7.726166 1.886597 0.192880
8.040888 1.886597 0.289242
8.355608 1.886597 0.391811
8.670330 1.886597 0.498179
8.985050 1.886597 0.602061
9.299772 1.886597 0.706043
9.614492 1.886597 0.808832
9.929214 1.886597 0.895983
10.243935 1.886597 0.977471
10.558655 1.886597 1.048407
10.873377 1.886597 1.116017
11.188097 1.886597 1.168274
11.502819 1.886597 1.225947
11.817539 1.886597 1.255569
12.132261 1.886597 1.264859
12.446981 1.886597 1.264376
12.761703 1.886597 1.254680
13.076424 1.886597 1.272154
13.391144 1.886597 1.279542
13.705866 1.886597 1.251523
14.020586 1.886597 1.197510
14.335308 1.886597 1.143781
14.650028 1.886597 1.126713
14.964750 1.886597 1.127329
15.279470 1.886597 0.227421
15.594193 1.886597 0.000000
15.908913 1.886597 0.000000
16.223633 1.886597 0.000000
16.538355 1.886597 0.000000
16.853075 1.886597 0.000000
17.167797 1.886597 0.000000
17.482517 1.886597 0.000000
17.797239 1.886597 0.000000
18.111959 1.886597 0.000000
18.426680 1.886597 0.000000
18.741402 1.886597 0.000000
-7.065720 1.571873 0.008466
-6.750999 1.571873 0.008386
-6.436278 1.571873 0.008238
-6.121557 1.571873 0.008109
-5.806836 1.571873 0.008040
-5.492115 1.571873 0.008019
-5.177394 1.571873 0.008015
-4.862673 1.571873 0.007970
-4.547952 1.571873 0.007952
-4.233231 1.571873 0.007961
-3.918510 1.571873 0.007974
-3.603789 1.571873 0.007984
-3.289068 1.571873 0.007981
-2.974347 1.571873 0.008154
-2.659626 1.571873 0.008273
-2.344905 1.571873 0.008066
-2.030184 1.571873 0.007830
-1.715463 1.571873 0.007835
-1.400742 1.571873 0.007941
-1.086021 1.571873 0.007930
-0.771300 1.571873 0.007814
-0.456579 1.571873 0.007794
-0.141859 1.571873 0.007841
0.172863 1.571873 0.007893
0.487584 1.571873 0.008005
0.802305 1.571873 0.008208
1.117026 1.571873 0.008341
1.431747 1.571873 0.008247
1.746467 1.571873 0.008051
2.061188 1.571873 0.008079
2.375909 1.571873 0.008130
2.690630 1.571873 0.008119
3.005352 1.571873 0.008196
3.320073 1.571873 0.008192
3.634794 1.571873 0.007972
3.949515 1.571873 0.007775
4.264236 1.571873 0.007546
4.578956 1.571873 0.007579
4.893677 1.571873 0.008142
5.208398 1.571873 0.008668
5.523119 1.571873 0.009118
5.837841 1.571873 0.010424
6.152562 1.571873 0.014418
6.467283 1.571873 0.022470
6.782003 1.571873 0.036887
7.096724 1.571873 0.071942
7.411445 1.571873 0.123561
7.726166 1.571873 0.202621
8.040888 1.571873 0.300989
8.355608 1.571873 0.404260
8.670330 1.571873 0.505684
8.985050 1.571873 0.611589
9.299772 1.571873 0.716724
9.614492 1.571873 0.824191
9.929214 1.571873 0.906855
10.243935 1.571873 0.983445
10.558655 1.571873 1.059920
10.873377 1.571873 1.120277
11.188097 1.571873 1.177372
11.502819 1.571873 1.226516
11.817539 1.571873 1.240974
12.132261 1.571873 1.256611
12.446981 1.571873 1.262276
12.761703 1.571873 1.259650
13.076424 1.571873 1.260438
13.391144 1.571873 1.273485
13.705866 1.571873 1.238631
14.020586 1.571873 1.187591
14.335308 1.571873 1.128331
14.650028 1.571873 1.109193
14.964750 1.571873 1.114926
15.279470 1.571873 0.000000
15.594193 1.571873 0.000000
15.908913 1.571873 0.000000
16.223633 1.571873 0.000000
16.538355 1.571873 0.000000
16.853075 1.571873 0.000000
17.167797 1.571873 0.000000
17.482517 1.571873 0.000000
17.797239 1.571873 0.000000
18.111959 1.571873 0.000000
18.426680 1.571873 0.000000
18.741402 1.571873 0.000000
-7.065720 1.257153 0.008448
-6.750999 1.257153 0.008404
-6.436278 1.257153 0.008310
-6.121557 1.257153 0.008204
-5.806836 1.257153 0.008149
-5.492115 1.257153 0.008136
-5.177394 1.257153 0.008143
-4.862673 1.257153 0.008081
-4.547952 1.257153 0.008042
-4.233231 1.257153 0.008027
-3.918510 1.257153 0.008055
-3.603789 1.257153 0.008115
-3.289068 1.257153 0.008151
-2.974347 1.257153 0.008267
-2.659626 1.257153 0.008346
-2.344905 1.257153 0.008149
-2.030184 1.257153 0.007960
-1.715463 1.257153 0.007988
-1.400742 1.257153 0.008077
-1.086021 1.257153 0.008035
-0.771300 1.257153 0.007908
-0.456579 1.257153 0.007880
-0.141859 1.257153 0.007979
0.172863 1.257153 0.008087
0.487584 1.257153 0.008168
0.802305 1.257153 0.008334
1.117026 1.257153 0.008466
1.431747 1.257153 0.008361
1.746467 1.257153 0.008159
2.061188 1.257153 0.008178
2.375909 1.257153 0.008202
2.690630 1.257153 0.008160
3.005352 1.257153 0.008236
3.320073 1.257153 0.008284
3.634794 1.257153 0.008056
3.949515 1.257153 0.007770
4.264236 1.257153 0.007637
4.578956 1.257153 0.007820
4.893677 1.257153 0.008077
5.208398 1.257153 0.008562
5.523119 1.257153 0.008912
5.837841 1.257153 0.010720
6.152562 1.257153 0.014876
6.467283 1.257153 0.024095
6.782003 1.257153 0.040029
7.096724 1.257153 0.073760
7.411445 1.257153 0.131795
7.726166 1.257153 0.209545
8.040888 1.257153 0.312440
8.355608 1.257153 0.409989
8.670330 1.257153 0.521140
8.985050 1.257153 0.623625
9.299772 1.257153 0.728041
9.614492 1.257153 0.826581
9.929214 1.257153 0.917251
10.243935 1.257153 0.993771
10.558655 1.257153 1.070197
10.873377 1.257153 1.130041
11.188097 1.257153 1.177802
11.502819 1.257153 1.233941
11.817539 1.257153 1.249612
12.132261 1.257153 1.250075
12.446981 1.257153 1.261973
12.761703 1.257153 1.261036
13.076424 1.257153 1.270548
13.391144 1.257153 1.263061
13.705866 1.257153 1.231198
14.020586 1.257153 1.182056
14.335308 1.257153 1.117590
14.650028 1.257153 1.095768
14.964750 1.257153 1.108912
15.279470 1.257153 0.000000
15.594193 1.257153 0.000000
15.908913 1.257153 0.000000
16.223633 1.257153 0.000000
16.538355 1.257153 0.000000
16.853075 1.257153 0.000000
17.167797 1.257153 0.000000
17.482517 1.257153 0.000000
17.797239 1.257153 0.000000
18.111959 1.257153 0.000000
18.426680 1.257153 0.000000
18.741402 1.257153 0.000000
-7.065720 0.942432 0.008362
-6.750999 0.942432 0.008373
-6.436278 0.942432 0.008342
-6.121557 0.942432 0.008264
-5.806836 0.942432 0.008262
-5.492115 0.942432 0.008280
-5.177394 0.942432 0.008273
-4.862673 0.942432 0.008208
-4.547952 0.942432 0.008145
-4.233231 0.942432 0.008129
-3.918510 0.942432 0.008189
-3.603789 0.942432 0.008248
-3.289068 0.942432 0.008240
-2.974347 0.942432 0.008313
-2.659626 0.942432 0.008378
-2.344905 0.942432 0.008231
-2.030184 0.942432 0.008062
-1.715463 0.942432 0.008113
-1.400742 0.942432 0.008178
-1.086021 0.942432 0.008136
-0.771300 0.942432 0.008036
-0.456579 0.942432 0.008019
-0.141859 0.942432 0.008140
0.172863 0.942432 0.008271
0.487584 0.942432 0.008300
0.802305 0.942432 0.008405
1.117026 0.942432 0.008495
1.431747 0.942432 0.008359
1.746467 0.942432 0.008183
2.061188 0.942432 0.008227
2.375909 0.942432 0.008228
2.690630 0.942432 0.008158
3.005352 0.942432 0.008195
3.320073 0.942432 0.008306
3.634794 0.942432 0.008127
3.949515 0.942432 0.007870
4.264236 0.942432 0.007888
4.578956 0.942432 0.008004
4.893677 0.942432 0.008001
5.208398 0.942432 0.008360
5.523119 0.942432 0.008769
5.837841 0.942432 0.010469
6.152562 0.942432 0.015688
6.467283 0.942432 0.025421
6.782003 0.942432 0.044107
7.096724 0.942432 0.075811
7.411445 0.942432 0.134398
7.726166 0.942432 0.222723
8.040888 0.942432 0.318804
8.355608 0.942432 0.421106
8.670330 0.942432 0.528317
8.985050 0.942432 0.623146
9.299772 0.942432 0.730588
9.614492 0.942432 0.823545
9.929214 0.942432 0.920239
10.243935 0.942432 1.003991
10.558655 0.942432 1.072235
10.873377 0.942432 1.129181
11.188097 0.942432 1.189911
11.502819 0.942432 1.228188
11.817539 0.942432 1.246095
12.132261 0.942432 1.253610
12.446981 0.942432 1.265434
12.761703 0.942432 1.266615
13.076424 0.942432 1.277651
13.391144 0.942432 1.260760
13.705866 0.942432 1.225184
14.020586 0.942432 1.162388
14.335308 0.942432 1.112354
14.650028 0.942432 1.088026
14.964750 0.942432 1.095410
15.279470 0.942432 0.000000
15.594193 0.942432 0.000000
15.908913 0.942432 0.000000
16.223633 0.942432 0.000000
16.538355 0.942432 0.000000
16.853075 0.942432 0.000000
17.167797 0.942432 0.000000
17.482517 0.942432 0.000000
17.797239 0.942432 0.000000
18.111959 0.942432 0.000000
18.426680 0.942432 0.000000
18.741402 0.942432 0.000000
-7.065720 0.627712 0.008416
-6.750999 0.627712 0.008359
-6.436278 0.627712 0.008374
-6.121557 0.627712 0.008332
-5.806836 0.627712 0.008370
-5.492115 0.627712 0.008411
-5.177394 0.627712 0.008393
-4.862673 0.627712 0.008353
-4.547952 0.627712 0.008271
-4.233231 0.627712 0.008263
-3.918510 0.627712 0.008342
-3.603789 0.627712 0.008358
-3.289068 0.627712 0.008303
-2.974347 0.627712 0.008328
-2.659626 0.627712 0.008409
-2.344905 0.627712 0.008368
-2.030184 0.627712 0.008212
-1.715463 0.627712 0.008201
-1.400742 0.627712 0.008234
-1.086021 0.627712 0.008222
-0.771300 0.627712 0.008196
-0.456579 0.627712 0.008188
-0.141859 0.627712 0.008286
0.172863 0.627712 0.008391
0.487584 0.627712 0.008366
0.802305 0.627712 0.008392
1.117026 0.627712 0.008422
1.431747 0.627712 0.008228
1.746467 0.627712 0.008126
2.061188 0.627712 0.008229
2.375909 0.627712 0.008215
2.690630 0.627712 0.008113
3.005352 0.627712 0.008170
3.320073 0.627712 0.008286
3.634794 0.627712 0.008195
3.949515 0.627712 0.008147
4.264236 0.627712 0.008291
4.578956 0.627712 0.008421
4.893677 0.627712 0.008415
5.208398 0.627712 0.008498
5.523119 0.627712 0.008915
5.837841 0.627712 0.010879
6.152562 0.627712 0.016508
6.467283 0.627712 0.026479
6.782003 0.627712 0.044669
7.096724 0.627712 0.079739
7.411445 0.627712 0.144368
7.726166 0.627712 0.227383
8.040888 0.627712 0.324600
8.355608 0.627712 0.431247
8.670330 0.627712 0.534649
8.985050 0.627712 0.638416
9.299772 0.627712 0.728017
9.614492 0.627712 0.823722
9.929214 0.627712 0.919906
10.243935 0.627712 1.011155
10.558655 0.627712 1.075224
10.873377 0.627712 1.137579
11.188097 0.627712 1.188430
11.502819 0.627712 1.225713
11.817539 0.627712 1.242360
12.132261 0.627712 1.252114
12.446981 0.627712 1.269614
12.761703 0.627712 1.270086
13.076424 0.627712 1.262199
13.391144 0.627712 1.247195
13.705866 0.627712 1.214087
14.020586 0.627712 1.161361
14.335308 0.627712 1.117270
14.650028 0.627712 1.101406
14.964750 0.627712 0.745882
15.279470 0.627712 0.000000
15.594193 0.627712 0.000000
15.908913 0.627712 0.000000
16.223633 0.627712 0.000000
16.538355 0.627712 0.000000
16.853075 0.627712 0.000000
17.167797 0.627712 0.000000
17.482517 0.627712 0.000000
17.797239 0.627712 0.000000
18.111959 0.627712 0.000000
18.426680 0.627712 0.000000
18.741402 0.627712 0.000000
-7.065720 0.312992 0.008365
-6.750999 0.312992 0.008326
-6.436278 0.312992 0.008352
-6.121557 0.312992 0.008375
-5.806836 0.312992 0.008493
-5.492115 0.312992 0.008529
-5.177394 0.312992 0.008499
-4.862673 0.312992 0.008484
-4.547952 0.312992 0.008422
-4.233231 0.312992 0.008418
-3.918510 0.312992 0.008476
-3.603789 0.312992 0.008430
-3.289068 0.312992 0.008322
-2.974347 0.312992 0.008340
-2.659626 0.312992 0.008444
-2.344905 0.312992 0.008471
-2.030184 0.312992 0.008325
-1.715463 0.312992 0.008261
-1.400742 0.312992 0.008275
-1.086021 0.312992 0.008323
-0.771300 0.312992 0.008372
-0.456579 0.312992 0.008377
-0.141859 0.312992 0.008421
0.172863 0.312992 0.008448
0.487584 0.312992 0.008384
0.802305 0.312992 0.008328
1.117026 0.312992 0.008263
1.431747 0.312992 0.008084
1.746467 0.312992 0.008064
2.061188 0.312992 0.008218
2.375909 0.312992 0.008202
2.690630 0.312992 0.008079
3.005352 0.312992 0.008152
3.320073 0.312992 0.008353
3.634794 0.312992 0.008315
3.949515 0.312992 0.008405
4.264236 0.312992 0.008505
4.578956 0.312992 0.008696
4.893677 0.312992 0.008729
5.208398 0.312992 0.008753
5.523119 0.312992 0.009785
5.837841 0.312992 0.011542
6.152562 0.312992 0.016131
6.467283 0.312992 0.027770
6.782003 0.312992 0.049837
7.096724 0.312992 0.085093
7.411445 0.312992 0.149900
7.726166 0.312992 0.235895
8.040888 0.312992 0.336918
8.355608 0.312992 0.440152
8.670330 0.312992 0.542391
8.985050 0.312992 0.635865
9.299772 0.312992 0.736179
9.614492 0.312992 0.835382
9.929214 0.312992 0.925830
10.243935 0.312992 1.003179
10.558655 0.312992 1.077037
10.873377 0.312992 1.143779
11.188097 0.312992 1.193227
11.502819 0.312992 1.220910
11.817539 0.312992 1.244046
12.132261 0.312992 1.254675
12.446981 0.312992 1.269220
12.761703 0.312992 1.278296
13.076424 0.312992 1.258215
13.391144 0.312992 1.237438
13.705866 0.312992 1.183273
14.020586 0.312992 1.160388
14.335308 0.312992 1.119410
14.650028 0.312992 1.109923
14.964750 0.312992 0.000000
15.279470 0.312992 0.000000
15.594193 0.312992 0.000000
15.908913 0.312992 0.000000
16.223633 0.312992 0.000000
16.538355 0.312992 0.000000
16.853075 0.312992 0.000000
17.167797 0.312992 0.000000
17.482517 0.312992 0.000000
17.797239 0.312992 0.000000
18.111959 0.312992 0.000000
18.426680 0.312992 0.000000
18.741402 0.312992 0.000000
-7.065720 -0.001732 0.008351
-6.750999 -0.001732 0.008334
-6.436278 -0.001732 0.008346
-6.121557 -0.001732 0.008413
-5.806836 -0.001732 0.008596
-5.492115 -0.001732 0.008631
-5.177394 -0.001732 0.008551
-4.862673 -0.001732 0.008563
-4.547952 -0.001732 0.008551
-4.233231 -0.001732 0.008559
-3.918510 -0.001732 0.008577
-3.603789 -0.001732 0.008497
-3.289068 -0.001732 0.008349
-2.974347 -0.001732 0.008345
-2.659626 -0.001732 0.008462
-2.344905 -0.001732 0.008535
-2.030184 -0.001732 0.008408
-1.715463 -0.001732 0.008272
-1.400742 -0.001732 0.008299
-1.086021 -0.001732 0.008428
-0.771300 -0.001732 0.008539
-0.456579 -0.001732 0.008521
-0.141859 -0.001732 0.008458
0.172863 -0.001732 0.008451
0.487584 -0.001732 0.008373
0.802305 -0.001732 0.008262
1.117026 -0.001732 0.008124
1.431747 -0.001732 0.008000
1.746467 -0.001732 0.008075
2.061188 -0.001732 0.008268
2.375909 -0.001732 0.008260
2.690630 -0.001732 0.008101
3.005352 -0.001732 0.008168
3.320073 -0.001732 0.008412
3.634794 -0.001732 0.008565
3.949515 -0.001732 0.008588
4.264236 -0.001732 0.008593
4.578956 -0.001732 0.008748
4.893677 -0.001732 0.008866
5.208398 -0.001732 0.009111
5.523119 -0.001732 0.010145
5.837841 -0.001732 0.012158
6.152562 -0.001732 0.017149
6.467283 -0.001732 0.028164
6.782003 -0.001732 0.050895
7.096724 -0.001732 0.088627
7.411445 -0.001732 0.157474
7.726166 -0.001732 0.242463
8.040888 -0.001732 0.346937
8.355608 -0.001732 0.444268
8.670330 -0.001732 0.545274
8.985050 -0.001732 0.637853
9.299772 -0.001732 0.745718
9.614492 -0.001732 0.847628
9.929214 -0.001732 0.926722
10.243935 -0.001732 1.004707
10.558655 -0.001732 1.081557
10.873377 -0.001732 1.152348
11.188097 -0.001732 1.198028
11.502819 -0.001732 1.225697
11.817539 -0.001732 1.250468
12.132261 -0.001732 1.264167
12.446981 -0.001732 1.278243
12.761703 -0.001732 1.270201
13.076424 -0.001732 1.241745
13.391144 -0.001732 1.227594
13.705866 -0.001732 1.203700
14.020586 -0.001732 1.140499
14.335308 -0.001732 1.130291
14.650028 -0.001732 1.141781
14.964750 -0.001732 0.000000
15.279470 -0.001732 0.000000
15.594193 -0.001732 0.000000
15.908913 -0.001732 0.000000
16.223633 -0.001732 0.000000
16.538355 -0.001732 0.000000
16.853075 -0.001732 0.000000
17.167797 -0.001732 0.000000
17.482517 -0.001732 0.000000
17.797239 -0.001732 0.000000
18.111959 -0.001732 0.000000
18.426680 -0.001732 0.000000
18.741402 -0.001732 0.000000
-7.065720 -0.316452 0.007996
-6.750999 -0.316452 0.008373
-6.436278 -0.316452 0.008403
-6.121557 -0.316452 0.008494
-5.806836 -0.316452 0.008719
-5.492115 -0.316452 0.008720
-5.177394 -0.316452 0.008594
-4.862673 -0.316452 0.008591
-4.547952 -0.316452 0.008614
-4.233231 -0.316452 0.008642
-3.918510 -0.316452 0.008601
-3.603789 -0.316452 0.008478
-3.289068 -0.316452 0.008344
-2.974347 -0.316452 0.008347
-2.659626 -0.316452 0.008470
-2.344905 -0.316452 0.008547
-2.030184 -0.316452 0.008409
-1.715463 -0.316452 0.008243
-1.400742 -0.316452 0.008293
-1.086021 -0.316452 0.008512
-0.771300 -0.316452 0.008656
-0.456579 -0.316452 0.008573
-0.141859 -0.316452 0.008451
0.172863 -0.316452 0.008416
0.487584 -0.316452 0.008356
0.802305 -0.316452 0.008221
1.117026 -0.316452 0.008074
1.431747 -0.316452 0.008033
1.746467 -0.316452 0.008172
2.061188 -0.316452 0.008373
2.375909 -0.316452 0.008385
2.690630 -0.316452 0.008191
3.005352 -0.316452 0.008258
3.320073 -0.316452 0.008554
3.634794 -0.316452 0.008677
3.949515 -0.316452 0.008671
4.264236 -0.316452 0.008668
4.578956 -0.316452 0.008751
4.893677 -0.316452 0.008787
5.208398 -0.316452 0.008988
5.523119 -0.316452 0.009842
5.837841 -0.316452 0.012029
6.152562 -0.316452 0.018035
6.467283 -0.316452 0.030171
6.782003 -0.316452 0.053946
7.096724 -0.316452 0.094945
7.411445 -0.316452 0.164020
7.726166 -0.316452 0.255143
8.040888 -0.316452 0.354860
8.355608 -0.316452 0.465743
8.670330 -0.316452 0.559322
8.985050 -0.316452 0.650997
9.299772 -0.316452 0.761163
9.614492 -0.316452 0.848562
9.929214 -0.316452 0.933084
10.243935 -0.316452 1.008939
10.558655 -0.316452 1.086195
10.873377 -0.316452 1.157410
11.188097 -0.316452 1.209227
11.502819 -0.316452 1.228757
11.817539 -0.316452 1.252997
12.132261 -0.316452 1.269108
12.446981 -0.316452 1.287224
12.761703 -0.316452 1.272693
13.076424 -0.316452 1.257882
13.391144 -0.316452 1.250033
13.705866 -0.316452 1.196488
14.020586 -0.316452 1.156463
14.335308 -0.316452 1.129530
14.650028 -0.316452 1.160236
14.964750 -0.316452 0.000000
15.279470 -0.316452 0.000000
15.594193 -0.316452 0.000000
15.908913 -0.316452 0.000000
16.223633 -0.316452 0.000000
16.538355 -0.316452 0.000000
16.853075 -0.316452 0.000000
17.167797 -0.316452 0.000000
17.482517 -0.316452 0.000000
17.797239 -0.316452 0.000000
18.111959 -0.316452 0.000000
18.426680 -0.316452 0.000000
18.741402 -0.316452 0.000000
-7.065720 -0.631172 0.007992
-6.750999 -0.631172 0.008146
-6.436278 -0.631172 0.008525
-6.121557 -0.631172 0.008594
-5.806836 -0.631172 0.008767
-5.492115 -0.631172 0.008738
-5.177394 -0.631172 0.008607
-4.862673 -0.631172 0.008623
-4.547952 -0.631172 0.008670
-4.233231 -0.631172 0.008682
-3.918510 -0.631172 0.008567
-3.603789 -0.631172 0.008455
-3.289068 -0.631172 0.008398
-2.974347 -0.631172 0.008430
-2.659626 -0.631172 0.008477
-2.344905 -0.631172 0.008492
-2.030184 -0.631172 0.008303
-1.715463 -0.631172 0.008151
-1.400742 -0.631172 0.008251
-1.086021 -0.631172 0.008557
-0.771300 -0.631172 0.008679
-0.456579 -0.631172 0.008555
-0.141859 -0.631172 0.008435
0.172863 -0.631172 0.008414
0.487584 -0.631172 0.008394
0.802305 -0.631172 0.008226
1.117026 -0.631172 0.008083
1.431747 -0.631172 0.008134
1.746467 -0.631172 0.008342
2.061188 -0.631172 0.008545
2.375909 -0.631172 0.008517
2.690630 -0.631172 0.008328
3.005352 -0.631172 0.008365
3.320073 -0.631172 0.008628
3.634794 -0.631172 0.008782
3.949515 -0.631172 0.008750
4.264236 -0.631172 0.008640
4.578956 -0.631172 0.008525
4.893677 -0.631172 0.008476
5.208398 -0.631172 0.008821
5.523119 -0.631172 0.009174
5.837841 -0.631172 0.011467
6.152562 -0.631172 0.018774
6.467283 -0.631172 0.033519
6.782003 -0.631172 0.058394
7.096724 -0.631172 0.104745
7.411445 -0.631172 0.174719
7.726166 -0.631172 0.269234
8.040888 -0.631172 0.372821
8.355608 -0.631172 0.481866
8.670330 -0.631172 0.582508
8.985050 -0.631172 0.681585
9.299772 -0.631172 0.787230
9.614492 -0.631172 0.877866
9.929214 -0.631172 0.955116
10.243935 -0.631172 1.028501
10.558655 -0.631172 1.099519
10.873377 -0.631172 1.180882
11.188097 -0.631172 1.221890
11.502819 -0.631172 1.247568
11.817539 -0.631172 1.279858
12.132261 -0.631172 1.288262
12.446981 -0.631172 1.316172
12.761703 -0.631172 1.290748
13.076424 -0.631172 1.279721
13.391144 -0.631172 1.239645
13.705866 -0.631172 1.215013
14.020586 -0.631172 1.177169
14.335308 -0.631172 1.137518
14.650028 -0.631172 1.182442
14.964750 -0.631172 0.000000
15.279470 -0.631172 0.000000
15.594193 -0.631172 0.000000
15.908913 -0.631172 0.000000
16.223633 -0.631172 0.000000
16.538355 -0.631172 0.000000
16.853075 -0.631172 0.000000
17.167797 -0.631172 0.000000
17.482517 -0.631172 0.000000
17.797239 -0.631172 0.000000
18.111959 -0.631172 0.000000
18.426680 -0.631172 0.000000
18.741402 -0.631172 0.000000
-7.065720 -0.945892 0.004035
-6.750999 -0.945892 0.004706
-6.436278 -0.945892 0.005258
-6.121557 -0.945892 0.005781
-5.806836 -0.945892 0.006502
-5.492115 -0.945892 0.007175
-5.177394 -0.945892 0.007773
-4.862673 -0.945892 0.008294
-4.547952 -0.945892 0.008572
-4.233231 -0.945892 0.008602
-3.918510 -0.945892 0.008436
-3.603789 -0.945892 0.008353
-3.289068 -0.945892 0.008398
-2.974347 -0.945892 0.008494
-2.659626 -0.945892 0.008497
-2.344905 -0.945892 0.008375
-2.030184 -0.945892 0.008181
-1.715463 -0.945892 0.008011
-1.400742 -0.945892 0.008187
-1.086021 -0.945892 0.008571
-0.771300 -0.945892 0.008674
-0.456579 -0.945892 0.008537
-0.141859 -0.945892 0.008460
0.172863 -0.945892 0.008479
0.487584 -0.945892 0.008471
0.802305 -0.945892 0.008265
1.117026 -0.945892 0.008139
1.431747 -0.945892 0.008303
1.746467 -0.945892 0.008542
2.061188 -0.945892 0.008695
2.375909 -0.945892 0.008604
2.690630 -0.945892 0.008443
3.005352 -0.945892 0.008475
3.320073 -0.945892 0.008690
3.634794 -0.945892 0.008817
3.949515 -0.945892 0.008851
4.264236 -0.945892 0.008812
4.578956 -0.945892 0.008520
4.893677 -0.945892 0.008404
5.208398 -0.945892 0.008557
5.523119 -0.945892 0.009462
5.837841 -0.945892 0.012269
6.152562 -0.945892 0.018888
6.467283 -0.945892 0.035552
6.782003 -0.945892 0.063332
7.096724 -0.945892 0.111511
7.411445 -0.945892 0.186852
7.726166 -0.945892 0.285441
8.040888 -0.945892 0.394397
8.355608 -0.945892 0.501586
8.670330 -0.945892 0.606503
8.985050 -0.945892 0.706884
9.299772 -0.945892 0.815740
9.614492 -0.945892 0.913564
9.929214 -0.945892 0.977595
10.243935 -0.945892 1.055762
10.558655 -0.945892 1.117512
10.873377 -0.945892 1.189437
11.188097 -0.945892 1.235187
11.502819 -0.945892 1.275048
11.817539 -0.945892 1.300455
12.132261 -0.945892 1.318100
12.446981 -0.945892 1.330823
12.761703 -0.945892 1.321963
13.076424 -0.945892 1.297067
13.391144 -0.945892 1.268832
13.705866 -0.945892 1.245005
14.020586 -0.945892 1.189760
14.335308 -0.945892 1.174672
14.650028 -0.945892 0.883371
14.964750 -0.945892 0.000000
15.279470 -0.945892 0.000000
15.594193 -0.945892 0.000000
15.908913 -0.945892 0.000000
16.223633 -0.945892 0.000000
16.538355 -0.945892 0.000000
16.853075 -0.945892 0.000000
17.167797 -0.945892 0.000000
17.482517 -0.945892 0.000000
17.797239 -0.945892 0.000000
18.111959 -0.945892 0.000000
18.426680 -0.945892 0.000000
18.741402 -0.945892 0.000000
-7.065720 -1.260616 0.000000
-6.750999 -1.260616 0.000000
-6.436278 -1.260616 0.000000
-6.121557 -1.260616 0.000000
-5.806836 -1.260616 0.000000
-5.492115 -1.260616 0.000000
-5.177394 -1.260616 0.000000
-4.862673 -1.260616 0.000000
-4.547952 -1.260616 0.000000
-4.233231 -1.260616 0.000000
-3.918510 -1.260616 0.000000
-3.603789 -1.260616 0.000000
-3.289068 -1.260616 0.000000
-2.974347 -1.260616 0.000000
-2.659626 -1.260616 0.000000
-2.344905 -1.260616 0.000000
-2.030184 -1.260616 0.000000
-1.715463 -1.260616 0.000000
-1.400742 -1.260616 0.000000
-1.086021 -1.260616 0.000000
-0.771300 -1.260616 0.000000
-0.456579 -1.260616 0.000000
-0.141859 -1.260616 0.000000
0.172863 -1.260616 0.000000
0.487584 -1.260616 0.000000
0.802305 -1.260616 0.000000
1.117026 -1.260616 0.000000
1.431747 -1.260616 0.000000
1.746467 -1.260616 0.000000
2.061188 -1.260616 0.000000
2.375909 -1.260616 0.000000
2.690630 -1.260616 0.000000
3.005352 -1.260616 0.000000
3.320073 -1.260616 0.000000
3.634794 -1.260616 0.000000
3.949515 -1.260616 0.000000
4.264236 -1.260616 0.000000
4.578956 -1.260616 0.000000
4.893677 -1.260616 0.000000
5.208398 -1.260616 0.000000
5.523119 -1.260616 0.000000
5.837841 -1.260616 0.053910
6.152562 -1.260616 -0.161483
6.467283 -1.260616 0.100846
6.782003 -1.260616 0.083696
7.096724 -1.260616 0.083029
7.411445 -1.260616 0.202277
7.726166 -1.260616 0.230602
8.040888 -1.260616 0.249765
8.355608 -1.260616 0.318737
8.670330 -1.260616 0.389828
8.985050 -1.260616 0.477129
9.299772 -1.260616 0.623677
9.614492 -1.260616 0.763256
9.929214 -1.260616 0.888415
10.243935 -1.260616 0.996544
10.558655 -1.260616 1.099659
10.873377 -1.260616 1.173891
11.188097 -1.260616 1.229643
11.502819 -1.260616 1.274220
11.817539 -1.260616 1.319451
12.132261 -1.260616 1.342945
12.446981 -1.260616 1.353050
12.761703 -1.260616 1.346669
13.076424 -1.260616 1.312518
13.391144 -1.260616 1.281558
13.705866 -1.260616 1.255955
14.020586 -1.260616 1.207758
14.335308 -1.260616 1.191668
14.650028 -1.260616 0.000000
14.964750 -1.260616 0.000000
15.279470 -1.260616 0.000000
15.594193 -1.260616 0.000000
15.908913 -1.260616 0.000000
16.223633 -1.260616 0.000000
16.538355 -1.260616 0.000000
16.853075 -1.260616 0.000000
17.167797 -1.260616 0.000000
17.482517 -1.260616 0.000000
17.797239 -1.260616 0.000000
18.111959 -1.260616 0.000000
18.426680 -1.260616 0.000000
18.741402 -1.260616 0.000000
-7.065720 -1.575336 0.000000
-6.750999 -1.575336 0.000000
-6.436278 -1.575336 0.000000
-6.121557 -1.575336 0.000000
-5.806836 -1.575336 0.000000
-5.492115 -1.575336 0.000000
-5.177394 -1.575336 0.000000
-4.862673 -1.575336 0.000000
-4.547952 -1.575336 0.000000
-4.233231 -1.575336 0.000000
-3.918510 -1.575336 0.000000
-3.603789 -1.575336 0.000000
-3.289068 -1.575336 0.000000
-2.974347 -1.575336 0.000000
-2.659626 -1.575336 0.000000
-2.344905 -1.575336 0.000000
-2.030184 -1.575336 0.000000
-1.715463 -1.575336 0.000000
-1.400742 -1.575336 0.000000
-1.086021 -1.575336 0.000000
-0.771300 -1.575336 0.000000
-0.456579 -1.575336 0.000000
-0.141859 -1.575336 0.000000
0.172863 -1.575336 0.000000
0.487584 -1.575336 0.000000
0.802305 -1.575336 0.000000
1.117026 -1.575336 0.000000
1.431747 -1.575336 0.000000
1.746467 -1.575336 0.000000
2.061188 -1.575336 0.000000
2.375909 -1.575336 0.000000
2.690630 -1.575336 0.000000
3.005352 -1.575336 0.000000
3.320073 -1.575336 0.000000
3.634794 -1.575336 0.000000
3.949515 -1.575336 0.000000
4.264236 -1.575336 0.000000
4.578956 -1.575336 0.000000
4.893677 -1.575336 0.000000
5.208398 -1.575336 0.000000
5.523119 -1.575336 0.000000
5.837841 -1.575336 0.000000
6.152562 -1.575336 0.000000
6.467283 -1.575336 0.000000
6.782003 -1.575336 0.000000
7.096724 -1.575336 0.000000
7.411445 -1.575336 0.000000
7.726166 -1.575336 0.000000
8.040888 -1.575336 0.000000
8.355608 -1.575336 0.000000
8.670330 -1.575336 0.000000
8.985050 -1.575336 2.809166
9.299772 -1.575336 -0.283613
9.614492 -1.575336 0.085821
9.929214 -1.575336 -0.123602
10.243935 -1.575336 0.093999
10.558655 -1.575336 0.170772
10.873377 -1.575336 0.198072
11.188097 -1.575336 0.332632
11.502819 -1.575336 0.374445
11.817539 -1.575336 0.457396
12.132261 -1.575336 0.543840
12.446981 -1.575336 0.645259
12.761703 -1.575336 0.784067
13.076424 -1.575336 0.872789
13.391144 -1.575336 0.957089
13.705866 -1.575336 1.044033
14.020586 -1.575336 1.053128
14.335308 -1.575336 1.085545
14.650028 -1.575336 0.000000
14.964750 -1.575336 0.000000
15.279470 -1.575336 0.000000
15.594193 -1.575336 0.000000
15.908913 -1.575336 0.000000
16.223633 -1.575336 0.000000
16.538355 -1.575336 0.000000
16.853075 -1.575336 0.000000
17.167797 -1.575336 0.000000
17.482517 -1.575336 0.000000
17.797239 -1.575336 0.000000
18.111959 -1.575336 0.000000
18.426680 -1.575336 0.000000
18.741402 -1.575336 0.000000
-7.065720 -1.890057 0.000000
-6.750999 -1.890057 0.000000
-6.436278 -1.890057 0.000000
-6.121557 -1.890057 0.000000
-5.806836 -1.890057 0.000000
-5.492115 -1.890057 0.000000
-5.177394 -1.890057 0.000000
-4.862673 -1.890057 0.000000
-4.547952 -1.890057 0.000000
-4.233231 -1.890057 0.000000
-3.918510 -1.890057 0.000000
-3.603789 -1.890057 0.000000
-3.289068 -1.890057 0.000000
-2.974347 -1.890057 0.000000
-2.659626 -1.890057 0.000000
-2.344905 -1.890057 0.000000
-2.030184 -1.890057 0.000000
-1.715463 -1.890057 0.000000
-1.400742 -1.890057 0.000000
-1.086021 -1.890057 0.000000
-0.771300 -1.890057 0.000000
-0.456579 -1.890057 0.000000
-0.141859 -1.890057 0.000000
0.172863 -1.890057 0.000000
0.487584 -1.890057 0.000000
0.802305 -1.890057 0.000000
1.117026 -1.890057 0.000000
1.431747 -1.890057 0.000000
1.746467 -1.890057 0.000000
2.061188 -1.890057 0.000000
2.375909 -1.890057 0.000000
2.690630 -1.890057 0.000000
3.005352 -1.890057 0.000000
3.320073 -1.890057 0.000000
3.634794 -1.890057 0.000000
3.949515 -1.890057 0.000000
4.264236 -1.890057 0.000000
4.578956 -1.890057 0.000000
4.893677 -1.890057 0.000000
5.208398 -1.890057 0.000000
5.523119 -1.890057 0.000000
5.837841 -1.890057 0.000000
6.152562 -1.890057 0.000000
6.467283 -1.890057 0.000000
6.782003 -1.890057 0.000000
7.096724 -1.890057 0.000000
7.411445 -1.890057 0.000000
7.726166 -1.890057 0.000000
8.040888 -1.890057 0.000000
8.355608 -1.890057 0.000000
8.670330 -1.890057 0.000000
8.985050 -1.890057 0.000000
9.299772 -1.890057 0.000000
9.614492 -1.890057 0.000000
9.929214 -1.890057 0.000000
10.243935 -1.890057 0.000000
10.558655 -1.890057 0.000000
10.873377 -1.890057 0.000000
11.188097 -1.890057 0.000000
11.502819 -1.890057 0.792640
11.817539 -1.890057 -0.593620
12.132261 -1.890057 -0.292410
12.446981 -1.890057 0.603506
12.761703 -1.890057 0.311736
13.076424 -1.890057 0.156871
13.391144 -1.890057 0.044275
13.705866 -1.890057 0.096226
14.020586 -1.890057 0.090998
14.335308 -1.890057 0.155667
14.650028 -1.890057 0.000000
14.964750 -1.890057 0.000000
15.279470 -1.890057 0.000000
15.594193 -1.890057 0.000000
15.908913 -1.890057 0.000000
16.223633 -1.890057 0.000000
16.538355 -1.890057 0.000000
16.853075 -1.890057 0.000000
17.167797 -1.890057 0.000000
17.482517 -1.890057 0.000000
17.797239 -1.890057 0.000000
18.111959 -1.890057 0.000000
18.426680 -1.890057 0.000000
18.741402 -1.890057 0.000000
-7.065720 -2.204777 0.000000
-6.750999 -2.204777 0.000000
-6.436278 -2.204777 0.000000
-6.121557 -2.204777 0.000000
-5.806836 -2.204777 0.000000
-5.492115 -2.204777 0.000000
-5.177394 -2.204777 0.000000
-4.862673 -2.204777 0.000000
-4.547952 -2.204777 0.000000
-4.233231 -2.204777 0.000000
-3.918510 -2.204777 0.000000
-3.603789 -2.204777 0.000000
-3.289068 -2.204777 0.000000
-2.974347 -2.204777 0.000000
-2.659626 -2.204777 0.000000
-2.344905 -2.204777 0.000000
-2.030184 -2.204777 0.000000
-1.715463 -2.204777 0.000000
-1.400742 -2.204777 0.000000
-1.086021 -2.204777 0.000000
-0.771300 -2.204777 0.000000
-0.456579 -2.204777 0.000000
-0.141859 -2.204777 0.000000
0.172863 -2.204777 0.000000
0.487584 -2.204777 0.000000
0.802305 -2.204777 0.000000
1.117026 -2.204777 0.000000
1.431747 -2.204777 0.000000
1.746467 -2.204777 0.000000
2.061188 -2.204777 0.000000
2.375909 -2.204777 0.000000
2.690630 -2.204777 0.000000
3.005352 -2.204777 0.000000
3.320073 -2.204777 0.000000
3.634794 -2.204777 0.000000
3.949515 -2.204777 0.000000
4.264236 -2.204777 0.000000
4.578956 -2.204777 0.000000
4.893677 -2.204777 0.000000
5.208398 -2.204777 0.000000
5.523119 -2.204777 0.000000
5.837841 -2.204777 0.000000
6.152562 -2.204777 0.000000
6.467283 -2.204777 0.000000
6.782003 -2.204777 0.000000
7.096724 -2.204777 0.000000
7.411445 -2.204777 0.000000
7.726166 -2.204777 0.000000
8.040888 -2.204777 0.000000
8.355608 -2.204777 0.000000
8.670330 -2.204777 0.000000
8.985050 -2.204777 0.000000
9.299772 -2.204777 0.000000
9.614492 -2.204777 0.000000
9.929214 -2.204777 0.000000
10.243935 -2.204777 0.000000
10.558655 -2.204777 0.000000
10.873377 -2.204777 0.000000
11.188097 -2.204777 0.000000
11.502819 -2.204777 0.000000
11.817539 -2.204777 0.000000
12.132261 -2.204777 0.000000
12.446981 -2.204777 0.000000
12.761703 -2.204777 0.000000
13.076424 -2.204777 0.000000
13.391144 -2.204777 0.000000
13.705866 -2.204777 0.000000
14.020586 -2.204777 0.000000
14.335308 -2.204777 0.000000
14.650028 -2.204777 0.000000
14.964750 -2.204777 0.000000
15.279470 -2.204777 0.000000
15.594193 -2.204777 0.000000
15.908913 -2.204777 0.000000
16.223633 -2.204777 0.000000
16.538355 -2.204777 0.000000
16.853075 -2.204777 0.000000
17.167797 -2.204777 0.000000
17.482517 -2.204777 0.000000
17.797239 -2.204777 0.000000
18.111959 -2.204777 0.000000
18.426680 -2.204777 0.000000
18.741402 -2.204777 0.000000
