TITLE = "B00013"
VARIABLES = "x", "y", "Reynold stress YY"
ZONE T="Frame 1" I=83, J=162, F=POINT
-7.065720 48.465302 0.000000
-6.750999 48.465302 0.000000
-6.436278 48.465302 0.000000
-6.121557 48.465302 0.000000
-5.806836 48.465302 0.000000
-5.492115 48.465302 0.000000
-5.177394 48.465302 0.000000
-4.862673 48.465302 0.000000
-4.547952 48.465302 0.000000
-4.233231 48.465302 0.000000
-3.918510 48.465302 0.000000
-3.603789 48.465302 0.000000
-3.289068 48.465302 0.000000
-2.974347 48.465302 0.000000
-2.659626 48.465302 0.000000
-2.344905 48.465302 0.000000
-2.030184 48.465302 0.000000
-1.715463 48.465302 0.000000
-1.400742 48.465302 0.000000
-1.086021 48.465302 0.000000
-0.771300 48.465302 0.000000
-0.456579 48.465302 0.000000
-0.141859 48.465302 0.000000
0.172863 48.465302 0.000000
0.487584 48.465302 0.000000
0.802305 48.465302 0.000000
1.117026 48.465302 0.000000
1.431747 48.465302 0.000000
1.746467 48.465302 0.000000
2.061188 48.465302 0.000000
2.375909 48.465302 0.000000
2.690630 48.465302 0.000000
3.005352 48.465302 0.000000
3.320073 48.465302 0.000000
3.634794 48.465302 0.000000
3.949515 48.465302 0.000000
4.264236 48.465302 0.000000
4.578956 48.465302 0.000000
4.893677 48.465302 0.000000
5.208398 48.465302 0.000000
5.523119 48.465302 0.000000
5.837841 48.465302 0.000000
6.152562 48.465302 0.000000
6.467283 48.465302 0.000000
6.782003 48.465302 0.000000
7.096724 48.465302 0.000000
7.411445 48.465302 0.000000
7.726166 48.465302 0.000000
8.040888 48.465302 0.000000
8.355608 48.465302 0.000000
8.670330 48.465302 0.000000
8.985050 48.465302 0.000000
9.299772 48.465302 0.000000
9.614492 48.465302 0.000000
9.929214 48.465302 0.000000
10.243935 48.465302 0.000000
10.558655 48.465302 0.000000
10.873377 48.465302 0.000000
11.188097 48.465302 0.000000
11.502819 48.465302 0.000000
11.817539 48.465302 0.000000
12.132261 48.465302 0.000000
12.446981 48.465302 0.000000
12.761703 48.465302 0.000000
13.076424 48.465302 0.000000
13.391144 48.465302 0.000000
13.705866 48.465302 0.000000
14.020586 48.465302 0.000000
14.335308 48.465302 0.000000
14.650028 48.465302 0.000000
14.964750 48.465302 0.000000
15.279470 48.465302 0.000000
15.594193 48.465302 0.000000
15.908913 48.465302 0.000000
16.223633 48.465302 0.000000
16.538355 48.465302 0.000000
16.853075 48.465302 0.000000
17.167797 48.465302 0.000000
17.482517 48.465302 0.000000
17.797239 48.465302 0.000000
18.111959 48.465302 0.000000
18.426680 48.465302 0.000000
18.741402 48.465302 0.000000
-7.065720 48.150581 0.000000
-6.750999 48.150581 0.000000
-6.436278 48.150581 0.000000
-6.121557 48.150581 0.000000
-5.806836 48.150581 0.000000
-5.492115 48.150581 0.000000
-5.177394 48.150581 0.000000
-4.862673 48.150581 0.000000
-4.547952 48.150581 0.000000
-4.233231 48.150581 0.000000
-3.918510 48.150581 0.000000
-3.603789 48.150581 0.000000
-3.289068 48.150581 0.000000
-2.974347 48.150581 0.000000
-2.659626 48.150581 0.000000
-2.344905 48.150581 0.000000
-2.030184 48.150581 0.000000
-1.715463 48.150581 0.000000
-1.400742 48.150581 0.000000
-1.086021 48.150581 0.000000
-0.771300 48.150581 0.000000
-0.456579 48.150581 0.000000
-0.141859 48.150581 0.000000
0.172863 48.150581 0.000000
0.487584 48.150581 0.000000
0.802305 48.150581 0.000000
1.117026 48.150581 0.000000
1.431747 48.150581 0.000000
1.746467 48.150581 0.000000
2.061188 48.150581 0.000000
2.375909 48.150581 0.000000
2.690630 48.150581 0.000000
3.005352 48.150581 0.000000
3.320073 48.150581 0.000000
3.634794 48.150581 0.000000
3.949515 48.150581 0.000000
4.264236 48.150581 0.000000
4.578956 48.150581 0.000000
4.893677 48.150581 0.000000
5.208398 48.150581 0.000000
5.523119 48.150581 0.000000
5.837841 48.150581 0.000000
6.152562 48.150581 0.000000
6.467283 48.150581 0.000000
6.782003 48.150581 0.000000
7.096724 48.150581 0.000000
7.411445 48.150581 0.000000
7.726166 48.150581 0.000000
8.040888 48.150581 0.000000
8.355608 48.150581 0.000000
8.670330 48.150581 0.000000
8.985050 48.150581 0.000000
9.299772 48.150581 0.000000
9.614492 48.150581 0.000000
9.929214 48.150581 0.000000
10.243935 48.150581 0.000000
10.558655 48.150581 0.000000
10.873377 48.150581 0.000000
11.188097 48.150581 0.000000
11.502819 48.150581 0.000000
11.817539 48.150581 0.000000
12.132261 48.150581 0.000000
12.446981 48.150581 0.000000
12.761703 48.150581 0.000000
13.076424 48.150581 0.000000
13.391144 48.150581 0.000000
13.705866 48.150581 0.000000
14.020586 48.150581 0.000000
14.335308 48.150581 0.000000
14.650028 48.150581 0.000000
14.964750 48.150581 0.000000
15.279470 48.150581 0.000000
15.594193 48.150581 0.000000
15.908913 48.150581 0.000000
16.223633 48.150581 0.000000
16.538355 48.150581 0.000000
16.853075 48.150581 0.000000
17.167797 48.150581 0.000000
17.482517 48.150581 0.000000
17.797239 48.150581 0.000000
18.111959 48.150581 0.000000
18.426680 48.150581 0.000000
18.741402 48.150581 0.000000
-7.065720 47.835861 0.000000
-6.750999 47.835861 0.000000
-6.436278 47.835861 0.000000
-6.121557 47.835861 0.000000
-5.806836 47.835861 0.000000
-5.492115 47.835861 0.000000
-5.177394 47.835861 0.000000
-4.862673 47.835861 0.000000
-4.547952 47.835861 0.000000
-4.233231 47.835861 0.000000
-3.918510 47.835861 0.000000
-3.603789 47.835861 0.000000
-3.289068 47.835861 0.000000
-2.974347 47.835861 0.000000
-2.659626 47.835861 0.000000
-2.344905 47.835861 0.000000
-2.030184 47.835861 0.000000
-1.715463 47.835861 0.000000
-1.400742 47.835861 0.000000
-1.086021 47.835861 0.000000
-0.771300 47.835861 0.000000
-0.456579 47.835861 0.000000
-0.141859 47.835861 0.000000
0.172863 47.835861 0.000000
0.487584 47.835861 0.000000
0.802305 47.835861 0.000000
1.117026 47.835861 0.000000
1.431747 47.835861 0.000000
1.746467 47.835861 0.000000
2.061188 47.835861 0.000000
2.375909 47.835861 0.000000
2.690630 47.835861 0.000000
3.005352 47.835861 0.000000
3.320073 47.835861 0.000000
3.634794 47.835861 0.000000
3.949515 47.835861 0.000000
4.264236 47.835861 0.000000
4.578956 47.835861 0.000000
4.893677 47.835861 0.000000
5.208398 47.835861 0.000000
5.523119 47.835861 0.000000
5.837841 47.835861 0.000000
6.152562 47.835861 0.000000
6.467283 47.835861 0.000000
6.782003 47.835861 0.000000
7.096724 47.835861 0.000000
7.411445 47.835861 0.000000
7.726166 47.835861 0.000000
8.040888 47.835861 0.000000
8.355608 47.835861 0.000000
8.670330 47.835861 0.000000
8.985050 47.835861 0.000000
9.299772 47.835861 0.000000
9.614492 47.835861 0.000000
9.929214 47.835861 0.000000
10.243935 47.835861 0.000000
10.558655 47.835861 2.313344
10.873377 47.835861 2.578160
11.188097 47.835861 3.473239
11.502819 47.835861 3.052597
11.817539 47.835861 3.896692
12.132261 47.835861 2.693808
12.446981 47.835861 2.689969
12.761703 47.835861 3.407645
13.076424 47.835861 2.526573
13.391144 47.835861 3.703715
13.705866 47.835861 3.208785
14.020586 47.835861 3.308098
14.335308 47.835861 3.282122
14.650028 47.835861 3.067434
14.964750 47.835861 2.247303
15.279470 47.835861 2.170034
15.594193 47.835861 2.676457
15.908913 47.835861 4.022076
16.223633 47.835861 4.640976
16.538355 47.835861 4.667753
16.853075 47.835861 4.084478
17.167797 47.835861 5.014347
17.482517 47.835861 5.307247
17.797239 47.835861 5.448817
18.111959 47.835861 5.344734
18.426680 47.835861 6.087030
18.741402 47.835861 7.676041
-7.065720 47.521137 0.000000
-6.750999 47.521137 0.000000
-6.436278 47.521137 0.024054
-6.121557 47.521137 0.020381
-5.806836 47.521137 0.018695
-5.492115 47.521137 0.016421
-5.177394 47.521137 0.013969
-4.862673 47.521137 0.011688
-4.547952 47.521137 0.008560
-4.233231 47.521137 0.006545
-3.918510 47.521137 0.005290
-3.603789 47.521137 0.004901
-3.289068 47.521137 0.003716
-2.974347 47.521137 0.002471
-2.659626 47.521137 0.001752
-2.344905 47.521137 0.000103
-2.030184 47.521137 0.000000
-1.715463 47.521137 0.000000
-1.400742 47.521137 0.000000
-1.086021 47.521137 0.000000
-0.771300 47.521137 0.000000
-0.456579 47.521137 0.000000
-0.141859 47.521137 0.000000
0.172863 47.521137 0.000000
0.487584 47.521137 0.000000
0.802305 47.521137 0.000000
1.117026 47.521137 0.000000
1.431747 47.521137 0.000000
1.746467 47.521137 0.000000
2.061188 47.521137 0.000000
2.375909 47.521137 0.000000
2.690630 47.521137 0.000000
3.005352 47.521137 0.000000
3.320073 47.521137 0.000000
3.634794 47.521137 0.000000
3.949515 47.521137 0.000000
4.264236 47.521137 0.000000
4.578956 47.521137 0.000000
4.893677 47.521137 0.000000
5.208398 47.521137 0.000000
5.523119 47.521137 0.000000
5.837841 47.521137 0.000000
6.152562 47.521137 0.000000
6.467283 47.521137 0.000000
6.782003 47.521137 0.000000
7.096724 47.521137 0.324477
7.411445 47.521137 1.699340
7.726166 47.521137 0.813010
8.040888 47.521137 0.875778
8.355608 47.521137 0.856604
8.670330 47.521137 0.965215
8.985050 47.521137 0.961097
9.299772 47.521137 0.983147
9.614492 47.521137 0.957717
9.929214 47.521137 1.028088
10.243935 47.521137 1.150541
10.558655 47.521137 1.100232
10.873377 47.521137 1.075122
11.188097 47.521137 1.204452
11.502819 47.521137 1.261154
11.817539 47.521137 1.358425
12.132261 47.521137 1.490557
12.446981 47.521137 1.604859
12.761703 47.521137 1.673229
13.076424 47.521137 1.735938
13.391144 47.521137 1.771428
13.705866 47.521137 1.830705
14.020586 47.521137 1.870365
14.335308 47.521137 1.892285
14.650028 47.521137 1.835157
14.964750 47.521137 1.740210
15.279470 47.521137 1.645458
15.594193 47.521137 1.522570
15.908913 47.521137 1.433282
16.223633 47.521137 1.345072
16.538355 47.521137 1.310091
16.853075 47.521137 1.284914
17.167797 47.521137 1.315044
17.482517 47.521137 1.432531
17.797239 47.521137 1.648988
18.111959 47.521137 1.910036
18.426680 47.521137 2.162743
18.741402 47.521137 2.101801
-7.065720 47.206417 0.000000
-6.750999 47.206417 0.000000
-6.436278 47.206417 0.099457
-6.121557 47.206417 0.100548
-5.806836 47.206417 0.099963
-5.492115 47.206417 0.099270
-5.177394 47.206417 0.098418
-4.862673 47.206417 0.098105
-4.547952 47.206417 0.097808
-4.233231 47.206417 0.097163
-3.918510 47.206417 0.096697
-3.603789 47.206417 0.096567
-3.289068 47.206417 0.096418
-2.974347 47.206417 0.096921
-2.659626 47.206417 0.097594
-2.344905 47.206417 0.098013
-2.030184 47.206417 0.098206
-1.715463 47.206417 0.098511
-1.400742 47.206417 0.099111
-1.086021 47.206417 0.099345
-0.771300 47.206417 0.099452
-0.456579 47.206417 0.099669
-0.141859 47.206417 0.100274
0.172863 47.206417 0.100937
0.487584 47.206417 0.101224
0.802305 47.206417 0.101078
1.117026 47.206417 0.100760
1.431747 47.206417 0.100924
1.746467 47.206417 0.101590
2.061188 47.206417 0.101966
2.375909 47.206417 0.102244
2.690630 47.206417 0.102552
3.005352 47.206417 0.102588
3.320073 47.206417 0.102965
3.634794 47.206417 0.104231
3.949515 47.206417 0.105571
4.264236 47.206417 0.106872
4.578956 47.206417 0.108623
4.893677 47.206417 0.110815
5.208398 47.206417 0.113761
5.523119 47.206417 0.117936
5.837841 47.206417 0.122842
6.152562 47.206417 0.129069
6.467283 47.206417 0.136629
6.782003 47.206417 0.146260
7.096724 47.206417 0.158431
7.411445 47.206417 0.178489
7.726166 47.206417 0.211758
8.040888 47.206417 0.270568
8.355608 47.206417 0.364993
8.670330 47.206417 0.527445
8.985050 47.206417 0.734070
9.299772 47.206417 0.979895
9.614492 47.206417 1.255156
9.929214 47.206417 1.514569
10.243935 47.206417 1.789672
10.558655 47.206417 2.062692
10.873377 47.206417 2.304733
11.188097 47.206417 2.524282
11.502819 47.206417 2.698001
11.817539 47.206417 2.849910
12.132261 47.206417 2.982243
12.446981 47.206417 3.070558
12.761703 47.206417 3.092420
13.076424 47.206417 3.084501
13.391144 47.206417 3.017632
13.705866 47.206417 2.973991
14.020586 47.206417 2.902686
14.335308 47.206417 2.779442
14.650028 47.206417 2.617011
14.964750 47.206417 2.378884
15.279470 47.206417 2.154032
15.594193 47.206417 1.941964
15.908913 47.206417 1.738219
16.223633 47.206417 1.591645
16.538355 47.206417 1.525169
16.853075 47.206417 1.489994
17.167797 47.206417 1.595472
17.482517 47.206417 1.868012
17.797239 47.206417 2.274515
18.111959 47.206417 2.917877
18.426680 47.206417 3.797402
18.741402 47.206417 3.309005
-7.065720 46.891697 0.000000
-6.750999 46.891697 0.000000
-6.436278 46.891697 0.100507
-6.121557 46.891697 0.099237
-5.806836 46.891697 0.098701
-5.492115 46.891697 0.098091
-5.177394 46.891697 0.097376
-4.862673 46.891697 0.097304
-4.547952 46.891697 0.097224
-4.233231 46.891697 0.096747
-3.918510 46.891697 0.096285
-3.603789 46.891697 0.095908
-3.289068 46.891697 0.095766
-2.974347 46.891697 0.096092
-2.659626 46.891697 0.096375
-2.344905 46.891697 0.096495
-2.030184 46.891697 0.096517
-1.715463 46.891697 0.096822
-1.400742 46.891697 0.097399
-1.086021 46.891697 0.097750
-0.771300 46.891697 0.097923
-0.456579 46.891697 0.098026
-0.141859 46.891697 0.098461
0.172863 46.891697 0.098898
0.487584 46.891697 0.099187
0.802305 46.891697 0.099224
1.117026 46.891697 0.099158
1.431747 46.891697 0.099375
1.746467 46.891697 0.099761
2.061188 46.891697 0.099898
2.375909 46.891697 0.100214
2.690630 46.891697 0.100798
3.005352 46.891697 0.101100
3.320073 46.891697 0.101510
3.634794 46.891697 0.102610
3.949515 46.891697 0.103984
4.264236 46.891697 0.105528
4.578956 46.891697 0.107292
4.893677 46.891697 0.109410
5.208398 46.891697 0.112265
5.523119 46.891697 0.116389
5.837841 46.891697 0.121263
6.152562 46.891697 0.127008
6.467283 46.891697 0.134125
6.782003 46.891697 0.143519
7.096724 46.891697 0.154277
7.411445 46.891697 0.174812
7.726166 46.891697 0.207588
8.040888 46.891697 0.267251
8.355608 46.891697 0.362485
8.670330 46.891697 0.515826
8.985050 46.891697 0.727660
9.299772 46.891697 0.978115
9.614492 46.891697 1.244072
9.929214 46.891697 1.503948
10.243935 46.891697 1.755176
10.558655 46.891697 2.051571
10.873377 46.891697 2.268509
11.188097 46.891697 2.469871
11.502819 46.891697 2.647976
11.817539 46.891697 2.801470
12.132261 46.891697 2.926148
12.446981 46.891697 3.013029
12.761703 46.891697 3.033680
13.076424 46.891697 2.999200
13.391144 46.891697 2.960730
13.705866 46.891697 2.908839
14.020586 46.891697 2.846071
14.335308 46.891697 2.707590
14.650028 46.891697 2.531310
14.964750 46.891697 2.316789
15.279470 46.891697 2.097553
15.594193 46.891697 1.895244
15.908913 46.891697 1.679949
16.223633 46.891697 1.538213
16.538355 46.891697 1.467826
16.853075 46.891697 1.451451
17.167797 46.891697 1.536572
17.482517 46.891697 1.876150
17.797239 46.891697 2.461433
18.111959 46.891697 3.252977
18.426680 46.891697 4.510719
18.741402 46.891697 3.884545
-7.065720 46.576977 0.000000
-6.750999 46.576977 0.000000
-6.436278 46.576977 0.099421
-6.121557 46.576977 0.098188
-5.806836 46.576977 0.097980
-5.492115 46.576977 0.097584
-5.177394 46.576977 0.097017
-4.862673 46.576977 0.097100
-4.547952 46.576977 0.097233
-4.233231 46.576977 0.097003
-3.918510 46.576977 0.096478
-3.603789 46.576977 0.096091
-3.289068 46.576977 0.096010
-2.974347 46.576977 0.096109
-2.659626 46.576977 0.095941
-2.344905 46.576977 0.095670
-2.030184 46.576977 0.095681
-1.715463 46.576977 0.095923
-1.400742 46.576977 0.096392
-1.086021 46.576977 0.096799
-0.771300 46.576977 0.096978
-0.456579 46.576977 0.097070
-0.141859 46.576977 0.097402
0.172863 46.576977 0.097809
0.487584 46.576977 0.098126
0.802305 46.576977 0.098273
1.117026 46.576977 0.098399
1.431747 46.576977 0.098653
1.746467 46.576977 0.098810
2.061188 46.576977 0.098765
2.375909 46.576977 0.099077
2.690630 46.576977 0.099918
3.005352 46.576977 0.100548
3.320073 46.576977 0.100999
3.634794 46.576977 0.101953
3.949515 46.576977 0.103240
4.264236 46.576977 0.104883
4.578956 46.576977 0.106713
4.893677 46.576977 0.108783
5.208398 46.576977 0.111569
5.523119 46.576977 0.115673
5.837841 46.576977 0.120688
6.152562 46.576977 0.126154
6.467283 46.576977 0.132903
6.782003 46.576977 0.140813
7.096724 46.576977 0.152270
7.411445 46.576977 0.170139
7.726166 46.576977 0.205502
8.040888 46.576977 0.265798
8.355608 46.576977 0.360800
8.670330 46.576977 0.509887
8.985050 46.576977 0.718945
9.299772 46.576977 0.970101
9.614492 46.576977 1.230560
9.929214 46.576977 1.483142
10.243935 46.576977 1.752271
10.558655 46.576977 2.007555
10.873377 46.576977 2.239578
11.188097 46.576977 2.443132
11.502819 46.576977 2.612909
11.817539 46.576977 2.757720
12.132261 46.576977 2.869109
12.446981 46.576977 2.959619
12.761703 46.576977 2.994056
13.076424 46.576977 2.960365
13.391144 46.576977 2.915543
13.705866 46.576977 2.872292
14.020586 46.576977 2.793475
14.335308 46.576977 2.646013
14.650028 46.576977 2.497966
14.964750 46.576977 2.275588
15.279470 46.576977 2.060563
15.594193 46.576977 1.836983
15.908913 46.576977 1.630823
16.223633 46.576977 1.504068
16.538355 46.576977 1.420230
16.853075 46.576977 1.420670
17.167797 46.576977 1.580919
17.482517 46.576977 1.937126
17.797239 46.576977 2.636328
18.111959 46.576977 3.681972
18.426680 46.576977 5.199134
18.741402 46.576977 4.608988
-7.065720 46.262253 0.000000
-6.750999 46.262253 0.000000
-6.436278 46.262253 0.098598
-6.121557 46.262253 0.097467
-5.806836 46.262253 0.097530
-5.492115 46.262253 0.097358
-5.177394 46.262253 0.097019
-4.862673 46.262253 0.097153
-4.547952 46.262253 0.097445
-4.233231 46.262253 0.097426
-3.918510 46.262253 0.097022
-3.603789 46.262253 0.096672
-3.289068 46.262253 0.096635
-2.974347 46.262253 0.096480
-2.659626 46.262253 0.096040
-2.344905 46.262253 0.095555
-2.030184 46.262253 0.095571
-1.715463 46.262253 0.095768
-1.400742 46.262253 0.096075
-1.086021 46.262253 0.096337
-0.771300 46.262253 0.096497
-0.456579 46.262253 0.096604
-0.141859 46.262253 0.096963
0.172863 46.262253 0.097419
0.487584 46.262253 0.097760
0.802305 46.262253 0.098003
1.117026 46.262253 0.098201
1.431747 46.262253 0.098403
1.746467 46.262253 0.098428
2.061188 46.262253 0.098286
2.375909 46.262253 0.098576
2.690630 46.262253 0.099556
3.005352 46.262253 0.100501
3.320073 46.262253 0.101083
3.634794 46.262253 0.101766
3.949515 46.262253 0.102947
4.264236 46.262253 0.104659
4.578956 46.262253 0.106573
4.893677 46.262253 0.108716
5.208398 46.262253 0.111660
5.523119 46.262253 0.115709
5.837841 46.262253 0.120547
6.152562 46.262253 0.126199
6.467283 46.262253 0.132524
6.782003 46.262253 0.140591
7.096724 46.262253 0.151342
7.411445 46.262253 0.169738
7.726166 46.262253 0.205159
8.040888 46.262253 0.260751
8.355608 46.262253 0.357336
8.670330 46.262253 0.497002
8.985050 46.262253 0.700378
9.299772 46.262253 0.952507
9.614492 46.262253 1.225829
9.929214 46.262253 1.489317
10.243935 46.262253 1.757109
10.558655 46.262253 2.007786
10.873377 46.262253 2.237837
11.188097 46.262253 2.438472
11.502819 46.262253 2.598347
11.817539 46.262253 2.741434
12.132261 46.262253 2.845015
12.446981 46.262253 2.935693
12.761703 46.262253 2.971087
13.076424 46.262253 2.955600
13.391144 46.262253 2.931622
13.705866 46.262253 2.874538
14.020586 46.262253 2.771202
14.335308 46.262253 2.626277
14.650028 46.262253 2.464912
14.964750 46.262253 2.252264
15.279470 46.262253 2.027195
15.594193 46.262253 1.805599
15.908913 46.262253 1.610438
16.223633 46.262253 1.506955
16.538355 46.262253 1.430913
16.853075 46.262253 1.445239
17.167797 46.262253 1.616097
17.482517 46.262253 2.087336
17.797239 46.262253 2.819076
18.111959 46.262253 4.129057
18.426680 46.262253 5.632501
18.741402 46.262253 4.954441
-7.065720 45.947533 0.000000
-6.750999 45.947533 0.000000
-6.436278 45.947533 0.098023
-6.121557 45.947533 0.096867
-5.806836 45.947533 0.097029
-5.492115 45.947533 0.097082
-5.177394 45.947533 0.096910
-4.862673 45.947533 0.097091
-4.547952 45.947533 0.097425
-4.233231 45.947533 0.097539
-3.918510 45.947533 0.097225
-3.603789 45.947533 0.097014
-3.289068 45.947533 0.097037
-2.974347 45.947533 0.096794
-2.659626 45.947533 0.096219
-2.344905 45.947533 0.095762
-2.030184 45.947533 0.095767
-1.715463 45.947533 0.095946
-1.400742 45.947533 0.096077
-1.086021 45.947533 0.096141
-0.771300 45.947533 0.096183
-0.456579 45.947533 0.096371
-0.141859 45.947533 0.096832
0.172863 45.947533 0.097353
0.487584 45.947533 0.097720
0.802305 45.947533 0.097978
1.117026 45.947533 0.098155
1.431747 45.947533 0.098280
1.746467 45.947533 0.098166
2.061188 45.947533 0.098018
2.375909 45.947533 0.098291
2.690630 45.947533 0.099304
3.005352 45.947533 0.100531
3.320073 45.947533 0.101182
3.634794 45.947533 0.101627
3.949515 45.947533 0.102755
4.264236 45.947533 0.104549
4.578956 45.947533 0.106562
4.893677 45.947533 0.108783
5.208398 45.947533 0.111812
5.523119 45.947533 0.115683
5.837841 45.947533 0.120820
6.152562 45.947533 0.126568
6.467283 45.947533 0.132906
6.782003 45.947533 0.141304
7.096724 45.947533 0.152775
7.411445 45.947533 0.170472
7.726166 45.947533 0.203772
8.040888 45.947533 0.262124
8.355608 45.947533 0.357471
8.670330 45.947533 0.496768
8.985050 45.947533 0.697697
9.299772 45.947533 0.963580
9.614492 45.947533 1.237659
9.929214 45.947533 1.492384
10.243935 45.947533 1.757972
10.558655 45.947533 2.007153
10.873377 45.947533 2.249947
11.188097 45.947533 2.441090
11.502819 45.947533 2.600331
11.817539 45.947533 2.728851
12.132261 45.947533 2.836892
12.446981 45.947533 2.933172
12.761703 45.947533 2.960609
13.076424 45.947533 2.950708
13.391144 45.947533 2.932452
13.705866 45.947533 2.868906
14.020586 45.947533 2.775388
14.335308 45.947533 2.637117
14.650028 45.947533 2.453802
14.964750 45.947533 2.246312
15.279470 45.947533 2.022652
15.594193 45.947533 1.795275
15.908913 45.947533 1.607375
16.223633 45.947533 1.493735
16.538355 45.947533 1.448857
16.853075 45.947533 1.489403
17.167797 45.947533 1.765306
17.482517 45.947533 2.281648
17.797239 45.947533 3.154906
18.111959 45.947533 4.555524
18.426680 45.947533 6.065033
18.741402 45.947533 5.316974
-7.065720 45.632813 0.000000
-6.750999 45.632813 0.000000
-6.436278 45.632813 0.097370
-6.121557 45.632813 0.096260
-5.806836 45.632813 0.096568
-5.492115 45.632813 0.096823
-5.177394 45.632813 0.096667
-4.862673 45.632813 0.096778
-4.547952 45.632813 0.097088
-4.233231 45.632813 0.097184
-3.918510 45.632813 0.096987
-3.603789 45.632813 0.096904
-3.289068 45.632813 0.096988
-2.974347 45.632813 0.096757
-2.659626 45.632813 0.096225
-2.344905 45.632813 0.096005
-2.030184 45.632813 0.096084
-1.715463 45.632813 0.096302
-1.400742 45.632813 0.096281
-1.086021 45.632813 0.096044
-0.771300 45.632813 0.096051
-0.456579 45.632813 0.096348
-0.141859 45.632813 0.096833
0.172863 45.632813 0.097359
0.487584 45.632813 0.097768
0.802305 45.632813 0.098008
1.117026 45.632813 0.098138
1.431747 45.632813 0.098068
1.746467 45.632813 0.097916
2.061188 45.632813 0.097844
2.375909 45.632813 0.098093
2.690630 45.632813 0.099022
3.005352 45.632813 0.100359
3.320073 45.632813 0.101041
3.634794 45.632813 0.101387
3.949515 45.632813 0.102510
4.264236 45.632813 0.104400
4.578956 45.632813 0.106462
4.893677 45.632813 0.108752
5.208398 45.632813 0.111812
5.523119 45.632813 0.115570
5.837841 45.632813 0.120560
6.152562 45.632813 0.126525
6.467283 45.632813 0.133724
6.782003 45.632813 0.141943
7.096724 45.632813 0.153319
7.411445 45.632813 0.171870
7.726166 45.632813 0.206391
8.040888 45.632813 0.263344
8.355608 45.632813 0.353255
8.670330 45.632813 0.495399
8.985050 45.632813 0.696773
9.299772 45.632813 0.964994
9.614492 45.632813 1.228673
9.929214 45.632813 1.489218
10.243935 45.632813 1.761879
10.558655 45.632813 2.030989
10.873377 45.632813 2.254922
11.188097 45.632813 2.452840
11.502819 45.632813 2.608472
11.817539 45.632813 2.741467
12.132261 45.632813 2.840387
12.446981 45.632813 2.918028
12.761703 45.632813 2.953863
13.076424 45.632813 2.956194
13.391144 45.632813 2.917823
13.705866 45.632813 2.853068
14.020586 45.632813 2.771039
14.335308 45.632813 2.632359
14.650028 45.632813 2.457942
14.964750 45.632813 2.249024
15.279470 45.632813 2.021795
15.594193 45.632813 1.791073
15.908913 45.632813 1.604149
16.223633 45.632813 1.485583
16.538355 45.632813 1.490719
16.853075 45.632813 1.599260
17.167797 45.632813 1.964883
17.482517 45.632813 2.610619
17.797239 45.632813 3.575343
18.111959 45.632813 5.062217
18.426680 45.632813 6.535646
18.741402 45.632813 5.480829
-7.065720 45.318092 0.000000
-6.750999 45.318092 0.000000
-6.436278 45.318092 0.096827
-6.121557 45.318092 0.095888
-5.806836 45.318092 0.096370
-5.492115 45.318092 0.096607
-5.177394 45.318092 0.096434
-4.862673 45.318092 0.096364
-4.547952 45.318092 0.096606
-4.233231 45.318092 0.096731
-3.918510 45.318092 0.096586
-3.603789 45.318092 0.096544
-3.289068 45.318092 0.096639
-2.974347 45.318092 0.096359
-2.659626 45.318092 0.096064
-2.344905 45.318092 0.096059
-2.030184 45.318092 0.096220
-1.715463 45.318092 0.096484
-1.400742 45.318092 0.096404
-1.086021 45.318092 0.096077
-0.771300 45.318092 0.096096
-0.456579 45.318092 0.096361
-0.141859 45.318092 0.096866
0.172863 45.318092 0.097385
0.487584 45.318092 0.097824
0.802305 45.318092 0.098007
1.117026 45.318092 0.098129
1.431747 45.318092 0.097961
1.746467 45.318092 0.097818
2.061188 45.318092 0.097809
2.375909 45.318092 0.098006
2.690630 45.318092 0.098776
3.005352 45.318092 0.100028
3.320073 45.318092 0.100738
3.634794 45.318092 0.101099
3.949515 45.318092 0.102183
4.264236 45.318092 0.104095
4.578956 45.318092 0.106280
4.893677 45.318092 0.108610
5.208398 45.318092 0.111491
5.523119 45.318092 0.115008
5.837841 45.318092 0.119995
6.152562 45.318092 0.126235
6.467283 45.318092 0.133619
6.782003 45.318092 0.142515
7.096724 45.318092 0.153740
7.411445 45.318092 0.172940
7.726166 45.318092 0.206554
8.040888 45.318092 0.257182
8.355608 45.318092 0.349861
8.670330 45.318092 0.491333
8.985050 45.318092 0.700867
9.299772 45.318092 0.948013
9.614492 45.318092 1.216813
9.929214 45.318092 1.486294
10.243935 45.318092 1.765468
10.558655 45.318092 2.036692
10.873377 45.318092 2.261089
11.188097 45.318092 2.449888
11.502819 45.318092 2.606058
11.817539 45.318092 2.751979
12.132261 45.318092 2.856884
12.446981 45.318092 2.925084
12.761703 45.318092 2.950860
13.076424 45.318092 2.957608
13.391144 45.318092 2.917573
13.705866 45.318092 2.861315
14.020586 45.318092 2.783393
14.335308 45.318092 2.634939
14.650028 45.318092 2.461107
14.964750 45.318092 2.231458
15.279470 45.318092 2.024353
15.594193 45.318092 1.803986
15.908913 45.318092 1.608909
16.223633 45.318092 1.514619
16.538355 45.318092 1.608515
16.853075 45.318092 1.905210
17.167797 45.318092 2.410730
17.482517 45.318092 3.151565
17.797239 45.318092 4.399219
18.111959 45.318092 5.744584
18.426680 45.318092 6.968185
18.741402 45.318092 5.853191
-7.065720 45.003372 0.000000
-6.750999 45.003372 0.000000
-6.436278 45.003372 0.096578
-6.121557 45.003372 0.095833
-5.806836 45.003372 0.096305
-5.492115 45.003372 0.096471
-5.177394 45.003372 0.096234
-4.862673 45.003372 0.096028
-4.547952 45.003372 0.096158
-4.233231 45.003372 0.096210
-3.918510 45.003372 0.096117
-3.603789 45.003372 0.096128
-3.289068 45.003372 0.096161
-2.974347 45.003372 0.095906
-2.659626 45.003372 0.095775
-2.344905 45.003372 0.095909
-2.030184 45.003372 0.096053
-1.715463 45.003372 0.096329
-1.400742 45.003372 0.096330
-1.086021 45.003372 0.096067
-0.771300 45.003372 0.096067
-0.456579 45.003372 0.096307
-0.141859 45.003372 0.096808
0.172863 45.003372 0.097413
0.487584 45.003372 0.097812
0.802305 45.003372 0.098033
1.117026 45.003372 0.098213
1.431747 45.003372 0.098054
1.746467 45.003372 0.097906
2.061188 45.003372 0.098010
2.375909 45.003372 0.098169
2.690630 45.003372 0.098747
3.005352 45.003372 0.099729
3.320073 45.003372 0.100411
3.634794 45.003372 0.100883
3.949515 45.003372 0.101941
4.264236 45.003372 0.103786
4.578956 45.003372 0.105913
4.893677 45.003372 0.108256
5.208398 45.003372 0.111004
5.523119 45.003372 0.114418
5.837841 45.003372 0.119603
6.152562 45.003372 0.125958
6.467283 45.003372 0.133821
6.782003 45.003372 0.143117
7.096724 45.003372 0.154044
7.411445 45.003372 0.174474
7.726166 45.003372 0.206845
8.040888 45.003372 0.258589
8.355608 45.003372 0.350962
8.670330 45.003372 0.496518
8.985050 45.003372 0.704773
9.299772 45.003372 0.945313
9.614492 45.003372 1.208929
9.929214 45.003372 1.476568
10.243935 45.003372 1.762025
10.558655 45.003372 2.014852
10.873377 45.003372 2.266710
11.188097 45.003372 2.449973
11.502819 45.003372 2.619923
11.817539 45.003372 2.770887
12.132261 45.003372 2.879793
12.446981 45.003372 2.947034
12.761703 45.003372 2.970390
13.076424 45.003372 2.965579
13.391144 45.003372 2.922135
13.705866 45.003372 2.866616
14.020586 45.003372 2.795419
14.335308 45.003372 2.639436
14.650028 45.003372 2.449233
14.964750 45.003372 2.223200
15.279470 45.003372 2.017797
15.594193 45.003372 1.815074
15.908913 45.003372 1.629386
16.223633 45.003372 1.589258
16.538355 45.003372 1.754333
16.853075 45.003372 2.454068
17.167797 45.003372 3.280204
17.482517 45.003372 4.140904
17.797239 45.003372 5.220362
18.111959 45.003372 6.305169
18.426680 45.003372 7.479455
18.741402 45.003372 6.063370
-7.065720 44.688648 0.000000
-6.750999 44.688648 0.000000
-6.436278 44.688648 0.096589
-6.121557 44.688648 0.095908
-5.806836 44.688648 0.096310
-5.492115 44.688648 0.096398
-5.177394 44.688648 0.096131
-4.862673 44.688648 0.095835
-4.547952 44.688648 0.095837
-4.233231 44.688648 0.095844
-3.918510 44.688648 0.095879
-3.603789 44.688648 0.095797
-3.289068 44.688648 0.095734
-2.974347 44.688648 0.095555
-2.659626 44.688648 0.095560
-2.344905 44.688648 0.095783
-2.030184 44.688648 0.095866
-1.715463 44.688648 0.095969
-1.400742 44.688648 0.095990
-1.086021 44.688648 0.095818
-0.771300 44.688648 0.095851
-0.456579 44.688648 0.096148
-0.141859 44.688648 0.096699
0.172863 44.688648 0.097273
0.487584 44.688648 0.097665
0.802305 44.688648 0.097948
1.117026 44.688648 0.098233
1.431747 44.688648 0.098176
1.746467 44.688648 0.098153
2.061188 44.688648 0.098400
2.375909 44.688648 0.098557
2.690630 44.688648 0.098889
3.005352 44.688648 0.099583
3.320073 44.688648 0.100154
3.634794 44.688648 0.100699
3.949515 44.688648 0.101681
4.264236 44.688648 0.103264
4.578956 44.688648 0.105323
4.893677 44.688648 0.107646
5.208398 44.688648 0.110297
5.523119 44.688648 0.113766
5.837841 44.688648 0.118737
6.152562 44.688648 0.125490
6.467283 44.688648 0.133450
6.782003 44.688648 0.143606
7.096724 44.688648 0.154807
7.411445 44.688648 0.173700
7.726166 44.688648 0.205924
8.040888 44.688648 0.256092
8.355608 44.688648 0.349591
8.670330 44.688648 0.495366
8.985050 44.688648 0.699549
9.299772 44.688648 0.939095
9.614492 44.688648 1.208833
9.929214 44.688648 1.486994
10.243935 44.688648 1.757317
10.558655 44.688648 2.014838
10.873377 44.688648 2.273783
11.188097 44.688648 2.463017
11.502819 44.688648 2.638385
11.817539 44.688648 2.795096
12.132261 44.688648 2.905170
12.446981 44.688648 2.955557
12.761703 44.688648 2.970836
13.076424 44.688648 2.974641
13.391144 44.688648 2.930708
13.705866 44.688648 2.880596
14.020586 44.688648 2.794877
14.335308 44.688648 2.632337
14.650028 44.688648 2.446038
14.964750 44.688648 2.222568
15.279470 44.688648 2.012696
15.594193 44.688648 1.809982
15.908913 44.688648 1.640270
16.223633 44.688648 1.661868
16.538355 44.688648 2.049334
16.853075 44.688648 3.246655
17.167797 44.688648 4.678013
17.482517 44.688648 5.338071
17.797239 44.688648 5.999988
18.111959 44.688648 6.908994
18.426680 44.688648 7.763301
18.741402 44.688648 5.810560
-7.065720 44.373928 0.000000
-6.750999 44.373928 0.000000
-6.436278 44.373928 0.096709
-6.121557 44.373928 0.096044
-5.806836 44.373928 0.096300
-5.492115 44.373928 0.096356
-5.177394 44.373928 0.096124
-4.862673 44.373928 0.095828
-4.547952 44.373928 0.095630
-4.233231 44.373928 0.095677
-3.918510 44.373928 0.095884
-3.603789 44.373928 0.095844
-3.289068 44.373928 0.095663
-2.974347 44.373928 0.095478
-2.659626 44.373928 0.095576
-2.344905 44.373928 0.095729
-2.030184 44.373928 0.095571
-1.715463 44.373928 0.095468
-1.400742 44.373928 0.095498
-1.086021 44.373928 0.095423
-0.771300 44.373928 0.095537
-0.456579 44.373928 0.095903
-0.141859 44.373928 0.096512
0.172863 44.373928 0.096950
0.487584 44.373928 0.097353
0.802305 44.373928 0.097808
1.117026 44.373928 0.098201
1.431747 44.373928 0.098306
1.746467 44.373928 0.098504
2.061188 44.373928 0.098810
2.375909 44.373928 0.099021
2.690630 44.373928 0.099233
3.005352 44.373928 0.099620
3.320073 44.373928 0.100068
3.634794 44.373928 0.100656
3.949515 44.373928 0.101562
4.264236 44.373928 0.102785
4.578956 44.373928 0.104655
4.893677 44.373928 0.107083
5.208398 44.373928 0.109768
5.523119 44.373928 0.113387
5.837841 44.373928 0.118214
6.152562 44.373928 0.124692
6.467283 44.373928 0.132647
6.782003 44.373928 0.143068
7.096724 44.373928 0.155419
7.411445 44.373928 0.173398
7.726166 44.373928 0.204486
8.040888 44.373928 0.256662
8.355608 44.373928 0.345121
8.670330 44.373928 0.495207
8.985050 44.373928 0.693854
9.299772 44.373928 0.942297
9.614492 44.373928 1.217447
9.929214 44.373928 1.484933
10.243935 44.373928 1.758015
10.558655 44.373928 2.021303
10.873377 44.373928 2.273413
11.188097 44.373928 2.464598
11.502819 44.373928 2.652919
11.817539 44.373928 2.793677
12.132261 44.373928 2.905180
12.446981 44.373928 2.960831
12.761703 44.373928 2.982675
13.076424 44.373928 2.988719
13.391144 44.373928 2.944722
13.705866 44.373928 2.888181
14.020586 44.373928 2.804277
14.335308 44.373928 2.639641
14.650028 44.373928 2.459893
14.964750 44.373928 2.229857
15.279470 44.373928 2.008343
15.594193 44.373928 1.805388
15.908913 44.373928 1.680274
16.223633 44.373928 1.700690
16.538355 44.373928 2.336873
16.853075 44.373928 4.088778
17.167797 44.373928 5.918436
17.482517 44.373928 6.425191
17.797239 44.373928 6.783677
18.111959 44.373928 7.159178
18.426680 44.373928 8.019722
18.741402 44.373928 6.080108
-7.065720 44.059208 0.000000
-6.750999 44.059208 0.000000
-6.436278 44.059208 0.096795
-6.121557 44.059208 0.096080
-5.806836 44.059208 0.096273
-5.492115 44.059208 0.096355
-5.177394 44.059208 0.096141
-4.862673 44.059208 0.095879
-4.547952 44.059208 0.095740
-4.233231 44.059208 0.095811
-3.918510 44.059208 0.096124
-3.603789 44.059208 0.096158
-3.289068 44.059208 0.095816
-2.974347 44.059208 0.095717
-2.659626 44.059208 0.095907
-2.344905 44.059208 0.095893
-2.030184 44.059208 0.095352
-1.715463 44.059208 0.094982
-1.400742 44.059208 0.094986
-1.086021 44.059208 0.095040
-0.771300 44.059208 0.095155
-0.456579 44.059208 0.095590
-0.141859 44.059208 0.096182
0.172863 44.059208 0.096538
0.487584 44.059208 0.096912
0.802305 44.059208 0.097421
1.117026 44.059208 0.098005
1.431747 44.059208 0.098369
1.746467 44.059208 0.098817
2.061188 44.059208 0.099258
2.375909 44.059208 0.099639
2.690630 44.059208 0.099748
3.005352 44.059208 0.099804
3.320073 44.059208 0.100149
3.634794 44.059208 0.100726
3.949515 44.059208 0.101478
4.264236 44.059208 0.102388
4.578956 44.059208 0.104180
4.893677 44.059208 0.106531
5.208398 44.059208 0.109257
5.523119 44.059208 0.112933
5.837841 44.059208 0.117747
6.152562 44.059208 0.124313
6.467283 44.059208 0.131815
6.782003 44.059208 0.142083
7.096724 44.059208 0.154408
7.411445 44.059208 0.172349
7.726166 44.059208 0.204413
8.040888 44.059208 0.258814
8.355608 44.059208 0.352435
8.670330 44.059208 0.490320
8.985050 44.059208 0.689043
9.299772 44.059208 0.937834
9.614492 44.059208 1.210875
9.929214 44.059208 1.487707
10.243935 44.059208 1.754519
10.558655 44.059208 2.037666
10.873377 44.059208 2.267420
11.188097 44.059208 2.466564
11.502819 44.059208 2.630263
11.817539 44.059208 2.784455
12.132261 44.059208 2.893565
12.446981 44.059208 2.954307
12.761703 44.059208 2.992794
13.076424 44.059208 3.019814
13.391144 44.059208 2.980236
13.705866 44.059208 2.905398
14.020586 44.059208 2.803613
14.335308 44.059208 2.645979
14.650028 44.059208 2.447900
14.964750 44.059208 2.241515
15.279470 44.059208 2.027359
15.594193 44.059208 1.805489
15.908913 44.059208 1.668479
16.223633 44.059208 1.756510
16.538355 44.059208 2.474187
16.853075 44.059208 4.230633
17.167797 44.059208 6.126979
17.482517 44.059208 6.844488
17.797239 44.059208 6.888195
18.111959 44.059208 7.320755
18.426680 44.059208 8.131776
18.741402 44.059208 6.185015
-7.065720 43.744488 0.000000
-6.750999 43.744488 0.000000
-6.436278 43.744488 0.096801
-6.121557 43.744488 0.095964
-5.806836 43.744488 0.096103
-5.492115 43.744488 0.096212
-5.177394 43.744488 0.096152
-4.862673 43.744488 0.096025
-4.547952 43.744488 0.095964
-4.233231 43.744488 0.096103
-3.918510 43.744488 0.096422
-3.603789 43.744488 0.096524
-3.289068 43.744488 0.096282
-2.974347 43.744488 0.096177
-2.659626 43.744488 0.096328
-2.344905 43.744488 0.096118
-2.030184 43.744488 0.095354
-1.715463 43.744488 0.094807
-1.400742 43.744488 0.094733
-1.086021 43.744488 0.094745
-0.771300 43.744488 0.094869
-0.456579 43.744488 0.095195
-0.141859 43.744488 0.095714
0.172863 43.744488 0.095976
0.487584 43.744488 0.096328
0.802305 43.744488 0.096888
1.117026 43.744488 0.097608
1.431747 43.744488 0.098315
1.746467 43.744488 0.098919
2.061188 43.744488 0.099486
2.375909 43.744488 0.100140
2.690630 43.744488 0.100276
3.005352 43.744488 0.100050
3.320073 43.744488 0.100276
3.634794 43.744488 0.100870
3.949515 43.744488 0.101438
4.264236 43.744488 0.102273
4.578956 43.744488 0.103844
4.893677 43.744488 0.105958
5.208398 43.744488 0.108823
5.523119 43.744488 0.112227
5.837841 43.744488 0.117410
6.152562 43.744488 0.123711
6.467283 43.744488 0.131117
6.782003 43.744488 0.140649
7.096724 43.744488 0.152719
7.411445 43.744488 0.172439
7.726166 43.744488 0.205619
8.040888 43.744488 0.262306
8.355608 43.744488 0.353846
8.670330 43.744488 0.490490
8.985050 43.744488 0.684980
9.299772 43.744488 0.939151
9.614492 43.744488 1.210431
9.929214 43.744488 1.484634
10.243935 43.744488 1.750295
10.558655 43.744488 2.038667
10.873377 43.744488 2.280388
11.188097 43.744488 2.470913
11.502819 43.744488 2.637482
11.817539 43.744488 2.780219
12.132261 43.744488 2.877889
12.446981 43.744488 2.953312
12.761703 43.744488 3.002174
13.076424 43.744488 3.020077
13.391144 43.744488 2.986572
13.705866 43.744488 2.914464
14.020586 43.744488 2.823131
14.335308 43.744488 2.653070
14.650028 43.744488 2.469601
14.964750 43.744488 2.244819
15.279470 43.744488 2.038084
15.594193 43.744488 1.798321
15.908913 43.744488 1.672552
16.223633 43.744488 1.740783
16.538355 43.744488 2.270890
16.853075 43.744488 3.726795
17.167797 43.744488 5.525499
17.482517 43.744488 6.404409
17.797239 43.744488 6.590107
18.111959 43.744488 7.099248
18.426680 43.744488 8.072066
18.741402 43.744488 5.798912
-7.065720 43.429764 0.000000
-6.750999 43.429764 0.000000
-6.436278 43.429764 0.096680
-6.121557 43.429764 0.095708
-5.806836 43.429764 0.095863
-5.492115 43.429764 0.095996
-5.177394 43.429764 0.096103
-4.862673 43.429764 0.096141
-4.547952 43.429764 0.096251
-4.233231 43.429764 0.096474
-3.918510 43.429764 0.096874
-3.603789 43.429764 0.097001
-3.289068 43.429764 0.096856
-2.974347 43.429764 0.096771
-2.659626 43.429764 0.096861
-2.344905 43.429764 0.096463
-2.030184 43.429764 0.095494
-1.715463 43.429764 0.094855
-1.400742 43.429764 0.094746
-1.086021 43.429764 0.094748
-0.771300 43.429764 0.094718
-0.456579 43.429764 0.094769
-0.141859 43.429764 0.095109
0.172863 43.429764 0.095415
0.487584 43.429764 0.095711
0.802305 43.429764 0.096295
1.117026 43.429764 0.097095
1.431747 43.429764 0.098017
1.746467 43.429764 0.098772
2.061188 43.429764 0.099462
2.375909 43.429764 0.100390
2.690630 43.429764 0.100661
3.005352 43.429764 0.100364
3.320073 43.429764 0.100612
3.634794 43.429764 0.101171
3.949515 43.429764 0.101595
4.264236 43.429764 0.102323
4.578956 43.429764 0.103737
4.893677 43.429764 0.105819
5.208398 43.429764 0.108460
5.523119 43.429764 0.111717
5.837841 43.429764 0.116549
6.152562 43.429764 0.122924
6.467283 43.429764 0.130296
6.782003 43.429764 0.139855
7.096724 43.429764 0.152485
7.411445 43.429764 0.171248
7.726166 43.429764 0.205515
8.040888 43.429764 0.261358
8.355608 43.429764 0.351676
8.670330 43.429764 0.490826
8.985050 43.429764 0.695021
9.299772 43.429764 0.945182
9.614492 43.429764 1.216192
9.929214 43.429764 1.472701
10.243935 43.429764 1.732867
10.558655 43.429764 2.022726
10.873377 43.429764 2.273109
11.188097 43.429764 2.465104
11.502819 43.429764 2.644758
11.817539 43.429764 2.792644
12.132261 43.429764 2.890867
12.446981 43.429764 2.945736
12.761703 43.429764 3.000385
13.076424 43.429764 3.022964
13.391144 43.429764 2.992854
13.705866 43.429764 2.914256
14.020586 43.429764 2.818338
14.335308 43.429764 2.656582
14.650028 43.429764 2.470174
14.964750 43.429764 2.255776
15.279470 43.429764 2.033732
15.594193 43.429764 1.802235
15.908913 43.429764 1.657507
16.223633 43.429764 1.724425
16.538355 43.429764 2.082373
16.853075 43.429764 2.996076
17.167797 43.429764 4.593007
17.482517 43.429764 5.724515
17.797239 43.429764 6.168960
18.111959 43.429764 6.900660
18.426680 43.429764 7.690253
18.741402 43.429764 5.511921
-7.065720 43.115044 0.000000
-6.750999 43.115044 0.000000
-6.436278 43.115044 0.096533
-6.121557 43.115044 0.095437
-5.806836 43.115044 0.095474
-5.492115 43.115044 0.095643
-5.177394 43.115044 0.095882
-4.862673 43.115044 0.096122
-4.547952 43.115044 0.096459
-4.233231 43.115044 0.096870
-3.918510 43.115044 0.097265
-3.603789 43.115044 0.097442
-3.289068 43.115044 0.097388
-2.974347 43.115044 0.097354
-2.659626 43.115044 0.097352
-2.344905 43.115044 0.096787
-2.030184 43.115044 0.095721
-1.715463 43.115044 0.095126
-1.400742 43.115044 0.095019
-1.086021 43.115044 0.094970
-0.771300 43.115044 0.094754
-0.456579 43.115044 0.094446
-0.141859 43.115044 0.094554
0.172863 43.115044 0.094857
0.487584 43.115044 0.095112
0.802305 43.115044 0.095604
1.117026 43.115044 0.096445
1.431747 43.115044 0.097532
1.746467 43.115044 0.098407
2.061188 43.115044 0.099229
2.375909 43.115044 0.100382
2.690630 43.115044 0.100910
3.005352 43.115044 0.100795
3.320073 43.115044 0.101149
3.634794 43.115044 0.101709
3.949515 43.115044 0.101931
4.264236 43.115044 0.102615
4.578956 43.115044 0.103924
4.893677 43.115044 0.105809
5.208398 43.115044 0.108161
5.523119 43.115044 0.111295
5.837841 43.115044 0.115602
6.152562 43.115044 0.122097
6.467283 43.115044 0.129786
6.782003 43.115044 0.138786
7.096724 43.115044 0.151420
7.411445 43.115044 0.171092
7.726166 43.115044 0.206589
8.040888 43.115044 0.258633
8.355608 43.115044 0.350776
8.670330 43.115044 0.491544
8.985050 43.115044 0.693973
9.299772 43.115044 0.938090
9.614492 43.115044 1.206736
9.929214 43.115044 1.463909
10.243935 43.115044 1.738226
10.558655 43.115044 2.032005
10.873377 43.115044 2.280485
11.188097 43.115044 2.476531
11.502819 43.115044 2.651016
11.817539 43.115044 2.792937
12.132261 43.115044 2.893063
12.446981 43.115044 2.953268
12.761703 43.115044 3.004277
13.076424 43.115044 3.019220
13.391144 43.115044 2.978337
13.705866 43.115044 2.925871
14.020586 43.115044 2.821665
14.335308 43.115044 2.662453
14.650028 43.115044 2.474310
14.964750 43.115044 2.256902
15.279470 43.115044 2.030447
15.594193 43.115044 1.816386
15.908913 43.115044 1.647497
16.223633 43.115044 1.675743
16.538355 43.115044 1.947356
16.853075 43.115044 2.511056
17.167797 43.115044 3.818925
17.482517 43.115044 5.122035
17.797239 43.115044 5.825620
18.111959 43.115044 6.579428
18.426680 43.115044 7.595440
18.741402 43.115044 5.128116
-7.065720 42.800323 0.000000
-6.750999 42.800323 0.000000
-6.436278 42.800323 0.096506
-6.121557 42.800323 0.095257
-5.806836 42.800323 0.095112
-5.492115 42.800323 0.095212
-5.177394 42.800323 0.095495
-4.862673 42.800323 0.095918
-4.547952 42.800323 0.096436
-4.233231 42.800323 0.096973
-3.918510 42.800323 0.097420
-3.603789 42.800323 0.097609
-3.289068 42.800323 0.097648
-2.974347 42.800323 0.097719
-2.659626 42.800323 0.097668
-2.344905 42.800323 0.097021
-2.030184 42.800323 0.096006
-1.715463 42.800323 0.095561
-1.400742 42.800323 0.095511
-1.086021 42.800323 0.095345
-0.771300 42.800323 0.094853
-0.456579 42.800323 0.094205
-0.141859 42.800323 0.094078
0.172863 42.800323 0.094307
0.487584 42.800323 0.094523
0.802305 42.800323 0.094968
1.117026 42.800323 0.095821
1.431747 42.800323 0.096907
1.746467 42.800323 0.097882
2.061188 42.800323 0.098850
2.375909 42.800323 0.100167
2.690630 42.800323 0.101006
3.005352 42.800323 0.101181
3.320073 42.800323 0.101646
3.634794 42.800323 0.102223
3.949515 42.800323 0.102636
4.264236 42.800323 0.103170
4.578956 42.800323 0.104364
4.893677 42.800323 0.105980
5.208398 42.800323 0.108090
5.523119 42.800323 0.110798
5.837841 42.800323 0.114838
6.152562 42.800323 0.121087
6.467283 42.800323 0.128958
6.782003 42.800323 0.138016
7.096724 42.800323 0.150710
7.411445 42.800323 0.169822
7.726166 42.800323 0.204528
8.040888 42.800323 0.259160
8.355608 42.800323 0.347814
8.670330 42.800323 0.495441
8.985050 42.800323 0.703176
9.299772 42.800323 0.948152
9.614492 42.800323 1.194470
9.929214 42.800323 1.467177
10.243935 42.800323 1.751904
10.558655 42.800323 2.026620
10.873377 42.800323 2.266067
11.188097 42.800323 2.464793
11.502819 42.800323 2.640888
11.817539 42.800323 2.781346
12.132261 42.800323 2.890422
12.446981 42.800323 2.964345
12.761703 42.800323 3.008368
13.076424 42.800323 3.022585
13.391144 42.800323 2.970898
13.705866 42.800323 2.912324
14.020586 42.800323 2.814317
14.335308 42.800323 2.653025
14.650028 42.800323 2.474914
14.964750 42.800323 2.264638
15.279470 42.800323 2.038420
15.594193 42.800323 1.811158
15.908913 42.800323 1.651863
16.223633 42.800323 1.666501
16.538355 42.800323 1.827224
16.853075 42.800323 2.394111
17.167797 42.800323 3.490432
17.482517 42.800323 4.673770
17.797239 42.800323 5.665794
18.111959 42.800323 6.251237
18.426680 42.800323 7.422164
18.741402 42.800323 5.144729
-7.065720 42.485603 0.000000
-6.750999 42.485603 0.000000
-6.436278 42.485603 0.096551
-6.121557 42.485603 0.095196
-5.806836 42.485603 0.094861
-5.492115 42.485603 0.094712
-5.177394 42.485603 0.094956
-4.862673 42.485603 0.095475
-4.547952 42.485603 0.096129
-4.233231 42.485603 0.096801
-3.918510 42.485603 0.097335
-3.603789 42.485603 0.097518
-3.289068 42.485603 0.097613
-2.974347 42.485603 0.097790
-2.659626 42.485603 0.097696
-2.344905 42.485603 0.097259
-2.030184 42.485603 0.096466
-1.715463 42.485603 0.096171
-1.400742 42.485603 0.096075
-1.086021 42.485603 0.095683
-0.771300 42.485603 0.094918
-0.456579 42.485603 0.093988
-0.141859 42.485603 0.093714
0.172863 42.485603 0.093884
0.487584 42.485603 0.094096
0.802305 42.485603 0.094476
1.117026 42.485603 0.095286
1.431747 42.485603 0.096392
1.746467 42.485603 0.097311
2.061188 42.485603 0.098348
2.375909 42.485603 0.099803
2.690630 42.485603 0.100917
3.005352 42.485603 0.101379
3.320073 42.485603 0.101985
3.634794 42.485603 0.102701
3.949515 42.485603 0.103323
4.264236 42.485603 0.103965
4.578956 42.485603 0.105116
4.893677 42.485603 0.106502
5.208398 42.485603 0.108283
5.523119 42.485603 0.110848
5.837841 42.485603 0.114582
6.152562 42.485603 0.120517
6.467283 42.485603 0.128039
6.782003 42.485603 0.137721
7.096724 42.485603 0.150045
7.411445 42.485603 0.169214
7.726166 42.485603 0.204160
8.040888 42.485603 0.257146
8.355608 42.485603 0.350339
8.670330 42.485603 0.497245
8.985050 42.485603 0.702601
9.299772 42.485603 0.956823
9.614492 42.485603 1.210572
9.929214 42.485603 1.470287
10.243935 42.485603 1.763602
10.558655 42.485603 2.025368
10.873377 42.485603 2.274560
11.188097 42.485603 2.465165
11.502819 42.485603 2.626940
11.817539 42.485603 2.779527
12.132261 42.485603 2.885144
12.446981 42.485603 2.963032
12.761703 42.485603 3.011943
13.076424 42.485603 3.018516
13.391144 42.485603 2.954112
13.705866 42.485603 2.886691
14.020586 42.485603 2.797414
14.335308 42.485603 2.650387
14.650028 42.485603 2.460299
14.964750 42.485603 2.267985
15.279470 42.485603 2.035678
15.594193 42.485603 1.821483
15.908913 42.485603 1.662942
16.223633 42.485603 1.648241
16.538355 42.485603 1.817593
16.853075 42.485603 2.331215
17.167797 42.485603 3.440296
17.482517 42.485603 4.630531
17.797239 42.485603 5.529462
18.111959 42.485603 6.305913
18.426680 42.485603 7.337862
18.741402 42.485603 5.549070
-7.065720 42.170883 0.000000
-6.750999 42.170883 0.000000
-6.436278 42.170883 0.096721
-6.121557 42.170883 0.095215
-5.806836 42.170883 0.094678
-5.492115 42.170883 0.094341
-5.177394 42.170883 0.094347
-4.862673 42.170883 0.094883
-4.547952 42.170883 0.095613
-4.233231 42.170883 0.096331
-3.918510 42.170883 0.096877
-3.603789 42.170883 0.097131
-3.289068 42.170883 0.097277
-2.974347 42.170883 0.097528
-2.659626 42.170883 0.097618
-2.344905 42.170883 0.097324
-2.030184 42.170883 0.096995
-1.715463 42.170883 0.096858
-1.400742 42.170883 0.096560
-1.086021 42.170883 0.095963
-0.771300 42.170883 0.095049
-0.456579 42.170883 0.094023
-0.141859 42.170883 0.093696
0.172863 42.170883 0.093709
0.487584 42.170883 0.093901
0.802305 42.170883 0.094214
1.117026 42.170883 0.094856
1.431747 42.170883 0.095805
1.746467 42.170883 0.096762
2.061188 42.170883 0.097787
2.375909 42.170883 0.099250
2.690630 42.170883 0.100625
3.005352 42.170883 0.101414
3.320073 42.170883 0.102107
3.634794 42.170883 0.103032
3.949515 42.170883 0.103990
4.264236 42.170883 0.104868
4.578956 42.170883 0.105985
4.893677 42.170883 0.107236
5.208398 42.170883 0.108617
5.523119 42.170883 0.110966
5.837841 42.170883 0.114676
6.152562 42.170883 0.120513
6.467283 42.170883 0.127687
6.782003 42.170883 0.136825
7.096724 42.170883 0.149286
7.411445 42.170883 0.167587
7.726166 42.170883 0.204210
8.040888 42.170883 0.257972
8.355608 42.170883 0.347751
8.670330 42.170883 0.493552
8.985050 42.170883 0.700780
9.299772 42.170883 0.953011
9.614492 42.170883 1.232553
9.929214 42.170883 1.478373
10.243935 42.170883 1.741359
10.558655 42.170883 2.017009
10.873377 42.170883 2.283140
11.188097 42.170883 2.473683
11.502819 42.170883 2.633183
11.817539 42.170883 2.763583
12.132261 42.170883 2.873272
12.446981 42.170883 2.962990
12.761703 42.170883 3.011799
13.076424 42.170883 3.004517
13.391144 42.170883 2.942141
13.705866 42.170883 2.879575
14.020586 42.170883 2.800076
14.335308 42.170883 2.654579
14.650028 42.170883 2.465915
14.964750 42.170883 2.264373
15.279470 42.170883 2.032482
15.594193 42.170883 1.822318
15.908913 42.170883 1.653173
16.223633 42.170883 1.645331
16.538355 42.170883 1.856479
16.853075 42.170883 2.377322
17.167797 42.170883 3.479591
17.482517 42.170883 4.724521
17.797239 42.170883 5.698773
18.111959 42.170883 6.604323
18.426680 42.170883 7.786252
18.741402 42.170883 5.504725
-7.065720 41.856159 0.000000
-6.750999 41.856159 0.000000
-6.436278 41.856159 0.096913
-6.121557 41.856159 0.095302
-5.806836 41.856159 0.094566
-5.492115 41.856159 0.094144
-5.177394 41.856159 0.093909
-4.862673 41.856159 0.094320
-4.547952 41.856159 0.094978
-4.233231 41.856159 0.095621
-3.918510 41.856159 0.096104
-3.603789 41.856159 0.096366
-3.289068 41.856159 0.096618
-2.974347 41.856159 0.097073
-2.659626 41.856159 0.097437
-2.344905 41.856159 0.097590
-2.030184 41.856159 0.097613
-1.715463 41.856159 0.097487
-1.400742 41.856159 0.096960
-1.086021 41.856159 0.096186
-0.771300 41.856159 0.095276
-0.456579 41.856159 0.094339
-0.141859 41.856159 0.093910
0.172863 41.856159 0.093750
0.487584 41.856159 0.093747
0.802305 41.856159 0.093999
1.117026 41.856159 0.094529
1.431747 41.856159 0.095245
1.746467 41.856159 0.096103
2.061188 41.856159 0.097129
2.375909 41.856159 0.098510
2.690630 41.856159 0.100033
3.005352 41.856159 0.101210
3.320073 41.856159 0.102081
3.634794 41.856159 0.103287
3.949515 41.856159 0.104638
4.264236 41.856159 0.105756
4.578956 41.856159 0.106792
4.893677 41.856159 0.107958
5.208398 41.856159 0.109283
5.523119 41.856159 0.111673
5.837841 41.856159 0.115440
6.152562 41.856159 0.120761
6.467283 41.856159 0.127751
6.782003 41.856159 0.136997
7.096724 41.856159 0.149129
7.411445 41.856159 0.168615
7.726166 41.856159 0.203025
8.040888 41.856159 0.258479
8.355608 41.856159 0.346978
8.670330 41.856159 0.492521
8.985050 41.856159 0.701018
9.299772 41.856159 0.947320
9.614492 41.856159 1.235522
9.929214 41.856159 1.498953
10.243935 41.856159 1.751167
10.558655 41.856159 2.041582
10.873377 41.856159 2.273681
11.188097 41.856159 2.466387
11.502819 41.856159 2.643981
11.817539 41.856159 2.778512
12.132261 41.856159 2.884103
12.446981 41.856159 2.956694
12.761703 41.856159 2.997255
13.076424 41.856159 3.007229
13.391144 41.856159 2.960546
13.705866 41.856159 2.872665
14.020586 41.856159 2.796444
14.335308 41.856159 2.663625
14.650028 41.856159 2.462280
14.964750 41.856159 2.260264
15.279470 41.856159 2.014721
15.594193 41.856159 1.790913
15.908913 41.856159 1.651519
16.223633 41.856159 1.640675
16.538355 41.856159 1.851553
16.853075 41.856159 2.431399
17.167797 41.856159 3.621564
17.482517 41.856159 5.010930
17.797239 41.856159 5.879280
18.111959 41.856159 7.025524
18.426680 41.856159 8.339435
18.741402 41.856159 6.353782
-7.065720 41.541439 0.000000
-6.750999 41.541439 0.000000
-6.436278 41.541439 0.097156
-6.121557 41.541439 0.095476
-5.806836 41.541439 0.094669
-5.492115 41.541439 0.094110
-5.177394 41.541439 0.093838
-4.862673 41.541439 0.093954
-4.547952 41.541439 0.094330
-4.233231 41.541439 0.094767
-3.918510 41.541439 0.095179
-3.603789 41.541439 0.095464
-3.289068 41.541439 0.095885
-2.974347 41.541439 0.096507
-2.659626 41.541439 0.097175
-2.344905 41.541439 0.097659
-2.030184 41.541439 0.098066
-1.715463 41.541439 0.097983
-1.400742 41.541439 0.097385
-1.086021 41.541439 0.096599
-0.771300 41.541439 0.095716
-0.456579 41.541439 0.094853
-0.141859 41.541439 0.094317
0.172863 41.541439 0.093945
0.487584 41.541439 0.093721
0.802305 41.541439 0.093882
1.117026 41.541439 0.094218
1.431747 41.541439 0.094702
1.746467 41.541439 0.095342
2.061188 41.541439 0.096355
2.375909 41.541439 0.097712
2.690630 41.541439 0.099320
3.005352 41.541439 0.100774
3.320073 41.541439 0.101958
3.634794 41.541439 0.103460
3.949515 41.541439 0.105126
4.264236 41.541439 0.106456
4.578956 41.541439 0.107487
4.893677 41.541439 0.108621
5.208398 41.541439 0.109862
5.523119 41.541439 0.112192
5.837841 41.541439 0.115872
6.152562 41.541439 0.120933
6.467283 41.541439 0.127901
6.782003 41.541439 0.137145
7.096724 41.541439 0.149159
7.411445 41.541439 0.169221
7.726166 41.541439 0.203873
8.040888 41.541439 0.257804
8.355608 41.541439 0.345627
8.670330 41.541439 0.488169
8.985050 41.541439 0.695808
9.299772 41.541439 0.955033
9.614492 41.541439 1.229189
9.929214 41.541439 1.505973
10.243935 41.541439 1.753173
10.558655 41.541439 2.039775
10.873377 41.541439 2.268312
11.188097 41.541439 2.462113
11.502819 41.541439 2.634700
11.817539 41.541439 2.779020
12.132261 41.541439 2.872243
12.446981 41.541439 2.940598
12.761703 41.541439 2.977163
13.076424 41.541439 3.003628
13.391144 41.541439 2.962557
13.705866 41.541439 2.878184
14.020586 41.541439 2.783056
14.335308 41.541439 2.656316
14.650028 41.541439 2.479347
14.964750 41.541439 2.257729
15.279470 41.541439 2.014884
15.594193 41.541439 1.786739
15.908913 41.541439 1.638499
16.223633 41.541439 1.649086
16.538355 41.541439 1.862068
16.853075 41.541439 2.506462
17.167797 41.541439 3.762842
17.482517 41.541439 5.070877
17.797239 41.541439 6.294611
18.111959 41.541439 7.318527
18.426680 41.541439 8.800303
18.741402 41.541439 8.198438
-7.065720 41.226719 0.000000
-6.750999 41.226719 0.000000
-6.436278 41.226719 0.097446
-6.121557 41.226719 0.095788
-5.806836 41.226719 0.094887
-5.492115 41.226719 0.094319
-5.177394 41.226719 0.093895
-4.862673 41.226719 0.093683
-4.547952 41.226719 0.093747
-4.233231 41.226719 0.093956
-3.918510 41.226719 0.094258
-3.603789 41.226719 0.094532
-3.289068 41.226719 0.095025
-2.974347 41.226719 0.095866
-2.659626 41.226719 0.096756
-2.344905 41.226719 0.097513
-2.030184 41.226719 0.098159
-1.715463 41.226719 0.098187
-1.400742 41.226719 0.097646
-1.086021 41.226719 0.097023
-0.771300 41.226719 0.096283
-0.456579 41.226719 0.095436
-0.141859 41.226719 0.094837
0.172863 41.226719 0.094344
0.487584 41.226719 0.093946
0.802305 41.226719 0.093847
1.117026 41.226719 0.094069
1.431747 41.226719 0.094230
1.746467 41.226719 0.094721
2.061188 41.226719 0.095709
2.375909 41.226719 0.096968
2.690630 41.226719 0.098590
3.005352 41.226719 0.100311
3.320073 41.226719 0.101758
3.634794 41.226719 0.103477
3.949515 41.226719 0.105352
4.264236 41.226719 0.106740
4.578956 41.226719 0.107822
4.893677 41.226719 0.109054
5.208398 41.226719 0.110355
5.523119 41.226719 0.112772
5.837841 41.226719 0.116361
6.152562 41.226719 0.121324
6.467283 41.226719 0.127936
6.782003 41.226719 0.136972
7.096724 41.226719 0.148669
7.411445 41.226719 0.170125
7.726166 41.226719 0.205332
8.040888 41.226719 0.257109
8.355608 41.226719 0.349852
8.670330 41.226719 0.487185
8.985050 41.226719 0.696885
9.299772 41.226719 0.953659
9.614492 41.226719 1.226411
9.929214 41.226719 1.497586
10.243935 41.226719 1.759371
10.558655 41.226719 2.034359
10.873377 41.226719 2.272500
11.188097 41.226719 2.464226
11.502819 41.226719 2.616545
11.817539 41.226719 2.770968
12.132261 41.226719 2.874293
12.446981 41.226719 2.942532
12.761703 41.226719 2.972240
13.076424 41.226719 2.974537
13.391144 41.226719 2.953308
13.705866 41.226719 2.892644
14.020586 41.226719 2.794881
14.335308 41.226719 2.649503
14.650028 41.226719 2.495489
14.964750 41.226719 2.262583
15.279470 41.226719 2.010169
15.594193 41.226719 1.793770
15.908913 41.226719 1.652360
16.223633 41.226719 1.633877
16.538355 41.226719 1.878171
16.853075 41.226719 2.568022
17.167797 41.226719 3.992849
17.482517 41.226719 5.440323
17.797239 41.226719 6.940302
18.111959 41.226719 7.958574
18.426680 41.226719 9.293003
18.741402 41.226719 8.383722
-7.065720 40.911999 0.000000
-6.750999 40.911999 0.000000
-6.436278 40.911999 0.097796
-6.121557 40.911999 0.096193
-5.806836 40.911999 0.095331
-5.492115 40.911999 0.094668
-5.177394 40.911999 0.094033
-4.862673 40.911999 0.093467
-4.547952 40.911999 0.093118
-4.233231 40.911999 0.093142
-3.918510 40.911999 0.093436
-3.603789 40.911999 0.093797
-3.289068 40.911999 0.094399
-2.974347 40.911999 0.095288
-2.659626 40.911999 0.096296
-2.344905 40.911999 0.097209
-2.030184 40.911999 0.098001
-1.715463 40.911999 0.098166
-1.400742 40.911999 0.097867
-1.086021 40.911999 0.097491
-0.771300 40.911999 0.096950
-0.456579 40.911999 0.096123
-0.141859 40.911999 0.095365
0.172863 40.911999 0.094811
0.487584 40.911999 0.094281
0.802305 40.911999 0.093953
1.117026 40.911999 0.093909
1.431747 40.911999 0.093763
1.746467 40.911999 0.094121
2.061188 40.911999 0.095109
2.375909 40.911999 0.096348
2.690630 40.911999 0.097915
3.005352 40.911999 0.099726
3.320073 40.911999 0.101520
3.634794 40.911999 0.103395
3.949515 40.911999 0.105239
4.264236 40.911999 0.106669
4.578956 40.911999 0.107910
4.893677 40.911999 0.109289
5.208398 40.911999 0.111018
5.523119 40.911999 0.113173
5.837841 40.911999 0.116476
6.152562 40.911999 0.121374
6.467283 40.911999 0.128121
6.782003 40.911999 0.136566
7.096724 40.911999 0.148887
7.411445 40.911999 0.169380
7.726166 40.911999 0.200764
8.040888 40.911999 0.258404
8.355608 40.911999 0.351057
8.670330 40.911999 0.484131
8.985050 40.911999 0.684534
9.299772 40.911999 0.948329
9.614492 40.911999 1.220809
9.929214 40.911999 1.498667
10.243935 40.911999 1.768487
10.558655 40.911999 2.036886
10.873377 40.911999 2.269659
11.188097 40.911999 2.447167
11.502819 40.911999 2.621444
11.817539 40.911999 2.769343
12.132261 40.911999 2.879335
12.446981 40.911999 2.953427
12.761703 40.911999 2.982328
13.076424 40.911999 2.983508
13.391144 40.911999 2.958789
13.705866 40.911999 2.918571
14.020586 40.911999 2.808302
14.335308 40.911999 2.657846
14.650028 40.911999 2.481657
14.964750 40.911999 2.261967
15.279470 40.911999 2.027676
15.594193 40.911999 1.805999
15.908913 40.911999 1.666071
16.223633 40.911999 1.652022
16.538355 40.911999 1.864170
16.853075 40.911999 2.651663
17.167797 40.911999 4.211989
17.482517 40.911999 5.726730
17.797239 40.911999 7.299932
18.111959 40.911999 8.659429
18.426680 40.911999 10.195990
18.741402 40.911999 0.000000
-7.065720 40.597275 0.000000
-6.750999 40.597275 0.000000
-6.436278 40.597275 0.098085
-6.121557 40.597275 0.096608
-5.806836 40.597275 0.095830
-5.492115 40.597275 0.095101
-5.177394 40.597275 0.094328
-4.862673 40.597275 0.093273
-4.547952 40.597275 0.092491
-4.233231 40.597275 0.092432
-3.918510 40.597275 0.092809
-3.603789 40.597275 0.093305
-3.289068 40.597275 0.093907
-2.974347 40.597275 0.094801
-2.659626 40.597275 0.095959
-2.344905 40.597275 0.096918
-2.030184 40.597275 0.097582
-1.715463 40.597275 0.097875
-1.400742 40.597275 0.097969
-1.086021 40.597275 0.097967
-0.771300 40.597275 0.097587
-0.456579 40.597275 0.096809
-0.141859 40.597275 0.095896
0.172863 40.597275 0.095234
0.487584 40.597275 0.094674
0.802305 40.597275 0.094212
1.117026 40.597275 0.093722
1.431747 40.597275 0.093370
1.746467 40.597275 0.093618
2.061188 40.597275 0.094550
2.375909 40.597275 0.095817
2.690630 40.597275 0.097234
3.005352 40.597275 0.099102
3.320073 40.597275 0.101159
3.634794 40.597275 0.103116
3.949515 40.597275 0.104857
4.264236 40.597275 0.106392
4.578956 40.597275 0.107830
4.893677 40.597275 0.109455
5.208398 40.597275 0.111380
5.523119 40.597275 0.113529
5.837841 40.597275 0.116896
6.152562 40.597275 0.121466
6.467283 40.597275 0.127796
6.782003 40.597275 0.136776
7.096724 40.597275 0.149019
7.411445 40.597275 0.168082
7.726166 40.597275 0.200816
8.040888 40.597275 0.256403
8.355608 40.597275 0.347109
8.670330 40.597275 0.493704
8.985050 40.597275 0.690118
9.299772 40.597275 0.958042
9.614492 40.597275 1.219699
9.929214 40.597275 1.492497
10.243935 40.597275 1.772778
10.558655 40.597275 2.029682
10.873377 40.597275 2.273168
11.188097 40.597275 2.443146
11.502819 40.597275 2.631242
11.817539 40.597275 2.768317
12.132261 40.597275 2.881987
12.446981 40.597275 2.949577
12.761703 40.597275 2.987581
13.076424 40.597275 3.001079
13.391144 40.597275 2.986319
13.705866 40.597275 2.934122
14.020586 40.597275 2.812621
14.335308 40.597275 2.652620
14.650028 40.597275 2.480081
14.964750 40.597275 2.269647
15.279470 40.597275 2.053000
15.594193 40.597275 1.822041
15.908913 40.597275 1.660533
16.223633 40.597275 1.672858
16.538355 40.597275 1.927855
16.853075 40.597275 2.734459
17.167797 40.597275 4.346825
17.482517 40.597275 6.055789
17.797239 40.597275 7.587170
18.111959 40.597275 9.156002
18.426680 40.597275 11.197632
18.741402 40.597275 0.000000
-7.065720 40.282555 0.000000
-6.750999 40.282555 0.000000
-6.436278 40.282555 0.098400
-6.121557 40.282555 0.097066
-5.806836 40.282555 0.096352
-5.492115 40.282555 0.095547
-5.177394 40.282555 0.094589
-4.862673 40.282555 0.093201
-4.547952 40.282555 0.092076
-4.233231 40.282555 0.091928
-3.918510 40.282555 0.092377
-3.603789 40.282555 0.092925
-3.289068 40.282555 0.093572
-2.974347 40.282555 0.094436
-2.659626 40.282555 0.095613
-2.344905 40.282555 0.096589
-2.030184 40.282555 0.097052
-1.715463 40.282555 0.097451
-1.400742 40.282555 0.098006
-1.086021 40.282555 0.098280
-0.771300 40.282555 0.098102
-0.456579 40.282555 0.097387
-0.141859 40.282555 0.096338
0.172863 40.282555 0.095571
0.487584 40.282555 0.095036
0.802305 40.282555 0.094392
1.117026 40.282555 0.093568
1.431747 40.282555 0.093056
1.746467 40.282555 0.093261
2.061188 40.282555 0.094127
2.375909 40.282555 0.095295
2.690630 40.282555 0.096579
3.005352 40.282555 0.098418
3.320073 40.282555 0.100671
3.634794 40.282555 0.102648
3.949515 40.282555 0.104350
4.264236 40.282555 0.105965
4.578956 40.282555 0.107617
4.893677 40.282555 0.109445
5.208398 40.282555 0.111510
5.523119 40.282555 0.113931
5.837841 40.282555 0.117440
6.152562 40.282555 0.121811
6.467283 40.282555 0.127748
6.782003 40.282555 0.136539
7.096724 40.282555 0.148772
7.411445 40.282555 0.166044
7.726166 40.282555 0.201672
8.040888 40.282555 0.259015
8.355608 40.282555 0.352329
8.670330 40.282555 0.491413
8.985050 40.282555 0.694158
9.299772 40.282555 0.954858
9.614492 40.282555 1.234268
9.929214 40.282555 1.510175
10.243935 40.282555 1.769406
10.558655 40.282555 2.033273
10.873377 40.282555 2.269871
11.188097 40.282555 2.453104
11.502819 40.282555 2.637936
11.817539 40.282555 2.767095
12.132261 40.282555 2.876607
12.446981 40.282555 2.938128
12.761703 40.282555 2.996069
13.076424 40.282555 3.012751
13.391144 40.282555 2.998234
13.705866 40.282555 2.910572
14.020586 40.282555 2.809877
14.335308 40.282555 2.667465
14.650028 40.282555 2.466982
14.964750 40.282555 2.252876
15.279470 40.282555 2.051173
15.594193 40.282555 1.846254
15.908913 40.282555 1.675549
16.223633 40.282555 1.678875
16.538355 40.282555 1.639512
16.853075 40.282555 2.240741
17.167797 40.282555 3.898830
17.482517 40.282555 5.409828
17.797239 40.282555 7.050604
18.111959 40.282555 10.046544
18.426680 40.282555 12.091902
18.741402 40.282555 0.000000
-7.065720 39.967834 0.000000
-6.750999 39.967834 0.000000
-6.436278 39.967834 0.098747
-6.121557 39.967834 0.097528
-5.806836 39.967834 0.096869
-5.492115 39.967834 0.095932
-5.177394 39.967834 0.094837
-4.862673 39.967834 0.093304
-4.547952 39.967834 0.091985
-4.233231 39.967834 0.091737
-3.918510 39.967834 0.092175
-3.603789 39.967834 0.092710
-3.289068 39.967834 0.093364
-2.974347 39.967834 0.094191
-2.659626 39.967834 0.095360
-2.344905 39.967834 0.096155
-2.030184 39.967834 0.096462
-1.715463 39.967834 0.097033
-1.400742 39.967834 0.097904
-1.086021 39.967834 0.098389
-0.771300 39.967834 0.098349
-0.456579 39.967834 0.097667
-0.141859 39.967834 0.096591
0.172863 39.967834 0.095841
0.487584 39.967834 0.095331
0.802305 39.967834 0.094515
1.117026 39.967834 0.093371
1.431747 39.967834 0.092829
1.746467 39.967834 0.093064
2.061188 39.967834 0.093832
2.375909 39.967834 0.094879
2.690630 39.967834 0.095959
3.005352 39.967834 0.097739
3.320073 39.967834 0.100014
3.634794 39.967834 0.101930
3.949515 39.967834 0.103622
4.264236 39.967834 0.105437
4.578956 39.967834 0.107337
4.893677 39.967834 0.109250
5.208398 39.967834 0.111476
5.523119 39.967834 0.114092
5.837841 39.967834 0.117428
6.152562 39.967834 0.122160
6.467283 39.967834 0.128076
6.782003 39.967834 0.136712
7.096724 39.967834 0.146995
7.411445 39.967834 0.166315
7.726166 39.967834 0.202673
8.040888 39.967834 0.257939
8.355608 39.967834 0.352982
8.670330 39.967834 0.499480
8.985050 39.967834 0.694510
9.299772 39.967834 0.965917
9.614492 39.967834 1.230883
9.929214 39.967834 1.507572
10.243935 39.967834 1.762070
10.558655 39.967834 2.037149
10.873377 39.967834 2.271643
11.188097 39.967834 2.466537
11.502819 39.967834 2.629804
11.817539 39.967834 2.773312
12.132261 39.967834 2.895797
12.446981 39.967834 2.958950
12.761703 39.967834 3.019901
13.076424 39.967834 3.032273
13.391144 39.967834 2.993186
13.705866 39.967834 2.927516
14.020586 39.967834 2.828437
14.335308 39.967834 2.682267
14.650028 39.967834 2.477324
14.964750 39.967834 2.257248
15.279470 39.967834 2.054751
15.594193 39.967834 1.852491
15.908913 39.967834 1.693028
16.223633 39.967834 1.744245
16.538355 39.967834 3.230364
16.853075 39.967834 4.965345
17.167797 39.967834 11.768629
17.482517 39.967834 5.378210
17.797239 39.967834 15.732176
18.111959 39.967834 11.389941
18.426680 39.967834 13.412901
18.741402 39.967834 0.000000
-7.065720 39.653114 0.000000
-6.750999 39.653114 0.000000
-6.436278 39.653114 0.099164
-6.121557 39.653114 0.097940
-5.806836 39.653114 0.097278
-5.492115 39.653114 0.096214
-5.177394 39.653114 0.095096
-4.862673 39.653114 0.093697
-4.547952 39.653114 0.092335
-4.233231 39.653114 0.091789
-3.918510 39.653114 0.092032
-3.603789 39.653114 0.092538
-3.289068 39.653114 0.093163
-2.974347 39.653114 0.094049
-2.659626 39.653114 0.095108
-2.344905 39.653114 0.095686
-2.030184 39.653114 0.095947
-1.715463 39.653114 0.096661
-1.400742 39.653114 0.097810
-1.086021 39.653114 0.098418
-0.771300 39.653114 0.098344
-0.456579 39.653114 0.097747
-0.141859 39.653114 0.096707
0.172863 39.653114 0.095971
0.487584 39.653114 0.095453
0.802305 39.653114 0.094483
1.117026 39.653114 0.093237
1.431747 39.653114 0.092754
1.746467 39.653114 0.093069
2.061188 39.653114 0.093664
2.375909 39.653114 0.094463
2.690630 39.653114 0.095465
3.005352 39.653114 0.097130
3.320073 39.653114 0.099267
3.634794 39.653114 0.101097
3.949515 39.653114 0.102855
4.264236 39.653114 0.104914
4.578956 39.653114 0.106938
4.893677 39.653114 0.108863
5.208398 39.653114 0.111327
5.523119 39.653114 0.114113
5.837841 39.653114 0.117626
6.152562 39.653114 0.122537
6.467283 39.653114 0.128821
6.782003 39.653114 0.136035
7.096724 39.653114 0.147641
7.411445 39.653114 0.167622
7.726166 39.653114 0.204226
8.040888 39.653114 0.259794
8.355608 39.653114 0.355355
8.670330 39.653114 0.501908
8.985050 39.653114 0.688893
9.299772 39.653114 0.957767
9.614492 39.653114 1.234752
9.929214 39.653114 1.490184
10.243935 39.653114 1.755596
10.558655 39.653114 2.024202
10.873377 39.653114 2.271461
11.188097 39.653114 2.464157
11.502819 39.653114 2.629593
11.817539 39.653114 2.785587
12.132261 39.653114 2.907729
12.446981 39.653114 2.989550
12.761703 39.653114 3.032462
13.076424 39.653114 3.032344
13.391144 39.653114 3.003444
13.705866 39.653114 2.946434
14.020586 39.653114 2.844098
14.335308 39.653114 2.699912
14.650028 39.653114 2.491779
14.964750 39.653114 2.264867
15.279470 39.653114 2.059985
15.594193 39.653114 1.849559
15.908913 39.653114 1.729691
16.223633 39.653114 1.833883
16.538355 39.653114 3.490875
16.853075 39.653114 0.000000
17.167797 39.653114 0.000000
17.482517 39.653114 0.000000
17.797239 39.653114 14.784525
18.111959 39.653114 12.723318
18.426680 39.653114 14.972267
18.741402 39.653114 0.000000
-7.065720 39.338394 0.000000
-6.750999 39.338394 0.000000
-6.436278 39.338394 0.099508
-6.121557 39.338394 0.098160
-5.806836 39.338394 0.097515
-5.492115 39.338394 0.096415
-5.177394 39.338394 0.095341
-4.862673 39.338394 0.094214
-4.547952 39.338394 0.092976
-4.233231 39.338394 0.092132
-3.918510 39.338394 0.092041
-3.603789 39.338394 0.092466
-3.289068 39.338394 0.093118
-2.974347 39.338394 0.093889
-2.659626 39.338394 0.094755
-2.344905 39.338394 0.095188
-2.030184 39.338394 0.095543
-1.715463 39.338394 0.096509
-1.400742 39.338394 0.097769
-1.086021 39.338394 0.098309
-0.771300 39.338394 0.098206
-0.456579 39.338394 0.097649
-0.141859 39.338394 0.096813
0.172863 39.338394 0.096068
0.487584 39.338394 0.095417
0.802305 39.338394 0.094378
1.117026 39.338394 0.093188
1.431747 39.338394 0.092868
1.746467 39.338394 0.093231
2.061188 39.338394 0.093632
2.375909 39.338394 0.094242
2.690630 39.338394 0.095145
3.005352 39.338394 0.096669
3.320073 39.338394 0.098583
3.634794 39.338394 0.100401
3.949515 39.338394 0.102313
4.264236 39.338394 0.104427
4.578956 39.338394 0.106430
4.893677 39.338394 0.108490
5.208398 39.338394 0.111002
5.523119 39.338394 0.114046
5.837841 39.338394 0.117825
6.152562 39.338394 0.122640
6.467283 39.338394 0.129330
6.782003 39.338394 0.136604
7.096724 39.338394 0.147270
7.411445 39.338394 0.167280
7.726166 39.338394 0.200600
8.040888 39.338394 0.256566
8.355608 39.338394 0.352255
8.670330 39.338394 0.494351
8.985050 39.338394 0.694664
9.299772 39.338394 0.951914
9.614492 39.338394 1.222563
9.929214 39.338394 1.487915
10.243935 39.338394 1.757089
10.558655 39.338394 2.041561
10.873377 39.338394 2.264740
11.188097 39.338394 2.470796
11.502819 39.338394 2.638899
11.817539 39.338394 2.796546
12.132261 39.338394 2.912009
12.446981 39.338394 2.986583
12.761703 39.338394 3.022941
13.076424 39.338394 3.025525
13.391144 39.338394 3.005834
13.705866 39.338394 2.962530
14.020586 39.338394 2.884580
14.335308 39.338394 2.718964
14.650028 39.338394 2.494092
14.964750 39.338394 2.282418
15.279470 39.338394 2.061692
15.594193 39.338394 1.854484
15.908913 39.338394 1.748787
16.223633 39.338394 1.876478
16.538355 39.338394 3.644436
16.853075 39.338394 0.000000
17.167797 39.338394 0.000000
17.482517 39.338394 0.000000
17.797239 39.338394 17.803839
18.111959 39.338394 14.118269
18.426680 39.338394 16.044123
18.741402 39.338394 0.000000
-7.065720 39.023674 0.000000
-6.750999 39.023674 0.056856
-6.436278 39.023674 0.099849
-6.121557 39.023674 0.098382
-5.806836 39.023674 0.097731
-5.492115 39.023674 0.096601
-5.177394 39.023674 0.095614
-4.862673 39.023674 0.094723
-4.547952 39.023674 0.093667
-4.233231 39.023674 0.092593
-3.918510 39.023674 0.092127
-3.603789 39.023674 0.092440
-3.289068 39.023674 0.093080
-2.974347 39.023674 0.093737
-2.659626 39.023674 0.094249
-2.344905 39.023674 0.094652
-2.030184 39.023674 0.095238
-1.715463 39.023674 0.096492
-1.400742 39.023674 0.097655
-1.086021 39.023674 0.098023
-0.771300 39.023674 0.097888
-0.456579 39.023674 0.097461
-0.141859 39.023674 0.096878
0.172863 39.023674 0.096156
0.487584 39.023674 0.095374
0.802305 39.023674 0.094197
1.117026 39.023674 0.093263
1.431747 39.023674 0.093128
1.746467 39.023674 0.093472
2.061188 39.023674 0.093843
2.375909 39.023674 0.094218
2.690630 39.023674 0.094989
3.005352 39.023674 0.096336
3.320073 39.023674 0.098027
3.634794 39.023674 0.099807
3.949515 39.023674 0.101824
4.264236 39.023674 0.103913
4.578956 39.023674 0.106001
4.893677 39.023674 0.108213
5.208398 39.023674 0.110806
5.523119 39.023674 0.113842
5.837841 39.023674 0.117734
6.152562 39.023674 0.123059
6.467283 39.023674 0.129592
6.782003 39.023674 0.137228
7.096724 39.023674 0.148891
7.411445 39.023674 0.167520
7.726166 39.023674 0.198437
8.040888 39.023674 0.254289
8.355608 39.023674 0.350357
8.670330 39.023674 0.488640
8.985050 39.023674 0.690611
9.299772 39.023674 0.958935
9.614492 39.023674 1.234708
9.929214 39.023674 1.480421
10.243935 39.023674 1.771695
10.558655 39.023674 2.038212
10.873377 39.023674 2.278535
11.188097 39.023674 2.464983
11.502819 39.023674 2.639607
11.817539 39.023674 2.794152
12.132261 39.023674 2.917042
12.446981 39.023674 2.998531
12.761703 39.023674 3.020372
13.076424 39.023674 3.024535
13.391144 39.023674 3.027105
13.705866 39.023674 2.982229
14.020586 39.023674 2.889350
14.335308 39.023674 2.715981
14.650028 39.023674 2.500019
14.964750 39.023674 2.279199
15.279470 39.023674 2.080071
15.594193 39.023674 1.874905
15.908913 39.023674 1.750183
16.223633 39.023674 1.901761
16.538355 39.023674 3.661785
16.853075 39.023674 0.000000
17.167797 39.023674 0.000000
17.482517 39.023674 0.000000
17.797239 39.023674 13.478215
18.111959 39.023674 14.289203
18.426680 39.023674 17.145342
18.741402 39.023674 0.000000
-7.065720 38.708950 0.000000
-6.750999 38.708950 0.046623
-6.436278 38.708950 0.100057
-6.121557 38.708950 0.098515
-5.806836 38.708950 0.097816
-5.492115 38.708950 0.096752
-5.177394 38.708950 0.095771
-4.862673 38.708950 0.095078
-4.547952 38.708950 0.094131
-4.233231 38.708950 0.092930
-3.918510 38.708950 0.092211
-3.603789 38.708950 0.092355
-3.289068 38.708950 0.092993
-2.974347 38.708950 0.093495
-2.659626 38.708950 0.093706
-2.344905 38.708950 0.094040
-2.030184 38.708950 0.095013
-1.715463 38.708950 0.096484
-1.400742 38.708950 0.097522
-1.086021 38.708950 0.097679
-0.771300 38.708950 0.097467
-0.456579 38.708950 0.097236
-0.141859 38.708950 0.096948
0.172863 38.708950 0.096251
0.487584 38.708950 0.095406
0.802305 38.708950 0.094308
1.117026 38.708950 0.093512
1.431747 38.708950 0.093468
1.746467 38.708950 0.093764
2.061188 38.708950 0.094018
2.375909 38.708950 0.094362
2.690630 38.708950 0.095064
3.005352 38.708950 0.096186
3.320073 38.708950 0.097706
3.634794 38.708950 0.099504
3.949515 38.708950 0.101544
4.264236 38.708950 0.103668
4.578956 38.708950 0.105787
4.893677 38.708950 0.108041
5.208398 38.708950 0.110498
5.523119 38.708950 0.113545
5.837841 38.708950 0.117503
6.152562 38.708950 0.122912
6.467283 38.708950 0.129477
6.782003 38.708950 0.137356
7.096724 38.708950 0.148935
7.411445 38.708950 0.167913
7.726166 38.708950 0.200690
8.040888 38.708950 0.253888
8.355608 38.708950 0.349051
8.670330 38.708950 0.494950
8.985050 38.708950 0.684545
9.299772 38.708950 0.957761
9.614492 38.708950 1.224470
9.929214 38.708950 1.483769
10.243935 38.708950 1.772195
10.558655 38.708950 2.046750
10.873377 38.708950 2.276563
11.188097 38.708950 2.465709
11.502819 38.708950 2.633126
11.817539 38.708950 2.796220
12.132261 38.708950 2.912680
12.446981 38.708950 2.979540
12.761703 38.708950 3.017838
13.076424 38.708950 3.021720
13.391144 38.708950 3.028139
13.705866 38.708950 2.979555
14.020586 38.708950 2.881658
14.335308 38.708950 2.710848
14.650028 38.708950 2.492162
14.964750 38.708950 2.277361
15.279470 38.708950 2.073807
15.594193 38.708950 1.881982
15.908913 38.708950 1.756246
16.223633 38.708950 1.953056
16.538355 38.708950 0.000000
16.853075 38.708950 0.000000
17.167797 38.708950 0.000000
17.482517 38.708950 0.000000
17.797239 38.708950 0.000000
18.111959 38.708950 14.371378
18.426680 38.708950 16.848932
18.741402 38.708950 0.000000
-7.065720 38.394230 0.000000
-6.750999 38.394230 0.098000
-6.436278 38.394230 0.100084
-6.121557 38.394230 0.098593
-5.806836 38.394230 0.097960
-5.492115 38.394230 0.097014
-5.177394 38.394230 0.096074
-4.862673 38.394230 0.095387
-4.547952 38.394230 0.094483
-4.233231 38.394230 0.093203
-3.918510 38.394230 0.092287
-3.603789 38.394230 0.092181
-3.289068 38.394230 0.092752
-2.974347 38.394230 0.093165
-2.659626 38.394230 0.093217
-2.344905 38.394230 0.093560
-2.030184 38.394230 0.094801
-1.715463 38.394230 0.096513
-1.400742 38.394230 0.097335
-1.086021 38.394230 0.097312
-0.771300 38.394230 0.097110
-0.456579 38.394230 0.097077
-0.141859 38.394230 0.096990
0.172863 38.394230 0.096449
0.487584 38.394230 0.095559
0.802305 38.394230 0.094509
1.117026 38.394230 0.093846
1.431747 38.394230 0.093805
1.746467 38.394230 0.094035
2.061188 38.394230 0.094219
2.375909 38.394230 0.094560
2.690630 38.394230 0.095213
3.005352 38.394230 0.096192
3.320073 38.394230 0.097601
3.634794 38.394230 0.099446
3.949515 38.394230 0.101378
4.264236 38.394230 0.103412
4.578956 38.394230 0.105639
4.893677 38.394230 0.107961
5.208398 38.394230 0.110451
5.523119 38.394230 0.113160
5.837841 38.394230 0.117061
6.152562 38.394230 0.122644
6.467283 38.394230 0.128842
6.782003 38.394230 0.136825
7.096724 38.394230 0.148996
7.411445 38.394230 0.168435
7.726166 38.394230 0.201539
8.040888 38.394230 0.259264
8.355608 38.394230 0.355883
8.670330 38.394230 0.491436
8.985050 38.394230 0.685307
9.299772 38.394230 0.947830
9.614492 38.394230 1.241510
9.929214 38.394230 1.483783
10.243935 38.394230 1.756678
10.558655 38.394230 2.029134
10.873377 38.394230 2.264572
11.188097 38.394230 2.468219
11.502819 38.394230 2.643314
11.817539 38.394230 2.808309
12.132261 38.394230 2.923266
12.446981 38.394230 2.987545
12.761703 38.394230 3.015491
13.076424 38.394230 3.001232
13.391144 38.394230 3.020875
13.705866 38.394230 2.956023
14.020586 38.394230 2.864863
14.335308 38.394230 2.701927
14.650028 38.394230 2.495480
14.964750 38.394230 2.284370
15.279470 38.394230 2.073312
15.594193 38.394230 1.894973
15.908913 38.394230 1.765398
16.223633 38.394230 2.025093
16.538355 38.394230 0.000000
16.853075 38.394230 0.000000
17.167797 38.394230 0.000000
17.482517 38.394230 0.000000
17.797239 38.394230 0.000000
18.111959 38.394230 21.778301
18.426680 38.394230 28.128036
18.741402 38.394230 0.000000
-7.065720 38.079510 0.000000
-6.750999 38.079510 0.104375
-6.436278 38.079510 0.099952
-6.121557 38.079510 0.098791
-5.806836 38.079510 0.098263
-5.492115 38.079510 0.097325
-5.177394 38.079510 0.096372
-4.862673 38.079510 0.095661
-4.547952 38.079510 0.094652
-4.233231 38.079510 0.093356
-3.918510 38.079510 0.092298
-3.603789 38.079510 0.092141
-3.289068 38.079510 0.092481
-2.974347 38.079510 0.092756
-2.659626 38.079510 0.092683
-2.344905 38.079510 0.093161
-2.030184 38.079510 0.094727
-1.715463 38.079510 0.096427
-1.400742 38.079510 0.097207
-1.086021 38.079510 0.097064
-0.771300 38.079510 0.096898
-0.456579 38.079510 0.097062
-0.141859 38.079510 0.097164
0.172863 38.079510 0.096708
0.487584 38.079510 0.095847
0.802305 38.079510 0.094864
1.117026 38.079510 0.094221
1.431747 38.079510 0.094088
1.746467 38.079510 0.094231
2.061188 38.079510 0.094349
2.375909 38.079510 0.094696
2.690630 38.079510 0.095344
3.005352 38.079510 0.096232
3.320073 38.079510 0.097585
3.634794 38.079510 0.099497
3.949515 38.079510 0.101489
4.264236 38.079510 0.103384
4.578956 38.079510 0.105610
4.893677 38.079510 0.108022
5.208398 38.079510 0.110319
5.523119 38.079510 0.112780
5.837841 38.079510 0.116600
6.152562 38.079510 0.122122
6.467283 38.079510 0.129088
6.782003 38.079510 0.137244
7.096724 38.079510 0.148953
7.411445 38.079510 0.168291
7.726166 38.079510 0.202211
8.040888 38.079510 0.258467
8.355608 38.079510 0.352285
8.670330 38.079510 0.492945
8.985050 38.079510 0.681588
9.299772 38.079510 0.960871
9.614492 38.079510 1.231167
9.929214 38.079510 1.483175
10.243935 38.079510 1.749115
10.558655 38.079510 2.035027
10.873377 38.079510 2.270137
11.188097 38.079510 2.463722
11.502819 38.079510 2.650649
11.817539 38.079510 2.811535
12.132261 38.079510 2.916373
12.446981 38.079510 2.986719
12.761703 38.079510 3.006030
13.076424 38.079510 3.023268
13.391144 38.079510 3.000485
13.705866 38.079510 2.958467
14.020586 38.079510 2.851659
14.335308 38.079510 2.709888
14.650028 38.079510 2.502594
14.964750 38.079510 2.281951
15.279470 38.079510 2.071198
15.594193 38.079510 1.871820
15.908913 38.079510 1.784593
16.223633 38.079510 2.069066
16.538355 38.079510 0.000000
16.853075 38.079510 0.000000
17.167797 38.079510 0.000000
17.482517 38.079510 0.000000
17.797239 38.079510 0.000000
18.111959 38.079510 18.539557
18.426680 38.079510 22.395882
18.741402 38.079510 0.000000
-7.065720 37.764786 0.000000
-6.750999 37.764786 0.102711
-6.436278 37.764786 0.099813
-6.121557 37.764786 0.098951
-5.806836 37.764786 0.098596
-5.492115 37.764786 0.097652
-5.177394 37.764786 0.096631
-4.862673 37.764786 0.095865
-4.547952 37.764786 0.094806
-4.233231 37.764786 0.093409
-3.918510 37.764786 0.092202
-3.603789 37.764786 0.092046
-3.289068 37.764786 0.092199
-2.974347 37.764786 0.092339
-2.659626 37.764786 0.092256
-2.344905 37.764786 0.092878
-2.030184 37.764786 0.094593
-1.715463 37.764786 0.096262
-1.400742 37.764786 0.096992
-1.086021 37.764786 0.096909
-0.771300 37.764786 0.096793
-0.456579 37.764786 0.097159
-0.141859 37.764786 0.097420
0.172863 37.764786 0.097047
0.487584 37.764786 0.096096
0.802305 37.764786 0.095218
1.117026 37.764786 0.094536
1.431747 37.764786 0.094213
1.746467 37.764786 0.094125
2.061188 37.764786 0.094272
2.375909 37.764786 0.094694
2.690630 37.764786 0.095389
3.005352 37.764786 0.096302
3.320073 37.764786 0.097635
3.634794 37.764786 0.099563
3.949515 37.764786 0.101576
4.264236 37.764786 0.103379
4.578956 37.764786 0.105488
4.893677 37.764786 0.107928
5.208398 37.764786 0.110244
5.523119 37.764786 0.112573
5.837841 37.764786 0.116080
6.152562 37.764786 0.121483
6.467283 37.764786 0.128288
6.782003 37.764786 0.137248
7.096724 37.764786 0.148971
7.411445 37.764786 0.169342
7.726166 37.764786 0.203298
8.040888 37.764786 0.261297
8.355608 37.764786 0.357900
8.670330 37.764786 0.495681
8.985050 37.764786 0.690211
9.299772 37.764786 0.954551
9.614492 37.764786 1.226649
9.929214 37.764786 1.471573
10.243935 37.764786 1.755951
10.558655 37.764786 2.028535
10.873377 37.764786 2.268915
11.188097 37.764786 2.473516
11.502819 37.764786 2.644773
11.817539 37.764786 2.805544
12.132261 37.764786 2.927140
12.446981 37.764786 2.982204
12.761703 37.764786 3.000977
13.076424 37.764786 3.008175
13.391144 37.764786 3.004340
13.705866 37.764786 2.949243
14.020586 37.764786 2.851147
14.335308 37.764786 2.714112
14.650028 37.764786 2.509660
14.964750 37.764786 2.259692
15.279470 37.764786 2.057256
15.594193 37.764786 1.849334
15.908913 37.764786 1.759754
16.223633 37.764786 2.061021
16.538355 37.764786 0.000000
16.853075 37.764786 0.000000
17.167797 37.764786 0.000000
17.482517 37.764786 0.000000
17.797239 37.764786 0.000000
18.111959 37.764786 20.762165
18.426680 37.764786 21.211422
18.741402 37.764786 0.000000
-7.065720 37.450066 0.000000
-6.750999 37.450066 0.102732
-6.436278 37.450066 0.099569
-6.121557 37.450066 0.098949
-5.806836 37.450066 0.098818
-5.492115 37.450066 0.097917
-5.177394 37.450066 0.096843
-4.862673 37.450066 0.096005
-4.547952 37.450066 0.094869
-4.233231 37.450066 0.093351
-3.918510 37.450066 0.092198
-3.603789 37.450066 0.091982
-3.289068 37.450066 0.091997
-2.974347 37.450066 0.091959
-2.659626 37.450066 0.091923
-2.344905 37.450066 0.092649
-2.030184 37.450066 0.094329
-1.715463 37.450066 0.095979
-1.400742 37.450066 0.096692
-1.086021 37.450066 0.096733
-0.771300 37.450066 0.096775
-0.456579 37.450066 0.097224
-0.141859 37.450066 0.097606
0.172863 37.450066 0.097219
0.487584 37.450066 0.096336
0.802305 37.450066 0.095507
1.117026 37.450066 0.094730
1.431747 37.450066 0.094095
1.746467 37.450066 0.093856
2.061188 37.450066 0.093992
2.375909 37.450066 0.094475
2.690630 37.450066 0.095306
3.005352 37.450066 0.096369
3.320073 37.450066 0.097788
3.634794 37.450066 0.099724
3.949515 37.450066 0.101640
4.264236 37.450066 0.103291
4.578956 37.450066 0.105278
4.893677 37.450066 0.107508
5.208398 37.450066 0.109709
5.523119 37.450066 0.112322
5.837841 37.450066 0.115895
6.152562 37.450066 0.121041
6.467283 37.450066 0.128054
6.782003 37.450066 0.136879
7.096724 37.450066 0.149977
7.411445 37.450066 0.172057
7.726166 37.450066 0.202143
8.040888 37.450066 0.260515
8.355608 37.450066 0.355525
8.670330 37.450066 0.501523
8.985050 37.450066 0.701251
9.299772 37.450066 0.953536
9.614492 37.450066 1.231090
9.929214 37.450066 1.487955
10.243935 37.450066 1.760717
10.558655 37.450066 2.023108
10.873377 37.450066 2.272017
11.188097 37.450066 2.465894
11.502819 37.450066 2.633998
11.817539 37.450066 2.801172
12.132261 37.450066 2.937656
12.446981 37.450066 2.994086
12.761703 37.450066 3.008509
13.076424 37.450066 3.028139
13.391144 37.450066 3.023240
13.705866 37.450066 2.961262
14.020586 37.450066 2.859734
14.335308 37.450066 2.708821
14.650028 37.450066 2.497275
14.964750 37.450066 2.268259
15.279470 37.450066 2.039873
15.594193 37.450066 1.857122
15.908913 37.450066 1.778939
16.223633 37.450066 2.036625
16.538355 37.450066 0.000000
16.853075 37.450066 0.000000
17.167797 37.450066 0.000000
17.482517 37.450066 0.000000
17.797239 37.450066 0.000000
18.111959 37.450066 0.000000
18.426680 37.450066 0.000000
18.741402 37.450066 0.000000
-7.065720 37.135345 0.000000
-6.750999 37.135345 0.101613
-6.436278 37.135345 0.099143
-6.121557 37.135345 0.098800
-5.806836 37.135345 0.098794
-5.492115 37.135345 0.098006
-5.177394 37.135345 0.096951
-4.862673 37.135345 0.096070
-4.547952 37.135345 0.094827
-4.233231 37.135345 0.093283
-3.918510 37.135345 0.092211
-3.603789 37.135345 0.091890
-3.289068 37.135345 0.091790
-2.974347 37.135345 0.091692
-2.659626 37.135345 0.091782
-2.344905 37.135345 0.092581
-2.030184 37.135345 0.094117
-1.715463 37.135345 0.095604
-1.400742 37.135345 0.096258
-1.086021 37.135345 0.096521
-0.771300 37.135345 0.096854
-0.456579 37.135345 0.097389
-0.141859 37.135345 0.097667
0.172863 37.135345 0.097320
0.487584 37.135345 0.096476
0.802305 37.135345 0.095597
1.117026 37.135345 0.094733
1.431747 37.135345 0.093883
1.746467 37.135345 0.093581
2.061188 37.135345 0.093670
2.375909 37.135345 0.094257
2.690630 37.135345 0.095302
3.005352 37.135345 0.096603
3.320073 37.135345 0.098058
3.634794 37.135345 0.099862
3.949515 37.135345 0.101658
4.264236 37.135345 0.103261
4.578956 37.135345 0.105017
4.893677 37.135345 0.107099
5.208398 37.135345 0.109458
5.523119 37.135345 0.112047
5.837841 37.135345 0.115773
6.152562 37.135345 0.120563
6.467283 37.135345 0.127617
6.782003 37.135345 0.136905
7.096724 37.135345 0.149813
7.411445 37.135345 0.170181
7.726166 37.135345 0.200759
8.040888 37.135345 0.258213
8.355608 37.135345 0.361157
8.670330 37.135345 0.502276
8.985050 37.135345 0.699365
9.299772 37.135345 0.955660
9.614492 37.135345 1.228937
9.929214 37.135345 1.491537
10.243935 37.135345 1.765866
10.558655 37.135345 2.023856
10.873377 37.135345 2.270189
11.188097 37.135345 2.457381
11.502819 37.135345 2.639386
11.817539 37.135345 2.812076
12.132261 37.135345 2.944505
12.446981 37.135345 3.005019
12.761703 37.135345 3.039680
13.076424 37.135345 3.040999
13.391144 37.135345 3.017636
13.705866 37.135345 2.964323
14.020586 37.135345 2.849183
14.335308 37.135345 2.711363
14.650028 37.135345 2.505051
14.964750 37.135345 2.255939
15.279470 37.135345 2.016192
15.594193 37.135345 1.854977
15.908913 37.135345 1.792834
16.223633 37.135345 2.004053
16.538355 37.135345 0.000000
16.853075 37.135345 0.000000
17.167797 37.135345 0.000000
17.482517 37.135345 0.000000
17.797239 37.135345 0.000000
18.111959 37.135345 0.000000
18.426680 37.135345 0.000000
18.741402 37.135345 0.000000
-7.065720 36.820625 0.000000
-6.750999 36.820625 0.101162
-6.436278 36.820625 0.098694
-6.121557 36.820625 0.098491
-5.806836 36.820625 0.098582
-5.492115 36.820625 0.097924
-5.177394 36.820625 0.096915
-4.862673 36.820625 0.095929
-4.547952 36.820625 0.094593
-4.233231 36.820625 0.093226
-3.918510 36.820625 0.092214
-3.603789 36.820625 0.091814
-3.289068 36.820625 0.091623
-2.974347 36.820625 0.091583
-2.659626 36.820625 0.091893
-2.344905 36.820625 0.092729
-2.030184 36.820625 0.093924
-1.715463 36.820625 0.095172
-1.400742 36.820625 0.095868
-1.086021 36.820625 0.096290
-0.771300 36.820625 0.096914
-0.456579 36.820625 0.097426
-0.141859 36.820625 0.097588
0.172863 36.820625 0.097169
0.487584 36.820625 0.096424
0.802305 36.820625 0.095508
1.117026 36.820625 0.094546
1.431747 36.820625 0.093659
1.746467 36.820625 0.093300
2.061188 36.820625 0.093418
2.375909 36.820625 0.094104
2.690630 36.820625 0.095300
3.005352 36.820625 0.096758
3.320073 36.820625 0.098298
3.634794 36.820625 0.099907
3.949515 36.820625 0.101635
4.264236 36.820625 0.103118
4.578956 36.820625 0.104494
4.893677 36.820625 0.106468
5.208398 36.820625 0.108963
5.523119 36.820625 0.111636
5.837841 36.820625 0.115578
6.152562 36.820625 0.120473
6.467283 36.820625 0.127713
6.782003 36.820625 0.136871
7.096724 36.820625 0.149897
7.411445 36.820625 0.169920
7.726166 36.820625 0.202180
8.040888 36.820625 0.258425
8.355608 36.820625 0.358557
8.670330 36.820625 0.505641
8.985050 36.820625 0.694205
9.299772 36.820625 0.956141
9.614492 36.820625 1.229953
9.929214 36.820625 1.496237
10.243935 36.820625 1.775679
10.558655 36.820625 2.013669
10.873377 36.820625 2.257599
11.188097 36.820625 2.461848
11.502819 36.820625 2.634843
11.817539 36.820625 2.800847
12.132261 36.820625 2.957966
12.446981 36.820625 3.031358
12.761703 36.820625 3.066452
13.076424 36.820625 3.046921
13.391144 36.820625 3.018302
13.705866 36.820625 2.971700
14.020586 36.820625 2.874676
14.335308 36.820625 2.715366
14.650028 36.820625 2.499243
14.964750 36.820625 2.239940
15.279470 36.820625 2.018990
15.594193 36.820625 1.865276
15.908913 36.820625 1.784287
16.223633 36.820625 1.967412
16.538355 36.820625 0.000000
16.853075 36.820625 0.000000
17.167797 36.820625 0.000000
17.482517 36.820625 0.000000
17.797239 36.820625 0.000000
18.111959 36.820625 0.000000
18.426680 36.820625 0.000000
18.741402 36.820625 0.000000
-7.065720 36.505905 0.000000
-6.750999 36.505905 0.100904
-6.436278 36.505905 0.098289
-6.121557 36.505905 0.098192
-5.806836 36.505905 0.098261
-5.492115 36.505905 0.097662
-5.177394 36.505905 0.096692
-4.862673 36.505905 0.095518
-4.547952 36.505905 0.094207
-4.233231 36.505905 0.093080
-3.918510 36.505905 0.092257
-3.603789 36.505905 0.091759
-3.289068 36.505905 0.091601
-2.974347 36.505905 0.091680
-2.659626 36.505905 0.092201
-2.344905 36.505905 0.092975
-2.030184 36.505905 0.093920
-1.715463 36.505905 0.094920
-1.400742 36.505905 0.095526
-1.086021 36.505905 0.096165
-0.771300 36.505905 0.096970
-0.456579 36.505905 0.097368
-0.141859 36.505905 0.097332
0.172863 36.505905 0.096906
0.487584 36.505905 0.096163
0.802305 36.505905 0.095270
1.117026 36.505905 0.094307
1.431747 36.505905 0.093522
1.746467 36.505905 0.093229
2.061188 36.505905 0.093444
2.375909 36.505905 0.094131
2.690630 36.505905 0.095360
3.005352 36.505905 0.096958
3.320073 36.505905 0.098478
3.634794 36.505905 0.099870
3.949515 36.505905 0.101374
4.264236 36.505905 0.102694
4.578956 36.505905 0.104102
4.893677 36.505905 0.105917
5.208398 36.505905 0.108258
5.523119 36.505905 0.111211
5.837841 36.505905 0.115401
6.152562 36.505905 0.120332
6.467283 36.505905 0.127229
6.782003 36.505905 0.136611
7.096724 36.505905 0.149694
7.411445 36.505905 0.169419
7.726166 36.505905 0.202665
8.040888 36.505905 0.259826
8.355608 36.505905 0.356753
8.670330 36.505905 0.507302
8.985050 36.505905 0.701105
9.299772 36.505905 0.957002
9.614492 36.505905 1.224299
9.929214 36.505905 1.505696
10.243935 36.505905 1.779080
10.558655 36.505905 2.028509
10.873377 36.505905 2.243675
11.188097 36.505905 2.459506
11.502819 36.505905 2.638788
11.817539 36.505905 2.801010
12.132261 36.505905 2.956817
12.446981 36.505905 3.045027
12.761703 36.505905 3.068232
13.076424 36.505905 3.057898
13.391144 36.505905 3.025162
13.705866 36.505905 2.968970
14.020586 36.505905 2.891593
14.335308 36.505905 2.722147
14.650028 36.505905 2.480270
14.964750 36.505905 2.241262
15.279470 36.505905 2.039964
15.594193 36.505905 1.860353
15.908913 36.505905 1.789098
16.223633 36.505905 1.920584
16.538355 36.505905 0.000000
16.853075 36.505905 0.000000
17.167797 36.505905 0.000000
17.482517 36.505905 0.000000
17.797239 36.505905 0.000000
18.111959 36.505905 0.000000
18.426680 36.505905 0.000000
18.741402 36.505905 0.000000
-7.065720 36.191185 0.000000
-6.750999 36.191185 0.100208
-6.436278 36.191185 0.098045
-6.121557 36.191185 0.097897
-5.806836 36.191185 0.097960
-5.492115 36.191185 0.097425
-5.177394 36.191185 0.096504
-4.862673 36.191185 0.095102
-4.547952 36.191185 0.093804
-4.233231 36.191185 0.092974
-3.918510 36.191185 0.092333
-3.603789 36.191185 0.091921
-3.289068 36.191185 0.091742
-2.974347 36.191185 0.091925
-2.659626 36.191185 0.092645
-2.344905 36.191185 0.093396
-2.030184 36.191185 0.094152
-1.715463 36.191185 0.094846
-1.400742 36.191185 0.095349
-1.086021 36.191185 0.096003
-0.771300 36.191185 0.096853
-0.456579 36.191185 0.097073
-0.141859 36.191185 0.096797
0.172863 36.191185 0.096461
0.487584 36.191185 0.095809
0.802305 36.191185 0.095020
1.117026 36.191185 0.094147
1.431747 36.191185 0.093537
1.746467 36.191185 0.093479
2.061188 36.191185 0.093820
2.375909 36.191185 0.094407
2.690630 36.191185 0.095526
3.005352 36.191185 0.097111
3.320073 36.191185 0.098579
3.634794 36.191185 0.099800
3.949515 36.191185 0.100981
4.264236 36.191185 0.102189
4.578956 36.191185 0.103630
4.893677 36.191185 0.105362
5.208398 36.191185 0.107599
5.523119 36.191185 0.110917
5.837841 36.191185 0.115073
6.152562 36.191185 0.120641
6.467283 36.191185 0.127623
6.782003 36.191185 0.136764
7.096724 36.191185 0.149646
7.411445 36.191185 0.168271
7.726166 36.191185 0.203544
8.040888 36.191185 0.257585
8.355608 36.191185 0.357653
8.670330 36.191185 0.504693
8.985050 36.191185 0.705922
9.299772 36.191185 0.953461
9.614492 36.191185 1.227768
9.929214 36.191185 1.510270
10.243935 36.191185 1.777654
10.558655 36.191185 2.032421
10.873377 36.191185 2.265771
11.188097 36.191185 2.447318
11.502819 36.191185 2.633409
11.817539 36.191185 2.800092
12.132261 36.191185 2.952940
12.446981 36.191185 3.060570
12.761703 36.191185 3.088288
13.076424 36.191185 3.079713
13.391144 36.191185 3.027363
13.705866 36.191185 2.996636
14.020586 36.191185 2.889656
14.335308 36.191185 2.712237
14.650028 36.191185 2.488194
14.964750 36.191185 2.254068
15.279470 36.191185 2.037354
15.594193 36.191185 1.854695
15.908913 36.191185 1.791278
16.223633 36.191185 1.910596
16.538355 36.191185 0.000000
16.853075 36.191185 0.000000
17.167797 36.191185 0.000000
17.482517 36.191185 0.000000
17.797239 36.191185 0.000000
18.111959 36.191185 0.000000
18.426680 36.191185 0.000000
18.741402 36.191185 0.000000
-7.065720 35.876461 0.000000
-6.750999 35.876461 0.099867
-6.436278 35.876461 0.097900
-6.121557 35.876461 0.097772
-5.806836 35.876461 0.097742
-5.492115 35.876461 0.097275
-5.177394 35.876461 0.096326
-4.862673 35.876461 0.094832
-4.547952 35.876461 0.093538
-4.233231 35.876461 0.092852
-3.918510 35.876461 0.092478
-3.603789 35.876461 0.092138
-3.289068 35.876461 0.092023
-2.974347 35.876461 0.092389
-2.659626 35.876461 0.093145
-2.344905 35.876461 0.093858
-2.030184 35.876461 0.094420
-1.715463 35.876461 0.094983
-1.400742 35.876461 0.095355
-1.086021 35.876461 0.095796
-0.771300 35.876461 0.096491
-0.456579 35.876461 0.096432
-0.141859 35.876461 0.096073
0.172863 35.876461 0.095817
0.487584 35.876461 0.095273
0.802305 35.876461 0.094608
1.117026 35.876461 0.094012
1.431747 35.876461 0.093726
1.746467 35.876461 0.093976
2.061188 35.876461 0.094446
2.375909 35.876461 0.094812
2.690630 35.876461 0.095649
3.005352 35.876461 0.097179
3.320073 35.876461 0.098522
3.634794 35.876461 0.099499
3.949515 35.876461 0.100487
4.264236 35.876461 0.101643
4.578956 35.876461 0.103127
4.893677 35.876461 0.104859
5.208398 35.876461 0.107264
5.523119 35.876461 0.110825
5.837841 35.876461 0.114814
6.152562 35.876461 0.120636
6.467283 35.876461 0.127841
6.782003 35.876461 0.137196
7.096724 35.876461 0.148532
7.411445 35.876461 0.167981
7.726166 35.876461 0.203477
8.040888 35.876461 0.260566
8.355608 35.876461 0.364544
8.670330 35.876461 0.510115
8.985050 35.876461 0.708808
9.299772 35.876461 0.953305
9.614492 35.876461 1.228424
9.929214 35.876461 1.503940
10.243935 35.876461 1.778398
10.558655 35.876461 2.036562
10.873377 35.876461 2.253664
11.188097 35.876461 2.455862
11.502819 35.876461 2.639794
11.817539 35.876461 2.801206
12.132261 35.876461 2.963157
12.446981 35.876461 3.055298
12.761703 35.876461 3.095921
13.076424 35.876461 3.075359
13.391144 35.876461 3.032591
13.705866 35.876461 3.013951
14.020586 35.876461 2.893687
14.335308 35.876461 2.708756
14.650028 35.876461 2.508896
14.964750 35.876461 2.268982
15.279470 35.876461 2.058717
15.594193 35.876461 1.872100
15.908913 35.876461 1.794266
16.223633 35.876461 1.879599
16.538355 35.876461 0.000000
16.853075 35.876461 0.000000
17.167797 35.876461 0.000000
17.482517 35.876461 0.000000
17.797239 35.876461 0.000000
18.111959 35.876461 0.000000
18.426680 35.876461 0.000000
18.741402 35.876461 0.000000
-7.065720 35.561741 0.000000
-6.750999 35.561741 0.099767
-6.436278 35.561741 0.097825
-6.121557 35.561741 0.097556
-5.806836 35.561741 0.097391
-5.492115 35.561741 0.097027
-5.177394 35.561741 0.096116
-4.862673 35.561741 0.094687
-4.547952 35.561741 0.093350
-4.233231 35.561741 0.092752
-3.918510 35.561741 0.092568
-3.603789 35.561741 0.092375
-3.289068 35.561741 0.092369
-2.974347 35.561741 0.092815
-2.659626 35.561741 0.093623
-2.344905 35.561741 0.094291
-2.030184 35.561741 0.094659
-1.715463 35.561741 0.095116
-1.400742 35.561741 0.095377
-1.086021 35.561741 0.095578
-0.771300 35.561741 0.095960
-0.456579 35.561741 0.095697
-0.141859 35.561741 0.095291
0.172863 35.561741 0.095139
0.487584 35.561741 0.094723
0.802305 35.561741 0.094174
1.117026 35.561741 0.093916
1.431747 35.561741 0.094047
1.746467 35.561741 0.094593
2.061188 35.561741 0.095110
2.375909 35.561741 0.095284
2.690630 35.561741 0.095821
3.005352 35.561741 0.097122
3.320073 35.561741 0.098314
3.634794 35.561741 0.099055
3.949515 35.561741 0.099977
4.264236 35.561741 0.101164
4.578956 35.561741 0.102471
4.893677 35.561741 0.104212
5.208398 35.561741 0.106803
5.523119 35.561741 0.110045
5.837841 35.561741 0.114764
6.152562 35.561741 0.120675
6.467283 35.561741 0.127842
6.782003 35.561741 0.136748
7.096724 35.561741 0.148569
7.411445 35.561741 0.169162
7.726166 35.561741 0.203061
8.040888 35.561741 0.259854
8.355608 35.561741 0.360011
8.670330 35.561741 0.515881
8.985050 35.561741 0.709594
9.299772 35.561741 0.961563
9.614492 35.561741 1.224400
9.929214 35.561741 1.512651
10.243935 35.561741 1.788491
10.558655 35.561741 2.029519
10.873377 35.561741 2.251387
11.188097 35.561741 2.451608
11.502819 35.561741 2.635248
11.817539 35.561741 2.819514
12.132261 35.561741 2.961536
12.446981 35.561741 3.053420
12.761703 35.561741 3.108536
13.076424 35.561741 3.083019
13.391144 35.561741 3.051109
13.705866 35.561741 3.015302
14.020586 35.561741 2.893402
14.335308 35.561741 2.711389
14.650028 35.561741 2.501980
14.964750 35.561741 2.269891
15.279470 35.561741 2.070178
15.594193 35.561741 1.892014
15.908913 35.561741 1.816009
16.223633 35.561741 1.871186
16.538355 35.561741 0.000000
16.853075 35.561741 0.000000
17.167797 35.561741 0.000000
17.482517 35.561741 0.000000
17.797239 35.561741 0.000000
18.111959 35.561741 0.000000
18.426680 35.561741 0.000000
18.741402 35.561741 0.000000
-7.065720 35.247021 0.000000
-6.750999 35.247021 0.099755
-6.436278 35.247021 0.097791
-6.121557 35.247021 0.097279
-5.806836 35.247021 0.096988
-5.492115 35.247021 0.096622
-5.177394 35.247021 0.095920
-4.862673 35.247021 0.094593
-4.547952 35.247021 0.093325
-4.233231 35.247021 0.092742
-3.918510 35.247021 0.092691
-3.603789 35.247021 0.092626
-3.289068 35.247021 0.092715
-2.974347 35.247021 0.093188
-2.659626 35.247021 0.094015
-2.344905 35.247021 0.094542
-2.030184 35.247021 0.094811
-1.715463 35.247021 0.095253
-1.400742 35.247021 0.095428
-1.086021 35.247021 0.095439
-0.771300 35.247021 0.095413
-0.456579 35.247021 0.094996
-0.141859 35.247021 0.094584
0.172863 35.247021 0.094435
0.487584 35.247021 0.094147
0.802305 35.247021 0.093811
1.117026 35.247021 0.093876
1.431747 35.247021 0.094391
1.746467 35.247021 0.095076
2.061188 35.247021 0.095622
2.375909 35.247021 0.095694
2.690630 35.247021 0.095983
3.005352 35.247021 0.096992
3.320073 35.247021 0.098009
3.634794 35.247021 0.098656
3.949515 35.247021 0.099551
4.264236 35.247021 0.100658
4.578956 35.247021 0.102059
4.893677 35.247021 0.103836
5.208398 35.247021 0.106594
5.523119 35.247021 0.109960
5.837841 35.247021 0.114609
6.152562 35.247021 0.120771
6.467283 35.247021 0.128038
6.782003 35.247021 0.137374
7.096724 35.247021 0.149385
7.411445 35.247021 0.167981
7.726166 35.247021 0.202712
8.040888 35.247021 0.255735
8.355608 35.247021 0.354874
8.670330 35.247021 0.513642
8.985050 35.247021 0.704838
9.299772 35.247021 0.965153
9.614492 35.247021 1.230253
9.929214 35.247021 1.508092
10.243935 35.247021 1.784863
10.558655 35.247021 2.048341
10.873377 35.247021 2.270756
11.188097 35.247021 2.452156
11.502819 35.247021 2.634924
11.817539 35.247021 2.820290
12.132261 35.247021 2.963712
12.446981 35.247021 3.045545
12.761703 35.247021 3.081417
13.076424 35.247021 3.086284
13.391144 35.247021 3.063349
13.705866 35.247021 3.007331
14.020586 35.247021 2.906339
14.335308 35.247021 2.716434
14.650028 35.247021 2.492130
14.964750 35.247021 2.262344
15.279470 35.247021 2.078718
15.594193 35.247021 1.890610
15.908913 35.247021 1.844012
16.223633 35.247021 1.892757
16.538355 35.247021 0.000000
16.853075 35.247021 0.000000
17.167797 35.247021 0.000000
17.482517 35.247021 0.000000
17.797239 35.247021 0.000000
18.111959 35.247021 0.000000
18.426680 35.247021 0.000000
18.741402 35.247021 0.000000
-7.065720 34.932297 0.000000
-6.750999 34.932297 0.099803
-6.436278 34.932297 0.097682
-6.121557 34.932297 0.096916
-5.806836 34.932297 0.096527
-5.492115 34.932297 0.096156
-5.177394 34.932297 0.095526
-4.862673 34.932297 0.094511
-4.547952 34.932297 0.093461
-4.233231 34.932297 0.092922
-3.918510 34.932297 0.092736
-3.603789 34.932297 0.092757
-3.289068 34.932297 0.092959
-2.974347 34.932297 0.093423
-2.659626 34.932297 0.094188
-2.344905 34.932297 0.094628
-2.030184 34.932297 0.094903
-1.715463 34.932297 0.095273
-1.400742 34.932297 0.095461
-1.086021 34.932297 0.095243
-0.771300 34.932297 0.094896
-0.456579 34.932297 0.094415
-0.141859 34.932297 0.093961
0.172863 34.932297 0.093854
0.487584 34.932297 0.093803
0.802305 34.932297 0.093671
1.117026 34.932297 0.093862
1.431747 34.932297 0.094580
1.746467 34.932297 0.095386
2.061188 34.932297 0.095915
2.375909 34.932297 0.095935
2.690630 34.932297 0.096044
3.005352 34.932297 0.096803
3.320073 34.932297 0.097665
3.634794 34.932297 0.098206
3.949515 34.932297 0.099098
4.264236 34.932297 0.100248
4.578956 34.932297 0.101712
4.893677 34.932297 0.103598
5.208398 34.932297 0.106269
5.523119 34.932297 0.109607
5.837841 34.932297 0.114525
6.152562 34.932297 0.121014
6.467283 34.932297 0.128482
6.782003 34.932297 0.137567
7.096724 34.932297 0.149864
7.411445 34.932297 0.170127
7.726166 34.932297 0.201019
8.040888 34.932297 0.254000
8.355608 34.932297 0.355440
8.670330 34.932297 0.501074
8.985050 34.932297 0.705494
9.299772 34.932297 0.961891
9.614492 34.932297 1.239329
9.929214 34.932297 1.520163
10.243935 34.932297 1.785395
10.558655 34.932297 2.047803
10.873377 34.932297 2.269853
11.188097 34.932297 2.466705
11.502819 34.932297 2.631878
11.817539 34.932297 2.826205
12.132261 34.932297 2.958464
12.446981 34.932297 3.053920
12.761703 34.932297 3.083748
13.076424 34.932297 3.081877
13.391144 34.932297 3.055225
13.705866 34.932297 3.007842
14.020586 34.932297 2.897701
14.335308 34.932297 2.722111
14.650028 34.932297 2.492981
14.964750 34.932297 2.276046
15.279470 34.932297 2.075587
15.594193 34.932297 1.887886
15.908913 34.932297 1.845258
16.223633 34.932297 1.892878
16.538355 34.932297 0.000000
16.853075 34.932297 0.000000
17.167797 34.932297 0.000000
17.482517 34.932297 0.000000
17.797239 34.932297 0.000000
18.111959 34.932297 0.000000
18.426680 34.932297 0.000000
18.741402 34.932297 0.000000
-7.065720 34.617577 0.000000
-6.750999 34.617577 0.099649
-6.436278 34.617577 0.097436
-6.121557 34.617577 0.096551
-5.806836 34.617577 0.096047
-5.492115 34.617577 0.095480
-5.177394 34.617577 0.095029
-4.862673 34.617577 0.094394
-4.547952 34.617577 0.093709
-4.233231 34.617577 0.093132
-3.918510 34.617577 0.092768
-3.603789 34.617577 0.092784
-3.289068 34.617577 0.093177
-2.974347 34.617577 0.093630
-2.659626 34.617577 0.094156
-2.344905 34.617577 0.094508
-2.030184 34.617577 0.094818
-1.715463 34.617577 0.095168
-1.400742 34.617577 0.095335
-1.086021 34.617577 0.094964
-0.771300 34.617577 0.094391
-0.456579 34.617577 0.093883
-0.141859 34.617577 0.093526
0.172863 34.617577 0.093515
0.487584 34.617577 0.093687
0.802305 34.617577 0.093718
1.117026 34.617577 0.094039
1.431747 34.617577 0.094779
1.746467 34.617577 0.095511
2.061188 34.617577 0.095958
2.375909 34.617577 0.096000
2.690630 34.617577 0.096072
3.005352 34.617577 0.096547
3.320073 34.617577 0.097318
3.634794 34.617577 0.097840
3.949515 34.617577 0.098750
4.264236 34.617577 0.099946
4.578956 34.617577 0.101505
4.893677 34.617577 0.103562
5.208398 34.617577 0.106008
5.523119 34.617577 0.109288
5.837841 34.617577 0.114493
6.152562 34.617577 0.121185
6.467283 34.617577 0.128681
6.782003 34.617577 0.137630
7.096724 34.617577 0.150033
7.411445 34.617577 0.169850
7.726166 34.617577 0.199610
8.040888 34.617577 0.254408
8.355608 34.617577 0.352267
8.670330 34.617577 0.509082
8.985050 34.617577 0.706736
9.299772 34.617577 0.969790
9.614492 34.617577 1.241136
9.929214 34.617577 1.514173
10.243935 34.617577 1.777223
10.558655 34.617577 2.052046
10.873377 34.617577 2.285833
11.188097 34.617577 2.461813
11.502819 34.617577 2.636343
11.817539 34.617577 2.831600
12.132261 34.617577 2.981259
12.446981 34.617577 3.054922
12.761703 34.617577 3.092153
13.076424 34.617577 3.076964
13.391144 34.617577 3.054684
13.705866 34.617577 2.995042
14.020586 34.617577 2.894837
14.335308 34.617577 2.737366
14.650028 34.617577 2.501197
14.964750 34.617577 2.282700
15.279470 34.617577 2.094294
15.594193 34.617577 1.915519
15.908913 34.617577 1.838633
16.223633 34.617577 1.897789
16.538355 34.617577 0.000000
16.853075 34.617577 0.000000
17.167797 34.617577 0.000000
17.482517 34.617577 0.000000
17.797239 34.617577 0.000000
18.111959 34.617577 0.000000
18.426680 34.617577 0.000000
18.741402 34.617577 0.000000
-7.065720 34.302856 0.000000
-6.750999 34.302856 0.099565
-6.436278 34.302856 0.097155
-6.121557 34.302856 0.096158
-5.806836 34.302856 0.095558
-5.492115 34.302856 0.094819
-5.177394 34.302856 0.094467
-4.862673 34.302856 0.094316
-4.547952 34.302856 0.093991
-4.233231 34.302856 0.093351
-3.918510 34.302856 0.092848
-3.603789 34.302856 0.092926
-3.289068 34.302856 0.093434
-2.974347 34.302856 0.093812
-2.659626 34.302856 0.094090
-2.344905 34.302856 0.094285
-2.030184 34.302856 0.094658
-1.715463 34.302856 0.094976
-1.400742 34.302856 0.095091
-1.086021 34.302856 0.094654
-0.771300 34.302856 0.093981
-0.456579 34.302856 0.093503
-0.141859 34.302856 0.093344
0.172863 34.302856 0.093371
0.487584 34.302856 0.093726
0.802305 34.302856 0.093999
1.117026 34.302856 0.094318
1.431747 34.302856 0.095018
1.746467 34.302856 0.095514
2.061188 34.302856 0.095862
2.375909 34.302856 0.095957
2.690630 34.302856 0.096050
3.005352 34.302856 0.096339
3.320073 34.302856 0.096973
3.634794 34.302856 0.097678
3.949515 34.302856 0.098611
4.264236 34.302856 0.099830
4.578956 34.302856 0.101526
4.893677 34.302856 0.103712
5.208398 34.302856 0.106108
5.523119 34.302856 0.109419
5.837841 34.302856 0.114330
6.152562 34.302856 0.121068
6.467283 34.302856 0.128733
6.782003 34.302856 0.138146
7.096724 34.302856 0.150604
7.411445 34.302856 0.170142
7.726166 34.302856 0.200799
8.040888 34.302856 0.256567
8.355608 34.302856 0.353076
8.670330 34.302856 0.514720
8.985050 34.302856 0.712927
9.299772 34.302856 0.976152
9.614492 34.302856 1.248516
9.929214 34.302856 1.509695
10.243935 34.302856 1.783963
10.558655 34.302856 2.059943
10.873377 34.302856 2.272079
11.188097 34.302856 2.461302
11.502819 34.302856 2.647564
11.817539 34.302856 2.835621
12.132261 34.302856 2.979368
12.446981 34.302856 3.057920
12.761703 34.302856 3.097078
13.076424 34.302856 3.084548
13.391144 34.302856 3.048853
13.705866 34.302856 2.988686
14.020586 34.302856 2.891653
14.335308 34.302856 2.721192
14.650028 34.302856 2.491780
14.964750 34.302856 2.292188
15.279470 34.302856 2.105910
15.594193 34.302856 1.919225
15.908913 34.302856 1.836772
16.223633 34.302856 1.956439
16.538355 34.302856 0.000000
16.853075 34.302856 0.000000
17.167797 34.302856 0.000000
17.482517 34.302856 0.000000
17.797239 34.302856 0.000000
18.111959 34.302856 0.000000
18.426680 34.302856 0.000000
18.741402 34.302856 0.000000
-7.065720 33.988136 0.000000
-6.750999 33.988136 0.099466
-6.436278 33.988136 0.096810
-6.121557 33.988136 0.095787
-5.806836 33.988136 0.095075
-5.492115 33.988136 0.094215
-5.177394 33.988136 0.093962
-4.862673 33.988136 0.094185
-4.547952 33.988136 0.094147
-4.233231 33.988136 0.093578
-3.918510 33.988136 0.093029
-3.603789 33.988136 0.093189
-3.289068 33.988136 0.093724
-2.974347 33.988136 0.093915
-2.659626 33.988136 0.093861
-2.344905 33.988136 0.094002
-2.030184 33.988136 0.094388
-1.715463 33.988136 0.094650
-1.400742 33.988136 0.094719
-1.086021 33.988136 0.094272
-0.771300 33.988136 0.093674
-0.456579 33.988136 0.093341
-0.141859 33.988136 0.093344
0.172863 33.988136 0.093475
0.487584 33.988136 0.093911
0.802305 33.988136 0.094313
1.117026 33.988136 0.094628
1.431747 33.988136 0.095168
1.746467 33.988136 0.095442
2.061188 33.988136 0.095626
2.375909 33.988136 0.095860
2.690630 33.988136 0.095956
3.005352 33.988136 0.096087
3.320073 33.988136 0.096622
3.634794 33.988136 0.097486
3.949515 33.988136 0.098560
4.264236 33.988136 0.099897
4.578956 33.988136 0.101704
4.893677 33.988136 0.103908
5.208398 33.988136 0.106532
5.523119 33.988136 0.109627
5.837841 33.988136 0.114685
6.152562 33.988136 0.121154
6.467283 33.988136 0.128608
6.782003 33.988136 0.137757
7.096724 33.988136 0.149865
7.411445 33.988136 0.168380
7.726166 33.988136 0.199487
8.040888 33.988136 0.257625
8.355608 33.988136 0.356818
8.670330 33.988136 0.511420
8.985050 33.988136 0.722160
9.299772 33.988136 0.951327
9.614492 33.988136 1.230559
9.929214 33.988136 1.509740
10.243935 33.988136 1.792997
10.558655 33.988136 2.050783
10.873377 33.988136 2.273102
11.188097 33.988136 2.466143
11.502819 33.988136 2.645094
11.817539 33.988136 2.835657
12.132261 33.988136 2.991951
12.446981 33.988136 3.073742
12.761703 33.988136 3.088811
13.076424 33.988136 3.096154
13.391144 33.988136 3.063025
13.705866 33.988136 2.985225
14.020586 33.988136 2.888432
14.335308 33.988136 2.713256
14.650028 33.988136 2.504165
14.964750 33.988136 2.301406
15.279470 33.988136 2.112250
15.594193 33.988136 1.945831
15.908913 33.988136 1.859340
16.223633 33.988136 1.973245
16.538355 33.988136 0.000000
16.853075 33.988136 0.000000
17.167797 33.988136 0.000000
17.482517 33.988136 0.000000
17.797239 33.988136 0.000000
18.111959 33.988136 0.000000
18.426680 33.988136 0.000000
18.741402 33.988136 0.000000
-7.065720 33.673416 0.000000
-6.750999 33.673416 0.099178
-6.436278 33.673416 0.096305
-6.121557 33.673416 0.095280
-5.806836 33.673416 0.094613
-5.492115 33.673416 0.093743
-5.177394 33.673416 0.093536
-4.862673 33.673416 0.094002
-4.547952 33.673416 0.094182
-4.233231 33.673416 0.093742
-3.918510 33.673416 0.093321
-3.603789 33.673416 0.093471
-3.289068 33.673416 0.093932
-2.974347 33.673416 0.093934
-2.659626 33.673416 0.093655
-2.344905 33.673416 0.093720
-2.030184 33.673416 0.094094
-1.715463 33.673416 0.094280
-1.400742 33.673416 0.094211
-1.086021 33.673416 0.093792
-0.771300 33.673416 0.093507
-0.456579 33.673416 0.093476
-0.141859 33.673416 0.093548
0.172863 33.673416 0.093716
0.487584 33.673416 0.094202
0.802305 33.673416 0.094653
1.117026 33.673416 0.094935
1.431747 33.673416 0.095140
1.746467 33.673416 0.095180
2.061188 33.673416 0.095293
2.375909 33.673416 0.095647
2.690630 33.673416 0.095794
3.005352 33.673416 0.095765
3.320073 33.673416 0.096321
3.634794 33.673416 0.097396
3.949515 33.673416 0.098619
4.264236 33.673416 0.099991
4.578956 33.673416 0.101746
4.893677 33.673416 0.104014
5.208398 33.673416 0.106778
5.523119 33.673416 0.110269
5.837841 33.673416 0.115135
6.152562 33.673416 0.121153
6.467283 33.673416 0.128611
6.782003 33.673416 0.137945
7.096724 33.673416 0.150004
7.411445 33.673416 0.169264
7.726166 33.673416 0.198208
8.040888 33.673416 0.255567
8.355608 33.673416 0.358631
8.670330 33.673416 0.513905
8.985050 33.673416 0.716581
9.299772 33.673416 0.961904
9.614492 33.673416 1.232231
9.929214 33.673416 1.504561
10.243935 33.673416 1.800532
10.558655 33.673416 2.054508
10.873377 33.673416 2.287055
11.188097 33.673416 2.487440
11.502819 33.673416 2.656522
11.817539 33.673416 2.823189
12.132261 33.673416 2.991021
12.446981 33.673416 3.073388
12.761703 33.673416 3.101361
13.076424 33.673416 3.106669
13.391144 33.673416 3.068337
13.705866 33.673416 2.982220
14.020586 33.673416 2.878808
14.335308 33.673416 2.711334
14.650028 33.673416 2.507890
14.964750 33.673416 2.306191
15.279470 33.673416 2.131806
15.594193 33.673416 1.947493
15.908913 33.673416 1.855838
16.223633 33.673416 1.910568
16.538355 33.673416 0.000000
16.853075 33.673416 0.000000
17.167797 33.673416 0.000000
17.482517 33.673416 0.000000
17.797239 33.673416 0.000000
18.111959 33.673416 0.000000
18.426680 33.673416 0.000000
18.741402 33.673416 0.000000
-7.065720 33.358696 0.000000
-6.750999 33.358696 0.098718
-6.436278 33.358696 0.095801
-6.121557 33.358696 0.094730
-5.806836 33.358696 0.094333
-5.492115 33.358696 0.093545
-5.177394 33.358696 0.093304
-4.862673 33.358696 0.093784
-4.547952 33.358696 0.094056
-4.233231 33.358696 0.093940
-3.918510 33.358696 0.093728
-3.603789 33.358696 0.093801
-3.289068 33.358696 0.094036
-2.974347 33.358696 0.093897
-2.659626 33.358696 0.093478
-2.344905 33.358696 0.093471
-2.030184 33.358696 0.093754
-1.715463 33.358696 0.093821
-1.400742 33.358696 0.093642
-1.086021 33.358696 0.093417
-0.771300 33.358696 0.093452
-0.456579 33.358696 0.093801
-0.141859 33.358696 0.093993
0.172863 33.358696 0.094107
0.487584 33.358696 0.094599
0.802305 33.358696 0.094982
1.117026 33.358696 0.095112
1.431747 33.358696 0.095103
1.746467 33.358696 0.094984
2.061188 33.358696 0.094967
2.375909 33.358696 0.095368
2.690630 33.358696 0.095509
3.005352 33.358696 0.095392
3.320073 33.358696 0.096011
3.634794 33.358696 0.097318
3.949515 33.358696 0.098634
4.264236 33.358696 0.100043
4.578956 33.358696 0.101782
4.893677 33.358696 0.104202
5.208398 33.358696 0.107249
5.523119 33.358696 0.110980
5.837841 33.358696 0.115717
6.152562 33.358696 0.121226
6.467283 33.358696 0.128463
6.782003 33.358696 0.137923
7.096724 33.358696 0.149873
7.411445 33.358696 0.169093
7.726166 33.358696 0.197853
8.040888 33.358696 0.255012
8.355608 33.358696 0.359587
8.670330 33.358696 0.514850
8.985050 33.358696 0.713603
9.299772 33.358696 0.972992
9.614492 33.358696 1.241726
9.929214 33.358696 1.513948
10.243935 33.358696 1.793267
10.558655 33.358696 2.042943
10.873377 33.358696 2.284765
11.188097 33.358696 2.519909
11.502819 33.358696 2.693103
11.817539 33.358696 2.831376
12.132261 33.358696 2.991918
12.446981 33.358696 3.063754
12.761703 33.358696 3.116781
13.076424 33.358696 3.114769
13.391144 33.358696 3.053118
13.705866 33.358696 2.958693
14.020586 33.358696 2.864464
14.335308 33.358696 2.728932
14.650028 33.358696 2.523122
14.964750 33.358696 2.310111
15.279470 33.358696 2.119194
15.594193 33.358696 1.945017
15.908913 33.358696 1.857944
16.223633 33.358696 1.557872
16.538355 33.358696 0.000000
16.853075 33.358696 0.000000
17.167797 33.358696 0.000000
17.482517 33.358696 0.000000
17.797239 33.358696 0.000000
18.111959 33.358696 0.000000
18.426680 33.358696 0.000000
18.741402 33.358696 0.000000
-7.065720 33.043972 0.000000
-6.750999 33.043972 0.098143
-6.436278 33.043972 0.095251
-6.121557 33.043972 0.094319
-5.806836 33.043972 0.094200
-5.492115 33.043972 0.093635
-5.177394 33.043972 0.093274
-4.862673 33.043972 0.093528
-4.547952 33.043972 0.093880
-4.233231 33.043972 0.094076
-3.918510 33.043972 0.094044
-3.603789 33.043972 0.093986
-3.289068 33.043972 0.094032
-2.974347 33.043972 0.093800
-2.659626 33.043972 0.093385
-2.344905 33.043972 0.093325
-2.030184 33.043972 0.093424
-1.715463 33.043972 0.093407
-1.400742 33.043972 0.093231
-1.086021 33.043972 0.093216
-0.771300 33.043972 0.093620
-0.456579 33.043972 0.094151
-0.141859 33.043972 0.094482
0.172863 33.043972 0.094636
0.487584 33.043972 0.094941
0.802305 33.043972 0.095245
1.117026 33.043972 0.095193
1.431747 33.043972 0.094957
1.746467 33.043972 0.094719
2.061188 33.043972 0.094664
2.375909 33.043972 0.095037
2.690630 33.043972 0.095118
3.005352 33.043972 0.095013
3.320073 33.043972 0.095798
3.634794 33.043972 0.097279
3.949515 33.043972 0.098688
4.264236 33.043972 0.100107
4.578956 33.043972 0.101831
4.893677 33.043972 0.104345
5.208398 33.043972 0.107740
5.523119 33.043972 0.111223
5.837841 33.043972 0.116064
6.152562 33.043972 0.121700
6.467283 33.043972 0.128355
6.782003 33.043972 0.136862
7.096724 33.043972 0.149567
7.411445 33.043972 0.167964
7.726166 33.043972 0.198887
8.040888 33.043972 0.252908
8.355608 33.043972 0.353901
8.670330 33.043972 0.518266
8.985050 33.043972 0.720466
9.299772 33.043972 0.995105
9.614492 33.043972 1.250424
9.929214 33.043972 1.502463
10.243935 33.043972 1.789599
10.558655 33.043972 2.031191
10.873377 33.043972 2.292809
11.188097 33.043972 2.515281
11.502819 33.043972 2.692187
11.817539 33.043972 2.834676
12.132261 33.043972 2.981381
12.446981 33.043972 3.075943
12.761703 33.043972 3.135146
13.076424 33.043972 3.115662
13.391144 33.043972 3.071156
13.705866 33.043972 2.971241
14.020586 33.043972 2.860804
14.335308 33.043972 2.713112
14.650028 33.043972 2.516748
14.964750 33.043972 2.298019
15.279470 33.043972 2.100145
15.594193 33.043972 1.913575
15.908913 33.043972 1.858313
16.223633 33.043972 1.552819
16.538355 33.043972 0.000000
16.853075 33.043972 0.000000
17.167797 33.043972 0.000000
17.482517 33.043972 0.000000
17.797239 33.043972 0.000000
18.111959 33.043972 0.000000
18.426680 33.043972 0.000000
18.741402 33.043972 0.000000
-7.065720 32.729252 0.000000
-6.750999 32.729252 0.097451
-6.436278 32.729252 0.094728
-6.121557 32.729252 0.094038
-5.806836 32.729252 0.094231
-5.492115 32.729252 0.093954
-5.177394 32.729252 0.093527
-4.862673 32.729252 0.093472
-4.547952 32.729252 0.093658
-4.233231 32.729252 0.094034
-3.918510 32.729252 0.094203
-3.603789 32.729252 0.094094
-3.289068 32.729252 0.094005
-2.974347 32.729252 0.093741
-2.659626 32.729252 0.093315
-2.344905 32.729252 0.093162
-2.030184 32.729252 0.093117
-1.715463 32.729252 0.093094
-1.400742 32.729252 0.092987
-1.086021 32.729252 0.093279
-0.771300 32.729252 0.093894
-0.456579 32.729252 0.094495
-0.141859 32.729252 0.094947
0.172863 32.729252 0.095111
0.487584 32.729252 0.095254
0.802305 32.729252 0.095320
1.117026 32.729252 0.095028
1.431747 32.729252 0.094606
1.746467 32.729252 0.094301
2.061188 32.729252 0.094256
2.375909 32.729252 0.094590
2.690630 32.729252 0.094647
3.005352 32.729252 0.094626
3.320073 32.729252 0.095623
3.634794 32.729252 0.097318
3.949515 32.729252 0.098814
4.264236 32.729252 0.100298
4.578956 32.729252 0.102274
4.893677 32.729252 0.104763
5.208398 32.729252 0.107862
5.523119 32.729252 0.111544
5.837841 32.729252 0.116139
6.152562 32.729252 0.121403
6.467283 32.729252 0.127795
6.782003 32.729252 0.135502
7.096724 32.729252 0.149089
7.411445 32.729252 0.167517
7.726166 32.729252 0.198421
8.040888 32.729252 0.256985
8.355608 32.729252 0.363678
8.670330 32.729252 0.526359
8.985050 32.729252 0.724285
9.299772 32.729252 0.968395
9.614492 32.729252 1.251682
9.929214 32.729252 1.538702
10.243935 32.729252 1.803187
10.558655 32.729252 2.037557
10.873377 32.729252 2.294637
11.188097 32.729252 2.506841
11.502819 32.729252 2.685627
11.817539 32.729252 2.850020
12.132261 32.729252 2.968078
12.446981 32.729252 3.087817
12.761703 32.729252 3.127156
13.076424 32.729252 3.123512
13.391144 32.729252 3.068741
13.705866 32.729252 2.989924
14.020586 32.729252 2.854457
14.335308 32.729252 2.721237
14.650028 32.729252 2.527182
14.964750 32.729252 2.308435
15.279470 32.729252 2.114572
15.594193 32.729252 1.917495
15.908913 32.729252 1.862332
16.223633 32.729252 1.588355
16.538355 32.729252 0.000000
16.853075 32.729252 0.000000
17.167797 32.729252 0.000000
17.482517 32.729252 0.000000
17.797239 32.729252 0.000000
18.111959 32.729252 0.000000
18.426680 32.729252 0.000000
18.741402 32.729252 0.000000
-7.065720 32.414532 0.000000
-6.750999 32.414532 0.096775
-6.436278 32.414532 0.094378
-6.121557 32.414532 0.093962
-5.806836 32.414532 0.094416
-5.492115 32.414532 0.094433
-5.177394 32.414532 0.094023
-4.862673 32.414532 0.093574
-4.547952 32.414532 0.093550
-4.233231 32.414532 0.093954
-3.918510 32.414532 0.094167
-3.603789 32.414532 0.093979
-3.289068 32.414532 0.093767
-2.974347 32.414532 0.093556
-2.659626 32.414532 0.093234
-2.344905 32.414532 0.092933
-2.030184 32.414532 0.092783
-1.715463 32.414532 0.092894
-1.400742 32.414532 0.092992
-1.086021 32.414532 0.093462
-0.771300 32.414532 0.094150
-0.456579 32.414532 0.094763
-0.141859 32.414532 0.095247
0.172863 32.414532 0.095371
0.487584 32.414532 0.095291
0.802305 32.414532 0.095045
1.117026 32.414532 0.094564
1.431747 32.414532 0.094046
1.746467 32.414532 0.093737
2.061188 32.414532 0.093777
2.375909 32.414532 0.094055
2.690630 32.414532 0.094165
3.005352 32.414532 0.094373
3.320073 32.414532 0.095614
3.634794 32.414532 0.097400
3.949515 32.414532 0.099104
4.264236 32.414532 0.100753
4.578956 32.414532 0.102949
4.893677 32.414532 0.105196
5.208398 32.414532 0.108091
5.523119 32.414532 0.111602
5.837841 32.414532 0.115674
6.152562 32.414532 0.120856
6.467283 32.414532 0.126625
6.782003 32.414532 0.134581
7.096724 32.414532 0.147793
7.411445 32.414532 0.166373
7.726166 32.414532 0.198466
8.040888 32.414532 0.261645
8.355608 32.414532 0.366098
8.670330 32.414532 0.530021
8.985050 32.414532 0.737768
9.299772 32.414532 0.961963
9.614492 32.414532 1.250603
9.929214 32.414532 1.522709
10.243935 32.414532 1.789113
10.558655 32.414532 2.041322
10.873377 32.414532 2.301237
11.188097 32.414532 2.509814
11.502819 32.414532 2.682427
11.817539 32.414532 2.827429
12.132261 32.414532 2.967343
12.446981 32.414532 3.067525
12.761703 32.414532 3.114481
13.076424 32.414532 3.108676
13.391144 32.414532 3.077873
13.705866 32.414532 2.982766
14.020586 32.414532 2.858334
14.335308 32.414532 2.722039
14.650028 32.414532 2.536482
14.964750 32.414532 2.316767
15.279470 32.414532 2.105445
15.594193 32.414532 1.937079
15.908913 32.414532 1.890833
16.223633 32.414532 1.571890
16.538355 32.414532 0.000000
16.853075 32.414532 0.000000
17.167797 32.414532 0.000000
17.482517 32.414532 0.000000
17.797239 32.414532 0.000000
18.111959 32.414532 0.000000
18.426680 32.414532 0.000000
18.741402 32.414532 0.000000
-7.065720 32.099808 0.000000
-6.750999 32.099808 0.096360
-6.436278 32.099808 0.094214
-6.121557 32.099808 0.094129
-5.806836 32.099808 0.094740
-5.492115 32.099808 0.094933
-5.177394 32.099808 0.094588
-4.862673 32.099808 0.093923
-4.547952 32.099808 0.093654
-4.233231 32.099808 0.093911
-3.918510 32.099808 0.094054
-3.603789 32.099808 0.093691
-3.289068 32.099808 0.093384
-2.974347 32.099808 0.093362
-2.659626 32.099808 0.093126
-2.344905 32.099808 0.092739
-2.030184 32.099808 0.092617
-1.715463 32.099808 0.092838
-1.400742 32.099808 0.093247
-1.086021 32.099808 0.093802
-0.771300 32.099808 0.094354
-0.456579 32.099808 0.094854
-0.141859 32.099808 0.095340
0.172863 32.099808 0.095478
0.487584 32.099808 0.095110
0.802305 32.099808 0.094552
1.117026 32.099808 0.093920
1.431747 32.099808 0.093389
1.746467 32.099808 0.093225
2.061188 32.099808 0.093318
2.375909 32.099808 0.093538
2.690630 32.099808 0.093810
3.005352 32.099808 0.094367
3.320073 32.099808 0.095784
3.634794 32.099808 0.097686
3.949515 32.099808 0.099404
4.264236 32.099808 0.101282
4.578956 32.099808 0.103536
4.893677 32.099808 0.105791
5.208398 32.099808 0.108241
5.523119 32.099808 0.111358
5.837841 32.099808 0.114978
6.152562 32.099808 0.119730
6.467283 32.099808 0.125504
6.782003 32.099808 0.133480
7.096724 32.099808 0.145890
7.411445 32.099808 0.165318
7.726166 32.099808 0.197844
8.040888 32.099808 0.259058
8.355608 32.099808 0.365653
8.670330 32.099808 0.529045
8.985050 32.099808 0.729761
9.299772 32.099808 0.972045
9.614492 32.099808 1.246194
9.929214 32.099808 1.511482
10.243935 32.099808 1.784634
10.558655 32.099808 2.023863
10.873377 32.099808 2.279483
11.188097 32.099808 2.503574
11.502819 32.099808 2.681861
11.817539 32.099808 2.829087
12.132261 32.099808 2.959495
12.446981 32.099808 3.053070
12.761703 32.099808 3.103629
13.076424 32.099808 3.122103
13.391144 32.099808 3.094121
13.705866 32.099808 3.010329
14.020586 32.099808 2.877581
14.335308 32.099808 2.729203
14.650028 32.099808 2.536455
14.964750 32.099808 2.330563
15.279470 32.099808 2.117955
15.594193 32.099808 1.955396
15.908913 32.099808 1.879817
16.223633 32.099808 1.532876
16.538355 32.099808 0.000000
16.853075 32.099808 0.000000
17.167797 32.099808 0.000000
17.482517 32.099808 0.000000
17.797239 32.099808 0.000000
18.111959 32.099808 0.000000
18.426680 32.099808 0.000000
18.741402 32.099808 0.000000
-7.065720 31.785089 0.000000
-6.750999 31.785089 0.096416
-6.436278 31.785089 0.094425
-6.121557 31.785089 0.094486
-5.806836 31.785089 0.095076
-5.492115 31.785089 0.095414
-5.177394 31.785089 0.095088
-4.862673 31.785089 0.094311
-4.547952 31.785089 0.093793
-4.233231 31.785089 0.093802
-3.918510 31.785089 0.093722
-3.603789 31.785089 0.093267
-3.289068 31.785089 0.093018
-2.974347 31.785089 0.093175
-2.659626 31.785089 0.093061
-2.344905 31.785089 0.092732
-2.030184 31.785089 0.092688
-1.715463 31.785089 0.093063
-1.400742 31.785089 0.093646
-1.086021 31.785089 0.094184
-0.771300 31.785089 0.094611
-0.456579 31.785089 0.094877
-0.141859 31.785089 0.095237
0.172863 31.785089 0.095175
0.487584 31.785089 0.094555
0.802305 31.785089 0.093803
1.117026 31.785089 0.093179
1.431747 31.785089 0.092720
1.746467 31.785089 0.092696
2.061188 31.785089 0.092804
2.375909 31.785089 0.093054
2.690630 31.785089 0.093646
3.005352 31.785089 0.094635
3.320073 31.785089 0.096176
3.634794 31.785089 0.098094
3.949515 31.785089 0.099883
4.264236 31.785089 0.101784
4.578956 31.785089 0.103932
4.893677 31.785089 0.105964
5.208398 31.785089 0.108035
5.523119 31.785089 0.110743
5.837841 31.785089 0.113955
6.152562 31.785089 0.118162
6.467283 31.785089 0.124565
6.782003 31.785089 0.132973
7.096724 31.785089 0.144961
7.411445 31.785089 0.164252
7.726166 31.785089 0.197367
8.040888 31.785089 0.257110
8.355608 31.785089 0.363085
8.670330 31.785089 0.526238
8.985050 31.785089 0.724859
9.299772 31.785089 0.962886
9.614492 31.785089 1.245597
9.929214 31.785089 1.498469
10.243935 31.785089 1.764058
10.558655 31.785089 2.020454
10.873377 31.785089 2.284281
11.188097 31.785089 2.488836
11.502819 31.785089 2.671062
11.817539 31.785089 2.830890
12.132261 31.785089 2.949770
12.446981 31.785089 3.047084
12.761703 31.785089 3.095000
13.076424 31.785089 3.121371
13.391144 31.785089 3.100550
13.705866 31.785089 3.011114
14.020586 31.785089 2.890954
14.335308 31.785089 2.742646
14.650028 31.785089 2.540794
14.964750 31.785089 2.348056
15.279470 31.785089 2.125958
15.594193 31.785089 1.967165
15.908913 31.785089 1.907990
16.223633 31.785089 1.537603
16.538355 31.785089 0.000000
16.853075 31.785089 0.000000
17.167797 31.785089 0.000000
17.482517 31.785089 0.000000
17.797239 31.785089 0.000000
18.111959 31.785089 0.000000
18.426680 31.785089 0.000000
18.741402 31.785089 0.000000
-7.065720 31.470367 0.000000
-6.750999 31.470367 0.096824
-6.436278 31.470367 0.094817
-6.121557 31.470367 0.094874
-5.806836 31.470367 0.095425
-5.492115 31.470367 0.095618
-5.177394 31.470367 0.095285
-4.862673 31.470367 0.094430
-4.547952 31.470367 0.093824
-4.233231 31.470367 0.093649
-3.918510 31.470367 0.093410
-3.603789 31.470367 0.092870
-3.289068 31.470367 0.092682
-2.974347 31.470367 0.092962
-2.659626 31.470367 0.093063
-2.344905 31.470367 0.092930
-2.030184 31.470367 0.093019
-1.715463 31.470367 0.093523
-1.400742 31.470367 0.094155
-1.086021 31.470367 0.094591
-0.771300 31.470367 0.094790
-0.456579 31.470367 0.094852
-0.141859 31.470367 0.094937
0.172863 31.470367 0.094619
0.487584 31.470367 0.093740
0.802305 31.470367 0.092906
1.117026 31.470367 0.092399
1.431747 31.470367 0.092212
1.746467 31.470367 0.092245
2.061188 31.470367 0.092427
2.375909 31.470367 0.092767
2.690630 31.470367 0.093772
3.005352 31.470367 0.095118
3.320073 31.470367 0.096754
3.634794 31.470367 0.098537
3.949515 31.470367 0.100273
4.264236 31.470367 0.102060
4.578956 31.470367 0.103705
4.893677 31.470367 0.105571
5.208398 31.470367 0.107592
5.523119 31.470367 0.109627
5.837841 31.470367 0.112655
6.152562 31.470367 0.117280
6.467283 31.470367 0.123870
6.782003 31.470367 0.132636
7.096724 31.470367 0.145275
7.411445 31.470367 0.165266
7.726166 31.470367 0.198858
8.040888 31.470367 0.258769
8.355608 31.470367 0.367300
8.670330 31.470367 0.523312
8.985050 31.470367 0.727780
9.299772 31.470367 0.956432
9.614492 31.470367 1.232210
9.929214 31.470367 1.497620
10.243935 31.470367 1.757879
10.558655 31.470367 2.016371
10.873377 31.470367 2.279964
11.188097 31.470367 2.503865
11.502819 31.470367 2.690652
11.817539 31.470367 2.838485
12.132261 31.470367 2.952723
12.446981 31.470367 3.047906
12.761703 31.470367 3.107564
13.076424 31.470367 3.126399
13.391144 31.470367 3.111989
13.705866 31.470367 3.018762
14.020586 31.470367 2.912553
14.335308 31.470367 2.751066
14.650028 31.470367 2.557799
14.964750 31.470367 2.352532
15.279470 31.470367 2.150625
15.594193 31.470367 1.984930
15.908913 31.470367 1.936018
16.223633 31.470367 1.615163
16.538355 31.470367 0.000000
16.853075 31.470367 0.000000
17.167797 31.470367 0.000000
17.482517 31.470367 0.000000
17.797239 31.470367 0.000000
18.111959 31.470367 0.000000
18.426680 31.470367 0.000000
18.741402 31.470367 0.000000
-7.065720 31.155647 0.000000
-6.750999 31.155647 0.097282
-6.436278 31.155647 0.095352
-6.121557 31.155647 0.095224
-5.806836 31.155647 0.095507
-5.492115 31.155647 0.095517
-5.177394 31.155647 0.095148
-4.862673 31.155647 0.094308
-4.547952 31.155647 0.093636
-4.233231 31.155647 0.093292
-3.918510 31.155647 0.092925
-3.603789 31.155647 0.092437
-3.289068 31.155647 0.092468
-2.974347 31.155647 0.092897
-2.659626 31.155647 0.093117
-2.344905 31.155647 0.093309
-2.030184 31.155647 0.093658
-1.715463 31.155647 0.094180
-1.400742 31.155647 0.094735
-1.086021 31.155647 0.094962
-0.771300 31.155647 0.094876
-0.456579 31.155647 0.094669
-0.141859 31.155647 0.094405
0.172863 31.155647 0.093742
0.487584 31.155647 0.092725
0.802305 31.155647 0.091954
1.117026 31.155647 0.091731
1.431747 31.155647 0.091816
1.746467 31.155647 0.092068
2.061188 31.155647 0.092453
2.375909 31.155647 0.093083
2.690630 31.155647 0.094379
3.005352 31.155647 0.095948
3.320073 31.155647 0.097503
3.634794 31.155647 0.099014
3.949515 31.155647 0.100527
4.264236 31.155647 0.102048
4.578956 31.155647 0.103476
4.893677 31.155647 0.104669
5.208398 31.155647 0.106193
5.523119 31.155647 0.108215
5.837841 31.155647 0.111544
6.152562 31.155647 0.116747
6.467283 31.155647 0.123655
6.782003 31.155647 0.132725
7.096724 31.155647 0.146605
7.411445 31.155647 0.165988
7.726166 31.155647 0.199441
8.040888 31.155647 0.262115
8.355608 31.155647 0.368420
8.670330 31.155647 0.525268
8.985050 31.155647 0.735193
9.299772 31.155647 0.962843
9.614492 31.155647 1.237652
9.929214 31.155647 1.507283
10.243935 31.155647 1.761423
10.558655 31.155647 2.010049
10.873377 31.155647 2.288993
11.188097 31.155647 2.519099
11.502819 31.155647 2.693694
11.817539 31.155647 2.844631
12.132261 31.155647 2.971734
12.446981 31.155647 3.056326
12.761703 31.155647 3.104147
13.076424 31.155647 3.131853
13.391144 31.155647 3.109504
13.705866 31.155647 3.028771
14.020586 31.155647 2.913962
14.335308 31.155647 2.768889
14.650028 31.155647 2.567692
14.964750 31.155647 2.358166
15.279470 31.155647 2.156728
15.594193 31.155647 2.001487
15.908913 31.155647 1.973559
16.223633 31.155647 0.733761
16.538355 31.155647 0.000000
16.853075 31.155647 0.000000
17.167797 31.155647 0.000000
17.482517 31.155647 0.000000
17.797239 31.155647 0.000000
18.111959 31.155647 0.000000
18.426680 31.155647 0.000000
18.741402 31.155647 0.000000
-7.065720 30.840927 0.000000
-6.750999 30.840927 0.098136
-6.436278 30.840927 0.095838
-6.121557 30.840927 0.095354
-5.806836 30.840927 0.095257
-5.492115 30.840927 0.094938
-5.177394 30.840927 0.094480
-4.862673 30.840927 0.093749
-4.547952 30.840927 0.093141
-4.233231 30.840927 0.092700
-3.918510 30.840927 0.092247
-3.603789 30.840927 0.091989
-3.289068 30.840927 0.092319
-2.974347 30.840927 0.092940
-2.659626 30.840927 0.093368
-2.344905 30.840927 0.093861
-2.030184 30.840927 0.094431
-1.715463 30.840927 0.094893
-1.400742 30.840927 0.095219
-1.086021 30.840927 0.095202
-0.771300 30.840927 0.094793
-0.456579 30.840927 0.094246
-0.141859 30.840927 0.093516
0.172863 30.840927 0.092577
0.487584 30.840927 0.091583
0.802305 30.840927 0.091072
1.117026 30.840927 0.091167
1.431747 30.840927 0.091537
1.746467 30.840927 0.092158
2.061188 30.840927 0.092832
2.375909 30.840927 0.093851
2.690630 30.840927 0.095368
3.005352 30.840927 0.097022
3.320073 30.840927 0.098345
3.634794 30.840927 0.099383
3.949515 30.840927 0.100469
4.264236 30.840927 0.101549
4.578956 30.840927 0.102589
4.893677 30.840927 0.103532
5.208398 30.840927 0.104729
5.523119 30.840927 0.106912
5.837841 30.840927 0.110731
6.152562 30.840927 0.116160
6.467283 30.840927 0.123921
6.782003 30.840927 0.134240
7.096724 30.840927 0.147863
7.411445 30.840927 0.169024
7.726166 30.840927 0.202649
8.040888 30.840927 0.267989
8.355608 30.840927 0.371397
8.670330 30.840927 0.534059
8.985050 30.840927 0.734447
9.299772 30.840927 0.972514
9.614492 30.840927 1.239312
9.929214 30.840927 1.503177
10.243935 30.840927 1.763868
10.558655 30.840927 2.016034
10.873377 30.840927 2.303823
11.188097 30.840927 2.511110
11.502819 30.840927 2.706817
11.817539 30.840927 2.854011
12.132261 30.840927 2.973780
12.446981 30.840927 3.060243
12.761703 30.840927 3.111691
13.076424 30.840927 3.129562
13.391144 30.840927 3.108104
13.705866 30.840927 3.003255
14.020586 30.840927 2.908056
14.335308 30.840927 2.737565
14.650028 30.840927 2.572512
14.964750 30.840927 2.377735
15.279470 30.840927 2.174844
15.594193 30.840927 2.038836
15.908913 30.840927 2.023040
16.223633 30.840927 0.000000
16.538355 30.840927 0.000000
16.853075 30.840927 0.000000
17.167797 30.840927 0.000000
17.482517 30.840927 0.000000
17.797239 30.840927 0.000000
18.111959 30.840927 0.000000
18.426680 30.840927 0.000000
18.741402 30.840927 0.000000
-7.065720 30.526205 0.000000
-6.750999 30.526205 0.098629
-6.436278 30.526205 0.096050
-6.121557 30.526205 0.095149
-5.806836 30.526205 0.094657
-5.492115 30.526205 0.093983
-5.177394 30.526205 0.093535
-4.862673 30.526205 0.093021
-4.547952 30.526205 0.092498
-4.233231 30.526205 0.091986
-3.918510 30.526205 0.091639
-3.603789 30.526205 0.091804
-3.289068 30.526205 0.092440
-2.974347 30.526205 0.093222
-2.659626 30.526205 0.093838
-2.344905 30.526205 0.094605
-2.030184 30.526205 0.095230
-1.715463 30.526205 0.095434
-1.400742 30.526205 0.095423
-1.086021 30.526205 0.095144
-0.771300 30.526205 0.094488
-0.456579 30.526205 0.093536
-0.141859 30.526205 0.092469
0.172863 30.526205 0.091381
0.487584 30.526205 0.090598
0.802305 30.526205 0.090470
1.117026 30.526205 0.090831
1.431747 30.526205 0.091701
1.746467 30.526205 0.092574
2.061188 30.526205 0.093619
2.375909 30.526205 0.094973
2.690630 30.526205 0.096546
3.005352 30.526205 0.098013
3.320073 30.526205 0.099056
3.634794 30.526205 0.099522
3.949515 30.526205 0.099971
4.264236 30.526205 0.100797
4.578956 30.526205 0.101549
4.893677 30.526205 0.102299
5.208398 30.526205 0.103404
5.523119 30.526205 0.105945
5.837841 30.526205 0.109960
6.152562 30.526205 0.115744
6.467283 30.526205 0.123960
6.782003 30.526205 0.134321
7.096724 30.526205 0.148596
7.411445 30.526205 0.170127
7.726166 30.526205 0.204584
8.040888 30.526205 0.268020
8.355608 30.526205 0.372361
8.670330 30.526205 0.531092
8.985050 30.526205 0.733164
9.299772 30.526205 0.979697
9.614492 30.526205 1.241217
9.929214 30.526205 1.511841
10.243935 30.526205 1.761239
10.558655 30.526205 2.026977
10.873377 30.526205 2.290325
11.188097 30.526205 2.523005
11.502819 30.526205 2.708830
11.817539 30.526205 2.861924
12.132261 30.526205 2.968310
12.446981 30.526205 3.060460
12.761703 30.526205 3.110883
13.076424 30.526205 3.132380
13.391144 30.526205 3.103331
13.705866 30.526205 2.998404
14.020586 30.526205 2.884135
14.335308 30.526205 2.740054
14.650028 30.526205 2.547862
14.964750 30.526205 2.369643
15.279470 30.526205 2.167755
15.594193 30.526205 2.024366
15.908913 30.526205 2.078079
16.223633 30.526205 0.000000
16.538355 30.526205 0.000000
16.853075 30.526205 0.000000
17.167797 30.526205 0.000000
17.482517 30.526205 0.000000
17.797239 30.526205 0.000000
18.111959 30.526205 0.000000
18.426680 30.526205 0.000000
18.741402 30.526205 0.000000
-7.065720 30.211485 0.000000
-6.750999 30.211485 0.098778
-6.436278 30.211485 0.095920
-6.121557 30.211485 0.094538
-5.806836 30.211485 0.093770
-5.492115 30.211485 0.093073
-5.177394 30.211485 0.092699
-4.862673 30.211485 0.092357
-4.547952 30.211485 0.091984
-4.233231 30.211485 0.091596
-3.918510 30.211485 0.091519
-3.603789 30.211485 0.092029
-3.289068 30.211485 0.092811
-2.974347 30.211485 0.093717
-2.659626 30.211485 0.094477
-2.344905 30.211485 0.095349
-2.030184 30.211485 0.095857
-1.715463 30.211485 0.095704
-1.400742 30.211485 0.095245
-1.086021 30.211485 0.094639
-0.771300 30.211485 0.093794
-0.456579 30.211485 0.092653
-0.141859 30.211485 0.091439
0.172863 30.211485 0.090432
0.487584 30.211485 0.089981
0.802305 30.211485 0.090266
1.117026 30.211485 0.091000
1.431747 30.211485 0.092189
1.746467 30.211485 0.093328
2.061188 30.211485 0.094652
2.375909 30.211485 0.096185
2.690630 30.211485 0.097658
3.005352 30.211485 0.098835
3.320073 30.211485 0.099389
3.634794 30.211485 0.099271
3.949515 30.211485 0.099306
4.264236 30.211485 0.099765
4.578956 30.211485 0.100342
4.893677 30.211485 0.101101
5.208398 30.211485 0.102432
5.523119 30.211485 0.105447
5.837841 30.211485 0.109900
6.152562 30.211485 0.115836
6.467283 30.211485 0.124519
6.782003 30.211485 0.135353
7.096724 30.211485 0.149729
7.411445 30.211485 0.170211
7.726166 30.211485 0.204077
8.040888 30.211485 0.265438
8.355608 30.211485 0.366994
8.670330 30.211485 0.532169
8.985050 30.211485 0.737550
9.299772 30.211485 0.971310
9.614492 30.211485 1.242170
9.929214 30.211485 1.503466
10.243935 30.211485 1.747042
10.558655 30.211485 2.023441
10.873377 30.211485 2.291855
11.188097 30.211485 2.532144
11.502819 30.211485 2.705211
11.817539 30.211485 2.848765
12.132261 30.211485 2.971918
12.446981 30.211485 3.054229
12.761703 30.211485 3.115668
13.076424 30.211485 3.125716
13.391144 30.211485 3.111588
13.705866 30.211485 3.018837
14.020586 30.211485 2.881660
14.335308 30.211485 2.719349
14.650028 30.211485 2.556849
14.964750 30.211485 2.362692
15.279470 30.211485 2.186124
15.594193 30.211485 2.069100
15.908913 30.211485 2.116104
16.223633 30.211485 0.000000
16.538355 30.211485 0.000000
16.853075 30.211485 0.000000
17.167797 30.211485 0.000000
17.482517 30.211485 0.000000
17.797239 30.211485 0.000000
18.111959 30.211485 0.000000
18.426680 30.211485 0.000000
18.741402 30.211485 0.000000
-7.065720 29.896763 0.000000
-6.750999 29.896763 0.098534
-6.436278 29.896763 0.095297
-6.121557 29.896763 0.093656
-5.806836 29.896763 0.092731
-5.492115 29.896763 0.092154
-5.177394 29.896763 0.091920
-4.862673 29.896763 0.091834
-4.547952 29.896763 0.091791
-4.233231 29.896763 0.091700
-3.918510 29.896763 0.092062
-3.603789 29.896763 0.092782
-3.289068 29.896763 0.093558
-2.974347 29.896763 0.094402
-2.659626 29.896763 0.095194
-2.344905 29.896763 0.095871
-2.030184 29.896763 0.096026
-1.715463 29.896763 0.095377
-1.400742 29.896763 0.094496
-1.086021 29.896763 0.093724
-0.771300 29.896763 0.092671
-0.456579 29.896763 0.091645
-0.141859 29.896763 0.090642
0.172863 29.896763 0.089965
0.487584 29.896763 0.090044
0.802305 29.896763 0.090701
1.117026 29.896763 0.091781
1.431747 29.896763 0.093158
1.746467 29.896763 0.094349
2.061188 29.896763 0.095821
2.375909 29.896763 0.097319
2.690630 29.896763 0.098412
3.005352 29.896763 0.099079
3.320073 29.896763 0.099106
3.634794 29.896763 0.098613
3.949515 29.896763 0.098284
4.264236 29.896763 0.098595
4.578956 29.896763 0.099143
4.893677 29.896763 0.100051
5.208398 29.896763 0.102042
5.523119 29.896763 0.105400
5.837841 29.896763 0.110602
6.152562 29.896763 0.116937
6.467283 29.896763 0.125420
6.782003 29.896763 0.136966
7.096724 29.896763 0.151172
7.411445 29.896763 0.170688
7.726166 29.896763 0.204318
8.040888 29.896763 0.264631
8.355608 29.896763 0.376605
8.670330 29.896763 0.530126
8.985050 29.896763 0.734250
9.299772 29.896763 0.965859
9.614492 29.896763 1.235622
9.929214 29.896763 1.490786
10.243935 29.896763 1.751034
10.558655 29.896763 2.017501
10.873377 29.896763 2.301725
11.188097 29.896763 2.528968
11.502819 29.896763 2.710421
11.817539 29.896763 2.871058
12.132261 29.896763 2.976680
12.446981 29.896763 3.064143
12.761703 29.896763 3.096264
13.076424 29.896763 3.129573
13.391144 29.896763 3.116595
13.705866 29.896763 3.032726
14.020586 29.896763 2.887313
14.335308 29.896763 2.724337
14.650028 29.896763 2.563608
14.964750 29.896763 2.381467
15.279470 29.896763 2.192342
15.594193 29.896763 2.114304
15.908913 29.896763 2.205570
16.223633 29.896763 0.000000
16.538355 29.896763 0.000000
16.853075 29.896763 0.000000
17.167797 29.896763 0.000000
17.482517 29.896763 0.000000
17.797239 29.896763 0.000000
18.111959 29.896763 0.000000
18.426680 29.896763 0.000000
18.741402 29.896763 0.000000
-7.065720 29.582043 0.000000
-6.750999 29.582043 0.097889
-6.436278 29.582043 0.094458
-6.121557 29.582043 0.092760
-5.806836 29.582043 0.091898
-5.492115 29.582043 0.091514
-5.177394 29.582043 0.091587
-4.862673 29.582043 0.091779
-4.547952 29.582043 0.092081
-4.233231 29.582043 0.092397
-3.918510 29.582043 0.093165
-3.603789 29.582043 0.093911
-3.289068 29.582043 0.094548
-2.974347 29.582043 0.095214
-2.659626 29.582043 0.095659
-2.344905 29.582043 0.095889
-2.030184 29.582043 0.095525
-1.715463 29.582043 0.094520
-1.400742 29.582043 0.093351
-1.086021 29.582043 0.092399
-0.771300 29.582043 0.091429
-0.456579 29.582043 0.090757
-0.141859 29.582043 0.090289
0.172863 29.582043 0.090131
0.487584 29.582043 0.090685
0.802305 29.582043 0.091713
1.117026 29.582043 0.093036
1.431747 29.582043 0.094344
1.746467 29.582043 0.095438
2.061188 29.582043 0.096779
2.375909 29.582043 0.098030
2.690630 29.582043 0.098663
3.005352 29.582043 0.098679
3.320073 29.582043 0.098251
3.634794 29.582043 0.097498
3.949515 29.582043 0.097100
4.264236 29.582043 0.097392
4.578956 29.582043 0.098124
4.893677 29.582043 0.099503
5.208398 29.582043 0.102012
5.523119 29.582043 0.106264
5.837841 29.582043 0.111838
6.152562 29.582043 0.118565
6.467283 29.582043 0.126949
6.782003 29.582043 0.137532
7.096724 29.582043 0.151278
7.411445 29.582043 0.171194
7.726166 29.582043 0.204240
8.040888 29.582043 0.263962
8.355608 29.582043 0.372571
8.670330 29.582043 0.530803
8.985050 29.582043 0.739311
9.299772 29.582043 0.963072
9.614492 29.582043 1.226702
9.929214 29.582043 1.487494
10.243935 29.582043 1.749152
10.558655 29.582043 2.040194
10.873377 29.582043 2.304730
11.188097 29.582043 2.514645
11.502819 29.582043 2.733594
11.817539 29.582043 2.899980
12.132261 29.582043 3.003127
12.446981 29.582043 3.059681
12.761703 29.582043 3.089187
13.076424 29.582043 3.118657
13.391144 29.582043 3.123494
13.705866 29.582043 3.025469
14.020586 29.582043 2.909034
14.335308 29.582043 2.755793
14.650028 29.582043 2.574323
14.964750 29.582043 2.383481
15.279470 29.582043 2.174829
15.594193 29.582043 2.093348
15.908913 29.582043 2.297891
16.223633 29.582043 0.000000
16.538355 29.582043 0.000000
16.853075 29.582043 0.000000
17.167797 29.582043 0.000000
17.482517 29.582043 0.000000
17.797239 29.582043 0.000000
18.111959 29.582043 0.000000
18.426680 29.582043 0.000000
18.741402 29.582043 0.000000
-7.065720 29.267321 0.000000
-6.750999 29.267321 0.096813
-6.436278 29.267321 0.093399
-6.121557 29.267321 0.091976
-5.806836 29.267321 0.091474
-5.492115 29.267321 0.091401
-5.177394 29.267321 0.091722
-4.862673 29.267321 0.092231
-4.547952 29.267321 0.092872
-4.233231 29.267321 0.093667
-3.918510 29.267321 0.094608
-3.603789 29.267321 0.095167
-3.289068 29.267321 0.095483
-2.974347 29.267321 0.095826
-2.659626 29.267321 0.095684
-2.344905 29.267321 0.095226
-2.030184 29.267321 0.094382
-1.715463 29.267321 0.093190
-1.400742 29.267321 0.091912
-1.086021 29.267321 0.090963
-0.771300 29.267321 0.090362
-0.456579 29.267321 0.090259
-0.141859 29.267321 0.090539
0.172863 29.267321 0.090944
0.487584 29.267321 0.091952
0.802305 29.267321 0.093250
1.117026 29.267321 0.094501
1.431747 29.267321 0.095511
1.746467 29.267321 0.096340
2.061188 29.267321 0.097273
2.375909 29.267321 0.098011
2.690630 29.267321 0.098115
3.005352 29.267321 0.097656
3.320073 29.267321 0.096928
3.634794 29.267321 0.096222
3.949515 29.267321 0.096056
4.264236 29.267321 0.096542
4.578956 29.267321 0.097718
4.893677 29.267321 0.099633
5.208398 29.267321 0.102766
5.523119 29.267321 0.107450
5.837841 29.267321 0.113265
6.152562 29.267321 0.120384
6.467283 29.267321 0.128391
6.782003 29.267321 0.137877
7.096724 29.267321 0.151254
7.411445 29.267321 0.171076
7.726166 29.267321 0.203428
8.040888 29.267321 0.267224
8.355608 29.267321 0.374548
8.670330 29.267321 0.542142
8.985050 29.267321 0.745128
9.299772 29.267321 0.973419
9.614492 29.267321 1.228444
9.929214 29.267321 1.493378
10.243935 29.267321 1.756972
10.558655 29.267321 2.047492
10.873377 29.267321 2.316459
11.188097 29.267321 2.534340
11.502819 29.267321 2.742317
11.817539 29.267321 2.905033
12.132261 29.267321 3.004127
12.446981 29.267321 3.051692
12.761703 29.267321 3.111742
13.076424 29.267321 3.151167
13.391144 29.267321 3.126299
13.705866 29.267321 3.035491
14.020586 29.267321 2.909641
14.335308 29.267321 2.766689
14.650028 29.267321 2.574530
14.964750 29.267321 2.368665
15.279470 29.267321 2.182849
15.594193 29.267321 2.109131
15.908913 29.267321 2.398342
16.223633 29.267321 0.000000
16.538355 29.267321 0.000000
16.853075 29.267321 0.000000
17.167797 29.267321 0.000000
17.482517 29.267321 0.000000
17.797239 29.267321 0.000000
18.111959 29.267321 0.000000
18.426680 29.267321 0.000000
18.741402 29.267321 0.000000
-7.065720 28.952600 0.000000
-6.750999 28.952600 0.095512
-6.436278 28.952600 0.092274
-6.121557 28.952600 0.091400
-5.806836 28.952600 0.091489
-5.492115 28.952600 0.091869
-5.177394 28.952600 0.092381
-4.862673 28.952600 0.093085
-4.547952 28.952600 0.094065
-4.233231 28.952600 0.095140
-3.918510 28.952600 0.096008
-3.603789 28.952600 0.096128
-3.289068 28.952600 0.096055
-2.974347 28.952600 0.095922
-2.659626 28.952600 0.095115
-2.344905 28.952600 0.093946
-2.030184 28.952600 0.092787
-1.715463 28.952600 0.091575
-1.400742 28.952600 0.090518
-1.086021 28.952600 0.089921
-0.771300 28.952600 0.089836
-0.456579 28.952600 0.090341
-0.141859 28.952600 0.091268
0.172863 28.952600 0.092268
0.487584 28.952600 0.093588
0.802305 28.952600 0.094921
1.117026 28.952600 0.095948
1.431747 28.952600 0.096445
1.746467 28.952600 0.096828
2.061188 28.952600 0.097162
2.375909 28.952600 0.097241
2.690630 28.952600 0.096775
3.005352 28.952600 0.096097
3.320073 28.952600 0.095414
3.634794 28.952600 0.095047
3.949515 28.952600 0.095289
4.264236 28.952600 0.096204
4.578956 28.952600 0.097822
4.893677 28.952600 0.100522
5.208398 28.952600 0.104216
5.523119 28.952600 0.108919
5.837841 28.952600 0.114799
6.152562 28.952600 0.121112
6.467283 28.952600 0.129146
6.782003 28.952600 0.137717
7.096724 28.952600 0.151159
7.411445 28.952600 0.171844
7.726166 28.952600 0.203368
8.040888 28.952600 0.267996
8.355608 28.952600 0.377099
8.670330 28.952600 0.549407
8.985050 28.952600 0.745181
9.299772 28.952600 0.983885
9.614492 28.952600 1.235917
9.929214 28.952600 1.501663
10.243935 28.952600 1.785121
10.558655 28.952600 2.057773
10.873377 28.952600 2.316271
11.188097 28.952600 2.542564
11.502819 28.952600 2.739646
11.817539 28.952600 2.891179
12.132261 28.952600 3.011314
12.446981 28.952600 3.049397
12.761703 28.952600 3.091871
13.076424 28.952600 3.138388
13.391144 28.952600 3.107433
13.705866 28.952600 3.040435
14.020586 28.952600 2.901377
14.335308 28.952600 2.758689
14.650028 28.952600 2.592908
14.964750 28.952600 2.395791
15.279470 28.952600 2.183156
15.594193 28.952600 2.171189
15.908913 28.952600 2.477648
16.223633 28.952600 0.000000
16.538355 28.952600 0.000000
16.853075 28.952600 0.000000
17.167797 28.952600 0.000000
17.482517 28.952600 0.000000
17.797239 28.952600 0.000000
18.111959 28.952600 0.000000
18.426680 28.952600 0.000000
18.741402 28.952600 0.000000
-7.065720 28.637878 0.000000
-6.750999 28.637878 0.094398
-6.436278 28.637878 0.091494
-6.121557 28.637878 0.091300
-5.806836 28.637878 0.091995
-5.492115 28.637878 0.092814
-5.177394 28.637878 0.093397
-4.862673 28.637878 0.094211
-4.547952 28.637878 0.095324
-4.233231 28.637878 0.096416
-3.918510 28.637878 0.096945
-3.603789 28.637878 0.096481
-3.289068 28.637878 0.095895
-2.974347 28.637878 0.095290
-2.659626 28.637878 0.093944
-2.344905 28.637878 0.092348
-2.030184 28.637878 0.091109
-1.715463 28.637878 0.090232
-1.400742 28.637878 0.089560
-1.086021 28.637878 0.089557
-0.771300 28.637878 0.090023
-0.456579 28.637878 0.091022
-0.141859 28.637878 0.092396
0.172863 28.637878 0.093774
0.487584 28.637878 0.095154
0.802305 28.637878 0.096258
1.117026 28.637878 0.096833
1.431747 28.637878 0.096714
1.746467 28.637878 0.096492
2.061188 28.637878 0.096222
2.375909 28.637878 0.095694
2.690630 28.637878 0.094979
3.005352 28.637878 0.094385
3.320073 28.637878 0.094014
3.634794 28.637878 0.094317
3.949515 28.637878 0.095221
4.264236 28.637878 0.096587
4.578956 28.637878 0.098826
4.893677 28.637878 0.101974
5.208398 28.637878 0.105687
5.523119 28.637878 0.110328
5.837841 28.637878 0.115664
6.152562 28.637878 0.121592
6.467283 28.637878 0.128775
6.782003 28.637878 0.136927
7.096724 28.637878 0.149996
7.411445 28.637878 0.169683
7.726166 28.637878 0.201496
8.040888 28.637878 0.269673
8.355608 28.637878 0.377706
8.670330 28.637878 0.544284
8.985050 28.637878 0.757674
9.299772 28.637878 0.999517
9.614492 28.637878 1.249674
9.929214 28.637878 1.518349
10.243935 28.637878 1.775451
10.558655 28.637878 2.055366
10.873377 28.637878 2.314959
11.188097 28.637878 2.544966
11.502819 28.637878 2.729601
11.817539 28.637878 2.893020
12.132261 28.637878 3.001879
12.446981 28.637878 3.058532
12.761703 28.637878 3.102782
13.076424 28.637878 3.137845
13.391144 28.637878 3.130239
13.705866 28.637878 3.045992
14.020586 28.637878 2.921245
14.335308 28.637878 2.770002
14.650028 28.637878 2.597754
14.964750 28.637878 2.398256
15.279470 28.637878 2.198593
15.594193 28.637878 2.196080
15.908913 28.637878 2.526446
16.223633 28.637878 0.000000
16.538355 28.637878 0.000000
16.853075 28.637878 0.000000
17.167797 28.637878 0.000000
17.482517 28.637878 0.000000
17.797239 28.637878 0.000000
18.111959 28.637878 0.000000
18.426680 28.637878 0.000000
18.741402 28.637878 0.000000
-7.065720 28.323158 0.000000
-6.750999 28.323158 0.093874
-6.436278 28.323158 0.091428
-6.121557 28.323158 0.091878
-5.806836 28.323158 0.093094
-5.492115 28.323158 0.094170
-5.177394 28.323158 0.094761
-4.862673 28.323158 0.095417
-4.547952 28.323158 0.096331
-4.233231 28.323158 0.097057
-3.918510 28.323158 0.097026
-3.603789 28.323158 0.096034
-3.289068 28.323158 0.095049
-2.974347 28.323158 0.094086
-2.659626 28.323158 0.092474
-2.344905 28.323158 0.090796
-2.030184 28.323158 0.089847
-1.715463 28.323158 0.089500
-1.400742 28.323158 0.089448
-1.086021 28.323158 0.090006
-0.771300 28.323158 0.090937
-0.456579 28.323158 0.092260
-0.141859 28.323158 0.093816
0.172863 28.323158 0.095279
0.487584 28.323158 0.096303
0.802305 28.323158 0.096821
1.117026 28.323158 0.096796
1.431747 28.323158 0.096141
1.746467 28.323158 0.095405
2.061188 28.323158 0.094653
2.375909 28.323158 0.093787
2.690630 28.323158 0.093187
3.005352 28.323158 0.092962
3.320073 28.323158 0.093166
3.634794 28.323158 0.094213
3.949515 28.323158 0.095785
4.264236 28.323158 0.097742
4.578956 28.323158 0.100331
4.893677 28.323158 0.103624
5.208398 28.323158 0.107190
5.523119 28.323158 0.111197
5.837841 28.323158 0.115379
6.152562 28.323158 0.120530
6.467283 28.323158 0.127209
6.782003 28.323158 0.135625
7.096724 28.323158 0.148230
7.411445 28.323158 0.168835
7.726166 28.323158 0.202087
8.040888 28.323158 0.269244
8.355608 28.323158 0.383508
8.670330 28.323158 0.554284
8.985050 28.323158 0.755521
9.299772 28.323158 0.994222
9.614492 28.323158 1.247365
9.929214 28.323158 1.513621
10.243935 28.323158 1.776957
10.558655 28.323158 2.046933
10.873377 28.323158 2.311989
11.188097 28.323158 2.540544
11.502819 28.323158 2.742170
11.817539 28.323158 2.890248
12.132261 28.323158 2.996120
12.446981 28.323158 3.058534
12.761703 28.323158 3.102191
13.076424 28.323158 3.168026
13.391144 28.323158 3.146256
13.705866 28.323158 3.081505
14.020586 28.323158 2.928383
14.335308 28.323158 2.779664
14.650028 28.323158 2.606926
14.964750 28.323158 2.410680
15.279470 28.323158 2.206119
15.594193 28.323158 2.204213
15.908913 28.323158 2.464746
16.223633 28.323158 0.000000
16.538355 28.323158 0.000000
16.853075 28.323158 0.000000
17.167797 28.323158 0.000000
17.482517 28.323158 0.000000
17.797239 28.323158 0.000000
18.111959 28.323158 0.000000
18.426680 28.323158 0.000000
18.741402 28.323158 0.000000
-7.065720 28.008438 0.000000
-6.750999 28.008438 0.094253
-6.436278 28.008438 0.092345
-6.121557 28.008438 0.093203
-5.806836 28.008438 0.094579
-5.492115 28.008438 0.095667
-5.177394 28.008438 0.096097
-4.862673 28.008438 0.096419
-4.547952 28.008438 0.096739
-4.233231 28.008438 0.096780
-3.918510 28.008438 0.096210
-3.603789 28.008438 0.094853
-3.289068 28.008438 0.093645
-2.974347 28.008438 0.092589
-2.659626 28.008438 0.091104
-2.344905 28.008438 0.089749
-2.030184 28.008438 0.089305
-1.715463 28.008438 0.089618
-1.400742 28.008438 0.090260
-1.086021 28.008438 0.091231
-0.771300 28.008438 0.092401
-0.456579 28.008438 0.093699
-0.141859 28.008438 0.095065
0.172863 28.008438 0.096104
0.487584 28.008438 0.096552
0.802305 28.008438 0.096378
1.117026 28.008438 0.095780
1.431747 28.008438 0.094722
1.746467 28.008438 0.093737
2.061188 28.008438 0.092800
2.375909 28.008438 0.092086
2.690630 28.008438 0.091889
3.005352 28.008438 0.092192
3.320073 28.008438 0.093084
3.634794 28.008438 0.094784
3.949515 28.008438 0.096889
4.264236 28.008438 0.099200
4.578956 28.008438 0.101856
4.893677 28.008438 0.104979
5.208398 28.008438 0.107945
5.523119 28.008438 0.110963
5.837841 28.008438 0.114443
6.152562 28.008438 0.118979
6.467283 28.008438 0.125602
6.782003 28.008438 0.133975
7.096724 28.008438 0.146917
7.411445 28.008438 0.166210
7.726166 28.008438 0.202759
8.040888 28.008438 0.267384
8.355608 28.008438 0.388887
8.670330 28.008438 0.554042
8.985050 28.008438 0.765612
9.299772 28.008438 1.003394
9.614492 28.008438 1.256535
9.929214 28.008438 1.510451
10.243935 28.008438 1.771720
10.558655 28.008438 2.039662
10.873377 28.008438 2.311381
11.188097 28.008438 2.542674
11.502819 28.008438 2.731438
11.817539 28.008438 2.886499
12.132261 28.008438 3.001130
12.446981 28.008438 3.065237
12.761703 28.008438 3.113714
13.076424 28.008438 3.163697
13.391144 28.008438 3.148803
13.705866 28.008438 3.083954
14.020586 28.008438 2.940965
14.335308 28.008438 2.775149
14.650028 28.008438 2.605192
14.964750 28.008438 2.423214
15.279470 28.008438 2.245675
15.594193 28.008438 2.181532
15.908913 28.008438 2.374441
16.223633 28.008438 0.000000
16.538355 28.008438 0.000000
16.853075 28.008438 0.000000
17.167797 28.008438 0.000000
17.482517 28.008438 0.000000
17.797239 28.008438 0.000000
18.111959 28.008438 0.000000
18.426680 28.008438 0.000000
18.741402 28.008438 0.000000
-7.065720 27.693716 0.000000
-6.750999 27.693716 0.095436
-6.436278 27.693716 0.093969
-6.121557 27.693716 0.094935
-5.806836 27.693716 0.096135
-5.492115 27.693716 0.096874
-5.177394 27.693716 0.096997
-4.862673 27.693716 0.096753
-4.547952 27.693716 0.096244
-4.233231 27.693716 0.095450
-3.918510 27.693716 0.094536
-3.603789 27.693716 0.093124
-3.289068 27.693716 0.092025
-2.974347 27.693716 0.091266
-2.659626 27.693716 0.090234
-2.344905 27.693716 0.089465
-2.030184 27.693716 0.089602
-1.715463 27.693716 0.090576
-1.400742 27.693716 0.091724
-1.086021 27.693716 0.092885
-0.771300 27.693716 0.093896
-0.456579 27.693716 0.094842
-0.141859 27.693716 0.095706
0.172863 27.693716 0.096059
0.487584 27.693716 0.095768
0.802305 27.693716 0.095005
1.117026 27.693716 0.093992
1.431747 27.693716 0.092849
1.746467 27.693716 0.091971
2.061188 27.693716 0.091304
2.375909 27.693716 0.091045
2.690630 27.693716 0.091468
3.005352 27.693716 0.092346
3.320073 27.693716 0.093794
3.634794 27.693716 0.095914
3.949515 27.693716 0.098191
4.264236 27.693716 0.100483
4.578956 27.693716 0.102814
4.893677 27.693716 0.105372
5.208398 27.693716 0.107550
5.523119 27.693716 0.110039
5.837841 27.693716 0.112806
6.152562 27.693716 0.116718
6.467283 27.693716 0.123346
6.782003 27.693716 0.132700
7.096724 27.693716 0.146756
7.411445 27.693716 0.167569
7.726166 27.693716 0.201193
8.040888 27.693716 0.269383
8.355608 27.693716 0.384594
8.670330 27.693716 0.550941
8.985050 27.693716 0.762507
9.299772 27.693716 1.005394
9.614492 27.693716 1.253214
9.929214 27.693716 1.499627
10.243935 27.693716 1.766710
10.558655 27.693716 2.050000
10.873377 27.693716 2.308461
11.188097 27.693716 2.543016
11.502819 27.693716 2.725725
11.817539 27.693716 2.888136
12.132261 27.693716 2.999833
12.446981 27.693716 3.066738
12.761703 27.693716 3.137890
13.076424 27.693716 3.164025
13.391144 27.693716 3.142067
13.705866 27.693716 3.077488
14.020586 27.693716 2.937531
14.335308 27.693716 2.759689
14.650028 27.693716 2.609858
14.964750 27.693716 2.444792
15.279470 27.693716 2.270844
15.594193 27.693716 2.205619
15.908913 27.693716 2.312351
16.223633 27.693716 0.000000
16.538355 27.693716 0.000000
16.853075 27.693716 0.000000
17.167797 27.693716 0.000000
17.482517 27.693716 0.000000
17.797239 27.693716 0.000000
18.111959 27.693716 0.000000
18.426680 27.693716 0.000000
18.741402 27.693716 0.000000
-7.065720 27.378996 0.000000
-6.750999 27.378996 0.097327
-6.436278 27.378996 0.095833
-6.121557 27.378996 0.096515
-5.806836 27.378996 0.097180
-5.492115 27.378996 0.097466
-5.177394 27.378996 0.097034
-4.862673 27.378996 0.096125
-4.547952 27.378996 0.094776
-4.233231 27.378996 0.093495
-3.918510 27.378996 0.092495
-3.603789 27.378996 0.091425
-3.289068 27.378996 0.090712
-2.974347 27.378996 0.090455
-2.659626 27.378996 0.090168
-2.344905 27.378996 0.090051
-2.030184 27.378996 0.090826
-1.715463 27.378996 0.092201
-1.400742 27.378996 0.093549
-1.086021 27.378996 0.094527
-0.771300 27.378996 0.095049
-0.456579 27.378996 0.095262
-0.141859 27.378996 0.095369
0.172863 27.378996 0.094961
0.487584 27.378996 0.094057
0.802305 27.378996 0.092989
1.117026 27.378996 0.091946
1.431747 27.378996 0.091093
1.746467 27.378996 0.090741
2.061188 27.378996 0.090657
2.375909 27.378996 0.091064
2.690630 27.378996 0.092055
3.005352 27.378996 0.093386
3.320073 27.378996 0.095125
3.634794 27.378996 0.097163
3.949515 27.378996 0.099188
4.264236 27.378996 0.100977
4.578956 27.378996 0.102792
4.893677 27.378996 0.104671
5.208398 27.378996 0.106117
5.523119 27.378996 0.108256
5.837841 27.378996 0.111193
6.152562 27.378996 0.115654
6.467283 27.378996 0.122851
6.782003 27.378996 0.132296
7.096724 27.378996 0.147308
7.411445 27.378996 0.169998
7.726166 27.378996 0.207800
8.040888 27.378996 0.273111
8.355608 27.378996 0.380687
8.670330 27.378996 0.545222
8.985050 27.378996 0.759683
9.299772 27.378996 1.009307
9.614492 27.378996 1.251136
9.929214 27.378996 1.494594
10.243935 27.378996 1.774612
10.558655 27.378996 2.061075
10.873377 27.378996 2.308098
11.188097 27.378996 2.541348
11.502819 27.378996 2.731837
11.817539 27.378996 2.891943
12.132261 27.378996 2.960066
12.446981 27.378996 3.052252
12.761703 27.378996 3.122512
13.076424 27.378996 3.156597
13.391144 27.378996 3.136194
13.705866 27.378996 3.052434
14.020586 27.378996 2.933155
14.335308 27.378996 2.782965
14.650028 27.378996 2.602449
14.964750 27.378996 2.440365
15.279470 27.378996 2.309741
15.594193 27.378996 2.209251
15.908913 27.378996 2.284127
16.223633 27.378996 0.000000
16.538355 27.378996 0.000000
16.853075 27.378996 0.000000
17.167797 27.378996 0.000000
17.482517 27.378996 0.000000
17.797239 27.378996 0.000000
18.111959 27.378996 0.000000
18.426680 27.378996 0.000000
18.741402 27.378996 0.000000
-7.065720 27.064274 0.000000
-6.750999 27.064274 0.099162
-6.436278 27.064274 0.097219
-6.121557 27.064274 0.097355
-5.806836 27.064274 0.097380
-5.492115 27.064274 0.097014
-5.177394 27.064274 0.096063
-4.862673 27.064274 0.094600
-4.547952 27.064274 0.092864
-4.233231 27.064274 0.091381
-3.918510 27.064274 0.090622
-3.603789 27.064274 0.090182
-3.289068 27.064274 0.090098
-2.974347 27.064274 0.090517
-2.659626 27.064274 0.090929
-2.344905 27.064274 0.091424
-2.030184 27.064274 0.092519
-1.715463 27.064274 0.093949
-1.400742 27.064274 0.095111
-1.086021 27.064274 0.095575
-0.771300 27.064274 0.095316
-0.456579 27.064274 0.094746
-0.141859 27.064274 0.094076
0.172863 27.064274 0.093113
0.487584 27.064274 0.091909
0.802305 27.064274 0.090914
1.117026 27.064274 0.090202
1.431747 27.064274 0.090024
1.746467 27.064274 0.090389
2.061188 27.064274 0.091033
2.375909 27.064274 0.092019
2.690630 27.064274 0.093381
3.005352 27.064274 0.094888
3.320073 27.064274 0.096538
3.634794 27.064274 0.098059
3.949515 27.064274 0.099494
4.264236 27.064274 0.100855
4.578956 27.064274 0.101947
4.893677 27.064274 0.103176
5.208398 27.064274 0.104447
5.523119 27.064274 0.106596
5.837841 27.064274 0.110158
6.152562 27.064274 0.115155
6.467283 27.064274 0.122876
6.782003 27.064274 0.132750
7.096724 27.064274 0.147767
7.411445 27.064274 0.172102
7.726166 27.064274 0.210735
8.040888 27.064274 0.272317
8.355608 27.064274 0.383780
8.670330 27.064274 0.551182
8.985050 27.064274 0.757993
9.299772 27.064274 1.008271
9.614492 27.064274 1.263856
9.929214 27.064274 1.524666
10.243935 27.064274 1.785359
10.558655 27.064274 2.073434
10.873377 27.064274 2.303961
11.188097 27.064274 2.537102
11.502819 27.064274 2.735119
11.817539 27.064274 2.858451
12.132261 27.064274 2.962158
12.446981 27.064274 3.044418
12.761703 27.064274 3.111592
13.076424 27.064274 3.156916
13.391144 27.064274 3.135272
13.705866 27.064274 3.051996
14.020586 27.064274 2.936741
14.335308 27.064274 2.791053
14.650028 27.064274 2.624378
14.964750 27.064274 2.460538
15.279470 27.064274 2.296687
15.594193 27.064274 2.177931
15.908913 27.064274 2.241980
16.223633 27.064274 0.000000
16.538355 27.064274 0.000000
16.853075 27.064274 0.000000
17.167797 27.064274 0.000000
17.482517 27.064274 0.000000
17.797239 27.064274 0.000000
18.111959 27.064274 0.000000
18.426680 27.064274 0.000000
18.741402 27.064274 0.000000
-7.065720 26.749554 0.000000
-6.750999 26.749554 0.100209
-6.436278 26.749554 0.097612
-6.121557 26.749554 0.097008
-5.806836 26.749554 0.096347
-5.492115 26.749554 0.095432
-5.177394 26.749554 0.094202
-4.862673 26.749554 0.092707
-4.547952 26.749554 0.091052
-4.233231 26.749554 0.089789
-3.918510 26.749554 0.089588
-3.603789 26.749554 0.089991
-3.289068 26.749554 0.090628
-2.974347 26.749554 0.091483
-2.659626 26.749554 0.092364
-2.344905 26.749554 0.093079
-2.030184 26.749554 0.094184
-1.715463 26.749554 0.095290
-1.400742 26.749554 0.095866
-1.086021 26.749554 0.095619
-0.771300 26.749554 0.094593
-0.456579 26.749554 0.093342
-0.141859 26.749554 0.092207
0.172863 26.749554 0.091089
0.487584 26.749554 0.090060
0.802305 26.749554 0.089517
1.117026 26.749554 0.089532
1.431747 26.749554 0.090060
1.746467 26.749554 0.091108
2.061188 26.749554 0.092294
2.375909 26.749554 0.093536
2.690630 26.749554 0.094874
3.005352 26.749554 0.096238
3.320073 26.749554 0.097440
3.634794 26.749554 0.098279
3.949515 26.749554 0.098897
4.264236 26.749554 0.099596
4.578956 26.749554 0.100488
4.893677 26.749554 0.101546
5.208398 26.749554 0.102988
5.523119 26.749554 0.105694
5.837841 26.749554 0.109806
6.152562 26.749554 0.115463
6.467283 26.749554 0.123467
6.782003 26.749554 0.133956
7.096724 26.749554 0.148716
7.411445 26.749554 0.171874
7.726166 26.749554 0.210130
8.040888 26.749554 0.275723
8.355608 26.749554 0.390562
8.670330 26.749554 0.559066
8.985050 26.749554 0.764332
9.299772 26.749554 1.018524
9.614492 26.749554 1.269001
9.929214 26.749554 1.535433
10.243935 26.749554 1.800216
10.558655 26.749554 2.075007
10.873377 26.749554 2.319751
11.188097 26.749554 2.540894
11.502819 26.749554 2.729956
11.817539 26.749554 2.869266
12.132261 26.749554 2.978496
12.446981 26.749554 3.038945
12.761703 26.749554 3.119149
13.076424 26.749554 3.154841
13.391144 26.749554 3.133660
13.705866 26.749554 3.042291
14.020586 26.749554 2.929307
14.335308 26.749554 2.783545
14.650028 26.749554 2.641035
14.964750 26.749554 2.472052
15.279470 26.749554 2.289972
15.594193 26.749554 2.170268
15.908913 26.749554 2.234749
16.223633 26.749554 0.000000
16.538355 26.749554 0.000000
16.853075 26.749554 0.000000
17.167797 26.749554 0.000000
17.482517 26.749554 0.000000
17.797239 26.749554 0.000000
18.111959 26.749554 0.000000
18.426680 26.749554 0.000000
18.741402 26.749554 0.000000
-7.065720 26.434832 0.000000
-6.750999 26.434832 0.100140
-6.436278 26.434832 0.096861
-6.121557 26.434832 0.095572
-5.806836 26.434832 0.094335
-5.492115 26.434832 0.093128
-5.177394 26.434832 0.092065
-4.862673 26.434832 0.090996
-4.547952 26.434832 0.089906
-4.233231 26.434832 0.089325
-3.918510 26.434832 0.089776
-3.603789 26.434832 0.090905
-3.289068 26.434832 0.092107
-2.974347 26.434832 0.093114
-2.659626 26.434832 0.094036
-2.344905 26.434832 0.094607
-2.030184 26.434832 0.095300
-1.715463 26.434832 0.095748
-1.400742 26.434832 0.095495
-1.086021 26.434832 0.094596
-0.771300 26.434832 0.093141
-0.456579 26.434832 0.091639
-0.141859 26.434832 0.090393
0.172863 26.434832 0.089538
0.487584 26.434832 0.089118
0.802305 26.434832 0.089327
1.117026 26.434832 0.090161
1.431747 26.434832 0.091212
1.746467 26.434832 0.092509
2.061188 26.434832 0.093874
2.375909 26.434832 0.095054
2.690630 26.434832 0.096027
3.005352 26.434832 0.096879
3.320073 26.434832 0.097530
3.634794 26.434832 0.097698
3.949515 26.434832 0.097720
4.264236 26.434832 0.098142
4.578956 26.434832 0.099008
4.893677 26.434832 0.100274
5.208398 26.434832 0.102265
5.523119 26.434832 0.105426
5.837841 26.434832 0.110105
6.152562 26.434832 0.116322
6.467283 26.434832 0.124928
6.782003 26.434832 0.135478
7.096724 26.434832 0.149614
7.411445 26.434832 0.170574
7.726166 26.434832 0.210453
8.040888 26.434832 0.277392
8.355608 26.434832 0.399098
8.670330 26.434832 0.574656
8.985050 26.434832 0.773848
9.299772 26.434832 1.019056
9.614492 26.434832 1.284381
9.929214 26.434832 1.540988
10.243935 26.434832 1.816811
10.558655 26.434832 2.088707
10.873377 26.434832 2.346248
11.188097 26.434832 2.557715
11.502819 26.434832 2.747212
11.817539 26.434832 2.871670
12.132261 26.434832 2.975478
12.446981 26.434832 3.052450
12.761703 26.434832 3.132845
13.076424 26.434832 3.174145
13.391144 26.434832 3.124271
13.705866 26.434832 3.061969
14.020586 26.434832 2.926854
14.335308 26.434832 2.797273
14.650028 26.434832 2.651260
14.964750 26.434832 2.469640
15.279470 26.434832 2.275325
15.594193 26.434832 2.158008
15.908913 26.434832 2.187653
16.223633 26.434832 0.000000
16.538355 26.434832 0.000000
16.853075 26.434832 0.000000
17.167797 26.434832 0.000000
17.482517 26.434832 0.000000
17.797239 26.434832 0.000000
18.111959 26.434832 0.000000
18.426680 26.434832 0.000000
18.741402 26.434832 0.000000
-7.065720 26.120111 0.000000
-6.750999 26.120111 0.098673
-6.436278 26.120111 0.095088
-6.121557 26.120111 0.093499
-5.806836 26.120111 0.092059
-5.492115 26.120111 0.091002
-5.177394 26.120111 0.090500
-4.862673 26.120111 0.090230
-4.547952 26.120111 0.089938
-4.233231 26.120111 0.090117
-3.918510 26.120111 0.091206
-3.603789 26.120111 0.092692
-3.289068 26.120111 0.093981
-2.974347 26.120111 0.094805
-2.659626 26.120111 0.095315
-2.344905 26.120111 0.095439
-2.030184 26.120111 0.095367
-1.715463 26.120111 0.095069
-1.400742 26.120111 0.094161
-1.086021 26.120111 0.092833
-0.771300 26.120111 0.091414
-0.456579 26.120111 0.090223
-0.141859 26.120111 0.089377
0.172863 26.120111 0.089092
0.487584 26.120111 0.089393
0.802305 26.120111 0.090312
1.117026 26.120111 0.091730
1.431747 26.120111 0.092975
1.746467 26.120111 0.094092
2.061188 26.120111 0.095141
2.375909 26.120111 0.095935
2.690630 26.120111 0.096322
3.005352 26.120111 0.096625
3.320073 26.120111 0.096821
3.634794 26.120111 0.096662
3.949515 26.120111 0.096572
4.264236 26.120111 0.096991
4.578956 26.120111 0.098035
4.893677 26.120111 0.099763
5.208398 26.120111 0.102428
5.523119 26.120111 0.105944
5.837841 26.120111 0.111069
6.152562 26.120111 0.117387
6.467283 26.120111 0.125146
6.782003 26.120111 0.135564
7.096724 26.120111 0.150378
7.411445 26.120111 0.171264
7.726166 26.120111 0.209737
8.040888 26.120111 0.281170
8.355608 26.120111 0.405805
8.670330 26.120111 0.579271
8.985050 26.120111 0.777595
9.299772 26.120111 1.023077
9.614492 26.120111 1.289677
9.929214 26.120111 1.540360
10.243935 26.120111 1.806726
10.558655 26.120111 2.097726
10.873377 26.120111 2.354893
11.188097 26.120111 2.568369
11.502819 26.120111 2.757319
11.817539 26.120111 2.895207
12.132261 26.120111 3.004624
12.446981 26.120111 3.064600
12.761703 26.120111 3.141547
13.076424 26.120111 3.175076
13.391144 26.120111 3.129156
13.705866 26.120111 3.063896
14.020586 26.120111 2.940575
14.335308 26.120111 2.801164
14.650028 26.120111 2.661075
14.964750 26.120111 2.486000
15.279470 26.120111 2.272001
15.594193 26.120111 2.127849
15.908913 26.120111 2.095396
16.223633 26.120111 0.000000
16.538355 26.120111 0.000000
16.853075 26.120111 0.000000
17.167797 26.120111 0.000000
17.482517 26.120111 0.000000
17.797239 26.120111 0.000000
18.111959 26.120111 0.000000
18.426680 26.120111 0.000000
18.741402 26.120111 0.000000
-7.065720 25.805389 0.000000
-6.750999 25.805389 0.096565
-6.436278 25.805389 0.093025
-6.121557 25.805389 0.091509
-5.806836 25.805389 0.090442
-5.492115 25.805389 0.089906
-5.177394 25.805389 0.090154
-4.862673 25.805389 0.090736
-4.547952 25.805389 0.091179
-4.233231 25.805389 0.091976
-3.918510 25.805389 0.093322
-3.603789 25.805389 0.094621
-3.289068 25.805389 0.095431
-2.974347 25.805389 0.095662
-2.659626 25.805389 0.095534
-2.344905 25.805389 0.095063
-2.030184 25.805389 0.094343
-1.715463 25.805389 0.093374
-1.400742 25.805389 0.092188
-1.086021 25.805389 0.091087
-0.771300 25.805389 0.090210
-0.456579 25.805389 0.089684
-0.141859 25.805389 0.089474
0.172863 25.805389 0.089828
0.487584 25.805389 0.090717
0.802305 25.805389 0.092088
1.117026 25.805389 0.093642
1.431747 25.805389 0.094629
1.746467 25.805389 0.095205
2.061188 25.805389 0.095634
2.375909 25.805389 0.095834
2.690630 25.805389 0.095703
3.005352 25.805389 0.095687
3.320073 25.805389 0.095659
3.634794 25.805389 0.095650
3.949515 25.805389 0.095843
4.264236 25.805389 0.096487
4.578956 25.805389 0.097889
4.893677 25.805389 0.099957
5.208398 25.805389 0.103055
5.523119 25.805389 0.107108
5.837841 25.805389 0.112199
6.152562 25.805389 0.118282
6.467283 25.805389 0.125996
6.782003 25.805389 0.135340
7.096724 25.805389 0.150211
7.411445 25.805389 0.172056
7.726166 25.805389 0.211872
8.040888 25.805389 0.280001
8.355608 25.805389 0.399664
8.670330 25.805389 0.578807
8.985050 25.805389 0.788688
9.299772 25.805389 1.035644
9.614492 25.805389 1.281310
9.929214 25.805389 1.544513
10.243935 25.805389 1.808688
10.558655 25.805389 2.099211
10.873377 25.805389 2.349643
11.188097 25.805389 2.569893
11.502819 25.805389 2.761413
11.817539 25.805389 2.911938
12.132261 25.805389 3.000560
12.446981 25.805389 3.082431
12.761703 25.805389 3.159436
13.076424 25.805389 3.176052
13.391144 25.805389 3.111247
13.705866 25.805389 3.042579
14.020586 25.805389 2.945988
14.335308 25.805389 2.823251
14.650028 25.805389 2.672024
14.964750 25.805389 2.478898
15.279470 25.805389 2.283060
15.594193 25.805389 2.080409
15.908913 25.805389 2.078619
16.223633 25.805389 0.000000
16.538355 25.805389 0.000000
16.853075 25.805389 0.000000
17.167797 25.805389 0.000000
17.482517 25.805389 0.000000
17.797239 25.805389 0.000000
18.111959 25.805389 0.000000
18.426680 25.805389 0.000000
18.741402 25.805389 0.000000
-7.065720 25.490669 0.000000
-6.750999 25.490669 0.094478
-6.436278 25.490669 0.091431
-6.121557 25.490669 0.090521
-5.806836 25.490669 0.090035
-5.492115 25.490669 0.090244
-5.177394 25.490669 0.091180
-4.862673 25.490669 0.092328
-4.547952 25.490669 0.093203
-4.233231 25.490669 0.094183
-3.918510 25.490669 0.095202
-3.603789 25.490669 0.095788
-3.289068 25.490669 0.095819
-2.974347 25.490669 0.095257
-2.659626 25.490669 0.094507
-2.344905 25.490669 0.093646
-2.030184 25.490669 0.092520
-1.715463 25.490669 0.091315
-1.400742 25.490669 0.090403
-1.086021 25.490669 0.090040
-0.771300 25.490669 0.090021
-0.456579 25.490669 0.090322
-0.141859 25.490669 0.090802
0.172863 25.490669 0.091518
0.487584 25.490669 0.092567
0.802305 25.490669 0.093823
1.117026 25.490669 0.095057
1.431747 25.490669 0.095479
1.746467 25.490669 0.095330
2.061188 25.490669 0.095118
2.375909 25.490669 0.094907
2.690630 25.490669 0.094586
3.005352 25.490669 0.094540
3.320073 25.490669 0.094640
3.634794 25.490669 0.095062
3.949515 25.490669 0.095684
4.264236 25.490669 0.096713
4.578956 25.490669 0.098462
4.893677 25.490669 0.100746
5.208398 25.490669 0.104088
5.523119 25.490669 0.108072
5.837841 25.490669 0.112818
6.152562 25.490669 0.118583
6.467283 25.490669 0.126476
6.782003 25.490669 0.135732
7.096724 25.490669 0.150525
7.411445 25.490669 0.174376
7.726166 25.490669 0.213557
8.040888 25.490669 0.284197
8.355608 25.490669 0.407109
8.670330 25.490669 0.576142
8.985050 25.490669 0.796239
9.299772 25.490669 1.046301
9.614492 25.490669 1.293302
9.929214 25.490669 1.557886
10.243935 25.490669 1.825614
10.558655 25.490669 2.101628
10.873377 25.490669 2.349332
11.188097 25.490669 2.561430
11.502819 25.490669 2.768594
11.817539 25.490669 2.910367
12.132261 25.490669 3.023021
12.446981 25.490669 3.095145
12.761703 25.490669 3.139834
13.076424 25.490669 3.170766
13.391144 25.490669 3.121724
13.705866 25.490669 3.061245
14.020586 25.490669 2.948354
14.335308 25.490669 2.822786
14.650028 25.490669 2.654570
14.964750 25.490669 2.474331
15.279470 25.490669 2.246291
15.594193 25.490669 2.137307
15.908913 25.490669 2.046190
16.223633 25.490669 0.000000
16.538355 25.490669 0.000000
16.853075 25.490669 0.000000
17.167797 25.490669 0.000000
17.482517 25.490669 0.000000
17.797239 25.490669 0.000000
18.111959 25.490669 0.000000
18.426680 25.490669 0.000000
18.741402 25.490669 0.000000
-7.065720 25.175949 0.000000
-6.750999 25.175949 0.093267
-6.436278 25.175949 0.090951
-6.121557 25.175949 0.090858
-5.806836 25.175949 0.091061
-5.492115 25.175949 0.091850
-5.177394 25.175949 0.093095
-4.862673 25.175949 0.094333
-4.547952 25.175949 0.095242
-4.233231 25.175949 0.095895
-3.918510 25.175949 0.096049
-3.603789 25.175949 0.095645
-3.289068 25.175949 0.094855
-2.974347 25.175949 0.093635
-2.659626 25.175949 0.092558
-2.344905 25.175949 0.091669
-2.030184 25.175949 0.090754
-1.715463 25.175949 0.089896
-1.400742 25.175949 0.089663
-1.086021 25.175949 0.090172
-0.771300 25.175949 0.090960
-0.456579 25.175949 0.091896
-0.141859 25.175949 0.092758
0.172863 25.175949 0.093439
0.487584 25.175949 0.094068
0.802305 25.175949 0.094805
1.117026 25.175949 0.095382
1.431747 25.175949 0.095175
1.746467 25.175949 0.094464
2.061188 25.175949 0.093922
2.375909 25.175949 0.093658
2.690630 25.175949 0.093526
3.005352 25.175949 0.093777
3.320073 25.175949 0.094331
3.634794 25.175949 0.095166
3.949515 25.175949 0.096170
4.264236 25.175949 0.097413
4.578956 25.175949 0.099294
4.893677 25.175949 0.101739
5.208398 25.175949 0.104803
5.523119 25.175949 0.108644
5.837841 25.175949 0.112890
6.152562 25.175949 0.118543
6.467283 25.175949 0.125619
6.782003 25.175949 0.135509
7.096724 25.175949 0.150136
7.411445 25.175949 0.174018
7.726166 25.175949 0.215681
8.040888 25.175949 0.283639
8.355608 25.175949 0.408276
8.670330 25.175949 0.583432
8.985050 25.175949 0.793672
9.299772 25.175949 1.049752
9.614492 25.175949 1.308865
9.929214 25.175949 1.575178
10.243935 25.175949 1.837223
10.558655 25.175949 2.099471
10.873377 25.175949 2.331530
11.188097 25.175949 2.575958
11.502819 25.175949 2.771527
11.817539 25.175949 2.930386
12.132261 25.175949 3.021952
12.446981 25.175949 3.099650
12.761703 25.175949 3.141093
13.076424 25.175949 3.172787
13.391144 25.175949 3.110766
13.705866 25.175949 3.051850
14.020586 25.175949 2.951625
14.335308 25.175949 2.833248
14.650028 25.175949 2.692593
14.964750 25.175949 2.480006
15.279470 25.175949 2.268788
15.594193 25.175949 2.136693
15.908913 25.175949 2.058725
16.223633 25.175949 0.000000
16.538355 25.175949 0.000000
16.853075 25.175949 0.000000
17.167797 25.175949 0.000000
17.482517 25.175949 0.000000
17.797239 25.175949 0.000000
18.111959 25.175949 0.000000
18.426680 25.175949 0.000000
18.741402 25.175949 0.000000
-7.065720 24.861227 0.000000
-6.750999 24.861227 0.093474
-6.436278 24.861227 0.091853
-6.121557 24.861227 0.092420
-5.806836 24.861227 0.093187
-5.492115 24.861227 0.094107
-5.177394 24.861227 0.094992
-4.862673 24.861227 0.095747
-4.547952 24.861227 0.096253
-4.233231 24.861227 0.096262
-3.918510 24.861227 0.095452
-3.603789 24.861227 0.094236
-3.289068 24.861227 0.092938
-2.974347 24.861227 0.091555
-2.659626 24.861227 0.090574
-2.344905 24.861227 0.090227
-2.030184 24.861227 0.089876
-1.715463 24.861227 0.089572
-1.400742 24.861227 0.090051
-1.086021 24.861227 0.091269
-0.771300 24.861227 0.092571
-0.456579 24.861227 0.093699
-0.141859 24.861227 0.094445
0.172863 24.861227 0.094675
0.487584 24.861227 0.094582
0.802305 24.861227 0.094569
1.117026 24.861227 0.094510
1.431747 24.861227 0.093916
1.746467 24.861227 0.093112
2.061188 24.861227 0.092667
2.375909 24.861227 0.092686
2.690630 24.861227 0.093025
3.005352 24.861227 0.093647
3.320073 24.861227 0.094602
3.634794 24.861227 0.095770
3.949515 24.861227 0.096933
4.264236 24.861227 0.098259
4.578956 24.861227 0.099845
4.893677 24.861227 0.102204
5.208398 24.861227 0.104974
5.523119 24.861227 0.108222
5.837841 24.861227 0.112301
6.152562 24.861227 0.117958
6.467283 24.861227 0.125457
6.782003 24.861227 0.135764
7.096724 24.861227 0.150080
7.411445 24.861227 0.174017
7.726166 24.861227 0.215294
8.040888 24.861227 0.289475
8.355608 24.861227 0.416790
8.670330 24.861227 0.592222
8.985050 24.861227 0.809744
9.299772 24.861227 1.059050
9.614492 24.861227 1.317164
9.929214 24.861227 1.581017
10.243935 24.861227 1.851672
10.558655 24.861227 2.102485
10.873377 24.861227 2.346798
11.188097 24.861227 2.589007
11.502819 24.861227 2.783156
11.817539 24.861227 2.926672
12.132261 24.861227 3.035801
12.446981 24.861227 3.112391
12.761703 24.861227 3.141989
13.076424 24.861227 3.166105
13.391144 24.861227 3.121033
13.705866 24.861227 3.045000
14.020586 24.861227 2.963694
14.335308 24.861227 2.840390
14.650028 24.861227 2.696392
14.964750 24.861227 2.492017
15.279470 24.861227 2.300838
15.594193 24.861227 2.141927
15.908913 24.861227 2.025442
16.223633 24.861227 0.000000
16.538355 24.861227 0.000000
16.853075 24.861227 0.000000
17.167797 24.861227 0.000000
17.482517 24.861227 0.000000
17.797239 24.861227 0.000000
18.111959 24.861227 0.000000
18.426680 24.861227 0.000000
18.741402 24.861227 0.000000
-7.065720 24.546507 0.000000
-6.750999 24.546507 0.095261
-6.436278 24.546507 0.093731
-6.121557 24.546507 0.094563
-5.806836 24.546507 0.095394
-5.492115 24.546507 0.095883
-5.177394 24.546507 0.095974
-4.862673 24.546507 0.095962
-4.547952 24.546507 0.095827
-4.233231 24.546507 0.095191
-3.918510 24.546507 0.093797
-3.603789 24.546507 0.092273
-3.289068 24.546507 0.091041
-2.974347 24.546507 0.089990
-2.659626 24.546507 0.089560
-2.344905 24.546507 0.089889
-2.030184 24.546507 0.090246
-1.715463 24.546507 0.090533
-1.400742 24.546507 0.091420
-1.086021 24.546507 0.092780
-0.771300 24.546507 0.094050
-0.456579 24.546507 0.094939
-0.141859 24.546507 0.095221
0.172863 24.546507 0.094768
0.487584 24.546507 0.094033
0.802305 24.546507 0.093419
1.117026 24.546507 0.093012
1.431747 24.546507 0.092493
1.746467 24.546507 0.092081
2.061188 24.546507 0.091996
2.375909 24.546507 0.092405
2.690630 24.546507 0.093077
3.005352 24.546507 0.094035
3.320073 24.546507 0.095139
3.634794 24.546507 0.096383
3.949515 24.546507 0.097540
4.264236 24.546507 0.098616
4.578956 24.546507 0.100071
4.893677 24.546507 0.102132
5.208398 24.546507 0.104578
5.523119 24.546507 0.107288
5.837841 24.546507 0.111558
6.152562 24.546507 0.117489
6.467283 24.546507 0.125015
6.782003 24.546507 0.135019
7.096724 24.546507 0.149966
7.411445 24.546507 0.174754
7.726166 24.546507 0.216410
8.040888 24.546507 0.289603
8.355608 24.546507 0.416573
8.670330 24.546507 0.593852
8.985050 24.546507 0.812433
9.299772 24.546507 1.053549
9.614492 24.546507 1.319215
9.929214 24.546507 1.574894
10.243935 24.546507 1.833083
10.558655 24.546507 2.117657
10.873377 24.546507 2.369694
11.188097 24.546507 2.608927
11.502819 24.546507 2.788171
11.817539 24.546507 2.946846
12.132261 24.546507 3.036927
12.446981 24.546507 3.102522
12.761703 24.546507 3.146934
13.076424 24.546507 3.169094
13.391144 24.546507 3.127990
13.705866 24.546507 3.056890
14.020586 24.546507 2.952146
14.335308 24.546507 2.828494
14.650028 24.546507 2.695353
14.964750 24.546507 2.515832
15.279470 24.546507 2.295869
15.594193 24.546507 2.160549
15.908913 24.546507 2.013080
16.223633 24.546507 0.000000
16.538355 24.546507 0.000000
16.853075 24.546507 0.000000
17.167797 24.546507 0.000000
17.482517 24.546507 0.000000
17.797239 24.546507 0.000000
18.111959 24.546507 0.000000
18.426680 24.546507 0.000000
18.741402 24.546507 0.000000
-7.065720 24.231785 0.000000
-6.750999 24.231785 0.097787
-6.436278 24.231785 0.095953
-6.121557 24.231785 0.096287
-5.806836 24.231785 0.096628
-5.492115 24.231785 0.096336
-5.177394 24.231785 0.095541
-4.862673 24.231785 0.094805
-4.547952 24.231785 0.094157
-4.233231 24.231785 0.093252
-3.918510 24.231785 0.091897
-3.603789 24.231785 0.090726
-3.289068 24.231785 0.090076
-2.974347 24.231785 0.089712
-2.659626 24.231785 0.089944
-2.344905 24.231785 0.090819
-2.030184 24.231785 0.091622
-1.715463 24.231785 0.092245
-1.400742 24.231785 0.092941
-1.086021 24.231785 0.093891
-0.771300 24.231785 0.094642
-0.456579 24.231785 0.094928
-0.141859 24.231785 0.094658
0.172863 24.231785 0.093763
0.487584 24.231785 0.092747
0.802305 24.231785 0.091936
1.117026 24.231785 0.091596
1.431747 24.231785 0.091572
1.746467 24.231785 0.091770
2.061188 24.231785 0.092213
2.375909 24.231785 0.092835
2.690630 24.231785 0.093571
3.005352 24.231785 0.094556
3.320073 24.231785 0.095562
3.634794 24.231785 0.096613
3.949515 24.231785 0.097628
4.264236 24.231785 0.098566
4.578956 24.231785 0.099904
4.893677 24.231785 0.101766
5.208398 24.231785 0.104145
5.523119 24.231785 0.106736
5.837841 24.231785 0.111067
6.152562 24.231785 0.117117
6.467283 24.231785 0.124981
6.782003 24.231785 0.135479
7.096724 24.231785 0.150358
7.411445 24.231785 0.172886
7.726166 24.231785 0.212041
8.040888 24.231785 0.281629
8.355608 24.231785 0.406932
8.670330 24.231785 0.587480
8.985050 24.231785 0.812190
9.299772 24.231785 1.062798
9.614492 24.231785 1.314283
9.929214 24.231785 1.582346
10.243935 24.231785 1.836861
10.558655 24.231785 2.114746
10.873377 24.231785 2.387219
11.188097 24.231785 2.603480
11.502819 24.231785 2.803806
11.817539 24.231785 2.932693
12.132261 24.231785 3.022931
12.446981 24.231785 3.095225
12.761703 24.231785 3.176452
13.076424 24.231785 3.189218
13.391144 24.231785 3.133107
13.705866 24.231785 3.063272
14.020586 24.231785 2.951931
14.335308 24.231785 2.844630
14.650028 24.231785 2.685251
14.964750 24.231785 2.536676
15.279470 24.231785 2.326602
15.594193 24.231785 2.198222
15.908913 24.231785 2.058051
16.223633 24.231785 0.000000
16.538355 24.231785 0.000000
16.853075 24.231785 0.000000
17.167797 24.231785 0.000000
17.482517 24.231785 0.000000
17.797239 24.231785 0.000000
18.111959 24.231785 0.000000
18.426680 24.231785 0.000000
18.741402 24.231785 0.000000
-7.065720 23.917065 0.000000
-6.750999 23.917065 0.099532
-6.436278 23.917065 0.097129
-6.121557 23.917065 0.096714
-5.806836 23.917065 0.096317
-5.492115 23.917065 0.095351
-5.177394 23.917065 0.094035
-4.862673 23.917065 0.093036
-4.547952 23.917065 0.092235
-4.233231 23.917065 0.091497
-3.918510 23.917065 0.090742
-3.603789 23.917065 0.090412
-3.289068 23.917065 0.090521
-2.974347 23.917065 0.090797
-2.659626 23.917065 0.091375
-2.344905 23.917065 0.092316
-2.030184 23.917065 0.093225
-1.715463 23.917065 0.093641
-1.400742 23.917065 0.093805
-1.086021 23.917065 0.094003
-0.771300 23.917065 0.094009
-0.456579 23.917065 0.093759
-0.141859 23.917065 0.093182
0.172863 23.917065 0.092282
0.487584 23.917065 0.091411
0.802305 23.917065 0.090910
1.117026 23.917065 0.090948
1.431747 23.917065 0.091536
1.746467 23.917065 0.092322
2.061188 23.917065 0.092995
2.375909 23.917065 0.093537
2.690630 23.917065 0.094099
3.005352 23.917065 0.094798
3.320073 23.917065 0.095523
3.634794 23.917065 0.096291
3.949515 23.917065 0.097274
4.264236 23.917065 0.098257
4.578956 23.917065 0.099633
4.893677 23.917065 0.101372
5.208398 23.917065 0.103669
5.523119 23.917065 0.106765
5.837841 23.917065 0.111005
6.152562 23.917065 0.117183
6.467283 23.917065 0.125468
6.782003 23.917065 0.135315
7.096724 23.917065 0.149943
7.411445 23.917065 0.172017
7.726166 23.917065 0.212651
8.040888 23.917065 0.285480
8.355608 23.917065 0.405736
8.670330 23.917065 0.598229
8.985050 23.917065 0.819801
9.299772 23.917065 1.057893
9.614492 23.917065 1.317715
9.929214 23.917065 1.585123
10.243935 23.917065 1.841626
10.558655 23.917065 2.110408
10.873377 23.917065 2.372372
11.188097 23.917065 2.590638
11.502819 23.917065 2.787810
11.817539 23.917065 2.927506
12.132261 23.917065 3.017941
12.446981 23.917065 3.088726
12.761703 23.917065 3.165297
13.076424 23.917065 3.183223
13.391144 23.917065 3.136175
13.705866 23.917065 3.056810
14.020586 23.917065 2.956071
14.335308 23.917065 2.838947
14.650028 23.917065 2.714521
14.964750 23.917065 2.551618
15.279470 23.917065 2.351459
15.594193 23.917065 2.221791
15.908913 23.917065 2.050765
16.223633 23.917065 0.000000
16.538355 23.917065 0.000000
16.853075 23.917065 0.000000
17.167797 23.917065 0.000000
17.482517 23.917065 0.000000
17.797239 23.917065 0.000000
18.111959 23.917065 0.000000
18.426680 23.917065 0.000000
18.741402 23.917065 0.000000
-7.065720 23.602343 0.000000
-6.750999 23.602343 0.099951
-6.436278 23.602343 0.096822
-6.121557 23.602343 0.095654
-5.806836 23.602343 0.094761
-5.492115 23.602343 0.093584
-5.177394 23.602343 0.092307
-4.862673 23.602343 0.091507
-4.547952 23.602343 0.091012
-4.233231 23.602343 0.090773
-3.918510 23.602343 0.090878
-3.603789 23.602343 0.091332
-3.289068 23.602343 0.092070
-2.974347 23.602343 0.092652
-2.659626 23.602343 0.093115
-2.344905 23.602343 0.093646
-2.030184 23.602343 0.094101
-1.715463 23.602343 0.094055
-1.400742 23.602343 0.093627
-1.086021 23.602343 0.093140
-0.771300 23.602343 0.092663
-0.456579 23.602343 0.092140
-0.141859 23.602343 0.091601
0.172863 23.602343 0.091088
0.487584 23.602343 0.090791
0.802305 23.602343 0.090799
1.117026 23.602343 0.091194
1.431747 23.602343 0.092133
1.746467 23.602343 0.093201
2.061188 23.602343 0.093760
2.375909 23.602343 0.093964
2.690630 23.602343 0.094183
3.005352 23.602343 0.094544
3.320073 23.602343 0.095029
3.634794 23.602343 0.095667
3.949515 23.602343 0.096712
4.264236 23.602343 0.097785
4.578956 23.602343 0.099336
4.893677 23.602343 0.101362
5.208398 23.602343 0.103715
5.523119 23.602343 0.106687
5.837841 23.602343 0.110993
6.152562 23.602343 0.117030
6.467283 23.602343 0.125313
6.782003 23.602343 0.135006
7.096724 23.602343 0.149439
7.411445 23.602343 0.174994
7.726166 23.602343 0.215047
8.040888 23.602343 0.288781
8.355608 23.602343 0.412821
8.670330 23.602343 0.597946
8.985050 23.602343 0.821620
9.299772 23.602343 1.068465
9.614492 23.602343 1.306334
9.929214 23.602343 1.588894
10.243935 23.602343 1.835087
10.558655 23.602343 2.092970
10.873377 23.602343 2.369642
11.188097 23.602343 2.584271
11.502819 23.602343 2.783336
11.817539 23.602343 2.920428
12.132261 23.602343 3.013683
12.446981 23.602343 3.089199
12.761703 23.602343 3.168788
13.076424 23.602343 3.210968
13.391144 23.602343 3.145155
13.705866 23.602343 3.088712
14.020586 23.602343 2.992931
14.335308 23.602343 2.855855
14.650028 23.602343 2.719678
14.964750 23.602343 2.546055
15.279470 23.602343 2.362731
15.594193 23.602343 2.251811
15.908913 23.602343 2.241903
16.223633 23.602343 0.000000
16.538355 23.602343 0.000000
16.853075 23.602343 0.000000
17.167797 23.602343 0.000000
17.482517 23.602343 0.000000
17.797239 23.602343 0.000000
18.111959 23.602343 0.000000
18.426680 23.602343 0.000000
18.741402 23.602343 0.000000
-7.065720 23.287622 0.000000
-6.750999 23.287622 0.098564
-6.436278 23.287622 0.095130
-6.121557 23.287622 0.093686
-5.806836 23.287622 0.092767
-5.492115 23.287622 0.091958
-5.177394 23.287622 0.091250
-4.862673 23.287622 0.091034
-4.547952 23.287622 0.090965
-4.233231 23.287622 0.091313
-3.918510 23.287622 0.092111
-3.603789 23.287622 0.093026
-3.289068 23.287622 0.093853
-2.974347 23.287622 0.094243
-2.659626 23.287622 0.094254
-2.344905 23.287622 0.094034
-2.030184 23.287622 0.093884
-1.715463 23.287622 0.093410
-1.400742 23.287622 0.092573
-1.086021 23.287622 0.091846
-0.771300 23.287622 0.091259
-0.456579 23.287622 0.090800
-0.141859 23.287622 0.090583
0.172863 23.287622 0.090619
0.487584 23.287622 0.090947
0.802305 23.287622 0.091401
1.117026 23.287622 0.091977
1.431747 23.287622 0.092918
1.746467 23.287622 0.093918
2.061188 23.287622 0.094125
2.375909 23.287622 0.093959
2.690630 23.287622 0.093789
3.005352 23.287622 0.093965
3.320073 23.287622 0.094291
3.634794 23.287622 0.094954
3.949515 23.287622 0.096243
4.264236 23.287622 0.097591
4.578956 23.287622 0.099238
4.893677 23.287622 0.101356
5.208398 23.287622 0.103849
5.523119 23.287622 0.106916
5.837841 23.287622 0.111123
6.152562 23.287622 0.116904
6.467283 23.287622 0.124996
6.782003 23.287622 0.135934
7.096724 23.287622 0.150022
7.411445 23.287622 0.176672
7.726166 23.287622 0.220142
8.040888 23.287622 0.296396
8.355608 23.287622 0.424130
8.670330 23.287622 0.603336
8.985050 23.287622 0.823995
9.299772 23.287622 1.065019
9.614492 23.287622 1.310157
9.929214 23.287622 1.592138
10.243935 23.287622 1.835418
10.558655 23.287622 2.087134
10.873377 23.287622 2.339306
11.188097 23.287622 2.589356
11.502819 23.287622 2.781206
11.817539 23.287622 2.910393
12.132261 23.287622 3.004255
12.446981 23.287622 3.088470
12.761703 23.287622 3.180577
13.076424 23.287622 3.198583
13.391144 23.287622 3.181151
13.705866 23.287622 3.115613
14.020586 23.287622 3.016457
14.335308 23.287622 2.877787
14.650028 23.287622 2.703150
14.964750 23.287622 2.562638
15.279470 23.287622 2.376428
15.594193 23.287622 2.244949
15.908913 23.287622 2.127344
16.223633 23.287622 0.000000
16.538355 23.287622 0.000000
16.853075 23.287622 0.000000
17.167797 23.287622 0.000000
17.482517 23.287622 0.000000
17.797239 23.287622 0.000000
18.111959 23.287622 0.000000
18.426680 23.287622 0.000000
18.741402 23.287622 0.000000
-7.065720 22.972902 0.000000
-6.750999 22.972902 0.096204
-6.436278 22.972902 0.093105
-6.121557 22.972902 0.092147
-5.806836 22.972902 0.091731
-5.492115 22.972902 0.091375
-5.177394 22.972902 0.091339
-4.862673 22.972902 0.091633
-4.547952 22.972902 0.091907
-4.233231 22.972902 0.092594
-3.918510 22.972902 0.093602
-3.603789 22.972902 0.094438
-3.289068 22.972902 0.094839
-2.974347 22.972902 0.094704
-2.659626 22.972902 0.094150
-2.344905 22.972902 0.093382
-2.030184 22.972902 0.092848
-1.715463 22.972902 0.092311
-1.400742 22.972902 0.091520
-1.086021 22.972902 0.090817
-0.771300 22.972902 0.090448
-0.456579 22.972902 0.090310
-0.141859 22.972902 0.090519
0.172863 22.972902 0.090973
0.487584 22.972902 0.091629
0.802305 22.972902 0.092215
1.117026 22.972902 0.092677
1.431747 22.972902 0.093381
1.746467 22.972902 0.094012
2.061188 22.972902 0.093967
2.375909 22.972902 0.093579
2.690630 22.972902 0.093327
3.005352 22.972902 0.093437
3.320073 22.972902 0.093760
3.634794 22.972902 0.094556
3.949515 22.972902 0.096021
4.264236 22.972902 0.097487
4.578956 22.972902 0.099216
4.893677 22.972902 0.101335
5.208398 22.972902 0.103824
5.523119 22.972902 0.106926
5.837841 22.972902 0.110869
6.152562 22.972902 0.116875
6.467283 22.972902 0.125876
6.782003 22.972902 0.136121
7.096724 22.972902 0.152724
7.411445 22.972902 0.176595
7.726166 22.972902 0.223567
8.040888 22.972902 0.305062
8.355608 22.972902 0.434597
8.670330 22.972902 0.609089
8.985050 22.972902 0.829087
9.299772 22.972902 1.076912
9.614492 22.972902 1.324231
9.929214 22.972902 1.589682
10.243935 22.972902 1.841834
10.558655 22.972902 2.088809
10.873377 22.972902 2.333485
11.188097 22.972902 2.575414
11.502819 22.972902 2.762073
11.817539 22.972902 2.915313
12.132261 22.972902 3.010972
12.446981 22.972902 3.071941
12.761703 22.972902 3.167182
13.076424 22.972902 3.199207
13.391144 22.972902 3.182900
13.705866 22.972902 3.130553
14.020586 22.972902 3.044557
14.335308 22.972902 2.882243
14.650028 22.972902 2.717422
14.964750 22.972902 2.562562
15.279470 22.972902 2.409006
15.594193 22.972902 2.308438
15.908913 22.972902 2.122810
16.223633 22.972902 0.000000
16.538355 22.972902 0.000000
16.853075 22.972902 0.000000
17.167797 22.972902 0.000000
17.482517 22.972902 0.000000
17.797239 22.972902 0.000000
18.111959 22.972902 0.000000
18.426680 22.972902 0.000000
18.741402 22.972902 0.000000
-7.065720 22.658180 0.000000
-6.750999 22.658180 0.094255
-6.436278 22.658180 0.091884
-6.121557 22.658180 0.091756
-5.806836 22.658180 0.091910
-5.492115 22.658180 0.092076
-5.177394 22.658180 0.092440
-4.862673 22.658180 0.092838
-4.547952 22.658180 0.093072
-4.233231 22.658180 0.093653
-3.918510 22.658180 0.094392
-3.603789 22.658180 0.094794
-3.289068 22.658180 0.094547
-2.974347 22.658180 0.093878
-2.659626 22.658180 0.093105
-2.344905 22.658180 0.092302
-2.030184 22.658180 0.091806
-1.715463 22.658180 0.091518
-1.400742 22.658180 0.090992
-1.086021 22.658180 0.090616
-0.771300 22.658180 0.090495
-0.456579 22.658180 0.090657
-0.141859 22.658180 0.091095
0.172863 22.658180 0.091675
0.487584 22.658180 0.092251
0.802305 22.658180 0.092649
1.117026 22.658180 0.092860
1.431747 22.658180 0.093272
1.746467 22.658180 0.093592
2.061188 22.658180 0.093443
2.375909 22.658180 0.093161
2.690630 22.658180 0.093091
3.005352 22.658180 0.093330
3.320073 22.658180 0.093748
3.634794 22.658180 0.094557
3.949515 22.658180 0.095793
4.264236 22.658180 0.097382
4.578956 22.658180 0.099111
4.893677 22.658180 0.101313
5.208398 22.658180 0.103829
5.523119 22.658180 0.106907
5.837841 22.658180 0.111281
6.152562 22.658180 0.117336
6.467283 22.658180 0.126235
6.782003 22.658180 0.136803
7.096724 22.658180 0.152631
7.411445 22.658180 0.177775
7.726166 22.658180 0.221872
8.040888 22.658180 0.304899
8.355608 22.658180 0.432504
8.670330 22.658180 0.617505
8.985050 22.658180 0.835615
9.299772 22.658180 1.089233
9.614492 22.658180 1.340673
9.929214 22.658180 1.611866
10.243935 22.658180 1.854048
10.558655 22.658180 2.106869
10.873377 22.658180 2.357460
11.188097 22.658180 2.570088
11.502819 22.658180 2.758677
11.817539 22.658180 2.922007
12.132261 22.658180 3.005359
12.446981 22.658180 3.081226
12.761703 22.658180 3.151139
13.076424 22.658180 3.190392
13.391144 22.658180 3.182779
13.705866 22.658180 3.160209
14.020586 22.658180 3.052079
14.335308 22.658180 2.909034
14.650028 22.658180 2.727676
14.964750 22.658180 2.573839
15.279470 22.658180 2.390535
15.594193 22.658180 2.337675
15.908913 22.658180 2.135699
16.223633 22.658180 0.000000
16.538355 22.658180 0.000000
16.853075 22.658180 0.000000
17.167797 22.658180 0.000000
17.482517 22.658180 0.000000
17.797239 22.658180 0.000000
18.111959 22.658180 0.000000
18.426680 22.658180 0.000000
18.741402 22.658180 0.000000
-7.065720 22.343460 0.000000
-6.750999 22.343460 0.093694
-6.436278 22.343460 0.092138
-6.121557 22.343460 0.092555
-5.806836 22.343460 0.093103
-5.492115 22.343460 0.093461
-5.177394 22.343460 0.093768
-4.862673 22.343460 0.093885
-4.547952 22.343460 0.093627
-4.233231 22.343460 0.093758
-3.918510 22.343460 0.094004
-3.603789 22.343460 0.093955
-3.289068 22.343460 0.093344
-2.974347 22.343460 0.092512
-2.659626 22.343460 0.091918
-2.344905 22.343460 0.091433
-2.030184 22.343460 0.091336
-1.715463 22.343460 0.091476
-1.400742 22.343460 0.091370
-1.086021 22.343460 0.091192
-0.771300 22.343460 0.091296
-0.456579 22.343460 0.091513
-0.141859 22.343460 0.091884
0.172863 22.343460 0.092305
0.487584 22.343460 0.092582
0.802305 22.343460 0.092566
1.117026 22.343460 0.092532
1.431747 22.343460 0.092755
1.746467 22.343460 0.092942
2.061188 22.343460 0.092924
2.375909 22.343460 0.092940
2.690630 22.343460 0.093154
3.005352 22.343460 0.093552
3.320073 22.343460 0.094037
3.634794 22.343460 0.094663
3.949515 22.343460 0.095732
4.264236 22.343460 0.097140
4.578956 22.343460 0.098927
4.893677 22.343460 0.101077
5.208398 22.343460 0.103814
5.523119 22.343460 0.107170
5.837841 22.343460 0.111658
6.152562 22.343460 0.118004
6.467283 22.343460 0.126747
6.782003 22.343460 0.137203
7.096724 22.343460 0.152830
7.411445 22.343460 0.175444
7.726166 22.343460 0.221795
8.040888 22.343460 0.301971
8.355608 22.343460 0.432995
8.670330 22.343460 0.618722
8.985050 22.343460 0.843941
9.299772 22.343460 1.092105
9.614492 22.343460 1.353457
9.929214 22.343460 1.612551
10.243935 22.343460 1.872159
10.558655 22.343460 2.117127
10.873377 22.343460 2.363999
11.188097 22.343460 2.571575
11.502819 22.343460 2.758659
11.817539 22.343460 2.915654
12.132261 22.343460 3.011613
12.446981 22.343460 3.077732
12.761703 22.343460 3.150596
13.076424 22.343460 3.196142
13.391144 22.343460 3.191779
13.705866 22.343460 3.152022
14.020586 22.343460 3.063961
14.335308 22.343460 2.928530
14.650028 22.343460 2.748600
14.964750 22.343460 2.588718
15.279470 22.343460 2.434463
15.594193 22.343460 2.392560
15.908913 22.343460 1.914416
16.223633 22.343460 0.000000
16.538355 22.343460 0.000000
16.853075 22.343460 0.000000
17.167797 22.343460 0.000000
17.482517 22.343460 0.000000
17.797239 22.343460 0.000000
18.111959 22.343460 0.000000
18.426680 22.343460 0.000000
18.741402 22.343460 0.000000
-7.065720 22.028738 0.000000
-6.750999 22.028738 0.094633
-6.436278 22.028738 0.093328
-6.121557 22.028738 0.093839
-5.806836 22.028738 0.094366
-5.492115 22.028738 0.094504
-5.177394 22.028738 0.094454
-4.862673 22.028738 0.094092
-4.547952 22.028738 0.093298
-4.233231 22.028738 0.092949
-3.918510 22.028738 0.092827
-3.603789 22.028738 0.092562
-3.289068 22.028738 0.091981
-2.974347 22.028738 0.091444
-2.659626 22.028738 0.091254
-2.344905 22.028738 0.091260
-2.030184 22.028738 0.091644
-1.715463 22.028738 0.092047
-1.400742 22.028738 0.092067
-1.086021 22.028738 0.092031
-0.771300 22.028738 0.092158
-0.456579 22.028738 0.092277
-0.141859 22.028738 0.092380
0.172863 22.028738 0.092555
0.487584 22.028738 0.092472
0.802305 22.028738 0.092127
1.117026 22.028738 0.092045
1.431747 22.028738 0.092202
1.746467 22.028738 0.092400
2.061188 22.028738 0.092547
2.375909 22.028738 0.092906
2.690630 22.028738 0.093353
3.005352 22.028738 0.093919
3.320073 22.028738 0.094453
3.634794 22.028738 0.094982
3.949515 22.028738 0.095804
4.264236 22.028738 0.097066
4.578956 22.028738 0.098664
4.893677 22.028738 0.101049
5.208398 22.028738 0.104127
5.523119 22.028738 0.107642
5.837841 22.028738 0.112225
6.152562 22.028738 0.118143
6.467283 22.028738 0.126637
6.782003 22.028738 0.136638
7.096724 22.028738 0.150980
7.411445 22.028738 0.174779
7.726166 22.028738 0.221600
8.040888 22.028738 0.303364
8.355608 22.028738 0.430506
8.670330 22.028738 0.621641
8.985050 22.028738 0.852317
9.299772 22.028738 1.097858
9.614492 22.028738 1.365180
9.929214 22.028738 1.618811
10.243935 22.028738 1.865416
10.558655 22.028738 2.103226
10.873377 22.028738 2.362564
11.188097 22.028738 2.560664
11.502819 22.028738 2.767687
11.817539 22.028738 2.909651
12.132261 22.028738 3.018495
12.446981 22.028738 3.076919
12.761703 22.028738 3.143972
13.076424 22.028738 3.210070
13.391144 22.028738 3.175583
13.705866 22.028738 3.145372
14.020586 22.028738 3.074682
14.335308 22.028738 2.930335
14.650028 22.028738 2.761713
14.964750 22.028738 2.581798
15.279470 22.028738 2.466943
15.594193 22.028738 2.416183
15.908913 22.028738 1.711146
16.223633 22.028738 0.000000
16.538355 22.028738 0.000000
16.853075 22.028738 0.000000
17.167797 22.028738 0.000000
17.482517 22.028738 0.000000
17.797239 22.028738 0.000000
18.111959 22.028738 0.000000
18.426680 22.028738 0.000000
18.741402 22.028738 0.000000
-7.065720 21.714018 0.000000
-6.750999 21.714018 0.096125
-6.436278 21.714018 0.094526
-6.121557 21.714018 0.094827
-5.806836 21.714018 0.094873
-5.492115 21.714018 0.094514
-5.177394 21.714018 0.094075
-4.862673 21.714018 0.093408
-4.547952 21.714018 0.092384
-4.233231 21.714018 0.091867
-3.918510 21.714018 0.091755
-3.603789 21.714018 0.091601
-3.289068 21.714018 0.091266
-2.974347 21.714018 0.091143
-2.659626 21.714018 0.091358
-2.344905 21.714018 0.091766
-2.030184 21.714018 0.092371
-1.715463 21.714018 0.092767
-1.400742 21.714018 0.092724
-1.086021 21.714018 0.092575
-0.771300 21.714018 0.092571
-0.456579 21.714018 0.092586
-0.141859 21.714018 0.092502
0.172863 21.714018 0.092462
0.487584 21.714018 0.092223
0.802305 21.714018 0.091844
1.117026 21.714018 0.091761
1.431747 21.714018 0.091852
1.746467 21.714018 0.092164
2.061188 21.714018 0.092490
2.375909 21.714018 0.092922
2.690630 21.714018 0.093477
3.005352 21.714018 0.094198
3.320073 21.714018 0.094828
3.634794 21.714018 0.095391
3.949515 21.714018 0.096083
4.264236 21.714018 0.097190
4.578956 21.714018 0.098836
4.893677 21.714018 0.101287
5.208398 21.714018 0.104191
5.523119 21.714018 0.107925
5.837841 21.714018 0.112134
6.152562 21.714018 0.117801
6.467283 21.714018 0.125262
6.782003 21.714018 0.135781
7.096724 21.714018 0.149979
7.411445 21.714018 0.175193
7.726166 21.714018 0.224509
8.040888 21.714018 0.306053
8.355608 21.714018 0.438148
8.670330 21.714018 0.629154
8.985050 21.714018 0.852761
9.299772 21.714018 1.102124
9.614492 21.714018 1.356632
9.929214 21.714018 1.619968
10.243935 21.714018 1.868873
10.558655 21.714018 2.112405
10.873377 21.714018 2.362402
11.188097 21.714018 2.566984
11.502819 21.714018 2.744515
11.817539 21.714018 2.919257
12.132261 21.714018 3.017743
12.446981 21.714018 3.081858
12.761703 21.714018 3.146853
13.076424 21.714018 3.189422
13.391144 21.714018 3.196667
13.705866 21.714018 3.138536
14.020586 21.714018 3.069311
14.335308 21.714018 2.932445
14.650028 21.714018 2.769899
14.964750 21.714018 2.603520
15.279470 21.714018 2.512399
15.594193 21.714018 2.461632
15.908913 21.714018 1.679837
16.223633 21.714018 0.000000
16.538355 21.714018 0.000000
16.853075 21.714018 0.000000
17.167797 21.714018 0.000000
17.482517 21.714018 0.000000
17.797239 21.714018 0.000000
18.111959 21.714018 0.000000
18.426680 21.714018 0.000000
18.741402 21.714018 0.000000
-7.065720 21.399296 0.000000
-6.750999 21.399296 0.097237
-6.436278 21.399296 0.094934
-6.121557 21.399296 0.094610
-5.806836 21.399296 0.094186
-5.492115 21.399296 0.093562
-5.177394 21.399296 0.093055
-4.862673 21.399296 0.092445
-4.547952 21.399296 0.091584
-4.233231 21.399296 0.091249
-3.918510 21.399296 0.091348
-3.603789 21.399296 0.091422
-3.289068 21.399296 0.091340
-2.974347 21.399296 0.091466
-2.659626 21.399296 0.091843
-2.344905 21.399296 0.092359
-2.030184 21.399296 0.092925
-1.715463 21.399296 0.093059
-1.400742 21.399296 0.092881
-1.086021 21.399296 0.092611
-0.771300 21.399296 0.092587
-0.456579 21.399296 0.092582
-0.141859 21.399296 0.092476
0.172863 21.399296 0.092261
0.487584 21.399296 0.091980
0.802305 21.399296 0.091757
1.117026 21.399296 0.091776
1.431747 21.399296 0.091798
1.746467 21.399296 0.092072
2.061188 21.399296 0.092494
2.375909 21.399296 0.092966
2.690630 21.399296 0.093677
3.005352 21.399296 0.094431
3.320073 21.399296 0.095164
3.634794 21.399296 0.095800
3.949515 21.399296 0.096510
4.264236 21.399296 0.097524
4.578956 21.399296 0.099123
4.893677 21.399296 0.101257
5.208398 21.399296 0.104222
5.523119 21.399296 0.107498
5.837841 21.399296 0.111440
6.152562 21.399296 0.116951
6.467283 21.399296 0.124385
6.782003 21.399296 0.134893
7.096724 21.399296 0.150665
7.411445 21.399296 0.176524
7.726166 21.399296 0.225181
8.040888 21.399296 0.309816
8.355608 21.399296 0.441068
8.670330 21.399296 0.625639
8.985050 21.399296 0.851150
9.299772 21.399296 1.112308
9.614492 21.399296 1.365530
9.929214 21.399296 1.641622
10.243935 21.399296 1.882046
10.558655 21.399296 2.124952
10.873377 21.399296 2.350372
11.188097 21.399296 2.555577
11.502819 21.399296 2.750809
11.817539 21.399296 2.895759
12.132261 21.399296 3.013191
12.446981 21.399296 3.083614
12.761703 21.399296 3.155874
13.076424 21.399296 3.185846
13.391144 21.399296 3.178554
13.705866 21.399296 3.157153
14.020586 21.399296 3.045780
14.335308 21.399296 2.898719
14.650028 21.399296 2.756197
14.964750 21.399296 2.615498
15.279470 21.399296 2.533361
15.594193 21.399296 2.547488
15.908913 21.399296 1.729344
16.223633 21.399296 0.000000
16.538355 21.399296 0.000000
16.853075 21.399296 0.000000
17.167797 21.399296 0.000000
17.482517 21.399296 0.000000
17.797239 21.399296 0.000000
18.111959 21.399296 0.000000
18.426680 21.399296 0.000000
18.741402 21.399296 0.000000
-7.065720 21.084576 0.000000
-6.750999 21.084576 0.097208
-6.436278 21.084576 0.094292
-6.121557 21.084576 0.093533
-5.806836 21.084576 0.092960
-5.492115 21.084576 0.092425
-5.177394 21.084576 0.092137
-4.862673 21.084576 0.091884
-4.547952 21.084576 0.091491
-4.233231 21.084576 0.091437
-3.918510 21.084576 0.091718
-3.603789 21.084576 0.091942
-3.289068 21.084576 0.091946
-2.974347 21.084576 0.092019
-2.659626 21.084576 0.092317
-2.344905 21.084576 0.092642
-2.030184 21.084576 0.092941
-1.715463 21.084576 0.092885
-1.400742 21.084576 0.092481
-1.086021 21.084576 0.092238
-0.771300 21.084576 0.092271
-0.456579 21.084576 0.092377
-0.141859 21.084576 0.092316
0.172863 21.084576 0.092027
0.487584 21.084576 0.091778
0.802305 21.084576 0.091785
1.117026 21.084576 0.091916
1.431747 21.084576 0.091930
1.746467 21.084576 0.092198
2.061188 21.084576 0.092675
2.375909 21.084576 0.093214
2.690630 21.084576 0.093910
3.005352 21.084576 0.094683
3.320073 21.084576 0.095444
3.634794 21.084576 0.096048
3.949515 21.084576 0.096734
4.264236 21.084576 0.097615
4.578956 21.084576 0.098981
4.893677 21.084576 0.100849
5.208398 21.084576 0.103413
5.523119 21.084576 0.106429
5.837841 21.084576 0.110597
6.152562 21.084576 0.116392
6.467283 21.084576 0.123881
6.782003 21.084576 0.135027
7.096724 21.084576 0.152164
7.411445 21.084576 0.178928
7.726166 21.084576 0.228560
8.040888 21.084576 0.318214
8.355608 21.084576 0.448415
8.670330 21.084576 0.637229
8.985050 21.084576 0.870922
9.299772 21.084576 1.127089
9.614492 21.084576 1.373925
9.929214 21.084576 1.653597
10.243935 21.084576 1.908630
10.558655 21.084576 2.130381
10.873377 21.084576 2.359054
11.188097 21.084576 2.562395
11.502819 21.084576 2.750641
11.817539 21.084576 2.889968
12.132261 21.084576 3.001716
12.446981 21.084576 3.072595
12.761703 21.084576 3.130375
13.076424 21.084576 3.160690
13.391144 21.084576 3.148862
13.705866 21.084576 3.120755
14.020586 21.084576 3.036793
14.335308 21.084576 2.903059
14.650028 21.084576 2.742321
14.964750 21.084576 2.613679
15.279470 21.084576 2.560269
15.594193 21.084576 2.650368
15.908913 21.084576 1.685949
16.223633 21.084576 0.000000
16.538355 21.084576 0.000000
16.853075 21.084576 0.000000
17.167797 21.084576 0.000000
17.482517 21.084576 0.000000
17.797239 21.084576 0.000000
18.111959 21.084576 0.000000
18.426680 21.084576 0.000000
18.741402 21.084576 0.000000
-7.065720 20.769855 0.000000
-6.750999 20.769855 0.096301
-6.436278 20.769855 0.093095
-6.121557 20.769855 0.092400
-5.806836 20.769855 0.092045
-5.492115 20.769855 0.091760
-5.177394 20.769855 0.091963
-4.862673 20.769855 0.092113
-4.547952 20.769855 0.092094
-4.233231 20.769855 0.092218
-3.918510 20.769855 0.092424
-3.603789 20.769855 0.092608
-3.289068 20.769855 0.092497
-2.974347 20.769855 0.092360
-2.659626 20.769855 0.092351
-2.344905 20.769855 0.092402
-2.030184 20.769855 0.092447
-1.715463 20.769855 0.092245
-1.400742 20.769855 0.091847
-1.086021 20.769855 0.091670
-0.771300 20.769855 0.091797
-0.456579 20.769855 0.092045
-0.141859 20.769855 0.092086
0.172863 20.769855 0.091731
0.487584 20.769855 0.091585
0.802305 20.769855 0.091824
1.117026 20.769855 0.092093
1.431747 20.769855 0.092192
1.746467 20.769855 0.092439
2.061188 20.769855 0.092963
2.375909 20.769855 0.093578
2.690630 20.769855 0.094244
3.005352 20.769855 0.094927
3.320073 20.769855 0.095450
3.634794 20.769855 0.095965
3.949515 20.769855 0.096482
4.264236 20.769855 0.097159
4.578956 20.769855 0.098216
4.893677 20.769855 0.099941
5.208398 20.769855 0.102275
5.523119 20.769855 0.105619
5.837841 20.769855 0.110046
6.152562 20.769855 0.116500
6.467283 20.769855 0.125436
6.782003 20.769855 0.136387
7.096724 20.769855 0.154349
7.411445 20.769855 0.182760
7.726166 20.769855 0.229961
8.040888 20.769855 0.313012
8.355608 20.769855 0.448527
8.670330 20.769855 0.639665
8.985050 20.769855 0.872783
9.299772 20.769855 1.125602
9.614492 20.769855 1.393347
9.929214 20.769855 1.674759
10.243935 20.769855 1.897580
10.558655 20.769855 2.128748
10.873377 20.769855 2.374396
11.188097 20.769855 2.555097
11.502819 20.769855 2.734001
11.817539 20.769855 2.875938
12.132261 20.769855 2.980624
12.446981 20.769855 3.043406
12.761703 20.769855 3.114549
13.076424 20.769855 3.119829
13.391144 20.769855 3.132253
13.705866 20.769855 3.113528
14.020586 20.769855 3.032010
14.335308 20.769855 2.905690
14.650028 20.769855 2.753459
14.964750 20.769855 2.633883
15.279470 20.769855 2.565459
15.594193 20.769855 2.636915
15.908913 20.769855 0.000000
16.223633 20.769855 0.000000
16.538355 20.769855 0.000000
16.853075 20.769855 0.000000
17.167797 20.769855 0.000000
17.482517 20.769855 0.000000
17.797239 20.769855 0.000000
18.111959 20.769855 0.000000
18.426680 20.769855 0.000000
18.741402 20.769855 0.000000
-7.065720 20.455133 0.000000
-6.750999 20.455133 0.095255
-6.436278 20.455133 0.092281
-6.121557 20.455133 0.091907
-5.806836 20.455133 0.091966
-5.492115 20.455133 0.092099
-5.177394 20.455133 0.092635
-4.862673 20.455133 0.092981
-4.547952 20.455133 0.092993
-4.233231 20.455133 0.092982
-3.918510 20.455133 0.092949
-3.603789 20.455133 0.092985
-3.289068 20.455133 0.092716
-2.974347 20.455133 0.092270
-2.659626 20.455133 0.091971
-2.344905 20.455133 0.091837
-2.030184 20.455133 0.091751
-1.715463 20.455133 0.091483
-1.400742 20.455133 0.091196
-1.086021 20.455133 0.091185
-0.771300 20.455133 0.091441
-0.456579 20.455133 0.091844
-0.141859 20.455133 0.091803
0.172863 20.455133 0.091419
0.487584 20.455133 0.091399
0.802305 20.455133 0.091830
1.117026 20.455133 0.092243
1.431747 20.455133 0.092494
1.746467 20.455133 0.092732
2.061188 20.455133 0.093217
2.375909 20.455133 0.093813
2.690630 20.455133 0.094361
3.005352 20.455133 0.094756
3.320073 20.455133 0.094934
3.634794 20.455133 0.095246
3.949515 20.455133 0.095705
4.264236 20.455133 0.096555
4.578956 20.455133 0.097507
4.893677 20.455133 0.099200
5.208398 20.455133 0.101691
5.523119 20.455133 0.105517
5.837841 20.455133 0.110629
6.152562 20.455133 0.117152
6.467283 20.455133 0.126554
6.782003 20.455133 0.138022
7.096724 20.455133 0.155287
7.411445 20.455133 0.181857
7.726166 20.455133 0.230971
8.040888 20.455133 0.314338
8.355608 20.455133 0.451507
8.670330 20.455133 0.650722
8.985050 20.455133 0.867784
9.299772 20.455133 1.125273
9.614492 20.455133 1.395604
9.929214 20.455133 1.670356
10.243935 20.455133 1.917074
10.558655 20.455133 2.131235
10.873377 20.455133 2.369008
11.188097 20.455133 2.540885
11.502819 20.455133 2.701061
11.817539 20.455133 2.866321
12.132261 20.455133 2.959528
12.446981 20.455133 3.029448
12.761703 20.455133 3.086328
13.076424 20.455133 3.128656
13.391144 20.455133 3.137830
13.705866 20.455133 3.113384
14.020586 20.455133 3.075598
14.335308 20.455133 2.947458
14.650028 20.455133 2.804872
14.964750 20.455133 2.637548
15.279470 20.455133 2.598366
15.594193 20.455133 2.691788
15.908913 20.455133 0.000000
16.223633 20.455133 0.000000
16.538355 20.455133 0.000000
16.853075 20.455133 0.000000
17.167797 20.455133 0.000000
17.482517 20.455133 0.000000
17.797239 20.455133 0.000000
18.111959 20.455133 0.000000
18.426680 20.455133 0.000000
18.741402 20.455133 0.000000
-7.065720 20.140413 0.000000
-6.750999 20.140413 0.094970
-6.436278 20.140413 0.092337
-6.121557 20.140413 0.092355
-5.806836 20.140413 0.092638
-5.492115 20.140413 0.092970
-5.177394 20.140413 0.093574
-4.862673 20.140413 0.093872
-4.547952 20.140413 0.093630
-4.233231 20.140413 0.093178
-3.918510 20.140413 0.092934
-3.603789 20.140413 0.092927
-3.289068 20.140413 0.092654
-2.974347 20.140413 0.092035
-2.659626 20.140413 0.091553
-2.344905 20.140413 0.091279
-2.030184 20.140413 0.091141
-1.715463 20.140413 0.090948
-1.400742 20.140413 0.090841
-1.086021 20.140413 0.090938
-0.771300 20.140413 0.091306
-0.456579 20.140413 0.091772
-0.141859 20.140413 0.091732
0.172863 20.140413 0.091321
0.487584 20.140413 0.091400
0.802305 20.140413 0.091877
1.117026 20.140413 0.092395
1.431747 20.140413 0.092816
1.746467 20.140413 0.093035
2.061188 20.140413 0.093264
2.375909 20.140413 0.093731
2.690630 20.140413 0.094057
3.005352 20.140413 0.094084
3.320073 20.140413 0.093984
3.634794 20.140413 0.094223
3.949515 20.140413 0.094951
4.264236 20.140413 0.096179
4.578956 20.140413 0.097383
4.893677 20.140413 0.099191
5.208398 20.140413 0.102168
5.523119 20.140413 0.106324
5.837841 20.140413 0.111731
6.152562 20.140413 0.118318
6.467283 20.140413 0.127527
6.782003 20.140413 0.138569
7.096724 20.140413 0.154785
7.411445 20.140413 0.180677
7.726166 20.140413 0.233041
8.040888 20.140413 0.318214
8.355608 20.140413 0.459691
8.670330 20.140413 0.652720
8.985050 20.140413 0.880371
9.299772 20.140413 1.123257
9.614492 20.140413 1.409645
9.929214 20.140413 1.674202
10.243935 20.140413 1.926954
10.558655 20.140413 2.128922
10.873377 20.140413 2.366579
11.188097 20.140413 2.546196
11.502819 20.140413 2.686978
11.817539 20.140413 2.845053
12.132261 20.140413 2.947544
12.446981 20.140413 3.038616
12.761703 20.140413 3.088402
13.076424 20.140413 3.139602
13.391144 20.140413 3.133042
13.705866 20.140413 3.154773
14.020586 20.140413 3.112957
14.335308 20.140413 2.993934
14.650028 20.140413 2.850904
14.964750 20.140413 2.698476
15.279470 20.140413 2.614717
15.594193 20.140413 2.728851
15.908913 20.140413 0.000000
16.223633 20.140413 0.000000
16.538355 20.140413 0.000000
16.853075 20.140413 0.000000
17.167797 20.140413 0.000000
17.482517 20.140413 0.000000
17.797239 20.140413 0.000000
18.111959 20.140413 0.000000
18.426680 20.140413 0.000000
18.741402 20.140413 0.000000
-7.065720 19.825691 0.000000
-6.750999 19.825691 0.095373
-6.436278 19.825691 0.093164
-6.121557 19.825691 0.093227
-5.806836 19.825691 0.093525
-5.492115 19.825691 0.093779
-5.177394 19.825691 0.094270
-4.862673 19.825691 0.094407
-4.547952 19.825691 0.093777
-4.233231 19.825691 0.092959
-3.918510 19.825691 0.092533
-3.603789 19.825691 0.092545
-3.289068 19.825691 0.092426
-2.974347 19.825691 0.091748
-2.659626 19.825691 0.091193
-2.344905 19.825691 0.090841
-2.030184 19.825691 0.090706
-1.715463 19.825691 0.090684
-1.400742 19.825691 0.090740
-1.086021 19.825691 0.090944
-0.771300 19.825691 0.091362
-0.456579 19.825691 0.091846
-0.141859 19.825691 0.091833
0.172863 19.825691 0.091490
0.487584 19.825691 0.091580
0.802305 19.825691 0.091911
1.117026 19.825691 0.092407
1.431747 19.825691 0.092818
1.746467 19.825691 0.092870
2.061188 19.825691 0.092877
2.375909 19.825691 0.093151
2.690630 19.825691 0.093291
3.005352 19.825691 0.093219
3.320073 19.825691 0.093203
3.634794 19.825691 0.093656
3.949515 19.825691 0.094750
4.264236 19.825691 0.096464
4.578956 19.825691 0.098113
4.893677 19.825691 0.100139
5.208398 19.825691 0.103245
5.523119 19.825691 0.107442
5.837841 19.825691 0.112351
6.152562 19.825691 0.118819
6.467283 19.825691 0.126750
6.782003 19.825691 0.138358
7.096724 19.825691 0.153759
7.411445 19.825691 0.182893
7.726166 19.825691 0.236218
8.040888 19.825691 0.324727
8.355608 19.825691 0.470121
8.670330 19.825691 0.662229
8.985050 19.825691 0.901282
9.299772 19.825691 1.134828
9.614492 19.825691 1.402216
9.929214 19.825691 1.672832
10.243935 19.825691 1.918639
10.558655 19.825691 2.155591
10.873377 19.825691 2.372156
11.188097 19.825691 2.539903
11.502819 19.825691 2.701170
11.817539 19.825691 2.853081
12.132261 19.825691 2.969346
12.446981 19.825691 3.035952
12.761703 19.825691 3.110919
13.076424 19.825691 3.146415
13.391144 19.825691 3.181428
13.705866 19.825691 3.175664
14.020586 19.825691 3.131380
14.335308 19.825691 2.993255
14.650028 19.825691 2.846370
14.964750 19.825691 2.734782
15.279470 19.825691 2.686781
15.594193 19.825691 2.785414
15.908913 19.825691 0.000000
16.223633 19.825691 0.000000
16.538355 19.825691 0.000000
16.853075 19.825691 0.000000
17.167797 19.825691 0.000000
17.482517 19.825691 0.000000
17.797239 19.825691 0.000000
18.111959 19.825691 0.000000
18.426680 19.825691 0.000000
18.741402 19.825691 0.000000
-7.065720 19.510971 0.000000
-6.750999 19.510971 0.095946
-6.436278 19.510971 0.093925
-6.121557 19.510971 0.093892
-5.806836 19.510971 0.094078
-5.492115 19.510971 0.094159
-5.177394 19.510971 0.094479
-4.862673 19.510971 0.094413
-4.547952 19.510971 0.093520
-4.233231 19.510971 0.092583
-3.918510 19.510971 0.092046
-3.603789 19.510971 0.092173
-3.289068 19.510971 0.092174
-2.974347 19.510971 0.091571
-2.659626 19.510971 0.091070
-2.344905 19.510971 0.090778
-2.030184 19.510971 0.090732
-1.715463 19.510971 0.090901
-1.400742 19.510971 0.090958
-1.086021 19.510971 0.091123
-0.771300 19.510971 0.091484
-0.456579 19.510971 0.091943
-0.141859 19.510971 0.092029
0.172863 19.510971 0.091759
0.487584 19.510971 0.091769
0.802305 19.510971 0.091845
1.117026 19.510971 0.092089
1.431747 19.510971 0.092433
1.746467 19.510971 0.092323
2.061188 19.510971 0.092199
2.375909 19.510971 0.092395
2.690630 19.510971 0.092578
3.005352 19.510971 0.092735
3.320073 19.510971 0.093096
3.634794 19.510971 0.093875
3.949515 19.510971 0.095282
4.264236 19.510971 0.097053
4.578956 19.510971 0.099144
4.893677 19.510971 0.101318
5.208398 19.510971 0.103977
5.523119 19.510971 0.107847
5.837841 19.510971 0.112338
6.152562 19.510971 0.118426
6.467283 19.510971 0.126346
6.782003 19.510971 0.137109
7.096724 19.510971 0.154816
7.411445 19.510971 0.185680
7.726166 19.510971 0.239740
8.040888 19.510971 0.332287
8.355608 19.510971 0.471640
8.670330 19.510971 0.665089
8.985050 19.510971 0.895740
9.299772 19.510971 1.137087
9.614492 19.510971 1.409777
9.929214 19.510971 1.666948
10.243935 19.510971 1.910586
10.558655 19.510971 2.154299
10.873377 19.510971 2.365329
11.188097 19.510971 2.542756
11.502819 19.510971 2.704689
11.817539 19.510971 2.859855
12.132261 19.510971 2.963176
12.446981 19.510971 3.038838
12.761703 19.510971 3.102784
13.076424 19.510971 3.150588
13.391144 19.510971 3.199228
13.705866 19.510971 3.205030
14.020586 19.510971 3.142315
14.335308 19.510971 3.023603
14.650028 19.510971 2.853566
14.964750 19.510971 2.780658
15.279470 19.510971 2.735066
15.594193 19.510971 2.883766
15.908913 19.510971 0.000000
16.223633 19.510971 0.000000
16.538355 19.510971 0.000000
16.853075 19.510971 0.000000
17.167797 19.510971 0.000000
17.482517 19.510971 0.000000
17.797239 19.510971 0.000000
18.111959 19.510971 0.000000
18.426680 19.510971 0.000000
18.741402 19.510971 0.000000
-7.065720 19.196249 0.000000
-6.750999 19.196249 0.096092
-6.436278 19.196249 0.094231
-6.121557 19.196249 0.094109
-5.806836 19.196249 0.094072
-5.492115 19.196249 0.093959
-5.177394 19.196249 0.094072
-4.862673 19.196249 0.093968
-4.547952 19.196249 0.093221
-4.233231 19.196249 0.092235
-3.918510 19.196249 0.091755
-3.603789 19.196249 0.091950
-3.289068 19.196249 0.091998
-2.974347 19.196249 0.091588
-2.659626 19.196249 0.091162
-2.344905 19.196249 0.090925
-2.030184 19.196249 0.091067
-1.715463 19.196249 0.091443
-1.400742 19.196249 0.091507
-1.086021 19.196249 0.091460
-0.771300 19.196249 0.091638
-0.456579 19.196249 0.091946
-0.141859 19.196249 0.092013
0.172863 19.196249 0.091708
0.487584 19.196249 0.091636
0.802305 19.196249 0.091475
1.117026 19.196249 0.091387
1.431747 19.196249 0.091645
1.746467 19.196249 0.091631
2.061188 19.196249 0.091687
2.375909 19.196249 0.092079
2.690630 19.196249 0.092475
3.005352 19.196249 0.093005
3.320073 19.196249 0.093696
3.634794 19.196249 0.094722
3.949515 19.196249 0.096024
4.264236 19.196249 0.097729
4.578956 19.196249 0.099750
4.893677 19.196249 0.101791
5.208398 19.196249 0.104039
5.523119 19.196249 0.107407
5.837841 19.196249 0.111297
6.152562 19.196249 0.117568
6.467283 19.196249 0.125749
6.782003 19.196249 0.136783
7.096724 19.196249 0.156088
7.411445 19.196249 0.185974
7.726166 19.196249 0.240895
8.040888 19.196249 0.336743
8.355608 19.196249 0.476832
8.670330 19.196249 0.673402
8.985050 19.196249 0.894749
9.299772 19.196249 1.154720
9.614492 19.196249 1.417608
9.929214 19.196249 1.676747
10.243935 19.196249 1.910906
10.558655 19.196249 2.163243
10.873377 19.196249 2.368873
11.188097 19.196249 2.541098
11.502819 19.196249 2.725065
11.817539 19.196249 2.857180
12.132261 19.196249 2.955198
12.446981 19.196249 3.055529
12.761703 19.196249 3.118366
13.076424 19.196249 3.166074
13.391144 19.196249 3.213796
13.705866 19.196249 3.236154
14.020586 19.196249 3.151619
14.335308 19.196249 3.033777
14.650028 19.196249 2.870243
14.964750 19.196249 2.760005
15.279470 19.196249 2.749774
15.594193 19.196249 2.973154
15.908913 19.196249 0.000000
16.223633 19.196249 0.000000
16.538355 19.196249 0.000000
16.853075 19.196249 0.000000
17.167797 19.196249 0.000000
17.482517 19.196249 0.000000
17.797239 19.196249 0.000000
18.111959 19.196249 0.000000
18.426680 19.196249 0.000000
18.741402 19.196249 0.000000
-7.065720 18.881529 0.000000
-6.750999 18.881529 0.095741
-6.436278 18.881529 0.093983
-6.121557 18.881529 0.093853
-5.806836 18.881529 0.093663
-5.492115 18.881529 0.093420
-5.177394 18.881529 0.093456
-4.862673 18.881529 0.093451
-4.547952 18.881529 0.092927
-4.233231 18.881529 0.092096
-3.918510 18.881529 0.091746
-3.603789 18.881529 0.091948
-3.289068 18.881529 0.092040
-2.974347 18.881529 0.091875
-2.659626 18.881529 0.091518
-2.344905 18.881529 0.091315
-2.030184 18.881529 0.091586
-1.715463 18.881529 0.091919
-1.400742 18.881529 0.091908
-1.086021 18.881529 0.091779
-0.771300 18.881529 0.091619
-0.456579 18.881529 0.091617
-0.141859 18.881529 0.091596
0.172863 18.881529 0.091353
0.487584 18.881529 0.091227
0.802305 18.881529 0.091006
1.117026 18.881529 0.090753
1.431747 18.881529 0.091025
1.746467 18.881529 0.091372
2.061188 18.881529 0.091795
2.375909 18.881529 0.092360
2.690630 18.881529 0.093000
3.005352 18.881529 0.093798
3.320073 18.881529 0.094607
3.634794 18.881529 0.095442
3.949515 18.881529 0.096382
4.264236 18.881529 0.097693
4.578956 18.881529 0.099516
4.893677 18.881529 0.101314
5.208398 18.881529 0.103771
5.523119 18.881529 0.106638
5.837841 18.881529 0.110886
6.152562 18.881529 0.117480
6.467283 18.881529 0.126405
6.782003 18.881529 0.137601
7.096724 18.881529 0.157920
7.411445 18.881529 0.187658
7.726166 18.881529 0.244203
8.040888 18.881529 0.337370
8.355608 18.881529 0.486385
8.670330 18.881529 0.678240
8.985050 18.881529 0.906479
9.299772 18.881529 1.167750
9.614492 18.881529 1.437472
9.929214 18.881529 1.679220
10.243935 18.881529 1.920662
10.558655 18.881529 2.155484
10.873377 18.881529 2.380104
11.188097 18.881529 2.574414
11.502819 18.881529 2.736103
11.817539 18.881529 2.857802
12.132261 18.881529 2.940560
12.446981 18.881529 3.033692
12.761703 18.881529 3.114094
13.076424 18.881529 3.209298
13.391144 18.881529 3.233769
13.705866 18.881529 3.227627
14.020586 18.881529 3.162962
14.335308 18.881529 3.045146
14.650028 18.881529 2.855737
14.964750 18.881529 2.747092
15.279470 18.881529 2.795146
15.594193 18.881529 3.051268
15.908913 18.881529 0.000000
16.223633 18.881529 0.000000
16.538355 18.881529 0.000000
16.853075 18.881529 0.000000
17.167797 18.881529 0.000000
17.482517 18.881529 0.000000
17.797239 18.881529 0.000000
18.111959 18.881529 0.000000
18.426680 18.881529 0.000000
18.741402 18.881529 0.000000
-7.065720 18.566807 0.000000
-6.750999 18.566807 0.095143
-6.436278 18.566807 0.093548
-6.121557 18.566807 0.093505
-5.806836 18.566807 0.093190
-5.492115 18.566807 0.092845
-5.177394 18.566807 0.092932
-4.862673 18.566807 0.093038
-4.547952 18.566807 0.092803
-4.233231 18.566807 0.092265
-3.918510 18.566807 0.092091
-3.603789 18.566807 0.092248
-3.289068 18.566807 0.092301
-2.974347 18.566807 0.092279
-2.659626 18.566807 0.092030
-2.344905 18.566807 0.091824
-2.030184 18.566807 0.091938
-1.715463 18.566807 0.092108
-1.400742 18.566807 0.091940
-1.086021 18.566807 0.091622
-0.771300 18.566807 0.091180
-0.456579 18.566807 0.090969
-0.141859 18.566807 0.090955
0.172863 18.566807 0.090935
0.487584 18.566807 0.091010
0.802305 18.566807 0.090845
1.117026 18.566807 0.090631
1.431747 18.566807 0.090999
1.746467 18.566807 0.091716
2.061188 18.566807 0.092427
2.375909 18.566807 0.092969
2.690630 18.566807 0.093629
3.005352 18.566807 0.094390
3.320073 18.566807 0.095016
3.634794 18.566807 0.095334
3.949515 18.566807 0.095833
4.264236 18.566807 0.096896
4.578956 18.566807 0.098567
4.893677 18.566807 0.100816
5.208398 18.566807 0.103290
5.523119 18.566807 0.106368
5.837841 18.566807 0.111084
6.152562 18.566807 0.117999
6.467283 18.566807 0.127212
6.782003 18.566807 0.140094
7.096724 18.566807 0.157144
7.411445 18.566807 0.186800
7.726166 18.566807 0.243291
8.040888 18.566807 0.340037
8.355608 18.566807 0.479750
8.670330 18.566807 0.684221
8.985050 18.566807 0.921255
9.299772 18.566807 1.174448
9.614492 18.566807 1.436234
9.929214 18.566807 1.695392
10.243935 18.566807 1.931914
10.558655 18.566807 2.166838
10.873377 18.566807 2.389225
11.188097 18.566807 2.573508
11.502819 18.566807 2.722265
11.817539 18.566807 2.863799
12.132261 18.566807 2.939707
12.446981 18.566807 3.046841
12.761703 18.566807 3.130419
13.076424 18.566807 3.210041
13.391144 18.566807 3.246671
13.705866 18.566807 3.216357
14.020586 18.566807 3.148034
14.335308 18.566807 3.036391
14.650028 18.566807 2.886961
14.964750 18.566807 2.772526
15.279470 18.566807 2.782323
15.594193 18.566807 3.018035
15.908913 18.566807 0.000000
16.223633 18.566807 0.000000
16.538355 18.566807 0.000000
16.853075 18.566807 0.000000
17.167797 18.566807 0.000000
17.482517 18.566807 0.000000
17.797239 18.566807 0.000000
18.111959 18.566807 0.000000
18.426680 18.566807 0.000000
18.741402 18.566807 0.000000
-7.065720 18.252087 0.000000
-6.750999 18.252087 0.094704
-6.436278 18.252087 0.093153
-6.121557 18.252087 0.093197
-5.806836 18.252087 0.092789
-5.492115 18.252087 0.092476
-5.177394 18.252087 0.092595
-4.862673 18.252087 0.092797
-4.547952 18.252087 0.092770
-4.233231 18.252087 0.092611
-3.918510 18.252087 0.092587
-3.603789 18.252087 0.092602
-3.289068 18.252087 0.092633
-2.974347 18.252087 0.092544
-2.659626 18.252087 0.092377
-2.344905 18.252087 0.092129
-2.030184 18.252087 0.091949
-1.715463 18.252087 0.091790
-1.400742 18.252087 0.091567
-1.086021 18.252087 0.091232
-0.771300 18.252087 0.090714
-0.456579 18.252087 0.090450
-0.141859 18.252087 0.090679
0.172863 18.252087 0.090930
0.487584 18.252087 0.091169
0.802305 18.252087 0.091182
1.117026 18.252087 0.091072
1.431747 18.252087 0.091449
1.746467 18.252087 0.092300
2.061188 18.252087 0.092939
2.375909 18.252087 0.093263
2.690630 18.252087 0.093671
3.005352 18.252087 0.094294
3.320073 18.252087 0.094670
3.634794 18.252087 0.094725
3.949515 18.252087 0.095082
4.264236 18.252087 0.096160
4.578956 18.252087 0.098027
4.893677 18.252087 0.100601
5.208398 18.252087 0.103629
5.523119 18.252087 0.107011
5.837841 18.252087 0.112067
6.152562 18.252087 0.118942
6.467283 18.252087 0.127501
6.782003 18.252087 0.140390
7.096724 18.252087 0.158026
7.411445 18.252087 0.187513
7.726166 18.252087 0.247797
8.040888 18.252087 0.339340
8.355608 18.252087 0.487943
8.670330 18.252087 0.689625
8.985050 18.252087 0.930939
9.299772 18.252087 1.178768
9.614492 18.252087 1.438524
9.929214 18.252087 1.689009
10.243935 18.252087 1.947218
10.558655 18.252087 2.171792
10.873377 18.252087 2.374283
11.188097 18.252087 2.572056
11.502819 18.252087 2.721576
11.817539 18.252087 2.854531
12.132261 18.252087 2.954518
12.446981 18.252087 3.034559
12.761703 18.252087 3.133442
13.076424 18.252087 3.216593
13.391144 18.252087 3.259404
13.705866 18.252087 3.220212
14.020586 18.252087 3.152158
14.335308 18.252087 3.049462
14.650028 18.252087 2.879835
14.964750 18.252087 2.763100
15.279470 18.252087 2.805434
15.594193 18.252087 3.072643
15.908913 18.252087 0.000000
16.223633 18.252087 0.000000
16.538355 18.252087 0.000000
16.853075 18.252087 0.000000
17.167797 18.252087 0.000000
17.482517 18.252087 0.000000
17.797239 18.252087 0.000000
18.111959 18.252087 0.000000
18.426680 18.252087 0.000000
18.741402 18.252087 0.000000
-7.065720 17.937366 0.000000
-6.750999 17.937366 0.094549
-6.436278 17.937366 0.092988
-6.121557 17.937366 0.092967
-5.806836 17.937366 0.092646
-5.492115 17.937366 0.092375
-5.177394 17.937366 0.092567
-4.862673 17.937366 0.092761
-4.547952 17.937366 0.092869
-4.233231 17.937366 0.092894
-3.918510 17.937366 0.092912
-3.603789 17.937366 0.092730
-3.289068 17.937366 0.092549
-2.974347 17.937366 0.092504
-2.659626 17.937366 0.092407
-2.344905 17.937366 0.092057
-2.030184 17.937366 0.091569
-1.715463 17.937366 0.091278
-1.400742 17.937366 0.091130
-1.086021 17.937366 0.090914
-0.771300 17.937366 0.090604
-0.456579 17.937366 0.090571
-0.141859 17.937366 0.091009
0.172863 17.937366 0.091474
0.487584 17.937366 0.091754
0.802305 17.937366 0.091812
1.117026 17.937366 0.091678
1.431747 17.937366 0.091856
1.746467 17.937366 0.092531
2.061188 17.937366 0.092858
2.375909 17.937366 0.092853
2.690630 17.937366 0.093094
3.005352 17.937366 0.093640
3.320073 17.937366 0.094089
3.634794 17.937366 0.094315
3.949515 17.937366 0.094861
4.264236 17.937366 0.096213
4.578956 17.937366 0.098170
4.893677 17.937366 0.101041
5.208398 17.937366 0.104310
5.523119 17.937366 0.107754
5.837841 17.937366 0.112674
6.152562 17.937366 0.119380
6.467283 17.937366 0.127070
6.782003 17.937366 0.139988
7.096724 17.937366 0.158389
7.411445 17.937366 0.190161
7.726166 17.937366 0.247628
8.040888 17.937366 0.342828
8.355608 17.937366 0.496129
8.670330 17.937366 0.697402
8.985050 17.937366 0.934258
9.299772 17.937366 1.184783
9.614492 17.937366 1.441355
9.929214 17.937366 1.705356
10.243935 17.937366 1.959216
10.558655 17.937366 2.172438
10.873377 17.937366 2.366637
11.188097 17.937366 2.575092
11.502819 17.937366 2.722171
11.817539 17.937366 2.844219
12.132261 17.937366 2.943305
12.446981 17.937366 3.061348
12.761703 17.937366 3.164014
13.076424 17.937366 3.230625
13.391144 17.937366 3.252163
13.705866 17.937366 3.223399
14.020586 17.937366 3.159429
14.335308 17.937366 3.039118
14.650028 17.937366 2.914340
14.964750 17.937366 2.803974
15.279470 17.937366 2.887702
15.594193 17.937366 3.149832
15.908913 17.937366 0.000000
16.223633 17.937366 0.000000
16.538355 17.937366 0.000000
16.853075 17.937366 0.000000
17.167797 17.937366 0.000000
17.482517 17.937366 0.000000
17.797239 17.937366 0.000000
18.111959 17.937366 0.000000
18.426680 17.937366 0.000000
18.741402 17.937366 0.000000
-7.065720 17.622644 0.000000
-6.750999 17.622644 0.094703
-6.436278 17.622644 0.092987
-6.121557 17.622644 0.092877
-5.806836 17.622644 0.092621
-5.492115 17.622644 0.092506
-5.177394 17.622644 0.092648
-4.862673 17.622644 0.092772
-4.547952 17.622644 0.092850
-4.233231 17.622644 0.092911
-3.918510 17.622644 0.092772
-3.603789 17.622644 0.092447
-3.289068 17.622644 0.092043
-2.974347 17.622644 0.092096
-2.659626 17.622644 0.092177
-2.344905 17.622644 0.091857
-2.030184 17.622644 0.091236
-1.715463 17.622644 0.091028
-1.400742 17.622644 0.090982
-1.086021 17.622644 0.090999
-0.771300 17.622644 0.091071
-0.456579 17.622644 0.091334
-0.141859 17.622644 0.091866
0.172863 17.622644 0.092122
0.487584 17.622644 0.092188
0.802305 17.622644 0.092219
1.117026 17.622644 0.091955
1.431747 17.622644 0.091967
1.746467 17.622644 0.092271
2.061188 17.622644 0.092297
2.375909 17.622644 0.092140
2.690630 17.622644 0.092505
3.005352 17.622644 0.093218
3.320073 17.622644 0.093934
3.634794 17.622644 0.094592
3.949515 17.622644 0.095430
4.264236 17.622644 0.096726
4.578956 17.622644 0.098805
4.893677 17.622644 0.101438
5.208398 17.622644 0.104634
5.523119 17.622644 0.107831
5.837841 17.622644 0.112077
6.152562 17.622644 0.118404
6.467283 17.622644 0.126624
6.782003 17.622644 0.138858
7.096724 17.622644 0.159258
7.411445 17.622644 0.193352
7.726166 17.622644 0.246812
8.040888 17.622644 0.345796
8.355608 17.622644 0.502305
8.670330 17.622644 0.706284
8.985050 17.622644 0.937275
9.299772 17.622644 1.179417
9.614492 17.622644 1.425438
9.929214 17.622644 1.694104
10.243935 17.622644 1.948697
10.558655 17.622644 2.166187
10.873377 17.622644 2.366047
11.188097 17.622644 2.548705
11.502819 17.622644 2.723198
11.817539 17.622644 2.845915
12.132261 17.622644 2.949275
12.446981 17.622644 3.057330
12.761703 17.622644 3.147660
13.076424 17.622644 3.234093
13.391144 17.622644 3.234111
13.705866 17.622644 3.232172
14.020586 17.622644 3.162666
14.335308 17.622644 3.052024
14.650028 17.622644 2.909719
14.964750 17.622644 2.840743
15.279470 17.622644 2.933262
15.594193 17.622644 3.197348
15.908913 17.622644 0.000000
16.223633 17.622644 0.000000
16.538355 17.622644 0.000000
16.853075 17.622644 0.000000
17.167797 17.622644 0.000000
17.482517 17.622644 0.000000
17.797239 17.622644 0.000000
18.111959 17.622644 0.000000
18.426680 17.622644 0.000000
18.741402 17.622644 0.000000
-7.065720 17.307924 0.000000
-6.750999 17.307924 0.094974
-6.436278 17.307924 0.092994
-6.121557 17.307924 0.092792
-5.806836 17.307924 0.092586
-5.492115 17.307924 0.092604
-5.177394 17.307924 0.092731
-4.862673 17.307924 0.092776
-4.547952 17.307924 0.092645
-4.233231 17.307924 0.092553
-3.918510 17.307924 0.092271
-3.603789 17.307924 0.091801
-3.289068 17.307924 0.091388
-2.974347 17.307924 0.091631
-2.659626 17.307924 0.091953
-2.344905 17.307924 0.091782
-2.030184 17.307924 0.091307
-1.715463 17.307924 0.091257
-1.400742 17.307924 0.091373
-1.086021 17.307924 0.091586
-0.771300 17.307924 0.091833
-0.456579 17.307924 0.092129
-0.141859 17.307924 0.092375
0.172863 17.307924 0.092242
0.487584 17.307924 0.092079
0.802305 17.307924 0.091990
1.117026 17.307924 0.091789
1.431747 17.307924 0.091745
1.746467 17.307924 0.091890
2.061188 17.307924 0.091837
2.375909 17.307924 0.091842
2.690630 17.307924 0.092519
3.005352 17.307924 0.093468
3.320073 17.307924 0.094396
3.634794 17.307924 0.095334
3.949515 17.307924 0.096244
4.264236 17.307924 0.097236
4.578956 17.307924 0.098828
4.893677 17.307924 0.101376
5.208398 17.307924 0.104219
5.523119 17.307924 0.107285
5.837841 17.307924 0.111341
6.152562 17.307924 0.117116
6.467283 17.307924 0.125770
6.782003 17.307924 0.139144
7.096724 17.307924 0.159621
7.411445 17.307924 0.193509
7.726166 17.307924 0.249570
8.040888 17.307924 0.347693
8.355608 17.307924 0.511161
8.670330 17.307924 0.718969
8.985050 17.307924 0.949717
9.299772 17.307924 1.186471
9.614492 17.307924 1.435927
9.929214 17.307924 1.693230
10.243935 17.307924 1.939462
10.558655 17.307924 2.173471
10.873377 17.307924 2.367209
11.188097 17.307924 2.552707
11.502819 17.307924 2.709504
11.817539 17.307924 2.852389
12.132261 17.307924 2.953128
12.446981 17.307924 3.059992
12.761703 17.307924 3.145405
13.076424 17.307924 3.217325
13.391144 17.307924 3.247193
13.705866 17.307924 3.240361
14.020586 17.307924 3.197526
14.335308 17.307924 3.090502
14.650028 17.307924 2.935091
14.964750 17.307924 2.861438
15.279470 17.307924 2.967011
15.594193 17.307924 3.320325
15.908913 17.307924 0.000000
16.223633 17.307924 0.000000
16.538355 17.307924 0.000000
16.853075 17.307924 0.000000
17.167797 17.307924 0.000000
17.482517 17.307924 0.000000
17.797239 17.307924 0.000000
18.111959 17.307924 0.000000
18.426680 17.307924 0.000000
18.741402 17.307924 0.000000
-7.065720 16.993202 0.000000
-6.750999 16.993202 0.095119
-6.436278 16.993202 0.092963
-6.121557 16.993202 0.092614
-5.806836 16.993202 0.092536
-5.492115 16.993202 0.092586
-5.177394 16.993202 0.092675
-4.862673 16.993202 0.092648
-4.547952 16.993202 0.092287
-4.233231 16.993202 0.092056
-3.918510 16.993202 0.091779
-3.603789 16.993202 0.091367
-3.289068 16.993202 0.091104
-2.974347 16.993202 0.091413
-2.659626 16.993202 0.091861
-2.344905 16.993202 0.091922
-2.030184 16.993202 0.091653
-1.715463 16.993202 0.091751
-1.400742 16.993202 0.091897
-1.086021 16.993202 0.092053
-0.771300 16.993202 0.092150
-0.456579 16.993202 0.092238
-0.141859 16.993202 0.092045
0.172863 16.993202 0.091623
0.487584 16.993202 0.091312
0.802305 16.993202 0.091354
1.117026 16.993202 0.091557
1.431747 16.993202 0.091803
1.746467 16.993202 0.091941
2.061188 16.993202 0.091891
2.375909 16.993202 0.092119
2.690630 16.993202 0.092896
3.005352 16.993202 0.093816
3.320073 16.993202 0.094653
3.634794 16.993202 0.095611
3.949515 16.993202 0.096413
4.264236 16.993202 0.097002
4.578956 16.993202 0.098300
4.893677 16.993202 0.100488
5.208398 16.993202 0.103511
5.523119 16.993202 0.106837
5.837841 16.993202 0.111221
6.152562 16.993202 0.117849
6.467283 16.993202 0.126803
6.782003 16.993202 0.139318
7.096724 16.993202 0.159108
7.411445 16.993202 0.191984
7.726166 16.993202 0.251417
8.040888 16.993202 0.350649
8.355608 16.993202 0.504032
8.670330 16.993202 0.723839
8.985050 16.993202 0.957228
9.299772 16.993202 1.203696
9.614492 16.993202 1.448309
9.929214 16.993202 1.693703
10.243935 16.993202 1.940799
10.558655 16.993202 2.178273
10.873377 16.993202 2.365334
11.188097 16.993202 2.527685
11.502819 16.993202 2.693163
11.817539 16.993202 2.833378
12.132261 16.993202 2.961702
12.446981 16.993202 3.060485
12.761703 16.993202 3.144863
13.076424 16.993202 3.209473
13.391144 16.993202 3.253633
13.705866 16.993202 3.254759
14.020586 16.993202 3.208109
14.335308 16.993202 3.095705
14.650028 16.993202 2.945687
14.964750 16.993202 2.883720
15.279470 16.993202 3.039388
15.594193 16.993202 3.343861
15.908913 16.993202 0.000000
16.223633 16.993202 0.000000
16.538355 16.993202 0.000000
16.853075 16.993202 0.000000
17.167797 16.993202 0.000000
17.482517 16.993202 0.000000
17.797239 16.993202 0.000000
18.111959 16.993202 0.000000
18.426680 16.993202 0.000000
18.741402 16.993202 0.000000
-7.065720 16.678482 0.000000
-6.750999 16.678482 0.095047
-6.436278 16.678482 0.092774
-6.121557 16.678482 0.092344
-5.806836 16.678482 0.092318
-5.492115 16.678482 0.092451
-5.177394 16.678482 0.092553
-4.862673 16.678482 0.092432
-4.547952 16.678482 0.092075
-4.233231 16.678482 0.091726
-3.918510 16.678482 0.091527
-3.603789 16.678482 0.091336
-3.289068 16.678482 0.091203
-2.974347 16.678482 0.091517
-2.659626 16.678482 0.091915
-2.344905 16.678482 0.092094
-2.030184 16.678482 0.091998
-1.715463 16.678482 0.091975
-1.400742 16.678482 0.091943
-1.086021 16.678482 0.091955
-0.771300 16.678482 0.091858
-0.456579 16.678482 0.091729
-0.141859 16.678482 0.091278
0.172863 16.678482 0.090784
0.487584 16.678482 0.090671
0.802305 16.678482 0.090988
1.117026 16.678482 0.091732
1.431747 16.678482 0.092356
1.746467 16.678482 0.092463
2.061188 16.678482 0.092361
2.375909 16.678482 0.092515
2.690630 16.678482 0.093058
3.005352 16.678482 0.093744
3.320073 16.678482 0.094423
3.634794 16.678482 0.095232
3.949515 16.678482 0.095875
4.264236 16.678482 0.096430
4.578956 16.678482 0.097695
4.893677 16.678482 0.099969
5.208398 16.678482 0.103341
5.523119 16.678482 0.107076
5.837841 16.678482 0.111658
6.152562 16.678482 0.118767
6.467283 16.678482 0.128576
6.782003 16.678482 0.140690
7.096724 16.678482 0.159149
7.411445 16.678482 0.193904
7.726166 16.678482 0.253576
8.040888 16.678482 0.353552
8.355608 16.678482 0.507568
8.670330 16.678482 0.729900
8.985050 16.678482 0.965083
9.299772 16.678482 1.207279
9.614492 16.678482 1.448554
9.929214 16.678482 1.708170
10.243935 16.678482 1.965822
10.558655 16.678482 2.178189
10.873377 16.678482 2.367338
11.188097 16.678482 2.533229
11.502819 16.678482 2.704036
11.817539 16.678482 2.832710
12.132261 16.678482 2.971148
12.446981 16.678482 3.045492
12.761703 16.678482 3.136994
13.076424 16.678482 3.214719
13.391144 16.678482 3.264867
13.705866 16.678482 3.279143
14.020586 16.678482 3.242446
14.335308 16.678482 3.105806
14.650028 16.678482 2.984535
14.964750 16.678482 2.899282
15.279470 16.678482 3.106107
15.594193 16.678482 3.480136
15.908913 16.678482 0.000000
16.223633 16.678482 0.000000
16.538355 16.678482 0.000000
16.853075 16.678482 0.000000
17.167797 16.678482 0.000000
17.482517 16.678482 0.000000
17.797239 16.678482 0.000000
18.111959 16.678482 0.000000
18.426680 16.678482 0.000000
18.741402 16.678482 0.000000
-7.065720 16.363762 0.000000
-6.750999 16.363762 0.094975
-6.436278 16.363762 0.092731
-6.121557 16.363762 0.092234
-5.806836 16.363762 0.092291
-5.492115 16.363762 0.092464
-5.177394 16.363762 0.092639
-4.862673 16.363762 0.092553
-4.547952 16.363762 0.092132
-4.233231 16.363762 0.091741
-3.918510 16.363762 0.091538
-3.603789 16.363762 0.091458
-3.289068 16.363762 0.091481
-2.974347 16.363762 0.091687
-2.659626 16.363762 0.091921
-2.344905 16.363762 0.092010
-2.030184 16.363762 0.091855
-1.715463 16.363762 0.091617
-1.400742 16.363762 0.091474
-1.086021 16.363762 0.091434
-0.771300 16.363762 0.091405
-0.456579 16.363762 0.091134
-0.141859 16.363762 0.090702
0.172863 16.363762 0.090411
0.487584 16.363762 0.090556
0.802305 16.363762 0.091163
1.117026 16.363762 0.092245
1.431747 16.363762 0.092980
1.746467 16.363762 0.092985
2.061188 16.363762 0.092647
2.375909 16.363762 0.092466
2.690630 16.363762 0.092575
3.005352 16.363762 0.092988
3.320073 16.363762 0.093666
3.634794 16.363762 0.094497
3.949515 16.363762 0.095220
4.264236 16.363762 0.096192
4.578956 16.363762 0.097503
4.893677 16.363762 0.099904
5.208398 16.363762 0.103643
5.523119 16.363762 0.107661
5.837841 16.363762 0.112608
6.152562 16.363762 0.119540
6.467283 16.363762 0.128864
6.782003 16.363762 0.140996
7.096724 16.363762 0.161050
7.411445 16.363762 0.194586
7.726166 16.363762 0.257397
8.040888 16.363762 0.359486
8.355608 16.363762 0.522432
8.670330 16.363762 0.741495
8.985050 16.363762 0.982165
9.299772 16.363762 1.217928
9.614492 16.363762 1.462524
9.929214 16.363762 1.707593
10.243935 16.363762 1.958431
10.558655 16.363762 2.168362
10.873377 16.363762 2.362773
11.188097 16.363762 2.544955
11.502819 16.363762 2.710042
11.817539 16.363762 2.858525
12.132261 16.363762 2.981562
12.446981 16.363762 3.057840
12.761703 16.363762 3.136590
13.076424 16.363762 3.199970
13.391144 16.363762 3.289633
13.705866 16.363762 3.308048
14.020586 16.363762 3.264891
14.335308 16.363762 3.137074
14.650028 16.363762 2.990669
14.964750 16.363762 2.939583
15.279470 16.363762 3.127930
15.594193 16.363762 3.471703
15.908913 16.363762 0.000000
16.223633 16.363762 0.000000
16.538355 16.363762 0.000000
16.853075 16.363762 0.000000
17.167797 16.363762 0.000000
17.482517 16.363762 0.000000
17.797239 16.363762 0.000000
18.111959 16.363762 0.000000
18.426680 16.363762 0.000000
18.741402 16.363762 0.000000
-7.065720 16.049038 0.000000
-6.750999 16.049038 0.095222
-6.436278 16.049038 0.092977
-6.121557 16.049038 0.092600
-5.806836 16.049038 0.092601
-5.492115 16.049038 0.092739
-5.177394 16.049038 0.092961
-4.862673 16.049038 0.092858
-4.547952 16.049038 0.092399
-4.233231 16.049038 0.091979
-3.918510 16.049038 0.091657
-3.603789 16.049038 0.091553
-3.289068 16.049038 0.091529
-2.974347 16.049038 0.091574
-2.659626 16.049038 0.091614
-2.344905 16.049038 0.091629
-2.030184 16.049038 0.091479
-1.715463 16.049038 0.091237
-1.400742 16.049038 0.090978
-1.086021 16.049038 0.091074
-0.771300 16.049038 0.091213
-0.456579 16.049038 0.090923
-0.141859 16.049038 0.090629
0.172863 16.049038 0.090671
0.487584 16.049038 0.090966
0.802305 16.049038 0.091494
1.117026 16.049038 0.092510
1.431747 16.049038 0.093088
1.746467 16.049038 0.092869
2.061188 16.049038 0.092384
2.375909 16.049038 0.091918
2.690630 16.049038 0.091801
3.005352 16.049038 0.092245
3.320073 16.049038 0.093039
3.634794 16.049038 0.094063
3.949515 16.049038 0.095162
4.264236 16.049038 0.096527
4.578956 16.049038 0.098054
4.893677 16.049038 0.100511
5.208398 16.049038 0.103983
5.523119 16.049038 0.108069
5.837841 16.049038 0.112787
6.152562 16.049038 0.119652
6.467283 16.049038 0.128714
6.782003 16.049038 0.141999
7.096724 16.049038 0.161681
7.411445 16.049038 0.197104
7.726166 16.049038 0.259871
8.040888 16.049038 0.366308
8.355608 16.049038 0.533572
8.670330 16.049038 0.747953
8.985050 16.049038 0.986926
9.299772 16.049038 1.221299
9.614492 16.049038 1.470829
9.929214 16.049038 1.714287
10.243935 16.049038 1.953882
10.558655 16.049038 2.178457
10.873377 16.049038 2.373412
11.188097 16.049038 2.552851
11.502819 16.049038 2.728354
11.817539 16.049038 2.860636
12.132261 16.049038 2.993235
12.446981 16.049038 3.094347
12.761703 16.049038 3.163830
13.076424 16.049038 3.201890
13.391144 16.049038 3.277589
13.705866 16.049038 3.329796
14.020586 16.049038 3.267124
14.335308 16.049038 3.154812
14.650028 16.049038 2.996146
14.964750 16.049038 2.958637
15.279470 16.049038 3.162949
15.594193 16.049038 3.551751
15.908913 16.049038 0.000000
16.223633 16.049038 0.000000
16.538355 16.049038 0.000000
16.853075 16.049038 0.000000
17.167797 16.049038 0.000000
17.482517 16.049038 0.000000
17.797239 16.049038 0.000000
18.111959 16.049038 0.000000
18.426680 16.049038 0.000000
18.741402 16.049038 0.000000
-7.065720 15.734318 0.000000
-6.750999 15.734318 0.095531
-6.436278 15.734318 0.093459
-6.121557 15.734318 0.093210
-5.806836 15.734318 0.093102
-5.492115 15.734318 0.093081
-5.177394 15.734318 0.093168
-4.862673 15.734318 0.092999
-4.547952 15.734318 0.092526
-4.233231 15.734318 0.092004
-3.918510 15.734318 0.091611
-3.603789 15.734318 0.091421
-3.289068 15.734318 0.091317
-2.974347 15.734318 0.091173
-2.659626 15.734318 0.091129
-2.344905 15.734318 0.091211
-2.030184 15.734318 0.091302
-1.715463 15.734318 0.091129
-1.400742 15.734318 0.090885
-1.086021 15.734318 0.091096
-0.771300 15.734318 0.091284
-0.456579 15.734318 0.091020
-0.141859 15.734318 0.090803
0.172863 15.734318 0.091059
0.487584 15.734318 0.091278
0.802305 15.734318 0.091515
1.117026 15.734318 0.092190
1.431747 15.734318 0.092505
1.746467 15.734318 0.092214
2.061188 15.734318 0.091817
2.375909 15.734318 0.091428
2.690630 15.734318 0.091412
3.005352 15.734318 0.092091
3.320073 15.734318 0.093141
3.634794 15.734318 0.094306
3.949515 15.734318 0.095609
4.264236 15.734318 0.097192
4.578956 15.734318 0.098929
4.893677 15.734318 0.101056
5.208398 15.734318 0.104068
5.523119 15.734318 0.107943
5.837841 15.734318 0.112538
6.152562 15.734318 0.119384
6.467283 15.734318 0.128032
6.782003 15.734318 0.142266
7.096724 15.734318 0.161843
7.411445 15.734318 0.199694
7.726166 15.734318 0.265968
8.040888 15.734318 0.369635
8.355608 15.734318 0.545505
8.670330 15.734318 0.766024
8.985050 15.734318 1.000483
9.299772 15.734318 1.239262
9.614492 15.734318 1.471956
9.929214 15.734318 1.716664
10.243935 15.734318 1.953359
10.558655 15.734318 2.187150
10.873377 15.734318 2.400966
11.188097 15.734318 2.560997
11.502819 15.734318 2.729262
11.817539 15.734318 2.877577
12.132261 15.734318 2.989341
12.446981 15.734318 3.101456
12.761703 15.734318 3.138540
13.076424 15.734318 3.215929
13.391144 15.734318 3.281966
13.705866 15.734318 3.328027
14.020586 15.734318 3.287740
14.335308 15.734318 3.169287
14.650028 15.734318 3.015824
14.964750 15.734318 2.977469
15.279470 15.734318 3.161817
15.594193 15.734318 3.631578
15.908913 15.734318 0.000000
16.223633 15.734318 0.000000
16.538355 15.734318 0.000000
16.853075 15.734318 0.000000
17.167797 15.734318 0.000000
17.482517 15.734318 0.000000
17.797239 15.734318 0.000000
18.111959 15.734318 0.000000
18.426680 15.734318 0.000000
18.741402 15.734318 0.000000
-7.065720 15.419598 0.000000
-6.750999 15.419598 0.096029
-6.436278 15.419598 0.093932
-6.121557 15.419598 0.093717
-5.806836 15.419598 0.093478
-5.492115 15.419598 0.093207
-5.177394 15.419598 0.093075
-4.862673 15.419598 0.092802
-4.547952 15.419598 0.092317
-4.233231 15.419598 0.091860
-3.918510 15.419598 0.091512
-3.603789 15.419598 0.091213
-3.289068 15.419598 0.091035
-2.974347 15.419598 0.090947
-2.659626 15.419598 0.090866
-2.344905 15.419598 0.091133
-2.030184 15.419598 0.091431
-1.715463 15.419598 0.091283
-1.400742 15.419598 0.091059
-1.086021 15.419598 0.091253
-0.771300 15.419598 0.091332
-0.456579 15.419598 0.090963
-0.141859 15.419598 0.090726
0.172863 15.419598 0.091125
0.487584 15.419598 0.091227
0.802305 15.419598 0.091143
1.117026 15.419598 0.091485
1.431747 15.419598 0.091708
1.746467 15.419598 0.091631
2.061188 15.419598 0.091511
2.375909 15.419598 0.091433
2.690630 15.419598 0.091657
3.005352 15.419598 0.092512
3.320073 15.419598 0.093636
3.634794 15.419598 0.094700
3.949515 15.419598 0.095936
4.264236 15.419598 0.097453
4.578956 15.419598 0.099075
4.893677 15.419598 0.101085
5.208398 15.419598 0.103636
5.523119 15.419598 0.107452
5.837841 15.419598 0.112284
6.152562 15.419598 0.119050
6.467283 15.419598 0.128050
6.782003 15.419598 0.142359
7.096724 15.419598 0.164503
7.411445 15.419598 0.202429
7.726166 15.419598 0.268000
8.040888 15.419598 0.371165
8.355608 15.419598 0.550748
8.670330 15.419598 0.775198
8.985050 15.419598 1.012672
9.299772 15.419598 1.257348
9.614492 15.419598 1.481997
9.929214 15.419598 1.724088
10.243935 15.419598 1.961192
10.558655 15.419598 2.205157
10.873377 15.419598 2.406948
11.188097 15.419598 2.570339
11.502819 15.419598 2.736436
11.817539 15.419598 2.878364
12.132261 15.419598 3.007990
12.446981 15.419598 3.117390
12.761703 15.419598 3.170021
13.076424 15.419598 3.205096
13.391144 15.419598 3.265060
13.705866 15.419598 3.327001
14.020586 15.419598 3.280606
14.335308 15.419598 3.198665
14.650028 15.419598 3.089578
14.964750 15.419598 3.038700
15.279470 15.419598 3.267064
15.594193 15.419598 3.623418
15.908913 15.419598 0.000000
16.223633 15.419598 0.000000
16.538355 15.419598 0.000000
16.853075 15.419598 0.000000
17.167797 15.419598 0.000000
17.482517 15.419598 0.000000
17.797239 15.419598 0.000000
18.111959 15.419598 0.000000
18.426680 15.419598 0.000000
18.741402 15.419598 0.000000
-7.065720 15.104877 0.000000
-6.750999 15.104877 0.096067
-6.436278 15.104877 0.094078
-6.121557 15.104877 0.093803
-5.806836 15.104877 0.093412
-5.492115 15.104877 0.092989
-5.177394 15.104877 0.092644
-4.862673 15.104877 0.092308
-4.547952 15.104877 0.091955
-4.233231 15.104877 0.091766
-3.918510 15.104877 0.091571
-3.603789 15.104877 0.091348
-3.289068 15.104877 0.091218
-2.974347 15.104877 0.091016
-2.659626 15.104877 0.090949
-2.344905 15.104877 0.091259
-2.030184 15.104877 0.091611
-1.715463 15.104877 0.091446
-1.400742 15.104877 0.091168
-1.086021 15.104877 0.091146
-0.771300 15.104877 0.090987
-0.456579 15.104877 0.090595
-0.141859 15.104877 0.090492
0.172863 15.104877 0.090946
0.487584 15.104877 0.090994
0.802305 15.104877 0.090711
1.117026 15.104877 0.090906
1.431747 15.104877 0.091277
1.746467 15.104877 0.091490
2.061188 15.104877 0.091661
2.375909 15.104877 0.091796
2.690630 15.104877 0.092124
3.005352 15.104877 0.092936
3.320073 15.104877 0.093889
3.634794 15.104877 0.094757
3.949515 15.104877 0.095759
4.264236 15.104877 0.097221
4.578956 15.104877 0.098885
4.893677 15.104877 0.100629
5.208398 15.104877 0.103455
5.523119 15.104877 0.107360
5.837841 15.104877 0.112417
6.152562 15.104877 0.119585
6.467283 15.104877 0.128857
6.782003 15.104877 0.143150
7.096724 15.104877 0.165474
7.411445 15.104877 0.203158
7.726166 15.104877 0.270234
8.040888 15.104877 0.380491
8.355608 15.104877 0.549744
8.670330 15.104877 0.775864
8.985050 15.104877 1.022297
9.299772 15.104877 1.252666
9.614492 15.104877 1.499113
9.929214 15.104877 1.750123
10.243935 15.104877 1.973032
10.558655 15.104877 2.206704
10.873377 15.104877 2.415277
11.188097 15.104877 2.553992
11.502819 15.104877 2.726783
11.817539 15.104877 2.896289
12.132261 15.104877 3.033973
12.446981 15.104877 3.129246
12.761703 15.104877 3.185984
13.076424 15.104877 3.217448
13.391144 15.104877 3.280117
13.705866 15.104877 3.323526
14.020586 15.104877 3.273110
14.335308 15.104877 3.226194
14.650028 15.104877 3.133597
14.964750 15.104877 3.105665
15.279470 15.104877 3.303340
15.594193 15.104877 3.768223
15.908913 15.104877 0.000000
16.223633 15.104877 0.000000
16.538355 15.104877 0.000000
16.853075 15.104877 0.000000
17.167797 15.104877 0.000000
17.482517 15.104877 0.000000
17.797239 15.104877 0.000000
18.111959 15.104877 0.000000
18.426680 15.104877 0.000000
18.741402 15.104877 0.000000
-7.065720 14.790157 0.000000
-6.750999 14.790157 0.095728
-6.436278 14.790157 0.093767
-6.121557 14.790157 0.093481
-5.806836 14.790157 0.093081
-5.492115 14.790157 0.092648
-5.177394 14.790157 0.092232
-4.862673 14.790157 0.091890
-4.547952 14.790157 0.091781
-4.233231 14.790157 0.091954
-3.918510 14.790157 0.091853
-3.603789 14.790157 0.091691
-3.289068 14.790157 0.091553
-2.974347 14.790157 0.091294
-2.659626 14.790157 0.091104
-2.344905 14.790157 0.091344
-2.030184 14.790157 0.091551
-1.715463 14.790157 0.091335
-1.400742 14.790157 0.091017
-1.086021 14.790157 0.090765
-0.771300 14.790157 0.090513
-0.456579 14.790157 0.090240
-0.141859 14.790157 0.090317
0.172863 14.790157 0.090837
0.487584 14.790157 0.090958
0.802305 14.790157 0.090629
1.117026 14.790157 0.090732
1.431747 14.790157 0.091186
1.746467 14.790157 0.091646
2.061188 14.790157 0.091960
2.375909 14.790157 0.092194
2.690630 14.790157 0.092488
3.005352 14.790157 0.093043
3.320073 14.790157 0.093774
3.634794 14.790157 0.094491
3.949515 14.790157 0.095227
4.264236 14.790157 0.096681
4.578956 14.790157 0.098577
4.893677 14.790157 0.100746
5.208398 14.790157 0.103545
5.523119 14.790157 0.107538
5.837841 14.790157 0.112925
6.152562 14.790157 0.119828
6.467283 14.790157 0.129647
6.782003 14.790157 0.145099
7.096724 14.790157 0.166243
7.411445 14.790157 0.204075
7.726166 14.790157 0.273388
8.040888 14.790157 0.387170
8.355608 14.790157 0.551481
8.670330 14.790157 0.782885
8.985050 14.790157 1.041586
9.299772 14.790157 1.260251
9.614492 14.790157 1.513885
9.929214 14.790157 1.760989
10.243935 14.790157 1.981204
10.558655 14.790157 2.208654
10.873377 14.790157 2.433429
11.188097 14.790157 2.573787
11.502819 14.790157 2.725226
11.817539 14.790157 2.914973
12.132261 14.790157 3.055313
12.446981 14.790157 3.141127
12.761703 14.790157 3.201708
13.076424 14.790157 3.271420
13.391144 14.790157 3.301559
13.705866 14.790157 3.346301
14.020586 14.790157 3.313217
14.335308 14.790157 3.273007
14.650028 14.790157 3.158092
14.964750 14.790157 3.136726
15.279470 14.790157 3.332913
15.594193 14.790157 3.509442
15.908913 14.790157 0.000000
16.223633 14.790157 0.000000
16.538355 14.790157 0.000000
16.853075 14.790157 0.000000
17.167797 14.790157 0.000000
17.482517 14.790157 0.000000
17.797239 14.790157 0.000000
18.111959 14.790157 0.000000
18.426680 14.790157 0.000000
18.741402 14.790157 0.000000
-7.065720 14.475433 0.000000
-6.750999 14.475433 0.095217
-6.436278 14.475433 0.093300
-6.121557 14.475433 0.093010
-5.806836 14.475433 0.092749
-5.492115 14.475433 0.092451
-5.177394 14.475433 0.092055
-4.862673 14.475433 0.091679
-4.547952 14.475433 0.091751
-4.233231 14.475433 0.092245
-3.918510 14.475433 0.092181
-3.603789 14.475433 0.091929
-3.289068 14.475433 0.091749
-2.974347 14.475433 0.091435
-2.659626 14.475433 0.091167
-2.344905 14.475433 0.091193
-2.030184 14.475433 0.091273
-1.715463 14.475433 0.091129
-1.400742 14.475433 0.090782
-1.086021 14.475433 0.090464
-0.771300 14.475433 0.090277
-0.456579 14.475433 0.090279
-0.141859 14.475433 0.090529
0.172863 14.475433 0.091016
0.487584 14.475433 0.091204
0.802305 14.475433 0.090906
1.117026 14.475433 0.090777
1.431747 14.475433 0.091173
1.746467 14.475433 0.091684
2.061188 14.475433 0.092029
2.375909 14.475433 0.092321
2.690630 14.475433 0.092629
3.005352 14.475433 0.092988
3.320073 14.475433 0.093509
3.634794 14.475433 0.094104
3.949515 14.475433 0.094989
4.264236 14.475433 0.096418
4.578956 14.475433 0.098571
4.893677 14.475433 0.100946
5.208398 14.475433 0.103756
5.523119 14.475433 0.107607
5.837841 14.475433 0.113091
6.152562 14.475433 0.120366
6.467283 14.475433 0.130218
6.782003 14.475433 0.143999
7.096724 14.475433 0.167510
7.411445 14.475433 0.205146
7.726166 14.475433 0.275821
8.040888 14.475433 0.393681
8.355608 14.475433 0.564346
8.670330 14.475433 0.796311
8.985050 14.475433 1.047133
9.299772 14.475433 1.267641
9.614492 14.475433 1.515766
9.929214 14.475433 1.763582
10.243935 14.475433 1.997613
10.558655 14.475433 2.237625
10.873377 14.475433 2.446413
11.188097 14.475433 2.589666
11.502819 14.475433 2.733742
11.817539 14.475433 2.915817
12.132261 14.475433 3.081833
12.446981 14.475433 3.168495
12.761703 14.475433 3.226285
13.076424 14.475433 3.280459
13.391144 14.475433 3.329190
13.705866 14.475433 3.364441
14.020586 14.475433 3.343257
14.335308 14.475433 3.291987
14.650028 14.475433 3.186043
14.964750 14.475433 3.135302
15.279470 14.475433 3.400683
15.594193 14.475433 3.525507
15.908913 14.475433 0.000000
16.223633 14.475433 0.000000
16.538355 14.475433 0.000000
16.853075 14.475433 0.000000
17.167797 14.475433 0.000000
17.482517 14.475433 0.000000
17.797239 14.475433 0.000000
18.111959 14.475433 0.000000
18.426680 14.475433 0.000000
18.741402 14.475433 0.000000
-7.065720 14.160713 0.000000
-6.750999 14.160713 0.094807
-6.436278 14.160713 0.092970
-6.121557 14.160713 0.092679
-5.806836 14.160713 0.092521
-5.492115 14.160713 0.092386
-5.177394 14.160713 0.092035
-4.862673 14.160713 0.091661
-4.547952 14.160713 0.091847
-4.233231 14.160713 0.092367
-3.918510 14.160713 0.092278
-3.603789 14.160713 0.091912
-3.289068 14.160713 0.091676
-2.974347 14.160713 0.091321
-2.659626 14.160713 0.091071
-2.344905 14.160713 0.090897
-2.030184 14.160713 0.091035
-1.715463 14.160713 0.091086
-1.400742 14.160713 0.090874
-1.086021 14.160713 0.090547
-0.771300 14.160713 0.090406
-0.456579 14.160713 0.090655
-0.141859 14.160713 0.091017
0.172863 14.160713 0.091272
0.487584 14.160713 0.091389
0.802305 14.160713 0.091113
1.117026 14.160713 0.090810
1.431747 14.160713 0.091007
1.746467 14.160713 0.091519
2.061188 14.160713 0.091913
2.375909 14.160713 0.092323
2.690630 14.160713 0.092670
3.005352 14.160713 0.092997
3.320073 14.160713 0.093408
3.634794 14.160713 0.094112
3.949515 14.160713 0.095081
4.264236 14.160713 0.096557
4.578956 14.160713 0.098713
4.893677 14.160713 0.101219
5.208398 14.160713 0.104033
5.523119 14.160713 0.107677
5.837841 14.160713 0.113149
6.152562 14.160713 0.120423
6.467283 14.160713 0.130269
6.782003 14.160713 0.144120
7.096724 14.160713 0.166745
7.411445 14.160713 0.210031
7.726166 14.160713 0.280687
8.040888 14.160713 0.400125
8.355608 14.160713 0.589332
8.670330 14.160713 0.807695
8.985050 14.160713 1.043983
9.299772 14.160713 1.288427
9.614492 14.160713 1.532689
9.929214 14.160713 1.771836
10.243935 14.160713 2.012078
10.558655 14.160713 2.247536
10.873377 14.160713 2.455621
11.188097 14.160713 2.573973
11.502819 14.160713 2.738070
11.817539 14.160713 2.921444
12.132261 14.160713 3.091357
12.446981 14.160713 3.184917
12.761703 14.160713 3.245243
13.076424 14.160713 3.294107
13.391144 14.160713 3.373539
13.705866 14.160713 3.350780
14.020586 14.160713 3.355698
14.335308 14.160713 3.301449
14.650028 14.160713 3.164388
14.964750 14.160713 3.159742
15.279470 14.160713 3.345300
15.594193 14.160713 3.479143
15.908913 14.160713 0.000000
16.223633 14.160713 0.000000
16.538355 14.160713 0.000000
16.853075 14.160713 0.000000
17.167797 14.160713 0.000000
17.482517 14.160713 0.000000
17.797239 14.160713 0.000000
18.111959 14.160713 0.000000
18.426680 14.160713 0.000000
18.741402 14.160713 0.000000
-7.065720 13.845993 0.000000
-6.750999 13.845993 0.094469
-6.436278 13.845993 0.092745
-6.121557 13.845993 0.092597
-5.806836 13.845993 0.092449
-5.492115 13.845993 0.092327
-5.177394 13.845993 0.092079
-4.862673 13.845993 0.091795
-4.547952 13.845993 0.091935
-4.233231 13.845993 0.092359
-3.918510 13.845993 0.092147
-3.603789 13.845993 0.091749
-3.289068 13.845993 0.091495
-2.974347 13.845993 0.091267
-2.659626 13.845993 0.091143
-2.344905 13.845993 0.090847
-2.030184 13.845993 0.090956
-1.715463 13.845993 0.091236
-1.400742 13.845993 0.091170
-1.086021 13.845993 0.090813
-0.771300 13.845993 0.090717
-0.456579 13.845993 0.091126
-0.141859 13.845993 0.091331
0.172863 13.845993 0.091257
0.487584 13.845993 0.091322
0.802305 13.845993 0.091133
1.117026 13.845993 0.090848
1.431747 13.845993 0.090984
1.746467 13.845993 0.091452
2.061188 13.845993 0.091860
2.375909 13.845993 0.092323
2.690630 13.845993 0.092803
3.005352 13.845993 0.093188
3.320073 13.845993 0.093544
3.634794 13.845993 0.094215
3.949515 13.845993 0.095215
4.264236 13.845993 0.096664
4.578956 13.845993 0.098743
4.893677 13.845993 0.101255
5.208398 13.845993 0.104161
5.523119 13.845993 0.107779
5.837841 13.845993 0.113111
6.152562 13.845993 0.120671
6.467283 13.845993 0.130875
6.782003 13.845993 0.144869
7.096724 13.845993 0.168601
7.411445 13.845993 0.213143
7.726166 13.845993 0.287139
8.040888 13.845993 0.405986
8.355608 13.845993 0.597360
8.670330 13.845993 0.823636
8.985050 13.845993 1.047611
9.299772 13.845993 1.298641
9.614492 13.845993 1.546049
9.929214 13.845993 1.774959
10.243935 13.845993 2.022460
10.558655 13.845993 2.234443
10.873377 13.845993 2.431994
11.188097 13.845993 2.587663
11.502819 13.845993 2.716871
11.817539 13.845993 2.919873
12.132261 13.845993 3.078788
12.446981 13.845993 3.186353
12.761703 13.845993 3.260521
13.076424 13.845993 3.305478
13.391144 13.845993 3.364012
13.705866 13.845993 3.363848
14.020586 13.845993 3.344015
14.335308 13.845993 3.271550
14.650028 13.845993 3.179305
14.964750 13.845993 3.160538
15.279470 13.845993 3.444802
15.594193 13.845993 3.413753
15.908913 13.845993 0.000000
16.223633 13.845993 0.000000
16.538355 13.845993 0.000000
16.853075 13.845993 0.000000
17.167797 13.845993 0.000000
17.482517 13.845993 0.000000
17.797239 13.845993 0.000000
18.111959 13.845993 0.000000
18.426680 13.845993 0.000000
18.741402 13.845993 0.000000
-7.065720 13.531273 0.000000
-6.750999 13.531273 0.094140
-6.436278 13.531273 0.092593
-6.121557 13.531273 0.092509
-5.806836 13.531273 0.092367
-5.492115 13.531273 0.092298
-5.177394 13.531273 0.092192
-4.862673 13.531273 0.092012
-4.547952 13.531273 0.092048
-4.233231 13.531273 0.092224
-3.918510 13.531273 0.091984
-3.603789 13.531273 0.091664
-3.289068 13.531273 0.091503
-2.974347 13.531273 0.091409
-2.659626 13.531273 0.091368
-2.344905 13.531273 0.091071
-2.030184 13.531273 0.091098
-1.715463 13.531273 0.091382
-1.400742 13.531273 0.091381
-1.086021 13.531273 0.091038
-0.771300 13.531273 0.090947
-0.456579 13.531273 0.091317
-0.141859 13.531273 0.091254
0.172863 13.531273 0.090960
0.487584 13.531273 0.091038
0.802305 13.531273 0.091044
1.117026 13.531273 0.091021
1.431747 13.531273 0.091201
1.746467 13.531273 0.091593
2.061188 13.531273 0.091941
2.375909 13.531273 0.092426
2.690630 13.531273 0.092914
3.005352 13.531273 0.093238
3.320073 13.531273 0.093580
3.634794 13.531273 0.094111
3.949515 13.531273 0.095052
4.264236 13.531273 0.096458
4.578956 13.531273 0.098505
4.893677 13.531273 0.101188
5.208398 13.531273 0.104289
5.523119 13.531273 0.108120
5.837841 13.531273 0.113314
6.152562 13.531273 0.120818
6.467283 13.531273 0.131028
6.782003 13.531273 0.145482
7.096724 13.531273 0.169183
7.411445 13.531273 0.216360
7.726166 13.531273 0.293147
8.040888 13.531273 0.408371
8.355608 13.531273 0.599360
8.670330 13.531273 0.820709
8.985050 13.531273 1.063746
9.299772 13.531273 1.312384
9.614492 13.531273 1.551473
9.929214 13.531273 1.786085
10.243935 13.531273 2.019582
10.558655 13.531273 2.227153
10.873377 13.531273 2.423097
11.188097 13.531273 2.577061
11.502819 13.531273 2.722424
11.817539 13.531273 2.906044
12.132261 13.531273 3.063820
12.446981 13.531273 3.156315
12.761703 13.531273 3.246583
13.076424 13.531273 3.318418
13.391144 13.531273 3.371449
13.705866 13.531273 3.323622
14.020586 13.531273 3.315683
14.335308 13.531273 3.256701
14.650028 13.531273 3.174328
14.964750 13.531273 3.198635
15.279470 13.531273 3.405019
15.594193 13.531273 3.393126
15.908913 13.531273 0.000000
16.223633 13.531273 0.000000
16.538355 13.531273 0.000000
16.853075 13.531273 0.000000
17.167797 13.531273 0.000000
17.482517 13.531273 0.000000
17.797239 13.531273 0.000000
18.111959 13.531273 0.000000
18.426680 13.531273 0.000000
18.741402 13.531273 0.000000
-7.065720 13.216553 0.000000
-6.750999 13.216553 0.093903
-6.436278 13.216553 0.092550
-6.121557 13.216553 0.092356
-5.806836 13.216553 0.092162
-5.492115 13.216553 0.092146
-5.177394 13.216553 0.092316
-4.862673 13.216553 0.092313
-4.547952 13.216553 0.092267
-4.233231 13.216553 0.092180
-3.918510 13.216553 0.091958
-3.603789 13.216553 0.091677
-3.289068 13.216553 0.091584
-2.974347 13.216553 0.091642
-2.659626 13.216553 0.091591
-2.344905 13.216553 0.091226
-2.030184 13.216553 0.091120
-1.715463 13.216553 0.091326
-1.400742 13.216553 0.091357
-1.086021 13.216553 0.091129
-0.771300 13.216553 0.091079
-0.456579 13.216553 0.091192
-0.141859 13.216553 0.090947
0.172863 13.216553 0.090666
0.487584 13.216553 0.090806
0.802305 13.216553 0.091098
1.117026 13.216553 0.091346
1.431747 13.216553 0.091551
1.746467 13.216553 0.091800
2.061188 13.216553 0.092054
2.375909 13.216553 0.092434
2.690630 13.216553 0.092824
3.005352 13.216553 0.093092
3.320073 13.216553 0.093401
3.634794 13.216553 0.093857
3.949515 13.216553 0.094696
4.264236 13.216553 0.096205
4.578956 13.216553 0.098445
4.893677 13.216553 0.101095
5.208398 13.216553 0.104487
5.523119 13.216553 0.108611
5.837841 13.216553 0.113603
6.152562 13.216553 0.121271
6.467283 13.216553 0.131370
6.782003 13.216553 0.146044
7.096724 13.216553 0.170719
7.411445 13.216553 0.215569
7.726166 13.216553 0.295143
8.040888 13.216553 0.420530
8.355608 13.216553 0.599060
8.670330 13.216553 0.840092
8.985050 13.216553 1.082405
9.299772 13.216553 1.321332
9.614492 13.216553 1.557369
9.929214 13.216553 1.805826
10.243935 13.216553 2.029637
10.558655 13.216553 2.242470
10.873377 13.216553 2.430475
11.188097 13.216553 2.576509
11.502819 13.216553 2.749489
11.817539 13.216553 2.909622
12.132261 13.216553 3.041896
12.446981 13.216553 3.155975
12.761703 13.216553 3.221881
13.076424 13.216553 3.297252
13.391144 13.216553 3.335934
13.705866 13.216553 3.331987
14.020586 13.216553 3.354599
14.335308 13.216553 3.268795
14.650028 13.216553 3.167870
14.964750 13.216553 3.219163
15.279470 13.216553 3.411957
15.594193 13.216553 3.384376
15.908913 13.216553 0.000000
16.223633 13.216553 0.000000
16.538355 13.216553 0.000000
16.853075 13.216553 0.000000
17.167797 13.216553 0.000000
17.482517 13.216553 0.000000
17.797239 13.216553 0.000000
18.111959 13.216553 0.000000
18.426680 13.216553 0.000000
18.741402 13.216553 0.000000
-7.065720 12.901829 0.000000
-6.750999 12.901829 0.093746
-6.436278 12.901829 0.092536
-6.121557 12.901829 0.092319
-5.806836 12.901829 0.092054
-5.492115 12.901829 0.092056
-5.177394 12.901829 0.092460
-4.862673 12.901829 0.092637
-4.547952 12.901829 0.092411
-4.233231 12.901829 0.092177
-3.918510 12.901829 0.091953
-3.603789 12.901829 0.091685
-3.289068 12.901829 0.091639
-2.974347 12.901829 0.091689
-2.659626 12.901829 0.091580
-2.344905 12.901829 0.091126
-2.030184 12.901829 0.090887
-1.715463 12.901829 0.090991
-1.400742 12.901829 0.091120
-1.086021 12.901829 0.091220
-0.771300 12.901829 0.091157
-0.456579 12.901829 0.091039
-0.141859 12.901829 0.090722
0.172863 12.901829 0.090578
0.487584 12.901829 0.090802
0.802305 12.901829 0.091285
1.117026 12.901829 0.091670
1.431747 12.901829 0.091806
1.746467 12.901829 0.091807
2.061188 12.901829 0.091936
2.375909 12.901829 0.092189
2.690630 12.901829 0.092466
3.005352 12.901829 0.092788
3.320073 12.901829 0.093133
3.634794 12.901829 0.093694
3.949515 12.901829 0.094605
4.264236 12.901829 0.096115
4.578956 12.901829 0.098303
4.893677 12.901829 0.101044
5.208398 12.901829 0.104561
5.523119 12.901829 0.108845
5.837841 12.901829 0.114328
6.152562 12.901829 0.121797
6.467283 12.901829 0.131883
6.782003 12.901829 0.146284
7.096724 12.901829 0.171293
7.411445 12.901829 0.215469
7.726166 12.901829 0.293809
8.040888 12.901829 0.430953
8.355608 12.901829 0.612117
8.670330 12.901829 0.851582
8.985050 12.901829 1.103804
9.299772 12.901829 1.334252
9.614492 12.901829 1.572199
9.929214 12.901829 1.814874
10.243935 12.901829 2.033468
10.558655 12.901829 2.241077
10.873377 12.901829 2.428614
11.188097 12.901829 2.584233
11.502819 12.901829 2.751552
11.817539 12.901829 2.918915
12.132261 12.901829 3.020332
12.446981 12.901829 3.113178
12.761703 12.901829 3.207230
13.076424 12.901829 3.271751
13.391144 12.901829 3.304368
13.705866 12.901829 3.350354
14.020586 12.901829 3.385004
14.335308 12.901829 3.339639
14.650028 12.901829 3.200051
14.964750 12.901829 3.214482
15.279470 12.901829 3.507324
15.594193 12.901829 3.433102
15.908913 12.901829 0.000000
16.223633 12.901829 0.000000
16.538355 12.901829 0.000000
16.853075 12.901829 0.000000
17.167797 12.901829 0.000000
17.482517 12.901829 0.000000
17.797239 12.901829 0.000000
18.111959 12.901829 0.000000
18.426680 12.901829 0.000000
18.741402 12.901829 0.000000
-7.065720 12.587109 0.000000
-6.750999 12.587109 0.093781
-6.436278 12.587109 0.092583
-6.121557 12.587109 0.092415
-5.806836 12.587109 0.092188
-5.492115 12.587109 0.092252
-5.177394 12.587109 0.092679
-4.862673 12.587109 0.092819
-4.547952 12.587109 0.092437
-4.233231 12.587109 0.092093
-3.918510 12.587109 0.091779
-3.603789 12.587109 0.091491
-3.289068 12.587109 0.091480
-2.974347 12.587109 0.091514
-2.659626 12.587109 0.091376
-2.344905 12.587109 0.090880
-2.030184 12.587109 0.090523
-1.715463 12.587109 0.090640
-1.400742 12.587109 0.090952
-1.086021 12.587109 0.091224
-0.771300 12.587109 0.091164
-0.456579 12.587109 0.090968
-0.141859 12.587109 0.090672
0.172863 12.587109 0.090647
0.487584 12.587109 0.090961
0.802305 12.587109 0.091430
1.117026 12.587109 0.091830
1.431747 12.587109 0.091824
1.746467 12.587109 0.091649
2.061188 12.587109 0.091670
2.375909 12.587109 0.091853
2.690630 12.587109 0.092008
3.005352 12.587109 0.092491
3.320073 12.587109 0.093097
3.634794 12.587109 0.093913
3.949515 12.587109 0.094872
4.264236 12.587109 0.096283
4.578956 12.587109 0.098231
4.893677 12.587109 0.101095
5.208398 12.587109 0.104766
5.523119 12.587109 0.109095
5.837841 12.587109 0.114518
6.152562 12.587109 0.121896
6.467283 12.587109 0.131764
6.782003 12.587109 0.146690
7.096724 12.587109 0.172190
7.411445 12.587109 0.217959
7.726166 12.587109 0.300621
8.040888 12.587109 0.434640
8.355608 12.587109 0.627558
8.670330 12.587109 0.869835
8.985050 12.587109 1.116736
9.299772 12.587109 1.344787
9.614492 12.587109 1.590542
9.929214 12.587109 1.822198
10.243935 12.587109 2.044950
10.558655 12.587109 2.224252
10.873377 12.587109 2.427871
11.188097 12.587109 2.604429
11.502819 12.587109 2.770363
11.817539 12.587109 2.934270
12.132261 12.587109 3.010473
12.446981 12.587109 3.092404
12.761703 12.587109 3.189251
13.076424 12.587109 3.242557
13.391144 12.587109 3.318210
13.705866 12.587109 3.373533
14.020586 12.587109 3.394263
14.335308 12.587109 3.356765
14.650028 12.587109 3.213587
14.964750 12.587109 3.238727
15.279470 12.587109 3.525960
15.594193 12.587109 3.376719
15.908913 12.587109 0.000000
16.223633 12.587109 0.000000
16.538355 12.587109 0.000000
16.853075 12.587109 0.000000
17.167797 12.587109 0.000000
17.482517 12.587109 0.000000
17.797239 12.587109 0.000000
18.111959 12.587109 0.000000
18.426680 12.587109 0.000000
18.741402 12.587109 0.000000
-7.065720 12.272388 0.000000
-6.750999 12.272388 0.094041
-6.436278 12.272388 0.092954
-6.121557 12.272388 0.092699
-5.806836 12.272388 0.092471
-5.492115 12.272388 0.092586
-5.177394 12.272388 0.092856
-4.862673 12.272388 0.092759
-4.547952 12.272388 0.092295
-4.233231 12.272388 0.091856
-3.918510 12.272388 0.091563
-3.603789 12.272388 0.091254
-3.289068 12.272388 0.091129
-2.974347 12.272388 0.091173
-2.659626 12.272388 0.091131
-2.344905 12.272388 0.090695
-2.030184 12.272388 0.090386
-1.715463 12.272388 0.090512
-1.400742 12.272388 0.090928
-1.086021 12.272388 0.091240
-0.771300 12.272388 0.091094
-0.456579 12.272388 0.090836
-0.141859 12.272388 0.090675
0.172863 12.272388 0.090676
0.487584 12.272388 0.090874
0.802305 12.272388 0.091317
1.117026 12.272388 0.091790
1.431747 12.272388 0.091676
1.746467 12.272388 0.091490
2.061188 12.272388 0.091570
2.375909 12.272388 0.091704
2.690630 12.272388 0.091862
3.005352 12.272388 0.092474
3.320073 12.272388 0.093302
3.634794 12.272388 0.094363
3.949515 12.272388 0.095430
4.264236 12.272388 0.096726
4.578956 12.272388 0.098450
4.893677 12.272388 0.101088
5.208398 12.272388 0.104797
5.523119 12.272388 0.108932
5.837841 12.272388 0.114525
6.152562 12.272388 0.121974
6.467283 12.272388 0.132059
6.782003 12.272388 0.147947
7.096724 12.272388 0.174658
7.411445 12.272388 0.222640
7.726166 12.272388 0.306458
8.040888 12.272388 0.440733
8.355608 12.272388 0.644608
8.670330 12.272388 0.886795
8.985050 12.272388 1.142630
9.299772 12.272388 1.362009
9.614492 12.272388 1.601693
9.929214 12.272388 1.834922
10.243935 12.272388 2.050090
10.558655 12.272388 2.234847
10.873377 12.272388 2.435887
11.188097 12.272388 2.612250
11.502819 12.272388 2.780484
11.817539 12.272388 2.926284
12.132261 12.272388 3.040914
12.446981 12.272388 3.102272
12.761703 12.272388 3.194792
13.076424 12.272388 3.257202
13.391144 12.272388 3.363211
13.705866 12.272388 3.415466
14.020586 12.272388 3.409507
14.335308 12.272388 3.370095
14.650028 12.272388 3.291374
14.964750 12.272388 3.307549
15.279470 12.272388 3.608461
15.594193 12.272388 3.612046
15.908913 12.272388 0.000000
16.223633 12.272388 0.000000
16.538355 12.272388 0.000000
16.853075 12.272388 0.000000
17.167797 12.272388 0.000000
17.482517 12.272388 0.000000
17.797239 12.272388 0.000000
18.111959 12.272388 0.000000
18.426680 12.272388 0.000000
18.741402 12.272388 0.000000
-7.065720 11.957668 0.000000
-6.750999 11.957668 0.094420
-6.436278 11.957668 0.093396
-6.121557 11.957668 0.093094
-5.806836 11.957668 0.092762
-5.492115 11.957668 0.092770
-5.177394 11.957668 0.092792
-4.862673 11.957668 0.092473
-4.547952 11.957668 0.091989
-4.233231 11.957668 0.091550
-3.918510 11.957668 0.091383
-3.603789 11.957668 0.091160
-3.289068 11.957668 0.090858
-2.974347 11.957668 0.090879
-2.659626 11.957668 0.090964
-2.344905 11.957668 0.090727
-2.030184 11.957668 0.090546
-1.715463 11.957668 0.090624
-1.400742 11.957668 0.090914
-1.086021 11.957668 0.091136
-0.771300 11.957668 0.090874
-0.456579 11.957668 0.090580
-0.141859 11.957668 0.090582
0.172863 11.957668 0.090574
0.487584 11.957668 0.090668
0.802305 11.957668 0.091111
1.117026 11.957668 0.091619
1.431747 11.957668 0.091674
1.746467 11.957668 0.091509
2.061188 11.957668 0.091663
2.375909 11.957668 0.091743
2.690630 11.957668 0.091898
3.005352 11.957668 0.092543
3.320073 11.957668 0.093491
3.634794 11.957668 0.094658
3.949515 11.957668 0.095755
4.264236 11.957668 0.096942
4.578956 11.957668 0.098776
4.893677 11.957668 0.101329
5.208398 11.957668 0.104735
5.523119 11.957668 0.108861
5.837841 11.957668 0.114604
6.152562 11.957668 0.122922
6.467283 11.957668 0.133244
6.782003 11.957668 0.150330
7.096724 11.957668 0.178684
7.411445 11.957668 0.230346
7.726166 11.957668 0.309585
8.040888 11.957668 0.442803
8.355608 11.957668 0.656170
8.670330 11.957668 0.903216
8.985050 11.957668 1.151540
9.299772 11.957668 1.363914
9.614492 11.957668 1.610511
9.929214 11.957668 1.843736
10.243935 11.957668 2.068475
10.558655 11.957668 2.241161
10.873377 11.957668 2.444816
11.188097 11.957668 2.618742
11.502819 11.957668 2.793378
11.817539 11.957668 2.924799
12.132261 11.957668 3.035648
12.446981 11.957668 3.108236
12.761703 11.957668 3.182335
13.076424 11.957668 3.273849
13.391144 11.957668 3.389106
13.705866 11.957668 3.437975
14.020586 11.957668 3.430325
14.335308 11.957668 3.433898
14.650028 11.957668 3.322807
14.964750 11.957668 3.334893
15.279470 11.957668 3.698382
15.594193 11.957668 3.254701
15.908913 11.957668 0.000000
16.223633 11.957668 0.000000
16.538355 11.957668 0.000000
16.853075 11.957668 0.000000
17.167797 11.957668 0.000000
17.482517 11.957668 0.000000
17.797239 11.957668 0.000000
18.111959 11.957668 0.000000
18.426680 11.957668 0.000000
18.741402 11.957668 0.000000
-7.065720 11.642944 0.000000
-6.750999 11.642944 0.094550
-6.436278 11.642944 0.093586
-6.121557 11.642944 0.093260
-5.806836 11.642944 0.092847
-5.492115 11.642944 0.092668
-5.177394 11.642944 0.092469
-4.862673 11.642944 0.092026
-4.547952 11.642944 0.091736
-4.233231 11.642944 0.091489
-3.918510 11.642944 0.091456
-3.603789 11.642944 0.091293
-3.289068 11.642944 0.090845
-2.974347 11.642944 0.090675
-2.659626 11.642944 0.090884
-2.344905 11.642944 0.090906
-2.030184 11.642944 0.090803
-1.715463 11.642944 0.090790
-1.400742 11.642944 0.090895
-1.086021 11.642944 0.090864
-0.771300 11.642944 0.090568
-0.456579 11.642944 0.090372
-0.141859 11.642944 0.090550
0.172863 11.642944 0.090541
0.487584 11.642944 0.090605
0.802305 11.642944 0.091032
1.117026 11.642944 0.091529
1.431747 11.642944 0.091657
1.746467 11.642944 0.091679
2.061188 11.642944 0.091840
2.375909 11.642944 0.091830
2.690630 11.642944 0.091966
3.005352 11.642944 0.092584
3.320073 11.642944 0.093414
3.634794 11.642944 0.094628
3.949515 11.642944 0.095829
4.264236 11.642944 0.096975
4.578956 11.642944 0.098908
4.893677 11.642944 0.101336
5.208398 11.642944 0.104911
5.523119 11.642944 0.108978
5.837841 11.642944 0.114810
6.152562 11.642944 0.123202
6.467283 11.642944 0.133969
6.782003 11.642944 0.151350
7.096724 11.642944 0.180945
7.411445 11.642944 0.234766
7.726166 11.642944 0.313374
8.040888 11.642944 0.455397
8.355608 11.642944 0.668347
8.670330 11.642944 0.911635
8.985050 11.642944 1.154896
9.299772 11.642944 1.374801
9.614492 11.642944 1.607889
9.929214 11.642944 1.845536
10.243935 11.642944 2.054975
10.558655 11.642944 2.235781
10.873377 11.642944 2.443861
11.188097 11.642944 2.611282
11.502819 11.642944 2.778855
11.817539 11.642944 2.938315
12.132261 11.642944 3.026670
12.446981 11.642944 3.108391
12.761703 11.642944 3.202332
13.076424 11.642944 3.301321
13.391144 11.642944 3.417892
13.705866 11.642944 3.472584
14.020586 11.642944 3.437243
14.335308 11.642944 3.400198
14.650028 11.642944 3.341801
14.964750 11.642944 3.365995
15.279470 11.642944 3.701042
15.594193 11.642944 3.002350
15.908913 11.642944 0.000000
16.223633 11.642944 0.000000
16.538355 11.642944 0.000000
16.853075 11.642944 0.000000
17.167797 11.642944 0.000000
17.482517 11.642944 0.000000
17.797239 11.642944 0.000000
18.111959 11.642944 0.000000
18.426680 11.642944 0.000000
18.741402 11.642944 0.000000
-7.065720 11.328224 0.000000
-6.750999 11.328224 0.094449
-6.436278 11.328224 0.093474
-6.121557 11.328224 0.093200
-5.806836 11.328224 0.092756
-5.492115 11.328224 0.092404
-5.177394 11.328224 0.092138
-4.862673 11.328224 0.091767
-4.547952 11.328224 0.091690
-4.233231 11.328224 0.091555
-3.918510 11.328224 0.091612
-3.603789 11.328224 0.091596
-3.289068 11.328224 0.091081
-2.974347 11.328224 0.090689
-2.659626 11.328224 0.090839
-2.344905 11.328224 0.091024
-2.030184 11.328224 0.090971
-1.715463 11.328224 0.090817
-1.400742 11.328224 0.090695
-1.086021 11.328224 0.090554
-0.771300 11.328224 0.090328
-0.456579 11.328224 0.090315
-0.141859 11.328224 0.090592
0.172863 11.328224 0.090599
0.487584 11.328224 0.090719
0.802305 11.328224 0.091011
1.117026 11.328224 0.091380
1.431747 11.328224 0.091590
1.746467 11.328224 0.091752
2.061188 11.328224 0.091881
2.375909 11.328224 0.091808
2.690630 11.328224 0.091912
3.005352 11.328224 0.092523
3.320073 11.328224 0.093266
3.634794 11.328224 0.094415
3.949515 11.328224 0.095763
4.264236 11.328224 0.097122
4.578956 11.328224 0.098991
4.893677 11.328224 0.101483
5.208398 11.328224 0.104861
5.523119 11.328224 0.109324
5.837841 11.328224 0.115308
6.152562 11.328224 0.123497
6.467283 11.328224 0.133684
6.782003 11.328224 0.151951
7.096724 11.328224 0.180854
7.411445 11.328224 0.235172
7.726166 11.328224 0.321508
8.040888 11.328224 0.466472
8.355608 11.328224 0.679144
8.670330 11.328224 0.928366
8.985050 11.328224 1.162125
9.299772 11.328224 1.392351
9.614492 11.328224 1.609949
9.929214 11.328224 1.831975
10.243935 11.328224 2.041102
10.558655 11.328224 2.234592
10.873377 11.328224 2.432758
11.188097 11.328224 2.600015
11.502819 11.328224 2.771834
11.817539 11.328224 2.912390
12.132261 11.328224 3.030790
12.446981 11.328224 3.091510
12.761703 11.328224 3.190933
13.076424 11.328224 3.305179
13.391144 11.328224 3.417806
13.705866 11.328224 3.456500
14.020586 11.328224 3.434626
14.335308 11.328224 3.382639
14.650028 11.328224 3.362394
14.964750 11.328224 3.439071
15.279470 11.328224 3.743536
15.594193 11.328224 4.551152
15.908913 11.328224 0.000000
16.223633 11.328224 0.000000
16.538355 11.328224 0.000000
16.853075 11.328224 0.000000
17.167797 11.328224 0.000000
17.482517 11.328224 0.000000
17.797239 11.328224 0.000000
18.111959 11.328224 0.000000
18.426680 11.328224 0.000000
18.741402 11.328224 0.000000
-7.065720 11.013504 0.000000
-6.750999 11.013504 0.094218
-6.436278 11.013504 0.093246
-6.121557 11.013504 0.093021
-5.806836 11.013504 0.092574
-5.492115 11.013504 0.092174
-5.177394 11.013504 0.091930
-4.862673 11.013504 0.091681
-4.547952 11.013504 0.091755
-4.233231 11.013504 0.091658
-3.918510 11.013504 0.091706
-3.603789 11.013504 0.091687
-3.289068 11.013504 0.091157
-2.974347 11.013504 0.090658
-2.659626 11.013504 0.090794
-2.344905 11.013504 0.091108
-2.030184 11.013504 0.091062
-1.715463 11.013504 0.090799
-1.400742 11.013504 0.090484
-1.086021 11.013504 0.090397
-0.771300 11.013504 0.090345
-0.456579 11.013504 0.090511
-0.141859 11.013504 0.090786
0.172863 11.013504 0.090794
0.487584 11.013504 0.090851
0.802305 11.013504 0.090863
1.117026 11.013504 0.090987
1.431747 11.013504 0.091284
1.746467 11.013504 0.091556
2.061188 11.013504 0.091811
2.375909 11.013504 0.091748
2.690630 11.013504 0.091973
3.005352 11.013504 0.092560
3.320073 11.013504 0.093211
3.634794 11.013504 0.094276
3.949515 11.013504 0.095550
4.264236 11.013504 0.097237
4.578956 11.013504 0.099192
4.893677 11.013504 0.101395
5.208398 11.013504 0.104728
5.523119 11.013504 0.109564
5.837841 11.013504 0.115554
6.152562 11.013504 0.122661
6.467283 11.013504 0.134907
6.782003 11.013504 0.152867
7.096724 11.013504 0.181073
7.411445 11.013504 0.233136
7.726166 11.013504 0.330268
8.040888 11.013504 0.483139
8.355608 11.013504 0.704981
8.670330 11.013504 0.936927
8.985050 11.013504 1.171215
9.299772 11.013504 1.407990
9.614492 11.013504 1.617076
9.929214 11.013504 1.844495
10.243935 11.013504 2.048889
10.558655 11.013504 2.240952
10.873377 11.013504 2.425869
11.188097 11.013504 2.600102
11.502819 11.013504 2.774886
11.817539 11.013504 2.917800
12.132261 11.013504 3.002502
12.446981 11.013504 3.106397
12.761703 11.013504 3.185256
13.076424 11.013504 3.319063
13.391144 11.013504 3.418726
13.705866 11.013504 3.411767
14.020586 11.013504 3.399868
14.335308 11.013504 3.364654
14.650028 11.013504 3.369007
14.964750 11.013504 3.523294
15.279470 11.013504 3.762551
15.594193 11.013504 114.863304
15.908913 11.013504 0.000000
16.223633 11.013504 0.000000
16.538355 11.013504 0.000000
16.853075 11.013504 0.000000
17.167797 11.013504 0.000000
17.482517 11.013504 0.000000
17.797239 11.013504 0.000000
18.111959 11.013504 0.000000
18.426680 11.013504 0.000000
18.741402 11.013504 0.000000
-7.065720 10.698784 0.000000
-6.750999 10.698784 0.093934
-6.436278 10.698784 0.092851
-6.121557 10.698784 0.092812
-5.806836 10.698784 0.092432
-5.492115 10.698784 0.092093
-5.177394 10.698784 0.091869
-4.862673 10.698784 0.091664
-4.547952 10.698784 0.091765
-4.233231 10.698784 0.091664
-3.918510 10.698784 0.091584
-3.603789 10.698784 0.091561
-3.289068 10.698784 0.091086
-2.974347 10.698784 0.090707
-2.659626 10.698784 0.090866
-2.344905 10.698784 0.091255
-2.030184 10.698784 0.091197
-1.715463 10.698784 0.090796
-1.400742 10.698784 0.090442
-1.086021 10.698784 0.090388
-0.771300 10.698784 0.090511
-0.456579 10.698784 0.090758
-0.141859 10.698784 0.090979
0.172863 10.698784 0.090938
0.487584 10.698784 0.090859
0.802305 10.698784 0.090563
1.117026 10.698784 0.090534
1.431747 10.698784 0.090888
1.746467 10.698784 0.091405
2.061188 10.698784 0.091695
2.375909 10.698784 0.091811
2.690630 10.698784 0.092147
3.005352 10.698784 0.092696
3.320073 10.698784 0.093259
3.634794 10.698784 0.093978
3.949515 10.698784 0.095428
4.264236 10.698784 0.097198
4.578956 10.698784 0.099071
4.893677 10.698784 0.101289
5.208398 10.698784 0.104548
5.523119 10.698784 0.109247
5.837841 10.698784 0.114718
6.152562 10.698784 0.122936
6.467283 10.698784 0.134465
6.782003 10.698784 0.152583
7.096724 10.698784 0.183846
7.411445 10.698784 0.235501
7.726166 10.698784 0.330985
8.040888 10.698784 0.496791
8.355608 10.698784 0.712878
8.670330 10.698784 0.948843
8.985050 10.698784 1.185737
9.299772 10.698784 1.409927
9.614492 10.698784 1.628974
9.929214 10.698784 1.862556
10.243935 10.698784 2.066556
10.558655 10.698784 2.275846
10.873377 10.698784 2.460775
11.188097 10.698784 2.623710
11.502819 10.698784 2.781027
11.817539 10.698784 2.932900
12.132261 10.698784 3.043217
12.446981 10.698784 3.120737
12.761703 10.698784 3.217928
13.076424 10.698784 3.295557
13.391144 10.698784 3.386289
13.705866 10.698784 3.400115
14.020586 10.698784 3.379058
14.335308 10.698784 3.374943
14.650028 10.698784 3.388598
14.964750 10.698784 3.572658
15.279470 10.698784 3.856876
15.594193 10.698784 0.000000
15.908913 10.698784 0.000000
16.223633 10.698784 0.000000
16.538355 10.698784 0.000000
16.853075 10.698784 0.000000
17.167797 10.698784 0.000000
17.482517 10.698784 0.000000
17.797239 10.698784 0.000000
18.111959 10.698784 0.000000
18.426680 10.698784 0.000000
18.741402 10.698784 0.000000
-7.065720 10.384064 0.000000
-6.750999 10.384064 0.093687
-6.436278 10.384064 0.092547
-6.121557 10.384064 0.092553
-5.806836 10.384064 0.092320
-5.492115 10.384064 0.092015
-5.177394 10.384064 0.091749
-4.862673 10.384064 0.091636
-4.547952 10.384064 0.091725
-4.233231 10.384064 0.091573
-3.918510 10.384064 0.091441
-3.603789 10.384064 0.091497
-3.289068 10.384064 0.091203
-2.974347 10.384064 0.090933
-2.659626 10.384064 0.091065
-2.344905 10.384064 0.091373
-2.030184 10.384064 0.091185
-1.715463 10.384064 0.090695
-1.400742 10.384064 0.090330
-1.086021 10.384064 0.090346
-0.771300 10.384064 0.090657
-0.456579 10.384064 0.090948
-0.141859 10.384064 0.091048
0.172863 10.384064 0.090947
0.487584 10.384064 0.090803
0.802305 10.384064 0.090348
1.117026 10.384064 0.090253
1.431747 10.384064 0.090653
1.746467 10.384064 0.091234
2.061188 10.384064 0.091623
2.375909 10.384064 0.091936
2.690630 10.384064 0.092467
3.005352 10.384064 0.092906
3.320073 10.384064 0.093271
3.634794 10.384064 0.093789
3.949515 10.384064 0.095155
4.264236 10.384064 0.097023
4.578956 10.384064 0.099055
4.893677 10.384064 0.101202
5.208398 10.384064 0.104592
5.523119 10.384064 0.108806
5.837841 10.384064 0.114923
6.152562 10.384064 0.122936
6.467283 10.384064 0.135849
6.782003 10.384064 0.155224
7.096724 10.384064 0.188160
7.411445 10.384064 0.243111
7.726166 10.384064 0.337440
8.040888 10.384064 0.498587
8.355608 10.384064 0.719535
8.670330 10.384064 0.963842
8.985050 10.384064 1.191863
9.299772 10.384064 1.418828
9.614492 10.384064 1.661512
9.929214 10.384064 1.874921
10.243935 10.384064 2.072385
10.558655 10.384064 2.294788
10.873377 10.384064 2.497496
11.188097 10.384064 2.660046
11.502819 10.384064 2.798331
11.817539 10.384064 2.924279
12.132261 10.384064 3.034666
12.446981 10.384064 3.118170
12.761703 10.384064 3.216757
13.076424 10.384064 3.286530
13.391144 10.384064 3.374036
13.705866 10.384064 3.415058
14.020586 10.384064 3.399199
14.335308 10.384064 3.393645
14.650028 10.384064 3.380152
14.964750 10.384064 3.552125
15.279470 10.384064 3.847669
15.594193 10.384064 0.000000
15.908913 10.384064 0.000000
16.223633 10.384064 0.000000
16.538355 10.384064 0.000000
16.853075 10.384064 0.000000
17.167797 10.384064 0.000000
17.482517 10.384064 0.000000
17.797239 10.384064 0.000000
18.111959 10.384064 0.000000
18.426680 10.384064 0.000000
18.741402 10.384064 0.000000
-7.065720 10.069340 0.000000
-6.750999 10.069340 0.093398
-6.436278 10.069340 0.092277
-6.121557 10.069340 0.092347
-5.806836 10.069340 0.092164
-5.492115 10.069340 0.091970
-5.177394 10.069340 0.091767
-4.862673 10.069340 0.091694
-4.547952 10.069340 0.091787
-4.233231 10.069340 0.091577
-3.918510 10.069340 0.091384
-3.603789 10.069340 0.091460
-3.289068 10.069340 0.091319
-2.974347 10.069340 0.091210
-2.659626 10.069340 0.091245
-2.344905 10.069340 0.091287
-2.030184 10.069340 0.091071
-1.715463 10.069340 0.090576
-1.400742 10.069340 0.090177
-1.086021 10.069340 0.090317
-0.771300 10.069340 0.090773
-0.456579 10.069340 0.091114
-0.141859 10.069340 0.091105
0.172863 10.069340 0.091042
0.487584 10.069340 0.090886
0.802305 10.069340 0.090419
1.117026 10.069340 0.090324
1.431747 10.069340 0.090669
1.746467 10.069340 0.091130
2.061188 10.069340 0.091529
2.375909 10.069340 0.092068
2.690630 10.069340 0.092689
3.005352 10.069340 0.093004
3.320073 10.069340 0.093230
3.634794 10.069340 0.093670
3.949515 10.069340 0.094883
4.264236 10.069340 0.097007
4.578956 10.069340 0.099192
4.893677 10.069340 0.101622
5.208398 10.069340 0.104827
5.523119 10.069340 0.109002
5.837841 10.069340 0.115148
6.152562 10.069340 0.123765
6.467283 10.069340 0.136856
6.782003 10.069340 0.157536
7.096724 10.069340 0.191589
7.411445 10.069340 0.247831
7.726166 10.069340 0.340824
8.040888 10.069340 0.506162
8.355608 10.069340 0.733150
8.670330 10.069340 0.956043
8.985050 10.069340 1.198258
9.299772 10.069340 1.436900
9.614492 10.069340 1.672558
9.929214 10.069340 1.885364
10.243935 10.069340 2.069815
10.558655 10.069340 2.304205
10.873377 10.069340 2.517811
11.188097 10.069340 2.696866
11.502819 10.069340 2.836479
11.817539 10.069340 2.925491
12.132261 10.069340 3.028312
12.446981 10.069340 3.113414
12.761703 10.069340 3.189535
13.076424 10.069340 3.285624
13.391144 10.069340 3.364768
13.705866 10.069340 3.398882
14.020586 10.069340 3.381140
14.335308 10.069340 3.411080
14.650028 10.069340 3.374371
14.964750 10.069340 3.533114
15.279470 10.069340 3.882216
15.594193 10.069340 0.000000
15.908913 10.069340 0.000000
16.223633 10.069340 0.000000
16.538355 10.069340 0.000000
16.853075 10.069340 0.000000
17.167797 10.069340 0.000000
17.482517 10.069340 0.000000
17.797239 10.069340 0.000000
18.111959 10.069340 0.000000
18.426680 10.069340 0.000000
18.741402 10.069340 0.000000
-7.065720 9.754620 0.000000
-6.750999 9.754620 0.093261
-6.436278 9.754620 0.092119
-6.121557 9.754620 0.092141
-5.806836 9.754620 0.092141
-5.492115 9.754620 0.092104
-5.177394 9.754620 0.091987
-4.862673 9.754620 0.091915
-4.547952 9.754620 0.091899
-4.233231 9.754620 0.091529
-3.918510 9.754620 0.091262
-3.603789 9.754620 0.091315
-3.289068 9.754620 0.091322
-2.974347 9.754620 0.091232
-2.659626 9.754620 0.091165
-2.344905 9.754620 0.090971
-2.030184 9.754620 0.090794
-1.715463 9.754620 0.090454
-1.400742 9.754620 0.090162
-1.086021 9.754620 0.090492
-0.771300 9.754620 0.091017
-0.456579 9.754620 0.091288
-0.141859 9.754620 0.091180
0.172863 9.754620 0.091235
0.487584 9.754620 0.091060
0.802305 9.754620 0.090670
1.117026 9.754620 0.090551
1.431747 9.754620 0.090731
1.746467 9.754620 0.090995
2.061188 9.754620 0.091350
2.375909 9.754620 0.092021
2.690630 9.754620 0.092708
3.005352 9.754620 0.093052
3.320073 9.754620 0.093259
3.634794 9.754620 0.093718
3.949515 9.754620 0.095124
4.264236 9.754620 0.097172
4.578956 9.754620 0.099448
4.893677 9.754620 0.101823
5.208398 9.754620 0.105030
5.523119 9.754620 0.109316
5.837841 9.754620 0.115707
6.152562 9.754620 0.124622
6.467283 9.754620 0.138000
6.782003 9.754620 0.158572
7.096724 9.754620 0.190438
7.411445 9.754620 0.249815
7.726166 9.754620 0.347785
8.040888 9.754620 0.514503
8.355608 9.754620 0.733629
8.670330 9.754620 0.975226
8.985050 9.754620 1.205481
9.299772 9.754620 1.450167
9.614492 9.754620 1.690652
9.929214 9.754620 1.905447
10.243935 9.754620 2.095448
10.558655 9.754620 2.306741
10.873377 9.754620 2.535730
11.188097 9.754620 2.696102
11.502819 9.754620 2.849544
11.817539 9.754620 2.971326
12.132261 9.754620 3.026228
12.446981 9.754620 3.097751
12.761703 9.754620 3.176238
13.076424 9.754620 3.249658
13.391144 9.754620 3.363068
13.705866 9.754620 3.401585
14.020586 9.754620 3.391300
14.335308 9.754620 3.394255
14.650028 9.754620 3.362913
14.964750 9.754620 3.530779
15.279470 9.754620 3.928314
15.594193 9.754620 0.000000
15.908913 9.754620 0.000000
16.223633 9.754620 0.000000
16.538355 9.754620 0.000000
16.853075 9.754620 0.000000
17.167797 9.754620 0.000000
17.482517 9.754620 0.000000
17.797239 9.754620 0.000000
18.111959 9.754620 0.000000
18.426680 9.754620 0.000000
18.741402 9.754620 0.000000
-7.065720 9.439899 0.000000
-6.750999 9.439899 0.093495
-6.436278 9.439899 0.092125
-6.121557 9.439899 0.092092
-5.806836 9.439899 0.092277
-5.492115 9.439899 0.092387
-5.177394 9.439899 0.092272
-4.862673 9.439899 0.092119
-4.547952 9.439899 0.091887
-4.233231 9.439899 0.091336
-3.918510 9.439899 0.090954
-3.603789 9.439899 0.090972
-3.289068 9.439899 0.091120
-2.974347 9.439899 0.091194
-2.659626 9.439899 0.091087
-2.344905 9.439899 0.090848
-2.030184 9.439899 0.090669
-1.715463 9.439899 0.090476
-1.400742 9.439899 0.090323
-1.086021 9.439899 0.090762
-0.771300 9.439899 0.091272
-0.456579 9.439899 0.091357
-0.141859 9.439899 0.091187
0.172863 9.439899 0.091277
0.487584 9.439899 0.091216
0.802305 9.439899 0.090958
1.117026 9.439899 0.090800
1.431747 9.439899 0.090801
1.746467 9.439899 0.090919
2.061188 9.439899 0.091298
2.375909 9.439899 0.092025
2.690630 9.439899 0.092668
3.005352 9.439899 0.093041
3.320073 9.439899 0.093415
3.634794 9.439899 0.093986
3.949515 9.439899 0.095453
4.264236 9.439899 0.097567
4.578956 9.439899 0.099767
4.893677 9.439899 0.101962
5.208398 9.439899 0.105267
5.523119 9.439899 0.110078
5.837841 9.439899 0.116550
6.152562 9.439899 0.125075
6.467283 9.439899 0.138542
6.782003 9.439899 0.159072
7.096724 9.439899 0.192119
7.411445 9.439899 0.254835
7.726166 9.439899 0.360099
8.040888 9.439899 0.524142
8.355608 9.439899 0.749988
8.670330 9.439899 0.996929
8.985050 9.439899 1.218687
9.299772 9.439899 1.463732
9.614492 9.439899 1.702508
9.929214 9.439899 1.918553
10.243935 9.439899 2.100629
10.558655 9.439899 2.299091
10.873377 9.439899 2.522219
11.188097 9.439899 2.692411
11.502819 9.439899 2.866281
11.817539 9.439899 2.988319
12.132261 9.439899 3.057763
12.446981 9.439899 3.113517
12.761703 9.439899 3.191470
13.076424 9.439899 3.241069
13.391144 9.439899 3.321812
13.705866 9.439899 3.387686
14.020586 9.439899 3.423711
14.335308 9.439899 3.420198
14.650028 9.439899 3.384611
14.964750 9.439899 3.590512
15.279470 9.439899 3.974480
15.594193 9.439899 0.000000
15.908913 9.439899 0.000000
16.223633 9.439899 0.000000
16.538355 9.439899 0.000000
16.853075 9.439899 0.000000
17.167797 9.439899 0.000000
17.482517 9.439899 0.000000
17.797239 9.439899 0.000000
18.111959 9.439899 0.000000
18.426680 9.439899 0.000000
18.741402 9.439899 0.000000
-7.065720 9.125179 0.000000
-6.750999 9.125179 0.093830
-6.436278 9.125179 0.092207
-6.121557 9.125179 0.092081
-5.806836 9.125179 0.092333
-5.492115 9.125179 0.092576
-5.177394 9.125179 0.092406
-4.862673 9.125179 0.092107
-4.547952 9.125179 0.091679
-4.233231 9.125179 0.091076
-3.918510 9.125179 0.090670
-3.603789 9.125179 0.090709
-3.289068 9.125179 0.090968
-2.974347 9.125179 0.091173
-2.659626 9.125179 0.091079
-2.344905 9.125179 0.090827
-2.030184 9.125179 0.090753
-1.715463 9.125179 0.090642
-1.400742 9.125179 0.090666
-1.086021 9.125179 0.090968
-0.771300 9.125179 0.091250
-0.456579 9.125179 0.091193
-0.141859 9.125179 0.091071
0.172863 9.125179 0.091190
0.487584 9.125179 0.091304
0.802305 9.125179 0.091184
1.117026 9.125179 0.091024
1.431747 9.125179 0.090964
1.746467 9.125179 0.091034
2.061188 9.125179 0.091341
2.375909 9.125179 0.092004
2.690630 9.125179 0.092542
3.005352 9.125179 0.093011
3.320073 9.125179 0.093588
3.634794 9.125179 0.094324
3.949515 9.125179 0.095725
4.264236 9.125179 0.097672
4.578956 9.125179 0.099913
4.893677 9.125179 0.102119
5.208398 9.125179 0.105550
5.523119 9.125179 0.110898
5.837841 9.125179 0.117261
6.152562 9.125179 0.126376
6.467283 9.125179 0.138190
6.782003 9.125179 0.158374
7.096724 9.125179 0.192578
7.411445 9.125179 0.255573
7.726166 9.125179 0.366303
8.040888 9.125179 0.542647
8.355608 9.125179 0.760173
8.670330 9.125179 1.010651
8.985050 9.125179 1.236137
9.299772 9.125179 1.472890
9.614492 9.125179 1.699771
9.929214 9.125179 1.909134
10.243935 9.125179 2.106918
10.558655 9.125179 2.305323
10.873377 9.125179 2.520379
11.188097 9.125179 2.719856
11.502819 9.125179 2.882774
11.817539 9.125179 2.998672
12.132261 9.125179 3.048884
12.446981 9.125179 3.132148
12.761703 9.125179 3.212963
13.076424 9.125179 3.247714
13.391144 9.125179 3.337604
13.705866 9.125179 3.412435
14.020586 9.125179 3.441857
14.335308 9.125179 3.416903
14.650028 9.125179 3.510117
14.964750 9.125179 3.688752
15.279470 9.125179 4.015311
15.594193 9.125179 0.000000
15.908913 9.125179 0.000000
16.223633 9.125179 0.000000
16.538355 9.125179 0.000000
16.853075 9.125179 0.000000
17.167797 9.125179 0.000000
17.482517 9.125179 0.000000
17.797239 9.125179 0.000000
18.111959 9.125179 0.000000
18.426680 9.125179 0.000000
18.741402 9.125179 0.000000
-7.065720 8.810455 0.000000
-6.750999 8.810455 0.093915
-6.436278 8.810455 0.092217
-6.121557 8.810455 0.092008
-5.806836 8.810455 0.092262
-5.492115 8.810455 0.092613
-5.177394 8.810455 0.092456
-4.862673 8.810455 0.091992
-4.547952 8.810455 0.091477
-4.233231 8.810455 0.090979
-3.918510 8.810455 0.090659
-3.603789 8.810455 0.090627
-3.289068 8.810455 0.090870
-2.974347 8.810455 0.091014
-2.659626 8.810455 0.090988
-2.344905 8.810455 0.090814
-2.030184 8.810455 0.090754
-1.715463 8.810455 0.090805
-1.400742 8.810455 0.090839
-1.086021 8.810455 0.090917
-0.771300 8.810455 0.090915
-0.456579 8.810455 0.090860
-0.141859 8.810455 0.090869
0.172863 8.810455 0.091048
0.487584 8.810455 0.091334
0.802305 8.810455 0.091391
1.117026 8.810455 0.091290
1.431747 8.810455 0.091196
1.746467 8.810455 0.091192
2.061188 8.810455 0.091431
2.375909 8.810455 0.091856
2.690630 8.810455 0.092286
3.005352 8.810455 0.092846
3.320073 8.810455 0.093603
3.634794 8.810455 0.094393
3.949515 8.810455 0.095748
4.264236 8.810455 0.097602
4.578956 8.810455 0.099801
4.893677 8.810455 0.102226
5.208398 8.810455 0.105748
5.523119 8.810455 0.111233
5.837841 8.810455 0.118180
6.152562 8.810455 0.127021
6.467283 8.810455 0.138188
6.782003 8.810455 0.158868
7.096724 8.810455 0.197832
7.411445 8.810455 0.259688
7.726166 8.810455 0.374188
8.040888 8.810455 0.555055
8.355608 8.810455 0.783055
8.670330 8.810455 1.027643
8.985050 8.810455 1.252982
9.299772 8.810455 1.479538
9.614492 8.810455 1.714286
9.929214 8.810455 1.924766
10.243935 8.810455 2.113911
10.558655 8.810455 2.330618
10.873377 8.810455 2.534743
11.188097 8.810455 2.733246
11.502819 8.810455 2.886539
11.817539 8.810455 2.983410
12.132261 8.810455 3.080058
12.446981 8.810455 3.139150
12.761703 8.810455 3.221994
13.076424 8.810455 3.290308
13.391144 8.810455 3.348687
13.705866 8.810455 3.405311
14.020586 8.810455 3.445523
14.335308 8.810455 3.426563
14.650028 8.810455 3.535738
14.964750 8.810455 3.721100
15.279470 8.810455 4.056072
15.594193 8.810455 0.000000
15.908913 8.810455 0.000000
16.223633 8.810455 0.000000
16.538355 8.810455 0.000000
16.853075 8.810455 0.000000
17.167797 8.810455 0.000000
17.482517 8.810455 0.000000
17.797239 8.810455 0.000000
18.111959 8.810455 0.000000
18.426680 8.810455 0.000000
18.741402 8.810455 0.000000
-7.065720 8.495735 0.000000
-6.750999 8.495735 0.093871
-6.436278 8.495735 0.092314
-6.121557 8.495735 0.092025
-5.806836 8.495735 0.092259
-5.492115 8.495735 0.092627
-5.177394 8.495735 0.092527
-4.862673 8.495735 0.091957
-4.547952 8.495735 0.091405
-4.233231 8.495735 0.091057
-3.918510 8.495735 0.090802
-3.603789 8.495735 0.090662
-3.289068 8.495735 0.090740
-2.974347 8.495735 0.090803
-2.659626 8.495735 0.090799
-2.344905 8.495735 0.090744
-2.030184 8.495735 0.090713
-1.715463 8.495735 0.090816
-1.400742 8.495735 0.090839
-1.086021 8.495735 0.090686
-0.771300 8.495735 0.090500
-0.456579 8.495735 0.090505
-0.141859 8.495735 0.090733
0.172863 8.495735 0.090974
0.487584 8.495735 0.091347
0.802305 8.495735 0.091545
1.117026 8.495735 0.091534
1.431747 8.495735 0.091444
1.746467 8.495735 0.091340
2.061188 8.495735 0.091341
2.375909 8.495735 0.091539
2.690630 8.495735 0.091928
3.005352 8.495735 0.092600
3.320073 8.495735 0.093487
3.634794 8.495735 0.094395
3.949515 8.495735 0.095712
4.264236 8.495735 0.097333
4.578956 8.495735 0.099660
4.893677 8.495735 0.102489
5.208398 8.495735 0.106128
5.523119 8.495735 0.111649
5.837841 8.495735 0.118483
6.152562 8.495735 0.127499
6.467283 8.495735 0.140808
6.782003 8.495735 0.160204
7.096724 8.495735 0.200830
7.411445 8.495735 0.265933
7.726166 8.495735 0.378623
8.040888 8.495735 0.556750
8.355608 8.495735 0.785242
8.670330 8.495735 1.031601
8.985050 8.495735 1.273161
9.299772 8.495735 1.502952
9.614492 8.495735 1.734664
9.929214 8.495735 1.944022
10.243935 8.495735 2.136352
10.558655 8.495735 2.344243
10.873377 8.495735 2.546159
11.188097 8.495735 2.743395
11.502819 8.495735 2.887542
11.817539 8.495735 3.007239
12.132261 8.495735 3.093618
12.446981 8.495735 3.175747
12.761703 8.495735 3.244335
13.076424 8.495735 3.309612
13.391144 8.495735 3.349579
13.705866 8.495735 3.393111
14.020586 8.495735 3.435178
14.335308 8.495735 3.452835
14.650028 8.495735 3.571578
14.964750 8.495735 3.716777
15.279470 8.495735 4.070033
15.594193 8.495735 0.000000
15.908913 8.495735 0.000000
16.223633 8.495735 0.000000
16.538355 8.495735 0.000000
16.853075 8.495735 0.000000
17.167797 8.495735 0.000000
17.482517 8.495735 0.000000
17.797239 8.495735 0.000000
18.111959 8.495735 0.000000
18.426680 8.495735 0.000000
18.741402 8.495735 0.000000
-7.065720 8.181015 0.000000
-6.750999 8.181015 0.093882
-6.436278 8.181015 0.092459
-6.121557 8.181015 0.092167
-5.806836 8.181015 0.092304
-5.492115 8.181015 0.092614
-5.177394 8.181015 0.092503
-4.862673 8.181015 0.092006
-4.547952 8.181015 0.091464
-4.233231 8.181015 0.091132
-3.918510 8.181015 0.090914
-3.603789 8.181015 0.090702
-3.289068 8.181015 0.090639
-2.974347 8.181015 0.090611
-2.659626 8.181015 0.090634
-2.344905 8.181015 0.090744
-2.030184 8.181015 0.090842
-1.715463 8.181015 0.090893
-1.400742 8.181015 0.090830
-1.086021 8.181015 0.090451
-0.771300 8.181015 0.090044
-0.456579 8.181015 0.090141
-0.141859 8.181015 0.090573
0.172863 8.181015 0.090874
0.487584 8.181015 0.091234
0.802305 8.181015 0.091479
1.117026 8.181015 0.091585
1.431747 8.181015 0.091540
1.746467 8.181015 0.091369
2.061188 8.181015 0.091209
2.375909 8.181015 0.091262
2.690630 8.181015 0.091682
3.005352 8.181015 0.092469
3.320073 8.181015 0.093378
3.634794 8.181015 0.094339
3.949515 8.181015 0.095532
4.264236 8.181015 0.097119
4.578956 8.181015 0.099584
4.893677 8.181015 0.102732
5.208398 8.181015 0.106577
5.523119 8.181015 0.111791
5.837841 8.181015 0.118975
6.152562 8.181015 0.128220
6.467283 8.181015 0.141733
6.782003 8.181015 0.164446
7.096724 8.181015 0.204040
7.411445 8.181015 0.274803
7.726166 8.181015 0.390702
8.040888 8.181015 0.567893
8.355608 8.181015 0.795978
8.670330 8.181015 1.044630
8.985050 8.181015 1.273398
9.299772 8.181015 1.511852
9.614492 8.181015 1.746372
9.929214 8.181015 1.950226
10.243935 8.181015 2.143425
10.558655 8.181015 2.339889
10.873377 8.181015 2.545376
11.188097 8.181015 2.742013
11.502819 8.181015 2.888804
11.817539 8.181015 2.997480
12.132261 8.181015 3.104514
12.446981 8.181015 3.189169
12.761703 8.181015 3.238400
13.076424 8.181015 3.316725
13.391144 8.181015 3.369301
13.705866 8.181015 3.372957
14.020586 8.181015 3.407953
14.335308 8.181015 3.479378
14.650028 8.181015 3.528247
14.964750 8.181015 3.686581
15.279470 8.181015 4.042848
15.594193 8.181015 0.000000
15.908913 8.181015 0.000000
16.223633 8.181015 0.000000
16.538355 8.181015 0.000000
16.853075 8.181015 0.000000
17.167797 8.181015 0.000000
17.482517 8.181015 0.000000
17.797239 8.181015 0.000000
18.111959 8.181015 0.000000
18.426680 8.181015 0.000000
18.741402 8.181015 0.000000
-7.065720 7.866295 0.000000
-6.750999 7.866295 0.093916
-6.436278 7.866295 0.092597
-6.121557 7.866295 0.092331
-5.806836 7.866295 0.092330
-5.492115 7.866295 0.092475
-5.177394 7.866295 0.092344
-4.862673 7.866295 0.091920
-4.547952 7.866295 0.091463
-4.233231 7.866295 0.091168
-3.918510 7.866295 0.090975
-3.603789 7.866295 0.090825
-3.289068 7.866295 0.090653
-2.974347 7.866295 0.090584
-2.659626 7.866295 0.090708
-2.344905 7.866295 0.090992
-2.030184 7.866295 0.091094
-1.715463 7.866295 0.090955
-1.400742 7.866295 0.090777
-1.086021 7.866295 0.090209
-0.771300 7.866295 0.089706
-0.456579 7.866295 0.089866
-0.141859 7.866295 0.090363
0.172863 7.866295 0.090629
0.487584 7.866295 0.090939
0.802305 7.866295 0.091213
1.117026 7.866295 0.091459
1.431747 7.866295 0.091522
1.746467 7.866295 0.091325
2.061188 7.866295 0.091123
2.375909 7.866295 0.091198
2.690630 7.866295 0.091724
3.005352 7.866295 0.092495
3.320073 7.866295 0.093445
3.634794 7.866295 0.094370
3.949515 7.866295 0.095484
4.264236 7.866295 0.097150
4.578956 7.866295 0.099763
4.893677 7.866295 0.102969
5.208398 7.866295 0.106743
5.523119 7.866295 0.112109
5.837841 7.866295 0.119663
6.152562 7.866295 0.128725
6.467283 7.866295 0.143359
6.782003 7.866295 0.165580
7.096724 7.866295 0.208609
7.411445 7.866295 0.279473
7.726166 7.866295 0.400838
8.040888 7.866295 0.579948
8.355608 7.866295 0.809316
8.670330 7.866295 1.057829
8.985050 7.866295 1.290235
9.299772 7.866295 1.533076
9.614492 7.866295 1.750619
9.929214 7.866295 1.960798
10.243935 7.866295 2.149894
10.558655 7.866295 2.333280
10.873377 7.866295 2.553642
11.188097 7.866295 2.729754
11.502819 7.866295 2.896290
11.817539 7.866295 3.005980
12.132261 7.866295 3.118803
12.446981 7.866295 3.212645
12.761703 7.866295 3.265524
13.076424 7.866295 3.346297
13.391144 7.866295 3.387381
13.705866 7.866295 3.341027
14.020586 7.866295 3.390685
14.335308 7.866295 3.391829
14.650028 7.866295 3.478995
14.964750 7.866295 3.667074
15.279470 7.866295 4.075492
15.594193 7.866295 0.000000
15.908913 7.866295 0.000000
16.223633 7.866295 0.000000
16.538355 7.866295 0.000000
16.853075 7.866295 0.000000
17.167797 7.866295 0.000000
17.482517 7.866295 0.000000
17.797239 7.866295 0.000000
18.111959 7.866295 0.000000
18.426680 7.866295 0.000000
18.741402 7.866295 0.000000
-7.065720 7.551575 0.000000
-6.750999 7.551575 0.093847
-6.436278 7.551575 0.092625
-6.121557 7.551575 0.092422
-5.806836 7.551575 0.092290
-5.492115 7.551575 0.092297
-5.177394 7.551575 0.092129
-4.862673 7.551575 0.091763
-4.547952 7.551575 0.091482
-4.233231 7.551575 0.091302
-3.918510 7.551575 0.091199
-3.603789 7.551575 0.091055
-3.289068 7.551575 0.090892
-2.974347 7.551575 0.090725
-2.659626 7.551575 0.090849
-2.344905 7.551575 0.091177
-2.030184 7.551575 0.091300
-1.715463 7.551575 0.090961
-1.400742 7.551575 0.090620
-1.086021 7.551575 0.089980
-0.771300 7.551575 0.089553
-0.456579 7.551575 0.089799
-0.141859 7.551575 0.090296
0.172863 7.551575 0.090475
0.487584 7.551575 0.090678
0.802305 7.551575 0.090993
1.117026 7.551575 0.091265
1.431747 7.551575 0.091506
1.746467 7.551575 0.091305
2.061188 7.551575 0.091094
2.375909 7.551575 0.091232
2.690630 7.551575 0.091873
3.005352 7.551575 0.092633
3.320073 7.551575 0.093505
3.634794 7.551575 0.094414
3.949515 7.551575 0.095640
4.264236 7.551575 0.097572
4.578956 7.551575 0.099936
4.893677 7.551575 0.103169
5.208398 7.551575 0.107013
5.523119 7.551575 0.112612
5.837841 7.551575 0.119789
6.152562 7.551575 0.129006
6.467283 7.551575 0.143963
6.782003 7.551575 0.167494
7.096724 7.551575 0.209697
7.411445 7.551575 0.285762
7.726166 7.551575 0.409984
8.040888 7.551575 0.602775
8.355608 7.551575 0.829016
8.670330 7.551575 1.079798
8.985050 7.551575 1.312064
9.299772 7.551575 1.538422
9.614492 7.551575 1.769398
9.929214 7.551575 1.978987
10.243935 7.551575 2.155627
10.558655 7.551575 2.338875
10.873377 7.551575 2.558496
11.188097 7.551575 2.737097
11.502819 7.551575 2.889178
11.817539 7.551575 3.025243
12.132261 7.551575 3.099123
12.446981 7.551575 3.205944
12.761703 7.551575 3.276941
13.076424 7.551575 3.348734
13.391144 7.551575 3.359768
13.705866 7.551575 3.295651
14.020586 7.551575 3.332745
14.335308 7.551575 3.388199
14.650028 7.551575 3.446177
14.964750 7.551575 3.684403
15.279470 7.551575 4.120456
15.594193 7.551575 0.000000
15.908913 7.551575 0.000000
16.223633 7.551575 0.000000
16.538355 7.551575 0.000000
16.853075 7.551575 0.000000
17.167797 7.551575 0.000000
17.482517 7.551575 0.000000
17.797239 7.551575 0.000000
18.111959 7.551575 0.000000
18.426680 7.551575 0.000000
18.741402 7.551575 0.000000
-7.065720 7.236851 0.133359
-6.750999 7.236851 0.093808
-6.436278 7.236851 0.092629
-6.121557 7.236851 0.092482
-5.806836 7.236851 0.092238
-5.492115 7.236851 0.092108
-5.177394 7.236851 0.091874
-4.862673 7.236851 0.091640
-4.547952 7.236851 0.091540
-4.233231 7.236851 0.091635
-3.918510 7.236851 0.091578
-3.603789 7.236851 0.091397
-3.289068 7.236851 0.091162
-2.974347 7.236851 0.090957
-2.659626 7.236851 0.090954
-2.344905 7.236851 0.091209
-2.030184 7.236851 0.091315
-1.715463 7.236851 0.090950
-1.400742 7.236851 0.090491
-1.086021 7.236851 0.089984
-0.771300 7.236851 0.089649
-0.456579 7.236851 0.089931
-0.141859 7.236851 0.090385
0.172863 7.236851 0.090429
0.487584 7.236851 0.090563
0.802305 7.236851 0.090879
1.117026 7.236851 0.091165
1.431747 7.236851 0.091499
1.746467 7.236851 0.091376
2.061188 7.236851 0.091203
2.375909 7.236851 0.091371
2.690630 7.236851 0.092060
3.005352 7.236851 0.092761
3.320073 7.236851 0.093500
3.634794 7.236851 0.094557
3.949515 7.236851 0.096062
4.264236 7.236851 0.098144
4.578956 7.236851 0.100376
4.893677 7.236851 0.103455
5.208398 7.236851 0.107194
5.523119 7.236851 0.112704
5.837841 7.236851 0.119844
6.152562 7.236851 0.130117
6.467283 7.236851 0.145286
6.782003 7.236851 0.171036
7.096724 7.236851 0.213757
7.411445 7.236851 0.289959
7.726166 7.236851 0.419861
8.040888 7.236851 0.612722
8.355608 7.236851 0.846447
8.670330 7.236851 1.095714
8.985050 7.236851 1.337869
9.299772 7.236851 1.563591
9.614492 7.236851 1.783352
9.929214 7.236851 2.000504
10.243935 7.236851 2.164797
10.558655 7.236851 2.366876
10.873377 7.236851 2.564259
11.188097 7.236851 2.754664
11.502819 7.236851 2.889051
11.817539 7.236851 3.023000
12.132261 7.236851 3.137236
12.446981 7.236851 3.216240
12.761703 7.236851 3.288736
13.076424 7.236851 3.319464
13.391144 7.236851 3.336599
13.705866 7.236851 3.286276
14.020586 7.236851 3.276345
14.335308 7.236851 3.395930
14.650028 7.236851 3.475819
14.964750 7.236851 3.690978
15.279470 7.236851 4.172179
15.594193 7.236851 0.000000
15.908913 7.236851 0.000000
16.223633 7.236851 0.000000
16.538355 7.236851 0.000000
16.853075 7.236851 0.000000
17.167797 7.236851 0.000000
17.482517 7.236851 0.000000
17.797239 7.236851 0.000000
18.111959 7.236851 0.000000
18.426680 7.236851 0.000000
18.741402 7.236851 0.000000
-7.065720 6.922131 0.069811
-6.750999 6.922131 0.093656
-6.436278 6.922131 0.092576
-6.121557 6.922131 0.092587
-5.806836 6.922131 0.092303
-5.492115 6.922131 0.091957
-5.177394 6.922131 0.091670
-4.862673 6.922131 0.091579
-4.547952 6.922131 0.091639
-4.233231 6.922131 0.091888
-3.918510 6.922131 0.091932
-3.603789 6.922131 0.091659
-3.289068 6.922131 0.091334
-2.974347 6.922131 0.091111
-2.659626 6.922131 0.091079
-2.344905 6.922131 0.091190
-2.030184 6.922131 0.091291
-1.715463 6.922131 0.090962
-1.400742 6.922131 0.090527
-1.086021 6.922131 0.090199
-0.771300 6.922131 0.089998
-0.456579 6.922131 0.090218
-0.141859 6.922131 0.090518
0.172863 6.922131 0.090518
0.487584 6.922131 0.090590
0.802305 6.922131 0.090833
1.117026 6.922131 0.091147
1.431747 6.922131 0.091440
1.746467 6.922131 0.091448
2.061188 6.922131 0.091349
2.375909 6.922131 0.091575
2.690630 6.922131 0.092225
3.005352 6.922131 0.092855
3.320073 6.922131 0.093638
3.634794 6.922131 0.094873
3.949515 6.922131 0.096636
4.264236 6.922131 0.098598
4.578956 6.922131 0.100895
4.893677 6.922131 0.103539
5.208398 6.922131 0.107442
5.523119 6.922131 0.113074
5.837841 6.922131 0.119962
6.152562 6.922131 0.130746
6.467283 6.922131 0.146635
6.782003 6.922131 0.172512
7.096724 6.922131 0.218742
7.411445 6.922131 0.298791
7.726166 6.922131 0.430353
8.040888 6.922131 0.624768
8.355608 6.922131 0.856643
8.670330 6.922131 1.105364
8.985050 6.922131 1.339122
9.299772 6.922131 1.582819
9.614492 6.922131 1.802747
9.929214 6.922131 2.014405
10.243935 6.922131 2.197365
10.558655 6.922131 2.377881
10.873377 6.922131 2.586198
11.188097 6.922131 2.758506
11.502819 6.922131 2.904261
11.817539 6.922131 3.017982
12.132261 6.922131 3.143299
12.446981 6.922131 3.230862
12.761703 6.922131 3.300988
13.076424 6.922131 3.314115
13.391144 6.922131 3.332580
13.705866 6.922131 3.299196
14.020586 6.922131 3.321653
14.335308 6.922131 3.412295
14.650028 6.922131 3.485185
14.964750 6.922131 3.671670
15.279470 6.922131 4.034891
15.594193 6.922131 0.000000
15.908913 6.922131 0.000000
16.223633 6.922131 0.000000
16.538355 6.922131 0.000000
16.853075 6.922131 0.000000
17.167797 6.922131 0.000000
17.482517 6.922131 0.000000
17.797239 6.922131 0.000000
18.111959 6.922131 0.000000
18.426680 6.922131 0.000000
18.741402 6.922131 0.000000
-7.065720 6.607410 0.087369
-6.750999 6.607410 0.093656
-6.436278 6.607410 0.092602
-6.121557 6.607410 0.092732
-5.806836 6.607410 0.092336
-5.492115 6.607410 0.091856
-5.177394 6.607410 0.091558
-4.862673 6.607410 0.091592
-4.547952 6.607410 0.091833
-4.233231 6.607410 0.092110
-3.918510 6.607410 0.092094
-3.603789 6.607410 0.091758
-3.289068 6.607410 0.091396
-2.974347 6.607410 0.091144
-2.659626 6.607410 0.091044
-2.344905 6.607410 0.091124
-2.030184 6.607410 0.091281
-1.715463 6.607410 0.091086
-1.400742 6.607410 0.090765
-1.086021 6.607410 0.090518
-0.771300 6.607410 0.090353
-0.456579 6.607410 0.090465
-0.141859 6.607410 0.090655
0.172863 6.607410 0.090589
0.487584 6.607410 0.090616
0.802305 6.607410 0.090803
1.117026 6.607410 0.091030
1.431747 6.607410 0.091337
1.746467 6.607410 0.091573
2.061188 6.607410 0.091667
2.375909 6.607410 0.091908
2.690630 6.607410 0.092482
3.005352 6.607410 0.092969
3.320073 6.607410 0.093727
3.634794 6.607410 0.095122
3.949515 6.607410 0.096792
4.264236 6.607410 0.098739
4.578956 6.607410 0.101031
4.893677 6.607410 0.103702
5.208398 6.607410 0.107700
5.523119 6.607410 0.112991
5.837841 6.607410 0.120660
6.152562 6.607410 0.131931
6.467283 6.607410 0.149471
6.782003 6.607410 0.174518
7.096724 6.607410 0.223503
7.411445 6.607410 0.309450
7.726166 6.607410 0.442463
8.040888 6.607410 0.624464
8.355608 6.607410 0.872609
8.670330 6.607410 1.112207
8.985050 6.607410 1.345015
9.299772 6.607410 1.596565
9.614492 6.607410 1.807586
9.929214 6.607410 2.020513
10.243935 6.607410 2.218567
10.558655 6.607410 2.392301
10.873377 6.607410 2.578719
11.188097 6.607410 2.742011
11.502819 6.607410 2.903692
11.817539 6.607410 3.028731
12.132261 6.607410 3.154454
12.446981 6.607410 3.257537
12.761703 6.607410 3.309463
13.076424 6.607410 3.369194
13.391144 6.607410 3.372134
13.705866 6.607410 3.364311
14.020586 6.607410 3.392507
14.335308 6.607410 3.489568
14.650028 6.607410 3.527363
14.964750 6.607410 3.720355
15.279470 6.607410 4.048841
15.594193 6.607410 0.000000
15.908913 6.607410 0.000000
16.223633 6.607410 0.000000
16.538355 6.607410 0.000000
16.853075 6.607410 0.000000
17.167797 6.607410 0.000000
17.482517 6.607410 0.000000
17.797239 6.607410 0.000000
18.111959 6.607410 0.000000
18.426680 6.607410 0.000000
18.741402 6.607410 0.000000
-7.065720 6.292690 0.089081
-6.750999 6.292690 0.093486
-6.436278 6.292690 0.092512
-6.121557 6.292690 0.092742
-5.806836 6.292690 0.092315
-5.492115 6.292690 0.091727
-5.177394 6.292690 0.091541
-4.862673 6.292690 0.091676
-4.547952 6.292690 0.091979
-4.233231 6.292690 0.092187
-3.918510 6.292690 0.092105
-3.603789 6.292690 0.091708
-3.289068 6.292690 0.091414
-2.974347 6.292690 0.091128
-2.659626 6.292690 0.090956
-2.344905 6.292690 0.091040
-2.030184 6.292690 0.091250
-1.715463 6.292690 0.091163
-1.400742 6.292690 0.091006
-1.086021 6.292690 0.090890
-0.771300 6.292690 0.090637
-0.456579 6.292690 0.090623
-0.141859 6.292690 0.090765
0.172863 6.292690 0.090739
0.487584 6.292690 0.090750
0.802305 6.292690 0.090855
1.117026 6.292690 0.091014
1.431747 6.292690 0.091274
1.746467 6.292690 0.091727
2.061188 6.292690 0.091961
2.375909 6.292690 0.092246
2.690630 6.292690 0.092690
3.005352 6.292690 0.093033
3.320073 6.292690 0.093736
3.634794 6.292690 0.095168
3.949515 6.292690 0.096971
4.264236 6.292690 0.098776
4.578956 6.292690 0.101041
4.893677 6.292690 0.104015
5.208398 6.292690 0.107867
5.523119 6.292690 0.113217
5.837841 6.292690 0.120770
6.152562 6.292690 0.132707
6.467283 6.292690 0.150051
6.782003 6.292690 0.178824
7.096724 6.292690 0.229574
7.411445 6.292690 0.316984
7.726166 6.292690 0.456208
8.040888 6.292690 0.644088
8.355608 6.292690 0.887543
8.670330 6.292690 1.127692
8.985050 6.292690 1.366024
9.299772 6.292690 1.608580
9.614492 6.292690 1.835425
9.929214 6.292690 2.029495
10.243935 6.292690 2.215698
10.558655 6.292690 2.393113
10.873377 6.292690 2.588312
11.188097 6.292690 2.746738
11.502819 6.292690 2.906205
11.817539 6.292690 3.048601
12.132261 6.292690 3.189639
12.446981 6.292690 3.288522
12.761703 6.292690 3.367248
13.076424 6.292690 3.408271
13.391144 6.292690 3.391725
13.705866 6.292690 3.397603
14.020586 6.292690 3.442730
14.335308 6.292690 3.492865
14.650028 6.292690 3.601759
14.964750 6.292690 3.761446
15.279470 6.292690 4.006353
15.594193 6.292690 0.000000
15.908913 6.292690 0.000000
16.223633 6.292690 0.000000
16.538355 6.292690 0.000000
16.853075 6.292690 0.000000
17.167797 6.292690 0.000000
17.482517 6.292690 0.000000
17.797239 6.292690 0.000000
18.111959 6.292690 0.000000
18.426680 6.292690 0.000000
18.741402 6.292690 0.000000
-7.065720 5.977966 0.084227
-6.750999 5.977966 0.093370
-6.436278 5.977966 0.092316
-6.121557 5.977966 0.092619
-5.806836 5.977966 0.092217
-5.492115 5.977966 0.091695
-5.177394 5.977966 0.091653
-4.862673 5.977966 0.091866
-4.547952 5.977966 0.092090
-4.233231 5.977966 0.092146
-3.918510 5.977966 0.091975
-3.603789 5.977966 0.091668
-3.289068 5.977966 0.091511
-2.974347 5.977966 0.091190
-2.659626 5.977966 0.090836
-2.344905 5.977966 0.090918
-2.030184 5.977966 0.091247
-1.715463 5.977966 0.091196
-1.400742 5.977966 0.091212
-1.086021 5.977966 0.091265
-0.771300 5.977966 0.090975
-0.456579 5.977966 0.090828
-0.141859 5.977966 0.090989
0.172863 5.977966 0.091049
0.487584 5.977966 0.090999
0.802305 5.977966 0.090986
1.117026 5.977966 0.091038
1.431747 5.977966 0.091289
1.746467 5.977966 0.091725
2.061188 5.977966 0.092137
2.375909 5.977966 0.092439
2.690630 5.977966 0.092746
3.005352 5.977966 0.093104
3.320073 5.977966 0.093830
3.634794 5.977966 0.095428
3.949515 5.977966 0.096923
4.264236 5.977966 0.098554
4.578956 5.977966 0.100632
4.893677 5.977966 0.104098
5.208398 5.977966 0.108136
5.523119 5.977966 0.113927
5.837841 5.977966 0.121768
6.152562 5.977966 0.132593
6.467283 5.977966 0.149226
6.782003 5.977966 0.181063
7.096724 5.977966 0.232021
7.411445 5.977966 0.322254
7.726166 5.977966 0.470022
8.040888 5.977966 0.661080
8.355608 5.977966 0.903271
8.670330 5.977966 1.148758
8.985050 5.977966 1.389745
9.299772 5.977966 1.610765
9.614492 5.977966 1.841540
9.929214 5.977966 2.045194
10.243935 5.977966 2.226990
10.558655 5.977966 2.415790
10.873377 5.977966 2.594215
11.188097 5.977966 2.749516
11.502819 5.977966 2.895085
11.817539 5.977966 3.046245
12.132261 5.977966 3.171417
12.446981 5.977966 3.254796
12.761703 5.977966 3.356759
13.076424 5.977966 3.430572
13.391144 5.977966 3.392714
13.705866 5.977966 3.346498
14.020586 5.977966 3.443611
14.335308 5.977966 3.499500
14.650028 5.977966 3.663605
14.964750 5.977966 3.849810
15.279470 5.977966 4.143055
15.594193 5.977966 0.000000
15.908913 5.977966 0.000000
16.223633 5.977966 0.000000
16.538355 5.977966 0.000000
16.853075 5.977966 0.000000
17.167797 5.977966 0.000000
17.482517 5.977966 0.000000
17.797239 5.977966 0.000000
18.111959 5.977966 0.000000
18.426680 5.977966 0.000000
18.741402 5.977966 0.000000
-7.065720 5.663246 0.085667
-6.750999 5.663246 0.093364
-6.436278 5.663246 0.092327
-6.121557 5.663246 0.092598
-5.806836 5.663246 0.092176
-5.492115 5.663246 0.091796
-5.177394 5.663246 0.091913
-4.862673 5.663246 0.092131
-4.547952 5.663246 0.092145
-4.233231 5.663246 0.091936
-3.918510 5.663246 0.091796
-3.603789 5.663246 0.091649
-3.289068 5.663246 0.091562
-2.974347 5.663246 0.091226
-2.659626 5.663246 0.090728
-2.344905 5.663246 0.090829
-2.030184 5.663246 0.091167
-1.715463 5.663246 0.091284
-1.400742 5.663246 0.091463
-1.086021 5.663246 0.091618
-0.771300 5.663246 0.091278
-0.456579 5.663246 0.091057
-0.141859 5.663246 0.091210
0.172863 5.663246 0.091359
0.487584 5.663246 0.091239
0.802305 5.663246 0.091135
1.117026 5.663246 0.091140
1.431747 5.663246 0.091263
1.746467 5.663246 0.091706
2.061188 5.663246 0.092199
2.375909 5.663246 0.092461
2.690630 5.663246 0.092711
3.005352 5.663246 0.093046
3.320073 5.663246 0.093829
3.634794 5.663246 0.095428
3.949515 5.663246 0.096741
4.264236 5.663246 0.098242
4.578956 5.663246 0.100534
4.893677 5.663246 0.104001
5.208398 5.663246 0.108477
5.523119 5.663246 0.114405
5.837841 5.663246 0.122641
6.152562 5.663246 0.133603
6.467283 5.663246 0.150448
6.782003 5.663246 0.181056
7.096724 5.663246 0.234021
7.411445 5.663246 0.330925
7.726166 5.663246 0.484500
8.040888 5.663246 0.682963
8.355608 5.663246 0.922876
8.670330 5.663246 1.175189
8.985050 5.663246 1.406312
9.299772 5.663246 1.616757
9.614492 5.663246 1.849330
9.929214 5.663246 2.052524
10.243935 5.663246 2.239475
10.558655 5.663246 2.409010
10.873377 5.663246 2.609164
11.188097 5.663246 2.763949
11.502819 5.663246 2.901743
11.817539 5.663246 3.035438
12.132261 5.663246 3.158895
12.446981 5.663246 3.245666
12.761703 5.663246 3.364854
13.076424 5.663246 3.397776
13.391144 5.663246 3.406514
13.705866 5.663246 3.376029
14.020586 5.663246 3.444199
14.335308 5.663246 3.487059
14.650028 5.663246 3.612094
14.964750 5.663246 3.933666
15.279470 5.663246 4.315629
15.594193 5.663246 0.000000
15.908913 5.663246 0.000000
16.223633 5.663246 0.000000
16.538355 5.663246 0.000000
16.853075 5.663246 0.000000
17.167797 5.663246 0.000000
17.482517 5.663246 0.000000
17.797239 5.663246 0.000000
18.111959 5.663246 0.000000
18.426680 5.663246 0.000000
18.741402 5.663246 0.000000
-7.065720 5.348526 0.090264
-6.750999 5.348526 0.093393
-6.436278 5.348526 0.092537
-6.121557 5.348526 0.092700
-5.806836 5.348526 0.092253
-5.492115 5.348526 0.092002
-5.177394 5.348526 0.092208
-4.862673 5.348526 0.092322
-4.547952 5.348526 0.092044
-4.233231 5.348526 0.091643
-3.918510 5.348526 0.091550
-3.603789 5.348526 0.091616
-3.289068 5.348526 0.091691
-2.974347 5.348526 0.091335
-2.659626 5.348526 0.090781
-2.344905 5.348526 0.090856
-2.030184 5.348526 0.091150
-1.715463 5.348526 0.091318
-1.400742 5.348526 0.091599
-1.086021 5.348526 0.091795
-0.771300 5.348526 0.091440
-0.456579 5.348526 0.091158
-0.141859 5.348526 0.091280
0.172863 5.348526 0.091502
0.487584 5.348526 0.091388
0.802305 5.348526 0.091275
1.117026 5.348526 0.091285
1.431747 5.348526 0.091316
1.746467 5.348526 0.091689
2.061188 5.348526 0.092097
2.375909 5.348526 0.092395
2.690630 5.348526 0.092719
3.005352 5.348526 0.093125
3.320073 5.348526 0.093847
3.634794 5.348526 0.095295
3.949515 5.348526 0.096646
4.264236 5.348526 0.098147
4.578956 5.348526 0.100367
4.893677 5.348526 0.104065
5.208398 5.348526 0.108699
5.523119 5.348526 0.115238
5.837841 5.348526 0.123206
6.152562 5.348526 0.134372
6.467283 5.348526 0.152044
6.782003 5.348526 0.182699
7.096724 5.348526 0.240012
7.411445 5.348526 0.336376
7.726166 5.348526 0.491691
8.040888 5.348526 0.698164
8.355608 5.348526 0.933923
8.670330 5.348526 1.183682
8.985050 5.348526 1.417236
9.299772 5.348526 1.633367
9.614492 5.348526 1.863318
9.929214 5.348526 2.059746
10.243935 5.348526 2.246609
10.558655 5.348526 2.419673
10.873377 5.348526 2.598887
11.188097 5.348526 2.778060
11.502819 5.348526 2.922982
11.817539 5.348526 3.078556
12.132261 5.348526 3.168618
12.446981 5.348526 3.279406
12.761703 5.348526 3.333606
13.076424 5.348526 3.391636
13.391144 5.348526 3.377166
13.705866 5.348526 3.386056
14.020586 5.348526 3.448640
14.335308 5.348526 3.504178
14.650028 5.348526 3.688857
14.964750 5.348526 3.987940
15.279470 5.348526 4.385880
15.594193 5.348526 0.000000
15.908913 5.348526 0.000000
16.223633 5.348526 0.000000
16.538355 5.348526 0.000000
16.853075 5.348526 0.000000
17.167797 5.348526 0.000000
17.482517 5.348526 0.000000
17.797239 5.348526 0.000000
18.111959 5.348526 0.000000
18.426680 5.348526 0.000000
18.741402 5.348526 0.000000
-7.065720 5.033806 0.093438
-6.750999 5.033806 0.093381
-6.436278 5.033806 0.092554
-6.121557 5.033806 0.092634
-5.806836 5.033806 0.092356
-5.492115 5.033806 0.092207
-5.177394 5.033806 0.092373
-4.862673 5.033806 0.092308
-4.547952 5.033806 0.091861
-4.233231 5.033806 0.091435
-3.918510 5.033806 0.091409
-3.603789 5.033806 0.091656
-3.289068 5.033806 0.091842
-2.974347 5.033806 0.091498
-2.659626 5.033806 0.090980
-2.344905 5.033806 0.090936
-2.030184 5.033806 0.091114
-1.715463 5.033806 0.091238
-1.400742 5.033806 0.091504
-1.086021 5.033806 0.091701
-0.771300 5.033806 0.091399
-0.456579 5.033806 0.091174
-0.141859 5.033806 0.091290
0.172863 5.033806 0.091524
0.487584 5.033806 0.091464
0.802305 5.033806 0.091397
1.117026 5.033806 0.091397
1.431747 5.033806 0.091372
1.746467 5.033806 0.091615
2.061188 5.033806 0.091858
2.375909 5.033806 0.092225
2.690630 5.033806 0.092721
3.005352 5.033806 0.093226
3.320073 5.033806 0.094042
3.634794 5.033806 0.095299
3.949515 5.033806 0.096644
4.264236 5.033806 0.098123
4.578956 5.033806 0.100846
4.893677 5.033806 0.104376
5.208398 5.033806 0.109233
5.523119 5.033806 0.115613
5.837841 5.033806 0.124223
6.152562 5.033806 0.135677
6.467283 5.033806 0.153449
6.782003 5.033806 0.185585
7.096724 5.033806 0.243765
7.411445 5.033806 0.343322
7.726166 5.033806 0.505623
8.040888 5.033806 0.713609
8.355608 5.033806 0.947069
8.670330 5.033806 1.190538
8.985050 5.033806 1.415329
9.299772 5.033806 1.645231
9.614492 5.033806 1.881281
9.929214 5.033806 2.067435
10.243935 5.033806 2.233539
10.558655 5.033806 2.414779
10.873377 5.033806 2.603298
11.188097 5.033806 2.770579
11.502819 5.033806 2.919575
11.817539 5.033806 3.090544
12.132261 5.033806 3.218472
12.446981 5.033806 3.261033
12.761703 5.033806 3.337111
13.076424 5.033806 3.393289
13.391144 5.033806 3.428459
13.705866 5.033806 3.409551
14.020586 5.033806 3.484921
14.335308 5.033806 3.525319
14.650028 5.033806 3.691816
14.964750 5.033806 4.060924
15.279470 5.033806 4.524616
15.594193 5.033806 0.000000
15.908913 5.033806 0.000000
16.223633 5.033806 0.000000
16.538355 5.033806 0.000000
16.853075 5.033806 0.000000
17.167797 5.033806 0.000000
17.482517 5.033806 0.000000
17.797239 5.033806 0.000000
18.111959 5.033806 0.000000
18.426680 5.033806 0.000000
18.741402 5.033806 0.000000
-7.065720 4.719086 0.094408
-6.750999 4.719086 0.093302
-6.436278 4.719086 0.092523
-6.121557 4.719086 0.092612
-5.806836 4.719086 0.092493
-5.492115 4.719086 0.092465
-5.177394 4.719086 0.092549
-4.862673 4.719086 0.092304
-4.547952 4.719086 0.091808
-4.233231 4.719086 0.091349
-3.918510 4.719086 0.091359
-3.603789 4.719086 0.091628
-3.289068 4.719086 0.091878
-2.974347 4.719086 0.091694
-2.659626 4.719086 0.091250
-2.344905 4.719086 0.091106
-2.030184 4.719086 0.091079
-1.715463 4.719086 0.091055
-1.400742 4.719086 0.091271
-1.086021 4.719086 0.091423
-0.771300 4.719086 0.091257
-0.456579 4.719086 0.091087
-0.141859 4.719086 0.091215
0.172863 4.719086 0.091441
0.487584 4.719086 0.091437
0.802305 4.719086 0.091334
1.117026 4.719086 0.091364
1.431747 4.719086 0.091438
1.746467 4.719086 0.091561
2.061188 4.719086 0.091605
2.375909 4.719086 0.092041
2.690630 4.719086 0.092720
3.005352 4.719086 0.093484
3.320073 4.719086 0.094278
3.634794 4.719086 0.095392
3.949515 4.719086 0.096484
4.264236 4.719086 0.098201
4.578956 4.719086 0.101138
4.893677 4.719086 0.104858
5.208398 4.719086 0.109640
5.523119 4.719086 0.116441
5.837841 4.719086 0.124527
6.152562 4.719086 0.136205
6.467283 4.719086 0.156954
6.782003 4.719086 0.192046
7.096724 4.719086 0.252105
7.411445 4.719086 0.351663
7.726166 4.719086 0.518901
8.040888 4.719086 0.725673
8.355608 4.719086 0.961849
8.670330 4.719086 1.201496
8.985050 4.719086 1.418250
9.299772 4.719086 1.648918
9.614492 4.719086 1.882126
9.929214 4.719086 2.081322
10.243935 4.719086 2.245545
10.558655 4.719086 2.412700
10.873377 4.719086 2.608315
11.188097 4.719086 2.781466
11.502819 4.719086 2.941856
11.817539 4.719086 3.088928
12.132261 4.719086 3.193378
12.446981 4.719086 3.296808
12.761703 4.719086 3.362489
13.076424 4.719086 3.413871
13.391144 4.719086 3.406163
13.705866 4.719086 3.403687
14.020586 4.719086 3.432812
14.335308 4.719086 3.596550
14.650028 4.719086 3.730471
14.964750 4.719086 4.204720
15.279470 4.719086 4.629963
15.594193 4.719086 0.000000
15.908913 4.719086 0.000000
16.223633 4.719086 0.000000
16.538355 4.719086 0.000000
16.853075 4.719086 0.000000
17.167797 4.719086 0.000000
17.482517 4.719086 0.000000
17.797239 4.719086 0.000000
18.111959 4.719086 0.000000
18.426680 4.719086 0.000000
18.741402 4.719086 0.000000
-7.065720 4.404362 0.095764
-6.750999 4.404362 0.093468
-6.436278 4.404362 0.092640
-6.121557 4.404362 0.092821
-5.806836 4.404362 0.092816
-5.492115 4.404362 0.092785
-5.177394 4.404362 0.092638
-4.862673 4.404362 0.092275
-4.547952 4.404362 0.091725
-4.233231 4.404362 0.091293
-3.918510 4.404362 0.091277
-3.603789 4.404362 0.091439
-3.289068 4.404362 0.091748
-2.974347 4.404362 0.091748
-2.659626 4.404362 0.091524
-2.344905 4.404362 0.091347
-2.030184 4.404362 0.091099
-1.715463 4.404362 0.090863
-1.400742 4.404362 0.090855
-1.086021 4.404362 0.090986
-0.771300 4.404362 0.090999
-0.456579 4.404362 0.090932
-0.141859 4.404362 0.091007
0.172863 4.404362 0.091224
0.487584 4.404362 0.091220
0.802305 4.404362 0.091130
1.117026 4.404362 0.091223
1.431747 4.404362 0.091502
1.746467 4.404362 0.091586
2.061188 4.404362 0.091520
2.375909 4.404362 0.091906
2.690630 4.404362 0.092700
3.005352 4.404362 0.093512
3.320073 4.404362 0.094338
3.634794 4.404362 0.095231
3.949515 4.404362 0.096560
4.264236 4.404362 0.098529
4.578956 4.404362 0.101513
4.893677 4.404362 0.105342
5.208398 4.404362 0.110180
5.523119 4.404362 0.116664
5.837841 4.404362 0.125068
6.152562 4.404362 0.137379
6.467283 4.404362 0.158039
6.782003 4.404362 0.196390
7.096724 4.404362 0.257227
7.411445 4.404362 0.363312
7.726166 4.404362 0.535502
8.040888 4.404362 0.747878
8.355608 4.404362 0.990521
8.670330 4.404362 1.231304
8.985050 4.404362 1.448472
9.299772 4.404362 1.669848
9.614492 4.404362 1.883242
9.929214 4.404362 2.082192
10.243935 4.404362 2.252221
10.558655 4.404362 2.426703
10.873377 4.404362 2.608310
11.188097 4.404362 2.777817
11.502819 4.404362 2.938094
11.817539 4.404362 3.074584
12.132261 4.404362 3.225888
12.446981 4.404362 3.317327
12.761703 4.404362 3.348340
13.076424 4.404362 3.420569
13.391144 4.404362 3.392716
13.705866 4.404362 3.387209
14.020586 4.404362 3.453576
14.335308 4.404362 3.589392
14.650028 4.404362 3.807246
14.964750 4.404362 4.234550
15.279470 4.404362 4.780220
15.594193 4.404362 0.000000
15.908913 4.404362 0.000000
16.223633 4.404362 0.000000
16.538355 4.404362 0.000000
16.853075 4.404362 0.000000
17.167797 4.404362 0.000000
17.482517 4.404362 0.000000
17.797239 4.404362 0.000000
18.111959 4.404362 0.000000
18.426680 4.404362 0.000000
18.741402 4.404362 0.000000
-7.065720 4.089642 0.096248
-6.750999 4.089642 0.093836
-6.436278 4.089642 0.092930
-6.121557 4.089642 0.093058
-5.806836 4.089642 0.093108
-5.492115 4.089642 0.092952
-5.177394 4.089642 0.092621
-4.862673 4.089642 0.092100
-4.547952 4.089642 0.091626
-4.233231 4.089642 0.091270
-3.918510 4.089642 0.091207
-3.603789 4.089642 0.091349
-3.289068 4.089642 0.091570
-2.974347 4.089642 0.091781
-2.659626 4.089642 0.091803
-2.344905 4.089642 0.091680
-2.030184 4.089642 0.091278
-1.715463 4.089642 0.090705
-1.400742 4.089642 0.090460
-1.086021 4.089642 0.090517
-0.771300 4.089642 0.090681
-0.456579 4.089642 0.090717
-0.141859 4.089642 0.090785
0.172863 4.089642 0.090980
0.487584 4.089642 0.091021
0.802305 4.089642 0.090935
1.117026 4.089642 0.091163
1.431747 4.089642 0.091522
1.746467 4.089642 0.091622
2.061188 4.089642 0.091505
2.375909 4.089642 0.091779
2.690630 4.089642 0.092589
3.005352 4.089642 0.093550
3.320073 4.089642 0.094284
3.634794 4.089642 0.095248
3.949515 4.089642 0.096715
4.264236 4.089642 0.099049
4.578956 4.089642 0.102246
4.893677 4.089642 0.105962
5.208398 4.089642 0.110660
5.523119 4.089642 0.117418
5.837841 4.089642 0.126724
6.152562 4.089642 0.138503
6.467283 4.089642 0.160721
6.782003 4.089642 0.198930
7.096724 4.089642 0.263262
7.411445 4.089642 0.375492
7.726166 4.089642 0.547857
8.040888 4.089642 0.763887
8.355608 4.089642 1.009103
8.670330 4.089642 1.247681
8.985050 4.089642 1.468513
9.299772 4.089642 1.687102
9.614492 4.089642 1.892996
9.929214 4.089642 2.075483
10.243935 4.089642 2.267157
10.558655 4.089642 2.458154
10.873377 4.089642 2.625006
11.188097 4.089642 2.802936
11.502819 4.089642 2.938956
11.817539 4.089642 3.079162
12.132261 4.089642 3.223809
12.446981 4.089642 3.275274
12.761703 4.089642 3.365366
13.076424 4.089642 3.404042
13.391144 4.089642 3.352972
13.705866 4.089642 3.367102
14.020586 4.089642 3.481271
14.335308 4.089642 3.619497
14.650028 4.089642 3.811455
14.964750 4.089642 4.268569
15.279470 4.089642 4.828557
15.594193 4.089642 0.000000
15.908913 4.089642 0.000000
16.223633 4.089642 0.000000
16.538355 4.089642 0.000000
16.853075 4.089642 0.000000
17.167797 4.089642 0.000000
17.482517 4.089642 0.000000
17.797239 4.089642 0.000000
18.111959 4.089642 0.000000
18.426680 4.089642 0.000000
18.741402 4.089642 0.000000
-7.065720 3.774921 0.096652
-6.750999 3.774921 0.094141
-6.436278 3.774921 0.093170
-6.121557 3.774921 0.093219
-5.806836 3.774921 0.093183
-5.492115 3.774921 0.092967
-5.177394 3.774921 0.092532
-4.862673 3.774921 0.092049
-4.547952 3.774921 0.091687
-4.233231 3.774921 0.091397
-3.918510 3.774921 0.091358
-3.603789 3.774921 0.091393
-3.289068 3.774921 0.091583
-2.974347 3.774921 0.091916
-2.659626 3.774921 0.092056
-2.344905 3.774921 0.091895
-2.030184 3.774921 0.091371
-1.715463 3.774921 0.090580
-1.400742 3.774921 0.090198
-1.086021 3.774921 0.090329
-0.771300 3.774921 0.090658
-0.456579 3.774921 0.090708
-0.141859 3.774921 0.090656
0.172863 3.774921 0.090761
0.487584 3.774921 0.090806
0.802305 3.774921 0.090740
1.117026 3.774921 0.091090
1.431747 3.774921 0.091478
1.746467 3.774921 0.091536
2.061188 3.774921 0.091558
2.375909 3.774921 0.091844
2.690630 3.774921 0.092642
3.005352 3.774921 0.093736
3.320073 3.774921 0.094471
3.634794 3.774921 0.095385
3.949515 3.774921 0.097234
4.264236 3.774921 0.099492
4.578956 3.774921 0.102468
4.893677 3.774921 0.106180
5.208398 3.774921 0.111136
5.523119 3.774921 0.118051
5.837841 3.774921 0.126651
6.152562 3.774921 0.139390
6.467283 3.774921 0.162187
6.782003 3.774921 0.201732
7.096724 3.774921 0.268031
7.411445 3.774921 0.383415
7.726166 3.774921 0.563308
8.040888 3.774921 0.781170
8.355608 3.774921 1.031323
8.670330 3.774921 1.259295
8.985050 3.774921 1.485765
9.299772 3.774921 1.697194
9.614492 3.774921 1.892270
9.929214 3.774921 2.091322
10.243935 3.774921 2.260206
10.558655 3.774921 2.465376
10.873377 3.774921 2.634427
11.188097 3.774921 2.816588
11.502819 3.774921 2.972077
11.817539 3.774921 3.071162
12.132261 3.774921 3.196033
12.446981 3.774921 3.256420
12.761703 3.774921 3.320428
13.076424 3.774921 3.365092
13.391144 3.774921 3.348421
13.705866 3.774921 3.364005
14.020586 3.774921 3.500266
14.335308 3.774921 3.652725
14.650028 3.774921 3.825699
14.964750 3.774921 4.443367
15.279470 3.774921 5.175904
15.594193 3.774921 0.000000
15.908913 3.774921 0.000000
16.223633 3.774921 0.000000
16.538355 3.774921 0.000000
16.853075 3.774921 0.000000
17.167797 3.774921 0.000000
17.482517 3.774921 0.000000
17.797239 3.774921 0.000000
18.111959 3.774921 0.000000
18.426680 3.774921 0.000000
18.741402 3.774921 0.000000
-7.065720 3.460201 0.096974
-6.750999 3.460201 0.094404
-6.436278 3.460201 0.093265
-6.121557 3.460201 0.093230
-5.806836 3.460201 0.093192
-5.492115 3.460201 0.092973
-5.177394 3.460201 0.092551
-4.862673 3.460201 0.092052
-4.547952 3.460201 0.091821
-4.233231 3.460201 0.091642
-3.918510 3.460201 0.091540
-3.603789 3.460201 0.091512
-3.289068 3.460201 0.091602
-2.974347 3.460201 0.091984
-2.659626 3.460201 0.092213
-2.344905 3.460201 0.091977
-2.030184 3.460201 0.091296
-1.715463 3.460201 0.090539
-1.400742 3.460201 0.090192
-1.086021 3.460201 0.090429
-0.771300 3.460201 0.090892
-0.456579 3.460201 0.091015
-0.141859 3.460201 0.090743
0.172863 3.460201 0.090629
0.487584 3.460201 0.090603
0.802305 3.460201 0.090642
1.117026 3.460201 0.091115
1.431747 3.460201 0.091549
1.746467 3.460201 0.091502
2.061188 3.460201 0.091726
2.375909 3.460201 0.092204
2.690630 3.460201 0.092920
3.005352 3.460201 0.093983
3.320073 3.460201 0.094754
3.634794 3.460201 0.095651
3.949515 3.460201 0.097273
4.264236 3.460201 0.099562
4.578956 3.460201 0.102642
4.893677 3.460201 0.106585
5.208398 3.460201 0.111743
5.523119 3.460201 0.117647
5.837841 3.460201 0.127429
6.152562 3.460201 0.141342
6.467283 3.460201 0.164659
6.782003 3.460201 0.204919
7.096724 3.460201 0.274270
7.411445 3.460201 0.395101
7.726166 3.460201 0.576681
8.040888 3.460201 0.810876
8.355608 3.460201 1.044627
8.670330 3.460201 1.275499
8.985050 3.460201 1.496879
9.299772 3.460201 1.722068
9.614492 3.460201 1.906088
9.929214 3.460201 2.105552
10.243935 3.460201 2.292811
10.558655 3.460201 2.476461
10.873377 3.460201 2.675388
11.188097 3.460201 2.840144
11.502819 3.460201 2.989206
11.817539 3.460201 3.085226
12.132261 3.460201 3.184991
12.446981 3.460201 3.245939
12.761703 3.460201 3.305370
13.076424 3.460201 3.338671
13.391144 3.460201 3.338098
13.705866 3.460201 3.326046
14.020586 3.460201 3.500910
14.335308 3.460201 3.592828
14.650028 3.460201 3.822980
14.964750 3.460201 4.381972
15.279470 3.460201 4.252090
15.594193 3.460201 0.000000
15.908913 3.460201 0.000000
16.223633 3.460201 0.000000
16.538355 3.460201 0.000000
16.853075 3.460201 0.000000
17.167797 3.460201 0.000000
17.482517 3.460201 0.000000
17.797239 3.460201 0.000000
18.111959 3.460201 0.000000
18.426680 3.460201 0.000000
18.741402 3.460201 0.000000
-7.065720 3.145477 0.097306
-6.750999 3.145477 0.094592
-6.436278 3.145477 0.093321
-6.121557 3.145477 0.093136
-5.806836 3.145477 0.093052
-5.492115 3.145477 0.092797
-5.177394 3.145477 0.092481
-4.862673 3.145477 0.092104
-4.547952 3.145477 0.091948
-4.233231 3.145477 0.091755
-3.918510 3.145477 0.091769
-3.603789 3.145477 0.091700
-3.289068 3.145477 0.091712
-2.974347 3.145477 0.092044
-2.659626 3.145477 0.092252
-2.344905 3.145477 0.091933
-2.030184 3.145477 0.091267
-1.715463 3.145477 0.090617
-1.400742 3.145477 0.090376
-1.086021 3.145477 0.090705
-0.771300 3.145477 0.091365
-0.456579 3.145477 0.091493
-0.141859 3.145477 0.090988
0.172863 3.145477 0.090618
0.487584 3.145477 0.090663
0.802305 3.145477 0.090869
1.117026 3.145477 0.091375
1.431747 3.145477 0.091747
1.746467 3.145477 0.091667
2.061188 3.145477 0.091907
2.375909 3.145477 0.092467
2.690630 3.145477 0.093139
3.005352 3.145477 0.094059
3.320073 3.145477 0.094850
3.634794 3.145477 0.095950
3.949515 3.145477 0.097611
4.264236 3.145477 0.099888
4.578956 3.145477 0.102758
4.893677 3.145477 0.106846
5.208398 3.145477 0.112030
5.523119 3.145477 0.118378
5.837841 3.145477 0.128024
6.152562 3.145477 0.142607
6.467283 3.145477 0.167433
6.782003 3.145477 0.210451
7.096724 3.145477 0.279323
7.411445 3.145477 0.407928
7.726166 3.145477 0.597108
8.040888 3.145477 0.818407
8.355608 3.145477 1.059584
8.670330 3.145477 1.284596
8.985050 3.145477 1.505720
9.299772 3.145477 1.728247
9.614492 3.145477 1.929541
9.929214 3.145477 2.127901
10.243935 3.145477 2.298651
10.558655 3.145477 2.499998
10.873377 3.145477 2.684348
11.188097 3.145477 2.858345
11.502819 3.145477 2.988594
11.817539 3.145477 3.093641
12.132261 3.145477 3.189526
12.446981 3.145477 3.253326
12.761703 3.145477 3.306202
13.076424 3.145477 3.302288
13.391144 3.145477 3.331247
13.705866 3.145477 3.327550
14.020586 3.145477 3.432907
14.335308 3.145477 3.517800
14.650028 3.145477 3.761902
14.964750 3.145477 4.257339
15.279470 3.145477 3.970250
15.594193 3.145477 0.000000
15.908913 3.145477 0.000000
16.223633 3.145477 0.000000
16.538355 3.145477 0.000000
16.853075 3.145477 0.000000
17.167797 3.145477 0.000000
17.482517 3.145477 0.000000
17.797239 3.145477 0.000000
18.111959 3.145477 0.000000
18.426680 3.145477 0.000000
18.741402 3.145477 0.000000
-7.065720 2.830757 0.097261
-6.750999 2.830757 0.094430
-6.436278 2.830757 0.093161
-6.121557 2.830757 0.092915
-5.806836 2.830757 0.092767
-5.492115 2.830757 0.092548
-5.177394 2.830757 0.092416
-4.862673 2.830757 0.092224
-4.547952 2.830757 0.092142
-4.233231 2.830757 0.092035
-3.918510 2.830757 0.091992
-3.603789 2.830757 0.091882
-3.289068 2.830757 0.091852
-2.974347 2.830757 0.092035
-2.659626 2.830757 0.092049
-2.344905 2.830757 0.091717
-2.030184 2.830757 0.091142
-1.715463 2.830757 0.090712
-1.400742 2.830757 0.090661
-1.086021 2.830757 0.091042
-0.771300 2.830757 0.091710
-0.456579 2.830757 0.091966
-0.141859 2.830757 0.091376
0.172863 2.830757 0.090833
0.487584 2.830757 0.090963
0.802305 2.830757 0.091274
1.117026 2.830757 0.091662
1.431747 2.830757 0.091889
1.746467 2.830757 0.091805
2.061188 2.830757 0.092094
2.375909 2.830757 0.092650
2.690630 2.830757 0.093311
3.005352 2.830757 0.093993
3.320073 2.830757 0.094943
3.634794 2.830757 0.096272
3.949515 2.830757 0.097913
4.264236 2.830757 0.099959
4.578956 2.830757 0.102936
4.893677 2.830757 0.107031
5.208398 2.830757 0.112298
5.523119 2.830757 0.118797
5.837841 2.830757 0.128508
6.152562 2.830757 0.144225
6.467283 2.830757 0.168983
6.782003 2.830757 0.216074
7.096724 2.830757 0.292928
7.411445 2.830757 0.421301
7.726166 2.830757 0.605489
8.040888 2.830757 0.833287
8.355608 2.830757 1.074425
8.670330 2.830757 1.305008
8.985050 2.830757 1.534965
9.299772 2.830757 1.751539
9.614492 2.830757 1.957547
9.929214 2.830757 2.147551
10.243935 2.830757 2.331315
10.558655 2.830757 2.515130
10.873377 2.830757 2.698936
11.188097 2.830757 2.876597
11.502819 2.830757 3.003883
11.817539 2.830757 3.095556
12.132261 2.830757 3.198774
12.446981 2.830757 3.247122
12.761703 2.830757 3.309130
13.076424 2.830757 3.339124
13.391144 2.830757 3.344099
13.705866 2.830757 3.333558
14.020586 2.830757 3.428373
14.335308 2.830757 3.506735
14.650028 2.830757 3.663847
14.964750 2.830757 4.208819
15.279470 2.830757 3.693179
15.594193 2.830757 0.000000
15.908913 2.830757 0.000000
16.223633 2.830757 0.000000
16.538355 2.830757 0.000000
16.853075 2.830757 0.000000
17.167797 2.830757 0.000000
17.482517 2.830757 0.000000
17.797239 2.830757 0.000000
18.111959 2.830757 0.000000
18.426680 2.830757 0.000000
18.741402 2.830757 0.000000
-7.065720 2.516037 0.096911
-6.750999 2.516037 0.094177
-6.436278 2.516037 0.092971
-6.121557 2.516037 0.092760
-5.806836 2.516037 0.092557
-5.492115 2.516037 0.092391
-5.177394 2.516037 0.092562
-4.862673 2.516037 0.092560
-4.547952 2.516037 0.092432
-4.233231 2.516037 0.092308
-3.918510 2.516037 0.092148
-3.603789 2.516037 0.092065
-3.289068 2.516037 0.091920
-2.974347 2.516037 0.091885
-2.659626 2.516037 0.091761
-2.344905 2.516037 0.091475
-2.030184 2.516037 0.091078
-1.715463 2.516037 0.090961
-1.400742 2.516037 0.091072
-1.086021 2.516037 0.091381
-0.771300 2.516037 0.092011
-0.456579 2.516037 0.092302
-0.141859 2.516037 0.091727
0.172863 2.516037 0.091157
0.487584 2.516037 0.091310
0.802305 2.516037 0.091630
1.117026 2.516037 0.091894
1.431747 2.516037 0.092057
1.746467 2.516037 0.092121
2.061188 2.516037 0.092469
2.375909 2.516037 0.093005
2.690630 2.516037 0.093492
3.005352 2.516037 0.094083
3.320073 2.516037 0.094999
3.634794 2.516037 0.096340
3.949515 2.516037 0.098175
4.264236 2.516037 0.100238
4.578956 2.516037 0.103276
4.893677 2.516037 0.107250
5.208398 2.516037 0.112334
5.523119 2.516037 0.118966
5.837841 2.516037 0.129280
6.152562 2.516037 0.145644
6.467283 2.516037 0.171874
6.782003 2.516037 0.218167
7.096724 2.516037 0.299583
7.411445 2.516037 0.433347
7.726166 2.516037 0.625553
8.040888 2.516037 0.851553
8.355608 2.516037 1.089690
8.670330 2.516037 1.313711
8.985050 2.516037 1.544384
9.299772 2.516037 1.778283
9.614492 2.516037 1.975385
9.929214 2.516037 2.157488
10.243935 2.516037 2.357172
10.558655 2.516037 2.528434
10.873377 2.516037 2.708134
11.188097 2.516037 2.869985
11.502819 2.516037 3.026895
11.817539 2.516037 3.118180
12.132261 2.516037 3.197296
12.446981 2.516037 3.236819
12.761703 2.516037 3.277129
13.076424 2.516037 3.365706
13.391144 2.516037 3.372965
13.705866 2.516037 3.357853
14.020586 2.516037 3.421691
14.335308 2.516037 3.467161
14.650028 2.516037 3.646981
14.964750 2.516037 4.065788
15.279470 2.516037 3.424105
15.594193 2.516037 0.000000
15.908913 2.516037 0.000000
16.223633 2.516037 0.000000
16.538355 2.516037 0.000000
16.853075 2.516037 0.000000
17.167797 2.516037 0.000000
17.482517 2.516037 0.000000
17.797239 2.516037 0.000000
18.111959 2.516037 0.000000
18.426680 2.516037 0.000000
18.741402 2.516037 0.000000
-7.065720 2.201317 0.096591
-6.750999 2.201317 0.094000
-6.436278 2.201317 0.092969
-6.121557 2.201317 0.092782
-5.806836 2.201317 0.092464
-5.492115 2.201317 0.092428
-5.177394 2.201317 0.092679
-4.862673 2.201317 0.092731
-4.547952 2.201317 0.092603
-4.233231 2.201317 0.092410
-3.918510 2.201317 0.092231
-3.603789 2.201317 0.092155
-3.289068 2.201317 0.091917
-2.974347 2.201317 0.091658
-2.659626 2.201317 0.091456
-2.344905 2.201317 0.091279
-2.030184 2.201317 0.091107
-1.715463 2.201317 0.091261
-1.400742 2.201317 0.091508
-1.086021 2.201317 0.091675
-0.771300 2.201317 0.092113
-0.456579 2.201317 0.092439
-0.141859 2.201317 0.092059
0.172863 2.201317 0.091562
0.487584 2.201317 0.091630
0.802305 2.201317 0.091910
1.117026 2.201317 0.092095
1.431747 2.201317 0.092282
1.746467 2.201317 0.092454
2.061188 2.201317 0.092770
2.375909 2.201317 0.093153
2.690630 2.201317 0.093439
3.005352 2.201317 0.093889
3.320073 2.201317 0.094806
3.634794 2.201317 0.096260
3.949515 2.201317 0.098014
4.264236 2.201317 0.100364
4.578956 2.201317 0.103625
4.893677 2.201317 0.107535
5.208398 2.201317 0.112650
5.523119 2.201317 0.120087
5.837841 2.201317 0.130666
6.152562 2.201317 0.147611
6.467283 2.201317 0.176785
6.782003 2.201317 0.224196
7.096724 2.201317 0.307780
7.411445 2.201317 0.452614
7.726166 2.201317 0.652752
8.040888 2.201317 0.875821
8.355608 2.201317 1.098871
8.670330 2.201317 1.331079
8.985050 2.201317 1.562364
9.299772 2.201317 1.790794
9.614492 2.201317 2.002137
9.929214 2.201317 2.183779
10.243935 2.201317 2.370505
10.558655 2.201317 2.549722
10.873377 2.201317 2.721876
11.188097 2.201317 2.877930
11.502819 2.201317 3.016267
11.817539 2.201317 3.121309
12.132261 2.201317 3.175391
12.446981 2.201317 3.223659
12.761703 2.201317 3.250960
13.076424 2.201317 3.325259
13.391144 2.201317 3.365074
13.705866 2.201317 3.366404
14.020586 2.201317 3.383797
14.335308 2.201317 3.428529
14.650028 2.201317 3.553635
14.964750 2.201317 4.000971
15.279470 2.201317 3.296881
15.594193 2.201317 0.000000
15.908913 2.201317 0.000000
16.223633 2.201317 0.000000
16.538355 2.201317 0.000000
16.853075 2.201317 0.000000
17.167797 2.201317 0.000000
17.482517 2.201317 0.000000
17.797239 2.201317 0.000000
18.111959 2.201317 0.000000
18.426680 2.201317 0.000000
18.741402 2.201317 0.000000
-7.065720 1.886597 0.096215
-6.750999 1.886597 0.093690
-6.436278 1.886597 0.092862
-6.121557 1.886597 0.092716
-5.806836 1.886597 0.092414
-5.492115 1.886597 0.092460
-5.177394 1.886597 0.092835
-4.862673 1.886597 0.092843
-4.547952 1.886597 0.092634
-4.233231 1.886597 0.092419
-3.918510 1.886597 0.092257
-3.603789 1.886597 0.092152
-3.289068 1.886597 0.091867
-2.974347 1.886597 0.091437
-2.659626 1.886597 0.091067
-2.344905 1.886597 0.091148
-2.030184 1.886597 0.091248
-1.715463 1.886597 0.091619
-1.400742 1.886597 0.091868
-1.086021 1.886597 0.091901
-0.771300 1.886597 0.092180
-0.456579 1.886597 0.092556
-0.141859 1.886597 0.092493
0.172863 1.886597 0.092042
0.487584 1.886597 0.091908
0.802305 1.886597 0.091983
1.117026 1.886597 0.092102
1.431747 1.886597 0.092347
1.746467 1.886597 0.092583
2.061188 1.886597 0.092830
2.375909 1.886597 0.093181
2.690630 1.886597 0.093533
3.005352 1.886597 0.093977
3.320073 1.886597 0.094953
3.634794 1.886597 0.096475
3.949515 1.886597 0.098254
4.264236 1.886597 0.100628
4.578956 1.886597 0.103588
4.893677 1.886597 0.107765
5.208398 1.886597 0.113253
5.523119 1.886597 0.120647
5.837841 1.886597 0.131884
6.152562 1.886597 0.149141
6.467283 1.886597 0.178673
6.782003 1.886597 0.229501
7.096724 1.886597 0.316862
7.411445 1.886597 0.467032
7.726166 1.886597 0.665529
8.040888 1.886597 0.893332
8.355608 1.886597 1.124887
8.670330 1.886597 1.349966
8.985050 1.886597 1.576219
9.299772 1.886597 1.807305
9.614492 1.886597 2.022545
9.929214 1.886597 2.211289
10.243935 1.886597 2.394548
10.558655 1.886597 2.562086
10.873377 1.886597 2.729526
11.188097 1.886597 2.881499
11.502819 1.886597 3.012404
11.817539 1.886597 3.122548
12.132261 1.886597 3.154941
12.446981 1.886597 3.191197
12.761703 1.886597 3.240947
13.076424 1.886597 3.327522
13.391144 1.886597 3.341625
13.705866 1.886597 3.309054
14.020586 1.886597 3.330761
14.335308 1.886597 3.431215
14.650028 1.886597 3.562914
14.964750 1.886597 3.903055
15.279470 1.886597 1.905577
15.594193 1.886597 0.000000
15.908913 1.886597 0.000000
16.223633 1.886597 0.000000
16.538355 1.886597 0.000000
16.853075 1.886597 0.000000
17.167797 1.886597 0.000000
17.482517 1.886597 0.000000
17.797239 1.886597 0.000000
18.111959 1.886597 0.000000
18.426680 1.886597 0.000000
18.741402 1.886597 0.000000
-7.065720 1.571873 0.095849
-6.750999 1.571873 0.093409
-6.436278 1.571873 0.092781
-6.121557 1.571873 0.092805
-5.806836 1.571873 0.092510
-5.492115 1.571873 0.092642
-5.177394 1.571873 0.093034
-4.862673 1.571873 0.092977
-4.547952 1.571873 0.092658
-4.233231 1.571873 0.092367
-3.918510 1.571873 0.092206
-3.603789 1.571873 0.092055
-3.289068 1.571873 0.091675
-2.974347 1.571873 0.091180
-2.659626 1.571873 0.090949
-2.344905 1.571873 0.091199
-2.030184 1.571873 0.091497
-1.715463 1.571873 0.091960
-1.400742 1.571873 0.092171
-1.086021 1.571873 0.092063
-0.771300 1.571873 0.092188
-0.456579 1.571873 0.092601
-0.141859 1.571873 0.092785
0.172863 1.571873 0.092485
0.487584 1.571873 0.091993
0.802305 1.571873 0.091828
1.117026 1.571873 0.091939
1.431747 1.571873 0.092325
1.746467 1.571873 0.092644
2.061188 1.571873 0.092809
2.375909 1.571873 0.093255
2.690630 1.571873 0.093893
3.005352 1.571873 0.094431
3.320073 1.571873 0.095358
3.634794 1.571873 0.096816
3.949515 1.571873 0.098489
4.264236 1.571873 0.100973
4.578956 1.571873 0.103694
4.893677 1.571873 0.108278
5.208398 1.571873 0.113826
5.523119 1.571873 0.121146
5.837841 1.571873 0.132839
6.152562 1.571873 0.151166
6.467283 1.571873 0.181959
6.782003 1.571873 0.231814
7.096724 1.571873 0.325849
7.411445 1.571873 0.475105
7.726166 1.571873 0.685604
8.040888 1.571873 0.914705
8.355608 1.571873 1.146656
8.670330 1.571873 1.356429
8.985050 1.571873 1.585925
9.299772 1.571873 1.814755
9.614492 1.571873 2.027102
9.929214 1.571873 2.217695
10.243935 1.571873 2.406866
10.558655 1.571873 2.578146
10.873377 1.571873 2.726182
11.188097 1.571873 2.888454
11.502819 1.571873 3.010036
11.817539 1.571873 3.075290
12.132261 1.571873 3.171993
12.446981 1.571873 3.216048
12.761703 1.571873 3.249578
13.076424 1.571873 3.300441
13.391144 1.571873 3.316438
13.705866 1.571873 3.333639
14.020586 1.571873 3.364090
14.335308 1.571873 3.374217
14.650028 1.571873 3.548604
14.964750 1.571873 3.912178
15.279470 1.571873 0.000000
15.594193 1.571873 0.000000
15.908913 1.571873 0.000000
16.223633 1.571873 0.000000
16.538355 1.571873 0.000000
16.853075 1.571873 0.000000
17.167797 1.571873 0.000000
17.482517 1.571873 0.000000
17.797239 1.571873 0.000000
18.111959 1.571873 0.000000
18.426680 1.571873 0.000000
18.741402 1.571873 0.000000
-7.065720 1.257153 0.095820
-6.750999 1.257153 0.093446
-6.436278 1.257153 0.092961
-6.121557 1.257153 0.093119
-5.806836 1.257153 0.092889
-5.492115 1.257153 0.092914
-5.177394 1.257153 0.093086
-4.862673 1.257153 0.092901
-4.547952 1.257153 0.092537
-4.233231 1.257153 0.092209
-3.918510 1.257153 0.092083
-3.603789 1.257153 0.091897
-3.289068 1.257153 0.091495
-2.974347 1.257153 0.091069
-2.659626 1.257153 0.090973
-2.344905 1.257153 0.091324
-2.030184 1.257153 0.091748
-1.715463 1.257153 0.092171
-1.400742 1.257153 0.092234
-1.086021 1.257153 0.092009
-0.771300 1.257153 0.092019
-0.456579 1.257153 0.092452
-0.141859 1.257153 0.092839
0.172863 1.257153 0.092615
0.487584 1.257153 0.092050
0.802305 1.257153 0.091818
1.117026 1.257153 0.092066
1.431747 1.257153 0.092483
1.746467 1.257153 0.092679
2.061188 1.257153 0.092709
2.375909 1.257153 0.093257
2.690630 1.257153 0.094029
3.005352 1.257153 0.094716
3.320073 1.257153 0.095541
3.634794 1.257153 0.096915
3.949515 1.257153 0.098829
4.264236 1.257153 0.101159
4.578956 1.257153 0.104020
4.893677 1.257153 0.108890
5.208398 1.257153 0.114518
5.523119 1.257153 0.122504
5.837841 1.257153 0.134436
6.152562 1.257153 0.153987
6.467283 1.257153 0.185204
6.782003 1.257153 0.240148
7.096724 1.257153 0.334988
7.411445 1.257153 0.491646
7.726166 1.257153 0.697505
8.040888 1.257153 0.933238
8.355608 1.257153 1.161516
8.670330 1.257153 1.384652
8.985050 1.257153 1.599893
9.299772 1.257153 1.825051
9.614492 1.257153 2.030658
9.929214 1.257153 2.222162
10.243935 1.257153 2.415480
10.558655 1.257153 2.587042
10.873377 1.257153 2.733848
11.188097 1.257153 2.885878
11.502819 1.257153 2.990539
11.817539 1.257153 3.092438
12.132261 1.257153 3.133714
12.446981 1.257153 3.218210
12.761703 1.257153 3.279885
13.076424 1.257153 3.342760
13.391144 1.257153 3.291820
13.705866 1.257153 3.327621
14.020586 1.257153 3.350073
14.335308 1.257153 3.394902
14.650028 1.257153 3.594970
14.964750 1.257153 3.935598
15.279470 1.257153 0.000000
15.594193 1.257153 0.000000
15.908913 1.257153 0.000000
16.223633 1.257153 0.000000
16.538355 1.257153 0.000000
16.853075 1.257153 0.000000
17.167797 1.257153 0.000000
17.482517 1.257153 0.000000
17.797239 1.257153 0.000000
18.111959 1.257153 0.000000
18.426680 1.257153 0.000000
18.741402 1.257153 0.000000
-7.065720 0.942432 0.096152
-6.750999 0.942432 0.093773
-6.436278 0.942432 0.093119
-6.121557 0.942432 0.093304
-5.806836 0.942432 0.093248
-5.492115 0.942432 0.093140
-5.177394 0.942432 0.092988
-4.862673 0.942432 0.092801
-4.547952 0.942432 0.092493
-4.233231 0.942432 0.092149
-3.918510 0.942432 0.091996
-3.603789 0.942432 0.091828
-3.289068 0.942432 0.091465
-2.974347 0.942432 0.091094
-2.659626 0.942432 0.091178
-2.344905 0.942432 0.091606
-2.030184 0.942432 0.091971
-1.715463 0.942432 0.092183
-1.400742 0.942432 0.092097
-1.086021 0.942432 0.091813
-0.771300 0.942432 0.091812
-0.456579 0.942432 0.092324
-0.141859 0.942432 0.092771
0.172863 0.942432 0.092635
0.487584 0.942432 0.092119
0.802305 0.942432 0.091902
1.117026 0.942432 0.092198
1.431747 0.942432 0.092446
1.746467 0.942432 0.092423
2.061188 0.942432 0.092502
2.375909 0.942432 0.093163
2.690630 0.942432 0.094035
3.005352 0.942432 0.094979
3.320073 0.942432 0.095904
3.634794 0.942432 0.097210
3.949515 0.942432 0.099268
4.264236 0.942432 0.101410
4.578956 0.942432 0.104539
4.893677 0.942432 0.109355
5.208398 0.942432 0.115686
5.523119 0.942432 0.123378
5.837841 0.942432 0.136045
6.152562 0.942432 0.155273
6.467283 0.942432 0.188310
6.782003 0.942432 0.248536
7.096724 0.942432 0.345576
7.411445 0.942432 0.503941
7.726166 0.942432 0.727802
8.040888 0.942432 0.955658
8.355608 0.942432 1.179791
8.670330 0.942432 1.404950
8.985050 0.942432 1.610060
9.299772 0.942432 1.833612
9.614492 0.942432 2.033792
9.929214 0.942432 2.246249
10.243935 0.942432 2.416444
10.558655 0.942432 2.581125
10.873377 0.942432 2.749914
11.188097 0.942432 2.888212
11.502819 0.942432 2.973389
11.817539 0.942432 3.059980
12.132261 0.942432 3.129390
12.446981 0.942432 3.232698
12.761703 0.942432 3.280706
13.076424 0.942432 3.316090
13.391144 0.942432 3.291684
13.705866 0.942432 3.280715
14.020586 0.942432 3.325685
14.335308 0.942432 3.434804
14.650028 0.942432 3.666672
14.964750 0.942432 3.959642
15.279470 0.942432 0.000000
15.594193 0.942432 0.000000
15.908913 0.942432 0.000000
16.223633 0.942432 0.000000
16.538355 0.942432 0.000000
16.853075 0.942432 0.000000
17.167797 0.942432 0.000000
17.482517 0.942432 0.000000
17.797239 0.942432 0.000000
18.111959 0.942432 0.000000
18.426680 0.942432 0.000000
18.741402 0.942432 0.000000
-7.065720 0.627712 0.096708
-6.750999 0.627712 0.094160
-6.436278 0.627712 0.093332
-6.121557 0.627712 0.093564
-5.806836 0.627712 0.093573
-5.492115 0.627712 0.093372
-5.177394 0.627712 0.093012
-4.862673 0.627712 0.092808
-4.547952 0.627712 0.092561
-4.233231 0.627712 0.092134
-3.918510 0.627712 0.091948
-3.603789 0.627712 0.091860
-3.289068 0.627712 0.091591
-2.974347 0.627712 0.091340
-2.659626 0.627712 0.091548
-2.344905 0.627712 0.092066
-2.030184 0.627712 0.092240
-1.715463 0.627712 0.092060
-1.400742 0.627712 0.091740
-1.086021 0.627712 0.091420
-0.771300 0.627712 0.091495
-0.456579 0.627712 0.092028
-0.141859 0.627712 0.092438
0.172863 0.627712 0.092317
0.487584 0.627712 0.091952
0.802305 0.627712 0.091849
1.117026 0.627712 0.092174
1.431747 0.627712 0.092351
1.746467 0.627712 0.092281
2.061188 0.627712 0.092605
2.375909 0.627712 0.093383
2.690630 0.627712 0.094250
3.005352 0.627712 0.095316
3.320073 0.627712 0.096340
3.634794 0.627712 0.097482
3.949515 0.627712 0.099242
4.264236 0.627712 0.101755
4.578956 0.627712 0.105083
4.893677 0.627712 0.109793
5.208398 0.627712 0.116030
5.523119 0.627712 0.124799
5.837841 0.627712 0.137387
6.152562 0.627712 0.157150
6.467283 0.627712 0.192718
6.782003 0.627712 0.254537
7.096724 0.627712 0.360437
7.411445 0.627712 0.533753
7.726166 0.627712 0.743208
8.040888 0.627712 0.977161
8.355608 0.627712 1.197054
8.670330 0.627712 1.420150
8.985050 0.627712 1.642130
9.299772 0.627712 1.838016
9.614492 0.627712 2.047409
9.929214 0.627712 2.268329
10.243935 0.627712 2.432973
10.558655 0.627712 2.588844
10.873377 0.627712 2.767288
11.188097 0.627712 2.888325
11.502819 0.627712 2.976728
11.817539 0.627712 3.014214
12.132261 0.627712 3.114851
12.446981 0.627712 3.216216
12.761703 0.627712 3.253505
13.076424 0.627712 3.274436
13.391144 0.627712 3.263422
13.705866 0.627712 3.290667
14.020586 0.627712 3.358106
14.335308 0.627712 3.509587
14.650028 0.627712 3.722240
14.964750 0.627712 3.197602
15.279470 0.627712 0.000000
15.594193 0.627712 0.000000
15.908913 0.627712 0.000000
16.223633 0.627712 0.000000
16.538355 0.627712 0.000000
16.853075 0.627712 0.000000
17.167797 0.627712 0.000000
17.482517 0.627712 0.000000
17.797239 0.627712 0.000000
18.111959 0.627712 0.000000
18.426680 0.627712 0.000000
18.741402 0.627712 0.000000
-7.065720 0.312992 0.097349
-6.750999 0.312992 0.094631
-6.436278 0.312992 0.093677
-6.121557 0.312992 0.093823
-5.806836 0.312992 0.093811
-5.492115 0.312992 0.093475
-5.177394 0.312992 0.092989
-4.862673 0.312992 0.092824
-4.547952 0.312992 0.092635
-4.233231 0.312992 0.092161
-3.918510 0.312992 0.091959
-3.603789 0.312992 0.091972
-3.289068 0.312992 0.091891
-2.974347 0.312992 0.091814
-2.659626 0.312992 0.092063
-2.344905 0.312992 0.092413
-2.030184 0.312992 0.092263
-1.715463 0.312992 0.091731
-1.400742 0.312992 0.091219
-1.086021 0.312992 0.090971
-0.771300 0.312992 0.091163
-0.456579 0.312992 0.091742
-0.141859 0.312992 0.092062
0.172863 0.312992 0.091930
0.487584 0.312992 0.091832
0.802305 0.312992 0.091853
1.117026 0.312992 0.092128
1.431747 0.312992 0.092285
1.746467 0.312992 0.092392
2.061188 0.312992 0.092819
2.375909 0.312992 0.093496
2.690630 0.312992 0.094186
3.005352 0.312992 0.095183
3.320073 0.312992 0.096249
3.634794 0.312992 0.097393
3.949515 0.312992 0.099275
4.264236 0.312992 0.102152
4.578956 0.312992 0.105555
4.893677 0.312992 0.110517
5.208398 0.312992 0.116905
5.523119 0.312992 0.125701
5.837841 0.312992 0.139067
6.152562 0.312992 0.159456
6.467283 0.312992 0.198899
6.782003 0.312992 0.264674
7.096724 0.312992 0.378192
7.411445 0.312992 0.555801
7.726166 0.312992 0.770353
8.040888 0.312992 0.999661
8.355608 0.312992 1.219508
8.670330 0.312992 1.432665
8.985050 0.312992 1.640560
9.299772 0.312992 1.847688
9.614492 0.312992 2.069381
9.929214 0.312992 2.279856
10.243935 0.312992 2.429107
10.558655 0.312992 2.590130
10.873377 0.312992 2.774870
11.188097 0.312992 2.916112
11.502819 0.312992 2.979876
11.817539 0.312992 3.033329
12.132261 0.312992 3.103689
12.446981 0.312992 3.174290
12.761703 0.312992 3.236212
13.076424 0.312992 3.250299
13.391144 0.312992 3.240401
13.705866 0.312992 3.301456
14.020586 0.312992 3.362265
14.335308 0.312992 3.538527
14.650028 0.312992 3.830151
14.964750 0.312992 0.000000
15.279470 0.312992 0.000000
15.594193 0.312992 0.000000
15.908913 0.312992 0.000000
16.223633 0.312992 0.000000
16.538355 0.312992 0.000000
16.853075 0.312992 0.000000
17.167797 0.312992 0.000000
17.482517 0.312992 0.000000
17.797239 0.312992 0.000000
18.111959 0.312992 0.000000
18.426680 0.312992 0.000000
18.741402 0.312992 0.000000
-7.065720 -0.001732 0.097542
-6.750999 -0.001732 0.094966
-6.436278 -0.001732 0.093917
-6.121557 -0.001732 0.093946
-5.806836 -0.001732 0.093852
-5.492115 -0.001732 0.093379
-5.177394 -0.001732 0.092841
-4.862673 -0.001732 0.092810
-4.547952 -0.001732 0.092734
-4.233231 -0.001732 0.092227
-3.918510 -0.001732 0.092092
-3.603789 -0.001732 0.092190
-3.289068 -0.001732 0.092210
-2.974347 -0.001732 0.092240
-2.659626 -0.001732 0.092435
-2.344905 -0.001732 0.092569
-2.030184 -0.001732 0.092217
-1.715463 -0.001732 0.091444
-1.400742 -0.001732 0.090827
-1.086021 -0.001732 0.090742
-0.771300 -0.001732 0.091111
-0.456579 -0.001732 0.091715
-0.141859 -0.001732 0.091922
0.172863 -0.001732 0.091803
0.487584 -0.001732 0.091792
0.802305 -0.001732 0.091810
1.117026 -0.001732 0.091906
1.431747 -0.001732 0.091994
1.746467 -0.001732 0.092184
2.061188 -0.001732 0.092699
2.375909 -0.001732 0.093319
2.690630 -0.001732 0.093947
3.005352 -0.001732 0.094981
3.320073 -0.001732 0.096208
3.634794 -0.001732 0.097349
3.949515 -0.001732 0.099524
4.264236 -0.001732 0.102653
4.578956 -0.001732 0.106428
4.893677 -0.001732 0.110991
5.208398 -0.001732 0.117487
5.523119 -0.001732 0.126227
5.837841 -0.001732 0.139771
6.152562 -0.001732 0.162774
6.467283 -0.001732 0.199652
6.782003 -0.001732 0.267911
7.096724 -0.001732 0.382884
7.411445 -0.001732 0.573285
7.726166 -0.001732 0.791753
8.040888 -0.001732 1.027064
8.355608 -0.001732 1.232798
8.670330 -0.001732 1.442464
8.985050 -0.001732 1.644882
9.299772 -0.001732 1.868471
9.614492 -0.001732 2.094929
9.929214 -0.001732 2.284027
10.243935 -0.001732 2.442263
10.558655 -0.001732 2.606236
10.873377 -0.001732 2.798636
11.188097 -0.001732 2.923396
11.502819 -0.001732 2.983293
11.817539 -0.001732 3.039763
12.132261 -0.001732 3.100679
12.446981 -0.001732 3.166378
12.761703 -0.001732 3.175752
13.076424 -0.001732 3.225728
13.391144 -0.001732 3.265957
13.705866 -0.001732 3.303221
14.020586 -0.001732 3.404334
14.335308 -0.001732 3.605087
14.650028 -0.001732 3.999322
14.964750 -0.001732 0.000000
15.279470 -0.001732 0.000000
15.594193 -0.001732 0.000000
15.908913 -0.001732 0.000000
16.223633 -0.001732 0.000000
16.538355 -0.001732 0.000000
16.853075 -0.001732 0.000000
17.167797 -0.001732 0.000000
17.482517 -0.001732 0.000000
17.797239 -0.001732 0.000000
18.111959 -0.001732 0.000000
18.426680 -0.001732 0.000000
18.741402 -0.001732 0.000000
-7.065720 -0.316452 0.094795
-6.750999 -0.316452 0.095236
-6.436278 -0.316452 0.094172
-6.121557 -0.316452 0.094181
-5.806836 -0.316452 0.094103
-5.492115 -0.316452 0.093615
-5.177394 -0.316452 0.092972
-4.862673 -0.316452 0.092968
-4.547952 -0.316452 0.092993
-4.233231 -0.316452 0.092647
-3.918510 -0.316452 0.092469
-3.603789 -0.316452 0.092584
-3.289068 -0.316452 0.092642
-2.974347 -0.316452 0.092711
-2.659626 -0.316452 0.092867
-2.344905 -0.316452 0.092824
-2.030184 -0.316452 0.092402
-1.715463 -0.316452 0.091530
-1.400742 -0.316452 0.090913
-1.086021 -0.316452 0.091022
-0.771300 -0.316452 0.091513
-0.456579 -0.316452 0.091980
-0.141859 -0.316452 0.092116
0.172863 -0.316452 0.091949
0.487584 -0.316452 0.091958
0.802305 -0.316452 0.091933
1.117026 -0.316452 0.091886
1.431747 -0.316452 0.091922
1.746467 -0.316452 0.092149
2.061188 -0.316452 0.092751
2.375909 -0.316452 0.093419
2.690630 -0.316452 0.094065
3.005352 -0.316452 0.095068
3.320073 -0.316452 0.096346
3.634794 -0.316452 0.097890
3.949515 -0.316452 0.100504
4.264236 -0.316452 0.103286
4.578956 -0.316452 0.106960
4.893677 -0.316452 0.112062
5.208398 -0.316452 0.118332
5.523119 -0.316452 0.126928
5.837841 -0.316452 0.141317
6.152562 -0.316452 0.164750
6.467283 -0.316452 0.204220
6.782003 -0.316452 0.276819
7.096724 -0.316452 0.395027
7.411445 -0.316452 0.583221
7.726166 -0.316452 0.812673
8.040888 -0.316452 1.043888
8.355608 -0.316452 1.275500
8.670330 -0.316452 1.469522
8.985050 -0.316452 1.663652
9.299772 -0.316452 1.891815
9.614492 -0.316452 2.098547
9.929214 -0.316452 2.289121
10.243935 -0.316452 2.458236
10.558655 -0.316452 2.627047
10.873377 -0.316452 2.810069
11.188097 -0.316452 2.926981
11.502819 -0.316452 2.995092
11.817539 -0.316452 3.040541
12.132261 -0.316452 3.116605
12.446981 -0.316452 3.211744
12.761703 -0.316452 3.194286
13.076424 -0.316452 3.204528
13.391144 -0.316452 3.281915
13.705866 -0.316452 3.342470
14.020586 -0.316452 3.458578
14.335308 -0.316452 3.648665
14.650028 -0.316452 4.114130
14.964750 -0.316452 0.000000
15.279470 -0.316452 0.000000
15.594193 -0.316452 0.000000
15.908913 -0.316452 0.000000
16.223633 -0.316452 0.000000
16.538355 -0.316452 0.000000
16.853075 -0.316452 0.000000
17.167797 -0.316452 0.000000
17.482517 -0.316452 0.000000
17.797239 -0.316452 0.000000
18.111959 -0.316452 0.000000
18.426680 -0.316452 0.000000
18.741402 -0.316452 0.000000
-7.065720 -0.631172 0.094982
-6.750999 -0.631172 0.094219
-6.436278 -0.631172 0.094858
-6.121557 -0.631172 0.095069
-5.806836 -0.631172 0.095057
-5.492115 -0.631172 0.094559
-5.177394 -0.631172 0.093817
-4.862673 -0.631172 0.093817
-4.547952 -0.631172 0.093937
-4.233231 -0.631172 0.093669
-3.918510 -0.631172 0.093453
-3.603789 -0.631172 0.093518
-3.289068 -0.631172 0.093670
-2.974347 -0.631172 0.093726
-2.659626 -0.631172 0.093687
-2.344905 -0.631172 0.093465
-2.030184 -0.631172 0.092974
-1.715463 -0.631172 0.092249
-1.400742 -0.631172 0.091781
-1.086021 -0.631172 0.092098
-0.771300 -0.631172 0.092652
-0.456579 -0.631172 0.093056
-0.141859 -0.631172 0.093137
0.172863 -0.631172 0.092905
0.487584 -0.631172 0.092801
0.802305 -0.631172 0.092753
1.117026 -0.631172 0.092562
1.431747 -0.631172 0.092453
1.746467 -0.631172 0.092596
2.061188 -0.631172 0.093185
2.375909 -0.631172 0.093916
2.690630 -0.631172 0.094708
3.005352 -0.631172 0.095637
3.320073 -0.631172 0.097090
3.634794 -0.631172 0.099019
3.949515 -0.631172 0.101933
4.264236 -0.631172 0.105115
4.578956 -0.631172 0.108607
4.893677 -0.631172 0.113622
5.208398 -0.631172 0.120063
5.523119 -0.631172 0.128124
5.837841 -0.631172 0.142695
6.152562 -0.631172 0.168047
6.467283 -0.631172 0.212103
6.782003 -0.631172 0.286253
7.096724 -0.631172 0.411967
7.411445 -0.631172 0.604668
7.726166 -0.631172 0.838809
8.040888 -0.631172 1.077460
8.355608 -0.631172 1.309813
8.670330 -0.631172 1.512473
8.985050 -0.631172 1.716419
9.299772 -0.631172 1.942455
9.614492 -0.631172 2.156271
9.929214 -0.631172 2.323966
10.243935 -0.631172 2.493567
10.558655 -0.631172 2.672751
10.873377 -0.631172 2.830665
11.188097 -0.631172 2.971888
11.502819 -0.631172 3.028593
11.817539 -0.631172 3.108757
12.132261 -0.631172 3.172662
12.446981 -0.631172 3.277318
12.761703 -0.631172 3.298757
13.076424 -0.631172 3.270397
13.391144 -0.631172 3.304884
13.705866 -0.631172 3.433730
14.020586 -0.631172 3.584733
14.335308 -0.631172 3.814855
14.650028 -0.631172 4.170101
14.964750 -0.631172 0.000000
15.279470 -0.631172 0.000000
15.594193 -0.631172 0.000000
15.908913 -0.631172 0.000000
16.223633 -0.631172 0.000000
16.538355 -0.631172 0.000000
16.853075 -0.631172 0.000000
17.167797 -0.631172 0.000000
17.482517 -0.631172 0.000000
17.797239 -0.631172 0.000000
18.111959 -0.631172 0.000000
18.426680 -0.631172 0.000000
18.741402 -0.631172 0.000000
-7.065720 -0.945892 0.042678
-6.750999 -0.945892 0.046823
-6.436278 -0.945892 0.052196
-6.121557 -0.945892 0.060239
-5.806836 -0.945892 0.067655
-5.492115 -0.945892 0.075678
-5.177394 -0.945892 0.083663
-4.862673 -0.945892 0.090481
-4.547952 -0.945892 0.094401
-4.233231 -0.945892 0.095162
-3.918510 -0.945892 0.095110
-3.603789 -0.945892 0.095175
-3.289068 -0.945892 0.095312
-2.974347 -0.945892 0.095300
-2.659626 -0.945892 0.095081
-2.344905 -0.945892 0.094700
-2.030184 -0.945892 0.094427
-1.715463 -0.945892 0.093909
-1.400742 -0.945892 0.093754
-1.086021 -0.945892 0.094239
-0.771300 -0.945892 0.094901
-0.456579 -0.945892 0.095302
-0.141859 -0.945892 0.095290
0.172863 -0.945892 0.094905
0.487584 -0.945892 0.094529
0.802305 -0.945892 0.094215
1.117026 -0.945892 0.093860
1.431747 -0.945892 0.093591
1.746467 -0.945892 0.093547
2.061188 -0.945892 0.094063
2.375909 -0.945892 0.095008
2.690630 -0.945892 0.096034
3.005352 -0.945892 0.097259
3.320073 -0.945892 0.098979
3.634794 -0.945892 0.101278
3.949515 -0.945892 0.104734
4.264236 -0.945892 0.107961
4.578956 -0.945892 0.111375
4.893677 -0.945892 0.116167
5.208398 -0.945892 0.122858
5.523119 -0.945892 0.131565
5.837841 -0.945892 0.146716
6.152562 -0.945892 0.171323
6.467283 -0.945892 0.218783
6.782003 -0.945892 0.298413
7.096724 -0.945892 0.434092
7.411445 -0.945892 0.635672
7.726166 -0.945892 0.874505
8.040888 -0.945892 1.112855
8.355608 -0.945892 1.338454
8.670330 -0.945892 1.563777
8.985050 -0.945892 1.776541
9.299772 -0.945892 2.005717
9.614492 -0.945892 2.223595
9.929214 -0.945892 2.376459
10.243935 -0.945892 2.545429
10.558655 -0.945892 2.740132
10.873377 -0.945892 2.896354
11.188097 -0.945892 3.041663
11.502819 -0.945892 3.106441
11.817539 -0.945892 3.206086
12.132261 -0.945892 3.335225
12.446981 -0.945892 3.371826
12.761703 -0.945892 3.389016
13.076424 -0.945892 3.444499
13.391144 -0.945892 3.425256
13.705866 -0.945892 3.586378
14.020586 -0.945892 3.716491
14.335308 -0.945892 3.967907
14.650028 -0.945892 3.451527
14.964750 -0.945892 0.000000
15.279470 -0.945892 0.000000
15.594193 -0.945892 0.000000
15.908913 -0.945892 0.000000
16.223633 -0.945892 0.000000
16.538355 -0.945892 0.000000
16.853075 -0.945892 0.000000
17.167797 -0.945892 0.000000
17.482517 -0.945892 0.000000
17.797239 -0.945892 0.000000
18.111959 -0.945892 0.000000
18.426680 -0.945892 0.000000
18.741402 -0.945892 0.000000
-7.065720 -1.260616 0.000000
-6.750999 -1.260616 0.000000
-6.436278 -1.260616 0.000000
-6.121557 -1.260616 0.000000
-5.806836 -1.260616 0.000000
-5.492115 -1.260616 0.000000
-5.177394 -1.260616 0.000000
-4.862673 -1.260616 0.000000
-4.547952 -1.260616 0.000000
-4.233231 -1.260616 0.000000
-3.918510 -1.260616 0.000000
-3.603789 -1.260616 0.000000
-3.289068 -1.260616 0.000000
-2.974347 -1.260616 0.000000
-2.659626 -1.260616 0.000000
-2.344905 -1.260616 0.000000
-2.030184 -1.260616 0.000000
-1.715463 -1.260616 0.000000
-1.400742 -1.260616 0.000000
-1.086021 -1.260616 0.000000
-0.771300 -1.260616 0.000000
-0.456579 -1.260616 0.000000
-0.141859 -1.260616 0.000000
0.172863 -1.260616 0.000000
0.487584 -1.260616 0.000000
0.802305 -1.260616 0.000000
1.117026 -1.260616 0.000000
1.431747 -1.260616 0.000000
1.746467 -1.260616 0.000000
2.061188 -1.260616 0.000000
2.375909 -1.260616 0.000000
2.690630 -1.260616 0.000000
3.005352 -1.260616 0.000000
3.320073 -1.260616 0.000000
3.634794 -1.260616 0.000000
3.949515 -1.260616 0.000000
4.264236 -1.260616 0.000000
4.578956 -1.260616 0.000000
4.893677 -1.260616 0.000000
5.208398 -1.260616 0.000000
5.523119 -1.260616 0.000000
5.837841 -1.260616 0.024554
6.152562 -1.260616 0.215953
6.467283 -1.260616 0.267612
6.782003 -1.260616 0.370051
7.096724 -1.260616 0.424511
7.411445 -1.260616 0.538001
7.726166 -1.260616 0.562177
8.040888 -1.260616 0.634741
8.355608 -1.260616 0.741458
8.670330 -1.260616 0.932812
8.985050 -1.260616 1.150903
9.299772 -1.260616 1.463870
9.614492 -1.260616 1.778625
9.929214 -1.260616 2.118544
10.243935 -1.260616 2.383858
10.558655 -1.260616 2.671772
10.873377 -1.260616 2.913109
11.188097 -1.260616 3.090086
11.502819 -1.260616 3.168866
11.817539 -1.260616 3.298666
12.132261 -1.260616 3.431155
12.446981 -1.260616 3.494170
12.761703 -1.260616 3.546210
13.076424 -1.260616 3.557513
13.391144 -1.260616 3.575389
13.705866 -1.260616 3.719870
14.020586 -1.260616 3.858616
14.335308 -1.260616 4.013264
14.650028 -1.260616 0.000000
14.964750 -1.260616 0.000000
15.279470 -1.260616 0.000000
15.594193 -1.260616 0.000000
15.908913 -1.260616 0.000000
16.223633 -1.260616 0.000000
16.538355 -1.260616 0.000000
16.853075 -1.260616 0.000000
17.167797 -1.260616 0.000000
17.482517 -1.260616 0.000000
17.797239 -1.260616 0.000000
18.111959 -1.260616 0.000000
18.426680 -1.260616 0.000000
18.741402 -1.260616 0.000000
-7.065720 -1.575336 0.000000
-6.750999 -1.575336 0.000000
-6.436278 -1.575336 0.000000
-6.121557 -1.575336 0.000000
-5.806836 -1.575336 0.000000
-5.492115 -1.575336 0.000000
-5.177394 -1.575336 0.000000
-4.862673 -1.575336 0.000000
-4.547952 -1.575336 0.000000
-4.233231 -1.575336 0.000000
-3.918510 -1.575336 0.000000
-3.603789 -1.575336 0.000000
-3.289068 -1.575336 0.000000
-2.974347 -1.575336 0.000000
-2.659626 -1.575336 0.000000
-2.344905 -1.575336 0.000000
-2.030184 -1.575336 0.000000
-1.715463 -1.575336 0.000000
-1.400742 -1.575336 0.000000
-1.086021 -1.575336 0.000000
-0.771300 -1.575336 0.000000
-0.456579 -1.575336 0.000000
-0.141859 -1.575336 0.000000
0.172863 -1.575336 0.000000
0.487584 -1.575336 0.000000
0.802305 -1.575336 0.000000
1.117026 -1.575336 0.000000
1.431747 -1.575336 0.000000
1.746467 -1.575336 0.000000
2.061188 -1.575336 0.000000
2.375909 -1.575336 0.000000
2.690630 -1.575336 0.000000
3.005352 -1.575336 0.000000
3.320073 -1.575336 0.000000
3.634794 -1.575336 0.000000
3.949515 -1.575336 0.000000
4.264236 -1.575336 0.000000
4.578956 -1.575336 0.000000
4.893677 -1.575336 0.000000
5.208398 -1.575336 0.000000
5.523119 -1.575336 0.000000
5.837841 -1.575336 0.000000
6.152562 -1.575336 0.000000
6.467283 -1.575336 0.000000
6.782003 -1.575336 0.000000
7.096724 -1.575336 0.000000
7.411445 -1.575336 0.000000
7.726166 -1.575336 0.000000
8.040888 -1.575336 0.000000
8.355608 -1.575336 0.000000
8.670330 -1.575336 0.000000
8.985050 -1.575336 5.314215
9.299772 -1.575336 2.705680
9.614492 -1.575336 1.298934
9.929214 -1.575336 0.947612
10.243935 -1.575336 0.953317
10.558655 -1.575336 0.972339
10.873377 -1.575336 0.976716
11.188097 -1.575336 1.103035
11.502819 -1.575336 1.179242
11.817539 -1.575336 1.325763
12.132261 -1.575336 1.516106
12.446981 -1.575336 1.806203
12.761703 -1.575336 2.070507
13.076424 -1.575336 2.364480
13.391144 -1.575336 2.601021
13.705866 -1.575336 2.954974
14.020586 -1.575336 3.219825
14.335308 -1.575336 3.414894
14.650028 -1.575336 0.000000
14.964750 -1.575336 0.000000
15.279470 -1.575336 0.000000
15.594193 -1.575336 0.000000
15.908913 -1.575336 0.000000
16.223633 -1.575336 0.000000
16.538355 -1.575336 0.000000
16.853075 -1.575336 0.000000
17.167797 -1.575336 0.000000
17.482517 -1.575336 0.000000
17.797239 -1.575336 0.000000
18.111959 -1.575336 0.000000
18.426680 -1.575336 0.000000
18.741402 -1.575336 0.000000
-7.065720 -1.890057 0.000000
-6.750999 -1.890057 0.000000
-6.436278 -1.890057 0.000000
-6.121557 -1.890057 0.000000
-5.806836 -1.890057 0.000000
-5.492115 -1.890057 0.000000
-5.177394 -1.890057 0.000000
-4.862673 -1.890057 0.000000
-4.547952 -1.890057 0.000000
-4.233231 -1.890057 0.000000
-3.918510 -1.890057 0.000000
-3.603789 -1.890057 0.000000
-3.289068 -1.890057 0.000000
-2.974347 -1.890057 0.000000
-2.659626 -1.890057 0.000000
-2.344905 -1.890057 0.000000
-2.030184 -1.890057 0.000000
-1.715463 -1.890057 0.000000
-1.400742 -1.890057 0.000000
-1.086021 -1.890057 0.000000
-0.771300 -1.890057 0.000000
-0.456579 -1.890057 0.000000
-0.141859 -1.890057 0.000000
0.172863 -1.890057 0.000000
0.487584 -1.890057 0.000000
0.802305 -1.890057 0.000000
1.117026 -1.890057 0.000000
1.431747 -1.890057 0.000000
1.746467 -1.890057 0.000000
2.061188 -1.890057 0.000000
2.375909 -1.890057 0.000000
2.690630 -1.890057 0.000000
3.005352 -1.890057 0.000000
3.320073 -1.890057 0.000000
3.634794 -1.890057 0.000000
3.949515 -1.890057 0.000000
4.264236 -1.890057 0.000000
4.578956 -1.890057 0.000000
4.893677 -1.890057 0.000000
5.208398 -1.890057 0.000000
5.523119 -1.890057 0.000000
5.837841 -1.890057 0.000000
6.152562 -1.890057 0.000000
6.467283 -1.890057 0.000000
6.782003 -1.890057 0.000000
7.096724 -1.890057 0.000000
7.411445 -1.890057 0.000000
7.726166 -1.890057 0.000000
8.040888 -1.890057 0.000000
8.355608 -1.890057 0.000000
8.670330 -1.890057 0.000000
8.985050 -1.890057 0.000000
9.299772 -1.890057 0.000000
9.614492 -1.890057 0.000000
9.929214 -1.890057 0.000000
10.243935 -1.890057 0.000000
10.558655 -1.890057 0.000000
10.873377 -1.890057 0.000000
11.188097 -1.890057 0.000000
11.502819 -1.890057 2.279636
11.817539 -1.890057 2.049116
12.132261 -1.890057 2.308352
12.446981 -1.890057 1.270432
12.761703 -1.890057 1.065781
13.076424 -1.890057 1.776471
13.391144 -1.890057 1.094279
13.705866 -1.890057 1.024963
14.020586 -1.890057 1.059645
14.335308 -1.890057 0.854859
14.650028 -1.890057 0.000000
14.964750 -1.890057 0.000000
15.279470 -1.890057 0.000000
15.594193 -1.890057 0.000000
15.908913 -1.890057 0.000000
16.223633 -1.890057 0.000000
16.538355 -1.890057 0.000000
16.853075 -1.890057 0.000000
17.167797 -1.890057 0.000000
17.482517 -1.890057 0.000000
17.797239 -1.890057 0.000000
18.111959 -1.890057 0.000000
18.426680 -1.890057 0.000000
18.741402 -1.890057 0.000000
-7.065720 -2.204777 0.000000
-6.750999 -2.204777 0.000000
-6.436278 -2.204777 0.000000
-6.121557 -2.204777 0.000000
-5.806836 -2.204777 0.000000
-5.492115 -2.204777 0.000000
-5.177394 -2.204777 0.000000
-4.862673 -2.204777 0.000000
-4.547952 -2.204777 0.000000
-4.233231 -2.204777 0.000000
-3.918510 -2.204777 0.000000
-3.603789 -2.204777 0.000000
-3.289068 -2.204777 0.000000
-2.974347 -2.204777 0.000000
-2.659626 -2.204777 0.000000
-2.344905 -2.204777 0.000000
-2.030184 -2.204777 0.000000
-1.715463 -2.204777 0.000000
-1.400742 -2.204777 0.000000
-1.086021 -2.204777 0.000000
-0.771300 -2.204777 0.000000
-0.456579 -2.204777 0.000000
-0.141859 -2.204777 0.000000
0.172863 -2.204777 0.000000
0.487584 -2.204777 0.000000
0.802305 -2.204777 0.000000
1.117026 -2.204777 0.000000
1.431747 -2.204777 0.000000
1.746467 -2.204777 0.000000
2.061188 -2.204777 0.000000
2.375909 -2.204777 0.000000
2.690630 -2.204777 0.000000
3.005352 -2.204777 0.000000
3.320073 -2.204777 0.000000
3.634794 -2.204777 0.000000
3.949515 -2.204777 0.000000
4.264236 -2.204777 0.000000
4.578956 -2.204777 0.000000
4.893677 -2.204777 0.000000
5.208398 -2.204777 0.000000
5.523119 -2.204777 0.000000
5.837841 -2.204777 0.000000
6.152562 -2.204777 0.000000
6.467283 -2.204777 0.000000
6.782003 -2.204777 0.000000
7.096724 -2.204777 0.000000
7.411445 -2.204777 0.000000
7.726166 -2.204777 0.000000
8.040888 -2.204777 0.000000
8.355608 -2.204777 0.000000
8.670330 -2.204777 0.000000
8.985050 -2.204777 0.000000
9.299772 -2.204777 0.000000
9.614492 -2.204777 0.000000
9.929214 -2.204777 0.000000
10.243935 -2.204777 0.000000
10.558655 -2.204777 0.000000
10.873377 -2.204777 0.000000
11.188097 -2.204777 0.000000
11.502819 -2.204777 0.000000
11.817539 -2.204777 0.000000
12.132261 -2.204777 0.000000
12.446981 -2.204777 0.000000
12.761703 -2.204777 0.000000
13.076424 -2.204777 0.000000
13.391144 -2.204777 0.000000
13.705866 -2.204777 0.000000
14.020586 -2.204777 0.000000
14.335308 -2.204777 0.000000
14.650028 -2.204777 0.000000
14.964750 -2.204777 0.000000
15.279470 -2.204777 0.000000
15.594193 -2.204777 0.000000
15.908913 -2.204777 0.000000
16.223633 -2.204777 0.000000
16.538355 -2.204777 0.000000
16.853075 -2.204777 0.000000
17.167797 -2.204777 0.000000
17.482517 -2.204777 0.000000
17.797239 -2.204777 0.000000
18.111959 -2.204777 0.000000
18.426680 -2.204777 0.000000
18.741402 -2.204777 0.000000
